patch_n	x	y	stress_yy
0	 0.000000000000000e+00	 0.000000000000000e+00	 1.115321792285386e+01
0	 0.000000000000000e+00	 7.142881171115513e-01	 1.094385062600781e+01
0	 0.000000000000000e+00	 1.428580650948409e+00	 1.073742761354196e+01
0	 0.000000000000000e+00	 2.142877018163878e+00	 1.053892658837553e+01
0	 0.000000000000000e+00	 2.857176635411265e+00	 1.035332545144973e+01
0	 0.000000000000000e+00	 3.571478919343873e+00	 1.018560230171271e+01
0	 0.000000000000000e+00	 4.285783286615008e+00	 1.004073543610690e+01
0	 0.000000000000000e+00	 5.000089153877976e+00	 9.923703349558885e+00
0	 0.000000000000000e+00	 5.714395937786080e+00	 9.839484734971629e+00
0	 0.000000000000000e+00	 6.428703054992629e+00	 9.793058483219102e+00
0	 0.000000000000000e+00	 7.143009922150927e+00	 9.789403683143403e+00
0	 7.142881171115513e-01	 0.000000000000000e+00	 1.095488451838283e+01
0	 7.142881171115515e-01	 7.142881171115515e-01	 1.077617494665767e+01
0	 7.142881171115516e-01	 1.428580650948409e+00	 1.060357373744678e+01
0	 7.142881171115512e-01	 2.142877018163878e+00	 1.044039877011872e+01
0	 7.142881171115510e-01	 2.857176635411264e+00	 1.028996807746668e+01
0	 7.142881171115515e-01	 3.571478919343873e+00	 1.015559984569665e+01
0	 7.142881171115515e-01	 4.285783286615009e+00	 1.004061241441759e+01
0	 7.142881171115512e-01	 5.000089153877973e+00	 9.948324276633425e+00
0	 7.142881171115514e-01	 5.714395937786080e+00	 9.882054078736907e+00
0	 7.142881171115514e-01	 6.428703054992629e+00	 9.845120620505430e+00
0	 7.142881171115515e-01	 7.143009922150928e+00	 9.840842855098634e+00
0	 1.428580650948409e+00	 0.000000000000000e+00	 1.078048365538625e+01
0	 1.428580650948409e+00	 7.142881171115514e-01	 1.062830717909923e+01
0	 1.428580650948409e+00	 1.428580650948410e+00	 1.048500805560718e+01
0	 1.428580650948409e+00	 2.142877018163877e+00	 1.035247316031803e+01
0	 1.428580650948409e+00	 2.857176635411265e+00	 1.023258948372550e+01
0	 1.428580650948409e+00	 3.571478919343873e+00	 1.012724413140017e+01
0	 1.428580650948409e+00	 4.285783286615007e+00	 1.003832432398200e+01
0	 1.428580650948410e+00	 5.000089153877976e+00	 9.967717397174216e+00
0	 1.428580650948410e+00	 5.714395937786082e+00	 9.917310801738607e+00
0	 1.428580650948410e+00	 6.428703054992631e+00	 9.888992103492278e+00
0	 1.428580650948409e+00	 7.143009922150926e+00	 9.884648983305762e+00
0	 2.142877018163878e+00	 0.000000000000000e+00	 1.062826268961460e+01
0	 2.142877018163878e+00	 7.142881171115512e-01	 1.049913970629456e+01
0	 2.142877018163878e+00	 1.428580650948410e+00	 1.038117768514201e+01
0	 2.142877018163878e+00	 2.142877018163878e+00	 1.027506131264721e+01
0	 2.142877018163879e+00	 2.857176635411264e+00	 1.018147535786332e+01
0	 2.142877018163879e+00	 3.571478919343874e+00	 1.010110467239980e+01
0	 2.142877018163879e+00	 4.285783286615009e+00	 1.003463419041695e+01
0	 2.142877018163879e+00	 5.000089153877975e+00	 9.982748928621429e+00
0	 2.142877018163880e+00	 5.714395937786082e+00	 9.946133986262822e+00
0	 2.142877018163878e+00	 6.428703054992627e+00	 9.925474545131109e+00
0	 2.142877018163878e+00	 7.143009922150926e+00	 9.921455869555302e+00
0	 2.857176635411265e+00	 0.000000000000000e+00	 1.049646894817256e+01
0	 2.857176635411264e+00	 7.142881171115510e-01	 1.038756490943377e+01
0	 2.857176635411265e+00	 1.428580650948409e+00	 1.029152976007716e+01
0	 2.857176635411264e+00	 2.142877018163879e+00	 1.020807480929301e+01
0	 2.857176635411264e+00	 2.857176635411264e+00	 1.013691142168456e+01
0	 2.857176635411264e+00	 3.571478919343873e+00	 1.007775101726353e+01
0	 2.857176635411265e+00	 4.285783286615009e+00	 1.003030507144636e+01
0	 2.857176635411265e+00	 5.000089153877974e+00	 9.994285115051026e+00
0	 2.857176635411265e+00	 5.714395937786081e+00	 9.969402734294675e+00
0	 2.857176635411265e+00	 6.428703054992630e+00	 9.955369570791806e+00
0	 2.857176635411264e+00	 7.143009922150927e+00	 9.951897321553229e+00
0	 3.571478919343873e+00	 0.000000000000000e+00	 1.038334972952123e+01
0	 3.571478919343873e+00	 7.142881171115515e-01	 1.029247516793523e+01
0	 3.571478919343873e+00	 1.428580650948409e+00	 1.021551143134459e+01
0	 3.571478919343873e+00	 2.142877018163878e+00	 1.015142526095324e+01
0	 3.571478919343873e+00	 2.857176635411264e+00	 1.009918343115852e+01
0	 3.571478919343874e+00	 3.571478919343874e+00	 1.005775274954840e+01
0	 3.571478919343873e+00	 4.285783286615009e+00	 1.002610005689904e+01
0	 3.571478919343873e+00	 5.000089153877975e+00	 1.000319222717287e+01
0	 3.571478919343873e+00	 5.714395937786081e+00	 9.987996167516922e+00
0	 3.571478919343873e+00	 6.428703054992628e+00	 9.979478818261711e+00
0	 3.571478919343873e+00	 7.143009922150927e+00	 9.976607152920433e+00
0	 4.285783286615008e+00	 0.000000000000000e+00	 1.028715230347989e+01
0	 4.285783286615009e+00	 7.142881171115514e-01	 1.021276285944579e+01
0	 4.285783286615007e+00	 1.428580650948409e+00	 1.015256986678131e+01
0	 4.285783286615009e+00	 2.142877018163879e+00	 1.010502430683515e+01
0	 4.285783286615009e+00	 2.857176635411266e+00	 1.006857717641745e+01
0	 4.285783286615008e+00	 3.571478919343873e+00	 1.004167948779835e+01
0	 4.285783286615008e+00	 4.285783286615008e+00	 1.002278226870674e+01
0	 4.285783286615009e+00	 5.000089153877976e+00	 1.001033656232912e+01
0	 4.285783286615008e+00	 5.714395937786080e+00	 1.000279342730873e+01
0	 4.285783286615008e+00	 6.428703054992630e+00	 9.998603937744885e+00
0	 4.285783286615009e+00	 7.143009922150927e+00	 9.996219183192391e+00
0	 5.000089153877976e+00	 0.000000000000000e+00	 1.020612391122752e+01
0	 5.000089153877975e+00	 7.142881171115513e-01	 1.014732035984098e+01
0	 5.000089153877975e+00	 1.428580650948409e+00	 1.010215225112873e+01
0	 5.000089153877975e+00	 2.142877018163879e+00	 1.006878361465414e+01
0	 5.000089153877976e+00	 2.857176635411265e+00	 1.004537848175495e+01
0	 5.000089153877976e+00	 3.571478919343873e+00	 1.003010088554275e+01
0	 5.000089153877976e+00	 4.285783286615009e+00	 1.002111486090268e+01
0	 5.000089153877975e+00	 5.000089153877974e+00	 1.001658444449301e+01
0	 5.000089153877975e+00	 5.714395937786080e+00	 1.001467367474476e+01
0	 5.000089153877976e+00	 6.428703054992630e+00	 1.001354659186147e+01
0	 5.000089153877976e+00	 7.143009922150928e+00	 1.001136723781881e+01
0	 5.714395937786080e+00	 0.000000000000000e+00	 1.013851176530392e+01
0	 5.714395937786081e+00	 7.142881171115514e-01	 1.009504004322517e+01
0	 5.714395937786080e+00	 1.428580650948410e+00	 1.006370578603211e+01
0	 5.714395937786081e+00	 2.142877018163879e+00	 1.004261488063286e+01
0	 5.714395937786080e+00	 2.857176635411265e+00	 1.002987320562485e+01
0	 5.714395937786081e+00	 3.571478919343873e+00	 1.002358663129506e+01
0	 5.714395937786080e+00	 4.285783286615009e+00	 1.002186101962041e+01
0	 5.714395937786081e+00	 5.000089153877976e+00	 1.002280222426785e+01
0	 5.714395937786080e+00	 5.714395937786080e+00	 1.002451609059441e+01
0	 5.714395937786080e+00	 6.428703054992627e+00	 1.002510845564723e+01
0	 5.714395937786082e+00	 7.143009922150927e+00	 1.002268514816337e+01
0	 6.428703054992629e+00	 0.000000000000000e+00	 1.008256304961046e+01
0	 6.428703054992630e+00	 7.142881171115513e-01	 1.005481428193172e+01
0	 6.428703054992631e+00	 1.428580650948410e+00	 1.003667769004032e+01
0	 6.428703054992629e+00	 2.142877018163878e+00	 1.002642982950061e+01
0	 6.428703054992629e+00	 2.857176635411265e+00	 1.002234724064047e+01
0	 6.428703054992629e+00	 3.571478919343873e+00	 1.002270644855218e+01
0	 6.428703054992629e+00	 4.285783286615008e+00	 1.002578396309316e+01
0	 6.428703054992628e+00	 5.000089153877976e+00	 1.002985627888652e+01
0	 6.428703054992628e+00	 5.714395937786080e+00	 1.003319987532141e+01
0	 6.428703054992631e+00	 6.428703054992630e+00	 1.003409121655323e+01
0	 6.428703054992631e+00	 7.143009922150928e+00	 1.003080675150356e+01
0	 7.143009922150927e+00	 0.000000000000000e+00	 1.003652491941052e+01
0	 7.143009922150926e+00	 7.142881171115513e-01	 1.002553544652312e+01
0	 7.143009922150926e+00	 1.428580650948409e+00	 1.002051519860575e+01
0	 7.143009922150927e+00	 2.142877018163878e+00	 1.002014021449314e+01
0	 7.143009922150926e+00	 2.857176635411264e+00	 1.002308651357436e+01
0	 7.143009922150926e+00	 3.571478919343873e+00	 1.002803009579405e+01
0	 7.143009922150926e+00	 4.285783286615008e+00	 1.003364694165342e+01
0	 7.143009922150927e+00	 5.000089153877976e+00	 1.003861301221108e+01
0	 7.143009922150926e+00	 5.714395937786080e+00	 1.004160424908356e+01
0	 7.143009922150927e+00	 6.428703054992628e+00	 1.004129657444567e+01
0	 7.143009922150927e+00	 7.143009922150927e+00	 1.003636589103056e+01
0	 0.000000000000000e+00	 7.143009922150927e+00	 9.789403683143405e+00
0	 0.000000000000000e+00	 7.857266066626719e+00	 9.810263312311248e+00
0	 0.000000000000000e+00	 8.571521461152161e+00	 9.833424584688146e+00
0	 0.000000000000000e+00	 9.285776189055182e+00	 9.857929022376300e+00
0	 0.000000000000000e+00	 1.000003033366371e+01	 9.882818150339180e+00
0	 0.000000000000000e+00	 1.071428397830567e+01	 9.907133496401563e+00
0	 0.000000000000000e+00	 1.142853720630899e+01	 9.929916591249539e+00
0	 0.000000000000000e+00	 1.214279010100160e+01	 9.950208968430568e+00
0	 0.000000000000000e+00	 1.285704274571142e+01	 9.967052164353490e+00
0	 0.000000000000000e+00	 1.357129522376639e+01	 9.979487718288553e+00
0	 0.000000000000000e+00	 1.428554761849444e+01	 9.986557172367409e+00
0	 7.142881171115515e-01	 7.143009922150928e+00	 9.840842855098634e+00
0	 7.142881171115513e-01	 7.857266066626721e+00	 9.854981021629769e+00
0	 7.142881171115513e-01	 8.571521461152166e+00	 9.870676051252623e+00
0	 7.142881171115514e-01	 9.285776189055184e+00	 9.887315288740808e+00
0	 7.142881171115514e-01	 1.000003033366371e+01	 9.904286080619244e+00
0	 7.142881171115513e-01	 1.071428397830567e+01	 9.920975775164180e+00
0	 7.142881171115512e-01	 1.142853720630899e+01	 9.936771722403199e+00
0	 7.142881171115512e-01	 1.214279010100160e+01	 9.951061274115254e+00
0	 7.142881171115512e-01	 1.285704274571143e+01	 9.963231783830652e+00
0	 7.142881171115514e-01	 1.357129522376639e+01	 9.972670606831134e+00
0	 7.142881171115514e-01	 1.428554761849444e+01	 9.978765100149790e+00
0	 1.428580650948409e+00	 7.143009922150926e+00	 9.884648983305762e+00
0	 1.428580650948410e+00	 7.857266066626718e+00	 9.893458211779459e+00
0	 1.428580650948409e+00	 8.571521461152161e+00	 9.903127942647039e+00
0	 1.428580650948409e+00	 9.285776189055182e+00	 9.913341280911901e+00
0	 1.428580650948409e+00	 1.000003033366371e+01	 9.923781332421076e+00
0	 1.428580650948409e+00	 1.071428397830567e+01	 9.934131203865254e+00
0	 1.428580650948409e+00	 1.142853720630899e+01	 9.944074002778796e+00
0	 1.428580650948409e+00	 1.214279010100159e+01	 9.953292837539733e+00
0	 1.428580650948410e+00	 1.285704274571143e+01	 9.961470817369783e+00
0	 1.428580650948410e+00	 1.357129522376639e+01	 9.968291052334342e+00
0	 1.428580650948410e+00	 1.428554761849444e+01	 9.973436653342537e+00
0	 2.142877018163878e+00	 7.143009922150926e+00	 9.921455869555302e+00
0	 2.142877018163879e+00	 7.857266066626722e+00	 9.926128008355054e+00
0	 2.142877018163878e+00	 8.571521461152162e+00	 9.931037296687951e+00
0	 2.142877018163879e+00	 9.285776189055184e+00	 9.936112539072246e+00
0	 2.142877018163878e+00	 1.000003033366371e+01	 9.941282540147267e+00
0	 2.142877018163878e+00	 1.071428397830566e+01	 9.946476104673401e+00
0	 2.142877018163878e+00	 1.142853720630899e+01	 9.951622037532125e+00
0	 2.142877018163878e+00	 1.214279010100160e+01	 9.956649143725990e+00
0	 2.142877018163878e+00	 1.285704274571142e+01	 9.961486228378634e+00
0	 2.142877018163879e+00	 1.357129522376639e+01	 9.966062096734785e+00
0	 2.142877018163878e+00	 1.428554761849444e+01	 9.970305554160234e+00
0	 2.857176635411264e+00	 7.143009922150927e+00	 9.951897321553229e+00
0	 2.857176635411264e+00	 7.857266066626720e+00	 9.953423538035405e+00
0	 2.857176635411264e+00	 8.571521461152162e+00	 9.954661149098316e+00
0	 2.857176635411264e+00	 9.285776189055182e+00	 9.955734599541547e+00
0	 2.857176635411265e+00	 1.000003033366371e+01	 9.956768333731054e+00
0	 2.857176635411265e+00	 1.071428397830567e+01	 9.957886795599135e+00
0	 2.857176635411265e+00	 1.142853720630899e+01	 9.959214428644465e+00
0	 2.857176635411264e+00	 1.214279010100160e+01	 9.960875675932062e+00
0	 2.857176635411264e+00	 1.285704274571142e+01	 9.962994980093308e+00
0	 2.857176635411265e+00	 1.357129522376640e+01	 9.965696783325935e+00
0	 2.857176635411264e+00	 1.428554761849444e+01	 9.969105527394033e+00
0	 3.571478919343873e+00	 7.143009922150927e+00	 9.976607152920433e+00
0	 3.571478919343873e+00	 7.857266066626722e+00	 9.975777928583346e+00
0	 3.571478919343874e+00	 8.571521461152168e+00	 9.974256533507642e+00
0	 3.571478919343873e+00	 9.285776189055186e+00	 9.972312994776802e+00
0	 3.571478919343872e+00	 1.000003033366371e+01	 9.970217338636607e+00
0	 3.571478919343873e+00	 1.071428397830567e+01	 9.968239590495131e+00
0	 3.571478919343873e+00	 1.142853720630899e+01	 9.966649774922747e+00
0	 3.571478919343873e+00	 1.214279010100160e+01	 9.965717915652100e+00
0	 3.571478919343873e+00	 1.285704274571143e+01	 9.965714035578142e+00
0	 3.571478919343873e+00	 1.357129522376639e+01	 9.966908156758064e+00
0	 3.571478919343873e+00	 1.428554761849444e+01	 9.969570300411361e+00
0	 4.285783286615009e+00	 7.143009922150927e+00	 9.996219183192395e+00
0	 4.285783286615009e+00	 7.857266066626719e+00	 9.993624308845579e+00
0	 4.285783286615007e+00	 8.571521461152161e+00	 9.990080481452026e+00
0	 4.285783286615008e+00	 9.285776189055181e+00	 9.985953253372440e+00
0	 4.285783286615009e+00	 1.000003033366371e+01	 9.981608175859213e+00
0	 4.285783286615008e+00	 1.071428397830567e+01	 9.977410799056383e+00
0	 4.285783286615008e+00	 1.142853720630899e+01	 9.973726671999692e+00
0	 4.285783286615009e+00	 1.214279010100160e+01	 9.970921342616466e+00
0	 4.285783286615009e+00	 1.285704274571143e+01	 9.969360357725714e+00
0	 4.285783286615009e+00	 1.357129522376640e+01	 9.969409263038070e+00
0	 4.285783286615008e+00	 1.428554761849444e+01	 9.971433603155802e+00
0	 5.000089153877976e+00	 7.143009922150928e+00	 1.001136723781881e+01
0	 5.000089153877974e+00	 7.857266066626717e+00	 1.000739580875259e+01
0	 5.000089153877973e+00	 8.571521461152159e+00	 1.000239002237421e+01
0	 5.000089153877975e+00	 9.285776189055181e+00	 9.996760900060478e+00
0	 5.000089153877977e+00	 1.000003033366371e+01	 9.990919461925440e+00
0	 5.000089153877975e+00	 1.071428397830567e+01	 9.985276726820409e+00
0	 5.000089153877976e+00	 1.142853720630899e+01	 9.980243712333916e+00
0	 5.000089153877975e+00	 1.214279010100160e+01	 9.976231434791732e+00
0	 5.000089153877976e+00	 1.285704274571142e+01	 9.973650909256840e+00
0	 5.000089153877975e+00	 1.357129522376639e+01	 9.972913149529436e+00
0	 5.000089153877975e+00	 1.428554761849444e+01	 9.974429168146905e+00
0	 5.714395937786082e+00	 7.143009922150927e+00	 1.002268514816337e+01
0	 5.714395937786080e+00	 7.857266066626718e+00	 1.001752555931853e+01
0	 5.714395937786080e+00	 8.571521461152162e+00	 1.001144218362362e+01
0	 5.714395937786080e+00	 9.285776189055182e+00	 1.000484145571059e+01
0	 5.714395937786081e+00	 1.000003033366371e+01	 9.998129808893252e+00
0	 5.714395937786082e+00	 1.071428397830567e+01	 9.991713675167249e+00
0	 5.714395937786081e+00	 1.142853720630899e+01	 9.985999485210003e+00
0	 5.714395937786080e+00	 1.214279010100160e+01	 9.981393668380754e+00
0	 5.714395937786081e+00	 1.285704274571142e+01	 9.978302652720521e+00
0	 5.714395937786081e+00	 1.357129522376640e+01	 9.977132864952114e+00
0	 5.714395937786081e+00	 1.428554761849444e+01	 9.978290730480113e+00
0	 6.428703054992631e+00	 7.143009922150928e+00	 1.003080675150356e+01
0	 6.428703054992631e+00	 7.857266066626720e+00	 1.002444669264117e+01
0	 6.428703054992631e+00	 8.571521461152162e+00	 1.001749399045629e+01
0	 6.428703054992630e+00	 9.285776189055186e+00	 1.001030043733012e+01
0	 6.428703054992630e+00	 1.000003033366371e+01	 1.000321782435203e+01
0	 6.428703054992631e+00	 1.071428397830567e+01	 9.996597941319600e+00
0	 6.428703054992628e+00	 1.142853720630899e+01	 9.990792576738500e+00
0	 6.428703054992629e+00	 1.214279010100160e+01	 9.986153517822606e+00
0	 6.428703054992629e+00	 1.285704274571142e+01	 9.983032550493895e+00
0	 6.428703054992628e+00	 1.357129522376639e+01	 9.981781459382496e+00
0	 6.428703054992630e+00	 1.428554761849444e+01	 9.982752027826646e+00
0	 7.143009922150927e+00	 7.143009922150927e+00	 1.003636589103056e+01
0	 7.143009922150926e+00	 7.857266066626718e+00	 1.002859234190178e+01
0	 7.143009922150929e+00	 8.571521461152162e+00	 1.002080246603489e+01
0	 7.143009922150926e+00	 9.285776189055184e+00	 1.001324335806408e+01
0	 7.143009922150927e+00	 1.000003033366371e+01	 1.000616211142259e+01
0	 7.143009922150926e+00	 1.071428397830567e+01	 9.999805818342749e+00
0	 7.143009922150925e+00	 1.142853720630899e+01	 9.994421569855945e+00
0	 7.143009922150927e+00	 1.214279010100160e+01	 9.990256455792617e+00
0	 7.143009922150928e+00	 1.285704274571143e+01	 9.987557564782241e+00
0	 7.143009922150926e+00	 1.357129522376639e+01	 9.986571984253334e+00
0	 7.143009922150930e+00	 1.428554761849445e+01	 9.987546800433453e+00
0	 0.000000000000000e+00	 1.428554761849444e+01	 9.986557172367407e+00
0	 0.000000000000000e+00	 1.499984997172426e+01	 9.989664729189471e+00
0	 0.000000000000000e+00	 1.571415215828766e+01	 9.991080722741682e+00
0	 0.000000000000000e+00	 1.642845401151722e+01	 9.991146748692866e+00
0	 0.000000000000000e+00	 1.714275536474550e+01	 9.990204402997259e+00
0	 0.000000000000000e+00	 1.785705605130510e+01	 9.988595281894556e+00
0	 0.000000000000000e+00	 1.857135590452858e+01	 9.986660981909885e+00
0	 0.000000000000000e+00	 1.928565475774854e+01	 9.984743099853850e+00
0	 0.000000000000000e+00	 1.999995244429753e+01	 9.983183232822483e+00
0	 0.000000000000000e+00	 2.071424879750816e+01	 9.982322978197328e+00
0	 0.000000000000000e+00	 2.142854365071296e+01	 9.982503933645361e+00
0	 7.142881171115514e-01	 1.428554761849444e+01	 9.978765100149792e+00
0	 7.142881171115516e-01	 1.499984997172426e+01	 9.982283887811395e+00
0	 7.142881171115514e-01	 1.571415215828766e+01	 9.984553046694547e+00
0	 7.142881171115512e-01	 1.642845401151722e+01	 9.985797000255173e+00
0	 7.142881171115512e-01	 1.714275536474550e+01	 9.986240171922670e+00
0	 7.142881171115515e-01	 1.785705605130510e+01	 9.986106985099994e+00
0	 7.142881171115514e-01	 1.857135590452859e+01	 9.985621863163553e+00
0	 7.142881171115513e-01	 1.928565475774854e+01	 9.985009229463333e+00
0	 7.142881171115514e-01	 1.999995244429753e+01	 9.984493507322783e+00
0	 7.142881171115513e-01	 2.071424879750816e+01	 9.984299120038891e+00
0	 7.142881171115512e-01	 2.142854365071296e+01	 9.984650490882183e+00
0	 1.428580650948410e+00	 1.428554761849444e+01	 9.973436653342537e+00
0	 1.428580650948409e+00	 1.499984997172426e+01	 9.977167372162567e+00
0	 1.428580650948409e+00	 1.571415215828766e+01	 9.980036296607659e+00
0	 1.428580650948410e+00	 1.642845401151722e+01	 9.982167424679314e+00
0	 1.428580650948410e+00	 1.714275536474550e+01	 9.983684754099787e+00
0	 1.428580650948409e+00	 1.785705605130510e+01	 9.984712282312110e+00
0	 1.428580650948409e+00	 1.857135590452859e+01	 9.985374006480061e+00
0	 1.428580650948409e+00	 1.928565475774854e+01	 9.985793923488171e+00
0	 1.428580650948409e+00	 1.999995244429754e+01	 9.986096029941777e+00
0	 1.428580650948409e+00	 2.071424879750816e+01	 9.986404322166941e+00
0	 1.428580650948409e+00	 2.142854365071297e+01	 9.986842796210492e+00
0	 2.142877018163878e+00	 1.428554761849444e+01	 9.970305554160234e+00
0	 2.142877018163878e+00	 1.499984997172426e+01	 9.974080615544429e+00
0	 2.142877018163879e+00	 1.571415215828766e+01	 9.977325070714079e+00
0	 2.142877018163878e+00	 1.642845401151720e+01	 9.980079238456314e+00
0	 2.142877018163878e+00	 1.714275536474549e+01	 9.982383437081886e+00
0	 2.142877018163879e+00	 1.785705605130510e+01	 9.984277984425175e+00
0	 2.142877018163878e+00	 1.857135590452858e+01	 9.985803197844213e+00
0	 2.142877018163879e+00	 1.928565475774854e+01	 9.986999394220655e+00
0	 2.142877018163878e+00	 1.999995244429753e+01	 9.987906889959770e+00
0	 2.142877018163879e+00	 2.071424879750816e+01	 9.988566000990488e+00
0	 2.142877018163878e+00	 2.142854365071296e+01	 9.989017042765330e+00
0	 2.857176635411264e+00	 1.428554761849444e+01	 9.969105527394033e+00
0	 2.857176635411266e+00	 1.499984997172427e+01	 9.972789054554886e+00
0	 2.857176635411264e+00	 1.571415215828766e+01	 9.976213970790951e+00
0	 2.857176635411265e+00	 1.642845401151721e+01	 9.979353661478628e+00
0	 2.857176635411265e+00	 1.714275536474550e+01	 9.982181511372879e+00
0	 2.857176635411265e+00	 1.785705605130510e+01	 9.984670904607226e+00
0	 2.857176635411264e+00	 1.857135590452858e+01	 9.986795224693720e+00
0	 2.857176635411264e+00	 1.928565475774854e+01	 9.988527854522998e+00
0	 2.857176635411265e+00	 1.999995244429753e+01	 9.989842176364235e+00
0	 2.857176635411264e+00	 2.071424879750815e+01	 9.990711571865138e+00
0	 2.857176635411265e+00	 2.142854365071296e+01	 9.991109422051961e+00
0	 3.571478919343873e+00	 1.428554761849444e+01	 9.969570300411361e+00
0	 3.571478919343873e+00	 1.499984997172426e+01	 9.973058129088013e+00
0	 3.571478919343873e+00	 1.571415215828766e+01	 9.976497602159181e+00
0	 3.571478919343873e+00	 1.642845401151722e+01	 9.979811917039887e+00
0	 3.571478919343872e+00	 1.714275536474550e+01	 9.982924270427123e+00
0	 3.571478919343873e+00	 1.785705605130510e+01	 9.985757858299841e+00
0	 3.571478919343873e+00	 1.857135590452858e+01	 9.988235875918960e+00
0	 3.571478919343873e+00	 1.928565475774854e+01	 9.990281517827333e+00
0	 3.571478919343873e+00	 1.999995244429753e+01	 9.991817977849792e+00
0	 3.571478919343873e+00	 2.071424879750816e+01	 9.992768449093091e+00
0	 3.571478919343872e+00	 2.142854365071296e+01	 9.993056123945939e+00
0	 4.285783286615008e+00	 1.428554761849444e+01	 9.971433603155804e+00
0	 4.285783286615009e+00	 1.499984997172426e+01	 9.974653282333875e+00
0	 4.285783286615008e+00	 1.571415215828766e+01	 9.977970573683255e+00
0	 4.285783286615008e+00	 1.642845401151721e+01	 9.981275231834683e+00
0	 4.285783286615008e+00	 1.714275536474550e+01	 9.984457010649200e+00
0	 4.285783286615008e+00	 1.785705605130509e+01	 9.987405663218091e+00
0	 4.285783286615007e+00	 1.857135590452858e+01	 9.990010941862948e+00
0	 4.285783286615009e+00	 1.928565475774854e+01	 9.992162598135636e+00
0	 4.285783286615009e+00	 1.999995244429753e+01	 9.993750382818270e+00
0	 4.285783286615007e+00	 2.071424879750815e+01	 9.994664045923251e+00
0	 4.285783286615009e+00	 2.142854365071296e+01	 9.994793336693217e+00
0	 5.000089153877975e+00	 1.428554761849444e+01	 9.974429168146905e+00
0	 5.000089153877975e+00	 1.499984997172426e+01	 9.977339960778323e+00
0	 5.000089153877976e+00	 1.571415215828766e+01	 9.980427497771041e+00
0	 5.000089153877974e+00	 1.642845401151721e+01	 9.983564835958425e+00
0	 5.000089153877976e+00	 1.714275536474550e+01	 9.986625031393759e+00
0	 5.000089153877977e+00	 1.785705605130510e+01	 9.989481139350305e+00
0	 5.000089153877976e+00	 1.857135590452858e+01	 9.992006214321231e+00
0	 5.000089153877976e+00	 1.928565475774854e+01	 9.994073310019667e+00
0	 5.000089153877975e+00	 1.999995244429753e+01	 9.995555479378670e+00
0	 5.000089153877975e+00	 2.071424879750816e+01	 9.996325774551220e+00
0	 5.000089153877975e+00	 2.142854365071297e+01	 9.996257246910186e+00
0	 5.714395937786081e+00	 1.428554761849444e+01	 9.978290730480113e+00
0	 5.714395937786080e+00	 1.499984997172426e+01	 9.980883614202856e+00
0	 5.714395937786081e+00	 1.571415215828766e+01	 9.983662990373620e+00
0	 5.714395937786082e+00	 1.642845401151722e+01	 9.986501962907118e+00
0	 5.714395937786082e+00	 1.714275536474550e+01	 9.989273634965432e+00
0	 5.714395937786080e+00	 1.785705605130509e+01	 9.991851108958052e+00
0	 5.714395937786079e+00	 1.857135590452858e+01	 9.994107486541823e+00
0	 5.714395937786080e+00	 1.928565475774854e+01	 9.995915868620996e+00
0	 5.714395937786080e+00	 1.999995244429753e+01	 9.997149355347176e+00
0	 5.714395937786080e+00	 2.071424879750816e+01	 9.997681046119339e+00
0	 5.714395937786080e+00	 2.142854365071296e+01	 9.997384039583782e+00
0	 6.428703054992630e+00	 1.428554761849444e+01	 9.982752027826646e+00
0	 6.428703054992627e+00	 1.499984997172426e+01	 9.985049695684562e+00
0	 6.428703054992629e+00	 1.571415215828766e+01	 9.987471670985244e+00
0	 6.428703054992629e+00	 1.642845401151721e+01	 9.989907849577381e+00
0	 6.428703054992630e+00	 1.714275536474550e+01	 9.992248126618723e+00
0	 6.428703054992629e+00	 1.785705605130510e+01	 9.994382396576057e+00
0	 6.428703054992628e+00	 1.857135590452858e+01	 9.996200553225188e+00
0	 6.428703054992631e+00	 1.928565475774854e+01	 9.997592489650934e+00
0	 6.428703054992629e+00	 1.999995244429753e+01	 9.998448098247160e+00
0	 6.428703054992628e+00	 2.071424879750815e+01	 9.998657270716711e+00
0	 6.428703054992630e+00	 2.142854365071296e+01	 9.998109898071439e+00
0	 7.143009922150930e+00	 1.428554761849445e+01	 9.987546800433453e+00
0	 7.143009922150927e+00	 1.499984997172427e+01	 9.989603661596014e+00
0	 7.143009922150928e+00	 1.571415215828766e+01	 9.991648162643196e+00
0	 7.143009922150927e+00	 1.642845401151721e+01	 9.993603736266305e+00
0	 7.143009922150927e+00	 1.714275536474550e+01	 9.995393814557975e+00
0	 7.143009922150927e+00	 1.785705605130510e+01	 9.996941829012176e+00
0	 7.143009922150926e+00	 1.857135590452859e+01	 9.998171210524159e+00
0	 7.143009922150926e+00	 1.928565475774854e+01	 9.999005389390522e+00
0	 7.143009922150926e+00	 1.999995244429754e+01	 9.999367795309137e+00
0	 7.143009922150927e+00	 2.071424879750816e+01	 9.999181857379188e+00
0	 7.143009922150927e+00	 2.142854365071296e+01	 9.998371004101131e+00
0	 0.000000000000000e+00	 2.142854365071296e+01	 9.982503933645361e+00
0	 0.000000000000000e+00	 2.214283692057824e+01	 9.983652137355493e+00
0	 0.000000000000000e+00	 2.285712885710494e+01	 9.985352074899239e+00
0	 0.000000000000000e+00	 2.357141979362770e+01	 9.987433016190126e+00
0	 0.000000000000000e+00	 2.428571006348117e+01	 9.989724232419707e+00
0	 0.000000000000000e+00	 2.500000000000001e+01	 9.992054996057636e+00
0	 0.000000000000000e+00	 2.571428993651884e+01	 9.994254580851576e+00
0	 0.000000000000000e+00	 2.642858020637231e+01	 9.996152261827305e+00
0	 0.000000000000000e+00	 2.714287114289507e+01	 9.997577315288677e+00
0	 0.000000000000000e+00	 2.785716307942177e+01	 9.998359018817609e+00
0	 0.000000000000000e+00	 2.857145634928704e+01	 9.998326651274100e+00
0	 7.142881171115512e-01	 2.142854365071296e+01	 9.984650490882183e+00
0	 7.142881171115515e-01	 2.214283692057824e+01	 9.985573071780045e+00
0	 7.142881171115514e-01	 2.285712885710494e+01	 9.986867014390073e+00
0	 7.142881171115515e-01	 2.357141979362770e+01	 9.988418792197130e+00
0	 7.142881171115510e-01	 2.428571006348117e+01	 9.990114879537822e+00
0	 7.142881171115515e-01	 2.500000000000001e+01	 9.991841751600582e+00
0	 7.142881171115512e-01	 2.571428993651883e+01	 9.993485884425658e+00
0	 7.142881171115515e-01	 2.642858020637232e+01	 9.994933754905126e+00
0	 7.142881171115513e-01	 2.714287114289507e+01	 9.996071840782905e+00
0	 7.142881171115514e-01	 2.785716307942178e+01	 9.996786620654696e+00
0	 7.142881171115512e-01	 2.857145634928703e+01	 9.996964573968086e+00
0	 1.428580650948409e+00	 2.142854365071297e+01	 9.986842796210492e+00
0	 1.428580650948409e+00	 2.214283692057823e+01	 9.987519455880758e+00
0	 1.428580650948410e+00	 2.285712885710495e+01	 9.988416731917489e+00
0	 1.428580650948409e+00	 2.357141979362771e+01	 9.989470260909405e+00
0	 1.428580650948410e+00	 2.428571006348118e+01	 9.990615679917454e+00
0	 1.428580650948409e+00	 2.500000000000001e+01	 9.991788626474866e+00
0	 1.428580650948410e+00	 2.571428993651884e+01	 9.992924738587103e+00
0	 1.428580650948409e+00	 2.642858020637231e+01	 9.993959654731910e+00
0	 1.428580650948409e+00	 2.714287114289507e+01	 9.994829013859309e+00
0	 1.428580650948409e+00	 2.785716307942177e+01	 9.995468455391578e+00
0	 1.428580650948409e+00	 2.857145634928703e+01	 9.995813619223263e+00
0	 2.142877018163878e+00	 2.142854365071296e+01	 9.989017042765330e+00
0	 2.142877018163878e+00	 2.214283692057824e+01	 9.989434896590010e+00
0	 2.142877018163879e+00	 2.285712885710494e+01	 9.989952073286066e+00
0	 2.142877018163878e+00	 2.357141979362770e+01	 9.990545332327470e+00
0	 2.142877018163879e+00	 2.428571006348117e+01	 9.991191433328039e+00
0	 2.142877018163878e+00	 2.500000000000001e+01	 9.991867136041463e+00
0	 2.142877018163878e+00	 2.571428993651883e+01	 9.992549200361337e+00
0	 2.142877018163878e+00	 2.642858020637231e+01	 9.993214386321132e+00
0	 2.142877018163878e+00	 2.714287114289507e+01	 9.993839454094221e+00
0	 2.142877018163879e+00	 2.785716307942177e+01	 9.994401163993865e+00
0	 2.142877018163879e+00	 2.857145634928704e+01	 9.994876276473223e+00
0	 2.857176635411265e+00	 2.142854365071296e+01	 9.991109422051961e+00
0	 2.857176635411264e+00	 2.214283692057824e+01	 9.991262998880046e+00
0	 2.857176635411264e+00	 2.285712885710494e+01	 9.991423882236935e+00
0	 2.857176635411264e+00	 2.357141979362770e+01	 9.991601914472518e+00
0	 2.857176635411264e+00	 2.428571006348117e+01	 9.991806937791845e+00
0	 2.857176635411265e+00	 2.500000000000001e+01	 9.992048794255160e+00
0	 2.857176635411265e+00	 2.571428993651883e+01	 9.992337325777843e+00
0	 2.857176635411264e+00	 2.642858020637231e+01	 9.992682374130471e+00
0	 2.857176635411265e+00	 2.714287114289507e+01	 9.993093780938812e+00
0	 2.857176635411265e+00	 2.785716307942177e+01	 9.993581387683788e+00
0	 2.857176635411264e+00	 2.857145634928704e+01	 9.994155035701549e+00
0	 3.571478919343872e+00	 2.142854365071296e+01	 9.993056123945939e+00
0	 3.571478919343871e+00	 2.214283692057823e+01	 9.992947365763172e+00
0	 3.571478919343873e+00	 2.285712885710494e+01	 9.992783000447865e+00
0	 3.571478919343873e+00	 2.357141979362770e+01	 9.992597913386508e+00
0	 3.571478919343874e+00	 2.428571006348118e+01	 9.992426989584203e+00
0	 3.571478919343873e+00	 2.500000000000001e+01	 9.992305113664674e+00
0	 3.571478919343873e+00	 2.571428993651884e+01	 9.992267169870255e+00
0	 3.571478919343873e+00	 2.642858020637231e+01	 9.992348042061879e+00
0	 3.571478919343872e+00	 2.714287114289507e+01	 9.992582613719117e+00
0	 3.571478919343872e+00	 2.785716307942177e+01	 9.993005767940158e+00
0	 3.571478919343873e+00	 2.857145634928703e+01	 9.993652387441832e+00
0	 4.285783286615009e+00	 2.142854365071296e+01	 9.994793336693217e+00
0	 4.285783286615009e+00	 2.214283692057824e+01	 9.994431598291827e+00
0	 4.285783286615008e+00	 2.285712885710494e+01	 9.993980267533424e+00
0	 4.285783286615009e+00	 2.357141979362770e+01	 9.993491233132305e+00
0	 4.285783286615009e+00	 2.428571006348118e+01	 9.993016383233503e+00
0	 4.285783286615009e+00	 2.500000000000001e+01	 9.992607605412724e+00
0	 4.285783286615008e+00	 2.571428993651883e+01	 9.992316786676376e+00
0	 4.285783286615009e+00	 2.642858020637231e+01	 9.992195813461553e+00
0	 4.285783286615009e+00	 2.714287114289508e+01	 9.992296571636043e+00
0	 4.285783286615009e+00	 2.785716307942177e+01	 9.992670946498320e+00
0	 4.285783286615008e+00	 2.857145634928704e+01	 9.993370822777610e+00
0	 5.000089153877975e+00	 2.142854365071297e+01	 9.996257246910186e+00
0	 5.000089153877976e+00	 2.214283692057823e+01	 9.995659295558694e+00
0	 5.000089153877976e+00	 2.285712885710494e+01	 9.994966521045042e+00
0	 5.000089153877974e+00	 2.357141979362770e+01	 9.994239775793773e+00
0	 5.000089153877975e+00	 2.428571006348118e+01	 9.993539911521335e+00
0	 5.000089153877975e+00	 2.500000000000000e+01	 9.992927779236098e+00
0	 5.000089153877975e+00	 2.571428993651884e+01	 9.992464229238278e+00
0	 5.000089153877975e+00	 2.642858020637231e+01	 9.992210111120027e+00
0	 5.000089153877977e+00	 2.714287114289508e+01	 9.992226273765358e+00
0	 5.000089153877975e+00	 2.785716307942177e+01	 9.992573565350190e+00
0	 5.000089153877975e+00	 2.857145634928704e+01	 9.993312833342365e+00
0	 5.714395937786080e+00	 2.142854365071296e+01	 9.997384039583782e+00
0	 5.714395937786080e+00	 2.214283692057824e+01	 9.996574054696714e+00
0	 5.714395937786079e+00	 2.285712885710493e+01	 9.995692596471073e+00
0	 5.714395937786081e+00	 2.357141979362770e+01	 9.994801441475779e+00
0	 5.714395937786080e+00	 2.428571006348118e+01	 9.993962365482515e+00
0	 5.714395937786080e+00	 2.500000000000000e+01	 9.993237143465642e+00
0	 5.714395937786082e+00	 2.571428993651883e+01	 9.992687549602261e+00
0	 5.714395937786080e+00	 2.642858020637231e+01	 9.992375357272124e+00
0	 5.714395937786083e+00	 2.714287114289508e+01	 9.992362339057706e+00
0	 5.714395937786081e+00	 2.785716307942177e+01	 9.992710266744188e+00
0	 5.714395937786080e+00	 2.857145634928703e+01	 9.993480911319475e+00
0	 6.428703054992630e+00	 2.142854365071296e+01	 9.998109898071439e+00
0	 6.428703054992628e+00	 2.214283692057824e+01	 9.997119470879181e+00
0	 6.428703054992630e+00	 2.285712885710494e+01	 9.996109327236834e+00
0	 6.428703054992629e+00	 2.357141979362769e+01	 9.995134128304288e+00
0	 6.428703054992629e+00	 2.428571006348118e+01	 9.994248534405097e+00
0	 6.428703054992629e+00	 2.500000000000000e+01	 9.993507205026390e+00
0	 6.428703054992629e+00	 2.571428993651883e+01	 9.992964798818909e+00
0	 6.428703054992629e+00	 2.642858020637231e+01	 9.992675973596993e+00
0	 6.428703054992628e+00	 2.714287114289507e+01	 9.992695386338601e+00
0	 6.428703054992628e+00	 2.785716307942177e+01	 9.993077693185276e+00
0	 6.428703054992631e+00	 2.857145634928704e+01	 9.993877549442200e+00
0	 7.143009922150927e+00	 2.142854365071296e+01	 9.998371004101131e+00
0	 7.143009922150927e+00	 2.214283692057824e+01	 9.997239137319671e+00
0	 7.143009922150925e+00	 2.285712885710493e+01	 9.996167544704615e+00
0	 7.143009922150926e+00	 2.357141979362770e+01	 9.995195732426373e+00
0	 7.143009922150927e+00	 2.428571006348117e+01	 9.994363205830442e+00
0	 7.143009922150926e+00	 2.500000000000000e+01	 9.993709469437455e+00
0	 7.143009922150926e+00	 2.571428993651883e+01	 9.993274026943087e+00
0	 7.143009922150926e+00	 2.642858020637231e+01	 9.993096381218123e+00
0	 7.143009922150928e+00	 2.714287114289507e+01	 9.993216034308418e+00
0	 7.143009922150926e+00	 2.785716307942177e+01	 9.993672487434917e+00
0	 7.143009922150926e+00	 2.857145634928704e+01	 9.994505240993680e+00
0	 0.000000000000000e+00	 2.857145634928704e+01	 9.998326651274100e+00
0	 0.000000000000000e+00	 2.928575120249186e+01	 9.997731811619964e+00
0	 0.000000000000000e+00	 3.000004755570248e+01	 9.996992586011910e+00
0	 0.000000000000000e+00	 3.071434524225148e+01	 9.996187985380956e+00
0	 0.000000000000000e+00	 3.142864409547142e+01	 9.995397021085049e+00
0	 0.000000000000000e+00	 3.214294394869492e+01	 9.994698704909085e+00
0	 0.000000000000000e+00	 3.285724463525451e+01	 9.994172049064854e+00
0	 0.000000000000000e+00	 3.357154598848280e+01	 9.993896066191041e+00
0	 0.000000000000000e+00	 3.428584784171235e+01	 9.993949769353259e+00
0	 0.000000000000000e+00	 3.500015002827575e+01	 9.994412172044001e+00
0	 0.000000000000000e+00	 3.571445238150555e+01	 9.995362288182656e+00
0	 7.142881171115512e-01	 2.857145634928703e+01	 9.996964573968086e+00
0	 7.142881171115513e-01	 2.928575120249186e+01	 9.996762790837327e+00
0	 7.142881171115515e-01	 3.000004755570248e+01	 9.996448777831592e+00
0	 7.142881171115512e-01	 3.071434524225148e+01	 9.996074639910468e+00
0	 7.142881171115513e-01	 3.142864409547143e+01	 9.995692482288078e+00
0	 7.142881171115515e-01	 3.214294394869491e+01	 9.995354410433038e+00
0	 7.142881171115510e-01	 3.285724463525450e+01	 9.995112530068447e+00
0	 7.142881171115512e-01	 3.357154598848280e+01	 9.995018947171934e+00
0	 7.142881171115514e-01	 3.428584784171235e+01	 9.995125767975628e+00
0	 7.142881171115515e-01	 3.500015002827575e+01	 9.995485098966117e+00
0	 7.142881171115512e-01	 3.571445238150555e+01	 9.996149046884515e+00
0	 1.428580650948409e+00	 2.857145634928703e+01	 9.995813619223263e+00
0	 1.428580650948410e+00	 2.928575120249186e+01	 9.995939448000625e+00
0	 1.428580650948409e+00	 3.000004755570248e+01	 9.995983153476420e+00
0	 1.428580650948410e+00	 3.071434524225147e+01	 9.995973779641893e+00
0	 1.428580650948410e+00	 3.142864409547143e+01	 9.995940370598611e+00
0	 1.428580650948409e+00	 3.214294394869490e+01	 9.995911970558497e+00
0	 1.428580650948409e+00	 3.285724463525450e+01	 9.995917623843757e+00
0	 1.428580650948409e+00	 3.357154598848279e+01	 9.995986374886947e+00
0	 1.428580650948410e+00	 3.428584784171235e+01	 9.996147268230919e+00
0	 1.428580650948409e+00	 3.500015002827575e+01	 9.996429348528864e+00
0	 1.428580650948409e+00	 3.571445238150557e+01	 9.996861660544273e+00
0	 2.142877018163879e+00	 2.857145634928704e+01	 9.994876276473223e+00
0	 2.142877018163878e+00	 2.928575120249186e+01	 9.995269394788627e+00
0	 2.142877018163878e+00	 3.000004755570249e+01	 9.995607167103557e+00
0	 2.142877018163878e+00	 3.071434524225147e+01	 9.995899421331169e+00
0	 2.142877018163878e+00	 3.142864409547142e+01	 9.996155985377229e+00
0	 2.142877018163878e+00	 3.214294394869492e+01	 9.996386687140062e+00
0	 2.142877018163879e+00	 3.285724463525450e+01	 9.996601354510590e+00
0	 2.142877018163878e+00	 3.357154598848279e+01	 9.996809815372304e+00
0	 2.142877018163878e+00	 3.428584784171234e+01	 9.997021897601270e+00
0	 2.142877018163878e+00	 3.500015002827574e+01	 9.997247429066160e+00
0	 2.142877018163879e+00	 3.571445238150555e+01	 9.997496237628209e+00
0	 2.857176635411264e+00	 2.857145634928704e+01	 9.994155035701549e+00
0	 2.857176635411264e+00	 2.928575120249186e+01	 9.994760243605574e+00
0	 2.857176635411264e+00	 3.000004755570248e+01	 9.995332273662211e+00
0	 2.857176635411266e+00	 3.071434524225148e+01	 9.995865582502873e+00
0	 2.857176635411264e+00	 3.142864409547143e+01	 9.996354626658457e+00
0	 2.857176635411265e+00	 3.214294394869493e+01	 9.996793862559304e+00
0	 2.857176635411265e+00	 3.285724463525452e+01	 9.997177746535268e+00
0	 2.857176635411264e+00	 3.357154598848280e+01	 9.997500734815690e+00
0	 2.857176635411264e+00	 3.428584784171235e+01	 9.997757283529383e+00
0	 2.857176635411265e+00	 3.500015002827575e+01	 9.997941848704663e+00
0	 2.857176635411265e+00	 3.571445238150556e+01	 9.998048886269340e+00
0	 3.571478919343873e+00	 2.857145634928703e+01	 9.993652387441832e+00
0	 3.571478919343873e+00	 2.928575120249186e+01	 9.994419607581069e+00
0	 3.571478919343873e+00	 3.000004755570248e+01	 9.995169928893542e+00
0	 3.571478919343873e+00	 3.071434524225148e+01	 9.995886281450083e+00
0	 3.571478919343873e+00	 3.142864409547143e+01	 9.996551595150724e+00
0	 3.571478919343873e+00	 3.214294394869492e+01	 9.997148799724743e+00
0	 3.571478919343873e+00	 3.285724463525451e+01	 9.997660824730660e+00
0	 3.571478919343873e+00	 3.357154598848280e+01	 9.998070599556254e+00
0	 3.571478919343873e+00	 3.428584784171236e+01	 9.998361053418527e+00
0	 3.571478919343872e+00	 3.500015002827574e+01	 9.998515115363730e+00
0	 3.571478919343873e+00	 3.571445238150555e+01	 9.998515714267381e+00
0	 4.285783286615008e+00	 2.857145634928704e+01	 9.993370822777610e+00
0	 4.285783286615009e+00	 2.928575120249186e+01	 9.994255100570133e+00
0	 4.285783286615008e+00	 3.000004755570248e+01	 9.995131589330674e+00
0	 4.285783286615008e+00	 3.071434524225148e+01	 9.995975537234351e+00
0	 4.285783286615008e+00	 3.142864409547142e+01	 9.996762192236341e+00
0	 4.285783286615008e+00	 3.214294394869491e+01	 9.997466802071845e+00
0	 4.285783286615007e+00	 3.285724463525450e+01	 9.998064614256144e+00
0	 4.285783286615009e+00	 3.357154598848280e+01	 9.998530876084557e+00
0	 4.285783286615010e+00	 3.428584784171235e+01	 9.998840834632496e+00
0	 4.285783286615008e+00	 3.500015002827575e+01	 9.998969736755416e+00
0	 4.285783286615009e+00	 3.571445238150556e+01	 9.998892829088858e+00
0	 5.000089153877975e+00	 2.857145634928704e+01	 9.993312833342365e+00
0	 5.000089153877975e+00	 2.928575120249186e+01	 9.994274337153101e+00
0	 5.000089153877976e+00	 3.000004755570248e+01	 9.995228712298591e+00
0	 5.000089153877975e+00	 3.071434524225147e+01	 9.996147369685705e+00
0	 5.000089153877978e+00	 3.142864409547143e+01	 9.997001719971454e+00
0	 5.000089153877977e+00	 3.214294394869492e+01	 9.997763173562983e+00
0	 5.000089153877975e+00	 3.285724463525450e+01	 9.998403140617548e+00
0	 5.000089153877975e+00	 3.357154598848280e+01	 9.998893031042584e+00
0	 5.000089153877974e+00	 3.428584784171235e+01	 9.999204254495661e+00
0	 5.000089153877974e+00	 3.500015002827575e+01	 9.999308220384524e+00
0	 5.000089153877975e+00	 3.571445238150555e+01	 9.999176337867009e+00
0	 5.714395937786080e+00	 2.857145634928703e+01	 9.993480911319475e+00
0	 5.714395937786079e+00	 2.928575120249185e+01	 9.994484932635615e+00
0	 5.714395937786082e+00	 3.000004755570248e+01	 9.995472755914157e+00
0	 5.714395937786080e+00	 3.071434524225147e+01	 9.996415799402573e+00
0	 5.714395937786081e+00	 3.142864409547143e+01	 9.997285481086033e+00
0	 5.714395937786081e+00	 3.214294394869491e+01	 9.998053218687392e+00
0	 5.714395937786081e+00	 3.285724463525451e+01	 9.998690429667214e+00
0	 5.714395937786082e+00	 3.357154598848280e+01	 9.999168531223741e+00
0	 5.714395937786080e+00	 3.428584784171235e+01	 9.999458940292957e+00
0	 5.714395937786081e+00	 3.500015002827575e+01	 9.999533073548557e+00
0	 5.714395937786081e+00	 3.571445238150557e+01	 9.999362347401922e+00
0	 6.428703054992631e+00	 2.857145634928704e+01	 9.993877549442200e+00
0	 6.428703054992629e+00	 2.928575120249186e+01	 9.994894503048597e+00
0	 6.428703054992630e+00	 3.000004755570247e+01	 9.995875179086063e+00
0	 6.428703054992631e+00	 3.071434524225149e+01	 9.996794847751776e+00
0	 6.428703054992629e+00	 3.142864409547143e+01	 9.997628778983810e+00
0	 6.428703054992630e+00	 3.214294394869491e+01	 9.998352242461193e+00
0	 6.428703054992629e+00	 3.285724463525450e+01	 9.998940507603892e+00
0	 6.428703054992628e+00	 3.357154598848280e+01	 9.999368843572823e+00
0	 6.428703054992627e+00	 3.428584784171233e+01	 9.999612519269849e+00
0	 6.428703054992628e+00	 3.500015002827574e+01	 9.999646803337786e+00
0	 6.428703054992629e+00	 3.571445238150555e+01	 9.999446964160409e+00
0	 7.143009922150926e+00	 2.857145634928704e+01	 9.994505240993680e+00
0	 7.143009922150928e+00	 2.928575120249186e+01	 9.995510665148247e+00
0	 7.143009922150926e+00	 3.000004755570247e+01	 9.996447441514865e+00
0	 7.143009922150928e+00	 3.071434524225147e+01	 9.997298536868543e+00
0	 7.143009922150927e+00	 3.142864409547143e+01	 9.998046917742336e+00
0	 7.143009922150926e+00	 3.214294394869490e+01	 9.998675550427368e+00
0	 7.143009922150926e+00	 3.285724463525450e+01	 9.999167400972857e+00
0	 7.143009922150926e+00	 3.357154598848279e+01	 9.999505435186068e+00
0	 7.143009922150926e+00	 3.428584784171235e+01	 9.999672618632363e+00
0	 7.143009922150927e+00	 3.500015002827575e+01	 9.999651916635214e+00
0	 7.143009922150928e+00	 3.571445238150556e+01	 9.999426294276107e+00
0	 0.000000000000000e+00	 3.571445238150555e+01	 9.995362288182656e+00
0	 0.000000000000000e+00	 3.642870477623359e+01	 9.996566729253880e+00
0	 0.000000000000000e+00	 3.714295725428858e+01	 9.997713606350995e+00
0	 0.000000000000000e+00	 3.785720989899839e+01	 9.998763927013675e+00
0	 0.000000000000000e+00	 3.857146279369101e+01	 9.999678698977760e+00
0	 0.000000000000000e+00	 3.928571602169433e+01	 1.000041893017537e+01
0	 0.000000000000000e+00	 3.999996966633629e+01	 1.000094562873483e+01
0	 0.000000000000000e+00	 4.071422381094481e+01	 1.000121980298065e+01
0	 0.000000000000000e+00	 4.142847853884783e+01	 1.000120246143364e+01
0	 0.000000000000000e+00	 4.214273393337328e+01	 1.000085461281077e+01
0	 0.000000000000000e+00	 4.285699007784908e+01	 1.000013726602527e+01
0	 7.142881171115512e-01	 3.571445238150555e+01	 9.996149046884513e+00
0	 7.142881171115512e-01	 3.642870477623359e+01	 9.996975027248359e+00
0	 7.142881171115512e-01	 3.714295725428858e+01	 9.997768821425440e+00
0	 7.142881171115513e-01	 3.785720989899840e+01	 9.998504910160541e+00
0	 7.142881171115513e-01	 3.857146279369100e+01	 9.999157774325562e+00
0	 7.142881171115513e-01	 3.928571602169433e+01	 9.999701894919507e+00
0	 7.142881171115515e-01	 3.999996966633629e+01	 1.000011175306850e+01
0	 7.142881171115513e-01	 4.071422381094482e+01	 1.000036183002574e+01
0	 7.142881171115513e-01	 4.142847853884783e+01	 1.000042660717153e+01
0	 7.142881171115513e-01	 4.214273393337328e+01	 1.000028056601331e+01
0	 7.142881171115514e-01	 4.285699007784908e+01	 9.999898188185579e+00
0	 1.428580650948409e+00	 3.571445238150557e+01	 9.996861660544273e+00
0	 1.428580650948409e+00	 3.642870477623361e+01	 9.997376214074693e+00
0	 1.428580650948410e+00	 3.714295725428857e+01	 9.997876400097727e+00
0	 1.428580650948409e+00	 3.785720989899838e+01	 9.998348226691792e+00
0	 1.428580650948409e+00	 3.857146279369102e+01	 9.998777702005915e+00
0	 1.428580650948410e+00	 3.928571602169433e+01	 9.999150834259680e+00
0	 1.428580650948410e+00	 3.999996966633629e+01	 9.999453631743284e+00
0	 1.428580650948409e+00	 4.071422381094482e+01	 9.999672102817497e+00
0	 1.428580650948409e+00	 4.142847853884785e+01	 9.999792255913656e+00
0	 1.428580650948409e+00	 4.214273393337326e+01	 9.999800099533703e+00
0	 1.428580650948409e+00	 4.285699007784908e+01	 9.999681642250135e+00
0	 2.142877018163879e+00	 3.571445238150555e+01	 9.997496237628209e+00
0	 2.142877018163878e+00	 3.642870477623360e+01	 9.997760135904313e+00
0	 2.142877018163878e+00	 3.714295725428858e+01	 9.998021481250827e+00
0	 2.142877018163878e+00	 3.785720989899839e+01	 9.998275863271100e+00
0	 2.142877018163877e+00	 3.857146279369101e+01	 9.998518871594031e+00
0	 2.142877018163878e+00	 3.928571602169432e+01	 9.998746095874106e+00
0	 2.142877018163878e+00	 3.999996966633628e+01	 9.998953125791385e+00
0	 2.142877018163878e+00	 4.071422381094482e+01	 9.999135551051531e+00
0	 2.142877018163879e+00	 4.142847853884784e+01	 9.999288961385743e+00
0	 2.142877018163878e+00	 4.214273393337328e+01	 9.999408946550821e+00
0	 2.142877018163878e+00	 4.285699007784906e+01	 9.999491096329136e+00
0	 2.857176635411265e+00	 3.571445238150556e+01	 9.998048886269336e+00
0	 2.857176635411265e+00	 3.642870477623360e+01	 9.998116638505405e+00
0	 2.857176635411264e+00	 3.714295725428858e+01	 9.998189203345685e+00
0	 2.857176635411264e+00	 3.785720989899839e+01	 9.998269806162920e+00
0	 2.857176635411264e+00	 3.857146279369100e+01	 9.998361672320877e+00
0	 2.857176635411265e+00	 3.928571602169433e+01	 9.998468027174290e+00
0	 2.857176635411265e+00	 3.999996966633628e+01	 9.998592096068887e+00
0	 2.857176635411264e+00	 4.071422381094482e+01	 9.998737104341394e+00
0	 2.857176635411264e+00	 4.142847853884783e+01	 9.998906277319552e+00
0	 2.857176635411265e+00	 4.214273393337328e+01	 9.999102840322077e+00
0	 2.857176635411264e+00	 4.285699007784908e+01	 9.999330018658696e+00
0	 3.571478919343873e+00	 3.571445238150555e+01	 9.998515714267382e+00
0	 3.571478919343872e+00	 3.642870477623359e+01	 9.998435567242909e+00
0	 3.571478919343873e+00	 3.714295725428858e+01	 9.998364704421181e+00
0	 3.571478919343872e+00	 3.785720989899839e+01	 9.998312041232580e+00
0	 3.571478919343873e+00	 3.857146279369100e+01	 9.998286493073243e+00
0	 3.571478919343872e+00	 3.928571602169433e+01	 9.998296975305102e+00
0	 3.571478919343872e+00	 3.999996966633629e+01	 9.998352403255771e+00
0	 3.571478919343872e+00	 4.071422381094479e+01	 9.998461692218648e+00
0	 3.571478919343873e+00	 4.142847853884784e+01	 9.998633757452888e+00
0	 3.571478919343873e+00	 4.214273393337328e+01	 9.998877514183391e+00
0	 3.571478919343873e+00	 4.285699007784908e+01	 9.999201877600793e+00
0	 4.285783286615009e+00	 3.571445238150556e+01	 9.998892829088858e+00
0	 4.285783286615008e+00	 3.642870477623359e+01	 9.998706767078579e+00
0	 4.285783286615007e+00	 3.714295725428858e+01	 9.998533122094221e+00
0	 4.285783286615009e+00	 3.785720989899840e+01	 9.998384553946197e+00
0	 4.285783286615009e+00	 3.857146279369101e+01	 9.998273722393712e+00
0	 4.285783286615009e+00	 3.928571602169433e+01	 9.998213287144734e+00
0	 4.285783286615008e+00	 3.999996966633629e+01	 9.998215907855954e+00
0	 4.285783286615009e+00	 4.071422381094481e+01	 9.998294244132843e+00
0	 4.285783286615009e+00	 4.142847853884784e+01	 9.998460955529602e+00
0	 4.285783286615009e+00	 4.214273393337329e+01	 9.998728701549190e+00
0	 4.285783286615008e+00	 4.285699007784908e+01	 9.999110141643330e+00
0	 5.000089153877975e+00	 3.571445238150555e+01	 9.999176337867009e+00
0	 5.000089153877975e+00	 3.642870477623359e+01	 9.998920082570983e+00
0	 5.000089153877975e+00	 3.714295725428857e+01	 9.998679593559727e+00
0	 5.000089153877975e+00	 3.785720989899840e+01	 9.998469329370806e+00
0	 5.000089153877976e+00	 3.857146279369100e+01	 9.998303748480676e+00
0	 5.000089153877976e+00	 3.928571602169433e+01	 9.998197309304738e+00
0	 5.000089153877977e+00	 3.999996966633629e+01	 9.998164470197274e+00
0	 5.000089153877975e+00	 4.071422381094481e+01	 9.998219689451492e+00
0	 5.000089153877976e+00	 4.142847853884784e+01	 9.998377425299532e+00
0	 5.000089153877975e+00	 4.214273393337327e+01	 9.998652135912407e+00
0	 5.000089153877976e+00	 4.285699007784908e+01	 9.999058279400078e+00
0	 5.714395937786081e+00	 3.571445238150557e+01	 9.999362347401922e+00
0	 5.714395937786083e+00	 3.642870477623359e+01	 9.999065357875486e+00
0	 5.714395937786080e+00	 3.714295725428857e+01	 9.998789255590673e+00
0	 5.714395937786082e+00	 3.785720989899841e+01	 9.998548352174327e+00
0	 5.714395937786081e+00	 3.857146279369100e+01	 9.998356959188408e+00
0	 5.714395937786080e+00	 3.928571602169432e+01	 9.998229388130046e+00
0	 5.714395937786080e+00	 3.999996966633628e+01	 9.998179950431492e+00
0	 5.714395937786082e+00	 4.071422381094482e+01	 9.998222957460168e+00
0	 5.714395937786080e+00	 4.142847853884783e+01	 9.998372720518597e+00
0	 5.714395937786081e+00	 4.214273393337327e+01	 9.998643550844497e+00
0	 5.714395937786082e+00	 4.285699007784908e+01	 9.999049759610681e+00
0	 6.428703054992629e+00	 3.571445238150555e+01	 9.999446964160409e+00
0	 6.428703054992629e+00	 3.642870477623360e+01	 9.999132436744283e+00
0	 6.428703054992628e+00	 3.714295725428856e+01	 9.998847244538050e+00
0	 6.428703054992631e+00	 3.785720989899841e+01	 9.998603606625545e+00
0	 6.428703054992630e+00	 3.857146279369101e+01	 9.998413742026999e+00
0	 6.428703054992627e+00	 3.928571602169432e+01	 9.998289869698937e+00
0	 6.428703054992628e+00	 3.999996966633628e+01	 9.998244208534306e+00
0	 6.428703054992629e+00	 4.071422381094480e+01	 9.998288977362362e+00
0	 6.428703054992630e+00	 4.142847853884783e+01	 9.998436394948728e+00
0	 6.428703054992630e+00	 4.214273393337327e+01	 9.998698679995389e+00
0	 6.428703054992629e+00	 4.285699007784908e+01	 9.999088051140683e+00
0	 7.143009922150928e+00	 3.571445238150556e+01	 9.999426294276107e+00
0	 7.143009922150929e+00	 3.642870477623360e+01	 9.999111162526415e+00
0	 7.143009922150926e+00	 3.714295725428856e+01	 9.998838696330889e+00
0	 7.143009922150927e+00	 3.785720989899839e+01	 9.998617076594158e+00
0	 7.143009922150927e+00	 3.857146279369102e+01	 9.998454484162371e+00
0	 7.143009922150926e+00	 3.928571602169433e+01	 9.998359099823075e+00
0	 7.143009922150926e+00	 3.999996966633628e+01	 9.998339104305330e+00
0	 7.143009922150926e+00	 4.071422381094481e+01	 9.998402678279621e+00
0	 7.143009922150927e+00	 4.142847853884783e+01	 9.998558002357878e+00
0	 7.143009922150926e+00	 4.214273393337328e+01	 9.998813257093538e+00
0	 7.143009922150927e+00	 4.285699007784908e+01	 9.999176622981455e+00
0	 0.000000000000000e+00	 4.285699007784908e+01	 1.000013726602526e+01
0	 0.000000000000000e+00	 4.357129694500737e+01	 9.999305057248247e+00
0	 0.000000000000000e+00	 4.428560406221392e+01	 9.998658305955932e+00
0	 0.000000000000000e+00	 4.499991084612202e+01	 9.998226355031912e+00
0	 0.000000000000000e+00	 4.571421671338500e+01	 9.998038548752945e+00
0	 0.000000000000000e+00	 4.642852108065614e+01	 9.998124232788729e+00
0	 0.000000000000000e+00	 4.714282336458874e+01	 9.998512754202029e+00
0	 0.000000000000000e+00	 4.785712298183613e+01	 9.999233461448735e+00
0	 0.000000000000000e+00	 4.857141934905160e+01	 1.000031570437796e+01
0	 0.000000000000000e+00	 4.928571188288846e+01	 1.000178883423184e+01
0	 0.000000000000000e+00	 5.000000000000000e+01	 1.000368220364610e+01
0	 7.142881171115514e-01	 4.285699007784908e+01	 9.999898188185577e+00
0	 7.142881171115515e-01	 4.357129694500738e+01	 9.999433116696681e+00
0	 7.142881171115514e-01	 4.428560406221393e+01	 9.999068933825935e+00
0	 7.142881171115513e-01	 4.499991084612201e+01	 9.998824923898253e+00
0	 7.142881171115512e-01	 4.571421671338499e+01	 9.998720372031794e+00
0	 7.142881171115517e-01	 4.642852108065615e+01	 9.998774564138035e+00
0	 7.142881171115510e-01	 4.714282336458873e+01	 9.999006786921647e+00
0	 7.142881171115514e-01	 4.785712298183613e+01	 9.999436327880652e+00
0	 7.142881171115514e-01	 4.857141934905159e+01	 1.000008247530641e+01
0	 7.142881171115514e-01	 4.928571188288846e+01	 1.000096451828355e+01
0	 7.142881171115513e-01	 5.000000000000001e+01	 1.000210174669026e+01
0	 1.428580650948409e+00	 4.285699007784908e+01	 9.999681642250131e+00
0	 1.428580650948410e+00	 4.357129694500738e+01	 9.999510016177382e+00
0	 1.428580650948409e+00	 4.428560406221393e+01	 9.999374852371286e+00
0	 1.428580650948409e+00	 4.499991084612203e+01	 9.999286868990113e+00
0	 1.428580650948410e+00	 4.571421671338501e+01	 9.999256784511669e+00
0	 1.428580650948409e+00	 4.642852108065613e+01	 9.999295317733235e+00
0	 1.428580650948409e+00	 4.714282336458876e+01	 9.999413187771601e+00
0	 1.428580650948409e+00	 4.785712298183613e+01	 9.999621114063128e+00
0	 1.428580650948410e+00	 4.857141934905160e+01	 9.999929816363615e+00
0	 1.428580650948409e+00	 4.928571188288845e+01	 1.000035001474852e+01
0	 1.428580650948409e+00	 4.999999999999999e+01	 1.000089242961279e+01
0	 2.142877018163878e+00	 4.285699007784906e+01	 9.999491096329136e+00
0	 2.142877018163878e+00	 4.357129694500737e+01	 9.999546415525394e+00
0	 2.142877018163880e+00	 4.428560406221393e+01	 9.999591270015083e+00
0	 2.142877018163878e+00	 4.499991084612202e+01	 9.999629304145783e+00
0	 2.142877018163878e+00	 4.571421671338499e+01	 9.999664162223869e+00
0	 2.142877018163878e+00	 4.642852108065613e+01	 9.999699488514558e+00
0	 2.142877018163879e+00	 4.714282336458875e+01	 9.999738927241914e+00
0	 2.142877018163878e+00	 4.785712298183613e+01	 9.999786122588798e+00
0	 2.142877018163878e+00	 4.857141934905159e+01	 9.999844718696844e+00
0	 2.142877018163879e+00	 4.928571188288848e+01	 9.999918359666646e+00
0	 2.142877018163878e+00	 4.999999999999999e+01	 1.000001068955740e+01
0	 2.857176635411264e+00	 4.285699007784908e+01	 9.999330018658695e+00
0	 2.857176635411265e+00	 4.357129694500736e+01	 9.999552974717254e+00
0	 2.857176635411265e+00	 4.428560406221392e+01	 9.999733395310168e+00
0	 2.857176635411264e+00	 4.499991084612205e+01	 9.999869343301381e+00
0	 2.857176635411265e+00	 4.571421671338501e+01	 9.999958881253123e+00
0	 2.857176635411264e+00	 4.642852108065615e+01	 1.000000007142580e+01
0	 2.857176635411265e+00	 4.714282336458874e+01	 9.999990975778179e+00
0	 2.857176635411265e+00	 4.785712298183613e+01	 9.999929655967186e+00
0	 2.857176635411265e+00	 4.857141934905161e+01	 9.999814173348071e+00
0	 2.857176635411264e+00	 4.928571188288846e+01	 9.999642588974254e+00
0	 2.857176635411265e+00	 5.000000000000000e+01	 9.999412963597292e+00
0	 3.571478919343873e+00	 4.285699007784908e+01	 9.999201877600795e+00
0	 3.571478919343873e+00	 4.357129694500737e+01	 9.999540353870891e+00
0	 3.571478919343872e+00	 4.428560406221392e+01	 9.999816436939012e+00
0	 3.571478919343873e+00	 4.499991084612203e+01	 1.000002410049098e+01
0	 3.571478919343873e+00	 4.571421671338500e+01	 1.000015731773752e+01
0	 3.571478919343873e+00	 4.642852108065613e+01	 1.000021006141422e+01
0	 3.571478919343873e+00	 4.714282336458874e+01	 1.000017630378150e+01
0	 3.571478919343873e+00	 4.785712298183614e+01	 1.000005001662470e+01
0	 3.571478919343873e+00	 4.857141934905161e+01	 9.999825171253910e+00
0	 3.571478919343874e+00	 4.928571188288846e+01	 9.999495738504034e+00
0	 3.571478919343873e+00	 5.000000000000000e+01	 9.999055688734789e+00
0	 4.285783286615008e+00	 4.285699007784908e+01	 9.999110141643330e+00
0	 4.285783286615007e+00	 4.357129694500736e+01	 9.999519213245740e+00
0	 4.285783286615008e+00	 4.428560406221392e+01	 9.999855603713758e+00
0	 4.285783286615008e+00	 4.499991084612202e+01	 1.000011068984645e+01
0	 4.285783286615009e+00	 4.571421671338499e+01	 1.000027584786859e+01
0	 4.285783286615009e+00	 4.642852108065614e+01	 1.000034245343061e+01
0	 4.285783286615009e+00	 4.714282336458876e+01	 1.000030188160869e+01
0	 4.285783286615008e+00	 4.785712298183612e+01	 1.000014550690457e+01
0	 4.285783286615009e+00	 4.857141934905160e+01	 9.999864703245716e+00
0	 4.285783286615008e+00	 4.928571188288846e+01	 9.999450843985173e+00
0	 4.285783286615008e+00	 5.000000000000000e+01	 9.998895301901577e+00
0	 5.000089153877976e+00	 4.285699007784908e+01	 9.999058279400076e+00
0	 5.000089153877976e+00	 4.357129694500737e+01	 9.999500213242644e+00
0	 5.000089153877976e+00	 4.428560406221393e+01	 9.999866104576238e+00
0	 5.000089153877974e+00	 4.499991084612203e+01	 1.000014622559761e+01
0	 5.000089153877974e+00	 4.571421671338500e+01	 1.000033084789123e+01
0	 5.000089153877977e+00	 4.642852108065615e+01	 1.000041024242933e+01
0	 5.000089153877976e+00	 4.714282336458875e+01	 1.000037467957198e+01
0	 5.000089153877974e+00	 4.785712298183613e+01	 1.000021442906691e+01
0	 5.000089153877975e+00	 4.857141934905160e+01	 9.999919760049647e+00
0	 5.000089153877977e+00	 4.928571188288846e+01	 9.999480941043299e+00
0	 5.000089153877976e+00	 5.000000000000000e+01	 9.998888239958731e+00
0	 5.714395937786082e+00	 4.285699007784908e+01	 9.999049759610678e+00
0	 5.714395937786081e+00	 4.357129694500737e+01	 9.999494014403833e+00
0	 5.714395937786082e+00	 4.428560406221392e+01	 9.999863148597917e+00
0	 5.714395937786083e+00	 4.499991084612203e+01	 1.000014782207209e+01
0	 5.714395937786080e+00	 4.571421671338499e+01	 1.000033869410369e+01
0	 5.714395937786080e+00	 4.642852108065614e+01	 1.000042642336819e+01
0	 5.714395937786080e+00	 4.714282336458874e+01	 1.000040166793926e+01
0	 5.714395937786080e+00	 4.785712298183615e+01	 1.000025508528869e+01
0	 5.714395937786082e+00	 4.857141934905160e+01	 9.999977332286383e+00
0	 5.714395937786081e+00	 4.928571188288847e+01	 9.999559065200378e+00
0	 5.714395937786080e+00	 4.999999999999999e+01	 9.998990939696682e+00
0	 6.428703054992629e+00	 4.285699007784908e+01	 9.999088051140683e+00
0	 6.428703054992631e+00	 4.357129694500737e+01	 9.999511277413042e+00
0	 6.428703054992630e+00	 4.428560406221391e+01	 9.999861944979902e+00
0	 6.428703054992629e+00	 4.499991084612203e+01	 1.000013259369542e+01
0	 6.428703054992631e+00	 4.571421671338499e+01	 1.000031576285765e+01
0	 6.428703054992629e+00	 4.642852108065614e+01	 1.000040399120854e+01
0	 6.428703054992628e+00	 4.714282336458874e+01	 1.000038981693398e+01
0	 6.428703054992630e+00	 4.785712298183614e+01	 1.000026577766375e+01
0	 6.428703054992630e+00	 4.857141934905160e+01	 1.000002441047154e+01
0	 6.428703054992631e+00	 4.928571188288846e+01	 9.999658251874813e+00
0	 6.428703054992629e+00	 5.000000000000000e+01	 9.999159837834920e+00
0	 7.143009922150927e+00	 4.285699007784908e+01	 9.999176622981455e+00
0	 7.143009922150927e+00	 4.357129694500738e+01	 9.999562663095341e+00
0	 7.143009922150926e+00	 4.428560406221391e+01	 9.999877703052979e+00
0	 7.143009922150925e+00	 4.499991084612201e+01	 1.000011765499101e+01
0	 7.143009922150927e+00	 4.571421671338501e+01	 1.000027843055816e+01
0	 7.143009922150927e+00	 4.642852108065613e+01	 1.000035594091524e+01
0	 7.143009922150925e+00	 4.714282336458874e+01	 1.000034609673516e+01
0	 7.143009922150926e+00	 4.785712298183612e+01	 1.000024480820285e+01
0	 7.143009922150928e+00	 4.857141934905161e+01	 1.000004798501532e+01
0	 7.143009922150927e+00	 4.928571188288848e+01	 9.999751536381577e+00
0	 7.143009922150927e+00	 5.000000000000001e+01	 9.999351371022593e+00
0	 7.143009922150927e+00	 0.000000000000000e+00	 1.003652491941051e+01
0	 7.143009922150926e+00	 7.142881171115513e-01	 1.002553544652312e+01
0	 7.143009922150926e+00	 1.428580650948409e+00	 1.002051519860575e+01
0	 7.143009922150927e+00	 2.142877018163878e+00	 1.002014021449314e+01
0	 7.143009922150926e+00	 2.857176635411264e+00	 1.002308651357436e+01
0	 7.143009922150926e+00	 3.571478919343873e+00	 1.002803009579405e+01
0	 7.143009922150926e+00	 4.285783286615008e+00	 1.003364694165342e+01
0	 7.143009922150927e+00	 5.000089153877976e+00	 1.003861301221107e+01
0	 7.143009922150926e+00	 5.714395937786080e+00	 1.004160424908356e+01
0	 7.143009922150927e+00	 6.428703054992628e+00	 1.004129657444567e+01
0	 7.143009922150927e+00	 7.143009922150927e+00	 1.003636589103056e+01
0	 7.857266066626719e+00	 0.000000000000000e+00	 1.000179655725013e+01
0	 7.857266066626720e+00	 7.142881171115513e-01	 1.000581868171211e+01
0	 7.857266066626718e+00	 1.428580650948409e+00	 1.001203491155196e+01
0	 7.857266066626721e+00	 2.142877018163879e+00	 1.001960091996339e+01
0	 7.857266066626720e+00	 2.857176635411265e+00	 1.002767235877439e+01
0	 7.857266066626721e+00	 3.571478919343873e+00	 1.003540485844870e+01
0	 7.857266066626718e+00	 4.285783286615009e+00	 1.004195402808694e+01
0	 7.857266066626718e+00	 5.000089153877975e+00	 1.004647545542762e+01
0	 7.857266066626718e+00	 5.714395937786079e+00	 1.004812470684767e+01
0	 7.857266066626719e+00	 6.428703054992632e+00	 1.004605732736299e+01
0	 7.857266066626718e+00	 7.143009922150926e+00	 1.003942884062845e+01
0	 8.571521461152161e+00	 0.000000000000000e+00	 9.979675941845557e+00
0	 8.571521461152166e+00	 7.142881171115514e-01	 9.994121899642758e+00
0	 8.571521461152162e+00	 1.428580650948409e+00	 1.000785209082073e+01
0	 8.571521461152162e+00	 2.142877018163878e+00	 1.002043338104100e+01
0	 8.571521461152162e+00	 2.857176635411264e+00	 1.003143261460209e+01
0	 8.571521461152164e+00	 3.571478919343873e+00	 1.004041661444089e+01
0	 8.571521461152164e+00	 4.285783286615009e+00	 1.004695218213399e+01
0	 8.571521461152159e+00	 5.000089153877974e+00	 1.005060609789853e+01
0	 8.571521461152161e+00	 5.714395937786080e+00	 1.005094512059300e+01
0	 8.571521461152164e+00	 6.428703054992630e+00	 1.004753598771757e+01
0	 8.571521461152162e+00	 7.143009922150928e+00	 1.003994541541434e+01
0	 9.285776189055182e+00	 0.000000000000000e+00	 9.968267150894240e+00
0	 9.285776189055186e+00	 7.142881171115514e-01	 9.989106697698674e+00
0	 9.285776189055182e+00	 1.428580650948410e+00	 1.000711427049973e+01
0	 9.285776189055181e+00	 2.142877018163878e+00	 1.002219948761898e+01
0	 9.285776189055186e+00	 2.857176635411265e+00	 1.003427194758944e+01
0	 9.285776189055184e+00	 3.571478919343873e+00	 1.004324122915702e+01
0	 9.285776189055184e+00	 4.285783286615009e+00	 1.004901689128167e+01
0	 9.285776189055182e+00	 5.000089153877974e+00	 1.005150847313824e+01
0	 9.285776189055182e+00	 5.714395937786081e+00	 1.005062549411723e+01
0	 9.285776189055186e+00	 6.428703054992631e+00	 1.004627745382511e+01
0	 9.285776189055184e+00	 7.143009922150926e+00	 1.003837383208462e+01
0	 1.000003033366371e+01	 0.000000000000000e+00	 9.965674261741297e+00
0	 1.000003033366371e+01	 7.142881171115514e-01	 9.989434673852045e+00
0	 1.000003033366371e+01	 1.428580650948409e+00	 1.000896898587518e+01
0	 1.000003033366371e+01	 2.142877018163878e+00	 1.002446113111559e+01
0	 1.000003033366371e+01	 2.857176635411265e+00	 1.003609502588530e+01
0	 1.000003033366371e+01	 3.571478919343873e+00	 1.004405456950458e+01
0	 1.000003033366371e+01	 4.285783286615008e+00	 1.004852364430302e+01
0	 1.000003033366371e+01	 5.000089153877975e+00	 1.004968611562031e+01
0	 1.000003033366371e+01	 5.714395937786081e+00	 1.004772583180679e+01
0	 1.000003033366371e+01	 6.428703054992629e+00	 1.004282662422393e+01
0	 1.000003033366371e+01	 7.143009922150926e+00	 1.003517230724439e+01
0	 1.071428397830567e+01	 0.000000000000000e+00	 9.970001351379468e+00
0	 1.071428397830567e+01	 7.142881171115514e-01	 9.993767426663679e+00
0	 1.071428397830567e+01	 1.428580650948409e+00	 1.001256377343175e+01
0	 1.071428397830567e+01	 2.142877018163879e+00	 1.002678020447443e+01
0	 1.071428397830567e+01	 2.857176635411265e+00	 1.003680651925538e+01
0	 1.071428397830567e+01	 3.571478919343873e+00	 1.004303250391213e+01
0	 1.071428397830567e+01	 4.285783286615008e+00	 1.004584793125695e+01
0	 1.071428397830567e+01	 5.000089153877975e+00	 1.004564256077741e+01
0	 1.071428397830567e+01	 5.714395937786082e+00	 1.004280613863690e+01
0	 1.071428397830567e+01	 6.428703054992630e+00	 1.003772839767497e+01
0	 1.071428397830567e+01	 7.143009922150928e+00	 1.003079905740743e+01
0	 1.142853720630899e+01	 0.000000000000000e+00	 9.979352496449131e+00
0	 1.142853720630899e+01	 7.142881171115514e-01	 1.000076655528293e+01
0	 1.142853720630899e+01	 1.428580650948409e+00	 1.001704617085269e+01
0	 1.142853720630899e+01	 2.142877018163878e+00	 1.002871860216439e+01
0	 1.142853720630899e+01	 2.857176635411265e+00	 1.003631109908226e+01
0	 1.142853720630899e+01	 3.571478919343873e+00	 1.004035090232936e+01
0	 1.142853720630899e+01	 4.285783286615008e+00	 1.004136524348826e+01
0	 1.142853720630899e+01	 5.000089153877976e+00	 1.003988134500141e+01
0	 1.142853720630899e+01	 5.714395937786080e+00	 1.003642642017153e+01
0	 1.142853720630899e+01	 6.428703054992629e+00	 1.003152767316184e+01
0	 1.142853720630899e+01	 7.143009922150926e+00	 1.002571229899618e+01
0	 1.214279010100160e+01	 0.000000000000000e+00	 9.991831773238285e+00
0	 1.214279010100160e+01	 7.142881171115514e-01	 1.000909365944780e+01
0	 1.214279010100159e+01	 1.428580650948409e+00	 1.002156371701974e+01
0	 1.214279010100159e+01	 2.142877018163878e+00	 1.002983822017971e+01
0	 1.214279010100160e+01	 2.857176635411265e+00	 1.003451343836543e+01
0	 1.214279010100160e+01	 3.571478919343873e+00	 1.003618563622705e+01
0	 1.214279010100160e+01	 4.285783286615009e+00	 1.003545107362765e+01
0	 1.214279010100160e+01	 5.000089153877975e+00	 1.003290600564331e+01
0	 1.214279010100160e+01	 5.714395937786080e+00	 1.002914668256341e+01
0	 1.214279010100160e+01	 6.428703054992629e+00	 1.002476934989078e+01
0	 1.214279010100160e+01	 7.143009922150926e+00	 1.002037024834175e+01
0	 1.285704274571142e+01	 0.000000000000000e+00	 1.000554325768255e+01
0	 1.285704274571142e+01	 7.142881171115512e-01	 1.001741033948482e+01
0	 1.285704274571142e+01	 1.428580650948410e+00	 1.002526395201320e+01
0	 1.285704274571142e+01	 2.142877018163878e+00	 1.002970095603997e+01
0	 1.285704274571142e+01	 2.857176635411265e+00	 1.003131821172127e+01
0	 1.285704274571143e+01	 3.571478919343873e+00	 1.003071257859716e+01
0	 1.285704274571142e+01	 4.285783286615008e+00	 1.002848091559178e+01
0	 1.285704274571142e+01	 5.000089153877977e+00	 1.002522008101330e+01
0	 1.285704274571142e+01	 5.714395937786080e+00	 1.002152693255409e+01
0	 1.285704274571142e+01	 6.428703054992629e+00	 1.001799832729071e+01
0	 1.285704274571143e+01	 7.143009922150927e+00	 1.001523112168396e+01
0	 1.357129522376639e+01	 0.000000000000000e+00	 1.001859102536519e+01
0	 1.357129522376640e+01	 7.142881171115514e-01	 1.002437819630919e+01
0	 1.357129522376639e+01	 1.428580650948409e+00	 1.002729441711190e+01
0	 1.357129522376640e+01	 2.142877018163878e+00	 1.002786870879007e+01
0	 1.357129522376639e+01	 2.857176635411264e+00	 1.002663009538308e+01
0	 1.357129522376639e+01	 3.571478919343872e+00	 1.002410760395274e+01
0	 1.357129522376640e+01	 4.285783286615009e+00	 1.002083026458319e+01
0	 1.357129522376640e+01	 5.000089153877975e+00	 1.001732711038073e+01
0	 1.357129522376639e+01	 5.714395937786080e+00	 1.001412717747385e+01
0	 1.357129522376639e+01	 6.428703054992629e+00	 1.001175950501314e+01
0	 1.357129522376639e+01	 7.143009922150926e+00	 1.001075313517129e+01
0	 1.428554761849444e+01	 0.000000000000000e+00	 1.002907915151705e+01
0	 1.428554761849444e+01	 7.142881171115513e-01	 1.002865883142468e+01
0	 1.428554761849444e+01	 1.428580650948410e+00	 1.002680265479322e+01
0	 1.428554761849444e+01	 2.142877018163878e+00	 1.002390337900028e+01
0	 1.428554761849445e+01	 2.857176635411265e+00	 1.002035376720108e+01
0	 1.428554761849444e+01	 3.571478919343873e+00	 1.001654658832801e+01
0	 1.428554761849444e+01	 4.285783286615009e+00	 1.001287461709037e+01
0	 1.428554761849444e+01	 5.000089153877974e+00	 1.000973063397414e+01
0	 1.428554761849444e+01	 5.714395937786081e+00	 1.000750742524182e+01
0	 1.428554761849444e+01	 6.428703054992629e+00	 1.000659778293229e+01
0	 1.428554761849444e+01	 7.143009922150925e+00	 1.000739450486087e+01
0	 7.143009922150927e+00	 7.143009922150927e+00	 1.003636589103056e+01
0	 7.143009922150926e+00	 7.857266066626718e+00	 1.002859234190178e+01
0	 7.143009922150929e+00	 8.571521461152162e+00	 1.002080246603489e+01
0	 7.143009922150926e+00	 9.285776189055184e+00	 1.001324335806408e+01
0	 7.143009922150927e+00	 1.000003033366371e+01	 1.000616211142259e+01
0	 7.143009922150926e+00	 1.071428397830567e+01	 9.999805818342749e+00
0	 7.143009922150925e+00	 1.142853720630899e+01	 9.994421569855945e+00
0	 7.143009922150927e+00	 1.214279010100160e+01	 9.990256455792613e+00
0	 7.143009922150928e+00	 1.285704274571143e+01	 9.987557564782241e+00
0	 7.143009922150926e+00	 1.357129522376639e+01	 9.986571984253336e+00
0	 7.143009922150930e+00	 1.428554761849445e+01	 9.987546800433453e+00
0	 7.857266066626718e+00	 7.143009922150926e+00	 1.003942884062845e+01
0	 7.857266066626719e+00	 7.857266066626718e+00	 1.003049538136899e+01
0	 7.857266066626720e+00	 8.571521461152162e+00	 1.002215929976159e+01
0	 7.857266066626720e+00	 9.285776189055186e+00	 1.001454735579669e+01
0	 7.857266066626719e+00	 1.000003033366371e+01	 1.000778630840314e+01
0	 7.857266066626719e+00	 1.071428397830567e+01	 1.000200291544818e+01
0	 7.857266066626720e+00	 1.142853720630899e+01	 9.997323933737425e+00
0	 7.857266066626721e+00	 1.214279010100160e+01	 9.993876119014892e+00
0	 7.857266066626718e+00	 1.285704274571142e+01	 9.991786225962942e+00
0	 7.857266066626720e+00	 1.357129522376639e+01	 9.991181008202309e+00
0	 7.857266066626718e+00	 1.428554761849444e+01	 9.992187218292083e+00
0	 8.571521461152162e+00	 7.143009922150928e+00	 1.003994541541434e+01
0	 8.571521461152162e+00	 7.857266066626720e+00	 1.003062924685537e+01
0	 8.571521461152162e+00	 8.571521461152162e+00	 1.002234760941615e+01
0	 8.571521461152161e+00	 9.285776189055182e+00	 1.001512569222209e+01
0	 8.571521461152162e+00	 1.000003033366371e+01	 1.000898868351307e+01
0	 8.571521461152164e+00	 1.071428397830567e+01	 1.000396177064329e+01
0	 8.571521461152164e+00	 1.142853720630899e+01	 1.000007014008138e+01
0	 8.571521461152159e+00	 1.214279010100159e+01	 9.997338977410330e+00
0	 8.571521461152162e+00	 1.285704274571142e+01	 9.995793467327502e+00
0	 8.571521461152161e+00	 1.357129522376639e+01	 9.995458793644623e+00
0	 8.571521461152162e+00	 1.428554761849444e+01	 9.996360139287777e+00
0	 9.285776189055184e+00	 7.143009922150926e+00	 1.003837383208462e+01
0	 9.285776189055184e+00	 7.857266066626718e+00	 1.002933730496652e+01
0	 9.285776189055181e+00	 8.571521461152162e+00	 1.002161113410510e+01
0	 9.285776189055184e+00	 9.285776189055182e+00	 1.001513770171107e+01
0	 9.285776189055184e+00	 1.000003033366371e+01	 1.000985938931151e+01
0	 9.285776189055184e+00	 1.071428397830567e+01	 1.000571857774995e+01
0	 9.285776189055184e+00	 1.142853720630899e+01	 1.000265764718633e+01
0	 9.285776189055184e+00	 1.214279010100160e+01	 1.000061897709695e+01
0	 9.285776189055182e+00	 1.285704274571142e+01	 9.999544946274504e+00
0	 9.285776189055182e+00	 1.357129522376639e+01	 9.999377932828098e+00
0	 9.285776189055182e+00	 1.428554761849444e+01	 1.000006031418319e+01
0	 1.000003033366371e+01	 7.143009922150926e+00	 1.003517230724439e+01
0	 1.000003033366371e+01	 7.857266066626718e+00	 1.002696292199267e+01
0	 1.000003033366371e+01	 8.571521461152162e+00	 1.002019361248248e+01
0	 1.000003033366371e+01	 9.285776189055182e+00	 1.001474271811843e+01
0	 1.000003033366371e+01	 1.000003033366371e+01	 1.001048857783891e+01
0	 1.000003033366371e+01	 1.071428397830567e+01	 1.000730953011612e+01
0	 1.000003033366371e+01	 1.142853720630899e+01	 1.000508391295601e+01
0	 1.000003033366371e+01	 1.214279010100160e+01	 1.000369006389831e+01
0	 1.000003033366371e+01	 1.285704274571143e+01	 1.000300632001656e+01
0	 1.000003033366371e+01	 1.357129522376639e+01	 1.000291101791801e+01
0	 1.000003033366371e+01	 1.428554761849444e+01	 1.000328249374372e+01
0	 1.071428397830567e+01	 7.143009922150928e+00	 1.003079905740743e+01
0	 1.071428397830567e+01	 7.857266066626718e+00	 1.002384946390863e+01
0	 1.071428397830567e+01	 8.571521461152164e+00	 1.001833878274970e+01
0	 1.071428397830567e+01	 9.285776189055184e+00	 1.001410007478308e+01
0	 1.071428397830567e+01	 1.000003033366371e+01	 1.001096640061706e+01
0	 1.071428397830567e+01	 1.071428397830567e+01	 1.000877082061580e+01
0	 1.071428397830567e+01	 1.142853720630899e+01	 1.000734639489934e+01
0	 1.071428397830567e+01	 1.214279010100160e+01	 1.000652618334358e+01
0	 1.071428397830567e+01	 1.285704274571142e+01	 1.000614324558030e+01
0	 1.071428397830567e+01	 1.357129522376639e+01	 1.000603064099709e+01
0	 1.071428397830567e+01	 1.428554761849444e+01	 1.000602142873745e+01
0	 1.142853720630899e+01	 7.143009922150926e+00	 1.002571229899618e+01
0	 1.142853720630899e+01	 7.857266066626721e+00	 1.002034029637384e+01
0	 1.142853720630899e+01	 8.571521461152164e+00	 1.001629038265568e+01
0	 1.142853720630899e+01	 9.285776189055182e+00	 1.001336910452796e+01
0	 1.142853720630899e+01	 1.000003033366371e+01	 1.001138300864900e+01
0	 1.142853720630899e+01	 1.071428397830567e+01	 1.001013864164906e+01
0	 1.142853720630899e+01	 1.142853720630899e+01	 1.000944255013044e+01
0	 1.142853720630899e+01	 1.214279010100160e+01	 1.000910128066744e+01
0	 1.142853720630899e+01	 1.285704274571143e+01	 1.000892137980636e+01
0	 1.142853720630899e+01	 1.357129522376639e+01	 1.000870939406550e+01
0	 1.142853720630899e+01	 1.428554761849444e+01	 1.000827186993516e+01
0	 1.214279010100160e+01	 7.143009922150926e+00	 1.002037024834175e+01
0	 1.214279010100160e+01	 7.857266066626720e+00	 1.001677878473234e+01
0	 1.214279010100160e+01	 8.571521461152164e+00	 1.001429214949674e+01
0	 1.214279010100160e+01	 9.285776189055186e+00	 1.001270913966011e+01
0	 1.214279010100160e+01	 1.000003033366371e+01	 1.001182855241914e+01
0	 1.214279010100160e+01	 1.071428397830567e+01	 1.001144918514206e+01
0	 1.214279010100160e+01	 1.142853720630899e+01	 1.001136983536863e+01
0	 1.214279010100160e+01	 1.214279010100160e+01	 1.001138930081014e+01
0	 1.214279010100160e+01	 1.285704274571143e+01	 1.001130637934943e+01
0	 1.214279010100160e+01	 1.357129522376640e+01	 1.001091986904087e+01
0	 1.214279010100160e+01	 1.428554761849445e+01	 1.001002856811038e+01
0	 1.285704274571143e+01	 7.143009922150927e+00	 1.001523112168397e+01
0	 1.285704274571142e+01	 7.857266066626718e+00	 1.001350829401278e+01
0	 1.285704274571142e+01	 8.571521461152162e+00	 1.001258782011667e+01
0	 1.285704274571142e+01	 9.285776189055184e+00	 1.001227951197055e+01
0	 1.285704274571143e+01	 1.000003033366371e+01	 1.001239318189315e+01
0	 1.285704274571143e+01	 1.071428397830567e+01	 1.001273864254699e+01
0	 1.285704274571142e+01	 1.142853720630899e+01	 1.001312570693838e+01
0	 1.285704274571143e+01	 1.214279010100160e+01	 1.001336418841747e+01
0	 1.285704274571142e+01	 1.285704274571142e+01	 1.001326390067818e+01
0	 1.285704274571142e+01	 1.357129522376639e+01	 1.001263465775827e+01
0	 1.285704274571142e+01	 1.428554761849444e+01	 1.001128627403930e+01
0	 1.357129522376639e+01	 7.143009922150926e+00	 1.001075313517129e+01
0	 1.357129522376639e+01	 7.857266066626719e+00	 1.001087218892839e+01
0	 1.357129522376639e+01	 8.571521461152164e+00	 1.001142113090667e+01
0	 1.357129522376639e+01	 9.285776189055182e+00	 1.001223955273442e+01
0	 1.357129522376639e+01	 1.000003033366370e+01	 1.001316704651804e+01
0	 1.357129522376639e+01	 1.071428397830567e+01	 1.001404320484212e+01
0	 1.357129522376639e+01	 1.142853720630899e+01	 1.001470762076940e+01
0	 1.357129522376639e+01	 1.214279010100160e+01	 1.001499988784077e+01
0	 1.357129522376640e+01	 1.285704274571143e+01	 1.001475960007530e+01
0	 1.357129522376639e+01	 1.357129522376639e+01	 1.001382635197020e+01
0	 1.357129522376639e+01	 1.428554761849444e+01	 1.001203973850088e+01
0	 1.428554761849444e+01	 7.143009922150925e+00	 1.000739450486087e+01
0	 1.428554761849444e+01	 7.857266066626719e+00	 1.000921383387703e+01
0	 1.428554761849444e+01	 8.571521461152162e+00	 1.001103581780541e+01
0	 1.428554761849444e+01	 9.285776189055181e+00	 1.001274859271085e+01
0	 1.428554761849444e+01	 1.000003033366371e+01	 1.001424029522207e+01
0	 1.428554761849444e+01	 1.071428397830567e+01	 1.001539906253177e+01
0	 1.428554761849444e+01	 1.142853720630899e+01	 1.001611303239655e+01
0	 1.428554761849444e+01	 1.214279010100160e+01	 1.001627034313696e+01
0	 1.428554761849444e+01	 1.285704274571142e+01	 1.001575913363751e+01
0	 1.428554761849444e+01	 1.357129522376639e+01	 1.001446754334663e+01
0	 1.428554761849444e+01	 1.428554761849444e+01	 1.001228371227672e+01
0	 7.143009922150930e+00	 1.428554761849445e+01	 9.987546800433453e+00
0	 7.143009922150927e+00	 1.499984997172427e+01	 9.989603661596014e+00
0	 7.143009922150928e+00	 1.571415215828766e+01	 9.991648162643196e+00
0	 7.143009922150927e+00	 1.642845401151721e+01	 9.993603736266305e+00
0	 7.143009922150927e+00	 1.714275536474550e+01	 9.995393814557975e+00
0	 7.143009922150927e+00	 1.785705605130510e+01	 9.996941829012172e+00
0	 7.143009922150926e+00	 1.857135590452859e+01	 9.998171210524159e+00
0	 7.143009922150926e+00	 1.928565475774854e+01	 9.999005389390522e+00
0	 7.143009922150926e+00	 1.999995244429754e+01	 9.999367795309137e+00
0	 7.143009922150927e+00	 2.071424879750816e+01	 9.999181857379188e+00
0	 7.143009922150927e+00	 2.142854365071296e+01	 9.998371004101132e+00
0	 7.857266066626718e+00	 1.428554761849444e+01	 9.992187218292083e+00
0	 7.857266066626718e+00	 1.499984997172426e+01	 9.993974562456398e+00
0	 7.857266066626718e+00	 1.571415215828766e+01	 9.995602760271954e+00
0	 7.857266066626720e+00	 1.642845401151721e+01	 9.997033972566584e+00
0	 7.857266066626718e+00	 1.714275536474550e+01	 9.998230359688117e+00
0	 7.857266066626718e+00	 1.785705605130510e+01	 9.999154081504434e+00
0	 7.857266066626721e+00	 1.857135590452858e+01	 9.999767297403398e+00
0	 7.857266066626719e+00	 1.928565475774854e+01	 1.000003216629288e+01
0	 7.857266066626718e+00	 1.999995244429753e+01	 9.999910846600754e+00
0	 7.857266066626718e+00	 2.071424879750815e+01	 9.999365496274883e+00
0	 7.857266066626719e+00	 2.142854365071296e+01	 9.998358272783113e+00
0	 8.571521461152162e+00	 1.428554761849444e+01	 9.996360139287777e+00
0	 8.571521461152164e+00	 1.499984997172426e+01	 9.997763031022957e+00
0	 8.571521461152162e+00	 1.571415215828766e+01	 9.998912348661138e+00
0	 8.571521461152161e+00	 1.642845401151722e+01	 9.999802624618791e+00
0	 8.571521461152164e+00	 1.714275536474550e+01	 1.000042839097065e+01
0	 8.571521461152168e+00	 1.785705605130510e+01	 1.000078417944979e+01
0	 8.571521461152161e+00	 1.857135590452858e+01	 1.000086452144751e+01
0	 8.571521461152164e+00	 1.928565475774854e+01	 1.000066394801345e+01
0	 8.571521461152161e+00	 1.999995244429754e+01	 1.000017698985550e+01
0	 8.571521461152162e+00	 2.071424879750816e+01	 9.999398177339838e+00
0	 8.571521461152161e+00	 2.142854365071296e+01	 9.998322040490899e+00
0	 9.285776189055182e+00	 1.428554761849444e+01	 1.000006031418319e+01
0	 9.285776189055182e+00	 1.499984997172426e+01	 1.000099091891845e+01
0	 9.285776189055179e+00	 1.571415215828766e+01	 1.000162053708117e+01
0	 9.285776189055184e+00	 1.642845401151721e+01	 1.000196971610792e+01
0	 9.285776189055186e+00	 1.714275536474550e+01	 1.000205900324395e+01
0	 9.285776189055182e+00	 1.785705605130510e+01	 1.000190894554319e+01
0	 9.285776189055184e+00	 1.857135590452859e+01	 1.000154008986826e+01
0	 9.285776189055184e+00	 1.928565475774854e+01	 1.000097298289041e+01
0	 9.285776189055181e+00	 1.999995244429753e+01	 1.000022817108959e+01
0	 9.285776189055186e+00	 2.071424879750816e+01	 9.999326200754405e+00
0	 9.285776189055184e+00	 2.142854365071296e+01	 9.998287617982104e+00
0	 1.000003033366371e+01	 1.428554761849444e+01	 1.000328249374372e+01
0	 1.000003033366371e+01	 1.499984997172427e+01	 1.000368007782525e+01
0	 1.000003033366371e+01	 1.571415215828766e+01	 1.000377093489207e+01
0	 1.000003033366371e+01	 1.642845401151722e+01	 1.000359527081618e+01
0	 1.000003033366371e+01	 1.714275536474550e+01	 1.000319329143325e+01
0	 1.000003033366371e+01	 1.785705605130510e+01	 1.000260520254270e+01
0	 1.000003033366371e+01	 1.857135590452859e+01	 1.000187120990758e+01
0	 1.000003033366371e+01	 1.928565475774854e+01	 1.000103151925462e+01
0	 1.000003033366371e+01	 1.999995244429753e+01	 1.000012633627425e+01
0	 1.000003033366371e+01	 2.071424879750815e+01	 9.999195866620560e+00
0	 1.000003033366371e+01	 2.142854365071297e+01	 9.998280315911312e+00
0	 1.071428397830567e+01	 1.428554761849444e+01	 1.000602142873745e+01
0	 1.071428397830567e+01	 1.499984997172426e+01	 1.000585235948534e+01
0	 1.071428397830567e+01	 1.571415215828767e+01	 1.000540715154352e+01
0	 1.071428397830567e+01	 1.642845401151721e+01	 1.000473931262304e+01
0	 1.071428397830567e+01	 1.714275536474550e+01	 1.000390235055078e+01
0	 1.071428397830567e+01	 1.785705605130510e+01	 1.000294977326946e+01
0	 1.071428397830567e+01	 1.857135590452858e+01	 1.000193508883761e+01
0	 1.071428397830567e+01	 1.928565475774854e+01	 1.000091180542963e+01
0	 1.071428397830567e+01	 1.999995244429754e+01	 9.999933431335709e+00
0	 1.071428397830567e+01	 2.071424879750815e+01	 9.999053474961904e+00
0	 1.071428397830567e+01	 2.142854365071296e+01	 9.998325444830101e+00
0	 1.142853720630899e+01	 1.428554761849444e+01	 1.000827186993516e+01
0	 1.142853720630899e+01	 1.499984997172426e+01	 1.000752961570026e+01
0	 1.142853720630899e+01	 1.571415215828766e+01	 1.000657279657484e+01
0	 1.142853720630899e+01	 1.642845401151721e+01	 1.000546186550529e+01
0	 1.142853720630899e+01	 1.714275536474550e+01	 1.000425727569568e+01
0	 1.142853720630899e+01	 1.785705605130509e+01	 1.000301948060769e+01
0	 1.142853720630899e+01	 1.857135590452859e+01	 1.000180893396068e+01
0	 1.142853720630899e+01	 1.928565475774854e+01	 1.000068608973163e+01
0	 1.142853720630899e+01	 1.999995244429754e+01	 9.999711402155192e+00
0	 1.142853720630899e+01	 2.071424879750815e+01	 9.998945325723669e+00
0	 1.142853720630899e+01	 2.142854365071296e+01	 9.998448315187009e+00
0	 1.214279010100160e+01	 1.428554761849445e+01	 1.001002856811038e+01
0	 1.214279010100159e+01	 1.499984997172426e+01	 1.000873369833120e+01
0	 1.214279010100160e+01	 1.571415215828766e+01	 1.000731147961496e+01
0	 1.214279010100160e+01	 1.642845401151721e+01	 1.000582295353693e+01
0	 1.214279010100160e+01	 1.714275536474550e+01	 1.000432916205399e+01
0	 1.214279010100160e+01	 1.785705605130510e+01	 1.000289114750471e+01
0	 1.214279010100160e+01	 1.857135590452858e+01	 1.000156995260926e+01
0	 1.214279010100160e+01	 1.928565475774854e+01	 1.000042662046951e+01
0	 1.214279010100160e+01	 1.999995244429754e+01	 9.999522194568936e+00
0	 1.214279010100160e+01	 2.071424879750815e+01	 9.998917718772685e+00
0	 1.214279010100160e+01	 2.142854365071297e+01	 9.998674237327549e+00
0	 1.285704274571142e+01	 1.428554761849444e+01	 1.001128627403930e+01
0	 1.285704274571142e+01	 1.499984997172426e+01	 1.000948645929893e+01
0	 1.285704274571143e+01	 1.571415215828767e+01	 1.000766681038249e+01
0	 1.285704274571142e+01	 1.642845401151721e+01	 1.000588260088921e+01
0	 1.285704274571142e+01	 1.714275536474550e+01	 1.000418910489871e+01
0	 1.285704274571142e+01	 1.785705605130510e+01	 1.000264159697091e+01
0	 1.285704274571142e+01	 1.857135590452858e+01	 1.000129535214607e+01
0	 1.285704274571142e+01	 1.928565475774854e+01	 1.000020564594483e+01
0	 1.285704274571142e+01	 1.999995244429753e+01	 9.999427754368176e+00
0	 1.285704274571142e+01	 2.071424879750816e+01	 9.999016953897399e+00
0	 1.285704274571142e+01	 2.142854365071296e+01	 9.999028521494209e+00
0	 1.357129522376639e+01	 1.428554761849444e+01	 1.001203973850088e+01
0	 1.357129522376639e+01	 1.499984997172426e+01	 1.000980975058384e+01
0	 1.357129522376640e+01	 1.571415215828766e+01	 1.000768239868563e+01
0	 1.357129522376639e+01	 1.642845401151722e+01	 1.000570083183070e+01
0	 1.357129522376640e+01	 1.714275536474550e+01	 1.000390819958977e+01
0	 1.357129522376639e+01	 1.785705605130510e+01	 1.000234765207978e+01
0	 1.357129522376639e+01	 1.857135590452858e+01	 1.000106233996397e+01
0	 1.357129522376639e+01	 1.928565475774854e+01	 1.000009541445184e+01
0	 1.357129522376639e+01	 1.999995244429753e+01	 9.999490027299135e+00
0	 1.357129522376640e+01	 2.071424879750815e+01	 9.999289330807898e+00
0	 1.357129522376639e+01	 2.142854365071297e+01	 9.999536477826460e+00
0	 1.428554761849444e+01	 1.428554761849444e+01	 1.001228371227672e+01
0	 1.428554761849444e+01	 1.499984997172426e+01	 1.000972542422588e+01
0	 1.428554761849444e+01	 1.571415215828766e+01	 1.000740185442225e+01
0	 1.428554761849444e+01	 1.642845401151721e+01	 1.000533767072719e+01
0	 1.428554761849444e+01	 1.714275536474550e+01	 1.000355754157401e+01
0	 1.428554761849445e+01	 1.785705605130510e+01	 1.000208613596793e+01
0	 1.428554761849444e+01	 1.857135590452859e+01	 1.000094812348605e+01
0	 1.428554761849444e+01	 1.928565475774854e+01	 1.000016817427742e+01
0	 1.428554761849444e+01	 1.999995244429753e+01	 9.999770959063062e+00
0	 1.428554761849444e+01	 2.071424879750816e+01	 9.999781149135874e+00
0	 1.428554761849444e+01	 2.142854365071296e+01	 1.000022341636072e+01
0	 7.143009922150927e+00	 2.142854365071296e+01	 9.998371004101132e+00
0	 7.143009922150927e+00	 2.214283692057824e+01	 9.997239137319671e+00
0	 7.143009922150925e+00	 2.285712885710493e+01	 9.996167544704617e+00
0	 7.143009922150926e+00	 2.357141979362770e+01	 9.995195732426373e+00
0	 7.143009922150927e+00	 2.428571006348117e+01	 9.994363205830446e+00
0	 7.143009922150926e+00	 2.500000000000000e+01	 9.993709469437455e+00
0	 7.143009922150926e+00	 2.571428993651883e+01	 9.993274026943086e+00
0	 7.143009922150926e+00	 2.642858020637231e+01	 9.993096381218123e+00
0	 7.143009922150928e+00	 2.714287114289507e+01	 9.993216034308418e+00
0	 7.143009922150926e+00	 2.785716307942177e+01	 9.993672487434917e+00
0	 7.143009922150926e+00	 2.857145634928704e+01	 9.994505240993680e+00
0	 7.857266066626719e+00	 2.142854365071296e+01	 9.998358272783113e+00
0	 7.857266066626720e+00	 2.214283692057824e+01	 9.997169158342359e+00
0	 7.857266066626718e+00	 2.285712885710494e+01	 9.996117879185896e+00
0	 7.857266066626717e+00	 2.357141979362770e+01	 9.995226207872994e+00
0	 7.857266066626718e+00	 2.428571006348117e+01	 9.994515916198765e+00
0	 7.857266066626719e+00	 2.500000000000000e+01	 9.994008775194159e+00
0	 7.857266066626718e+00	 2.571428993651883e+01	 9.993726555125935e+00
0	 7.857266066626718e+00	 2.642858020637231e+01	 9.993691025496691e+00
0	 7.857266066626716e+00	 2.714287114289507e+01	 9.993923955044824e+00
0	 7.857266066626720e+00	 2.785716307942178e+01	 9.994447111744579e+00
0	 7.857266066626718e+00	 2.857145634928704e+01	 9.995282262806025e+00
0	 8.571521461152161e+00	 2.142854365071296e+01	 9.998322040490899e+00
0	 8.571521461152161e+00	 2.214283692057824e+01	 9.997185558479089e+00
0	 8.571521461152164e+00	 2.285712885710494e+01	 9.996233970079233e+00
0	 8.571521461152164e+00	 2.357141979362770e+01	 9.995474193969077e+00
0	 8.571521461152161e+00	 2.428571006348118e+01	 9.994913148163672e+00
0	 8.571521461152161e+00	 2.500000000000001e+01	 9.994557750015366e+00
0	 8.571521461152162e+00	 2.571428993651883e+01	 9.994414916213790e+00
0	 8.571521461152164e+00	 2.642858020637231e+01	 9.994491562785853e+00
0	 8.571521461152162e+00	 2.714287114289508e+01	 9.994794605095731e+00
0	 8.571521461152161e+00	 2.785716307942177e+01	 9.995330957844875e+00
0	 8.571521461152162e+00	 2.857145634928703e+01	 9.996107535072063e+00
0	 9.285776189055184e+00	 2.142854365071296e+01	 9.998287617982104e+00
0	 9.285776189055182e+00	 2.214283692057824e+01	 9.997291833220443e+00
0	 9.285776189055184e+00	 2.285712885710494e+01	 9.996501189602153e+00
0	 9.285776189055184e+00	 2.357141979362770e+01	 9.995910631710311e+00
0	 9.285776189055179e+00	 2.428571006348117e+01	 9.995515103597166e+00
0	 9.285776189055184e+00	 2.500000000000001e+01	 9.995309548784082e+00
0	 9.285776189055186e+00	 2.571428993651884e+01	 9.995288910261527e+00
0	 9.285776189055184e+00	 2.642858020637231e+01	 9.995448130489116e+00
0	 9.285776189055184e+00	 2.714287114289507e+01	 9.995782151395570e+00
0	 9.285776189055182e+00	 2.785716307942177e+01	 9.996285914378724e+00
0	 9.285776189055181e+00	 2.857145634928704e+01	 9.996954360305562e+00
0	 1.000003033366371e+01	 2.142854365071297e+01	 9.998280315911312e+00
0	 1.000003033366371e+01	 2.214283692057824e+01	 9.997491477941416e+00
0	 1.000003033366371e+01	 2.285712885710494e+01	 9.996904909855237e+00
0	 1.000003033366371e+01	 2.357141979362770e+01	 9.996506461983282e+00
0	 1.000003033366371e+01	 2.428571006348118e+01	 9.996281984277072e+00
0	 1.000003033366371e+01	 2.500000000000000e+01	 9.996217326309141e+00
0	 1.000003033366371e+01	 2.571428993651883e+01	 9.996298337273027e+00
0	 1.000003033366371e+01	 2.642858020637231e+01	 9.996510865983275e+00
0	 1.000003033366371e+01	 2.714287114289508e+01	 9.996840760875438e+00
0	 1.000003033366371e+01	 2.785716307942178e+01	 9.997273870006067e+00
0	 1.000003033366371e+01	 2.857145634928704e+01	 9.997796041052716e+00
0	 1.071428397830567e+01	 2.142854365071296e+01	 9.998325444830101e+00
0	 1.071428397830567e+01	 2.214283692057824e+01	 9.997787987901475e+00
0	 1.071428397830567e+01	 2.285712885710494e+01	 9.997430502822201e+00
0	 1.071428397830567e+01	 2.357141979362770e+01	 9.997232625565454e+00
0	 1.071428397830566e+01	 2.428571006348118e+01	 9.997173991887022e+00
0	 1.071428397830567e+01	 2.500000000000000e+01	 9.997234237325275e+00
0	 1.071428397830567e+01	 2.571428993651884e+01	 9.997392997201205e+00
0	 1.071428397830567e+01	 2.642858020637232e+01	 9.997629906618393e+00
0	 1.071428397830567e+01	 2.714287114289508e+01	 9.997924600463019e+00
0	 1.071428397830567e+01	 2.785716307942177e+01	 9.998256713403828e+00
0	 1.071428397830567e+01	 2.857145634928704e+01	 9.998605879892189e+00
0	 1.142853720630899e+01	 2.142854365071296e+01	 9.998448315187009e+00
0	 1.142853720630899e+01	 2.214283692057824e+01	 9.998184858244517e+00
0	 1.142853720630899e+01	 2.285712885710494e+01	 9.998063340369793e+00
0	 1.142853720630899e+01	 2.357141979362770e+01	 9.998060063125141e+00
0	 1.142853720630899e+01	 2.428571006348118e+01	 9.998151328016421e+00
0	 1.142853720630898e+01	 2.499999999999999e+01	 9.998313436493049e+00
0	 1.142853720630899e+01	 2.571428993651884e+01	 9.998522689948011e+00
0	 1.142853720630899e+01	 2.642858020637232e+01	 9.998755389717831e+00
0	 1.142853720630899e+01	 2.714287114289508e+01	 9.998987837082602e+00
0	 1.142853720630899e+01	 2.785716307942177e+01	 9.999196333265962e+00
0	 1.142853720630899e+01	 2.857145634928704e+01	 9.999357179435103e+00
0	 1.214279010100160e+01	 2.142854365071297e+01	 9.998674237327549e+00
0	 1.214279010100160e+01	 2.214283692057823e+01	 9.998685583998864e+00
0	 1.214279010100160e+01	 2.285712885710493e+01	 9.998788794247846e+00
0	 1.214279010100160e+01	 2.357141979362770e+01	 9.998959715221535e+00
0	 1.214279010100160e+01	 2.428571006348117e+01	 9.999174194160510e+00
0	 1.214279010100160e+01	 2.500000000000000e+01	 9.999408078398911e+00
0	 1.214279010100160e+01	 2.571428993651884e+01	 9.999637215364412e+00
0	 1.214279010100160e+01	 2.642858020637230e+01	 9.999837452578223e+00
0	 1.214279010100160e+01	 2.714287114289508e+01	 9.999984637655134e+00
0	 1.214279010100160e+01	 2.785716307942177e+01	 1.000005461830344e+01
0	 1.214279010100160e+01	 2.857145634928704e+01	 1.000002324232499e+01
0	 1.285704274571142e+01	 2.142854365071296e+01	 9.999028521494209e+00
0	 1.285704274571142e+01	 2.214283692057824e+01	 9.999293660077289e+00
0	 1.285704274571143e+01	 2.285712885710494e+01	 9.999592236089264e+00
0	 1.285704274571142e+01	 2.357141979362770e+01	 9.999902522304684e+00
0	 1.285704274571143e+01	 2.428571006348118e+01	 1.000020279172031e+01
0	 1.285704274571142e+01	 2.500000000000001e+01	 1.000047131755514e+01
0	 1.285704274571143e+01	 2.571428993651884e+01	 1.000068637325039e+01
0	 1.285704274571142e+01	 2.642858020637232e+01	 1.000082623246950e+01
0	 1.285704274571142e+01	 2.714287114289507e+01	 1.000086916909815e+01
0	 1.285704274571142e+01	 2.785716307942177e+01	 1.000079345724424e+01
0	 1.285704274571142e+01	 2.857145634928703e+01	 1.000057737123789e+01
0	 1.357129522376639e+01	 2.142854365071297e+01	 9.999536477826460e+00
0	 1.357129522376640e+01	 2.214283692057824e+01	 1.000001258127700e+01
0	 1.357129522376640e+01	 2.285712885710494e+01	 1.000045903741005e+01
0	 1.357129522376639e+01	 2.357141979362770e+01	 1.000085942471552e+01
0	 1.357129522376639e+01	 2.428571006348117e+01	 1.000119732200266e+01
0	 1.357129522376640e+01	 2.500000000000001e+01	 1.000145630839989e+01
0	 1.357129522376639e+01	 2.571428993651883e+01	 1.000161996335495e+01
0	 1.357129522376639e+01	 2.642858020637231e+01	 1.000167186663484e+01
0	 1.357129522376639e+01	 2.714287114289508e+01	 1.000159559832580e+01
0	 1.357129522376640e+01	 2.785716307942178e+01	 1.000137473883336e+01
0	 1.357129522376639e+01	 2.857145634928703e+01	 1.000099286888227e+01
0	 1.428554761849444e+01	 2.142854365071296e+01	 1.000022341636072e+01
0	 1.428554761849444e+01	 2.214283692057823e+01	 1.000084584227964e+01
0	 1.428554761849445e+01	 2.285712885710494e+01	 1.000137456960923e+01
0	 1.428554761849444e+01	 2.357141979362770e+01	 1.000180136268584e+01
0	 1.428554761849445e+01	 2.428571006348118e+01	 1.000211798622015e+01
0	 1.428554761849444e+01	 2.500000000000000e+01	 1.000231620529716e+01
0	 1.428554761849444e+01	 2.571428993651883e+01	 1.000238778537615e+01
0	 1.428554761849444e+01	 2.642858020637231e+01	 1.000232449229075e+01
0	 1.428554761849444e+01	 2.714287114289507e+01	 1.000211809224888e+01
0	 1.428554761849444e+01	 2.785716307942177e+01	 1.000176035183280e+01
0	 1.428554761849444e+01	 2.857145634928703e+01	 1.000124303799902e+01
0	 7.143009922150926e+00	 2.857145634928704e+01	 9.994505240993680e+00
0	 7.143009922150928e+00	 2.928575120249186e+01	 9.995510665148245e+00
0	 7.143009922150926e+00	 3.000004755570247e+01	 9.996447441514865e+00
0	 7.143009922150928e+00	 3.071434524225147e+01	 9.997298536868543e+00
0	 7.143009922150927e+00	 3.142864409547143e+01	 9.998046917742336e+00
0	 7.143009922150926e+00	 3.214294394869490e+01	 9.998675550427363e+00
0	 7.143009922150926e+00	 3.285724463525450e+01	 9.999167400972857e+00
0	 7.143009922150926e+00	 3.357154598848279e+01	 9.999505435186068e+00
0	 7.143009922150926e+00	 3.428584784171235e+01	 9.999672618632363e+00
0	 7.143009922150927e+00	 3.500015002827575e+01	 9.999651916635216e+00
0	 7.143009922150928e+00	 3.571445238150556e+01	 9.999426294276107e+00
0	 7.857266066626718e+00	 2.857145634928704e+01	 9.995282262806025e+00
0	 7.857266066626717e+00	 2.928575120249185e+01	 9.996233707018888e+00
0	 7.857266066626720e+00	 3.000004755570248e+01	 9.997085789504178e+00
0	 7.857266066626719e+00	 3.071434524225147e+01	 9.997830346236107e+00
0	 7.857266066626719e+00	 3.142864409547143e+01	 9.998459212976009e+00
0	 7.857266066626718e+00	 3.214294394869491e+01	 9.998964225272356e+00
0	 7.857266066626720e+00	 3.285724463525450e+01	 9.999337218460779e+00
0	 7.857266066626721e+00	 3.357154598848281e+01	 9.999570027664079e+00
0	 7.857266066626721e+00	 3.428584784171235e+01	 9.999654487792135e+00
0	 7.857266066626719e+00	 3.500015002827575e+01	 9.999582433542043e+00
0	 7.857266066626717e+00	 3.571445238150555e+01	 9.999345699398031e+00
0	 8.571521461152162e+00	 2.857145634928703e+01	 9.996107535072063e+00
0	 8.571521461152162e+00	 2.928575120249185e+01	 9.996949332123727e+00
0	 8.571521461152162e+00	 3.000004755570248e+01	 9.997676206818898e+00
0	 8.571521461152166e+00	 3.071434524225148e+01	 9.998287366277401e+00
0	 8.571521461152162e+00	 3.142864409547143e+01	 9.998782017444636e+00
0	 8.571521461152166e+00	 3.214294394869491e+01	 9.999159367091547e+00
0	 8.571521461152161e+00	 3.285724463525451e+01	 9.999418621814709e+00
0	 8.571521461152161e+00	 3.357154598848280e+01	 9.999558988036267e+00
0	 8.571521461152162e+00	 3.428584784171236e+01	 9.999579672003932e+00
0	 8.571521461152162e+00	 3.500015002827575e+01	 9.999479879791030e+00
0	 8.571521461152161e+00	 3.571445238150555e+01	 9.999258817296477e+00
0	 9.285776189055181e+00	 2.857145634928704e+01	 9.996954360305562e+00
0	 9.285776189055184e+00	 2.928575120249186e+01	 9.997643129245953e+00
0	 9.285776189055184e+00	 3.000004755570248e+01	 9.998214621170998e+00
0	 9.285776189055182e+00	 3.071434524225146e+01	 9.998673916304304e+00
0	 9.285776189055184e+00	 3.142864409547143e+01	 9.999026094740138e+00
0	 9.285776189055184e+00	 3.214294394869492e+01	 9.999276236443439e+00
0	 9.285776189055182e+00	 3.285724463525450e+01	 9.999429421249800e+00
0	 9.285776189055182e+00	 3.357154598848279e+01	 9.999490728865501e+00
0	 9.285776189055182e+00	 3.428584784171235e+01	 9.999465238867479e+00
0	 9.285776189055184e+00	 3.500015002827575e+01	 9.999358030703325e+00
0	 9.285776189055182e+00	 3.571445238150556e+01	 9.999174183691316e+00
0	 1.000003033366371e+01	 2.857145634928704e+01	 9.997796041052716e+00
0	 1.000003033366371e+01	 2.928575120249186e+01	 9.998300687210214e+00
0	 1.000003033366371e+01	 3.000004755570247e+01	 9.998696960316941e+00
0	 1.000003033366371e+01	 3.071434524225147e+01	 9.998994315671332e+00
0	 1.000003033366371e+01	 3.142864409547143e+01	 9.999202208491480e+00
0	 1.000003033366371e+01	 3.214294394869491e+01	 9.999330093915137e+00
0	 1.000003033366371e+01	 3.285724463525451e+01	 9.999387426999709e+00
0	 1.000003033366371e+01	 3.357154598848280e+01	 9.999383662722309e+00
0	 1.000003033366371e+01	 3.428584784171236e+01	 9.999328255979663e+00
0	 1.000003033366371e+01	 3.500015002827575e+01	 9.999230661588193e+00
0	 1.000003033366371e+01	 3.571445238150557e+01	 9.999100334283986e+00
0	 1.071428397830567e+01	 2.857145634928704e+01	 9.998605879892189e+00
0	 1.071428397830567e+01	 2.928575120249186e+01	 9.998907594882564e+00
0	 1.071428397830567e+01	 3.000004755570248e+01	 9.999119152057681e+00
0	 1.071428397830566e+01	 3.071434524225146e+01	 9.999252883775704e+00
0	 1.071428397830567e+01	 3.142864409547143e+01	 9.999321122364634e+00
0	 1.071428397830567e+01	 3.214294394869491e+01	 9.999336200122348e+00
0	 1.071428397830567e+01	 3.285724463525451e+01	 9.999310449316553e+00
0	 1.071428397830567e+01	 3.357154598848280e+01	 9.999256202184817e+00
0	 1.071428397830567e+01	 3.428584784171235e+01	 9.999185790934561e+00
0	 1.071428397830567e+01	 3.500015002827575e+01	 9.999111547743066e+00
0	 1.071428397830567e+01	 3.571445238150556e+01	 9.999045804757454e+00
0	 1.142853720630899e+01	 2.857145634928704e+01	 9.999357179435103e+00
0	 1.142853720630899e+01	 2.928575120249186e+01	 9.999449441170505e+00
0	 1.142853720630899e+01	 3.000004755570248e+01	 9.999477124238650e+00
0	 1.142853720630899e+01	 3.071434524225147e+01	 9.999453940057276e+00
0	 1.142853720630899e+01	 3.142864409547143e+01	 9.999393600062612e+00
0	 1.142853720630899e+01	 3.214294394869491e+01	 9.999309815709394e+00
0	 1.142853720630899e+01	 3.285724463525451e+01	 9.999216298470870e+00
0	 1.142853720630899e+01	 3.357154598848280e+01	 9.999126759838791e+00
0	 1.142853720630899e+01	 3.428584784171234e+01	 9.999054911323405e+00
0	 1.142853720630899e+01	 3.500015002827575e+01	 9.999014464453484e+00
0	 1.142853720630899e+01	 3.571445238150555e+01	 9.999019130776281e+00
0	 1.214279010100160e+01	 2.857145634928704e+01	 1.000002324232499e+01
0	 1.214279010100160e+01	 2.928575120249185e+01	 9.999911815022955e+00
0	 1.214279010100160e+01	 3.000004755570248e+01	 9.999766804749783e+00
0	 1.214279010100160e+01	 3.071434524225148e+01	 9.999601803998617e+00
0	 1.214279010100160e+01	 3.142864409547143e+01	 9.999430405325448e+00
0	 1.214279010100160e+01	 3.214294394869492e+01	 9.999266201349208e+00
0	 1.214279010100160e+01	 3.285724463525450e+01	 9.999122784751700e+00
0	 1.214279010100160e+01	 3.357154598848280e+01	 9.999013748277651e+00
0	 1.214279010100160e+01	 3.428584784171235e+01	 9.998952684734624e+00
0	 1.214279010100160e+01	 3.500015002827575e+01	 9.998953186993131e+00
0	 1.214279010100160e+01	 3.571445238150555e+01	 9.999028847986562e+00
0	 1.285704274571142e+01	 2.857145634928703e+01	 1.000057737123789e+01
0	 1.285704274571142e+01	 2.928575120249185e+01	 1.000028030543028e+01
0	 1.285704274571142e+01	 3.000004755570248e+01	 9.999984121525502e+00
0	 1.285704274571142e+01	 3.071434524225148e+01	 9.999700795124912e+00
0	 1.285704274571143e+01	 3.142864409547143e+01	 9.999442301930205e+00
0	 1.285704274571143e+01	 3.214294394869491e+01	 9.999220617743321e+00
0	 1.285704274571142e+01	 3.285724463525451e+01	 9.999047718466533e+00
0	 1.285704274571143e+01	 3.357154598848281e+01	 9.998935580102398e+00
0	 1.285704274571143e+01	 3.428584784171235e+01	 9.998896178753784e+00
0	 1.285704274571142e+01	 3.500015002827575e+01	 9.998941490623817e+00
0	 1.285704274571142e+01	 3.571445238150555e+01	 9.999083492015949e+00
0	 1.357129522376639e+01	 2.857145634928703e+01	 1.000099286888227e+01
0	 1.357129522376640e+01	 2.928575120249185e+01	 1.000054050142427e+01
0	 1.357129522376640e+01	 3.000004755570248e+01	 1.000012500254469e+01
0	 1.357129522376639e+01	 3.071434524225147e+01	 9.999755233004088e+00
0	 1.357129522376640e+01	 3.142864409547143e+01	 9.999440053690977e+00
0	 1.357129522376640e+01	 3.214294394869492e+01	 9.999188325621883e+00
0	 1.357129522376640e+01	 3.285724463525452e+01	 9.999008909941312e+00
0	 1.357129522376640e+01	 3.357154598848280e+01	 9.998910667921759e+00
0	 1.357129522376640e+01	 3.428584784171235e+01	 9.998902460963667e+00
0	 1.357129522376639e+01	 3.500015002827574e+01	 9.998993150595483e+00
0	 1.357129522376639e+01	 3.571445238150555e+01	 9.999191598473647e+00
0	 1.428554761849444e+01	 2.857145634928703e+01	 1.000124303799902e+01
0	 1.428554761849444e+01	 2.928575120249186e+01	 1.000067799207815e+01
0	 1.428554761849444e+01	 3.000004755570247e+01	 1.000018537583076e+01
0	 1.428554761849444e+01	 3.071434524225147e+01	 9.999769437246670e+00
0	 1.428554761849444e+01	 3.142864409547143e+01	 9.999434424458881e+00
0	 1.428554761849444e+01	 3.214294394869491e+01	 9.999184585743645e+00
0	 1.428554761849444e+01	 3.285724463525450e+01	 9.999024169520442e+00
0	 1.428554761849444e+01	 3.357154598848280e+01	 9.998957424351977e+00
0	 1.428554761849444e+01	 3.428584784171235e+01	 9.998988598944187e+00
0	 1.428554761849444e+01	 3.500015002827575e+01	 9.999121942146212e+00
0	 1.428554761849444e+01	 3.571445238150556e+01	 9.999361702950431e+00
0	 7.143009922150928e+00	 3.571445238150556e+01	 9.999426294276105e+00
0	 7.143009922150929e+00	 3.642870477623360e+01	 9.999111162526418e+00
0	 7.143009922150926e+00	 3.714295725428856e+01	 9.998838696330887e+00
0	 7.143009922150927e+00	 3.785720989899839e+01	 9.998617076594158e+00
0	 7.143009922150927e+00	 3.857146279369102e+01	 9.998454484162371e+00
0	 7.143009922150926e+00	 3.928571602169433e+01	 9.998359099823075e+00
0	 7.143009922150926e+00	 3.999996966633628e+01	 9.998339104305330e+00
0	 7.143009922150926e+00	 4.071422381094481e+01	 9.998402678279621e+00
0	 7.143009922150927e+00	 4.142847853884783e+01	 9.998558002357878e+00
0	 7.143009922150926e+00	 4.214273393337328e+01	 9.998813257093538e+00
0	 7.143009922150927e+00	 4.285699007784908e+01	 9.999176622981455e+00
0	 7.857266066626717e+00	 3.571445238150555e+01	 9.999345699398033e+00
0	 7.857266066626719e+00	 3.642870477623360e+01	 9.999050239661621e+00
0	 7.857266066626718e+00	 3.714295725428857e+01	 9.998809793677516e+00
0	 7.857266066626720e+00	 3.785720989899840e+01	 9.998627940872970e+00
0	 7.857266066626719e+00	 3.857146279369100e+01	 9.998508260624654e+00
0	 7.857266066626721e+00	 3.928571602169433e+01	 9.998454332258660e+00
0	 7.857266066626718e+00	 3.999996966633628e+01	 9.998469735050548e+00
0	 7.857266066626718e+00	 4.071422381094482e+01	 9.998558048225293e+00
0	 7.857266066626720e+00	 4.142847853884783e+01	 9.998722850957289e+00
0	 7.857266066626718e+00	 4.214273393337327e+01	 9.998967722370379e+00
0	 7.857266066626720e+00	 4.285699007784908e+01	 9.999296241537841e+00
0	 8.571521461152161e+00	 3.571445238150555e+01	 9.999258817296473e+00
0	 8.571521461152161e+00	 3.642870477623359e+01	 9.999007008145805e+00
0	 8.571521461152162e+00	 3.714295725428857e+01	 9.998815330198150e+00
0	 8.571521461152161e+00	 3.785720989899839e+01	 9.998683579752523e+00
0	 8.571521461152164e+00	 3.857146279369102e+01	 9.998611553067477e+00
0	 8.571521461152162e+00	 3.928571602169433e+01	 9.998599046361097e+00
0	 8.571521461152161e+00	 3.999996966633627e+01	 9.998645855810988e+00
0	 8.571521461152162e+00	 4.071422381094482e+01	 9.998751777554284e+00
0	 8.571521461152162e+00	 4.142847853884781e+01	 9.998916607687640e+00
0	 8.571521461152162e+00	 4.214273393337329e+01	 9.999140142267262e+00
0	 8.571521461152164e+00	 4.285699007784906e+01	 9.999422177308848e+00
0	 9.285776189055182e+00	 3.571445238150556e+01	 9.999174183691316e+00
0	 9.285776189055184e+00	 3.642870477623359e+01	 9.998984278798984e+00
0	 9.285776189055184e+00	 3.714295725428858e+01	 9.998853367678391e+00
0	 9.285776189055184e+00	 3.785720989899840e+01	 9.998778281854452e+00
0	 9.285776189055182e+00	 3.857146279369099e+01	 9.998755852823153e+00
0	 9.285776189055186e+00	 3.928571602169433e+01	 9.998782912051524e+00
0	 9.285776189055181e+00	 3.999996966633628e+01	 9.998856290977660e+00
0	 9.285776189055181e+00	 4.071422381094482e+01	 9.998972821010693e+00
0	 9.285776189055184e+00	 4.142847853884782e+01	 9.999129333530856e+00
0	 9.285776189055184e+00	 4.214273393337329e+01	 9.999322659889401e+00
0	 9.285776189055184e+00	 4.285699007784908e+01	 9.999549631408671e+00
0	 1.000003033366371e+01	 3.571445238150557e+01	 9.999100334283986e+00
0	 1.000003033366371e+01	 3.642870477623359e+01	 9.998984862419345e+00
0	 1.000003033366371e+01	 3.714295725428858e+01	 9.998921967881676e+00
0	 1.000003033366371e+01	 3.785720989899840e+01	 9.998906335780211e+00
0	 1.000003033366371e+01	 3.857146279369099e+01	 9.998932651207564e+00
0	 1.000003033366371e+01	 3.928571602169432e+01	 9.998995599239670e+00
0	 1.000003033366371e+01	 3.999996966633628e+01	 9.999089864935808e+00
0	 1.000003033366371e+01	 4.071422381094481e+01	 9.999210133338595e+00
0	 1.000003033366371e+01	 4.142847853884783e+01	 9.999351089474002e+00
0	 1.000003033366371e+01	 4.214273393337327e+01	 9.999507418351349e+00
0	 1.000003033366371e+01	 4.285699007784907e+01	 9.999673804963310e+00
0	 1.071428397830567e+01	 3.571445238150556e+01	 9.999045804757456e+00
0	 1.071428397830567e+01	 3.642870477623359e+01	 9.999011569783336e+00
0	 1.071428397830567e+01	 3.714295725428858e+01	 9.999019192549271e+00
0	 1.071428397830567e+01	 3.785720989899841e+01	 9.999062030111066e+00
0	 1.071428397830567e+01	 3.857146279369099e+01	 9.999133439520186e+00
0	 1.071428397830567e+01	 3.928571602169433e+01	 9.999226777823843e+00
0	 1.071428397830567e+01	 3.999996966633628e+01	 9.999335402064897e+00
0	 1.071428397830567e+01	 4.071422381094482e+01	 9.999452669281977e+00
0	 1.071428397830567e+01	 4.142847853884785e+01	 9.999571936509344e+00
0	 1.071428397830567e+01	 4.214273393337328e+01	 9.999686560777000e+00
0	 1.071428397830567e+01	 4.285699007784907e+01	 9.999789899110656e+00
0	 1.142853720630899e+01	 3.571445238150555e+01	 9.999019130776283e+00
0	 1.142853720630899e+01	 3.642870477623361e+01	 9.999067211645627e+00
0	 1.142853720630899e+01	 3.714295725428857e+01	 9.999143103400320e+00
0	 1.142853720630899e+01	 3.785720989899840e+01	 9.999239653408075e+00
0	 1.142853720630899e+01	 3.857146279369100e+01	 9.999349709044079e+00
0	 1.142853720630899e+01	 3.928571602169433e+01	 9.999466117690925e+00
0	 1.142853720630899e+01	 3.999996966633628e+01	 9.999581726738668e+00
0	 1.142853720630899e+01	 4.071422381094479e+01	 9.999689383584823e+00
0	 1.142853720630899e+01	 4.142847853884783e+01	 9.999781935634331e+00
0	 1.142853720630899e+01	 4.214273393337327e+01	 9.999852230299592e+00
0	 1.142853720630899e+01	 4.285699007784908e+01	 9.999893115000440e+00
0	 1.214279010100160e+01	 3.571445238150555e+01	 9.999028847986560e+00
0	 1.214279010100160e+01	 3.642870477623360e+01	 9.999154598739104e+00
0	 1.214279010100160e+01	 3.714295725428856e+01	 9.999291762131746e+00
0	 1.214279010100160e+01	 3.785720989899840e+01	 9.999433494212152e+00
0	 1.214279010100160e+01	 3.857146279369100e+01	 9.999572951045890e+00
0	 1.214279010100160e+01	 3.928571602169431e+01	 9.999703288716381e+00
0	 1.214279010100160e+01	 3.999996966633629e+01	 9.999817663325036e+00
0	 1.214279010100160e+01	 4.071422381094482e+01	 9.999909230991051e+00
0	 1.214279010100160e+01	 4.142847853884783e+01	 9.999971147851593e+00
0	 1.214279010100160e+01	 4.214273393337327e+01	 9.999996570061686e+00
0	 1.214279010100160e+01	 4.285699007784908e+01	 9.999978653794269e+00
0	 1.285704274571142e+01	 3.571445238150555e+01	 9.999083492015949e+00
0	 1.285704274571143e+01	 3.642870477623360e+01	 9.999276541774890e+00
0	 1.285704274571142e+01	 3.714295725428856e+01	 9.999463230418350e+00
0	 1.285704274571142e+01	 3.785720989899839e+01	 9.999637841043985e+00
0	 1.285704274571142e+01	 3.857146279369100e+01	 9.999794656775837e+00
0	 1.285704274571142e+01	 3.928571602169433e+01	 9.999927960764303e+00
0	 1.285704274571142e+01	 3.999996966633628e+01	 1.000003203618616e+01
0	 1.285704274571142e+01	 4.071422381094481e+01	 1.000010116624454e+01
0	 1.285704274571142e+01	 4.142847853884783e+01	 1.000012963416893e+01
0	 1.285704274571142e+01	 4.214273393337328e+01	 1.000011172321520e+01
0	 1.285704274571142e+01	 4.285699007784907e+01	 1.000004171666559e+01
0	 1.357129522376639e+01	 3.571445238150555e+01	 9.999191598473647e+00
0	 1.357129522376639e+01	 3.642870477623359e+01	 9.999435851442312e+00
0	 1.357129522376639e+01	 3.714295725428857e+01	 9.999655569912720e+00
0	 1.357129522376640e+01	 3.785720989899841e+01	 9.999846982404083e+00
0	 1.357129522376639e+01	 3.857146279369101e+01	 1.000000631746776e+01
0	 1.357129522376639e+01	 3.928571602169433e+01	 1.000012980368731e+01
0	 1.357129522376639e+01	 3.999996966633628e+01	 1.000021366967846e+01
0	 1.357129522376639e+01	 4.071422381094480e+01	 1.000025414408912e+01
0	 1.357129522376640e+01	 4.142847853884783e+01	 1.000024745559935e+01
0	 1.357129522376640e+01	 4.214273393337328e+01	 1.000018983292141e+01
0	 1.357129522376640e+01	 4.285699007784908e+01	 1.000007750479973e+01
0	 1.428554761849444e+01	 3.571445238150556e+01	 9.999361702950431e+00
0	 1.428554761849444e+01	 3.642870477623360e+01	 9.999635338408950e+00
0	 1.428554761849444e+01	 3.714295725428857e+01	 9.999866842245343e+00
0	 1.428554761849445e+01	 3.785720989899840e+01	 1.000005520677279e+01
0	 1.428554761849444e+01	 3.857146279369100e+01	 1.000019942433907e+01
0	 1.428554761849444e+01	 3.928571602169433e+01	 1.000029848732663e+01
0	 1.428554761849444e+01	 3.999996966633629e+01	 1.000035138815256e+01
0	 1.428554761849444e+01	 4.071422381094481e+01	 1.000035711926857e+01
0	 1.428554761849444e+01	 4.142847853884783e+01	 1.000031467316102e+01
0	 1.428554761849444e+01	 4.214273393337327e+01	 1.000022304235090e+01
0	 1.428554761849445e+01	 4.285699007784908e+01	 1.000008121939384e+01
0	 7.143009922150927e+00	 4.285699007784908e+01	 9.999176622981453e+00
0	 7.143009922150927e+00	 4.357129694500738e+01	 9.999562663095341e+00
0	 7.143009922150926e+00	 4.428560406221391e+01	 9.999877703052983e+00
0	 7.143009922150925e+00	 4.499991084612201e+01	 1.000011765499100e+01
0	 7.143009922150927e+00	 4.571421671338501e+01	 1.000027843055816e+01
0	 7.143009922150927e+00	 4.642852108065613e+01	 1.000035594091524e+01
0	 7.143009922150925e+00	 4.714282336458874e+01	 1.000034609673516e+01
0	 7.143009922150926e+00	 4.785712298183612e+01	 1.000024480820285e+01
0	 7.143009922150928e+00	 4.857141934905161e+01	 1.000004798501531e+01
0	 7.143009922150927e+00	 4.928571188288848e+01	 9.999751536381577e+00
0	 7.143009922150927e+00	 5.000000000000001e+01	 9.999351371022595e+00
0	 7.857266066626720e+00	 4.285699007784908e+01	 9.999296241537843e+00
0	 7.857266066626719e+00	 4.357129694500738e+01	 9.999633537619127e+00
0	 7.857266066626719e+00	 4.428560406221392e+01	 9.999902076640444e+00
0	 7.857266066626719e+00	 4.499991084612203e+01	 1.000010152065725e+01
0	 7.857266066626721e+00	 4.571421671338501e+01	 1.000023153131627e+01
0	 7.857266066626720e+00	 4.642852108065613e+01	 1.000029176985555e+01
0	 7.857266066626719e+00	 4.714282336458874e+01	 1.000028189710445e+01
0	 7.857266066626720e+00	 4.785712298183614e+01	 1.000020157348360e+01
0	 7.857266066626717e+00	 4.857141934905159e+01	 1.000005045900486e+01
0	 7.857266066626719e+00	 4.928571188288846e+01	 9.999828213271458e+00
0	 7.857266066626719e+00	 5.000000000000001e+01	 9.999534495477715e+00
0	 8.571521461152164e+00	 4.285699007784906e+01	 9.999422177308851e+00
0	 8.571521461152164e+00	 4.357129694500738e+01	 9.999701112870330e+00
0	 8.571521461152162e+00	 4.428560406221392e+01	 9.999917225277622e+00
0	 8.571521461152161e+00	 4.499991084612203e+01	 1.000007319003444e+01
0	 8.571521461152164e+00	 4.571421671338500e+01	 1.000017168232126e+01
0	 8.571521461152164e+00	 4.642852108065613e+01	 1.000021537699529e+01
0	 8.571521461152164e+00	 4.714282336458874e+01	 1.000020694859042e+01
0	 8.571521461152164e+00	 4.785712298183612e+01	 1.000014907131727e+01
0	 8.571521461152164e+00	 4.857141934905161e+01	 1.000004441906311e+01
0	 8.571521461152166e+00	 4.928571188288846e+01	 9.999895665391945e+00
0	 8.571521461152161e+00	 5.000000000000001e+01	 9.999705483544385e+00
0	 9.285776189055184e+00	 4.285699007784908e+01	 9.999549631408671e+00
0	 9.285776189055184e+00	 4.357129694500739e+01	 9.999763803246100e+00
0	 9.285776189055184e+00	 4.428560406221393e+01	 9.999924110814154e+00
0	 9.285776189055181e+00	 4.499991084612202e+01	 1.000003550659734e+01
0	 9.285776189055184e+00	 4.571421671338499e+01	 1.000010294284516e+01
0	 9.285776189055186e+00	 4.642852108065615e+01	 1.000013137157223e+01
0	 9.285776189055184e+00	 4.714282336458876e+01	 1.000012574455818e+01
0	 9.285776189055182e+00	 4.785712298183613e+01	 1.000009101334775e+01
0	 9.285776189055182e+00	 4.857141934905159e+01	 1.000003212925067e+01
0	 9.285776189055181e+00	 4.928571188288846e+01	 9.999954043341717e+00
0	 9.285776189055182e+00	 5.000000000000000e+01	 9.999861706460695e+00
0	 1.000003033366371e+01	 4.285699007784907e+01	 9.999673804963310e+00
0	 1.000003033366371e+01	 4.357129694500738e+01	 9.999820023155818e+00
0	 1.000003033366371e+01	 4.428560406221392e+01	 9.999923695110862e+00
0	 1.000003033366371e+01	 4.499991084612203e+01	 9.999991313829437e+00
0	 1.000003033366371e+01	 4.571421671338500e+01	 1.000002937216562e+01
0	 1.000003033366371e+01	 4.642852108065613e+01	 1.000004436282655e+01
0	 1.000003033366371e+01	 4.714282336458874e+01	 1.000004277837242e+01
0	 1.000003033366371e+01	 4.785712298183614e+01	 1.000003111121652e+01
0	 1.000003033366371e+01	 4.857141934905159e+01	 1.000001585362516e+01
0	 1.000003033366371e+01	 4.928571188288844e+01	 1.000000349771777e+01
0	 1.000003033366371e+01	 5.000000000000000e+01	 1.000000053546670e+01
0	 1.071428397830567e+01	 4.285699007784907e+01	 9.999789899110652e+00
0	 1.071428397830567e+01	 4.357129694500738e+01	 9.999868187021281e+00
0	 1.071428397830567e+01	 4.428560406221392e+01	 9.999916940039643e+00
0	 1.071428397830567e+01	 4.499991084612203e+01	 9.999943455222979e+00
0	 1.071428397830567e+01	 4.571421671338499e+01	 9.999955029566006e+00
0	 1.071428397830567e+01	 4.642852108065615e+01	 9.999958960000926e+00
0	 1.071428397830566e+01	 4.714282336458873e+01	 9.999962543397437e+00
0	 1.071428397830567e+01	 4.785712298183613e+01	 9.999973076562693e+00
0	 1.071428397830567e+01	 4.857141934905161e+01	 9.999997856241322e+00
0	 1.071428397830567e+01	 4.928571188288846e+01	 1.000004417911543e+01
0	 1.071428397830567e+01	 4.999999999999999e+01	 1.000011934180458e+01
0	 1.142853720630899e+01	 4.285699007784908e+01	 9.999893115000440e+00
0	 1.142853720630899e+01	 4.357129694500737e+01	 9.999906709276594e+00
0	 1.142853720630899e+01	 4.428560406221392e+01	 9.999904807483546e+00
0	 1.142853720630899e+01	 4.499991084612203e+01	 9.999894774278889e+00
0	 1.142853720630899e+01	 4.571421671338499e+01	 9.999883974335306e+00
0	 1.142853720630899e+01	 4.642852108065613e+01	 9.999879772340469e+00
0	 1.142853720630899e+01	 4.714282336458874e+01	 9.999889532997088e+00
0	 1.142853720630899e+01	 4.785712298183613e+01	 9.999920621022925e+00
0	 1.142853720630899e+01	 4.857141934905161e+01	 9.999980401150799e+00
0	 1.142853720630899e+01	 4.928571188288846e+01	 1.000007623812844e+01
0	 1.142853720630899e+01	 5.000000000000000e+01	 1.000021549671870e+01
0	 1.214279010100160e+01	 4.285699007784908e+01	 9.999978653794265e+00
0	 1.214279010100160e+01	 4.357129694500738e+01	 9.999934004368232e+00
0	 1.214279010100160e+01	 4.428560406221393e+01	 9.999888259336753e+00
0	 1.214279010100160e+01	 4.499991084612202e+01	 9.999848114506895e+00
0	 1.214279010100159e+01	 4.571421671338499e+01	 9.999820265768200e+00
0	 1.214279010100160e+01	 4.642852108065613e+01	 9.999811409092684e+00
0	 1.214279010100160e+01	 4.714282336458875e+01	 9.999828240534816e+00
0	 1.214279010100160e+01	 4.785712298183612e+01	 9.999877456231543e+00
0	 1.214279010100160e+01	 4.857141934905160e+01	 9.999965752402259e+00
0	 1.214279010100160e+01	 4.928571188288846e+01	 1.000009982534880e+01
0	 1.214279010100160e+01	 5.000000000000000e+01	 1.000028637145553e+01
0	 1.285704274571142e+01	 4.285699007784907e+01	 1.000004171666559e+01
0	 1.285704274571142e+01	 4.357129694500737e+01	 9.999948486755006e+00
0	 1.285704274571143e+01	 4.428560406221393e+01	 9.999868257504573e+00
0	 1.285704274571142e+01	 4.499991084612201e+01	 9.999806319425380e+00
0	 1.285704274571142e+01	 4.571421671338500e+01	 9.999767963165024e+00
0	 1.285704274571143e+01	 4.642852108065614e+01	 9.999758479507603e+00
0	 1.285704274571142e+01	 4.714282336458875e+01	 9.999783159373713e+00
0	 1.285704274571142e+01	 4.785712298183612e+01	 9.999847293820501e+00
0	 1.285704274571142e+01	 4.857141934905160e+01	 9.999956174041538e+00
0	 1.285704274571142e+01	 4.928571188288846e+01	 1.000011509136700e+01
0	 1.285704274571142e+01	 4.999999999999999e+01	 1.000032933726358e+01
0	 1.357129522376640e+01	 4.285699007784908e+01	 1.000007750479973e+01
0	 1.357129522376639e+01	 4.357129694500737e+01	 9.999948570908032e+00
0	 1.357129522376639e+01	 4.428560406221392e+01	 9.999845763903425e+00
0	 1.357129522376639e+01	 4.499991084612203e+01	 9.999772232561497e+00
0	 1.357129522376639e+01	 4.571421671338499e+01	 9.999731125831781e+00
0	 1.357129522376640e+01	 4.642852108065613e+01	 9.999725592837642e+00
0	 1.357129522376640e+01	 4.714282336458874e+01	 9.999758782876405e+00
0	 1.357129522376639e+01	 4.785712298183612e+01	 9.999833845419269e+00
0	 1.357129522376639e+01	 4.857141934905160e+01	 9.999953930111399e+00
0	 1.357129522376639e+01	 4.928571188288845e+01	 1.000012218677181e+01
0	 1.357129522376639e+01	 5.000000000000000e+01	 1.000034176539352e+01
0	 1.428554761849445e+01	 4.285699007784908e+01	 1.000008121939384e+01
0	 1.428554761849444e+01	 4.357129694500737e+01	 9.999932671310820e+00
0	 1.428554761849444e+01	 4.428560406221393e+01	 9.999821740460883e+00
0	 1.428554761849444e+01	 4.499991084612204e+01	 9.999748697451153e+00
0	 1.428554761849444e+01	 4.571421671338500e+01	 9.999713813080117e+00
0	 1.428554761849444e+01	 4.642852108065614e+01	 9.999717358337673e+00
0	 1.428554761849445e+01	 4.714282336458874e+01	 9.999759604405080e+00
0	 1.428554761849444e+01	 4.785712298183613e+01	 9.999840822655052e+00
0	 1.428554761849444e+01	 4.857141934905160e+01	 9.999961284651615e+00
0	 1.428554761849445e+01	 4.928571188288846e+01	 1.000012126215031e+01
0	 1.428554761849444e+01	 5.000000000000000e+01	 1.000032102709799e+01
0	 1.428554761849444e+01	 0.000000000000000e+00	 1.002907915151705e+01
0	 1.428554761849444e+01	 7.142881171115513e-01	 1.002865883142468e+01
0	 1.428554761849444e+01	 1.428580650948410e+00	 1.002680265479322e+01
0	 1.428554761849444e+01	 2.142877018163878e+00	 1.002390337900028e+01
0	 1.428554761849445e+01	 2.857176635411265e+00	 1.002035376720108e+01
0	 1.428554761849444e+01	 3.571478919343873e+00	 1.001654658832800e+01
0	 1.428554761849444e+01	 4.285783286615009e+00	 1.001287461709037e+01
0	 1.428554761849444e+01	 5.000089153877974e+00	 1.000973063397415e+01
0	 1.428554761849444e+01	 5.714395937786081e+00	 1.000750742524182e+01
0	 1.428554761849444e+01	 6.428703054992629e+00	 1.000659778293229e+01
0	 1.428554761849444e+01	 7.143009922150925e+00	 1.000739450486087e+01
0	 1.499984997172426e+01	 0.000000000000000e+00	 1.003538118232243e+01
0	 1.499984997172426e+01	 7.142881171115516e-01	 1.002990233973552e+01
0	 1.499984997172426e+01	 1.428580650948409e+00	 1.002434886039312e+01
0	 1.499984997172426e+01	 2.142877018163878e+00	 1.001895489120337e+01
0	 1.499984997172427e+01	 2.857176635411265e+00	 1.001395458646147e+01
0	 1.499984997172426e+01	 3.571478919343873e+00	 1.000958210784930e+01
0	 1.499984997172426e+01	 4.285783286615008e+00	 1.000607162443491e+01
0	 1.499984997172426e+01	 5.000089153877974e+00	 1.000365731267230e+01
0	 1.499984997172426e+01	 5.714395937786080e+00	 1.000257335640113e+01
0	 1.499984997172426e+01	 6.428703054992627e+00	 1.000305394684665e+01
0	 1.499984997172427e+01	 7.143009922150928e+00	 1.000533328261960e+01
0	 1.571415215828766e+01	 0.000000000000000e+00	 1.003760936774776e+01
0	 1.571415215828766e+01	 7.142881171115513e-01	 1.002895354035680e+01
0	 1.571415215828766e+01	 1.428580650948409e+00	 1.002121649310489e+01
0	 1.571415215828766e+01	 2.142877018163879e+00	 1.001449751402563e+01
0	 1.571415215828766e+01	 2.857176635411264e+00	 1.000889589909838e+01
0	 1.571415215828766e+01	 3.571478919343873e+00	 1.000451095224767e+01
0	 1.571415215828766e+01	 4.285783286615008e+00	 1.000144198534284e+01
0	 1.571415215828766e+01	 5.000089153877976e+00	 9.999788318197623e+00
0	 1.571415215828766e+01	 5.714395937786080e+00	 9.999649278569940e+00
0	 1.571415215828766e+01	 6.428703054992629e+00	 1.000112420216174e+01
0	 1.571415215828766e+01	 7.143009922150927e+00	 1.000431243261896e+01
0	 1.642845401151722e+01	 0.000000000000000e+00	 1.003647763973279e+01
0	 1.642845401151721e+01	 7.142881171115510e-01	 1.002626664522906e+01
0	 1.642845401151721e+01	 1.428580650948410e+00	 1.001763756508312e+01
0	 1.642845401151721e+01	 2.142877018163879e+00	 1.001057857878520e+01
0	 1.642845401151722e+01	 2.857176635411265e+00	 1.000507787346286e+01
0	 1.642845401151721e+01	 3.571478919343872e+00	 1.000112364388042e+01
0	 1.642845401151721e+01	 4.285783286615008e+00	 9.998704092438620e+00
0	 1.642845401151721e+01	 5.000089153877974e+00	 9.997807429174216e+00
0	 1.642845401151721e+01	 5.714395937786080e+00	 9.998421871759767e+00
0	 1.642845401151722e+01	 6.428703054992629e+00	 1.000053564550351e+01
0	 1.642845401151721e+01	 7.143009922150928e+00	 1.000413698334928e+01
0	 1.714275536474550e+01	 0.000000000000000e+00	 1.003269993045794e+01
0	 1.714275536474550e+01	 7.142881171115513e-01	 1.002229586704693e+01
0	 1.714275536474550e+01	 1.428580650948410e+00	 1.001384408953531e+01
0	 1.714275536474550e+01	 2.142877018163879e+00	 1.000724541797045e+01
0	 1.714275536474550e+01	 2.857176635411265e+00	 1.000240067904536e+01
0	 1.714275536474549e+01	 3.571478919343872e+00	 9.999210706098358e+00
0	 1.714275536474550e+01	 4.285783286615008e+00	 9.997576339112651e+00
0	 1.714275536474550e+01	 5.000089153877976e+00	 9.997398424716053e+00
0	 1.714275536474550e+01	 5.714395937786080e+00	 9.998577816180749e+00
0	 1.714275536474550e+01	 6.428703054992629e+00	 1.000101537342323e+01
0	 1.714275536474550e+01	 7.143009922150927e+00	 1.000461196300416e+01
0	 1.785705605130510e+01	 0.000000000000000e+00	 1.002699017234426e+01
0	 1.785705605130510e+01	 7.142881171115514e-01	 1.001749541925914e+01
0	 1.785705605130510e+01	 1.428580650948410e+00	 1.001006808072188e+01
0	 1.785705605130510e+01	 2.142877018163878e+00	 1.000454536523995e+01
0	 1.785705605130510e+01	 2.857176635411265e+00	 1.000076448647567e+01
0	 1.785705605130510e+01	 3.571478919343873e+00	 9.998562663245810e+00
0	 1.785705605130509e+01	 4.285783286615009e+00	 9.997777119521288e+00
0	 1.785705605130509e+01	 5.000089153877974e+00	 9.998245084427008e+00
0	 1.785705605130509e+01	 5.714395937786081e+00	 9.999803792241600e+00
0	 1.785705605130510e+01	 6.428703054992631e+00	 1.000229048239743e+01
0	 1.785705605130510e+01	 7.143009922150926e+00	 1.000554239948046e+01
0	 1.857135590452858e+01	 0.000000000000000e+00	 1.002006229805344e+01
0	 1.857135590452859e+01	 7.142881171115513e-01	 1.001231951606861e+01
0	 1.857135590452859e+01	 1.428580650948409e+00	 1.000654155395611e+01
0	 1.857135590452858e+01	 2.142877018163879e+00	 1.000252575542254e+01
0	 1.857135590452859e+01	 2.857176635411265e+00	 1.000006946752294e+01
0	 1.857135590452858e+01	 3.571478919343873e+00	 9.998970040660591e+00
0	 1.857135590452859e+01	 4.285783286615008e+00	 9.999024828586819e+00
0	 1.857135590452858e+01	 5.000089153877976e+00	 1.000003118840083e+01
0	 1.857135590452859e+01	 5.714395937786082e+00	 1.000178648054964e+01
0	 1.857135590452858e+01	 6.428703054992628e+00	 1.000408806882797e+01
0	 1.857135590452858e+01	 7.143009922150925e+00	 1.000673332037827e+01
0	 1.928565475774854e+01	 0.000000000000000e+00	 1.001263024048786e+01
0	 1.928565475774854e+01	 7.142881171115513e-01	 1.000722237243233e+01
0	 1.928565475774854e+01	 1.428580650948409e+00	 1.000349652560425e+01
0	 1.928565475774854e+01	 2.142877018163878e+00	 1.000123392451729e+01
0	 1.928565475774854e+01	 2.857176635411265e+00	 1.000021579509569e+01
0	 1.928565475774854e+01	 3.571478919343872e+00	 1.000022336467407e+01
0	 1.928565475774854e+01	 4.285783286615009e+00	 1.000103786199747e+01
0	 1.928565475774854e+01	 5.000089153877976e+00	 1.000244051722119e+01
0	 1.928565475774854e+01	 5.714395937786080e+00	 1.000421256191078e+01
0	 1.928565475774854e+01	 6.428703054992630e+00	 1.000613522904202e+01
0	 1.928565475774854e+01	 7.143009922150928e+00	 1.000798975300093e+01
0	 1.999995244429753e+01	 0.000000000000000e+00	 1.000540793279051e+01
0	 1.999995244429753e+01	 7.142881171115514e-01	 1.000265820406145e+01
0	 1.999995244429754e+01	 1.428580650948409e+00	 1.000116501308542e+01
0	 1.999995244429753e+01	 2.142877018163878e+00	 1.000071720969353e+01
0	 1.999995244429753e+01	 2.857176635411265e+00	 1.000110364324179e+01
0	 1.999995244429753e+01	 3.571478919343873e+00	 1.000211316261113e+01
0	 1.999995244429753e+01	 4.285783286615008e+00	 1.000353461620745e+01
0	 1.999995244429754e+01	 5.000089153877976e+00	 1.000515685196163e+01
0	 1.999995244429753e+01	 5.714395937786080e+00	 1.000676871732953e+01
0	 1.999995244429753e+01	 6.428703054992630e+00	 1.000815905929204e+01
0	 1.999995244429753e+01	 7.143009922150927e+00	 1.000911672435504e+01
0	 2.071424879750816e+01	 0.000000000000000e+00	 9.999109308345069e+00
0	 2.071424879750816e+01	 7.142881171115513e-01	 9.999081227421275e+00
0	 2.071424879750816e+01	 1.428580650948410e+00	 9.999779034871725e+00
0	 2.071424879750816e+01	 2.142877018163879e+00	 1.000102294929086e+01
0	 2.071424879750816e+01	 2.857176635411265e+00	 1.000263318714853e+01
0	 2.071424879750816e+01	 3.571478919343873e+00	 1.000442996279018e+01
0	 2.071424879750815e+01	 4.285783286615008e+00	 1.000623348843691e+01
0	 2.071424879750815e+01	 5.000089153877976e+00	 1.000786397418560e+01
0	 2.071424879750815e+01	 5.714395937786080e+00	 1.000914162800900e+01
0	 2.071424879750815e+01	 6.428703054992628e+00	 1.000988665575576e+01
0	 2.071424879750816e+01	 7.143009922150927e+00	 1.000991926115043e+01
0	 2.142854365071296e+01	 0.000000000000000e+00	 9.994448300775872e+00
0	 2.142854365071296e+01	 7.142881171115512e-01	 9.996945659731264e+00
0	 2.142854365071297e+01	 1.428580650948409e+00	 9.999570610488206e+00
0	 2.142854365071296e+01	 2.142877018163878e+00	 1.000219848281917e+01
0	 2.142854365071296e+01	 2.857176635411264e+00	 1.000470460314264e+01
0	 2.142854365071296e+01	 3.571478919343873e+00	 1.000696429452323e+01
0	 2.142854365071296e+01	 4.285783286615009e+00	 1.000885287667198e+01
0	 2.142854365071296e+01	 5.000089153877975e+00	 1.001024566594648e+01
0	 2.142854365071296e+01	 5.714395937786081e+00	 1.001101797535093e+01
0	 2.142854365071296e+01	 6.428703054992630e+00	 1.001104511453626e+01
0	 2.142854365071297e+01	 7.143009922150927e+00	 1.001020238980017e+01
0	 1.428554761849444e+01	 7.143009922150925e+00	 1.000739450486087e+01
0	 1.428554761849444e+01	 7.857266066626719e+00	 1.000921383387703e+01
0	 1.428554761849444e+01	 8.571521461152162e+00	 1.001103581780541e+01
0	 1.428554761849444e+01	 9.285776189055181e+00	 1.001274859271085e+01
0	 1.428554761849444e+01	 1.000003033366371e+01	 1.001424029522207e+01
0	 1.428554761849444e+01	 1.071428397830567e+01	 1.001539906253177e+01
0	 1.428554761849444e+01	 1.142853720630899e+01	 1.001611303239655e+01
0	 1.428554761849444e+01	 1.214279010100160e+01	 1.001627034313696e+01
0	 1.428554761849444e+01	 1.285704274571142e+01	 1.001575913363751e+01
0	 1.428554761849444e+01	 1.357129522376639e+01	 1.001446754334663e+01
0	 1.428554761849444e+01	 1.428554761849444e+01	 1.001228371227672e+01
0	 1.499984997172427e+01	 7.143009922150928e+00	 1.000533328261960e+01
0	 1.499984997172426e+01	 7.857266066626720e+00	 1.000841873876857e+01
0	 1.499984997172426e+01	 8.571521461152161e+00	 1.001112324916169e+01
0	 1.499984997172426e+01	 9.285776189055182e+00	 1.001338867271431e+01
0	 1.499984997172427e+01	 1.000003033366371e+01	 1.001515686893560e+01
0	 1.499984997172426e+01	 1.071428397830567e+01	 1.001636969792863e+01
0	 1.499984997172426e+01	 1.142853720630899e+01	 1.001696902039032e+01
0	 1.499984997172426e+01	 1.214279010100160e+01	 1.001689669761146e+01
0	 1.499984997172426e+01	 1.285704274571142e+01	 1.001609459147675e+01
0	 1.499984997172426e+01	 1.357129522376639e+01	 1.001450456446476e+01
0	 1.499984997172427e+01	 1.428554761849445e+01	 1.001206847964792e+01
0	 1.571415215828766e+01	 7.143009922150927e+00	 1.000431243261896e+01
0	 1.571415215828766e+01	 7.857266066626718e+00	 1.000807352350342e+01
0	 1.571415215828766e+01	 8.571521461152162e+00	 1.001119280968247e+01
0	 1.571415215828766e+01	 9.285776189055182e+00	 1.001365745678606e+01
0	 1.571415215828766e+01	 1.000003033366371e+01	 1.001545463101837e+01
0	 1.571415215828766e+01	 1.071428397830567e+01	 1.001657149915780e+01
0	 1.571415215828766e+01	 1.142853720630899e+01	 1.001699522855700e+01
0	 1.571415215828766e+01	 1.214279010100160e+01	 1.001671298714285e+01
0	 1.571415215828766e+01	 1.285704274571142e+01	 1.001571194341649e+01
0	 1.571415215828766e+01	 1.357129522376639e+01	 1.001397926645327e+01
0	 1.571415215828766e+01	 1.428554761849444e+01	 1.001150212590283e+01
0	 1.642845401151721e+01	 7.143009922150928e+00	 1.000413698334928e+01
0	 1.642845401151721e+01	 7.857266066626720e+00	 1.000807299533095e+01
0	 1.642845401151721e+01	 8.571521461152161e+00	 1.001121527730972e+01
0	 1.642845401151722e+01	 9.285776189055184e+00	 1.001358788544949e+01
0	 1.642845401151722e+01	 1.000003033366371e+01	 1.001521487642884e+01
0	 1.642845401151721e+01	 1.071428397830567e+01	 1.001612030744108e+01
0	 1.642845401151722e+01	 1.142853720630899e+01	 1.001632823619415e+01
0	 1.642845401151721e+01	 1.214279010100160e+01	 1.001586272091072e+01
0	 1.642845401151722e+01	 1.285704274571142e+01	 1.001474782032816e+01
0	 1.642845401151722e+01	 1.357129522376639e+01	 1.001300759369853e+01
0	 1.642845401151721e+01	 1.428554761849444e+01	 1.001066610078860e+01
0	 1.714275536474550e+01	 7.143009922150927e+00	 1.000461196300417e+01
0	 1.714275536474550e+01	 7.857266066626718e+00	 1.000831196105871e+01
0	 1.714275536474550e+01	 8.571521461152161e+00	 1.001116142947121e+01
0	 1.714275536474550e+01	 9.285776189055184e+00	 1.001321289870232e+01
0	 1.714275536474550e+01	 1.000003033366371e+01	 1.001451889963753e+01
0	 1.714275536474550e+01	 1.071428397830567e+01	 1.001513196358726e+01
0	 1.714275536474550e+01	 1.142853720630899e+01	 1.001510462228685e+01
0	 1.714275536474550e+01	 1.214279010100160e+01	 1.001448940789653e+01
0	 1.714275536474550e+01	 1.285704274571143e+01	 1.001333885300144e+01
0	 1.714275536474550e+01	 1.357129522376640e+01	 1.001170549061166e+01
0	 1.714275536474550e+01	 1.428554761849444e+01	 1.000964185416215e+01
0	 1.785705605130510e+01	 7.143009922150926e+00	 1.000554239948046e+01
0	 1.785705605130510e+01	 7.857266066626718e+00	 1.000868522705241e+01
0	 1.785705605130510e+01	 8.571521461152162e+00	 1.001100204308056e+01
0	 1.785705605130510e+01	 9.285776189055186e+00	 1.001256543601663e+01
0	 1.785705605130510e+01	 1.000003033366371e+01	 1.001344799462689e+01
0	 1.785705605130509e+01	 1.071428397830567e+01	 1.001372230799215e+01
0	 1.785705605130510e+01	 1.142853720630899e+01	 1.001346096550776e+01
0	 1.785705605130509e+01	 1.214279010100160e+01	 1.001273655688364e+01
0	 1.785705605130510e+01	 1.285704274571142e+01	 1.001162167214423e+01
0	 1.785705605130510e+01	 1.357129522376639e+01	 1.001018890162853e+01
0	 1.785705605130510e+01	 1.428554761849444e+01	 1.000851083599010e+01
0	 1.857135590452858e+01	 7.143009922150925e+00	 1.000673332037827e+01
0	 1.857135590452858e+01	 7.857266066626718e+00	 1.000908759923601e+01
0	 1.857135590452858e+01	 8.571521461152162e+00	 1.001070789453717e+01
0	 1.857135590452858e+01	 9.285776189055182e+00	 1.001167843633884e+01
0	 1.857135590452859e+01	 1.000003033366371e+01	 1.001208345489142e+01
0	 1.857135590452859e+01	 1.071428397830567e+01	 1.001200718063854e+01
0	 1.857135590452859e+01	 1.142853720630899e+01	 1.001153384421711e+01
0	 1.857135590452859e+01	 1.214279010100160e+01	 1.001074767645731e+01
0	 1.857135590452858e+01	 1.285704274571142e+01	 1.000973290838263e+01
0	 1.857135590452858e+01	 1.357129522376639e+01	 1.000857377120978e+01
0	 1.857135590452859e+01	 1.428554761849444e+01	 1.000735449634880e+01
0	 1.928565475774854e+01	 7.143009922150928e+00	 1.000798975300093e+01
0	 1.928565475774854e+01	 7.857266066626719e+00	 1.000941388309159e+01
0	 1.928565475774854e+01	 8.571521461152164e+00	 1.001024975972626e+01
0	 1.928565475774854e+01	 9.285776189055184e+00	 1.001058483808974e+01
0	 1.928565475774854e+01	 1.000003033366371e+01	 1.001050657343763e+01
0	 1.928565475774854e+01	 1.071428397830567e+01	 1.001010242109625e+01
0	 1.928565475774854e+01	 1.142853720630899e+01	 1.000945983646267e+01
0	 1.928565475774854e+01	 1.214279010100160e+01	 1.000866627500471e+01
0	 1.928565475774854e+01	 1.285704274571142e+01	 1.000780919226098e+01
0	 1.928565475774854e+01	 1.357129522376639e+01	 1.000697604384080e+01
0	 1.928565475774854e+01	 1.428554761849444e+01	 1.000625428542429e+01
0	 1.999995244429753e+01	 7.143009922150927e+00	 1.000911672435504e+01
0	 1.999995244429753e+01	 7.857266066626718e+00	 1.000955888365945e+01
0	 1.999995244429754e+01	 8.571521461152161e+00	 1.000959841401885e+01
0	 1.999995244429753e+01	 9.285776189055181e+00	 1.000931757916442e+01
0	 1.999995244429754e+01	 1.000003033366371e+01	 1.000879864278401e+01
0	 1.999995244429753e+01	 1.071428397830567e+01	 1.000812386852207e+01
0	 1.999995244429754e+01	 1.142853720630899e+01	 1.000737551997977e+01
0	 1.999995244429753e+01	 1.214279010100159e+01	 1.000663586071486e+01
0	 1.999995244429753e+01	 1.285704274571142e+01	 1.000598715424183e+01
0	 1.999995244429753e+01	 1.357129522376639e+01	 1.000551166403175e+01
0	 1.999995244429753e+01	 1.428554761849444e+01	 1.000529165351237e+01
0	 2.071424879750816e+01	 7.143009922150927e+00	 1.000991926115043e+01
0	 2.071424879750815e+01	 7.857266066626718e+00	 1.000941740553803e+01
0	 2.071424879750816e+01	 8.571521461152162e+00	 1.000872463227178e+01
0	 2.071424879750816e+01	 9.285776189055184e+00	 1.000790959693234e+01
0	 2.071424879750815e+01	 1.000003033366371e+01	 1.000704095496103e+01
0	 2.071424879750816e+01	 1.071428397830566e+01	 1.000618736165982e+01
0	 2.071424879750815e+01	 1.142853720630899e+01	 1.000541747219131e+01
0	 2.071424879750815e+01	 1.214279010100160e+01	 1.000479994157873e+01
0	 2.071424879750816e+01	 1.285704274571142e+01	 1.000440342470596e+01
0	 2.071424879750816e+01	 1.357129522376640e+01	 1.000429657631751e+01
0	 2.071424879750816e+01	 1.428554761849445e+01	 1.000454805101853e+01
0	 2.142854365071297e+01	 7.143009922150927e+00	 1.001020238980017e+01
0	 2.142854365071296e+01	 7.857266066626718e+00	 1.000888425288398e+01
0	 2.142854365071296e+01	 8.571521461152164e+00	 1.000759918882765e+01
0	 2.142854365071296e+01	 9.285776189055184e+00	 1.000639382823723e+01
0	 2.142854365071297e+01	 1.000003033366371e+01	 1.000531480151116e+01
0	 2.142854365071296e+01	 1.071428397830567e+01	 1.000440873884026e+01
0	 2.142854365071296e+01	 1.142853720630899e+01	 1.000372227020773e+01
0	 2.142854365071297e+01	 1.214279010100160e+01	 1.000330202538911e+01
0	 2.142854365071296e+01	 1.285704274571142e+01	 1.000319463395236e+01
0	 2.142854365071296e+01	 1.357129522376639e+01	 1.000344672525778e+01
0	 2.142854365071296e+01	 1.428554761849444e+01	 1.000410492845804e+01
0	 1.428554761849444e+01	 1.428554761849444e+01	 1.001228371227672e+01
0	 1.428554761849444e+01	 1.499984997172426e+01	 1.000972542422588e+01
0	 1.428554761849444e+01	 1.571415215828766e+01	 1.000740185442225e+01
0	 1.428554761849444e+01	 1.642845401151721e+01	 1.000533767072719e+01
0	 1.428554761849444e+01	 1.714275536474550e+01	 1.000355754157401e+01
0	 1.428554761849445e+01	 1.785705605130510e+01	 1.000208613596793e+01
0	 1.428554761849444e+01	 1.857135590452859e+01	 1.000094812348605e+01
0	 1.428554761849444e+01	 1.928565475774854e+01	 1.000016817427742e+01
0	 1.428554761849444e+01	 1.999995244429753e+01	 9.999770959063060e+00
0	 1.428554761849444e+01	 2.071424879750816e+01	 9.999781149135874e+00
0	 1.428554761849444e+01	 2.142854365071296e+01	 1.000022341636072e+01
0	 1.499984997172427e+01	 1.428554761849445e+01	 1.001206847964793e+01
0	 1.499984997172426e+01	 1.499984997172426e+01	 1.000936002129382e+01
0	 1.499984997172426e+01	 1.571415215828766e+01	 1.000699518266441e+01
0	 1.499984997172426e+01	 1.642845401151721e+01	 1.000497868666989e+01
0	 1.499984997172426e+01	 1.714275536474550e+01	 1.000331525677303e+01
0	 1.499984997172426e+01	 1.785705605130509e+01	 1.000200961698911e+01
0	 1.499984997172426e+01	 1.857135590452858e+01	 1.000106649188593e+01
0	 1.499984997172426e+01	 1.928565475774854e+01	 1.000049060658387e+01
0	 1.499984997172426e+01	 1.999995244429753e+01	 1.000028668675579e+01
0	 1.499984997172426e+01	 2.071424879750815e+01	 1.000045945862718e+01
0	 1.499984997172426e+01	 2.142854365071296e+01	 1.000101364897600e+01
0	 1.571415215828766e+01	 1.428554761849444e+01	 1.001150212590283e+01
0	 1.571415215828766e+01	 1.499984997172426e+01	 1.000885432586407e+01
0	 1.571415215828766e+01	 1.571415215828766e+01	 1.000661076298354e+01
0	 1.571415215828766e+01	 1.642845401151721e+01	 1.000475964723730e+01
0	 1.571415215828766e+01	 1.714275536474550e+01	 1.000328918909556e+01
0	 1.571415215828766e+01	 1.785705605130510e+01	 1.000218759952259e+01
0	 1.571415215828766e+01	 1.857135590452858e+01	 1.000144308997681e+01
0	 1.571415215828766e+01	 1.928565475774854e+01	 1.000104387241072e+01
0	 1.571415215828766e+01	 1.999995244429754e+01	 1.000097815927094e+01
0	 1.571415215828766e+01	 2.071424879750815e+01	 1.000123416349824e+01
0	 1.571415215828766e+01	 2.142854365071296e+01	 1.000180009852746e+01
0	 1.642845401151721e+01	 1.428554761849444e+01	 1.001066610078861e+01
0	 1.642845401151721e+01	 1.499984997172426e+01	 1.000825149567413e+01
0	 1.642845401151721e+01	 1.571415215828766e+01	 1.000625968027632e+01
0	 1.642845401151721e+01	 1.642845401151721e+01	 1.000466578363028e+01
0	 1.642845401151722e+01	 1.714275536474550e+01	 1.000344493517643e+01
0	 1.642845401151722e+01	 1.785705605130510e+01	 1.000257226476055e+01
0	 1.642845401151720e+01	 1.857135590452858e+01	 1.000202290263376e+01
0	 1.642845401151721e+01	 1.928565475774854e+01	 1.000177197945254e+01
0	 1.642845401151722e+01	 1.999995244429753e+01	 1.000179462627872e+01
0	 1.642845401151721e+01	 2.071424879750816e+01	 1.000206597457947e+01
0	 1.642845401151721e+01	 2.142854365071296e+01	 1.000256115622735e+01
0	 1.714275536474550e+01	 1.428554761849444e+01	 1.000964185416215e+01
0	 1.714275536474550e+01	 1.499984997172426e+01	 1.000759468862559e+01
0	 1.714275536474550e+01	 1.571415215828766e+01	 1.000595301962937e+01
0	 1.714275536474550e+01	 1.642845401151722e+01	 1.000468232724165e+01
0	 1.714275536474550e+01	 1.714275536474549e+01	 1.000374809182555e+01
0	 1.714275536474550e+01	 1.785705605130510e+01	 1.000311579403917e+01
0	 1.714275536474549e+01	 1.857135590452858e+01	 1.000275091483553e+01
0	 1.714275536474550e+01	 1.928565475774855e+01	 1.000261893546265e+01
0	 1.714275536474549e+01	 1.999995244429753e+01	 1.000268533746348e+01
0	 1.714275536474550e+01	 2.071424879750815e+01	 1.000291560267596e+01
0	 1.714275536474550e+01	 2.142854365071296e+01	 1.000327521323295e+01
0	 1.785705605130510e+01	 1.428554761849444e+01	 1.000851083599010e+01
0	 1.785705605130509e+01	 1.499984997172426e+01	 1.000692706278415e+01
0	 1.785705605130509e+01	 1.571415215828766e+01	 1.000570186631917e+01
0	 1.785705605130509e+01	 1.642845401151721e+01	 1.000479450965620e+01
0	 1.785705605130509e+01	 1.714275536474550e+01	 1.000416425602795e+01
0	 1.785705605130510e+01	 1.785705605130510e+01	 1.000377036883877e+01
0	 1.785705605130510e+01	 1.857135590452859e+01	 1.000357211166464e+01
0	 1.785705605130510e+01	 1.928565475774854e+01	 1.000352874825324e+01
0	 1.785705605130510e+01	 1.999995244429754e+01	 1.000359954252383e+01
0	 1.785705605130510e+01	 2.071424879750816e+01	 1.000374375856740e+01
0	 1.785705605130510e+01	 2.142854365071297e+01	 1.000392066064652e+01
0	 1.857135590452859e+01	 1.428554761849444e+01	 1.000735449634880e+01
0	 1.857135590452859e+01	 1.499984997172426e+01	 1.000629177637961e+01
0	 1.857135590452858e+01	 1.571415215828766e+01	 1.000551730581216e+01
0	 1.857135590452858e+01	 1.642845401151721e+01	 1.000498756265074e+01
0	 1.857135590452858e+01	 1.714275536474549e+01	 1.000465902494375e+01
0	 1.857135590452858e+01	 1.785705605130510e+01	 1.000448817078371e+01
0	 1.857135590452859e+01	 1.857135590452859e+01	 1.000443147830729e+01
0	 1.857135590452858e+01	 1.928565475774854e+01	 1.000444542569528e+01
0	 1.857135590452858e+01	 1.999995244429753e+01	 1.000448649117256e+01
0	 1.857135590452858e+01	 2.071424879750815e+01	 1.000451115300819e+01
0	 1.857135590452858e+01	 2.142854365071296e+01	 1.000447588951531e+01
0	 1.928565475774854e+01	 1.428554761849444e+01	 1.000625428542429e+01
0	 1.928565475774854e+01	 1.499984997172426e+01	 1.000573198780581e+01
0	 1.928565475774854e+01	 1.571415215828766e+01	 1.000541042376466e+01
0	 1.928565475774854e+01	 1.642845401151721e+01	 1.000524671819401e+01
0	 1.928565475774854e+01	 1.714275536474550e+01	 1.000519799590814e+01
0	 1.928565475774854e+01	 1.785705605130509e+01	 1.000522138164246e+01
0	 1.928565475774854e+01	 1.857135590452859e+01	 1.000527400005341e+01
0	 1.928565475774854e+01	 1.928565475774854e+01	 1.000531297571860e+01
0	 1.928565475774854e+01	 1.999995244429753e+01	 1.000529543313667e+01
0	 1.928565475774854e+01	 2.071424879750815e+01	 1.000517849672739e+01
0	 1.928565475774854e+01	 2.142854365071297e+01	 1.000491929083159e+01
0	 1.999995244429753e+01	 1.428554761849444e+01	 1.000529165351237e+01
0	 1.999995244429753e+01	 1.499984997172426e+01	 1.000529085562077e+01
0	 1.999995244429753e+01	 1.571415215828766e+01	 1.000539230602291e+01
0	 1.999995244429754e+01	 1.642845401151721e+01	 1.000555720844675e+01
0	 1.999995244429753e+01	 1.714275536474550e+01	 1.000574676643145e+01
0	 1.999995244429753e+01	 1.785705605130510e+01	 1.000592218332751e+01
0	 1.999995244429753e+01	 1.857135590452857e+01	 1.000604466229664e+01
0	 1.999995244429754e+01	 1.928565475774854e+01	 1.000607540631184e+01
0	 1.999995244429754e+01	 1.999995244429754e+01	 1.000597561815735e+01
0	 1.999995244429753e+01	 2.071424879750816e+01	 1.000570650042869e+01
0	 1.999995244429754e+01	 2.142854365071297e+01	 1.000522925553260e+01
0	 2.071424879750816e+01	 1.428554761849445e+01	 1.000454805101853e+01
0	 2.071424879750814e+01	 1.499984997172426e+01	 1.000501153854653e+01
0	 2.071424879750816e+01	 1.571415215828766e+01	 1.000547403862310e+01
0	 2.071424879750815e+01	 1.642845401151721e+01	 1.000590426576168e+01
0	 2.071424879750816e+01	 1.714275536474550e+01	 1.000627093419910e+01
0	 2.071424879750816e+01	 1.785705605130510e+01	 1.000654275789549e+01
0	 2.071424879750816e+01	 1.857135590452858e+01	 1.000668845053435e+01
0	 2.071424879750815e+01	 1.928565475774854e+01	 1.000667672552247e+01
0	 2.071424879750816e+01	 1.999995244429753e+01	 1.000647629599002e+01
0	 2.071424879750816e+01	 2.071424879750816e+01	 1.000605587479046e+01
0	 2.071424879750816e+01	 2.142854365071296e+01	 1.000538417450060e+01
0	 2.142854365071296e+01	 1.428554761849444e+01	 1.000410492845804e+01
0	 2.142854365071297e+01	 1.499984997172426e+01	 1.000493719546930e+01
0	 2.142854365071296e+01	 1.571415215828766e+01	 1.000566670779128e+01
0	 2.142854365071296e+01	 1.642845401151721e+01	 1.000627312268353e+01
0	 2.142854365071296e+01	 1.714275536474550e+01	 1.000673609707160e+01
0	 2.142854365071296e+01	 1.785705605130510e+01	 1.000703528754709e+01
0	 2.142854365071296e+01	 1.857135590452858e+01	 1.000715035036761e+01
0	 2.142854365071297e+01	 1.928565475774854e+01	 1.000706094145678e+01
0	 2.142854365071297e+01	 1.999995244429754e+01	 1.000674671640427e+01
0	 2.142854365071296e+01	 2.071424879750816e+01	 1.000618733046573e+01
0	 2.142854365071296e+01	 2.142854365071296e+01	 1.000536243856283e+01
0	 1.428554761849444e+01	 2.142854365071296e+01	 1.000022341636072e+01
0	 1.428554761849444e+01	 2.214283692057823e+01	 1.000084584227964e+01
0	 1.428554761849445e+01	 2.285712885710494e+01	 1.000137456960923e+01
0	 1.428554761849444e+01	 2.357141979362770e+01	 1.000180136268584e+01
0	 1.428554761849445e+01	 2.428571006348118e+01	 1.000211798622015e+01
0	 1.428554761849444e+01	 2.500000000000000e+01	 1.000231620529716e+01
0	 1.428554761849444e+01	 2.571428993651883e+01	 1.000238778537615e+01
0	 1.428554761849444e+01	 2.642858020637231e+01	 1.000232449229075e+01
0	 1.428554761849444e+01	 2.714287114289507e+01	 1.000211809224888e+01
0	 1.428554761849444e+01	 2.785716307942177e+01	 1.000176035183280e+01
0	 1.428554761849444e+01	 2.857145634928703e+01	 1.000124303799903e+01
0	 1.499984997172426e+01	 2.142854365071296e+01	 1.000101364897600e+01
0	 1.499984997172426e+01	 2.214283692057824e+01	 1.000168803856424e+01
0	 1.499984997172426e+01	 2.285712885710494e+01	 1.000221864205630e+01
0	 1.499984997172426e+01	 2.357141979362770e+01	 1.000260603778345e+01
0	 1.499984997172426e+01	 2.428571006348118e+01	 1.000285080445730e+01
0	 1.499984997172426e+01	 2.500000000000001e+01	 1.000295352116978e+01
0	 1.499984997172426e+01	 2.571428993651884e+01	 1.000291476739314e+01
0	 1.499984997172426e+01	 2.642858020637230e+01	 1.000273512297993e+01
0	 1.499984997172426e+01	 2.714287114289509e+01	 1.000241516816308e+01
0	 1.499984997172426e+01	 2.785716307942178e+01	 1.000195548355577e+01
0	 1.499984997172426e+01	 2.857145634928704e+01	 1.000135665015157e+01
0	 1.571415215828766e+01	 2.142854365071296e+01	 1.000180009852746e+01
0	 1.571415215828766e+01	 2.214283692057824e+01	 1.000242965347799e+01
0	 1.571415215828766e+01	 2.285712885710493e+01	 1.000288955282355e+01
0	 1.571415215828766e+01	 2.357141979362770e+01	 1.000318756365863e+01
0	 1.571415215828766e+01	 2.428571006348118e+01	 1.000333145342105e+01
0	 1.571415215828766e+01	 2.500000000000001e+01	 1.000332898989199e+01
0	 1.571415215828766e+01	 2.571428993651883e+01	 1.000318794119595e+01
0	 1.571415215828766e+01	 2.642858020637231e+01	 1.000291607580076e+01
0	 1.571415215828766e+01	 2.714287114289508e+01	 1.000252116251763e+01
0	 1.571415215828766e+01	 2.785716307942177e+01	 1.000201097050108e+01
0	 1.571415215828766e+01	 2.857145634928703e+01	 1.000139326924895e+01
0	 1.642845401151721e+01	 2.142854365071296e+01	 1.000256115622735e+01
0	 1.642845401151721e+01	 2.214283692057823e+01	 1.000306820060911e+01
0	 1.642845401151721e+01	 2.285712885710494e+01	 1.000340060258465e+01
0	 1.642845401151721e+01	 2.357141979362769e+01	 1.000357169274482e+01
0	 1.642845401151721e+01	 2.428571006348117e+01	 1.000359480195318e+01
0	 1.642845401151721e+01	 2.500000000000001e+01	 1.000348326134600e+01
0	 1.642845401151721e+01	 2.571428993651883e+01	 1.000325040233224e+01
0	 1.642845401151721e+01	 2.642858020637231e+01	 1.000290955659356e+01
0	 1.642845401151722e+01	 2.714287114289507e+01	 1.000247405608438e+01
0	 1.642845401151722e+01	 2.785716307942178e+01	 1.000195723303176e+01
0	 1.642845401151722e+01	 2.857145634928704e+01	 1.000137241993548e+01
0	 1.714275536474550e+01	 2.142854365071296e+01	 1.000327521323295e+01
0	 1.714275536474550e+01	 2.214283692057824e+01	 1.000360119347468e+01
0	 1.714275536474550e+01	 2.285712885710494e+01	 1.000376509193836e+01
0	 1.714275536474550e+01	 2.357141979362770e+01	 1.000378417740695e+01
0	 1.714275536474550e+01	 2.428571006348117e+01	 1.000367571884118e+01
0	 1.714275536474550e+01	 2.500000000000000e+01	 1.000345698537956e+01
0	 1.714275536474550e+01	 2.571428993651883e+01	 1.000314524633834e+01
0	 1.714275536474550e+01	 2.642858020637232e+01	 1.000275777121154e+01
0	 1.714275536474550e+01	 2.714287114289508e+01	 1.000231182967095e+01
0	 1.714275536474550e+01	 2.785716307942177e+01	 1.000182469156609e+01
0	 1.714275536474550e+01	 2.857145634928703e+01	 1.000131362692427e+01
0	 1.785705605130510e+01	 2.142854365071297e+01	 1.000392066064652e+01
0	 1.785705605130509e+01	 2.214283692057824e+01	 1.000402614552066e+01
0	 1.785705605130509e+01	 2.285712885710494e+01	 1.000399632140857e+01
0	 1.785705605130509e+01	 2.357141979362770e+01	 1.000385076994143e+01
0	 1.785705605130510e+01	 2.428571006348117e+01	 1.000360907281827e+01
0	 1.785705605130511e+01	 2.500000000000001e+01	 1.000329081180599e+01
0	 1.785705605130509e+01	 2.571428993651883e+01	 1.000291556873929e+01
0	 1.785705605130510e+01	 2.642858020637231e+01	 1.000250292552075e+01
0	 1.785705605130510e+01	 2.714287114289508e+01	 1.000207246412078e+01
0	 1.785705605130510e+01	 2.785716307942177e+01	 1.000164376657760e+01
0	 1.785705605130510e+01	 2.857145634928704e+01	 1.000123641499728e+01
0	 1.857135590452858e+01	 2.142854365071296e+01	 1.000447588951531e+01
0	 1.857135590452859e+01	 2.214283692057824e+01	 1.000434057012179e+01
0	 1.857135590452859e+01	 2.285712885710494e+01	 1.000410759144423e+01
0	 1.857135590452858e+01	 2.357141979362770e+01	 1.000379722257616e+01
0	 1.857135590452859e+01	 2.428571006348117e+01	 1.000342973256343e+01
0	 1.857135590452858e+01	 2.500000000000001e+01	 1.000302539040420e+01
0	 1.857135590452858e+01	 2.571428993651883e+01	 1.000260446504887e+01
0	 1.857135590452859e+01	 2.642858020637231e+01	 1.000218722540017e+01
0	 1.857135590452858e+01	 2.714287114289507e+01	 1.000179394031311e+01
0	 1.857135590452859e+01	 2.785716307942177e+01	 1.000144487859497e+01
0	 1.857135590452859e+01	 2.857145634928704e+01	 1.000116030900531e+01
0	 1.928565475774854e+01	 2.142854365071297e+01	 1.000491929083159e+01
0	 1.928565475774854e+01	 2.214283692057824e+01	 1.000454198058170e+01
0	 1.928565475774853e+01	 2.285712885710494e+01	 1.000411220241941e+01
0	 1.928565475774854e+01	 2.357141979362769e+01	 1.000364928747052e+01
0	 1.928565475774854e+01	 2.428571006348117e+01	 1.000317256670134e+01
0	 1.928565475774854e+01	 2.500000000000000e+01	 1.000270137091861e+01
0	 1.928565475774854e+01	 2.571428993651884e+01	 1.000225503076949e+01
0	 1.928565475774854e+01	 2.642858020637232e+01	 1.000185287674160e+01
0	 1.928565475774854e+01	 2.714287114289507e+01	 1.000151423916298e+01
0	 1.928565475774854e+01	 2.785716307942177e+01	 1.000125844820214e+01
0	 1.928565475774854e+01	 2.857145634928704e+01	 1.000110483386797e+01
0	 1.999995244429754e+01	 2.142854365071297e+01	 1.000522925553260e+01
0	 1.999995244429753e+01	 2.214283692057824e+01	 1.000462789013284e+01
0	 1.999995244429753e+01	 2.285712885710494e+01	 1.000402345463325e+01
0	 1.999995244429754e+01	 2.357141979362770e+01	 1.000343271671538e+01
0	 1.999995244429754e+01	 2.428571006348117e+01	 1.000287244380243e+01
0	 1.999995244429753e+01	 2.500000000000000e+01	 1.000235940305925e+01
0	 1.999995244429753e+01	 2.571428993651883e+01	 1.000191036139231e+01
0	 1.999995244429754e+01	 2.642858020637231e+01	 1.000154208544974e+01
0	 1.999995244429753e+01	 2.714287114289507e+01	 1.000127134162126e+01
0	 1.999995244429754e+01	 2.785716307942177e+01	 1.000111489603825e+01
0	 1.999995244429754e+01	 2.857145634928704e+01	 1.000108951457373e+01
0	 2.071424879750816e+01	 2.142854365071296e+01	 1.000538417450060e+01
0	 2.071424879750815e+01	 2.214283692057824e+01	 1.000459581193649e+01
0	 2.071424879750816e+01	 2.285712885710494e+01	 1.000385464831000e+01
0	 2.071424879750816e+01	 2.357141979362770e+01	 1.000317326233307e+01
0	 2.071424879750816e+01	 2.428571006348117e+01	 1.000256423238284e+01
0	 2.071424879750815e+01	 2.500000000000000e+01	 1.000204013650169e+01
0	 2.071424879750815e+01	 2.571428993651884e+01	 1.000161355239720e+01
0	 2.071424879750816e+01	 2.642858020637231e+01	 1.000129705744216e+01
0	 2.071424879750816e+01	 2.714287114289508e+01	 1.000110322867459e+01
0	 2.071424879750815e+01	 2.785716307942177e+01	 1.000104464279769e+01
0	 2.071424879750816e+01	 2.857145634928704e+01	 1.000113387617986e+01
0	 2.142854365071296e+01	 2.142854365071296e+01	 1.000536243856283e+01
0	 2.142854365071296e+01	 2.214283692057824e+01	 1.000444325908277e+01
0	 2.142854365071296e+01	 2.285712885710494e+01	 1.000361908359900e+01
0	 2.142854365071296e+01	 2.357141979362770e+01	 1.000289667627741e+01
0	 2.142854365071296e+01	 2.428571006348117e+01	 1.000228280090446e+01
0	 2.142854365071296e+01	 2.500000000000001e+01	 1.000178422088706e+01
0	 2.142854365071296e+01	 2.571428993651884e+01	 1.000140769925270e+01
0	 2.142854365071296e+01	 2.642858020637231e+01	 1.000115999864933e+01
0	 2.142854365071296e+01	 2.714287114289507e+01	 1.000104788134544e+01
0	 2.142854365071296e+01	 2.785716307942177e+01	 1.000107810923000e+01
0	 2.142854365071296e+01	 2.857145634928703e+01	 1.000125744381251e+01
0	 1.428554761849444e+01	 2.857145634928703e+01	 1.000124303799903e+01
0	 1.428554761849444e+01	 2.928575120249186e+01	 1.000067799207815e+01
0	 1.428554761849444e+01	 3.000004755570247e+01	 1.000018537583076e+01
0	 1.428554761849444e+01	 3.071434524225147e+01	 9.999769437246670e+00
0	 1.428554761849444e+01	 3.142864409547143e+01	 9.999434424458880e+00
0	 1.428554761849444e+01	 3.214294394869491e+01	 9.999184585743645e+00
0	 1.428554761849444e+01	 3.285724463525450e+01	 9.999024169520442e+00
0	 1.428554761849444e+01	 3.357154598848280e+01	 9.998957424351977e+00
0	 1.428554761849444e+01	 3.428584784171235e+01	 9.998988598944187e+00
0	 1.428554761849444e+01	 3.500015002827575e+01	 9.999121942146212e+00
0	 1.428554761849444e+01	 3.571445238150556e+01	 9.999361702950431e+00
0	 1.499984997172426e+01	 2.857145634928704e+01	 1.000135665015157e+01
0	 1.499984997172426e+01	 2.928575120249186e+01	 1.000073846007649e+01
0	 1.499984997172426e+01	 3.000004755570248e+01	 1.000021988132409e+01
0	 1.499984997172426e+01	 3.071434524225147e+01	 9.999800259082482e+00
0	 1.499984997172426e+01	 3.142864409547142e+01	 9.999478938683973e+00
0	 1.499984997172426e+01	 3.214294394869491e+01	 9.999255265605120e+00
0	 1.499984997172426e+01	 3.285724463525451e+01	 9.999128585466657e+00
0	 1.499984997172426e+01	 3.357154598848280e+01	 9.999098244033544e+00
0	 1.499984997172426e+01	 3.428584784171235e+01	 9.999163587214941e+00
0	 1.499984997172426e+01	 3.500015002827575e+01	 9.999323961064196e+00
0	 1.499984997172427e+01	 3.571445238150557e+01	 9.999578711778891e+00
0	 1.571415215828766e+01	 2.857145634928703e+01	 1.000139326924895e+01
0	 1.571415215828766e+01	 2.928575120249185e+01	 1.000078246746329e+01
0	 1.571415215828766e+01	 3.000004755570248e+01	 1.000028470126149e+01
0	 1.571415215828766e+01	 3.071434524225147e+01	 9.999895331621527e+00
0	 1.571415215828766e+01	 3.142864409547143e+01	 9.999609719654069e+00
0	 1.571415215828766e+01	 3.214294394869493e+01	 9.999423226602486e+00
0	 1.571415215828766e+01	 3.285724463525451e+01	 9.999331213842899e+00
0	 1.571415215828766e+01	 3.357154598848280e+01	 9.999329042884108e+00
0	 1.571415215828766e+01	 3.428584784171235e+01	 9.999412075367630e+00
0	 1.571415215828766e+01	 3.500015002827575e+01	 9.999575673067707e+00
0	 1.571415215828766e+01	 3.571445238150557e+01	 9.999815197891232e+00
0	 1.642845401151722e+01	 2.857145634928704e+01	 1.000137241993548e+01
0	 1.642845401151721e+01	 2.928575120249185e+01	 1.000081793741907e+01
0	 1.642845401151721e+01	 3.000004755570248e+01	 1.000037808114034e+01
0	 1.642845401151721e+01	 3.071434524225147e+01	 1.000004514643854e+01
0	 1.642845401151721e+01	 3.142864409547142e+01	 9.999811428764376e+00
0	 1.642845401151721e+01	 3.214294394869491e+01	 9.999669223679982e+00
0	 1.642845401151721e+01	 3.285724463525450e+01	 9.999610826858929e+00
0	 1.642845401151721e+01	 3.357154598848280e+01	 9.999628534086222e+00
0	 1.642845401151721e+01	 3.428584784171235e+01	 9.999714641258286e+00
0	 1.642845401151722e+01	 3.500015002827575e+01	 9.999861444382987e+00
0	 1.642845401151721e+01	 3.571445238150555e+01	 1.000006123957962e+01
0	 1.714275536474550e+01	 2.857145634928703e+01	 1.000131362692427e+01
0	 1.714275536474550e+01	 2.928575120249186e+01	 1.000085279319941e+01
0	 1.714275536474550e+01	 3.000004755570248e+01	 1.000049826653236e+01
0	 1.714275536474549e+01	 3.071434524225146e+01	 1.000024019517644e+01
0	 1.714275536474549e+01	 3.142864409547142e+01	 1.000006872746795e+01
0	 1.714275536474550e+01	 3.214294394869490e+01	 9.999974011826355e+00
0	 1.714275536474550e+01	 3.285724463525451e+01	 9.999946196754104e+00
0	 1.714275536474550e+01	 3.357154598848279e+01	 9.999975430836775e+00
0	 1.714275536474549e+01	 3.428584784171235e+01	 1.000005186274294e+01
0	 1.714275536474550e+01	 3.500015002827575e+01	 1.000016564122427e+01
0	 1.714275536474550e+01	 3.571445238150555e+01	 1.000030691511551e+01
0	 1.785705605130510e+01	 2.857145634928704e+01	 1.000123641499728e+01
0	 1.785705605130509e+01	 2.928575120249185e+01	 1.000089495813479e+01
0	 1.785705605130510e+01	 3.000004755570248e+01	 1.000064350308361e+01
0	 1.785705605130510e+01	 3.071434524225147e+01	 1.000047096954630e+01
0	 1.785705605130510e+01	 3.142864409547143e+01	 1.000036627727570e+01
0	 1.785705605130510e+01	 3.214294394869492e+01	 1.000031834607496e+01
0	 1.785705605130510e+01	 3.285724463525451e+01	 1.000031609579749e+01
0	 1.785705605130510e+01	 3.357154598848280e+01	 1.000034844634705e+01
0	 1.785705605130510e+01	 3.428584784171234e+01	 1.000040431767766e+01
0	 1.785705605130509e+01	 3.500015002827575e+01	 1.000047262979365e+01
0	 1.785705605130510e+01	 3.571445238150556e+01	 1.000054230274963e+01
0	 1.857135590452859e+01	 2.857145634928704e+01	 1.000116030900531e+01
0	 1.857135590452859e+01	 2.928575120249186e+01	 1.000095235563069e+01
0	 1.857135590452858e+01	 3.000004755570248e+01	 1.000081203651446e+01
0	 1.857135590452858e+01	 3.071434524225147e+01	 1.000072796132746e+01
0	 1.857135590452858e+01	 3.142864409547142e+01	 1.000068873975636e+01
0	 1.857135590452858e+01	 3.214294394869491e+01	 1.000068298150368e+01
0	 1.857135590452858e+01	 3.285724463525451e+01	 1.000069929628774e+01
0	 1.857135590452858e+01	 3.357154598848279e+01	 1.000072629384269e+01
0	 1.857135590452858e+01	 3.428584784171235e+01	 1.000075258391856e+01
0	 1.857135590452858e+01	 3.500015002827575e+01	 1.000076677628113e+01
0	 1.857135590452859e+01	 3.571445238150556e+01	 1.000075748071203e+01
0	 1.928565475774854e+01	 2.857145634928704e+01	 1.000110483386797e+01
0	 1.928565475774854e+01	 2.928575120249186e+01	 1.000103290916759e+01
0	 1.928565475774854e+01	 3.000004755570248e+01	 1.000100211261963e+01
0	 1.928565475774853e+01	 3.071434524225146e+01	 1.000100166236738e+01
0	 1.928565475774854e+01	 3.142864409547142e+01	 1.000102077653649e+01
0	 1.928565475774854e+01	 3.214294394869491e+01	 1.000104867323497e+01
0	 1.928565475774854e+01	 3.285724463525451e+01	 1.000107457055316e+01
0	 1.928565475774854e+01	 3.357154598848280e+01	 1.000108768656375e+01
0	 1.928565475774854e+01	 3.428584784171235e+01	 1.000107723932178e+01
0	 1.928565475774854e+01	 3.500015002827575e+01	 1.000103244686463e+01
0	 1.928565475774854e+01	 3.571445238150557e+01	 1.000094252721205e+01
0	 1.999995244429754e+01	 2.857145634928704e+01	 1.000108951457373e+01
0	 1.999995244429754e+01	 2.928575120249187e+01	 1.000114454230092e+01
0	 1.999995244429753e+01	 3.000004755570248e+01	 1.000121197726816e+01
0	 1.999995244429753e+01	 3.071434524225148e+01	 1.000128256458176e+01
0	 1.999995244429753e+01	 3.142864409547143e+01	 1.000134704930053e+01
0	 1.999995244429754e+01	 3.214294394869491e+01	 1.000139617643589e+01
0	 1.999995244429753e+01	 3.285724463525451e+01	 1.000142069095174e+01
0	 1.999995244429753e+01	 3.357154598848280e+01	 1.000141133776460e+01
0	 1.999995244429754e+01	 3.428584784171235e+01	 1.000135886174348e+01
0	 1.999995244429753e+01	 3.500015002827574e+01	 1.000125400771001e+01
0	 1.999995244429753e+01	 3.571445238150556e+01	 1.000108752043828e+01
0	 2.071424879750816e+01	 2.857145634928704e+01	 1.000113387617986e+01
0	 2.071424879750815e+01	 2.928575120249186e+01	 1.000129517866106e+01
0	 2.071424879750816e+01	 3.000004755570249e+01	 1.000143987640344e+01
0	 2.071424879750816e+01	 3.071434524225147e+01	 1.000156115995446e+01
0	 2.071424879750815e+01	 3.142864409547143e+01	 1.000165221979074e+01
0	 2.071424879750816e+01	 3.214294394869491e+01	 1.000170624631798e+01
0	 2.071424879750816e+01	 3.285724463525452e+01	 1.000171642987108e+01
0	 2.071424879750816e+01	 3.357154598848280e+01	 1.000167596071400e+01
0	 2.071424879750814e+01	 3.428584784171235e+01	 1.000157802903989e+01
0	 2.071424879750815e+01	 3.500015002827574e+01	 1.000141582497097e+01
0	 2.071424879750816e+01	 3.571445238150557e+01	 1.000118253855866e+01
0	 2.142854365071296e+01	 2.857145634928703e+01	 1.000125744381251e+01
0	 2.142854365071296e+01	 2.928575120249186e+01	 1.000149274195344e+01
0	 2.142854365071296e+01	 3.000004755570248e+01	 1.000168405604319e+01
0	 2.142854365071297e+01	 3.071434524225148e+01	 1.000182794053757e+01
0	 2.142854365071296e+01	 3.142864409547142e+01	 1.000192094980719e+01
0	 2.142854365071296e+01	 3.214294394869491e+01	 1.000195963813743e+01
0	 2.142854365071296e+01	 3.285724463525451e+01	 1.000194055972842e+01
0	 2.142854365071296e+01	 3.357154598848279e+01	 1.000186026869511e+01
0	 2.142854365071296e+01	 3.428584784171235e+01	 1.000171531906721e+01
0	 2.142854365071296e+01	 3.500015002827575e+01	 1.000150226478920e+01
0	 2.142854365071297e+01	 3.571445238150556e+01	 1.000121765972037e+01
0	 1.428554761849444e+01	 3.571445238150556e+01	 9.999361702950431e+00
0	 1.428554761849444e+01	 3.642870477623360e+01	 9.999635338408948e+00
0	 1.428554761849444e+01	 3.714295725428857e+01	 9.999866842245343e+00
0	 1.428554761849445e+01	 3.785720989899840e+01	 1.000005520677279e+01
0	 1.428554761849444e+01	 3.857146279369100e+01	 1.000019942433907e+01
0	 1.428554761849444e+01	 3.928571602169433e+01	 1.000029848732663e+01
0	 1.428554761849444e+01	 3.999996966633629e+01	 1.000035138815256e+01
0	 1.428554761849444e+01	 4.071422381094481e+01	 1.000035711926857e+01
0	 1.428554761849444e+01	 4.142847853884783e+01	 1.000031467316102e+01
0	 1.428554761849444e+01	 4.214273393337327e+01	 1.000022304235090e+01
0	 1.428554761849445e+01	 4.285699007784908e+01	 1.000008121939384e+01
0	 1.499984997172427e+01	 3.571445238150557e+01	 9.999578711778891e+00
0	 1.499984997172426e+01	 3.642870477623358e+01	 9.999852287341756e+00
0	 1.499984997172426e+01	 3.714295725428857e+01	 1.000007086443804e+01
0	 1.499984997172427e+01	 3.785720989899841e+01	 1.000023631909201e+01
0	 1.499984997172426e+01	 3.857146279369100e+01	 1.000035052736120e+01
0	 1.499984997172426e+01	 3.928571602169432e+01	 1.000041536533650e+01
0	 1.499984997172427e+01	 3.999996966633630e+01	 1.000043270914214e+01
0	 1.499984997172426e+01	 4.071422381094480e+01	 1.000040443493561e+01
0	 1.499984997172426e+01	 4.142847853884783e+01	 1.000033241890774e+01
0	 1.499984997172426e+01	 4.214273393337327e+01	 1.000021853728271e+01
0	 1.499984997172427e+01	 4.285699007784908e+01	 1.000006466631793e+01
0	 1.571415215828766e+01	 3.571445238150557e+01	 9.999815197891232e+00
0	 1.571415215828765e+01	 3.642870477623359e+01	 1.000005955243026e+01
0	 1.571415215828766e+01	 3.714295725428857e+01	 1.000024355705790e+01
0	 1.571415215828766e+01	 3.785720989899840e+01	 1.000037139252704e+01
0	 1.571415215828766e+01	 3.857146279369102e+01	 1.000044723961932e+01
0	 1.571415215828766e+01	 3.928571602169433e+01	 1.000047527914507e+01
0	 1.571415215828766e+01	 3.999996966633628e+01	 1.000045969194337e+01
0	 1.571415215828766e+01	 4.071422381094482e+01	 1.000040465888202e+01
0	 1.571415215828766e+01	 4.142847853884783e+01	 1.000031436085749e+01
0	 1.571415215828766e+01	 4.214273393337327e+01	 1.000019297879504e+01
0	 1.571415215828766e+01	 4.285699007784908e+01	 1.000004469364861e+01
0	 1.642845401151721e+01	 3.571445238150555e+01	 1.000006123957962e+01
0	 1.642845401151722e+01	 3.642870477623360e+01	 1.000025334490076e+01
0	 1.642845401151721e+01	 3.714295725428857e+01	 1.000038618323951e+01
0	 1.642845401151721e+01	 3.785720989899838e+01	 1.000046566109479e+01
0	 1.642845401151721e+01	 3.857146279369101e+01	 1.000049768498716e+01
0	 1.642845401151721e+01	 3.928571602169433e+01	 1.000048816145873e+01
0	 1.642845401151722e+01	 3.999996966633629e+01	 1.000044299707327e+01
0	 1.642845401151721e+01	 4.071422381094481e+01	 1.000036809841614e+01
0	 1.642845401151722e+01	 4.142847853884783e+01	 1.000026937209434e+01
0	 1.642845401151721e+01	 4.214273393337327e+01	 1.000015272473642e+01
0	 1.642845401151721e+01	 4.285699007784907e+01	 1.000002406299261e+01
0	 1.714275536474550e+01	 3.571445238150555e+01	 1.000030691511551e+01
0	 1.714275536474550e+01	 3.642870477623359e+01	 1.000042987595464e+01
0	 1.714275536474550e+01	 3.714295725428856e+01	 1.000050000609238e+01
0	 1.714275536474550e+01	 3.785720989899840e+01	 1.000052435879002e+01
0	 1.714275536474550e+01	 3.857146279369100e+01	 1.000050998732162e+01
0	 1.714275536474550e+01	 3.928571602169432e+01	 1.000046394497393e+01
0	 1.714275536474550e+01	 3.999996966633629e+01	 1.000039328504650e+01
0	 1.714275536474551e+01	 4.071422381094482e+01	 1.000030506085161e+01
0	 1.714275536474550e+01	 4.142847853884782e+01	 1.000020632571425e+01
0	 1.714275536474550e+01	 4.214273393337329e+01	 1.000010413297218e+01
0	 1.714275536474550e+01	 4.285699007784908e+01	 1.000000553597592e+01
0	 1.785705605130510e+01	 3.571445238150556e+01	 1.000054230274963e+01
0	 1.785705605130510e+01	 3.642870477623360e+01	 1.000058535676844e+01
0	 1.785705605130510e+01	 3.714295725428857e+01	 1.000058628870095e+01
0	 1.785705605130510e+01	 3.785720989899841e+01	 1.000055271958538e+01
0	 1.785705605130509e+01	 3.857146279369100e+01	 1.000049227046281e+01
0	 1.785705605130510e+01	 3.928571602169432e+01	 1.000041256237722e+01
0	 1.785705605130509e+01	 3.999996966633628e+01	 1.000032121637543e+01
0	 1.785705605130510e+01	 4.071422381094481e+01	 1.000022585350718e+01
0	 1.785705605130510e+01	 4.142847853884783e+01	 1.000013409482502e+01
0	 1.785705605130510e+01	 4.214273393337327e+01	 1.000005356138445e+01
0	 1.785705605130510e+01	 4.285699007784908e+01	 9.999991874243777e+00
0	 1.857135590452859e+01	 3.571445238150556e+01	 1.000075748071203e+01
0	 1.857135590452858e+01	 3.642870477623359e+01	 1.000071599849380e+01
0	 1.857135590452858e+01	 3.714295725428858e+01	 1.000064629412456e+01
0	 1.857135590452859e+01	 3.785720989899841e+01	 1.000055597743138e+01
0	 1.857135590452858e+01	 3.857146279369100e+01	 1.000045265823406e+01
0	 1.857135590452858e+01	 3.928571602169432e+01	 1.000034394634520e+01
0	 1.857135590452858e+01	 3.999996966633628e+01	 1.000023745157010e+01
0	 1.857135590452859e+01	 4.071422381094482e+01	 1.000014078370687e+01
0	 1.857135590452858e+01	 4.142847853884783e+01	 1.000006155254635e+01
0	 1.857135590452859e+01	 4.214273393337328e+01	 1.000000736787216e+01
0	 1.857135590452858e+01	 4.285699007784907e+01	 9.999985839460674e+00
0	 1.928565475774854e+01	 3.571445238150557e+01	 1.000094252721205e+01
0	 1.928565475774853e+01	 3.642870477623359e+01	 1.000081801225746e+01
0	 1.928565475774854e+01	 3.714295725428857e+01	 1.000068128539746e+01
0	 1.928565475774854e+01	 3.785720989899841e+01	 1.000053936625643e+01
0	 1.928565475774854e+01	 3.857146279369100e+01	 1.000039927444191e+01
0	 1.928565475774854e+01	 3.928571602169433e+01	 1.000026802954456e+01
0	 1.928565475774854e+01	 3.999996966633628e+01	 1.000015265113823e+01
0	 1.928565475774854e+01	 4.071422381094481e+01	 1.000006015877991e+01
0	 1.928565475774854e+01	 4.142847853884783e+01	 9.999997572009757e+00
0	 1.928565475774854e+01	 4.214273393337326e+01	 9.999971910351086e+00
0	 1.928565475774854e+01	 4.285699007784908e+01	 9.999990193310367e+00
0	 1.999995244429753e+01	 3.571445238150556e+01	 1.000108752043828e+01
0	 1.999995244429753e+01	 3.642870477623359e+01	 1.000088760916127e+01
0	 1.999995244429754e+01	 3.714295725428858e+01	 1.000069252552882e+01
0	 1.999995244429754e+01	 3.785720989899840e+01	 1.000050811996682e+01
0	 1.999995244429754e+01	 3.857146279369100e+01	 1.000034024287605e+01
0	 1.999995244429753e+01	 3.928571602169433e+01	 1.000019474463205e+01
0	 1.999995244429753e+01	 3.999996966633629e+01	 1.000007747558520e+01
0	 1.999995244429754e+01	 4.071422381094481e+01	 9.999994286060716e+00
0	 1.999995244429753e+01	 4.142847853884784e+01	 9.999951026358623e+00
0	 1.999995244429753e+01	 4.214273393337328e+01	 9.999953546753778e+00
0	 1.999995244429753e+01	 4.285699007784908e+01	 1.000000769749585e+01
0	 2.071424879750816e+01	 3.571445238150557e+01	 1.000118253855866e+01
0	 2.071424879750816e+01	 3.642870477623360e+01	 1.000092100028222e+01
0	 2.071424879750816e+01	 3.714295725428858e+01	 1.000068127750269e+01
0	 2.071424879750815e+01	 3.785720989899840e+01	 1.000046747244672e+01
0	 2.071424879750815e+01	 3.857146279369100e+01	 1.000028368730943e+01
0	 2.071424879750816e+01	 3.928571602169432e+01	 1.000013402425451e+01
0	 2.071424879750816e+01	 3.999996966633629e+01	 1.000002258541411e+01
0	 2.071424879750816e+01	 4.071422381094482e+01	 9.999953472888942e+00
0	 2.071424879750816e+01	 4.142847853884783e+01	 9.999930788748198e+00
0	 2.071424879750816e+01	 4.214273393337326e+01	 9.999958635029605e+00
0	 2.071424879750816e+01	 4.285699007784908e+01	 1.000004111373938e+01
0	 2.142854365071297e+01	 3.571445238150556e+01	 1.000121765972037e+01
0	 2.142854365071297e+01	 3.642870477623361e+01	 1.000091439667238e+01
0	 2.142854365071296e+01	 3.714295725428858e+01	 1.000064880427809e+01
0	 2.142854365071296e+01	 3.785720989899840e+01	 1.000042265755814e+01
0	 2.142854365071296e+01	 3.857146279369100e+01	 1.000023773149818e+01
0	 2.142854365071296e+01	 3.928571602169432e+01	 1.000009580104884e+01
0	 2.142854365071296e+01	 3.999996966633628e+01	 9.999998641125730e+00
0	 2.142854365071296e+01	 4.071422381094482e+01	 9.999948026609442e+00
0	 2.142854365071296e+01	 4.142847853884783e+01	 9.999945732345596e+00
0	 2.142854365071296e+01	 4.214273393337329e+01	 9.999993533144751e+00
0	 2.142854365071296e+01	 4.285699007784907e+01	 1.000009320378250e+01
0	 1.428554761849445e+01	 4.285699007784908e+01	 1.000008121939384e+01
0	 1.428554761849444e+01	 4.357129694500737e+01	 9.999932671310816e+00
0	 1.428554761849444e+01	 4.428560406221393e+01	 9.999821740460883e+00
0	 1.428554761849444e+01	 4.499991084612204e+01	 9.999748697451148e+00
0	 1.428554761849444e+01	 4.571421671338500e+01	 9.999713813080117e+00
0	 1.428554761849444e+01	 4.642852108065614e+01	 9.999717358337671e+00
0	 1.428554761849445e+01	 4.714282336458874e+01	 9.999759604405083e+00
0	 1.428554761849444e+01	 4.785712298183613e+01	 9.999840822655052e+00
0	 1.428554761849444e+01	 4.857141934905160e+01	 9.999961284651615e+00
0	 1.428554761849445e+01	 4.928571188288846e+01	 1.000012126215031e+01
0	 1.428554761849444e+01	 5.000000000000000e+01	 1.000032102709798e+01
0	 1.499984997172427e+01	 4.285699007784908e+01	 1.000006466631793e+01
0	 1.499984997172426e+01	 4.357129694500736e+01	 9.999914792125450e+00
0	 1.499984997172426e+01	 4.428560406221391e+01	 9.999809893735707e+00
0	 1.499984997172426e+01	 4.499991084612203e+01	 9.999747300566897e+00
0	 1.499984997172426e+01	 4.571421671338501e+01	 9.999724342224130e+00
0	 1.499984997172426e+01	 4.642852108065613e+01	 9.999738348499623e+00
0	 1.499984997172426e+01	 4.714282336458875e+01	 9.999786649372465e+00
0	 1.499984997172426e+01	 4.785712298183612e+01	 9.999866575008841e+00
0	 1.499984997172426e+01	 4.857141934905160e+01	 9.999975455761819e+00
0	 1.499984997172426e+01	 4.928571188288846e+01	 1.000011062217159e+01
0	 1.499984997172426e+01	 5.000000000000000e+01	 1.000026940496542e+01
0	 1.571415215828766e+01	 4.285699007784908e+01	 1.000004469364861e+01
0	 1.571415215828766e+01	 4.357129694500737e+01	 9.999909384356929e+00
0	 1.571415215828766e+01	 4.428560406221393e+01	 9.999820830952769e+00
0	 1.571415215828766e+01	 4.499991084612203e+01	 9.999774032501893e+00
0	 1.571415215828766e+01	 4.571421671338501e+01	 9.999763988233923e+00
0	 1.571415215828766e+01	 4.642852108065615e+01	 9.999785697542384e+00
0	 1.571415215828766e+01	 4.714282336458876e+01	 9.999834159984662e+00
0	 1.571415215828766e+01	 4.785712298183612e+01	 9.999904375282018e+00
0	 1.571415215828766e+01	 4.857141934905160e+01	 9.999991343319593e+00
0	 1.571415215828766e+01	 4.928571188288846e+01	 1.000009006414651e+01
0	 1.571415215828766e+01	 5.000000000000001e+01	 1.000019553797561e+01
0	 1.642845401151721e+01	 4.285699007784907e+01	 1.000002406299261e+01
0	 1.642845401151722e+01	 4.357129694500738e+01	 9.999915527647936e+00
0	 1.642845401151721e+01	 4.428560406221392e+01	 9.999850859920342e+00
0	 1.642845401151722e+01	 4.499991084612203e+01	 9.999823339352083e+00
0	 1.642845401151721e+01	 4.571421671338500e+01	 9.999826245611956e+00
0	 1.642845401151721e+01	 4.642852108065613e+01	 9.999852858495206e+00
0	 1.642845401151722e+01	 4.714282336458874e+01	 9.999896457923606e+00
0	 1.642845401151721e+01	 4.785712298183612e+01	 9.999950323945509e+00
0	 1.642845401151722e+01	 4.857141934905160e+01	 1.000000773673558e+01
0	 1.642845401151721e+01	 4.928571188288846e+01	 1.000006197659526e+01
0	 1.642845401151722e+01	 5.000000000000000e+01	 1.000010632395229e+01
0	 1.714275536474550e+01	 4.285699007784908e+01	 1.000000553597592e+01
0	 1.714275536474550e+01	 4.357129694500738e+01	 9.999932301659747e+00
0	 1.714275536474550e+01	 4.428560406221391e+01	 9.999896288462253e+00
0	 1.714275536474550e+01	 4.499991084612203e+01	 9.999889667224316e+00
0	 1.714275536474550e+01	 4.571421671338501e+01	 9.999904608866217e+00
0	 1.714275536474550e+01	 4.642852108065615e+01	 9.999933284387533e+00
0	 1.714275536474550e+01	 4.714282336458875e+01	 9.999967864867161e+00
0	 1.714275536474550e+01	 4.785712298183613e+01	 1.000000052146338e+01
0	 1.714275536474550e+01	 4.857141934905160e+01	 1.000002342541377e+01
0	 1.714275536474550e+01	 4.928571188288845e+01	 1.000002874803528e+01
0	 1.714275536474550e+01	 4.999999999999999e+01	 1.000000866072413e+01
0	 1.785705605130510e+01	 4.285699007784908e+01	 9.999991874243777e+00
0	 1.785705605130510e+01	 4.357129694500737e+01	 9.999958786072353e+00
0	 1.785705605130510e+01	 4.428560406221392e+01	 9.999953424417967e+00
0	 1.785705605130510e+01	 4.499991084612202e+01	 9.999967462236382e+00
0	 1.785705605130510e+01	 4.571421671338501e+01	 9.999992572510266e+00
0	 1.785705605130510e+01	 4.642852108065613e+01	 1.000002042824905e+01
0	 1.785705605130510e+01	 4.714282336458876e+01	 1.000004270248899e+01
0	 1.785705605130509e+01	 4.785712298183613e+01	 1.000005106829322e+01
0	 1.785705605130510e+01	 4.857141934905161e+01	 1.000003719875166e+01
0	 1.785705605130510e+01	 4.928571188288846e+01	 9.999992766981061e+00
0	 1.785705605130510e+01	 5.000000000000000e+01	 9.999909446125045e+00
0	 1.857135590452858e+01	 4.285699007784907e+01	 9.999985839460672e+00
0	 1.857135590452858e+01	 4.357129694500737e+01	 9.999994060584351e+00
0	 1.857135590452859e+01	 4.428560406221392e+01	 1.000001857564252e+01
0	 1.857135590452858e+01	 4.499991084612203e+01	 1.000005117051702e+01
0	 1.857135590452859e+01	 4.571421671338500e+01	 1.000008363106314e+01
0	 1.857135590452858e+01	 4.642852108065613e+01	 1.000010774310958e+01
0	 1.857135590452858e+01	 4.714282336458874e+01	 1.000011529245859e+01
0	 1.857135590452858e+01	 4.785712298183611e+01	 1.000009806488573e+01
0	 1.857135590452858e+01	 4.857141934905161e+01	 1.000004784614012e+01
0	 1.857135590452858e+01	 4.928571188288845e+01	 9.999956421944209e+00
0	 1.857135590452858e+01	 5.000000000000000e+01	 9.999815577993962e+00
0	 1.928565475774854e+01	 4.285699007784908e+01	 9.999990193310364e+00
0	 1.928565475774854e+01	 4.357129694500738e+01	 1.000003720491307e+01
0	 1.928565475774854e+01	 4.428560406221393e+01	 1.000008805000662e+01
0	 1.928565475774854e+01	 4.499991084612203e+01	 1.000013523820587e+01
0	 1.928565475774853e+01	 4.571421671338499e+01	 1.000017127904937e+01
0	 1.928565475774853e+01	 4.642852108065613e+01	 1.000018868199925e+01
0	 1.928565475774854e+01	 4.714282336458874e+01	 1.000017995644132e+01
0	 1.928565475774854e+01	 4.785712298183613e+01	 1.000013761168503e+01
0	 1.928565475774854e+01	 4.857141934905160e+01	 1.000005415696352e+01
0	 1.928565475774854e+01	 4.928571188288846e+01	 9.999922101433366e+00
0	 1.928565475774854e+01	 5.000000000000000e+01	 9.999733954174907e+00
0	 1.999995244429753e+01	 4.285699007784908e+01	 1.000000769749585e+01
0	 1.999995244429754e+01	 4.357129694500737e+01	 1.000008729879442e+01
0	 1.999995244429753e+01	 4.428560406221391e+01	 1.000015815539649e+01
0	 1.999995244429754e+01	 4.499991084612203e+01	 1.000021411145356e+01
0	 1.999995244429754e+01	 4.571421671338501e+01	 1.000024901099908e+01
0	 1.999995244429754e+01	 4.642852108065614e+01	 1.000025669794831e+01
0	 1.999995244429753e+01	 4.714282336458875e+01	 1.000023101609844e+01
0	 1.999995244429754e+01	 4.785712298183613e+01	 1.000016580912857e+01
0	 1.999995244429754e+01	 4.857141934905161e+01	 1.000005492059955e+01
0	 1.999995244429753e+01	 4.928571188288845e+01	 9.999892193954205e+00
0	 1.999995244429753e+01	 5.000000000000000e+01	 9.999671472517219e+00
0	 2.071424879750816e+01	 4.285699007784908e+01	 1.000004111373938e+01
0	 2.071424879750815e+01	 4.357129694500737e+01	 1.000014342198303e+01
0	 2.071424879750816e+01	 4.428560406221393e+01	 1.000022519971401e+01
0	 2.071424879750816e+01	 4.499991084612203e+01	 1.000028223642163e+01
0	 2.071424879750816e+01	 4.571421671338500e+01	 1.000031032144784e+01
0	 2.071424879750815e+01	 4.642852108065613e+01	 1.000030524398724e+01
0	 2.071424879750816e+01	 4.714282336458874e+01	 1.000026279308700e+01
0	 2.071424879750816e+01	 4.785712298183612e+01	 1.000017875764696e+01
0	 2.071424879750815e+01	 4.857141934905159e+01	 1.000004892641949e+01
0	 2.071424879750815e+01	 4.928571188288845e+01	 9.999869088009655e+00
0	 2.071424879750816e+01	 5.000000000000000e+01	 9.999635030874991e+00
0	 2.142854365071296e+01	 4.285699007784907e+01	 1.000009320378249e+01
0	 2.142854365071296e+01	 4.357129694500738e+01	 1.000020465425214e+01
0	 2.142854365071296e+01	 4.428560406221393e+01	 1.000028549087662e+01
0	 2.142854365071296e+01	 4.499991084612203e+01	 1.000033405928252e+01
0	 2.142854365071296e+01	 4.571421671338500e+01	 1.000034870493679e+01
0	 2.142854365071296e+01	 4.642852108065613e+01	 1.000032777314673e+01
0	 2.142854365071296e+01	 4.714282336458874e+01	 1.000026960905991e+01
0	 2.142854365071296e+01	 4.785712298183613e+01	 1.000017255766424e+01
0	 2.142854365071296e+01	 4.857141934905160e+01	 1.000003496378796e+01
0	 2.142854365071296e+01	 4.928571188288846e+01	 9.999855172099529e+00
0	 2.142854365071296e+01	 5.000000000000001e+01	 9.999631527107795e+00
0	 2.142854365071296e+01	 0.000000000000000e+00	 9.994448300775872e+00
0	 2.142854365071296e+01	 7.142881171115512e-01	 9.996945659731264e+00
0	 2.142854365071297e+01	 1.428580650948409e+00	 9.999570610488206e+00
0	 2.142854365071296e+01	 2.142877018163878e+00	 1.000219848281917e+01
0	 2.142854365071296e+01	 2.857176635411264e+00	 1.000470460314264e+01
0	 2.142854365071296e+01	 3.571478919343873e+00	 1.000696429452323e+01
0	 2.142854365071296e+01	 4.285783286615009e+00	 1.000885287667198e+01
0	 2.142854365071296e+01	 5.000089153877975e+00	 1.001024566594648e+01
0	 2.142854365071296e+01	 5.714395937786081e+00	 1.001101797535093e+01
0	 2.142854365071296e+01	 6.428703054992630e+00	 1.001104511453626e+01
0	 2.142854365071297e+01	 7.143009922150927e+00	 1.001020238980017e+01
0	 2.214283692057824e+01	 0.000000000000000e+00	 9.991819354981178e+00
0	 2.214283692057823e+01	 7.142881171115514e-01	 9.996199465775300e+00
0	 2.214283692057824e+01	 1.428580650948409e+00	 1.000017628604678e+01
0	 2.214283692057824e+01	 2.142877018163879e+00	 1.000368729550061e+01
0	 2.214283692057824e+01	 2.857176635411265e+00	 1.000666996981619e+01
0	 2.214283692057824e+01	 3.571478919343871e+00	 1.000906178064761e+01
0	 2.214283692057824e+01	 4.285783286615008e+00	 1.001080019562390e+01
0	 2.214283692057824e+01	 5.000089153877977e+00	 1.001182267834918e+01
0	 2.214283692057824e+01	 5.714395937786080e+00	 1.001206668840284e+01
0	 2.214283692057824e+01	 6.428703054992628e+00	 1.001146968133958e+01
0	 2.214283692057824e+01	 7.143009922150926e+00	 1.000996910868946e+01
0	 2.285712885710494e+01	 0.000000000000000e+00	 9.990929619095377e+00
0	 2.285712885710494e+01	 7.142881171115515e-01	 9.996358967954617e+00
0	 2.285712885710494e+01	 1.428580650948409e+00	 1.000101909008616e+01
0	 2.285712885710493e+01	 2.142877018163878e+00	 1.000489995118681e+01
0	 2.285712885710494e+01	 2.857176635411264e+00	 1.000799151276807e+01
0	 2.285712885710494e+01	 3.571478919343873e+00	 1.001028373215650e+01
0	 2.285712885710494e+01	 4.285783286615009e+00	 1.001176656249393e+01
0	 2.285712885710493e+01	 5.000089153877974e+00	 1.001242995273767e+01
0	 2.285712885710493e+01	 5.714395937786078e+00	 1.001226384766064e+01
0	 2.285712885710494e+01	 6.428703054992631e+00	 1.001125818785144e+01
0	 2.285712885710494e+01	 7.143009922150927e+00	 1.000940290971441e+01
0	 2.357141979362770e+01	 0.000000000000000e+00	 9.991462082036705e+00
0	 2.357141979362770e+01	 7.142881171115514e-01	 9.997230921022132e+00
0	 2.357141979362770e+01	 1.428580650948409e+00	 1.000201076725867e+01
0	 2.357141979362770e+01	 2.142877018163878e+00	 1.000583440895587e+01
0	 2.357141979362770e+01	 2.857176635411264e+00	 1.000873463039825e+01
0	 2.357141979362770e+01	 3.571478919343873e+00	 1.001074421194553e+01
0	 2.357141979362771e+01	 4.285783286615009e+00	 1.001189593003287e+01
0	 2.357141979362770e+01	 5.000089153877974e+00	 1.001222255717105e+01
0	 2.357141979362770e+01	 5.714395937786081e+00	 1.001175686194659e+01
0	 2.357141979362770e+01	 6.428703054992629e+00	 1.001053160902184e+01
0	 2.357141979362770e+01	 7.143009922150926e+00	 1.000857955913505e+01
0	 2.428571006348117e+01	 0.000000000000000e+00	 9.993099733068997e+00
0	 2.428571006348117e+01	 7.142881171115510e-01	 9.998622080453202e+00
0	 2.428571006348117e+01	 1.428580650948409e+00	 1.000306306314642e+01
0	 2.428571006348118e+01	 2.142877018163878e+00	 1.000648862888079e+01
0	 2.428571006348117e+01	 2.857176635411265e+00	 1.000896472205144e+01
0	 2.428571006348118e+01	 3.571478919343873e+00	 1.001055728371669e+01
0	 2.428571006348117e+01	 4.285783286615008e+00	 1.001133225159827e+01
0	 2.428571006348118e+01	 5.000089153877976e+00	 1.001135556008145e+01
0	 2.428571006348117e+01	 5.714395937786081e+00	 1.001069314021522e+01
0	 2.428571006348117e+01	 6.428703054992627e+00	 1.000941091971224e+01
0	 2.428571006348117e+01	 7.143009922150927e+00	 1.000757482294900e+01
0	 2.500000000000001e+01	 0.000000000000000e+00	 9.995525561801681e+00
0	 2.500000000000001e+01	 7.142881171115514e-01	 1.000033920244558e+01
0	 2.500000000000001e+01	 1.428580650948409e+00	 1.000408772426144e+01
0	 2.500000000000000e+01	 2.142877018163878e+00	 1.000686057202956e+01
0	 2.500000000000001e+01	 2.857176635411265e+00	 1.000874718801712e+01
0	 2.500000000000001e+01	 3.571478919343873e+00	 1.000983701197828e+01
0	 2.500000000000001e+01	 4.285783286615009e+00	 1.001021948115438e+01
0	 2.500000000000001e+01	 5.000089153877975e+00	 1.000998403027405e+01
0	 2.500000000000001e+01	 5.714395937786082e+00	 1.000922009155326e+01
0	 2.500000000000000e+01	 6.428703054992628e+00	 1.000801709469542e+01
0	 2.500000000000000e+01	 7.143009922150926e+00	 1.000646446689143e+01
0	 2.571428993651884e+01	 0.000000000000000e+00	 9.998422558189803e+00
0	 2.571428993651883e+01	 7.142881171115512e-01	 1.000218904391944e+01
0	 2.571428993651884e+01	 1.428580650948409e+00	 1.000499649804555e+01
0	 2.571428993651884e+01	 2.142877018163879e+00	 1.000694820046509e+01
0	 2.571428993651883e+01	 2.857176635411264e+00	 1.000814742952954e+01
0	 2.571428993651884e+01	 3.571478919343873e+00	 1.000869746204500e+01
0	 2.571428993651883e+01	 4.285783286615008e+00	 1.000870157327229e+01
0	 2.571428993651885e+01	 5.000089153877976e+00	 1.000826303692703e+01
0	 2.571428993651883e+01	 5.714395937786081e+00	 1.000748512517968e+01
0	 2.571428993651884e+01	 6.428703054992630e+00	 1.000647110865560e+01
0	 2.571428993651883e+01	 7.143009922150926e+00	 1.000532425643508e+01
0	 2.642858020637231e+01	 0.000000000000000e+00	 1.000147371253404e+01
0	 2.642858020637231e+01	 7.142881171115515e-01	 1.000397836251740e+01
0	 2.642858020637231e+01	 1.428580650948409e+00	 1.000570113287048e+01
0	 2.642858020637231e+01	 2.142877018163878e+00	 1.000674947724528e+01
0	 2.642858020637231e+01	 2.857176635411265e+00	 1.000723084876774e+01
0	 2.642858020637231e+01	 3.571478919343873e+00	 1.000725270003789e+01
0	 2.642858020637232e+01	 4.285783286615009e+00	 1.000692248312980e+01
0	 2.642858020637231e+01	 5.000089153877977e+00	 1.000634764959162e+01
0	 2.642858020637231e+01	 5.714395937786080e+00	 1.000563565044566e+01
0	 2.642858020637232e+01	 6.428703054992629e+00	 1.000489393618834e+01
0	 2.642858020637231e+01	 7.143009922150926e+00	 1.000422995679026e+01
0	 2.714287114289507e+01	 0.000000000000000e+00	 1.000436201548064e+01
0	 2.714287114289507e+01	 7.142881171115513e-01	 1.000551391660452e+01
0	 2.714287114289507e+01	 1.428580650948409e+00	 1.000611337803785e+01
0	 2.714287114289507e+01	 2.142877018163879e+00	 1.000626236642299e+01
0	 2.714287114289508e+01	 2.857176635411265e+00	 1.000606284885556e+01
0	 2.714287114289507e+01	 3.571478919343872e+00	 1.000561679288439e+01
0	 2.714287114289507e+01	 4.285783286615009e+00	 1.000502616651151e+01
0	 2.714287114289507e+01	 5.000089153877976e+00	 1.000439293819211e+01
0	 2.714287114289508e+01	 5.714395937786081e+00	 1.000381907683462e+01
0	 2.714287114289507e+01	 6.428703054992627e+00	 1.000340655180060e+01
0	 2.714287114289508e+01	 7.143009922150927e+00	 1.000325733290481e+01
0	 2.785716307942177e+01	 0.000000000000000e+00	 1.000677045802149e+01
0	 2.785716307942177e+01	 7.142881171115513e-01	 1.000660246526824e+01
0	 2.785716307942177e+01	 1.428580650948409e+00	 1.000614498377906e+01
0	 2.785716307942177e+01	 2.142877018163878e+00	 1.000548483304604e+01
0	 2.785716307942178e+01	 2.857176635411265e+00	 1.000470883386160e+01
0	 2.785716307942177e+01	 3.571478919343873e+00	 1.000390380831828e+01
0	 2.785716307942177e+01	 4.285783286615009e+00	 1.000315657980878e+01
0	 2.785716307942177e+01	 5.000089153877974e+00	 1.000255397302583e+01
0	 2.785716307942177e+01	 5.714395937786081e+00	 1.000218281396221e+01
0	 2.785716307942178e+01	 6.428703054992629e+00	 1.000212992991073e+01
0	 2.785716307942178e+01	 7.143009922150927e+00	 1.000248214946419e+01
0	 2.857145634928704e+01	 0.000000000000000e+00	 1.000838203149406e+01
0	 2.857145634928703e+01	 7.142881171115513e-01	 1.000705076831849e+01
0	 2.857145634928704e+01	 1.428580650948409e+00	 1.000570770125544e+01
0	 2.857145634928704e+01	 2.142877018163878e+00	 1.000441484315723e+01
0	 2.857145634928703e+01	 2.857176635411264e+00	 1.000323420879923e+01
0	 2.857145634928704e+01	 3.571478919343873e+00	 1.000222781487970e+01
0	 2.857145634928704e+01	 4.285783286615009e+00	 1.000145768001972e+01
0	 2.857145634928704e+01	 5.000089153877975e+00	 1.000098582476309e+01
0	 2.857145634928703e+01	 5.714395937786080e+00	 1.000087427157630e+01
0	 2.857145634928704e+01	 6.428703054992629e+00	 1.000118504484846e+01
0	 2.857145634928703e+01	 7.143009922150926e+00	 1.000198017089136e+01
0	 2.142854365071297e+01	 7.143009922150927e+00	 1.001020238980017e+01
0	 2.142854365071296e+01	 7.857266066626718e+00	 1.000888425288398e+01
0	 2.142854365071296e+01	 8.571521461152164e+00	 1.000759918882765e+01
0	 2.142854365071296e+01	 9.285776189055184e+00	 1.000639382823723e+01
0	 2.142854365071297e+01	 1.000003033366371e+01	 1.000531480151116e+01
0	 2.142854365071296e+01	 1.071428397830567e+01	 1.000440873884026e+01
0	 2.142854365071296e+01	 1.142853720630899e+01	 1.000372227020773e+01
0	 2.142854365071297e+01	 1.214279010100160e+01	 1.000330202538911e+01
0	 2.142854365071296e+01	 1.285704274571142e+01	 1.000319463395236e+01
0	 2.142854365071296e+01	 1.357129522376639e+01	 1.000344672525778e+01
0	 2.142854365071296e+01	 1.428554761849444e+01	 1.000410492845804e+01
0	 2.214283692057824e+01	 7.143009922150926e+00	 1.000996910868946e+01
0	 2.214283692057824e+01	 7.857266066626720e+00	 1.000809959912656e+01
0	 2.214283692057824e+01	 8.571521461152162e+00	 1.000645210554574e+01
0	 2.214283692057824e+01	 9.285776189055181e+00	 1.000504897697391e+01
0	 2.214283692057823e+01	 1.000003033366371e+01	 1.000391256219690e+01
0	 2.214283692057824e+01	 1.071428397830567e+01	 1.000306520975951e+01
0	 2.214283692057823e+01	 1.142853720630899e+01	 1.000252926796539e+01
0	 2.214283692057823e+01	 1.214279010100160e+01	 1.000232708487718e+01
0	 2.214283692057824e+01	 1.285704274571142e+01	 1.000248100831642e+01
0	 2.214283692057824e+01	 1.357129522376640e+01	 1.000301338586356e+01
0	 2.214283692057824e+01	 1.428554761849444e+01	 1.000394656485800e+01
0	 2.285712885710494e+01	 7.143009922150927e+00	 1.000940290971441e+01
0	 2.285712885710494e+01	 7.857266066626718e+00	 1.000729069262527e+01
0	 2.285712885710493e+01	 8.571521461152161e+00	 1.000552192170647e+01
0	 2.285712885710493e+01	 9.285776189055182e+00	 1.000409856817538e+01
0	 2.285712885710494e+01	 1.000003033366371e+01	 1.000302260300638e+01
0	 2.285712885710495e+01	 1.071428397830567e+01	 1.000229599693073e+01
0	 2.285712885710494e+01	 1.142853720630899e+01	 1.000192072043670e+01
0	 2.285712885710493e+01	 1.214279010100160e+01	 1.000189874376951e+01
0	 2.285712885710494e+01	 1.285704274571142e+01	 1.000223203693129e+01
0	 2.285712885710494e+01	 1.357129522376640e+01	 1.000292256968116e+01
0	 2.285712885710494e+01	 1.428554761849444e+01	 1.000397231153517e+01
0	 2.357141979362770e+01	 7.143009922150926e+00	 1.000857955913505e+01
0	 2.357141979362770e+01	 7.857266066626717e+00	 1.000648294932435e+01
0	 2.357141979362770e+01	 8.571521461152166e+00	 1.000479218708994e+01
0	 2.357141979362770e+01	 9.285776189055182e+00	 1.000349276969687e+01
0	 2.357141979362770e+01	 1.000003033366371e+01	 1.000257019419069e+01
0	 2.357141979362770e+01	 1.071428397830567e+01	 1.000200995739752e+01
0	 2.357141979362770e+01	 1.142853720630899e+01	 1.000179755592396e+01
0	 2.357141979362770e+01	 1.214279010100160e+01	 1.000191848615712e+01
0	 2.357141979362770e+01	 1.285704274571142e+01	 1.000235824426464e+01
0	 2.357141979362770e+01	 1.357129522376639e+01	 1.000310232619469e+01
0	 2.357141979362770e+01	 1.428554761849444e+01	 1.000413622767592e+01
0	 2.428571006348117e+01	 7.143009922150927e+00	 1.000757482294900e+01
0	 2.428571006348117e+01	 7.857266066626718e+00	 1.000570178479952e+01
0	 2.428571006348117e+01	 8.571521461152159e+00	 1.000424645106479e+01
0	 2.428571006348117e+01	 9.285776189055184e+00	 1.000318174899132e+01
0	 2.428571006348118e+01	 1.000003033366371e+01	 1.000248060564929e+01
0	 2.428571006348118e+01	 1.071428397830567e+01	 1.000211594793260e+01
0	 2.428571006348118e+01	 1.142853720630899e+01	 1.000206070255880e+01
0	 2.428571006348117e+01	 1.214279010100160e+01	 1.000228779606912e+01
0	 2.428571006348117e+01	 1.285704274571142e+01	 1.000277015482848e+01
0	 2.428571006348117e+01	 1.357129522376639e+01	 1.000348070502549e+01
0	 2.428571006348118e+01	 1.428554761849444e+01	 1.000439237267242e+01
0	 2.500000000000000e+01	 7.143009922150926e+00	 1.000646446689143e+01
0	 2.500000000000000e+01	 7.857266066626717e+00	 1.000497261425801e+01
0	 2.500000000000000e+01	 8.571521461152161e+00	 1.000386826258823e+01
0	 2.500000000000001e+01	 9.285776189055186e+00	 1.000311567310955e+01
0	 2.500000000000000e+01	 1.000003033366371e+01	 1.000267910692993e+01
0	 2.500000000000001e+01	 1.071428397830567e+01	 1.000252282503786e+01
0	 2.500000000000000e+01	 1.142853720630899e+01	 1.000261108830231e+01
0	 2.500000000000001e+01	 1.214279010100160e+01	 1.000290815747278e+01
0	 2.500000000000001e+01	 1.285704274571142e+01	 1.000337829317925e+01
0	 2.500000000000000e+01	 1.357129522376639e+01	 1.000398575593220e+01
0	 2.500000000000000e+01	 1.428554761849444e+01	 1.000469480612264e+01
0	 2.571428993651883e+01	 7.143009922150926e+00	 1.000532425643508e+01
0	 2.571428993651883e+01	 7.857266066626718e+00	 1.000432085253853e+01
0	 2.571428993651883e+01	 8.571521461152162e+00	 1.000364117020599e+01
0	 2.571428993651884e+01	 9.285776189055184e+00	 1.000324470870012e+01
0	 2.571428993651883e+01	 1.000003033366371e+01	 1.000309096722864e+01
0	 2.571428993651884e+01	 1.071428397830567e+01	 1.000313944494433e+01
0	 2.571428993651884e+01	 1.142853720630899e+01	 1.000334964094500e+01
0	 2.571428993651884e+01	 1.214279010100160e+01	 1.000368105427350e+01
0	 2.571428993651883e+01	 1.285704274571143e+01	 1.000409318391775e+01
0	 2.571428993651883e+01	 1.357129522376639e+01	 1.000454552881072e+01
0	 2.571428993651884e+01	 1.428554761849445e+01	 1.000499758783040e+01
0	 2.642858020637231e+01	 7.143009922150926e+00	 1.000422995679026e+01
0	 2.642858020637231e+01	 7.857266066626718e+00	 1.000377191411126e+01
0	 2.642858020637231e+01	 8.571521461152164e+00	 1.000354872205233e+01
0	 2.642858020637231e+01	 9.285776189055182e+00	 1.000351902200939e+01
0	 2.642858020637231e+01	 1.000003033366371e+01	 1.000364145538979e+01
0	 2.642858020637232e+01	 1.071428397830567e+01	 1.000387466361222e+01
0	 2.642858020637231e+01	 1.142853720630899e+01	 1.000417728810673e+01
0	 2.642858020637231e+01	 1.214279010100160e+01	 1.000450797031480e+01
0	 2.642858020637231e+01	 1.285704274571142e+01	 1.000482535168923e+01
0	 2.642858020637231e+01	 1.357129522376640e+01	 1.000508807369421e+01
0	 2.642858020637231e+01	 1.428554761849444e+01	 1.000525477780533e+01
0	 2.714287114289508e+01	 7.143009922150927e+00	 1.000325733290481e+01
0	 2.714287114289507e+01	 7.857266066626718e+00	 1.000335121307789e+01
0	 2.714287114289508e+01	 8.571521461152164e+00	 1.000357446585006e+01
0	 2.714287114289507e+01	 9.285776189055186e+00	 1.000388877888152e+01
0	 2.714287114289507e+01	 1.000003033366371e+01	 1.000425583990602e+01
0	 2.714287114289507e+01	 1.071428397830567e+01	 1.000463733673084e+01
0	 2.714287114289507e+01	 1.142853720630899e+01	 1.000499495723682e+01
0	 2.714287114289509e+01	 1.214279010100160e+01	 1.000529038937833e+01
0	 2.714287114289507e+01	 1.285704274571142e+01	 1.000548532118328e+01
0	 2.714287114289508e+01	 1.357129522376640e+01	 1.000554144075313e+01
0	 2.714287114289507e+01	 1.428554761849444e+01	 1.000542043626288e+01
0	 2.785716307942178e+01	 7.143009922150927e+00	 1.000248214946419e+01
0	 2.785716307942177e+01	 7.857266066626719e+00	 1.000308416317158e+01
0	 2.785716307942177e+01	 8.571521461152162e+00	 1.000370194891052e+01
0	 2.785716307942177e+01	 9.285776189055184e+00	 1.000430414475843e+01
0	 2.785716307942177e+01	 1.000003033366371e+01	 1.000485938891828e+01
0	 2.785716307942177e+01	 1.071428397830567e+01	 1.000533631971872e+01
0	 2.785716307942177e+01	 1.142853720630899e+01	 1.000570357561397e+01
0	 2.785716307942177e+01	 1.214279010100160e+01	 1.000592979518389e+01
0	 2.785716307942178e+01	 1.285704274571143e+01	 1.000598361713392e+01
0	 2.785716307942177e+01	 1.357129522376639e+01	 1.000583368029517e+01
0	 2.785716307942178e+01	 1.428554761849445e+01	 1.000544862362431e+01
0	 2.857145634928703e+01	 7.143009922150926e+00	 1.000198017089136e+01
0	 2.857145634928704e+01	 7.857266066626718e+00	 1.000299617775697e+01
0	 2.857145634928704e+01	 8.571521461152164e+00	 1.000391471813361e+01
0	 2.857145634928704e+01	 9.285776189055182e+00	 1.000471528467984e+01
0	 2.857145634928704e+01	 1.000003033366371e+01	 1.000537737021585e+01
0	 2.857145634928704e+01	 1.071428397830567e+01	 1.000588046772350e+01
0	 2.857145634928704e+01	 1.142853720630899e+01	 1.000620407034630e+01
0	 2.857145634928704e+01	 1.214279010100160e+01	 1.000632767138938e+01
0	 2.857145634928703e+01	 1.285704274571142e+01	 1.000623076431956e+01
0	 2.857145634928704e+01	 1.357129522376639e+01	 1.000589284276531e+01
0	 2.857145634928703e+01	 1.428554761849444e+01	 1.000529340051673e+01
0	 2.142854365071296e+01	 1.428554761849444e+01	 1.000410492845804e+01
0	 2.142854365071297e+01	 1.499984997172426e+01	 1.000493719546930e+01
0	 2.142854365071296e+01	 1.571415215828766e+01	 1.000566670779128e+01
0	 2.142854365071296e+01	 1.642845401151721e+01	 1.000627312268353e+01
0	 2.142854365071296e+01	 1.714275536474550e+01	 1.000673609707160e+01
0	 2.142854365071296e+01	 1.785705605130510e+01	 1.000703528754709e+01
0	 2.142854365071296e+01	 1.857135590452858e+01	 1.000715035036761e+01
0	 2.142854365071297e+01	 1.928565475774854e+01	 1.000706094145678e+01
0	 2.142854365071297e+01	 1.999995244429754e+01	 1.000674671640427e+01
0	 2.142854365071296e+01	 2.071424879750816e+01	 1.000618733046573e+01
0	 2.142854365071296e+01	 2.142854365071296e+01	 1.000536243856283e+01
0	 2.214283692057824e+01	 1.428554761849444e+01	 1.000394656485800e+01
0	 2.214283692057823e+01	 1.499984997172426e+01	 1.000499899733675e+01
0	 2.214283692057824e+01	 1.571415215828766e+01	 1.000586830622907e+01
0	 2.214283692057824e+01	 1.642845401151721e+01	 1.000654583439391e+01
0	 2.214283692057825e+01	 1.714275536474550e+01	 1.000702292433582e+01
0	 2.214283692057824e+01	 1.785705605130510e+01	 1.000729091820477e+01
0	 2.214283692057824e+01	 1.857135590452858e+01	 1.000734115779626e+01
0	 2.214283692057824e+01	 1.928565475774854e+01	 1.000716498455127e+01
0	 2.214283692057824e+01	 1.999995244429753e+01	 1.000675373955627e+01
0	 2.214283692057824e+01	 2.071424879750816e+01	 1.000609876354323e+01
0	 2.214283692057824e+01	 2.142854365071296e+01	 1.000519139688954e+01
0	 2.285712885710494e+01	 1.428554761849444e+01	 1.000397231153517e+01
0	 2.285712885710494e+01	 1.499984997172426e+01	 1.000508733547634e+01
0	 2.285712885710493e+01	 1.571415215828766e+01	 1.000597295101747e+01
0	 2.285712885710494e+01	 1.642845401151721e+01	 1.000663024034382e+01
0	 2.285712885710494e+01	 1.714275536474550e+01	 1.000706028529843e+01
0	 2.285712885710494e+01	 1.785705605130510e+01	 1.000726416738211e+01
0	 2.285712885710494e+01	 1.857135590452858e+01	 1.000724296775348e+01
0	 2.285712885710494e+01	 1.928565475774854e+01	 1.000699776722889e+01
0	 2.285712885710494e+01	 1.999995244429754e+01	 1.000652964628251e+01
0	 2.285712885710493e+01	 2.071424879750816e+01	 1.000583968504622e+01
0	 2.285712885710494e+01	 2.142854365071296e+01	 1.000492896330969e+01
0	 2.357141979362770e+01	 1.428554761849444e+01	 1.000413622767592e+01
0	 2.357141979362770e+01	 1.499984997172426e+01	 1.000518419964828e+01
0	 2.357141979362770e+01	 1.571415215828766e+01	 1.000598591528026e+01
0	 2.357141979362770e+01	 1.642845401151721e+01	 1.000655024979842e+01
0	 2.357141979362770e+01	 1.714275536474550e+01	 1.000688607812567e+01
0	 2.357141979362770e+01	 1.785705605130509e+01	 1.000700227488133e+01
0	 2.357141979362770e+01	 1.857135590452859e+01	 1.000690771438104e+01
0	 2.357141979362769e+01	 1.928565475774853e+01	 1.000661127063682e+01
0	 2.357141979362770e+01	 1.999995244429754e+01	 1.000612181735707e+01
0	 2.357141979362770e+01	 2.071424879750816e+01	 1.000544822794653e+01
0	 2.357141979362770e+01	 2.142854365071297e+01	 1.000459937550628e+01
0	 2.428571006348118e+01	 1.428554761849444e+01	 1.000439237267242e+01
0	 2.428571006348118e+01	 1.499984997172427e+01	 1.000527157985463e+01
0	 2.428571006348118e+01	 1.571415215828766e+01	 1.000591247238924e+01
0	 2.428571006348118e+01	 1.642845401151721e+01	 1.000632977225281e+01
0	 2.428571006348117e+01	 1.714275536474550e+01	 1.000653820117670e+01
0	 2.428571006348117e+01	 1.785705605130509e+01	 1.000655248064700e+01
0	 2.428571006348117e+01	 1.857135590452859e+01	 1.000638733190456e+01
0	 2.428571006348117e+01	 1.928565475774854e+01	 1.000605747594501e+01
0	 2.428571006348117e+01	 1.999995244429754e+01	 1.000557763351868e+01
0	 2.428571006348117e+01	 2.071424879750816e+01	 1.000496252513071e+01
0	 2.428571006348117e+01	 2.142854365071296e+01	 1.000422687104094e+01
0	 2.500000000000000e+01	 1.428554761849444e+01	 1.000469480612264e+01
0	 2.500000000000001e+01	 1.499984997172427e+01	 1.000533146633931e+01
0	 2.500000000000000e+01	 1.571415215828766e+01	 1.000575789596428e+01
0	 2.500000000000001e+01	 1.642845401151721e+01	 1.000599271743205e+01
0	 2.500000000000000e+01	 1.714275536474550e+01	 1.000605455300352e+01
0	 2.500000000000001e+01	 1.785705605130510e+01	 1.000596202476608e+01
0	 2.500000000000001e+01	 1.857135590452858e+01	 1.000573375463353e+01
0	 2.500000000000000e+01	 1.928565475774854e+01	 1.000538836434614e+01
0	 2.500000000000000e+01	 1.999995244429753e+01	 1.000494447547059e+01
0	 2.500000000000001e+01	 2.071424879750815e+01	 1.000442070940001e+01
0	 2.500000000000001e+01	 2.142854365071296e+01	 1.000383568735396e+01
0	 2.571428993651884e+01	 1.428554761849445e+01	 1.000499758783041e+01
0	 2.571428993651883e+01	 1.499984997172426e+01	 1.000534584958807e+01
0	 2.571428993651883e+01	 1.571415215828766e+01	 1.000552745987333e+01
0	 2.571428993651883e+01	 1.642845401151721e+01	 1.000556299529105e+01
0	 2.571428993651884e+01	 1.714275536474551e+01	 1.000547303235099e+01
0	 2.571428993651883e+01	 1.785705605130509e+01	 1.000527814746786e+01
0	 2.571428993651883e+01	 1.857135590452858e+01	 1.000499891696126e+01
0	 2.571428993651884e+01	 1.928565475774854e+01	 1.000465591705569e+01
0	 2.571428993651884e+01	 1.999995244429754e+01	 1.000426972388062e+01
0	 2.571428993651883e+01	 2.071424879750815e+01	 1.000386091347038e+01
0	 2.571428993651884e+01	 2.142854365071296e+01	 1.000345006176420e+01
0	 2.642858020637231e+01	 1.428554761849444e+01	 1.000525477780533e+01
0	 2.642858020637231e+01	 1.499984997172426e+01	 1.000529672032853e+01
0	 2.642858020637231e+01	 1.571415215828766e+01	 1.000522643823242e+01
0	 2.642858020637231e+01	 1.642845401151721e+01	 1.000506451601473e+01
0	 2.642858020637231e+01	 1.714275536474550e+01	 1.000483153815690e+01
0	 2.642858020637232e+01	 1.785705605130510e+01	 1.000454808912403e+01
0	 2.642858020637231e+01	 1.857135590452858e+01	 1.000423475336488e+01
0	 2.642858020637232e+01	 1.928565475774854e+01	 1.000391211531189e+01
0	 2.642858020637231e+01	 1.999995244429754e+01	 1.000360075938116e+01
0	 2.642858020637231e+01	 2.071424879750815e+01	 1.000332126997246e+01
0	 2.642858020637232e+01	 2.142854365071296e+01	 1.000309423146922e+01
0	 2.714287114289507e+01	 1.428554761849444e+01	 1.000542043626288e+01
0	 2.714287114289507e+01	 1.499984997172426e+01	 1.000516606953016e+01
0	 2.714287114289508e+01	 1.571415215828766e+01	 1.000486010540561e+01
0	 2.714287114289507e+01	 1.642845401151721e+01	 1.000452119001790e+01
0	 2.714287114289508e+01	 1.714275536474550e+01	 1.000416796955188e+01
0	 2.714287114289507e+01	 1.785705605130510e+01	 1.000381909024863e+01
0	 2.714287114289507e+01	 1.857135590452858e+01	 1.000349319840542e+01
0	 2.714287114289507e+01	 1.928565475774854e+01	 1.000320894037570e+01
0	 2.714287114289507e+01	 1.999995244429753e+01	 1.000298496256914e+01
0	 2.714287114289508e+01	 2.071424879750816e+01	 1.000283991145161e+01
0	 2.714287114289507e+01	 2.142854365071296e+01	 1.000279243354517e+01
0	 2.785716307942178e+01	 1.428554761849445e+01	 1.000544862362431e+01
0	 2.785716307942177e+01	 1.499984997172426e+01	 1.000493588840425e+01
0	 2.785716307942177e+01	 1.571415215828766e+01	 1.000443373600507e+01
0	 2.785716307942178e+01	 1.642845401151722e+01	 1.000395692794529e+01
0	 2.785716307942177e+01	 1.714275536474550e+01	 1.000352022585946e+01
0	 2.785716307942177e+01	 1.785705605130510e+01	 1.000313839149808e+01
0	 2.785716307942177e+01	 1.857135590452858e+01	 1.000282618672771e+01
0	 2.785716307942178e+01	 1.928565475774854e+01	 1.000259837353086e+01
0	 2.785716307942177e+01	 1.999995244429754e+01	 1.000246971400608e+01
0	 2.785716307942177e+01	 2.071424879750815e+01	 1.000245497036789e+01
0	 2.785716307942178e+01	 2.142854365071296e+01	 1.000256890494684e+01
0	 2.857145634928703e+01	 1.428554761849444e+01	 1.000529340051674e+01
0	 2.857145634928704e+01	 1.499984997172426e+01	 1.000458816840399e+01
0	 2.857145634928703e+01	 1.571415215828766e+01	 1.000395260489104e+01
0	 2.857145634928704e+01	 1.642845401151721e+01	 1.000339564067160e+01
0	 2.857145634928704e+01	 1.714275536474550e+01	 1.000292620659603e+01
0	 2.857145634928704e+01	 1.785705605130510e+01	 1.000255323367116e+01
0	 2.857145634928704e+01	 1.857135590452858e+01	 1.000228565306046e+01
0	 2.857145634928703e+01	 1.928565475774853e+01	 1.000213239608391e+01
0	 2.857145634928703e+01	 1.999995244429753e+01	 1.000210239421807e+01
0	 2.857145634928704e+01	 2.071424879750816e+01	 1.000220457909610e+01
0	 2.857145634928704e+01	 2.142854365071296e+01	 1.000244788250767e+01
0	 2.142854365071296e+01	 2.142854365071296e+01	 1.000536243856283e+01
0	 2.142854365071296e+01	 2.214283692057824e+01	 1.000444325908277e+01
0	 2.142854365071296e+01	 2.285712885710494e+01	 1.000361908359900e+01
0	 2.142854365071296e+01	 2.357141979362770e+01	 1.000289667627741e+01
0	 2.142854365071296e+01	 2.428571006348117e+01	 1.000228280090446e+01
0	 2.142854365071296e+01	 2.500000000000001e+01	 1.000178422088706e+01
0	 2.142854365071296e+01	 2.571428993651884e+01	 1.000140769925270e+01
0	 2.142854365071296e+01	 2.642858020637231e+01	 1.000115999864933e+01
0	 2.142854365071296e+01	 2.714287114289507e+01	 1.000104788134544e+01
0	 2.142854365071296e+01	 2.785716307942177e+01	 1.000107810923000e+01
0	 2.142854365071296e+01	 2.857145634928703e+01	 1.000125744381251e+01
0	 2.214283692057824e+01	 2.142854365071296e+01	 1.000519139688954e+01
0	 2.214283692057824e+01	 2.214283692057824e+01	 1.000422005368716e+01
0	 2.214283692057824e+01	 2.285712885710494e+01	 1.000337937371707e+01
0	 2.214283692057824e+01	 2.357141979362770e+01	 1.000267003533498e+01
0	 2.214283692057824e+01	 2.428571006348118e+01	 1.000209271651075e+01
0	 2.214283692057824e+01	 2.500000000000000e+01	 1.000164809482838e+01
0	 2.214283692057824e+01	 2.571428993651884e+01	 1.000133684748598e+01
0	 2.214283692057824e+01	 2.642858020637232e+01	 1.000115965129581e+01
0	 2.214283692057824e+01	 2.714287114289507e+01	 1.000111718268422e+01
0	 2.214283692057824e+01	 2.785716307942177e+01	 1.000121011769172e+01
0	 2.214283692057824e+01	 2.857145634928704e+01	 1.000143913197292e+01
0	 2.285712885710494e+01	 2.142854365071296e+01	 1.000492896330969e+01
0	 2.285712885710494e+01	 2.214283692057824e+01	 1.000398386819415e+01
0	 2.285712885710493e+01	 2.285712885710493e+01	 1.000318718441686e+01
0	 2.285712885710494e+01	 2.357141979362770e+01	 1.000253458763616e+01
0	 2.285712885710494e+01	 2.428571006348118e+01	 1.000202175315212e+01
0	 2.285712885710494e+01	 2.500000000000000e+01	 1.000164435590650e+01
0	 2.285712885710494e+01	 2.571428993651883e+01	 1.000139807048274e+01
0	 2.285712885710494e+01	 2.642858020637232e+01	 1.000127857110601e+01
0	 2.285712885710494e+01	 2.714287114289507e+01	 1.000128153164312e+01
0	 2.285712885710494e+01	 2.785716307942177e+01	 1.000140262560260e+01
0	 2.285712885710494e+01	 2.857145634928704e+01	 1.000163752613470e+01
0	 2.357141979362770e+01	 2.142854365071297e+01	 1.000459937550628e+01
0	 2.357141979362770e+01	 2.214283692057824e+01	 1.000374399102933e+01
0	 2.357141979362770e+01	 2.285712885710493e+01	 1.000303939448901e+01
0	 2.357141979362770e+01	 2.357141979362770e+01	 1.000247734200126e+01
0	 2.357141979362770e+01	 2.428571006348117e+01	 1.000204958937813e+01
0	 2.357141979362770e+01	 2.500000000000001e+01	 1.000174789212779e+01
0	 2.357141979362770e+01	 2.571428993651884e+01	 1.000156400545448e+01
0	 2.357141979362770e+01	 2.642858020637231e+01	 1.000148968425856e+01
0	 2.357141979362770e+01	 2.714287114289508e+01	 1.000151668313648e+01
0	 2.357141979362770e+01	 2.785716307942177e+01	 1.000163675638075e+01
0	 2.357141979362770e+01	 2.857145634928704e+01	 1.000184165798004e+01
0	 2.428571006348117e+01	 2.142854365071296e+01	 1.000422687104094e+01
0	 2.428571006348117e+01	 2.214283692057824e+01	 1.000350971047867e+01
0	 2.428571006348118e+01	 2.285712885710494e+01	 1.000293288258251e+01
0	 2.428571006348118e+01	 2.357141979362770e+01	 1.000248530712004e+01
0	 2.428571006348118e+01	 2.428571006348118e+01	 1.000215590362908e+01
0	 2.428571006348117e+01	 2.500000000000000e+01	 1.000193359141771e+01
0	 2.428571006348117e+01	 2.571428993651883e+01	 1.000180728956420e+01
0	 2.428571006348117e+01	 2.642858020637231e+01	 1.000176591691708e+01
0	 2.428571006348118e+01	 2.714287114289508e+01	 1.000179839209507e+01
0	 2.428571006348117e+01	 2.785716307942176e+01	 1.000189363348714e+01
0	 2.428571006348117e+01	 2.857145634928703e+01	 1.000204055925249e+01
0	 2.500000000000001e+01	 2.142854365071296e+01	 1.000383568735396e+01
0	 2.500000000000001e+01	 2.214283692057824e+01	 1.000329031468853e+01
0	 2.500000000000000e+01	 2.285712885710494e+01	 1.000286452720467e+01
0	 2.500000000000000e+01	 2.357141979362770e+01	 1.000254549155172e+01
0	 2.500000000000000e+01	 2.428571006348117e+01	 1.000232037423599e+01
0	 2.500000000000001e+01	 2.500000000000000e+01	 1.000217634162081e+01
0	 2.500000000000000e+01	 2.571428993651883e+01	 1.000210055992644e+01
0	 2.500000000000001e+01	 2.642858020637231e+01	 1.000208019523015e+01
0	 2.500000000000000e+01	 2.714287114289507e+01	 1.000210241346616e+01
0	 2.500000000000001e+01	 2.785716307942178e+01	 1.000215438042567e+01
0	 2.500000000000001e+01	 2.857145634928704e+01	 1.000222326175684e+01
0	 2.571428993651884e+01	 2.142854365071296e+01	 1.000345006176420e+01
0	 2.571428993651884e+01	 2.214283692057824e+01	 1.000309509166564e+01
0	 2.571428993651883e+01	 2.285712885710494e+01	 1.000283120672114e+01
0	 2.571428993651883e+01	 2.357141979362770e+01	 1.000264490372495e+01
0	 2.571428993651883e+01	 2.428571006348117e+01	 1.000252267942057e+01
0	 2.571428993651883e+01	 2.500000000000000e+01	 1.000245103050068e+01
0	 2.571428993651883e+01	 2.571428993651883e+01	 1.000241645360723e+01
0	 2.571428993651883e+01	 2.642858020637231e+01	 1.000240544533137e+01
0	 2.571428993651884e+01	 2.714287114289507e+01	 1.000240450221347e+01
0	 2.571428993651883e+01	 2.785716307942177e+01	 1.000240012074314e+01
0	 2.571428993651884e+01	 2.857145634928704e+01	 1.000237879735919e+01
0	 2.642858020637232e+01	 2.142854365071296e+01	 1.000309423146922e+01
0	 2.642858020637232e+01	 2.214283692057824e+01	 1.000293332927711e+01
0	 2.642858020637231e+01	 2.285712885710493e+01	 1.000282979935590e+01
0	 2.642858020637231e+01	 2.357141979362770e+01	 1.000277055193789e+01
0	 2.642858020637232e+01	 2.428571006348118e+01	 1.000274249729526e+01
0	 2.642858020637231e+01	 2.500000000000000e+01	 1.000273254574003e+01
0	 2.642858020637232e+01	 2.571428993651884e+01	 1.000272760762412e+01
0	 2.642858020637231e+01	 2.642858020637230e+01	 1.000271459333928e+01
0	 2.642858020637231e+01	 2.714287114289508e+01	 1.000268041331716e+01
0	 2.642858020637231e+01	 2.785716307942177e+01	 1.000261197802924e+01
0	 2.642858020637231e+01	 2.857145634928704e+01	 1.000249619798690e+01
0	 2.714287114289507e+01	 2.142854365071296e+01	 1.000279243354517e+01
0	 2.714287114289508e+01	 2.214283692057824e+01	 1.000281431525044e+01
0	 2.714287114289506e+01	 2.285712885710494e+01	 1.000285718319127e+01
0	 2.714287114289507e+01	 2.357141979362770e+01	 1.000290944435812e+01
0	 2.714287114289507e+01	 2.428571006348117e+01	 1.000295950586323e+01
0	 2.714287114289507e+01	 2.500000000000001e+01	 1.000299577494065e+01
0	 2.714287114289508e+01	 2.571428993651884e+01	 1.000300665894618e+01
0	 2.714287114289508e+01	 2.642858020637231e+01	 1.000298056535745e+01
0	 2.714287114289508e+01	 2.714287114289508e+01	 1.000290590177386e+01
0	 2.714287114289508e+01	 2.785716307942177e+01	 1.000277107591661e+01
0	 2.714287114289507e+01	 2.857145634928703e+01	 1.000256449562867e+01
0	 2.785716307942178e+01	 2.142854365071296e+01	 1.000256890494684e+01
0	 2.785716307942178e+01	 2.214283692057824e+01	 1.000274733717350e+01
0	 2.785716307942177e+01	 2.285712885710494e+01	 1.000291023616790e+01
0	 2.785716307942177e+01	 2.357141979362770e+01	 1.000304858902268e+01
0	 2.785716307942177e+01	 2.428571006348117e+01	 1.000315338301837e+01
0	 2.785716307942178e+01	 2.500000000000000e+01	 1.000321560562337e+01
0	 2.785716307942177e+01	 2.571428993651883e+01	 1.000322624449399e+01
0	 2.785716307942177e+01	 2.642858020637231e+01	 1.000317628747440e+01
0	 2.785716307942177e+01	 2.714287114289508e+01	 1.000305672259667e+01
0	 2.785716307942177e+01	 2.785716307942177e+01	 1.000285853808075e+01
0	 2.785716307942177e+01	 2.857145634928704e+01	 1.000257272233445e+01
0	 2.857145634928704e+01	 2.142854365071296e+01	 1.000244788250767e+01
0	 2.857145634928704e+01	 2.214283692057824e+01	 1.000274168249458e+01
0	 2.857145634928704e+01	 2.285712885710494e+01	 1.000298583608479e+01
0	 2.857145634928704e+01	 2.357141979362770e+01	 1.000317499383808e+01
0	 2.857145634928703e+01	 2.428571006348117e+01	 1.000330380654525e+01
0	 2.857145634928704e+01	 2.500000000000001e+01	 1.000336692522815e+01
0	 2.857145634928704e+01	 2.571428993651884e+01	 1.000335900113966e+01
0	 2.857145634928704e+01	 2.642858020637232e+01	 1.000327468576367e+01
0	 2.857145634928704e+01	 2.714287114289508e+01	 1.000310863081515e+01
0	 2.857145634928704e+01	 2.785716307942177e+01	 1.000285548824009e+01
0	 2.857145634928703e+01	 2.857145634928703e+01	 1.000250991021550e+01
0	 2.142854365071296e+01	 2.857145634928703e+01	 1.000125744381251e+01
0	 2.142854365071296e+01	 2.928575120249186e+01	 1.000149274195344e+01
0	 2.142854365071296e+01	 3.000004755570248e+01	 1.000168405604319e+01
0	 2.142854365071297e+01	 3.071434524225148e+01	 1.000182794053757e+01
0	 2.142854365071296e+01	 3.142864409547142e+01	 1.000192094980719e+01
0	 2.142854365071296e+01	 3.214294394869491e+01	 1.000195963813743e+01
0	 2.142854365071296e+01	 3.285724463525451e+01	 1.000194055972842e+01
0	 2.142854365071296e+01	 3.357154598848279e+01	 1.000186026869511e+01
0	 2.142854365071296e+01	 3.428584784171235e+01	 1.000171531906721e+01
0	 2.142854365071296e+01	 3.500015002827575e+01	 1.000150226478920e+01
0	 2.142854365071297e+01	 3.571445238150556e+01	 1.000121765972037e+01
0	 2.214283692057824e+01	 2.857145634928704e+01	 1.000143913197292e+01
0	 2.214283692057824e+01	 2.928575120249186e+01	 1.000170424714977e+01
0	 2.214283692057824e+01	 3.000004755570248e+01	 1.000190506958634e+01
0	 2.214283692057824e+01	 3.071434524225147e+01	 1.000204165169457e+01
0	 2.214283692057825e+01	 3.142864409547143e+01	 1.000211404579777e+01
0	 2.214283692057824e+01	 3.214294394869491e+01	 1.000212230413070e+01
0	 2.214283692057824e+01	 3.285724463525450e+01	 1.000206647883946e+01
0	 2.214283692057823e+01	 3.357154598848279e+01	 1.000194662198162e+01
0	 2.214283692057823e+01	 3.428584784171235e+01	 1.000176278552609e+01
0	 2.214283692057824e+01	 3.500015002827574e+01	 1.000151502135319e+01
0	 2.214283692057824e+01	 3.571445238150555e+01	 1.000120338125468e+01
0	 2.285712885710494e+01	 2.857145634928704e+01	 1.000163752613470e+01
0	 2.285712885710493e+01	 2.928575120249186e+01	 1.000188974503631e+01
0	 2.285712885710494e+01	 3.000004755570248e+01	 1.000206761222890e+01
0	 2.285712885710494e+01	 3.071434524225146e+01	 1.000217402771900e+01
0	 2.285712885710494e+01	 3.142864409547142e+01	 1.000221189143086e+01
0	 2.285712885710493e+01	 3.214294394869492e+01	 1.000218410320649e+01
0	 2.285712885710494e+01	 3.285724463525452e+01	 1.000209356280559e+01
0	 2.285712885710495e+01	 3.357154598848280e+01	 1.000194316990562e+01
0	 2.285712885710494e+01	 3.428584784171235e+01	 1.000173582410176e+01
0	 2.285712885710493e+01	 3.500015002827574e+01	 1.000147442490696e+01
0	 2.285712885710494e+01	 3.571445238150555e+01	 1.000116187175186e+01
0	 2.357141979362770e+01	 2.857145634928704e+01	 1.000184165798004e+01
0	 2.357141979362770e+01	 2.928575120249186e+01	 1.000204671314844e+01
0	 2.357141979362770e+01	 3.000004755570247e+01	 1.000217614279105e+01
0	 2.357141979362770e+01	 3.071434524225147e+01	 1.000223504415392e+01
0	 2.357141979362770e+01	 3.142864409547143e+01	 1.000222851441480e+01
0	 2.357141979362770e+01	 3.214294394869493e+01	 1.000216165068314e+01
0	 2.357141979362770e+01	 3.285724463525450e+01	 1.000203955000017e+01
0	 2.357141979362770e+01	 3.357154598848280e+01	 1.000186730933882e+01
0	 2.357141979362770e+01	 3.428584784171235e+01	 1.000165002560374e+01
0	 2.357141979362770e+01	 3.500015002827573e+01	 1.000139279563132e+01
0	 2.357141979362770e+01	 3.571445238150556e+01	 1.000110071618967e+01
0	 2.428571006348117e+01	 2.857145634928703e+01	 1.000204055925249e+01
0	 2.428571006348117e+01	 2.928575120249185e+01	 1.000217262909094e+01
0	 2.428571006348117e+01	 3.000004755570247e+01	 1.000223512016120e+01
0	 2.428571006348117e+01	 3.071434524225147e+01	 1.000223467660194e+01
0	 2.428571006348117e+01	 3.142864409547142e+01	 1.000217794250317e+01
0	 2.428571006348117e+01	 3.214294394869491e+01	 1.000207156190623e+01
0	 2.428571006348118e+01	 3.285724463525452e+01	 1.000192217880380e+01
0	 2.428571006348118e+01	 3.357154598848279e+01	 1.000173643713988e+01
0	 2.428571006348118e+01	 3.428584784171235e+01	 1.000152098080981e+01
0	 2.428571006348118e+01	 3.500015002827575e+01	 1.000128245366026e+01
0	 2.428571006348117e+01	 3.571445238150555e+01	 1.000102749948926e+01
0	 2.500000000000001e+01	 2.857145634928704e+01	 1.000222326175684e+01
0	 2.500000000000000e+01	 2.928575120249186e+01	 1.000226497053798e+01
0	 2.500000000000001e+01	 3.000004755570248e+01	 1.000224900329593e+01
0	 2.500000000000001e+01	 3.071434524225147e+01	 1.000218290072522e+01
0	 2.500000000000000e+01	 3.142864409547142e+01	 1.000207420349492e+01
0	 2.500000000000001e+01	 3.214294394869491e+01	 1.000193045224856e+01
0	 2.500000000000000e+01	 3.285724463525450e+01	 1.000175918760420e+01
0	 2.500000000000001e+01	 3.357154598848280e+01	 1.000156795015439e+01
0	 2.500000000000000e+01	 3.428584784171235e+01	 1.000136428046617e+01
0	 2.500000000000000e+01	 3.500015002827574e+01	 1.000115571908110e+01
0	 2.500000000000000e+01	 3.571445238150555e+01	 1.000094980651520e+01
0	 2.571428993651884e+01	 2.857145634928704e+01	 1.000237879735919e+01
0	 2.571428993651884e+01	 2.928575120249186e+01	 1.000232121523312e+01
0	 2.571428993651884e+01	 3.000004755570248e+01	 1.000222225122006e+01
0	 2.571428993651884e+01	 3.071434524225148e+01	 1.000208969224555e+01
0	 2.571428993651883e+01	 3.142864409547142e+01	 1.000193132523430e+01
0	 2.571428993651884e+01	 3.214294394869492e+01	 1.000175493711019e+01
0	 2.571428993651883e+01	 3.285724463525451e+01	 1.000156831479631e+01
0	 2.571428993651883e+01	 3.357154598848280e+01	 1.000137924521488e+01
0	 2.571428993651883e+01	 3.428584784171235e+01	 1.000119551528733e+01
0	 2.571428993651884e+01	 3.500015002827574e+01	 1.000102491193427e+01
0	 2.571428993651884e+01	 3.571445238150556e+01	 1.000087522207547e+01
0	 2.642858020637231e+01	 2.857145634928704e+01	 1.000249619798690e+01
0	 2.642858020637231e+01	 2.928575120249186e+01	 1.000233884098929e+01
0	 2.642858020637231e+01	 3.000004755570248e+01	 1.000215932302663e+01
0	 2.642858020637231e+01	 3.071434524225146e+01	 1.000196502694427e+01
0	 2.642858020637231e+01	 3.142864409547142e+01	 1.000176333561087e+01
0	 2.642858020637231e+01	 3.214294394869491e+01	 1.000156163191841e+01
0	 2.642858020637232e+01	 3.285724463525452e+01	 1.000136729878218e+01
0	 2.642858020637231e+01	 3.357154598848280e+01	 1.000118771914078e+01
0	 2.642858020637231e+01	 3.428584784171235e+01	 1.000103027595616e+01
0	 2.642858020637231e+01	 3.500015002827576e+01	 1.000090235221353e+01
0	 2.642858020637231e+01	 3.571445238150556e+01	 1.000081133092146e+01
0	 2.714287114289507e+01	 2.857145634928703e+01	 1.000256449562867e+01
0	 2.714287114289508e+01	 2.928575120249186e+01	 1.000231532568881e+01
0	 2.714287114289507e+01	 3.000004755570247e+01	 1.000206467787685e+01
0	 2.714287114289507e+01	 3.071434524225147e+01	 1.000181888066230e+01
0	 2.714287114289509e+01	 3.142864409547143e+01	 1.000158426255950e+01
0	 2.714287114289507e+01	 3.214294394869491e+01	 1.000136715212773e+01
0	 2.714287114289507e+01	 3.285724463525450e+01	 1.000117387797109e+01
0	 2.714287114289508e+01	 3.357154598848279e+01	 1.000101076873853e+01
0	 2.714287114289508e+01	 3.428584784171235e+01	 1.000088415312389e+01
0	 2.714287114289507e+01	 3.500015002827575e+01	 1.000080035986585e+01
0	 2.714287114289507e+01	 3.571445238150555e+01	 1.000076571774796e+01
0	 2.785716307942177e+01	 2.857145634928704e+01	 1.000257272233445e+01
0	 2.785716307942177e+01	 2.928575120249185e+01	 1.000224814728342e+01
0	 2.785716307942177e+01	 3.000004755570247e+01	 1.000194277500018e+01
0	 2.785716307942177e+01	 3.071434524225147e+01	 1.000166122930012e+01
0	 2.785716307942177e+01	 3.142864409547143e+01	 1.000140813406039e+01
0	 2.785716307942177e+01	 3.214294394869491e+01	 1.000118811321994e+01
0	 2.785716307942177e+01	 3.285724463525450e+01	 1.000100579077946e+01
0	 2.785716307942178e+01	 3.357154598848280e+01	 1.000086579080142e+01
0	 2.785716307942177e+01	 3.428584784171235e+01	 1.000077273741006e+01
0	 2.785716307942178e+01	 3.500015002827575e+01	 1.000073125479139e+01
0	 2.785716307942177e+01	 3.571445238150555e+01	 1.000074596719319e+01
0	 2.857145634928703e+01	 2.857145634928703e+01	 1.000250991021550e+01
0	 2.857145634928704e+01	 2.928575120249186e+01	 1.000213478379420e+01
0	 2.857145634928703e+01	 3.000004755570248e+01	 1.000179807369427e+01
0	 2.857145634928704e+01	 3.071434524225148e+01	 1.000150204881783e+01
0	 2.857145634928703e+01	 3.142864409547142e+01	 1.000124897813905e+01
0	 2.857145634928704e+01	 3.214294394869491e+01	 1.000104113070403e+01
0	 2.857145634928704e+01	 3.285724463525451e+01	 1.000088077563089e+01
0	 2.857145634928703e+01	 3.357154598848279e+01	 1.000077018210972e+01
0	 2.857145634928704e+01	 3.428584784171235e+01	 1.000071161940261e+01
0	 2.857145634928704e+01	 3.500015002827575e+01	 1.000070735684360e+01
0	 2.857145634928704e+01	 3.571445238150556e+01	 1.000075966383875e+01
0	 2.142854365071297e+01	 3.571445238150556e+01	 1.000121765972037e+01
0	 2.142854365071297e+01	 3.642870477623361e+01	 1.000091439667238e+01
0	 2.142854365071296e+01	 3.714295725428858e+01	 1.000064880427809e+01
0	 2.142854365071296e+01	 3.785720989899840e+01	 1.000042265755814e+01
0	 2.142854365071296e+01	 3.857146279369100e+01	 1.000023773149818e+01
0	 2.142854365071296e+01	 3.928571602169432e+01	 1.000009580104884e+01
0	 2.142854365071296e+01	 3.999996966633628e+01	 9.999998641125730e+00
0	 2.142854365071296e+01	 4.071422381094482e+01	 9.999948026609442e+00
0	 2.142854365071296e+01	 4.142847853884783e+01	 9.999945732345596e+00
0	 2.142854365071296e+01	 4.214273393337329e+01	 9.999993533144751e+00
0	 2.142854365071296e+01	 4.285699007784907e+01	 1.000009320378250e+01
0	 2.214283692057824e+01	 3.571445238150555e+01	 1.000120338125468e+01
0	 2.214283692057823e+01	 3.642870477623359e+01	 1.000088463876014e+01
0	 2.214283692057824e+01	 3.714295725428858e+01	 1.000061507487087e+01
0	 2.214283692057823e+01	 3.785720989899838e+01	 1.000039407463968e+01
0	 2.214283692057824e+01	 3.857146279369099e+01	 1.000022102308409e+01
0	 2.214283692057824e+01	 3.928571602169433e+01	 1.000009530518646e+01
0	 2.214283692057824e+01	 3.999996966633629e+01	 1.000001630589385e+01
0	 2.214283692057824e+01	 4.071422381094481e+01	 9.999983410118137e+00
0	 2.214283692057823e+01	 4.142847853884784e+01	 9.999996002735944e+00
0	 2.214283692057824e+01	 4.214273393337328e+01	 1.000005346858868e+01
0	 2.214283692057824e+01	 4.285699007784908e+01	 1.000015519248248e+01
0	 2.285712885710494e+01	 3.571445238150555e+01	 1.000116187175186e+01
0	 2.285712885710494e+01	 3.642870477623360e+01	 1.000085280572504e+01
0	 2.285712885710494e+01	 3.714295725428858e+01	 1.000059818686787e+01
0	 2.285712885710494e+01	 3.785720989899840e+01	 1.000039546375708e+01
0	 2.285712885710494e+01	 3.857146279369100e+01	 1.000024208493685e+01
0	 2.285712885710494e+01	 3.928571602169432e+01	 1.000013549891881e+01
0	 2.285712885710494e+01	 3.999996966633628e+01	 1.000007315418206e+01
0	 2.285712885710494e+01	 4.071422381094481e+01	 1.000005249917315e+01
0	 2.285712885710494e+01	 4.142847853884783e+01	 1.000007098230610e+01
0	 2.285712885710493e+01	 4.214273393337326e+01	 1.000012605196235e+01
0	 2.285712885710493e+01	 4.285699007784907e+01	 1.000021515649084e+01
0	 2.357141979362770e+01	 3.571445238150556e+01	 1.000110071618967e+01
0	 2.357141979362770e+01	 3.642870477623360e+01	 1.000082146668244e+01
0	 2.357141979362770e+01	 3.714295725428858e+01	 1.000059659602278e+01
0	 2.357141979362770e+01	 3.785720989899838e+01	 1.000042206980908e+01
0	 2.357141979362770e+01	 3.857146279369101e+01	 1.000029385361212e+01
0	 2.357141979362770e+01	 3.928571602169432e+01	 1.000020791297512e+01
0	 2.357141979362770e+01	 3.999996966633628e+01	 1.000016021341370e+01
0	 2.357141979362770e+01	 4.071422381094482e+01	 1.000014672041590e+01
0	 2.357141979362770e+01	 4.142847853884783e+01	 1.000016339944219e+01
0	 2.357141979362771e+01	 4.214273393337327e+01	 1.000020621592546e+01
0	 2.357141979362770e+01	 4.285699007784907e+01	 1.000027113527101e+01
0	 2.428571006348117e+01	 3.571445238150555e+01	 1.000102749948926e+01
0	 2.428571006348117e+01	 3.642870477623359e+01	 1.000079319068786e+01
0	 2.428571006348118e+01	 3.714295725428857e+01	 1.000060875803212e+01
0	 2.428571006348117e+01	 3.785720989899839e+01	 1.000046913764442e+01
0	 2.428571006348117e+01	 3.857146279369100e+01	 1.000036926562612e+01
0	 2.428571006348117e+01	 3.928571602169433e+01	 1.000030407805763e+01
0	 2.428571006348118e+01	 3.999996966633628e+01	 1.000026851099838e+01
0	 2.428571006348117e+01	 4.071422381094479e+01	 1.000025750048682e+01
0	 2.428571006348118e+01	 4.142847853884783e+01	 1.000026598254043e+01
0	 2.428571006348118e+01	 4.214273393337328e+01	 1.000028889315571e+01
0	 2.428571006348117e+01	 4.285699007784908e+01	 1.000032116830819e+01
0	 2.500000000000000e+01	 3.571445238150555e+01	 1.000094980651520e+01
0	 2.500000000000000e+01	 3.642870477623359e+01	 1.000077054673701e+01
0	 2.500000000000001e+01	 3.714295725428857e+01	 1.000063312853519e+01
0	 2.500000000000001e+01	 3.785720989899841e+01	 1.000053191206180e+01
0	 2.500000000000000e+01	 3.857146279369099e+01	 1.000046125745550e+01
0	 2.499999999999999e+01	 3.928571602169431e+01	 1.000041552484160e+01
0	 2.500000000000000e+01	 3.999996966633628e+01	 1.000038907433206e+01
0	 2.500000000000001e+01	 4.071422381094482e+01	 1.000037626602548e+01
0	 2.500000000000001e+01	 4.142847853884783e+01	 1.000037146000712e+01
0	 2.500000000000000e+01	 4.214273393337328e+01	 1.000036901634885e+01
0	 2.500000000000001e+01	 4.285699007784908e+01	 1.000036329510921e+01
0	 2.571428993651884e+01	 3.571445238150556e+01	 1.000087522207547e+01
0	 2.571428993651884e+01	 3.642870477623360e+01	 1.000075610376579e+01
0	 2.571428993651884e+01	 3.714295725428857e+01	 1.000066816311412e+01
0	 2.571428993651884e+01	 3.785720989899838e+01	 1.000060563780995e+01
0	 2.571428993651883e+01	 3.857146279369100e+01	 1.000056276553741e+01
0	 2.571428993651883e+01	 3.928571602169433e+01	 1.000053378397528e+01
0	 2.571428993651884e+01	 3.999996966633630e+01	 1.000051293079697e+01
0	 2.571428993651884e+01	 4.071422381094480e+01	 1.000049444367052e+01
0	 2.571428993651884e+01	 4.142847853884785e+01	 1.000047256025865e+01
0	 2.571428993651883e+01	 4.214273393337327e+01	 1.000044151821868e+01
0	 2.571428993651883e+01	 4.285699007784908e+01	 1.000039555520259e+01
0	 2.642858020637231e+01	 3.571445238150556e+01	 1.000081133092146e+01
0	 2.642858020637232e+01	 3.642870477623360e+01	 1.000075243065029e+01
0	 2.642858020637231e+01	 3.714295725428858e+01	 1.000071231729382e+01
0	 2.642858020637231e+01	 3.785720989899839e+01	 1.000068555958757e+01
0	 2.642858020637231e+01	 3.857146279369100e+01	 1.000066672626950e+01
0	 2.642858020637232e+01	 3.928571602169432e+01	 1.000065038607997e+01
0	 2.642858020637230e+01	 3.999996966633628e+01	 1.000063110776165e+01
0	 2.642858020637231e+01	 4.071422381094481e+01	 1.000060346005967e+01
0	 2.642858020637231e+01	 4.142847853884783e+01	 1.000056201172151e+01
0	 2.642858020637231e+01	 4.214273393337328e+01	 1.000050133149707e+01
0	 2.642858020637231e+01	 4.285699007784907e+01	 1.000041598813859e+01
0	 2.714287114289507e+01	 3.571445238150555e+01	 1.000076571774796e+01
0	 2.714287114289507e+01	 3.642870477623360e+01	 1.000076209620677e+01
0	 2.714287114289507e+01	 3.714295725428858e+01	 1.000076404654197e+01
0	 2.714287114289508e+01	 3.785720989899840e+01	 1.000076692204334e+01
0	 2.714287114289507e+01	 3.857146279369100e+01	 1.000076607600990e+01
0	 2.714287114289508e+01	 3.928571602169433e+01	 1.000075686174992e+01
0	 2.714287114289508e+01	 3.999996966633629e+01	 1.000073463258093e+01
0	 2.714287114289508e+01	 4.071422381094482e+01	 1.000069474182971e+01
0	 2.714287114289507e+01	 4.142847853884783e+01	 1.000063254283227e+01
0	 2.714287114289507e+01	 4.214273393337327e+01	 1.000054338893390e+01
0	 2.714287114289507e+01	 4.285699007784906e+01	 1.000042263348911e+01
0	 2.785716307942177e+01	 3.571445238150555e+01	 1.000074596719319e+01
0	 2.785716307942177e+01	 3.642870477623359e+01	 1.000078766919169e+01
0	 2.785716307942177e+01	 3.714295725428857e+01	 1.000082180626915e+01
0	 2.785716307942178e+01	 3.785720989899840e+01	 1.000084496977596e+01
0	 2.785716307942177e+01	 3.857146279369100e+01	 1.000085375107719e+01
0	 2.785716307942177e+01	 3.928571602169432e+01	 1.000084474155245e+01
0	 2.785716307942178e+01	 3.999996966633628e+01	 1.000081453259596e+01
0	 2.785716307942177e+01	 4.071422381094481e+01	 1.000075971561653e+01
0	 2.785716307942177e+01	 4.142847853884783e+01	 1.000067688203758e+01
0	 2.785716307942179e+01	 4.214273393337329e+01	 1.000056262329712e+01
0	 2.785716307942177e+01	 4.285699007784907e+01	 1.000041353084778e+01
0	 2.857145634928704e+01	 3.571445238150556e+01	 1.000075966383875e+01
0	 2.857145634928704e+01	 3.642870477623359e+01	 1.000083171830168e+01
0	 2.857145634928703e+01	 3.714295725428856e+01	 1.000088405182862e+01
0	 2.857145634928704e+01	 3.785720989899840e+01	 1.000091494733412e+01
0	 2.857145634928704e+01	 3.857146279369101e+01	 1.000092268775050e+01
0	 2.857145634928704e+01	 3.928571602169432e+01	 1.000090555602786e+01
0	 2.857145634928703e+01	 3.999996966633628e+01	 1.000086183513416e+01
0	 2.857145634928704e+01	 4.071422381094482e+01	 1.000078980805509e+01
0	 2.857145634928704e+01	 4.142847853884783e+01	 1.000068775779418e+01
0	 2.857145634928703e+01	 4.214273393337326e+01	 1.000055396737273e+01
0	 2.857145634928704e+01	 4.285699007784908e+01	 1.000038671982986e+01
0	 2.142854365071296e+01	 4.285699007784907e+01	 1.000009320378249e+01
0	 2.142854365071296e+01	 4.357129694500738e+01	 1.000020465425214e+01
0	 2.142854365071296e+01	 4.428560406221393e+01	 1.000028549087662e+01
0	 2.142854365071296e+01	 4.499991084612203e+01	 1.000033405928252e+01
0	 2.142854365071296e+01	 4.571421671338500e+01	 1.000034870493679e+01
0	 2.142854365071296e+01	 4.642852108065613e+01	 1.000032777314673e+01
0	 2.142854365071296e+01	 4.714282336458874e+01	 1.000026960905991e+01
0	 2.142854365071296e+01	 4.785712298183613e+01	 1.000017255766424e+01
0	 2.142854365071296e+01	 4.857141934905160e+01	 1.000003496378796e+01
0	 2.142854365071296e+01	 4.928571188288846e+01	 9.999855172099529e+00
0	 2.142854365071296e+01	 5.000000000000001e+01	 9.999631527107795e+00
0	 2.214283692057824e+01	 4.285699007784908e+01	 1.000015519248248e+01
0	 2.214283692057824e+01	 4.357129694500737e+01	 1.000026015396872e+01
0	 2.214283692057824e+01	 4.428560406221392e+01	 1.000032835604764e+01
0	 2.214283692057824e+01	 4.499991084612204e+01	 1.000036074452569e+01
0	 2.214283692057824e+01	 4.571421671338499e+01	 1.000035826505736e+01
0	 2.214283692057823e+01	 4.642852108065612e+01	 1.000032186314517e+01
0	 2.214283692057824e+01	 4.714282336458876e+01	 1.000025248413961e+01
0	 2.214283692057824e+01	 4.785712298183613e+01	 1.000015107323919e+01
0	 2.214283692057824e+01	 4.857141934905160e+01	 1.000001857549048e+01
0	 2.214283692057823e+01	 4.928571188288845e+01	 9.999855935788002e+00
0	 2.214283692057824e+01	 5.000000000000000e+01	 9.999664098874250e+00
0	 2.285712885710493e+01	 4.285699007784907e+01	 1.000021515649084e+01
0	 2.285712885710494e+01	 4.357129694500738e+01	 1.000030048048409e+01
0	 2.285712885710494e+01	 4.428560406221392e+01	 1.000034791049100e+01
0	 2.285712885710494e+01	 4.499991084612204e+01	 1.000036046978335e+01
0	 2.285712885710494e+01	 4.571421671338500e+01	 1.000034118150606e+01
0	 2.285712885710494e+01	 4.642852108065613e+01	 1.000029306867705e+01
0	 2.285712885710494e+01	 4.714282336458876e+01	 1.000021915418730e+01
0	 2.285712885710493e+01	 4.785712298183613e+01	 1.000012246080087e+01
0	 2.285712885710494e+01	 4.857141934905161e+01	 1.000000601115482e+01
0	 2.285712885710494e+01	 4.928571188288846e+01	 9.999872827759278e+00
0	 2.285712885710494e+01	 5.000000000000000e+01	 9.999725932997395e+00
0	 2.357141979362770e+01	 4.285699007784907e+01	 1.000027113527101e+01
0	 2.357141979362770e+01	 4.357129694500738e+01	 1.000032681507730e+01
0	 2.357141979362770e+01	 4.428560406221391e+01	 1.000034764429771e+01
0	 2.357141979362771e+01	 4.499991084612203e+01	 1.000033820095500e+01
0	 2.357141979362770e+01	 4.571421671338499e+01	 1.000030306298333e+01
0	 2.357141979362770e+01	 4.642852108065613e+01	 1.000024680822813e+01
0	 2.357141979362770e+01	 4.714282336458876e+01	 1.000017401444623e+01
0	 2.357141979362770e+01	 4.785712298183613e+01	 1.000008925930573e+01
0	 2.357141979362769e+01	 4.857141934905160e+01	 9.999997120386183e+00
0	 2.357141979362770e+01	 4.928571188288846e+01	 9.999902175178381e+00
0	 2.357141979362770e+01	 5.000000000000000e+01	 9.999809001084403e+00
0	 2.428571006348117e+01	 4.285699007784908e+01	 1.000032116830819e+01
0	 2.428571006348118e+01	 4.357129694500737e+01	 1.000034033904754e+01
0	 2.428571006348118e+01	 4.428560406221393e+01	 1.000033104757337e+01
0	 2.428571006348117e+01	 4.499991084612201e+01	 1.000029890394651e+01
0	 2.428571006348118e+01	 4.571421671338501e+01	 1.000024951818652e+01
0	 2.428571006348117e+01	 4.642852108065613e+01	 1.000018850027186e+01
0	 2.428571006348118e+01	 4.714282336458876e+01	 1.000012146013973e+01
0	 2.428571006348118e+01	 4.785712298183613e+01	 1.000005400768618e+01
0	 2.428571006348118e+01	 4.857141934905160e+01	 9.999991752766061e+00
0	 2.428571006348117e+01	 4.928571188288846e+01	 9.999940305193020e+00
0	 2.428571006348117e+01	 5.000000000000000e+01	 9.999905274739490e+00
0	 2.500000000000001e+01	 4.285699007784908e+01	 1.000036329510921e+01
0	 2.500000000000000e+01	 4.357129694500736e+01	 1.000034223371424e+01
0	 2.500000000000000e+01	 4.428560406221392e+01	 1.000030161043821e+01
0	 2.500000000000000e+01	 4.499991084612201e+01	 1.000024754467000e+01
0	 2.500000000000000e+01	 4.571421671338501e+01	 1.000018615580985e+01
0	 2.500000000000001e+01	 4.642852108065613e+01	 1.000012356326931e+01
0	 2.500000000000001e+01	 4.714282336458875e+01	 1.000006588647144e+01
0	 2.500000000000001e+01	 4.785712298183613e+01	 1.000001924485052e+01
0	 2.500000000000001e+01	 4.857141934905160e+01	 9.999989757852331e+00
0	 2.500000000000001e+01	 4.928571188288846e+01	 9.999983544933915e+00
0	 2.500000000000001e+01	 5.000000000000001e+01	 1.000000672556370e+01
0	 2.571428993651883e+01	 4.285699007784908e+01	 1.000039555520259e+01
0	 2.571428993651884e+01	 4.357129694500737e+01	 1.000033368041703e+01
0	 2.571428993651883e+01	 4.428560406221392e+01	 1.000026282302702e+01
0	 2.571428993651884e+01	 4.499991084612203e+01	 1.000018908904399e+01
0	 2.571428993651883e+01	 4.571421671338499e+01	 1.000011858454430e+01
0	 2.571428993651884e+01	 4.642852108065614e+01	 1.000005741566925e+01
0	 2.571428993651883e+01	 4.714282336458874e+01	 1.000001168862508e+01
0	 2.571428993651883e+01	 4.785712298183613e+01	 9.999987509682965e+00
0	 2.571428993651884e+01	 4.857141934905160e+01	 9.999990985179023e+00
0	 2.571428993651884e+01	 4.928571188288846e+01	 1.000002822151440e+01
0	 2.571428993651884e+01	 5.000000000000001e+01	 1.000010532515496e+01
0	 2.642858020637231e+01	 4.285699007784907e+01	 1.000041598813859e+01
0	 2.642858020637232e+01	 4.357129694500738e+01	 1.000031586051571e+01
0	 2.642858020637231e+01	 4.428560406221391e+01	 1.000021817548915e+01
0	 2.642858020637231e+01	 4.499991084612202e+01	 1.000012850299326e+01
0	 2.642858020637231e+01	 4.571421671338499e+01	 1.000005241307782e+01
0	 2.642858020637230e+01	 4.642852108065612e+01	 9.999995475908051e+00
0	 2.642858020637231e+01	 4.714282336458874e+01	 9.999963261764629e+00
0	 2.642858020637231e+01	 4.785712298183613e+01	 9.999961341043658e+00
0	 2.642858020637231e+01	 4.857141934905160e+01	 9.999995284256698e+00
0	 2.642858020637231e+01	 4.928571188288846e+01	 1.000007066203075e+01
0	 2.642858020637231e+01	 4.999999999999999e+01	 1.000019304510828e+01
0	 2.714287114289507e+01	 4.285699007784906e+01	 1.000042263348911e+01
0	 2.714287114289508e+01	 4.357129694500738e+01	 1.000028995539033e+01
0	 2.714287114289508e+01	 4.428560406221392e+01	 1.000017115798861e+01
0	 2.714287114289507e+01	 4.499991084612203e+01	 1.000007075244895e+01
0	 2.714287114289507e+01	 4.571421671338499e+01	 9.999993250095153e+00
0	 2.714287114289507e+01	 4.642852108065613e+01	 9.999943162409792e+00
0	 2.714287114289508e+01	 4.714282336458874e+01	 9.999925001034226e+00
0	 2.714287114289508e+01	 4.785712298183613e+01	 9.999943277768637e+00
0	 2.714287114289507e+01	 4.857141934905161e+01	 1.000000250457195e+01
0	 2.714287114289508e+01	 4.928571188288846e+01	 1.000010719356198e+01
0	 2.714287114289507e+01	 5.000000000000000e+01	 1.000026185701525e+01
0	 2.785716307942177e+01	 4.285699007784907e+01	 1.000041353084778e+01
0	 2.785716307942178e+01	 4.357129694500738e+01	 1.000025714644112e+01
0	 2.785716307942178e+01	 4.428560406221393e+01	 1.000012526070397e+01
0	 2.785716307942177e+01	 4.499991084612203e+01	 1.000002080334852e+01
0	 2.785716307942177e+01	 4.571421671338499e+01	 9.999946704277937e+00
0	 2.785716307942177e+01	 4.642852108065613e+01	 9.999905893586194e+00
0	 2.785716307942177e+01	 4.714282336458874e+01	 9.999901301558236e+00
0	 2.785716307942177e+01	 4.785712298183613e+01	 9.999935858669904e+00
0	 2.785716307942177e+01	 4.857141934905159e+01	 1.000001249558791e+01
0	 2.785716307942177e+01	 4.928571188288845e+01	 1.000013414316991e+01
0	 2.785716307942177e+01	 4.999999999999999e+01	 1.000030373246459e+01
0	 2.857145634928704e+01	 4.285699007784908e+01	 1.000038671982986e+01
0	 2.857145634928704e+01	 4.357129694500738e+01	 1.000021861508850e+01
0	 2.857145634928704e+01	 4.428560406221392e+01	 1.000008397382839e+01
0	 2.857145634928704e+01	 4.499991084612204e+01	 9.999983621635764e+00
0	 2.857145634928704e+01	 4.571421671338500e+01	 9.999918384304602e+00
0	 2.857145634928704e+01	 4.642852108065615e+01	 9.999889087836614e+00
0	 2.857145634928703e+01	 4.714282336458874e+01	 9.999896558441158e+00
0	 2.857145634928704e+01	 4.785712298183613e+01	 9.999941622535289e+00
0	 2.857145634928704e+01	 4.857141934905160e+01	 1.000002510674382e+01
0	 2.857145634928704e+01	 4.928571188288845e+01	 1.000014783789928e+01
0	 2.857145634928704e+01	 5.000000000000000e+01	 1.000031064304192e+01
0	 2.857145634928704e+01	 0.000000000000000e+00	 1.000838203149406e+01
0	 2.857145634928703e+01	 7.142881171115513e-01	 1.000705076831849e+01
0	 2.857145634928704e+01	 1.428580650948409e+00	 1.000570770125544e+01
0	 2.857145634928704e+01	 2.142877018163878e+00	 1.000441484315723e+01
0	 2.857145634928703e+01	 2.857176635411264e+00	 1.000323420879923e+01
0	 2.857145634928704e+01	 3.571478919343873e+00	 1.000222781487970e+01
0	 2.857145634928704e+01	 4.285783286615009e+00	 1.000145768001972e+01
0	 2.857145634928704e+01	 5.000089153877975e+00	 1.000098582476309e+01
0	 2.857145634928703e+01	 5.714395937786080e+00	 1.000087427157630e+01
0	 2.857145634928704e+01	 6.428703054992629e+00	 1.000118504484846e+01
0	 2.857145634928703e+01	 7.143009922150926e+00	 1.000198017089136e+01
0	 2.928575120249186e+01	 0.000000000000000e+00	 1.000906190310495e+01
0	 2.928575120249186e+01	 7.142881171115513e-01	 1.000690806101589e+01
0	 2.928575120249186e+01	 1.428580650948409e+00	 1.000497801062648e+01
0	 2.928575120249186e+01	 2.142877018163879e+00	 1.000330623181925e+01
0	 2.928575120249185e+01	 2.857176635411264e+00	 1.000192720672979e+01
0	 2.928575120249186e+01	 3.571478919343873e+00	 1.000087541974657e+01
0	 2.928575120249186e+01	 4.285783286615009e+00	 1.000018535751086e+01
0	 2.928575120249186e+01	 5.000089153877974e+00	 9.999891508916610e+00
0	 2.928575120249186e+01	 5.714395937786080e+00	 1.000002836511037e+01
0	 2.928575120249186e+01	 6.428703054992629e+00	 1.000063041949134e+01
0	 2.928575120249185e+01	 7.143009922150927e+00	 1.000173216771125e+01
0	 3.000004755570248e+01	 0.000000000000000e+00	 1.000898445637151e+01
0	 3.000004755570248e+01	 7.142881171115514e-01	 1.000640805923545e+01
0	 3.000004755570248e+01	 1.428580650948409e+00	 1.000421132635083e+01
0	 3.000004755570248e+01	 2.142877018163878e+00	 1.000240541077921e+01
0	 3.000004755570248e+01	 2.857176635411266e+00	 1.000100146789795e+01
0	 3.000004755570248e+01	 3.571478919343873e+00	 1.000001065540015e+01
0	 3.000004755570247e+01	 4.285783286615006e+00	 9.999444133294402e+00
0	 3.000004755570248e+01	 5.000089153877976e+00	 9.999313063904829e+00
0	 3.000004755570248e+01	 5.714395937786081e+00	 9.999628611870895e+00
0	 3.000004755570248e+01	 6.428703054992631e+00	 1.000040194414746e+01
0	 3.000004755570246e+01	 7.143009922150926e+00	 1.000164423000472e+01
0	 3.071434524225148e+01	 0.000000000000000e+00	 1.000829650744719e+01
0	 3.071434524225148e+01	 7.142881171115513e-01	 1.000563424439189e+01
0	 3.071434524225147e+01	 1.428580650948409e+00	 1.000343780190176e+01
0	 3.071434524225147e+01	 2.142877018163877e+00	 1.000169921202082e+01
0	 3.071434524225148e+01	 2.857176635411265e+00	 1.000041050895355e+01
0	 3.071434524225148e+01	 3.571478919343873e+00	 9.999563729064670e+00
0	 3.071434524225148e+01	 4.285783286615009e+00	 9.999150910879095e+00
0	 3.071434524225147e+01	 5.000089153877974e+00	 9.999164095081840e+00
0	 3.071434524225147e+01	 5.714395937786081e+00	 9.999595324517914e+00
0	 3.071434524225148e+01	 6.428703054992629e+00	 1.000043664419233e+01
0	 3.071434524225147e+01	 7.143009922150926e+00	 1.000168010127006e+01
0	 3.142864409547142e+01	 0.000000000000000e+00	 1.000714487260630e+01
0	 3.142864409547143e+01	 7.142881171115514e-01	 1.000467009808846e+01
0	 3.142864409547143e+01	 1.428580650948410e+00	 1.000268759097353e+01
0	 3.142864409547142e+01	 2.142877018163878e+00	 1.000117446775197e+01
0	 3.142864409547142e+01	 2.857176635411265e+00	 1.000010784675014e+01
0	 3.142864409547143e+01	 3.571478919343873e+00	 9.999464848130122e+00
0	 3.142864409547142e+01	 4.285783286615009e+00	 9.999222593889684e+00
0	 3.142864409547142e+01	 5.000089153877974e+00	 9.999358207862157e+00
0	 3.142864409547143e+01	 5.714395937786081e+00	 9.999848815716415e+00
0	 3.142864409547143e+01	 6.428703054992628e+00	 1.000067154495678e+01
0	 3.142864409547142e+01	 7.143009922150926e+00	 1.000180352492310e+01
0	 3.214294394869492e+01	 0.000000000000000e+00	 1.000567636824397e+01
0	 3.214294394869492e+01	 7.142881171115515e-01	 1.000359910211704e+01
0	 3.214294394869490e+01	 1.428580650948409e+00	 1.000199084748149e+01
0	 3.214294394869491e+01	 2.142877018163878e+00	 1.000081801040465e+01
0	 3.214294394869492e+01	 2.857176635411265e+00	 1.000004699834502e+01
0	 3.214294394869491e+01	 3.571478919343872e+00	 9.999644220152225e+00
0	 3.214294394869491e+01	 4.285783286615008e+00	 9.999576086066909e+00
0	 3.214294394869492e+01	 5.000089153877976e+00	 9.999809007720723e+00
0	 3.214294394869491e+01	 5.714395937786081e+00	 1.000030939813623e+01
0	 3.214294394869491e+01	 6.428703054992630e+00	 1.000104367172691e+01
0	 3.214294394869491e+01	 7.143009922150928e+00	 1.000197824429716e+01
0	 3.285724463525451e+01	 0.000000000000000e+00	 1.000403781087618e+01
0	 3.285724463525450e+01	 7.142881171115512e-01	 1.000250473845806e+01
0	 3.285724463525450e+01	 1.428580650948409e+00	 1.000137772556207e+01
0	 3.285724463525450e+01	 2.142877018163878e+00	 1.000061667263505e+01
0	 3.285724463525451e+01	 2.857176635411265e+00	 1.000018148099926e+01
0	 3.285724463525452e+01	 3.571478919343873e+00	 1.000003205285240e+01
0	 3.285724463525450e+01	 4.285783286615007e+00	 1.000012829126748e+01
0	 3.285724463525451e+01	 5.000089153877974e+00	 1.000043010019283e+01
0	 3.285724463525451e+01	 5.714395937786081e+00	 1.000089738445208e+01
0	 3.285724463525452e+01	 6.428703054992631e+00	 1.000149004974411e+01
0	 3.285724463525451e+01	 7.143009922150926e+00	 1.000216800264307e+01
0	 3.357154598848280e+01	 0.000000000000000e+00	 1.000237601713973e+01
0	 3.357154598848280e+01	 7.142881171115514e-01	 1.000147048928056e+01
0	 3.357154598848279e+01	 1.428580650948409e+00	 1.000087837957274e+01
0	 3.357154598848279e+01	 2.142877018163878e+00	 1.000055728732347e+01
0	 3.357154598848280e+01	 2.857176635411265e+00	 1.000046481217765e+01
0	 3.357154598848280e+01	 3.571478919343873e+00	 1.000055855411782e+01
0	 3.357154598848279e+01	 4.285783286615009e+00	 1.000079611346410e+01
0	 3.357154598848280e+01	 5.000089153877975e+00	 1.000113509087424e+01
0	 3.357154598848279e+01	 5.714395937786080e+00	 1.000153308734359e+01
0	 3.357154598848281e+01	 6.428703054992630e+00	 1.000194770420506e+01
0	 3.357154598848280e+01	 7.143009922150926e+00	 1.000233654312918e+01
0	 3.428584784171235e+01	 0.000000000000000e+00	 1.000083780379226e+01
0	 3.428584784171235e+01	 7.142881171115514e-01	 1.000057983694213e+01
0	 3.428584784171235e+01	 1.428580650948410e+00	 1.000052296409197e+01
0	 3.428584784171235e+01	 2.142877018163879e+00	 1.000062668757436e+01
0	 3.428584784171235e+01	 2.857176635411264e+00	 1.000085050954873e+01
0	 3.428584784171235e+01	 3.571478919343873e+00	 1.000115393200137e+01
0	 3.428584784171237e+01	 4.285783286615009e+00	 1.000149645674547e+01
0	 3.428584784171236e+01	 5.000089153877976e+00	 1.000183758542110e+01
0	 3.428584784171235e+01	 5.714395937786081e+00	 1.000213681949523e+01
0	 3.428584784171235e+01	 6.428703054992630e+00	 1.000235366026171e+01
0	 3.428584784171235e+01	 7.143009922150926e+00	 1.000244760884133e+01
0	 3.500015002827575e+01	 0.000000000000000e+00	 9.999569987712249e+00
0	 3.500015002827576e+01	 7.142881171115514e-01	 9.999916263988922e+00
0	 3.500015002827575e+01	 1.428580650948410e+00	 1.000034163391934e+01
0	 3.500015002827575e+01	 2.142877018163878e+00	 1.000081170671631e+01
0	 3.500015002827575e+01	 2.857176635411264e+00	 1.000129209098474e+01
0	 3.500015002827575e+01	 3.571478919343872e+00	 1.000174839472165e+01
0	 3.500015002827575e+01	 4.285783286615009e+00	 1.000214622531626e+01
0	 3.500015002827576e+01	 5.000089153877975e+00	 1.000245118954996e+01
0	 3.500015002827575e+01	 5.714395937786082e+00	 1.000262889359637e+01
0	 3.500015002827575e+01	 6.428703054992629e+00	 1.000264494302133e+01
0	 3.500015002827575e+01	 7.143009922150927e+00	 1.000246494278291e+01
0	 3.571445238150555e+01	 0.000000000000000e+00	 9.998719385899001e+00
0	 3.571445238150555e+01	 7.142881171115513e-01	 9.999563253155701e+00
0	 3.571445238150556e+01	 1.428580650948409e+00	 1.000036454407546e+01
0	 3.571445238150555e+01	 2.142877018163878e+00	 1.000109917830206e+01
0	 3.571445238150556e+01	 2.857176635411264e+00	 1.000174307456168e+01
0	 3.571445238150555e+01	 3.571478919343873e+00	 1.000227215066299e+01
0	 3.571445238150556e+01	 4.285783286615009e+00	 1.000266232349712e+01
0	 3.571445238150555e+01	 5.000089153877976e+00	 1.000288950903778e+01
0	 3.571445238150555e+01	 5.714395937786081e+00	 1.000292962234126e+01
0	 3.571445238150555e+01	 6.428703054992629e+00	 1.000275857754645e+01
0	 3.571445238150555e+01	 7.143009922150927e+00	 1.000235228787481e+01
0	 2.857145634928703e+01	 7.143009922150926e+00	 1.000198017089136e+01
0	 2.857145634928704e+01	 7.857266066626718e+00	 1.000299617775697e+01
0	 2.857145634928704e+01	 8.571521461152164e+00	 1.000391471813361e+01
0	 2.857145634928704e+01	 9.285776189055182e+00	 1.000471528467984e+01
0	 2.857145634928704e+01	 1.000003033366371e+01	 1.000537737021585e+01
0	 2.857145634928704e+01	 1.071428397830567e+01	 1.000588046772350e+01
0	 2.857145634928704e+01	 1.142853720630899e+01	 1.000620407034630e+01
0	 2.857145634928704e+01	 1.214279010100160e+01	 1.000632767138938e+01
0	 2.857145634928703e+01	 1.285704274571142e+01	 1.000623076431956e+01
0	 2.857145634928704e+01	 1.357129522376639e+01	 1.000589284276531e+01
0	 2.857145634928703e+01	 1.428554761849444e+01	 1.000529340051673e+01
0	 2.928575120249185e+01	 7.143009922150927e+00	 1.000173216771125e+01
0	 2.928575120249185e+01	 7.857266066626719e+00	 1.000300430953803e+01
0	 2.928575120249185e+01	 8.571521461152164e+00	 1.000408895946045e+01
0	 2.928575120249187e+01	 9.285776189055184e+00	 1.000497745078976e+01
0	 2.928575120249185e+01	 1.000003033366371e+01	 1.000566111701452e+01
0	 2.928575120249185e+01	 1.071428397830567e+01	 1.000613129180060e+01
0	 2.928575120249186e+01	 1.142853720630899e+01	 1.000637930899115e+01
0	 2.928575120249185e+01	 1.214279010100160e+01	 1.000639650260662e+01
0	 2.928575120249185e+01	 1.285704274571142e+01	 1.000617420684478e+01
0	 2.928575120249186e+01	 1.357129522376640e+01	 1.000570375608068e+01
0	 2.928575120249185e+01	 1.428554761849444e+01	 1.000497648486667e+01
0	 3.000004755570246e+01	 7.143009922150926e+00	 1.000164423000471e+01
0	 3.000004755570248e+01	 7.857266066626720e+00	 1.000300394532553e+01
0	 3.000004755570248e+01	 8.571521461152161e+00	 1.000412315379110e+01
0	 3.000004755570247e+01	 9.285776189055184e+00	 1.000500309734058e+01
0	 3.000004755570248e+01	 1.000003033366371e+01	 1.000564501808764e+01
0	 3.000004755570247e+01	 1.071428397830567e+01	 1.000605015832051e+01
0	 3.000004755570247e+01	 1.142853720630899e+01	 1.000621976050197e+01
0	 3.000004755570247e+01	 1.214279010100160e+01	 1.000615506726928e+01
0	 3.000004755570247e+01	 1.285704274571142e+01	 1.000585732143431e+01
0	 3.000004755570247e+01	 1.357129522376639e+01	 1.000532776598342e+01
0	 3.000004755570248e+01	 1.428554761849444e+01	 1.000456764407755e+01
0	 3.071434524225147e+01	 7.143009922150926e+00	 1.000168010127006e+01
0	 3.071434524225148e+01	 7.857266066626721e+00	 1.000298799928999e+01
0	 3.071434524225148e+01	 8.571521461152164e+00	 1.000403429007244e+01
0	 3.071434524225147e+01	 9.285776189055184e+00	 1.000482819215447e+01
0	 3.071434524225146e+01	 1.000003033366371e+01	 1.000537892423007e+01
0	 3.071434524225146e+01	 1.071428397830566e+01	 1.000569570515015e+01
0	 3.071434524225146e+01	 1.142853720630899e+01	 1.000578775392259e+01
0	 3.071434524225147e+01	 1.214279010100160e+01	 1.000566428971218e+01
0	 3.071434524225148e+01	 1.285704274571142e+01	 1.000533453184065e+01
0	 3.071434524225147e+01	 1.357129522376639e+01	 1.000480769978668e+01
0	 3.071434524225146e+01	 1.428554761849444e+01	 1.000409301318590e+01
0	 3.142864409547142e+01	 7.143009922150926e+00	 1.000180352492310e+01
0	 3.142864409547143e+01	 7.857266066626719e+00	 1.000294938549793e+01
0	 3.142864409547143e+01	 8.571521461152162e+00	 1.000383935714083e+01
0	 3.142864409547142e+01	 9.285776189055182e+00	 1.000448870294891e+01
0	 3.142864409547142e+01	 1.000003033366371e+01	 1.000491268614735e+01
0	 3.142864409547143e+01	 1.071428397830567e+01	 1.000512657008938e+01
0	 3.142864409547143e+01	 1.142853720630899e+01	 1.000514561825630e+01
0	 3.142864409547143e+01	 1.214279010100160e+01	 1.000498509425748e+01
0	 3.142864409547144e+01	 1.285704274571143e+01	 1.000466026183033e+01
0	 3.142864409547143e+01	 1.357129522376640e+01	 1.000418638484036e+01
0	 3.142864409547142e+01	 1.428554761849444e+01	 1.000357872728112e+01
0	 3.214294394869491e+01	 7.143009922150928e+00	 1.000197824429716e+01
0	 3.214294394869491e+01	 7.857266066626718e+00	 1.000288101791191e+01
0	 3.214294394869492e+01	 8.571521461152166e+00	 1.000355534372217e+01
0	 3.214294394869491e+01	 9.285776189055181e+00	 1.000402059733669e+01
0	 3.214294394869491e+01	 1.000003033366371e+01	 1.000429615445573e+01
0	 3.214294394869491e+01	 1.071428397830567e+01	 1.000440139087102e+01
0	 3.214294394869492e+01	 1.142853720630899e+01	 1.000435568246576e+01
0	 3.214294394869492e+01	 1.214279010100160e+01	 1.000417840521465e+01
0	 3.214294394869491e+01	 1.285704274571142e+01	 1.000388893518388e+01
0	 3.214294394869492e+01	 1.357129522376639e+01	 1.000350664853112e+01
0	 3.214294394869491e+01	 1.428554761849444e+01	 1.000305092150551e+01
0	 3.285724463525451e+01	 7.143009922150926e+00	 1.000216800264307e+01
0	 3.285724463525451e+01	 7.857266066626719e+00	 1.000277581039049e+01
0	 3.285724463525451e+01	 8.571521461152162e+00	 1.000319923843185e+01
0	 3.285724463525451e+01	 9.285776189055182e+00	 1.000345984282590e+01
0	 3.285724463525452e+01	 1.000003033366371e+01	 1.000357917968213e+01
0	 3.285724463525450e+01	 1.071428397830567e+01	 1.000357880516084e+01
0	 3.285724463525451e+01	 1.142853720630899e+01	 1.000348027547303e+01
0	 3.285724463525451e+01	 1.214279010100160e+01	 1.000330514688053e+01
0	 3.285724463525450e+01	 1.285704274571142e+01	 1.000307497569588e+01
0	 3.285724463525451e+01	 1.357129522376639e+01	 1.000281131828243e+01
0	 3.285724463525450e+01	 1.428554761849444e+01	 1.000253573105427e+01
0	 3.357154598848280e+01	 7.143009922150926e+00	 1.000233654312918e+01
0	 3.357154598848280e+01	 7.857266066626720e+00	 1.000262667668823e+01
0	 3.357154598848280e+01	 8.571521461152161e+00	 1.000278802977479e+01
0	 3.357154598848280e+01	 9.285776189055182e+00	 1.000284240681992e+01
0	 3.357154598848280e+01	 1.000003033366371e+01	 1.000281161226418e+01
0	 3.357154598848279e+01	 1.071428397830567e+01	 1.000271745055757e+01
0	 3.357154598848280e+01	 1.142853720630899e+01	 1.000258172615961e+01
0	 3.357154598848280e+01	 1.214279010100160e+01	 1.000242624353925e+01
0	 3.357154598848280e+01	 1.285704274571142e+01	 1.000227280717492e+01
0	 3.357154598848280e+01	 1.357129522376640e+01	 1.000214322155455e+01
0	 3.357154598848280e+01	 1.428554761849444e+01	 1.000205929117550e+01
0	 3.428584784171235e+01	 7.143009922150926e+00	 1.000244760884133e+01
0	 3.428584784171235e+01	 7.857266066626718e+00	 1.000242653045572e+01
0	 3.428584784171237e+01	 8.571521461152164e+00	 1.000233870614542e+01
0	 3.428584784171235e+01	 9.285776189055184e+00	 1.000220425661748e+01
0	 3.428584784171235e+01	 1.000003033366371e+01	 1.000204330255018e+01
0	 3.428584784171235e+01	 1.071428397830567e+01	 1.000187596459295e+01
0	 3.428584784171234e+01	 1.142853720630899e+01	 1.000172236336639e+01
0	 3.428584784171235e+01	 1.214279010100160e+01	 1.000160261946229e+01
0	 3.428584784171235e+01	 1.285704274571143e+01	 1.000153685344360e+01
0	 3.428584784171235e+01	 1.357129522376639e+01	 1.000154518584445e+01
0	 3.428584784171235e+01	 1.428554761849444e+01	 1.000164773717016e+01
0	 3.500015002827575e+01	 7.143009922150927e+00	 1.000246494278291e+01
0	 3.500015002827575e+01	 7.857266066626719e+00	 1.000216828523957e+01
0	 3.500015002827575e+01	 8.571521461152161e+00	 1.000186825582768e+01
0	 3.500015002827573e+01	 9.285776189055184e+00	 1.000158135941260e+01
0	 3.500015002827575e+01	 1.000003033366371e+01	 1.000132410079917e+01
0	 3.500015002827575e+01	 1.071428397830566e+01	 1.000111298473163e+01
0	 3.500015002827574e+01	 1.142853720630899e+01	 1.000096451589368e+01
0	 3.500015002827575e+01	 1.214279010100160e+01	 1.000089519890847e+01
0	 3.500015002827575e+01	 1.285704274571142e+01	 1.000092153833855e+01
0	 3.500015002827573e+01	 1.357129522376639e+01	 1.000106003868596e+01
0	 3.500015002827575e+01	 1.428554761849444e+01	 1.000132720439214e+01
0	 3.571445238150555e+01	 7.143009922150927e+00	 1.000235228787481e+01
0	 3.571445238150555e+01	 7.857266066626719e+00	 1.000184485448240e+01
0	 3.571445238150555e+01	 8.571521461152161e+00	 1.000139366699504e+01
0	 3.571445238150557e+01	 9.285776189055184e+00	 1.000100968229463e+01
0	 3.571445238150557e+01	 1.000003033366371e+01	 1.000070385718084e+01
0	 3.571445238150555e+01	 1.071428397830567e+01	 1.000048714837125e+01
0	 3.571445238150555e+01	 1.142853720630899e+01	 1.000037051250119e+01
0	 3.571445238150555e+01	 1.214279010100160e+01	 1.000036490612391e+01
0	 3.571445238150557e+01	 1.285704274571143e+01	 1.000048128571043e+01
0	 3.571445238150556e+01	 1.357129522376639e+01	 1.000073060764963e+01
0	 3.571445238150556e+01	 1.428554761849444e+01	 1.000112382824820e+01
0	 2.857145634928703e+01	 1.428554761849444e+01	 1.000529340051674e+01
0	 2.857145634928704e+01	 1.499984997172426e+01	 1.000458816840399e+01
0	 2.857145634928703e+01	 1.571415215828766e+01	 1.000395260489104e+01
0	 2.857145634928704e+01	 1.642845401151721e+01	 1.000339564067160e+01
0	 2.857145634928704e+01	 1.714275536474550e+01	 1.000292620659603e+01
0	 2.857145634928704e+01	 1.785705605130510e+01	 1.000255323367116e+01
0	 2.857145634928704e+01	 1.857135590452858e+01	 1.000228565306046e+01
0	 2.857145634928703e+01	 1.928565475774853e+01	 1.000213239608391e+01
0	 2.857145634928703e+01	 1.999995244429753e+01	 1.000210239421807e+01
0	 2.857145634928704e+01	 2.071424879750816e+01	 1.000220457909610e+01
0	 2.857145634928704e+01	 2.142854365071296e+01	 1.000244788250767e+01
0	 2.928575120249185e+01	 1.428554761849444e+01	 1.000497648486667e+01
0	 2.928575120249185e+01	 1.499984997172426e+01	 1.000417405410523e+01
0	 2.928575120249185e+01	 1.571415215828766e+01	 1.000348579996500e+01
0	 2.928575120249185e+01	 1.642845401151721e+01	 1.000291438985171e+01
0	 2.928575120249186e+01	 1.714275536474550e+01	 1.000246249134428e+01
0	 2.928575120249185e+01	 1.785705605130509e+01	 1.000213277219486e+01
0	 2.928575120249186e+01	 1.857135590452858e+01	 1.000192790032872e+01
0	 2.928575120249185e+01	 1.928565475774854e+01	 1.000185054384436e+01
0	 2.928575120249186e+01	 1.999995244429754e+01	 1.000190337101342e+01
0	 2.928575120249186e+01	 2.071424879750816e+01	 1.000208905028076e+01
0	 2.928575120249186e+01	 2.142854365071297e+01	 1.000241025026444e+01
0	 3.000004755570248e+01	 1.428554761849444e+01	 1.000456764407755e+01
0	 3.000004755570248e+01	 1.499984997172426e+01	 1.000376231164147e+01
0	 3.000004755570248e+01	 1.571415215828766e+01	 1.000309474174170e+01
0	 3.000004755570248e+01	 1.642845401151721e+01	 1.000256241975176e+01
0	 3.000004755570249e+01	 1.714275536474550e+01	 1.000216283121348e+01
0	 3.000004755570247e+01	 1.785705605130510e+01	 1.000189346183703e+01
0	 3.000004755570247e+01	 1.857135590452858e+01	 1.000175179750096e+01
0	 3.000004755570248e+01	 1.928565475774855e+01	 1.000173532425211e+01
0	 3.000004755570247e+01	 1.999995244429754e+01	 1.000184152830573e+01
0	 3.000004755570248e+01	 2.071424879750816e+01	 1.000206789604537e+01
0	 3.000004755570248e+01	 2.142854365071296e+01	 1.000241191402295e+01
0	 3.071434524225146e+01	 1.428554761849444e+01	 1.000409301318590e+01
0	 3.071434524225147e+01	 1.499984997172426e+01	 1.000336136502893e+01
0	 3.071434524225147e+01	 1.571415215828766e+01	 1.000277320423229e+01
0	 3.071434524225147e+01	 1.642845401151721e+01	 1.000232191537588e+01
0	 3.071434524225147e+01	 1.714275536474550e+01	 1.000200088318587e+01
0	 3.071434524225148e+01	 1.785705605130510e+01	 1.000180349253483e+01
0	 3.071434524225148e+01	 1.857135590452858e+01	 1.000172312844164e+01
0	 3.071434524225146e+01	 1.928565475774853e+01	 1.000175317607152e+01
0	 3.071434524225148e+01	 1.999995244429754e+01	 1.000188702073602e+01
0	 3.071434524225147e+01	 2.071424879750816e+01	 1.000211804789304e+01
0	 3.071434524225148e+01	 2.142854365071297e+01	 1.000243964314681e+01
0	 3.142864409547142e+01	 1.428554761849444e+01	 1.000357872728112e+01
0	 3.142864409547143e+01	 1.499984997172426e+01	 1.000297963834427e+01
0	 3.142864409547143e+01	 1.571415215828766e+01	 1.000251496150794e+01
0	 3.142864409547143e+01	 1.642845401151722e+01	 1.000217506178145e+01
0	 3.142864409547142e+01	 1.714275536474550e+01	 1.000195030428557e+01
0	 3.142864409547143e+01	 1.785705605130510e+01	 1.000183105425248e+01
0	 3.142864409547142e+01	 1.857135590452858e+01	 1.000180767702582e+01
0	 3.142864409547142e+01	 1.928565475774854e+01	 1.000187053806064e+01
0	 3.142864409547143e+01	 1.999995244429754e+01	 1.000201000292347e+01
0	 3.142864409547143e+01	 2.071424879750816e+01	 1.000221643729224e+01
0	 3.142864409547142e+01	 2.142854365071296e+01	 1.000248020695635e+01
0	 3.214294394869491e+01	 1.428554761849444e+01	 1.000305092150551e+01
0	 3.214294394869492e+01	 1.499984997172426e+01	 1.000262555572444e+01
0	 3.214294394869492e+01	 1.571415215828766e+01	 1.000231378769979e+01
0	 3.214294394869491e+01	 1.642845401151722e+01	 1.000210404407926e+01
0	 3.214294394869491e+01	 1.714275536474550e+01	 1.000198475157856e+01
0	 3.214294394869492e+01	 1.785705605130510e+01	 1.000194433698127e+01
0	 3.214294394869491e+01	 1.857135590452858e+01	 1.000197122713899e+01
0	 3.214294394869491e+01	 1.928565475774854e+01	 1.000205384897119e+01
0	 3.214294394869491e+01	 1.999995244429753e+01	 1.000218062946531e+01
0	 3.214294394869491e+01	 2.071424879750816e+01	 1.000233999567670e+01
0	 3.214294394869491e+01	 2.142854365071296e+01	 1.000252037472872e+01
0	 3.285724463525450e+01	 1.428554761849444e+01	 1.000253573105427e+01
0	 3.285724463525450e+01	 1.499984997172426e+01	 1.000230754136683e+01
0	 3.285724463525451e+01	 1.571415215828766e+01	 1.000216345699899e+01
0	 3.285724463525451e+01	 1.642845401151721e+01	 1.000209104743336e+01
0	 3.285724463525451e+01	 1.714275536474550e+01	 1.000207788217261e+01
0	 3.285724463525450e+01	 1.785705605130510e+01	 1.000211153073958e+01
0	 3.285724463525451e+01	 1.857135590452859e+01	 1.000217956267723e+01
0	 3.285724463525450e+01	 1.928565475774854e+01	 1.000226954754862e+01
0	 3.285724463525452e+01	 1.999995244429754e+01	 1.000236905493695e+01
0	 3.285724463525450e+01	 2.071424879750815e+01	 1.000246565444554e+01
0	 3.285724463525451e+01	 2.142854365071296e+01	 1.000254691569785e+01
0	 3.357154598848280e+01	 1.428554761849444e+01	 1.000205929117550e+01
0	 3.357154598848279e+01	 1.499984997172426e+01	 1.000203401952913e+01
0	 3.357154598848280e+01	 1.571415215828766e+01	 1.000205774365675e+01
0	 3.357154598848280e+01	 1.642845401151721e+01	 1.000211825706116e+01
0	 3.357154598848280e+01	 1.714275536474550e+01	 1.000220335321739e+01
0	 3.357154598848279e+01	 1.785705605130509e+01	 1.000230082557282e+01
0	 3.357154598848280e+01	 1.857135590452859e+01	 1.000239846754707e+01
0	 3.357154598848280e+01	 1.928565475774854e+01	 1.000248407253203e+01
0	 3.357154598848280e+01	 1.999995244429753e+01	 1.000254543389190e+01
0	 3.357154598848280e+01	 2.071424879750816e+01	 1.000257034496311e+01
0	 3.357154598848279e+01	 2.142854365071296e+01	 1.000254659905442e+01
0	 3.428584784171235e+01	 1.428554761849444e+01	 1.000164773717016e+01
0	 3.428584784171235e+01	 1.499984997172426e+01	 1.000181341452944e+01
0	 3.428584784171235e+01	 1.571415215828766e+01	 1.000199042198424e+01
0	 3.428584784171235e+01	 1.642845401151721e+01	 1.000216785823338e+01
0	 3.428584784171235e+01	 1.714275536474550e+01	 1.000233482190438e+01
0	 3.428584784171235e+01	 1.785705605130510e+01	 1.000248041155348e+01
0	 3.428584784171235e+01	 1.857135590452859e+01	 1.000259372566558e+01
0	 3.428584784171235e+01	 1.928565475774854e+01	 1.000266386265424e+01
0	 3.428584784171235e+01	 1.999995244429753e+01	 1.000267992086178e+01
0	 3.428584784171234e+01	 2.071424879750815e+01	 1.000263099855912e+01
0	 3.428584784171235e+01	 2.142854365071296e+01	 1.000250619394591e+01
0	 3.500015002827575e+01	 1.428554761849444e+01	 1.000132720439214e+01
0	 3.500015002827575e+01	 1.499984997172426e+01	 1.000165415074622e+01
0	 3.500015002827573e+01	 1.571415215828766e+01	 1.000195526635263e+01
0	 3.500015002827575e+01	 1.642845401151721e+01	 1.000222203627408e+01
0	 3.500015002827574e+01	 1.714275536474550e+01	 1.000244594546692e+01
0	 3.500015002827575e+01	 1.785705605130510e+01	 1.000261847878112e+01
0	 3.500015002827575e+01	 1.857135590452858e+01	 1.000273112096033e+01
0	 3.500015002827575e+01	 1.928565475774854e+01	 1.000277535664178e+01
0	 3.500015002827575e+01	 1.999995244429754e+01	 1.000274267035635e+01
0	 3.500015002827575e+01	 2.071424879750816e+01	 1.000262454652857e+01
0	 3.500015002827575e+01	 2.142854365071296e+01	 1.000241246947659e+01
0	 3.571445238150556e+01	 1.428554761849444e+01	 1.000112382824820e+01
0	 3.571445238150555e+01	 1.499984997172426e+01	 1.000156465261828e+01
0	 3.571445238150556e+01	 1.571415215828766e+01	 1.000194605119313e+01
0	 3.571445238150557e+01	 1.642845401151722e+01	 1.000226297656065e+01
0	 3.571445238150556e+01	 1.714275536474550e+01	 1.000251038118015e+01
0	 3.571445238150555e+01	 1.785705605130510e+01	 1.000268321738237e+01
0	 3.571445238150555e+01	 1.857135590452859e+01	 1.000277643736941e+01
0	 3.571445238150556e+01	 1.928565475774854e+01	 1.000278499321480e+01
0	 3.571445238150557e+01	 1.999995244429754e+01	 1.000270383686349e+01
0	 3.571445238150557e+01	 2.071424879750816e+01	 1.000252792013181e+01
0	 3.571445238150556e+01	 2.142854365071296e+01	 1.000225219470751e+01
0	 2.857145634928704e+01	 2.142854365071296e+01	 1.000244788250767e+01
0	 2.857145634928704e+01	 2.214283692057824e+01	 1.000274168249458e+01
0	 2.857145634928704e+01	 2.285712885710494e+01	 1.000298583608479e+01
0	 2.857145634928704e+01	 2.357141979362770e+01	 1.000317499383808e+01
0	 2.857145634928703e+01	 2.428571006348117e+01	 1.000330380654525e+01
0	 2.857145634928704e+01	 2.500000000000001e+01	 1.000336692522815e+01
0	 2.857145634928704e+01	 2.571428993651884e+01	 1.000335900113966e+01
0	 2.857145634928704e+01	 2.642858020637232e+01	 1.000327468576367e+01
0	 2.857145634928704e+01	 2.714287114289508e+01	 1.000310863081515e+01
0	 2.857145634928704e+01	 2.785716307942177e+01	 1.000285548824009e+01
0	 2.857145634928703e+01	 2.857145634928703e+01	 1.000250991021550e+01
0	 2.928575120249186e+01	 2.142854365071297e+01	 1.000241025026444e+01
0	 2.928575120249186e+01	 2.214283692057824e+01	 1.000276313512704e+01
0	 2.928575120249184e+01	 2.285712885710493e+01	 1.000304109878067e+01
0	 2.928575120249186e+01	 2.357141979362770e+01	 1.000324265478213e+01
0	 2.928575120249185e+01	 2.428571006348117e+01	 1.000336631693439e+01
0	 2.928575120249187e+01	 2.500000000000001e+01	 1.000341059928661e+01
0	 2.928575120249185e+01	 2.571428993651883e+01	 1.000337401613409e+01
0	 2.928575120249186e+01	 2.642858020637231e+01	 1.000325508201832e+01
0	 2.928575120249186e+01	 2.714287114289508e+01	 1.000305231172698e+01
0	 2.928575120249186e+01	 2.785716307942178e+01	 1.000276422029388e+01
0	 2.928575120249185e+01	 2.857145634928703e+01	 1.000238932299905e+01
0	 3.000004755570248e+01	 2.142854365071296e+01	 1.000241191402295e+01
0	 3.000004755570248e+01	 2.214283692057824e+01	 1.000276943894544e+01
0	 3.000004755570248e+01	 2.285712885710494e+01	 1.000303913110079e+01
0	 3.000004755570248e+01	 2.357141979362770e+01	 1.000322268271600e+01
0	 3.000004755570247e+01	 2.428571006348117e+01	 1.000332178625438e+01
0	 3.000004755570248e+01	 2.500000000000001e+01	 1.000333813441562e+01
0	 3.000004755570248e+01	 2.571428993651884e+01	 1.000327342013574e+01
0	 3.000004755570248e+01	 2.642858020637231e+01	 1.000312933658715e+01
0	 3.000004755570247e+01	 2.714287114289507e+01	 1.000290757717858e+01
0	 3.000004755570247e+01	 2.785716307942177e+01	 1.000260983555514e+01
0	 3.000004755570248e+01	 2.857145634928704e+01	 1.000223780559827e+01
0	 3.071434524225148e+01	 2.142854365071297e+01	 1.000243964314681e+01
0	 3.071434524225148e+01	 2.214283692057824e+01	 1.000275782120027e+01
0	 3.071434524225148e+01	 2.285712885710494e+01	 1.000298579721414e+01
0	 3.071434524225146e+01	 2.357141979362770e+01	 1.000312775774395e+01
0	 3.071434524225147e+01	 2.428571006348117e+01	 1.000318788955197e+01
0	 3.071434524225148e+01	 2.500000000000001e+01	 1.000317037960713e+01
0	 3.071434524225147e+01	 2.571428993651883e+01	 1.000307941508503e+01
0	 3.071434524225147e+01	 2.642858020637231e+01	 1.000291918336795e+01
0	 3.071434524225147e+01	 2.714287114289507e+01	 1.000269387204489e+01
0	 3.071434524225147e+01	 2.785716307942177e+01	 1.000240766891148e+01
0	 3.071434524225148e+01	 2.857145634928704e+01	 1.000206476197008e+01
0	 3.142864409547142e+01	 2.142854365071296e+01	 1.000248020695635e+01
0	 3.142864409547143e+01	 2.214283692057824e+01	 1.000272550909570e+01
0	 3.142864409547142e+01	 2.285712885710494e+01	 1.000288696124498e+01
0	 3.142864409547143e+01	 2.357141979362770e+01	 1.000297055993111e+01
0	 3.142864409547143e+01	 2.428571006348117e+01	 1.000298230184327e+01
0	 3.142864409547143e+01	 2.500000000000001e+01	 1.000292818383284e+01
0	 3.142864409547142e+01	 2.571428993651883e+01	 1.000281420291350e+01
0	 3.142864409547143e+01	 2.642858020637232e+01	 1.000264635626115e+01
0	 3.142864409547143e+01	 2.714287114289508e+01	 1.000243064121398e+01
0	 3.142864409547143e+01	 2.785716307942177e+01	 1.000217305527240e+01
0	 3.142864409547142e+01	 2.857145634928703e+01	 1.000187959609905e+01
0	 3.214294394869491e+01	 2.142854365071296e+01	 1.000252037472872e+01
0	 3.214294394869491e+01	 2.214283692057824e+01	 1.000266972978943e+01
0	 3.214294394869491e+01	 2.285712885710493e+01	 1.000274848727289e+01
0	 3.214294394869491e+01	 2.357141979362770e+01	 1.000276376930346e+01
0	 3.214294394869491e+01	 2.428571006348117e+01	 1.000272269811366e+01
0	 3.214294394869491e+01	 2.500000000000000e+01	 1.000263239604421e+01
0	 3.214294394869491e+01	 2.571428993651883e+01	 1.000249998554392e+01
0	 3.214294394869491e+01	 2.642858020637231e+01	 1.000233258916985e+01
0	 3.214294394869492e+01	 2.714287114289507e+01	 1.000213732958716e+01
0	 3.214294394869491e+01	 2.785716307942177e+01	 1.000192132956921e+01
0	 3.214294394869491e+01	 2.857145634928704e+01	 1.000169171199751e+01
0	 3.285724463525451e+01	 2.142854365071296e+01	 1.000254691569785e+01
0	 3.285724463525451e+01	 2.214283692057825e+01	 1.000258771039289e+01
0	 3.285724463525452e+01	 2.285712885710494e+01	 1.000257623933276e+01
0	 3.285724463525451e+01	 2.357141979362770e+01	 1.000252006584783e+01
0	 3.285724463525451e+01	 2.428571006348117e+01	 1.000242675331792e+01
0	 3.285724463525451e+01	 2.500000000000000e+01	 1.000230386517242e+01
0	 3.285724463525451e+01	 2.571428993651883e+01	 1.000215896489022e+01
0	 3.285724463525452e+01	 2.642858020637231e+01	 1.000199961599973e+01
0	 3.285724463525451e+01	 2.714287114289507e+01	 1.000183338207889e+01
0	 3.285724463525451e+01	 2.785716307942177e+01	 1.000166782675513e+01
0	 3.285724463525450e+01	 2.857145634928703e+01	 1.000151051370543e+01
0	 3.357154598848279e+01	 2.142854365071296e+01	 1.000254659905442e+01
0	 3.357154598848280e+01	 2.214283692057824e+01	 1.000247667797105e+01
0	 3.357154598848279e+01	 2.285712885710494e+01	 1.000237608141479e+01
0	 3.357154598848278e+01	 2.357141979362770e+01	 1.000225212951191e+01
0	 3.357154598848280e+01	 2.428571006348118e+01	 1.000211214238009e+01
0	 3.357154598848280e+01	 2.500000000000001e+01	 1.000196344012844e+01
0	 3.357154598848281e+01	 2.571428993651884e+01	 1.000181334285749e+01
0	 3.357154598848280e+01	 2.642858020637231e+01	 1.000166917065916e+01
0	 3.357154598848280e+01	 2.714287114289508e+01	 1.000153824361682e+01
0	 3.357154598848279e+01	 2.785716307942177e+01	 1.000142788180521e+01
0	 3.357154598848279e+01	 2.857145634928703e+01	 1.000134540529051e+01
0	 3.428584784171235e+01	 2.142854365071296e+01	 1.000250619394591e+01
0	 3.428584784171235e+01	 2.214283692057824e+01	 1.000233385954259e+01
0	 3.428584784171235e+01	 2.285712885710494e+01	 1.000215387746448e+01
0	 3.428584784171236e+01	 2.357141979362770e+01	 1.000197264020426e+01
0	 3.428584784171235e+01	 2.428571006348118e+01	 1.000179654019355e+01
0	 3.428584784171235e+01	 2.500000000000001e+01	 1.000163196980296e+01
0	 3.428584784171235e+01	 2.571428993651883e+01	 1.000148532134198e+01
0	 3.428584784171235e+01	 2.642858020637231e+01	 1.000136298705913e+01
0	 3.428584784171236e+01	 2.714287114289508e+01	 1.000127135914181e+01
0	 3.428584784171235e+01	 2.785716307942178e+01	 1.000121682971637e+01
0	 3.428584784171235e+01	 2.857145634928704e+01	 1.000120579084813e+01
0	 3.500015002827575e+01	 2.142854365071296e+01	 1.000241246947659e+01
0	 3.500015002827575e+01	 2.214283692057824e+01	 1.000215648207975e+01
0	 3.500015002827574e+01	 2.285712885710494e+01	 1.000191549138262e+01
0	 3.500015002827575e+01	 2.357141979362770e+01	 1.000169427779428e+01
0	 3.500015002827575e+01	 2.428571006348118e+01	 1.000149762162103e+01
0	 3.500015002827575e+01	 2.500000000000000e+01	 1.000133030306642e+01
0	 3.500015002827574e+01	 2.571428993651883e+01	 1.000119710223117e+01
0	 3.500015002827574e+01	 2.642858020637231e+01	 1.000110279911326e+01
0	 3.500015002827574e+01	 2.714287114289507e+01	 1.000105217360786e+01
0	 3.500015002827575e+01	 2.785716307942177e+01	 1.000105000550736e+01
0	 3.500015002827575e+01	 2.857145634928704e+01	 1.000110107450138e+01
0	 3.571445238150556e+01	 2.142854365071296e+01	 1.000225219470751e+01
0	 3.571445238150555e+01	 2.214283692057824e+01	 1.000194177250845e+01
0	 3.571445238150556e+01	 2.285712885710494e+01	 1.000166678702533e+01
0	 3.571445238150555e+01	 2.357141979362770e+01	 1.000142972211225e+01
0	 3.571445238150556e+01	 2.428571006348118e+01	 1.000123306149457e+01
0	 3.571445238150555e+01	 2.500000000000000e+01	 1.000107928876903e+01
0	 3.571445238150556e+01	 2.571428993651884e+01	 1.000097088740366e+01
0	 3.571445238150556e+01	 2.642858020637231e+01	 1.000091034073783e+01
0	 3.571445238150555e+01	 2.714287114289507e+01	 1.000090013198221e+01
0	 3.571445238150556e+01	 2.785716307942177e+01	 1.000094274421884e+01
0	 3.571445238150555e+01	 2.857145634928703e+01	 1.000104066040102e+01
0	 2.857145634928703e+01	 2.857145634928703e+01	 1.000250991021550e+01
0	 2.857145634928704e+01	 2.928575120249186e+01	 1.000213478379420e+01
0	 2.857145634928703e+01	 3.000004755570248e+01	 1.000179807369427e+01
0	 2.857145634928704e+01	 3.071434524225148e+01	 1.000150204881783e+01
0	 2.857145634928703e+01	 3.142864409547142e+01	 1.000124897813905e+01
0	 2.857145634928704e+01	 3.214294394869491e+01	 1.000104113070403e+01
0	 2.857145634928704e+01	 3.285724463525451e+01	 1.000088077563089e+01
0	 2.857145634928703e+01	 3.357154598848279e+01	 1.000077018210972e+01
0	 2.857145634928704e+01	 3.428584784171235e+01	 1.000071161940261e+01
0	 2.857145634928704e+01	 3.500015002827575e+01	 1.000070735684360e+01
0	 2.857145634928704e+01	 3.571445238150556e+01	 1.000075966383875e+01
0	 2.928575120249185e+01	 2.857145634928703e+01	 1.000238932299905e+01
0	 2.928575120249186e+01	 2.928575120249186e+01	 1.000199676018172e+01
0	 2.928575120249186e+01	 3.000004755570248e+01	 1.000165653894741e+01
0	 2.928575120249185e+01	 3.071434524225147e+01	 1.000136847496560e+01
0	 2.928575120249186e+01	 3.142864409547142e+01	 1.000113238397986e+01
0	 2.928575120249186e+01	 3.214294394869491e+01	 1.000094808180784e+01
0	 2.928575120249185e+01	 3.285724463525450e+01	 1.000081538434120e+01
0	 2.928575120249186e+01	 3.357154598848280e+01	 1.000073410754571e+01
0	 2.928575120249186e+01	 3.428584784171236e+01	 1.000070406746115e+01
0	 2.928575120249187e+01	 3.500015002827575e+01	 1.000072508020139e+01
0	 2.928575120249186e+01	 3.571445238150555e+01	 1.000079696195432e+01
0	 3.000004755570248e+01	 2.857145634928704e+01	 1.000223780559827e+01
0	 3.000004755570248e+01	 2.928575120249186e+01	 1.000185935695272e+01
0	 3.000004755570247e+01	 3.000004755570247e+01	 1.000153977387874e+01
0	 3.000004755570247e+01	 3.071434524225147e+01	 1.000127687241001e+01
0	 3.000004755570248e+01	 3.142864409547142e+01	 1.000106846864910e+01
0	 3.000004755570247e+01	 3.214294394869491e+01	 1.000091237876753e+01
0	 3.000004755570247e+01	 3.285724463525450e+01	 1.000080641900575e+01
0	 3.000004755570248e+01	 3.357154598848280e+01	 1.000074840567313e+01
0	 3.000004755570248e+01	 3.428584784171235e+01	 1.000073615514796e+01
0	 3.000004755570248e+01	 3.500015002827575e+01	 1.000076748387745e+01
0	 3.000004755570247e+01	 3.571445238150556e+01	 1.000084020837775e+01
0	 3.071434524225148e+01	 2.857145634928704e+01	 1.000206476197008e+01
0	 3.071434524225146e+01	 2.928575120249185e+01	 1.000172568552209e+01
0	 3.071434524225148e+01	 3.000004755570248e+01	 1.000144569505524e+01
0	 3.071434524225146e+01	 3.071434524225147e+01	 1.000122106054986e+01
0	 3.071434524225148e+01	 3.142864409547143e+01	 1.000104805204443e+01
0	 3.071434524225146e+01	 3.214294394869491e+01	 1.000092293963557e+01
0	 3.071434524225147e+01	 3.285724463525450e+01	 1.000084199347797e+01
0	 3.071434524225148e+01	 3.357154598848279e+01	 1.000080148378451e+01
0	 3.071434524225146e+01	 3.428584784171235e+01	 1.000079768082615e+01
0	 3.071434524225148e+01	 3.500015002827574e+01	 1.000082685493197e+01
0	 3.071434524225148e+01	 3.571445238150555e+01	 1.000088527648922e+01
0	 3.142864409547142e+01	 2.857145634928703e+01	 1.000187959609905e+01
0	 3.142864409547143e+01	 2.928575120249186e+01	 1.000159885733474e+01
0	 3.142864409547142e+01	 3.000004755570248e+01	 1.000137221907298e+01
0	 3.142864409547143e+01	 3.071434524225149e+01	 1.000119485880975e+01
0	 3.142864409547143e+01	 3.142864409547143e+01	 1.000106195408412e+01
0	 3.142864409547143e+01	 3.214294394869491e+01	 1.000096868247845e+01
0	 3.142864409547143e+01	 3.285724463525452e+01	 1.000091022161823e+01
0	 3.142864409547142e+01	 3.357154598848279e+01	 1.000088174917218e+01
0	 3.142864409547143e+01	 3.428584784171236e+01	 1.000087844285216e+01
0	 3.142864409547142e+01	 3.500015002827574e+01	 1.000089548041329e+01
0	 3.142864409547142e+01	 3.571445238150555e+01	 1.000092803965384e+01
0	 3.214294394869491e+01	 2.857145634928704e+01	 1.000169171199751e+01
0	 3.214294394869491e+01	 2.928575120249186e+01	 1.000148198386558e+01
0	 3.214294394869491e+01	 3.000004755570247e+01	 1.000131726255730e+01
0	 3.214294394869491e+01	 3.071434524225147e+01	 1.000119208664005e+01
0	 3.214294394869491e+01	 3.142864409547142e+01	 1.000110099470695e+01
0	 3.214294394869491e+01	 3.214294394869491e+01	 1.000103852537672e+01
0	 3.214294394869492e+01	 3.285724463525452e+01	 1.000099921729379e+01
0	 3.214294394869491e+01	 3.357154598848279e+01	 1.000097760912826e+01
0	 3.214294394869491e+01	 3.428584784171235e+01	 1.000096823957585e+01
0	 3.214294394869491e+01	 3.500015002827575e+01	 1.000096564735798e+01
0	 3.214294394869491e+01	 3.571445238150556e+01	 1.000096437122172e+01
0	 3.285724463525450e+01	 2.857145634928703e+01	 1.000151051370543e+01
0	 3.285724463525451e+01	 2.928575120249185e+01	 1.000137817661955e+01
0	 3.285724463525451e+01	 3.000004755570248e+01	 1.000127874216258e+01
0	 3.285724463525451e+01	 3.071434524225148e+01	 1.000120656351696e+01
0	 3.285724463525452e+01	 3.142864409547143e+01	 1.000115599387222e+01
0	 3.285724463525451e+01	 3.214294394869491e+01	 1.000112138642497e+01
0	 3.285724463525450e+01	 3.285724463525450e+01	 1.000109709437888e+01
0	 3.285724463525451e+01	 3.357154598848280e+01	 1.000107747094473e+01
0	 3.285724463525451e+01	 3.428584784171235e+01	 1.000105686934039e+01
0	 3.285724463525450e+01	 3.500015002827573e+01	 1.000102964279077e+01
0	 3.285724463525451e+01	 3.571445238150555e+01	 1.000099014452790e+01
0	 3.357154598848279e+01	 2.857145634928703e+01	 1.000134540529051e+01
0	 3.357154598848280e+01	 2.928575120249186e+01	 1.000129054713158e+01
0	 3.357154598848280e+01	 3.000004755570248e+01	 1.000125457457247e+01
0	 3.357154598848280e+01	 3.071434524225148e+01	 1.000123210894246e+01
0	 3.357154598848278e+01	 3.142864409547141e+01	 1.000121777155983e+01
0	 3.357154598848280e+01	 3.214294394869491e+01	 1.000120618373180e+01
0	 3.357154598848280e+01	 3.285724463525452e+01	 1.000119196675458e+01
0	 3.357154598848280e+01	 3.357154598848280e+01	 1.000116974191338e+01
0	 3.357154598848280e+01	 3.428584784171235e+01	 1.000113413048235e+01
0	 3.357154598848280e+01	 3.500015002827575e+01	 1.000107975372464e+01
0	 3.357154598848280e+01	 3.571445238150556e+01	 1.000100123289237e+01
0	 3.428584784171235e+01	 2.857145634928704e+01	 1.000120579084813e+01
0	 3.428584784171235e+01	 2.928575120249185e+01	 1.000122220696660e+01
0	 3.428584784171235e+01	 3.000004755570248e+01	 1.000124267649972e+01
0	 3.428584784171235e+01	 3.071434524225147e+01	 1.000126254244432e+01
0	 3.428584784171235e+01	 3.142864409547142e+01	 1.000127714777017e+01
0	 3.428584784171235e+01	 3.214294394869491e+01	 1.000128183541988e+01
0	 3.428584784171235e+01	 3.285724463525450e+01	 1.000127194830894e+01
0	 3.428584784171235e+01	 3.357154598848280e+01	 1.000124282932576e+01
0	 3.428584784171235e+01	 3.428584784171235e+01	 1.000118982133163e+01
0	 3.428584784171235e+01	 3.500015002827573e+01	 1.000110826716071e+01
0	 3.428584784171235e+01	 3.571445238150555e+01	 1.000099350962008e+01
0	 3.500015002827575e+01	 2.857145634928704e+01	 1.000110107450138e+01
0	 3.500015002827575e+01	 2.928575120249186e+01	 1.000117626771960e+01
0	 3.500015002827575e+01	 3.000004755570248e+01	 1.000124096468627e+01
0	 3.500015002827575e+01	 3.071434524225147e+01	 1.000129168357615e+01
0	 3.500015002827575e+01	 3.142864409547143e+01	 1.000132494252422e+01
0	 3.500015002827575e+01	 3.214294394869491e+01	 1.000133725962588e+01
0	 3.500015002827574e+01	 3.285724463525450e+01	 1.000132515293686e+01
0	 3.500015002827575e+01	 3.357154598848280e+01	 1.000128514047327e+01
0	 3.500015002827576e+01	 3.428584784171235e+01	 1.000121374021150e+01
0	 3.500015002827575e+01	 3.500015002827575e+01	 1.000110747008836e+01
0	 3.500015002827575e+01	 3.571445238150555e+01	 1.000096284800096e+01
0	 3.571445238150555e+01	 2.857145634928703e+01	 1.000104066040102e+01
0	 3.571445238150555e+01	 2.928575120249185e+01	 1.000115584101548e+01
0	 3.571445238150555e+01	 3.000004755570247e+01	 1.000124735590324e+01
0	 3.571445238150556e+01	 3.071434524225148e+01	 1.000131335191728e+01
0	 3.571445238150556e+01	 3.142864409547142e+01	 1.000135197586347e+01
0	 3.571445238150556e+01	 3.214294394869491e+01	 1.000136137450057e+01
0	 3.571445238150555e+01	 3.285724463525451e+01	 1.000133969454026e+01
0	 3.571445238150555e+01	 3.357154598848280e+01	 1.000128508264711e+01
0	 3.571445238150555e+01	 3.428584784171235e+01	 1.000119568543859e+01
0	 3.571445238150556e+01	 3.500015002827574e+01	 1.000106964948509e+01
0	 3.571445238150555e+01	 3.571445238150556e+01	 1.000090512130986e+01
0	 2.857145634928704e+01	 3.571445238150556e+01	 1.000075966383875e+01
0	 2.857145634928704e+01	 3.642870477623359e+01	 1.000083171830168e+01
0	 2.857145634928703e+01	 3.714295725428856e+01	 1.000088405182862e+01
0	 2.857145634928704e+01	 3.785720989899840e+01	 1.000091494733412e+01
0	 2.857145634928704e+01	 3.857146279369101e+01	 1.000092268775050e+01
0	 2.857145634928704e+01	 3.928571602169432e+01	 1.000090555602786e+01
0	 2.857145634928703e+01	 3.999996966633628e+01	 1.000086183513416e+01
0	 2.857145634928704e+01	 4.071422381094482e+01	 1.000078980805509e+01
0	 2.857145634928704e+01	 4.142847853884783e+01	 1.000068775779418e+01
0	 2.857145634928703e+01	 4.214273393337326e+01	 1.000055396737273e+01
0	 2.857145634928704e+01	 4.285699007784908e+01	 1.000038671982986e+01
0	 2.928575120249186e+01	 3.571445238150555e+01	 1.000079696195432e+01
0	 2.928575120249186e+01	 3.642870477623359e+01	 1.000087996197534e+01
0	 2.928575120249186e+01	 3.714295725428858e+01	 1.000093448856237e+01
0	 2.928575120249186e+01	 3.785720989899841e+01	 1.000096057611334e+01
0	 2.928575120249186e+01	 3.857146279369100e+01	 1.000095825904462e+01
0	 2.928575120249185e+01	 3.928571602169433e+01	 1.000092757179095e+01
0	 2.928575120249185e+01	 3.999996966633629e+01	 1.000086854880550e+01
0	 2.928575120249186e+01	 4.071422381094482e+01	 1.000078122455983e+01
0	 2.928575120249185e+01	 4.142847853884783e+01	 1.000066563354393e+01
0	 2.928575120249185e+01	 4.214273393337328e+01	 1.000052181026619e+01
0	 2.928575120249185e+01	 4.285699007784907e+01	 1.000034978925337e+01
0	 3.000004755570247e+01	 3.571445238150556e+01	 1.000084020837775e+01
0	 3.000004755570247e+01	 3.642870477623359e+01	 1.000091617329701e+01
0	 3.000004755570248e+01	 3.714295725428858e+01	 1.000095966002072e+01
0	 3.000004755570248e+01	 3.785720989899839e+01	 1.000097212076979e+01
0	 3.000004755570247e+01	 3.857146279369102e+01	 1.000095500778190e+01
0	 3.000004755570247e+01	 3.928571602169432e+01	 1.000090977331140e+01
0	 3.000004755570247e+01	 3.999996966633628e+01	 1.000083786962946e+01
0	 3.000004755570248e+01	 4.071422381094482e+01	 1.000074074902395e+01
0	 3.000004755570248e+01	 4.142847853884784e+01	 1.000061986379945e+01
0	 3.000004755570248e+01	 4.214273393337328e+01	 1.000047666627732e+01
0	 3.000004755570247e+01	 4.285699007784908e+01	 1.000031260879566e+01
0	 3.071434524225148e+01	 3.571445238150555e+01	 1.000088527648922e+01
0	 3.071434524225147e+01	 3.642870477623359e+01	 1.000094000287513e+01
0	 3.071434524225148e+01	 3.714295725428858e+01	 1.000096227881573e+01
0	 3.071434524225147e+01	 3.785720989899839e+01	 1.000095464069673e+01
0	 3.071434524225147e+01	 3.857146279369101e+01	 1.000091962491716e+01
0	 3.071434524225148e+01	 3.928571602169432e+01	 1.000085976788933e+01
0	 3.071434524225147e+01	 3.999996966633629e+01	 1.000077760603885e+01
0	 3.071434524225147e+01	 4.071422381094480e+01	 1.000067567580464e+01
0	 3.071434524225148e+01	 4.142847853884784e+01	 1.000055651363887e+01
0	 3.071434524225147e+01	 4.214273393337327e+01	 1.000042265600706e+01
0	 3.071434524225147e+01	 4.285699007784906e+01	 1.000027663938796e+01
0	 3.142864409547142e+01	 3.571445238150555e+01	 1.000092803965384e+01
0	 3.142864409547143e+01	 3.642870477623360e+01	 1.000095110130227e+01
0	 3.142864409547143e+01	 3.714295725428858e+01	 1.000094505754478e+01
0	 3.142864409547143e+01	 3.785720989899840e+01	 1.000091319527557e+01
0	 3.142864409547142e+01	 3.857146279369100e+01	 1.000085880139742e+01
0	 3.142864409547143e+01	 3.928571602169433e+01	 1.000078516282165e+01
0	 3.142864409547143e+01	 3.999996966633628e+01	 1.000069556646821e+01
0	 3.142864409547143e+01	 4.071422381094481e+01	 1.000059329926557e+01
0	 3.142864409547142e+01	 4.142847853884781e+01	 1.000048164815080e+01
0	 3.142864409547143e+01	 4.214273393337328e+01	 1.000036390006949e+01
0	 3.142864409547142e+01	 4.285699007784908e+01	 1.000024334197587e+01
0	 3.214294394869491e+01	 3.571445238150556e+01	 1.000096437122172e+01
0	 3.214294394869492e+01	 3.642870477623360e+01	 1.000094911915504e+01
0	 3.214294394869491e+01	 3.714295725428858e+01	 1.000091070879053e+01
0	 3.214294394869491e+01	 3.785720989899838e+01	 1.000085284387587e+01
0	 3.214294394869492e+01	 3.857146279369100e+01	 1.000077922816180e+01
0	 3.214294394869491e+01	 3.928571602169432e+01	 1.000069356540216e+01
0	 3.214294394869491e+01	 3.999996966633629e+01	 1.000059955935386e+01
0	 3.214294394869491e+01	 4.071422381094480e+01	 1.000050091377684e+01
0	 3.214294394869491e+01	 4.142847853884783e+01	 1.000040133243415e+01
0	 3.214294394869491e+01	 4.214273393337326e+01	 1.000030451909190e+01
0	 3.214294394869491e+01	 4.285699007784907e+01	 1.000021417751927e+01
0	 3.285724463525451e+01	 3.571445238150555e+01	 1.000099014452789e+01
0	 3.285724463525450e+01	 3.642870477623359e+01	 1.000093370699416e+01
0	 3.285724463525452e+01	 3.714295725428858e+01	 1.000086194512096e+01
0	 3.285724463525450e+01	 3.785720989899840e+01	 1.000077864585534e+01
0	 3.285724463525450e+01	 3.857146279369100e+01	 1.000068759614163e+01
0	 3.285724463525451e+01	 3.928571602169433e+01	 1.000059258292150e+01
0	 3.285724463525451e+01	 3.999996966633628e+01	 1.000049739313386e+01
0	 3.285724463525451e+01	 4.071422381094482e+01	 1.000040581371495e+01
0	 3.285724463525451e+01	 4.142847853884782e+01	 1.000032163159829e+01
0	 3.285724463525451e+01	 4.214273393337327e+01	 1.000024863371470e+01
0	 3.285724463525451e+01	 4.285699007784908e+01	 1.000019060699232e+01
0	 3.357154598848280e+01	 3.571445238150556e+01	 1.000100123289237e+01
0	 3.357154598848280e+01	 3.642870477623360e+01	 1.000090451536445e+01
0	 3.357154598848280e+01	 3.714295725428857e+01	 1.000080147908939e+01
0	 3.357154598848279e+01	 3.785720989899838e+01	 1.000069566055988e+01
0	 3.357154598848279e+01	 3.857146279369100e+01	 1.000059059626043e+01
0	 3.357154598848280e+01	 3.928571602169433e+01	 1.000048982266717e+01
0	 3.357154598848280e+01	 3.999996966633629e+01	 1.000039687624809e+01
0	 3.357154598848280e+01	 4.071422381094481e+01	 1.000031529346287e+01
0	 3.357154598848280e+01	 4.142847853884785e+01	 1.000024861076295e+01
0	 3.357154598848280e+01	 4.214273393337328e+01	 1.000020036459151e+01
0	 3.357154598848280e+01	 4.285699007784907e+01	 1.000017409138348e+01
0	 3.428584784171235e+01	 3.571445238150555e+01	 1.000099350962008e+01
0	 3.428584784171235e+01	 3.642870477623359e+01	 1.000086119479477e+01
0	 3.428584784171235e+01	 3.714295725428857e+01	 1.000073202323440e+01
0	 3.428584784171235e+01	 3.785720989899839e+01	 1.000060894732355e+01
0	 3.428584784171235e+01	 3.857146279369100e+01	 1.000049491943377e+01
0	 3.428584784171235e+01	 3.928571602169433e+01	 1.000039289192351e+01
0	 3.428584784171235e+01	 3.999996966633628e+01	 1.000030581713815e+01
0	 3.428584784171235e+01	 4.071422381094480e+01	 1.000023664740999e+01
0	 3.428584784171235e+01	 4.142847853884783e+01	 1.000018833505824e+01
0	 3.428584784171234e+01	 4.214273393337328e+01	 1.000016383238906e+01
0	 3.428584784171236e+01	 4.285699007784908e+01	 1.000016609169552e+01
0	 3.500015002827575e+01	 3.571445238150555e+01	 1.000096284800096e+01
0	 3.500015002827575e+01	 3.642870477623359e+01	 1.000080339579816e+01
0	 3.500015002827575e+01	 3.714295725428857e+01	 1.000065629007995e+01
0	 3.500015002827574e+01	 3.785720989899839e+01	 1.000052356546854e+01
0	 3.500015002827575e+01	 3.857146279369101e+01	 1.000040725656952e+01
0	 3.500015002827575e+01	 3.928571602169433e+01	 1.000030939797174e+01
0	 3.500015002827575e+01	 3.999996966633629e+01	 1.000023202424743e+01
0	 3.500015002827575e+01	 4.071422381094481e+01	 1.000017716995214e+01
0	 3.500015002827575e+01	 4.142847853884783e+01	 1.000014686962471e+01
0	 3.500015002827575e+01	 4.214273393337328e+01	 1.000014315778733e+01
0	 3.500015002827575e+01	 4.285699007784908e+01	 1.000016806894550e+01
0	 3.571445238150555e+01	 3.571445238150556e+01	 1.000090512130986e+01
0	 3.571445238150556e+01	 3.642870477623360e+01	 1.000073076887167e+01
0	 3.571445238150556e+01	 3.714295725428856e+01	 1.000057699213525e+01
0	 3.571445238150555e+01	 3.785720989899839e+01	 1.000044457430521e+01
0	 3.571445238150557e+01	 3.857146279369101e+01	 1.000033429856759e+01
0	 3.571445238150555e+01	 3.928571602169433e+01	 1.000024694808989e+01
0	 3.571445238150555e+01	 3.999996966633629e+01	 1.000018330602110e+01
0	 3.571445238150555e+01	 4.071422381094481e+01	 1.000014415549158e+01
0	 3.571445238150555e+01	 4.142847853884783e+01	 1.000013027961323e+01
0	 3.571445238150555e+01	 4.214273393337327e+01	 1.000014246147937e+01
0	 3.571445238150556e+01	 4.285699007784908e+01	 1.000018148416476e+01
0	 2.857145634928704e+01	 4.285699007784908e+01	 1.000038671982986e+01
0	 2.857145634928704e+01	 4.357129694500738e+01	 1.000021861508850e+01
0	 2.857145634928704e+01	 4.428560406221392e+01	 1.000008397382839e+01
0	 2.857145634928704e+01	 4.499991084612204e+01	 9.999983621635764e+00
0	 2.857145634928704e+01	 4.571421671338500e+01	 9.999918384304602e+00
0	 2.857145634928704e+01	 4.642852108065615e+01	 9.999889087836614e+00
0	 2.857145634928703e+01	 4.714282336458874e+01	 9.999896558441158e+00
0	 2.857145634928704e+01	 4.785712298183613e+01	 9.999941622535289e+00
0	 2.857145634928704e+01	 4.857141934905160e+01	 1.000002510674382e+01
0	 2.857145634928704e+01	 4.928571188288845e+01	 1.000014783789928e+01
0	 2.857145634928704e+01	 5.000000000000000e+01	 1.000031064304192e+01
0	 2.928575120249185e+01	 4.285699007784907e+01	 1.000034978925337e+01
0	 2.928575120249186e+01	 4.357129694500737e+01	 1.000018357292437e+01
0	 2.928575120249186e+01	 4.428560406221393e+01	 1.000005628276879e+01
0	 2.928575120249186e+01	 4.499991084612202e+01	 9.999966593003469e+00
0	 2.928575120249186e+01	 4.571421671338500e+01	 9.999913178051616e+00
0	 2.928575120249186e+01	 4.642852108065615e+01	 9.999894712542819e+00
0	 2.928575120249185e+01	 4.714282336458874e+01	 9.999909871313081e+00
0	 2.928575120249186e+01	 4.785712298183613e+01	 9.999957329404701e+00
0	 2.928575120249186e+01	 4.857141934905161e+01	 1.000003576206647e+01
0	 2.928575120249186e+01	 4.928571188288846e+01	 1.000014384475355e+01
0	 2.928575120249186e+01	 5.000000000000000e+01	 1.000028025312743e+01
0	 3.000004755570247e+01	 4.285699007784908e+01	 1.000031260879566e+01
0	 3.000004755570248e+01	 4.357129694500736e+01	 1.000015965116770e+01
0	 3.000004755570247e+01	 4.428560406221392e+01	 1.000004677658674e+01
0	 3.000004755570247e+01	 4.499991084612203e+01	 9.999970936072890e+00
0	 3.000004755570248e+01	 4.571421671338500e+01	 9.999929080835486e+00
0	 3.000004755570247e+01	 4.642852108065615e+01	 9.999918162273190e+00
0	 3.000004755570247e+01	 4.714282336458875e+01	 9.999935131973842e+00
0	 3.000004755570248e+01	 4.785712298183612e+01	 9.999976941714666e+00
0	 3.000004755570248e+01	 4.857141934905160e+01	 1.000004054346206e+01
0	 3.000004755570247e+01	 4.928571188288844e+01	 1.000012288937173e+01
0	 3.000004755570248e+01	 4.999999999999999e+01	 1.000022093178875e+01
0	 3.071434524225147e+01	 4.285699007784906e+01	 1.000027663938796e+01
0	 3.071434524225148e+01	 4.357129694500737e+01	 1.000014566070489e+01
0	 3.071434524225148e+01	 4.428560406221393e+01	 1.000005235097667e+01
0	 3.071434524225148e+01	 4.499991084612203e+01	 9.999992366191055e+00
0	 3.071434524225148e+01	 4.571421671338500e+01	 9.999961362495775e+00
0	 3.071434524225148e+01	 4.642852108065614e+01	 9.999954996198504e+00
0	 3.071434524225147e+01	 4.714282336458874e+01	 9.999968923766861e+00
0	 3.071434524225148e+01	 4.785712298183613e+01	 9.999998801828440e+00
0	 3.071434524225148e+01	 4.857141934905160e+01	 1.000004028717073e+01
0	 3.071434524225148e+01	 4.928571188288846e+01	 1.000008903674127e+01
0	 3.071434524225148e+01	 5.000000000000000e+01	 1.000014070764758e+01
0	 3.142864409547142e+01	 4.285699007784908e+01	 1.000024334197587e+01
0	 3.142864409547142e+01	 4.357129694500738e+01	 1.000014041243582e+01
0	 3.142864409547143e+01	 4.428560406221393e+01	 1.000006990164415e+01
0	 3.142864409547142e+01	 4.499991084612203e+01	 1.000002659871296e+01
0	 3.142864409547142e+01	 4.571421671338500e+01	 1.000000529287644e+01
0	 3.142864409547143e+01	 4.642852108065613e+01	 1.000000077349079e+01
0	 3.142864409547143e+01	 4.714282336458875e+01	 1.000000783003423e+01
0	 3.142864409547142e+01	 4.785712298183613e+01	 1.000002125210707e+01
0	 3.142864409547142e+01	 4.857141934905159e+01	 1.000003582943168e+01
0	 3.142864409547142e+01	 4.928571188288846e+01	 1.000004635185243e+01
0	 3.142864409547142e+01	 4.999999999999999e+01	 1.000004760933574e+01
0	 3.214294394869491e+01	 4.285699007784907e+01	 1.000021417751927e+01
0	 3.214294394869491e+01	 4.357129694500737e+01	 1.000014271727387e+01
0	 3.214294394869491e+01	 4.428560406221393e+01	 1.000009632430593e+01
0	 3.214294394869491e+01	 4.499991084612203e+01	 1.000006934900152e+01
0	 3.214294394869491e+01	 4.571421671338501e+01	 1.000005614182578e+01
0	 3.214294394869492e+01	 4.642852108065613e+01	 1.000005105332305e+01
0	 3.214294394869491e+01	 4.714282336458875e+01	 1.000004843411677e+01
0	 3.214294394869491e+01	 4.785712298183613e+01	 1.000004263490949e+01
0	 3.214294394869491e+01	 4.857141934905160e+01	 1.000002800648302e+01
0	 3.214294394869491e+01	 4.928571188288846e+01	 9.999998899698141e+00
0	 3.214294394869492e+01	 5.000000000000000e+01	 9.999949665495027e+00
0	 3.285724463525451e+01	 4.285699007784908e+01	 1.000019060699232e+01
0	 3.285724463525451e+01	 4.357129694500737e+01	 1.000015138614586e+01
0	 3.285724463525450e+01	 4.428560406221391e+01	 1.000012851468995e+01
0	 3.285724463525450e+01	 4.499991084612203e+01	 1.000011633242757e+01
0	 3.285724463525451e+01	 4.571421671338500e+01	 1.000010917919651e+01
0	 3.285724463525451e+01	 4.642852108065614e+01	 1.000010139486951e+01
0	 3.285724463525451e+01	 4.714282336458874e+01	 1.000008731935399e+01
0	 3.285724463525450e+01	 4.785712298183613e+01	 1.000006129259238e+01
0	 3.285724463525450e+01	 4.857141934905159e+01	 1.000001765456184e+01
0	 3.285724463525451e+01	 4.928571188288845e+01	 9.999950745274441e+00
0	 3.285724463525451e+01	 4.999999999999999e+01	 9.999854904777029e+00
0	 3.357154598848280e+01	 4.285699007784907e+01	 1.000017409138348e+01
0	 3.357154598848280e+01	 4.357129694500738e+01	 1.000016522999219e+01
0	 3.357154598848280e+01	 4.428560406221391e+01	 1.000016336853530e+01
0	 3.357154598848280e+01	 4.499991084612202e+01	 1.000016326436988e+01
0	 3.357154598848280e+01	 4.571421671338501e+01	 1.000015967484572e+01
0	 3.357154598848279e+01	 4.642852108065612e+01	 1.000014735730539e+01
0	 3.357154598848280e+01	 4.714282336458875e+01	 1.000012106908424e+01
0	 3.357154598848278e+01	 4.785712298183611e+01	 1.000007556751028e+01
0	 3.357154598848280e+01	 4.857141934905160e+01	 1.000000560990436e+01
0	 3.357154598848280e+01	 4.928571188288846e+01	 9.999905953580072e+00
0	 3.357154598848280e+01	 5.000000000000000e+01	 9.999771355843714e+00
0	 3.428584784171236e+01	 4.285699007784908e+01	 1.000016609169553e+01
0	 3.428584784171235e+01	 4.357129694500737e+01	 1.000018305976668e+01
0	 3.428584784171234e+01	 4.428560406221391e+01	 1.000019778159223e+01
0	 3.428584784171235e+01	 4.499991084612203e+01	 1.000020586021516e+01
0	 3.428584784171235e+01	 4.571421671338499e+01	 1.000020289863483e+01
0	 3.428584784171235e+01	 4.642852108065614e+01	 1.000018449980714e+01
0	 3.428584784171235e+01	 4.714282336458875e+01	 1.000014626664444e+01
0	 3.428584784171235e+01	 4.785712298183614e+01	 1.000008380201554e+01
0	 3.428584784171235e+01	 4.857141934905160e+01	 9.999992708745710e+00
0	 3.428584784171235e+01	 4.928571188288846e+01	 9.999868589616657e+00
0	 3.428584784171235e+01	 4.999999999999999e+01	 9.999707047366664e+00
0	 3.500015002827575e+01	 4.285699007784908e+01	 1.000016806894550e+01
0	 3.500015002827575e+01	 4.357129694500737e+01	 1.000020368643665e+01
0	 3.500015002827575e+01	 4.428560406221392e+01	 1.000022864962219e+01
0	 3.500015002827575e+01	 4.499991084612203e+01	 1.000023983535804e+01
0	 3.500015002827575e+01	 4.571421671338499e+01	 1.000023412042970e+01
0	 3.500015002827575e+01	 4.642852108065614e+01	 1.000020838155224e+01
0	 3.500015002827575e+01	 4.714282336458875e+01	 1.000015949537036e+01
0	 3.500015002827575e+01	 4.785712298183614e+01	 1.000008433845832e+01
0	 3.500015002827574e+01	 4.857141934905159e+01	 9.999979787319933e+00
0	 3.500015002827575e+01	 4.928571188288846e+01	 9.999842718388727e+00
0	 3.500015002827575e+01	 5.000000000000001e+01	 9.999670008027682e+00
0	 3.571445238150556e+01	 4.285699007784908e+01	 1.000018148416476e+01
0	 3.571445238150555e+01	 4.357129694500737e+01	 1.000022592098291e+01
0	 3.571445238150556e+01	 4.428560406221391e+01	 1.000025286839775e+01
0	 3.571445238150556e+01	 4.499991084612203e+01	 1.000026090520112e+01
0	 3.571445238150556e+01	 4.571421671338500e+01	 1.000024861010055e+01
0	 3.571445238150556e+01	 4.642852108065614e+01	 1.000021456171931e+01
0	 3.571445238150556e+01	 4.714282336458874e+01	 1.000015733859641e+01
0	 3.571445238150555e+01	 4.785712298183612e+01	 1.000007551918662e+01
0	 3.571445238150555e+01	 4.857141934905161e+01	 9.999967681860278e+00
0	 3.571445238150555e+01	 4.928571188288847e+01	 9.999832404903600e+00
0	 3.571445238150555e+01	 5.000000000000000e+01	 9.999668266518508e+00
0	 3.571445238150555e+01	 0.000000000000000e+00	 9.998719385898998e+00
0	 3.571445238150555e+01	 7.142881171115513e-01	 9.999563253155701e+00
0	 3.571445238150556e+01	 1.428580650948409e+00	 1.000036454407546e+01
0	 3.571445238150555e+01	 2.142877018163878e+00	 1.000109917830206e+01
0	 3.571445238150556e+01	 2.857176635411264e+00	 1.000174307456168e+01
0	 3.571445238150555e+01	 3.571478919343873e+00	 1.000227215066299e+01
0	 3.571445238150556e+01	 4.285783286615009e+00	 1.000266232349712e+01
0	 3.571445238150555e+01	 5.000089153877976e+00	 1.000288950903778e+01
0	 3.571445238150555e+01	 5.714395937786081e+00	 1.000292962234127e+01
0	 3.571445238150555e+01	 6.428703054992629e+00	 1.000275857754645e+01
0	 3.571445238150555e+01	 7.143009922150927e+00	 1.000235228787481e+01
0	 3.642870477623359e+01	 0.000000000000000e+00	 9.998326752080917e+00
0	 3.642870477623360e+01	 7.142881171115514e-01	 9.999482799807637e+00
0	 3.642870477623360e+01	 1.428580650948409e+00	 1.000050000233136e+01
0	 3.642870477623360e+01	 2.142877018163879e+00	 1.000136577248029e+01
0	 3.642870477623360e+01	 2.857176635411264e+00	 1.000206752201643e+01
0	 3.642870477623360e+01	 3.571478919343873e+00	 1.000259266163557e+01
0	 3.642870477623360e+01	 4.285783286615009e+00	 1.000292860096742e+01
0	 3.642870477623359e+01	 5.000089153877975e+00	 1.000306274857562e+01
0	 3.642870477623360e+01	 5.714395937786082e+00	 1.000298251195777e+01
0	 3.642870477623360e+01	 6.428703054992630e+00	 1.000267529754549e+01
0	 3.642870477623362e+01	 7.143009922150928e+00	 1.000212851070435e+01
0	 3.714295725428858e+01	 0.000000000000000e+00	 9.998282534040396e+00
0	 3.714295725428858e+01	 7.142881171115513e-01	 9.999553125930811e+00
0	 3.714295725428857e+01	 1.428580650948410e+00	 1.000062840544534e+01
0	 3.714295725428856e+01	 2.142877018163878e+00	 1.000150544260669e+01
0	 3.714295725428856e+01	 2.857176635411264e+00	 1.000218130636747e+01
0	 3.714295725428858e+01	 3.571478919343872e+00	 1.000265306461031e+01
0	 3.714295725428859e+01	 4.285783286615009e+00	 1.000291778414792e+01
0	 3.714295725428856e+01	 5.000089153877974e+00	 1.000297253072309e+01
0	 3.714295725428858e+01	 5.714395937786080e+00	 1.000281436900876e+01
0	 3.714295725428857e+01	 6.428703054992629e+00	 1.000244036260804e+01
0	 3.714295725428855e+01	 7.143009922150926e+00	 1.000184757405420e+01
0	 3.785720989899839e+01	 0.000000000000000e+00	 9.998508214514136e+00
0	 3.785720989899838e+01	 7.142881171115513e-01	 9.999732090046338e+00
0	 3.785720989899839e+01	 1.428580650948409e+00	 1.000073801375574e+01
0	 3.785720989899841e+01	 2.142877018163878e+00	 1.000153087704513e+01
0	 3.785720989899840e+01	 2.857176635411264e+00	 1.000211557035896e+01
0	 3.785720989899839e+01	 3.571478919343872e+00	 1.000249698318333e+01
0	 3.785720989899840e+01	 4.285783286615009e+00	 1.000268000404612e+01
0	 3.785720989899841e+01	 5.000089153877976e+00	 1.000266952051700e+01
0	 3.785720989899841e+01	 5.714395937786081e+00	 1.000247041920746e+01
0	 3.785720989899841e+01	 6.428703054992631e+00	 1.000208758577082e+01
0	 3.785720989899840e+01	 7.143009922150927e+00	 1.000152590490226e+01
0	 3.857146279369101e+01	 0.000000000000000e+00	 9.998925276274383e+00
0	 3.857146279369100e+01	 7.142881171115515e-01	 9.999977550721797e+00
0	 3.857146279369100e+01	 1.428580650948409e+00	 1.000081708765112e+01
0	 3.857146279369101e+01	 2.142877018163878e+00	 1.000145476420771e+01
0	 3.857146279369100e+01	 2.857176635411265e+00	 1.000190145677652e+01
0	 3.857146279369100e+01	 3.571478919343873e+00	 1.000216804098215e+01
0	 3.857146279369101e+01	 4.285783286615009e+00	 1.000226539168887e+01
0	 3.857146279369100e+01	 5.000089153877975e+00	 1.000220438300069e+01
0	 3.857146279369100e+01	 5.714395937786080e+00	 1.000199588826133e+01
0	 3.857146279369101e+01	 6.428703054992628e+00	 1.000165078005428e+01
0	 3.857146279369101e+01	 7.143009922150927e+00	 1.000117993020280e+01
0	 3.928571602169433e+01	 0.000000000000000e+00	 9.999455202128873e+00
0	 3.928571602169432e+01	 7.142881171115514e-01	 1.000024736657124e+01
0	 3.928571602169433e+01	 1.428580650948409e+00	 1.000085388757031e+01
0	 3.928571602169432e+01	 2.142877018163878e+00	 1.000128979255462e+01
0	 3.928571602169433e+01	 2.857176635411265e+00	 1.000157010844722e+01
0	 3.928571602169433e+01	 3.571478919343872e+00	 1.000170986166573e+01
0	 3.928571602169433e+01	 4.285783286615009e+00	 1.000172407812240e+01
0	 3.928571602169433e+01	 5.000089153877975e+00	 1.000162778322402e+01
0	 3.928571602169433e+01	 5.714395937786081e+00	 1.000143600187207e+01
0	 3.928571602169432e+01	 6.428703054992627e+00	 1.000116375846266e+01
0	 3.928571602169433e+01	 7.143009922150926e+00	 1.000082607688651e+01
0	 3.999996966633629e+01	 0.000000000000000e+00	 1.000001947492082e+01
0	 3.999996966633629e+01	 7.142881171115515e-01	 1.000049939625520e+01
0	 3.999996966633628e+01	 1.428580650948410e+00	 1.000083667400244e+01
0	 3.999996966633628e+01	 2.142877018163878e+00	 1.000104865059426e+01
0	 3.999996966633628e+01	 2.857176635411265e+00	 1.000115266823958e+01
0	 3.999996966633629e+01	 3.571478919343873e+00	 1.000116606892448e+01
0	 3.999996966633629e+01	 4.285783286615008e+00	 1.000110619441226e+01
0	 3.999996966633629e+01	 5.000089153877975e+00	 1.000099038624341e+01
0	 3.999996966633628e+01	 5.714395937786079e+00	 1.000083598573566e+01
0	 3.999996966633628e+01	 6.428703054992628e+00	 1.000066033398396e+01
0	 3.999996966633630e+01	 7.143009922150927e+00	 1.000048077186048e+01
0	 4.071422381094481e+01	 0.000000000000000e+00	 1.000053957752898e+01
0	 4.071422381094481e+01	 7.142881171115513e-01	 1.000069149848068e+01
0	 4.071422381094482e+01	 1.428580650948409e+00	 1.000075370748687e+01
0	 4.071422381094482e+01	 2.142877018163878e+00	 1.000074402688320e+01
0	 4.071422381094481e+01	 2.857176635411264e+00	 1.000068027906359e+01
0	 4.071422381094479e+01	 3.571478919343872e+00	 1.000058028648019e+01
0	 4.071422381094481e+01	 4.285783286615009e+00	 1.000046187164338e+01
0	 4.071422381094481e+01	 5.000089153877975e+00	 1.000034285712178e+01
0	 4.071422381094481e+01	 5.714395937786081e+00	 1.000024106554228e+01
0	 4.071422381094481e+01	 6.428703054992629e+00	 1.000017431958995e+01
0	 4.071422381094480e+01	 7.143009922150926e+00	 1.000016044200814e+01
0	 4.142847853884783e+01	 0.000000000000000e+00	 1.000093699286758e+01
0	 4.142847853884783e+01	 7.142881171115512e-01	 1.000078153200115e+01
0	 4.142847853884783e+01	 1.428580650948409e+00	 1.000059324861323e+01
0	 4.142847853884784e+01	 2.142877018163879e+00	 1.000038861002615e+01
0	 4.142847853884783e+01	 2.857176635411265e+00	 1.000018408387069e+01
0	 4.142847853884784e+01	 3.571478919343873e+00	 9.999996138086114e+00
0	 4.142847853884783e+01	 4.285783286615008e+00	 9.999841240920059e+00
0	 4.142847853884784e+01	 5.000089153877975e+00	 9.999735860928645e+00
0	 4.142847853884783e+01	 5.714395937786081e+00	 9.999696466976376e+00
0	 4.142847853884783e+01	 6.428703054992631e+00	 9.999739528236171e+00
0	 4.142847853884784e+01	 7.143009922150928e+00	 9.999881514189376e+00
0	 4.214273393337328e+01	 0.000000000000000e+00	 1.000113320388639e+01
0	 4.214273393337328e+01	 7.142881171115515e-01	 1.000072735561654e+01
0	 4.214273393337328e+01	 1.428580650948410e+00	 1.000034355802142e+01
0	 4.214273393337327e+01	 2.142877018163878e+00	 9.999995088675988e+00
0	 4.214273393337327e+01	 2.857176635411264e+00	 9.999695225653785e+00
0	 4.214273393337327e+01	 3.571478919343873e+00	 9.999457247526909e+00
0	 4.214273393337329e+01	 4.285783286615009e+00	 9.999294433365943e+00
0	 4.214273393337327e+01	 5.000089153877975e+00	 9.999220062739992e+00
0	 4.214273393337329e+01	 5.714395937786081e+00	 9.999247415716642e+00
0	 4.214273393337328e+01	 6.428703054992631e+00	 9.999389772861939e+00
0	 4.214273393337328e+01	 7.143009922150927e+00	 9.999660415240413e+00
0	 4.285699007784908e+01	 0.000000000000000e+00	 1.000104969357064e+01
0	 4.285699007784909e+01	 7.142881171115515e-01	 1.000048682817329e+01
0	 4.285699007784908e+01	 1.428580650948409e+00	 9.999992896401610e+00
0	 4.285699007784908e+01	 2.142877018163878e+00	 9.999576151533770e+00
0	 4.285699007784908e+01	 2.857176635411264e+00	 9.999244847447224e+00
0	 4.285699007784908e+01	 3.571478919343873e+00	 9.999007238618681e+00
0	 4.285699007784908e+01	 4.285783286615009e+00	 9.998871580124032e+00
0	 4.285699007784908e+01	 5.000089153877975e+00	 9.998846127638389e+00
0	 4.285699007784908e+01	 5.714395937786081e+00	 9.998939137436011e+00
0	 4.285699007784907e+01	 6.428703054992629e+00	 9.999158866390319e+00
0	 4.285699007784908e+01	 7.143009922150927e+00	 9.999513571973912e+00
0	 3.571445238150555e+01	 7.143009922150927e+00	 1.000235228787481e+01
0	 3.571445238150555e+01	 7.857266066626719e+00	 1.000184485448240e+01
0	 3.571445238150555e+01	 8.571521461152161e+00	 1.000139366699504e+01
0	 3.571445238150557e+01	 9.285776189055184e+00	 1.000100968229463e+01
0	 3.571445238150557e+01	 1.000003033366371e+01	 1.000070385718085e+01
0	 3.571445238150555e+01	 1.071428397830567e+01	 1.000048714837125e+01
0	 3.571445238150555e+01	 1.142853720630899e+01	 1.000037051250119e+01
0	 3.571445238150555e+01	 1.214279010100160e+01	 1.000036490612391e+01
0	 3.571445238150557e+01	 1.285704274571143e+01	 1.000048128571043e+01
0	 3.571445238150556e+01	 1.357129522376639e+01	 1.000073060764963e+01
0	 3.571445238150556e+01	 1.428554761849444e+01	 1.000112382824820e+01
0	 3.642870477623362e+01	 7.143009922150928e+00	 1.000212851070435e+01
0	 3.642870477623359e+01	 7.857266066626718e+00	 1.000150635933021e+01
0	 3.642870477623359e+01	 8.571521461152159e+00	 1.000098465776119e+01
0	 3.642870477623360e+01	 9.285776189055186e+00	 1.000056836101770e+01
0	 3.642870477623359e+01	 1.000003033366371e+01	 1.000026242402908e+01
0	 3.642870477623360e+01	 1.071428397830567e+01	 1.000007180163361e+01
0	 3.642870477623360e+01	 1.142853720630899e+01	 1.000000144857850e+01
0	 3.642870477623360e+01	 1.214279010100160e+01	 1.000005631951987e+01
0	 3.642870477623361e+01	 1.285704274571143e+01	 1.000024136902280e+01
0	 3.642870477623361e+01	 1.357129522376640e+01	 1.000056155156127e+01
0	 3.642870477623360e+01	 1.428554761849444e+01	 1.000102182151820e+01
0	 3.714295725428855e+01	 7.143009922150926e+00	 1.000184757405420e+01
0	 3.714295725428858e+01	 7.857266066626718e+00	 1.000120610119633e+01
0	 3.714295725428856e+01	 8.571521461152166e+00	 1.000068788677477e+01
0	 3.714295725428858e+01	 9.285776189055184e+00	 1.000029290745132e+01
0	 3.714295725428858e+01	 1.000003033366371e+01	 1.000002113979909e+01
0	 3.714295725428858e+01	 1.071428397830567e+01	 9.999872560302499e+00
0	 3.714295725428857e+01	 1.142853720630899e+01	 9.999847145357343e+00
0	 3.714295725428856e+01	 1.214279010100160e+01	 9.999944871270735e+00
0	 3.714295725428857e+01	 1.285704274571142e+01	 1.000016571426112e+01
0	 3.714295725428858e+01	 1.357129522376639e+01	 1.000050965045831e+01
0	 3.714295725428857e+01	 1.428554761849445e+01	 1.000097665590340e+01
0	 3.785720989899840e+01	 7.143009922150927e+00	 1.000152590490226e+01
0	 3.785720989899840e+01	 7.857266066626719e+00	 1.000094183908566e+01
0	 3.785720989899839e+01	 8.571521461152159e+00	 1.000048585181605e+01
0	 3.785720989899839e+01	 9.285776189055184e+00	 1.000015396491606e+01
0	 3.785720989899840e+01	 1.000003033366371e+01	 9.999942200131002e+00
0	 3.785720989899840e+01	 1.071428397830567e+01	 9.999846579128816e+00
0	 3.785720989899840e+01	 1.142853720630899e+01	 9.999863123500138e+00
0	 3.785720989899840e+01	 1.214279010100160e+01	 9.999987854758270e+00
0	 3.785720989899839e+01	 1.285704274571142e+01	 1.000021679433917e+01
0	 3.785720989899841e+01	 1.357129522376639e+01	 1.000054596360146e+01
0	 3.785720989899840e+01	 1.428554761849444e+01	 1.000097138382645e+01
0	 3.857146279369101e+01	 7.143009922150927e+00	 1.000117993020281e+01
0	 3.857146279369099e+01	 7.857266066626718e+00	 1.000071133197620e+01
0	 3.857146279369100e+01	 8.571521461152164e+00	 1.000036105063867e+01
0	 3.857146279369099e+01	 9.285776189055182e+00	 1.000012217670917e+01
0	 3.857146279369098e+01	 1.000003033366371e+01	 9.999987800647187e+00
0	 3.857146279369100e+01	 1.071428397830567e+01	 9.999951012852758e+00
0	 3.857146279369100e+01	 1.142853720630899e+01	 1.000000490366642e+01
0	 3.857146279369101e+01	 1.214279010100160e+01	 1.000014256336931e+01
0	 3.857146279369100e+01	 1.285704274571142e+01	 1.000035708218303e+01
0	 3.857146279369102e+01	 1.357129522376639e+01	 1.000064155026975e+01
0	 3.857146279369101e+01	 1.428554761849444e+01	 1.000098905773221e+01
0	 3.928571602169433e+01	 7.143009922150926e+00	 1.000082607688652e+01
0	 3.928571602169433e+01	 7.857266066626721e+00	 1.000051233881900e+01
0	 3.928571602169433e+01	 8.571521461152164e+00	 1.000029598096970e+01
0	 3.928571602169433e+01	 9.285776189055184e+00	 1.000016818610460e+01
0	 3.928571602169432e+01	 1.000003033366371e+01	 1.000012013695225e+01
0	 3.928571602169433e+01	 1.071428397830567e+01	 1.000014301620379e+01
0	 3.928571602169433e+01	 1.142853720630899e+01	 1.000022800651286e+01
0	 3.928571602169432e+01	 1.214279010100160e+01	 1.000036629049571e+01
0	 3.928571602169432e+01	 1.285704274571142e+01	 1.000054905073114e+01
0	 3.928571602169432e+01	 1.357129522376640e+01	 1.000076746976051e+01
0	 3.928571602169433e+01	 1.428554761849444e+01	 1.000101273008775e+01
0	 3.999996966633630e+01	 7.143009922150927e+00	 1.000048077186048e+01
0	 3.999996966633629e+01	 7.857266066626719e+00	 1.000034261853818e+01
0	 3.999996966633629e+01	 8.571521461152164e+00	 1.000027314050960e+01
0	 3.999996966633628e+01	 9.285776189055181e+00	 1.000026263635300e+01
0	 3.999996966633628e+01	 1.000003033366371e+01	 1.000030140463302e+01
0	 3.999996966633630e+01	 1.071428397830567e+01	 1.000037974390065e+01
0	 3.999996966633628e+01	 1.142853720630899e+01	 1.000048795269322e+01
0	 3.999996966633628e+01	 1.214279010100160e+01	 1.000061632953443e+01
0	 3.999996966633629e+01	 1.285704274571143e+01	 1.000075517293435e+01
0	 3.999996966633629e+01	 1.357129522376639e+01	 1.000089478138938e+01
0	 3.999996966633630e+01	 1.428554761849444e+01	 1.000102545338230e+01
0	 4.071422381094480e+01	 7.143009922150926e+00	 1.000016044200814e+01
0	 4.071422381094481e+01	 7.857266066626719e+00	 1.000019993003092e+01
0	 4.071422381094482e+01	 8.571521461152162e+00	 1.000027502693225e+01
0	 4.071422381094481e+01	 9.285776189055181e+00	 1.000037617068174e+01
0	 4.071422381094481e+01	 1.000003033366371e+01	 1.000049379925855e+01
0	 4.071422381094482e+01	 1.071428397830567e+01	 1.000061835065136e+01
0	 4.071422381094480e+01	 1.142853720630899e+01	 1.000074026285840e+01
0	 4.071422381094482e+01	 1.214279010100160e+01	 1.000084997388745e+01
0	 4.071422381094482e+01	 1.285704274571142e+01	 1.000093792175580e+01
0	 4.071422381094481e+01	 1.357129522376640e+01	 1.000099454449030e+01
0	 4.071422381094482e+01	 1.428554761849444e+01	 1.000101028012732e+01
0	 4.142847853884784e+01	 7.143009922150928e+00	 9.999881514189376e+00
0	 4.142847853884783e+01	 7.857266066626719e+00	 1.000008203216749e+01
0	 4.142847853884783e+01	 8.571521461152161e+00	 1.000028413788495e+01
0	 4.142847853884783e+01	 9.285776189055182e+00	 1.000047943229489e+01
0	 4.142847853884783e+01	 1.000003033366371e+01	 1.000065951638012e+01
0	 4.142847853884783e+01	 1.071428397830567e+01	 1.000081599115322e+01
0	 4.142847853884782e+01	 1.142853720630899e+01	 1.000094045765645e+01
0	 4.142847853884783e+01	 1.214279010100160e+01	 1.000102451696182e+01
0	 4.142847853884783e+01	 1.285704274571143e+01	 1.000105977017103e+01
0	 4.142847853884784e+01	 1.357129522376640e+01	 1.000103781841551e+01
0	 4.142847853884783e+01	 1.428554761849444e+01	 1.000095026285644e+01
0	 4.214273393337328e+01	 7.143009922150927e+00	 9.999660415240417e+00
0	 4.214273393337326e+01	 7.857266066626718e+00	 9.999986683791196e+00
0	 4.214273393337329e+01	 8.571521461152162e+00	 1.000028297098840e+01
0	 4.214273393337328e+01	 9.285776189055184e+00	 1.000054306437320e+01
0	 4.214273393337328e+01	 1.000003033366371e+01	 1.000076075153127e+01
0	 4.214273393337328e+01	 1.071428397830567e+01	 1.000092982009280e+01
0	 4.214273393337328e+01	 1.142853720630899e+01	 1.000104405773250e+01
0	 4.214273393337326e+01	 1.214279010100160e+01	 1.000109725216961e+01
0	 4.214273393337328e+01	 1.285704274571142e+01	 1.000108319116789e+01
0	 4.214273393337327e+01	 1.357129522376640e+01	 1.000099566253558e+01
0	 4.214273393337328e+01	 1.428554761849444e+01	 1.000082845412550e+01
0	 4.285699007784908e+01	 7.143009922150927e+00	 9.999513571973916e+00
0	 4.285699007784908e+01	 7.857266066626719e+00	 9.999911643718432e+00
0	 4.285699007784907e+01	 8.571521461152162e+00	 1.000025402383672e+01
0	 4.285699007784908e+01	 9.285776189055184e+00	 1.000053771007416e+01
0	 4.285699007784908e+01	 1.000003033366371e+01	 1.000075970022774e+01
0	 4.285699007784908e+01	 1.071428397830567e+01	 1.000091699214594e+01
0	 4.285699007784908e+01	 1.142853720630899e+01	 1.000100658372883e+01
0	 4.285699007784908e+01	 1.214279010100160e+01	 1.000102547292801e+01
0	 4.285699007784907e+01	 1.285704274571142e+01	 1.000097065774663e+01
0	 4.285699007784908e+01	 1.357129522376640e+01	 1.000083913623938e+01
0	 4.285699007784908e+01	 1.428554761849444e+01	 1.000062790651251e+01
0	 3.571445238150556e+01	 1.428554761849444e+01	 1.000112382824820e+01
0	 3.571445238150555e+01	 1.499984997172426e+01	 1.000156465261828e+01
0	 3.571445238150556e+01	 1.571415215828766e+01	 1.000194605119313e+01
0	 3.571445238150557e+01	 1.642845401151722e+01	 1.000226297656065e+01
0	 3.571445238150556e+01	 1.714275536474550e+01	 1.000251038118015e+01
0	 3.571445238150555e+01	 1.785705605130510e+01	 1.000268321738237e+01
0	 3.571445238150555e+01	 1.857135590452859e+01	 1.000277643736941e+01
0	 3.571445238150556e+01	 1.928565475774854e+01	 1.000278499321480e+01
0	 3.571445238150557e+01	 1.999995244429754e+01	 1.000270383686349e+01
0	 3.571445238150557e+01	 2.071424879750816e+01	 1.000252792013181e+01
0	 3.571445238150556e+01	 2.142854365071296e+01	 1.000225219470751e+01
0	 3.642870477623360e+01	 1.428554761849444e+01	 1.000102182151820e+01
0	 3.642870477623359e+01	 1.499984997172426e+01	 1.000151287085989e+01
0	 3.642870477623359e+01	 1.571415215828766e+01	 1.000192109817811e+01
0	 3.642870477623360e+01	 1.642845401151722e+01	 1.000224512934280e+01
0	 3.642870477623359e+01	 1.714275536474550e+01	 1.000248359008893e+01
0	 3.642870477623360e+01	 1.785705605130510e+01	 1.000263510601656e+01
0	 3.642870477623359e+01	 1.857135590452859e+01	 1.000269830259078e+01
0	 3.642870477623360e+01	 1.928565475774854e+01	 1.000267180514178e+01
0	 3.642870477623360e+01	 1.999995244429754e+01	 1.000255423886476e+01
0	 3.642870477623359e+01	 2.071424879750814e+01	 1.000234422882001e+01
0	 3.642870477623360e+01	 2.142854365071297e+01	 1.000204039993285e+01
0	 3.714295725428857e+01	 1.428554761849445e+01	 1.000097665590340e+01
0	 3.714295725428856e+01	 1.499984997172426e+01	 1.000145822831201e+01
0	 3.714295725428857e+01	 1.571415215828766e+01	 1.000184689419655e+01
0	 3.714295725428857e+01	 1.642845401151722e+01	 1.000214428362861e+01
0	 3.714295725428858e+01	 1.714275536474550e+01	 1.000235202655252e+01
0	 3.714295725428858e+01	 1.785705605130510e+01	 1.000247175278535e+01
0	 3.714295725428858e+01	 1.857135590452858e+01	 1.000250509201683e+01
0	 3.714295725428857e+01	 1.928565475774854e+01	 1.000245367380951e+01
0	 3.714295725428858e+01	 1.999995244429754e+01	 1.000231912759857e+01
0	 3.714295725428858e+01	 2.071424879750816e+01	 1.000210308269196e+01
0	 3.714295725428858e+01	 2.142854365071296e+01	 1.000180716827031e+01
0	 3.785720989899840e+01	 1.428554761849444e+01	 1.000097138382645e+01
0	 3.785720989899840e+01	 1.499984997172426e+01	 1.000139636854566e+01
0	 3.785720989899840e+01	 1.571415215828766e+01	 1.000172946121360e+01
0	 3.785720989899839e+01	 1.642845401151722e+01	 1.000197462702743e+01
0	 3.785720989899841e+01	 1.714275536474550e+01	 1.000213583107563e+01
0	 3.785720989899840e+01	 1.785705605130510e+01	 1.000221703833799e+01
0	 3.785720989899840e+01	 1.857135590452858e+01	 1.000222221368558e+01
0	 3.785720989899840e+01	 1.928565475774854e+01	 1.000215532188077e+01
0	 3.785720989899840e+01	 1.999995244429753e+01	 1.000202032757723e+01
0	 3.785720989899840e+01	 2.071424879750816e+01	 1.000182119531991e+01
0	 3.785720989899839e+01	 2.142854365071296e+01	 1.000156188954506e+01
0	 3.857146279369101e+01	 1.428554761849444e+01	 1.000098905773221e+01
0	 3.857146279369100e+01	 1.499984997172426e+01	 1.000132293515537e+01
0	 3.857146279369101e+01	 1.571415215828766e+01	 1.000157482121692e+01
0	 3.857146279369101e+01	 1.642845401151721e+01	 1.000175034716823e+01
0	 3.857146279369100e+01	 1.714275536474550e+01	 1.000185514417835e+01
0	 3.857146279369100e+01	 1.785705605130510e+01	 1.000189484333403e+01
0	 3.857146279369101e+01	 1.857135590452858e+01	 1.000187507563970e+01
0	 3.857146279369099e+01	 1.928565475774854e+01	 1.000180147201745e+01
0	 3.857146279369100e+01	 1.999995244429754e+01	 1.000167966330710e+01
0	 3.857146279369100e+01	 2.071424879750815e+01	 1.000151528026610e+01
0	 3.857146279369100e+01	 2.142854365071296e+01	 1.000131395356964e+01
0	 3.928571602169433e+01	 1.428554761849444e+01	 1.000101273008775e+01
0	 3.928571602169431e+01	 1.499984997172426e+01	 1.000123357175915e+01
0	 3.928571602169433e+01	 1.571415215828766e+01	 1.000138899621667e+01
0	 3.928571602169433e+01	 1.642845401151722e+01	 1.000148563169964e+01
0	 3.928571602169431e+01	 1.714275536474550e+01	 1.000153010639619e+01
0	 3.928571602169432e+01	 1.785705605130509e+01	 1.000152904844327e+01
0	 3.928571602169432e+01	 1.857135590452858e+01	 1.000148908592657e+01
0	 3.928571602169433e+01	 1.928565475774854e+01	 1.000141684688060e+01
0	 3.928571602169433e+01	 1.999995244429753e+01	 1.000131895928865e+01
0	 3.928571602169433e+01	 2.071424879750816e+01	 1.000120205108281e+01
0	 3.928571602169432e+01	 2.142854365071296e+01	 1.000107275014393e+01
0	 3.999996966633630e+01	 1.428554761849444e+01	 1.000102545338230e+01
0	 3.999996966633629e+01	 1.499984997172427e+01	 1.000112392199850e+01
0	 3.999996966633628e+01	 1.571415215828766e+01	 1.000117800824544e+01
0	 3.999996966633630e+01	 1.642845401151722e+01	 1.000119466828988e+01
0	 3.999996966633629e+01	 1.714275536474550e+01	 1.000118085828007e+01
0	 3.999996966633628e+01	 1.785705605130510e+01	 1.000114353434577e+01
0	 3.999996966633628e+01	 1.857135590452858e+01	 1.000108965259829e+01
0	 3.999996966633628e+01	 1.928565475774854e+01	 1.000102616913041e+01
0	 3.999996966633628e+01	 1.999995244429753e+01	 1.000096004001645e+01
0	 3.999996966633629e+01	 2.071424879750816e+01	 1.000089822131226e+01
0	 3.999996966633628e+01	 2.142854365071296e+01	 1.000084766905515e+01
0	 4.071422381094482e+01	 1.428554761849444e+01	 1.000101028012732e+01
0	 4.071422381094480e+01	 1.499984997172426e+01	 1.000098962953846e+01
0	 4.071422381094482e+01	 1.571415215828767e+01	 1.000094787935841e+01
0	 4.071422381094481e+01	 1.642845401151721e+01	 1.000089164462687e+01
0	 4.071422381094481e+01	 1.714275536474550e+01	 1.000082754039629e+01
0	 4.071422381094482e+01	 1.785705605130510e+01	 1.000076218173188e+01
0	 4.071422381094482e+01	 1.857135590452859e+01	 1.000070218371160e+01
0	 4.071422381094481e+01	 1.928565475774854e+01	 1.000065416142620e+01
0	 4.071422381094482e+01	 1.999995244429754e+01	 1.000062472997916e+01
0	 4.071422381094482e+01	 2.071424879750816e+01	 1.000062050448671e+01
0	 4.071422381094481e+01	 2.142854365071296e+01	 1.000064810007787e+01
0	 4.142847853884783e+01	 1.428554761849444e+01	 1.000095026285644e+01
0	 4.142847853884783e+01	 1.499984997172426e+01	 1.000082633806752e+01
0	 4.142847853884783e+01	 1.571415215828766e+01	 1.000070463163314e+01
0	 4.142847853884783e+01	 1.642845401151722e+01	 1.000059074841810e+01
0	 4.142847853884783e+01	 1.714275536474550e+01	 1.000049029332657e+01
0	 4.142847853884784e+01	 1.785705605130509e+01	 1.000040887130218e+01
0	 4.142847853884784e+01	 1.857135590452858e+01	 1.000035208732798e+01
0	 4.142847853884783e+01	 1.928565475774854e+01	 1.000032554642644e+01
0	 4.142847853884784e+01	 1.999995244429754e+01	 1.000033485365947e+01
0	 4.142847853884783e+01	 2.071424879750816e+01	 1.000038561412842e+01
0	 4.142847853884782e+01	 2.142854365071296e+01	 1.000048343297401e+01
0	 4.214273393337328e+01	 1.428554761849444e+01	 1.000082845412550e+01
0	 4.214273393337327e+01	 1.499984997172426e+01	 1.000062969129770e+01
0	 4.214273393337328e+01	 1.571415215828766e+01	 1.000045428716977e+01
0	 4.214273393337328e+01	 1.642845401151721e+01	 1.000030616739075e+01
0	 4.214273393337329e+01	 1.714275536474550e+01	 1.000018925766804e+01
0	 4.214273393337327e+01	 1.785705605130510e+01	 1.000010748376754e+01
0	 4.214273393337327e+01	 1.857135590452858e+01	 1.000006477151355e+01
0	 4.214273393337328e+01	 1.928565475774854e+01	 1.000006504678873e+01
0	 4.214273393337328e+01	 1.999995244429753e+01	 1.000011223553424e+01
0	 4.214273393337327e+01	 2.071424879750816e+01	 1.000021026374962e+01
0	 4.214273393337327e+01	 2.142854365071296e+01	 1.000036305749283e+01
0	 4.285699007784908e+01	 1.428554761849444e+01	 1.000062790651251e+01
0	 4.285699007784907e+01	 1.499984997172426e+01	 1.000039533296452e+01
0	 4.285699007784906e+01	 1.571415215828766e+01	 1.000020286809089e+01
0	 4.285699007784907e+01	 1.642845401151721e+01	 1.000005208929158e+01
0	 4.285699007784908e+01	 1.714275536474550e+01	 9.999944574033238e+00
0	 4.285699007784907e+01	 1.785705605130510e+01	 9.999881899849122e+00
0	 4.285699007784908e+01	 1.857135590452858e+01	 9.999865644339135e+00
0	 4.285699007784908e+01	 1.928565475774854e+01	 9.999897385169817e+00
0	 4.285699007784908e+01	 1.999995244429753e+01	 9.999978700074353e+00
0	 4.285699007784907e+01	 2.071424879750816e+01	 1.000011116685258e+01
0	 4.285699007784908e+01	 2.142854365071297e+01	 1.000029636337094e+01
0	 3.571445238150556e+01	 2.142854365071296e+01	 1.000225219470751e+01
0	 3.571445238150555e+01	 2.214283692057824e+01	 1.000194177250845e+01
0	 3.571445238150556e+01	 2.285712885710494e+01	 1.000166678702533e+01
0	 3.571445238150555e+01	 2.357141979362770e+01	 1.000142972211225e+01
0	 3.571445238150556e+01	 2.428571006348118e+01	 1.000123306149457e+01
0	 3.571445238150555e+01	 2.500000000000000e+01	 1.000107928876903e+01
0	 3.571445238150556e+01	 2.571428993651884e+01	 1.000097088740366e+01
0	 3.571445238150556e+01	 2.642858020637231e+01	 1.000091034073783e+01
0	 3.571445238150555e+01	 2.714287114289507e+01	 1.000090013198221e+01
0	 3.571445238150556e+01	 2.785716307942177e+01	 1.000094274421884e+01
0	 3.571445238150555e+01	 2.857145634928703e+01	 1.000104066040102e+01
0	 3.642870477623360e+01	 2.142854365071297e+01	 1.000204039993285e+01
0	 3.642870477623360e+01	 2.214283692057824e+01	 1.000171394384851e+01
0	 3.642870477623360e+01	 2.285712885710494e+01	 1.000143701980726e+01
0	 3.642870477623361e+01	 2.357141979362770e+01	 1.000120970392442e+01
0	 3.642870477623360e+01	 2.428571006348118e+01	 1.000103207218021e+01
0	 3.642870477623360e+01	 2.500000000000000e+01	 1.000090420041969e+01
0	 3.642870477623359e+01	 2.571428993651883e+01	 1.000082616435280e+01
0	 3.642870477623360e+01	 2.642858020637231e+01	 1.000079803955434e+01
0	 3.642870477623360e+01	 2.714287114289507e+01	 1.000081990146401e+01
0	 3.642870477623360e+01	 2.785716307942177e+01	 1.000089182538631e+01
0	 3.642870477623360e+01	 2.857145634928704e+01	 1.000101388649067e+01
0	 3.714295725428858e+01	 2.142854365071296e+01	 1.000180716827031e+01
0	 3.714295725428858e+01	 2.214283692057824e+01	 1.000150012712145e+01
0	 3.714295725428857e+01	 2.285712885710494e+01	 1.000124836946328e+01
0	 3.714295725428858e+01	 2.357141979362769e+01	 1.000105002543262e+01
0	 3.714295725428857e+01	 2.428571006348118e+01	 1.000090322504180e+01
0	 3.714295725428857e+01	 2.500000000000001e+01	 1.000080609817860e+01
0	 3.714295725428857e+01	 2.571428993651883e+01	 1.000075677460626e+01
0	 3.714295725428858e+01	 2.642858020637231e+01	 1.000075338396348e+01
0	 3.714295725428858e+01	 2.714287114289507e+01	 1.000079405576443e+01
0	 3.714295725428858e+01	 2.785716307942177e+01	 1.000087691939869e+01
0	 3.714295725428857e+01	 2.857145634928703e+01	 1.000100010413136e+01
0	 3.785720989899839e+01	 2.142854365071296e+01	 1.000156188954506e+01
0	 3.785720989899839e+01	 2.214283692057824e+01	 1.000130197541267e+01
0	 3.785720989899840e+01	 2.285712885710493e+01	 1.000109613918644e+01
0	 3.785720989899840e+01	 2.357141979362770e+01	 1.000094102680115e+01
0	 3.785720989899839e+01	 2.428571006348117e+01	 1.000083328409077e+01
0	 3.785720989899841e+01	 2.500000000000001e+01	 1.000076955678849e+01
0	 3.785720989899838e+01	 2.571428993651883e+01	 1.000074649052672e+01
0	 3.785720989899840e+01	 2.642858020637231e+01	 1.000076073083709e+01
0	 3.785720989899841e+01	 2.714287114289509e+01	 1.000080892315045e+01
0	 3.785720989899840e+01	 2.785716307942177e+01	 1.000088771279686e+01
0	 3.785720989899839e+01	 2.857145634928704e+01	 1.000099374500561e+01
0	 3.857146279369100e+01	 2.142854365071296e+01	 1.000131395356964e+01
0	 3.857146279369100e+01	 2.214283692057824e+01	 1.000112114179401e+01
0	 3.857146279369100e+01	 2.285712885710494e+01	 1.000097563215703e+01
0	 3.857146279369102e+01	 2.357141979362770e+01	 1.000087304818352e+01
0	 3.857146279369102e+01	 2.428571006348118e+01	 1.000080901333057e+01
0	 3.857146279369100e+01	 2.500000000000000e+01	 1.000077915098755e+01
0	 3.857146279369101e+01	 2.571428993651885e+01	 1.000077908447607e+01
0	 3.857146279369100e+01	 2.642858020637232e+01	 1.000080443704999e+01
0	 3.857146279369101e+01	 2.714287114289507e+01	 1.000085083189543e+01
0	 3.857146279369100e+01	 2.785716307942177e+01	 1.000091389213079e+01
0	 3.857146279369101e+01	 2.857145634928704e+01	 1.000098924080669e+01
0	 3.928571602169432e+01	 2.142854365071296e+01	 1.000107275014393e+01
0	 3.928571602169433e+01	 2.214283692057824e+01	 1.000095927932385e+01
0	 3.928571602169432e+01	 2.285712885710494e+01	 1.000088215154243e+01
0	 3.928571602169432e+01	 2.357141979362771e+01	 1.000083642972229e+01
0	 3.928571602169432e+01	 2.428571006348117e+01	 1.000081717675664e+01
0	 3.928571602169433e+01	 2.500000000000001e+01	 1.000081945550949e+01
0	 3.928571602169432e+01	 2.571428993651883e+01	 1.000083832881549e+01
0	 3.928571602169432e+01	 2.642858020637231e+01	 1.000086885948000e+01
0	 3.928571602169433e+01	 2.714287114289508e+01	 1.000090611027909e+01
0	 3.928571602169433e+01	 2.785716307942177e+01	 1.000094514395949e+01
0	 3.928571602169433e+01	 2.857145634928704e+01	 1.000098102323865e+01
0	 3.999996966633628e+01	 2.142854365071296e+01	 1.000084766905515e+01
0	 3.999996966633629e+01	 2.214283692057824e+01	 1.000081804104694e+01
0	 3.999996966633628e+01	 2.285712885710493e+01	 1.000081100049723e+01
0	 3.999996966633628e+01	 2.357141979362770e+01	 1.000082151154910e+01
0	 3.999996966633629e+01	 2.428571006348117e+01	 1.000084453835637e+01
0	 3.999996966633629e+01	 2.500000000000001e+01	 1.000087504508344e+01
0	 3.999996966633630e+01	 2.571428993651884e+01	 1.000090799590540e+01
0	 3.999996966633628e+01	 2.642858020637231e+01	 1.000093835500796e+01
0	 3.999996966633630e+01	 2.714287114289509e+01	 1.000096108658749e+01
0	 3.999996966633629e+01	 2.785716307942177e+01	 1.000097115485105e+01
0	 3.999996966633628e+01	 2.857145634928704e+01	 1.000096352401629e+01
0	 4.071422381094481e+01	 2.142854365071296e+01	 1.000064810007787e+01
0	 4.071422381094480e+01	 2.214283692057824e+01	 1.000069907999457e+01
0	 4.071422381094482e+01	 2.285712885710494e+01	 1.000075748216311e+01
0	 4.071422381094480e+01	 2.357141979362770e+01	 1.000081863378479e+01
0	 4.071422381094480e+01	 2.428571006348118e+01	 1.000087786210918e+01
0	 4.071422381094480e+01	 2.500000000000001e+01	 1.000093049443406e+01
0	 4.071422381094480e+01	 2.571428993651884e+01	 1.000097185810547e+01
0	 4.071422381094482e+01	 2.642858020637231e+01	 1.000099728051765e+01
0	 4.071422381094482e+01	 2.714287114289507e+01	 1.000100208911313e+01
0	 4.071422381094480e+01	 2.785716307942177e+01	 1.000098161138262e+01
0	 4.071422381094482e+01	 2.857145634928704e+01	 1.000093117486511e+01
0	 4.142847853884782e+01	 2.142854365071296e+01	 1.000048343297401e+01
0	 4.142847853884783e+01	 2.214283692057824e+01	 1.000060404918444e+01
0	 4.142847853884783e+01	 2.285712885710494e+01	 1.000071689966896e+01
0	 4.142847853884783e+01	 2.357141979362770e+01	 1.000081813653922e+01
0	 4.142847853884784e+01	 2.428571006348118e+01	 1.000090391198646e+01
0	 4.142847853884783e+01	 2.500000000000000e+01	 1.000097037828148e+01
0	 4.142847853884784e+01	 2.571428993651885e+01	 1.000101368777465e+01
0	 4.142847853884783e+01	 2.642858020637231e+01	 1.000102999289592e+01
0	 4.142847853884783e+01	 2.714287114289507e+01	 1.000101544615482e+01
0	 4.142847853884783e+01	 2.785716307942177e+01	 1.000096620014041e+01
0	 4.142847853884782e+01	 2.857145634928703e+01	 1.000087840752140e+01
0	 4.214273393337327e+01	 2.142854365071296e+01	 1.000036305749283e+01
0	 4.214273393337328e+01	 2.214283692057824e+01	 1.000053460162072e+01
0	 4.214273393337327e+01	 2.285712885710494e+01	 1.000068455613080e+01
0	 4.214273393337328e+01	 2.357141979362770e+01	 1.000081035991139e+01
0	 4.214273393337328e+01	 2.428571006348118e+01	 1.000090945195159e+01
0	 4.214273393337328e+01	 2.500000000000000e+01	 1.000097927134128e+01
0	 4.214273393337328e+01	 2.571428993651884e+01	 1.000101725727113e+01
0	 4.214273393337329e+01	 2.642858020637231e+01	 1.000102084903255e+01
0	 4.214273393337327e+01	 2.714287114289507e+01	 1.000098748601776e+01
0	 4.214273393337329e+01	 2.785716307942178e+01	 1.000091460771972e+01
0	 4.214273393337328e+01	 2.857145634928704e+01	 1.000079965373221e+01
0	 4.285699007784908e+01	 2.142854365071297e+01	 1.000029636337094e+01
0	 4.285699007784907e+01	 2.214283692057824e+01	 1.000049239029409e+01
0	 4.285699007784908e+01	 2.285712885710493e+01	 1.000065575465185e+01
0	 4.285699007784908e+01	 2.357141979362770e+01	 1.000078564398940e+01
0	 4.285699007784908e+01	 2.428571006348117e+01	 1.000088124595993e+01
0	 4.285699007784908e+01	 2.500000000000001e+01	 1.000094174832456e+01
0	 4.285699007784907e+01	 2.571428993651883e+01	 1.000096633895234e+01
0	 4.285699007784907e+01	 2.642858020637231e+01	 1.000095420582034e+01
0	 4.285699007784906e+01	 2.714287114289507e+01	 1.000090453701353e+01
0	 4.285699007784908e+01	 2.785716307942178e+01	 1.000081652072489e+01
0	 4.285699007784907e+01	 2.857145634928704e+01	 1.000068934525533e+01
0	 3.571445238150555e+01	 2.857145634928703e+01	 1.000104066040102e+01
0	 3.571445238150555e+01	 2.928575120249185e+01	 1.000115584101548e+01
0	 3.571445238150555e+01	 3.000004755570247e+01	 1.000124735590324e+01
0	 3.571445238150556e+01	 3.071434524225148e+01	 1.000131335191728e+01
0	 3.571445238150556e+01	 3.142864409547142e+01	 1.000135197586347e+01
0	 3.571445238150556e+01	 3.214294394869491e+01	 1.000136137450057e+01
0	 3.571445238150555e+01	 3.285724463525451e+01	 1.000133969454026e+01
0	 3.571445238150555e+01	 3.357154598848280e+01	 1.000128508264711e+01
0	 3.571445238150555e+01	 3.428584784171235e+01	 1.000119568543859e+01
0	 3.571445238150556e+01	 3.500015002827574e+01	 1.000106964948509e+01
0	 3.571445238150555e+01	 3.571445238150556e+01	 1.000090512130986e+01
0	 3.642870477623360e+01	 2.857145634928704e+01	 1.000101388649067e+01
0	 3.642870477623360e+01	 2.928575120249186e+01	 1.000114470705212e+01
0	 3.642870477623359e+01	 3.000004755570247e+01	 1.000124275109924e+01
0	 3.642870477623360e+01	 3.071434524225148e+01	 1.000130785629417e+01
0	 3.642870477623361e+01	 3.142864409547143e+01	 1.000133986025063e+01
0	 3.642870477623359e+01	 3.214294394869492e+01	 1.000133860053397e+01
0	 3.642870477623359e+01	 3.285724463525450e+01	 1.000130391466114e+01
0	 3.642870477623359e+01	 3.357154598848280e+01	 1.000123564010068e+01
0	 3.642870477623359e+01	 3.428584784171234e+01	 1.000113361427278e+01
0	 3.642870477623359e+01	 3.500015002827574e+01	 1.000099767454923e+01
0	 3.642870477623360e+01	 3.571445238150555e+01	 1.000082765825341e+01
0	 3.714295725428857e+01	 2.857145634928703e+01	 1.000100010413136e+01
0	 3.714295725428858e+01	 2.928575120249186e+01	 1.000112418348461e+01
0	 3.714295725428857e+01	 3.000004755570248e+01	 1.000121177789084e+01
0	 3.714295725428858e+01	 3.071434524225148e+01	 1.000126408685373e+01
0	 3.714295725428857e+01	 3.142864409547142e+01	 1.000128230983267e+01
0	 3.714295725428857e+01	 3.214294394869491e+01	 1.000126764624273e+01
0	 3.714295725428858e+01	 3.285724463525452e+01	 1.000122129545465e+01
0	 3.714295725428858e+01	 3.357154598848280e+01	 1.000114445679485e+01
0	 3.714295725428856e+01	 3.428584784171234e+01	 1.000103832954547e+01
0	 3.714295725428857e+01	 3.500015002827574e+01	 1.000090411294427e+01
0	 3.714295725428857e+01	 3.571445238150556e+01	 1.000074300618476e+01
0	 3.785720989899839e+01	 2.857145634928704e+01	 1.000099374500561e+01
0	 3.785720989899840e+01	 2.928575120249186e+01	 1.000109368954774e+01
0	 3.785720989899839e+01	 3.000004755570248e+01	 1.000115794103371e+01
0	 3.785720989899840e+01	 3.071434524225147e+01	 1.000118873184917e+01
0	 3.785720989899841e+01	 3.142864409547143e+01	 1.000118829434359e+01
0	 3.785720989899840e+01	 3.214294394869492e+01	 1.000115886083032e+01
0	 3.785720989899840e+01	 3.285724463525450e+01	 1.000110266358654e+01
0	 3.785720989899840e+01	 3.357154598848280e+01	 1.000102193485330e+01
0	 3.785720989899840e+01	 3.428584784171235e+01	 1.000091890683553e+01
0	 3.785720989899840e+01	 3.500015002827575e+01	 1.000079581170197e+01
0	 3.785720989899840e+01	 3.571445238150555e+01	 1.000065488158521e+01
0	 3.857146279369101e+01	 2.857145634928704e+01	 1.000098924080669e+01
0	 3.857146279369100e+01	 2.928575120249186e+01	 1.000105264448744e+01
0	 3.857146279369101e+01	 3.000004755570248e+01	 1.000108474529410e+01
0	 3.857146279369100e+01	 3.071434524225147e+01	 1.000108847954272e+01
0	 3.857146279369100e+01	 3.142864409547142e+01	 1.000106678352424e+01
0	 3.857146279369099e+01	 3.214294394869491e+01	 1.000102259350449e+01
0	 3.857146279369100e+01	 3.285724463525451e+01	 1.000095884572407e+01
0	 3.857146279369100e+01	 3.357154598848278e+01	 1.000087847639855e+01
0	 3.857146279369099e+01	 3.428584784171234e+01	 1.000078442171830e+01
0	 3.857146279369100e+01	 3.500015002827574e+01	 1.000067961784855e+01
0	 3.857146279369101e+01	 3.571445238150555e+01	 1.000056700092940e+01
0	 3.928571602169433e+01	 2.857145634928704e+01	 1.000098102323865e+01
0	 3.928571602169432e+01	 2.928575120249186e+01	 1.000100046756090e+01
0	 3.928571602169433e+01	 3.000004755570248e+01	 1.000099569544875e+01
0	 3.928571602169433e+01	 3.071434524225148e+01	 1.000097001820562e+01
0	 3.928571602169432e+01	 3.142864409547142e+01	 1.000092674712236e+01
0	 3.928571602169433e+01	 3.214294394869492e+01	 1.000086919347727e+01
0	 3.928571602169433e+01	 3.285724463525451e+01	 1.000080066853606e+01
0	 3.928571602169432e+01	 3.357154598848279e+01	 1.000072448355193e+01
0	 3.928571602169434e+01	 3.428584784171237e+01	 1.000064394976548e+01
0	 3.928571602169431e+01	 3.500015002827575e+01	 1.000056237840477e+01
0	 3.928571602169433e+01	 3.571445238150556e+01	 1.000048308068532e+01
0	 3.999996966633628e+01	 2.857145634928704e+01	 1.000096352401629e+01
0	 3.999996966633628e+01	 2.928575120249185e+01	 1.000093657803644e+01
0	 3.999996966633629e+01	 3.000004755570247e+01	 1.000089429628498e+01
0	 3.999996966633628e+01	 3.071434524225147e+01	 1.000084003611815e+01
0	 3.999996966633628e+01	 3.142864409547142e+01	 1.000077715489253e+01
0	 3.999996966633628e+01	 3.214294394869491e+01	 1.000070900996500e+01
0	 3.999996966633629e+01	 3.285724463525451e+01	 1.000063895869283e+01
0	 3.999996966633629e+01	 3.357154598848280e+01	 1.000057035843360e+01
0	 3.999996966633628e+01	 3.428584784171234e+01	 1.000050656654520e+01
0	 3.999996966633631e+01	 3.500015002827576e+01	 1.000045094038589e+01
0	 3.999996966633630e+01	 3.571445238150556e+01	 1.000040683731425e+01
0	 4.071422381094482e+01	 2.857145634928704e+01	 1.000093117486511e+01
0	 4.071422381094482e+01	 2.928575120249186e+01	 1.000086039519364e+01
0	 4.071422381094481e+01	 3.000004755570248e+01	 1.000078405260066e+01
0	 4.071422381094482e+01	 3.071434524225147e+01	 1.000070522156960e+01
0	 4.071422381094481e+01	 3.142864409547142e+01	 1.000062697659614e+01
0	 4.071422381094481e+01	 3.214294394869491e+01	 1.000055239218827e+01
0	 4.071422381094482e+01	 3.285724463525451e+01	 1.000048454286622e+01
0	 4.071422381094481e+01	 3.357154598848280e+01	 1.000042650316253e+01
0	 4.071422381094482e+01	 3.428584784171235e+01	 1.000038134762197e+01
0	 4.071422381094480e+01	 3.500015002827575e+01	 1.000035215080161e+01
0	 4.071422381094482e+01	 3.571445238150556e+01	 1.000034198727080e+01
0	 4.142847853884782e+01	 2.857145634928703e+01	 1.000087840752140e+01
0	 4.142847853884783e+01	 2.928575120249184e+01	 1.000077133832323e+01
0	 4.142847853884783e+01	 3.000004755570248e+01	 1.000066846920418e+01
0	 4.142847853884783e+01	 3.071434524225148e+01	 1.000057226285827e+01
0	 4.142847853884783e+01	 3.142864409547142e+01	 1.000048518200152e+01
0	 4.142847853884783e+01	 3.214294394869491e+01	 1.000040968937196e+01
0	 4.142847853884783e+01	 3.285724463525451e+01	 1.000034824772963e+01
0	 4.142847853884784e+01	 3.357154598848280e+01	 1.000030331985655e+01
0	 4.142847853884784e+01	 3.428584784171235e+01	 1.000027736855673e+01
0	 4.142847853884783e+01	 3.500015002827574e+01	 1.000027285665618e+01
0	 4.142847853884783e+01	 3.571445238150555e+01	 1.000029224700293e+01
0	 4.214273393337328e+01	 2.857145634928704e+01	 1.000079965373221e+01
0	 4.214273393337327e+01	 2.928575120249186e+01	 1.000066882672718e+01
0	 4.214273393337328e+01	 3.000004755570248e+01	 1.000055105091448e+01
0	 4.214273393337327e+01	 3.071434524225148e+01	 1.000044784829148e+01
0	 4.214273393337327e+01	 3.142864409547142e+01	 1.000036074088380e+01
0	 4.214273393337326e+01	 3.214294394869491e+01	 1.000029125074527e+01
0	 4.214273393337327e+01	 3.285724463525452e+01	 1.000024089995799e+01
0	 4.214273393337327e+01	 3.357154598848280e+01	 1.000021121063231e+01
0	 4.214273393337329e+01	 3.428584784171234e+01	 1.000020370490680e+01
0	 4.214273393337328e+01	 3.500015002827575e+01	 1.000021990494830e+01
0	 4.214273393337327e+01	 3.571445238150555e+01	 1.000026133295188e+01
0	 4.285699007784907e+01	 2.857145634928704e+01	 1.000068934525533e+01
0	 4.285699007784908e+01	 2.928575120249185e+01	 1.000055227971862e+01
0	 4.285699007784908e+01	 3.000004755570248e+01	 1.000043530256107e+01
0	 4.285699007784908e+01	 3.071434524225148e+01	 1.000033866618562e+01
0	 4.285699007784907e+01	 3.142864409547143e+01	 1.000026262302498e+01
0	 4.285699007784908e+01	 3.214294394869492e+01	 1.000020742554160e+01
0	 4.285699007784908e+01	 3.285724463525452e+01	 1.000017332622770e+01
0	 4.285699007784908e+01	 3.357154598848280e+01	 1.000016057760525e+01
0	 4.285699007784908e+01	 3.428584784171235e+01	 1.000016943222592e+01
0	 4.285699007784908e+01	 3.500015002827575e+01	 1.000020014267119e+01
0	 4.285699007784907e+01	 3.571445238150555e+01	 1.000025296155225e+01
0	 3.571445238150555e+01	 3.571445238150556e+01	 1.000090512130986e+01
0	 3.571445238150556e+01	 3.642870477623360e+01	 1.000073076887167e+01
0	 3.571445238150556e+01	 3.714295725428856e+01	 1.000057699213525e+01
0	 3.571445238150555e+01	 3.785720989899839e+01	 1.000044457430521e+01
0	 3.571445238150557e+01	 3.857146279369101e+01	 1.000033429856759e+01
0	 3.571445238150555e+01	 3.928571602169433e+01	 1.000024694808989e+01
0	 3.571445238150555e+01	 3.999996966633629e+01	 1.000018330602110e+01
0	 3.571445238150555e+01	 4.071422381094481e+01	 1.000014415549158e+01
0	 3.571445238150555e+01	 4.142847853884783e+01	 1.000013027961323e+01
0	 3.571445238150555e+01	 4.214273393337327e+01	 1.000014246147937e+01
0	 3.571445238150556e+01	 4.285699007784908e+01	 1.000018148416476e+01
0	 3.642870477623360e+01	 3.571445238150555e+01	 1.000082765825341e+01
0	 3.642870477623361e+01	 3.642870477623361e+01	 1.000065374569850e+01
0	 3.642870477623360e+01	 3.714295725428857e+01	 1.000050586372926e+01
0	 3.642870477623360e+01	 3.785720989899840e+01	 1.000038350870853e+01
0	 3.642870477623360e+01	 3.857146279369100e+01	 1.000028617698076e+01
0	 3.642870477623360e+01	 3.928571602169432e+01	 1.000021336487215e+01
0	 3.642870477623360e+01	 3.999996966633628e+01	 1.000016456869042e+01
0	 3.642870477623359e+01	 4.071422381094481e+01	 1.000013928472506e+01
0	 3.642870477623359e+01	 4.142847853884784e+01	 1.000013700924715e+01
0	 3.642870477623359e+01	 4.214273393337328e+01	 1.000015723850945e+01
0	 3.642870477623362e+01	 4.285699007784908e+01	 1.000019946874635e+01
0	 3.714295725428857e+01	 3.571445238150556e+01	 1.000074300618476e+01
0	 3.714295725428858e+01	 3.642870477623360e+01	 1.000058328012516e+01
0	 3.714295725428858e+01	 3.714295725428858e+01	 1.000045136323161e+01
0	 3.714295725428856e+01	 3.785720989899840e+01	 1.000034572763516e+01
0	 3.714295725428858e+01	 3.857146279369101e+01	 1.000026484545050e+01
0	 3.714295725428857e+01	 3.928571602169432e+01	 1.000020718877596e+01
0	 3.714295725428858e+01	 3.999996966633629e+01	 1.000017122969349e+01
0	 3.714295725428858e+01	 4.071422381094482e+01	 1.000015544026871e+01
0	 3.714295725428855e+01	 4.142847853884783e+01	 1.000015829255085e+01
0	 3.714295725428857e+01	 4.214273393337327e+01	 1.000017825857281e+01
0	 3.714295725428856e+01	 4.285699007784907e+01	 1.000021381035109e+01
0	 3.785720989899840e+01	 3.571445238150555e+01	 1.000065488158521e+01
0	 3.785720989899839e+01	 3.642870477623359e+01	 1.000051982270922e+01
0	 3.785720989899840e+01	 3.714295725428857e+01	 1.000041130603343e+01
0	 3.785720989899838e+01	 3.785720989899838e+01	 1.000032704206791e+01
0	 3.785720989899841e+01	 3.857146279369100e+01	 1.000026474130967e+01
0	 3.785720989899841e+01	 3.928571602169433e+01	 1.000022211424272e+01
0	 3.785720989899840e+01	 3.999996966633629e+01	 1.000019687133807e+01
0	 3.785720989899839e+01	 4.071422381094482e+01	 1.000018672305361e+01
0	 3.785720989899838e+01	 4.142847853884782e+01	 1.000018937983426e+01
0	 3.785720989899838e+01	 4.214273393337328e+01	 1.000020255211191e+01
0	 3.785720989899840e+01	 4.285699007784908e+01	 1.000022395030540e+01
0	 3.857146279369101e+01	 3.571445238150555e+01	 1.000056700092940e+01
0	 3.857146279369101e+01	 3.642870477623359e+01	 1.000046382400133e+01
0	 3.857146279369100e+01	 3.714295725428857e+01	 1.000038350751944e+01
0	 3.857146279369100e+01	 3.785720989899841e+01	 1.000032326298422e+01
0	 3.857146279369099e+01	 3.857146279369099e+01	 1.000028030188740e+01
0	 3.857146279369099e+01	 3.928571602169433e+01	 1.000025183571188e+01
0	 3.857146279369099e+01	 3.999996966633628e+01	 1.000023507593177e+01
0	 3.857146279369100e+01	 4.071422381094481e+01	 1.000022723401240e+01
0	 3.857146279369100e+01	 4.142847853884783e+01	 1.000022552141026e+01
0	 3.857146279369100e+01	 4.214273393337327e+01	 1.000022714957306e+01
0	 3.857146279369101e+01	 4.285699007784907e+01	 1.000022932993972e+01
0	 3.928571602169433e+01	 3.571445238150556e+01	 1.000048308068532e+01
0	 3.928571602169433e+01	 3.642870477623360e+01	 1.000041573454519e+01
0	 3.928571602169431e+01	 3.714295725428856e+01	 1.000036578306791e+01
0	 3.928571602169434e+01	 3.785720989899840e+01	 1.000033020135630e+01
0	 3.928571602169433e+01	 3.857146279369100e+01	 1.000030596450906e+01
0	 3.928571602169433e+01	 3.928571602169433e+01	 1.000029004762083e+01
0	 3.928571602169433e+01	 3.999996966633629e+01	 1.000027942578210e+01
0	 3.928571602169432e+01	 4.071422381094481e+01	 1.000027107407927e+01
0	 3.928571602169432e+01	 4.142847853884783e+01	 1.000026196759464e+01
0	 3.928571602169432e+01	 4.214273393337328e+01	 1.000024908140639e+01
0	 3.928571602169431e+01	 4.285699007784905e+01	 1.000022939058859e+01
0	 3.999996966633630e+01	 3.571445238150556e+01	 1.000040683731425e+01
0	 3.999996966633628e+01	 3.642870477623360e+01	 1.000037600487756e+01
0	 3.999996966633630e+01	 3.714295725428858e+01	 1.000035594805071e+01
0	 3.999996966633629e+01	 3.785720989899839e+01	 1.000034366815099e+01
0	 3.999996966633628e+01	 3.857146279369100e+01	 1.000033616649629e+01
0	 3.999996966633629e+01	 3.928571602169434e+01	 1.000033044440507e+01
0	 3.999996966633628e+01	 3.999996966633628e+01	 1.000032350319641e+01
0	 3.999996966633630e+01	 4.071422381094482e+01	 1.000031234419002e+01
0	 3.999996966633629e+01	 4.142847853884783e+01	 1.000029396870620e+01
0	 3.999996966633628e+01	 4.214273393337327e+01	 1.000026537806586e+01
0	 3.999996966633630e+01	 4.285699007784908e+01	 1.000022357359050e+01
0	 4.071422381094482e+01	 3.571445238150556e+01	 1.000034198727080e+01
0	 4.071422381094482e+01	 3.642870477623361e+01	 1.000034508552823e+01
0	 4.071422381094482e+01	 3.714295725428857e+01	 1.000035181783328e+01
0	 4.071422381094482e+01	 3.785720989899840e+01	 1.000035947432992e+01
0	 4.071422381094482e+01	 3.857146279369100e+01	 1.000036534516694e+01
0	 4.071422381094482e+01	 3.928571602169432e+01	 1.000036672049806e+01
0	 4.071422381094482e+01	 3.999996966633629e+01	 1.000036089048190e+01
0	 4.071422381094481e+01	 4.071422381094480e+01	 1.000034514528196e+01
0	 4.071422381094481e+01	 4.142847853884782e+01	 1.000031677506666e+01
0	 4.071422381094482e+01	 4.214273393337328e+01	 1.000027307000929e+01
0	 4.071422381094481e+01	 4.285699007784907e+01	 1.000021132028807e+01
0	 4.142847853884783e+01	 3.571445238150555e+01	 1.000029224700293e+01
0	 4.142847853884783e+01	 3.642870477623360e+01	 1.000032342702006e+01
0	 4.142847853884783e+01	 3.714295725428857e+01	 1.000035120777464e+01
0	 4.142847853884783e+01	 3.785720989899841e+01	 1.000037343084932e+01
0	 4.142847853884782e+01	 3.857146279369100e+01	 1.000038793783512e+01
0	 4.142847853884783e+01	 3.928571602169433e+01	 1.000039257033134e+01
0	 4.142847853884784e+01	 3.999996966633629e+01	 1.000038516994564e+01
0	 4.142847853884783e+01	 4.071422381094482e+01	 1.000036357829399e+01
0	 4.142847853884782e+01	 4.142847853884782e+01	 1.000032563700068e+01
0	 4.142847853884783e+01	 4.214273393337326e+01	 1.000026918769833e+01
0	 4.142847853884783e+01	 4.285699007784908e+01	 1.000019207202789e+01
0	 4.214273393337327e+01	 3.571445238150555e+01	 1.000026133295188e+01
0	 4.214273393337328e+01	 3.642870477623360e+01	 1.000031147986902e+01
0	 4.214273393337327e+01	 3.714295725428857e+01	 1.000035193322738e+01
0	 4.214273393337327e+01	 3.785720989899839e+01	 1.000038134866022e+01
0	 4.214273393337329e+01	 3.857146279369100e+01	 1.000039838181120e+01
0	 4.214273393337328e+01	 3.928571602169432e+01	 1.000040168833446e+01
0	 4.214273393337328e+01	 3.999996966633628e+01	 1.000038992389456e+01
0	 4.214273393337328e+01	 4.071422381094482e+01	 1.000036174416654e+01
0	 4.214273393337329e+01	 4.142847853884783e+01	 1.000031580483586e+01
0	 4.214273393337328e+01	 4.214273393337328e+01	 1.000025076159843e+01
0	 4.214273393337329e+01	 4.285699007784908e+01	 1.000016527016064e+01
0	 4.285699007784907e+01	 3.571445238150555e+01	 1.000025296155225e+01
0	 4.285699007784907e+01	 3.642870477623359e+01	 1.000030969458404e+01
0	 4.285699007784907e+01	 3.714295725428857e+01	 1.000035180953767e+01
0	 4.285699007784908e+01	 3.785720989899839e+01	 1.000037903870826e+01
0	 4.285699007784907e+01	 3.857146279369100e+01	 1.000039111440178e+01
0	 4.285699007784906e+01	 3.928571602169431e+01	 1.000038776893498e+01
0	 4.285699007784908e+01	 3.999996966633628e+01	 1.000036873463546e+01
0	 4.285699007784908e+01	 4.071422381094481e+01	 1.000033374384166e+01
0	 4.285699007784908e+01	 4.142847853884783e+01	 1.000028252890278e+01
0	 4.285699007784908e+01	 4.214273393337328e+01	 1.000021482217894e+01
0	 4.285699007784907e+01	 4.285699007784908e+01	 1.000013035604098e+01
0	 3.571445238150556e+01	 4.285699007784908e+01	 1.000018148416476e+01
0	 3.571445238150555e+01	 4.357129694500737e+01	 1.000022592098291e+01
0	 3.571445238150556e+01	 4.428560406221391e+01	 1.000025286839775e+01
0	 3.571445238150556e+01	 4.499991084612203e+01	 1.000026090520112e+01
0	 3.571445238150556e+01	 4.571421671338500e+01	 1.000024861010055e+01
0	 3.571445238150556e+01	 4.642852108065614e+01	 1.000021456171931e+01
0	 3.571445238150556e+01	 4.714282336458874e+01	 1.000015733859641e+01
0	 3.571445238150555e+01	 4.785712298183612e+01	 1.000007551918661e+01
0	 3.571445238150555e+01	 4.857141934905161e+01	 9.999967681860278e+00
0	 3.571445238150555e+01	 4.928571188288847e+01	 9.999832404903600e+00
0	 3.571445238150555e+01	 5.000000000000000e+01	 9.999668266518508e+00
0	 3.642870477623362e+01	 4.285699007784908e+01	 1.000019946874635e+01
0	 3.642870477623359e+01	 4.357129694500737e+01	 1.000024179232766e+01
0	 3.642870477623360e+01	 4.428560406221392e+01	 1.000026283921529e+01
0	 3.642870477623359e+01	 4.499991084612202e+01	 1.000026292309986e+01
0	 3.642870477623359e+01	 4.571421671338500e+01	 1.000024235758918e+01
0	 3.642870477623359e+01	 4.642852108065613e+01	 1.000020145620848e+01
0	 3.642870477623360e+01	 4.714282336458875e+01	 1.000014053240024e+01
0	 3.642870477623360e+01	 4.785712298183613e+01	 1.000005989952417e+01
0	 3.642870477623361e+01	 4.857141934905160e+01	 9.999959870857392e+00
0	 3.642870477623359e+01	 4.928571188288846e+01	 9.999840759594250e+00
0	 3.642870477623359e+01	 4.999999999999998e+01	 9.999702878846303e+00
0	 3.714295725428856e+01	 4.285699007784907e+01	 1.000021381035109e+01
0	 3.714295725428857e+01	 4.357129694500737e+01	 1.000024533659949e+01
0	 3.714295725428858e+01	 4.428560406221394e+01	 1.000025536317577e+01
0	 3.714295725428856e+01	 4.499991084612201e+01	 1.000024557674501e+01
0	 3.714295725428857e+01	 4.571421671338500e+01	 1.000021766390433e+01
0	 3.714295725428858e+01	 4.642852108065614e+01	 1.000017331118290e+01
0	 3.714295725428858e+01	 4.714282336458875e+01	 1.000011420504193e+01
0	 3.714295725428856e+01	 4.785712298183613e+01	 1.000004203187469e+01
0	 3.714295725428856e+01	 4.857141934905160e+01	 9.999958478006405e+00
0	 3.714295725428858e+01	 4.928571188288846e+01	 9.999865229694375e+00
0	 3.714295725428858e+01	 5.000000000000000e+01	 9.999763973127937e+00
0	 3.785720989899840e+01	 4.285699007784908e+01	 1.000022395030540e+01
0	 3.785720989899841e+01	 4.357129694500737e+01	 1.000023837084677e+01
0	 3.785720989899839e+01	 4.428560406221393e+01	 1.000023393159826e+01
0	 3.785720989899841e+01	 4.499991084612204e+01	 1.000021333027890e+01
0	 3.785720989899839e+01	 4.571421671338500e+01	 1.000017926456422e+01
0	 3.785720989899841e+01	 4.642852108065614e+01	 1.000013443208631e+01
0	 3.785720989899841e+01	 4.714282336458876e+01	 1.000008153043370e+01
0	 3.785720989899840e+01	 4.785712298183613e+01	 1.000002325715150e+01
0	 3.785720989899838e+01	 4.857141934905158e+01	 9.999962309741271e+00
0	 3.785720989899840e+01	 4.928571188288847e+01	 9.999901385661140e+00
0	 3.785720989899839e+01	 5.000000000000001e+01	 9.999843182325712e+00
0	 3.857146279369101e+01	 4.285699007784907e+01	 1.000022932993972e+01
0	 3.857146279369100e+01	 4.357129694500736e+01	 1.000022271212131e+01
0	 3.857146279369100e+01	 4.428560406221391e+01	 1.000020203580412e+01
0	 3.857146279369100e+01	 4.499991084612203e+01	 1.000017064784450e+01
0	 3.857146279369100e+01	 4.571421671338499e+01	 1.000013189508613e+01
0	 3.857146279369102e+01	 4.642852108065615e+01	 1.000008912435989e+01
0	 3.857146279369101e+01	 4.714282336458875e+01	 1.000004568248399e+01
0	 3.857146279369100e+01	 4.785712298183613e+01	 1.000000491626392e+01
0	 3.857146279369100e+01	 4.857141934905160e+01	 9.999970172492443e+00
0	 3.857146279369101e+01	 4.928571188288846e+01	 9.999944797949556e+00
0	 3.857146279369101e+01	 5.000000000000001e+01	 9.999932139402622e+00
0	 3.928571602169431e+01	 4.285699007784905e+01	 1.000022939058859e+01
0	 3.928571602169431e+01	 4.357129694500736e+01	 1.000020017747836e+01
0	 3.928571602169433e+01	 4.428560406221393e+01	 1.000016316711692e+01
0	 3.928571602169432e+01	 4.499991084612203e+01	 1.000012199358551e+01
0	 3.928571602169433e+01	 4.571421671338499e+01	 1.000008029098633e+01
0	 3.928571602169433e+01	 4.642852108065613e+01	 1.000004169344240e+01
0	 3.928571602169433e+01	 4.714282336458874e+01	 1.000000983509771e+01
0	 3.928571602169434e+01	 4.785712298183613e+01	 9.999988350117176e+00
0	 3.928571602169433e+01	 4.857141934905160e+01	 9.999980872686571e+00
0	 3.928571602169432e+01	 4.928571188288845e+01	 9.999991037012554e+00
0	 3.928571602169433e+01	 5.000000000000000e+01	 1.000002247732286e+01
0	 3.999996966633630e+01	 4.285699007784908e+01	 1.000022357359050e+01
0	 3.999996966633629e+01	 4.357129694500738e+01	 1.000017258397665e+01
0	 3.999996966633628e+01	 4.428560406221393e+01	 1.000012081686252e+01
0	 3.999996966633630e+01	 4.499991084612203e+01	 1.000007183164628e+01
0	 3.999996966633628e+01	 4.571421671338500e+01	 1.000002918778008e+01
0	 3.999996966633629e+01	 4.642852108065614e+01	 9.999996444769994e+00
0	 3.999996966633628e+01	 4.714282336458874e+01	 9.999977162176055e+00
0	 3.999996966633629e+01	 4.785712298183614e+01	 9.999974899612273e+00
0	 3.999996966633628e+01	 4.857141934905158e+01	 9.999993216746606e+00
0	 3.999996966633628e+01	 4.928571188288846e+01	 1.000003567330100e+01
0	 3.999996966633629e+01	 5.000000000000000e+01	 1.000010582905134e+01
0	 4.071422381094481e+01	 4.285699007784907e+01	 1.000021132028806e+01
0	 4.071422381094481e+01	 4.357129694500738e+01	 1.000014174867835e+01
0	 4.071422381094482e+01	 4.428560406221392e+01	 1.000007847636900e+01
0	 4.071422381094482e+01	 4.499991084612203e+01	 1.000002462617187e+01
0	 4.071422381094481e+01	 4.571421671338499e+01	 9.999983320981714e+00
0	 4.071422381094482e+01	 4.642852108065613e+01	 9.999957683776387e+00
0	 4.071422381094482e+01	 4.714282336458875e+01	 9.999950837616623e+00
0	 4.071422381094481e+01	 4.785712298183613e+01	 9.999965905646214e+00
0	 4.071422381094481e+01	 4.857141934905158e+01	 1.000000601109199e+01
0	 4.071422381094481e+01	 4.928571188288846e+01	 1.000007427726366e+01
0	 4.071422381094481e+01	 5.000000000000001e+01	 1.000017382755399e+01
0	 4.142847853884783e+01	 4.285699007784908e+01	 1.000019207202789e+01
0	 4.142847853884783e+01	 4.357129694500738e+01	 1.000010948864906e+01
0	 4.142847853884783e+01	 4.428560406221393e+01	 1.000003963696669e+01
0	 4.142847853884784e+01	 4.499991084612204e+01	 9.999984841307960e+00
0	 4.142847853884783e+01	 4.571421671338500e+01	 9.999947426104551e+00
0	 4.142847853884784e+01	 4.642852108065613e+01	 9.999929715892733e+00
0	 4.142847853884783e+01	 4.714282336458875e+01	 9.999934035313377e+00
0	 4.142847853884783e+01	 4.785712298183613e+01	 9.999962709111903e+00
0	 4.142847853884784e+01	 4.857141934905161e+01	 1.000001806213834e+01
0	 4.142847853884784e+01	 4.928571188288846e+01	 1.000010241934723e+01
0	 4.142847853884783e+01	 4.999999999999999e+01	 1.000021810579778e+01
0	 4.214273393337329e+01	 4.285699007784908e+01	 1.000016527016064e+01
0	 4.214273393337328e+01	 4.357129694500738e+01	 1.000007762095784e+01
0	 4.214273393337328e+01	 4.428560406221392e+01	 1.000000778998818e+01
0	 4.214273393337327e+01	 4.499991084612203e+01	 9.999956941200988e+00
0	 4.214273393337327e+01	 4.571421671338499e+01	 9.999926238660873e+00
0	 4.214273393337327e+01	 4.642852108065613e+01	 9.999916846547716e+00
0	 4.214273393337327e+01	 4.714282336458876e+01	 9.999929929156641e+00
0	 4.214273393337327e+01	 4.785712298183612e+01	 9.999966650898063e+00
0	 4.214273393337328e+01	 4.857141934905160e+01	 1.000002817629766e+01
0	 4.214273393337327e+01	 4.928571188288846e+01	 1.000011566999637e+01
0	 4.214273393337328e+01	 5.000000000000000e+01	 1.000023029675040e+01
0	 4.285699007784907e+01	 4.285699007784908e+01	 1.000013035604098e+01
0	 4.285699007784908e+01	 4.357129694500737e+01	 1.000004796267722e+01
0	 4.285699007784906e+01	 4.428560406221393e+01	 9.999986426768263e+00
0	 4.285699007784908e+01	 4.499991084612203e+01	 9.999945389998047e+00
0	 4.285699007784908e+01	 4.571421671338501e+01	 9.999924494162059e+00
0	 4.285699007784907e+01	 4.642852108065613e+01	 9.999923381167489e+00
0	 4.285699007784908e+01	 4.714282336458876e+01	 9.999941693033120e+00
0	 4.285699007784908e+01	 4.785712298183613e+01	 9.999979071889380e+00
0	 4.285699007784908e+01	 4.857141934905160e+01	 1.000003515997829e+01
0	 4.285699007784908e+01	 4.928571188288846e+01	 1.000010959965362e+01
0	 4.285699007784908e+01	 5.000000000000001e+01	 1.000020203338067e+01
0	 4.285699007784908e+01	 0.000000000000000e+00	 1.000104969357064e+01
0	 4.285699007784909e+01	 7.142881171115515e-01	 1.000048682817329e+01
0	 4.285699007784908e+01	 1.428580650948409e+00	 9.999992896401608e+00
0	 4.285699007784908e+01	 2.142877018163878e+00	 9.999576151533770e+00
0	 4.285699007784908e+01	 2.857176635411264e+00	 9.999244847447224e+00
0	 4.285699007784908e+01	 3.571478919343873e+00	 9.999007238618679e+00
0	 4.285699007784908e+01	 4.285783286615009e+00	 9.998871580124032e+00
0	 4.285699007784908e+01	 5.000089153877975e+00	 9.998846127638393e+00
0	 4.285699007784908e+01	 5.714395937786081e+00	 9.998939137436011e+00
0	 4.285699007784907e+01	 6.428703054992629e+00	 9.999158866390319e+00
0	 4.285699007784908e+01	 7.143009922150927e+00	 9.999513571973912e+00
0	 4.357129694500737e+01	 0.000000000000000e+00	 1.000068983418481e+01
0	 4.357129694500739e+01	 7.142881171115514e-01	 1.000009612337640e+01
0	 4.357129694500737e+01	 1.428580650948410e+00	 9.999598577792625e+00
0	 4.357129694500737e+01	 2.142877018163878e+00	 9.999200051733252e+00
0	 4.357129694500737e+01	 2.857176635411265e+00	 9.998903400089324e+00
0	 4.357129694500735e+01	 3.571478919343872e+00	 9.998711478343125e+00
0	 4.357129694500737e+01	 4.285783286615008e+00	 9.998627142568148e+00
0	 4.357129694500738e+01	 5.000089153877975e+00	 9.998653249429077e+00
0	 4.357129694500737e+01	 5.714395937786082e+00	 9.998792656181759e+00
0	 4.357129694500738e+01	 6.428703054992631e+00	 9.999048220673197e+00
0	 4.357129694500738e+01	 7.143009922150927e+00	 9.999422801341558e+00
0	 4.428560406221392e+01	 0.000000000000000e+00	 1.000015843395753e+01
0	 4.428560406221393e+01	 7.142881171115514e-01	 9.999643995092148e+00
0	 4.428560406221393e+01	 1.428580650948409e+00	 9.999229770558195e+00
0	 4.428560406221393e+01	 2.142877018163880e+00	 9.998914301439775e+00
0	 4.428560406221392e+01	 2.857176635411264e+00	 9.998696129316068e+00
0	 4.428560406221393e+01	 3.571478919343873e+00	 9.998573796261342e+00
0	 4.428560406221392e+01	 4.285783286615009e+00	 9.998545844844948e+00
0	 4.428560406221392e+01	 5.000089153877976e+00	 9.998610818131251e+00
0	 4.428560406221392e+01	 5.714395937786083e+00	 9.998767259679632e+00
0	 4.428560406221391e+01	 6.428703054992628e+00	 9.999013713544500e+00
0	 4.428560406221393e+01	 7.143009922150928e+00	 9.999348724275288e+00
0	 4.499991084612202e+01	 0.000000000000000e+00	 9.999529077669676e+00
0	 4.499991084612204e+01	 7.142881171115514e-01	 9.999167099647911e+00
0	 4.499991084612203e+01	 1.428580650948409e+00	 9.998892432068846e+00
0	 4.499991084612202e+01	 2.142877018163878e+00	 9.998700388370082e+00
0	 4.499991084612204e+01	 2.857176635411265e+00	 9.998586282330560e+00
0	 4.499991084612203e+01	 3.571478919343873e+00	 9.998545428070457e+00
0	 4.499991084612203e+01	 4.285783286615008e+00	 9.998573140051281e+00
0	 4.499991084612203e+01	 5.000089153877975e+00	 9.998664733075785e+00
0	 4.499991084612203e+01	 5.714395937786082e+00	 9.998815522287961e+00
0	 4.499991084612203e+01	 6.428703054992630e+00	 9.999020823173053e+00
0	 4.499991084612203e+01	 7.143009922150927e+00	 9.999275951557568e+00
0	 4.571421671338500e+01	 0.000000000000000e+00	 9.998875350408099e+00
0	 4.571421671338500e+01	 7.142881171115513e-01	 9.998702093684917e+00
0	 4.571421671338499e+01	 1.428580650948409e+00	 9.998592519991346e+00
0	 4.571421671338500e+01	 2.142877018163878e+00	 9.998539800499531e+00
0	 4.571421671338499e+01	 2.857176635411264e+00	 9.998537106542003e+00
0	 4.571421671338499e+01	 3.571478919343873e+00	 9.998577609611722e+00
0	 4.571421671338499e+01	 4.285783286615009e+00	 9.998654481362001e+00
0	 4.571421671338500e+01	 5.000089153877975e+00	 9.998760893606580e+00
0	 4.571421671338498e+01	 5.714395937786080e+00	 9.998890018319550e+00
0	 4.571421671338499e+01	 6.428703054992630e+00	 9.999035027635378e+00
0	 4.571421671338501e+01	 7.143009922150926e+00	 9.999189093848925e+00
0	 4.642852108065614e+01	 0.000000000000000e+00	 9.998270837565528e+00
0	 4.642852108065613e+01	 7.142881171115514e-01	 9.998285634158174e+00
0	 4.642852108065613e+01	 1.428580650948409e+00	 9.998335992288741e+00
0	 4.642852108065614e+01	 2.142877018163878e+00	 9.998414026062026e+00
0	 4.642852108065614e+01	 2.857176635411264e+00	 9.998511849565746e+00
0	 4.642852108065613e+01	 3.571478919343873e+00	 9.998621576870534e+00
0	 4.642852108065614e+01	 4.285783286615009e+00	 9.998735322029978e+00
0	 4.642852108065615e+01	 5.000089153877976e+00	 9.998845199080554e+00
0	 4.642852108065614e+01	 5.714395937786081e+00	 9.998943322041699e+00
0	 4.642852108065613e+01	 6.428703054992630e+00	 9.999021804915742e+00
0	 4.642852108065613e+01	 7.143009922150926e+00	 9.999072761687991e+00
0	 4.714282336458874e+01	 0.000000000000000e+00	 9.997789124840647e+00
0	 4.714282336458874e+01	 7.142881171115513e-01	 9.997954378336534e+00
0	 4.714282336458874e+01	 1.428580650948409e+00	 9.998128807220336e+00
0	 4.714282336458874e+01	 2.142877018163879e+00	 9.998304553550090e+00
0	 4.714282336458874e+01	 2.857176635411265e+00	 9.998473759223192e+00
0	 4.714282336458873e+01	 3.571478919343873e+00	 9.998628565976443e+00
0	 4.714282336458875e+01	 4.285783286615009e+00	 9.998761115386042e+00
0	 4.714282336458874e+01	 5.000089153877975e+00	 9.998863548867600e+00
0	 4.714282336458874e+01	 5.714395937786080e+00	 9.998928007676151e+00
0	 4.714282336458874e+01	 6.428703054992628e+00	 9.998946632906145e+00
0	 4.714282336458874e+01	 7.143009922150926e+00	 9.998911565491436e+00
0	 4.785712298183613e+01	 0.000000000000000e+00	 9.997503798238087e+00
0	 4.785712298183613e+01	 7.142881171115514e-01	 9.997744983802654e+00
0	 4.785712298183613e+01	 1.428580650948409e+00	 9.997976923341721e+00
0	 4.785712298183613e+01	 2.142877018163878e+00	 9.998192871714851e+00
0	 4.785712298183612e+01	 2.857176635411265e+00	 9.998386083541906e+00
0	 4.785712298183613e+01	 3.571478919343872e+00	 9.998549813203116e+00
0	 4.785712298183613e+01	 4.285783286615009e+00	 9.998677314839057e+00
0	 4.785712298183613e+01	 5.000089153877973e+00	 9.998761842350637e+00
0	 4.785712298183614e+01	 5.714395937786080e+00	 9.998796649399157e+00
0	 4.785712298183614e+01	 6.428703054992630e+00	 9.998774989406268e+00
0	 4.785712298183613e+01	 7.143009922150927e+00	 9.998690115554053e+00
0	 4.857141934905160e+01	 0.000000000000000e+00	 9.997488444068427e+00
0	 4.857141934905161e+01	 7.142881171115514e-01	 9.997694108453070e+00
0	 4.857141934905160e+01	 1.428580650948409e+00	 9.997886299504788e+00
0	 4.857141934905160e+01	 2.142877018163879e+00	 9.998060469566026e+00
0	 4.857141934905161e+01	 2.857176635411265e+00	 9.998212070755557e+00
0	 4.857141934905160e+01	 3.571478919343873e+00	 9.998336554968409e+00
0	 4.857141934905159e+01	 4.285783286615009e+00	 9.998429373875876e+00
0	 4.857141934905162e+01	 5.000089153877976e+00	 9.998485978925570e+00
0	 4.857141934905160e+01	 5.714395937786081e+00	 9.998501821341403e+00
0	 4.857141934905160e+01	 6.428703054992631e+00	 9.998472352123603e+00
0	 4.857141934905160e+01	 7.143009922150926e+00	 9.998393022048676e+00
0	 4.928571188288846e+01	 0.000000000000000e+00	 9.997816648948225e+00
0	 4.928571188288846e+01	 7.142881171115513e-01	 9.997838410498158e+00
0	 4.928571188288845e+01	 1.428580650948409e+00	 9.997862894857677e+00
0	 4.928571188288845e+01	 2.142877018163878e+00	 9.997888836371956e+00
0	 4.928571188288846e+01	 2.857176635411265e+00	 9.997914969303938e+00
0	 4.928571188288846e+01	 3.571478919343873e+00	 9.997940027834280e+00
0	 4.928571188288846e+01	 4.285783286615008e+00	 9.997962746061374e+00
0	 4.928571188288846e+01	 5.000089153877976e+00	 9.997981858001332e+00
0	 4.928571188288846e+01	 5.714395937786080e+00	 9.997996097588100e+00
0	 4.928571188288846e+01	 6.428703054992630e+00	 9.998004198673257e+00
0	 4.928571188288846e+01	 7.143009922150927e+00	 9.998004895026204e+00
0	 5.000000000000000e+01	 0.000000000000000e+00	 9.998561999800017e+00
0	 5.000000000000001e+01	 7.142881171115513e-01	 9.998214548462178e+00
0	 4.999999999999999e+01	 1.428580650948409e+00	 9.997912668844922e+00
0	 4.999999999999999e+01	 2.142877018163878e+00	 9.997659461659653e+00
0	 5.000000000000000e+01	 2.857176635411265e+00	 9.997458027833002e+00
0	 5.000000000000000e+01	 3.571478919343873e+00	 9.997311468506878e+00
0	 5.000000000000000e+01	 4.285783286615008e+00	 9.997222885038394e+00
0	 5.000000000000000e+01	 5.000089153877976e+00	 9.997195378999862e+00
0	 4.999999999999999e+01	 5.714395937786080e+00	 9.997232052178862e+00
0	 5.000000000000000e+01	 6.428703054992629e+00	 9.997336006578120e+00
0	 5.000000000000001e+01	 7.143009922150927e+00	 9.997510344415613e+00
0	 4.285699007784908e+01	 7.143009922150927e+00	 9.999513571973912e+00
0	 4.285699007784908e+01	 7.857266066626719e+00	 9.999911643718432e+00
0	 4.285699007784907e+01	 8.571521461152162e+00	 1.000025402383672e+01
0	 4.285699007784908e+01	 9.285776189055184e+00	 1.000053771007416e+01
0	 4.285699007784908e+01	 1.000003033366371e+01	 1.000075970022774e+01
0	 4.285699007784908e+01	 1.071428397830567e+01	 1.000091699214594e+01
0	 4.285699007784908e+01	 1.142853720630899e+01	 1.000100658372883e+01
0	 4.285699007784908e+01	 1.214279010100160e+01	 1.000102547292801e+01
0	 4.285699007784907e+01	 1.285704274571142e+01	 1.000097065774663e+01
0	 4.285699007784908e+01	 1.357129522376640e+01	 1.000083913623938e+01
0	 4.285699007784908e+01	 1.428554761849444e+01	 1.000062790651251e+01
0	 4.357129694500738e+01	 7.143009922150927e+00	 9.999422801341558e+00
0	 4.357129694500737e+01	 7.857266066626718e+00	 9.999823287783418e+00
0	 4.357129694500738e+01	 8.571521461152164e+00	 1.000015493558151e+01
0	 4.357129694500738e+01	 9.285776189055184e+00	 1.000041806127660e+01
0	 4.357129694500738e+01	 1.000003033366371e+01	 1.000061298145871e+01
0	 4.357129694500736e+01	 1.071428397830567e+01	 1.000074001276714e+01
0	 4.357129694500737e+01	 1.142853720630899e+01	 1.000079947189046e+01
0	 4.357129694500738e+01	 1.214279010100160e+01	 1.000079167556651e+01
0	 4.357129694500738e+01	 1.285704274571142e+01	 1.000071694058236e+01
0	 4.357129694500738e+01	 1.357129522376640e+01	 1.000057558377442e+01
0	 4.357129694500737e+01	 1.428554761849444e+01	 1.000036792202830e+01
0	 4.428560406221393e+01	 7.143009922150928e+00	 9.999348724275288e+00
0	 4.428560406221391e+01	 7.857266066626718e+00	 9.999692791500175e+00
0	 4.428560406221393e+01	 8.571521461152159e+00	 9.999969323490777e+00
0	 4.428560406221392e+01	 9.285776189055182e+00	 1.000018114861522e+01
0	 4.428560406221391e+01	 1.000003033366371e+01	 1.000033109528116e+01
0	 4.428560406221393e+01	 1.071428397830567e+01	 1.000042199193574e+01
0	 4.428560406221391e+01	 1.142853720630899e+01	 1.000045666706563e+01
0	 4.428560406221392e+01	 1.214279010100159e+01	 1.000043794919701e+01
0	 4.428560406221392e+01	 1.285704274571142e+01	 1.000036866689554e+01
0	 4.428560406221392e+01	 1.357129522376639e+01	 1.000025164876643e+01
0	 4.428560406221391e+01	 1.428554761849444e+01	 1.000008972345438e+01
0	 4.499991084612203e+01	 7.143009922150927e+00	 9.999275951557571e+00
0	 4.499991084612204e+01	 7.857266066626720e+00	 9.999525099303007e+00
0	 4.499991084612203e+01	 8.571521461152162e+00	 9.999718642000946e+00
0	 4.499991084612202e+01	 9.285776189055184e+00	 9.999861112867750e+00
0	 4.499991084612203e+01	 1.000003033366371e+01	 9.999957045144768e+00
0	 4.499991084612203e+01	 1.071428397830567e+01	 1.000001097209830e+01
0	 4.499991084612203e+01	 1.142853720630899e+01	 1.000002742701955e+01
0	 4.499991084612203e+01	 1.214279010100160e+01	 1.000001094322472e+01
0	 4.499991084612203e+01	 1.285704274571142e+01	 9.999966054054939e+00
0	 4.499991084612203e+01	 1.357129522376640e+01	 9.999897292876289e+00
0	 4.499991084612203e+01	 1.428554761849445e+01	 9.999809193079800e+00
0	 4.571421671338501e+01	 7.143009922150926e+00	 9.999189093848925e+00
0	 4.571421671338501e+01	 7.857266066626719e+00	 9.999325155495528e+00
0	 4.571421671338500e+01	 8.571521461152164e+00	 9.999424345427441e+00
0	 4.571421671338499e+01	 9.285776189055182e+00	 9.999492094715093e+00
0	 4.571421671338499e+01	 1.000003033366371e+01	 9.999533834437164e+00
0	 4.571421671338500e+01	 1.071428397830567e+01	 9.999554995680599e+00
0	 4.571421671338498e+01	 1.142853720630899e+01	 9.999561009540628e+00
0	 4.571421671338499e+01	 1.214279010100160e+01	 9.999557307120725e+00
0	 4.571421671338499e+01	 1.285704274571142e+01	 9.999549319532623e+00
0	 4.571421671338500e+01	 1.357129522376639e+01	 9.999542477896332e+00
0	 4.571421671338500e+01	 1.428554761849444e+01	 9.999542213340117e+00
0	 4.642852108065613e+01	 7.143009922150926e+00	 9.999072761687991e+00
0	 4.642852108065613e+01	 7.857266066626718e+00	 9.999097904250641e+00
0	 4.642852108065613e+01	 8.571521461152161e+00	 9.999107887964684e+00
0	 4.642852108065613e+01	 9.285776189055182e+00	 9.999108234741302e+00
0	 4.642852108065613e+01	 1.000003033366371e+01	 9.999104466483821e+00
0	 4.642852108065614e+01	 1.071428397830567e+01	 9.999102105087712e+00
0	 4.642852108065614e+01	 1.142853720630899e+01	 9.999106672440526e+00
0	 4.642852108065613e+01	 1.214279010100160e+01	 9.999123690422000e+00
0	 4.642852108065614e+01	 1.285704274571143e+01	 9.999158680903955e+00
0	 4.642852108065613e+01	 1.357129522376639e+01	 9.999217165750377e+00
0	 4.642852108065614e+01	 1.428554761849444e+01	 9.999304666817361e+00
0	 4.714282336458874e+01	 7.143009922150926e+00	 9.998911565491436e+00
0	 4.714282336458874e+01	 7.857266066626722e+00	 9.998848289610553e+00
0	 4.714282336458874e+01	 8.571521461152161e+00	 9.998790723686062e+00
0	 4.714282336458874e+01	 9.285776189055184e+00	 9.998743673433639e+00
0	 4.714282336458874e+01	 1.000003033366371e+01	 9.998711944548216e+00
0	 4.714282336458874e+01	 1.071428397830567e+01	 9.998700342703915e+00
0	 4.714282336458874e+01	 1.142853720630899e+01	 9.998713673554112e+00
0	 4.714282336458874e+01	 1.214279010100160e+01	 9.998756742731393e+00
0	 4.714282336458875e+01	 1.285704274571142e+01	 9.998834355847581e+00
0	 4.714282336458874e+01	 1.357129522376639e+01	 9.998951318493685e+00
0	 4.714282336458874e+01	 1.428554761849444e+01	 9.999112436240001e+00
0	 4.785712298183613e+01	 7.143009922150927e+00	 9.998690115554053e+00
0	 4.785712298183613e+01	 7.857266066626720e+00	 9.998581255486791e+00
0	 4.785712298183613e+01	 8.571521461152164e+00	 9.998494306543957e+00
0	 4.785712298183613e+01	 9.285776189055182e+00	 9.998432551182514e+00
0	 4.785712298183613e+01	 1.000003033366371e+01	 9.998399271831644e+00
0	 4.785712298183614e+01	 1.071428397830567e+01	 9.998397750892760e+00
0	 4.785712298183612e+01	 1.142853720630899e+01	 9.998431270739495e+00
0	 4.785712298183613e+01	 1.214279010100160e+01	 9.998503113717694e+00
0	 4.785712298183613e+01	 1.285704274571142e+01	 9.998616562145445e+00
0	 4.785712298183613e+01	 1.357129522376639e+01	 9.998774898313037e+00
0	 4.785712298183613e+01	 1.428554761849445e+01	 9.998981404482997e+00
0	 4.857141934905160e+01	 7.143009922150926e+00	 9.998393022048678e+00
0	 4.857141934905159e+01	 7.857266066626718e+00	 9.998301745660150e+00
0	 4.857141934905160e+01	 8.571521461152162e+00	 9.998240090369723e+00
0	 4.857141934905160e+01	 9.285776189055184e+00	 9.998209008281513e+00
0	 4.857141934905161e+01	 1.000003033366371e+01	 9.998209451473375e+00
0	 4.857141934905160e+01	 1.071428397830567e+01	 9.998242371997041e+00
0	 4.857141934905161e+01	 1.142853720630899e+01	 9.998308721878001e+00
0	 4.857141934905160e+01	 1.214279010100160e+01	 9.998409453115533e+00
0	 4.857141934905160e+01	 1.285704274571142e+01	 9.998545517682791e+00
0	 4.857141934905160e+01	 1.357129522376639e+01	 9.998717867526638e+00
0	 4.857141934905161e+01	 1.428554761849444e+01	 9.998927454567802e+00
0	 4.928571188288846e+01	 7.143009922150927e+00	 9.998004895026204e+00
0	 4.928571188288846e+01	 7.857266066626719e+00	 9.998014703780717e+00
0	 4.928571188288846e+01	 8.571521461152164e+00	 9.998049528873715e+00
0	 4.928571188288846e+01	 9.285776189055184e+00	 9.998107184927367e+00
0	 4.928571188288846e+01	 1.000003033366371e+01	 9.998185486550570e+00
0	 4.928571188288846e+01	 1.071428397830567e+01	 9.998282248338796e+00
0	 4.928571188288846e+01	 1.142853720630899e+01	 9.998395284874174e+00
0	 4.928571188288846e+01	 1.214279010100160e+01	 9.998522410725506e+00
0	 4.928571188288846e+01	 1.285704274571142e+01	 9.998661440448158e+00
0	 4.928571188288846e+01	 1.357129522376639e+01	 9.998810188584214e+00
0	 4.928571188288846e+01	 1.428554761849444e+01	 9.998966469662349e+00
0	 5.000000000000001e+01	 7.143009922150927e+00	 9.997510344415613e+00
0	 5.000000000000001e+01	 7.857266066626719e+00	 9.997725073367905e+00
0	 5.000000000000001e+01	 8.571521461152161e+00	 9.997944075645211e+00
0	 5.000000000000000e+01	 9.285776189055182e+00	 9.998161221220023e+00
0	 5.000000000000000e+01	 1.000003033366371e+01	 9.998370380078294e+00
0	 4.999999999999999e+01	 1.071428397830567e+01	 9.998565422219315e+00
0	 5.000000000000000e+01	 1.142853720630899e+01	 9.998740217655847e+00
0	 5.000000000000000e+01	 1.214279010100160e+01	 9.998888636414032e+00
0	 4.999999999999999e+01	 1.285704274571142e+01	 9.999004548533414e+00
0	 5.000000000000000e+01	 1.357129522376639e+01	 9.999081824066966e+00
0	 5.000000000000000e+01	 1.428554761849444e+01	 9.999114333081071e+00
0	 4.285699007784908e+01	 1.428554761849444e+01	 1.000062790651251e+01
0	 4.285699007784907e+01	 1.499984997172426e+01	 1.000039533296452e+01
0	 4.285699007784906e+01	 1.571415215828766e+01	 1.000020286809089e+01
0	 4.285699007784907e+01	 1.642845401151721e+01	 1.000005208929158e+01
0	 4.285699007784908e+01	 1.714275536474550e+01	 9.999944574033238e+00
0	 4.285699007784907e+01	 1.785705605130510e+01	 9.999881899849122e+00
0	 4.285699007784908e+01	 1.857135590452858e+01	 9.999865644339135e+00
0	 4.285699007784908e+01	 1.928565475774854e+01	 9.999897385169817e+00
0	 4.285699007784908e+01	 1.999995244429753e+01	 9.999978700074355e+00
0	 4.285699007784907e+01	 2.071424879750816e+01	 1.000011116685258e+01
0	 4.285699007784908e+01	 2.142854365071297e+01	 1.000029636337095e+01
0	 4.357129694500737e+01	 1.428554761849444e+01	 1.000036792202830e+01
0	 4.357129694500738e+01	 1.499984997172426e+01	 1.000015145436909e+01
0	 4.357129694500738e+01	 1.571415215828766e+01	 9.999982975369559e+00
0	 4.357129694500737e+01	 1.642845401151722e+01	 9.999861694769104e+00
0	 4.357129694500737e+01	 1.714275536474550e+01	 9.999786822369284e+00
0	 4.357129694500736e+01	 1.785705605130510e+01	 9.999757568033779e+00
0	 4.357129694500738e+01	 1.857135590452858e+01	 9.999773141688385e+00
0	 4.357129694500738e+01	 1.928565475774854e+01	 9.999832753321060e+00
0	 4.357129694500737e+01	 1.999995244429754e+01	 9.999935612981893e+00
0	 4.357129694500738e+01	 2.071424879750815e+01	 1.000008093078310e+01
0	 4.357129694500737e+01	 2.142854365071296e+01	 1.000026791689901e+01
0	 4.428560406221391e+01	 1.428554761849444e+01	 1.000008972345438e+01
0	 4.428560406221393e+01	 1.499984997172426e+01	 9.999930011631584e+00
0	 4.428560406221393e+01	 1.571415215828766e+01	 9.999816088946909e+00
0	 4.428560406221391e+01	 1.642845401151721e+01	 9.999745428051774e+00
0	 4.428560406221392e+01	 1.714275536474550e+01	 9.999715501645156e+00
0	 4.428560406221392e+01	 1.785705605130509e+01	 9.999723782473541e+00
0	 4.428560406221392e+01	 1.857135590452858e+01	 9.999767743330962e+00
0	 4.428560406221391e+01	 1.928565475774854e+01	 9.999844857058960e+00
0	 4.428560406221392e+01	 1.999995244429753e+01	 9.999952596546631e+00
0	 4.428560406221393e+01	 2.071424879750816e+01	 1.000008843473060e+01
0	 4.428560406221392e+01	 2.142854365071295e+01	 1.000024984459496e+01
0	 4.499991084612203e+01	 1.428554761849445e+01	 9.999809193079800e+00
0	 4.499991084612202e+01	 1.499984997172426e+01	 9.999732242360270e+00
0	 4.499991084612203e+01	 1.571415215828766e+01	 9.999691497020414e+00
0	 4.499991084612203e+01	 1.642845401151722e+01	 9.999683323186613e+00
0	 4.499991084612203e+01	 1.714275536474550e+01	 9.999704087011850e+00
0	 4.499991084612203e+01	 1.785705605130509e+01	 9.999750154675693e+00
0	 4.499991084612203e+01	 1.857135590452858e+01	 9.999817892384343e+00
0	 4.499991084612202e+01	 1.928565475774854e+01	 9.999903666370553e+00
0	 4.499991084612203e+01	 1.999995244429754e+01	 1.000000384289370e+01
0	 4.499991084612202e+01	 2.071424879750816e+01	 1.000011478823976e+01
0	 4.499991084612203e+01	 2.142854365071297e+01	 1.000023286872132e+01
0	 4.571421671338500e+01	 1.428554761849444e+01	 9.999542213340121e+00
0	 4.571421671338501e+01	 1.499984997172427e+01	 9.999559384308935e+00
0	 4.571421671338501e+01	 1.571415215828766e+01	 9.999598487918069e+00
0	 4.571421671338500e+01	 1.642845401151722e+01	 9.999655414325206e+00
0	 4.571421671338501e+01	 1.714275536474550e+01	 9.999726053691120e+00
0	 4.571421671338499e+01	 1.785705605130509e+01	 9.999806296179683e+00
0	 4.571421671338500e+01	 1.857135590452858e+01	 9.999892031957895e+00
0	 4.571421671338501e+01	 1.928565475774853e+01	 9.999979151195877e+00
0	 4.571421671338501e+01	 1.999995244429753e+01	 1.000006354406688e+01
0	 4.571421671338501e+01	 2.071424879750816e+01	 1.000014110074723e+01
0	 4.571421671338499e+01	 2.142854365071296e+01	 1.000020771141640e+01
0	 4.642852108065614e+01	 1.428554761849444e+01	 9.999304666817361e+00
0	 4.642852108065613e+01	 1.499984997172426e+01	 9.999412675376858e+00
0	 4.642852108065614e+01	 1.571415215828766e+01	 9.999526350098391e+00
0	 4.642852108065613e+01	 1.642845401151721e+01	 9.999641735723724e+00
0	 4.642852108065613e+01	 1.714275536474550e+01	 9.999754876975480e+00
0	 4.642852108065613e+01	 1.785705605130510e+01	 9.999861818557108e+00
0	 4.642852108065612e+01	 1.857135590452858e+01	 9.999958605152919e+00
0	 4.642852108065613e+01	 1.928565475774854e+01	 1.000004128142810e+01
0	 4.642852108065614e+01	 1.999995244429753e+01	 1.000010589202867e+01
0	 4.642852108065613e+01	 2.071424879750815e+01	 1.000014848158150e+01
0	 4.642852108065614e+01	 2.142854365071297e+01	 1.000016509469432e+01
0	 4.714282336458874e+01	 1.428554761849444e+01	 9.999112436240001e+00
0	 4.714282336458874e+01	 1.499984997172426e+01	 9.999293353608882e+00
0	 4.714282336458875e+01	 1.571415215828767e+01	 9.999464372150426e+00
0	 4.714282336458874e+01	 1.642845401151722e+01	 9.999622321742912e+00
0	 4.714282336458874e+01	 1.714275536474550e+01	 9.999764032228208e+00
0	 4.714282336458875e+01	 1.785705605130510e+01	 9.999886333411764e+00
0	 4.714282336458874e+01	 1.857135590452858e+01	 9.999986055062607e+00
0	 4.714282336458874e+01	 1.928565475774854e+01	 1.000006002691336e+01
0	 4.714282336458876e+01	 1.999995244429754e+01	 1.000010507866022e+01
0	 4.714282336458875e+01	 2.071424879750815e+01	 1.000011803996297e+01
0	 4.714282336458875e+01	 2.142854365071297e+01	 1.000009574044498e+01
0	 4.785712298183613e+01	 1.428554761849445e+01	 9.998981404482997e+00
0	 4.785712298183613e+01	 1.499984997172426e+01	 9.999202657195323e+00
0	 4.785712298183613e+01	 1.571415215828766e+01	 9.999401842793713e+00
0	 4.785712298183613e+01	 1.642845401151721e+01	 9.999577206848057e+00
0	 4.785712298183612e+01	 1.714275536474550e+01	 9.999726994883350e+00
0	 4.785712298183613e+01	 1.785705605130510e+01	 9.999849452379644e+00
0	 4.785712298183612e+01	 1.857135590452858e+01	 9.999942824772068e+00
0	 4.785712298183613e+01	 1.928565475774854e+01	 1.000000535745088e+01
0	 4.785712298183613e+01	 1.999995244429753e+01	 1.000003529576137e+01
0	 4.785712298183613e+01	 2.071424879750816e+01	 1.000003088500396e+01
0	 4.785712298183611e+01	 2.142854365071296e+01	 9.999990370434084e+00
0	 4.857141934905161e+01	 1.428554761849444e+01	 9.998927454567806e+00
0	 4.857141934905160e+01	 1.499984997172426e+01	 9.999141824472062e+00
0	 4.857141934905160e+01	 1.571415215828766e+01	 9.999328050878365e+00
0	 4.857141934905160e+01	 1.642845401151722e+01	 9.999486425609081e+00
0	 4.857141934905161e+01	 1.714275536474550e+01	 9.999617240445710e+00
0	 4.857141934905160e+01	 1.785705605130510e+01	 9.999720787128872e+00
0	 4.857141934905161e+01	 1.857135590452859e+01	 9.999797357358318e+00
0	 4.857141934905159e+01	 1.928565475774854e+01	 9.999847242792908e+00
0	 4.857141934905160e+01	 1.999995244429754e+01	 9.999870735050658e+00
0	 4.857141934905160e+01	 2.071424879750816e+01	 9.999868125708648e+00
0	 4.857141934905160e+01	 2.142854365071296e+01	 9.999839706303145e+00
0	 4.928571188288846e+01	 1.428554761849444e+01	 9.998966469662349e+00
0	 4.928571188288846e+01	 1.499984997172426e+01	 9.999112093920488e+00
0	 4.928571188288846e+01	 1.571415215828766e+01	 9.999232285384997e+00
0	 4.928571188288846e+01	 1.642845401151722e+01	 9.999330012700437e+00
0	 4.928571188288846e+01	 1.714275536474550e+01	 9.999408244490862e+00
0	 4.928571188288846e+01	 1.785705605130510e+01	 9.999469949359810e+00
0	 4.928571188288846e+01	 1.857135590452858e+01	 9.999518095890281e+00
0	 4.928571188288846e+01	 1.928565475774854e+01	 9.999555652644769e+00
0	 4.928571188288846e+01	 1.999995244429753e+01	 9.999585588165258e+00
0	 4.928571188288846e+01	 2.071424879750816e+01	 9.999610870973152e+00
0	 4.928571188288846e+01	 2.142854365071296e+01	 9.999634469569401e+00
0	 5.000000000000000e+01	 1.428554761849444e+01	 9.999114333081071e+00
0	 5.000000000000000e+01	 1.499984997172426e+01	 9.999114704167578e+00
0	 5.000000000000001e+01	 1.571415215828766e+01	 9.999103835424805e+00
0	 5.000000000000000e+01	 1.642845401151722e+01	 9.999088002901214e+00
0	 4.999999999999999e+01	 1.714275536474550e+01	 9.999073482665185e+00
0	 5.000000000000000e+01	 1.785705605130510e+01	 9.999066550804963e+00
0	 5.000000000000000e+01	 1.857135590452858e+01	 9.999073483428798e+00
0	 5.000000000000000e+01	 1.928565475774854e+01	 9.999100556664803e+00
0	 5.000000000000000e+01	 1.999995244429753e+01	 9.999154046661022e+00
0	 5.000000000000000e+01	 2.071424879750816e+01	 9.999240229585446e+00
0	 5.000000000000001e+01	 2.142854365071296e+01	 9.999365381625953e+00
0	 4.285699007784908e+01	 2.142854365071297e+01	 1.000029636337095e+01
0	 4.285699007784907e+01	 2.214283692057824e+01	 1.000049239029409e+01
0	 4.285699007784908e+01	 2.285712885710493e+01	 1.000065575465185e+01
0	 4.285699007784908e+01	 2.357141979362770e+01	 1.000078564398940e+01
0	 4.285699007784908e+01	 2.428571006348117e+01	 1.000088124595993e+01
0	 4.285699007784908e+01	 2.500000000000001e+01	 1.000094174832456e+01
0	 4.285699007784907e+01	 2.571428993651883e+01	 1.000096633895233e+01
0	 4.285699007784907e+01	 2.642858020637231e+01	 1.000095420582034e+01
0	 4.285699007784906e+01	 2.714287114289507e+01	 1.000090453701353e+01
0	 4.285699007784908e+01	 2.785716307942178e+01	 1.000081652072489e+01
0	 4.285699007784907e+01	 2.857145634928704e+01	 1.000068934525533e+01
0	 4.357129694500737e+01	 2.142854365071296e+01	 1.000026791689901e+01
0	 4.357129694500738e+01	 2.214283692057823e+01	 1.000045624125142e+01
0	 4.357129694500736e+01	 2.285712885710494e+01	 1.000060671520481e+01
0	 4.357129694500738e+01	 2.357141979362770e+01	 1.000072026121821e+01
0	 4.357129694500736e+01	 2.428571006348117e+01	 1.000079780184945e+01
0	 4.357129694500736e+01	 2.500000000000000e+01	 1.000084025975511e+01
0	 4.357129694500737e+01	 2.571428993651884e+01	 1.000084855769048e+01
0	 4.357129694500738e+01	 2.642858020637232e+01	 1.000082361850964e+01
0	 4.357129694500738e+01	 2.714287114289508e+01	 1.000076636516542e+01
0	 4.357129694500737e+01	 2.785716307942177e+01	 1.000067772070941e+01
0	 4.357129694500737e+01	 2.857145634928704e+01	 1.000055860829192e+01
0	 4.428560406221392e+01	 2.142854365071295e+01	 1.000024984459496e+01
0	 4.428560406221392e+01	 2.214283692057824e+01	 1.000040438691978e+01
0	 4.428560406221392e+01	 2.285712885710494e+01	 1.000052275224006e+01
0	 4.428560406221391e+01	 2.357141979362770e+01	 1.000060710826575e+01
0	 4.428560406221393e+01	 2.428571006348117e+01	 1.000065962278364e+01
0	 4.428560406221393e+01	 2.500000000000000e+01	 1.000068246365731e+01
0	 4.428560406221393e+01	 2.571428993651883e+01	 1.000067779882722e+01
0	 4.428560406221391e+01	 2.642858020637231e+01	 1.000064779631063e+01
0	 4.428560406221393e+01	 2.714287114289509e+01	 1.000059462420162e+01
0	 4.428560406221392e+01	 2.785716307942177e+01	 1.000052045067113e+01
0	 4.428560406221392e+01	 2.857145634928704e+01	 1.000042744396690e+01
0	 4.499991084612203e+01	 2.142854365071297e+01	 1.000023286872132e+01
0	 4.499991084612205e+01	 2.214283692057824e+01	 1.000033758386509e+01
0	 4.499991084612203e+01	 2.285712885710494e+01	 1.000041280447262e+01
0	 4.499991084612202e+01	 2.357141979362770e+01	 1.000046145382422e+01
0	 4.499991084612203e+01	 2.428571006348118e+01	 1.000048645524754e+01
0	 4.499991084612203e+01	 2.500000000000001e+01	 1.000049073211764e+01
0	 4.499991084612203e+01	 2.571428993651883e+01	 1.000047720785693e+01
0	 4.499991084612202e+01	 2.642858020637232e+01	 1.000044880593521e+01
0	 4.499991084612203e+01	 2.714287114289507e+01	 1.000040844986965e+01
0	 4.499991084612203e+01	 2.785716307942177e+01	 1.000035906322482e+01
0	 4.499991084612203e+01	 2.857145634928704e+01	 1.000030356961262e+01
0	 4.571421671338499e+01	 2.142854365071296e+01	 1.000020771141640e+01
0	 4.571421671338499e+01	 2.214283692057824e+01	 1.000025658852586e+01
0	 4.571421671338501e+01	 2.285712885710495e+01	 1.000028581049820e+01
0	 4.571421671338499e+01	 2.357141979362770e+01	 1.000029856648354e+01
0	 4.571421671338500e+01	 2.428571006348117e+01	 1.000029804564761e+01
0	 4.571421671338499e+01	 2.500000000000000e+01	 1.000028743717169e+01
0	 4.571421671338499e+01	 2.571428993651883e+01	 1.000026993025268e+01
0	 4.571421671338498e+01	 2.642858020637231e+01	 1.000024871410301e+01
0	 4.571421671338500e+01	 2.714287114289507e+01	 1.000022697795070e+01
0	 4.571421671338499e+01	 2.785716307942177e+01	 1.000020791103937e+01
0	 4.571421671338499e+01	 2.857145634928703e+01	 1.000019470262817e+01
0	 4.642852108065614e+01	 2.142854365071297e+01	 1.000016509469432e+01
0	 4.642852108065613e+01	 2.214283692057824e+01	 1.000016215721313e+01
0	 4.642852108065615e+01	 2.285712885710494e+01	 1.000015070879310e+01
0	 4.642852108065614e+01	 2.357141979362770e+01	 1.000013371473137e+01
0	 4.642852108065613e+01	 2.428571006348117e+01	 1.000011414031166e+01
0	 4.642852108065612e+01	 2.500000000000001e+01	 1.000009495080434e+01
0	 4.642852108065613e+01	 2.571428993651884e+01	 1.000007911146637e+01
0	 4.642852108065613e+01	 2.642858020637231e+01	 1.000006958754138e+01
0	 4.642852108065613e+01	 2.714287114289507e+01	 1.000006934425957e+01
0	 4.642852108065613e+01	 2.785716307942177e+01	 1.000008134683776e+01
0	 4.642852108065615e+01	 2.857145634928704e+01	 1.000010856047942e+01
0	 4.714282336458875e+01	 2.142854365071297e+01	 1.000009574044498e+01
0	 4.714282336458875e+01	 2.214283692057824e+01	 1.000005504611046e+01
0	 4.714282336458875e+01	 2.285712885710494e+01	 1.000001643771433e+01
0	 4.714282336458875e+01	 2.357141979362770e+01	 9.999982166953087e+00
0	 4.714282336458876e+01	 2.428571006348117e+01	 9.999954485488876e+00
0	 4.714282336458874e+01	 2.500000000000000e+01	 9.999935644949549e+00
0	 4.714282336458874e+01	 2.571428993651883e+01	 9.999927896928645e+00
0	 4.714282336458874e+01	 2.642858020637231e+01	 9.999933492985374e+00
0	 4.714282336458874e+01	 2.714287114289508e+01	 9.999954684644649e+00
0	 4.714282336458874e+01	 2.785716307942177e+01	 9.999993723397086e+00
0	 4.714282336458875e+01	 2.857145634928704e+01	 1.000005286069897e+01
0	 4.785712298183611e+01	 2.142854365071296e+01	 9.999990370434084e+00
0	 4.785712298183613e+01	 2.214283692057824e+01	 9.999936011273956e+00
0	 4.785712298183612e+01	 2.285712885710493e+01	 9.999891935499519e+00
0	 4.785712298183613e+01	 2.357141979362770e+01	 9.999859191431819e+00
0	 4.785712298183613e+01	 2.428571006348118e+01	 9.999838827349837e+00
0	 4.785712298183613e+01	 2.500000000000000e+01	 9.999831891490537e+00
0	 4.785712298183613e+01	 2.571428993651884e+01	 9.999839432048866e+00
0	 4.785712298183613e+01	 2.642858020637231e+01	 9.999862497177723e+00
0	 4.785712298183613e+01	 2.714287114289508e+01	 9.999902134987998e+00
0	 4.785712298183613e+01	 2.785716307942177e+01	 9.999959393548526e+00
0	 4.785712298183612e+01	 2.857145634928704e+01	 1.000003532088616e+01
0	 4.857141934905160e+01	 2.142854365071296e+01	 9.999839706303145e+00
0	 4.857141934905160e+01	 2.214283692057824e+01	 9.999805808632276e+00
0	 4.857141934905160e+01	 2.285712885710494e+01	 9.999786140266947e+00
0	 4.857141934905161e+01	 2.357141979362770e+01	 9.999780056348380e+00
0	 4.857141934905159e+01	 2.428571006348117e+01	 9.999786911986448e+00
0	 4.857141934905160e+01	 2.500000000000001e+01	 9.999806062259649e+00
0	 4.857141934905160e+01	 2.571428993651883e+01	 9.999836862215208e+00
0	 4.857141934905160e+01	 2.642858020637231e+01	 9.999878666868906e+00
0	 4.857141934905160e+01	 2.714287114289507e+01	 9.999930831205255e+00
0	 4.857141934905159e+01	 2.785716307942177e+01	 9.999992710177393e+00
0	 4.857141934905160e+01	 2.857145634928703e+01	 1.000006365870712e+01
0	 4.928571188288846e+01	 2.142854365071296e+01	 9.999634469569401e+00
0	 4.928571188288846e+01	 2.214283692057824e+01	 9.999665193986594e+00
0	 4.928571188288846e+01	 2.285712885710494e+01	 9.999707990015558e+00
0	 4.928571188288846e+01	 2.357141979362770e+01	 9.999760029781362e+00
0	 4.928571188288846e+01	 2.428571006348118e+01	 9.999818485412025e+00
0	 4.928571188288845e+01	 2.500000000000000e+01	 9.999880529038469e+00
0	 4.928571188288846e+01	 2.571428993651884e+01	 9.999943332794569e+00
0	 4.928571188288845e+01	 2.642858020637231e+01	 1.000000406881709e+01
0	 4.928571188288846e+01	 2.714287114289507e+01	 1.000005990924570e+01
0	 4.928571188288845e+01	 2.785716307942177e+01	 1.000010802622308e+01
0	 4.928571188288845e+01	 2.857145634928704e+01	 1.000014559189472e+01
0	 5.000000000000001e+01	 2.142854365071296e+01	 9.999365381625953e+00
0	 5.000000000000000e+01	 2.214283692057824e+01	 9.999514923010622e+00
0	 5.000000000000000e+01	 2.285712885710494e+01	 9.999666422624902e+00
0	 5.000000000000000e+01	 2.357141979362770e+01	 9.999814379707017e+00
0	 5.000000000000000e+01	 2.428571006348117e+01	 9.999953293561212e+00
0	 5.000000000000001e+01	 2.500000000000001e+01	 1.000007766355771e+01
0	 5.000000000000001e+01	 2.571428993651884e+01	 1.000018198913266e+01
0	 4.999999999999999e+01	 2.642858020637231e+01	 1.000026076978815e+01
0	 5.000000000000000e+01	 2.714287114289507e+01	 1.000030850509229e+01
0	 4.999999999999999e+01	 2.785716307942177e+01	 1.000031969467911e+01
0	 5.000000000000000e+01	 2.857145634928704e+01	 1.000028883824861e+01
0	 4.285699007784907e+01	 2.857145634928704e+01	 1.000068934525533e+01
0	 4.285699007784908e+01	 2.928575120249185e+01	 1.000055227971862e+01
0	 4.285699007784908e+01	 3.000004755570248e+01	 1.000043530256107e+01
0	 4.285699007784908e+01	 3.071434524225148e+01	 1.000033866618562e+01
0	 4.285699007784907e+01	 3.142864409547143e+01	 1.000026262302498e+01
0	 4.285699007784908e+01	 3.214294394869492e+01	 1.000020742554160e+01
0	 4.285699007784908e+01	 3.285724463525452e+01	 1.000017332622770e+01
0	 4.285699007784908e+01	 3.357154598848280e+01	 1.000016057760525e+01
0	 4.285699007784908e+01	 3.428584784171235e+01	 1.000016943222592e+01
0	 4.285699007784908e+01	 3.500015002827575e+01	 1.000020014267119e+01
0	 4.285699007784907e+01	 3.571445238150555e+01	 1.000025296155225e+01
0	 4.357129694500737e+01	 2.857145634928704e+01	 1.000055860829192e+01
0	 4.357129694500737e+01	 2.928575120249186e+01	 1.000043646614397e+01
0	 4.357129694500736e+01	 3.000004755570248e+01	 1.000033745348338e+01
0	 4.357129694500738e+01	 3.071434524225148e+01	 1.000026057503416e+01
0	 4.357129694500738e+01	 3.142864409547142e+01	 1.000020483554602e+01
0	 4.357129694500737e+01	 3.214294394869492e+01	 1.000016923979445e+01
0	 4.357129694500736e+01	 3.285724463525452e+01	 1.000015279258072e+01
0	 4.357129694500738e+01	 3.357154598848280e+01	 1.000015449873184e+01
0	 4.357129694500738e+01	 3.428584784171235e+01	 1.000017336310057e+01
0	 4.357129694500737e+01	 3.500015002827575e+01	 1.000020839056548e+01
0	 4.357129694500737e+01	 3.571445238150555e+01	 1.000025858603083e+01
0	 4.428560406221392e+01	 2.857145634928704e+01	 1.000042744396690e+01
0	 4.428560406221392e+01	 2.928575120249186e+01	 1.000033708949142e+01
0	 4.428560406221392e+01	 3.000004755570248e+01	 1.000026818040671e+01
0	 4.428560406221393e+01	 3.071434524225148e+01	 1.000021884667064e+01
0	 4.428560406221393e+01	 3.142864409547143e+01	 1.000018721825862e+01
0	 4.428560406221393e+01	 3.214294394869492e+01	 1.000017142516367e+01
0	 4.428560406221393e+01	 3.285724463525452e+01	 1.000016959739633e+01
0	 4.428560406221391e+01	 3.357154598848280e+01	 1.000017986498469e+01
0	 4.428560406221391e+01	 3.428584784171233e+01	 1.000020035797441e+01
0	 4.428560406221391e+01	 3.500015002827573e+01	 1.000022920642871e+01
0	 4.428560406221392e+01	 3.571445238150557e+01	 1.000026454042836e+01
0	 4.499991084612203e+01	 2.857145634928704e+01	 1.000030356961262e+01
0	 4.499991084612202e+01	 2.928575120249186e+01	 1.000025494510710e+01
0	 4.499991084612203e+01	 3.000004755570247e+01	 1.000022263540789e+01
0	 4.499991084612202e+01	 3.071434524225147e+01	 1.000020426860601e+01
0	 4.499991084612203e+01	 3.142864409547143e+01	 1.000019747279939e+01
0	 4.499991084612203e+01	 3.214294394869492e+01	 1.000019987609292e+01
0	 4.499991084612202e+01	 3.285724463525451e+01	 1.000020910659842e+01
0	 4.499991084612203e+01	 3.357154598848279e+01	 1.000022279243462e+01
0	 4.499991084612203e+01	 3.428584784171236e+01	 1.000023856172721e+01
0	 4.499991084612203e+01	 3.500015002827575e+01	 1.000025404260877e+01
0	 4.499991084612202e+01	 3.571445238150555e+01	 1.000026686321884e+01
0	 4.571421671338499e+01	 2.857145634928703e+01	 1.000019470262817e+01
0	 4.571421671338500e+01	 2.928575120249186e+01	 1.000019082840702e+01
0	 4.571421671338499e+01	 3.000004755570248e+01	 1.000019597062841e+01
0	 4.571421671338501e+01	 3.071434524225148e+01	 1.000020762840399e+01
0	 4.571421671338500e+01	 3.142864409547143e+01	 1.000022330084101e+01
0	 4.571421671338500e+01	 3.214294394869492e+01	 1.000024048704242e+01
0	 4.571421671338500e+01	 3.285724463525451e+01	 1.000025668610684e+01
0	 4.571421671338500e+01	 3.357154598848280e+01	 1.000026939712856e+01
0	 4.571421671338501e+01	 3.428584784171235e+01	 1.000027611919753e+01
0	 4.571421671338499e+01	 3.500015002827575e+01	 1.000027435139936e+01
0	 4.571421671338501e+01	 3.571445238150556e+01	 1.000026159281536e+01
0	 4.642852108065615e+01	 2.857145634928704e+01	 1.000010856047942e+01
0	 4.642852108065613e+01	 2.928575120249186e+01	 1.000014553487701e+01
0	 4.642852108065615e+01	 3.000004755570247e+01	 1.000018333827432e+01
0	 4.642852108065613e+01	 3.071434524225148e+01	 1.000021971368103e+01
0	 4.642852108065613e+01	 3.142864409547142e+01	 1.000025240409233e+01
0	 4.642852108065613e+01	 3.214294394869492e+01	 1.000027915248902e+01
0	 4.642852108065615e+01	 3.285724463525451e+01	 1.000029770183745e+01
0	 4.642852108065613e+01	 3.357154598848279e+01	 1.000030579508951e+01
0	 4.642852108065613e+01	 3.428584784171234e+01	 1.000030117518267e+01
0	 4.642852108065613e+01	 3.500015002827575e+01	 1.000028158503999e+01
0	 4.642852108065613e+01	 3.571445238150556e+01	 1.000024476757006e+01
0	 4.714282336458875e+01	 2.857145634928704e+01	 1.000005286069897e+01
0	 4.714282336458874e+01	 2.928575120249186e+01	 1.000011986007283e+01
0	 4.714282336458875e+01	 3.000004755570247e+01	 1.000017989061627e+01
0	 4.714282336458874e+01	 3.071434524225147e+01	 1.000023131210631e+01
0	 4.714282336458874e+01	 3.142864409547143e+01	 1.000027248429835e+01
0	 4.714282336458875e+01	 3.214294394869491e+01	 1.000030176692619e+01
0	 4.714282336458875e+01	 3.285724463525452e+01	 1.000031751970205e+01
0	 4.714282336458874e+01	 3.357154598848280e+01	 1.000031810231655e+01
0	 4.714282336458875e+01	 3.428584784171235e+01	 1.000030187443872e+01
0	 4.714282336458875e+01	 3.500015002827575e+01	 1.000026719571600e+01
0	 4.714282336458874e+01	 3.571445238150555e+01	 1.000021242577422e+01
0	 4.785712298183612e+01	 2.857145634928704e+01	 1.000003532088616e+01
0	 4.785712298183613e+01	 2.928575120249186e+01	 1.000011459962008e+01
0	 4.785712298183612e+01	 3.000004755570247e+01	 1.000018077998950e+01
0	 4.785712298183613e+01	 3.071434524225147e+01	 1.000023321140177e+01
0	 4.785712298183613e+01	 3.142864409547143e+01	 1.000027124324016e+01
0	 4.785712298183613e+01	 3.214294394869492e+01	 1.000029422486396e+01
0	 4.785712298183613e+01	 3.285724463525451e+01	 1.000030150560846e+01
0	 4.785712298183613e+01	 3.357154598848280e+01	 1.000029243478490e+01
0	 4.785712298183613e+01	 3.428584784171235e+01	 1.000026636168051e+01
0	 4.785712298183613e+01	 3.500015002827575e+01	 1.000022263555853e+01
0	 4.785712298183613e+01	 3.571445238150555e+01	 1.000016060565815e+01
0	 4.857141934905160e+01	 2.857145634928703e+01	 1.000006365870712e+01
0	 4.857141934905160e+01	 2.928575120249186e+01	 1.000013054921427e+01
0	 4.857141934905160e+01	 3.000004755570247e+01	 1.000018115879389e+01
0	 4.857141934905160e+01	 3.071434524225148e+01	 1.000021619934208e+01
0	 4.857141934905161e+01	 3.142864409547143e+01	 1.000023638273501e+01
0	 4.857141934905160e+01	 3.214294394869491e+01	 1.000024242082903e+01
0	 4.857141934905160e+01	 3.285724463525450e+01	 1.000023502546048e+01
0	 4.857141934905161e+01	 3.357154598848280e+01	 1.000021490844581e+01
0	 4.857141934905160e+01	 3.428584784171235e+01	 1.000018278158161e+01
0	 4.857141934905160e+01	 3.500015002827575e+01	 1.000013935664452e+01
0	 4.857141934905160e+01	 3.571445238150555e+01	 1.000008534539125e+01
0	 4.928571188288845e+01	 2.857145634928704e+01	 1.000014559189472e+01
0	 4.928571188288846e+01	 2.928575120249186e+01	 1.000016850462080e+01
0	 4.928571188288846e+01	 3.000004755570248e+01	 1.000017617949388e+01
0	 4.928571188288846e+01	 3.071434524225147e+01	 1.000017106375466e+01
0	 4.928571188288846e+01	 3.142864409547142e+01	 1.000015560463634e+01
0	 4.928571188288846e+01	 3.214294394869491e+01	 1.000013224936466e+01
0	 4.928571188288845e+01	 3.285724463525451e+01	 1.000010344515786e+01
0	 4.928571188288846e+01	 3.357154598848280e+01	 1.000007163922669e+01
0	 4.928571188288846e+01	 3.428584784171235e+01	 1.000003927877439e+01
0	 4.928571188288846e+01	 3.500015002827575e+01	 1.000000881099675e+01
0	 4.928571188288846e+01	 3.571445238150555e+01	 9.999982683082022e+00
0	 5.000000000000000e+01	 2.857145634928704e+01	 1.000028883824861e+01
0	 5.000000000000000e+01	 2.928575120249186e+01	 1.000022926167492e+01
0	 4.999999999999999e+01	 3.000004755570248e+01	 1.000016099461854e+01
0	 5.000000000000000e+01	 3.071434524225148e+01	 1.000008859251968e+01
0	 4.999999999999999e+01	 3.142864409547142e+01	 1.000001661083363e+01
0	 5.000000000000000e+01	 3.214294394869492e+01	 9.999949605030736e+00
0	 4.999999999999999e+01	 3.285724463525451e+01	 9.999892130596361e+00
0	 5.000000000000000e+01	 3.357154598848280e+01	 9.999848743030949e+00
0	 4.999999999999999e+01	 3.428584784171235e+01	 9.999823997849914e+00
0	 5.000000000000001e+01	 3.500015002827575e+01	 9.999822450583750e+00
0	 5.000000000000000e+01	 3.571445238150555e+01	 9.999848656777985e+00
0	 4.285699007784907e+01	 3.571445238150555e+01	 1.000025296155225e+01
0	 4.285699007784907e+01	 3.642870477623359e+01	 1.000030969458404e+01
0	 4.285699007784907e+01	 3.714295725428857e+01	 1.000035180953767e+01
0	 4.285699007784908e+01	 3.785720989899839e+01	 1.000037903870826e+01
0	 4.285699007784907e+01	 3.857146279369100e+01	 1.000039111440178e+01
0	 4.285699007784906e+01	 3.928571602169431e+01	 1.000038776893498e+01
0	 4.285699007784908e+01	 3.999996966633628e+01	 1.000036873463546e+01
0	 4.285699007784908e+01	 4.071422381094481e+01	 1.000033374384165e+01
0	 4.285699007784908e+01	 4.142847853884783e+01	 1.000028252890278e+01
0	 4.285699007784908e+01	 4.214273393337328e+01	 1.000021482217894e+01
0	 4.285699007784907e+01	 4.285699007784908e+01	 1.000013035604098e+01
0	 4.357129694500737e+01	 3.571445238150555e+01	 1.000025858603082e+01
0	 4.357129694500738e+01	 3.642870477623360e+01	 1.000030747645932e+01
0	 4.357129694500738e+01	 3.714295725428858e+01	 1.000033977833905e+01
0	 4.357129694500737e+01	 3.785720989899841e+01	 1.000035626882481e+01
0	 4.357129694500735e+01	 3.857146279369100e+01	 1.000035772508065e+01
0	 4.357129694500737e+01	 3.928571602169432e+01	 1.000034492427977e+01
0	 4.357129694500738e+01	 3.999996966633629e+01	 1.000031864360458e+01
0	 4.357129694500738e+01	 4.071422381094482e+01	 1.000027966024671e+01
0	 4.357129694500736e+01	 4.142847853884783e+01	 1.000022875140696e+01
0	 4.357129694500737e+01	 4.214273393337327e+01	 1.000016669429532e+01
0	 4.357129694500737e+01	 4.285699007784908e+01	 1.000009426613100e+01
0	 4.428560406221392e+01	 3.571445238150557e+01	 1.000026454042835e+01
0	 4.428560406221392e+01	 3.642870477623360e+01	 1.000029445021421e+01
0	 4.428560406221393e+01	 3.714295725428858e+01	 1.000030927502914e+01
0	 4.428560406221393e+01	 3.785720989899841e+01	 1.000031051050460e+01
0	 4.428560406221391e+01	 3.857146279369100e+01	 1.000029965227813e+01
0	 4.428560406221392e+01	 3.928571602169433e+01	 1.000027819599330e+01
0	 4.428560406221393e+01	 3.999996966633628e+01	 1.000024763729975e+01
0	 4.428560406221392e+01	 4.071422381094482e+01	 1.000020947185319e+01
0	 4.428560406221393e+01	 4.142847853884784e+01	 1.000016519531538e+01
0	 4.428560406221391e+01	 4.214273393337326e+01	 1.000011630335412e+01
0	 4.428560406221392e+01	 4.285699007784908e+01	 1.000006429164328e+01
0	 4.499991084612202e+01	 3.571445238150555e+01	 1.000026686321884e+01
0	 4.499991084612204e+01	 3.642870477623361e+01	 1.000027139616878e+01
0	 4.499991084612202e+01	 3.714295725428855e+01	 1.000026485528767e+01
0	 4.499991084612204e+01	 3.785720989899841e+01	 1.000024912830144e+01
0	 4.499991084612203e+01	 3.857146279369100e+01	 1.000022610293812e+01
0	 4.499991084612202e+01	 3.928571602169433e+01	 1.000019766692782e+01
0	 4.499991084612203e+01	 3.999996966633629e+01	 1.000016570800272e+01
0	 4.499991084612203e+01	 4.071422381094482e+01	 1.000013211389713e+01
0	 4.499991084612203e+01	 4.142847853884783e+01	 1.000009877234740e+01
0	 4.499991084612203e+01	 4.214273393337327e+01	 1.000006757109199e+01
0	 4.499991084612203e+01	 4.285699007784908e+01	 1.000004039787144e+01
0	 4.571421671338501e+01	 3.571445238150556e+01	 1.000026159281536e+01
0	 4.571421671338500e+01	 3.642870477623360e+01	 1.000023909458294e+01
0	 4.571421671338499e+01	 3.714295725428857e+01	 1.000021107474136e+01
0	 4.571421671338501e+01	 3.785720989899840e+01	 1.000017948672814e+01
0	 4.571421671338499e+01	 3.857146279369100e+01	 1.000014628397878e+01
0	 4.571421671338500e+01	 3.928571602169433e+01	 1.000011341992671e+01
0	 4.571421671338499e+01	 3.999996966633628e+01	 1.000008284800337e+01
0	 4.571421671338499e+01	 4.071422381094482e+01	 1.000005652163807e+01
0	 4.571421671338499e+01	 4.142847853884783e+01	 1.000003639425814e+01
0	 4.571421671338499e+01	 4.214273393337327e+01	 1.000002441928884e+01
0	 4.571421671338501e+01	 4.285699007784908e+01	 1.000002255015339e+01
0	 4.642852108065613e+01	 3.571445238150556e+01	 1.000024476757006e+01
0	 4.642852108065615e+01	 3.642870477623359e+01	 1.000019832565640e+01
0	 4.642852108065614e+01	 3.714295725428858e+01	 1.000015248896390e+01
0	 4.642852108065614e+01	 3.785720989899841e+01	 1.000010895025652e+01
0	 4.642852108065615e+01	 3.857146279369100e+01	 1.000006940229254e+01
0	 4.642852108065613e+01	 3.928571602169432e+01	 1.000003553782460e+01
0	 4.642852108065615e+01	 3.999996966633629e+01	 1.000000904959967e+01
0	 4.642852108065613e+01	 4.071422381094482e+01	 9.999991630359057e+00
0	 4.642852108065613e+01	 4.142847853884783e+01	 9.999984972838432e+00
0	 4.642852108065613e+01	 4.214273393337327e+01	 9.999990769767768e+00
0	 4.642852108065613e+01	 4.285699007784907e+01	 1.000001071387143e+01
0	 4.714282336458874e+01	 3.571445238150555e+01	 1.000021242577422e+01
0	 4.714282336458876e+01	 3.642870477623361e+01	 1.000014986952869e+01
0	 4.714282336458874e+01	 3.714295725428858e+01	 1.000009365347601e+01
0	 4.714282336458875e+01	 3.785720989899841e+01	 1.000004488331741e+01
0	 4.714282336458874e+01	 3.857146279369099e+01	 1.000000466474611e+01
0	 4.714282336458874e+01	 3.928571602169432e+01	 9.999974103447199e+00
0	 4.714282336458874e+01	 3.999996966633628e+01	 9.999954305097742e+00
0	 4.714282336458876e+01	 4.071422381094482e+01	 9.999946375366660e+00
0	 4.714282336458874e+01	 4.142847853884784e+01	 9.999951419914854e+00
0	 4.714282336458874e+01	 4.214273393337327e+01	 9.999970544395111e+00
0	 4.714282336458875e+01	 4.285699007784908e+01	 1.000000485445217e+01
0	 4.785712298183613e+01	 3.571445238150555e+01	 1.000016060565815e+01
0	 4.785712298183611e+01	 3.642870477623359e+01	 1.000009450627920e+01
0	 4.785712298183613e+01	 3.714295725428857e+01	 1.000003912374538e+01
0	 4.785712298183612e+01	 3.785720989899840e+01	 9.999994650300692e+00
0	 4.785712298183613e+01	 3.857146279369100e+01	 9.999961278180468e+00
0	 4.785712298183613e+01	 3.928571602169433e+01	 9.999939199611470e+00
0	 4.785712298183613e+01	 3.999996966633628e+01	 9.999928606811801e+00
0	 4.785712298183613e+01	 4.071422381094481e+01	 9.999929691990948e+00
0	 4.785712298183612e+01	 4.142847853884783e+01	 9.999942647349739e+00
0	 4.785712298183613e+01	 4.214273393337328e+01	 9.999967665080415e+00
0	 4.785712298183613e+01	 4.285699007784907e+01	 1.000000493736657e+01
0	 4.857141934905160e+01	 3.571445238150555e+01	 1.000008534539125e+01
0	 4.857141934905159e+01	 3.642870477623359e+01	 1.000003301592706e+01
0	 4.857141934905160e+01	 3.714295725428857e+01	 9.999993455186690e+00
0	 4.857141934905160e+01	 3.785720989899839e+01	 9.999965615555180e+00
0	 4.857141934905159e+01	 3.857146279369100e+01	 9.999948449410873e+00
0	 4.857141934905158e+01	 3.928571602169432e+01	 9.999940909125513e+00
0	 4.857141934905160e+01	 3.999996966633628e+01	 9.999941947064237e+00
0	 4.857141934905160e+01	 4.071422381094482e+01	 9.999950515585487e+00
0	 4.857141934905160e+01	 4.142847853884783e+01	 9.999965567041144e+00
0	 4.857141934905161e+01	 4.214273393337328e+01	 9.999986053776443e+00
0	 4.857141934905160e+01	 4.285699007784908e+01	 1.000001092812998e+01
0	 4.928571188288846e+01	 3.571445238150555e+01	 9.999982683082022e+00
0	 4.928571188288846e+01	 3.642870477623359e+01	 9.999966178431272e+00
0	 4.928571188288846e+01	 3.714295725428857e+01	 9.999961203161650e+00
0	 4.928571188288846e+01	 3.785720989899840e+01	 9.999965143388799e+00
0	 4.928571188288846e+01	 3.857146279369100e+01	 9.999975385226858e+00
0	 4.928571188288846e+01	 3.928571602169433e+01	 9.999989314788627e+00
0	 4.928571188288846e+01	 3.999996966633628e+01	 1.000000431818548e+01
0	 4.928571188288846e+01	 4.071422381094481e+01	 1.000001778152738e+01
0	 4.928571188288846e+01	 4.142847853884783e+01	 1.000002709092291e+01
0	 4.928571188288846e+01	 4.214273393337328e+01	 1.000002963247921e+01
0	 4.928571188288846e+01	 4.285699007784908e+01	 1.000002279230205e+01
0	 5.000000000000000e+01	 3.571445238150555e+01	 9.999848656777983e+00
0	 4.999999999999998e+01	 3.642870477623359e+01	 9.999894773690606e+00
0	 5.000000000000000e+01	 3.714295725428858e+01	 9.999946922978905e+00
0	 5.000000000000001e+01	 3.785720989899839e+01	 1.000000059806840e+01
0	 5.000000000000001e+01	 3.857146279369101e+01	 1.000005129239220e+01
0	 5.000000000000000e+01	 3.928571602169433e+01	 1.000009449939125e+01
0	 5.000000000000000e+01	 3.999996966633629e+01	 1.000012571251414e+01
0	 5.000000000000001e+01	 4.071422381094481e+01	 1.000014042521723e+01
0	 4.999999999999999e+01	 4.142847853884783e+01	 1.000013413096457e+01
0	 5.000000000000000e+01	 4.214273393337328e+01	 1.000010232322793e+01
0	 5.000000000000001e+01	 4.285699007784908e+01	 1.000004049548676e+01
0	 4.285699007784907e+01	 4.285699007784908e+01	 1.000013035604098e+01
0	 4.285699007784908e+01	 4.357129694500737e+01	 1.000004796267722e+01
0	 4.285699007784906e+01	 4.428560406221393e+01	 9.999986426768263e+00
0	 4.285699007784908e+01	 4.499991084612203e+01	 9.999945389998047e+00
0	 4.285699007784908e+01	 4.571421671338501e+01	 9.999924494162059e+00
0	 4.285699007784907e+01	 4.642852108065613e+01	 9.999923381167489e+00
0	 4.285699007784908e+01	 4.714282336458876e+01	 9.999941693033120e+00
0	 4.285699007784908e+01	 4.785712298183613e+01	 9.999979071889380e+00
0	 4.285699007784908e+01	 4.857141934905160e+01	 1.000003515997829e+01
0	 4.285699007784908e+01	 4.928571188288846e+01	 1.000010959965362e+01
0	 4.285699007784908e+01	 5.000000000000001e+01	 1.000020203338067e+01
0	 4.357129694500737e+01	 4.285699007784908e+01	 1.000009426613100e+01
0	 4.357129694500738e+01	 4.357129694500737e+01	 1.000002774538399e+01
0	 4.357129694500736e+01	 4.428560406221393e+01	 9.999981698148844e+00
0	 4.357129694500738e+01	 4.499991084612203e+01	 9.999954316912083e+00
0	 4.357129694500736e+01	 4.571421671338500e+01	 9.999943794252026e+00
0	 4.357129694500736e+01	 4.642852108065613e+01	 9.999948322838826e+00
0	 4.357129694500738e+01	 4.714282336458875e+01	 9.999966095434397e+00
0	 4.357129694500737e+01	 4.785712298183613e+01	 9.999995304892497e+00
0	 4.357129694500737e+01	 4.857141934905162e+01	 1.000003414415868e+01
0	 4.357129694500738e+01	 4.928571188288846e+01	 1.000008080627027e+01
0	 4.357129694500737e+01	 4.999999999999999e+01	 1.000013348435654e+01
0	 4.428560406221392e+01	 4.285699007784908e+01	 1.000006429164328e+01
0	 4.428560406221392e+01	 4.357129694500737e+01	 1.000002041935089e+01
0	 4.428560406221393e+01	 4.428560406221393e+01	 9.999993123620264e+00
0	 4.428560406221391e+01	 4.499991084612203e+01	 9.999979655992266e+00
0	 4.428560406221392e+01	 4.571421671338499e+01	 9.999977268067854e+00
0	 4.428560406221393e+01	 4.642852108065613e+01	 9.999983211508287e+00
0	 4.428560406221392e+01	 4.714282336458875e+01	 9.999994738035067e+00
0	 4.428560406221393e+01	 4.785712298183614e+01	 1.000000909942991e+01
0	 4.428560406221393e+01	 4.857141934905160e+01	 1.000002354753473e+01
0	 4.428560406221391e+01	 4.928571188288846e+01	 1.000003533425167e+01
0	 4.428560406221392e+01	 5.000000000000001e+01	 1.000004171154321e+01
0	 4.499991084612203e+01	 4.285699007784908e+01	 1.000004039787144e+01
0	 4.499991084612203e+01	 4.357129694500738e+01	 1.000002212385624e+01
0	 4.499991084612203e+01	 4.428560406221393e+01	 1.000001424437059e+01
0	 4.499991084612203e+01	 4.499991084612203e+01	 1.000001357825286e+01
0	 4.499991084612203e+01	 4.571421671338501e+01	 1.000001694436426e+01
0	 4.499991084612203e+01	 4.642852108065615e+01	 1.000002116158900e+01
0	 4.499991084612203e+01	 4.714282336458874e+01	 1.000002304883417e+01
0	 4.499991084612203e+01	 4.785712298183613e+01	 1.000001942502982e+01
0	 4.499991084612203e+01	 4.857141934905160e+01	 1.000000710912884e+01
0	 4.499991084612202e+01	 4.928571188288844e+01	 9.999982920107133e+00
0	 4.499991084612202e+01	 5.000000000000000e+01	 9.999943676963479e+00
0	 4.571421671338501e+01	 4.285699007784908e+01	 1.000002255015339e+01
0	 4.571421671338499e+01	 4.357129694500737e+01	 1.000002899821659e+01
0	 4.571421671338499e+01	 4.428560406221391e+01	 1.000003860161439e+01
0	 4.571421671338499e+01	 4.499991084612203e+01	 1.000004825472011e+01
0	 4.571421671338499e+01	 4.571421671338497e+01	 1.000005485189293e+01
0	 4.571421671338500e+01	 4.642852108065614e+01	 1.000005528747792e+01
0	 4.571421671338501e+01	 4.714282336458874e+01	 1.000004645580606e+01
0	 4.571421671338499e+01	 4.785712298183611e+01	 1.000002525119421e+01
0	 4.571421671338501e+01	 4.857141934905160e+01	 9.999988567945110e+00
0	 4.571421671338501e+01	 4.928571188288847e+01	 9.999933300347543e+00
0	 4.571421671338500e+01	 4.999999999999999e+01	 9.999856342675947e+00
0	 4.642852108065613e+01	 4.285699007784907e+01	 1.000001071387143e+01
0	 4.642852108065613e+01	 4.357129694500737e+01	 1.000003718178666e+01
0	 4.642852108065613e+01	 4.428560406221392e+01	 1.000005973659287e+01
0	 4.642852108065614e+01	 4.499991084612203e+01	 1.000007585643234e+01
0	 4.642852108065614e+01	 4.571421671338501e+01	 1.000008301940247e+01
0	 4.642852108065614e+01	 4.642852108065614e+01	 1.000007870355588e+01
0	 4.642852108065613e+01	 4.714282336458874e+01	 1.000006038690031e+01
0	 4.642852108065613e+01	 4.785712298183613e+01	 1.000002554739875e+01
0	 4.642852108065614e+01	 4.857141934905159e+01	 9.999971662969248e+00
0	 4.642852108065613e+01	 4.928571188288846e+01	 9.999896211485126e+00
0	 4.642852108065614e+01	 5.000000000000001e+01	 9.999796670774803e+00
0	 4.714282336458875e+01	 4.285699007784908e+01	 1.000000485445217e+01
0	 4.714282336458875e+01	 4.357129694500738e+01	 1.000004281395935e+01
0	 4.714282336458875e+01	 4.428560406221391e+01	 1.000007119057377e+01
0	 4.714282336458875e+01	 4.499991084612203e+01	 1.000008855443976e+01
0	 4.714282336458874e+01	 4.571421671338501e+01	 1.000009347563840e+01
0	 4.714282336458875e+01	 4.642852108065614e+01	 1.000008452418760e+01
0	 4.714282336458874e+01	 4.714282336458875e+01	 1.000006027004193e+01
0	 4.714282336458874e+01	 4.785712298183613e+01	 1.000001928309285e+01
0	 4.714282336458874e+01	 4.857141934905159e+01	 9.999960133168470e+00
0	 4.714282336458875e+01	 4.928571188288847e+01	 9.999881390033742e+00
0	 4.714282336458874e+01	 4.999999999999999e+01	 9.999781623390380e+00
0	 4.785712298183613e+01	 4.285699007784907e+01	 1.000000493736658e+01
0	 4.785712298183613e+01	 4.357129694500738e+01	 1.000004203416581e+01
0	 4.785712298183613e+01	 4.428560406221392e+01	 1.000006650485145e+01
0	 4.785712298183613e+01	 4.499991084612203e+01	 1.000007851980465e+01
0	 4.785712298183613e+01	 4.571421671338499e+01	 1.000007824934318e+01
0	 4.785712298183612e+01	 4.642852108065613e+01	 1.000006586372161e+01
0	 4.785712298183613e+01	 4.714282336458874e+01	 1.000004153313111e+01
0	 4.785712298183613e+01	 4.785712298183613e+01	 1.000000542769962e+01
0	 4.785712298183613e+01	 4.857141934905160e+01	 9.999957717491732e+00
0	 4.785712298183613e+01	 4.928571188288846e+01	 9.999898572508751e+00
0	 4.785712298183613e+01	 5.000000000000000e+01	 9.999828162688631e+00
0	 4.857141934905160e+01	 4.285699007784908e+01	 1.000001092812998e+01
0	 4.857141934905160e+01	 4.357129694500738e+01	 1.000003098187535e+01
0	 4.857141934905159e+01	 4.428560406221392e+01	 1.000003922074686e+01
0	 4.857141934905160e+01	 4.499991084612203e+01	 1.000003792360124e+01
0	 4.857141934905160e+01	 4.571421671338500e+01	 1.000002936925619e+01
0	 4.857141934905160e+01	 4.642852108065614e+01	 1.000001583649034e+01
0	 4.857141934905160e+01	 4.714282336458874e+01	 9.999999604043390e+00
0	 4.857141934905160e+01	 4.785712298183613e+01	 9.999982950615923e+00
0	 4.857141934905160e+01	 4.857141934905160e+01	 9.999968154869585e+00
0	 4.857141934905161e+01	 4.928571188288846e+01	 9.999957495426871e+00
0	 4.857141934905160e+01	 5.000000000000000e+01	 9.999953250871403e+00
0	 4.928571188288846e+01	 4.285699007784908e+01	 1.000002279230204e+01
0	 4.928571188288846e+01	 4.357129694500737e+01	 1.000000579659546e+01
0	 4.928571188288845e+01	 4.428560406221392e+01	 9.999982879607506e+00
0	 4.928571188288846e+01	 4.499991084612203e+01	 9.999958936915805e+00
0	 4.928571188288845e+01	 4.571421671338499e+01	 9.999938864113709e+00
0	 4.928571188288846e+01	 4.642852108065613e+01	 9.999927556810114e+00
0	 4.928571188288846e+01	 4.714282336458875e+01	 9.999929910629579e+00
0	 4.928571188288846e+01	 4.785712298183613e+01	 9.999950821212305e+00
0	 4.928571188288846e+01	 4.857141934905161e+01	 9.999995184214095e+00
0	 4.928571188288846e+01	 4.928571188288846e+01	 1.000006789530642e+01
0	 4.928571188288846e+01	 5.000000000000000e+01	 1.000017385017632e+01
0	 5.000000000000001e+01	 4.285699007784908e+01	 1.000004049548676e+01
0	 4.999999999999999e+01	 4.357129694500737e+01	 9.999962617871914e+00
0	 5.000000000000001e+01	 4.428560406221392e+01	 9.999891022807502e+00
0	 5.000000000000000e+01	 4.499991084612202e+01	 9.999833730846591e+00
0	 4.999999999999999e+01	 4.571421671338500e+01	 9.999798762648984e+00
0	 5.000000000000001e+01	 4.642852108065614e+01	 9.999794138981029e+00
0	 4.999999999999999e+01	 4.714282336458874e+01	 9.999827880715813e+00
0	 5.000000000000000e+01	 4.785712298183613e+01	 9.999908008833057e+00
0	 5.000000000000000e+01	 4.857141934905160e+01	 1.000004254441915e+01
0	 5.000000000000000e+01	 4.928571188288846e+01	 1.000023950866718e+01
0	 5.000000000000000e+01	 5.000000000000000e+01	 1.000050692287694e+01
1	 1.000000000000000e+00	 0.000000000000000e+00	 7.436096624645842e+00
1	 9.998338218507750e-01	 2.301879740688203e-02	 7.473865739550006e+00
1	 9.993275599243348e-01	 4.608215271279779e-02	 7.494768227549924e+00
1	 9.984697124756583e-01	 6.917769523648053e-02	 7.497481408475882e+00
1	 9.972489236794969e-01	 9.229260277661558e-02	 7.480602316709555e+00
1	 9.956540178012001e-01	 1.154136152499791e-01	 7.442647759618215e+00
1	 9.936740343365396e-01	 1.385270506335803e-01	 7.382055058475939e+00
1	 9.912982639881663e-01	 1.616188232546628e-01	 7.297183549534209e+00
1	 9.885162853320295e-01	 1.846744644584668e-01	 7.186316921697723e+00
1	 9.853180020131134e-01	 2.076791456684508e-01	 7.047666464363540e+00
1	 9.816936802964240e-01	 2.306177038372821e-01	 6.879375294188735e+00
1	 1.014285762337685e+00	 0.000000000000000e+00	 7.107287766856468e+00
1	 1.014117210207158e+00	 2.334763847636930e-02	 7.132474658439859e+00
1	 1.013603715943827e+00	 4.674047139590417e-02	 7.141243310012081e+00
1	 1.012733613491393e+00	 7.016595135258462e-02	 7.132300308799004e+00
1	 1.011495384797893e+00	 9.361107297002941e-02	 7.104281176735577e+00
1	 1.009877694474696e+00	 1.170623867344661e-01	 7.055751005792516e+00
1	 1.007869425438318e+00	 1.405060151646194e-01	 6.985205753094920e+00
1	 1.005459715400836e+00	 1.639276713629985e-01	 6.891074263500628e+00
1	 1.002637994060108e+00	 1.873126799789160e-01	 6.771721085292109e+00
1	 9.993940208268849e-01	 2.106460005981402e-01	 6.625450141027567e+00
1	 9.957179229122425e-01	 2.339122535574748e-01	 6.450509310227982e+00
1	 1.028571613012482e+00	 0.000000000000000e+00	 6.784304693477635e+00
1	 1.028400686885902e+00	 2.367648157850007e-02	 6.799431646043624e+00
1	 1.027879960240766e+00	 4.739879414830282e-02	 6.798593509497547e+00
1	 1.026997602708497e+00	 7.115421357755074e-02	 6.780521818395686e+00
1	 1.025741934009444e+00	 9.492955131367199e-02	 6.743885738265696e+00
1	 1.024101459100028e+00	 1.187111684111830e-01	 6.687293292184525e+00
1	 1.022064904316570e+00	 1.424849919293243e-01	 6.609293229365299e+00
1	 1.019621254379648e+00	 1.662365337446359e-01	 6.508377593716099e+00
1	 1.016759790108138e+00	 1.899509118092326e-01	 6.382985047467860e+00
1	 1.013470126677695e+00	 2.136128738698931e-01	 6.231505000597662e+00
1	 1.009742252244628e+00	 2.372068236462269e-01	 6.052282590761254e+00
1	 1.042857540357000e+00	 0.000000000000000e+00	 6.467940830515177e+00
1	 1.042684240221567e+00	 2.400532644483651e-02	 6.475176063886714e+00
1	 1.042156281155643e+00	 4.805712043257811e-02	 6.466907231259978e+00
1	 1.041261668477513e+00	 7.214248110459021e-02	 6.441886509642145e+00
1	 1.039988559678984e+00	 9.624803673113663e-02	 6.398811887238080e+00
1	 1.038325300060698e+00	 1.203599589340155e-01	 6.336328995364051e+00
1	 1.036260459377960e+00	 1.444639793119433e-01	 6.253033569427224e+00
1	 1.033782869359052e+00	 1.685454085144208e-01	 6.147474587513951e+00
1	 1.030881661943093e+00	 1.925891577952661e-01	 6.018158131369283e+00
1	 1.027546308069888e+00	 2.165797630611406e-01	 5.863552009362686e+00
1	 1.023766656840262e+00	 2.405014114133076e-01	 5.682091174316083e+00
1	 1.057143532703853e+00	 0.000000000000000e+00	 6.158946684549425e+00
1	 1.056967858548713e+00	 2.433417280694075e-02	 6.160123490555403e+00
1	 1.056432667028950e+00	 4.871544971131429e-02	 6.146268066109645e+00
1	 1.055525799148979e+00	 7.313075312691440e-02	 6.116148940130511e+00
1	 1.054235250171347e+00	 9.756652814601664e-02	 6.068488124358370e+00
1	 1.052549205740208e+00	 1.220087569568488e-01	 6.001963564430612e+00
1	 1.050456079029154e+00	 1.464429756967244e-01	 5.915212211850594e+00
1	 1.047944548773499e+00	 1.708542937871996e-01	 5.806833756254099e+00
1	 1.045003598031943e+00	 1.952274157828657e-01	 5.675395052678888e+00
1	 1.041622553507811e+00	 2.195466657493138e-01	 5.519435272485907e+00
1	 1.037791125245829e+00	 2.437960141684862e-01	 5.337471799093301e+00
1	 1.071429578385649e+00	 0.000000000000000e+00	 5.858032702935295e+00
1	 1.071251530201898e+00	 2.466302039637492e-02	 5.854667306496272e+00
1	 1.070709106201178e+00	 4.937378144709573e-02	 5.836755111008539e+00
1	 1.069789983073436e+00	 7.411902883773466e-02	 5.803076720310276e+00
1	 1.068481993851369e+00	 9.888502448190539e-02	 5.752373391120937e+00
1	 1.066773164522058e+00	 1.236575611335686e-01	 5.683350116857768e+00
1	 1.064651751676819e+00	 1.484219794679160e-01	 5.594679328881424e+00
1	 1.062106281057439e+00	 1.731631876778187e-01	 5.485005245710537e+00
1	 1.059125586841663e+00	 1.978656836178809e-01	 5.352948895068113e+00
1	 1.055698851495811e+00	 2.225135795118439e-01	 5.197113826644268e+00
1	 1.051815646008011e+00	 2.470906292215318e-01	 5.016092525141228e+00
1	 1.085715665735001e+00	 0.000000000000000e+00	 5.565871908386484e+00
1	 1.085535243515682e+00	 2.499186894470118e-02	 5.559180153804644e+00
1	 1.084985587012820e+00	 5.003211510250672e-02	 5.538443264376258e+00
1	 1.084054208601425e+00	 7.510730743026230e-02	 5.502449654674983e+00
1	 1.082728779083882e+00	 1.002035246623961e-01	 5.449955067315574e+00
1	 1.080997164789749e+00	 1.253063701180604e-01	 5.379686302860381e+00
1	 1.078847465727619e+00	 1.504009890097661e-01	 5.290345568335378e+00
1	 1.076268054645321e+00	 1.754720883011241e-01	 5.180615466304273e+00
1	 1.073247616839224e+00	 2.005039591461607e-01	 5.049164639751279e+00
1	 1.069775190538234e+00	 2.254805019261618e-01	 4.894654080072160e+00
1	 1.065840207673492e+00	 2.503852538822138e-01	 4.715744096262188e+00
1	 1.100001783084519e+00	 0.000000000000000e+00	 5.283102328437302e+00
1	 1.099818986824623e+00	 2.532071818348164e-02	 5.274015282357360e+00
1	 1.099262097804366e+00	 5.069045014013161e-02	 5.251403498403856e+00
1	 1.098318464083486e+00	 7.609558809770867e-02	 5.214058949813463e+00
1	 1.096975594233721e+00	 1.015220276110822e-01	 5.160747124442898e+00
1	 1.095221194926784e+00	 1.269551825642097e-01	 5.090211413893972e+00
1	 1.093043209588223e+00	 1.523800027065229e-01	 5.001178127016223e+00
1	 1.090429857971597e+00	 1.777809937719623e-01	 4.892362141412284e+00
1	 1.087369676491597e+00	 2.031422402135547e-01	 4.762473198811599e+00
1	 1.083851559139426e+00	 2.284474305696987e-01	 4.610222841203724e+00
1	 1.079864798788953e+00	 2.536798854603011e-01	 4.434331974458278e+00
1	 1.114287918766816e+00	 0.000000000000000e+00	 5.010329238175381e+00
1	 1.114102748463282e+00	 2.564956784427844e-02	 4.999507792481210e+00
1	 1.113538626916308e+00	 5.134878602255466e-02	 4.975703110437224e+00
1	 1.112582737870157e+00	 7.708387003328505e-02	 4.937706483330119e+00
1	 1.111222427665721e+00	 1.028405322515569e-01	 4.884288421058067e+00
1	 1.109445243316661e+00	 1.286039971259019e-01	 4.814203713394754e+00
1	 1.107238971665293e+00	 1.543590189424345e-01	 4.726197125931475e+00
1	 1.104591679470715e+00	 1.800899022051795e-01	 4.619009736263584e+00
1	 1.101491754265754e+00	 2.057805246659122e-01	 4.491385907125913e+00
1	 1.097927945803734e+00	 2.314143630198855e-01	 4.342080883133908e+00
1	 1.093889407901079e+00	 2.569745212655634e-01	 4.169868986609892e+00
1	 1.128574061114501e+00	 0.000000000000000e+00	 4.748127232777564e+00
1	 1.128386516766216e+00	 2.597841765865374e-02	 4.735975783317429e+00
1	 1.127815162689139e+00	 5.200712221236022e-02	 4.711405955283159e+00
1	 1.126847018311981e+00	 7.807215243020288e-02	 4.673204128244948e+00
1	 1.125469267744715e+00	 1.041590375074135e-01	 4.620141127477068e+00
1	 1.123669298342884e+00	 1.302528124570227e-01	 4.550977970083996e+00
1	 1.121434740365498e+00	 1.563380361017492e-01	 4.464472260585087e+00
1	 1.118753507577126e+00	 1.823988117156219e-01	 4.359385233726617e+00
1	 1.115613838628670e+00	 2.084188103490824e-01	 4.234489432285601e+00
1	 1.112004339035504e+00	 2.343812968541535e-01	 4.088576996458985e+00
1	 1.107914023556551e+00	 2.602691586077694e-01	 3.920468529182420e+00
1	 1.142860198460186e+00	 0.000000000000000e+00	 4.497042144729233e+00
1	 1.142670280067985e+00	 2.630726735816965e-02	 4.483721415127181e+00
1	 1.142091693463350e+00	 5.266545817213261e-02	 4.458572660105988e+00
1	 1.141111293759497e+00	 7.906043448167339e-02	 4.420373128022733e+00
1	 1.139716102835537e+00	 1.054775423022454e-01	 4.367889268535363e+00
1	 1.137893348388953e+00	 1.319016272114574e-01	 4.299883176126554e+00
1	 1.135630504095502e+00	 1.583170525687151e-01	 4.215119702297332e+00
1	 1.132915330725281e+00	 1.847077204181359e-01	 4.112374226659347e+00
1	 1.129735918047314e+00	 2.110570951089146e-01	 3.990441065968229e+00
1	 1.126080727339082e+00	 2.373482296499335e-01	 3.848142487797543e+00
1	 1.121938634302054e+00	 2.635637947966888e-01	 3.684338282172525e+00
1	 9.816936802964240e-01	 2.306177038372821e-01	 6.879375294188735e+00
1	 9.776342863994824e-01	 2.534730768946625e-01	 6.677087799167838e+00
1	 9.731306880439857e-01	 2.762311524069800e-01	 6.436565571446151e+00
1	 9.681744667976357e-01	 2.988759714563225e-01	 6.156400702712789e+00
1	 9.627577163271480e-01	 3.213913671440238e-01	 5.835595118245350e+00
1	 9.568730786461752e-01	 3.437610012650069e-01	 5.473600642338102e+00
1	 9.505137794457967e-01	 3.659684029576715e-01	 5.070357136401551e+00
1	 9.436736622717954e-01	 3.879970091915093e-01	 4.626328012123559e+00
1	 9.363472213109787e-01	 4.098302069345519e-01	 4.142532402516458e+00
1	 9.285296325490471e-01	 4.314513768232032e-01	 3.620573268023203e+00
1	 9.202167830650884e-01	 4.528439381382666e-01	 3.062660724875567e+00
1	 9.957179229122425e-01	 2.339122535574748e-01	 6.450509310227980e+00
1	 9.916005374791480e-01	 2.570941330418181e-01	 6.244077096113511e+00
1	 9.870326017877620e-01	 2.801773250107799e-01	 6.003433085579472e+00
1	 9.820055771421120e-01	 3.031456425612922e-01	 5.727234961127607e+00
1	 9.765114442609665e-01	 3.259826878383744e-01	 5.414513560649141e+00
1	 9.705427400435855e-01	 3.486718892333964e-01	 5.064709809192539e+00
1	 9.640925934049355e-01	 3.711965405861092e-01	 4.677709928890103e+00
1	 9.571547599412131e-01	 3.935398422506569e-01	 4.253878287074662e+00
1	 9.497236551845439e-01	 4.156849438654169e-01	 3.794087223821461e+00
1	 9.417943862059640e-01	 4.376149886466908e-01	 3.299743194056158e+00
1	 9.333627813284100e-01	 4.593131590072458e-01	 2.772808567600924e+00
1	 1.009742252244628e+00	 2.372068236462269e-01	 6.052282590761254e+00
1	 1.005566874916577e+00	 2.607152115768242e-01	 5.843866478380315e+00
1	 1.000934601491359e+00	 2.841235220132460e-01	 5.604895931559694e+00
1	 9.958367730085770e-01	 3.074153400658279e-01	 5.334095991271659e+00
1	 9.902652572383444e-01	 3.305740369218140e-01	 5.030530346605055e+00
1	 9.842124859648721e-01	 3.535828075675452e-01	 4.693635270575179e+00
1	 9.776714913264066e-01	 3.764247105426353e-01	 4.323252024805488e+00
1	 9.706359409690050e-01	 3.990827095843819e-01	 3.919657147921253e+00
1	 9.631001717696162e-01	 4.215397170000070e-01	 3.483590024515273e+00
1	 9.550592218841777e-01	 4.437786385842048e-01	 3.016277125116952e+00
1	 9.465088608791017e-01	 4.657824198802068e-01	 2.519452314219091e+00
1	 1.023766656840262e+00	 2.405014114133076e-01	 5.682091174316083e+00
1	 1.019533287305854e+00	 2.643363095427448e-01	 5.473539231314950e+00
1	 1.014836675801436e+00	 2.880697401918617e-01	 5.237745361430064e+00
1	 1.009668043101530e+00	 3.116850604831455e-01	 4.973503499064705e+00
1	 1.004019144026986e+00	 3.351654106447972e-01	 4.679913798765283e+00
1	 9.978823052463919e-01	 3.584937522568460e-01	 4.356413707599688e+00
1	 9.912504621207464e-01	 3.816529085574751e-01	 4.002807682909157e+00
1	 9.841171943454884e-01	 4.046256066658365e-01	 3.619295022358866e+00
1	 9.764767601419596e-01	 4.273945215566902e-01	 3.206495256091611e+00
1	 9.683241287506194e-01	 4.499423216018177e-01	 2.765470544129998e+00
1	 9.596550109810312e-01	 4.722517154736102e-01	 2.297744527363334e+00
1	 1.037791125245829e+00	 2.437960141684862e-01	 5.337471799093301e+00
1	 1.033499763241064e+00	 2.679574239826441e-01	 5.130336242566458e+00
1	 1.028738813364647e+00	 2.920159763241097e-01	 4.898946012212139e+00
1	 1.023499376125471e+00	 3.159548003264606e-01	 4.642165250724748e+00
1	 1.017773093394594e+00	 3.397568052577776e-01	 4.359133885594355e+00
1	 1.011552186724500e+00	 3.634047192906907e-01	 4.049295965682177e+00
1	 1.004829494698492e+00	 3.868811303608553e-01	 3.712426805994338e+00
1	 9.975985090609817e-01	 4.101685289681731e-01	 3.348658457041053e+00
1	 9.898534093773371e-01	 4.332493527538351e-01	 2.958502998947627e+00
1	 9.815890959722187e-01	 4.561060326656014e-01	 2.542873153698694e+00
1	 9.728012208980669e-01	 4.787210405039170e-01	 2.103099712821948e+00
1	 1.051815646008011e+00	 2.470906292215318e-01	 5.016092525141230e+00
1	 1.047466291316291e+00	 2.715785519395860e-01	 4.811645497628139e+00
1	 1.042641002827651e+00	 2.959622271874738e-01	 4.585624349412333e+00
1	 1.037330760784896e+00	 3.202245561089889e-01	 4.336964537997792e+00
1	 1.031527094108872e+00	 3.443482170112095e-01	 4.064848780911853e+00
1	 1.025222119235553e+00	 3.683157046584718e-01	 3.768732779469980e+00
1	 1.018408577970180e+00	 3.921093716830016e-01	 3.448369900392604e+00
1	 1.011079874105802e+00	 4.157114719645439e-01	 3.103834378594371e+00
1	 1.003230108551512e+00	 4.391042058098098e-01	 2.735542589187174e+00
1	 9.948541127159070e-01	 4.622697667416280e-01	 2.344271929926973e+00
1	 9.859474798940767e-01	 4.851903896875877e-01	 1.931176858154647e+00
1	 1.065840207673492e+00	 2.503852538822138e-01	 4.715744096262188e+00
1	 1.061432860125619e+00	 2.751996904566348e-01	 4.514992403981271e+00
1	 1.056543232837103e+00	 2.999084895594362e-01	 4.295058022115841e+00
1	 1.051162185784308e+00	 3.244943243439465e-01	 4.054948632142302e+00
1	 1.045281134937524e+00	 3.489396421555472e-01	 3.793892483631244e+00
1	 1.038892091615907e+00	 3.732267043495812e-01	 3.511361623801904e+00
1	 1.031987700846347e+00	 3.973376282541403e-01	 3.207094221889073e+00
1	 1.024561278470266e+00	 4.212544311281006e-01	 2.881115596139785e+00
1	 1.016606846740247e+00	 4.449590759429827e-01	 2.533757536957711e+00
1	 1.008119168148615e+00	 4.684335187959696e-01	 2.165675512971809e+00
1	 9.990937772329286e-01	 4.916597577410830e-01	 1.777863348680150e+00
1	 1.079864798788953e+00	 2.536798854603011e-01	 4.434331974458278e+00
1	 1.075399458263132e+00	 2.788208365768544e-01	 4.238030868575762e+00
1	 1.070445492039662e+00	 3.038547602174804e-01	 4.024666046865249e+00
1	 1.064993639828203e+00	 3.287641015445487e-01	 3.793318136856203e+00
1	 1.059035204648252e+00	 3.535310769412446e-01	 3.543263401393754e+00
1	 1.052562092701919e+00	 3.781377143534121e-01	 3.273994588418478e+00
1	 1.045566852237530e+00	 4.025658958044971e-01	 2.985241000280517e+00
1	 1.038042711144692e+00	 4.267974019319960e-01	 2.676987432550224e+00
1	 1.029983613019307e+00	 4.508139583717223e-01	 2.349491619006513e+00
1	 1.021384251437273e+00	 4.745972837946980e-01	 2.003299812907017e+00
1	 1.012240102178491e+00	 4.981291393808635e-01	 1.639260135723517e+00
1	 1.093889407901079e+00	 2.569745212655634e-01	 4.169868986609891e+00
1	 1.089366074322916e+00	 2.824419873433087e-01	 3.978535061095866e+00
1	 1.084347769081984e+00	 3.078010359390896e-01	 3.771999746006504e+00
1	 1.078825111621082e+00	 3.330338842240116e-01	 3.549417159538496e+00
1	 1.072789292008760e+00	 3.581225176187560e-01	 3.310113811664372e+00
1	 1.066232111329943e+00	 3.830487306593562e-01	 3.053607184622328e+00
1	 1.059146021054265e+00	 4.077941700642983e-01	 2.779623645854588e+00
1	 1.051524161119399e+00	 4.323403798493822e-01	 2.488115383230031e+00
1	 1.043360396464453e+00	 4.566688483143967e-01	 2.179276040163542e+00
1	 1.034649351748811e+00	 4.807610567038857e-01	 1.853554721921210e+00
1	 1.025386443994631e+00	 5.045985293233902e-01	 1.511668044832818e+00
1	 1.107914023556551e+00	 2.602691586077694e-01	 3.920468529182420e+00
1	 1.103332696899054e+00	 2.860631397990621e-01	 3.734391802294483e+00
1	 1.098250052610725e+00	 3.117473135017465e-01	 3.534734373704768e+00
1	 1.092656589867442e+00	 3.373036688955506e-01	 3.320724228433021e+00
1	 1.086543385786751e+00	 3.627139604385353e-01	 3.091740122603242e+00
1	 1.079902136336337e+00	 3.879597492568057e-01	 2.847328001377778e+00
1	 1.072725196207091e+00	 4.130224467637699e-01	 2.587216850854546e+00
1	 1.065005617384702e+00	 4.378833603534111e-01	 2.311333711444004e+00
1	 1.056737186151450e+00	 4.625237409893744e-01	 2.019817569112627e+00
1	 1.047914458250161e+00	 4.869248324896046e-01	 1.713031834899009e+00
1	 1.038532791945218e+00	 5.110679222851237e-01	 1.391575123036591e+00
1	 1.121938634302054e+00	 2.635637947966888e-01	 3.684338282172524e+00
1	 1.117299314585631e+00	 2.896842909871785e-01	 3.503593522745962e+00
1	 1.112152331272543e+00	 3.156935896829344e-01	 3.310661369507156e+00
1	 1.106488063271783e+00	 3.415734520723818e-01	 3.104843890442038e+00
1	 1.100297474749929e+00	 3.673054016510370e-01	 2.885573863787958e+00
1	 1.093572156557455e+00	 3.928707661351533e-01	 2.652429136582788e+00
1	 1.086304366606542e+00	 4.182507216331378e-01	 2.405146507680822e+00
1	 1.078487068930921e+00	 4.434263389172351e-01	 2.143634898313046e+00
1	 1.070113971156061e+00	 4.683786316150235e-01	 1.867987563268704e+00
1	 1.061179560108253e+00	 4.930886061179267e-01	 1.578493090223074e+00
1	 1.051679135294118e+00	 5.175373129825247e-01	 1.275644934298936e+00
1	 9.202167830650884e-01	 4.528439381382666e-01	 3.062660724875568e+00
1	 9.114046648473878e-01	 4.739928653376373e-01	 2.471555533304157e+00
1	 9.020912353519670e-01	 4.948802800036434e-01	 1.849238013743948e+00
1	 8.922746742864819e-01	 5.154899876712747e-01	 1.197730819870711e+00
1	 8.819539668184718e-01	 5.358060209788083e-01	 5.199275809260975e-01
1	 8.711289202812919e-01	 5.558126876982258e-01	-1.803880865183218e-01
1	 8.598001777972277e-01	 5.754946185800570e-01	-8.985333389006516e-01
1	 8.479692286694867e-01	 5.948368147295444e-01	-1.628927295670243e+00
1	 8.356384154163032e-01	 6.138246942277596e-01	-2.365103152839775e+00
1	 8.228109373437806e-01	 6.324441377108051e-01	-3.099731528809908e+00
1	 8.094908505790605e-01	 6.506815326226161e-01	-3.824655148566449e+00
1	 9.333627813284100e-01	 4.593131590072458e-01	 2.772808567600926e+00
1	 9.244247752827184e-01	 4.807642147537833e-01	 2.216389007157731e+00
1	 9.149782963456433e-01	 5.019500220617313e-01	 1.632977345521683e+00
1	 9.050214982206021e-01	 5.228541551156739e-01	 1.024474068057604e+00
1	 8.945533515775020e-01	 5.434604184478213e-01	 3.935215992710539e-01
1	 8.835736609973344e-01	 5.637528956545838e-01	-2.564809489862101e-01
1	 8.720830787899015e-01	 5.837159979249101e-01	-9.213713855647894e-01
1	 8.600831155342660e-01	 6.033345120932596e-01	-1.596226945278266e+00
1	 8.475761472133474e-01	 6.225936479267381e-01	-2.275376091773371e+00
1	 8.345654188377984e-01	 6.414790843554314e-01	-2.952419859928248e+00
1	 8.210550444796545e-01	 6.599770143573945e-01	-3.620262806815226e+00
1	 9.465088608791017e-01	 4.657824198802068e-01	 2.519452314219091e+00
1	 9.374449662274109e-01	 4.875356060421673e-01	 1.996371789197920e+00
1	 9.278654370263987e-01	 5.090198078370565e-01	 1.449829793837491e+00
1	 9.177684009750668e-01	 5.302183680976542e-01	 8.816101280267715e-01
1	 9.071528142455878e-01	 5.511148632487299e-01	 2.941226363356564e-01
1	 8.960184786665549e-01	 5.716931527097678e-01	-3.095858280019790e-01
1	 8.843660557353290e-01	 5.919374281068149e-01	-9.258275195872532e-01
1	 8.721970773069457e-01	 6.118322620022576e-01	-1.550277434436978e+00
1	 8.595139528291983e-01	 6.313626558479829e-01	-2.177984777541334e+00
1	 8.463199730175579e-01	 6.505140868668495e-01	-2.803392446891478e+00
1	 8.326193098892952e-01	 6.692725535698656e-01	-3.420364570388396e+00
1	 9.596550109810312e-01	 4.722517154736102e-01	 2.297744527363333e+00
1	 9.504652270480891e-01	 4.943070336725015e-01	 1.806560960532807e+00
1	 9.407526468694558e-01	 5.160896315556505e-01	 1.294837037440359e+00
1	 9.305153721395666e-01	 5.375826206028219e-01	 7.642458115168953e-01
1	 9.197523445327681e-01	 5.587693491301476e-01	 2.169831474424474e-01
1	 9.084633631252294e-01	 5.796334523790161e-01	-3.442246400287663e-01
1	 8.966490986019068e-01	 6.001589024114224e-01	-9.161190876830170e-01
1	 8.843111040939087e-01	 6.203300575165623e-01	-1.494914169946127e+00
1	 8.714518225140709e-01	 6.401317108300180e-01	-2.076307412478208e+00
1	 8.580745902829160e-01	 6.595491378663692e-01	-2.655497663409749e+00
1	 8.441836373632470e-01	 6.785681426685646e-01	-3.227209530235868e+00
1	 9.728012208980669e-01	 4.787210405039170e-01	 2.103099712821950e+00
1	 9.634855471113760e-01	 5.010784921144978e-01	 1.642280704897703e+00
1	 9.536399153500362e-01	 5.231594874435458e-01	 1.163308688904877e+00
1	 9.432624013037896e-01	 5.449469066167819e-01	 6.677523423807810e-01
1	 9.323519321490816e-01	 5.664238698406905e-01	 1.576121267878963e-01
1	 9.209083042096341e-01	 5.875737881775672e-01	-3.646749589295051e-01
1	 9.089321973580297e-01	 6.083804141243842e-01	-8.962355568025981e-01
1	 8.964251860015402e-01	 6.288278916961995e-01	-1.433765323190052e+00
1	 8.833897465181827e-01	 6.489008057113672e-01	-1.973539675415354e+00
1	 8.698292610337306e-01	 6.685842299752990e-01	-2.511429996286751e+00
1	 8.557480174567735e-01	 6.878637740620275e-01	-3.042925280154633e+00
1	 9.859474798940767e-01	 4.851903896875877e-01	 1.931176858154647e+00
1	 9.765059157838942e-01	 5.078499758378683e-01	 1.499104502924991e+00
1	 9.665272319433628e-01	 5.302293697267743e-01	 1.050804432995471e+00
1	 9.560094780574259e-01	 5.523112201251403e-01	 5.877477291291956e-01
1	 9.449515668045673e-01	 5.740784191289722e-01	 1.117580041651831e-01
1	 9.333532917560440e-01	 5.955141536206587e-01	-3.749863069548058e-01
1	 9.212153419720944e-01	 6.166019565313522e-01	-8.699537084722901e-01
1	 9.085393131362222e-01	 6.373257576011928e-01	-1.370265649124091e+00
1	 8.953277150917490e-01	 6.576699333305543e-01	-1.872706894183412e+00
1	 8.815839756698585e-01	 6.776193558149491e-01	-2.373740309808534e+00
1	 8.673124407251396e-01	 6.971594401587902e-01	-2.869526022838587e+00
1	 9.990937772329286e-01	 4.916597577410830e-01	 1.777863348680150e+00
1	 9.895263224322676e-01	 5.146214793123250e-01	 1.372838730947648e+00
1	 9.794145861246581e-01	 5.372992726313681e-01	 9.531175739739501e-01
1	 9.687565919901648e-01	 5.596755551135029e-01	 5.200805279459934e-01
1	 9.575512382092630e-01	 5.817329907436078e-01	 7.539289081143108e-02
1	 9.457983156007349e-01	 6.034545422235297e-01	-3.789951606810495e-01
1	 9.334985224124954e-01	 6.248235229179774e-01	-8.408516345894579e-01
1	 9.206534756043400e-01	 6.458236482915676e-01	-1.307669215206048e+00
1	 9.072657184849856e-01	 6.664390865261035e-01	-1.776675257936210e+00
1	 8.933387245911578e-01	 6.866545080066284e-01	-2.244845300466765e+00
1	 8.788768977236079e-01	 7.064551333673871e-01	-2.708920036516101e+00
1	 1.012240102178491e+00	 4.981291393808635e-01	 1.639260135723517e+00
1	 1.002546756423119e+00	 5.213929970075802e-01	 1.259507536757712e+00
1	 9.923019673691437e-01	 5.443691903833595e-01	 8.662598638715857e-01
1	 9.815037326916951e-01	 5.670399055674747e-01	 4.608148698732928e-01
1	 9.701509360732091e-01	 5.893875784332123e-01	 4.469805183213627e-02
1	 9.582433655799834e-01	 6.113949475014185e-01	-3.803387886252130e-01
1	 9.457817286476292e-01	 6.330451065699113e-01	-8.123216435415954e-01
1	 9.327676635122770e-01	 6.543215568273484e-01	-1.249061139285703e+00
1	 9.192037469481085e-01	 6.752082581365386e-01	-1.688162156511868e+00
1	 9.050934981974861e-01	 6.956896791716466e-01	-2.127036215562070e+00
1	 8.904413790074432e-01	 7.157508460963548e-01	-2.562916560254541e+00
1	 1.025386443994631e+00	 5.045985293233902e-01	 1.511668044832817e+00
1	 1.015567207123072e+00	 5.281645233933461e-01	 1.155338877814755e+00
1	 1.005189365152042e+00	 5.514391172087801e-01	 7.864474968608943e-01
1	 9.942508897517067e-01	 5.744042654726615e-01	 4.062166388079680e-01
1	 9.827506501064427e-01	 5.970421759463997e-01	 1.605049521621305e-02
1	 9.706884315300646e-01	 6.193353629695629e-01	-3.824680252994186e-01
1	 9.580649506458910e-01	 6.412667007728053e-01	-7.875821743603186e-01
1	 9.448818669664171e-01	 6.628194762685597e-01	-1.197368425320023e+00
1	 9.311417907313339e-01	 6.839774410003836e-01	-1.609745725110836e+00
1	 9.168482868887002e-01	 7.047248619313129e-01	-2.022486901695751e+00
1	 9.020058751319096e-01	 7.250465707542284e-01	-2.433232150060733e+00
1	 1.038532791945218e+00	 5.110679222851237e-01	 1.391575123036591e+00
1	 1.028587663898750e+00	 5.349360529393342e-01	 1.056751618985784e+00
1	 1.018076768948577e+00	 5.585090473336626e-01	 7.100881664856838e-01
1	 1.006998052759889e+00	 5.817686288146692e-01	 3.527406984212569e-01
1	 9.953503700190041e-01	 6.046967770317856e-01	-1.398942141735771e-02
1	 9.831335032872549e-01	 6.272757821432017e-01	-3.886590758693945e-01
1	 9.703481783756770e-01	 6.494882988123111e-01	-7.696888067351609e-01
1	 9.569960760731446e-01	 6.713173996752270e-01	-1.155369976788380e+00
1	 9.430798400848772e-01	 6.927466279561625e-01	-1.543873664648187e+00
1	 9.286030810646587e-01	 7.137600489069369e-01	-1.933261242478584e+00
1	 9.135703766522705e-01	 7.343422997495432e-01	-2.321496552630797e+00
1	 1.051679135294118e+00	 5.175373129825247e-01	 1.275644934298936e+00
1	 1.041608116116776e+00	 5.417075801152571e-01	 9.603435971814527e-01
1	 1.030964168233969e+00	 5.655789749840386e-01	 6.337690928231087e-01
1	 1.019745211305930e+00	 5.891329895791028e-01	 2.970190762942176e-01
1	 1.007950085520931e+00	 6.123513754379840e-01	-4.868945532133606e-02
1	 9.955785706878293e-01	 6.352161985375726e-01	-4.020244361710363e-01
1	 9.826314018053823e-01	 6.577098939740801e-01	-7.615444459364344e-01
1	 9.691102809388425e-01	 6.798153201073742e-01	-1.125705859702575e+00
1	 9.550178852589553e-01	 7.015158118423989e-01	-1.492871401108864e+00
1	 9.403578711252181e-01	 7.227952327198277e-01	-1.861320038857912e+00
1	 9.251348741237903e-01	 7.436380254908352e-01	-2.229258138921580e+00
1	 8.094908505790605e-01	 6.506815326226161e-01	-3.824655148566449e+00
1	 7.956830624271515e-01	 6.685238174230594e-01	-4.530491897606773e+00
1	 7.813933179443889e-01	 6.859585270306811e-01	-5.211519991028319e+00
1	 7.666281954255775e-01	 7.029738267457829e-01	-5.864633137790136e+00
1	 7.513950941565928e-01	 7.195585469175594e-01	-6.486951703500337e+00
1	 7.357022165618519e-01	 7.357022165618521e-01	-7.075845623983511e+00
1	 7.195585469175590e-01	 7.513950941565929e-01	-7.628954482409885e+00
1	 7.029738267457828e-01	 7.666281954255776e-01	-8.144204472404207e+00
1	 6.859585270306806e-01	 7.813933179443893e-01	-8.619822027904634e+00
1	 6.685238174230592e-01	 7.956830624271517e-01	-9.054343963913325e+00
1	 6.506815326226163e-01	 8.094908505790606e-01	-9.446624038854177e+00
1	 8.210550444796545e-01	 6.599770143573945e-01	-3.620262806815226e+00
1	 8.070500015485216e-01	 6.780741897983326e-01	-4.272789863094560e+00
1	 7.925561171731763e-01	 6.957579675236486e-01	-4.906750182413981e+00
1	 7.775800636242920e-01	 7.130163437660235e-01	-5.518960459238050e+00
1	 7.621293458920958e-01	 7.298379893077620e-01	-6.106410685509961e+00
1	 7.462122835788024e-01	 7.462122835788025e-01	-6.666287793757391e+00
1	 7.298379893077620e-01	 7.621293458920964e-01	-7.195997090490266e+00
1	 7.130163437660234e-01	 7.775800636242922e-01	-7.693181182081708e+00
1	 6.957579675236482e-01	 7.925561171731764e-01	-8.155736141966464e+00
1	 6.780741897983322e-01	 8.070500015485218e-01	-8.581824720434565e+00
1	 6.599770143573943e-01	 8.210550444796544e-01	-8.969886454994352e+00
1	 8.326193098892952e-01	 6.692725535698656e-01	-3.420364570388396e+00
1	 8.184170109590402e-01	 6.876246212274461e-01	-4.025528387519921e+00
1	 8.037189854285399e-01	 7.055574686107333e-01	-4.617670681031008e+00
1	 7.885319995449450e-01	 7.230589228837120e-01	-5.193560421948336e+00
1	 7.728636640035178e-01	 7.401174952607817e-01	-5.750092265401276e+00
1	 7.567224155850235e-01	 7.567224155850236e-01	-6.284310692092088e+00
1	 7.401174952607816e-01	 7.728636640035181e-01	-6.793432500666006e+00
1	 7.230589228837118e-01	 7.885319995449455e-01	-7.274867337232239e+00
1	 7.055574686107329e-01	 8.037189854285400e-01	-7.726235984442010e+00
1	 6.876246212274458e-01	 8.184170109590403e-01	-8.145386175098720e+00
1	 6.692725535698655e-01	 8.326193098892952e-01	-8.530405743016008e+00
1	 8.441836373632470e-01	 6.785681426685646e-01	-3.227209530235868e+00
1	 8.297840813750883e-01	 6.971751039107528e-01	-3.790342548708290e+00
1	 8.148819135936146e-01	 7.153570222888413e-01	-4.345339061345808e+00
1	 7.994839942429858e-01	 7.331015558971893e-01	-4.888947786726280e+00
1	 7.835980397240893e-01	 7.503970563814085e-01	-5.418001059343453e+00
1	 7.672326039968961e-01	 7.672326039968963e-01	-5.929439249163046e+00
1	 7.503970563814082e-01	 7.835980397240895e-01	-6.420334028646602e+00
1	 7.331015558971890e-01	 7.994839942429861e-01	-6.887910161679995e+00
1	 7.153570222888415e-01	 8.148819135936152e-01	-7.329565515672624e+00
1	 6.971751039107525e-01	 8.297840813750883e-01	-7.742889031829852e+00
1	 6.785681426685646e-01	 8.441836373632471e-01	-8.125676428272389e+00
1	 8.557480174567735e-01	 6.878637740620275e-01	-3.042925280154633e+00
1	 8.411512035130448e-01	 7.067256300486032e-01	-3.568779112253356e+00
1	 8.260448925515365e-01	 7.251566205548785e-01	-4.090755796163950e+00
1	 8.104360387738634e-01	 7.431442346047952e-01	-4.605609547379061e+00
1	 7.943324642870420e-01	 7.606766642744333e-01	-5.110141484558354e+00
1	 7.777428402308016e-01	 7.777428402308020e-01	-5.601224117197068e+00
1	 7.606766642744328e-01	 7.943324642870419e-01	-6.075825115262348e+00
1	 7.431442346047951e-01	 8.104360387738637e-01	-6.531030027387257e+00
1	 7.251566205548781e-01	 8.260448925515365e-01	-6.964063632837755e+00
1	 7.067256300486029e-01	 8.411512035130450e-01	-7.372309638388559e+00
1	 6.878637740620274e-01	 8.557480174567736e-01	-7.753328463699837e+00
1	 8.673124407251396e-01	 6.971594401587902e-01	-2.869526022838587e+00
1	 8.525183680892905e-01	 7.162761918413502e-01	-3.362302426110372e+00
1	 8.372079131854400e-01	 7.349562554057512e-01	-3.854868071212911e+00
1	 8.213881241930269e-01	 7.531869508048717e-01	-4.344006790178716e+00
1	 8.050669289256061e-01	 7.709563105446461e-01	-4.826517781278562e+00
1	 7.882531157031213e-01	 7.882531157031215e-01	-5.299239964579937e+00
1	 7.709563105446458e-01	 8.050669289256063e-01	-5.759075993779665e+00
1	 7.531869508048714e-01	 8.213881241930272e-01	-6.203015586857740e+00
1	 7.349562554057508e-01	 8.372079131854402e-01	-6.628157849627050e+00
1	 7.162761918413497e-01	 8.525183680892905e-01	-7.031732285333034e+00
1	 6.971594401587901e-01	 8.673124407251396e-01	-7.411118209544004e+00
1	 8.788768977236079e-01	 7.064551333673871e-01	-2.708920036516101e+00
1	 8.638855658202043e-01	 7.258267814893441e-01	-3.172299850218425e+00
1	 8.483709663784602e-01	 7.447559188383650e-01	-3.638573298826536e+00
1	 8.323402415559250e-01	 7.632296962957591e-01	-4.104576406649720e+00
1	 8.158014248730130e-01	 7.812359867968365e-01	-4.567134032973409e+00
1	 7.987634218302354e-01	 7.987634218302355e-01	-5.023083904526500e+00
1	 7.812359867968363e-01	 8.158014248730134e-01	-5.469300620101958e+00
1	 7.632296962957585e-01	 8.323402415559253e-01	-5.902719289501634e+00
1	 7.447559188383648e-01	 8.483709663784607e-01	-6.320358474465737e+00
1	 7.258267814893438e-01	 8.638855658202044e-01	-6.719342112446221e+00
1	 7.064551333673871e-01	 8.788768977236078e-01	-7.096920124614430e+00
1	 8.904413790074432e-01	 7.157508460963548e-01	-2.562916560254541e+00
1	 8.752527874221663e-01	 7.353773911929373e-01	-3.000086763386632e+00
1	 8.595340430137332e-01	 7.545556028496262e-01	-3.442722358064277e+00
1	 8.432923819180074e-01	 7.732724628757974e-01	-3.887732673003339e+00
1	 8.265359433624941e-01	 7.915156846357957e-01	-4.331994185001473e+00
1	 8.092737500285259e-01	 8.092737500285260e-01	-4.772374046090921e+00
1	 7.915156846357952e-01	 8.265359433624941e-01	-5.205753841977731e+00
1	 7.732724628757972e-01	 8.432923819180078e-01	-5.629053247084876e+00
1	 7.545556028496260e-01	 8.595340430137337e-01	-6.039253242009494e+00
1	 7.353773911929372e-01	 8.752527874221667e-01	-6.433418567450911e+00
1	 7.157508460963549e-01	 8.904413790074435e-01	-6.808719104436582e+00
1	 9.020058751319096e-01	 7.250465707542284e-01	-2.433232150060733e+00
1	 8.866200236115567e-01	 7.449280131524817e-01	-2.846911185351659e+00
1	 8.706971339743936e-01	 7.643552994364409e-01	-3.268122585795150e+00
1	 8.542445363347229e-01	 7.833152423433283e-01	-3.693868708177787e+00
1	 8.372704756272800e-01	 8.017953956663135e-01	-4.121102061829471e+00
1	 8.197840917143736e-01	 8.197840917143742e-01	-4.546748156547317e+00
1	 8.017953956663133e-01	 8.372704756272804e-01	-4.967728785784195e+00
1	 7.833152423433281e-01	 8.542445363347232e-01	-5.380985416960856e+00
1	 7.643552994364405e-01	 8.706971339743941e-01	-5.783502357262836e+00
1	 7.449280131524816e-01	 8.866200236115570e-01	-6.172329367488208e+00
1	 7.250465707542285e-01	 9.020058751319096e-01	-6.544603408294774e+00
1	 9.135703766522705e-01	 7.343422997495432e-01	-2.321496552630797e+00
1	 8.979872651047554e-01	 7.544786395683292e-01	-2.713958048077845e+00
1	 8.818602301435767e-01	 7.741550005957150e-01	-3.115540540795406e+00
1	 8.651966958615209e-01	 7.933580264966917e-01	-3.523357821231274e+00
1	 8.480050129006019e-01	 8.120751114931807e-01	-3.934461382945868e+00
1	 8.302944383041598e-01	 8.302944383041599e-01	-4.345862425280049e+00
1	 8.120751114931802e-01	 8.480050129006023e-01	-4.754554441623267e+00
1	 7.933580264966916e-01	 8.651966958615213e-01	-5.157536074949745e+00
1	 7.741550005957150e-01	 8.818602301435772e-01	-5.551833915790052e+00
1	 7.544786395683287e-01	 8.979872651047555e-01	-5.934524918848044e+00
1	 7.343422997495435e-01	 9.135703766522707e-01	-6.302758123027646e+00
1	 9.251348741237903e-01	 7.436380254908352e-01	-2.229258138921580e+00
1	 9.093545026181421e-01	 7.640292626408308e-01	-2.602353146966418e+00
1	 8.930233224044176e-01	 7.839546983243546e-01	-2.985704560705594e+00
1	 8.761488515538501e-01	 8.034008071342293e-01	-3.376554757762525e+00
1	 8.587395464156911e-01	 8.223548237211875e-01	-3.772075777582435e+00
1	 8.408047812142654e-01	 8.408047812142655e-01	-4.169390320309426e+00
1	 8.223548237211870e-01	 8.587395464156912e-01	-4.565593429391287e+00
1	 8.034008071342290e-01	 8.761488515538506e-01	-4.957774552540935e+00
1	 7.839546983243543e-01	 8.930233224044180e-01	-5.343039667136541e+00
1	 7.640292626408302e-01	 9.093545026181423e-01	-5.718533154885940e+00
1	 7.436380254908355e-01	 9.251348741237905e-01	-6.081459116647856e+00
1	 6.506815326226163e-01	 8.094908505790606e-01	-9.446624038854177e+00
1	 6.324441377108048e-01	 8.228109373437807e-01	-9.794627531416424e+00
1	 6.138246942277593e-01	 8.356384154163033e-01	-1.009701434823557e+01
1	 5.948368147295442e-01	 8.479692286694869e-01	-1.035458615792423e+01
1	 5.754946185800568e-01	 8.598001777972279e-01	-1.056900650534600e+01
1	 5.558126876982253e-01	 8.711289202812919e-01	-1.074276022333857e+01
1	 5.358060209788079e-01	 8.819539668184722e-01	-1.087910438740047e+01
1	 5.154899876712745e-01	 8.922746742864820e-01	-1.098201186535320e+01
1	 4.948802800036430e-01	 9.020912353519670e-01	-1.105610860614672e+01
1	 4.739928653376368e-01	 9.114046648473878e-01	-1.110660587342634e+01
1	 4.528439381382665e-01	 9.202167830650881e-01	-1.113922866029408e+01
1	 6.599770143573943e-01	 8.210550444796544e-01	-8.969886454994352e+00
1	 6.414790843554309e-01	 8.345654188377986e-01	-9.319052787934057e+00
1	 6.225936479267378e-01	 8.475761472133476e-01	-9.629191556220244e+00
1	 6.033345120932594e-01	 8.600831155342663e-01	-9.900629369084653e+00
1	 5.837159979249100e-01	 8.720830787899015e-01	-1.013443287347858e+01
1	 5.637528956545833e-01	 8.835736609973346e-01	-1.033237643082848e+01
1	 5.434604184478211e-01	 8.945533515775020e-01	-1.049690244256013e+01
1	 5.228541551156736e-01	 9.050214982206022e-01	-1.063107519805321e+01
1	 5.019500220617310e-01	 9.149782963456434e-01	-1.073852920107377e+01
1	 4.807642147537830e-01	 9.244247752827184e-01	-1.082341298715988e+01
1	 4.593131590072458e-01	 9.333627813284101e-01	-1.089032947486463e+01
1	 6.692725535698655e-01	 8.326193098892952e-01	-8.530405743016008e+00
1	 6.505140868668492e-01	 8.463199730175580e-01	-8.881384891845082e+00
1	 6.313626558479827e-01	 8.595139528291983e-01	-9.199176285148162e+00
1	 6.118322620022574e-01	 8.721970773069458e-01	-9.483681745886731e+00
1	 5.919374281068147e-01	 8.843660557353294e-01	-9.735432770924850e+00
1	 5.716931527097676e-01	 8.960184786665553e-01	-9.955565673862059e+00
1	 5.511148632487294e-01	 9.071528142455881e-01	-1.014579038067935e+01
1	 5.302183680976538e-01	 9.177684009750672e-01	-1.030835359032080e+01
1	 5.090198078370561e-01	 9.278654370263989e-01	-1.044599708581460e+01
1	 4.875356060421670e-01	 9.374449662274114e-01	-1.056191203337849e+01
1	 4.657824198802068e-01	 9.465088608791018e-01	-1.065969013698906e+01
1	 6.785681426685646e-01	 8.441836373632471e-01	-8.125676428272389e+00
1	 6.595491378663686e-01	 8.580745902829160e-01	-8.478796353422055e+00
1	 6.401317108300179e-01	 8.714518225140712e-01	-8.803890820186467e+00
1	 6.203300575165623e-01	 8.843111040939093e-01	-9.100484622528263e+00
1	 6.001589024114220e-01	 8.966490986019068e-01	-9.368632921850976e+00
1	 5.796334523790159e-01	 9.084633631252296e-01	-9.608903086612042e+00
1	 5.587693491301475e-01	 9.197523445327686e-01	-9.822351090182035e+00
1	 5.375826206028216e-01	 9.305153721395665e-01	-1.001049303378085e+01
1	 5.160896315556502e-01	 9.407526468694557e-01	-1.017527242675074e+01
1	 4.943070336725011e-01	 9.504652270480891e-01	-1.031902390409501e+01
1	 4.722517154736102e-01	 9.596550109810310e-01	-1.044443409086220e+01
1	 6.878637740620274e-01	 8.557480174567736e-01	-7.753328463699837e+00
1	 6.685842299752985e-01	 8.698292610337308e-01	-8.108612507169553e+00
1	 6.489008057113668e-01	 8.833897465181827e-01	-8.440423787150490e+00
1	 6.288278916961991e-01	 8.964251860015403e-01	-8.747955446081054e+00
1	 6.083804141243839e-01	 9.089321973580301e-01	-9.030842349952067e+00
1	 5.875737881775670e-01	 9.209083042096341e-01	-9.289148883456440e+00
1	 5.664238698406903e-01	 9.323519321490821e-01	-9.523352113183563e+00
1	 5.449469066167815e-01	 9.432624013037897e-01	-9.734320756119317e+00
1	 5.231594874435456e-01	 9.536399153500364e-01	-9.923290448908773e+00
1	 5.010784921144974e-01	 9.634855471113758e-01	-1.009183585725866e+01
1	 4.787210405039172e-01	 9.728012208980670e-01	-1.024184019412175e+01
1	 6.971594401587901e-01	 8.673124407251396e-01	-7.411118209544004e+00
1	 6.776193558149488e-01	 8.815839756698589e-01	-7.768301331354207e+00
1	 6.576699333305539e-01	 8.953277150917490e-01	-8.106019070389049e+00
1	 6.373257576011925e-01	 9.085393131362224e-01	-8.423176042225784e+00
1	 6.166019565313520e-01	 9.212153419720943e-01	-8.719040230972254e+00
1	 5.955141536206586e-01	 9.333532917560440e-01	-8.993236025263270e+00
1	 5.740784191289717e-01	 9.449515668045674e-01	-9.245733339290162e+00
1	 5.523112201251401e-01	 9.560094780574260e-01	-9.476833141763279e+00
1	 5.302293697267740e-01	 9.665272319433633e-01	-9.687149767492704e+00
1	 5.078499758378680e-01	 9.765059157838943e-01	-9.877590426837900e+00
1	 4.851903896875877e-01	 9.859474798940765e-01	-1.004933235717407e+01
1	 7.064551333673871e-01	 8.788768977236078e-01	-7.096920124614430e+00
1	 6.866545080066282e-01	 8.933387245911584e-01	-7.455464070581252e+00
1	 6.664390865261031e-01	 9.072657184849857e-01	-7.798065604838676e+00
1	 6.458236482915671e-01	 9.206534756043400e-01	-8.123381806598596e+00
1	 6.248235229179774e-01	 9.334985224124955e-01	-8.430364703429822e+00
1	 6.034545422235295e-01	 9.457983156007354e-01	-8.718258858571994e+00
1	 5.817329907436075e-01	 9.575512382092632e-01	-8.986595670123529e+00
1	 5.596755551135026e-01	 9.687565919901651e-01	-9.235184605390733e+00
1	 5.372992726313677e-01	 9.794145861246583e-01	-9.464101639836976e+00
1	 5.146214793123248e-01	 9.895263224322677e-01	-9.673675207686141e+00
1	 4.916597577410830e-01	 9.990937772329286e-01	-9.864469999779972e+00
1	 7.157508460963549e-01	 8.904413790074435e-01	-6.808719104436582e+00
1	 6.956896791716466e-01	 9.050934981974866e-01	-7.167826588472456e+00
1	 6.752082581365383e-01	 9.192037469481085e-01	-7.514087962842783e+00
1	 6.543215568273478e-01	 9.327676635122771e-01	-7.845951737670740e+00
1	 6.330451065699109e-01	 9.457817286476290e-01	-8.162102550511385e+00
1	 6.113949475014181e-01	 9.582433655799836e-01	-8.461462639298267e+00
1	 5.893875784332121e-01	 9.701509360732092e-01	-8.743190566396120e+00
1	 5.670399055674743e-01	 9.815037326916953e-01	-9.006677331719219e+00
1	 5.443691903833591e-01	 9.923019673691438e-01	-9.251540054173557e+00
1	 5.213929970075799e-01	 1.002546756423119e+00	-9.477613435731872e+00
1	 4.981291393808635e-01	 1.012240102178491e+00	-9.684939250665799e+00
1	 7.250465707542285e-01	 9.020058751319096e-01	-6.544603408294774e+00
1	 7.047248619313127e-01	 9.168482868887010e-01	-6.903231384979076e+00
1	 6.839774410003833e-01	 9.311417907313339e-01	-7.251737664467987e+00
1	 6.628194762685597e-01	 9.448818669664175e-01	-7.588399235703067e+00
1	 6.412667007728051e-01	 9.580649506458917e-01	-7.911679675015875e+00
1	 6.193353629695627e-01	 9.706884315300651e-01	-8.220233861648307e+00
1	 5.970421759463996e-01	 9.827506501064432e-01	-8.512910398399214e+00
1	 5.744042654726613e-01	 9.942508897517068e-01	-8.788751803895224e+00
1	 5.514391172087798e-01	 1.005189365152043e+00	-9.046992580177879e+00
1	 5.281645233933456e-01	 1.015567207123073e+00	-9.287055292175019e+00
1	 5.045985293233903e-01	 1.025386443994631e+00	-9.508544823532235e+00
1	 7.343422997495435e-01	 9.135703766522707e-01	-6.302758123027646e+00
1	 7.137600489069367e-01	 9.286030810646588e-01	-6.659630219484144e+00
1	 6.927466279561619e-01	 9.430798400848776e-01	-7.008785147263879e+00
1	 6.713173996752266e-01	 9.569960760731446e-01	-7.348363599948567e+00
1	 6.494882988123111e-01	 9.703481783756774e-01	-7.676652297136117e+00
1	 6.272757821432012e-01	 9.831335032872551e-01	-7.992091320951541e+00
1	 6.046967770317851e-01	 9.953503700190042e-01	-8.293279528772727e+00
1	 5.817686288146687e-01	 1.006998052759889e+00	-8.578978050664809e+00
1	 5.585090473336621e-01	 1.018076768948577e+00	-8.848111913846969e+00
1	 5.349360529393340e-01	 1.028587663898750e+00	-9.099769867590085e+00
1	 5.110679222851237e-01	 1.038532791945217e+00	-9.333202509575896e+00
1	 7.436380254908355e-01	 9.251348741237905e-01	-6.081459116647856e+00
1	 7.227952327198275e-01	 9.403578711252182e-01	-6.435077286731147e+00
1	 7.015158118423985e-01	 9.550178852589556e-01	-6.783112337809873e+00
1	 6.798153201073739e-01	 9.691102809388428e-01	-7.123602163055857e+00
1	 6.577098939740799e-01	 9.826314018053828e-01	-7.454698811879434e+00
1	 6.352161985375724e-01	 9.955785706878293e-01	-7.774677846246101e+00
1	 6.123513754379838e-01	 1.007950085520931e+00	-8.081946063532627e+00
1	 5.891329895791025e-01	 1.019745211305930e+00	-8.375047549481422e+00
1	 5.655789749840383e-01	 1.030964168233969e+00	-8.652668056005437e+00
1	 5.417075801152568e-01	 1.041608116116776e+00	-8.913637728239232e+00
1	 5.175373129825247e-01	 1.051679135294118e+00	-9.156932232620974e+00
1	 4.528439381382665e-01	 9.202167830650881e-01	-1.113922866029408e+01
1	 4.314513768232033e-01	 9.285296325490469e-01	-1.115912114980027e+01
1	 4.098302069345520e-01	 9.363472213109786e-01	-1.116790743069695e+01
1	 3.879970091915094e-01	 9.436736622717951e-01	-1.116653308090115e+01
1	 3.659684029576717e-01	 9.505137794457966e-01	-1.115614737009261e+01
1	 3.437610012650071e-01	 9.568730786461752e-01	-1.113808179042420e+01
1	 3.213913671440240e-01	 9.627577163271481e-01	-1.111382791014443e+01
1	 2.988759714563226e-01	 9.681744667976357e-01	-1.108501489731638e+01
1	 2.762311524069802e-01	 9.731306880439857e-01	-1.105338703866514e+01
1	 2.534730768946626e-01	 9.776342863994822e-01	-1.102078155179242e+01
1	 2.306177038372821e-01	 9.816936802964242e-01	-1.098910695870270e+01
1	 4.593131590072458e-01	 9.333627813284101e-01	-1.089032947486463e+01
1	 4.376149886466910e-01	 9.417943862059641e-01	-1.094286297535414e+01
1	 4.156849438654171e-01	 9.497236551845435e-01	-1.098192439215505e+01
1	 3.935398422506571e-01	 9.571547599412135e-01	-1.100856691127578e+01
1	 3.711965405861093e-01	 9.640925934049352e-01	-1.102405178129708e+01
1	 3.486718892333965e-01	 9.705427400435856e-01	-1.102982565150833e+01
1	 3.259826878383746e-01	 9.765114442609666e-01	-1.102749729038929e+01
1	 3.031456425612923e-01	 9.820055771421120e-01	-1.101881404335306e+01
1	 2.801773250107800e-01	 9.870326017877615e-01	-1.100563836431064e+01
1	 2.570941330418183e-01	 9.916005374791478e-01	-1.098992472662553e+01
1	 2.339122535574748e-01	 9.957179229122425e-01	-1.097369718660026e+01
1	 4.657824198802068e-01	 9.465088608791018e-01	-1.065969013698906e+01
1	 4.437786385842050e-01	 9.550592218841775e-01	-1.074163687422963e+01
1	 4.215397170000070e-01	 9.631001717696162e-01	-1.080813122606392e+01
1	 3.990827095843820e-01	 9.706359409690051e-01	-1.086029793084734e+01
1	 3.764247105426354e-01	 9.776714913264067e-01	-1.089947258513797e+01
1	 3.535828075675455e-01	 9.842124859648724e-01	-1.092717816599203e+01
1	 3.305740369218143e-01	 9.902652572383446e-01	-1.094510097966293e+01
1	 3.074153400658280e-01	 9.958367730085771e-01	-1.095506640321830e+01
1	 2.841235220132461e-01	 1.000934601491359e+00	-1.095901475961785e+01
1	 2.607152115768244e-01	 1.005566874916577e+00	-1.095897763622204e+01
1	 2.372068236462269e-01	 1.009742252244628e+00	-1.095705492275434e+01
1	 4.722517154736102e-01	 9.596550109810310e-01	-1.044443409086220e+01
1	 4.499423216018179e-01	 9.683241287506192e-01	-1.055277975752908e+01
1	 4.273945215566904e-01	 9.764767601419596e-01	-1.064406282324254e+01
1	 4.046256066658366e-01	 9.841171943454887e-01	-1.071944540576092e+01
1	 3.816529085574754e-01	 9.912504621207464e-01	-1.078030171505666e+01
1	 3.584937522568462e-01	 9.978823052463918e-01	-1.082819412459540e+01
1	 3.351654106447973e-01	 1.004019144026986e+00	-1.086484870440331e+01
1	 3.116850604831456e-01	 1.009668043101530e+00	-1.089213058599258e+01
1	 2.880697401918619e-01	 1.014836675801436e+00	-1.091201950219682e+01
1	 2.643363095427450e-01	 1.019533287305854e+00	-1.092658581341214e+01
1	 2.405014114133076e-01	 1.023766656840262e+00	-1.093796729686262e+01
1	 4.787210405039172e-01	 9.728012208980670e-01	-1.024184019412175e+01
1	 4.561060326656015e-01	 9.815890959722186e-01	-1.037377240846493e+01
1	 4.332493527538352e-01	 9.898534093773371e-01	-1.048738724346148e+01
1	 4.101685289681732e-01	 9.975985090609815e-01	-1.058385180425925e+01
1	 3.868811303608555e-01	 1.004829494698492e+00	-1.066454497343632e+01
1	 3.634047192906908e-01	 1.011552186724500e+00	-1.073103338482112e+01
1	 3.397568052577777e-01	 1.017773093394594e+00	-1.078504688448038e+01
1	 3.159548003264608e-01	 1.023499376125470e+00	-1.082845384853325e+01
1	 2.920159763241100e-01	 1.028738813364647e+00	-1.086323669995776e+01
1	 2.679574239826443e-01	 1.033499763241064e+00	-1.089146793457226e+01
1	 2.437960141684862e-01	 1.037791125245829e+00	-1.091528693115969e+01
1	 4.851903896875877e-01	 9.859474798940765e-01	-1.004933235717407e+01
1	 4.622697667416281e-01	 9.948541127159070e-01	-1.020222989028137e+01
1	 4.391042058098099e-01	 1.003230108551511e+00	-1.033589683620504e+01
1	 4.157114719645438e-01	 1.011079874105801e+00	-1.045147458131290e+01
1	 3.921093716830018e-01	 1.018408577970179e+00	-1.055031443795551e+01
1	 3.683157046584720e-01	 1.025222119235553e+00	-1.063395386372327e+01
1	 3.443482170112096e-01	 1.031527094108872e+00	-1.070409218386953e+01
1	 3.202245561089890e-01	 1.037330760784897e+00	-1.076256618227388e+01
1	 2.959622271874740e-01	 1.042641002827651e+00	-1.081132589887775e+01
1	 2.715785519395862e-01	 1.047466291316291e+00	-1.085241093968534e+01
1	 2.470906292215318e-01	 1.051815646008011e+00	-1.088792757041785e+01
1	 4.916597577410830e-01	 9.990937772329286e-01	-9.864469999779976e+00
1	 4.684335187959697e-01	 1.008119168148615e+00	-1.003589271080755e+01
1	 4.449590759429830e-01	 1.016606846740247e+00	-1.018750006183592e+01
1	 4.212544311281008e-01	 1.024561278470266e+00	-1.032037861128586e+01
1	 3.973376282541404e-01	 1.031987700846347e+00	-1.043582146693610e+01
1	 3.732267043495814e-01	 1.038892091615907e+00	-1.053530508341148e+01
1	 3.489396421555473e-01	 1.045281134937523e+00	-1.062046557005445e+01
1	 3.244943243439466e-01	 1.051162185784308e+00	-1.069307486646213e+01
1	 2.999084895594364e-01	 1.056543232837103e+00	-1.075501711611197e+01
1	 2.751996904566350e-01	 1.061432860125619e+00	-1.080826553733591e+01
1	 2.503852538822138e-01	 1.065840207673492e+00	-1.085486005665775e+01
1	 4.981291393808635e-01	 1.012240102178491e+00	-9.684939250665799e+00
1	 4.745972837946981e-01	 1.021384251437272e+00	-9.872618674914966e+00
1	 4.508139583717224e-01	 1.029983613019306e+00	-1.004021394954249e+01
1	 4.267974019319963e-01	 1.038042711144692e+00	-1.018872920977451e+01
1	 4.025658958044973e-01	 1.045566852237530e+00	-1.031937024927507e+01
1	 3.781377143534123e-01	 1.052562092701918e+00	-1.043352221908611e+01
1	 3.535310769412447e-01	 1.059035204648252e+00	-1.053272683594861e+01
1	 3.287641015445488e-01	 1.064993639828203e+00	-1.061865944546799e+01
1	 3.038547602174806e-01	 1.070445492039662e+00	-1.069310625981274e+01
1	 2.788208365768544e-01	 1.075399458263132e+00	-1.075794205967349e+01
1	 2.536798854603012e-01	 1.079864798788953e+00	-1.081510861725652e+01
1	 5.045985293233903e-01	 1.025386443994631e+00	-9.508544823532235e+00
1	 4.807610567038857e-01	 1.034649351748811e+00	-9.710375363195444e+00
1	 4.566688483143969e-01	 1.043360396464453e+00	-9.892157134967627e+00
1	 4.323403798493825e-01	 1.051524161119399e+00	-1.005478569178680e+01
1	 4.077941700642985e-01	 1.059146021054265e+00	-1.019935185012913e+01
1	 3.830487306593562e-01	 1.066232111329943e+00	-1.032712060454011e+01
1	 3.581225176187561e-01	 1.072789292008759e+00	-1.043950954286069e+01
1	 3.330338842240117e-01	 1.078825111621081e+00	-1.053806709213520e+01
1	 3.078010359390897e-01	 1.084347769081983e+00	-1.062445090098144e+01
1	 2.824419873433090e-01	 1.089366074322916e+00	-1.070040663596343e+01
1	 2.569745212655634e-01	 1.093889407901079e+00	-1.076774743835167e+01
1	 5.110679222851237e-01	 1.038532791945217e+00	-9.333202509575898e+00
1	 4.869248324896047e-01	 1.047914458250161e+00	-9.547233181416026e+00
1	 4.625237409893745e-01	 1.056737186151450e+00	-9.741543426197563e+00
1	 4.378833603534112e-01	 1.065005617384702e+00	-9.916895418778001e+00
1	 4.130224467637700e-01	 1.072725196207091e+00	-1.007423870845876e+01
1	 3.879597492568058e-01	 1.079902136336336e+00	-1.021469065462645e+01
1	 3.627139604385357e-01	 1.086543385786751e+00	-1.033951634722836e+01
1	 3.373036688955508e-01	 1.092656589867441e+00	-1.045010832299797e+01
1	 3.117473135017467e-01	 1.098250052610725e+00	-1.054796636618476e+01
1	 2.860631397990623e-01	 1.103332696899054e+00	-1.063467765651780e+01
1	 2.602691586077694e-01	 1.107914023556551e+00	-1.071189749828148e+01
1	 5.175373129825247e-01	 1.051679135294118e+00	-9.156932232620974e+00
1	 4.930886061179270e-01	 1.061179560108253e+00	-9.381358930847307e+00
1	 4.683786316150236e-01	 1.070113971156061e+00	-9.586675851914467e+00
1	 4.434263389172353e-01	 1.078487068930921e+00	-9.773488291800346e+00
1	 4.182507216331380e-01	 1.086304366606542e+00	-9.942579546925689e+00
1	 3.928707661351534e-01	 1.093572156557455e+00	-1.009489316823550e+01
1	 3.673054016510371e-01	 1.100297474749929e+00	-1.023151467756502e+01
1	 3.415734520723819e-01	 1.106488063271783e+00	-1.035365303459856e+01
1	 3.156935896829346e-01	 1.112152331272543e+00	-1.046262212308183e+01
1	 2.896842909871788e-01	 1.117299314585631e+00	-1.055982250161895e+01
1	 2.635637947966888e-01	 1.121938634302054e+00	-1.064672363832672e+01
1	 2.306177038372821e-01	 9.816936802964242e-01	-1.098910695870270e+01
1	 2.076791456684508e-01	 9.853180020131134e-01	-1.096058864398125e+01
1	 1.846744644584667e-01	 9.885162853320296e-01	-1.093613137660552e+01
1	 1.616188232546627e-01	 9.912982639881665e-01	-1.091564151694690e+01
1	 1.385270506335802e-01	 9.936740343365396e-01	-1.089895716976007e+01
1	 1.154136152499789e-01	 9.956540178012000e-01	-1.088585570194238e+01
1	 9.229260277661536e-02	 9.972489236794971e-01	-1.087606117208981e+01
1	 6.917769523648026e-02	 9.984697124756582e-01	-1.086925158805480e+01
1	 4.608215271279750e-02	 9.993275599243346e-01	-1.086506592055888e+01
1	 2.301879740688172e-02	 9.998338218507749e-01	-1.086311081261737e+01
1	 0.000000000000000e+00	 1.000000000000000e+00	-1.086296693585338e+01
1	 2.339122535574748e-01	 9.957179229122425e-01	-1.097369718660026e+01
1	 2.106460005981401e-01	 9.993940208268849e-01	-1.095870130393637e+01
1	 1.873126799789159e-01	 1.002637994060108e+00	-1.094542613005143e+01
1	 1.639276713629985e-01	 1.005459715400836e+00	-1.093400347579250e+01
1	 1.405060151646193e-01	 1.007869425438318e+00	-1.092451096839892e+01
1	 1.170623867344659e-01	 1.009877694474696e+00	-1.091697662509304e+01
1	 9.361107297002917e-02	 1.011495384797892e+00	-1.091138348753207e+01
1	 7.016595135258435e-02	 1.012733613491392e+00	-1.090767425273456e+01
1	 4.674047139590386e-02	 1.013603715943827e+00	-1.090575584337792e+01
1	 2.334763847636898e-02	 1.014117210207157e+00	-1.090550386779125e+01
1	 0.000000000000000e+00	 1.014285762337685e+00	-1.090676692734397e+01
1	 2.372068236462269e-01	 1.009742252244628e+00	-1.095705492275434e+01
1	 2.136128738698931e-01	 1.013470126677695e+00	-1.095457233274606e+01
1	 1.899509118092326e-01	 1.016759790108138e+00	-1.095167232600603e+01
1	 1.662365337446358e-01	 1.019621254379648e+00	-1.094868561728344e+01
1	 1.424849919293242e-01	 1.022064904316569e+00	-1.094590193462064e+01
1	 1.187111684111829e-01	 1.024101459100028e+00	-1.094357190936522e+01
1	 9.492955131367173e-02	 1.025741934009444e+00	-1.094190915985839e+01
1	 7.115421357755045e-02	 1.026997602708497e+00	-1.094109252245117e+01
1	 4.739879414830253e-02	 1.027879960240767e+00	-1.094126838662025e+01
1	 2.367648157849975e-02	 1.028400686885902e+00	-1.094255309447428e+01
1	 0.000000000000000e+00	 1.028571613012482e+00	-1.094503536871592e+01
1	 2.405014114133076e-01	 1.023766656840262e+00	-1.093796729686262e+01
1	 2.165797630611406e-01	 1.027546308069888e+00	-1.094712283833514e+01
1	 1.925891577952661e-01	 1.030881661943092e+00	-1.095391020059261e+01
1	 1.685454085144206e-01	 1.033782869359052e+00	-1.095883380938897e+01
1	 1.444639793119431e-01	 1.036260459377960e+00	-1.096236943726427e+01
1	 1.203599589340152e-01	 1.038325300060698e+00	-1.096496366221337e+01
1	 9.624803673113642e-02	 1.039988559678984e+00	-1.096703363725127e+01
1	 7.214248110458996e-02	 1.041261668477513e+00	-1.096896714121757e+01
1	 4.805712043257780e-02	 1.042156281155644e+00	-1.097112288051185e+01
1	 2.400532644483619e-02	 1.042684240221567e+00	-1.097383101141929e+01
1	 0.000000000000000e+00	 1.042857540357000e+00	-1.097739385318636e+01
1	 2.437960141684862e-01	 1.037791125245829e+00	-1.091528693115969e+01
1	 2.195466657493138e-01	 1.041622553507811e+00	-1.093533218198037e+01
1	 1.952274157828656e-01	 1.045003598031943e+00	-1.095123180671756e+01
1	 1.708542937871995e-01	 1.047944548773499e+00	-1.096364002970864e+01
1	 1.464429756967243e-01	 1.050456079029154e+00	-1.097319390323019e+01
1	 1.220087569568486e-01	 1.052549205740208e+00	-1.098051057915420e+01
1	 9.756652814601643e-02	 1.054235250171347e+00	-1.098618499374673e+01
1	 7.313075312691415e-02	 1.055525799148979e+00	-1.099078795131774e+01
1	 4.871544971131398e-02	 1.056432667028950e+00	-1.099486458838632e+01
1	 2.433417280694042e-02	 1.056967858548713e+00	-1.099893319679734e+01
1	 0.000000000000000e+00	 1.057143532703853e+00	-1.100348438176125e+01
1	 2.470906292215318e-01	 1.051815646008011e+00	-1.088792757041785e+01
1	 2.225135795118439e-01	 1.055698851495811e+00	-1.091823409082910e+01
1	 1.978656836178807e-01	 1.059125586841663e+00	-1.094277755563647e+01
1	 1.731631876778185e-01	 1.062106281057438e+00	-1.096233928749201e+01
1	 1.484219794679158e-01	 1.064651751676819e+00	-1.097769407627388e+01
1	 1.236575611335684e-01	 1.066773164522058e+00	-1.098960550058202e+01
1	 9.888502448190516e-02	 1.068481993851369e+00	-1.099882175023108e+01
1	 7.411902883773439e-02	 1.069789983073437e+00	-1.100607194951377e+01
1	 4.937378144709543e-02	 1.070709106201178e+00	-1.101206297393858e+01
1	 2.466302039637459e-02	 1.071251530201898e+00	-1.101747674705648e+01
1	 0.000000000000000e+00	 1.071429578385649e+00	-1.102296799887906e+01
1	 2.503852538822138e-01	 1.065840207673492e+00	-1.085486005665775e+01
1	 2.254805019261618e-01	 1.069775190538234e+00	-1.089491307706508e+01
1	 2.005039591461607e-01	 1.073247616839224e+00	-1.092773303132611e+01
1	 1.754720883011241e-01	 1.076268054645321e+00	-1.095420678845340e+01
1	 1.504009890097659e-01	 1.078847465727620e+00	-1.097522449202945e+01
1	 1.253063701180602e-01	 1.080997164789749e+00	-1.099167316130560e+01
1	 1.002035246623959e-01	 1.082728779083882e+00	-1.100443086731860e+01
1	 7.510730743026205e-02	 1.084054208601425e+00	-1.101436149658021e+01
1	 5.003211510250640e-02	 1.084985587012820e+00	-1.102231010515777e+01
1	 2.499186894470083e-02	 1.085535243515682e+00	-1.102909885734674e+01
1	 0.000000000000000e+00	 1.085715665735001e+00	-1.103552353567599e+01
1	 2.536798854603012e-01	 1.079864798788953e+00	-1.081510861725652e+01
1	 2.284474305696987e-01	 1.083851559139426e+00	-1.086450113586872e+01
1	 2.031422402135546e-01	 1.087369676491597e+00	-1.090532605287939e+01
1	 1.777809937719622e-01	 1.090429857971597e+00	-1.093855532032575e+01
1	 1.523800027065227e-01	 1.093043209588223e+00	-1.096517314962013e+01
1	 1.269551825642095e-01	 1.095221194926783e+00	-1.098616811529863e+01
1	 1.015220276110820e-01	 1.096975594233721e+00	-1.100252589449839e+01
1	 7.609558809770840e-02	 1.098318464083486e+00	-1.101522266623926e+01
1	 5.069045014013127e-02	 1.099262097804365e+00	-1.102521918252638e+01
1	 2.532071818348128e-02	 1.099818986824623e+00	-1.103345551246945e+01
1	 0.000000000000000e+00	 1.100001783084519e+00	-1.104084645109683e+01
1	 2.569745212655634e-01	 1.093889407901079e+00	-1.076774743835167e+01
1	 2.314143630198855e-01	 1.097927945803735e+00	-1.082617469717166e+01
1	 2.057805246659121e-01	 1.101491754265755e+00	-1.087482396268482e+01
1	 1.800899022051794e-01	 1.104591679470715e+00	-1.091473283936010e+01
1	 1.543590189424344e-01	 1.107238971665294e+00	-1.094695936222838e+01
1	 1.286039971259017e-01	 1.109445243316661e+00	-1.097257281995421e+01
1	 1.028405322515567e-01	 1.111222427665721e+00	-1.099264526153739e+01
1	 7.708387003328478e-02	 1.112582737870157e+00	-1.100824372099628e+01
1	 5.134878602255434e-02	 1.113538626916308e+00	-1.102042318034137e+01
1	 2.564956784427809e-02	 1.114102748463282e+00	-1.103022027843908e+01
1	 0.000000000000000e+00	 1.114287918766816e+00	-1.103864776207752e+01
1	 2.602691586077694e-01	 1.107914023556551e+00	-1.071189749828148e+01
1	 2.343812968541535e-01	 1.112004339035504e+00	-1.077915180873493e+01
1	 2.084188103490823e-01	 1.115613838628670e+00	-1.083553112039944e+01
1	 1.823988117156219e-01	 1.118753507577126e+00	-1.088212023998044e+01
1	 1.563380361017490e-01	 1.121434740365498e+00	-1.092003177078127e+01
1	 1.302528124570224e-01	 1.123669298342884e+00	-1.095039586572016e+01
1	 1.041590375074133e-01	 1.125469267744714e+00	-1.097435069954457e+01
1	 7.807215243020260e-02	 1.126847018311981e+00	-1.099303370364034e+01
1	 5.200712221235990e-02	 1.127815162689139e+00	-1.100757359114129e+01
1	 2.597841765865338e-02	 1.128386516766216e+00	-1.101908318575106e+01
1	 0.000000000000000e+00	 1.128574061114501e+00	-1.102865305491342e+01
1	 2.635637947966888e-01	 1.121938634302054e+00	-1.064672363832672e+01
1	 2.373482296499335e-01	 1.126080727339082e+00	-1.072268953032772e+01
1	 2.110570951089145e-01	 1.129735918047314e+00	-1.078678658472266e+01
1	 1.847077204181358e-01	 1.132915330725281e+00	-1.084012929157973e+01
1	 1.583170525687149e-01	 1.135630504095502e+00	-1.088386650648961e+01
1	 1.319016272114572e-01	 1.137893348388953e+00	-1.091917033840521e+01
1	 1.054775423022452e-01	 1.139716102835537e+00	-1.094722578035989e+01
1	 7.906043448167313e-02	 1.141111293759497e+00	-1.096922113429738e+01
1	 5.266545817213228e-02	 1.142091693463350e+00	-1.098633926422666e+01
1	 2.630726735816929e-02	 1.142670280067985e+00	-1.099974969633690e+01
1	 0.000000000000000e+00	 1.142860198460186e+00	-1.101060157071514e+01
1	 1.142860198460186e+00	 0.000000000000000e+00	 4.497042144729234e+00
1	 1.142670280067985e+00	 2.630726735816965e-02	 4.483721415127181e+00
1	 1.142091693463350e+00	 5.266545817213261e-02	 4.458572660105988e+00
1	 1.141111293759497e+00	 7.906043448167339e-02	 4.420373128022734e+00
1	 1.139716102835537e+00	 1.054775423022454e-01	 4.367889268535363e+00
1	 1.137893348388953e+00	 1.319016272114574e-01	 4.299883176126555e+00
1	 1.135630504095502e+00	 1.583170525687151e-01	 4.215119702297332e+00
1	 1.132915330725281e+00	 1.847077204181359e-01	 4.112374226659347e+00
1	 1.129735918047314e+00	 2.110570951089146e-01	 3.990441065968228e+00
1	 1.126080727339082e+00	 2.373482296499335e-01	 3.848142487797543e+00
1	 1.121938634302054e+00	 2.635637947966888e-01	 3.684338282172525e+00
1	 1.157145321350848e+00	 0.000000000000000e+00	 4.257972878526719e+00
1	 1.156953029083323e+00	 2.663609370653390e-02	 4.243611504725305e+00
1	 1.156367210464742e+00	 5.332374738429320e-02	 4.218024015215591e+00
1	 1.155374556304495e+00	 8.004864635632550e-02	 4.179980229845450e+00
1	 1.153961926262349e+00	 1.067959534713262e-01	 4.128243450387247e+00
1	 1.152116388389058e+00	 1.335503248849476e-01	 4.061577550657006e+00
1	 1.149825259788246e+00	 1.602959285071759e-01	 3.978754753878977e+00
1	 1.147076148246399e+00	 1.870164651665215e-01	 3.878564080571470e+00
1	 1.143856994661234e+00	 2.136951925256247e-01	 3.759820437937697e+00
1	 1.140156116082579e+00	 2.403149517652857e-01	 3.621374308305080e+00
1	 1.135962249164317e+00	 2.668581970349608e-01	 3.462121979715106e+00
1	 1.171430429241259e+00	 0.000000000000000e+00	 4.030939432525412e+00
1	 1.171235763100916e+00	 2.696491970997891e-02	 4.015777608583630e+00
1	 1.170642712476017e+00	 5.398203590584637e-02	 3.989984014563643e+00
1	 1.169637803872298e+00	 8.103685719410998e-02	 3.952328358142689e+00
1	 1.168207734730349e+00	 1.081143632569114e-01	 3.901577632446481e+00
1	 1.166339413454362e+00	 1.351990208281577e-01	 3.836503740965123e+00
1	 1.164020000575990e+00	 1.622748023686339e-01	 3.755891822773491e+00
1	 1.161236950898263e+00	 1.893252074914670e-01	 3.658549255285103e+00
1	 1.157978056447746e+00	 2.163332871729747e-01	 3.543315298560842e+00
1	 1.154231490046761e+00	 2.432816707661114e-01	 3.409071330849615e+00
1	 1.149985849301752e+00	 2.701525958145355e-01	 3.254751609730510e+00
1	 1.185715523798227e+00	 0.000000000000000e+00	 3.815227112437744e+00
1	 1.185518483787291e+00	 2.729374540682903e-02	 3.799486891173271e+00
1	 1.184918201162855e+00	 5.464032381352620e-02	 3.773696051894232e+00
1	 1.183901038127150e+00	 8.202506711023397e-02	 3.736631072100546e+00
1	 1.182453529901738e+00	 1.094327718127217e-01	 3.687069047214007e+00
1	 1.180562425244395e+00	 1.368477152333390e-01	 3.623795741562972e+00
1	 1.178214728114948e+00	 1.642536743838632e-01	 3.545614347430401e+00
1	 1.175397740333110e+00	 1.916339476622378e-01	 3.451354924239733e+00
1	 1.172099105054432e+00	 2.189713793586628e-01	 3.339884476013725e+00
1	 1.168306850873861e+00	 2.462483869984567e-01	 3.210117610182663e+00
1	 1.164009436350526e+00	 2.734469915196950e-01	 3.061027704833109e+00
1	 1.200000606688556e+00	 0.000000000000000e+00	 3.610155259752240e+00
1	 1.199801192808974e+00	 2.762257083540859e-02	 3.594041416555457e+00
1	 1.199193678190934e+00	 5.529861118406665e-02	 3.568439552430386e+00
1	 1.198164260733292e+00	 8.301327621990451e-02	 3.532139383027332e+00
1	 1.196699313438714e+00	 1.107511792924778e-01	 3.483934109102695e+00
1	 1.194785425418687e+00	 1.384964082927426e-01	 3.422628787768506e+00
1	 1.192409444061335e+00	 1.662325447836382e-01	 3.347049414470776e+00
1	 1.189558518203180e+00	 1.939426859480992e-01	 3.256052683494403e+00
1	 1.186220142128876e+00	 2.216094693903864e-01	 3.148536380301736e+00
1	 1.182382200206109e+00	 2.492151008083671e-01	 3.023450343422186e+00
1	 1.178033011946810e+00	 2.767413845347217e-01	 2.879807917131604e+00
1	 1.214285679579051e+00	 0.000000000000000e+00	 3.415075249640329e+00
1	 1.214083891832494e+00	 2.795139603404196e-02	 3.398776095471331e+00
1	 1.213469145225935e+00	 5.595689809420178e-02	 3.373527853379125e+00
1	 1.212427473354969e+00	 8.400148463832864e-02	 3.338139551289634e+00
1	 1.210945087003475e+00	 1.120695858499002e-01	 3.291426109620312e+00
1	 1.209008415636766e+00	 1.401451001986199e-01	 3.232216929777259e+00
1	 1.206604150071366e+00	 1.682114137987335e-01	 3.159365191149918e+00
1	 1.203719286160712e+00	 1.962514226183162e-01	 3.071757820988975e+00
1	 1.200341169318661e+00	 2.242475575758435e-01	 2.968326086686838e+00
1	 1.196457539685740e+00	 2.521818125418887e-01	 2.848056744038774e+00
1	 1.192056577726769e+00	 2.800357752438980e-01	 2.710003658269266e+00
1	 1.228570744136519e+00	 0.000000000000000e+00	 3.229368628560635e+00
1	 1.228366582524378e+00	 2.828022104105345e-02	 3.213056775674981e+00
1	 1.227744603933536e+00	 5.661518462066559e-02	 3.188306232325817e+00
1	 1.226690677656422e+00	 8.498969248071346e-02	 3.153951036968738e+00
1	 1.225190852258222e+00	 1.133879916387098e-01	 3.108833073372760e+00
1	 1.223231397558160e+00	 1.417937911432220e-01	 3.051810776004901e+00
1	 1.220798847801256e+00	 1.701902816599234e-01	 2.981768536971883e+00
1	 1.217880045857944e+00	 1.985601579421542e-01	 2.897626776344663e+00
1	 1.214462188271370e+00	 2.268856442227320e-01	 2.798352622620808e+00
1	 1.210532870954982e+00	 2.551485225450670e-01	 2.682971133961719e+00
1	 1.206080135326573e+00	 2.833301640315056e-01	 2.550576973907777e+00
1	 1.242855802027764e+00	 0.000000000000000e+00	 3.052445380319395e+00
1	 1.242649266551153e+00	 2.860904589476743e-02	 3.036278463983118e+00
1	 1.242020055979417e+00	 5.727347084019214e-02	 3.012150071617299e+00
1	 1.240953875301895e+00	 8.597789986226598e-02	 2.978924591867663e+00
1	 1.239436610865154e+00	 1.147063968126271e-01	 2.935475761946519e+00
1	 1.237454372842400e+00	 1.434424813188002e-01	 2.880695392079604e+00
1	 1.234993538907220e+00	 1.721691485979826e-01	 2.813502780039515e+00
1	 1.232040798947115e+00	 2.008688921888784e-01	 2.732854775871292e+00
1	 1.228583200634588e+00	 2.295237296387498e-01	 2.637756441808439e+00
1	 1.224608195656070e+00	 2.581152311639481e-01	 2.527272236253009e+00
1	 1.220103686382390e+00	 2.866245512818271e-01	 2.400537633789210e+00
1	 1.257140854919592e+00	 0.000000000000000e+00	 2.883742310367702e+00
1	 1.256931945579345e+00	 2.893787063350823e-02	 2.867863669562617e+00
1	 1.256295503029258e+00	 5.793175682951539e-02	 2.844463147915142e+00
1	 1.255217067955632e+00	 8.696610689819327e-02	 2.812440481623703e+00
1	 1.253682364486469e+00	 1.160248015253727e-01	 2.770705813905753e+00
1	 1.251677343149015e+00	 1.450911709176057e-01	 2.718188343101542e+00
1	 1.249188225045472e+00	 1.741480148436853e-01	 2.653845645034572e+00
1	 1.246201547080464e+00	 2.031776256277540e-01	 2.576673628842777e+00
1	 1.242704208055896e+00	 2.321618141315945e-01	 2.485717070513756e+00
1	 1.238683515431234e+00	 2.610819387445777e-01	 2.380080652393167e+00
1	 1.234127232530387e+00	 2.899189373791445e-01	 2.258940420225899e+00
1	 1.271425904478810e+00	 0.000000000000000e+00	 2.722721539035002e+00
1	 1.271214621275483e+00	 2.926669529560020e-02	 2.707260858919400e+00
1	 1.270570946748737e+00	 5.859004266536945e-02	 2.684676037073196e+00
1	 1.269480257281874e+00	 8.795431370370244e-02	 2.653906827692289e+00
1	 1.267928114784366e+00	 1.173432059306674e-01	 2.613904010197290e+00
1	 1.265900310137534e+00	 1.467398601318897e-01	 2.563637867900029e+00
1	 1.263382907872229e+00	 1.761268806278061e-01	 2.502107320900645e+00
1	 1.260362291910229e+00	 2.054863585280462e-01	 2.428349672355311e+00
1	 1.256825212182878e+00	 2.347998980089641e-01	 2.341450912560365e+00
1	 1.252758831922707e+00	 2.640486456330018e-01	 2.240556509657229e+00
1	 1.248150775406733e+00	 2.932133227077401e-01	 2.124882599409706e+00
1	 1.285710952372222e+00	 0.000000000000000e+00	 2.568869095225083e+00
1	 1.285497295306093e+00	 2.959551991936768e-02	 2.553943013899653e+00
1	 1.284846388803535e+00	 5.924832842448829e-02	 2.532244625368637e+00
1	 1.283743444944865e+00	 8.894252039400048e-02	 2.502758059877775e+00
1	 1.282173863421045e+00	 1.186616101822318e-01	 2.464478655208350e+00
1	 1.280123275467486e+00	 1.483885491539035e-01	 2.416421175020647e+00
1	 1.277577589043704e+00	 1.781057461811192e-01	 2.357628657361765e+00
1	 1.274523035088650e+00	 2.077950911590204e-01	 2.287181853210597e+00
1	 1.270946214663118e+00	 2.374379815785564e-01	 2.204209200681729e+00
1	 1.266834146772720e+00	 2.670153521752661e-01	 2.107897265350079e+00
1	 1.262174316647597e+00	 2.965077076518963e-01	 1.997501561319817e+00
1	 1.121938634302054e+00	 2.635637947966888e-01	 3.684338282172525e+00
1	 1.117299314585631e+00	 2.896842909871785e-01	 3.503593522745963e+00
1	 1.112152331272543e+00	 3.156935896829344e-01	 3.310661369507157e+00
1	 1.106488063271783e+00	 3.415734520723818e-01	 3.104843890442037e+00
1	 1.100297474749929e+00	 3.673054016510370e-01	 2.885573863787958e+00
1	 1.093572156557455e+00	 3.928707661351533e-01	 2.652429136582788e+00
1	 1.086304366606542e+00	 4.182507216331378e-01	 2.405146507680822e+00
1	 1.078487068930921e+00	 4.434263389172351e-01	 2.143634898313045e+00
1	 1.070113971156061e+00	 4.683786316150235e-01	 1.867987563268704e+00
1	 1.061179560108253e+00	 4.930886061179267e-01	 1.578493090223074e+00
1	 1.051679135294118e+00	 5.175373129825247e-01	 1.275644934298936e+00
1	 1.135962249164317e+00	 2.668581970349608e-01	 3.462121979715106e+00
1	 1.131264940507173e+00	 2.933051850388362e-01	 3.286869612877289e+00
1	 1.126053622738153e+00	 3.196395856405782e-01	 3.100639415185255e+00
1	 1.120318554507902e+00	 3.458429320534967e-01	 2.902804766009440e+00
1	 1.114050587040045e+00	 3.718965168269621e-01	 2.692851256597416e+00
1	 1.107241206075309e+00	 3.977814342839482e-01	 2.470389120891901e+00
1	 1.099882572754026e+00	 4.234786252445681e-01	 2.235165272326507e+00
1	 1.091967563164214e+00	 4.489689238761272e-01	 1.987074742808862e+00
1	 1.083489806280113e+00	 4.742331064869885e-01	 1.726171311204273e+00
1	 1.074443720016364e+00	 4.992519420589114e-01	 1.452677103535683e+00
1	 1.064824545126001e+00	 5.240062442908520e-01	 1.166990946395750e+00
1	 1.149985849301752e+00	 2.701525958145355e-01	 3.254751609730510e+00
1	 1.145230551764896e+00	 2.969260752888895e-01	 3.085319850481406e+00
1	 1.139954899607613e+00	 3.235855774551876e-01	 2.905979142413486e+00
1	 1.134149031222319e+00	 3.501124075518628e-01	 2.716168710471377e+00
1	 1.127803684889805e+00	 3.764876271823806e-01	 2.515423062425225e+00
1	 1.120910241241152e+00	 4.026920972766797e-01	 2.303382650644198e+00
1	 1.113460764644947e+00	 4.287065233668244e-01	 2.079804214250607e+00
1	 1.105448043243582e+00	 4.545115030154289e-01	 1.844570628269350e+00
1	 1.096865627360146e+00	 4.800875752118876e-01	 1.597700078510660e+00
1	 1.087707865997702e+00	 5.054152715285448e-01	 1.339354376251126e+00
1	 1.077969941155748e+00	 5.304751688069794e-01	 1.069846225806754e+00
1	 1.164009436350526e+00	 2.734469915196950e-01	 3.061027704833109e+00
1	 1.159196149988179e+00	 3.005469621597157e-01	 2.897662751513529e+00
1	 1.153856163502768e+00	 3.275315655870698e-01	 2.725329192414800e+00
1	 1.147979495028594e+00	 3.543818790655260e-01	 2.543526893142946e+00
1	 1.141556769903712e+00	 3.810787332528600e-01	 2.351835593866602e+00
1	 1.134579263649660e+00	 4.076027556861920e-01	 2.149923955736256e+00
1	 1.127038943863363e+00	 4.339344166097565e-01	 1.937558355129442e+00
1	 1.118928510741666e+00	 4.600540769816966e-01	 1.714611280089908e+00
1	 1.110241435956580e+00	 4.859420384726595e-01	 1.481069176391348e+00
1	 1.100971999599649e+00	 5.115785952457937e-01	 1.237039586379621e+00
1	 1.091115324916893e+00	 5.369440872855219e-01	 9.827574225553579e-01
1	 1.178033011946810e+00	 2.767413845347217e-01	 2.879807917131604e+00
1	 1.173161736806400e+00	 3.041678460736917e-01	 2.722677856863365e+00
1	 1.167757416045464e+00	 3.314775504965320e-01	 2.557402558618801e+00
1	 1.161809947540286e+00	 3.586513470925324e-01	 2.383537572227160e+00
1	 1.155309843686275e+00	 3.856698355739673e-01	 2.200704388382856e+00
1	 1.148248274895508e+00	 4.125134100853290e-01	 2.008598018642358e+00
1	 1.140617111993330e+00	 4.391623055832140e-01	 1.806994383877781e+00
1	 1.132408967231106e+00	 4.655966464214871e-01	 1.595757390729173e+00
1	 1.123617233629833e+00	 4.917964969522419e-01	 1.374845569521746e+00
1	 1.114236122369594e+00	 5.177419139296247e-01	 1.144318143207313e+00
1	 1.104260697942969e+00	 5.434130004810946e-01	 9.043403955084446e-01
1	 1.192056577726769e+00	 2.800357752438980e-01	 2.710003658269266e+00
1	 1.187127313848934e+00	 3.077887274531949e-01	 2.559202142667465e+00
1	 1.181658658857547e+00	 3.354235326438813e-01	 2.400972801258098e+00
1	 1.175640390370952e+00	 3.629208121309280e-01	 2.234922148438098e+00
1	 1.169062907841999e+00	 3.902609346812700e-01	 2.060710136289089e+00
1	 1.161917276573373e+00	 4.174240610469351e-01	 1.878056412549234e+00
1	 1.154195270618903e+00	 4.443901908970469e-01	 1.686746440994570e+00
1	 1.145889414284543e+00	 4.711392119813576e-01	 1.486637386434785e+00
1	 1.136993021940326e+00	 4.976509513335730e-01	 1.277663661240147e+00
1	 1.127500235854920e+00	 5.239052282990043e-01	 1.059842026754492e+00
1	 1.117406061767513e+00	 5.498819091483128e-01	 8.332761414111761e-01
1	 1.206080135326573e+00	 2.833301640315056e-01	 2.550576973907778e+00
1	 1.201092882745161e+00	 3.114096067206020e-01	 2.406126681094649e+00
1	 1.195559893560861e+00	 3.393695124894245e-01	 2.254870526093980e+00
1	 1.189470825134154e+00	 3.671902746787588e-01	 2.096461493985345e+00
1	 1.182815963975389e+00	 3.948520311103353e-01	 1.930594892869315e+00
1	 1.175586270277928e+00	 4.223347091438544e-01	 1.757013429887829e+00
1	 1.167773421324141e+00	 4.496180731611049e-01	 1.575512197059032e+00
1	 1.159369853474618e+00	 4.766817743078645e-01	 1.385943489348894e+00
1	 1.150368802448477e+00	 5.035054022995908e-01	 1.188221372830046e+00
1	 1.140764341603015e+00	 5.300685390728993e-01	 9.823259175385004e-01
1	 1.130551417924058e+00	 5.563508140417918e-01	 7.683070079762833e-01
1	 1.220103686382390e+00	 2.866245512818271e-01	 2.400537633789210e+00
1	 1.215058445124458e+00	 3.150304842982906e-01	 2.262393531449086e+00
1	 1.209461121777253e+00	 3.433154904934693e-01	 2.117980106017031e+00
1	 1.203301253443449e+00	 3.714597352340707e-01	 1.966992534761659e+00
1	 1.196569013690954e+00	 3.994431253967306e-01	 1.809158551755827e+00
1	 1.189255257603850e+00	 4.272453549489311e-01	 1.644242477894315e+00
1	 1.181351565693099e+00	 4.548459529852373e-01	 1.472049201706989e+00
1	 1.172850286373970e+00	 4.822243340475645e-01	 1.292428051224466e+00
1	 1.163744576714707e+00	 5.093598505332340e-01	 1.105276493228499e+00
1	 1.154028441161263e+00	 5.362318469702763e-01	 9.105435932809891e-01
1	 1.143696767946139e+00	 5.628197159161465e-01	 7.082331681702005e-01
1	 1.234127232530387e+00	 2.899189373791445e-01	 2.258940420225899e+00
1	 1.229024002616201e+00	 3.186513606086377e-01	 2.126992843268232e+00
1	 1.223362345128567e+00	 3.472614671163222e-01	 1.989236626200978e+00
1	 1.217131676912398e+00	 3.757291942949100e-01	 1.845405065590284e+00
1	 1.210322058593197e+00	 4.040342180760229e-01	 1.695255558787757e+00
1	 1.202924240145814e+00	 4.321559990350092e-01	 1.538572719956738e+00
1	 1.194929705309834e+00	 4.600738309792942e-01	 1.375171481569542e+00
1	 1.186330714555242e+00	 4.877668918470147e-01	 1.204900137144451e+00
1	 1.177120346299433e+00	 5.152142967174402e-01	 1.027643277646824e+00
1	 1.167292536077051e+00	 5.423951527101019e-01	 8.433245713225137e-01
1	 1.156842113367289e+00	 5.692886155259922e-01	 6.519093349167511e-01
1	 1.248150775406733e+00	 2.932133227077401e-01	 2.124882599409707e+00
1	 1.242989556849769e+00	 3.222722360740202e-01	 1.998960154739938e+00
1	 1.237263565236651e+00	 3.512074428182910e-01	 1.867623035224788e+00
1	 1.230962097154558e+00	 3.799986523593224e-01	 1.730638780199329e+00
1	 1.224075100286626e+00	 4.086253096837797e-01	 1.587791847432745e+00
1	 1.216593219498494e+00	 4.370666419749334e-01	 1.438885943413748e+00
1	 1.208507841758404e+00	 4.653017077531252e-01	 1.283746367590458e+00
1	 1.199811139591073e+00	 4.933094483527717e-01	 1.122222339578471e+00
1	 1.190496112763076e+00	 5.210687415351478e-01	 9.541892755241538e-01
1	 1.180556627897764e+00	 5.485584570113426e-01	 7.795509774173824e-01
1	 1.169987455721043e+00	 5.757575136259440e-01	 5.982416973067719e-01
1	 1.262174316647597e+00	 2.965077076518963e-01	 1.997501561319817e+00
1	 1.256955109454539e+00	 3.258931111168156e-01	 1.877373871245505e+00
1	 1.251164783723348e+00	 3.551534180596824e-01	 1.752167486141530e+00
1	 1.244792515783490e+00	 3.842681099253539e-01	 1.621680499220349e+00
1	 1.237828140375747e+00	 4.132164007555682e-01	 1.485721978536902e+00
1	 1.230262197256569e+00	 4.419772843415474e-01	 1.344113636190408e+00
1	 1.222085976622863e+00	 4.705295839165800e-01	 1.196691533879754e+00
1	 1.213291563054103e+00	 4.988520042113921e-01	 1.043307804859769e+00
1	 1.203871877666055e+00	 5.269231856692950e-01	 8.838323699746209e-01
1	 1.193820718170790e+00	 5.547217605929656e-01	 7.181546232990137e-01
1	 1.183132796540936e+00	 5.822264109706171e-01	 5.461850610836931e-01
1	 1.051679135294118e+00	 5.175373129825247e-01	 1.275644934298935e+00
1	 1.041608116116776e+00	 5.417075801152571e-01	 9.603435971814536e-01
1	 1.030964168233969e+00	 5.655789749840386e-01	 6.337690928231092e-01
1	 1.019745211305930e+00	 5.891329895791028e-01	 2.970190762942176e-01
1	 1.007950085520931e+00	 6.123513754379840e-01	-4.868945532133662e-02
1	 9.955785706878293e-01	 6.352161985375726e-01	-4.020244361710366e-01
1	 9.826314018053823e-01	 6.577098939740801e-01	-7.615444459364351e-01
1	 9.691102809388425e-01	 6.798153201073742e-01	-1.125705859702576e+00
1	 9.550178852589553e-01	 7.015158118423989e-01	-1.492871401108864e+00
1	 9.403578711252181e-01	 7.227952327198277e-01	-1.861320038857911e+00
1	 9.251348741237903e-01	 7.436380254908352e-01	-2.229258138921577e+00
1	 1.064824545126001e+00	 5.240062442908520e-01	 1.166990946395750e+00
1	 1.054627643757190e+00	 5.484786264475274e-01	 8.696404871498760e-01
1	 1.043850652389678e+00	 5.726484006014743e-01	 5.614822082905099e-01
1	 1.032491464680596e+00	 5.964968274030253e-01	 2.435602807378331e-01
1	 1.020548906321208e+00	 6.200054302940132e-01	-8.298203582999075e-02
1	 1.008022754368101e+00	 6.431560510859452e-01	-4.169070590673953e-01
1	 9.949137530071114e-01	 6.659309053234386e-01	-7.568885622999550e-01
1	 9.812236255783677e-01	 6.883126371053294e-01	-1.101518844727436e+00
1	 9.669550827157742e-01	 7.102843730320811e-01	-1.449316950162260e+00
1	 9.521118264813074e-01	 7.318297749475440e-01	-1.798737967679864e+00
1	 9.366985504033987e-01	 7.529330911458786e-01	-2.148183324560125e+00
1	 1.077969941155748e+00	 5.304751688069794e-01	 1.069846225806755e+00
1	 1.067647157727559e+00	 5.552496656704091e-01	 7.893619676869781e-01
1	 1.056737123014926e+00	 5.797178187962588e-01	 4.984590629661303e-01
1	 1.045237704671911e+00	 6.038606574951999e-01	 1.981291235829480e-01
1	 1.033147713892791e+00	 6.276594771135987e-01	-1.105554977872915e-01
1	 1.020466924981896e+00	 6.510958952978120e-01	-4.264466980629940e-01
1	 1.007196091312141e+00	 6.741519080410896e-01	-7.483266178231802e-01
1	 9.933369574985162e-01	 6.968099451814584e-01	-1.074914605627649e+00
1	 9.788922676380573e-01	 7.190529250151160e-01	-1.404875099685455e+00
1	 9.638657694951804e-01	 7.408643076892963e-01	-1.736826354635881e+00
1	 9.482622145405371e-01	 7.622281470413493e-01	-2.069349922525196e+00
1	 1.091115324916893e+00	 5.369440872855219e-01	 9.827574225553575e-01
1	 1.080666659546745e+00	 5.620206985737621e-01	 7.180975375835799e-01
1	 1.069623581613069e+00	 5.867872303930618e-01	 4.433414015344001e-01
1	 1.057983932766892e+00	 6.112244807146443e-01	 1.594290982240224e-01
1	 1.045746509705525e+00	 6.353135167896200e-01	-1.326350489596888e-01
1	 1.032911083981049e+00	 6.590357320994003e-01	-4.317877257029380e-01
1	 1.019478418153453e+00	 6.823729030860695e-01	-7.369126904157560e-01
1	 1.005450278112578e+00	 7.053072453270419e-01	-1.046847608039000e+00
1	 9.908294414185685e-01	 7.278214688144412e-01	-1.360391592946814e+00
1	 9.756197015382420e-01	 7.498988319990696e-01	-1.676313384145595e+00
1	 9.598258678844229e-01	 7.715231942616434e-01	-1.993360061191046e+00
1	 1.104260697942969e+00	 5.434130004810946e-01	 9.043403955084446e-01
1	 1.093686150733604e+00	 5.687917259474445e-01	 6.545038641092056e-01
1	 1.082510029687462e+00	 5.938566362165515e-01	 3.948356493193558e-01
1	 1.070730150452557e+00	 6.185882979203762e-01	 1.262254383491835e-01
1	 1.058345295229253e+00	 6.429675502149553e-01	-1.503875519262025e-01
1	 1.045355232817389e+00	 6.669755624169363e-01	-4.340200185577526e-01
1	 1.031760734964027e+00	 6.905938914174142e-01	-7.236506616686418e-01
1	 1.017563588833845e+00	 7.138045385333613e-01	-1.018226864628514e+00
1	 1.002766605450071e+00	 7.365900054529947e-01	-1.316671897409668e+00
1	 9.873736239818964e-01	 7.589333489308475e-01	-1.617892562775566e+00
1	 9.713895117842751e-01	 7.808182338911576e-01	-1.920787193666730e+00
1	 1.117406061767513e+00	 5.498819091483128e-01	 8.332761414111761e-01
1	 1.106705632806998e+00	 5.755627485813165e-01	 5.973008320908513e-01
1	 1.095396468741459e+00	 6.009260370913970e-01	 3.517091077299797e-01
1	 1.083476359215923e+00	 6.259521099714127e-01	 9.734148637049672e-02
1	 1.070944071933819e+00	 6.506215782824841e-01	-1.649249559122313e-01
1	 1.057799372942749e+00	 6.749153871766472e-01	-4.341821626089521e-01
1	 1.044043043176842e+00	 6.988148739941590e-01	-7.094971692949802e-01
1	 1.029676891075605e+00	 7.223018257916974e-01	-9.899186084912966e-01
1	 1.014703761125330e+00	 7.453585359537156e-01	-1.274483573567714e+00
1	 9.991275381975498e-01	 7.679678595386151e-01	-1.562224758761981e+00
1	 9.829531475893118e-01	 7.901132670142886e-01	-1.852177784205873e+00
1	 1.130551417924058e+00	 5.563508140417918e-01	 7.683070079762832e-01
1	 1.119725107285783e+00	 5.823337672652362e-01	 5.452678686701556e-01
1	 1.108282900278415e+00	 6.079954338422673e-01	 3.127864151710688e-01
1	 1.096222560544009e+00	 6.333159177267716e-01	 7.165531524968194e-02
1	 1.083542841289068e+00	 6.582756018850847e-01	-1.773074891646221e-01
1	 1.070243505808959e+00	 6.828552073047597e-01	-4.332644349766065e-01
1	 1.056325344224879e+00	 7.070358517753396e-01	-6.953643535622083e-01
1	 1.041790186251149e+00	 7.307991080933313e-01	-9.627487800094213e-01
1	 1.026640909837109e+00	 7.541270613395418e-01	-1.234558478492992e+00
1	 1.010881445556606e+00	 7.770023648763554e-01	-1.509940099224281e+00
1	 9.945167766487508e-01	 7.994082947154326e-01	-1.788052876945958e+00
1	 1.143696767946139e+00	 5.628197159161465e-01	 7.082331681702005e-01
1	 1.132744575688819e+00	 5.891047827890633e-01	 4.972405215553494e-01
1	 1.121169325801685e+00	 6.150648272938309e-01	 2.769462520577866e-01
1	 1.108968755923832e+00	 6.406797220454709e-01	 4.809658332872258e-02
1	 1.096141604764842e+00	 6.659296219156364e-01	-1.885466311371672e-01
1	 1.082687632867852e+00	 6.907950237275002e-01	-4.322115799861930e-01
1	 1.068607639541119e+00	 7.152568257199923e-01	-6.821224142929940e-01
1	 1.053903475773768e+00	 7.392963864295434e-01	-9.375053421828257e-01
1	 1.038578052978170e+00	 7.628955826334110e-01	-1.197594817397514e+00
1	 1.022635347430469e+00	 7.860368659980541e-01	-1.461639736520934e+00
1	 1.006080400311810e+00	 8.087033180789859e-01	-1.728909556446056e+00
1	 1.156842113367289e+00	 5.692886155259922e-01	 6.519093349167500e-01
1	 1.145764039534964e+00	 5.958757959426564e-01	 4.521072706011370e-01
1	 1.134055746814624e+00	 6.221342182707570e-01	 2.431182705144101e-01
1	 1.121714946842410e+00	 6.480435237865279e-01	 2.564360362858475e-02
1	 1.108740363830987e+00	 6.735836392670183e-01	-1.996078820035963e-01
1	 1.095131755571259e+00	 6.987348373710959e-01	-4.319253959365346e-01
1	 1.080889930558540e+00	 7.234777967871520e-01	-6.706019935047647e-01
1	 1.066016761056750e+00	 7.477936617916149e-01	-9.149404380787769e-01
1	 1.050515191941278e+00	 7.716641008582622e-01	-1.164259055299126e+00
1	 1.034389245190546e+00	 7.950713639576943e-01	-1.417897494158125e+00
1	 1.017644019927708e+00	 8.179983381893458e-01	-1.675222308630809e+00
1	 1.169987455721043e+00	 5.757575136259440e-01	 5.982416973067725e-01
1	 1.158783500343078e+00	 6.026468075158748e-01	 4.088065543630370e-01
1	 1.146942164820587e+00	 6.292036075977139e-01	 2.102802310833947e-01
1	 1.134461134786759e+00	 6.554073238089599e-01	 3.320610746053942e-03
1	 1.121339119957345e+00	 6.812376548321089e-01	-2.114133454403878e-01
1	 1.107575875371013e+00	 7.066746491617736e-01	-4.332671474585886e-01
1	 1.093172218710124e+00	 7.316987659358548e-01	-6.615963974036714e-01
1	 1.078130043513388e+00	 7.562909351708273e-01	-8.957724028184275e-01
1	 1.062452328119198e+00	 7.804326170370328e-01	-1.135187699796623e+00
1	 1.046143140208240e+00	 8.041058598092611e-01	-1.379261401725396e+00
1	 1.029207636845662e+00	 8.272933561309074e-01	-1.627444289974962e+00
1	 1.183132796540936e+00	 5.822264109706171e-01	 5.461850610836932e-01
1	 1.171802959632020e+00	 6.094178182985777e-01	 3.663239949037890e-01
1	 1.159828581322929e+00	 6.362729960993709e-01	 1.774553303421111e-01
1	 1.147207321243899e+00	 6.627711229717850e-01	-1.980479002192037e-02
1	 1.133937874613762e+00	 6.888916695037870e-01	-2.248441392045901e-01
1	 1.120019993718943e+00	 7.146144600257595e-01	-4.370598170323093e-01
1	 1.105454505428850e+00	 7.399197341251366e-01	-6.558636702287084e-01
1	 1.090243324556970e+00	 7.647882075584607e-01	-8.806876414158312e-01
1	 1.074389462904693e+00	 7.892011321926621e-01	-1.110988964979416e+00
1	 1.057897033854956e+00	 8.131403546067386e-01	-1.346255127490723e+00
1	 1.040771252414892e+00	 8.365883729880681e-01	-1.586008512065957e+00
1	 9.251348741237903e-01	 7.436380254908352e-01	-2.229258138921577e+00
1	 9.093545026181421e-01	 7.640292626408308e-01	-2.602353146966418e+00
1	 8.930233224044176e-01	 7.839546983243546e-01	-2.985704560705595e+00
1	 8.761488515538501e-01	 8.034008071342293e-01	-3.376554757762525e+00
1	 8.587395464156911e-01	 8.223548237211875e-01	-3.772075777582433e+00
1	 8.408047812142654e-01	 8.408047812142655e-01	-4.169390320309428e+00
1	 8.223548237211870e-01	 8.587395464156912e-01	-4.565593429391289e+00
1	 8.034008071342290e-01	 8.761488515538506e-01	-4.957774552540934e+00
1	 7.839546983243543e-01	 8.930233224044180e-01	-5.343039667136543e+00
1	 7.640292626408302e-01	 9.093545026181423e-01	-5.718533154885938e+00
1	 7.436380254908355e-01	 9.251348741237905e-01	-6.081459116647859e+00
1	 9.366985504033987e-01	 7.529330911458786e-01	-2.148183324560125e+00
1	 9.207209329469740e-01	 7.735792075268062e-01	-2.503508755919954e+00
1	 9.041856219770256e-01	 7.937537001796383e-01	-2.869954878089778e+00
1	 8.871002295365527e-01	 8.134428746370428e-01	-3.244898451501341e+00
1	 8.694733176745297e-01	 8.326338059899012e-01	-3.625640370481316e+00
1	 8.513143777879396e-01	 8.513143777879398e-01	-4.009425601124492e+00
1	 8.326338059899007e-01	 8.694733176745300e-01	-4.393463871255165e+00
1	 8.134428746370425e-01	 8.871002295365529e-01	-4.774950821374693e+00
1	 7.937537001796382e-01	 9.041856219770259e-01	-5.151089315457020e+00
1	 7.735792075268058e-01	 9.207209329469740e-01	-5.519110607404626e+00
1	 7.529330911458786e-01	 9.366985504033989e-01	-5.876295063006437e+00
1	 9.482622145405371e-01	 7.622281470413493e-01	-2.069349922525196e+00
1	 9.320873513404406e-01	 7.831291423855008e-01	-2.408428412772217e+00
1	 9.153479098286428e-01	 8.035526917460267e-01	-2.759389588034939e+00
1	 8.980515960197999e-01	 8.234849315956234e-01	-3.119739866573918e+00
1	 8.802070776624943e-01	 8.429127774654996e-01	-3.486904965317427e+00
1	 8.618239633262329e-01	 8.618239633262332e-01	-3.858248815562019e+00
1	 8.429127774654992e-01	 8.802070776624945e-01	-4.231093291023614e+00
1	 8.234849315956231e-01	 8.980515960198002e-01	-4.602738470960182e+00
1	 8.035526917460263e-01	 9.153479098286429e-01	-4.970483149717081e+00
1	 7.831291423855004e-01	 9.320873513404410e-01	-5.331645299372088e+00
1	 7.622281470413493e-01	 9.482622145405372e-01	-5.683582194315799e+00
1	 9.598258678844229e-01	 7.715231942616434e-01	-1.993360061191046e+00
1	 9.434537591247535e-01	 7.926790683310672e-01	-2.317586024965883e+00
1	 9.265101872616607e-01	 8.133516741667508e-01	-2.654358309634565e+00
1	 9.090029522813683e-01	 8.335269791815854e-01	-3.001308287641236e+00
1	 8.909408276319577e-01	 8.531917393472582e-01	-3.355982467931265e+00
1	 8.723335390553479e-01	 8.723335390553483e-01	-3.715860427844537e+00
1	 8.531917393472578e-01	 8.909408276319581e-01	-4.078373609733376e+00
1	 8.335269791815850e-01	 9.090029522813686e-01	-4.440924718404125e+00
1	 8.133516741667507e-01	 9.265101872616610e-01	-4.800907442935569e+00
1	 7.926790683310669e-01	 9.434537591247538e-01	-5.155726220289387e+00
1	 7.715231942616434e-01	 9.598258678844229e-01	-5.502815758581689e+00
1	 9.713895117842751e-01	 7.808182338911576e-01	-1.920787193666730e+00
1	 9.548201576261218e-01	 8.022289864776585e-01	-2.231432930377768e+00
1	 9.376724555784728e-01	 8.231506485850438e-01	-2.555194010882495e+00
1	 9.199542995990326e-01	 8.435690185665407e-01	-2.889822078481959e+00
1	 9.016745688352942e-01	 8.634706928344529e-01	-3.232980405167751e+00
1	 8.828431062014854e-01	 8.828431062014855e-01	-3.582260877631811e+00
1	 8.634706928344525e-01	 9.016745688352944e-01	-3.935201892682427e+00
1	 8.435690185665403e-01	 9.199542995990332e-01	-4.289306911106599e+00
1	 8.231506485850433e-01	 9.376724555784728e-01	-4.642063405444975e+00
1	 8.022289864776583e-01	 9.548201576261224e-01	-4.990961929705533e+00
1	 7.808182338911576e-01	 9.713895117842752e-01	-5.333515037949258e+00
1	 9.829531475893118e-01	 7.901132670142886e-01	-1.852177784205873e+00
1	 9.661865481707581e-01	 8.117788979394280e-01	-2.150399224552875e+00
1	 9.488347160814705e-01	 8.329496161441370e-01	-2.462213987748215e+00
1	 9.309056392505691e-01	 8.536110509221023e-01	-2.785489323985480e+00
1	 9.124083025248777e-01	 8.737496391263593e-01	-3.118001240869560e+00
1	 8.933526659908472e-01	 8.933526659908475e-01	-3.457450581044257e+00
1	 8.737496391263588e-01	 9.124083025248780e-01	-3.801480046405403e+00
1	 8.536110509221021e-01	 9.309056392505696e-01	-4.147691930444381e+00
1	 8.329496161441363e-01	 9.488347160814706e-01	-4.493666305816797e+00
1	 8.117788979394276e-01	 9.661865481707583e-01	-4.836979405640662e+00
1	 7.901132670142885e-01	 9.829531475893116e-01	-5.175221934548341e+00
1	 9.945167766487508e-01	 7.994082947154326e-01	-1.788052876945958e+00
1	 9.775529320848717e-01	 8.213288038305283e-01	-2.074894995329688e+00
1	 9.599969700730466e-01	 8.427485779872628e-01	-2.375720774936443e+00
1	 9.418569725137537e-01	 8.636530774198836e-01	-2.688508427349936e+00
1	 9.231420299530818e-01	 8.840285794222529e-01	-3.011142669821415e+00
1	 9.038622196496362e-01	 9.038622196496365e-01	-3.341429931614742e+00
1	 8.840285794222525e-01	 9.231420299530823e-01	-3.677114536792519e+00
1	 8.636530774198832e-01	 9.418569725137540e-01	-4.015895637062994e+00
1	 8.427485779872623e-01	 9.599969700730470e-01	-4.355444653125288e+00
1	 8.213288038305280e-01	 9.775529320848719e-01	-4.693422973361794e+00
1	 7.994082947154325e-01	 9.945167766487507e-01	-5.027499655012276e+00
1	 1.006080400311810e+00	 8.087033180789859e-01	-1.728909556446056e+00
1	 9.889193106946728e-01	 8.308787052651121e-01	-2.005311472308988e+00
1	 9.711592188555936e-01	 8.525475352576530e-01	-2.296002993828354e+00
1	 9.528083006663611e-01	 8.736950992314974e-01	-2.599068666089015e+00
1	 9.338757523722805e-01	 8.943075149214100e-01	-2.912497891420413e+00
1	 9.143717684040532e-01	 9.143717684040537e-01	-3.234199301175001e+00
1	 8.943075149214097e-01	 9.338757523722809e-01	-3.562016126651081e+00
1	 8.736950992314970e-01	 9.528083006663611e-01	-3.893742354428659e+00
1	 8.525475352576527e-01	 9.711592188555939e-01	-4.227139435613149e+00
1	 8.308787052651120e-01	 9.889193106946730e-01	-4.559953308044411e+00
1	 8.087033180789860e-01	 1.006080400311810e+00	-4.889931485730316e+00
1	 1.017644019927708e+00	 8.179983381893458e-01	-1.675222308630809e+00
1	 1.000285685326373e+00	 8.404286033573330e-01	-1.942022097940638e+00
1	 9.823214637315038e-01	 8.623464890985402e-01	-2.223336142601871e+00
1	 9.637596249861673e-01	 8.837371175285563e-01	-2.517350710124947e+00
1	 9.446094710348477e-01	 9.045864468231064e-01	-2.822155864684567e+00
1	 9.248813134803007e-01	 9.248813134803011e-01	-3.135759040681307e+00
1	 9.045864468231058e-01	 9.446094710348479e-01	-3.456099631162504e+00
1	 8.837371175285563e-01	 9.637596249861677e-01	-3.781064387597029e+00
1	 8.623464890985397e-01	 9.823214637315040e-01	-4.108503411272577e+00
1	 8.404286033573327e-01	 1.000285685326373e+00	-4.436246505442416e+00
1	 8.179983381893455e-01	 1.017644019927708e+00	-4.762119651615056e+00
1	 1.029207636845662e+00	 8.272933561309074e-01	-1.627444289974962e+00
1	 1.011652057306182e+00	 8.499784992213438e-01	-1.885383526394025e+00
1	 9.934837060031694e-01	 8.721454406531562e-01	-2.157983333079444e+00
1	 9.747109467509483e-01	 8.937791334826740e-01	-2.443527104949798e+00
1	 9.553431871931574e-01	 9.148653763266172e-01	-2.740201546067749e+00
1	 9.353908561045803e-01	 9.353908561045807e-01	-3.046109480984655e+00
1	 9.148653763266166e-01	 9.553431871931575e-01	-3.359283689827248e+00
1	 8.937791334826736e-01	 9.747109467509487e-01	-3.677701574427986e+00
1	 8.721454406531558e-01	 9.934837060031696e-01	-3.999300446257700e+00
1	 8.499784992213435e-01	 1.011652057306182e+00	-4.321993215216867e+00
1	 8.272933561309074e-01	 1.029207636845662e+00	-4.643684251815932e+00
1	 1.040771252414892e+00	 8.365883729880681e-01	-1.586008512065957e+00
1	 1.023018427960310e+00	 8.595283939712974e-01	-1.835736555829591e+00
1	 1.004645946972983e+00	 8.819443910647330e-01	-2.100195978446864e+00
1	 9.856622672384795e-01	 9.038211482654626e-01	-2.377762722572450e+00
1	 9.660769020995830e-01	 9.251443046312183e-01	-2.666716111418805e+00
1	 9.459003975030937e-01	 9.459003975030944e-01	-2.965250933549613e+00
1	 9.251443046312178e-01	 9.660769020995831e-01	-3.271490553615297e+00
1	 9.038211482654623e-01	 9.856622672384796e-01	-3.583500866722878e+00
1	 8.819443910647331e-01	 1.004645946972983e+00	-3.899304897407977e+00
1	 8.595283939712971e-01	 1.023018427960311e+00	-4.216897832049143e+00
1	 8.365883729880681e-01	 1.040771252414892e+00	-4.534262266393151e+00
1	 7.436380254908355e-01	 9.251348741237905e-01	-6.081459116647859e+00
1	 7.227952327198275e-01	 9.403578711252182e-01	-6.435077286731147e+00
1	 7.015158118423985e-01	 9.550178852589556e-01	-6.783112337809873e+00
1	 6.798153201073739e-01	 9.691102809388428e-01	-7.123602163055851e+00
1	 6.577098939740799e-01	 9.826314018053828e-01	-7.454698811879435e+00
1	 6.352161985375724e-01	 9.955785706878293e-01	-7.774677846246099e+00
1	 6.123513754379838e-01	 1.007950085520931e+00	-8.081946063532627e+00
1	 5.891329895791025e-01	 1.019745211305930e+00	-8.375047549481424e+00
1	 5.655789749840383e-01	 1.030964168233969e+00	-8.652668056005437e+00
1	 5.417075801152568e-01	 1.041608116116776e+00	-8.913637728239232e+00
1	 5.175373129825247e-01	 1.051679135294118e+00	-9.156932232620973e+00
1	 7.529330911458786e-01	 9.366985504033989e-01	-5.876295063006437e+00
1	 7.318297749475436e-01	 9.521118264813079e-01	-6.226036219864436e+00
1	 7.102843730320807e-01	 9.669550827157742e-01	-6.572107626478866e+00
1	 6.883126371053290e-01	 9.812236255783680e-01	-6.912467144105184e+00
1	 6.659309053234379e-01	 9.949137530071112e-01	-7.245160376104331e+00
1	 6.431560510859449e-01	 1.008022754368101e+00	-7.568331656567331e+00
1	 6.200054302940129e-01	 1.020548906321208e+00	-7.880233646037383e+00
1	 5.964968274030251e-01	 1.032491464680596e+00	-8.179235461241797e+00
1	 5.726484006014738e-01	 1.043850652389678e+00	-8.463829294727596e+00
1	 5.484786264475269e-01	 1.054627643757190e+00	-8.732635508721081e+00
1	 5.240062442908519e-01	 1.064824545126001e+00	-8.984406214671086e+00
1	 7.622281470413493e-01	 9.482622145405372e-01	-5.683582194315799e+00
1	 7.408643076892962e-01	 9.638657694951810e-01	-6.029780808704227e+00
1	 7.190529250151156e-01	 9.788922676380574e-01	-6.374029638392035e+00
1	 6.968099451814580e-01	 9.933369574985162e-01	-6.714219266792426e+00
1	 6.741519080410894e-01	 1.007196091312142e+00	-7.048303956759910e+00
1	 6.510958952978116e-01	 1.020466924981897e+00	-7.374314088872406e+00
1	 6.276594771135983e-01	 1.033147713892791e+00	-7.690367427591250e+00
1	 6.038606574951996e-01	 1.045237704671911e+00	-7.994679109236592e+00
1	 5.797178187962586e-01	 1.056737123014926e+00	-8.285570272627703e+00
1	 5.552496656704088e-01	 1.067647157727559e+00	-8.561475280497968e+00
1	 5.304751688069793e-01	 1.077969941155748e+00	-8.820947506643337e+00
1	 7.715231942616434e-01	 9.598258678844229e-01	-5.502815758581689e+00
1	 7.498988319990690e-01	 9.756197015382422e-01	-5.845720887361931e+00
1	 7.278214688144408e-01	 9.908294414185691e-01	-6.188215660080083e+00
1	 7.053072453270417e-01	 1.005450278112579e+00	-6.528135577695517e+00
1	 6.823729030860691e-01	 1.019478418153453e+00	-6.863358039224995e+00
1	 6.590357320993998e-01	 1.032911083981049e+00	-7.191816052827249e+00
1	 6.353135167896196e-01	 1.045746509705525e+00	-7.511510976264224e+00
1	 6.112244807146440e-01	 1.057983932766892e+00	-7.820524151268991e+00
1	 5.867872303930614e-01	 1.069623581613069e+00	-8.117027321334653e+00
1	 5.620206985737617e-01	 1.080666659546745e+00	-8.399291748579838e+00
1	 5.369440872855219e-01	 1.091115324916893e+00	-8.665695971872481e+00
1	 7.808182338911576e-01	 9.713895117842752e-01	-5.333515037949258e+00
1	 7.589333489308472e-01	 9.873736239818964e-01	-5.673294391658220e+00
1	 7.365900054529944e-01	 1.002766605450072e+00	-6.014034534706152e+00
1	 7.138045385333609e-01	 1.017563588833845e+00	-6.353527548901196e+00
1	 6.905938914174139e-01	 1.031760734964027e+00	-6.689587847158278e+00
1	 6.669755624169360e-01	 1.045355232817389e+00	-7.020066986050562e+00
1	 6.429675502149550e-01	 1.058345295229253e+00	-7.342867690427298e+00
1	 6.185882979203756e-01	 1.070730150452557e+00	-7.655956928688517e+00
1	 5.938566362165510e-01	 1.082510029687462e+00	-7.957377900503163e+00
1	 5.687917259474442e-01	 1.093686150733605e+00	-8.245260823830293e+00
1	 5.434130004810946e-01	 1.104260697942969e+00	-8.517832434267854e+00
1	 7.901132670142885e-01	 9.829531475893116e-01	-5.175221934548341e+00
1	 7.679678595386146e-01	 9.991275381975497e-01	-5.511965705718874e+00
1	 7.453585359537155e-01	 1.014703761125330e+00	-5.850884805454229e+00
1	 7.223018257916970e-01	 1.029676891075605e+00	-6.189739052663104e+00
1	 6.988148739941589e-01	 1.044043043176842e+00	-6.526293181141382e+00
1	 6.749153871766467e-01	 1.057799372942749e+00	-6.858332587515348e+00
1	 6.506215782824836e-01	 1.070944071933819e+00	-7.183678455580907e+00
1	 6.259521099714122e-01	 1.083476359215924e+00	-7.500202073065026e+00
1	 6.009260370913967e-01	 1.095396468741459e+00	-7.805838178379809e+00
1	 5.755627485813160e-01	 1.106705632806998e+00	-8.098597198991884e+00
1	 5.498819091483128e-01	 1.117406061767513e+00	-8.376576268804010e+00
1	 7.994082947154325e-01	 9.945167766487507e-01	-5.027499655012276e+00
1	 7.770023648763551e-01	 1.010881445556606e+00	-5.361224123937852e+00
1	 7.541270613395413e-01	 1.026640909837109e+00	-5.698192988464036e+00
1	 7.307991080933308e-01	 1.041790186251149e+00	-6.036144477379729e+00
1	 7.070358517753395e-01	 1.056325344224880e+00	-6.372806408132637e+00
1	 6.828552073047591e-01	 1.070243505808959e+00	-6.705912709104088e+00
1	 6.582756018850845e-01	 1.083542841289068e+00	-7.033219464679169e+00
1	 6.333159177267713e-01	 1.096222560544010e+00	-7.352520279858704e+00
1	 6.079954338422668e-01	 1.108282900278415e+00	-7.661660781186316e+00
1	 5.823337672652358e-01	 1.119725107285783e+00	-7.958552093846126e+00
1	 5.563508140417918e-01	 1.130551417924058e+00	-8.241183160136716e+00
1	 8.087033180789860e-01	 1.006080400311810e+00	-4.889931485730316e+00
1	 7.860368659980534e-01	 1.022635347430469e+00	-5.220582419024565e+00
1	 7.628955826334107e-01	 1.038578052978170e+00	-5.555411964887724e+00
1	 7.392963864295431e-01	 1.053903475773768e+00	-5.892146973520071e+00
1	 7.152568257199916e-01	 1.068607639541119e+00	-6.228490589594861e+00
1	 6.907950237274999e-01	 1.082687632867853e+00	-6.562139392590683e+00
1	 6.659296219156362e-01	 1.096141604764842e+00	-6.890800188794877e+00
1	 6.406797220454709e-01	 1.108968755923833e+00	-7.212206235648249e+00
1	 6.150648272938307e-01	 1.121169325801685e+00	-7.524132697736407e+00
1	 5.891047827890625e-01	 1.132744575688819e+00	-7.824411155897938e+00
1	 5.628197159161465e-01	 1.143696767946138e+00	-8.110943015814915e+00
1	 8.179983381893455e-01	 1.017644019927708e+00	-4.762119651615056e+00
1	 7.950713639576940e-01	 1.034389245190546e+00	-5.089575507695514e+00
1	 7.716641008582614e-01	 1.050515191941279e+00	-5.422019482591926e+00
1	 7.477936617916146e-01	 1.066016761056751e+00	-5.757176819158937e+00
1	 7.234777967871515e-01	 1.080889930558541e+00	-6.092737737266182e+00
1	 6.987348373710952e-01	 1.095131755571259e+00	-6.426375040480213e+00
1	 6.735836392670180e-01	 1.108740363830987e+00	-6.755761486163632e+00
1	 6.480435237865273e-01	 1.121714946842410e+00	-7.078586686700527e+00
1	 6.221342182707568e-01	 1.134055746814624e+00	-7.392573326936091e+00
1	 5.958757959426559e-01	 1.145764039534964e+00	-7.695492504211732e+00
1	 5.692886155259922e-01	 1.156842113367289e+00	-7.985178021790833e+00
1	 8.272933561309074e-01	 1.029207636845662e+00	-4.643684251815932e+00
1	 8.041058598092605e-01	 1.046143140208240e+00	-4.967759206329612e+00
1	 7.804326170370325e-01	 1.062452328119198e+00	-5.297516758880124e+00
1	 7.562909351708267e-01	 1.078130043513388e+00	-5.630689895714001e+00
1	 7.316987659358543e-01	 1.093172218710124e+00	-5.964967186532264e+00
1	 7.066746491617730e-01	 1.107575875371013e+00	-6.298010710177118e+00
1	 6.812376548321085e-01	 1.121339119957345e+00	-6.627473838723404e+00
1	 6.554073238089596e-01	 1.134461134786760e+00	-6.951018637764119e+00
1	 6.292036075977134e-01	 1.146942164820587e+00	-7.266332656927995e+00
1	 6.026468075158744e-01	 1.158783500343079e+00	-7.571144905138992e+00
1	 5.757575136259440e-01	 1.169987455721043e+00	-7.863240829033641e+00
1	 8.365883729880681e-01	 1.040771252414892e+00	-4.534262266393151e+00
1	 8.131403546067379e-01	 1.057897033854957e+00	-4.854709069589188e+00
1	 7.892011321926615e-01	 1.074389462904693e+00	-5.181427176377453e+00
1	 7.647882075584603e-01	 1.090243324556970e+00	-5.512166265311485e+00
1	 7.399197341251362e-01	 1.105454505428851e+00	-5.844624078253201e+00
1	 7.146144600257591e-01	 1.120019993718943e+00	-6.176464521888146e+00
1	 6.888916695037869e-01	 1.133937874613762e+00	-6.505335706230882e+00
1	 6.627711229717848e-01	 1.147207321243900e+00	-6.828887670956872e+00
1	 6.362729960993706e-01	 1.159828581322929e+00	-7.144789565640377e+00
1	 6.094178182985774e-01	 1.171802959632020e+00	-7.450746069677741e+00
1	 5.822264109706172e-01	 1.183132796540936e+00	-7.744512861049581e+00
1	 5.175373129825247e-01	 1.051679135294118e+00	-9.156932232620974e+00
1	 4.930886061179270e-01	 1.061179560108253e+00	-9.381358930847309e+00
1	 4.683786316150236e-01	 1.070113971156061e+00	-9.586675851914467e+00
1	 4.434263389172353e-01	 1.078487068930921e+00	-9.773488291800351e+00
1	 4.182507216331380e-01	 1.086304366606542e+00	-9.942579546925687e+00
1	 3.928707661351534e-01	 1.093572156557455e+00	-1.009489316823550e+01
1	 3.673054016510371e-01	 1.100297474749929e+00	-1.023151467756502e+01
1	 3.415734520723819e-01	 1.106488063271783e+00	-1.035365303459856e+01
1	 3.156935896829346e-01	 1.112152331272543e+00	-1.046262212308183e+01
1	 2.896842909871788e-01	 1.117299314585631e+00	-1.055982250161895e+01
1	 2.635637947966888e-01	 1.121938634302054e+00	-1.064672363832673e+01
1	 5.240062442908519e-01	 1.064824545126001e+00	-8.984406214671086e+00
1	 4.992519420589116e-01	 1.074443720016364e+00	-9.217970786323678e+00
1	 4.742331064869885e-01	 1.083489806280113e+00	-9.433161507494393e+00
1	 4.489689238761274e-01	 1.091967563164214e+00	-9.630419282021494e+00
1	 4.234786252445683e-01	 1.099882572754026e+00	-9.810353168164843e+00
1	 3.977814342839484e-01	 1.107241206075309e+00	-9.973724551518222e+00
1	 3.718965168269625e-01	 1.114050587040045e+00	-1.012143075461068e+01
1	 3.458429320534969e-01	 1.120318554507902e+00	-1.025448834774742e+01
1	 3.196395856405784e-01	 1.126053622738153e+00	-1.037401640867606e+01
1	 2.933051850388365e-01	 1.131264940507173e+00	-1.048121995820176e+01
1	 2.668581970349608e-01	 1.135962249164317e+00	-1.057737377578551e+01
1	 5.304751688069793e-01	 1.077969941155748e+00	-8.820947506643336e+00
1	 5.054152715285452e-01	 1.087707865997702e+00	-9.062852204724157e+00
1	 4.800875752118880e-01	 1.096865627360146e+00	-9.287097374941242e+00
1	 4.545115030154290e-01	 1.105448043243582e+00	-9.493966972666090e+00
1	 4.287065233668245e-01	 1.113460764644947e+00	-9.683903781100483e+00
1	 4.026920972766799e-01	 1.120910241241152e+00	-9.857495414007742e+00
1	 3.764876271823808e-01	 1.127803684889804e+00	-1.001545972982068e+01
1	 3.501124075518630e-01	 1.134149031222319e+00	-1.015862989908204e+01
1	 3.235855774551878e-01	 1.139954899607613e+00	-1.028793935277818e+01
1	 2.969260752888898e-01	 1.145230551764896e+00	-1.040440682140769e+01
1	 2.701525958145354e-01	 1.149985849301752e+00	-1.050912165437468e+01
1	 5.369440872855219e-01	 1.091115324916893e+00	-8.665695971872482e+00
1	 5.115785952457940e-01	 1.100971999599649e+00	-8.915153691082354e+00
1	 4.859420384726598e-01	 1.110241435956580e+00	-9.147649247352049e+00
1	 4.600540769816969e-01	 1.118928510741666e+00	-9.363316836547199e+00
1	 4.339344166097567e-01	 1.127038943863363e+00	-9.562440654863417e+00
1	 4.076027556861921e-01	 1.134579263649660e+00	-9.745442645272725e+00
1	 3.810787332528601e-01	 1.141556769903712e+00	-9.912869630310656e+00
1	 3.543818790655262e-01	 1.147979495028594e+00	-1.006538005169496e+01
1	 3.275315655870700e-01	 1.153856163502768e+00	-1.020373052532769e+01
1	 3.005469621597160e-01	 1.159196149988180e+00	-1.032876240513774e+01
1	 2.734469915196949e-01	 1.164009436350527e+00	-1.044138853167747e+01
1	 5.434130004810946e-01	 1.104260697942969e+00	-8.517832434267854e+00
1	 5.177419139296249e-01	 1.114236122369594e+00	-8.774066204591067e+00
1	 4.917964969522420e-01	 1.123617233629833e+00	-9.014022644285557e+00
1	 4.655966464214873e-01	 1.132408967231106e+00	-9.237693136089257e+00
1	 4.391623055832144e-01	 1.140617111993330e+00	-9.445210715291720e+00
1	 4.125134100853292e-01	 1.148248274895508e+00	-9.636839476559032e+00
1	 3.856698355739675e-01	 1.155309843686275e+00	-9.812963342337648e+00
1	 3.586513470925326e-01	 1.161809947540285e+00	-9.974074392954348e+00
1	 3.314775504965322e-01	 1.167757416045464e+00	-1.012076094894261e+01
1	 3.041678460736920e-01	 1.173161736806400e+00	-1.025369558353624e+01
1	 2.767413845347217e-01	 1.178033011946810e+00	-1.037362322831417e+01
1	 5.498819091483128e-01	 1.117406061767513e+00	-8.376576268804010e+00
1	 5.239052282990043e-01	 1.127500235854920e+00	-8.638818778918061e+00
1	 4.976509513335732e-01	 1.136993021940326e+00	-8.885460474918006e+00
1	 4.711392119813578e-01	 1.145889414284543e+00	-9.116356641626174e+00
1	 4.443901908970471e-01	 1.154195270618903e+00	-9.331496329901528e+00
1	 4.174240610469353e-01	 1.161917276573373e+00	-9.530993343144948e+00
1	 3.902609346812702e-01	 1.169062907841999e+00	-9.715076560890958e+00
1	 3.629208121309281e-01	 1.175640390370952e+00	-9.884079780288996e+00
1	 3.354235326438815e-01	 1.181658658857547e+00	-1.003843124893904e+01
1	 3.077887274531950e-01	 1.187127313848934e+00	-1.017864305235109e+01
1	 2.800357752438979e-01	 1.192056577726769e+00	-1.030530050680315e+01
1	 5.563508140417918e-01	 1.130551417924058e+00	-8.241183160136716e+00
1	 5.300685390728995e-01	 1.140764341603014e+00	-8.508676308565757e+00
1	 5.035054022995912e-01	 1.150368802448477e+00	-8.761240864254171e+00
1	 4.766817743078647e-01	 1.159369853474618e+00	-8.998602508906631e+00
1	 4.496180731611050e-01	 1.167773421324142e+00	-9.220613247413100e+00
1	 4.223347091438546e-01	 1.175586270277928e+00	-9.427243895852026e+00
1	 3.948520311103356e-01	 1.182815963975389e+00	-9.618575882351962e+00
1	 3.671902746787591e-01	 1.189470825134154e+00	-9.794792523330139e+00
1	 3.393695124894248e-01	 1.195559893560861e+00	-9.956169932435186e+00
1	 3.114096067206023e-01	 1.201092882745161e+00	-1.010306771160891e+01
1	 2.833301640315056e-01	 1.206080135326573e+00	-1.023591956353783e+01
1	 5.628197159161465e-01	 1.143696767946138e+00	-8.110943015814915e+00
1	 5.362318469702764e-01	 1.154028441161263e+00	-8.382937487913985e+00
1	 5.093598505332343e-01	 1.163744576714707e+00	-8.640675129272221e+00
1	 4.822243340475648e-01	 1.172850286373970e+00	-8.883758302995290e+00
1	 4.548459529852376e-01	 1.181351565693099e+00	-9.111908679395176e+00
1	 4.272453549489312e-01	 1.189255257603850e+00	-9.324961149709258e+00
1	 3.994431253967307e-01	 1.196569013690954e+00	-9.522857028709833e+00
1	 3.714597352340709e-01	 1.203301253443449e+00	-9.705636691437869e+00
1	 3.433154904934695e-01	 1.209461121777253e+00	-9.873431786151009e+00
1	 3.150304842982908e-01	 1.215058445124458e+00	-1.002645715984288e+01
1	 2.866245512818271e-01	 1.220103686382390e+00	-1.016500262477751e+01
1	 5.692886155259922e-01	 1.156842113367289e+00	-7.985178021790829e+00
1	 5.423951527101020e-01	 1.167292536077051e+00	-8.260932890798507e+00
1	 5.152142967174405e-01	 1.177120346299433e+00	-8.523105893074991e+00
1	 4.877668918470149e-01	 1.186330714555242e+00	-8.771182156923940e+00
1	 4.600738309792945e-01	 1.194929705309834e+00	-9.004759512721574e+00
1	 4.321559990350095e-01	 1.202924240145813e+00	-9.223543758859494e+00
1	 4.040342180760231e-01	 1.210322058593197e+00	-9.427343192867829e+00
1	 3.757291942949101e-01	 1.217131676912397e+00	-9.616062536635985e+00
1	 3.472614671163226e-01	 1.223362345128568e+00	-9.789696383462058e+00
1	 3.186513606086379e-01	 1.229024002616201e+00	-9.948322290998586e+00
1	 2.899189373791444e-01	 1.234127232530387e+00	-1.009209363837699e+01
1	 5.757575136259440e-01	 1.169987455721043e+00	-7.863240829033643e+00
1	 5.485584570113428e-01	 1.180556627897764e+00	-8.142023179571247e+00
1	 5.210687415351480e-01	 1.190496112763076e+00	-8.407905326191447e+00
1	 4.933094483527719e-01	 1.199811139591073e+00	-8.660261054492732e+00
1	 4.653017077531255e-01	 1.208507841758404e+00	-8.898570642550034e+00
1	 4.370666419749336e-01	 1.216593219498495e+00	-9.122417407777458e+00
1	 4.086253096837799e-01	 1.224075100286626e+00	-9.331483495514336e+00
1	 3.799986523593226e-01	 1.230962097154558e+00	-9.525545022879029e+00
1	 3.512074428182912e-01	 1.237263565236650e+00	-9.704466692112531e+00
1	 3.222722360740204e-01	 1.242989556849769e+00	-9.868195985941600e+00
1	 2.932133227077402e-01	 1.248150775406734e+00	-1.001675705372469e+01
1	 5.822264109706172e-01	 1.183132796540936e+00	-7.744512861049581e+00
1	 5.547217605929659e-01	 1.193820718170789e+00	-8.025597433569898e+00
1	 5.269231856692952e-01	 1.203871877666055e+00	-8.294473505138088e+00
1	 4.988520042113924e-01	 1.213291563054103e+00	-8.550409227563984e+00
1	 4.705295839165803e-01	 1.222085976622864e+00	-8.792773416448357e+00
1	 4.419772843415477e-01	 1.230262197256569e+00	-9.021033309751932e+00
1	 4.132164007555683e-01	 1.237828140375747e+00	-9.234751544881185e+00
1	 3.842681099253542e-01	 1.244792515783489e+00	-9.433582453378616e+00
1	 3.551534180596826e-01	 1.251164783723347e+00	-9.617267774758131e+00
1	 3.258931111168158e-01	 1.256955109454539e+00	-9.785631891207734e+00
1	 2.965077076518963e-01	 1.262174316647596e+00	-9.938576683027009e+00
1	 2.635637947966888e-01	 1.121938634302054e+00	-1.064672363832672e+01
1	 2.373482296499335e-01	 1.126080727339082e+00	-1.072268953032772e+01
1	 2.110570951089145e-01	 1.129735918047314e+00	-1.078678658472266e+01
1	 1.847077204181358e-01	 1.132915330725281e+00	-1.084012929157973e+01
1	 1.583170525687149e-01	 1.135630504095502e+00	-1.088386650648961e+01
1	 1.319016272114572e-01	 1.137893348388953e+00	-1.091917033840521e+01
1	 1.054775423022452e-01	 1.139716102835537e+00	-1.094722578035989e+01
1	 7.906043448167313e-02	 1.141111293759497e+00	-1.096922113429738e+01
1	 5.266545817213228e-02	 1.142091693463350e+00	-1.098633926422666e+01
1	 2.630726735816929e-02	 1.142670280067985e+00	-1.099974969633690e+01
1	 0.000000000000000e+00	 1.142860198460186e+00	-1.101060157071514e+01
1	 2.668581970349608e-01	 1.135962249164317e+00	-1.057737377578551e+01
1	 2.403149517652857e-01	 1.140156116082579e+00	-1.066170418596311e+01
1	 2.136951925256246e-01	 1.143856994661234e+00	-1.073327402439877e+01
1	 1.870164651665213e-01	 1.147076148246399e+00	-1.079321250909673e+01
1	 1.602959285071758e-01	 1.149825259788246e+00	-1.084268917603865e+01
1	 1.335503248849474e-01	 1.152116388389058e+00	-1.088290207002537e+01
1	 1.067959534713259e-01	 1.153961926262349e+00	-1.091506669194070e+01
1	 8.004864635632519e-02	 1.155374556304495e+00	-1.094040576055973e+01
1	 5.332374738429285e-02	 1.156367210464742e+00	-1.096013982893900e+01
1	 2.663609370653354e-02	 1.156953029083323e+00	-1.097547877880978e+01
1	 0.000000000000000e+00	 1.157145321350848e+00	-1.098761420140817e+01
1	 2.701525958145354e-01	 1.149985849301752e+00	-1.050912165437468e+01
1	 2.432816707661115e-01	 1.154231490046761e+00	-1.060120744905629e+01
1	 2.163332871729747e-01	 1.157978056447746e+00	-1.067974423986549e+01
1	 1.893252074914669e-01	 1.161236950898263e+00	-1.074586338078026e+01
1	 1.622748023686338e-01	 1.164020000575990e+00	-1.080074205755812e+01
1	 1.351990208281575e-01	 1.166339413454362e+00	-1.084559091435890e+01
1	 1.081143632569111e-01	 1.168207734730349e+00	-1.088164244184831e+01
1	 8.103685719410969e-02	 1.169637803872298e+00	-1.091014019110930e+01
1	 5.398203590584604e-02	 1.170642712476017e+00	-1.093232885874260e+01
1	 2.696491970997855e-02	 1.171235763100916e+00	-1.094944527107650e+01
1	 0.000000000000000e+00	 1.171430429241259e+00	-1.096271027959658e+01
1	 2.734469915196949e-01	 1.164009436350527e+00	-1.044138853167747e+01
1	 2.462483869984567e-01	 1.168306850873860e+00	-1.054066031046858e+01
1	 2.189713793586627e-01	 1.172099105054432e+00	-1.062569193237650e+01
1	 1.916339476622377e-01	 1.175397740333110e+00	-1.069760486591920e+01
1	 1.642536743838629e-01	 1.178214728114948e+00	-1.075757148866992e+01
1	 1.368477152333388e-01	 1.180562425244396e+00	-1.080680227913611e+01
1	 1.094327718127214e-01	 1.182453529901738e+00	-1.084653376697513e+01
1	 8.202506711023368e-02	 1.183901038127150e+00	-1.087801731139584e+01
1	 5.464032381352585e-02	 1.184918201162855e+00	-1.090250875799642e+01
1	 2.729374540682866e-02	 1.185518483787291e+00	-1.092125900616724e+01
1	 0.000000000000000e+00	 1.185715523798227e+00	-1.093550550272766e+01
1	 2.767413845347217e-01	 1.178033011946810e+00	-1.037362322831417e+01
1	 2.492151008083671e-01	 1.182382200206109e+00	-1.047954943212118e+01
1	 2.216094693903863e-01	 1.186220142128876e+00	-1.057063586904118e+01
1	 1.939426859480990e-01	 1.189558518203180e+00	-1.064798264406644e+01
1	 1.662325447836380e-01	 1.192409444061334e+00	-1.071274541401699e+01
1	 1.384964082927424e-01	 1.194785425418687e+00	-1.076612227100801e+01
1	 1.107511792924775e-01	 1.196699313438713e+00	-1.080934137317017e+01
1	 8.301327621990420e-02	 1.198164260733292e+00	-1.084364939732152e+01
1	 5.529861118406629e-02	 1.199193678190934e+00	-1.087030086823792e+01
1	 2.762257083540821e-02	 1.199801192808975e+00	-1.089054840056733e+01
1	 0.000000000000000e+00	 1.200000606688556e+00	-1.090563387249041e+01
1	 2.800357752438979e-01	 1.192056577726769e+00	-1.030530050680315e+01
1	 2.521818125418886e-01	 1.196457539685740e+00	-1.041738563716345e+01
1	 2.242475575758435e-01	 1.200341169318661e+00	-1.051411746742894e+01
1	 1.962514226183161e-01	 1.203719286160712e+00	-1.059656377880434e+01
1	 1.682114137987333e-01	 1.206604150071365e+00	-1.066585211452110e+01
1	 1.401451001986197e-01	 1.209008415636766e+00	-1.072315647822786e+01
1	 1.120695858499000e-01	 1.210945087003475e+00	-1.076968476086397e+01
1	 8.400148463832836e-02	 1.212427473354968e+00	-1.080666697489909e+01
1	 5.595689809420142e-02	 1.213469145225935e+00	-1.083534435450806e+01
1	 2.795139603404157e-02	 1.214083891832495e+00	-1.085695936135345e+01
1	 0.000000000000000e+00	 1.214285679579051e+00	-1.087274661838060e+01
1	 2.833301640315056e-01	 1.206080135326573e+00	-1.023591956353783e+01
1	 2.551485225450670e-01	 1.210532870954983e+00	-1.035370250549114e+01
1	 2.268856442227319e-01	 1.214462188271370e+00	-1.045569947893348e+01
1	 1.985601579421541e-01	 1.217880045857944e+00	-1.054293547474756e+01
1	 1.701902816599233e-01	 1.220798847801255e+00	-1.061649902530785e+01
1	 1.417937911432218e-01	 1.223231397558161e+00	-1.067752883827110e+01
1	 1.133879916387095e-01	 1.225190852258222e+00	-1.072720113263609e+01
1	 8.498969248071314e-02	 1.226690677656422e+00	-1.076671775947829e+01
1	 5.661518462066523e-02	 1.227744603933536e+00	-1.079729516938362e+01
1	 2.828022104105307e-02	 1.228366582524378e+00	-1.082015426958476e+01
1	 0.000000000000000e+00	 1.228570744136519e+00	-1.083651119637463e+01
1	 2.866245512818271e-01	 1.220103686382390e+00	-1.016500262477751e+01
1	 2.581152311639481e-01	 1.224608195656070e+00	-1.028805506613647e+01
1	 2.295237296387498e-01	 1.228583200634588e+00	-1.039496476295007e+01
1	 2.008688921888782e-01	 1.232040798947115e+00	-1.048670392027945e+01
1	 1.721691485979824e-01	 1.234993538907219e+00	-1.056431163516341e+01
1	 1.434424813188000e-01	 1.237454372842401e+00	-1.062888058356060e+01
1	 1.147063968126268e-01	 1.239436610865154e+00	-1.068154437613162e+01
1	 8.597789986226567e-02	 1.240953875301895e+00	-1.072346566813754e+01
1	 5.727347084019176e-02	 1.242020055979417e+00	-1.075582508846411e+01
1	 2.860904589476704e-02	 1.242649266551153e+00	-1.077981103381359e+01
1	 0.000000000000000e+00	 1.242855802027764e+00	-1.079661035666874e+01
1	 2.899189373791444e-01	 1.234127232530387e+00	-1.009209363837699e+01
1	 2.610819387445777e-01	 1.238683515431234e+00	-1.022001857882392e+01
1	 2.321618141315945e-01	 1.242704208055896e+00	-1.033151514464159e+01
1	 2.031776256277538e-01	 1.246201547080464e+00	-1.042749320920200e+01
1	 1.741480148436851e-01	 1.249188225045472e+00	-1.050893246103711e+01
1	 1.450911709176055e-01	 1.251677343149015e+00	-1.057686925908184e+01
1	 1.160248015253724e-01	 1.253682364486469e+00	-1.063238411633265e+01
1	 8.696610689819298e-02	 1.255217067955632e+00	-1.067658989942044e+01
1	 5.793175682951503e-02	 1.256295503029258e+00	-1.071062081162840e+01
1	 2.893787063350784e-02	 1.256931945579345e+00	-1.073562220813701e+01
1	 0.000000000000000e+00	 1.257140854919592e+00	-1.075274127498844e+01
1	 2.932133227077402e-01	 1.248150775406734e+00	-1.001675705372469e+01
1	 2.640486456330018e-01	 1.252758831922707e+00	-1.014918739767777e+01
1	 2.347998980089640e-01	 1.256825212182878e+00	-1.026497034971798e+01
1	 2.054863585280461e-01	 1.260362291910229e+00	-1.036494433509212e+01
1	 1.761268806278058e-01	 1.263382907872229e+00	-1.045002009168664e+01
1	 1.467398601318895e-01	 1.265900310137534e+00	-1.052116780623447e+01
1	 1.173432059306671e-01	 1.267928114784366e+00	-1.057940483172826e+01
1	 8.795431370370210e-02	 1.269480257281874e+00	-1.062578407511927e+01
1	 5.859004266536907e-02	 1.270570946748737e+00	-1.066138312488770e+01
1	 2.926669529559979e-02	 1.271214621275483e+00	-1.068729416971190e+01
1	 0.000000000000000e+00	 1.271425904478810e+00	-1.070461474246846e+01
1	 2.965077076518963e-01	 1.262174316647596e+00	-9.938576683027009e+00
1	 2.670153521752661e-01	 1.266834146772720e+00	-1.007517391069096e+01
1	 2.374379815785563e-01	 1.270946214663118e+00	-1.019496701023795e+01
1	 2.077950911590201e-01	 1.274523035088650e+00	-1.029871425270805e+01
1	 1.781057461811192e-01	 1.277577589043705e+00	-1.038724829508739e+01
1	 1.483885491539033e-01	 1.280123275467486e+00	-1.046146370776667e+01
1	 1.186616101822315e-01	 1.282173863421045e+00	-1.052230502941381e+01
1	 8.894252039400018e-02	 1.283743444944866e+00	-1.057075543927994e+01
1	 5.924832842448790e-02	 1.284846388803535e+00	-1.060782611812159e+01
1	 2.959551991936728e-02	 1.285497295306093e+00	-1.063454635110911e+01
1	 0.000000000000000e+00	 1.285710952372222e+00	-1.065195440954643e+01
1	 1.285710952372222e+00	 0.000000000000000e+00	 2.568869095225083e+00
1	 1.285497295306093e+00	 2.959551991936768e-02	 2.553943013899653e+00
1	 1.284846388803535e+00	 5.924832842448829e-02	 2.532244625368637e+00
1	 1.283743444944865e+00	 8.894252039400048e-02	 2.502758059877775e+00
1	 1.282173863421045e+00	 1.186616101822318e-01	 2.464478655208350e+00
1	 1.280123275467486e+00	 1.483885491539035e-01	 2.416421175020647e+00
1	 1.277577589043704e+00	 1.781057461811192e-01	 2.357628657361765e+00
1	 1.274523035088650e+00	 2.077950911590204e-01	 2.287181853210597e+00
1	 1.270946214663118e+00	 2.374379815785564e-01	 2.204209200681729e+00
1	 1.266834146772720e+00	 2.670153521752661e-01	 2.107897265350079e+00
1	 1.262174316647597e+00	 2.965077076518963e-01	 1.997501561319817e+00
1	 1.299996999436575e+00	 0.000000000000000e+00	 2.422838271420678e+00
1	 1.299780968341605e+00	 2.992436754283352e-02	 2.408511782806039e+00
1	 1.299122829357391e+00	 5.990666022752204e-02	 2.387736628341275e+00
1	 1.298007630249775e+00	 8.993079620458713e-02	 2.359542472703958e+00
1	 1.296420608479857e+00	 1.199801066498033e-01	 2.322970103370206e+00
1	 1.294347235625972e+00	 1.500373534937382e-01	 2.277079345411738e+00
1	 1.291773263065350e+00	 1.800847501464908e-01	 2.220957581019547e+00
1	 1.288684768743407e+00	 2.101039852746392e-01	 2.153728834803377e+00
1	 1.285068204839977e+00	 2.400762496692715e-01	 2.074563372180765e+00
1	 1.280910446123659e+00	 2.699822662242060e-01	 1.982687743563667e+00
1	 1.276198838767993e+00	 2.998023230222043e-01	 1.877395191797270e+00
1	 1.314283043168385e+00	 0.000000000000000e+00	 2.285286780785537e+00
1	 1.314064638045126e+00	 3.025321508956966e-02	 2.271575506682599e+00
1	 1.313399266580941e+00	 6.056499187694717e-02	 2.251731261166317e+00
1	 1.312271812227235e+00	 9.091907178457748e-02	 2.224827420972756e+00
1	 1.310667350215281e+00	 1.212986028097242e-01	 2.189948301078488e+00
1	 1.308571192466371e+00	 1.516861574488443e-01	 2.146196768952599e+00
1	 1.305968933775486e+00	 1.820637536500776e-01	 2.092702439283105e+00
1	 1.302846499094542e+00	 2.124128788514846e-01	 2.028630411489012e+00
1	 1.299190191722443e+00	 2.427145171443396e-01	 1.953190499101088e+00
1	 1.294986742190813e+00	 2.729491795807888e-01	 1.865646886031159e+00
1	 1.290223357616614e+00	 3.030969376236583e-01	 1.765328130067301e+00
1	 1.328569080234105e+00	 0.000000000000000e+00	 2.155709654404318e+00
1	 1.328348301083665e+00	 3.058206248284655e-02	 2.142620429050235e+00
1	 1.327675697142885e+00	 6.122332321915620e-02	 2.123705938673740e+00
1	 1.326535987548803e+00	 9.190734690337923e-02	 2.098081484675603e+00
1	 1.324914085302944e+00	 1.226170983543531e-01	 2.064873024030303e+00
1	 1.322795142669631e+00	 1.533349606345124e-01	 2.023224485911443e+00
1	 1.320164597861666e+00	 1.840427562301277e-01	 1.972305645703166e+00
1	 1.317008222837535e+00	 2.147217713508359e-01	 1.911320520055390e+00
1	 1.313312172015283e+00	 2.453527833881926e-01	 1.839516233911313e+00
1	 1.309063031689621e+00	 2.759160915527708e-01	 1.756192296904168e+00
1	 1.304247869921001e+00	 3.063915506875612e-01	 1.660710212394286e+00
1	 1.342855107300192e+00	 0.000000000000000e+00	 2.033623407611959e+00
1	 1.342631954124233e+00	 3.091090964593466e-02	 2.021154651619121e+00
1	 1.341952117711919e+00	 6.188165410054168e-02	 2.003160309579871e+00
1	 1.340800152886037e+00	 9.289562133040007e-02	 1.978795853656435e+00
1	 1.339160810418477e+00	 1.239355929760491e-01	 1.947227032448416e+00
1	 1.337019082916703e+00	 1.549837626660329e-01	 1.907636892830773e+00
1	 1.334360252011446e+00	 1.860217574248894e-01	 1.859233337232293e+00
1	 1.331169936667871e+00	 2.170306622339723e-01	 1.801257181442378e+00
1	 1.327434142423264e+00	 2.479910477852630e-01	 1.732990665795378e+00
1	 1.323139311335525e+00	 2.788830014479088e-01	 1.653766359570968e+00
1	 1.318272372408692e+00	 3.096861614452167e-01	 1.562976384866283e+00
1	 1.357141121033102e+00	 0.000000000000000e+00	 1.918564909231964e+00
1	 1.356915593833839e+00	 3.123975650210440e-02	 1.906706983844467e+00
1	 1.356228524956741e+00	 6.253998436749619e-02	 1.889615086267998e+00
1	 1.355064304910496e+00	 9.388389483504776e-02	 1.866483137602817e+00
1	 1.353407522237509e+00	 1.252540863671710e-01	 1.836514861350696e+00
1	 1.351243009888537e+00	 1.566325631586963e-01	 1.798930513228711e+00
1	 1.348555892912382e+00	 1.880007567726111e-01	 1.752974125600784e+00
1	 1.345331637281031e+00	 2.193395509621733e-01	 1.697921233127408e+00
1	 1.341556099651152e+00	 2.506293097199832e-01	 1.633087034477964e+00
1	 1.337215577843965e+00	 2.818499085739595e-01	 1.557834932449473e+00
1	 1.332296861807227e+00	 3.129807691279275e-01	 1.471585381782707e+00
1	 1.371427118099289e+00	 0.000000000000000e+00	 1.810090321468097e+00
1	 1.371199216879492e+00	 3.156860297462624e-02	 1.798825864365539e+00
1	 1.370504915546047e+00	 6.319831386641224e-02	 1.782610947687891e+00
1	 1.369328440293738e+00	 9.487216718673007e-02	 1.760676250392482e+00
1	 1.367654217435671e+00	 1.265725782200777e-01	 1.732261686407228e+00
1	 1.365466920266081e+00	 1.582813617277929e-01	 1.696622845110634e+00
1	 1.362751517252028e+00	 1.899797538115409e-01	 1.653037926710424e+00
1	 1.359493321372499e+00	 2.216484369967183e-01	 1.600815140715468e+00
1	 1.355678040403714e+00	 2.532675685767853e-01	 1.539300524414034e+00
1	 1.351291827930385e+00	 2.848168122386797e-01	 1.467886126271031e+00
1	 1.346321334844147e+00	 3.162753729669972e-01	 1.386018486620344e+00
1	 1.385713095165209e+00	 0.000000000000000e+00	 1.707774105352202e+00
1	 1.385482819928202e+00	 3.189744898677063e-02	 1.697078349141879e+00
1	 1.384781286148537e+00	 6.385664244368242e-02	 1.681707510098951e+00
1	 1.383592555707320e+00	 9.586043815485464e-02	 1.660927363430812e+00
1	 1.381900892688592e+00	 1.278910682271282e-01	 1.634012259931739e+00
1	 1.379690810730285e+00	 1.599301579886133e-01	 1.600251279749593e+00
1	 1.376947121717941e+00	 1.919587480799270e-01	 1.558954862417435e+00
1	 1.373654985637756e+00	 2.239573197988867e-01	 1.509461883019243e+00
1	 1.369799961385716e+00	 2.559058237401017e-01	 1.451147133544555e+00
1	 1.365368058310225e+00	 2.877837117498259e-01	 1.383429156975858e+00
1	 1.360345788246990e+00	 3.195699721937289e-01	 1.305778369620137e+00
1	 1.399999048897318e+00	 0.000000000000000e+00	 1.611208087066773e+00
1	 1.399766399646979e+00	 3.222629446180800e-02	 1.601049161523927e+00
1	 1.399057633432906e+00	 6.451496994569926e-02	 1.586482360812364e+00
1	 1.397856647822801e+00	 9.684870750882919e-02	 1.566806923052702e+00
1	 1.396147544671901e+00	 1.292095560806813e-01	 1.541329911999117e+00
1	 1.393914677962101e+00	 1.615789515564481e-01	 1.509372086646315e+00
1	 1.391142702997676e+00	 1.939377391160178e-01	 1.470274229535323e+00
1	 1.387816626772285e+00	 2.262661988299577e-01	 1.423403905381550e+00
1	 1.383921859301924e+00	 2.585440745943648e-01	 1.368162611293676e+00
1	 1.379444265698925e+00	 2.907506064151547e-01	 1.303993268820697e+00
1	 1.374370218743297e+00	 3.228645660394258e-01	 1.230387996523149e+00
1	 1.414284975962072e+00	 0.000000000000000e+00	 1.520000580839170e+00
1	 1.414049952702832e+00	 3.255513932300882e-02	 1.510339799879937e+00
1	 1.413333954067853e+00	 6.517329621885529e-02	 1.496530150478919e+00
1	 1.412120713311740e+00	 9.783697501806153e-02	 1.477902727460132e+00
1	 1.410394170061229e+00	 1.305280414730958e-01	 1.453795612085333e+00
1	 1.408138518642477e+00	 1.632277420465876e-01	 1.423559459990535e+00
1	 1.405338257778788e+00	 1.959167264580614e-01	 1.386563531305985e+00
1	 1.401978241471570e+00	 2.285750735512108e-01	 1.342202136416053e+00
1	 1.398043730857107e+00	 2.611823205240068e-01	 1.289901460912790e+00
1	 1.393520446811928e+00	 2.937174955424229e-01	 1.229126722735512e+00
1	 1.388394623060607e+00	 3.261591537353912e-01	 1.159389603426405e+00
1	 1.428570873025926e+00	 0.000000000000000e+00	 1.433775564448448e+00
1	 1.428333475762771e+00	 3.288398349364353e-02	 1.424567698751369e+00
1	 1.427610244722076e+00	 6.583162110954309e-02	 1.411461739825391e+00
1	 1.426384748845693e+00	 9.882524045195930e-02	 1.393819059029062e+00
1	 1.424640765532204e+00	 1.318465240967308e-01	 1.371007086994284e+00
1	 1.422362329452363e+00	 1.648765290743223e-01	 1.342404622319794e+00
1	 1.419533782748831e+00	 1.978957096443060e-01	 1.307407566967406e+00
1	 1.416139826431091e+00	 2.308839434239253e-01	 1.265435063728211e+00
1	 1.412165572756028e+00	 2.638205609134598e-01	 1.215936001668349e+00
1	 1.407596598364675e+00	 2.966843784393872e-01	 1.158395845362989e+00
1	 1.402418997926461e+00	 3.294537345129283e-01	 1.092343733131321e+00
1	 1.262174316647597e+00	 2.965077076518963e-01	 1.997501561319817e+00
1	 1.256955109454539e+00	 3.258931111168156e-01	 1.877373871245505e+00
1	 1.251164783723348e+00	 3.551534180596824e-01	 1.752167486141530e+00
1	 1.244792515783490e+00	 3.842681099253539e-01	 1.621680499220349e+00
1	 1.237828140375747e+00	 4.132164007555682e-01	 1.485721978536903e+00
1	 1.230262197256569e+00	 4.419772843415474e-01	 1.344113636190408e+00
1	 1.222085976622863e+00	 4.705295839165800e-01	 1.196691533879754e+00
1	 1.213291563054103e+00	 4.988520042113921e-01	 1.043307804859769e+00
1	 1.203871877666055e+00	 5.269231856692950e-01	 8.838323699746206e-01
1	 1.193820718170790e+00	 5.547217605929656e-01	 7.181546232990136e-01
1	 1.183132796540936e+00	 5.822264109706171e-01	 5.461850610836932e-01
1	 1.276198838767993e+00	 2.998023230222043e-01	 1.877395191797270e+00
1	 1.270921638882720e+00	 3.295142394221146e-01	 1.762850661529313e+00
1	 1.265066974533483e+00	 3.590996693027053e-01	 1.643518391108714e+00
1	 1.258623901783632e+00	 3.885378661189792e-01	 1.519224302687456e+00
1	 1.251582142423700e+00	 4.178078129515949e-01	 1.389800176223163e+00
1	 1.243932131093599e+00	 4.468882701834049e-01	 1.255084741440628e+00
1	 1.235665061212145e+00	 4.757578257441907e-01	 1.114924824606989e+00
1	 1.226772929407417e+00	 5.043949477444406e-01	 9.691765397287774e-01
1	 1.217248578138877e+00	 5.327780392929062e-01	 8.177065118212019e-01
1	 1.207085736202502e+00	 5.608854952672500e-01	 6.603931179879249e-01
1	 1.196279056813543e+00	 5.886957607827461e-01	 4.971277302423055e-01
1	 1.290223357616614e+00	 3.030969376236583e-01	 1.765328130067301e+00
1	 1.284888165052574e+00	 3.331353668823323e-01	 1.656206852109066e+00
1	 1.278969162100207e+00	 3.630459196247387e-01	 1.542552949816497e+00
1	 1.272455284556780e+00	 3.928076213160798e-01	 1.424218341880655e+00
1	 1.265336141262610e+00	 4.223992240759926e-01	 1.301056117767516e+00
1	 1.257602061741100e+00	 4.517992548790162e-01	 1.172921097028184e+00
1	 1.249244142632999e+00	 4.809860663514812e-01	 1.039670460035673e+00
1	 1.240254292615020e+00	 5.099378899836977e-01	 9.011644485601699e-01
1	 1.230625275490343e+00	 5.386328915499143e-01	 7.572671330246483e-01
1	 1.220350751138874e+00	 5.670492285028369e-01	 6.078472415931881e-01
1	 1.209425314018505e+00	 5.951651090848595e-01	 4.527790444702444e-01
1	 1.304247869921001e+00	 3.063915506875612e-01	 1.660710212394286e+00
1	 1.298854684705190e+00	 3.367564926525975e-01	 1.556846014966040e+00
1	 1.292871343179647e+00	 3.669921681050627e-01	 1.448671222532919e+00
1	 1.286286660875609e+00	 3.970773745204665e-01	 1.336061995635228e+00
1	 1.279090133683234e+00	 4.269906330575335e-01	 1.218891397550100e+00
1	 1.271271986009470e+00	 4.567102372825999e-01	 1.097029464319577e+00
1	 1.262823217717048e+00	 4.862143045186584e-01	 9.703433609988582e-01
1	 1.253735649531359e+00	 5.154808296359515e-01	 8.386976306014028e-01
1	 1.244001966599343e+00	 5.444877410743382e-01	 7.019545410101049e-01
1	 1.233615759884871e+00	 5.732129588616810e-01	 5.599745336473898e-01
1	 1.222571565088504e+00	 6.016344543676050e-01	 4.126167759614213e-01
1	 1.318272372408692e+00	 3.096861614452167e-01	 1.562976384866283e+00
1	 1.312821194581664e+00	 3.403776158880397e-01	 1.464197098502576e+00
1	 1.306773514527932e+00	 3.709384138229578e-01	 1.361298795402954e+00
1	 1.300118027512793e+00	 4.013471247359494e-01	 1.254180197670385e+00
1	 1.292844116476331e+00	 4.315820388249894e-01	 1.142733070554850e+00
1	 1.284941900709110e+00	 4.616212162483760e-01	 1.026841845400445e+00
1	 1.276402283295917e+00	 4.914425390259288e-01	 9.063833418139648e-01
1	 1.267216997010882e+00	 5.210237654079906e-01	 7.812266028741888e-01
1	 1.257378648344766e+00	 5.503425865001975e-01	 6.512328563329901e-01
1	 1.246880759345454e+00	 5.793766849057361e-01	 5.162556134856645e-01
1	 1.235717806956221e+00	 6.081037951216303e-01	 3.761409156982129e-01
1	 1.332296861807227e+00	 3.129807691279275e-01	 1.471585381782707e+00
1	 1.326787691423086e+00	 3.439987357437876e-01	 1.377713091891357e+00
1	 1.320675672901189e+00	 3.748846558577046e-01	 1.279885436923698e+00
1	 1.313949381241011e+00	 4.056168709663394e-01	 1.178022091528728e+00
1	 1.306598086432660e+00	 4.361734403071328e-01	 1.072032312260911e+00
1	 1.298611802650422e+00	 4.665321906305634e-01	 9.618141545286509e-01
1	 1.289981336201229e+00	 4.966707686534989e-01	 8.472537999989944e-01
1	 1.280698331908039e+00	 5.265666960066030e-01	 7.282250149147317e-01
1	 1.270755317605502e+00	 5.561974264615115e-01	 6.045887592281025e-01
1	 1.260145746425587e+00	 5.855404051969570e-01	 4.761929653757935e-01
1	 1.248864036554340e+00	 6.145731298375837e-01	 3.428725038821474e-01
1	 1.346321334844147e+00	 3.162753729669972e-01	 1.386018486620344e+00
1	 1.340754171970549e+00	 3.476198513749700e-01	 1.296869772880174e+00
1	 1.334577815055549e+00	 3.788308932885835e-01	 1.203903838367073e+00
1	 1.327780718832936e+00	 4.098866122154465e-01	 1.107059769559233e+00
1	 1.320352040342977e+00	 4.407648364327352e-01	 1.006263162268206e+00
1	 1.312281688643806e+00	 4.714431592833817e-01	 9.014249725990128e-01
1	 1.303560373264609e+00	 5.018989921815753e-01	 7.924404878593185e-01
1	 1.294179651077275e+00	 5.321096201385769e-01	 6.791884438208282e-01
1	 1.284131971260440e+00	 5.620522595922992e-01	 5.615303144782451e-01
1	 1.273410718030233e+00	 5.917041182972974e-01	 4.393097995570788e-01
1	 1.262010250815542e+00	 6.210424570061129e-01	 3.123525334428340e-01
1	 1.360345788246990e+00	 3.195699721937289e-01	 1.305778369620136e+00
1	 1.354720632965146e+00	 3.512409619367159e-01	 1.221164533031327e+00
1	 1.348479937747139e+00	 3.827771251948748e-01	 1.132848432093661e+00
1	 1.341612037061243e+00	 4.141563474870811e-01	 1.040787089880332e+00
1	 1.334105974998042e+00	 4.453562261305693e-01	 9.449213456159867e-01
1	 1.325951555499662e+00	 4.763541210610502e-01	 8.451743786308141e-01
1	 1.317139391317681e+00	 5.071272083903644e-01	 7.414503600383600e-01
1	 1.307660951373040e+00	 5.376525365107007e-01	 6.336332638122034e-01
1	 1.297508606188468e+00	 5.679070845265797e-01	 5.215858689518461e-01
1	 1.286675671064355e+00	 5.978678227687122e-01	 4.051489837115163e-01
1	 1.275156446672509e+00	 6.275117751178659e-01	 2.841409213528353e-01
1	 1.374370218743297e+00	 3.228645660394258e-01	 1.230387996523149e+00
1	 1.368687071147968e+00	 3.548620665841546e-01	 1.150115274865992e+00
1	 1.362382037732088e+00	 3.867233506558594e-01	 1.066234282195402e+00
1	 1.355443332698608e+00	 4.184260757850536e-01	 9.787185657545852e-01
1	 1.347859887188615e+00	 4.499476083294069e-01	 8.875231662463765e-01
1	 1.339621400028392e+00	 4.812650748177886e-01	 7.925828527778447e-01
1	 1.330718387192070e+00	 5.123554160600730e-01	 6.938104916076608e-01
1	 1.321142229649782e+00	 5.431954438297626e-01	 5.910955849829979e-01
1	 1.310885219268478e+00	 5.737618998983726e-01	 4.843030166203413e-01
1	 1.299940602432917e+00	 6.040315171731547e-01	 3.732720398377075e-01
1	 1.288302621057924e+00	 6.339810826634908e-01	 2.578155429065801e-01
1	 1.388394623060607e+00	 3.261591537353912e-01	 1.159389603426405e+00
1	 1.382653483260108e+00	 3.584831644724148e-01	 1.083259375830779e+00
1	 1.376284111766524e+00	 3.906695687508174e-01	 1.003596042354423e+00
1	 1.369274602517707e+00	 4.226957961131750e-01	 9.203883222562721e-01
1	 1.361613773705451e+00	 4.545389819580201e-01	 8.336044675131078e-01
1	 1.353291219040396e+00	 4.861760194078157e-01	 7.431902458052230e-01
1	 1.344297357719400e+00	 5.175836139709075e-01	 6.490670617099950e-01
1	 1.334623482761948e+00	 5.487383408025508e-01	 5.511302563553975e-01
1	 1.324261807379358e+00	 5.796167043416971e-01	 4.492476262852594e-01
1	 1.313205509040881e+00	 6.101952000725799e-01	 3.432582019042923e-01
1	 1.301448770904468e+00	 6.404503781336350e-01	 2.329713245124022e-01
1	 1.402418997926461e+00	 3.294537345129283e-01	 1.092343733131320e+00
1	 1.396619866042658e+00	 3.621042547566253e-01	 1.020152714410078e+00
1	 1.390186156606576e+00	 3.946157785590295e-01	 9.444869762140367e-01
1	 1.383105843291214e+00	 4.269655074752547e-01	 8.653491155226395e-01
1	 1.375367631339310e+00	 4.591303459451807e-01	 7.827196550435028e-01
1	 1.366961009346076e+00	 4.910869536853510e-01	 6.965548103814954e-01
1	 1.357876299731293e+00	 5.228118009030744e-01	 6.067843981680283e-01
1	 1.348104707563986e+00	 5.542812261358537e-01	 5.133099287344470e-01
1	 1.337638367399997e+00	 5.854714964905721e-01	 4.160029276265254e-01
1	 1.326470387793212e+00	 6.163588700289419e-01	 3.147035300294606e-01
1	 1.314594893144823e+00	 6.469196600189466e-01	 2.092193909028422e-01
1	 1.183132796540936e+00	 5.822264109706171e-01	 5.461850610836936e-01
1	 1.171802959632020e+00	 6.094178182985777e-01	 3.663239949037885e-01
1	 1.159828581322929e+00	 6.362729960993709e-01	 1.774553303421121e-01
1	 1.147207321243899e+00	 6.627711229717850e-01	-1.980479002192037e-02
1	 1.133937874613762e+00	 6.888916695037870e-01	-2.248441392045911e-01
1	 1.120019993718943e+00	 7.146144600257595e-01	-4.370598170323095e-01
1	 1.105454505428850e+00	 7.399197341251366e-01	-6.558636702287084e-01
1	 1.090243324556970e+00	 7.647882075584607e-01	-8.806876414158313e-01
1	 1.074389462904693e+00	 7.892011321926621e-01	-1.110988964979416e+00
1	 1.057897033854956e+00	 8.131403546067386e-01	-1.346255127490723e+00
1	 1.040771252414892e+00	 8.365883729880681e-01	-1.586008512065957e+00
1	 1.196279056813543e+00	 5.886957607827461e-01	 4.971277302423047e-01
1	 1.184823329568884e+00	 6.161893026801177e-01	 3.261820374702470e-01
1	 1.172715899167537e+00	 6.433428790699680e-01	 1.463022891316662e-01
1	 1.159954399234961e+00	 6.701354371961921e-01	-4.193555772394392e-02
1	 1.146537510492046e+00	 6.965462195362728e-01	-2.379634894674955e-01
1	 1.132464982472780e+00	 7.225548262406800e-01	-4.412266814820660e-01
1	 1.117737651234249e+00	 7.481412773310235e-01	-6.511887005234984e-01
1	 1.102357452866200e+00	 7.732860742889249e-01	-8.673365841592722e-01
1	 1.086327432635354e+00	 7.979702606633312e-01	-1.089185716492457e+00
1	 1.069651749630091e+00	 8.221754813233386e-01	-1.316284420141457e+00
1	 1.052335676803569e+00	 8.458840399867048e-01	-1.548218187157825e+00
1	 1.209425314018505e+00	 5.951651090848595e-01	 4.527790444702445e-01
1	 1.197843696467493e+00	 6.229607854811509e-01	 2.902185660587545e-01
1	 1.185603214004979e+00	 6.504127603904537e-01	 1.187864753441465e-01
1	 1.172701474251644e+00	 6.774997497018224e-01	-6.098003637586535e-02
1	 1.159137143430437e+00	 7.042007677823064e-01	-2.485553053655953e-01
1	 1.144909968322899e+00	 7.304951906025160e-01	-4.434302693312304e-01
1	 1.130020794173789e+00	 7.563628186182840e-01	-6.451174510299481e-01
1	 1.114471578349102e+00	 7.817839390363610e-01	-8.531557724753237e-01
1	 1.098265399580877e+00	 8.067393870877569e-01	-1.067115120406794e+00
1	 1.081406462662920e+00	 8.312106059317127e-01	-1.286600585379066e+00
1	 1.063900098494396e+00	 8.551797048164093e-01	-1.511256300458296e+00
1	 1.222571565088504e+00	 6.016344543676050e-01	 4.126167759614210e-01
1	 1.210864057289905e+00	 6.297322651218270e-01	 2.579339237864032e-01
1	 1.198490522828354e+00	 6.574826384113476e-01	 9.443250385240570e-02
1	 1.185448543319761e+00	 6.848640587704881e-01	-7.738764186397057e-02
1	 1.171736770489137e+00	 7.118553124559704e-01	-2.570413506562895e-01
1	 1.157354948365572e+00	 7.384355512586466e-01	-4.440630354888507e-01
1	 1.142303931381488e+00	 7.645843560686765e-01	-6.380114490449820e-01
1	 1.126585698179115e+00	 7.902817998180376e-01	-8.384742371288449e-01
1	 1.110203360955788e+00	 8.155085094198991e-01	-1.045072203747124e+00
1	 1.093161170210711e+00	 8.402457263237395e-01	-1.257463212713657e+00
1	 1.075464514789027e+00	 8.644753653082524e-01	-1.475345655069331e+00
1	 1.235717806956221e+00	 6.081037951216303e-01	 3.761409156982130e-01
1	 1.223884408998180e+00	 6.365037400222964e-01	 2.288497120435097e-01
1	 1.211377822630763e+00	 6.645525114831703e-01	 7.278521491148918e-02
1	 1.198195603465128e+00	 6.922283626840025e-01	-9.158866981613112e-02
1	 1.184336388728350e+00	 7.195098517713456e-01	-2.638254455729266e-01
1	 1.169799919697071e+00	 7.463759063564521e-01	-4.435007385699747e-01
1	 1.154587059991365e+00	 7.728058877639603e-01	-6.302168416801568e-01
1	 1.138699809529677e+00	 7.987796546512245e-01	-8.236070115632417e-01
1	 1.122141313974611e+00	 8.242776256137182e-01	-1.023339443206948e+00
1	 1.104915869530733e+00	 8.492808403912976e-01	-1.229120849312820e+00
1	 1.087028922989120e+00	 8.737710192933065e-01	-1.440699577121714e+00
1	 1.248864036554340e+00	 6.145731298375837e-01	 3.428725038821480e-01
1	 1.236904748554374e+00	 6.432752086027080e-01	 2.025076714613848e-01
1	 1.224265110405305e+00	 6.716223779564416e-01	 5.340860947265003e-02
1	 1.210942651713557e+00	 6.995926597241778e-01	-1.039953021398639e-01
1	 1.196935995208283e+00	 7.271643839425148e-01	-2.692944114459157e-01
1	 1.182244879413671e+00	 7.543162540433125e-01	-4.421033198891698e-01
1	 1.166870177137439e+00	 7.810274117858940e-01	-6.220652056020313e-01
1	 1.150813909574226e+00	 8.072775015531899e-01	-8.088558688735695e-01
1	 1.134079255851869e+00	 8.330467336231737e-01	-1.002187425978704e+00
1	 1.116670557880252e+00	 8.583159460262669e-01	-1.201811581477033e+00
1	 1.098593320396328e+00	 8.830666646026432e-01	-1.407522414874353e+00
1	 1.262010250815542e+00	 6.210424570061129e-01	 3.123525334428345e-01
1	 1.249925072920549e+00	 6.500466692832125e-01	 1.784686328006456e-01
1	 1.237152383145082e+00	 6.786922361816812e-01	 3.588485102219741e-02
1	 1.223689685090863e+00	 7.069569481728269e-01	-1.150025506687664e-01
1	 1.209535586989136e+00	 7.348189071835588e-01	-2.738189563009027e-01
1	 1.194689824611643e+00	 7.622565924666073e-01	-4.402157275317785e-01
1	 1.179153279953728e+00	 7.892489262162363e-01	-6.138743061774712e-01
1	 1.162927995486199e+00	 8.157753385412044e-01	-7.945100127314356e-01
1	 1.146017183802085e+00	 8.418158314022254e-01	-9.818754692930942e-01
1	 1.128425232516537e+00	 8.673510411205255e-01	-1.175763579782876e+00
1	 1.110157704312310e+00	 8.923622990673346e-01	-1.376010006628514e+00
1	 1.275156446672509e+00	 6.275117751178659e-01	 2.841409213528356e-01
1	 1.262945379058761e+00	 6.568181204839599e-01	 1.563115327155915e-01
1	 1.250039637843193e+00	 6.857620845094093e-01	 1.981332914563863e-02
1	 1.236436700622858e+00	 7.143212263117624e-01	-1.249891424549064e-01
1	 1.222135161131115e+00	 7.424734197085595e-01	-2.777545056925095e-01
1	 1.207134752387260e+00	 7.701969197737164e-01	-4.381686894655129e-01
1	 1.191436365574252e+00	 7.974704291367465e-01	-6.059488096741110e-01
1	 1.175042064439034e+00	 8.242731636325358e-01	-7.808467255837279e-01
1	 1.157955095039786e+00	 8.505849169048342e-01	-9.626522016468623e-01
1	 1.140179890696855e+00	 8.763861235659529e-01	-1.151195610514913e+00
1	 1.121722072038720e+00	 9.016579205184524e-01	-1.346350119706436e+00
1	 1.288302621057924e+00	 6.339810826634908e-01	 2.578155429065802e-01
1	 1.275965663931068e+00	 6.635895606250993e-01	 1.356324897619280e-01
1	 1.262926871492737e+00	 6.928319212901460e-01	 4.809780409428449e-03
1	 1.249183695335358e+00	 7.216854924227970e-01	-1.343183508738272e-01
1	 1.234734714694425e+00	 7.501279197315989e-01	-2.814419826841263e-01
1	 1.219579659836794e+00	 7.781372341120201e-01	-4.362794393311374e-01
1	 1.203719431133027e+00	 8.056919186291830e-01	-5.985809518684206e-01
1	 1.187156113606170e+00	 8.327709748444542e-01	-7.681319771762102e-01
1	 1.169892986779494e+00	 8.593539880849598e-01	-9.447561084545375e-01
1	 1.151934529678472e+00	 8.854211912544275e-01	-1.128317515793962e+00
1	 1.133286420877215e+00	 9.109535267870686e-01	-1.318722862561093e+00
1	 1.301448770904468e+00	 6.404503781336350e-01	 2.329713245124026e-01
1	 1.288985924499531e+00	 6.703609881267809e-01	 1.160439363892104e-01
1	 1.275814081086816e+00	 6.999017448744109e-01	-9.494537491373883e-03
1	 1.261930666254174e+00	 7.290497447877435e-01	-1.433387763730039e-01
1	 1.247334244739268e+00	 7.577824054667585e-01	-2.852085405687124e-01
1	 1.232024544056519e+00	 7.860775336288979e-01	-4.348523982575087e-01
1	 1.216002473764073e+00	 8.139133927753053e-01	-5.920511661425308e-01
1	 1.199270140161044e+00	 8.412687701942285e-01	-7.566209962066462e-01
1	 1.181830856235734e+00	 8.681230428965618e-01	-9.284160446391492e-01
1	 1.163689146718658e+00	 8.944562420778287e-01	-1.107330664614154e+00
1	 1.144850748129450e+00	 9.202491157042549e-01	-1.293301071916058e+00
1	 1.314594893144823e+00	 6.469196600189466e-01	 2.092193909028416e-01
1	 1.302006157726207e+00	 6.771324014091545e-01	 9.717380300029971e-02
1	 1.288701263618528e+00	 7.069715536127238e-01	-2.345362204731960e-02
1	 1.274677610405123e+00	 7.364139816884141e-01	-1.523850803874762e-01
1	 1.259933748325849e+00	 7.654368751281202e-01	-2.893682516377832e-01
1	 1.244469402142706e+00	 7.940178164717294e-01	-4.341798157783475e-01
1	 1.228285490601410e+00	 8.221348496568718e-01	-5.866286739052619e-01
1	 1.211384141277094e+00	 8.497665476991278e-01	-7.465588076877285e-01
1	 1.193768700623030e+00	 8.768920792936009e-01	-9.138517164754381e-01
1	 1.175443739074679e+00	 9.034912739280352e-01	-1.088428376825008e+00
1	 1.156415051097081e+00	 9.295446851010828e-01	-1.270250676683068e+00
1	 1.040771252414892e+00	 8.365883729880681e-01	-1.586008512065957e+00
1	 1.023018427960310e+00	 8.595283939712974e-01	-1.835736555829591e+00
1	 1.004645946972983e+00	 8.819443910647330e-01	-2.100195978446864e+00
1	 9.856622672384795e-01	 9.038211482654626e-01	-2.377762722572450e+00
1	 9.660769020995830e-01	 9.251443046312183e-01	-2.666716111418805e+00
1	 9.459003975030937e-01	 9.459003975030944e-01	-2.965250933549614e+00
1	 9.251443046312178e-01	 9.660769020995831e-01	-3.271490553615297e+00
1	 9.038211482654623e-01	 9.856622672384796e-01	-3.583500866722877e+00
1	 8.819443910647331e-01	 1.004645946972983e+00	-3.899304897407976e+00
1	 8.595283939712971e-01	 1.023018427960311e+00	-4.216897832049143e+00
1	 8.365883729880681e-01	 1.040771252414892e+00	-4.534262266393153e+00
1	 1.052335676803569e+00	 8.458840399867048e-01	-1.548218187157825e+00
1	 1.034385593637595e+00	 8.690789566902977e-01	-1.790304046164692e+00
1	 1.015808968688077e+00	 8.917440268656871e-01	-2.047143888068933e+00
1	 9.966143537184107e-01	 9.138638654388909e-01	-2.317202295977394e+00
1	 9.768113677779181e-01	 9.354239518974904e-01	-2.598847651727068e+00
1	 9.564106739936137e-01	 9.564106739936139e-01	-2.890363524650537e+00
1	 9.354239518974901e-01	 9.768113677779182e-01	-3.189961084310995e+00
1	 9.138638654388903e-01	 9.966143537184112e-01	-3.495792364913527e+00
1	 8.917440268656868e-01	 1.015808968688077e+00	-3.805964192272810e+00
1	 8.690789566902973e-01	 1.034385593637595e+00	-4.118552571761952e+00
1	 8.458840399867049e-01	 1.052335676803569e+00	-4.431617327940022e+00
1	 1.063900098494396e+00	 8.551797048164093e-01	-1.511256300458296e+00
1	 1.045752756663082e+00	 8.786295171809760e-01	-1.746223601855849e+00
1	 1.026971987799014e+00	 9.015436603802878e-01	-1.995945229801288e+00
1	 1.007566437643386e+00	 9.239065802693275e-01	-2.258971188822823e+00
1	 9.875458309520403e-01	 9.457035967655604e-01	-2.533755841904600e+00
1	 9.669209480321814e-01	 9.669209480321818e-01	-2.818668628593263e+00
1	 9.457035967655600e-01	 9.875458309520405e-01	-3.112005803368326e+00
1	 9.239065802693268e-01	 1.007566437643387e+00	-3.412003031655432e+00
1	 9.015436603802873e-01	 1.026971987799014e+00	-3.716848663974167e+00
1	 8.786295171809756e-01	 1.045752756663083e+00	-4.024697495969126e+00
1	 8.551797048164094e-01	 1.063900098494396e+00	-4.333684813844123e+00
1	 1.075464514789027e+00	 8.644753653082524e-01	-1.475345655069331e+00
1	 1.057119914384448e+00	 8.881800732149159e-01	-1.703680918060100e+00
1	 1.038135001701094e+00	 9.113432893219885e-01	-1.946749272987411e+00
1	 1.018518516457923e+00	 9.339492904134958e-01	-2.203182982500264e+00
1	 9.982802891172464e-01	 9.559832368368600e-01	-2.471519365955842e+00
1	 9.774312171664081e-01	 9.774312171664084e-01	-2.750210871763931e+00
1	 9.559832368368598e-01	 9.982802891172471e-01	-3.037636164588998e+00
1	 9.339492904134957e-01	 1.018518516457923e+00	-3.332112074126816e+00
1	 9.113432893219882e-01	 1.038135001701094e+00	-3.631906235261217e+00
1	 8.881800732149152e-01	 1.057119914384449e+00	-3.935250236420489e+00
1	 8.644753653082524e-01	 1.075464514789027e+00	-4.240353084271774e+00
1	 1.087028922989120e+00	 8.737710192933065e-01	-1.440699577121714e+00
1	 1.068487064149366e+00	 8.977306225636994e-01	-1.662853791993197e+00
1	 1.049298007789620e+00	 9.211429114042431e-01	-1.899698939003900e+00
1	 1.029470587606540e+00	 9.439919935281210e-01	-2.149946428981417e+00
1	 1.009014739768834e+00	 9.662628697128208e-01	-2.412213563341757e+00
1	 9.879414789439063e-01	 9.879414789439066e-01	-2.685032985116996e+00
1	 9.662628697128207e-01	 1.009014739768835e+00	-2.966863137764495e+00
1	 9.439919935281209e-01	 1.029470587606540e+00	-3.256099587485282e+00
1	 9.211429114042424e-01	 1.049298007789620e+00	-3.551087047878892e+00
1	 8.977306225636988e-01	 1.068487064149366e+00	-3.850131932576613e+00
1	 8.737710192933065e-01	 1.087028922989120e+00	-4.151515252408476e+00
1	 1.098593320396328e+00	 8.830666646026432e-01	-1.407522414874353e+00
1	 1.079854203305508e+00	 9.072811629989098e-01	-1.623912538932414e+00
1	 1.060461003459893e+00	 9.309425243405042e-01	-1.854931135694568e+00
1	 1.040422648533754e+00	 9.540346872699265e-01	-2.099365705335512e+00
1	 1.019749180402101e+00	 9.765424929948752e-01	-2.355910605351042e+00
1	 9.984517309122878e-01	 9.984517309122882e-01	-2.623175904280715e+00
1	 9.765424929948747e-01	 1.019749180402101e+00	-2.899697234497087e+00
1	 9.540346872699262e-01	 1.040422648533754e+00	-3.183946508477426e+00
1	 9.309425243405040e-01	 1.060461003459894e+00	-3.474343346120487e+00
1	 9.072811629989095e-01	 1.079854203305509e+00	-3.769267047328005e+00
1	 8.830666646026430e-01	 1.098593320396329e+00	-4.067068934627118e+00
1	 1.110157704312310e+00	 8.923622990673346e-01	-1.376010006628514e+00
1	 1.091221329200549e+00	 9.168316922921298e-01	-1.587020382226348e+00
1	 1.071623986107216e+00	 9.407421258442269e-01	-1.812577070907902e+00
1	 1.051374696684083e+00	 9.640773692956361e-01	-2.051540652343894e+00
1	 1.030483608512344e+00	 9.868221042844536e-01	-2.302679660451178e+00
1	 1.008961970619164e+00	 1.008961970619164e+00	-2.564678863407481e+00
1	 9.868221042844530e-01	 1.030483608512344e+00	-2.836148532407263e+00
1	 9.640773692956357e-01	 1.051374696684084e+00	-3.115634571947158e+00
1	 9.407421258442266e-01	 1.071623986107216e+00	-3.401629367656184e+00
1	 9.168316922921292e-01	 1.091221329200549e+00	-3.692583194229143e+00
1	 8.923622990673349e-01	 1.110157704312310e+00	-3.986916016266709e+00
1	 1.121722072038720e+00	 9.016579205184524e-01	-1.346350119706436e+00
1	 1.102588439182163e+00	 9.263822082149419e-01	-1.552333819186796e+00
1	 1.082786953126889e+00	 9.505417136288637e-01	-1.772762546645844e+00
1	 1.062326729502046e+00	 9.741200372619742e-01	-2.006566998358774e+00
1	 1.041218021594859e+00	 9.971017011829885e-01	-2.252587049414310e+00
1	 1.019472195612146e+00	 1.019472195612146e+00	-2.509579483220602e+00
1	 9.971017011829884e-01	 1.041218021594859e+00	-2.776226697844509e+00
1	 9.741200372619737e-01	 1.062326729502046e+00	-3.051146270033534e+00
1	 9.505417136288635e-01	 1.082786953126890e+00	-3.332901241112644e+00
1	 9.263822082149412e-01	 1.102588439182163e+00	-3.620010975415912e+00
1	 9.016579205184526e-01	 1.121722072038720e+00	-3.910962431894864e+00
1	 1.133286420877215e+00	 9.109535267870686e-01	-1.318722862561093e+00
1	 1.113955530598024e+00	 9.359327085389288e-01	-1.520002964585087e+00
1	 1.093949901914216e+00	 9.603412854078683e-01	-1.735608235208164e+00
1	 1.073278744432160e+00	 9.841626888256640e-01	-1.964536569460021e+00
1	 1.051952417144943e+00	 1.007381281291911e+00	-2.205696390948145e+00
1	 1.029982403438847e+00	 1.029982403438848e+00	-2.457913853672034e+00
1	 1.007381281291911e+00	 1.051952417144943e+00	-2.719941007207706e+00
1	 9.841626888256638e-01	 1.073278744432160e+00	-2.990464813865940e+00
1	 9.603412854078678e-01	 1.093949901914216e+00	-3.268116889921629e+00
1	 9.359327085389286e-01	 1.113955530598024e+00	-3.551483829443957e+00
1	 9.109535267870685e-01	 1.133286420877215e+00	-3.839117959020311e+00
1	 1.144850748129450e+00	 9.202491157042549e-01	-1.293301071916058e+00
1	 1.125322600795804e+00	 9.454831910356732e-01	-1.490171873335954e+00
1	 1.105112829864497e+00	 9.701408388946942e-01	-1.701229938605185e+00
1	 1.084230738918943e+00	 9.942053216434308e-01	-1.925537486878639e+00
1	 1.062686792657895e+00	 1.017660842212654e+00	-2.162068738503190e+00
1	 1.040492591646879e+00	 1.040492591646879e+00	-2.409716611591794e+00
1	 1.017660842212653e+00	 1.062686792657896e+00	-2.667300366973977e+00
1	 9.942053216434305e-01	 1.084230738918943e+00	-2.933574097580230e+00
1	 9.701408388946938e-01	 1.105112829864497e+00	-3.207235941994526e+00
1	 9.454831910356730e-01	 1.125322600795804e+00	-3.486937888346528e+00
1	 9.202491157042547e-01	 1.144850748129450e+00	-3.771296024304197e+00
1	 1.156415051097081e+00	 9.295446851010828e-01	-1.270250676683068e+00
1	 1.136689647123178e+00	 9.550336534767583e-01	-1.462978843825464e+00
1	 1.116275734373034e+00	 9.799403718027949e-01	-1.669738832410055e+00
1	 1.095182710406913e+00	 1.004247933371997e+00	-1.889654352577797e+00
1	 1.073421145629011e+00	 1.027940381546648e+00	-2.121762708873543e+00
1	 1.051002757783851e+00	 1.051002757783852e+00	-2.365021013679547e+00
1	 1.027940381546647e+00	 1.073421145629011e+00	-2.618313332526019e+00
1	 1.004247933371997e+00	 1.095182710406913e+00	-2.880458664493418e+00
1	 9.799403718027947e-01	 1.116275734373035e+00	-3.150219644814830e+00
1	 9.550336534767578e-01	 1.136689647123179e+00	-3.426311843266644e+00
1	 9.295446851010828e-01	 1.156415051097081e+00	-3.707413521395772e+00
1	 8.365883729880681e-01	 1.040771252414892e+00	-4.534262266393153e+00
1	 8.131403546067379e-01	 1.057897033854957e+00	-4.854709069589189e+00
1	 7.892011321926615e-01	 1.074389462904693e+00	-5.181427176377453e+00
1	 7.647882075584603e-01	 1.090243324556970e+00	-5.512166265311485e+00
1	 7.399197341251362e-01	 1.105454505428851e+00	-5.844624078253201e+00
1	 7.146144600257591e-01	 1.120019993718943e+00	-6.176464521888146e+00
1	 6.888916695037869e-01	 1.133937874613762e+00	-6.505335706230881e+00
1	 6.627711229717848e-01	 1.147207321243900e+00	-6.828887670956872e+00
1	 6.362729960993706e-01	 1.159828581322929e+00	-7.144789565640375e+00
1	 6.094178182985774e-01	 1.171802959632020e+00	-7.450746069677741e+00
1	 5.822264109706172e-01	 1.183132796540936e+00	-7.744512861049581e+00
1	 8.458840399867049e-01	 1.052335676803569e+00	-4.431617327940022e+00
1	 8.221754813233382e-01	 1.069651749630091e+00	-4.748388516006904e+00
1	 7.979702606633309e-01	 1.086327432635354e+00	-5.071942706996825e+00
1	 7.732860742889248e-01	 1.102357452866200e+00	-5.400051708913089e+00
1	 7.481412773310232e-01	 1.117737651234249e+00	-5.730429095653904e+00
1	 7.225548262406796e-01	 1.132464982472780e+00	-6.060748394948111e+00
1	 6.965462195362724e-01	 1.146537510492047e+00	-6.388661281097973e+00
1	 6.701354371961920e-01	 1.159954399234961e+00	-6.711815518288525e+00
1	 6.433428790699675e-01	 1.172715899167537e+00	-7.027872414548757e+00
1	 6.161893026801172e-01	 1.184823329568884e+00	-7.334523565413884e+00
1	 5.886957607827459e-01	 1.196279056813543e+00	-7.629506689170005e+00
1	 8.551797048164094e-01	 1.063900098494396e+00	-4.333684813844123e+00
1	 8.312106059317125e-01	 1.081406462662920e+00	-4.646953971049629e+00
1	 8.067393870877567e-01	 1.098265399580878e+00	-4.967465429418711e+00
1	 7.817839390363607e-01	 1.114471578349103e+00	-5.293015241737831e+00
1	 7.563628186182836e-01	 1.130020794173789e+00	-5.621335524674897e+00
1	 7.304951906025154e-01	 1.144909968322899e+00	-5.950112695514300e+00
1	 7.042007677823060e-01	 1.159137143430437e+00	-6.277005776214815e+00
1	 6.774997497018219e-01	 1.172701474251644e+00	-6.599664506298105e+00
1	 6.504127603904530e-01	 1.185603214004979e+00	-6.915747019528067e+00
1	 6.229607854811502e-01	 1.197843696467493e+00	-7.222936857597788e+00
1	 5.951651090848594e-01	 1.209425314018505e+00	-7.518959116333049e+00
1	 8.644753653082524e-01	 1.075464514789027e+00	-4.240353084271774e+00
1	 8.402457263237391e-01	 1.093161170210712e+00	-4.550266430335264e+00
1	 8.155085094198986e-01	 1.110203360955788e+00	-4.867831698546594e+00
1	 7.902817998180374e-01	 1.126585698179116e+00	-5.190871205936314e+00
1	 7.645843560686761e-01	 1.142303931381488e+00	-5.517138212129672e+00
1	 7.384355512586462e-01	 1.157354948365572e+00	-5.844335168303084e+00
1	 7.118553124559701e-01	 1.171736770489137e+00	-6.170132090788712e+00
1	 6.848640587704878e-01	 1.185448543319762e+00	-6.492184797385986e+00
1	 6.574826384113471e-01	 1.198490522828354e+00	-6.808152757067466e+00
1	 6.297322651218268e-01	 1.210864057289906e+00	-7.115716321337396e+00
1	 6.016344543676049e-01	 1.222571565088503e+00	-7.412593127260338e+00
1	 8.737710192933065e-01	 1.087028922989120e+00	-4.151515252408476e+00
1	 8.492808403912974e-01	 1.104915869530733e+00	-4.458192806630580e+00
1	 8.242776256137179e-01	 1.122141313974611e+00	-4.772884834626057e+00
1	 7.987796546512239e-01	 1.138699809529677e+00	-5.093441845340664e+00
1	 7.728058877639600e-01	 1.154587059991365e+00	-5.417640735706217e+00
1	 7.463759063564516e-01	 1.169799919697072e+00	-5.743203016239956e+00
1	 7.195098517713455e-01	 1.184336388728351e+00	-6.067813213531173e+00
1	 6.922283626840020e-01	 1.198195603465128e+00	-6.389137185010489e+00
1	 6.645525114831701e-01	 1.211377822630763e+00	-6.704840093246363e+00
1	 6.365037400222959e-01	 1.223884408998181e+00	-7.012603803926451e+00
1	 6.081037951216300e-01	 1.235717806956221e+00	-7.310143492907985e+00
1	 8.830666646026430e-01	 1.098593320396329e+00	-4.067068934627118e+00
1	 8.583159460262664e-01	 1.116670557880253e+00	-4.370605618738637e+00
1	 8.330467336231733e-01	 1.134079255851869e+00	-4.682474756950846e+00
1	 8.072775015531897e-01	 1.150813909574226e+00	-5.000556889873823e+00
1	 7.810274117858935e-01	 1.166870177137439e+00	-5.322654944716702e+00
1	 7.543162540433123e-01	 1.182244879413672e+00	-5.646512402908460e+00
1	 7.271643839425146e-01	 1.196935995208283e+00	-5.969831691859671e+00
1	 6.995926597241775e-01	 1.210942651713558e+00	-6.290292534363769e+00
1	 6.716223779564410e-01	 1.224265110405306e+00	-6.605570000253079e+00
1	 6.432752086027077e-01	 1.236904748554375e+00	-6.913352021201679e+00
1	 6.145731298375836e-01	 1.248864036554340e+00	-7.211356150269707e+00
1	 8.923622990673349e-01	 1.110157704312310e+00	-3.986916016266709e+00
1	 8.673510411205249e-01	 1.128425232516537e+00	-4.287382699825272e+00
1	 8.418158314022248e-01	 1.146017183802086e+00	-4.596457640455692e+00
1	 8.157753385412038e-01	 1.162927995486199e+00	-4.912053165925908e+00
1	 7.892489262162360e-01	 1.179153279953729e+00	-5.232000529542361e+00
1	 7.622565924666068e-01	 1.194689824611644e+00	-5.554067986087823e+00
1	 7.348189071835585e-01	 1.209535586989136e+00	-5.875979134264919e+00
1	 7.069569481728264e-01	 1.223689685090863e+00	-6.195431257996100e+00
1	 6.786922361816808e-01	 1.237152383145082e+00	-6.510113409361205e+00
1	 6.500466692832122e-01	 1.249925072920549e+00	-6.817723991617535e+00
1	 6.210424570061129e-01	 1.262010250815542e+00	-7.115987620931548e+00
1	 9.016579205184526e-01	 1.121722072038720e+00	-3.910962431894864e+00
1	 8.763861235659521e-01	 1.140179890696855e+00	-4.208406923782616e+00
1	 8.505849169048336e-01	 1.157955095039786e+00	-4.514695593545405e+00
1	 8.242731636325352e-01	 1.175042064439034e+00	-4.827774230824798e+00
1	 7.974704291367462e-01	 1.191436365574252e+00	-5.145504617703562e+00
1	 7.701969197737161e-01	 1.207134752387260e+00	-5.465682480136224e+00
1	 7.424734197085591e-01	 1.222135161131116e+00	-5.786055743451746e+00
1	 7.143212263117621e-01	 1.236436700622859e+00	-6.104342823867062e+00
1	 6.857620845094089e-01	 1.250039637843193e+00	-6.418250697733367e+00
1	 6.568181204839595e-01	 1.262945379058760e+00	-6.725492505317210e+00
1	 6.275117751178659e-01	 1.275156446672509e+00	-7.023804465582743e+00
1	 9.109535267870685e-01	 1.133286420877215e+00	-3.839117959020311e+00
1	 8.854211912544271e-01	 1.151934529678473e+00	-4.133565948341299e+00
1	 8.593539880849593e-01	 1.169892986779494e+00	-4.437056355643433e+00
1	 8.327709748444536e-01	 1.187156113606170e+00	-4.747570029679867e+00
1	 8.056919186291830e-01	 1.203719431133028e+00	-5.063001394653750e+00
1	 7.781372341120194e-01	 1.219579659836794e+00	-5.381176245159573e+00
1	 7.501279197315985e-01	 1.234734714694425e+00	-5.699869878055299e+00
1	 7.216854924227964e-01	 1.249183695335357e+00	-6.016825293507807e+00
1	 6.928319212901455e-01	 1.262926871492738e+00	-6.329771206637138e+00
1	 6.635895606250989e-01	 1.275965663931068e+00	-6.636439625700763e+00
1	 6.339810826634908e-01	 1.288302621057924e+00	-6.934582771914982e+00
1	 9.202491157042547e-01	 1.144850748129450e+00	-3.771296024304197e+00
1	 8.944562420778284e-01	 1.163689146718658e+00	-4.062751973747565e+00
1	 8.681230428965616e-01	 1.181830856235735e+00	-4.363413013065843e+00
1	 8.412687701942280e-01	 1.199270140161045e+00	-4.671296573017965e+00
1	 8.139133927753052e-01	 1.216002473764074e+00	-4.984331747549506e+00
1	 7.860775336288973e-01	 1.232024544056519e+00	-5.300376901072942e+00
1	 7.577824054667582e-01	 1.247334244739269e+00	-5.617237640912949e+00
1	 7.290497447877430e-01	 1.261930666254174e+00	-5.932684888166606e+00
1	 6.999017448744103e-01	 1.275814081086816e+00	-6.244472788851676e+00
1	 6.703609881267807e-01	 1.288985924499531e+00	-6.550356221193486e+00
1	 6.404503781336349e-01	 1.301448770904468e+00	-6.848107673549970e+00
1	 9.295446851010828e-01	 1.156415051097081e+00	-3.707413521395772e+00
1	 9.034912739280351e-01	 1.175443739074679e+00	-3.995861515916047e+00
1	 8.768920792936006e-01	 1.193768700623031e+00	-4.293643731938688e+00
1	 8.497665476991274e-01	 1.211384141277095e+00	-4.598815633755850e+00
1	 8.221348496568712e-01	 1.228285490601410e+00	-4.909342930388884e+00
1	 7.940178164717289e-01	 1.244469402142706e+00	-5.223118964812070e+00
1	 7.654368751281195e-01	 1.259933748325849e+00	-5.537982492033643e+00
1	 7.364139816884138e-01	 1.274677610405123e+00	-5.851735580978370e+00
1	 7.069715536127235e-01	 1.288701263618529e+00	-6.162161383223555e+00
1	 6.771324014091542e-01	 1.302006157726207e+00	-6.467041525100615e+00
1	 6.469196600189466e-01	 1.314594893144823e+00	-6.764172897823712e+00
1	 5.822264109706172e-01	 1.183132796540936e+00	-7.744512861049581e+00
1	 5.547217605929659e-01	 1.193820718170789e+00	-8.025597433569899e+00
1	 5.269231856692952e-01	 1.203871877666055e+00	-8.294473505138088e+00
1	 4.988520042113924e-01	 1.213291563054103e+00	-8.550409227563984e+00
1	 4.705295839165803e-01	 1.222085976622864e+00	-8.792773416448357e+00
1	 4.419772843415477e-01	 1.230262197256569e+00	-9.021033309751932e+00
1	 4.132164007555683e-01	 1.237828140375747e+00	-9.234751544881188e+00
1	 3.842681099253542e-01	 1.244792515783489e+00	-9.433582453378616e+00
1	 3.551534180596826e-01	 1.251164783723347e+00	-9.617267774758130e+00
1	 3.258931111168158e-01	 1.256955109454539e+00	-9.785631891207734e+00
1	 2.965077076518963e-01	 1.262174316647596e+00	-9.938576683027007e+00
1	 5.886957607827459e-01	 1.196279056813543e+00	-7.629506689170003e+00
1	 5.608854952672502e-01	 1.207085736202502e+00	-7.912433025911717e+00
1	 5.327780392929063e-01	 1.217248578138877e+00	-8.183831064303257e+00
1	 5.043949477444409e-01	 1.226772929407417e+00	-8.442868968065344e+00
1	 4.757578257441908e-01	 1.235665061212146e+00	-8.688810040854076e+00
1	 4.468882701834050e-01	 1.243932131093599e+00	-8.921011634659772e+00
1	 4.178078129515951e-01	 1.251582142423700e+00	-9.138923254294880e+00
1	 3.885378661189793e-01	 1.258623901783632e+00	-9.342083943367747e+00
1	 3.590996693027055e-01	 1.265066974533483e+00	-9.530119041281980e+00
1	 3.295142394221147e-01	 1.270921638882720e+00	-9.702736402764620e+00
1	 2.998023230222043e-01	 1.276198838767993e+00	-9.859722171392441e+00
1	 5.951651090848594e-01	 1.209425314018505e+00	-7.518959116333052e+00
1	 5.670492285028373e-01	 1.220350751138875e+00	-7.803522546183301e+00
1	 5.386328915499144e-01	 1.230625275490343e+00	-8.077204044176323e+00
1	 5.099378899836980e-01	 1.240254292615020e+00	-8.339077378293455e+00
1	 4.809860663514815e-01	 1.249244142632999e+00	-8.588306167054078e+00
1	 4.517992548790164e-01	 1.257602061741100e+00	-8.824143882727547e+00
1	 4.223992240759929e-01	 1.265336141262610e+00	-9.045933029493879e+00
1	 3.928076213160800e-01	 1.272455284556779e+00	-9.253103568878183e+00
1	 3.630459196247389e-01	 1.278969162100207e+00	-9.445170670539795e+00
1	 3.331353668823325e-01	 1.284888165052573e+00	-9.621731870156703e+00
1	 3.030969376236582e-01	 1.290223357616614e+00	-9.782463717849842e+00
1	 6.016344543676049e-01	 1.222571565088503e+00	-7.412593127260338e+00
1	 5.732129588616812e-01	 1.233615759884870e+00	-7.698583449302691e+00
1	 5.444877410743385e-01	 1.244001966599343e+00	-7.974306483084068e+00
1	 5.154808296359519e-01	 1.253735649531359e+00	-8.238747015257696e+00
1	 4.862143045186587e-01	 1.262823217717048e+00	-8.490974621530986e+00
1	 4.567102372826002e-01	 1.271271986009470e+00	-8.730144711179308e+00
1	 4.269906330575337e-01	 1.279090133683234e+00	-8.955498726612481e+00
1	 3.970773745204668e-01	 1.286286660875608e+00	-9.166363557855179e+00
1	 3.669921681050630e-01	 1.292871343179647e+00	-9.362150239087647e+00
1	 3.367564926525978e-01	 1.298854684705190e+00	-9.542351999674082e+00
1	 3.063915506875612e-01	 1.304247869921001e+00	-9.706541745459923e+00
1	 6.081037951216300e-01	 1.235717806956221e+00	-7.310143492907983e+00
1	 5.793766849057363e-01	 1.246880759345453e+00	-7.597345211308943e+00
1	 5.503425865001976e-01	 1.257378648344766e+00	-7.874864585450533e+00
1	 5.210237654079908e-01	 1.267216997010882e+00	-8.141602664703154e+00
1	 4.914425390259290e-01	 1.276402283295917e+00	-8.396540447656033e+00
1	 4.616212162483762e-01	 1.284941900709110e+00	-8.638740915860264e+00
1	 4.315820388249896e-01	 1.292844116476330e+00	-8.867350203937198e+00
1	 4.013471247359497e-01	 1.300118027512793e+00	-9.081597954035576e+00
1	 3.709384138229581e-01	 1.306773514527931e+00	-9.280796911367286e+00
1	 3.403776158880399e-01	 1.312821194581663e+00	-9.464341824369251e+00
1	 3.096861614452166e-01	 1.318272372408692e+00	-9.631707717965185e+00
1	 6.145731298375836e-01	 1.248864036554340e+00	-7.211356150269707e+00
1	 5.855404051969570e-01	 1.260145746425586e+00	-7.499548696776940e+00
1	 5.561974264615117e-01	 1.270755317605502e+00	-7.778616081555087e+00
1	 5.265666960066031e-01	 1.280698331908039e+00	-8.047380697546135e+00
1	 4.966707686534990e-01	 1.289981336201229e+00	-8.304740262721332e+00
1	 4.665321906305637e-01	 1.298611802650422e+00	-8.549670792362523e+00
1	 4.361734403071331e-01	 1.306598086432659e+00	-8.781228690189113e+00
1	 4.056168709663396e-01	 1.313949381241011e+00	-8.998551995013976e+00
1	 3.748846558577049e-01	 1.320675672901190e+00	-9.200860829743734e+00
1	 3.439987357437878e-01	 1.326787691423086e+00	-9.387457107815358e+00
1	 3.129807691279275e-01	 1.332296861807227e+00	-9.557723558584106e+00
1	 6.210424570061129e-01	 1.262010250815542e+00	-7.115987620931549e+00
1	 5.917041182972975e-01	 1.273410718030232e+00	-7.404945565757940e+00
1	 5.620522595922993e-01	 1.284131971260440e+00	-7.685309627294998e+00
1	 5.321096201385771e-01	 1.294179651077275e+00	-7.955828466520551e+00
1	 5.018989921815754e-01	 1.303560373264609e+00	-8.215321655146486e+00
1	 4.714431592833819e-01	 1.312281688643805e+00	-8.462683537069175e+00
1	 4.407648364327355e-01	 1.320352040342977e+00	-8.696886192277935e+00
1	 4.098866122154466e-01	 1.327780718832936e+00	-8.916981529169265e+00
1	 3.788308932885837e-01	 1.334577815055549e+00	-9.122102542654890e+00
1	 3.476198513749703e-01	 1.340754171970550e+00	-9.311463785119784e+00
1	 3.162753729669972e-01	 1.346321334844147e+00	-9.484361105121538e+00
1	 6.275117751178659e-01	 1.275156446672509e+00	-7.023804465582741e+00
1	 5.978678227687122e-01	 1.286675671064355e+00	-7.313297717394495e+00
1	 5.679070845265799e-01	 1.297508606188468e+00	-7.594704241066085e+00
1	 5.376525365107008e-01	 1.307660951373040e+00	-7.866703740136028e+00
1	 5.071272083903645e-01	 1.317139391317681e+00	-8.128042618961759e+00
1	 4.763541210610505e-01	 1.325951555499662e+00	-8.377538685237214e+00
1	 4.453562261305695e-01	 1.334105974998043e+00	-8.614084939680215e+00
1	 4.141563474870814e-01	 1.341612037061243e+00	-8.836652468647594e+00
1	 3.827771251948752e-01	 1.348479937747140e+00	-9.044292468124178e+00
1	 3.512409619367163e-01	 1.354720632965146e+00	-9.236137438504622e+00
1	 3.195699721937289e-01	 1.360345788246990e+00	-9.411401598773820e+00
1	 6.339810826634908e-01	 1.288302621057924e+00	-6.934582771914982e+00
1	 6.040315171731551e-01	 1.299940602432917e+00	-7.224376767590603e+00
1	 5.737618998983728e-01	 1.310885219268478e+00	-7.506568775110794e+00
1	 5.431954438297628e-01	 1.321142229649781e+00	-7.779774171281939e+00
1	 5.123554160600733e-01	 1.330718387192070e+00	-8.042671022905113e+00
1	 4.812650748177888e-01	 1.339621400028392e+00	-8.294005583475107e+00
1	 4.499476083294071e-01	 1.347859887188614e+00	-8.532596862825550e+00
1	 4.184260757850540e-01	 1.355443332698608e+00	-8.757340275827712e+00
1	 3.867233506558597e-01	 1.362382037732089e+00	-8.967210390110285e+00
1	 3.548620665841549e-01	 1.368687071147968e+00	-9.161262804986206e+00
1	 3.228645660394259e-01	 1.374370218743297e+00	-9.338635204223790e+00
1	 6.404503781336349e-01	 1.301448770904468e+00	-6.848107673549970e+00
1	 6.101952000725803e-01	 1.313205509040881e+00	-7.137963558330096e+00
1	 5.796167043416972e-01	 1.324261807379358e+00	-7.420681418897452e+00
1	 5.487383408025510e-01	 1.334623482761947e+00	-7.694816798028872e+00
1	 5.175836139709077e-01	 1.344297357719399e+00	-7.958984111686989e+00
1	 4.861760194078159e-01	 1.353291219040396e+00	-8.211862894181905e+00
1	 4.545389819580204e-01	 1.361613773705451e+00	-8.452203103088470e+00
1	 4.226957961131751e-01	 1.369274602517706e+00	-8.678829480901019e+00
1	 3.906695687508178e-01	 1.376284111766524e+00	-8.890644985373516e+00
1	 3.584831644724150e-01	 1.382653483260108e+00	-9.086633313884116e+00
1	 3.261591537353913e-01	 1.388394623060607e+00	-9.265860558812955e+00
1	 6.469196600189466e-01	 1.314594893144823e+00	-6.764172897823710e+00
1	 6.163588700289421e-01	 1.326470387793212e+00	-7.053847696427889e+00
1	 5.854714964905722e-01	 1.337638367399996e+00	-7.336829232288973e+00
1	 5.542812261358540e-01	 1.348104707563986e+00	-7.611617574374288e+00
1	 5.228118009030747e-01	 1.357876299731294e+00	-7.876768037171375e+00
1	 4.910869536853514e-01	 1.366961009346076e+00	-8.130898129713165e+00
1	 4.591303459451811e-01	 1.375367631339310e+00	-8.372693552171928e+00
1	 4.269655074752550e-01	 1.383105843291213e+00	-8.600913228389439e+00
1	 3.946157785590299e-01	 1.390186156606576e+00	-8.814393378722308e+00
1	 3.621042547566256e-01	 1.396619866042657e+00	-9.012050652072711e+00
1	 3.294537345129284e-01	 1.402418997926461e+00	-9.192884348756413e+00
1	 2.965077076518963e-01	 1.262174316647596e+00	-9.938576683027009e+00
1	 2.670153521752661e-01	 1.266834146772720e+00	-1.007517391069096e+01
1	 2.374379815785563e-01	 1.270946214663118e+00	-1.019496701023795e+01
1	 2.077950911590201e-01	 1.274523035088650e+00	-1.029871425270805e+01
1	 1.781057461811192e-01	 1.277577589043705e+00	-1.038724829508739e+01
1	 1.483885491539033e-01	 1.280123275467486e+00	-1.046146370776667e+01
1	 1.186616101822315e-01	 1.282173863421045e+00	-1.052230502941382e+01
1	 8.894252039400018e-02	 1.283743444944866e+00	-1.057075543927994e+01
1	 5.924832842448790e-02	 1.284846388803535e+00	-1.060782611812159e+01
1	 2.959551991936728e-02	 1.285497295306093e+00	-1.063454635110911e+01
1	 0.000000000000000e+00	 1.285710952372222e+00	-1.065195440954643e+01
1	 2.998023230222043e-01	 1.276198838767993e+00	-9.859722171392441e+00
1	 2.699822662242061e-01	 1.280910446123660e+00	-1.000018542056715e+01
1	 2.400762496692715e-01	 1.285068204839977e+00	-1.012372691319993e+01
1	 2.101039852746391e-01	 1.288684768743407e+00	-1.023102217210553e+01
1	 1.800847501464906e-01	 1.291773263065350e+00	-1.032282288523224e+01
1	 1.500373534937380e-01	 1.294347235625973e+00	-1.039994487457109e+01
1	 1.199801066498031e-01	 1.296420608479858e+00	-1.046325653654709e+01
1	 8.993079620458681e-02	 1.298007630249775e+00	-1.051366784447329e+01
1	 5.990666022752165e-02	 1.299122829357391e+00	-1.055211998554545e+01
1	 2.992436754283312e-02	 1.299780968341605e+00	-1.057957568766560e+01
1	 0.000000000000000e+00	 1.299996999436575e+00	-1.059701027535498e+01
1	 3.030969376236582e-01	 1.290223357616614e+00	-9.782463717849842e+00
1	 2.729491795807888e-01	 1.294986742190813e+00	-9.926515575217442e+00
1	 2.427145171443394e-01	 1.299190191722442e+00	-1.005354671360408e+01
1	 2.124128788514845e-01	 1.302846499094541e+00	-1.016415311099725e+01
1	 1.820637536500774e-01	 1.305968933775486e+00	-1.025900852654663e+01
1	 1.516861574488442e-01	 1.308571192466371e+00	-1.033885290270264e+01
1	 1.212986028097239e-01	 1.310667350215280e+00	-1.040448118505415e+01
1	 9.091907178457713e-02	 1.312271812227235e+00	-1.045673265088300e+01
1	 6.056499187694677e-02	 1.313399266580941e+00	-1.049648082006875e+01
1	 3.025321508956925e-02	 1.314064638045126e+00	-1.052462400540043e+01
1	 0.000000000000000e+00	 1.314283043168385e+00	-1.054207654383216e+01
1	 3.063915506875612e-01	 1.304247869921001e+00	-9.706541745459925e+00
1	 2.759160915527708e-01	 1.309063031689621e+00	-9.853911718619280e+00
1	 2.453527833881924e-01	 1.313312172015283e+00	-9.984180563358755e+00
1	 2.147217713508357e-01	 1.317008222837535e+00	-1.009786782622995e+01
1	 1.840427562301275e-01	 1.320164597861665e+00	-1.019557229093988e+01
1	 1.533349606345122e-01	 1.322795142669631e+00	-1.027796080579069e+01
1	 1.226170983543528e-01	 1.324914085302944e+00	-1.034575747713109e+01
1	 9.190734690337890e-02	 1.326535987548803e+00	-1.039973332015417e+01
1	 6.122332321915580e-02	 1.327675697142885e+00	-1.044069644169218e+01
1	 3.058206248284614e-02	 1.328348301083665e+00	-1.046948281368665e+01
1	 0.000000000000000e+00	 1.328569080234105e+00	-1.048694768099228e+01
1	 3.096861614452166e-01	 1.318272372408692e+00	-9.631707717965185e+00
1	 2.788830014479088e-01	 1.323139311335524e+00	-9.782131940689901e+00
1	 2.479910477852629e-01	 1.327434142423264e+00	-9.915393070405246e+00
1	 2.170306622339722e-01	 1.331169936667870e+00	-1.003193724944190e+01
1	 1.860217574248893e-01	 1.334360252011446e+00	-1.013229115623437e+01
1	 1.549837626660326e-01	 1.337019082916703e+00	-1.021705125041290e+01
1	 1.239355929760488e-01	 1.339160810418477e+00	-1.028687333426757e+01
1	 9.289562133039975e-02	 1.340800152886037e+00	-1.034246252211283e+01
1	 6.188165410054127e-02	 1.341952117711918e+00	-1.038456369308894e+01
1	 3.091090964593424e-02	 1.342631954124233e+00	-1.041395248755382e+01
1	 0.000000000000000e+00	 1.342855107300192e+00	-1.043142689269466e+01
1	 3.129807691279275e-01	 1.332296861807227e+00	-9.557723558584108e+00
1	 2.818499085739596e-01	 1.337215577843965e+00	-9.710944511574162e+00
1	 2.506293097199830e-01	 1.341556099651152e+00	-9.846958748246685e+00
1	 2.193395509621732e-01	 1.345331637281030e+00	-9.966141951379013e+00
1	 1.880007567726109e-01	 1.348555892912382e+00	-1.006895148461929e+01
1	 1.566325631586960e-01	 1.351243009888536e+00	-1.015591604785204e+01
1	 1.252540863671707e-01	 1.353407522237509e+00	-1.022762560129202e+01
1	 9.388389483504743e-02	 1.355064304910496e+00	-1.028472164991517e+01
1	 6.253998436749579e-02	 1.356228524956741e+00	-1.032788796451281e+01
1	 3.123975650210397e-02	 1.356915593833839e+00	-1.035784180085796e+01
1	 0.000000000000000e+00	 1.357141121033102e+00	-1.037532566443542e+01
1	 3.162753729669972e-01	 1.346321334844147e+00	-9.484361105121536e+00
1	 2.848168122386797e-01	 1.351291827930385e+00	-9.640127351280093e+00
1	 2.532675685767853e-01	 1.355678040403714e+00	-9.778661499872481e+00
1	 2.216484369967182e-01	 1.359493321372498e+00	-9.900271639681501e+00
1	 1.899797538115407e-01	 1.362751517252028e+00	-1.000534853369249e+01
1	 1.582813617277927e-01	 1.365466920266081e+00	-1.009435567760846e+01
1	 1.265725782200774e-01	 1.367654217435671e+00	-1.016781958140495e+01
1	 9.487216718672974e-02	 1.369328440293738e+00	-1.022632036549160e+01
1	 6.319831386641184e-02	 1.370504915546047e+00	-1.027048274839152e+01
1	 3.156860297462580e-02	 1.371199216879492e+00	-1.030096748862045e+01
1	 0.000000000000000e+00	 1.371427118099289e+00	-1.031846332989447e+01
1	 3.195699721937289e-01	 1.360345788246990e+00	-9.411401598773820e+00
1	 2.877837117498259e-01	 1.365368058310224e+00	-9.569467532112089e+00
1	 2.559058237401016e-01	 1.369799961385716e+00	-9.710294133595955e+00
1	 2.239573197988864e-01	 1.373654985637755e+00	-9.834124687727636e+00
1	 1.919587480799268e-01	 1.376947121717941e+00	-9.941285997738472e+00
1	 1.599301579886132e-01	 1.379690810730285e+00	-1.003217884037907e+01
1	 1.278910682271278e-01	 1.381900892688592e+00	-1.010726859996588e+01
1	 9.586043815485427e-02	 1.383592555707320e+00	-1.016707617310015e+01
1	 6.385664244368201e-02	 1.384781286148536e+00	-1.021216922146374e+01
1	 3.189744898677018e-02	 1.385482819928203e+00	-1.024315383643139e+01
1	 0.000000000000000e+00	 1.385713095165209e+00	-1.026066666616322e+01
1	 3.228645660394259e-01	 1.374370218743297e+00	-9.338635204223790e+00
1	 2.907506064151547e-01	 1.379444265698925e+00	-9.498760811558286e+00
1	 2.585440745943647e-01	 1.383921859301924e+00	-9.641657908526861e+00
1	 2.262661988299575e-01	 1.387816626772285e+00	-9.767507692315284e+00
1	 1.939377391160176e-01	 1.391142702997676e+00	-9.876575577084798e+00
1	 1.615789515564478e-01	 1.393914677962101e+00	-9.969202038396963e+00
1	 1.292095560806810e-01	 1.396147544671901e+00	-1.004579359497971e+01
1	 9.684870750882889e-02	 1.397856647822801e+00	-1.010681401898184e+01
1	 6.451496994569883e-02	 1.399057633432906e+00	-1.015277585249215e+01
1	 3.222629446180756e-02	 1.399766399646979e+00	-1.018423229498479e+01
1	 0.000000000000000e+00	 1.399999048897318e+00	-1.020176951374739e+01
1	 3.261591537353913e-01	 1.388394623060607e+00	-9.265860558812955e+00
1	 2.937174955424229e-01	 1.393520446811928e+00	-9.427811193481372e+00
1	 2.611823205240066e-01	 1.398043730857107e+00	-9.572562107583741e+00
1	 2.285750735512107e-01	 1.401978241471570e+00	-9.700235058144438e+00
1	 1.959167264580612e-01	 1.405338257778787e+00	-9.811036573550220e+00
1	 1.632277420465874e-01	 1.408138518642477e+00	-9.905249181198830e+00
1	 1.305280414730955e-01	 1.410394170061229e+00	-9.983222732395911e+00
1	 9.783697501806117e-02	 1.412120713311740e+00	-1.004536591527289e+01
1	 6.517329621885488e-02	 1.413333954067853e+00	-1.009213803374598e+01
1	 3.255513932300839e-02	 1.414049952702832e+00	-1.012404111796934e+01
1	 0.000000000000000e+00	 1.414284975962072e+00	-1.014161241959428e+01
1	 3.294537345129284e-01	 1.402418997926461e+00	-9.192884348756413e+00
1	 2.966843784393872e-01	 1.407596598364675e+00	-9.356430515630439e+00
1	 2.638205609134598e-01	 1.412165572756028e+00	-9.502823636119004e+00
1	 2.308839434239252e-01	 1.416139826431092e+00	-9.632128607223441e+00
1	 1.978957096443058e-01	 1.419533782748832e+00	-9.744495510160457e+00
1	 1.648765290743220e-01	 1.422362329452364e+00	-9.840151215039530e+00
1	 1.318465240967305e-01	 1.424640765532204e+00	-9.919391044483318e+00
1	 9.882524045195897e-02	 1.426384748845694e+00	-9.982570586476605e+00
1	 6.583162110954265e-02	 1.427610244722075e+00	-1.003009773458831e+01
1	 3.288398349364309e-02	 1.428333475762771e+00	-1.006242502167976e+01
1	 0.000000000000000e+00	 1.428570873025926e+00	-1.008004230153238e+01
1	 1.428570873025926e+00	 0.000000000000000e+00	 1.433775564448448e+00
1	 1.428333475762771e+00	 3.288398349364353e-02	 1.424567698751369e+00
1	 1.427610244722076e+00	 6.583162110954309e-02	 1.411461739825391e+00
1	 1.426384748845693e+00	 9.882524045195930e-02	 1.393819059029062e+00
1	 1.424640765532204e+00	 1.318465240967308e-01	 1.371007086994284e+00
1	 1.422362329452363e+00	 1.648765290743223e-01	 1.342404622319794e+00
1	 1.419533782748831e+00	 1.978957096443060e-01	 1.307407566967406e+00
1	 1.416139826431091e+00	 2.308839434239253e-01	 1.265435063728211e+00
1	 1.412165572756028e+00	 2.638205609134598e-01	 1.215936001668349e+00
1	 1.407596598364675e+00	 2.966843784393872e-01	 1.158395845362989e+00
1	 1.402418997926461e+00	 3.294537345129283e-01	 1.092343733131321e+00
1	 1.442856738422074e+00	 0.000000000000000e+00	 1.352745366609903e+00
1	 1.442616967160266e+00	 3.321282693534739e-02	 1.343961363443891e+00
1	 1.441886503729889e+00	 6.648994454095894e-02	 1.331519490779209e+00
1	 1.440648752760408e+00	 9.981350369522651e-02	 1.314809978602283e+00
1	 1.438887329422610e+00	 1.331650037977660e-01	 1.293228184785252e+00
1	 1.436586108732203e+00	 1.665253124472980e-01	 1.266179634370523e+00
1	 1.433729276251555e+00	 1.998746884438770e-01	 1.233085470950063e+00
1	 1.430301379998563e+00	 2.331928081787428e-01	 1.193388297383665e+00
1	 1.426287383351045e+00	 2.664587954549431e-01	 1.146558374070928e+00
1	 1.421672718714860e+00	 2.996512547599297e-01	 1.092100133332510e+00
1	 1.416443341704605e+00	 3.327483079876941e-01	 1.029558958307493e+00
1	 1.457142577150667e+00	 0.000000000000000e+00	 1.277158432184169e+00
1	 1.456900431894637e+00	 3.354166976321469e-02	 1.268786290577818e+00
1	 1.456162736088080e+00	 6.714826674351429e-02	 1.256984286513593e+00
1	 1.454912730048382e+00	 1.008017650937523e-01	 1.241170263869116e+00
1	 1.453133866718838e+00	 1.344834810376646e-01	 1.220766340609340e+00
1	 1.450809861460411e+00	 1.681740927425823e-01	 1.195203695673034e+00
1	 1.447924743255468e+00	 2.018536635494074e-01	 1.163927754053724e+00
1	 1.444462907130610e+00	 2.355016686237530e-01	 1.126403749053361e+00
1	 1.440409167584866e+00	 2.690970250718210e-01	 1.082122632058845e+00
1	 1.435748812789194e+00	 3.026181255424343e-01	 1.030607290947143e+00
1	 1.430467659303615e+00	 3.360428753127599e-01	 9.714190284966113e-01
1	 1.471428395878593e+00	 0.000000000000000e+00	 1.206713241214937e+00
1	 1.471183876631666e+00	 3.387051213070462e-02	 1.198736072555496e+00
1	 1.470438948459055e+00	 6.780658802442420e-02	 1.187545756533198e+00
1	 1.469176687366300e+00	 1.017900251087220e-01	 1.172586546589062e+00
1	 1.467380384069432e+00	 1.358019564317108e-01	 1.153306192426839e+00
1	 1.465033594274894e+00	 1.698228707295979e-01	 1.129160491119514e+00
1	 1.462120190385275e+00	 2.038326358844076e-01	 1.099618223197813e+00
1	 1.458624414436090e+00	 2.378105258364077e-01	 1.064166454292609e+00
1	 1.454530932047793e+00	 2.717352509952452e-01	 1.022316174650157e+00
1	 1.449824887156638e+00	 3.055849921714104e-01	 9.736082399831908e-01
1	 1.444491957268275e+00	 3.393374380255506e-01	 9.176195677873117e-01
1	 1.485714201272741e+00	 0.000000000000000e+00	 1.141119876662051e+00
1	 1.485467308037133e+00	 3.419935419127627e-02	 1.133516092586070e+00
1	 1.484715147505218e+00	 6.846490869090381e-02	 1.122905473471075e+00
1	 1.483440631370847e+00	 1.027782842013209e-01	 1.108757516849011e+00
1	 1.481626888122938e+00	 1.371204305951887e-01	 1.090544513110359e+00
1	 1.479257313813562e+00	 1.714716471777679e-01	 1.067745877070946e+00
1	 1.476315624265676e+00	 2.058116063723873e-01	 1.039852851977137e+00
1	 1.472785908523857e+00	 2.401193808941586e-01	 1.006373567976836e+00
1	 1.468652683330120e+00	 2.743734744563666e-01	 9.668384291805087e-01
1	 1.463900948386158e+00	 3.085518560313680e-01	 9.208057949433641e-01
1	 1.458516242143368e+00	 3.426319976634912e-01	 8.678679120349895e-01
1	 1.500000000000000e+00	 0.000000000000000e+00	 1.080099471785163e+00
1	 1.499750732776819e+00	 3.452819609838880e-02	 1.072842963119341e+00
1	 1.498991339888977e+00	 6.912322905016832e-02	 1.062776384267307e+00
1	 1.497704568718708e+00	 1.037665428327345e-01	 1.049393348755409e+00
1	 1.495873385527899e+00	 1.384389041433825e-01	 1.032189632490321e+00
1	 1.493481026714322e+00	 1.731204228565149e-01	 1.010667301663188e+00
1	 1.490511051521376e+00	 2.077905759368570e-01	 9.843392011988247e-01
1	 1.486947396002769e+00	 2.424282348744578e-01	 9.527337870974456e-01
1	 1.482774428022150e+00	 2.770116966863368e-01	 9.154002784377099e-01
1	 1.477977003046713e+00	 3.115187185068158e-01	 8.719140966546506e-01
1	 1.472540520473678e+00	 3.459265557640069e-01	 8.218825510848385e-01
1	 1.514285798727260e+00	 0.000000000000000e+00	 1.023383688834274e+00
1	 1.514034157516504e+00	 3.485703800550132e-02	 1.016443996093516e+00
1	 1.513267532272734e+00	 6.978154940943283e-02	 1.006882273572604e+00
1	 1.511968506066570e+00	 1.047548014641481e-01	 9.942151586621537e-01
1	 1.510119882932860e+00	 1.397573776915763e-01	 9.779608921427869e-01
1	 1.507704739615082e+00	 1.747691985352620e-01	 9.576432579539306e-01
1	 1.504706478777075e+00	 2.097695455013266e-01	 9.327958722470858e-01
1	 1.501108883481681e+00	 2.447370888547570e-01	 9.029668062575168e-01
1	 1.496896172714179e+00	 2.796499189163070e-01	 8.677235202503312e-01
1	 1.492053057707269e+00	 3.144855809822638e-01	 8.266580779541304e-01
1	 1.486564798803988e+00	 3.492211138645225e-01	 7.793926025941197e-01
1	 1.528571604121408e+00	 0.000000000000000e+00	 9.707142269972877e-01
1	 1.528317588921971e+00	 3.518588006607298e-02	 9.640567029138298e-01
1	 1.527543731318899e+00	 7.043987007591246e-02	 9.549572572668535e-01
1	 1.526232450071117e+00	 1.057430605567471e-01	 9.429544938039500e-01
1	 1.524366386986366e+00	 1.410758518550542e-01	 9.275881307757654e-01
1	 1.521928459153750e+00	 1.764179749834320e-01	 9.084027677602654e-01
1	 1.518901912657477e+00	 2.117485159893064e-01	 8.849519911263187e-01
1	 1.515270377569448e+00	 2.470459439125080e-01	 8.568028037262923e-01
1	 1.511017923996508e+00	 2.822881423774285e-01	 8.235403574053883e-01
1	 1.506129118936787e+00	 3.174524448422210e-01	 7.847729593616352e-01
1	 1.500589083679082e+00	 3.525156735024633e-01	 7.401373153846741e-01
1	 1.542857422849333e+00	 0.000000000000000e+00	 9.218423577067251e-01
1	 1.542601033659000e+00	 3.551472243356290e-02	 9.154283222333753e-01
1	 1.541819943689873e+00	 7.109819135682234e-02	 9.067453041390812e-01
1	 1.540496407389035e+00	 1.067313205717167e-01	 8.953528493626777e-01
1	 1.538612904336961e+00	 1.423943272491004e-01	 8.808111982291580e-01
1	 1.536152191968234e+00	 1.780667529704477e-01	 8.626848941959302e-01
1	 1.533097359787283e+00	 2.137274883243064e-01	 8.405467211925383e-01
1	 1.529431884874928e+00	 2.493548011251626e-01	 8.139819560700889e-01
1	 1.525139688459433e+00	 2.849263683008526e-01	 7.825929159276622e-01
1	 1.520205193304232e+00	 3.204193114711973e-01	 7.460037727940854e-01
1	 1.514613381643741e+00	 3.558102362152540e-01	 7.038656004101074e-01
1	 1.557143261577926e+00	 0.000000000000000e+00	 8.765284855470949e-01
1	 1.556884498393372e+00	 3.584356526143021e-02	 8.703153737492479e-01
1	 1.556096176048064e+00	 7.175651355937768e-02	 8.619997839188369e-01
1	 1.554760384677008e+00	 1.077195819702425e-01	 8.511612121394071e-01
1	 1.552859441633188e+00	 1.437128044889990e-01	 8.373794962491847e-01
1	 1.550375944696441e+00	 1.797155332657319e-01	 8.202382810636806e-01
1	 1.547292826791196e+00	 2.157064634298368e-01	 7.993288027291586e-01
1	 1.543593412006975e+00	 2.516636615701728e-01	 7.742539795229854e-01
1	 1.539261472693255e+00	 2.875645979177306e-01	 7.446327898977904e-01
1	 1.534281287378566e+00	 3.233861822537020e-01	 7.101049115191359e-01
1	 1.528637699242752e+00	 3.591048035403198e-01	 6.703355875627034e-01
1	 1.571429126974074e+00	 0.000000000000000e+00	 8.345417331324795e-01
1	 1.571167989790867e+00	 3.617240870313405e-02	 8.284832363570753e-01
1	 1.570372435055877e+00	 7.241483699079355e-02	 8.204830399806760e-01
1	 1.569024388591724e+00	 1.087078452135097e-01	 8.101396291374077e-01
1	 1.567106005523594e+00	 1.450312841900342e-01	 7.970515443320778e-01
1	 1.564599723976281e+00	 1.813643166387076e-01	 7.808207173923619e-01
1	 1.561488320293920e+00	 2.176854422294079e-01	 7.610561176575021e-01
1	 1.557754965574446e+00	 2.539725263249902e-01	 7.373776963941936e-01
1	 1.553383283288272e+00	 2.902028324592137e-01	 7.094206111188464e-01
1	 1.548357407728751e+00	 3.263530585742443e-01	 6.768397046770233e-01
1	 1.542662043020896e+00	 3.623993770150854e-01	 6.393142066743929e-01
1	 1.402418997926461e+00	 3.294537345129283e-01	 1.092343733131320e+00
1	 1.396619866042658e+00	 3.621042547566253e-01	 1.020152714410078e+00
1	 1.390186156606576e+00	 3.946157785590295e-01	 9.444869762140367e-01
1	 1.383105843291214e+00	 4.269655074752547e-01	 8.653491155226395e-01
1	 1.375367631339310e+00	 4.591303459451807e-01	 7.827196550435028e-01
1	 1.366961009346076e+00	 4.910869536853510e-01	 6.965548103814954e-01
1	 1.357876299731293e+00	 5.228118009030744e-01	 6.067843981680283e-01
1	 1.348104707563986e+00	 5.542812261358537e-01	 5.133099287344470e-01
1	 1.337638367399997e+00	 5.854714964905721e-01	 4.160029276265254e-01
1	 1.326470387793212e+00	 6.163588700289419e-01	 3.147035300294606e-01
1	 1.314594893144823e+00	 6.469196600189466e-01	 2.092193909028422e-01
1	 1.416443341704605e+00	 3.327483079876941e-01	 1.029558958307493e+00
1	 1.410586217866144e+00	 3.657253370143579e-01	 9.611162086256739e-01
1	 1.404088170630291e+00	 3.985619796201447e-01	 8.892447853775196e-01
1	 1.396937053405456e+00	 4.312352093732099e-01	 8.139601963968673e-01
1	 1.389121458485565e+00	 4.637216997552888e-01	 7.352544923343007e-01
1	 1.380630769350629e+00	 4.959978770775202e-01	 6.530938413336975e-01
1	 1.371455211643566e+00	 5.280399762466951e-01	 5.674162464271004e-01
1	 1.361585902483125e+00	 5.598240991830850e-01	 4.781294521618800e-01
1	 1.351014897769846e+00	 5.913262756620284e-01	 3.851090878872002e-01
1	 1.339735237142398e+00	 6.225225263232392e-01	 2.881970950503005e-01
1	 1.327740986245340e+00	 6.533889275647720e-01	 1.872004846753416e-01
1	 1.430467659303615e+00	 3.360428753127599e-01	 9.714190284966113e-01
1	 1.424552543618833e+00	 3.693464125129539e-01	 9.065527642807136e-01
1	 1.417990158703402e+00	 4.025081733152876e-01	 8.382949703144185e-01
1	 1.410768237701365e+00	 4.355049033013803e-01	 7.666734045480630e-01
1	 1.402875259958045e+00	 4.683130449952526e-01	 6.916910832442685e-01
1	 1.394300503838440e+00	 5.009087913030714e-01	 6.133236740783943e-01
1	 1.385034098208786e+00	 5.332681418315466e-01	 5.315170333676316e-01
1	 1.375067072237715e+00	 5.653669618841587e-01	 4.461849366958724e-01
1	 1.364391403170606e+00	 5.971810439051404e-01	 3.572070533072848e-01
1	 1.353000061731035e+00	 6.286861711126494e-01	 2.644272147118418e-01
1	 1.340887054807036e+00	 6.598581830352498e-01	 1.676520268599713e-01
1	 1.444491957268275e+00	 3.393374380255506e-01	 9.176195677873117e-01
1	 1.438518849818423e+00	 3.729674829421977e-01	 8.561635315599744e-01
1	 1.431892127313559e+00	 4.064543614859512e-01	 7.913446813329372e-01
1	 1.424599402633524e+00	 4.397745912522124e-01	 7.232023879022020e-01
1	 1.416629042175190e+00	 4.729043838076080e-01	 6.517500923873148e-01
1	 1.407970219188693e+00	 5.058196986536592e-01	 5.769725284152682e-01
1	 1.398612965763713e+00	 5.384963000973219e-01	 4.988230894968916e-01
1	 1.388548223118887e+00	 5.709098168256141e-01	 4.172213934429113e-01
1	 1.377767889844539e+00	 6.030358039519947e-01	 3.320510969578872e-01
1	 1.366264867749247e+00	 6.348498072733942e-01	 2.431580137635438e-01
1	 1.354033104964594e+00	 6.663274294492167e-01	 1.503485886086541e-01
1	 1.458516242143368e+00	 3.426319976634912e-01	 8.678679120349896e-01
1	 1.452485142982614e+00	 3.765885499918734e-01	 8.096611597738037e-01
1	 1.445794082948414e+00	 4.104005459736285e-01	 7.481123369999780e-01
1	 1.438430554656515e+00	 4.440442752181522e-01	 6.832718126484081e-01
1	 1.430382811555445e+00	 4.774957183348914e-01	 6.151629326859764e-01
1	 1.421639921780571e+00	 5.107306014209381e-01	 5.437790817912228e-01
1	 1.412191820645105e+00	 5.437244534837126e-01	 4.690808909455554e-01
1	 1.402029361417770e+00	 5.764526665939903e-01	 3.909936451930016e-01
1	 1.391144364033907e+00	 6.088905585346770e-01	 3.094049472952146e-01
1	 1.379529661387155e+00	 6.410134376816954e-01	 2.241626933607656e-01
1	 1.367179142852703e+00	 6.727966698255098e-01	 1.350734156250178e-01
1	 1.472540520473678e+00	 3.459265557640069e-01	 8.218825510848385e-01
1	 1.466451429629105e+00	 3.802096153517646e-01	 7.667692497160425e-01
1	 1.459696032095616e+00	 4.143467286198128e-01	 7.083270875026906e-01
1	 1.452261700224921e+00	 4.483139571916458e-01	 6.466168385160040e-01
1	 1.444136574517253e+00	 4.820870507196391e-01	 5.816712535153040e-01
1	 1.435309617993256e+00	 5.156415018965624e-01	 5.134919712981759e-01
1	 1.425770669189721e+00	 5.489526044304112e-01	 4.420465763375993e-01
1	 1.415510493425496e+00	 5.819955137758276e-01	 3.672658592062603e-01
1	 1.404520831980972e+00	 6.147453103852731e-01	 2.890413379295854e-01
1	 1.392794448834883e+00	 6.471770652137749e-01	 2.072230988970367e-01
1	 1.380325174606045e+00	 6.792659071829659e-01	 1.216180151500710e-01
1	 1.486564798803988e+00	 3.492211138645225e-01	 7.793926025941195e-01
1	 1.480417716275596e+00	 3.838306807116561e-01	 7.272218370469867e-01
1	 1.473597981242819e+00	 4.182929112659970e-01	 6.717283084117267e-01
1	 1.466092845793325e+00	 4.525836391651394e-01	 6.129826237781855e-01
1	 1.457890337479054e+00	 4.866783831043864e-01	 5.510264578444967e-01
1	 1.448979314205931e+00	 5.205524023721870e-01	 4.858693238837047e-01
1	 1.439349517734319e+00	 5.541807553771096e-01	 4.174854910305548e-01
1	 1.428991625433194e+00	 5.875383609576647e-01	 3.458111064682003e-01
1	 1.417897299927996e+00	 6.206000622358694e-01	 2.707415829009390e-01
1	 1.406059236282551e+00	 6.533406927458544e-01	 1.921293123195399e-01
1	 1.393471206359307e+00	 6.857351445404221e-01	 1.097817663460097e-01
1	 1.500589083679082e+00	 3.525156735024633e-01	 7.401373153846741e-01
1	 1.494384009439786e+00	 3.874517477613316e-01	 6.907629046700815e-01
1	 1.487499936877670e+00	 4.222390957536742e-01	 6.380651228556355e-01
1	 1.479923997816310e+00	 4.568533231310791e-01	 5.821238580360093e-01
1	 1.471644106859294e+00	 4.912697176316699e-01	 5.229892464775970e-01
1	 1.462649016797778e+00	 5.254633051394657e-01	 4.606783129273245e-01
1	 1.452928372615660e+00	 5.594089087635005e-01	 3.951717569339990e-01
1	 1.442472763731995e+00	 5.930812107260414e-01	 3.264109456805147e-01
1	 1.431273774117241e+00	 6.264548168185513e-01	 2.542951757908183e-01
1	 1.419324029920284e+00	 6.595043231541553e-01	 1.786792673247437e-01
1	 1.406617244247173e+00	 6.922043849167152e-01	 9.937155254613959e-02
1	 1.514613381643741e+00	 3.558102362152540e-01	 7.038656004101073e-01
1	 1.508350315639376e+00	 3.910728181905754e-01	 6.571459222214514e-01
1	 1.501401905487825e+00	 4.261852839243379e-01	 6.070959502633355e-01
1	 1.493755162748458e+00	 4.611230110819112e-01	 5.538043209805723e-01
1	 1.485397889076415e+00	 4.958610564440254e-01	 4.973291876353532e-01
1	 1.476318732147982e+00	 5.303742124900537e-01	 4.376947394720456e-01
1	 1.466507240170501e+00	 5.646370670292757e-01	 3.748878662470339e-01
1	 1.455953914613030e+00	 5.986240656674965e-01	 3.088550303829137e-01
1	 1.444650260790970e+00	 6.323095768654057e-01	 2.394994111245933e-01
1	 1.432588835938203e+00	 6.656679593149002e-01	 1.666783859499767e-01
1	 1.419763294404329e+00	 6.986736313306823e-01	 9.020141395247913e-02
1	 1.528637699242752e+00	 3.591048035403198e-01	 6.703355875627036e-01
1	 1.522316641392064e+00	 3.946938936891715e-01	 6.261334109297093e-01
1	 1.515303893560931e+00	 4.301314776194807e-01	 5.785880799670954e-01
1	 1.507586347044352e+00	 4.653927050100816e-01	 5.277964654636345e-01
1	 1.499151690548858e+00	 5.004524016839892e-01	 4.738243102495172e-01
1	 1.489988466635725e+00	 5.352851267156048e-01	 4.167026365265420e-01
1	 1.480086126735601e+00	 5.698652326141274e-01	 3.564242975774023e-01
1	 1.469435084367429e+00	 6.041669283685701e-01	 2.929407377191680e-01
1	 1.458026766191443e+00	 6.381643451085179e-01	 2.261590266311944e-01
1	 1.445853660526431e+00	 6.718316041043105e-01	 1.559392351857144e-01
1	 1.432909362965459e+00	 7.051428868011598e-01	 8.209221946677552e-02
1	 1.542662043020896e+00	 3.623993770150854e-01	 6.393142066743926e-01
1	 1.536282993215550e+00	 3.983149759469040e-01	 5.974965322301914e-01
1	 1.529205907584642e+00	 4.340776786805960e-01	 5.523172680826556e-01
1	 1.521417557158576e+00	 4.696624069080367e-01	 5.038810233286166e-01
1	 1.512905517695068e+00	 5.050437554940970e-01	 4.522607194593177e-01
1	 1.503658226640188e+00	 5.401960501077737e-01	 3.974938949685869e-01
1	 1.493665038647719e+00	 5.750934079577475e-01	 3.395791530167920e-01
1	 1.482916279286322e+00	 6.097098014158012e-01	 2.784728174689823e-01
1	 1.471403296560924e+00	 6.440191242799742e-01	 2.140858650320103e-01
1	 1.459118509875090e+00	 6.779952603986078e-01	 1.462812023335314e-01
1	 1.446055456065250e+00	 7.116121543469853e-01	 7.487135643639270e-02
1	 1.314594893144823e+00	 6.469196600189466e-01	 2.092193909028416e-01
1	 1.302006157726207e+00	 6.771324014091545e-01	 9.717380300029971e-02
1	 1.288701263618528e+00	 7.069715536127238e-01	-2.345362204731960e-02
1	 1.274677610405123e+00	 7.364139816884141e-01	-1.523850803874762e-01
1	 1.259933748325849e+00	 7.654368751281202e-01	-2.893682516377832e-01
1	 1.244469402142706e+00	 7.940178164717294e-01	-4.341798157783475e-01
1	 1.228285490601410e+00	 8.221348496568718e-01	-5.866286739052619e-01
1	 1.211384141277094e+00	 8.497665476991278e-01	-7.465588076877285e-01
1	 1.193768700623030e+00	 8.768920792936009e-01	-9.138517164754381e-01
1	 1.175443739074679e+00	 9.034912739280352e-01	-1.088428376825008e+00
1	 1.156415051097081e+00	 9.295446851010828e-01	-1.270250676683068e+00
1	 1.327740986245340e+00	 6.533889275647720e-01	 1.872004846753417e-01
1	 1.315026362092133e+00	 6.839037996823172e-01	 7.971600300457390e-02
1	 1.301588417584430e+00	 7.140413466803667e-01	-3.631971472136389e-02
1	 1.287424526301110e+00	 7.437782022657358e-01	-1.606553758035161e-01
1	 1.272533223984267e+00	 7.730913278227418e-01	-2.930653478901113e-01
1	 1.256914232643484e+00	 8.019580817142202e-01	-4.333529647339019e-01
1	 1.240568480212031e+00	 8.303562883147737e-01	-5.813535285107401e-01
1	 1.223498115541023e+00	 8.582643063677963e-01	-7.369369462784463e-01
1	 1.205706518548623e+00	 8.856610962530627e-01	-9.000099424781411e-01
1	 1.187198305375145e+00	 9.125262857509887e-01	-1.070517795365098e+00
1	 1.167979328430909e+00	 9.388402338930860e-01	-1.248445552824238e+00
1	 1.340887054807036e+00	 6.598581830352498e-01	 1.676520268599713e-01
1	 1.328046542154254e+00	 6.906751853161535e-01	 6.445770635346348e-02
1	 1.314475547494891e+00	 7.211111265516637e-01	-4.725590800687970e-02
1	 1.300171418403419e+00	 7.511424090970864e-01	-1.672634206644033e-01
1	 1.285132676124198e+00	 7.807457662295900e-01	-2.953651836394314e-01
1	 1.269359039914403e+00	 8.098983321353761e-01	-4.313903923967338e-01
1	 1.252851446894847e+00	 8.385777116264355e-01	-5.751998720881826e-01
1	 1.235612067192585e+00	 8.667620491743747e-01	-7.266884945164596e-01
1	 1.217644314190617e+00	 8.944300968440329e-01	-8.857871706878795e-01
1	 1.198952849734027e+00	 9.215612807088772e-01	-1.052464369948990e+00
1	 1.179543584178313e+00	 9.481357653336441e-01	-1.226727124344885e+00
1	 1.354033104964594e+00	 6.663274294492167e-01	 1.503485886086540e-01
1	 1.341066703988496e+00	 6.974465614704949e-01	 5.118432739619561e-02
1	 1.327362659363738e+00	 7.281808965257016e-01	-5.646575025985717e-02
1	 1.312918292660426e+00	 7.585066056189583e-01	-1.724015355456445e-01
1	 1.297732110625212e+00	 7.884001939206060e-01	-2.964486662913463e-01
1	 1.281803829762870e+00	 8.178385714405283e-01	-4.284614141957122e-01
1	 1.265134396381741e+00	 8.467991234284111e-01	-5.683252573380767e-01
1	 1.247726001884798e+00	 8.752597800843780e-01	-7.159590811207657e-01
1	 1.229582093119834e+00	 9.031990851586249e-01	-8.713169554859574e-01
1	 1.210707377636641e+00	 9.305962630179525e-01	-1.034389442497655e+00
1	 1.191107823735815e+00	 9.574312837605971e-01	-1.205204396076530e+00
1	 1.367179142852703e+00	 6.727966698255098e-01	 1.350734156250179e-01
1	 1.354086853670782e+00	 7.042179313051731e-01	 3.968953791675428e-02
1	 1.340249759204795e+00	 7.352506599015664e-01	-6.414495698417273e-02
1	 1.325665155020511e+00	 7.658707952678440e-01	-1.762546400795071e-01
1	 1.310331533366881e+00	 7.960546144677322e-01	-2.964897413471910e-01
1	 1.294248607996289e+00	 8.257788033350082e-01	-4.247288295712229e-01
1	 1.277417334404598e+00	 8.550205275572582e-01	-5.608811734554910e-01
1	 1.259839925270682e+00	 8.837575030633226e-01	-7.048887299906297e-01
1	 1.241519860907095e+00	 9.119680652889500e-01	-8.567277109038158e-01
1	 1.222461894568301e+00	 9.396312368944653e-01	-1.016409684366951e+00
1	 1.202672052499939e+00	 9.667267935117863e-01	-1.183982176867488e+00
1	 1.380325174606045e+00	 6.792659071829659e-01	 1.216180151500713e-01
1	 1.367106997277037e+00	 7.109892979800194e-01	 2.977487400025156e-02
1	 1.353136853031889e+00	 7.423204199783444e-01	-7.048178372878679e-02
1	 1.338412011432047e+00	 7.732349814802353e-01	-1.790006052668898e-01
1	 1.322930950228776e+00	 8.037090314429114e-01	-2.956557237908479e-01
1	 1.306693380422067e+00	 8.337190315241463e-01	-4.203492321095678e-01
1	 1.289700266695305e+00	 8.632419278495311e-01	-5.530133346995294e-01
1	 1.271953843003254e+00	 8.922552220767233e-01	-6.936121269148103e-01
1	 1.253457623123223e+00	 9.207370413271208e-01	-8.421429551970029e-01
1	 1.234216406014319e+00	 9.486662065546664e-01	-9.986373185336805e-01
1	 1.214236275867208e+00	 9.760222989250513e-01	-1.163161279153324e+00
1	 1.393471206359307e+00	 6.857351445404221e-01	 1.097817663460098e-01
1	 1.380127140883184e+00	 7.177606646548657e-01	 2.124936517116138e-02
1	 1.366023946858845e+00	 7.493901800551216e-01	-7.565737785959309e-02
1	 1.351158867843413e+00	 7.805991676926244e-01	-1.808105858299286e-01
1	 1.335530367090467e+00	 8.113634484180853e-01	-2.941076107018921e-01
1	 1.319138152847608e+00	 8.416592597132743e-01	-4.154733021076787e-01
1	 1.301983198985745e+00	 8.714633281417865e-01	-5.448619526146096e-01
1	 1.284067760735535e+00	 9.007529410900955e-01	-6.822588711711094e-01
1	 1.265395385339038e+00	 9.295060173652493e-01	-8.276815415634761e-01
1	 1.245970917460011e+00	 9.577011762148074e-01	-9.811803291943362e-01
1	 1.225800499234146e+00	 9.853178043382338e-01	-1.142838707221077e+00
1	 1.406617244247173e+00	 6.922043849167152e-01	 9.937155254613940e-02
1	 1.393147290565148e+00	 7.245320344895437e-01	 1.392918434509952e-02
1	 1.378911046699490e+00	 7.564599434309848e-01	-7.984611058902423e-02
1	 1.363905730202986e+00	 7.879633573415036e-01	-1.818493339123110e-01
1	 1.348129789831525e+00	 8.190178689651958e-01	-2.920003763241548e-01
1	 1.331582931080320e+00	 8.495994916077230e-01	-4.102460827184059e-01
1	 1.314266137007805e+00	 8.796847322705800e-01	-5.365619929742167e-01
1	 1.296181684120543e+00	 9.092506640689551e-01	-6.709537130056735e-01
1	 1.277333153125360e+00	 9.382749974954472e-01	-8.134578759135598e-01
1	 1.257725434390691e+00	 9.667361500911392e-01	-9.641426596007541e-01
1	 1.237364727997274e+00	 9.946133140891735e-01	-1.123107834907779e+00
1	 1.419763294404329e+00	 6.986736313306823e-01	 9.020141395247895e-02
1	 1.406167452398852e+00	 7.313034106438844e-01	 7.637317244048397e-03
1	 1.391798158567646e+00	 7.635297134050192e-01	-8.321589054413242e-02
1	 1.376652604459141e+00	 7.953275538633646e-01	-1.822754953371521e-01
1	 1.360729224331522e+00	 8.266722966561857e-01	-2.894832507278658e-01
1	 1.344027720927606e+00	 8.575397309128240e-01	-4.048072407415778e-01
1	 1.326549086493368e+00	 8.879061440724667e-01	-5.282434184379547e-01
1	 1.308295618811295e+00	 9.177483949788170e-01	-6.598167779079432e-01
1	 1.289270932053014e+00	 9.470439858098275e-01	-7.995821225313394e-01
1	 1.269479962291672e+00	 9.757711323999124e-01	-9.476243988956727e-01
1	 1.248928967553118e+00	 1.003908832515712e+00	-1.104058573418560e+00
1	 1.432909362965459e+00	 7.051428868011598e-01	 8.209221946677552e-02
1	 1.419187632460221e+00	 7.380747962777202e-01	 2.203250023986428e-03
1	 1.404685288477143e+00	 7.705994932763116e-01	-8.592846005972600e-02
1	 1.389399496560257e+00	 8.026917606947001e-01	-1.822418895436019e-01
1	 1.373328676470027e+00	 8.343267350629970e-01	-2.866999831199084e-01
1	 1.356472528196873e+00	 8.654799813339080e-01	-3.992913130477073e-01
1	 1.338832053174321e+00	 8.961275673840037e-01	-5.200314178402869e-01
1	 1.320409570460812e+00	 9.262461377851972e-01	-6.489637785299138e-01
1	 1.301208727692818e+00	 9.558129864005016e-01	-7.861603984059895e-01
1	 1.281234506648269e+00	 9.848061273573786e-01	-9.317219586552277e-01
1	 1.260493223298199e+00	 1.013204363955689e+00	-1.085777529899379e+00
1	 1.446055456065250e+00	 7.116121543469853e-01	 7.487135643639264e-02
1	 1.432207836825179e+00	 7.448461945508820e-01	-2.537326044960528e-03
1	 1.417572442441803e+00	 7.776692863439487e-01	-8.813967529674911e-02
1	 1.402146412454711e+00	 8.100559812720015e-01	-1.818957742415863e-01
1	 1.385928152126612e+00	 8.419811877575717e-01	-2.837890907798369e-01
1	 1.368917358695528e+00	 8.734202465763066e-01	-3.938279395492930e-01
1	 1.351115042782549e+00	 9.043490060417461e-01	-5.120466229623611e-01
1	 1.332523544722111e+00	 9.347438964536106e-01	-6.385062150367258e-01
1	 1.313146545615595e+00	 9.645820033595822e-01	-7.732949569544033e-01
1	 1.292989072945795e+00	 9.938411391797882e-01	-9.165282397939990e-01
1	 1.272057500629041e+00	 1.022499912746946e+00	-1.068348157353284e+00
1	 1.156415051097081e+00	 9.295446851010828e-01	-1.270250676683068e+00
1	 1.136689647123178e+00	 9.550336534767583e-01	-1.462978843825464e+00
1	 1.116275734373034e+00	 9.799403718027949e-01	-1.669738832410055e+00
1	 1.095182710406913e+00	 1.004247933371997e+00	-1.889654352577797e+00
1	 1.073421145629011e+00	 1.027940381546648e+00	-2.121762708873543e+00
1	 1.051002757783851e+00	 1.051002757783852e+00	-2.365021013679547e+00
1	 1.027940381546647e+00	 1.073421145629011e+00	-2.618313332526019e+00
1	 1.004247933371997e+00	 1.095182710406913e+00	-2.880458664493418e+00
1	 9.799403718027947e-01	 1.116275734373035e+00	-3.150219644814830e+00
1	 9.550336534767578e-01	 1.136689647123179e+00	-3.426311843266644e+00
1	 9.295446851010828e-01	 1.156415051097081e+00	-3.707413521395772e+00
1	 1.167979328430909e+00	 9.388402338930860e-01	-1.248445552824238e+00
1	 1.148056668253955e+00	 9.645840947479684e-01	-1.437272710965630e+00
1	 1.127438614137450e+00	 9.897398829888864e-01	-1.639967899988519e+00
1	 1.106134657618302e+00	 1.014290522839711e+00	-1.855713610269301e+00
1	 1.084155474805915e+00	 1.038219898094590e+00	-2.083607562029409e+00
1	 1.061512900623551e+00	 1.061512900623551e+00	-2.322668456973606e+00
1	 1.038219898094590e+00	 1.084155474805915e+00	-2.571842644731266e+00
1	 1.014290522839711e+00	 1.106134657618302e+00	-2.830011614173854e+00
1	 9.897398829888857e-01	 1.127438614137450e+00	-3.096000203806228e+00
1	 9.645840947479679e-01	 1.148056668253955e+00	-3.368585411974825e+00
1	 9.388402338930860e-01	 1.167979328430909e+00	-3.646505676992912e+00
1	 1.179543584178313e+00	 9.481357653336441e-01	-1.226727124344885e+00
1	 1.159423668166479e+00	 9.741345181918949e-01	-1.411879147686903e+00
1	 1.138601473064650e+00	 9.995393758827325e-01	-1.610735815666649e+00
1	 1.117086584386196e+00	 1.024333093561410e+00	-1.822535821647426e+00
1	 1.094889783945534e+00	 1.048499395454237e+00	-2.046434690457830e+00
1	 1.072023023844444e+00	 1.072023023844445e+00	-2.281510088773790e+00
1	 1.048499395454236e+00	 1.094889783945534e+00	-2.526768033561636e+00
1	 1.024333093561409e+00	 1.117086584386196e+00	-2.781149915213625e+00
1	 9.995393758827319e-01	 1.138601473064650e+00	-3.043540236358560e+00
1	 9.741345181918943e-01	 1.159423668166480e+00	-3.312774953946848e+00
1	 9.481357653336442e-01	 1.179543584178313e+00	-3.587650301475104e+00
1	 1.191107823735815e+00	 9.574312837605971e-01	-1.205204396076530e+00
1	 1.170790652165233e+00	 9.836849282653308e-01	-1.386894667017097e+00
1	 1.149764316363858e+00	 1.009338855057359e+00	-1.582126442334090e+00
1	 1.128038495821394e+00	 1.034375650223553e+00	-1.790192096387296e+00
1	 1.105624078057122e+00	 1.058778878422611e+00	-2.010302404056313e+00
1	 1.082533132351175e+00	 1.082533132351175e+00	-2.241591429997951e+00
1	 1.058778878422611e+00	 1.105624078057122e+00	-2.483122299543608e+00
1	 1.034375650223553e+00	 1.128038495821395e+00	-2.733893774129645e+00
1	 1.009338855057359e+00	 1.149764316363859e+00	-2.992847538732160e+00
1	 9.836849282653305e-01	 1.170790652165234e+00	-3.258876095467721e+00
1	 9.574312837605973e-01	 1.191107823735815e+00	-3.530831146709741e+00
1	 1.202672052499939e+00	 9.667267935117863e-01	-1.183982176867488e+00
1	 1.182157625554698e+00	 9.932353294250700e-01	-1.362412066542898e+00
1	 1.160927149244302e+00	 1.019138325085792e+00	-1.554220414086350e+00
1	 1.138990397034699e+00	 1.044418197512602e+00	-1.758750805998139e+00
1	 1.116358362149933e+00	 1.069058351796734e+00	-1.975266766993585e+00
1	 1.093043231048384e+00	 1.093043231048384e+00	-2.202956247876563e+00
1	 1.069058351796734e+00	 1.116358362149933e+00	-2.440936978940352e+00
1	 1.044418197512602e+00	 1.138990397034699e+00	-2.688262617760871e+00
1	 1.019138325085792e+00	 1.160927149244302e+00	-2.943929605050293e+00
1	 9.932353294250695e-01	 1.182157625554698e+00	-3.206884629008662e+00
1	 9.667267935117863e-01	 1.202672052499939e+00	-3.476032587731102e+00
1	 1.214236275867208e+00	 9.760222989250513e-01	-1.163161279153324e+00
1	 1.193524593639354e+00	 1.002785726127905e+00	-1.338520605081242e+00
1	 1.172089976915204e+00	 1.028937790541059e+00	-1.527095289706972e+00
1	 1.149942293136908e+00	 1.054460740115017e+00	-1.728277713927211e+00
1	 1.127092641233221e+00	 1.079337820373628e+00	-1.941381704350324e+00
1	 1.103553324840712e+00	 1.103553324840712e+00	-2.165646639150247e+00
1	 1.079337820373628e+00	 1.127092641233221e+00	-2.400242403632321e+00
1	 1.054460740115017e+00	 1.149942293136908e+00	-2.644275130063841e+00
1	 1.028937790541058e+00	 1.172089976915205e+00	-2.896793641347361e+00
1	 1.002785726127905e+00	 1.193524593639354e+00	-3.156796504969220e+00
1	 9.760222989250517e-01	 1.214236275867209e+00	-3.423239592718843e+00
1	 1.225800499234146e+00	 9.853178043382338e-01	-1.142838707221077e+00
1	 1.204891561723683e+00	 1.012336122830632e+00	-1.315306169341865e+00
1	 1.183252804585793e+00	 1.038737255996183e+00	-1.500825697454485e+00
1	 1.160894189238823e+00	 1.064503282717258e+00	-1.698836098293186e+00
1	 1.137826920316240e+00	 1.089617288950315e+00	-1.908699102718511e+00
1	 1.114063418632800e+00	 1.114063418632800e+00	-2.129703108554005e+00
1	 1.089617288950315e+00	 1.137826920316241e+00	-2.361067757605378e+00
1	 1.064503282717258e+00	 1.160894189238823e+00	-2.601949286823923e+00
1	 1.038737255996183e+00	 1.183252804585794e+00	-2.851446578821390e+00
1	 1.012336122830631e+00	 1.204891561723683e+00	-3.108607823887198e+00
1	 9.853178043382338e-01	 1.225800499234146e+00	-3.372437694677137e+00
1	 1.237364727997274e+00	 9.946133140891735e-01	-1.123107834907779e+00
1	 1.216258535112166e+00	 1.021886523990040e+00	-1.292851431236382e+00
1	 1.194415637465293e+00	 1.048536726024194e+00	-1.475483471723741e+00
1	 1.171846090451243e+00	 1.074545830005786e+00	-1.670486867731408e+00
1	 1.148561204408244e+00	 1.099896762323818e+00	-1.877268905154894e+00
1	 1.124573517329290e+00	 1.124573517329291e+00	-2.095164642896857e+00
1	 1.099896762323817e+00	 1.148561204408244e+00	-2.323441130268802e+00
1	 1.074545830005786e+00	 1.171846090451244e+00	-2.561302388418389e+00
1	 1.048536726024194e+00	 1.194415637465293e+00	-2.807895086342637e+00
1	 1.021886523990040e+00	 1.216258535112166e+00	-3.062314829085606e+00
1	 9.946133140891735e-01	 1.237364727997274e+00	-3.323612964703354e+00
1	 1.248928967553118e+00	 1.003908832515712e+00	-1.104058573418560e+00
1	 1.227625519109282e+00	 1.031436934062925e+00	-1.271235996440756e+00
1	 1.205578480762928e+00	 1.058336205198116e+00	-1.451137782108525e+00
1	 1.182798001884969e+00	 1.084588386667060e+00	-1.643288670797945e+00
1	 1.159295498518487e+00	 1.110176245291156e+00	-1.847139200854876e+00
1	 1.135083625834824e+00	 1.135083625834825e+00	-2.062068781022361e+00
1	 1.110176245291155e+00	 1.159295498518488e+00	-2.287389566808624e+00
1	 1.084588386667060e+00	 1.182798001884970e+00	-2.522351090757772e+00
1	 1.058336205198115e+00	 1.205578480762929e+00	-2.766145582266816e+00
1	 1.031436934062925e+00	 1.227625519109283e+00	-3.017913899728709e+00
1	 1.003908832515712e+00	 1.248928967553118e+00	-3.276751986742982e+00
1	 1.260493223298199e+00	 1.013204363955689e+00	-1.085777529899379e+00
1	 1.238992519019514e+00	 1.040987357506080e+00	-1.250536544773106e+00
1	 1.216741339687926e+00	 1.068135698090975e+00	-1.427855255353957e+00
1	 1.193749928650801e+00	 1.094630957387542e+00	-1.617297999346500e+00
1	 1.170029807656223e+00	 1.120455742649354e+00	-1.818356309886089e+00
1	 1.145593749054043e+00	 1.145593749054043e+00	-2.030451679915040e+00
1	 1.120455742649353e+00	 1.170029807656223e+00	-2.252939115766983e+00
1	 1.094630957387542e+00	 1.193749928650801e+00	-2.485111434522698e+00
1	 1.068135698090974e+00	 1.216741339687926e+00	-2.726204245597510e+00
1	 1.040987357506080e+00	 1.238992519019515e+00	-2.975401544260550e+00
1	 1.013204363955689e+00	 1.260493223298199e+00	-3.231841833735493e+00
1	 1.272057500629041e+00	 1.022499912746946e+00	-1.068348157353284e+00
1	 1.250359540147344e+00	 1.050537798776298e+00	-1.230826962908406e+00
1	 1.227904219449511e+00	 1.077935209275797e+00	-1.405700090651475e+00
1	 1.204701875859538e+00	 1.104673546853691e+00	-1.592569286261819e+00
1	 1.180764136830705e+00	 1.130735259195432e+00	-1.790964863296496e+00
1	 1.156103891891588e+00	 1.156103891891588e+00	-2.000348177197981e+00
1	 1.130735259195432e+00	 1.180764136830706e+00	-2.220114874024159e+00
1	 1.104673546853691e+00	 1.204701875859538e+00	-2.449598872804684e+00
1	 1.077935209275797e+00	 1.227904219449511e+00	-2.688077026539240e+00
1	 1.050537798776297e+00	 1.250359540147344e+00	-2.934774394201672e+00
1	 1.022499912746946e+00	 1.272057500629041e+00	-3.188870045062307e+00
1	 9.295446851010828e-01	 1.156415051097081e+00	-3.707413521395772e+00
1	 9.034912739280351e-01	 1.175443739074679e+00	-3.995861515916047e+00
1	 8.768920792936006e-01	 1.193768700623031e+00	-4.293643731938688e+00
1	 8.497665476991274e-01	 1.211384141277095e+00	-4.598815633755850e+00
1	 8.221348496568712e-01	 1.228285490601410e+00	-4.909342930388884e+00
1	 7.940178164717289e-01	 1.244469402142706e+00	-5.223118964812070e+00
1	 7.654368751281195e-01	 1.259933748325849e+00	-5.537982492033643e+00
1	 7.364139816884138e-01	 1.274677610405123e+00	-5.851735580978370e+00
1	 7.069715536127235e-01	 1.288701263618529e+00	-6.162161383223555e+00
1	 6.771324014091542e-01	 1.302006157726207e+00	-6.467041525100615e+00
1	 6.469196600189466e-01	 1.314594893144823e+00	-6.764172897823712e+00
1	 9.388402338930860e-01	 1.167979328430909e+00	-3.646505676992912e+00
1	 9.125262857509882e-01	 1.187198305375145e+00	-3.931993400193813e+00
1	 8.856610962530621e-01	 1.205706518548624e+00	-4.226919043743202e+00
1	 8.582643063677960e-01	 1.223498115541023e+00	-4.529376867061639e+00
1	 8.303562883147731e-01	 1.240568480212031e+00	-4.837370300771207e+00
1	 8.019580817142199e-01	 1.256914232643485e+00	-5.148829098648586e+00
1	 7.730913278227416e-01	 1.272533223984267e+00	-5.461626898900189e+00
1	 7.437782022657355e-01	 1.287424526301110e+00	-5.773598931851785e+00
1	 7.140413466803662e-01	 1.301588417584430e+00	-6.082559618768905e+00
1	 6.839037996823167e-01	 1.315026362092133e+00	-6.386319819488359e+00
1	 6.533889275647721e-01	 1.327740986245340e+00	-6.682703504195281e+00
1	 9.481357653336442e-01	 1.179543584178313e+00	-3.587650301475104e+00
1	 9.215612807088770e-01	 1.198952849734028e+00	-3.870294425918228e+00
1	 8.944300968440325e-01	 1.217644314190618e+00	-4.162462032545448e+00
1	 8.667620491743738e-01	 1.235612067192585e+00	-4.462286283489895e+00
1	 8.385777116264349e-01	 1.252851446894847e+00	-4.767808639067868e+00
1	 8.098983321353757e-01	 1.269359039914404e+00	-5.076995764059013e+00
1	 7.807457662295895e-01	 1.285132676124198e+00	-5.387756861827136e+00
1	 7.511424090970859e-01	 1.300171418403419e+00	-5.697961175751253e+00
1	 7.211111265516633e-01	 1.314475547494891e+00	-6.005455404596580e+00
1	 6.906751853161528e-01	 1.328046542154255e+00	-6.308080790936916e+00
1	 6.598581830352498e-01	 1.340887054807035e+00	-6.603689658910206e+00
1	 9.574312837605973e-01	 1.191107823735815e+00	-3.530831146709741e+00
1	 9.305962630179522e-01	 1.210707377636642e+00	-3.810737004183680e+00
1	 9.031990851586242e-01	 1.229582093119834e+00	-4.100234496363320e+00
1	 8.752597800843774e-01	 1.247726001884798e+00	-4.397495780781600e+00
1	 8.467991234284110e-01	 1.265134396381741e+00	-4.700600636850094e+00
1	 8.178385714405275e-01	 1.281803829762870e+00	-5.007553118255142e+00
1	 7.884001939206055e-01	 1.297732110625213e+00	-5.316298649799379e+00
1	 7.585066056189579e-01	 1.312918292660427e+00	-5.624741310758403e+00
1	 7.281808965257009e-01	 1.327362659363738e+00	-5.930761053539888e+00
1	 6.974465614704943e-01	 1.341066703988496e+00	-6.232230618449405e+00
1	 6.663274294492167e-01	 1.354033104964595e+00	-6.527031922056419e+00
1	 9.667267935117863e-01	 1.202672052499939e+00	-3.476032587731102e+00
1	 9.396312368944647e-01	 1.222461894568301e+00	-3.753294605735452e+00
1	 9.119680652889495e-01	 1.241519860907096e+00	-4.040199701390581e+00
1	 8.837575030633220e-01	 1.259839925270682e+00	-4.334959105990046e+00
1	 8.550205275572574e-01	 1.277417334404598e+00	-4.635691189464960e+00
1	 8.257788033350074e-01	 1.294248607996289e+00	-4.940437850869577e+00
1	 7.960546144677318e-01	 1.310331533366881e+00	-5.247181368033027e+00
1	 7.658707952678434e-01	 1.325665155020511e+00	-5.553861451265425e+00
1	 7.352506599015661e-01	 1.340249759204795e+00	-5.858392252305561e+00
1	 7.042179313051726e-01	 1.354086853670782e+00	-6.158679091260278e+00
1	 6.727966698255098e-01	 1.367179142852703e+00	-6.452634680505836e+00
1	 9.760222989250517e-01	 1.214236275867209e+00	-3.423239592718843e+00
1	 9.486662065546658e-01	 1.234216406014319e+00	-3.697941710163156e+00
1	 9.207370413271203e-01	 1.253457623123224e+00	-3.982322311739116e+00
1	 8.922552220767228e-01	 1.271953843003255e+00	-4.274631767078379e+00
1	 8.632419278495306e-01	 1.289700266695305e+00	-4.573027290760864e+00
1	 8.337190315241457e-01	 1.306693380422067e+00	-4.875589063040972e+00
1	 8.037090314429112e-01	 1.322930950228776e+00	-5.180336822604735e+00
1	 7.732349814802350e-01	 1.338412011432048e+00	-5.485246679281065e+00
1	 7.423204199783441e-01	 1.353136853031890e+00	-5.788267900529650e+00
1	 7.109892979800190e-01	 1.367106997277037e+00	-6.087339436652922e+00
1	 6.792659071829658e-01	 1.380325174606045e+00	-6.380405965438035e+00
1	 9.853178043382338e-01	 1.225800499234146e+00	-3.372437694677137e+00
1	 9.577011762148071e-01	 1.245970917460012e+00	-3.644653757972359e+00
1	 9.295060173652488e-01	 1.265395385339038e+00	-3.926568323161346e+00
1	 9.007529410900951e-01	 1.284067760735536e+00	-4.216470949525466e+00
1	 8.714633281417857e-01	 1.301983198985745e+00	-4.512557933777219e+00
1	 8.416592597132739e-01	 1.319138152847608e+00	-4.812948153349170e+00
1	 8.113634484180847e-01	 1.335530367090467e+00	-5.115699392750245e+00
1	 7.805991676926241e-01	 1.351158867843414e+00	-5.418824904160161e+00
1	 7.493901800551211e-01	 1.366023946858846e+00	-5.720309958951427e+00
1	 7.177606646548652e-01	 1.380127140883184e+00	-6.018128157531829e+00
1	 6.857351445404221e-01	 1.393471206359307e+00	-6.310257280201690e+00
1	 9.946133140891735e-01	 1.237364727997274e+00	-3.323612964703354e+00
1	 9.667361500911388e-01	 1.257725434390691e+00	-3.593407105346120e+00
1	 9.382749974954470e-01	 1.277333153125361e+00	-3.872905000492295e+00
1	 9.092506640689543e-01	 1.296181684120542e+00	-4.160435437611966e+00
1	 8.796847322705793e-01	 1.314266137007804e+00	-4.454234017007568e+00
1	 8.495994916077225e-01	 1.331582931080320e+00	-4.752458710152161e+00
1	 8.190178689651954e-01	 1.348129789831525e+00	-5.053205910329917e+00
1	 7.879633573415030e-01	 1.363905730202985e+00	-5.354526730205458e+00
1	 7.564599434309841e-01	 1.378911046699490e+00	-5.654443306108107e+00
1	 7.245320344895431e-01	 1.393147290565148e+00	-5.950964879110414e+00
1	 6.922043849167152e-01	 1.406617244247173e+00	-6.242103437836492e+00
1	 1.003908832515712e+00	 1.248928967553118e+00	-3.276751986742982e+00
1	 9.757711323999120e-01	 1.269479962291672e+00	-3.544178981421841e+00
1	 9.470439858098268e-01	 1.289270932053014e+00	-3.821300818570066e+00
1	 9.177483949788166e-01	 1.308295618811296e+00	-4.106485540083072e+00
1	 8.879061440724666e-01	 1.326549086493368e+00	-4.398008255874576e+00
1	 8.575397309128235e-01	 1.344027720927606e+00	-4.694066409909131e+00
1	 8.266722966561850e-01	 1.360729224331522e+00	-4.992795545995922e+00
1	 7.953275538633642e-01	 1.376652604459141e+00	-5.292285331631263e+00
1	 7.635297134050186e-01	 1.391798158567647e+00	-5.590595602997475e+00
1	 7.313034106438838e-01	 1.406167452398852e+00	-5.885772204123500e+00
1	 6.986736313306823e-01	 1.419763294404329e+00	-6.175862407629617e+00
1	 1.013204363955689e+00	 1.260493223298199e+00	-3.231841833735493e+00
1	 9.848061273573779e-01	 1.281234506648269e+00	-3.496947447921935e+00
1	 9.558129864005016e-01	 1.301208727692819e+00	-3.771725406411127e+00
1	 9.262461377851967e-01	 1.320409570460812e+00	-4.054583019906754e+00
1	 8.961275673840033e-01	 1.338832053174322e+00	-4.343835099082248e+00
1	 8.654799813339078e-01	 1.356472528196874e+00	-4.637718921105192e+00
1	 8.343267350629964e-01	 1.373328676470027e+00	-4.934409701630956e+00
1	 8.026917606946993e-01	 1.389399496560258e+00	-5.232036334415202e+00
1	 7.705994932763115e-01	 1.404685288477143e+00	-5.528697165196689e+00
1	 7.380747962777198e-01	 1.419187632460222e+00	-5.822475576016304e+00
1	 7.051428868011599e-01	 1.432909362965459e+00	-6.111455170125316e+00
1	 1.022499912746946e+00	 1.272057500629041e+00	-3.188870045062307e+00
1	 9.938411391797880e-01	 1.292989072945795e+00	-3.451691360988178e+00
1	 9.645820033595817e-01	 1.313146545615596e+00	-3.724149494433023e+00
1	 9.347438964536103e-01	 1.332523544722111e+00	-4.004691027866304e+00
1	 9.043490060417456e-01	 1.351115042782550e+00	-4.291670649534256e+00
1	 8.734202465763062e-01	 1.368917358695529e+00	-4.583365813420858e+00
1	 8.419811877575710e-01	 1.385928152126612e+00	-4.877991908658698e+00
1	 8.100559812720007e-01	 1.402146412454711e+00	-5.173717704600183e+00
1	 7.776692863439484e-01	 1.417572442441804e+00	-5.468680841962000e+00
1	 7.448461945508813e-01	 1.432207836825180e+00	-5.761003149601828e+00
1	 7.116121543469851e-01	 1.446055456065250e+00	-6.048805580049674e+00
1	 6.469196600189466e-01	 1.314594893144823e+00	-6.764172897823710e+00
1	 6.163588700289421e-01	 1.326470387793212e+00	-7.053847696427889e+00
1	 5.854714964905722e-01	 1.337638367399996e+00	-7.336829232288973e+00
1	 5.542812261358540e-01	 1.348104707563986e+00	-7.611617574374288e+00
1	 5.228118009030747e-01	 1.357876299731294e+00	-7.876768037171375e+00
1	 4.910869536853514e-01	 1.366961009346076e+00	-8.130898129713165e+00
1	 4.591303459451811e-01	 1.375367631339310e+00	-8.372693552171928e+00
1	 4.269655074752550e-01	 1.383105843291213e+00	-8.600913228389439e+00
1	 3.946157785590299e-01	 1.390186156606576e+00	-8.814393378722308e+00
1	 3.621042547566256e-01	 1.396619866042657e+00	-9.012050652072711e+00
1	 3.294537345129284e-01	 1.402418997926461e+00	-9.192884348756413e+00
1	 6.533889275647721e-01	 1.327740986245340e+00	-6.682703504195282e+00
1	 6.225225263232393e-01	 1.339735237142397e+00	-6.972053126507279e+00
1	 5.913262756620284e-01	 1.351014897769846e+00	-7.255132884372669e+00
1	 5.598240991830853e-01	 1.361585902483125e+00	-7.530391297419794e+00
1	 5.280399762466951e-01	 1.371455211643566e+00	-7.796328648889218e+00
1	 4.959978770775202e-01	 1.380630769350628e+00	-8.051504600582799e+00
1	 4.637216997552890e-01	 1.389121458485566e+00	-8.294544844248254e+00
1	 4.312352093732100e-01	 1.396937053405456e+00	-8.524146769570931e+00
1	 3.985619796201450e-01	 1.404088170630291e+00	-8.739084145940666e+00
1	 3.657253370143581e-01	 1.410586217866145e+00	-8.938210830698800e+00
1	 3.327483079876942e-01	 1.416443341704605e+00	-9.120463530418833e+00
1	 6.598581830352498e-01	 1.340887054807035e+00	-6.603689658910206e+00
1	 6.286861711126497e-01	 1.353000061731036e+00	-6.892668227821120e+00
1	 5.971810439051409e-01	 1.364391403170606e+00	-7.175776450702693e+00
1	 5.653669618841588e-01	 1.375067072237715e+00	-7.451414803684130e+00
1	 5.332681418315468e-01	 1.385034098208786e+00	-7.718032148604358e+00
1	 5.009087913030716e-01	 1.394300503838440e+00	-7.974133982390977e+00
1	 4.683130449952527e-01	 1.402875259958044e+00	-8.218289712847632e+00
1	 4.355049033013806e-01	 1.410768237701365e+00	-8.449138933147042e+00
1	 4.025081733152879e-01	 1.417990158703402e+00	-8.665396685262566e+00
1	 3.693464125129542e-01	 1.424552543618833e+00	-8.865857719099466e+00
1	 3.360428753127599e-01	 1.430467659303615e+00	-9.049399768960020e+00
1	 6.663274294492167e-01	 1.354033104964595e+00	-6.527031922056418e+00
1	 6.348498072733945e-01	 1.366264867749247e+00	-6.815588701000432e+00
1	 6.030358039519952e-01	 1.377767889844539e+00	-7.098651735902604e+00
1	 5.709098168256141e-01	 1.388548223118886e+00	-7.374576865400158e+00
1	 5.384963000973219e-01	 1.398612965763712e+00	-7.641765037731886e+00
1	 5.058196986536593e-01	 1.407970219188693e+00	-7.898671163799821e+00
1	 4.729043838076082e-01	 1.416629042175190e+00	-8.143811987687082e+00
1	 4.397745912522127e-01	 1.424599402633524e+00	-8.375772939371011e+00
1	 4.064543614859514e-01	 1.431892127313559e+00	-8.593213953197067e+00
1	 3.729674829421980e-01	 1.438518849818423e+00	-8.794874253152980e+00
1	 3.393374380255505e-01	 1.444491957268275e+00	-8.979576121825497e+00
1	 6.727966698255098e-01	 1.367179142852703e+00	-6.452634680505837e+00
1	 6.410134376816959e-01	 1.379529661387156e+00	-6.740714260796774e+00
1	 6.088905585346771e-01	 1.391144364033907e+00	-7.023654708987947e+00
1	 5.764526665939905e-01	 1.402029361417770e+00	-7.299770536237598e+00
1	 5.437244534837128e-01	 1.412191820645104e+00	-7.567418186865774e+00
1	 5.107306014209383e-01	 1.421639921780570e+00	-7.825005465069506e+00
1	 4.774957183348917e-01	 1.430382811555445e+00	-8.070999971186675e+00
1	 4.440442752181524e-01	 1.438430554656515e+00	-8.303936505000781e+00
1	 4.104005459736288e-01	 1.445794082948413e+00	-8.522423413247257e+00
1	 3.765885499918736e-01	 1.452485142982614e+00	-8.725147876853045e+00
1	 3.426319976634912e-01	 1.458516242143368e+00	-8.910880150210527e+00
1	 6.792659071829658e-01	 1.380325174606045e+00	-6.380405965438034e+00
1	 6.471770652137750e-01	 1.392794448834883e+00	-6.667948444704576e+00
1	 6.147453103852734e-01	 1.404520831980973e+00	-6.950685304854067e+00
1	 5.819955137758277e-01	 1.415510493425495e+00	-7.226892947239813e+00
1	 5.489526044304115e-01	 1.425770669189720e+00	-7.494886627560996e+00
1	 5.156415018965628e-01	 1.435309617993255e+00	-7.753030426891844e+00
1	 4.820870507196393e-01	 1.444136574517252e+00	-7.999746225369672e+00
1	 4.483139571916460e-01	 1.452261700224921e+00	-8.233521629090726e+00
1	 4.143467286198130e-01	 1.459696032095616e+00	-8.452916821225832e+00
1	 3.802096153517648e-01	 1.466451429629105e+00	-8.656570327594194e+00
1	 3.459265557640069e-01	 1.472540520473678e+00	-8.843203704575560e+00
1	 6.857351445404221e-01	 1.393471206359307e+00	-6.310257280201690e+00
1	 6.533406927458544e-01	 1.406059236282552e+00	-6.597198432425559e+00
1	 6.206000622358696e-01	 1.417897299927996e+00	-6.879647237010137e+00
1	 5.875383609576650e-01	 1.428991625433194e+00	-7.155845114321250e+00
1	 5.541807553771099e-01	 1.439349517734319e+00	-7.424069355911464e+00
1	 5.205524023721871e-01	 1.448979314205930e+00	-7.682643611187014e+00
1	 4.866783831043868e-01	 1.457890337479054e+00	-7.929947370836119e+00
1	 4.525836391651395e-01	 1.466092845793325e+00	-8.164424390918123e+00
1	 4.182929112659973e-01	 1.473597981242819e+00	-8.384590022733358e+00
1	 3.838306807116564e-01	 1.480417716275596e+00	-8.589037433621376e+00
1	 3.492211138645225e-01	 1.486564798803988e+00	-8.776442722312556e+00
1	 6.922043849167152e-01	 1.406617244247173e+00	-6.242103437836492e+00
1	 6.595043231541556e-01	 1.419324029920284e+00	-6.528374875465451e+00
1	 6.264548168185518e-01	 1.431273774117241e+00	-6.810447820822913e+00
1	 5.930812107260417e-01	 1.442472763731995e+00	-7.086531756568508e+00
1	 5.594089087635007e-01	 1.452928372615660e+00	-7.354869147151457e+00
1	 5.254633051394662e-01	 1.462649016797779e+00	-7.613746413080067e+00
1	 4.912697176316702e-01	 1.471644106859294e+00	-7.861503897017586e+00
1	 4.568533231310793e-01	 1.479923997816310e+00	-8.096544759250898e+00
1	 4.222390957536747e-01	 1.487499936877671e+00	-8.317342762002028e+00
1	 3.874517477613319e-01	 1.494384009439787e+00	-8.522448922846786e+00
1	 3.525156735024633e-01	 1.500589083679082e+00	-8.710497036766670e+00
1	 6.986736313306823e-01	 1.419763294404329e+00	-6.175862407629617e+00
1	 6.656679593149004e-01	 1.432588835938203e+00	-6.461391736204858e+00
1	 6.323095768654061e-01	 1.444650260790970e+00	-6.742997806588445e+00
1	 5.986240656674968e-01	 1.455953914613030e+00	-7.018861124643941e+00
1	 5.646370670292757e-01	 1.466507240170500e+00	-7.287192380566091e+00
1	 5.303742124900538e-01	 1.476318732147982e+00	-7.546243883331506e+00
1	 4.958610564440256e-01	 1.485397889076415e+00	-7.794319982982778e+00
1	 4.611230110819116e-01	 1.493755162748458e+00	-8.029786412220021e+00
1	 4.261852839243382e-01	 1.501401905487825e+00	-8.251078501368319e+00
1	 3.910728181905756e-01	 1.508350315639376e+00	-8.456708242297095e+00
1	 3.558102362152539e-01	 1.514613381643741e+00	-8.645270196876766e+00
1	 7.051428868011599e-01	 1.432909362965459e+00	-6.111455170125318e+00
1	 6.718316041043106e-01	 1.445853660526430e+00	-6.396166135836644e+00
1	 6.381643451085180e-01	 1.458026766191443e+00	-6.677211221800301e+00
1	 6.041669283685706e-01	 1.469435084367429e+00	-6.952744838643346e+00
1	 5.698652326141274e-01	 1.480086126735601e+00	-7.220948874046940e+00
1	 5.352851267156051e-01	 1.489988466635725e+00	-7.480044560550998e+00
1	 5.004524016839894e-01	 1.499151690548859e+00	-7.728303328114788e+00
1	 4.653927050100819e-01	 1.507586347044352e+00	-7.964056567115847e+00
1	 4.301314776194810e-01	 1.515303893560932e+00	-8.185704250691405e+00
1	 3.946938936891718e-01	 1.522316641392064e+00	-8.391722387507562e+00
1	 3.591048035403197e-01	 1.528637699242752e+00	-8.580669296752150e+00
1	 7.116121543469851e-01	 1.446055456065250e+00	-6.048805580049675e+00
1	 6.779952603986081e-01	 1.459118509875090e+00	-6.332618210603971e+00
1	 6.440191242799743e-01	 1.471403296560924e+00	-6.613005222028280e+00
1	 6.097098014158014e-01	 1.482916279286323e+00	-6.888097734804543e+00
1	 5.750934079577478e-01	 1.493665038647719e+00	-7.156051727679928e+00
1	 5.401960501077742e-01	 1.503658226640188e+00	-7.415060312570081e+00
1	 5.050437554940973e-01	 1.512905517695068e+00	-7.663364992032058e+00
1	 4.696624069080371e-01	 1.521417557158576e+00	-7.899265819475397e+00
1	 4.340776786805963e-01	 1.529205907584642e+00	-8.121130406082990e+00
1	 3.983149759469042e-01	 1.536282993215550e+00	-8.327401741229401e+00
1	 3.623993770150853e-01	 1.542662043020896e+00	-8.516604814552696e+00
1	 3.294537345129284e-01	 1.402418997926461e+00	-9.192884348756413e+00
1	 2.966843784393872e-01	 1.407596598364675e+00	-9.356430515630439e+00
1	 2.638205609134598e-01	 1.412165572756028e+00	-9.502823636119004e+00
1	 2.308839434239252e-01	 1.416139826431092e+00	-9.632128607223441e+00
1	 1.978957096443058e-01	 1.419533782748832e+00	-9.744495510160457e+00
1	 1.648765290743220e-01	 1.422362329452364e+00	-9.840151215039530e+00
1	 1.318465240967305e-01	 1.424640765532204e+00	-9.919391044483318e+00
1	 9.882524045195897e-02	 1.426384748845694e+00	-9.982570586476605e+00
1	 6.583162110954265e-02	 1.427610244722075e+00	-1.003009773458831e+01
1	 3.288398349364309e-02	 1.428333475762771e+00	-1.006242502167976e+01
1	 0.000000000000000e+00	 1.428570873025926e+00	-1.008004230153238e+01
1	 3.327483079876942e-01	 1.416443341704605e+00	-9.120463530418832e+00
1	 2.996512547599297e-01	 1.421672718714860e+00	-9.285429505505387e+00
1	 2.664587954549430e-01	 1.426287383351045e+00	-9.433299173168221e+00
1	 2.331928081787427e-01	 1.430301379998563e+00	-9.564082668009320e+00
1	 1.998746884438768e-01	 1.433729276251555e+00	-9.677875643974984e+00
1	 1.665253124472977e-01	 1.436586108732203e+00	-9.774851248127092e+00
1	 1.331650037977657e-01	 1.438887329422610e+00	-9.855252116414132e+00
1	 9.981350369522612e-02	 1.440648752760408e+00	-9.919382481196989e+00
1	 6.648994454095852e-02	 1.441886503729888e+00	-9.967600468736087e+00
1	 3.321282693534693e-02	 1.442616967160266e+00	-1.000031065334376e+01
1	 0.000000000000000e+00	 1.442856738422074e+00	-1.001795692367473e+01
1	 3.360428753127599e-01	 1.430467659303615e+00	-9.049399768960020e+00
1	 3.026181255424344e-01	 1.435748812789194e+00	-9.215660510969656e+00
1	 2.690970250718209e-01	 1.440409167584866e+00	-9.364884229184172e+00
1	 2.355016686237529e-01	 1.444462907130611e+00	-9.497027922032988e+00
1	 2.018536635494072e-01	 1.447924743255469e+00	-9.612134426979548e+00
1	 1.681740927425821e-01	 1.450809861460411e+00	-9.710324753759568e+00
1	 1.344834810376643e-01	 1.453133866718838e+00	-9.791790403628077e+00
1	 1.008017650937519e-01	 1.454912730048382e+00	-9.856785763850406e+00
1	 6.714826674351385e-02	 1.456162736088079e+00	-9.905620655709255e+00
1	 3.354166976321423e-02	 1.456900431894637e+00	-9.938653103306681e+00
1	 0.000000000000000e+00	 1.457142577150667e+00	-9.956282379650256e+00
1	 3.393374380255505e-01	 1.444491957268275e+00	-8.979576121825499e+00
1	 3.055849921714104e-01	 1.449824887156639e+00	-9.147006943156564e+00
1	 2.717352509952450e-01	 1.454530932047792e+00	-9.297462926100746e+00
1	 2.378105258364076e-01	 1.458624414436090e+00	-9.430849512223599e+00
1	 2.038326358844074e-01	 1.462120190385275e+00	-9.547158286339508e+00
1	 1.698228707295977e-01	 1.465033594274894e+00	-9.646459659873239e+00
1	 1.358019564317105e-01	 1.467380384069432e+00	-9.728895505162534e+00
1	 1.017900251087216e-01	 1.469176687366300e+00	-9.794671829434625e+00
1	 6.780658802442376e-02	 1.470438948459054e+00	-9.844051566792128e+00
1	 3.387051213070415e-02	 1.471183876631666e+00	-9.877347556050575e+00
1	 0.000000000000000e+00	 1.471428395878593e+00	-9.894915761907949e+00
1	 3.426319976634912e-01	 1.458516242143368e+00	-8.910880150210527e+00
1	 3.085518560313680e-01	 1.463900948386158e+00	-9.079356703635135e+00
1	 2.743734744563665e-01	 1.468652683330121e+00	-9.230923849217040e+00
1	 2.401193808941584e-01	 1.472785908523857e+00	-9.365437005854197e+00
1	 2.058116063723871e-01	 1.476315624265677e+00	-9.482838024400536e+00
1	 1.714716471777676e-01	 1.479257313813562e+00	-9.583148212076088e+00
1	 1.371204305951884e-01	 1.481626888122938e+00	-9.666461273652279e+00
1	 1.027782842013206e-01	 1.483440631370847e+00	-9.732936257654844e+00
1	 6.846490869090337e-02	 1.484715147505218e+00	-9.782790585985639e+00
1	 3.419935419127582e-02	 1.485467308037133e+00	-9.816293235353639e+00
1	 0.000000000000000e+00	 1.485714201272741e+00	-9.833758128964897e+00
1	 3.459265557640069e-01	 1.472540520473678e+00	-8.843203704575561e+00
1	 3.115187185068158e-01	 1.477977003046713e+00	-9.012601970580521e+00
1	 2.770116966863367e-01	 1.482774428022150e+00	-9.165159834676370e+00
1	 2.424282348744576e-01	 1.486947396002769e+00	-9.300684183897678e+00
1	 2.077905759368567e-01	 1.490511051521376e+00	-9.419068610402494e+00
1	 1.731204228565147e-01	 1.493481026714322e+00	-9.520286768116392e+00
1	 1.384389041433821e-01	 1.495873385527899e+00	-9.604385612863528e+00
1	 1.037665428327341e-01	 1.497704568718708e+00	-9.671478613751429e+00
1	 6.912322905016788e-02	 1.498991339888976e+00	-9.721739014274322e+00
1	 3.452819609838832e-02	 1.499750732776819e+00	-9.755393212062732e+00
1	 0.000000000000000e+00	 1.500000000000000e+00	-9.772714316673607e+00
1	 3.492211138645225e-01	 1.486564798803988e+00	-8.776442722312556e+00
1	 3.144855809822637e-01	 1.492053057707269e+00	-8.946638997057949e+00
1	 2.796499189163069e-01	 1.496896172714180e+00	-9.100067768984953e+00
1	 2.447370888547568e-01	 1.501108883481681e+00	-9.236488842315991e+00
1	 2.097695455013264e-01	 1.504706478777075e+00	-9.355748983993843e+00
1	 1.747691985352618e-01	 1.507704739615082e+00	-9.457775603995124e+00
1	 1.397573776915759e-01	 1.510119882932860e+00	-9.542570286698325e+00
1	 1.047548014641477e-01	 1.511968506066570e+00	-9.610202260610741e+00
1	 6.978154940943238e-02	 1.513267532272735e+00	-9.660801884981845e+00
1	 3.485703800550086e-02	 1.514034157516504e+00	-9.694554222756080e+00
1	 0.000000000000000e+00	 1.514285798727260e+00	-9.711692760181371e+00
1	 3.525156735024633e-01	 1.500589083679082e+00	-8.710497036766672e+00
1	 3.174524448422210e-01	 1.506129118936787e+00	-8.881367920627712e+00
1	 2.822881423774284e-01	 1.511017923996508e+00	-9.035548399782281e+00
1	 2.470459439125078e-01	 1.515270377569448e+00	-9.172752604501403e+00
1	 2.117485159893061e-01	 1.518901912657477e+00	-9.292781869772629e+00
1	 1.764179749834317e-01	 1.521928459153749e+00	-9.395518730959671e+00
1	 1.410758518550538e-01	 1.524366386986366e+00	-9.480920738917870e+00
1	 1.057430605567467e-01	 1.526232450071117e+00	-9.549014181421017e+00
1	 7.043987007591201e-02	 1.527543731318899e+00	-9.599887789489081e+00
1	 3.518588006607250e-02	 1.528317588921971e+00	-9.633686498582952e+00
1	 0.000000000000000e+00	 1.528571604121408e+00	-9.650605325881681e+00
1	 3.558102362152539e-01	 1.514613381643741e+00	-8.645270196876766e+00
1	 3.204193114711973e-01	 1.520205193304232e+00	-8.816692583536124e+00
1	 2.849263683008524e-01	 1.525139688459433e+00	-8.971506157132886e+00
1	 2.493548011251625e-01	 1.529431884874928e+00	-9.109380744146311e+00
1	 2.137274883243062e-01	 1.533097359787283e+00	-9.230073602139591e+00
1	 1.780667529704474e-01	 1.536152191968234e+00	-9.333423722673080e+00
1	 1.423943272491001e-01	 1.538612904336961e+00	-9.419345922889534e+00
1	 1.067313205717163e-01	 1.540496407389035e+00	-9.487824812188723e+00
1	 7.109819135682192e-02	 1.541819943689873e+00	-9.538908712642753e+00
1	 3.551472243356241e-02	 1.542601033659000e+00	-9.572703603619992e+00
1	 0.000000000000000e+00	 1.542857422849333e+00	-9.589367152709452e+00
1	 3.591048035403197e-01	 1.528637699242752e+00	-8.580669296752150e+00
1	 3.233861822537019e-01	 1.534281287378566e+00	-8.752520362812714e+00
1	 2.875645979177304e-01	 1.539261472693255e+00	-8.907848984663257e+00
1	 2.516636615701727e-01	 1.543593412006975e+00	-9.046282017871658e+00
1	 2.157064634298367e-01	 1.547292826791197e+00	-9.167533959800352e+00
1	 1.797155332657316e-01	 1.550375944696441e+00	-9.271401551904786e+00
1	 1.437128044889987e-01	 1.552859441633188e+00	-9.357758140713571e+00
1	 1.077195819702421e-01	 1.554760384677008e+00	-9.426547883481911e+00
1	 7.175651355937723e-02	 1.556096176048064e+00	-9.477779877231537e+00
1	 3.584356526142972e-02	 1.556884498393372e+00	-9.511522282133132e+00
1	 0.000000000000000e+00	 1.557143261577926e+00	-9.527896502179370e+00
1	 3.623993770150853e-01	 1.542662043020896e+00	-8.516604814552696e+00
1	 3.263530585742443e-01	 1.548357407728751e+00	-8.688762009642385e+00
1	 2.902028324592135e-01	 1.553383283288272e+00	-8.844488179917267e+00
1	 2.539725263249901e-01	 1.557754965574446e+00	-8.983368506991761e+00
1	 2.176854422294076e-01	 1.561488320293919e+00	-9.105076009302044e+00
1	 1.813643166387074e-01	 1.564599723976281e+00	-9.209366436136417e+00
1	 1.450312841900338e-01	 1.567106005523594e+00	-9.296072891131439e+00
1	 1.087078452135093e-01	 1.569024388591723e+00	-9.365100270812681e+00
1	 7.241483699079308e-02	 1.570372435055877e+00	-9.416419596952194e+00
1	 3.617240870313355e-02	 1.571167989790866e+00	-9.450062314176918e+00
1	 0.000000000000000e+00	 1.571429126974074e+00	-9.466114616610840e+00
1	 1.571429126974074e+00	 0.000000000000000e+00	 8.345417331324795e-01
1	 1.571167989790867e+00	 3.617240870313405e-02	 8.284832363570753e-01
1	 1.570372435055877e+00	 7.241483699079355e-02	 8.204830399806760e-01
1	 1.569024388591724e+00	 1.087078452135097e-01	 8.101396291374077e-01
1	 1.567106005523594e+00	 1.450312841900342e-01	 7.970515443320778e-01
1	 1.564599723976281e+00	 1.813643166387076e-01	 7.808207173923619e-01
1	 1.561488320293920e+00	 2.176854422294079e-01	 7.610561176575021e-01
1	 1.557754965574446e+00	 2.539725263249902e-01	 7.373776963941936e-01
1	 1.553383283288272e+00	 2.902028324592137e-01	 7.094206111188464e-01
1	 1.548357407728751e+00	 3.263530585742443e-01	 6.768397046770233e-01
1	 1.542662043020896e+00	 3.623993770150854e-01	 6.393142066743929e-01
1	 1.585715024037928e+00	 0.000000000000000e+00	 7.959806539945558e-01
1	 1.585451512850806e+00	 3.650125287376479e-02	 7.900512741638558e-01
1	 1.584648725710099e+00	 7.307316188147503e-02	 7.823305219075589e-01
1	 1.583288424125677e+00	 1.096961106474002e-01	 7.724353810390154e-01
1	 1.581352600994570e+00	 1.463497668136621e-01	 7.599827527936697e-01
1	 1.578823534786167e+00	 1.830131036664365e-01	 7.445926812431799e-01
1	 1.575683845263964e+00	 2.196644254156486e-01	 7.258918801834533e-01
1	 1.571916550533969e+00	 2.562813961977032e-01	 7.035175499375292e-01
1	 1.567505125187193e+00	 2.928410728486677e-01	 6.771214663836198e-01
1	 1.562433559281498e+00	 3.293199414712119e-01	 6.463743178838506e-01
1	 1.556686417886749e+00	 3.656939577926278e-01	 6.109702587369411e-01
1	 1.600000951102682e+00	 0.000000000000000e+00	 7.609781890244143e-01
1	 1.599735065906658e+00	 3.683009773493779e-02	 7.551712719349797e-01
1	 1.598925046345046e+00	 7.373148815458680e-02	 7.477086942330055e-01
1	 1.597552489614615e+00	 1.106843781565817e-01	 7.382259119245675e-01
1	 1.595599226383898e+00	 1.476682522060276e-01	 7.263583890503860e-01
1	 1.593047375466544e+00	 1.846618941565351e-01	 7.117447356305958e-01
1	 1.589879400045076e+00	 2.216434127576645e-01	 6.940301380220915e-01
1	 1.586078165233253e+00	 2.585902709189449e-01	 6.728700702577837e-01
1	 1.581626996742376e+00	 2.954793187783158e-01	 6.479342689567064e-01
1	 1.576509740394501e+00	 3.322868305985031e-01	 6.189109479252970e-01
1	 1.570710822204060e+00	 3.689885454886305e-01	 5.855112216981098e-01
1	 1.614286904834791e+00	 0.000000000000000e+00	 7.293659339097586e-01
1	 1.614018645625435e+00	 3.715894320989962e-02	 7.236684087039482e-01
1	 1.613201393629416e+00	 7.438981565648350e-02	 7.164378090704357e-01
1	 1.611816581730097e+00	 1.116726475104183e-01	 7.073280560473363e-01
1	 1.609845878367207e+00	 1.489867400594473e-01	 6.959933936976200e-01
1	 1.607271242698359e+00	 1.863106877242590e-01	 6.820914621599676e-01
1	 1.604074981324810e+00	 2.236224037936801e-01	 6.652866537461990e-01
1	 1.600239806367783e+00	 2.608991499499849e-01	 6.452537404660099e-01
1	 1.595748894658584e+00	 2.981175696325953e-01	 6.216817554999323e-01
1	 1.590585947783202e+00	 3.352537252638942e-01	 5.942781048117995e-01
1	 1.584735252700366e+00	 3.722831393344285e-01	 5.627728783771474e-01
1	 1.628572881900711e+00	 0.000000000000000e+00	 7.009813912532381e-01
1	 1.628302248674145e+00	 3.748778922189691e-02	 6.953739956836278e-01
1	 1.627477764231905e+00	 7.504814423351969e-02	 6.883444236906243e-01
1	 1.626080697143679e+00	 1.126609184782742e-01	 6.795650728319724e-01
1	 1.624092553620127e+00	 1.503052300662380e-01	 6.687091990217257e-01
1	 1.621495133162564e+00	 1.879594839848635e-01	 6.554539467867300e-01
1	 1.618270585790724e+00	 2.256013980619200e-01	 6.394836528931590e-01
1	 1.614401470633040e+00	 2.632080327520929e-01	 6.204934112232134e-01
1	 1.609870815640586e+00	 3.007558247959439e-01	 5.981928810135593e-01
1	 1.604662178163042e+00	 3.382206247751619e-01	 5.723103143501503e-01
1	 1.598759706103210e+00	 3.755777385613570e-01	 5.425967722336023e-01
1	 1.642858878966899e+00	 0.000000000000000e+00	 6.756677137896050e-01
1	 1.642585871719799e+00	 3.781663569417622e-02	 6.701252096931324e-01
1	 1.641754154821212e+00	 7.570647373205003e-02	 6.632611264305751e-01
1	 1.640344832526921e+00	 1.136491908295135e-01	 6.547663675671695e-01
1	 1.638339248818290e+00	 1.516237219187165e-01	 6.443334468013768e-01
1	 1.635719043540108e+00	 1.896082825536043e-01	 6.316594970672714e-01
1	 1.632466210130369e+00	 2.275803951006085e-01	 6.164495430142559e-01
1	 1.628563154724508e+00	 2.655169187865385e-01	 5.984200239363553e-01
1	 1.623992756393148e+00	 3.033940836527993e-01	 5.773025485173181e-01
1	 1.618738428249461e+00	 3.411875284400820e-01	 5.528478566276377e-01
1	 1.612784179140129e+00	 3.788723424007510e-01	 5.248299569417016e-01
1	 1.657144892699808e+00	 0.000000000000000e+00	 6.532734608773485e-01
1	 1.656869511429405e+00	 3.814548254998415e-02	 6.477648403652340e-01
1	 1.656030562066033e+00	 7.636480399842913e-02	 6.410262767716262e-01
1	 1.654608984551380e+00	 1.146374643335004e-01	 6.327672265372273e-01
1	 1.652585960637322e+00	 1.529422153091996e-01	 6.226997206972875e-01
1	 1.649942970511941e+00	 1.912570830457367e-01	 6.105413740266323e-01
1	 1.646661851031305e+00	 2.295593944479705e-01	 5.960186472478095e-01
1	 1.642724855337668e+00	 2.678258075145912e-01	 5.788703482638426e-01
1	 1.638114713621036e+00	 3.060323455875986e-01	 5.588513527056175e-01
1	 1.632814694757902e+00	 3.441544355664312e-01	 5.357365180153446e-01
1	 1.626808668538664e+00	 3.821669500839458e-01	 5.093247589105906e-01
1	 1.671430919765895e+00	 0.000000000000000e+00	 6.336523674710108e-01
1	 1.671153164469973e+00	 3.847432971256731e-02	 6.281410503103549e-01
1	 1.670306982635067e+00	 7.702313487901155e-02	 6.214837587394826e-01
1	 1.668873149888615e+00	 1.156257387595990e-01	 6.134085657290943e-01
1	 1.666832685752855e+00	 1.542607099300041e-01	 6.036472923579370e-01
1	 1.664166910759013e+00	 1.929058850765161e-01	 5.919385377689669e-01
1	 1.660857505181086e+00	 2.315383956422302e-01	 5.780309515476802e-01
1	 1.656886569168004e+00	 2.701346983975205e-01	 5.616867330748160e-01
1	 1.652236684029017e+00	 3.086706099847796e-01	 5.426853367414159e-01
1	 1.646890974403806e+00	 3.471213454619858e-01	 5.208273558821770e-01
1	 1.640833171026356e+00	 3.854615608422766e-01	 4.959385519762589e-01
1	 1.685716956831615e+00	 0.000000000000000e+00	 6.166631248342511e-01
1	 1.685436827508512e+00	 3.880317710517230e-02	 6.111071474689012e-01
1	 1.684583413197011e+00	 7.768146622015194e-02	 6.044827468363827e-01
1	 1.683137325210183e+00	 1.166140138771735e-01	 5.965366923100155e-01
1	 1.681079420840518e+00	 1.555792054734467e-01	 5.870208804281047e-01
1	 1.678390860962274e+00	 1.945546882611981e-01	 5.756954060159780e-01
1	 1.675053169267265e+00	 2.335173982216121e-01	 5.623318647574873e-01
1	 1.671048292910997e+00	 2.724435908965961e-01	 5.467168700645857e-01
1	 1.666358664321857e+00	 3.113088762287799e-01	 5.286557614097012e-01
1	 1.660967263902613e+00	 3.500882574345220e-01	 5.079764752660365e-01
1	 1.654857683330742e+00	 3.887561739070783e-01	 4.845335435435395e-01
1	 1.700003000563425e+00	 0.000000000000000e+00	 6.021691723033487e-01
1	 1.699720497212033e+00	 3.913202465104567e-02	 5.965213689354052e-01
1	 1.698859850420562e+00	 7.833979786820486e-02	 5.898774837685765e-01
1	 1.697401507187642e+00	 1.176022894555880e-01	 5.820030781249801e-01
1	 1.695326162575941e+00	 1.568977016318442e-01	 5.726704217016116e-01
1	 1.692614817802672e+00	 1.962034922150380e-01	 5.616616248132531e-01
1	 1.689248839977401e+00	 2.354964017243409e-01	 5.487719907753899e-01
1	 1.685210023262131e+00	 2.747524844730876e-01	 5.338135692821436e-01
1	 1.680480651204323e+00	 3.139471437040368e-01	 5.166188859039740e-01
1	 1.675043559969767e+00	 3.530551707918165e-01	 4.970448167991492e-01
1	 1.668882202179363e+00	 3.920507885096862e-01	 4.749765715050122e-01
1	 1.714289047627778e+00	 0.000000000000000e+00	 5.900384994569439e-01
1	 1.714004170247544e+00	 3.946087227343405e-02	 5.842466755856364e-01
1	 1.713136290974417e+00	 7.899812966952499e-02	 5.775270692814346e-01
1	 1.711665692492551e+00	 1.185905652642067e-01	 5.696641445131709e-01
1	 1.709572907634753e+00	 1.582161980975134e-01	 5.604508537102915e-01
1	 1.706838777961159e+00	 1.978522965532914e-01	 5.496918506951334e-01
1	 1.703444513999047e+00	 2.374754056886410e-01	 5.372069121044629e-01
1	 1.699371756916888e+00	 2.770613785882647e-01	 5.228345458752559e-01
1	 1.694602641381181e+00	 3.165854117949879e-01	 5.064357595674975e-01
1	 1.689119859320706e+00	 3.560220848416451e-01	 4.878979552314205e-01
1	 1.682906724299760e+00	 3.953454038814352e-01	 4.671389113084721e-01
1	 1.542662043020896e+00	 3.623993770150854e-01	 6.393142066743926e-01
1	 1.536282993215550e+00	 3.983149759469040e-01	 5.974965322301914e-01
1	 1.529205907584642e+00	 4.340776786805960e-01	 5.523172680826556e-01
1	 1.521417557158576e+00	 4.696624069080367e-01	 5.038810233286166e-01
1	 1.512905517695068e+00	 5.050437554940970e-01	 4.522607194593177e-01
1	 1.503658226640188e+00	 5.401960501077737e-01	 3.974938949685869e-01
1	 1.493665038647719e+00	 5.750934079577475e-01	 3.395791530167920e-01
1	 1.482916279286322e+00	 6.097098014158012e-01	 2.784728174689823e-01
1	 1.471403296560924e+00	 6.440191242799742e-01	 2.140858650320103e-01
1	 1.459118509875090e+00	 6.779952603986078e-01	 1.462812023335314e-01
1	 1.446055456065250e+00	 7.116121543469853e-01	 7.487135643639270e-02
1	 1.556686417886749e+00	 3.656939577926278e-01	 6.109702587369412e-01
1	 1.550249375998099e+00	 4.019360662311212e-01	 5.714089243011340e-01
1	 1.543107952424686e+00	 4.380238884888155e-01	 5.284641946576543e-01
1	 1.535248797932060e+00	 4.739321182701246e-01	 4.822480902301897e-01
1	 1.526659375328873e+00	 5.096351194812659e-01	 4.328403775969313e-01
1	 1.517328016945761e+00	 5.451069843853168e-01	 3.802847719372578e-01
1	 1.507243980659426e+00	 5.803215948899214e-01	 3.245852813677979e-01
1	 1.496397504088063e+00	 6.152526867491098e-01	 2.657027599466086e-01
1	 1.484779856581116e+00	 6.498739164288541e-01	 2.035517386694365e-01
1	 1.472383388626781e+00	 6.841589303549737e-01	 1.379976050177058e-01
1	 1.459201578304726e+00	 7.180814362322998e-01	 6.885420135869802e-02
1	 1.570710822204060e+00	 3.689885454886305e-01	 5.855112216981099e-01
1	 1.564215788110238e+00	 4.055571641194287e-01	 5.480854634492398e-01
1	 1.557010026459114e+00	 4.419701065838270e-01	 5.072527361818675e-01
1	 1.549080067751132e+00	 4.782018385983015e-01	 4.631322998601737e-01
1	 1.540413261845648e+00	 5.142264931099342e-01	 4.158104984887920e-01
1	 1.530997835957645e+00	 5.500179289753961e-01	 3.653368526580673e-01
1	 1.520822951186545e+00	 5.855497928008031e-01	 3.117202934561553e-01
1	 1.509878757199894e+00	 6.207955837219393e-01	 2.549256061494625e-01
1	 1.498156444691492e+00	 6.557287208722125e-01	 1.948701547181789e-01
1	 1.485648295234026e+00	 6.903226132544257e-01	 1.314209596843071e-01
1	 1.472347728150277e+00	 7.245507317024646e-01	 6.439220149408924e-02
1	 1.584735252700366e+00	 3.722831393344285e-01	 5.627728783771474e-01
1	 1.578182226293059e+00	 4.091782687669958e-01	 5.273696791698819e-01
1	 1.570912126444055e+00	 4.459163320449563e-01	 4.885336323534127e-01
1	 1.562911363388469e+00	 4.824715668964256e-01	 4.463910624246588e-01
1	 1.554167174036154e+00	 5.188178753089214e-01	 4.010346221237264e-01
1	 1.544667680486245e+00	 5.549288827322758e-01	 3.525192675189388e-01
1	 1.534401947060710e+00	 5.907780004706400e-01	 3.008583745700966e-01
1	 1.523360035476277e+00	 6.263384910411125e-01	 2.460200673537754e-01
1	 1.511533057770965e+00	 6.615835362440975e-01	 1.879238309606604e-01
1	 1.498913226601820e+00	 6.964863076589417e-01	 1.264374835379134e-01
1	 1.485493902534635e+00	 7.310200392481445e-01	 6.137458185141664e-02
1	 1.598759706103210e+00	 3.755777385613570e-01	 5.425967722336021e-01
1	 1.592148687287654e+00	 4.127993793289919e-01	 5.091105898164467e-01
1	 1.584814249135637e+00	 4.498625639515296e-01	 4.721628587707212e-01
1	 1.576742681616749e+00	 4.867413021683550e-01	 4.318867900104253e-01
1	 1.567921108691154e+00	 5.234092650070474e-01	 3.883810753262492e-01
1	 1.558337547341971e+00	 5.598398445102201e-01	 3.417057376262086e-01
1	 1.547980965113555e+00	 5.960062166796786e-01	 2.918781233904419e-01
1	 1.536841335771679e+00	 6.318814074134527e-01	 2.388691094627401e-01
1	 1.524909692698449e+00	 6.674383611785578e-01	 1.825995992695739e-01
1	 1.512178179635163e+00	 7.026500121304985e-01	 1.229373851300602e-01
1	 1.498640098390529e+00	 7.374893573600056e-01	 5.969445329308989e-02
1	 1.612784179140129e+00	 3.788723424007510e-01	 5.248299569417016e-01
1	 1.606115167835117e+00	 4.164204949605868e-01	 4.931624639876749e-01
1	 1.598716391289989e+00	 4.538088013828732e-01	 4.580013993143079e-01
1	 1.590574019208646e+00	 4.910110434179482e-01	 4.194866791377362e-01
1	 1.581675062601407e+00	 5.280006611331310e-01	 3.777227636553306e-01
1	 1.572007433335227e+00	 5.647508131634927e-01	 3.327743752263953e-01
1	 1.561560002176714e+00	 6.012344402081660e-01	 2.846623601182872e-01
1	 1.550322654940563e+00	 6.374243315457835e-01	 2.333597680330679e-01
1	 1.538286346352859e+00	 6.732931943096417e-01	 1.787882267406529e-01
1	 1.525443151239054e+00	 7.088137252310736e-01	 1.208146908244294e-01
1	 1.511786312650691e+00	 7.439586845287128e-01	 5.924864358252162e-02
1	 1.626808668538664e+00	 3.821669500839458e-01	 5.093247589105905e-01
1	 1.620081664676538e+00	 4.200416148169498e-01	 4.793845942501334e-01
1	 1.612618549663240e+00	 4.577550434183133e-01	 4.459150302953188e-01
1	 1.604405372936839e+00	 4.952807896490632e-01	 4.090625045540998e-01
1	 1.595429032557675e+00	 5.325920626159918e-01	 3.689369740610238e-01
1	 1.585677335276421e+00	 5.696617875463581e-01	 3.256074944452246e-01
1	 1.575139055081823e+00	 6.064626698363499e-01	 2.790979445216120e-01
1	 1.563803989837394e+00	 6.429672621449282e-01	 2.293829728638327e-01
1	 1.551663015613107e+00	 6.791480342713972e-01	 1.763842460720400e-01
1	 1.538708138318490e+00	 7.149774455226444e-01	 1.199670802329955e-01
1	 1.524932542247848e+00	 7.504280192449314e-01	 5.993753716559000e-02
1	 1.640833171026356e+00	 3.854615608422766e-01	 4.959385519762589e-01
1	 1.634048174553012e+00	 4.236627380532504e-01	 4.676410824582580e-01
1	 1.626520721011518e+00	 4.617012891371760e-01	 4.357741156672780e-01
1	 1.618236739574002e+00	 4.995505398655581e-01	 4.004904235968719e-01
1	 1.609183015350721e+00	 5.371834683844493e-01	 3.619051876556532e-01
1	 1.599347249975960e+00	 5.745727665130803e-01	 3.200914317269855e-01
1	 1.588718120660515e+00	 6.116909043444767e-01	 2.750756033076368e-01
1	 1.577285337316637e+00	 6.485101979177099e-01	 2.268333815757664e-01
1	 1.565039697358108e+00	 6.850028796978732e-01	 1.752857946373446e-01
1	 1.551973137778469e+00	 7.211411715671885e-01	 1.202957300866546e-01
1	 1.538078784114736e+00	 7.568973599993275e-01	 6.166492316391516e-02
1	 1.654857683330742e+00	 3.887561739070783e-01	 4.845335435435396e-01
1	 1.648014694205628e+00	 4.272838638246583e-01	 4.578006359843397e-01
1	 1.640422902090953e+00	 4.656475376187876e-01	 4.274534126450736e-01
1	 1.632068115892814e+00	 5.038202930712914e-01	 3.936507904980691e-01
1	 1.622937007771303e+00	 5.417748773673225e-01	 3.565129019999052e-01
1	 1.613017174244250e+00	 5.794837489179233e-01	 3.161163753990686e-01
1	 1.602297195744425e+00	 6.169191425127935e-01	 2.724897662680766e-01
1	 1.590766694232754e+00	 6.540531375709525e-01	 2.256092216479845e-01
1	 1.578416388466777e+00	 6.908577292231182e-01	 1.753944617369356e-01
1	 1.565238146523991e+00	 7.273049019266826e-01	 1.217051660402913e-01
1	 1.551225035184080e+00	 7.633667052825658e-01	 6.433785109304073e-02
1	 1.668882202179363e+00	 3.920507885096862e-01	 4.749765715050122e-01
1	 1.661981220375480e+00	 4.309049912863429e-01	 4.497363742170319e-01
1	 1.654325089657674e+00	 4.695937879424743e-01	 4.208318871193535e-01
1	 1.645899498665951e+00	 5.080900482701213e-01	 3.884279800468865e-01
1	 1.636691006610186e+00	 5.463662884934315e-01	 3.526494623444136e-01
1	 1.626687104891698e+00	 5.843947336151508e-01	 3.135762038252310e-01
1	 1.615876277165188e+00	 6.221473831215475e-01	 2.712384106814650e-01
1	 1.604248057440212e+00	 6.595960798114789e-01	 2.256121404149293e-01
1	 1.591793085818026e+00	 6.967125814811796e-01	 1.766151435466578e-01
1	 1.578503161460054e+00	 7.334686351631050e-01	 1.241031219457998e-01
1	 1.564371292388615e+00	 7.698360535853119e-01	 6.786649385138427e-02
1	 1.682906724299760e+00	 3.953454038814352e-01	 4.671389113084722e-01
1	 1.675947749803660e+00	 4.345261195934738e-01	 4.433256447297445e-01
1	 1.668227280467807e+00	 4.735400391875617e-01	 4.157925382952234e-01
1	 1.659730884666089e+00	 5.123598044659057e-01	 3.847102200643114e-01
1	 1.650445008658129e+00	 5.509577006915951e-01	 3.502079013047104e-01
1	 1.640357038728711e+00	 5.893057194590274e-01	 3.123683316468326e-01
1	 1.629455361754438e+00	 6.273756249509855e-01	 2.712229134911751e-01
1	 1.617729423793474e+00	 6.651390233461127e-01	 2.267470625594074e-01
1	 1.605169786290770e+00	 7.025674351061066e-01	 1.788559053152107e-01
1	 1.591768179491655e+00	 7.396323698384317e-01	 1.274004061576470e-01
1	 1.577517552661069e+00	 7.763054033982315e-01	 7.216401755602889e-02
1	 1.446055456065250e+00	 7.116121543469853e-01	 7.487135643639264e-02
1	 1.432207836825179e+00	 7.448461945508820e-01	-2.537326044960528e-03
1	 1.417572442441803e+00	 7.776692863439487e-01	-8.813967529674911e-02
1	 1.402146412454711e+00	 8.100559812720015e-01	-1.818957742415863e-01
1	 1.385928152126612e+00	 8.419811877575717e-01	-2.837890907798369e-01
1	 1.368917358695528e+00	 8.734202465763066e-01	-3.938279395492930e-01
1	 1.351115042782549e+00	 9.043490060417461e-01	-5.120466229623611e-01
1	 1.332523544722111e+00	 9.347438964536106e-01	-6.385062150367258e-01
1	 1.313146545615595e+00	 9.645820033595822e-01	-7.732949569544033e-01
1	 1.292989072945795e+00	 9.938411391797882e-01	-9.165282397939990e-01
1	 1.272057500629041e+00	 1.022499912746946e+00	-1.068348157353284e+00
1	 1.459201578304726e+00	 7.180814362322998e-01	 6.885420135869826e-02
1	 1.445228070050683e+00	 7.516176078332568e-01	-6.247121036010314e-03
1	 1.430459624972012e+00	 7.847390950822563e-01	-8.949080194266203e-02
1	 1.414893356603801e+00	 8.174202181726493e-01	-1.808575916084936e-01
1	 1.398527655710973e+00	 8.496356574188768e-01	-2.803509482143655e-01
1	 1.381362216779143e+00	 8.813605294190271e-01	-3.879982990188926e-01
1	 1.363398059616986e+00	 9.125704629231188e-01	-5.038519841782043e-01
1	 1.344637545834977e+00	 9.432416739582017e-01	-6.279898498104872e-01
1	 1.325084389999482e+00	 9.733510397561601e-01	-7.605154623198990e-01
1	 1.304743665298257e+00	 1.002876171029337e+00	-9.015579224587613e-01
1	 1.283621803593056e+00	 1.031795482142871e+00	-1.051271264960165e+00
1	 1.472347728150277e+00	 7.245507317024646e-01	 6.439220149408927e-02
1	 1.458248330617824e+00	 7.583890353349527e-01	-8.556141684008006e-03
1	 1.443346834564395e+00	 7.918089186665238e-01	-8.959362176564775e-02
1	 1.427640327520521e+00	 8.247844705375758e-01	-1.787213694709228e-01
1	 1.411127185753312e+00	 8.572901431539766e-01	-2.759624341426262e-01
1	 1.393807100995965e+00	 8.893008289357811e-01	-3.813628415791774e-01
1	 1.375681102244761e+00	 9.207919370690237e-01	-4.949923392762589e-01
1	 1.356751572386259e+00	 9.517394693076289e-01	-6.169447987947625e-01
1	 1.337022259451874e+00	 9.821200945672420e-01	-7.473382504213979e-01
1	 1.316498282334426e+00	 1.011911221851995e+00	-8.863145316820533e-01
1	 1.295186130841210e+00	 1.041091071059036e+00	-1.034038538473082e+00
1	 1.485493902534635e+00	 7.310200392481445e-01	 6.137458185141645e-02
1	 1.471268615488724e+00	 7.651604754761316e-01	-9.572216950289925e-03
1	 1.456234068212133e+00	 7.988787554472803e-01	-8.855266083075711e-02
1	 1.440387322230788e+00	 8.321487366486009e-01	-1.755879740546348e-01
1	 1.423726739313953e+00	 8.649446431769593e-01	-2.707204000180450e-01
1	 1.406252008442408e+00	 8.972411432739574e-01	-3.740140531399146e-01
1	 1.387964167800051e+00	 9.290134265612310e-01	-4.855554642107487e-01
1	 1.368865621549567e+00	 9.602372805191779e-01	-6.054537921583121e-01
1	 1.348960151187484e+00	 9.908891657468134e-01	-7.338406806195438e-01
1	 1.328252921311766e+00	 1.020946289539680e+00	-8.708697440054338e-01
1	 1.306750479675358e+00	 1.050386677326566e+00	-1.016715674775445e+00
1	 1.498640098390529e+00	 7.374893573600056e-01	 5.969445329308990e-02
1	 1.484288921625506e+00	 7.719319266769569e-01	-9.399393269649212e-03
1	 1.469121322908410e+00	 8.059486037750556e-01	-8.646877852747170e-02
1	 1.453134337760516e+00	 8.395130147875444e-01	-1.715547332879541e-01
1	 1.436326313453225e+00	 8.725991557019142e-01	-2.647182998316694e-01
1	 1.418696936214885e+00	 9.051814705809439e-01	-3.660411752945925e-01
1	 1.400247253417037e+00	 9.372349294815117e-01	-4.756260558535372e-01
1	 1.380979690498518e+00	 9.687351056101363e-01	-5.935966580079370e-01
1	 1.360898062421025e+00	 9.996582512488599e-01	-7.200973986400978e-01
1	 1.340007579487740e+00	 1.029981371984304e+00	-8.552927217122179e-01
1	 1.318314847397356e+00	 1.059682298776580e+00	-9.993660662851584e-01
1	 1.511786312650691e+00	 7.439586845287128e-01	 5.924864358252160e-02
1	 1.497309245990293e+00	 7.787033873575906e-01	-8.138099015086959e-03
1	 1.482008595646407e+00	 8.130184620003784e-01	-8.343932700226263e-02
1	 1.465881371135623e+00	 8.468773032362267e-01	-1.667155906575729e-01
1	 1.448925905231452e+00	 8.802536789429295e-01	-2.580463378497792e-01
1	 1.431141881409813e+00	 9.131218090041288e-01	-3.575303464046985e-01
1	 1.412530356229895e+00	 9.454564439116367e-01	-4.652858658996147e-01
1	 1.393093776406722e+00	 9.772329425977901e-01	-5.814504486026943e-01
1	 1.372835990367206e+00	 1.008427349027368e+00	-7.061804546010251e-01
1	 1.351762254119812e+00	 1.039016467077784e+00	-8.396502221911051e-01
1	 1.329879231309057e+00	 1.068977933240202e+00	-9.820509012019680e-01
1	 1.524932542247848e+00	 7.504280192449314e-01	 5.993753716559000e-02
1	 1.510329585545209e+00	 7.854748559381955e-01	-5.885300460480438e-03
1	 1.494895883419309e+00	 8.200883284737793e-01	-7.955830234916994e-02
1	 1.478628419382025e+00	 8.542416002764679e-01	-1.611612511107399e-01
1	 1.461525511708960e+00	 8.879082111140940e-01	-2.507916087141622e-01
1	 1.443586841123604e+00	 9.210621566909006e-01	-3.485647353905820e-01
1	 1.424813473372803e+00	 9.536779679333758e-01	-4.546138278502359e-01
1	 1.405207876447794e+00	 9.857307894994263e-01	-5.690895600433917e-01
1	 1.384773932240742e+00	 1.017196457036321e+00	-6.921594149380085e-01
1	 1.363516942465446e+00	 1.048051572712035e+00	-8.240067016463495e-01
1	 1.341443628712318e+00	 1.078273578548551e+00	-9.648292585724980e-01
1	 1.538078784114736e+00	 7.568973599993275e-01	 6.166492316391530e-02
1	 1.523349937252375e+00	 7.922463308389349e-01	-2.734649749607999e-03
1	 1.507783183220298e+00	 8.271582015457860e-01	-7.491648805136772e-02
1	 1.491375479525636e+00	 8.616059041900879e-01	-1.549793194794184e-01
1	 1.474125129946076e+00	 8.955627504294971e-01	-2.430382303617333e-01
1	 1.456031812452673e+00	 9.290025117886478e-01	-3.392246686650725e-01
1	 1.437096601979941e+00	 9.618994996285009e-01	-4.436861774877472e-01
1	 1.417321987795348e+00	 9.942286443323317e-01	-5.565858458276445e-01
1	 1.396711885256342e+00	 1.025965573229707e+00	-6.781014685934528e-01
1	 1.375271641782104e+00	 1.057086686778972e+00	-8.084244134922899e-01
1	 1.353008036908993e+00	 1.087569232532751e+00	-9.477581984828736e-01
1	 1.551225035184080e+00	 7.633667052825658e-01	 6.433785109304073e-02
1	 1.536370298073917e+00	 7.990178104799711e-01	 1.223374654556507e-03
1	 1.520670492042556e+00	 8.342280795669296e-01	-6.960159113305324e-02
1	 1.504122548592373e+00	 8.689702132589067e-01	-1.482544318697939e-01
1	 1.486724757003127e+00	 9.032172951032263e-01	-2.348674701892385e-01
1	 1.468476792493434e+00	 9.369428724447580e-01	-3.295877506163479e-01
1	 1.449379739185485e+00	 9.701210370787814e-01	-4.325765672279167e-01
1	 1.429436107622995e+00	 1.002726505113793e+00	-5.440087246340066e-01
1	 1.408649846628719e+00	 1.034734695561511e+00	-6.640715278089901e-01
1	 1.387026349327250e+00	 1.066121807170510e+00	-7.929635017475707e-01
1	 1.364572453200936e+00	 1.096864893023922e+00	-9.308928476677355e-01
1	 1.564371292388615e+00	 7.698360535853119e-01	 6.786649385138434e-02
1	 1.549390664971957e+00	 8.057892932814672e-01	 5.901334598174827e-03
1	 1.533557806879267e+00	 8.412979608877380e-01	-6.369837145027471e-02
1	 1.516869623608153e+00	 8.763345257647448e-01	-1.410683804306921e-01
1	 1.499324389940438e+00	 9.108718433493710e-01	-2.263578648601749e-01
1	 1.480921778342302e+00	 9.448832368066197e-01	-3.197289780193873e-01
1	 1.461662882123616e+00	 9.783425783659890e-01	-4.213561747097176e-01
1	 1.441550233104349e+00	 1.011224369861097e+00	-5.314252826746306e-01
1	 1.420587813572585e+00	 1.043503821985717e+00	-6.501323238387335e-01
1	 1.398781062358348e+00	 1.075156931778564e+00	-7.776820897229653e-01
1	 1.376136874890005e+00	 1.106160557853187e+00	-9.142864808052645e-01
1	 1.577517552661069e+00	 7.763054033982315e-01	 7.216401755602889e-02
1	 1.562411034908616e+00	 8.125607776635853e-01	 1.121470552986446e-02
1	 1.546445124723613e+00	 8.483678438587413e-01	-5.728876452071844e-02
1	 1.529616701598890e+00	 8.836988399894217e-01	-1.335002318869553e-01
1	 1.511924025818336e+00	 9.185263933820198e-01	-2.175853341245674e-01
1	 1.493366767095691e+00	 9.528236030216212e-01	-3.097208487298835e-01
1	 1.473946027928508e+00	 9.865641215718935e-01	-4.100938059586026e-01
1	 1.453664361413024e+00	 1.019722236591529e+00	-5.189003709330371e-01
1	 1.432525783302651e+00	 1.052272950456313e+00	-6.363444978795165e-01
1	 1.410535778132862e+00	 1.084192058495051e+00	-7.626363642771943e-01
1	 1.387701299278052e+00	 1.115456224851666e+00	-8.979905977495712e-01
1	 1.272057500629041e+00	 1.022499912746946e+00	-1.068348157353284e+00
1	 1.250359540147344e+00	 1.050537798776298e+00	-1.230826962908406e+00
1	 1.227904219449511e+00	 1.077935209275797e+00	-1.405700090651475e+00
1	 1.204701875859538e+00	 1.104673546853691e+00	-1.592569286261819e+00
1	 1.180764136830705e+00	 1.130735259195432e+00	-1.790964863296496e+00
1	 1.156103891891588e+00	 1.156103891891588e+00	-2.000348177197981e+00
1	 1.130735259195432e+00	 1.180764136830706e+00	-2.220114874024159e+00
1	 1.104673546853691e+00	 1.204701875859538e+00	-2.449598872804684e+00
1	 1.077935209275797e+00	 1.227904219449511e+00	-2.688077026539240e+00
1	 1.050537798776297e+00	 1.250359540147344e+00	-2.934774394201672e+00
1	 1.022499912746946e+00	 1.272057500629041e+00	-3.188870045062307e+00
1	 1.283621803593056e+00	 1.031795482142871e+00	-1.051271264960165e+00
1	 1.261726586471149e+00	 1.060088261216182e+00	-1.211595318831855e+00
1	 1.239067123954619e+00	 1.087734742182361e+00	-1.384148994110337e+00
1	 1.215653847344298e+00	 1.114716158580364e+00	-1.568569586935218e+00
1	 1.191498489798890e+00	 1.141014798527169e+00	-1.764424311221657e+00
1	 1.166614058025953e+00	 1.166614058025953e+00	-1.971212497213684e+00
1	 1.141014798527169e+00	 1.191498489798890e+00	-2.188368550485428e+00
1	 1.114716158580364e+00	 1.215653847344298e+00	-2.415265634416037e+00
1	 1.087734742182360e+00	 1.239067123954620e+00	-2.651220025489083e+00
1	 1.060088261216181e+00	 1.261726586471148e+00	-2.895496078228028e+00
1	 1.031795482142871e+00	 1.283621803593056e+00	-3.147311725535830e+00
1	 1.295186130841210e+00	 1.041091071059036e+00	-1.034038538473082e+00
1	 1.273093656664901e+00	 1.069638743711571e+00	-1.192322529210696e+00
1	 1.250230051901031e+00	 1.097534295667453e+00	-1.362673507149440e+00
1	 1.226605841827457e+00	 1.124758791395993e+00	-1.544762785749664e+00
1	 1.202232865308533e+00	 1.151294359445364e+00	-1.738192925883969e+00
1	 1.177124246231041e+00	 1.177124246231041e+00	-1.942499671137665e+00
1	 1.151294359445364e+00	 1.202232865308534e+00	-2.157154629460953e+00
1	 1.124758791395993e+00	 1.226605841827457e+00	-2.381568668141628e+00
1	 1.097534295667452e+00	 1.250230051901031e+00	-2.615095975604633e+00
1	 1.069638743711570e+00	 1.273093656664901e+00	-2.857038731121007e+00
1	 1.041091071059036e+00	 1.295186130841210e+00	-3.106652312481462e+00
1	 1.306750479675358e+00	 1.050386677326566e+00	-1.016715674775445e+00
1	 1.284460748076471e+00	 1.079189244034114e+00	-1.173068112153711e+00
1	 1.261393000684236e+00	 1.107333867444610e+00	-1.341326875590136e+00
1	 1.237557856753712e+00	 1.134801442957407e+00	-1.521195791913343e+00
1	 1.212967260855094e+00	 1.161573939551575e+00	-1.712311245391418e+00
1	 1.187634454054607e+00	 1.187634454054607e+00	-1.914243861767371e+00
1	 1.161573939551575e+00	 1.212967260855095e+00	-2.126500924722256e+00
1	 1.134801442957407e+00	 1.237557856753713e+00	-2.348529495501784e+00
1	 1.107333867444610e+00	 1.261393000684237e+00	-2.579720193191758e+00
1	 1.079189244034114e+00	 1.284460748076472e+00	-2.819411580822879e+00
1	 1.050386677326566e+00	 1.306750479675358e+00	-3.066895091480740e+00
1	 1.318314847397356e+00	 1.059682298776580e+00	-9.993660662851584e-01
1	 1.295827858053730e+00	 1.088739759955460e+00	-1.153889498081471e+00
1	 1.272555967699726e+00	 1.117133455227372e+00	-1.320160477619657e+00
1	 1.248509889567757e+00	 1.144844110921433e+00	-1.497913869306716e+00
1	 1.223701673934031e+00	 1.171853536447356e+00	-1.686818386035531e+00
1	 1.198144679044406e+00	 1.198144679044407e+00	-1.886478033737270e+00
1	 1.171853536447356e+00	 1.223701673934032e+00	-2.096434274603229e+00
1	 1.144844110921433e+00	 1.248509889567758e+00	-2.316168883306236e+00
1	 1.117133455227372e+00	 1.272555967699726e+00	-2.545107457512543e+00
1	 1.088739759955460e+00	 1.295827858053730e+00	-2.782623531792264e+00
1	 1.059682298776580e+00	 1.318314847397355e+00	-3.028043233062022e+00
1	 1.329879231309057e+00	 1.068977933240202e+00	-9.820509012019680e-01
1	 1.307194983944547e+00	 1.098290289247258e+00	-1.134842120553591e+00
1	 1.283718950342991e+00	 1.126933056729275e+00	-1.299223905055748e+00
1	 1.259461937714286e+00	 1.154886792944901e+00	-1.474960708086418e+00
1	 1.234436102040804e+00	 1.182133147734263e+00	-1.661752104182046e+00
1	 1.208654918748195e+00	 1.208654918748196e+00	-1.859234005689815e+00
1	 1.182133147734263e+00	 1.234436102040805e+00	-2.066980584491342e+00
1	 1.154886792944901e+00	 1.259461937714287e+00	-2.284506876552119e+00
1	 1.126933056729275e+00	 1.283718950342991e+00	-2.511272034222533e+00
1	 1.098290289247258e+00	 1.307194983944547e+00	-2.746683179158667e+00
1	 1.068977933240202e+00	 1.329879231309057e+00	-2.990099797794664e+00
1	 1.341443628712318e+00	 1.078273578548551e+00	-9.648292585724980e-01
1	 1.318562123096792e+00	 1.107840829681157e+00	-1.115979502400624e+00
1	 1.294881946009521e+00	 1.136732669663859e+00	-1.278565040410265e+00
1	 1.270413998637995e+00	 1.164929486684639e+00	-1.452378492587658e+00
1	 1.245170542670870e+00	 1.192412771013853e+00	-1.637148854962099e+00
1	 1.219165170713729e+00	 1.219165170713729e+00	-1.832542499749316e+00
1	 1.192412771013853e+00	 1.245170542670870e+00	-2.038164867122243e+00
1	 1.164929486684638e+00	 1.270413998637995e+00	-2.253562829621293e+00
1	 1.136732669663859e+00	 1.294881946009521e+00	-2.478227697596405e+00
1	 1.107840829681157e+00	 1.318562123096793e+00	-2.711598822145247e+00
1	 1.078273578548551e+00	 1.341443628712317e+00	-2.953067741119945e+00
1	 1.353008036908993e+00	 1.087569232532751e+00	-9.477581984828736e-01
1	 1.329929272858337e+00	 1.117391379028806e+00	-1.097353337441397e+00
1	 1.306044952094807e+00	 1.146532291744662e+00	-1.258230130003071e+00
1	 1.281366069783578e+00	 1.174972189797474e+00	-1.430207965746317e+00
1	 1.255904993319687e+00	 1.202692403887681e+00	-1.613043847955400e+00
1	 1.229675432488762e+00	 1.229675432488763e+00	-1.806433188460259e+00
1	 1.202692403887681e+00	 1.255904993319688e+00	-2.010011280809161e+00
1	 1.174972189797473e+00	 1.281366069783578e+00	-2.223355435878571e+00
1	 1.146532291744661e+00	 1.306044952094807e+00	-2.445987751614429e+00
1	 1.117391379028805e+00	 1.329929272858337e+00	-2.677378476803734e+00
1	 1.087569232532751e+00	 1.353008036908992e+00	-2.916949917934285e+00
1	 1.364572453200936e+00	 1.096864893023922e+00	-9.308928476677355e-01
1	 1.341296430577051e+00	 1.126941935061853e+00	-1.079013568047511e+00
1	 1.317207965994339e+00	 1.156331920685220e+00	-1.238263853360149e+00
1	 1.292318148595728e+00	 1.185014899940235e+00	-1.408488490247161e+00
1	 1.266639451482715e+00	 1.212972043957304e+00	-1.589471100043387e+00
1	 1.240185701621051e+00	 1.240185701621051e+00	-1.780934739340091e+00
1	 1.212972043957304e+00	 1.266639451482715e+00	-1.982543165729489e+00
1	 1.185014899940234e+00	 1.292318148595729e+00	-2.193902755765855e+00
1	 1.156331920685220e+00	 1.317207965994339e+00	-2.414565049977372e+00
1	 1.126941935061853e+00	 1.341296430577051e+00	-2.644029888101967e+00
1	 1.096864893023922e+00	 1.364572453200936e+00	-2.881749086939549e+00
1	 1.376136874890005e+00	 1.106160557853187e+00	-9.142864808052645e-01
1	 1.352663593600802e+00	 1.136492495551947e+00	-1.061008458799112e+00
1	 1.328370985103609e+00	 1.166131554199074e+00	-1.218709389114756e+00
1	 1.303270232519143e+00	 1.195057614769750e+00	-1.387258106590583e+00
1	 1.277373914655412e+00	 1.223251688824277e+00	-1.566463485599168e+00
1	 1.250695975658350e+00	 1.250695975658350e+00	-1.756074857187000e+00
1	 1.223251688824276e+00	 1.277373914655412e+00	-1.955783078382708e+00
1	 1.195057614769750e+00	 1.303270232519143e+00	-2.165222243480606e+00
1	 1.166131554199074e+00	 1.328370985103609e+00	-2.383972015112819e+00
1	 1.136492495551947e+00	 1.352663593600803e+00	-2.611560541402522e+00
1	 1.106160557853187e+00	 1.376136874890005e+00	-2.847467914774249e+00
1	 1.387701299278052e+00	 1.115456224851666e+00	-8.979905977495712e-01
1	 1.364030759277465e+00	 1.146043058270738e+00	-1.043384666459932e+00
1	 1.339534006818105e+00	 1.175931189999760e+00	-1.199608477615140e+00
1	 1.314222318998515e+00	 1.205100331942848e+00	-1.366553588257654e+00
1	 1.288108380333235e+00	 1.233531336090155e+00	-1.544052784169226e+00
1	 1.261206252148415e+00	 1.261206252148416e+00	-1.731880324273281e+00
1	 1.233531336090155e+00	 1.288108380333236e+00	-1.929752824326510e+00
1	 1.205100331942847e+00	 1.314222318998515e+00	-2.137330772320926e+00
1	 1.175931189999759e+00	 1.339534006818105e+00	-2.354220656231631e+00
1	 1.146043058270737e+00	 1.364030759277465e+00	-2.579977673367529e+00
1	 1.115456224851666e+00	 1.387701299278052e+00	-2.814108979938140e+00
1	 1.022499912746946e+00	 1.272057500629041e+00	-3.188870045062307e+00
1	 9.938411391797880e-01	 1.292989072945795e+00	-3.451691360988178e+00
1	 9.645820033595817e-01	 1.313146545615596e+00	-3.724149494433023e+00
1	 9.347438964536103e-01	 1.332523544722111e+00	-4.004691027866304e+00
1	 9.043490060417456e-01	 1.351115042782550e+00	-4.291670649534256e+00
1	 8.734202465763062e-01	 1.368917358695529e+00	-4.583365813420858e+00
1	 8.419811877575710e-01	 1.385928152126612e+00	-4.877991908658698e+00
1	 8.100559812720007e-01	 1.402146412454711e+00	-5.173717704600183e+00
1	 7.776692863439484e-01	 1.417572442441804e+00	-5.468680841962000e+00
1	 7.448461945508813e-01	 1.432207836825180e+00	-5.761003149601828e+00
1	 7.116121543469851e-01	 1.446055456065250e+00	-6.048805580049674e+00
1	 1.031795482142871e+00	 1.283621803593056e+00	-3.147311725535830e+00
1	 1.002876171029337e+00	 1.304743665298257e+00	-3.407901582526707e+00
1	 9.733510397561598e-01	 1.325084389999482e+00	-3.678083982206223e+00
1	 9.432416739582011e-01	 1.344637545834978e+00	-3.956344540789150e+00
1	 9.125704629231184e-01	 1.363398059616986e+00	-4.241077735264218e+00
1	 8.813605294190264e-01	 1.381362216779144e+00	-4.530601252531500e+00
1	 8.496356574188763e-01	 1.398527655710974e+00	-4.823170850392744e+00
1	 8.174202181726491e-01	 1.414893356603802e+00	-5.116995500816087e+00
1	 7.847390950822557e-01	 1.430459624972012e+00	-5.410252589819522e+00
1	 7.516176078332562e-01	 1.445228070050684e+00	-5.701102957109740e+00
1	 7.180814362322998e-01	 1.459201578304726e+00	-5.987705571762618e+00
1	 1.041091071059036e+00	 1.295186130841210e+00	-3.106652312481462e+00
1	 1.011911221851995e+00	 1.316498282334426e+00	-3.365081047289153e+00
1	 9.821200945672417e-01	 1.337022259451875e+00	-3.633053468987875e+00
1	 9.517394693076283e-01	 1.356751572386259e+00	-3.909093759167081e+00
1	 9.207919370690233e-01	 1.375681102244761e+00	-4.191635840157955e+00
1	 8.893008289357806e-01	 1.393807100995965e+00	-4.479037411801263e+00
1	 8.572901431539762e-01	 1.411127185753312e+00	-4.769594501042630e+00
1	 8.247844705375753e-01	 1.427640327520522e+00	-5.061556299090291e+00
1	 7.918089186665234e-01	 1.443346834564396e+00	-5.353140064533133e+00
1	 7.583890353349521e-01	 1.458248330617824e+00	-5.642545879272215e+00
1	 7.245507317024646e-01	 1.472347728150277e+00	-5.927971056867471e+00
1	 1.050386677326566e+00	 1.306750479675358e+00	-3.066895091480740e+00
1	 1.020946289539679e+00	 1.328252921311766e+00	-3.323227360024712e+00
1	 9.908891657468131e-01	 1.348960151187485e+00	-3.589050240914546e+00
1	 9.602372805191773e-01	 1.368865621549567e+00	-3.862926017442587e+00
1	 9.290134265612304e-01	 1.387964167800052e+00	-4.143327716475540e+00
1	 8.972411432739568e-01	 1.406252008442408e+00	-4.428652831329384e+00
1	 8.649446431769587e-01	 1.423726739313954e+00	-4.717237557037901e+00
1	 8.321487366486005e-01	 1.440387322230788e+00	-5.007371317164612e+00
1	 7.988787554472800e-01	 1.456234068212134e+00	-5.297311364730459e+00
1	 7.651604754761312e-01	 1.471268615488724e+00	-5.585297247964300e+00
1	 7.310200392481446e-01	 1.485493902534635e+00	-5.869564943941512e+00
1	 1.059682298776580e+00	 1.318314847397355e+00	-3.028043233062022e+00
1	 1.029981371984303e+00	 1.340007579487740e+00	-3.282338209675105e+00
1	 9.996582512488599e-01	 1.360898062421025e+00	-3.546066854842514e+00
1	 9.687351056101354e-01	 1.380979690498518e+00	-3.817829094422111e+00
1	 9.372349294815112e-01	 1.400247253417037e+00	-4.096136721512439e+00
1	 9.051814705809433e-01	 1.418696936214885e+00	-4.379426803932413e+00
1	 8.725991557019135e-01	 1.436326313453225e+00	-4.666075602272691e+00
1	 8.395130147875441e-01	 1.453134337760517e+00	-4.954412782182527e+00
1	 8.059486037750551e-01	 1.469121322908410e+00	-5.242735707759274e+00
1	 7.719319266769559e-01	 1.484288921625506e+00	-5.529323610735490e+00
1	 7.374893573600056e-01	 1.498640098390529e+00	-5.812451442141001e+00
1	 1.068977933240202e+00	 1.329879231309057e+00	-2.990099797794664e+00
1	 1.039016467077783e+00	 1.351762254119812e+00	-3.242411365807361e+00
1	 1.008427349027367e+00	 1.372835990367206e+00	-3.504096126671242e+00
1	 9.772329425977898e-01	 1.393093776406722e+00	-3.773791194049962e+00
1	 9.454564439116363e-01	 1.412530356229895e+00	-4.050046791387258e+00
1	 9.131218090041283e-01	 1.431141881409813e+00	-4.331339342510008e+00
1	 8.802536789429289e-01	 1.448925905231452e+00	-4.616085069611320e+00
1	 8.468773032362263e-01	 1.465881371135624e+00	-4.902653886891313e+00
1	 8.130184620003781e-01	 1.482008595646407e+00	-5.189383381134006e+00
1	 7.787033873575901e-01	 1.497309245990293e+00	-5.474592678038014e+00
1	 7.439586845287128e-01	 1.511786312650691e+00	-5.756596004734648e+00
1	 1.078273578548551e+00	 1.341443628712317e+00	-2.953067741119945e+00
1	 1.048051572712034e+00	 1.363516942465446e+00	-3.203444675230700e+00
1	 1.017196457036321e+00	 1.384773932240742e+00	-3.463131120270304e+00
1	 9.857307894994257e-01	 1.405207876447794e+00	-3.730800927175967e+00
1	 9.536779679333754e-01	 1.424813473372804e+00	-4.005042416184565e+00
1	 9.210621566909001e-01	 1.443586841123604e+00	-4.284371149097630e+00
1	 8.879082111140938e-01	 1.461525511708960e+00	-4.567243204383914e+00
1	 8.542416002764672e-01	 1.478628419382025e+00	-4.852068748108075e+00
1	 8.200883284737788e-01	 1.494895883419310e+00	-5.137225696492241e+00
1	 7.854748559381950e-01	 1.510329585545209e+00	-5.421073273183008e+00
1	 7.504280192449314e-01	 1.524932542247848e+00	-5.701965275556138e+00
1	 1.087569232532751e+00	 1.353008036908992e+00	-2.916949917934285e+00
1	 1.057086686778971e+00	 1.375271641782104e+00	-3.165436058787011e+00
1	 1.025965573229707e+00	 1.396711885256342e+00	-3.423165136974166e+00
1	 9.942286443323313e-01	 1.417321987795348e+00	-3.688847294257694e+00
1	 9.618994996285004e-01	 1.437096601979941e+00	-3.961108616371427e+00
1	 9.290025117886472e-01	 1.456031812452673e+00	-4.238503585505481e+00
1	 8.955627504294964e-01	 1.474125129946077e+00	-4.519528029753070e+00
1	 8.616059041900874e-01	 1.491375479525636e+00	-4.802632367314721e+00
1	 8.271582015457856e-01	 1.507783183220298e+00	-5.086234945911298e+00
1	 7.922463308389345e-01	 1.523349937252376e+00	-5.368735284861910e+00
1	 7.568973599993274e-01	 1.538078784114736e+00	-5.648527038201200e+00
1	 1.096864893023922e+00	 1.364572453200936e+00	-2.881749086939549e+00
1	 1.066121807170509e+00	 1.387026349327251e+00	-3.128383508304390e+00
1	 1.034734695561510e+00	 1.408649846628719e+00	-3.384191705610498e+00
1	 1.002726505113793e+00	 1.429436107622995e+00	-3.647919668941749e+00
1	 9.701210370787809e-01	 1.449379739185485e+00	-3.918230920412874e+00
1	 9.369428724447576e-01	 1.468476792493435e+00	-4.193718645449717e+00
1	 9.032172951032259e-01	 1.486724757003127e+00	-4.472918313840464e+00
1	 8.689702132589063e-01	 1.504122548592373e+00	-4.754320593255519e+00
1	 8.342280795669288e-01	 1.520670492042557e+00	-5.036384360444471e+00
1	 7.990178104799709e-01	 1.536370298073918e+00	-5.317549622080357e+00
1	 7.633667052825658e-01	 1.551225035184081e+00	-5.596250167806342e+00
1	 1.106160557853187e+00	 1.376136874890005e+00	-2.847467914774249e+00
1	 1.075156931778564e+00	 1.398781062358349e+00	-3.092285083704143e+00
1	 1.043503821985717e+00	 1.420587813572585e+00	-3.346204573031240e+00
1	 1.011224369861096e+00	 1.441550233104349e+00	-3.608007782472341e+00
1	 9.783425783659885e-01	 1.461662882123616e+00	-3.876395343514994e+00
1	 9.448832368066190e-01	 1.480921778342302e+00	-4.149998928087604e+00
1	 9.108718433493705e-01	 1.499324389940438e+00	-4.427393538510124e+00
1	 8.763345257647444e-01	 1.516869623608153e+00	-4.707110086419226e+00
1	 8.412979608877375e-01	 1.533557806879267e+00	-4.987648070747025e+00
1	 8.057892932814669e-01	 1.549390664971957e+00	-5.267488171363365e+00
1	 7.698360535853118e-01	 1.564371292388615e+00	-5.545104585257657e+00
1	 1.115456224851666e+00	 1.387701299278052e+00	-2.814108979938140e+00
1	 1.084192058495050e+00	 1.410535778132863e+00	-3.057138910252476e+00
1	 1.052272950456312e+00	 1.432525783302652e+00	-3.309197695116704e+00
1	 1.019722236591529e+00	 1.453664361413024e+00	-3.569101708879167e+00
1	 9.865641215718933e-01	 1.473946027928509e+00	-3.835588367430605e+00
1	 9.528236030216204e-01	 1.493366767095692e+00	-4.107327612875709e+00
1	 9.185263933820192e-01	 1.511924025818336e+00	-4.382933869711572e+00
1	 8.836988399894211e-01	 1.529616701598891e+00	-4.660978285296453e+00
1	 8.483678438587410e-01	 1.546445124723613e+00	-4.940001069669627e+00
1	 8.125607776635847e-01	 1.562411034908617e+00	-5.218523756098854e+00
1	 7.763054033982313e-01	 1.577517552661069e+00	-5.495061213687969e+00
1	 7.116121543469851e-01	 1.446055456065250e+00	-6.048805580049675e+00
1	 6.779952603986081e-01	 1.459118509875090e+00	-6.332618210603971e+00
1	 6.440191242799743e-01	 1.471403296560924e+00	-6.613005222028280e+00
1	 6.097098014158014e-01	 1.482916279286323e+00	-6.888097734804543e+00
1	 5.750934079577478e-01	 1.493665038647719e+00	-7.156051727679928e+00
1	 5.401960501077742e-01	 1.503658226640188e+00	-7.415060312570081e+00
1	 5.050437554940973e-01	 1.512905517695068e+00	-7.663364992032058e+00
1	 4.696624069080371e-01	 1.521417557158576e+00	-7.899265819475397e+00
1	 4.340776786805963e-01	 1.529205907584642e+00	-8.121130406082990e+00
1	 3.983149759469042e-01	 1.536282993215550e+00	-8.327401741229401e+00
1	 3.623993770150853e-01	 1.542662043020896e+00	-8.516604814552696e+00
1	 7.180814362322998e-01	 1.459201578304726e+00	-5.987705571762618e+00
1	 6.841589303549738e-01	 1.472383388626782e+00	-6.270585462495194e+00
1	 6.498739164288544e-01	 1.484779856581117e+00	-6.550264438413441e+00
1	 6.152526867491104e-01	 1.496397504088063e+00	-6.824852819187601e+00
1	 5.803215948899217e-01	 1.507243980659427e+00	-7.092483207164539e+00
1	 5.451069843853170e-01	 1.517328016945761e+00	-7.351323148773198e+00
1	 5.096351194812663e-01	 1.526659375328873e+00	-7.599586777312347e+00
1	 4.739321182701249e-01	 1.535248797932060e+00	-7.835545351961485e+00
1	 4.380238884888158e-01	 1.543107952424687e+00	-8.057536632209805e+00
1	 4.019360662311215e-01	 1.550249375998100e+00	-8.263973050311954e+00
1	 3.656939577926278e-01	 1.556686417886749e+00	-8.453348666374080e+00
1	 7.245507317024646e-01	 1.472347728150277e+00	-5.927971056867470e+00
1	 6.903226132544259e-01	 1.485648295234026e+00	-6.209930343077628e+00
1	 6.557287208722129e-01	 1.498156444691492e+00	-6.488899132743540e+00
1	 6.207955837219395e-01	 1.509878757199893e+00	-6.762969132562219e+00
1	 5.855497928008034e-01	 1.520822951186545e+00	-7.030251755422153e+00
1	 5.500179289753964e-01	 1.530997835957644e+00	-7.288891153214385e+00
1	 5.142264931099344e-01	 1.540413261845647e+00	-7.537076230941657e+00
1	 4.782018385983018e-01	 1.549080067751132e+00	-7.773051551742347e+00
1	 4.419701065838273e-01	 1.557010026459114e+00	-7.995127067323962e+00
1	 4.055571641194289e-01	 1.564215788110238e+00	-8.201686632283412e+00
1	 3.689885454886305e-01	 1.570710822204060e+00	-8.391195283390473e+00
1	 7.310200392481446e-01	 1.485493902534635e+00	-5.869564943941511e+00
1	 6.964863076589421e-01	 1.498913226601821e+00	-6.150613659978320e+00
1	 6.615835362440979e-01	 1.511533057770965e+00	-6.428868285030068e+00
1	 6.263384910411126e-01	 1.523360035476277e+00	-6.702404049075863e+00
1	 5.907780004706401e-01	 1.534401947060710e+00	-6.969313311040699e+00
1	 5.549288827322761e-01	 1.544667680486245e+00	-7.227718948223140e+00
1	 5.188178753089218e-01	 1.554167174036154e+00	-7.475786728016763e+00
1	 4.824715668964258e-01	 1.562911363388469e+00	-7.711736566421192e+00
1	 4.459163320449566e-01	 1.570912126444055e+00	-7.933852603210378e+00
1	 4.091782687669960e-01	 1.578182226293059e+00	-8.140492048153163e+00
1	 3.722831393344285e-01	 1.584735252700366e+00	-8.330092775856560e+00
1	 7.374893573600056e-01	 1.498640098390529e+00	-5.812451442141001e+00
1	 7.026500121304988e-01	 1.512178179635163e+00	-6.092597595000481e+00
1	 6.674383611785580e-01	 1.524909692698449e+00	-6.370132313471472e+00
1	 6.318814074134532e-01	 1.536841335771679e+00	-6.643116437297462e+00
1	 5.960062166796790e-01	 1.547980965113555e+00	-6.909625357293651e+00
1	 5.598398445102205e-01	 1.558337547341970e+00	-7.167762746897836e+00
1	 5.234092650070477e-01	 1.567921108691153e+00	-7.415673278070292e+00
1	 4.867413021683554e-01	 1.576742681616749e+00	-7.651554221017060e+00
1	 4.498625639515298e-01	 1.584814249135637e+00	-7.873665853049670e+00
1	 4.127993793289922e-01	 1.592148687287655e+00	-8.080340626941444e+00
1	 3.755777385613569e-01	 1.598759706103210e+00	-8.269991072868647e+00
1	 7.439586845287128e-01	 1.511786312650691e+00	-5.756596004734648e+00
1	 7.088137252310740e-01	 1.525443151239054e+00	-6.035845644453484e+00
1	 6.732931943096422e-01	 1.538286346352859e+00	-6.312653011995626e+00
1	 6.374243315457838e-01	 1.550322654940563e+00	-6.585066595310522e+00
1	 6.012344402081665e-01	 1.561560002176714e+00	-6.851146855042926e+00
1	 5.647508131634932e-01	 1.572007433335227e+00	-7.108980284000086e+00
1	 5.280006611331313e-01	 1.581675062601407e+00	-7.356692454061621e+00
1	 4.910110434179485e-01	 1.590574019208646e+00	-7.592459945082239e+00
1	 4.538088013828737e-01	 1.598716391289989e+00	-7.814521076617974e+00
1	 4.164204949605870e-01	 1.606115167835117e+00	-8.021185388848169e+00
1	 3.788723424007510e-01	 1.612784179140129e+00	-8.210841843319006e+00
1	 7.504280192449314e-01	 1.524932542247848e+00	-5.701965275556138e+00
1	 7.149774455226450e-01	 1.538708138318490e+00	-5.980322562567273e+00
1	 6.791480342713977e-01	 1.551663015613107e+00	-6.256393491031485e+00
1	 6.429672621449286e-01	 1.563803989837395e+00	-6.528216189161810e+00
1	 6.064626698363502e-01	 1.575139055081823e+00	-6.793838179110503e+00
1	 5.696617875463584e-01	 1.585677335276421e+00	-7.051330750421680e+00
1	 5.325920626159921e-01	 1.595429032557675e+00	-7.298802325038476e+00
1	 4.952807896490634e-01	 1.604405372936839e+00	-7.534410703586665e+00
1	 4.577550434183135e-01	 1.612618549663240e+00	-7.756374109354046e+00
1	 4.200416148169501e-01	 1.620081664676538e+00	-7.962980972393344e+00
1	 3.821669500839457e-01	 1.626808668538665e+00	-8.152598420936403e+00
1	 7.568973599993274e-01	 1.538078784114736e+00	-5.648527038201202e+00
1	 7.211411715671887e-01	 1.551973137778469e+00	-5.925994307807283e+00
1	 6.850028796978735e-01	 1.565039697358109e+00	-6.201318121315897e+00
1	 6.485101979177100e-01	 1.577285337316637e+00	-6.472528194464374e+00
1	 6.116909043444768e-01	 1.588718120660515e+00	-6.737661057911160e+00
1	 5.745727665130806e-01	 1.599347249975960e+00	-6.994774731010190e+00
1	 5.371834683844495e-01	 1.609183015350720e+00	-7.241962392249961e+00
1	 4.995505398655584e-01	 1.618236739574002e+00	-7.477364931345706e+00
1	 4.617012891371763e-01	 1.626520721011518e+00	-7.699182295061759e+00
1	 4.236627380532507e-01	 1.634048174553011e+00	-7.905683565291930e+00
1	 3.854615608422766e-01	 1.640833171026356e+00	-8.095215733168546e+00
1	 7.633667052825658e-01	 1.551225035184081e+00	-5.596250167806342e+00
1	 7.273049019266828e-01	 1.565238146523991e+00	-5.872827991917214e+00
1	 6.908577292231181e-01	 1.578416388466777e+00	-6.147392480556565e+00
1	 6.540531375709528e-01	 1.590766694232754e+00	-6.417966840968659e+00
1	 6.169191425127937e-01	 1.602297195744425e+00	-6.682578516152995e+00
1	 5.794837489179234e-01	 1.613017174244251e+00	-6.939274145554261e+00
1	 5.417748773673230e-01	 1.622937007771304e+00	-7.186133528506154e+00
1	 5.038202930712917e-01	 1.632068115892814e+00	-7.421282470779306e+00
1	 4.656475376187880e-01	 1.640422902090953e+00	-7.642904422032520e+00
1	 4.272838638246586e-01	 1.648014694205628e+00	-7.849250838841558e+00
1	 3.887561739070783e-01	 1.654857683330742e+00	-8.038650233678842e+00
1	 7.698360535853118e-01	 1.564371292388615e+00	-5.545104585257657e+00
1	 7.334686351631050e-01	 1.578503161460053e+00	-5.820791831530173e+00
1	 6.967125814811799e-01	 1.591793085818026e+00	-6.094583302782533e+00
1	 6.595960798114791e-01	 1.604248057440212e+00	-6.364497559926545e+00
1	 6.221473831215476e-01	 1.615876277165188e+00	-6.628554820425696e+00
1	 5.843947336151513e-01	 1.626687104891698e+00	-6.884792192742772e+00
1	 5.463662884934321e-01	 1.636691006610186e+00	-7.131277920593809e+00
1	 5.080900482701216e-01	 1.645899498665951e+00	-7.366124512808399e+00
1	 4.695937879424745e-01	 1.654325089657673e+00	-7.587500662386873e+00
1	 4.309049912863432e-01	 1.661981220375480e+00	-7.793641885616601e+00
1	 3.920507885096861e-01	 1.668882202179363e+00	-7.982859838244640e+00
1	 7.763054033982313e-01	 1.577517552661069e+00	-5.495061213687968e+00
1	 7.396323698384324e-01	 1.591768179491655e+00	-5.769855102197488e+00
1	 7.025674351061071e-01	 1.605169786290770e+00	-6.042858430225835e+00
1	 6.651390233461130e-01	 1.617729423793473e+00	-6.312086934086027e+00
1	 6.273756249509856e-01	 1.629455361754438e+00	-6.575555427507410e+00
1	 5.893057194590278e-01	 1.640357038728711e+00	-6.831293296924684e+00
1	 5.509577006915954e-01	 1.650445008658129e+00	-7.077359014569452e+00
1	 5.123598044659060e-01	 1.659730884666089e+00	-7.311853540704425e+00
1	 4.735400391875621e-01	 1.668227280467808e+00	-7.532932514447126e+00
1	 4.345261195934739e-01	 1.675947749803660e+00	-7.738817160275911e+00
1	 3.953454038814352e-01	 1.682906724299760e+00	-7.927803863858902e+00
1	 3.623993770150853e-01	 1.542662043020896e+00	-8.516604814552696e+00
1	 3.263530585742443e-01	 1.548357407728751e+00	-8.688762009642385e+00
1	 2.902028324592135e-01	 1.553383283288272e+00	-8.844488179917267e+00
1	 2.539725263249901e-01	 1.557754965574446e+00	-8.983368506991761e+00
1	 2.176854422294076e-01	 1.561488320293919e+00	-9.105076009302044e+00
1	 1.813643166387074e-01	 1.564599723976281e+00	-9.209366436136417e+00
1	 1.450312841900338e-01	 1.567106005523594e+00	-9.296072891131439e+00
1	 1.087078452135093e-01	 1.569024388591723e+00	-9.365100270812681e+00
1	 7.241483699079308e-02	 1.570372435055877e+00	-9.416419596952194e+00
1	 3.617240870313355e-02	 1.571167989790866e+00	-9.450062314176918e+00
1	 0.000000000000000e+00	 1.571429126974074e+00	-9.466114616610840e+00
1	 3.656939577926278e-01	 1.556686417886749e+00	-8.453348666374080e+00
1	 3.293199414712120e-01	 1.562433559281498e+00	-8.625732130265037e+00
1	 2.928410728486677e-01	 1.567505125187194e+00	-8.781777213216147e+00
1	 2.562813961977030e-01	 1.571916550533969e+00	-8.921027081896737e+00
1	 2.196644254156484e-01	 1.575683845263964e+00	-9.043112982601166e+00
1	 1.830131036664362e-01	 1.578823534786167e+00	-9.147749426698848e+00
1	 1.463497668136618e-01	 1.581352600994570e+00	-9.234729075820402e+00
1	 1.096961106473998e-01	 1.583288424125677e+00	-9.303917411999318e+00
1	 7.307316188147454e-02	 1.584648725710099e+00	-9.355247271660186e+00
1	 3.650125287376429e-02	 1.585451512850806e+00	-9.388713315421054e+00
1	 0.000000000000000e+00	 1.585715024037928e+00	-9.404366498386231e+00
1	 3.689885454886305e-01	 1.570710822204060e+00	-8.391195283390475e+00
1	 3.322868305985031e-01	 1.576509740394501e+00	-8.563766716457463e+00
1	 2.954793187783156e-01	 1.581626996742376e+00	-8.720089841660091e+00
1	 2.585902709189448e-01	 1.586078165233253e+00	-8.859663888390937e+00
1	 2.216434127576642e-01	 1.589879400045076e+00	-8.982076517535026e+00
1	 1.846618941565348e-01	 1.593047375466543e+00	-9.086999305223225e+00
1	 1.476682522060273e-01	 1.595599226383897e+00	-9.174182894816875e+00
1	 1.106843781565813e-01	 1.597552489614615e+00	-9.243451902084884e+00
1	 7.373148815458633e-02	 1.598925046345047e+00	-9.294699652696014e+00
1	 3.683009773493729e-02	 1.599735065906658e+00	-9.327882824653472e+00
1	 0.000000000000000e+00	 1.600000951102682e+00	-9.343016061370548e+00
1	 3.722831393344285e-01	 1.584735252700366e+00	-8.330092775856562e+00
1	 3.352537252638942e-01	 1.590585947783202e+00	-8.502812487921341e+00
1	 2.981175696325952e-01	 1.595748894658584e+00	-8.659371698149457e+00
1	 2.608991499499848e-01	 1.600239806367783e+00	-8.799223824966106e+00
1	 2.236224037936799e-01	 1.604074981324811e+00	-8.921911176027153e+00
1	 1.863106877242587e-01	 1.607271242698359e+00	-9.027060737146757e+00
1	 1.489867400594469e-01	 1.609845878367206e+00	-9.114379596205534e+00
1	 1.116726475104179e-01	 1.611816581730097e+00	-9.183650086838686e+00
1	 7.438981565648303e-02	 1.613201393629416e+00	-9.234724731369850e+00
1	 3.715894320989912e-02	 1.614018645625435e+00	-9.267521056398264e+00
1	 0.000000000000000e+00	 1.614286904834791e+00	-9.282016347891339e+00
1	 3.755777385613569e-01	 1.598759706103210e+00	-8.269991072868649e+00
1	 3.382206247751618e-01	 1.604662178163041e+00	-8.442818031923803e+00
1	 3.007558247959438e-01	 1.609870815640586e+00	-8.599570321217680e+00
1	 2.632080327520928e-01	 1.614401470633040e+00	-8.739653721447732e+00
1	 2.256013980619198e-01	 1.618270585790723e+00	-8.862563463068760e+00
1	 1.879594839848633e-01	 1.621495133162564e+00	-8.967880327255234e+00
1	 1.503052300662377e-01	 1.624092553620127e+00	-9.055266346873053e+00
1	 1.126609184782738e-01	 1.626080697143680e+00	-9.124460192194549e+00
1	 7.504814423351923e-02	 1.627477764231905e+00	-9.175272321272228e+00
1	 3.748778922189638e-02	 1.628302248674145e+00	-9.207579969280236e+00
1	 0.000000000000000e+00	 1.628572881900711e+00	-9.221322044953329e+00
1	 3.788723424007510e-01	 1.612784179140129e+00	-8.210841843319006e+00
1	 3.411875284400819e-01	 1.618738428249461e+00	-8.383733722129044e+00
1	 3.033940836527992e-01	 1.623992756393148e+00	-8.540635072204003e+00
1	 2.655169187865384e-01	 1.628563154724507e+00	-8.680902255045799e+00
1	 2.275803951006083e-01	 1.632466210130370e+00	-8.803981742254951e+00
1	 1.896082825536040e-01	 1.635719043540108e+00	-8.909406535375883e+00
1	 1.516237219187161e-01	 1.638339248818289e+00	-8.996792149088952e+00
1	 1.136491908295131e-01	 1.640344832526921e+00	-9.065832242505177e+00
1	 7.570647373204954e-02	 1.641754154821212e+00	-9.116293979038488e+00
1	 3.781663569417570e-02	 1.642585871719799e+00	-9.148013190180114e+00
1	 0.000000000000000e+00	 1.642858878966899e+00	-9.160889412707458e+00
1	 3.821669500839457e-01	 1.626808668538665e+00	-8.152598420936403e+00
1	 3.441544355664312e-01	 1.632814694757902e+00	-8.325511641626058e+00
1	 3.060323455875985e-01	 1.638114713621036e+00	-8.482517056707577e+00
1	 2.678258075145910e-01	 1.642724855337668e+00	-8.622919870745546e+00
1	 2.295593944479702e-01	 1.646661851031305e+00	-8.746116155686968e+00
1	 1.912570830457364e-01	 1.649942970511941e+00	-8.851589596428713e+00
1	 1.529422153091992e-01	 1.652585960637322e+00	-8.938907761398751e+00
1	 1.146374643335000e-01	 1.654608984551381e+00	-9.007717983022525e+00
1	 7.636480399842863e-02	 1.656030562066033e+00	-9.057742929208848e+00
1	 3.814548254998362e-02	 1.656869511429404e+00	-9.088775942310766e+00
1	 0.000000000000000e+00	 1.657144892699808e+00	-9.100676216617851e+00
1	 3.854615608422766e-01	 1.640833171026356e+00	-8.095215733168546e+00
1	 3.471213454619858e-01	 1.646890974403806e+00	-8.268105509901547e+00
1	 3.086706099847795e-01	 1.652236684029017e+00	-8.425169050067536e+00
1	 2.701346983975204e-01	 1.656886569168003e+00	-8.565658705778008e+00
1	 2.315383956422299e-01	 1.660857505181086e+00	-8.688918547980355e+00
1	 1.929058850765158e-01	 1.664166910759013e+00	-8.794381444575198e+00
1	 1.542607099300037e-01	 1.666832685752855e+00	-8.881565623571497e+00
1	 1.156257387595986e-01	 1.668873149888614e+00	-8.950070806351352e+00
1	 7.702313487901102e-02	 1.670306982635067e+00	-8.999573992940025e+00
1	 3.847432971256679e-02	 1.671153164469973e+00	-9.029824976979647e+00
1	 0.000000000000000e+00	 1.671430919765895e+00	-9.040641663105319e+00
1	 3.887561739070783e-01	 1.654857683330742e+00	-8.038650233678842e+00
1	 3.500882574345220e-01	 1.660967263902613e+00	-8.211470613523824e+00
1	 3.113088762287797e-01	 1.666358664321857e+00	-8.368545426630071e+00
1	 2.724435908965959e-01	 1.671048292910997e+00	-8.509072517929679e+00
1	 2.335173982216118e-01	 1.675053169267265e+00	-8.632342394134600e+00
1	 1.945546882611978e-01	 1.678390860962273e+00	-8.737735641222109e+00
1	 1.555792054734463e-01	 1.681079420840518e+00	-8.824719785361806e+00
1	 1.166140138771731e-01	 1.683137325210182e+00	-8.892845682640216e+00
1	 7.768146622015146e-02	 1.684583413197011e+00	-8.941743520339315e+00
1	 3.880317710517176e-02	 1.685436827508512e+00	-8.971118508819099e+00
1	 0.000000000000000e+00	 1.685716956831615e+00	-8.980746338461632e+00
1	 3.920507885096861e-01	 1.668882202179363e+00	-7.982859838244640e+00
1	 3.530551707918164e-01	 1.675043559969767e+00	-8.155563740319897e+00
1	 3.139471437040367e-01	 1.680480651204323e+00	-8.312602092579869e+00
1	 2.747524844730875e-01	 1.685210023262131e+00	-8.453116617464163e+00
1	 2.354964017243407e-01	 1.689248839977401e+00	-8.576342731037498e+00
1	 1.962034922150377e-01	 1.692614817802672e+00	-8.681607306652943e+00
1	 1.568977016318438e-01	 1.695326162575941e+00	-8.768325838861195e+00
1	 1.176022894555876e-01	 1.697401507187642e+00	-8.835999093290384e+00
1	 7.833979786820437e-02	 1.698859850420562e+00	-8.884209326208987e+00
1	 3.913202465104514e-02	 1.699720497212033e+00	-8.912616154280439e+00
1	 0.000000000000000e+00	 1.700003000563425e+00	-8.920952150841767e+00
1	 3.953454038814352e-01	 1.682906724299760e+00	-7.927803863858902e+00
1	 3.560220848416451e-01	 1.689119859320706e+00	-8.100343116841877e+00
1	 3.165854117949879e-01	 1.694602641381182e+00	-8.257296422128364e+00
1	 2.770613785882645e-01	 1.699371756916888e+00	-8.397747802446149e+00
1	 2.374754056886408e-01	 1.703444513999047e+00	-8.520876092392886e+00
1	 1.978522965532911e-01	 1.706838777961158e+00	-8.625953055076398e+00
1	 1.582161980975129e-01	 1.709572907634753e+00	-8.712340854230659e+00
1	 1.185905652642063e-01	 1.711665692492552e+00	-8.779488967977738e+00
1	 7.899812966952448e-02	 1.713136290974417e+00	-8.826930629001229e+00
1	 3.946087227343351e-02	 1.714004170247544e+00	-8.854278873202059e+00
1	 0.000000000000000e+00	 1.714289047627778e+00	-8.861222275155241e+00
1	 1.714289047627778e+00	 0.000000000000000e+00	 5.900384994569439e-01
1	 1.714004170247544e+00	 3.946087227343405e-02	 5.842466755856364e-01
1	 1.713136290974417e+00	 7.899812966952499e-02	 5.775270692814346e-01
1	 1.711665692492551e+00	 1.185905652642067e-01	 5.696641445131709e-01
1	 1.709572907634753e+00	 1.582161980975134e-01	 5.604508537102915e-01
1	 1.706838777961159e+00	 1.978522965532914e-01	 5.496918506951334e-01
1	 1.703444513999047e+00	 2.374754056886410e-01	 5.372069121044629e-01
1	 1.699371756916888e+00	 2.770613785882647e-01	 5.228345458752558e-01
1	 1.694602641381181e+00	 3.165854117949879e-01	 5.064357595674975e-01
1	 1.689119859320706e+00	 3.560220848416451e-01	 4.878979552314204e-01
1	 1.682906724299760e+00	 3.953454038814352e-01	 4.671389113084721e-01
1	 1.728574095521189e+00	 0.000000000000000e+00	 5.801651254620271e-01
1	 1.728286844278154e+00	 3.978969689590382e-02	 5.742686013685697e-01
1	 1.727411733029215e+00	 7.965641542658061e-02	 5.674805990853362e-01
1	 1.725928880155543e+00	 1.195787719521365e-01	 5.596091693584355e-01
1	 1.723818656271432e+00	 1.595346023467900e-01	 5.504727761113319e-01
1	 1.721061743291110e+00	 1.995009855734061e-01	 5.399035588223255e-01
1	 1.717639195170523e+00	 2.394542712406711e-01	 5.277507874395813e-01
1	 1.713532500095309e+00	 2.793701112187154e-01	 5.138844861241871e-01
1	 1.708723643861422e+00	 3.192234953648744e-01	 4.981991963064916e-01
1	 1.703195174170718e+00	 3.589887913849909e-01	 4.806178435185646e-01
1	 1.696930265540624e+00	 3.986397888273382e-01	 4.610956663423363e-01
1	 1.742859145080407e+00	 0.000000000000000e+00	 5.723990377874602e-01
1	 1.742569519974292e+00	 4.011852155654502e-02	 5.665478921154199e-01
1	 1.741687176748694e+00	 8.031470126013213e-02	 5.597797362046562e-01
1	 1.740192069481785e+00	 1.205669787550092e-01	 5.519352699382598e-01
1	 1.738064406569329e+00	 1.608530067495478e-01	 5.428676208304626e-01
1	 1.735284710279628e+00	 2.011496747855981e-01	 5.324455749547001e-01
1	 1.731833877997279e+00	 2.414331370233990e-01	 5.205569763029954e-01
1	 1.727693244925074e+00	 2.816788441184743e-01	 5.071122688564869e-01
1	 1.722844647988404e+00	 3.218615792426328e-01	 4.920481500009336e-01
1	 1.717270490662191e+00	 3.619554982746882e-01	 4.753312981173941e-01
1	 1.710953808416969e+00	 4.019341741579514e-01	 4.569621313371450e-01
1	 1.757144197972236e+00	 0.000000000000000e+00	 5.665524800038757e-01
1	 1.756852199002485e+00	 4.044734629376737e-02	 5.609202044980919e-01
1	 1.755962623798535e+00	 8.097298724705353e-02	 5.542818842514098e-01
1	 1.754455262135521e+00	 1.215551857881995e-01	 5.465196555024912e-01
1	 1.752310160190644e+00	 1.621714114596792e-01	 5.375301818600706e-01
1	 1.749507680586243e+00	 2.027983643822760e-01	 5.272277742017935e-01
1	 1.746028564135532e+00	 2.434120032677273e-01	 5.155476468967392e-01
1	 1.741853993058423e+00	 2.839875775568943e-01	 5.024492828939617e-01
1	 1.736965655409712e+00	 3.244996637360027e-01	 4.879198748927517e-01
1	 1.731345810437356e+00	 3.649222058567783e-01	 4.719778043985601e-01
1	 1.724977354564966e+00	 4.052285602575090e-01	 4.546761150942209e-01
1	 1.771429255863481e+00	 0.000000000000000e+00	 5.624437529239726e-01
1	 1.771134883029259e+00	 4.077617114598067e-02	 5.572264970036882e-01
1	 1.770238075844416e+00	 8.163127346421889e-02	 5.508490470226786e-01
1	 1.768718459780996e+00	 1.225433931670820e-01	 5.432434965206903e-01
1	 1.766555918797576e+00	 1.634898166310768e-01	 5.343586471231436e-01
1	 1.763730655870483e+00	 2.044470545558483e-01	 5.241629391035494e-01
1	 1.760223255241496e+00	 2.453908702045582e-01	 5.126474783084627e-01
1	 1.756014746147593e+00	 2.862963118033288e-01	 4.998291305227838e-01
1	 1.751086667772930e+00	 3.271377491527243e-01	 4.857536495032513e-01
1	 1.745421135138444e+00	 3.678889144773020e-01	 4.704988000591563e-01
1	 1.739000905620783e+00	 4.085229475102455e-01	 4.541774328330753e-01
1	 1.785714320420949e+00	 0.000000000000000e+00	 5.598969723321846e-01
1	 1.785417573721143e+00	 4.110499615159467e-02	 5.553128178726598e-01
1	 1.784513534552017e+00	 8.228955998850228e-02	 5.493476444974490e-01
1	 1.782981664082449e+00	 1.235316010070312e-01	 5.419917662328522e-01
1	 1.780801684052323e+00	 1.648082224176332e-01	 5.332544627124717e-01
1	 1.777953637791879e+00	 2.060957454987233e-01	 5.231666433277777e-01
1	 1.774417952971385e+00	 2.473697380647936e-01	 5.117835600700391e-01
1	 1.770175505844826e+00	 2.886050471271306e-01	 4.991875389491436e-01
1	 1.765207686725639e+00	 3.297758358005370e-01	 4.854906956570825e-01
1	 1.759496466407687e+00	 3.708556244823006e-01	 4.708375970261111e-01
1	 1.753024463220587e+00	 4.118173363003946e-01	 4.554078259327042e-01
1	 1.799999393311444e+00	 0.000000000000000e+00	 5.587418382535801e-01
1	 1.799700272744663e+00	 4.143382134901918e-02	 5.550301031373699e-01
1	 1.798789001587018e+00	 8.294784689677770e-02	 5.496483375974086e-01
1	 1.797244876704124e+00	 1.245198094234218e-01	 5.426530897470325e-01
1	 1.795047457617085e+00	 1.661266289732409e-01	 5.341222035960659e-01
1	 1.792176628009957e+00	 2.077444374033096e-01	 5.241571409070211e-01
1	 1.788612658981417e+00	 2.493486070793360e-01	 5.128852965001087e-01
1	 1.784336273802357e+00	 2.909137837976530e-01	 5.004622759722746e-01
1	 1.779328713915424e+00	 3.324139239871812e-01	 4.870741013630525e-01
1	 1.773571805887316e+00	 3.738223362178146e-01	 4.729393070793045e-01
1	 1.767048029000547e+00	 4.151117270121904e-01	 4.583108854955553e-01
1	 1.814284476201773e+00	 0.000000000000000e+00	 5.588134151258076e-01
1	 1.813982981766347e+00	 4.176264677666395e-02	 5.562339842042061e-01
1	 1.813064478615097e+00	 8.360613426591922e-02	 5.516258612286058e-01
1	 1.811508099310267e+00	 1.255080185316283e-01	 5.451196002677472e-01
1	 1.809293241154060e+00	 1.674450364517926e-01	 5.368694504323273e-01
1	 1.806399628184248e+00	 2.093931304620157e-01	 5.270552607095018e-01
1	 1.802807374927804e+00	 2.513274774790874e-01	 5.158843155668970e-01
1	 1.798497051672427e+00	 2.932225220842489e-01	 5.035930696422422e-01
1	 1.793449750989868e+00	 3.350520140203967e-01	 4.904487473391476e-01
1	 1.787647155219565e+00	 3.767890500298854e-01	 4.767507709893155e-01
1	 1.781071604596829e+00	 4.184061200298669e-01	 4.628319795234689e-01
1	 1.828569570758740e+00	 0.000000000000000e+00	 5.599519222777464e-01
1	 1.828265702452721e+00	 4.209147247293873e-02	 5.587846044572973e-01
1	 1.827339967301935e+00	 8.426442217280079e-02	 5.551588651509571e-01
1	 1.825771333565118e+00	 1.264962284470254e-01	 5.492868020651561e-01
1	 1.823539036325449e+00	 1.687634450071806e-01	 5.414066721607320e-01
1	 1.820622639974282e+00	 2.110418248672499e-01	 5.317843058577838e-01
1	 1.817002102466761e+00	 2.533063494949500e-01	 5.207143820240010e-01
1	 1.812657841107275e+00	 2.955312622562716e-01	 5.085215316846528e-01
1	 1.807570799596554e+00	 3.376901062079237e-01	 4.955612369824737e-01
1	 1.801722516046665e+00	 3.797557662645540e-01	 4.822204909775336e-01
1	 1.795095191645604e+00	 4.217005157376583e-01	 4.689181835079307e-01
1	 1.842854678649152e+00	 0.000000000000000e+00	 5.620025341554103e-01
1	 1.842548436470314e+00	 4.242029847625331e-02	 5.625464443940421e-01
1	 1.841615469313211e+00	 8.492271069429662e-02	 5.601297622507622e-01
1	 1.840034581132922e+00	 1.274844392849876e-01	 5.550534398191243e-01
1	 1.837784844793450e+00	 1.700818547932978e-01	 5.476471140546366e-01
1	 1.834845665039586e+00	 2.126905208114208e-01	 5.382699578266545e-01
1	 1.831196843254505e+00	 2.552852233578261e-01	 5.273113145872288e-01
1	 1.826818643759138e+00	 2.978400045830740e-01	 5.151910844877177e-01
1	 1.821691861383066e+00	 3.403282008575017e-01	 5.023598295970493e-01
1	 1.815797890010847e+00	 3.827224852678610e-01	 4.892985663183713e-01
1	 1.809118791783039e+00	 4.249949145197988e-01	 4.765182142494375e-01
1	 1.857139801539814e+00	 0.000000000000000e+00	 5.648151897701912e-01
1	 1.856831185485652e+00	 4.274912482501749e-02	 5.673881548331016e-01
1	 1.855890986314602e+00	 8.558099990728060e-02	 5.664245838175431e-01
1	 1.854297843677920e+00	 1.284726511608895e-01	 5.623213739948318e-01
1	 1.852030668220261e+00	 1.714002659640365e-01	 5.555066909419154e-01
1	 1.849068705039691e+00	 2.143392184869368e-01	 5.464401849682131e-01
1	 1.845391598947249e+00	 2.572640992986178e-01	 5.356129069348684e-01
1	 1.840979461280257e+00	 3.001487493340095e-01	 5.235468914598811e-01
1	 1.835812937996986e+00	 3.429662982768709e-01	 5.107943767041179e-01
1	 1.829873278754343e+00	 3.856892073858478e-01	 4.979366319142886e-01
1	 1.823142406645302e+00	 4.282893167605222e-01	 4.855823667319562e-01
1	 1.682906724299760e+00	 3.953454038814352e-01	 4.671389113084720e-01
1	 1.675947749803660e+00	 4.345261195934738e-01	 4.433256447297445e-01
1	 1.668227280467807e+00	 4.735400391875617e-01	 4.157925382952234e-01
1	 1.659730884666089e+00	 5.123598044659057e-01	 3.847102200643114e-01
1	 1.650445008658129e+00	 5.509577006915951e-01	 3.502079013047104e-01
1	 1.640357038728711e+00	 5.893057194590274e-01	 3.123683316468327e-01
1	 1.629455361754438e+00	 6.273756249509855e-01	 2.712229134911751e-01
1	 1.617729423793474e+00	 6.651390233461127e-01	 2.267470625594074e-01
1	 1.605169786290770e+00	 7.025674351061066e-01	 1.788559053152107e-01
1	 1.591768179491655e+00	 7.396323698384317e-01	 1.274004061576470e-01
1	 1.577517552661069e+00	 7.763054033982315e-01	 7.216401755602891e-02
1	 1.696930265540624e+00	 3.986397888273382e-01	 4.610956663423361e-01
1	 1.689913302408431e+00	 4.381469946384857e-01	 4.386424657609509e-01
1	 1.682128498954506e+00	 4.774860144314484e-01	 4.124133285144291e-01
1	 1.673561303295025e+00	 5.166292620345447e-01	 3.825833969829497e-01
1	 1.664198048747260e+00	 5.555487917659617e-01	 3.492850137238356e-01
1	 1.654026016486803e+00	 5.942163618280745e-01	 3.126025188257515e-01
1	 1.643033496618929e+00	 6.326035011166402e-01	 2.725672116559760e-01
1	 1.631209847256555e+00	 6.706815792066391e-01	 2.291525666610346e-01
1	 1.618545551193824e+00	 7.084218792418324e-01	 1.822697968435196e-01
1	 1.605032269764788e+00	 7.457956734213033e-01	 1.317638607894571e-01
1	 1.590662893481110e+00	 7.827743007438482e-01	 7.741000940099518e-02
1	 1.710953808416969e+00	 4.019341741579514e-01	 4.569621313371451e-01
1	 1.703878856642000e+00	 4.417678701064068e-01	 4.357948769407278e-01
1	 1.696029719062592e+00	 4.814319901362581e-01	 4.108006095568164e-01
1	 1.687391723537195e+00	 5.208987201019111e-01	 3.821567350579051e-01
1	 1.677951090440714e+00	 5.601398833766248e-01	 3.499965017639606e-01
1	 1.667694995839533e+00	 5.991270047707271e-01	 3.144036620650908e-01
1	 1.656611633067583e+00	 6.378313778929233e-01	 2.754073046710904e-01
1	 1.644690272292521e+00	 6.762241357145047e-01	 2.329769496767514e-01
1	 1.631921317657670e+00	 7.142763240612714e-01	 1.870180026837105e-01
1	 1.618296361585791e+00	 7.519589777238973e-01	 1.373676665105335e-01
1	 1.603808235835264e+00	 7.892431988448088e-01	 8.379140928532332e-02
1	 1.724977354564966e+00	 4.052285602575090e-01	 4.546761150942208e-01
1	 1.717844414133743e+00	 4.453887464195300e-01	 4.347171477975084e-01
1	 1.709930942413911e+00	 4.853779667621866e-01	 4.108855109836832e-01
1	 1.701222147006159e+00	 5.251681791659193e-01	 3.833586815942536e-01
1	 1.691704135342993e+00	 5.647309760590074e-01	 3.522686462160334e-01
1	 1.681363978381567e+00	 6.040376488596787e-01	 3.176964486329918e-01
1	 1.670189772684441e+00	 6.430592558895325e-01	 2.796669153098802e-01
1	 1.658170700473988e+00	 6.817666935161188e-01	 2.381436532879257e-01
1	 1.645297087242689e+00	 7.201307702472223e-01	 1.930244190769580e-01
1	 1.631560456501998e+00	 7.581222834650542e-01	 1.441369594237288e-01
1	 1.616953581256991e+00	 7.957120984556170e-01	 9.123542504965097e-02
1	 1.739000905620783e+00	 4.085229475102455e-01	 4.541774328330753e-01
1	 1.731809976513040e+00	 4.490096240001489e-01	 4.353456684457122e-01
1	 1.723832170630307e+00	 4.893239447694294e-01	 4.126013842223754e-01
1	 1.715052575315472e+00	 5.294376397244838e-01	 3.861199922727781e-01
1	 1.705457185058600e+00	 5.693220703485321e-01	 3.560301061154205e-01
1	 1.695032965707572e+00	 6.089482946676218e-01	 3.224079954244298e-01
1	 1.683767917053543e+00	 6.482871357161656e-01	 2.852722270624168e-01
1	 1.671651133373571e+00	 6.873092532578903e-01	 2.445785889373248e-01
1	 1.658672861509265e+00	 7.259852184824843e-01	 2.002153973412197e-01
1	 1.644824556060741e+00	 7.642855913636147e-01	 1.519992906944035e-01
1	 1.630098931279753e+00	 8.021810003307787e-01	 9.967161275199728e-02
1	 1.753024463220587e+00	 4.118173363003946e-01	 4.554078259327041e-01
1	 1.745775545409268e+00	 4.526305032705572e-01	 4.376188647618033e-01
1	 1.737733405333627e+00	 4.932699246181824e-01	 4.158837136923279e-01
1	 1.728883010078692e+00	 5.337071022755192e-01	 3.903736388166315e-01
1	 1.719210241192034e+00	 5.739131667806220e-01	 3.612118236146598e-01
1	 1.708701959412214e+00	 6.138589427672492e-01	 3.284677517794089e-01
1	 1.697346067758932e+00	 6.535150179825200e-01	 2.921517857107635e-01
1	 1.685131572563887e+00	 6.928518155862283e-01	 2.522100390432867e-01
1	 1.672048642017779e+00	 7.318396694498565e-01	 2.085196456734854e-01
1	 1.658088661809354e+00	 7.704489021384190e-01	 1.608845299540188e-01
1	 1.643244287437012e+00	 8.086499052247982e-01	 1.090317827460482e-01
1	 1.767048029000547e+00	 4.151117270121904e-01	 4.583108854955555e-01
1	 1.759741122451803e+00	 4.562513846530477e-01	 4.414771176004570e-01
1	 1.751634648145715e+00	 4.972159067686412e-01	 4.206700321641570e-01
1	 1.742713452909377e+00	 5.379765673169402e-01	 3.960547210558030e-01
1	 1.732963305347800e+00	 5.785042658906993e-01	 3.677469333870910e-01
1	 1.722370961090161e+00	 6.187695937312541e-01	 3.358074069298862e-01
1	 1.710924226384649e+00	 6.587429032982933e-01	 3.002364055921857e-01
1	 1.698612019617552e+00	 6.983943811475415e-01	 2.609685629190007e-01
1	 1.685424430328613e+00	 7.376941238321379e-01	 2.178681356291387e-01
1	 1.671352775295170e+00	 7.766122165083076e-01	 1.707247733045803e-01
1	 1.656389651262230e+00	 8.151188138921801e-01	 1.192499102329033e-01
1	 1.781071604596829e+00	 4.184061200298669e-01	 4.628319795234689e-01
1	 1.773706709270024e+00	 4.598722685699136e-01	 4.468626858281272e-01
1	 1.765535900688415e+00	 5.011618916810018e-01	 4.268998401183795e-01
1	 1.756543905421082e+00	 5.422460353466612e-01	 4.031003831469063e-01
1	 1.746716379130398e+00	 5.830953682141868e-01	 3.755706763115599e-01
1	 1.736039972336078e+00	 6.236802481323294e-01	 3.443608018202290e-01
1	 1.724502394514734e+00	 6.639707922731830e-01	 3.094590802918353e-01
1	 1.712092476107182e+00	 7.039369505882386e-01	 2.707869071375228e-01
1	 1.698800228002152e+00	 7.435485823121282e-01	 2.281940130205868e-01
1	 1.684616898065521e+00	 7.827755351921205e-01	 1.814542556702730e-01
1	 1.669535024288868e+00	 8.215877270874299e-01	 1.302620500396384e-01
1	 1.795095191645604e+00	 4.217005157376583e-01	 4.689181835079307e-01
1	 1.787672307493307e+00	 4.634931554434489e-01	 4.537196329651822e-01
1	 1.779437164583574e+00	 5.051078798154593e-01	 4.345145288850406e-01
1	 1.770374369227367e+00	 5.465155068625966e-01	 4.114497337210475e-01
1	 1.760469464144329e+00	 5.876864742865074e-01	 3.846203172040228e-01
1	 1.749708994744631e+00	 6.285909065431676e-01	 3.540638450620022e-01
1	 1.738080573733230e+00	 6.691986855168867e-01	 3.197548975226069e-01
1	 1.725572943605393e+00	 7.094795245547292e-01	 2.815999200993460e-01
1	 1.712176036598775e+00	 7.494030455726258e-01	 2.394325129934178e-01
1	 1.697881031667741e+00	 7.889388589086984e-01	 1.930092672585098e-01
1	 1.682680408050388e+00	 8.280566455650521e-01	 1.420062553934932e-01
1	 1.809118791783039e+00	 4.249949145197988e-01	 4.765182142494376e-01
1	 1.801637918751031e+00	 4.671140456959464e-01	 4.619937572408043e-01
1	 1.793338441453034e+00	 5.090538716322103e-01	 4.434573073589820e-01
1	 1.784204845941787e+00	 5.507849823626610e-01	 4.210437697464980e-01
1	 1.774222561994096e+00	 5.922775846430840e-01	 3.948350663764282e-01
1	 1.763378029910488e+00	 6.335015695364624e-01	 3.648544327986573e-01
1	 1.751658765624176e+00	 6.744265836391019e-01	 3.310609579649590e-01
1	 1.739053423684801e+00	 7.150221036934215e-01	 2.933444705744246e-01
1	 1.725551857678869e+00	 7.552575142964307e-01	 2.515208790533603e-01
1	 1.711145177649163e+00	 7.951021883768816e-01	 2.053280739073444e-01
1	 1.695825804080252e+00	 8.345255700795510e-01	 1.544225004748172e-01
1	 1.823142406645302e+00	 4.282893167605222e-01	 4.855823667319563e-01
1	 1.815603544672573e+00	 4.707349397496997e-01	 4.716325248767636e-01
1	 1.807239732918643e+00	 5.129998675914498e-01	 4.536731320982259e-01
1	 1.798035337177901e+00	 5.550544623447690e-01	 4.318253039062029e-01
1	 1.787975674284199e+00	 5.968686998193390e-01	 4.061560048166979e-01
1	 1.777047079428317e+00	 6.384122376849063e-01	 3.766723722695740e-01
1	 1.765236971771615e+00	 6.796544872495263e-01	 3.433162978533573e-01
1	 1.752533917918022e+00	 7.205646886507250e-01	 3.059593700045949e-01
1	 1.738927692802811e+00	 7.611119891663414e-01	 2.643982858312535e-01
1	 1.724409337557121e+00	 8.012655243155106e-01	 2.183508411099450e-01
1	 1.708971213911921e+00	 8.409945013854322e-01	 1.674526065452575e-01
1	 1.577517552661069e+00	 7.763054033982315e-01	 7.216401755602889e-02
1	 1.562411034908616e+00	 8.125607776635853e-01	 1.121470552986443e-02
1	 1.546445124723613e+00	 8.483678438587413e-01	-5.728876452071864e-02
1	 1.529616701598890e+00	 8.836988399894217e-01	-1.335002318869553e-01
1	 1.511924025818336e+00	 9.185263933820198e-01	-2.175853341245673e-01
1	 1.493366767095691e+00	 9.528236030216212e-01	-3.097208487298835e-01
1	 1.473946027928508e+00	 9.865641215718935e-01	-4.100938059586027e-01
1	 1.453664361413024e+00	 1.019722236591529e+00	-5.189003709330366e-01
1	 1.432525783302651e+00	 1.052272950456313e+00	-6.363444978795164e-01
1	 1.410535778132862e+00	 1.084192058495051e+00	-7.626363642771942e-01
1	 1.387701299278052e+00	 1.115456224851666e+00	-8.979905977495712e-01
1	 1.590662893481110e+00	 7.827743007438482e-01	 7.741000940099516e-02
1	 1.575430494197757e+00	 8.193317884469776e-01	 1.735478019270448e-02
1	 1.559331541226210e+00	 8.554372323608842e-01	-5.017057073021916e-02
1	 1.542362888056345e+00	 8.910626391525762e-01	-1.253375987170950e-01
1	 1.524522780475129e+00	 9.261804080539138e-01	-2.083279663321316e-01
1	 1.505810885444059e+00	 9.607634138857474e-01	-2.993325619602313e-01
1	 1.486228314647727e+00	 9.947850897612733e-01	-3.985504052704798e-01
1	 1.465777642457148e+00	 1.028219508979247e+00	-5.061873415840427e-01
1	 1.444462918088727e+00	 1.061041465612036e+00	-6.224545317045931e-01
1	 1.422289671780186e+00	 1.093226553292651e+00	-7.475667484251152e-01
1	 1.399264914847900e+00	 1.124751241708993e+00	-8.817404955940944e-01
1	 1.603808235835264e+00	 7.892431988448088e-01	 8.379140928532329e-02
1	 1.588449955006404e+00	 8.261028000209216e-01	 2.452057851879608e-02
1	 1.572217959232855e+00	 8.625066216883476e-01	-4.213359687268774e-02
1	 1.555109076001540e+00	 8.984264391753550e-01	-1.163599486692310e-01
1	 1.537121536602497e+00	 9.338344236192464e-01	-1.983556754880245e-01
1	 1.518255005244984e+00	 9.687032256766132e-01	-2.883252397367976e-01
1	 1.498510602800634e+00	 1.003006058910155e+00	-3.864790678428871e-01
1	 1.477890924915242e+00	 1.036716782358670e+00	-4.930320597138388e-01
1	 1.456400054268210e+00	 1.069809981791085e+00	-6.082019176990484e-01
1	 1.434043566799518e+00	 1.102261049144593e+00	-7.322073096795743e-01
1	 1.410828531767526e+00	 1.134046259651052e+00	-8.652658851871352e-01
1	 1.616953581256991e+00	 7.957120984556170e-01	 9.123542504965100e-02
1	 1.601469418853318e+00	 8.328738131751846e-01	 3.264185845323736e-02
1	 1.585104380246781e+00	 8.695760126657284e-01	-3.324544395138100e-02
1	 1.567855266921338e+00	 9.057902409167240e-01	-1.066321575307417e-01
1	 1.549720295670102e+00	 9.414884409708640e-01	-1.877305353267374e-01
1	 1.530699127950089e+00	 9.766430393204287e-01	-2.767580847413919e-01
1	 1.510792893819975e+00	 1.011227029977573e+00	-3.739360646114181e-01
1	 1.490004210200340e+00	 1.045214057721086e+00	-4.794878125462889e-01
1	 1.468337193233596e+00	 1.078578500016408e+00	-5.936369165059616e-01
1	 1.445797464561987e+00	 1.111295547104869e+00	-7.166052486398938e-01
1	 1.422392151385875e+00	 1.143341279762238e+00	-8.486108832733937e-01
1	 1.630098931279753e+00	 8.021810003307787e-01	 9.967161275199725e-02
1	 1.614488887257262e+00	 8.396448286995342e-01	 4.165064388599068e-02
1	 1.597990805771218e+00	 8.766454061176232e-01	-2.357153222791419e-02
1	 1.580601462302604e+00	 9.131540452356487e-01	-9.621700826241320e-02
1	 1.562319059147608e+00	 9.491424610016120e-01	-1.765126171466994e-01
1	 1.543143255010995e+00	 9.845828557434052e-01	-2.646883898330443e-01
1	 1.523075189138495e+00	 1.019448003922562e+00	-3.609758512571667e-01
1	 1.502117499725479e+00	 1.053711336057785e+00	-4.656061682927744e-01
1	 1.480274336377378e+00	 1.087347021310958e+00	-5.788081673786050e-01
1	 1.457551366438721e+00	 1.120330048227474e+00	-7.008062432160397e-01
1	 1.433955775051891e+00	 1.152636303126949e+00	-8.318181833756488e-01
1	 1.643244287437012e+00	 8.086499052247982e-01	 1.090317827460482e-01
1	 1.627508361736999e+00	 8.464158473837371e-01	 5.148113402207231e-02
1	 1.610877237309396e+00	 8.837148028686295e-01	-1.317518844287441e-02
1	 1.593347663632206e+00	 9.205178529910945e-01	-8.517527470131420e-02
1	 1.574917828504675e+00	 9.567964846043375e-01	-1.647600698963140e-01
1	 1.555587387879325e+00	 9.925226758717542e-01	-2.521716144282424e-01
1	 1.535357490188940e+00	 1.027668981704154e+00	-3.476511408029373e-01
1	 1.514230794903695e+00	 1.062208618360056e+00	-4.514370448973870e-01
1	 1.492211485092054e+00	 1.096115546697684e+00	-5.637627530194562e-01
1	 1.469305273800852e+00	 1.129364553566402e+00	-6.848545095182920e-01
1	 1.445519404114519e+00	 1.161931330829578e+00	-8.149291127044156e-01
1	 1.656389651262230e+00	 8.151188138921801e-01	 1.192499102329033e-01
1	 1.640527843811289e+00	 8.531868700175608e-01	 6.206961706840068e-02
1	 1.623763676364548e+00	 8.907842037433427e-01	-2.117728882145370e-03
1	 1.606093872397005e+00	 9.278816650420267e-01	-7.356580127691925e-02
1	 1.587516605210965e+00	 9.644505126718853e-01	-1.525291964455307e-01
1	 1.568031528006701e+00	 1.000462500631687e+00	-2.392614572432188e-01
1	 1.547639798404058e+00	 1.035889964281385e+00	-3.340129727517284e-01
1	 1.526344097148023e+00	 1.070705905619187e+00	-4.370287755078646e-01
1	 1.504148640770117e+00	 1.104884077199536e+00	-5.485462613309040e-01
1	 1.481059188019506e+00	 1.138399064175646e+00	-6.687928598467533e-01
1	 1.457083039922703e+00	 1.171226363954524e+00	-7.979836863570580e-01
1	 1.669535024288868e+00	 8.215877270874299e-01	 1.302620500396384e-01
1	 1.653547334998897e+00	 8.599578973907720e-01	 7.335438799931858e-02
1	 1.636650124439903e+00	 8.978536095663603e-01	 9.541461482010849e-03
1	 1.618840090083870e+00	 9.352454822474111e-01	-6.144557896030273e-02
1	 1.600115390736142e+00	 9.721045460971018e-01	-1.398745262532401e-01
1	 1.580475676844747e+00	 1.008402330949414e+00	-2.260099255988545e-01
1	 1.559922115216593e+00	 1.044110952613289e+00	-3.201107789581404e-01
1	 1.538457407871499e+00	 1.079203198826468e+00	-4.224281708527008e-01
1	 1.516085804804064e+00	 1.113652613839465e+00	-5.332028442479971e-01
1	 1.492813110465814e+00	 1.147433581109201e+00	-6.526627579405708e-01
1	 1.468646683825388e+00	 1.180521403586180e+00	-7.810206589557386e-01
1	 1.682680408050388e+00	 8.280566455650521e-01	 1.420062553934933e-01
1	 1.666566836818583e+00	 8.667289302931382e-01	 8.527567017769327e-02
1	 1.649536583038693e+00	 9.049230211622783e-01	 2.174485356041583e-02
1	 1.631586318179661e+00	 9.426093054662129e-01	-4.886981765244208e-02
1	 1.612714186549867e+00	 9.797585857728328e-01	-1.268488846276668e-01
1	 1.592919835845084e+00	 1.016342167751147e+00	-2.124674014761877e-01
1	 1.572204442059292e+00	 1.052331947658898e+00	-3.059924464113606e-01
1	 1.550570728487159e+00	 1.087700498973188e+00	-4.076805786936969e-01
1	 1.528022978586386e+00	 1.122421157640422e+00	-5.177752738128034e-01
1	 1.504567042510903e+00	 1.156468105421060e+00	-6.365043716368454e-01
1	 1.480210337171517e+00	 1.189816450808942e+00	-7.640775738643338e-01
1	 1.695825804080252e+00	 8.345255700795510e-01	 1.544225004748173e-01
1	 1.679586350789110e+00	 8.734999695144262e-01	 9.777554062233454e-02
1	 1.662423053664149e+00	 9.119924393556940e-01	 3.443670222559708e-02
1	 1.644332558171247e+00	 9.499731355573974e-01	-3.589201520489674e-02
1	 1.625312994121802e+00	 9.874126325919251e-01	-1.135034587646295e-01
1	 1.605364006459333e+00	 1.024282011963096e+00	-1.986827044989270e-01
1	 1.584486780364901e+00	 1.060552950377249e+00	-2.917043770974009e-01
1	 1.562684060408038e+00	 1.096197807050635e+00	-3.928299405127166e-01
1	 1.539960163509583e+00	 1.131189709625357e+00	-5.023049956400806e-01
1	 1.516320985525905e+00	 1.165502638165219e+00	-6.203566230797134e-01
1	 1.491774001310037e+00	 1.199111506707208e+00	-7.471908101156549e-01
1	 1.708971213911921e+00	 8.409945013854322e-01	 1.674526065452575e-01
1	 1.692605878429240e+00	 8.802710158444028e-01	 1.107978587253425e-01
1	 1.675309537819501e+00	 9.190618649712039e-01	 4.756297771055498e-02
1	 1.657078811545492e+00	 9.573369733799312e-01	-2.256402325423412e-02
1	 1.637911814921611e+00	 9.950666874472247e-01	-9.988786073725087e-02
1	 1.617808190139119e+00	 1.032221864511473e+00	-1.847031520084600e-01
1	 1.596769131566166e+00	 1.068773961727374e+00	-2.772915450978710e-01
1	 1.574797405047172e+00	 1.104695124050099e+00	-3.779188455815257e-01
1	 1.551897360966147e+00	 1.139958270817221e+00	-4.868321799147881e-01
1	 1.528074940881947e+00	 1.174537180395669e+00	-6.042572366116067e-01
1	 1.503337677589890e+00	 1.208406572365371e+00	-7.303956271723833e-01
1	 1.387701299278052e+00	 1.115456224851666e+00	-8.979905977495712e-01
1	 1.364030759277465e+00	 1.146043058270738e+00	-1.043384666459932e+00
1	 1.339534006818105e+00	 1.175931189999760e+00	-1.199608477615140e+00
1	 1.314222318998515e+00	 1.205100331942848e+00	-1.366553588257653e+00
1	 1.288108380333235e+00	 1.233531336090155e+00	-1.544052784169226e+00
1	 1.261206252148415e+00	 1.261206252148416e+00	-1.731880324273281e+00
1	 1.233531336090155e+00	 1.288108380333236e+00	-1.929752824326510e+00
1	 1.205100331942847e+00	 1.314222318998515e+00	-2.137330772320926e+00
1	 1.175931189999759e+00	 1.339534006818105e+00	-2.354220656231630e+00
1	 1.146043058270737e+00	 1.364030759277465e+00	-2.579977673367529e+00
1	 1.115456224851666e+00	 1.387701299278052e+00	-2.814108979938140e+00
1	 1.399264914847900e+00	 1.124751241708993e+00	-8.817404955940944e-01
1	 1.375397129932205e+00	 1.155592953020909e+00	-1.025873471339389e+00
1	 1.350696247788508e+00	 1.185730140411611e+00	-1.180689607414450e+00
1	 1.325173639486599e+00	 1.215142346725971e+00	-1.346101903791348e+00
1	 1.298842095240169e+00	 1.243810264395152e+00	-1.521965752699555e+00
1	 1.271715793547383e+00	 1.271715793547383e+00	-1.708079020638426e+00
1	 1.243810264395151e+00	 1.298842095240169e+00	-1.904182757052837e+00
1	 1.215142346725971e+00	 1.325173639486600e+00	-2.109962524553458e+00
1	 1.185730140411611e+00	 1.350696247788508e+00	-2.325050333983051e+00
1	 1.155592953020908e+00	 1.375397129932205e+00	-2.549027156394550e+00
1	 1.124751241708993e+00	 1.399264914847900e+00	-2.781425973440933e+00
1	 1.410828531767526e+00	 1.134046259651052e+00	-8.652658851871352e-01
1	 1.386763501913673e+00	 1.165142848885558e+00	-1.008201370935311e+00
1	 1.361858490061780e+00	 1.195529091967020e+00	-1.161677223870507e+00
1	 1.336124961252898e+00	 1.225184362681042e+00	-1.325626657630046e+00
1	 1.309575811399881e+00	 1.254089193899776e+00	-1.499926406279309e+00
1	 1.282225336172927e+00	 1.282225336172928e+00	-1.684396653920877e+00
1	 1.254089193899775e+00	 1.309575811399881e+00	-1.878801578709322e+00
1	 1.225184362681042e+00	 1.336124961252899e+00	-2.082850508463336e+00
1	 1.195529091967019e+00	 1.361858490061780e+00	-2.296199673687019e+00
1	 1.165142848885558e+00	 1.386763501913674e+00	-2.518454532718928e+00
1	 1.134046259651052e+00	 1.410828531767526e+00	-2.749172633240720e+00
1	 1.422392151385875e+00	 1.143341279762238e+00	-8.486108832733937e-01
1	 1.398129876547819e+00	 1.174692746978819e+00	-9.904093160241032e-01
1	 1.373020734940072e+00	 1.205328045809172e+00	-1.142608979079200e+00
1	 1.347076285574974e+00	 1.235226380979596e+00	-1.305162092530821e+00
1	 1.320309530064563e+00	 1.264368125803190e+00	-1.477965490537770e+00
1	 1.292734881251103e+00	 1.292734881251103e+00	-1.660860408360792e+00
1	 1.264368125803190e+00	 1.320309530064563e+00	-1.853632871906078e+00
1	 1.235226380979596e+00	 1.347076285574974e+00	-2.056014689131449e+00
1	 1.205328045809172e+00	 1.373020734940072e+00	-2.267685031484489e+00
1	 1.174692746978818e+00	 1.398129876547820e+00	-2.488272582589959e+00
1	 1.143341279762238e+00	 1.422392151385875e+00	-2.717358220999000e+00
1	 1.433955775051891e+00	 1.152636303126949e+00	-8.318181833756488e-01
1	 1.409496255160591e+00	 1.184242648414825e+00	-9.725369362760614e-01
1	 1.384182983725537e+00	 1.215127003081255e+00	-1.123521310427440e+00
1	 1.358027613730387e+00	 1.245268402793169e+00	-1.284741346509183e+00
1	 1.331043252486407e+00	 1.274647061304560e+00	-1.456112759163304e+00
1	 1.303244430007965e+00	 1.303244430007966e+00	-1.637496591132720e+00
1	 1.274647061304560e+00	 1.331043252486408e+00	-1.828699458363275e+00
1	 1.245268402793168e+00	 1.358027613730388e+00	-2.029474387440110e+00
1	 1.215127003081255e+00	 1.384182983725537e+00	-2.239522235735336e+00
1	 1.184242648414824e+00	 1.409496255160592e+00	-2.458493673831097e+00
1	 1.152636303126949e+00	 1.433955775051891e+00	-2.685991699462264e+00
1	 1.445519404114519e+00	 1.161931330829578e+00	-8.149291127044156e-01
1	 1.420862639077938e+00	 1.193792554307709e+00	-9.546225930791679e-01
1	 1.395345237720325e+00	 1.224925964926454e+00	-1.104449489159749e+00
1	 1.368978946996702e+00	 1.255310429293297e+00	-1.264396497005775e+00
1	 1.341776979917606e+00	 1.284926001603051e+00	-1.434397013556646e+00
1	 1.313753983669569e+00	 1.313753983669570e+00	-1.614330667402718e+00
1	 1.284926001603050e+00	 1.341776979917607e+00	-1.804023429320158e+00
1	 1.255310429293297e+00	 1.368978946996703e+00	-2.003248305813422e+00
1	 1.224925964926455e+00	 1.395345237720325e+00	-2.211726608101169e+00
1	 1.193792554307708e+00	 1.420862639077939e+00	-2.429129778307797e+00
1	 1.161931330829579e+00	 1.445519404114519e+00	-2.655081744388946e+00
1	 1.457083039922703e+00	 1.171226363954524e+00	-7.979836863570580e-01
1	 1.432229029625809e+00	 1.203342465771605e+00	-9.367034298468855e-01
1	 1.406507498226588e+00	 1.234724932487957e+00	-1.085427666631622e+00
1	 1.379930286651479e+00	 1.265352461651516e+00	-1.244158602949229e+00
1	 1.352510713610353e+00	 1.295204947897826e+00	-1.412846140595637e+00
1	 1.324263543461969e+00	 1.324263543461970e+00	-1.591387293715746e+00
1	 1.295204947897825e+00	 1.352510713610354e+00	-1.779626174495665e+00
1	 1.265352461651516e+00	 1.379930286651479e+00	-1.977354552731527e+00
1	 1.234724932487956e+00	 1.406507498226588e+00	-2.184312983623975e+00
1	 1.203342465771604e+00	 1.432229029625810e+00	-2.400192487611095e+00
1	 1.171226363954523e+00	 1.457083039922703e+00	-2.624636755908357e+00
1	 1.468646683825388e+00	 1.180521403586180e+00	-7.810206589557386e-01
1	 1.443595428130154e+00	 1.212892383920647e+00	-9.188154199487077e-01
1	 1.417669766546477e+00	 1.244523906908949e+00	-1.066488918377295e+00
1	 1.390881633972279e+00	 1.275394501039364e+00	-1.224057744831591e+00
1	 1.363244454816839e+00	 1.305483901388050e+00	-1.391487148615266e+00
1	 1.334773110611222e+00	 1.334773110611222e+00	-1.568690349805273e+00
1	 1.305483901388049e+00	 1.363244454816840e+00	-1.755528409680499e+00
1	 1.275394501039363e+00	 1.390881633972279e+00	-1.951810666086629e+00
1	 1.244523906908948e+00	 1.417669766546476e+00	-2.157295729855897e+00
1	 1.212892383920646e+00	 1.443595428130154e+00	-2.371693028000043e+00
1	 1.180521403586179e+00	 1.468646683825388e+00	-2.594664869342874e+00
1	 1.480210337171517e+00	 1.189816450808942e+00	-7.640775738643338e-01
1	 1.454961835916920e+00	 1.222442309868967e+00	-9.009934123934692e-01
1	 1.428832043982143e+00	 1.254322889332617e+00	-1.047665286111308e+00
1	 1.401832990236666e+00	 1.285436548628375e+00	-1.204123062904635e+00
1	 1.373978204789257e+00	 1.315762863272888e+00	-1.370346201700901e+00
1	 1.345282686343380e+00	 1.345282686343381e+00	-1.546262968911628e+00
1	 1.315762863272887e+00	 1.373978204789257e+00	-1.731750203035616e+00
1	 1.285436548628374e+00	 1.401832990236666e+00	-1.926633635443840e+00
1	 1.254322889332617e+00	 1.428832043982143e+00	-2.130688765092188e+00
1	 1.222442309868966e+00	 1.454961835916921e+00	-2.343642274643549e+00
1	 1.189816450808942e+00	 1.480210337171518e+00	-2.565173965522627e+00
1	 1.491774001310037e+00	 1.199111506707208e+00	-7.471908101156549e-01
1	 1.466328254312057e+00	 1.231992244730699e+00	-8.832711753873893e-01
1	 1.439994331835738e+00	 1.264121880902148e+00	-1.028987817776152e+00
1	 1.412784356722201e+00	 1.295478605590086e+00	-1.184382793599318e+00
1	 1.384711964779798e+00	 1.326041834751505e+00	-1.349448652386083e+00
1	 1.355792271884501e+00	 1.355792271884501e+00	-1.524127566689732e+00
1	 1.326041834751504e+00	 1.384711964779799e+00	-1.708311000167179e+00
1	 1.295478605590085e+00	 1.412784356722201e+00	-1.901839923266427e+00
1	 1.264121880902147e+00	 1.439994331835739e+00	-2.104505575755930e+00
1	 1.231992244730698e+00	 1.466328254312057e+00	-2.316050765199674e+00
1	 1.199111506707207e+00	 1.491774001310037e+00	-2.536171680620479e+00
1	 1.503337677589890e+00	 1.208406572365371e+00	-7.303956271723833e-01
1	 1.477694684641512e+00	 1.241542189619976e+00	-8.656814378813041e-01
1	 1.451156631409414e+00	 1.273920882760728e+00	-1.010486605741097e+00
1	 1.423735734706447e+00	 1.305520673096032e+00	-1.164864304263934e+00
1	 1.395445736040656e+00	 1.336320817023064e+00	-1.328819072840871e+00
1	 1.366301868460640e+00	 1.366301868460640e+00	-1.502305868782476e+00
1	 1.336320817023063e+00	 1.395445736040656e+00	-1.685229648044035e+00
1	 1.305520673096032e+00	 1.423735734706447e+00	-1.877445485161280e+00
1	 1.273920882760727e+00	 1.451156631409415e+00	-2.078759232980099e+00
1	 1.241542189619975e+00	 1.477694684641513e+00	-2.288928712768068e+00
1	 1.208406572365371e+00	 1.503337677589890e+00	-2.507665415532852e+00
1	 1.115456224851666e+00	 1.387701299278052e+00	-2.814108979938140e+00
1	 1.084192058495050e+00	 1.410535778132863e+00	-3.057138910252475e+00
1	 1.052272950456312e+00	 1.432525783302652e+00	-3.309197695116703e+00
1	 1.019722236591529e+00	 1.453664361413024e+00	-3.569101708879167e+00
1	 9.865641215718933e-01	 1.473946027928509e+00	-3.835588367430605e+00
1	 9.528236030216204e-01	 1.493366767095692e+00	-4.107327612875709e+00
1	 9.185263933820192e-01	 1.511924025818336e+00	-4.382933869711572e+00
1	 8.836988399894211e-01	 1.529616701598891e+00	-4.660978285296453e+00
1	 8.483678438587410e-01	 1.546445124723613e+00	-4.940001069669627e+00
1	 8.125607776635847e-01	 1.562411034908617e+00	-5.218523756098856e+00
1	 7.763054033982313e-01	 1.577517552661069e+00	-5.495061213687968e+00
1	 1.124751241708993e+00	 1.399264914847900e+00	-2.781425973440933e+00
1	 1.093226553292651e+00	 1.422289671780187e+00	-3.022707798317954e+00
1	 1.061041465612035e+00	 1.444462918088727e+00	-3.272944175085755e+00
1	 1.028219508979247e+00	 1.465777642457148e+00	-3.530985772137296e+00
1	 9.947850897612730e-01	 1.486228314647728e+00	-3.795606181928348e+00
1	 9.607634138857468e-01	 1.505810885444059e+00	-4.065513083797611e+00
1	 9.261804080539133e-01	 1.524522780475130e+00	-4.339359867547943e+00
1	 8.910626391525756e-01	 1.542362888056346e+00	-4.615757535686690e+00
1	 8.554372323608835e-01	 1.559331541226210e+00	-4.893286704407845e+00
1	 8.193317884469768e-01	 1.575430494197757e+00	-5.170509529515028e+00
1	 7.827743007438484e-01	 1.590662893481111e+00	-5.445981393141773e+00
1	 1.134046259651052e+00	 1.410828531767526e+00	-2.749172633240720e+00
1	 1.102261049144592e+00	 1.434043566799519e+00	-2.988754869960676e+00
1	 1.069809981791084e+00	 1.456400054268210e+00	-3.237217500916598e+00
1	 1.036716782358669e+00	 1.477890924915242e+00	-3.493444576446556e+00
1	 1.003006058910155e+00	 1.498510602800635e+00	-3.756244990183233e+00
1	 9.687032256766124e-01	 1.518255005244984e+00	-4.024363325567242e+00
1	 9.338344236192458e-01	 1.537121536602498e+00	-4.296491151707571e+00
1	 8.984264391753546e-01	 1.555109076001540e+00	-4.571278591559184e+00
1	 8.625066216883469e-01	 1.572217959232856e+00	-4.847345987495902e+00
1	 8.261028000209207e-01	 1.588449955006404e+00	-5.123295495286493e+00
1	 7.892431988448086e-01	 1.603808235835264e+00	-5.397722446856607e+00
1	 1.143341279762238e+00	 1.422392151385875e+00	-2.717358220999000e+00
1	 1.111295547104868e+00	 1.445797464561987e+00	-2.955285901605149e+00
1	 1.078578500016408e+00	 1.468337193233596e+00	-3.202019968530677e+00
1	 1.045214057721085e+00	 1.490004210200339e+00	-3.456476958941256e+00
1	 1.011227029977573e+00	 1.510792893819975e+00	-3.717500209112405e+00
1	 9.766430393204278e-01	 1.530699127950088e+00	-3.983870390062386e+00
1	 9.414884409708635e-01	 1.549720295670103e+00	-4.254316480455302e+00
1	 9.057902409167238e-01	 1.567855266921338e+00	-4.527527004776103e+00
1	 8.695760126657278e-01	 1.585104380246782e+00	-4.802161366824746e+00
1	 8.328738131751842e-01	 1.601469418853318e+00	-5.076861114334934e+00
1	 7.957120984556170e-01	 1.616953581256991e+00	-5.350260979627526e+00
1	 1.152636303126949e+00	 1.433955775051891e+00	-2.685991699462264e+00
1	 1.120330048227473e+00	 1.457551366438722e+00	-2.922306483200562e+00
1	 1.087347021310957e+00	 1.480274336377378e+00	-3.167353799666397e+00
1	 1.053711336057784e+00	 1.502117499725479e+00	-3.420081794169576e+00
1	 1.019448003922562e+00	 1.523075189138495e+00	-3.679367403404753e+00
1	 9.845828557434048e-01	 1.543143255010995e+00	-3.944026585515592e+00
1	 9.491424610016117e-01	 1.562319059147609e+00	-4.212824974694639e+00
1	 9.131540452356479e-01	 1.580601462302605e+00	-4.484488793313639e+00
1	 8.766454061176228e-01	 1.597990805771218e+00	-4.757715856575064e+00
1	 8.396448286995335e-01	 1.614488887257262e+00	-5.031186510277121e+00
1	 8.021810003307788e-01	 1.630098931279753e+00	-5.303574351133049e+00
1	 1.161931330829579e+00	 1.445519404114519e+00	-2.655081744388946e+00
1	 1.129364553566401e+00	 1.469305273800852e+00	-2.889822025650017e+00
1	 1.096115546697683e+00	 1.492211485092054e+00	-3.133221144816437e+00
1	 1.062208618360055e+00	 1.514230794903695e+00	-3.384257992566988e+00
1	 1.027668981704154e+00	 1.535357490188941e+00	-3.641842279580293e+00
1	 9.925226758717538e-01	 1.555587387879325e+00	-3.904824466230674e+00
1	 9.567964846043366e-01	 1.574917828504675e+00	-4.172006103433599e+00
1	 9.205178529910941e-01	 1.593347663632206e+00	-4.442150422589771e+00
1	 8.837148028686287e-01	 1.610877237309397e+00	-4.713993014538871e+00
1	 8.464158473837365e-01	 1.627508361736999e+00	-4.986252442891655e+00
1	 8.086499052247982e-01	 1.643244287437012e+00	-5.257640645715989e+00
1	 1.171226363954523e+00	 1.457083039922703e+00	-2.624636755908357e+00
1	 1.138399064175645e+00	 1.481059188019506e+00	-2.857837767885695e+00
1	 1.104884077199535e+00	 1.504148640770118e+00	-3.099624086025069e+00
1	 1.070705905619187e+00	 1.526344097148023e+00	-3.349004499002427e+00
1	 1.035889964281384e+00	 1.547639798404058e+00	-3.604920680332452e+00
1	 1.000462500631686e+00	 1.568031528006702e+00	-3.866256822788997e+00
1	 9.644505126718846e-01	 1.587516605210966e+00	-4.131849669942670e+00
1	 9.278816650420263e-01	 1.606093872397006e+00	-4.400498787681131e+00
1	 8.907842037433419e-01	 1.623763676364548e+00	-4.670976920521317e+00
1	 8.531868700175602e-01	 1.640527843811290e+00	-4.942040282849569e+00
1	 8.151188138921801e-01	 1.656389651262230e+00	-5.212438643603461e+00
1	 1.180521403586179e+00	 1.468646683825388e+00	-2.594664869342874e+00
1	 1.147433581109200e+00	 1.492813110465814e+00	-2.826358783609852e+00
1	 1.113652613839465e+00	 1.516085804804064e+00	-3.066564639553378e+00
1	 1.079203198826468e+00	 1.538457407871499e+00	-3.314320291393216e+00
1	 1.044110952613288e+00	 1.559922115216593e+00	-3.568598579137781e+00
1	 1.008402330949413e+00	 1.580475676844747e+00	-3.828316672718638e+00
1	 9.721045460971011e-01	 1.600115390736142e+00	-4.092345798567008e+00
1	 9.352454822474106e-01	 1.618840090083870e+00	-4.359521196380342e+00
1	 8.978536095663595e-01	 1.636650124439903e+00	-4.628652155763274e+00
1	 8.599578973907713e-01	 1.653547334998898e+00	-4.898531987638935e+00
1	 8.215877270874299e-01	 1.669535024288868e+00	-5.167947793487034e+00
1	 1.189816450808942e+00	 1.480210337171518e+00	-2.565173965522627e+00
1	 1.156468105421060e+00	 1.504567042510904e+00	-2.795389987719632e+00
1	 1.122421157640422e+00	 1.528022978586387e+00	-3.034044758419589e+00
1	 1.087700498973187e+00	 1.550570728487159e+00	-3.280204379384795e+00
1	 1.052331947658898e+00	 1.572204442059292e+00	-3.532872075118370e+00
1	 1.016342167751146e+00	 1.592919835845083e+00	-3.790997251600867e+00
1	 9.797585857728321e-01	 1.612714186549867e+00	-4.053484922156936e+00
1	 9.426093054662122e-01	 1.631586318179662e+00	-4.319205353047812e+00
1	 9.049230211622777e-01	 1.649536583038693e+00	-4.587003783328537e+00
1	 8.667289302931375e-01	 1.666566836818584e+00	-4.855710078618275e+00
1	 8.280566455650521e-01	 1.682680408050388e+00	-5.124148186388370e+00
1	 1.199111506707207e+00	 1.491774001310037e+00	-2.536171680620479e+00
1	 1.165502638165218e+00	 1.516320985525906e+00	-2.764936142433094e+00
1	 1.131189709625356e+00	 1.539960163509583e+00	-3.002066334820986e+00
1	 1.096197807050634e+00	 1.562684060408039e+00	-3.246655803091988e+00
1	 1.060552950377248e+00	 1.584486780364901e+00	-3.497737388143277e+00
1	 1.024282011963095e+00	 1.605364006459333e+00	-3.754292004590547e+00
1	 9.874126325919247e-01	 1.625312994121803e+00	-4.015257770083037e+00
1	 9.499731355573968e-01	 1.644332558171248e+00	-4.279539343214467e+00
1	 9.119924393556934e-01	 1.662423053664148e+00	-4.546017329403433e+00
1	 8.734999695144252e-01	 1.679586350789110e+00	-4.813557619137551e+00
1	 8.345255700795510e-01	 1.695825804080252e+00	-5.081020530740684e+00
1	 1.208406572365371e+00	 1.503337677589890e+00	-2.507665415532852e+00
1	 1.174537180395669e+00	 1.528074940881948e+00	-2.735001863132374e+00
1	 1.139958270817220e+00	 1.551897360966147e+00	-2.970631202444273e+00
1	 1.104695124050098e+00	 1.574797405047172e+00	-3.213673631898359e+00
1	 1.068773961727374e+00	 1.596769131566166e+00	-3.463190854156054e+00
1	 1.032221864511472e+00	 1.617808190139118e+00	-3.718194578327844e+00
1	 9.950666874472238e-01	 1.637911814921611e+00	-3.977655356804791e+00
1	 9.573369733799303e-01	 1.657078811545492e+00	-4.240511618895677e+00
1	 9.190618649712032e-01	 1.675309537819501e+00	-4.505678765459800e+00
1	 8.802710158444024e-01	 1.692605878429240e+00	-4.772058193669046e+00
1	 8.409945013854322e-01	 1.708971213911920e+00	-5.038546128620535e+00
1	 7.763054033982313e-01	 1.577517552661069e+00	-5.495061213687969e+00
1	 7.396323698384324e-01	 1.591768179491655e+00	-5.769855102197488e+00
1	 7.025674351061071e-01	 1.605169786290770e+00	-6.042858430225836e+00
1	 6.651390233461130e-01	 1.617729423793473e+00	-6.312086934086027e+00
1	 6.273756249509856e-01	 1.629455361754438e+00	-6.575555427507410e+00
1	 5.893057194590278e-01	 1.640357038728711e+00	-6.831293296924686e+00
1	 5.509577006915954e-01	 1.650445008658129e+00	-7.077359014569452e+00
1	 5.123598044659060e-01	 1.659730884666089e+00	-7.311853540704428e+00
1	 4.735400391875621e-01	 1.668227280467808e+00	-7.532932514447126e+00
1	 4.345261195934739e-01	 1.675947749803660e+00	-7.738817160275909e+00
1	 3.953454038814352e-01	 1.682906724299760e+00	-7.927803863858902e+00
1	 7.827743007438484e-01	 1.590662893481111e+00	-5.445981393141773e+00
1	 7.457956734213037e-01	 1.605032269764788e+00	-5.719885593912690e+00
1	 7.084218792418324e-01	 1.618545551193824e+00	-5.992091157601029e+00
1	 6.706815792066391e-01	 1.631209847256555e+00	-6.260613825945618e+00
1	 6.326035011166404e-01	 1.643033496618929e+00	-6.523465928995322e+00
1	 5.942163618280748e-01	 1.654026016486803e+00	-6.778672112858094e+00
1	 5.555487917659618e-01	 1.664198048747260e+00	-7.024284094274392e+00
1	 5.166292620345450e-01	 1.673561303295024e+00	-7.258394309194355e+00
1	 4.774860144314489e-01	 1.682128498954505e+00	-7.479148350915192e+00
1	 4.381469946384860e-01	 1.689913302408431e+00	-7.684756121307116e+00
1	 3.986397888273381e-01	 1.696930265540623e+00	-7.873501645574235e+00
1	 7.892431988448086e-01	 1.603808235835264e+00	-5.397722446856605e+00
1	 7.519589777238975e-01	 1.618296361585791e+00	-5.670746522594539e+00
1	 7.142763240612719e-01	 1.631921317657671e+00	-5.942150279577120e+00
1	 6.762241357145049e-01	 1.644690272292521e+00	-6.209953259716051e+00
1	 6.378313778929237e-01	 1.656611633067583e+00	-6.472169281707554e+00
1	 5.991270047707274e-01	 1.667694995839532e+00	-6.726822357827994e+00
1	 5.601398833766249e-01	 1.677951090440714e+00	-6.971961647677269e+00
1	 5.208987201019113e-01	 1.687391723537195e+00	-7.205675312390590e+00
1	 4.814319901362585e-01	 1.696029719062592e+00	-7.426103161421332e+00
1	 4.417678701064070e-01	 1.703878856641999e+00	-7.631448012226251e+00
1	 4.019341741579514e-01	 1.710953808416969e+00	-7.819985710400060e+00
1	 7.957120984556170e-01	 1.616953581256991e+00	-5.350260979627526e+00
1	 7.581222834650545e-01	 1.631560456501998e+00	-5.622412293674206e+00
1	 7.201307702472227e-01	 1.645297087242690e+00	-5.893009109579087e+00
1	 6.817666935161193e-01	 1.658170700473988e+00	-6.160078462354215e+00
1	 6.430592558895327e-01	 1.670189772684440e+00	-6.421639526954529e+00
1	 6.040376488596789e-01	 1.681363978381566e+00	-6.675719681518367e+00
1	 5.647309760590077e-01	 1.691704135342993e+00	-6.920369618751442e+00
1	 5.251681791659194e-01	 1.701222147006158e+00	-7.153677365811653e+00
1	 4.853779667621870e-01	 1.709930942413911e+00	-7.373781101773571e+00
1	 4.453887464195303e-01	 1.717844414133743e+00	-7.578880690167530e+00
1	 4.052285602575090e-01	 1.724977354564966e+00	-7.767247871533952e+00
1	 8.021810003307788e-01	 1.630098931279753e+00	-5.303574351133049e+00
1	 7.642855913636152e-01	 1.644824556060741e+00	-5.574858138472935e+00
1	 7.259852184824847e-01	 1.658672861509265e+00	-5.844641822211100e+00
1	 6.873092532578907e-01	 1.671651133373571e+00	-6.110963524849569e+00
1	 6.482871357161660e-01	 1.683767917053543e+00	-6.371851543872672e+00
1	 6.089482946676221e-01	 1.695032965707572e+00	-6.625340519615292e+00
1	 5.693220703485324e-01	 1.705457185058600e+00	-6.869486663515719e+00
1	 5.294376397244840e-01	 1.715052575315472e+00	-7.102381904434978e+00
1	 4.893239447694297e-01	 1.723832170630307e+00	-7.322166839519969e+00
1	 4.490096240001493e-01	 1.731809976513040e+00	-7.527042404626437e+00
1	 4.085229475102454e-01	 1.739000905620783e+00	-7.715280206922224e+00
1	 8.086499052247982e-01	 1.643244287437012e+00	-5.257640645715989e+00
1	 7.704489021384195e-01	 1.658088661809354e+00	-5.528060081144498e+00
1	 7.318396694498567e-01	 1.672048642017778e+00	-5.797023418789017e+00
1	 6.928518155862287e-01	 1.685131572563887e+00	-6.062583367644498e+00
1	 6.535150179825203e-01	 1.697346067758932e+00	-6.322781015894805e+00
1	 6.138589427672496e-01	 1.708701959412215e+00	-6.575662062351911e+00
1	 5.739131667806222e-01	 1.719210241192035e+00	-6.819292121539225e+00
1	 5.337071022755197e-01	 1.728883010078692e+00	-7.051770957906288e+00
1	 4.932699246181828e-01	 1.737733405333628e+00	-7.271245533467805e+00
1	 4.526305032705575e-01	 1.745775545409268e+00	-7.475921781753845e+00
1	 4.118173363003946e-01	 1.753024463220587e+00	-7.664075048657973e+00
1	 8.151188138921801e-01	 1.656389651262230e+00	-5.212438643603463e+00
1	 7.766122165083079e-01	 1.671352775295169e+00	-5.481994907191838e+00
1	 7.376941238321383e-01	 1.685424430328613e+00	-5.750129694514661e+00
1	 6.983943811475419e-01	 1.698612019617553e+00	-6.014913707701641e+00
1	 6.587429032982937e-01	 1.710924226384649e+00	-6.274404398817687e+00
1	 6.187695937312543e-01	 1.722370961090161e+00	-6.526662224551844e+00
1	 5.785042658906995e-01	 1.732963305347800e+00	-6.769765988803399e+00
1	 5.379765673169407e-01	 1.742713452909376e+00	-7.001827126929925e+00
1	 4.972159067686416e-01	 1.751634648145715e+00	-7.221002814177685e+00
1	 4.562513846530479e-01	 1.759741122451803e+00	-7.425507809398433e+00
1	 4.151117270121904e-01	 1.767048029000546e+00	-7.613624972884478e+00
1	 8.215877270874299e-01	 1.669535024288868e+00	-5.167947793487034e+00
1	 7.827755351921207e-01	 1.684616898065521e+00	-5.436640133471584e+00
1	 7.435485823121284e-01	 1.698800228002152e+00	-5.703937207201204e+00
1	 7.039369505882389e-01	 1.712092476107183e+00	-5.967931027127414e+00
1	 6.639707922731833e-01	 1.724502394514735e+00	-6.226698890378212e+00
1	 6.236802481323296e-01	 1.736039972336078e+00	-6.478319617088059e+00
1	 5.830953682141872e-01	 1.746716379130398e+00	-6.720888891846578e+00
1	 5.422460353466614e-01	 1.756543905421082e+00	-6.952533560774604e+00
1	 5.011618916810020e-01	 1.765535900688415e+00	-7.171424765379879e+00
1	 4.598722685699141e-01	 1.773706709270024e+00	-7.375789822855618e+00
1	 4.184061200298669e-01	 1.781071604596829e+00	-7.563922790175414e+00
1	 8.280566455650521e-01	 1.682680408050388e+00	-5.124148186388370e+00
1	 7.889388589086984e-01	 1.697881031667741e+00	-5.391973979604788e+00
1	 7.494030455726264e-01	 1.712176036598776e+00	-5.658423247464689e+00
1	 7.094795245547295e-01	 1.725572943605394e+00	-5.921612543266622e+00
1	 6.691986855168869e-01	 1.738080573733230e+00	-6.179642401256355e+00
1	 6.285909065431682e-01	 1.749708994744632e+00	-6.430613519679814e+00
1	 5.876864742865079e-01	 1.760469464144329e+00	-6.672642063120608e+00
1	 5.465155068625969e-01	 1.770374369227367e+00	-6.903873935834052e+00
1	 5.051078798154598e-01	 1.779437164583574e+00	-7.122497906261708e+00
1	 4.634931554434493e-01	 1.787672307493307e+00	-7.326757491284990e+00
1	 4.217005157376584e-01	 1.795095191645604e+00	-7.514961536366305e+00
1	 8.345255700795510e-01	 1.695825804080252e+00	-5.081020530740684e+00
1	 7.951021883768820e-01	 1.711145177649163e+00	-5.347975340717910e+00
1	 7.552575142964307e-01	 1.725551857678868e+00	-5.613565810302640e+00
1	 7.150221036934218e-01	 1.739053423684801e+00	-5.875936180188400e+00
1	 6.744265836391021e-01	 1.751658765624176e+00	-6.133213527426934e+00
1	 6.335015695364629e-01	 1.763378029910489e+00	-6.383523854955330e+00
1	 5.922775846430843e-01	 1.774222561994095e+00	-6.625007317493994e+00
1	 5.507849823626615e-01	 1.784204845941787e+00	-6.855832435184908e+00
1	 5.090538716322107e-01	 1.793338441453034e+00	-7.074209174579026e+00
1	 4.671140456959468e-01	 1.801637918751031e+00	-7.278400804759355e+00
1	 4.249949145197989e-01	 1.809118791783039e+00	-7.466734463812399e+00
1	 8.409945013854322e-01	 1.708971213911920e+00	-5.038546128620535e+00
1	 8.012655243155109e-01	 1.724409337557121e+00	-5.304623761441921e+00
1	 7.611119891663416e-01	 1.738927692802811e+00	-5.569343567984423e+00
1	 7.205646886507253e-01	 1.752533917918023e+00	-5.830880541488304e+00
1	 6.796544872495266e-01	 1.765236971771615e+00	-6.087391523787837e+00
1	 6.384122376849063e-01	 1.777047079428316e+00	-6.337031163711663e+00
1	 5.968686998193392e-01	 1.787975674284199e+00	-6.577967029839745e+00
1	 5.550544623447694e-01	 1.798035337177901e+00	-6.808393729088351e+00
1	 5.129998675914502e-01	 1.807239732918643e+00	-7.026545910547362e+00
1	 4.707349397497000e-01	 1.815603544672573e+00	-7.230710061911847e+00
1	 4.282893167605222e-01	 1.823142406645302e+00	-7.419235033050041e+00
1	 3.953454038814352e-01	 1.682906724299760e+00	-7.927803863858902e+00
1	 3.560220848416451e-01	 1.689119859320706e+00	-8.100343116841877e+00
1	 3.165854117949879e-01	 1.694602641381182e+00	-8.257296422128364e+00
1	 2.770613785882645e-01	 1.699371756916888e+00	-8.397747802446149e+00
1	 2.374754056886408e-01	 1.703444513999047e+00	-8.520876092392887e+00
1	 1.978522965532911e-01	 1.706838777961158e+00	-8.625953055076398e+00
1	 1.582161980975129e-01	 1.709572907634753e+00	-8.712340854230659e+00
1	 1.185905652642063e-01	 1.711665692492552e+00	-8.779488967977738e+00
1	 7.899812966952448e-02	 1.713136290974417e+00	-8.826930629001227e+00
1	 3.946087227343351e-02	 1.714004170247544e+00	-8.854278873202059e+00
1	 0.000000000000000e+00	 1.714289047627778e+00	-8.861222275155241e+00
1	 3.986397888273381e-01	 1.696930265540623e+00	-7.873501645574237e+00
1	 3.589887913849910e-01	 1.703195174170719e+00	-8.045876641950985e+00
1	 3.192234953648744e-01	 1.708723643861422e+00	-8.202748302631981e+00
1	 2.793701112187151e-01	 1.713532500095309e+00	-8.343134864539161e+00
1	 2.394542712406707e-01	 1.717639195170523e+00	-8.466150504028036e+00
1	 1.995009855734057e-01	 1.721061743291110e+00	-8.571003874546674e+00
1	 1.595346023467897e-01	 1.723818656271432e+00	-8.656995948431916e+00
1	 1.195787719521360e-01	 1.725928880155542e+00	-8.723517249319560e+00
1	 7.965641542658011e-02	 1.727411733029215e+00	-8.770044560955737e+00
1	 3.978969689590328e-02	 1.728286844278154e+00	-8.796137196118158e+00
1	 0.000000000000000e+00	 1.728574095521189e+00	-8.801432906113590e+00
1	 4.019341741579514e-01	 1.710953808416969e+00	-7.819985710400060e+00
1	 3.619554982746881e-01	 1.717270490662191e+00	-7.992247864747955e+00
1	 3.218615792426328e-01	 1.722844647988404e+00	-8.149093792738524e+00
1	 2.816788441184740e-01	 1.727693244925074e+00	-8.289461597849659e+00
1	 2.414331370233987e-01	 1.731833877997279e+00	-8.412386381402968e+00
1	 2.011496747855978e-01	 1.735284710279628e+00	-8.516999329240699e+00
1	 1.608530067495474e-01	 1.738064406569329e+00	-8.602526039772066e+00
1	 1.205669787550088e-01	 1.740192069481785e+00	-8.668284179804857e+00
1	 8.031470126013159e-02	 1.741687176748694e+00	-8.713680554822544e+00
1	 4.011852155654447e-02	 1.742569519974292e+00	-8.738207679091376e+00
1	 0.000000000000000e+00	 1.742859145080407e+00	-8.741439928419304e+00
1	 4.052285602575090e-01	 1.724977354564966e+00	-7.767247871533952e+00
1	 3.649222058567783e-01	 1.731345810437356e+00	-7.939451197328711e+00
1	 3.244996637360026e-01	 1.736965655409712e+00	-8.096327278667740e+00
1	 2.839875775568942e-01	 1.741853993058424e+00	-8.236720148115717e+00
1	 2.434120032677271e-01	 1.746028564135532e+00	-8.359571820681136e+00
1	 2.027983643822757e-01	 1.749507680586244e+00	-8.463922055553207e+00
1	 1.621714114596788e-01	 1.752310160190644e+00	-8.548907285223502e+00
1	 1.215551857881991e-01	 1.754455262135521e+00	-8.613758797983543e+00
1	 8.097298724705299e-02	 1.755962623798535e+00	-8.657800261175636e+00
1	 4.044734629376683e-02	 1.756852199002485e+00	-8.680444672292126e+00
1	 0.000000000000000e+00	 1.757144197972236e+00	-8.681190823298529e+00
1	 4.085229475102454e-01	 1.739000905620783e+00	-7.715280206922222e+00
1	 3.678889144773020e-01	 1.745421135138444e+00	-7.887481232686030e+00
1	 3.271377491527241e-01	 1.751086667772930e+00	-8.044443328343815e+00
1	 2.862963118033286e-01	 1.756014746147594e+00	-8.184902915028644e+00
1	 2.453908702045579e-01	 1.760223255241496e+00	-8.307695302601843e+00
1	 2.044470545558480e-01	 1.763730655870484e+00	-8.411755250596052e+00
1	 1.634898166310764e-01	 1.766555918797576e+00	-8.496116611550665e+00
1	 1.225433931670815e-01	 1.768718459780995e+00	-8.559911141939390e+00
1	 8.163127346421838e-02	 1.770238075844416e+00	-8.602366568626419e+00
1	 4.077617114598011e-02	 1.771134883029259e+00	-8.622803999685102e+00
1	 0.000000000000000e+00	 1.771429255863481e+00	-8.620634767699775e+00
1	 4.118173363003946e-01	 1.753024463220587e+00	-7.664075048657974e+00
1	 3.708556244823005e-01	 1.759496466407687e+00	-7.836332737460938e+00
1	 3.297758358005368e-01	 1.765207686725638e+00	-7.993436684113590e+00
1	 2.886050471271304e-01	 1.770175505844825e+00	-8.134002542060998e+00
1	 2.473697380647935e-01	 1.774417952971386e+00	-8.256745677083313e+00
1	 2.060957454987230e-01	 1.777953637791879e+00	-8.360482649757017e+00
1	 1.648082224176328e-01	 1.780801684052323e+00	-8.444131684508928e+00
1	 1.235316010070308e-01	 1.782981664082448e+00	-8.506712209304592e+00
1	 8.228955998850176e-02	 1.784513534552017e+00	-8.547343554305529e+00
1	 4.110499615159411e-02	 1.785417573721143e+00	-8.565242900090977e+00
1	 0.000000000000000e+00	 1.785714320420949e+00	-8.559722566491667e+00
1	 4.151117270121904e-01	 1.767048029000546e+00	-7.613624972884478e+00
1	 3.738223362178146e-01	 1.773571805887316e+00	-7.786000645039366e+00
1	 3.324139239871811e-01	 1.779328713915424e+00	-7.943302255811565e+00
1	 2.909137837976528e-01	 1.784336273802357e+00	-8.084011906778578e+00
1	 2.493486070793357e-01	 1.788612658981417e+00	-8.206712148559095e+00
1	 2.077444374033094e-01	 1.792176628009957e+00	-8.310088505327782e+00
1	 1.661266289732406e-01	 1.795047457617085e+00	-8.392930879510816e+00
1	 1.245198094234214e-01	 1.797244876704125e+00	-8.454133919178574e+00
1	 8.294784689677716e-02	 1.798789001587017e+00	-8.492696436703179e+00
1	 4.143382134901862e-02	 1.799700272744663e+00	-8.507719971055048e+00
1	 0.000000000000000e+00	 1.799999393311444e+00	-8.498406587890129e+00
1	 4.184061200298669e-01	 1.781071604596829e+00	-7.563922790175415e+00
1	 3.767890500298854e-01	 1.787647155219566e+00	-7.736480048975032e+00
1	 3.350520140203967e-01	 1.793449750989868e+00	-7.894035114152468e+00
1	 2.932225220842488e-01	 1.798497051672427e+00	-8.034924111610422e+00
1	 2.513274774790871e-01	 1.802807374927803e+00	-8.157584262007456e+00
1	 2.093931304620154e-01	 1.806399628184248e+00	-8.260557566141545e+00
1	 1.674450364517922e-01	 1.809293241154060e+00	-8.342493253678091e+00
1	 1.255080185316279e-01	 1.811508099310267e+00	-8.402149075846479e+00
1	 8.360613426591867e-02	 1.813064478615097e+00	-8.438391530737684e+00
1	 4.176264677666337e-02	 1.813982981766347e+00	-8.450195115368627e+00
1	 0.000000000000000e+00	 1.814284476201773e+00	-8.436640701936630e+00
1	 4.217005157376584e-01	 1.795095191645604e+00	-7.514961536366306e+00
1	 3.797557662645539e-01	 1.801722516046665e+00	-7.687766196720523e+00
1	 3.376901062079234e-01	 1.807570799596554e+00	-7.845630484433977e+00
1	 2.955312622562715e-01	 1.812657841107276e+00	-7.986732475051639e+00
1	 2.533063494949497e-01	 1.817002102466761e+00	-8.109351889635679e+00
1	 2.110418248672496e-01	 1.820622639974282e+00	-8.211875058165324e+00
1	 1.687634450071802e-01	 1.823539036325449e+00	-8.292798519204451e+00
1	 1.264962284470250e-01	 1.825771333565119e+00	-8.350731334198663e+00
1	 8.426442217280029e-02	 1.827339967301935e+00	-8.384396204931104e+00
1	 4.209147247293815e-02	 1.828265702452721e+00	-8.392629490097425e+00
1	 0.000000000000000e+00	 1.828569570758740e+00	-8.374380221861230e+00
1	 4.249949145197989e-01	 1.809118791783039e+00	-7.466734463812399e+00
1	 3.827224852678611e-01	 1.815797890010847e+00	-7.639854483650264e+00
1	 3.403282008575016e-01	 1.821691861383066e+00	-7.798083740531828e+00
1	 2.978400045830739e-01	 1.826818643759138e+00	-7.939430523275242e+00
1	 2.552852233578258e-01	 1.831196843254504e+00	-8.062005218183904e+00
1	 2.126905208114204e-01	 1.834845665039586e+00	-8.164026665995443e+00
1	 1.700818547932973e-01	 1.837784844793450e+00	-8.243827017957022e+00
1	 1.274844392849872e-01	 1.840034581132922e+00	-8.299855166758849e+00
1	 8.492271069429605e-02	 1.841615469313210e+00	-8.330678840576502e+00
1	 4.242029847625274e-02	 1.842548436470314e+00	-8.334985457981720e+00
1	 0.000000000000000e+00	 1.842854678649152e+00	-8.311581848173189e+00
1	 4.282893167605222e-01	 1.823142406645302e+00	-7.419235033050041e+00
1	 3.856892073858478e-01	 1.829873278754343e+00	-7.592740447359401e+00
1	 3.429662982768709e-01	 1.835812937996986e+00	-7.751390399172847e+00
1	 3.001487493340093e-01	 1.840979461280257e+00	-7.893011982131490e+00
1	 2.572640992986176e-01	 1.845391598947249e+00	-8.015534736815097e+00
1	 2.143392184869364e-01	 1.849068705039692e+00	-8.116998515206863e+00
1	 1.714002659640361e-01	 1.852030668220261e+00	-8.195559697250946e+00
1	 1.284726511608891e-01	 1.854297843677920e+00	-8.249495832234405e+00
1	 8.558099990728006e-02	 1.855890986314603e+00	-8.277208792790837e+00
1	 4.274912482501691e-02	 1.856831185485652e+00	-8.277226541079536e+00
1	 0.000000000000000e+00	 1.857139801539814e+00	-8.248203615332852e+00
1	 1.857139801539814e+00	 0.000000000000000e+00	 5.648151897701912e-01
1	 1.856831185485652e+00	 4.274912482501749e-02	 5.673881548331016e-01
1	 1.855890986314602e+00	 8.558099990728060e-02	 5.664245838175433e-01
1	 1.854297843677920e+00	 1.284726511608895e-01	 5.623213739948318e-01
1	 1.852030668220261e+00	 1.714002659640365e-01	 5.555066909419154e-01
1	 1.849068705039691e+00	 2.143392184869368e-01	 5.464401849682130e-01
1	 1.845391598947249e+00	 2.572640992986178e-01	 5.356129069348684e-01
1	 1.840979461280257e+00	 3.001487493340095e-01	 5.235468914598809e-01
1	 1.835812937996986e+00	 3.429662982768709e-01	 5.107943767041179e-01
1	 1.829873278754343e+00	 3.856892073858478e-01	 4.979366319142888e-01
1	 1.823142406645302e+00	 4.282893167605222e-01	 4.855823667319563e-01
1	 1.871425938885499e+00	 0.000000000000000e+00	 5.683720559485435e-01
1	 1.871114948787420e+00	 4.307797452551081e-02	 5.733520317545513e-01
1	 1.870167517088809e+00	 8.623933586883083e-02	 5.741064446647042e-01
1	 1.868562119125425e+00	 1.294609332147644e-01	 5.711484901945849e-01
1	 1.866277503311067e+00	 1.727187707617287e-01	 5.650237693324311e-01
1	 1.863292755085735e+00	 2.159880332445210e-01	 5.563095030382429e-01
1	 1.859587362677221e+00	 2.592431157688597e-01	 5.456133440390805e-01
1	 1.855141284428371e+00	 3.024576580397680e-01	 5.335717571440126e-01
1	 1.849935017415582e+00	 3.456045830397631e-01	 5.208479425112047e-01
1	 1.843949667057868e+00	 3.886561401843552e-01	 5.081292804610600e-01
1	 1.837167017390747e+00	 4.315839529516940e-01	 4.961242815880206e-01
1	 1.885712081233184e+00	 0.000000000000000e+00	 5.723019586247785e-01
1	 1.885398717090345e+00	 4.340682434133453e-02	 5.802513250895639e-01
1	 1.884444052861604e+00	 8.689767206117580e-02	 5.831181935985086e-01
1	 1.882826399567176e+00	 1.304492156149813e-01	 5.815649584537415e-01
1	 1.880524343389939e+00	 1.740372760213404e-01	 5.762846305622581e-01
1	 1.877516810111782e+00	 2.176368485795780e-01	 5.679983936053230e-01
1	 1.873783131377193e+00	 2.612221329320474e-01	 5.574526270918740e-01
1	 1.869303112534495e+00	 3.047665675538066e-01	 5.454153765718484e-01
1	 1.864057101778160e+00	 3.482428687260726e-01	 5.326722576049139e-01
1	 1.858026060289259e+00	 3.916230740211588e-01	 5.200217875384244e-01
1	 1.851191633045813e+00	 4.348785902957209e-01	 5.082701477379185e-01
1	 1.899998216915481e+00	 0.000000000000000e+00	 5.759441936765017e-01
1	 1.899682478728979e+00	 4.373567400390595e-02	 5.876258864951247e-01
1	 1.898720581973453e+00	 8.755600794664044e-02	 5.931760931377787e-01
1	 1.897090673353649e+00	 1.314374975544066e-01	 5.934380697280390e-01
1	 1.894771176821610e+00	 1.753557806660619e-01	 5.892810069264531e-01
1	 1.891740858501185e+00	 2.192856631455580e-01	 5.815952821017008e-01
1	 1.887978893453634e+00	 2.632011491719851e-01	 5.712870202971869e-01
1	 1.883464934032833e+00	 3.070754759905426e-01	 5.592719590828285e-01
1	 1.878179179551402e+00	 3.508811531812545e-01	 5.464686228978701e-01
1	 1.872102446952540e+00	 3.945900064733498e-01	 5.337908243458558e-01
1	 1.865216242156835e+00	 4.381732261021032e-01	 5.221395230101025e-01
1	 1.914284334264999e+00	 0.000000000000000e+00	 5.786577758403744e-01
1	 1.913966222037872e+00	 4.406452324464238e-02	 5.950293012624797e-01
1	 1.912997092764816e+00	 8.821434298754971e-02	 6.040048742241360e-01
1	 1.911354928835323e+00	 1.324257782259066e-01	 6.066390753311630e-01
1	 1.909017991970809e+00	 1.766742836190831e-01	 6.040048762986687e-01
1	 1.905964888637292e+00	 2.209344755959106e-01	 5.971859528648592e-01
1	 1.902174637313011e+00	 2.651801628724775e-01	 5.872681213560730e-01
1	 1.897626737357590e+00	 3.093843814643931e-01	 5.753299145079330e-01
1	 1.892301239201991e+00	 3.535194342507644e-01	 5.624323279311727e-01
1	 1.886178815551731e+00	 3.975569351180192e-01	 5.496077859455071e-01
1	 1.879240833270147e+00	 4.414678576803407e-01	 5.378483942005062e-01
1	 1.928570421614352e+00	 0.000000000000000e+00	 5.798207082003418e-01
1	 1.928249935351575e+00	 4.439337179496115e-02	 6.020283795861356e-01
1	 1.927273573576156e+00	 8.887267664622857e-02	 6.153374225731560e-01
1	 1.925619154362675e+00	 1.334140568223477e-01	 6.210430403003293e-01
1	 1.923264777202266e+00	 1.779927838035942e-01	 6.204484531105546e-01
1	 1.920188888903455e+00	 2.225832845840858e-01	 6.148536470456942e-01
1	 1.916370351361791e+00	 2.671591724173291e-01	 6.055430343947029e-01
1	 1.911788510942970e+00	 3.116932820897748e-01	 5.937720680587723e-01
1	 1.906423269196610e+00	 3.561577097800575e-01	 5.807528736036665e-01
1	 1.900255154590854e+00	 4.005238575322578e-01	 5.676389867508025e-01
1	 1.893265394932085e+00	 4.447624823399337e-01	 5.555093093960052e-01
1	 1.942856467296148e+00	 0.000000000000000e+00	 5.788292838320565e-01
1	 1.942533607004642e+00	 4.472221938627953e-02	 6.082026702265317e-01
1	 1.941550012747933e+00	 8.953100838500189e-02	 6.269144788318657e-01
1	 1.939883338286183e+00	 1.344023325365960e-01	 6.365287032163817e-01
1	 1.937511520880712e+00	 1.793112801427852e-01	 6.386041797281958e-01
1	 1.934412847683026e+00	 2.242320887635338e-01	 6.346791562068479e-01
1	 1.930566024006441e+00	 2.691381761903444e-01	 6.262545352802601e-01
1	 1.925950243223175e+00	 3.140021759811051e-01	 6.147758657574323e-01
1	 1.920545258001943e+00	 3.587959776145891e-01	 6.016141850969131e-01
1	 1.914331452573932e+00	 4.034907712931571e-01	 5.880458474098205e-01
1	 1.907289915688981e+00	 4.480570973903820e-01	 5.752315044730980e-01
1	 1.957142459643000e+00	 0.000000000000000e+00	 5.750974179640751e-01
1	 1.956817225331620e+00	 4.505106575001486e-02	 6.131439954247470e-01
1	 1.955826398620612e+00	 9.018933766619465e-02	 6.384843518388768e-01
1	 1.954147468956323e+00	 1.353906045615179e-01	 6.529783421495847e-01
1	 1.951758211370878e+00	 1.806297715598461e-01	 6.584647182053577e-01
1	 1.948636753359356e+00	 2.258808867877044e-01	 6.567409118309502e-01
1	 1.944761643653427e+00	 2.711171725753280e-01	 6.495412297127764e-01
1	 1.940111922632410e+00	 3.163110612528009e-01	 6.385135708893933e-01
1	 1.934667194084671e+00	 3.614342355998145e-01	 6.251948154956950e-01
1	 1.928407698004987e+00	 4.064576739778080e-01	 6.109850735221654e-01
1	 1.921314384087171e+00	 4.513517001411860e-01	 5.971210240687909e-01
1	 1.971428386987518e+00	 0.000000000000000e+00	 5.680560091113162e-01
1	 1.971100778667064e+00	 4.537991061758444e-02	 6.164560059935588e-01
1	 1.970102719534652e+00	 9.084766395213176e-02	 6.498026443237769e-01
1	 1.968411534723574e+00	 1.363788720899798e-01	 6.702776464208589e-01
1	 1.966004837037493e+00	 1.819482569779670e-01	 6.800229423944832e-01
1	 1.962860594315794e+00	 2.275296773100474e-01	 6.811150709456838e-01
1	 1.958957198709218e+00	 2.730961599560843e-01	 6.755377044585303e-01
1	 1.954273537604879e+00	 3.186199360192795e-01	 6.651524519338219e-01
1	 1.948789065911478e+00	 3.640724815811890e-01	 6.516681405749153e-01
1	 1.942483879388040e+00	 4.094245631633016e-01	 6.366088266026343e-01
1	 1.935338788672990e+00	 4.546462879018455e-01	 6.212808373034493e-01
1	 1.985714237662315e+00	 0.000000000000000e+00	 5.571523277249568e-01
1	 1.985384255345523e+00	 4.570875372040557e-02	 6.177537555710564e-01
1	 1.984378963830518e+00	 9.150598670513820e-02	 6.606319904209401e-01
1	 1.982675523938412e+00	 1.373671343148479e-01	 6.883155938863939e-01
1	 1.980251386245289e+00	 1.832667353203382e-01	 7.032719303973792e-01
1	 1.977084358935692e+00	 2.291784589840129e-01	 7.078755980610009e-01
1	 1.973152677580279e+00	 2.750751367164180e-01	 7.043746720696982e-01
1	 1.968435076574785e+00	 3.209287983949576e-01	 6.948549623995133e-01
1	 1.962910861949046e+00	 3.667107134041679e-01	 6.812025451968545e-01
1	 1.956559985227112e+00	 4.123914364267289e-01	 6.650648876813053e-01
1	 1.949363117992771e+00	 4.579408579818608e-01	 6.478109485193431e-01
1	 2.000000000000000e+00	 0.000000000000000e+00	 5.418494309859702e-01
1	 1.999667643701550e+00	 4.603759478989555e-02	 6.166632930808058e-01
1	 1.998655119848670e+00	 9.216430538753885e-02	 6.707418044081985e-01
1	 1.996939424951317e+00	 1.383553904289885e-01	 7.069843334700451e-01
1	 1.994497847358994e+00	 1.845852055101493e-01	 7.282049573388260e-01
1	 1.991308035602400e+00	 2.308272304630508e-01	 7.370943436021984e-01
1	 1.987348068673079e+00	 2.770541012401335e-01	 7.361791094151587e-01
1	 1.982596527976333e+00	 3.232376464942529e-01	 7.277789129702875e-01
1	 1.977032570664059e+00	 3.693489289142068e-01	 7.139616017373012e-01
1	 1.970636004026227e+00	 4.153582913451809e-01	 6.964968139074212e-01
1	 1.963387360592848e+00	 4.612354076907317e-01	 6.768085032835125e-01
1	 1.823142406645302e+00	 4.282893167605222e-01	 4.855823667319562e-01
1	 1.815603544672573e+00	 4.707349397496997e-01	 4.716325248767637e-01
1	 1.807239732918643e+00	 5.129998675914498e-01	 4.536731320982257e-01
1	 1.798035337177901e+00	 5.550544623447690e-01	 4.318253039062029e-01
1	 1.787975674284199e+00	 5.968686998193390e-01	 4.061560048166982e-01
1	 1.777047079428317e+00	 6.384122376849063e-01	 3.766723722695740e-01
1	 1.765236971771615e+00	 6.796544872495263e-01	 3.433162978533573e-01
1	 1.752533917918022e+00	 7.205646886507250e-01	 3.059593700045950e-01
1	 1.738927692802811e+00	 7.611119891663414e-01	 2.643982858312535e-01
1	 1.724409337557121e+00	 8.012655243155106e-01	 2.183508411099450e-01
1	 1.708971213911921e+00	 8.409945013854322e-01	 1.674526065452576e-01
1	 1.837167017390747e+00	 4.315839529516940e-01	 4.961242815880205e-01
1	 1.829570162359090e+00	 4.743560909394626e-01	 4.826745166959987e-01
1	 1.821142011580398e+00	 5.169461437735805e-01	 4.652303308932765e-01
1	 1.811866810582170e+00	 5.593242455217806e-01	 4.438921828552007e-01
1	 1.801729763247288e+00	 6.014601410312405e-01	 4.187061685878097e-01
1	 1.790717099649317e+00	 6.433232545618968e-01	 3.896585132187230e-01
1	 1.778816142170903e+00	 6.848827621168463e-01	 3.566703321471193e-01
1	 1.766015369464010e+00	 7.261076672119187e-01	 3.195927642345910e-01
1	 1.752304477807102e+00	 7.669668797889304e-01	 2.782025828791254e-01
1	 1.737674439414772e+00	 8.074292979405400e-01	 2.321983919001761e-01
1	 1.722117557260229e+00	 8.474638920795502e-01	 1.811975119026727e-01
1	 1.851191633045813e+00	 4.348785902957209e-01	 5.082701477379186e-01
1	 1.843536784934809e+00	 4.779772433962460e-01	 4.952255166706706e-01
1	 1.835044295108718e+00	 5.208924213364344e-01	 4.782252021896991e-01
1	 1.825698288828111e+00	 5.635940301926754e-01	 4.573373389560916e-01
1	 1.815483857024859e+00	 6.060515838495604e-01	 4.325773554995551e-01
1	 1.804387124655278e+00	 6.482342731571334e-01	 4.039028931452733e-01
1	 1.792395317323264e+00	 6.901110388134489e-01	 3.712090010836565e-01
1	 1.779496825728795e+00	 7.316506477125575e-01	 3.343237046097265e-01
1	 1.765681267493491e+00	 7.728217724601689e-01	 2.930040461723118e-01
1	 1.750939545915385e+00	 8.135930737223795e-01	 2.469326994944843e-01
1	 1.735263905209901e+00	 8.539332850375116e-01	 1.957152554064618e-01
1	 1.865216242156835e+00	 4.381732261021032e-01	 5.221395230101024e-01
1	 1.857503400993457e+00	 4.815983941629300e-01	 5.093360058650406e-01
1	 1.848946572149907e+00	 5.248386970574064e-01	 4.926484185214760e-01
1	 1.839529760619886e+00	 5.678638128706813e-01	 4.721012903759934e-01
1	 1.829237944384306e+00	 6.106430245248657e-01	 4.476699374619045e-01
1	 1.818057143282288e+00	 6.531452894602179e-01	 4.192760630803014e-01
1	 1.805974486139023e+00	 6.953393130698571e-01	 3.867836360986692e-01
1	 1.792978275702542e+00	 7.371936256261624e-01	 3.499951341813096e-01
1	 1.779058050937662e+00	 7.786766623988440e-01	 3.086482410614116e-01
1	 1.764204646225886e+00	 8.197568466275468e-01	 2.624130869749627e-01
1	 1.748410247024885e+00	 8.604026749762184e-01	 2.108901193377362e-01
1	 1.879240833270147e+00	 4.414678576803407e-01	 5.378483942005062e-01
1	 1.871469999128758e+00	 4.852195402823947e-01	 5.250549566945000e-01
1	 1.862848831350267e+00	 5.287849677138905e-01	 5.084909295734754e-01
1	 1.853361214661657e+00	 5.721335900690259e-01	 4.881263300662145e-01
1	 1.842992014093027e+00	 6.152344593077239e-01	 4.638872600174914e-01
1	 1.831727144366439e+00	 6.580562994607521e-01	 4.356524382383273e-01
1	 1.819553637528504e+00	 7.005675806165934e-01	 4.032500067982370e-01
1	 1.806459708375416e+00	 7.427365964262533e-01	 3.664546847137601e-01
1	 1.792434817215295e+00	 7.845315448237445e-01	 3.249853433488304e-01
1	 1.777469729513201e+00	 8.259206116225587e-01	 2.785030770994715e-01
1	 1.761556571969129e+00	 8.668720566125698e-01	 2.266098404210616e-01
1	 1.893265394932085e+00	 4.447624823399337e-01	 5.555093093960052e-01
1	 1.885436567934439e+00	 4.888406787975204e-01	 5.424298888525825e-01
1	 1.876751061356101e+00	 5.327312300832813e-01	 5.257439519608598e-01
1	 1.867192639657584e+00	 5.764033583009371e-01	 5.053564600697971e-01
1	 1.856746054918420e+00	 6.198258844487023e-01	 4.811355322444745e-01
1	 1.845397116743821e+00	 6.629672991483387e-01	 4.529101549336211e-01
1	 1.833132760402026e+00	 7.057958371841795e-01	 4.204681566119256e-01
1	 1.819941112737581e+00	 7.482795555863506e-01	 3.835545030521529e-01
1	 1.805811555402071e+00	 7.903864149536577e-01	 3.418699685469651e-01
1	 1.790734784944258e+00	 8.320843636739326e-01	 2.950702367646560e-01
1	 1.774702869306581e+00	 8.733414246634675e-01	 2.427654818795625e-01
1	 1.907289915688981e+00	 4.480570973903820e-01	 5.752315044730980e-01
1	 1.899403096004228e+00	 4.924618067511872e-01	 5.615069227761030e-01
1	 1.890653250813712e+00	 5.366774809429736e-01	 5.443989594583416e-01
1	 1.881024024311834e+00	 5.806731140796429e-01	 5.237373287206901e-01
1	 1.870500055627877e+00	 6.244172961983684e-01	 4.993237215056948e-01
1	 1.859067049250523e+00	 6.678782845125785e-01	 4.709309337948585e-01
1	 1.846711843669914e+00	 7.110240785031383e-01	 4.383022456801988e-01
1	 1.833422477779206e+00	 7.538224985799745e-01	 4.011510851328346e-01
1	 1.819188254573673e+00	 7.962412680073720e-01	 3.591610086522149e-01
1	 1.803999801685983e+00	 8.382480977481868e-01	 3.119860283154859e-01
1	 1.787849128301191e+00	 8.798107738458119e-01	 2.592513111220024e-01
1	 1.921314384087171e+00	 4.513517001411860e-01	 5.971210240687909e-01
1	 1.913369571931849e+00	 4.960829211862750e-01	 5.823308307738960e-01
1	 1.904555388369401e+00	 5.406237170703617e-01	 5.644476736564046e-01
1	 1.894855357328564e+00	 5.849428539183713e-01	 5.432161705872286e-01
1	 1.884254004988798e+00	 6.290086908072895e-01	 5.183634527970857e-01
1	 1.872736930722637e+00	 6.727892515430747e-01	 4.895999489570313e-01
1	 1.860290876242493e+00	 7.162523003039925e-01	 4.566204006073856e-01
1	 1.846903792490453e+00	 7.593654208806461e-01	 4.191051172474592e-01
1	 1.832564903805781e+00	 8.020960992036745e-01	 3.767214760516586e-01
1	 1.817264768905303e+00	 8.444118088118374e-01	 3.291256673523059e-01
1	 1.800995338216907e+00	 8.862800988765028e-01	 2.759646827746982e-01
1	 1.935338788672990e+00	 4.546462879018455e-01	 6.212808373034493e-01
1	 1.927335984311028e+00	 4.997040191456642e-01	 6.049450859374848e-01
1	 1.918457462669473e+00	 5.445699352428400e-01	 5.858820550228370e-01
1	 1.908686627411940e+00	 5.892125743303499e-01	 5.637417490209319e-01
1	 1.898007891768577e+00	 6.336000645260323e-01	 5.381689124625684e-01
1	 1.886406749996252e+00	 6.777001962294286e-01	 5.088057029281225e-01
1	 1.873869847030084e+00	 7.214804983172646e-01	 4.752945707326763e-01
1	 1.860385045861490e+00	 7.649083179618846e-01	 4.372813241933580e-01
1	 1.845941492174076e+00	 8.079509037613540e-01	 3.944183542014158e-01
1	 1.830529675769143e+00	 8.505754918314030e-01	 3.463679867065121e-01
1	 1.814141488317677e+00	 8.927493944724415e-01	 2.928059267877842e-01
1	 1.949363117992771e+00	 4.579408579818608e-01	 6.478109485193431e-01
1	 1.941302321735491e+00	 5.033250976722348e-01	 6.293919089450514e-01
1	 1.932359462360228e+00	 5.485161322378032e-01	 6.086942943491863e-01
1	 1.922517823266122e+00	 5.934822718288065e-01	 5.852643011797569e-01
1	 1.911761704734611e+00	 6.381914136051650e-01	 5.586567560560083e-01
1	 1.900076495907460e+00	 6.826111145612423e-01	 5.284399068453063e-01
1	 1.887448744943010e+00	 7.267086682734761e-01	 4.942003905916493e-01
1	 1.873866226882480e+00	 7.704511852972111e-01	 4.555483239641812e-01
1	 1.859318008754241e+00	 8.138056768991979e-01	 4.121224547364126e-01
1	 1.843794511444432e+00	 8.567391417734002e-01	 3.635953062749120e-01
1	 1.827287567867451e+00	 8.992186553505289e-01	 3.096782413607835e-01
1	 1.963387360592848e+00	 4.612354076907317e-01	 6.768085032835126e-01
1	 1.955268572798965e+00	 5.069461538088669e-01	 6.557123128638653e-01
1	 1.946261376087971e+00	 5.524623048326455e-01	 6.328768045630195e-01
1	 1.936348933595271e+00	 5.977519429269690e-01	 6.077354854024010e-01
1	 1.925515432654296e+00	 6.427827342952540e-01	 5.797460201433177e-01
1	 1.913746157292350e+00	 6.875220025281178e-01	 5.483973658519062e-01
1	 1.901027558891593e+00	 7.319368059031507e-01	 5.132170482594233e-01
1	 1.887347324543591e+00	 7.759940183601458e-01	 4.737784886545077e-01
1	 1.872694442621957e+00	 8.196604138359943e-01	 4.297082806906499e-01
1	 1.857059265098094e+00	 8.629027536043464e-01	 3.806933084204727e-01
1	 1.840433566130177e+00	 9.056878762276653e-01	 3.264875904471474e-01
1	 1.708971213911921e+00	 8.409945013854322e-01	 1.674526065452576e-01
1	 1.692605878429240e+00	 8.802710158444028e-01	 1.107978587253425e-01
1	 1.675309537819501e+00	 9.190618649712039e-01	 4.756297771055495e-02
1	 1.657078811545492e+00	 9.573369733799312e-01	-2.256402325423407e-02
1	 1.637911814921611e+00	 9.950666874472247e-01	-9.988786073725092e-02
1	 1.617808190139119e+00	 1.032221864511473e+00	-1.847031520084600e-01
1	 1.596769131566166e+00	 1.068773961727374e+00	-2.772915450978709e-01
1	 1.574797405047172e+00	 1.104695124050099e+00	-3.779188455815257e-01
1	 1.551897360966147e+00	 1.139958270817221e+00	-4.868321799147883e-01
1	 1.528074940881947e+00	 1.174537180395669e+00	-6.042572366116068e-01
1	 1.503337677589890e+00	 1.208406572365371e+00	-7.303956271723834e-01
1	 1.722117557260229e+00	 8.474638920795502e-01	 1.811975119026727e-01
1	 1.705626330646489e+00	 8.870425430173238e-01	 1.244241258402790e-01
1	 1.688196937103913e+00	 9.261317926190925e-01	 6.118767137817349e-02
1	 1.669825970090350e+00	 9.647013341425724e-01	-8.835431255852400e-03
1	 1.650511530422169e+00	 1.002721285852451e+00	-8.595983200464213e-02
1	 1.630253257538177e+00	 1.040162280905763e+00	-1.704882508812420e-01
1	 1.609052354994264e+00	 1.076995556889963e+00	-2.627084543986853e-01
1	 1.586911609911249e+00	 1.113193044483923e+00	-3.628902493007874e-01
1	 1.563835406138682e+00	 1.148727454705887e+00	-4.712825363859610e-01
1	 1.539829730941159e+00	 1.183572364211581e+00	-5.881104683694225e-01
1	 1.514902175060389e+00	 1.217702298110054e+00	-7.135727559265340e-01
1	 1.735263905209901e+00	 8.539332850375116e-01	 1.957152554064618e-01
1	 1.718646787421024e+00	 8.938140725599182e-01	 1.387112897492197e-01
1	 1.701084340899041e+00	 9.332017227411900e-01	 7.536608231216943e-02
1	 1.682573133096854e+00	 9.720656974825775e-01	 5.348789233571016e-03
1	 1.663111250332794e+00	 1.010375886936732e+00	-7.166179064995754e-02
1	 1.642698329293209e+00	 1.048102700079252e+00	-1.559741235353704e-01
1	 1.621335582721734e+00	 1.085217154930274e+00	-2.478808328067642e-01
1	 1.599025819015587e+00	 1.121690967892286e+00	-3.476556180577951e-01
1	 1.575773455489876e+00	 1.157496641664130e+00	-4.555502453433780e-01
1	 1.551584525114940e+00	 1.192607551190254e+00	-5.717916540226778e-01
1	 1.526466676578907e+00	 1.226998027108758e+00	-6.965792255586569e-01
1	 1.748410247024885e+00	 8.604026749762184e-01	 2.108901193377362e-01
1	 1.731667238119636e+00	 9.005855989422995e-01	 1.535724659902817e-01
1	 1.713971738680369e+00	 9.402716495638588e-01	 9.003660923795892e-02
1	 1.695320290155044e+00	 9.794300573857910e-01	 1.994866450580346e-02
1	 1.675710964363958e+00	 1.018030484448819e+00	-5.701582497531438e-02
1	 1.655143395241000e+00	 1.056043115547207e+00	-1.411687811092942e-01
1	 1.633618804717539e+00	 1.093438749133876e+00	-2.328064668702339e-01
1	 1.611140022467182e+00	 1.130188887335035e+00	-3.322063878453745e-01
1	 1.587711499270573e+00	 1.166265824530218e+00	-4.396242639342116e-01
1	 1.563339313803775e+00	 1.201642733952688e+00	-5.552911167733334e-01
1	 1.538031172701298e+00	 1.236293751769691e+00	-6.794105184753660e-01
1	 1.761556571969129e+00	 8.668720566125698e-01	 2.266098404210616e-01
1	 1.744687672109121e+00	 9.073571166345787e-01	 1.689233636358997e-01
1	 1.726859119923383e+00	 9.473415673134628e-01	 1.051394894829392e-01
1	 1.708067430854960e+00	 9.867944078380598e-01	 3.492541366986052e-02
1	 1.688310662226134e+00	 1.025685072137461e+00	-4.204336450388457e-02
1	 1.667588445218332e+00	 1.063983520824892e+00	-1.260799962710483e-01
1	 1.645902010950641e+00	 1.101660332786341e+00	-2.174832099166268e-01
1	 1.623254210373027e+00	 1.138686795872015e+00	-3.165342509860180e-01
1	 1.599649527731620e+00	 1.175034996142415e+00	-4.234938795608060e-01
1	 1.575094087408144e+00	 1.210677905119885e+00	-5.385994691907946e-01
1	 1.549595653983415e+00	 1.245589464501062e+00	-6.620622523115612e-01
1	 1.774702869306581e+00	 8.733414246634675e-01	 2.427654818795625e-01
1	 1.757708078756272e+00	 9.141286201068685e-01	 1.846821892243645e-01
1	 1.739746474103564e+00	 9.544114702163639e-01	 1.206167308589125e-01
1	 1.720814544786643e+00	 9.941587428252298e-01	 5.024140444305591e-02
1	 1.700910333629795e+00	 1.033339643751411e+00	-2.676520441813784e-02
1	 1.680033469061990e+00	 1.071923909427571e+00	-1.107153120967289e-01
1	 1.658185191390005e+00	 1.109881899173237e+00	-2.019089796315452e-01
1	 1.635368372840116e+00	 1.147184686563073e+00	-3.006311466944179e-01
1	 1.611587531123863e+00	 1.183804149338989e+00	-4.071486977082258e-01
1	 1.586848836328530e+00	 1.219713057312842e+00	-5.217076025558559e-01
1	 1.561160110981111e+00	 1.254885157711081e+00	-6.445301749850064e-01
1	 1.787849128301191e+00	 8.798107738458119e-01	 2.592513111220024e-01
1	 1.770728447427880e+00	 9.209001038292814e-01	 2.007695549201721e-01
1	 1.752633790696398e+00	 9.614813524989267e-01	 1.364120465429332e-01
1	 1.733561621540131e+00	 1.001523056333147e+00	 6.586011088805377e-02
1	 1.713509968285415e+00	 1.040994193039420e+00	-1.120152892234377e-02
1	 1.692478456608756e+00	 1.079864274870510e+00	-9.508205055815694e-02
1	 1.670468336004593e+00	 1.118103441580136e+00	-1.860817557439420e-01
1	 1.647482499975440e+00	 1.155682552468055e+00	-2.844892520554565e-01
1	 1.623525499698146e+00	 1.192573276958207e+00	-3.905786303075713e-01
1	 1.598603550965414e+00	 1.228748183152560e+00	-5.046066766736957e-01
1	 1.572724534250239e+00	 1.264180823807955e+00	-6.268101599686153e-01
1	 1.800995338216907e+00	 8.862800988765028e-01	 2.759646827746982e-01
1	 1.783748767490742e+00	 9.276715622719288e-01	 2.171083906875849e-01
1	 1.765521059177368e+00	 9.685512083875137e-01	 1.524707928037454e-01
1	 1.746308650705469e+00	 1.008887342347659e+00	 8.174607299672687e-02
1	 1.726109555903467e+00	 1.048648713750238e+00	 4.628066415809207e-03
1	 1.704923397695415e+00	 1.087804610668973e+00	-7.918732063965966e-02
1	 1.682751434763369e+00	 1.126324953292607e+00	-1.699995778125314e-01
1	 1.659596581885995e+00	 1.164180386646806e+00	-2.681009733964464e-01
1	 1.635463423705317e+00	 1.201342371838334e+00	-3.737738846078478e-01
1	 1.610358221719277e+00	 1.237783275260038e+00	-4.872881101320702e-01
1	 1.584288914346650e+00	 1.273476455199893e+00	-6.088982017693207e-01
1	 1.814141488317677e+00	 8.927493944724415e-01	 2.928059267877841e-01
1	 1.796769028311650e+00	 9.344429899049237e-01	 2.336238602742919e-01
1	 1.778408269021958e+00	 9.756210321084881e-01	 1.687399094297683e-01
1	 1.759055621872693e+00	 1.016251594854609e+00	 9.786485802734640e-02
1	 1.738709086194424e+00	 1.056303199632616e+00	 2.070455329280813e-02
1	 1.717368282158750e+00	 1.095744910338224e+00	-6.303802610274484e-02
1	 1.695034477635295e+00	 1.134546427596219e+00	-1.536605431082723e-01
1	 1.671710608678773e+00	 1.172678182159173e+00	-2.514589380336594e-01
1	 1.647401293396220e+00	 1.210111426817637e+00	-3.567249525306040e-01
1	 1.622112838990602e+00	 1.246818326256276e+00	-4.697435709821119e-01
1	 1.595853241826199e+00	 1.282772044295103e+00	-5.907904116031039e-01
1	 1.827287567867451e+00	 8.992186553505289e-01	 3.096782413607835e-01
1	 1.809789219257397e+00	 9.412143811983774e-01	 2.502432808137014e-01
1	 1.791295409705652e+00	 9.826908178882128e-01	 1.851678627228838e-01
1	 1.771802524631845e+00	 1.023615807839846e+00	 1.141830235069890e-01
1	 1.751308548868758e+00	 1.063957644435306e+00	 3.700945021742075e-02
1	 1.729813099835545e+00	 1.103685167393529e+00	-4.664087291636243e-02
1	 1.707317454589336e+00	 1.142767857776545e+00	-1.370628045880512e-01
1	 1.683824570460768e+00	 1.181175932065001e+00	-2.345559863743812e-01
1	 1.659339099021701e+00	 1.218880434734381e+00	-3.394226004830534e-01
1	 1.633867393179869e+00	 1.255853328762274e+00	-4.519649678205179e-01
1	 1.607417507244739e+00	 1.292067583501795e+00	-5.724830132563030e-01
1	 1.840433566130177e+00	 9.056878762276653e-01	 3.264875904471474e-01
1	 1.822809329694776e+00	 9.479857306224022e-01	 2.668960458653620e-01
1	 1.804182470703934e+00	 9.897605599530511e-01	 2.017045909300253e-01
1	 1.784549348572964e+00	 1.030979975289214e+00	 1.306680818161015e-01
1	 1.763907933636944e+00	 1.071612041907058e+00	 5.352480293339296e-02
1	 1.742257840562584e+00	 1.111625375350152e+00	-3.000237636942193e-02
1	 1.719600355594455e+00	 1.150989237119153e+00	-1.202045689550564e-01
1	 1.695938457338973e+00	 1.189673629424137e+00	-2.173851643567185e-01
1	 1.671276830832606e+00	 1.227649388426834e+00	-3.218578596069059e-01
1	 1.645621874687561e+00	 1.264888275399031e+00	-4.339444412531704e-01
1	 1.618981701158121e+00	 1.301363065228178e+00	-5.539723391239313e-01
1	 1.503337677589890e+00	 1.208406572365371e+00	-7.303956271723834e-01
1	 1.477694684641512e+00	 1.241542189619976e+00	-8.656814378813041e-01
1	 1.451156631409414e+00	 1.273920882760728e+00	-1.010486605741097e+00
1	 1.423735734706447e+00	 1.305520673096032e+00	-1.164864304263934e+00
1	 1.395445736040656e+00	 1.336320817023064e+00	-1.328819072840871e+00
1	 1.366301868460640e+00	 1.366301868460640e+00	-1.502305868782476e+00
1	 1.336320817023063e+00	 1.395445736040656e+00	-1.685229648044035e+00
1	 1.305520673096032e+00	 1.423735734706447e+00	-1.877445485161280e+00
1	 1.273920882760727e+00	 1.451156631409415e+00	-2.078759232980099e+00
1	 1.241542189619975e+00	 1.477694684641513e+00	-2.288928712768068e+00
1	 1.208406572365371e+00	 1.503337677589890e+00	-2.507665415532852e+00
1	 1.514902175060389e+00	 1.217702298110054e+00	-7.135727559265340e-01
1	 1.489061922154348e+00	 1.251092812695976e+00	-8.480813453193615e-01
1	 1.462319723670283e+00	 1.283720580492737e+00	-9.919961495552434e-01
1	 1.434687890399449e+00	 1.315563453736617e+00	-1.145381443271879e+00
1	 1.406180269557087e+00	 1.346600529253643e+00	-1.308253636803100e+00
1	 1.376812211372734e+00	 1.376812211372734e+00	-1.480580250156455e+00
1	 1.346600529253642e+00	 1.406180269557087e+00	-1.662279407385143e+00
1	 1.315563453736616e+00	 1.434687890399449e+00	-1.853219863058773e+00
1	 1.283720580492737e+00	 1.462319723670283e+00	-2.053221562734873e+00
1	 1.251092812695975e+00	 1.489061922154348e+00	-2.262056729446296e+00
1	 1.217702298110054e+00	 1.514902175060389e+00	-2.479451458533106e+00
1	 1.526466676578907e+00	 1.226998027108758e+00	-6.965792255586569e-01
1	 1.500429163646209e+00	 1.260643439115263e+00	-8.303107049351722e-01
1	 1.473482819838770e+00	 1.293520281655245e+00	-9.733396727276186e-01
1	 1.445640049926278e+00	 1.325606237892797e+00	-1.125742521203118e+00
1	 1.416914806831205e+00	 1.356880245082748e+00	-1.287548373809712e+00
1	 1.387322557964068e+00	 1.387322557964069e+00	-1.458737971820264e+00
1	 1.356880245082748e+00	 1.416914806831205e+00	-1.639243075334973e+00
1	 1.325606237892796e+00	 1.445640049926279e+00	-1.828946391644203e+00
1	 1.293520281655244e+00	 1.473482819838770e+00	-2.027682034244675e+00
1	 1.260643439115263e+00	 1.500429163646209e+00	-2.235236505976649e+00
1	 1.226998027108757e+00	 1.526466676578907e+00	-2.451350190091166e+00
1	 1.538031172701298e+00	 1.236293751769691e+00	-6.794105184753660e-01
1	 1.511796399834000e+00	 1.270194061077886e+00	-8.123717535397104e-01
1	 1.484645910798441e+00	 1.303319978244912e+00	-9.545255996792643e-01
1	 1.456592204342702e+00	 1.335649017362756e+00	-1.105961569182391e+00
1	 1.427649339096438e+00	 1.367159956115121e+00	-1.266722330200231e+00
1	 1.397832899651095e+00	 1.397832899651095e+00	-1.436802496902790e+00
1	 1.367159956115120e+00	 1.427649339096439e+00	-1.616147930174380e+00
1	 1.335649017362756e+00	 1.456592204342703e+00	-1.804655563264741e+00
1	 1.303319978244911e+00	 1.484645910798441e+00	-2.002173757151903e+00
1	 1.270194061077885e+00	 1.511796399834000e+00	-2.208503180562460e+00
1	 1.236293751769691e+00	 1.538031172701298e+00	-2.423398199916163e+00
1	 1.549595653983415e+00	 1.245589464501062e+00	-6.620622523115612e-01
1	 1.523163621434620e+00	 1.279744670783892e+00	-7.942666614132996e-01
1	 1.495808987432858e+00	 1.313119662258399e+00	-9.355621034704612e-01
1	 1.467544344704487e+00	 1.345691783944678e+00	-1.086052199500072e+00
1	 1.438383857586212e+00	 1.377439653955503e+00	-1.245793983684239e+00
1	 1.408343227850264e+00	 1.408343227850265e+00	-1.414796587997250e+00
1	 1.377439653955501e+00	 1.438383857586212e+00	-1.593020435732456e+00
1	 1.345691783944678e+00	 1.467544344704487e+00	-1.780376959875758e+00
1	 1.313119662258398e+00	 1.495808987432858e+00	-1.976728852616482e+00
1	 1.279744670783891e+00	 1.523163621434620e+00	-2.181890842444433e+00
1	 1.245589464501063e+00	 1.549595653983416e+00	-2.395630985536314e+00
1	 1.561160110981111e+00	 1.254885157711081e+00	-6.445301749850064e-01
1	 1.534530819164973e+00	 1.289295260433329e+00	-7.759975348347893e-01
1	 1.506972040625587e+00	 1.322919325692369e+00	-9.164571151779708e-01
1	 1.478496462067399e+00	 1.355734529436747e+00	-1.066027621195306e+00
1	 1.449118353533953e+00	 1.387719330208632e+00	-1.224781264476442e+00
1	 1.418853533978028e+00	 1.418853533978028e+00	-1.392742333186552e+00
1	 1.387719330208631e+00	 1.449118353533954e+00	-1.569886271636891e+00
1	 1.355734529436746e+00	 1.478496462067399e+00	-1.756139286851602e+00
1	 1.322919325692368e+00	 1.506972040625587e+00	-1.951378490027071e+00
1	 1.289295260433328e+00	 1.534530819164974e+00	-2.155432570860989e+00
1	 1.254885157711081e+00	 1.561160110981111e+00	-2.368082992870375e+00
1	 1.572724534250239e+00	 1.264180823807955e+00	-6.268101599686153e-01
1	 1.545897983741961e+00	 1.298845822226245e+00	-7.575664184994132e-01
1	 1.518135061260190e+00	 1.332718960543483e+00	-8.972183328595492e-01
1	 1.489448547487204e+00	 1.365777245637144e+00	-1.045900654953197e+00
1	 1.459852818173088e+00	 1.397998976479250e+00	-1.203701575501429e+00
1	 1.429363809450838e+00	 1.429363809450839e+00	-1.370661170923050e+00
1	 1.397998976479250e+00	 1.459852818173088e+00	-1.546770362232808e+00
1	 1.365777245637144e+00	 1.489448547487205e+00	-1.731970405308033e+00
1	 1.332718960543482e+00	 1.518135061260191e+00	-1.926152922096146e+00
1	 1.298845822226245e+00	 1.545897983741961e+00	-2.129160472293817e+00
1	 1.264180823807955e+00	 1.572724534250238e+00	-2.340787655013309e+00
1	 1.584288914346650e+00	 1.273476455199893e+00	-6.088982017693207e-01
1	 1.557265105882484e+00	 1.308396348362689e+00	-7.389752978310352e-01
1	 1.529298040220234e+00	 1.342518558808402e+00	-8.778532301266921e-01
1	 1.500400592019669e+00	 1.375819924344055e+00	-1.025683747350999e+00
1	 1.470587242737042e+00	 1.408278584372098e+00	-1.182571811715424e+00
1	 1.439874045685145e+00	 1.439874045685146e+00	-1.348573913821061e+00
1	 1.408278584372098e+00	 1.470587242737043e+00	-1.523696904237819e+00
1	 1.375819924344054e+00	 1.500400592019670e+00	-1.707897363012176e+00
1	 1.342518558808402e+00	 1.529298040220234e+00	-1.901081518421573e+00
1	 1.308396348362688e+00	 1.557265105882484e+00	-2.103105716085690e+00
1	 1.273476455199893e+00	 1.584288914346650e+00	-2.313777429326935e+00
1	 1.595853241826199e+00	 1.282772044295103e+00	-5.907904116031039e-01
1	 1.568632176303445e+00	 1.317946831042709e+00	-7.202261011940378e-01
1	 1.540460968389281e+00	 1.352318112483789e+00	-8.583690643454908e-01
1	 1.511352586720562e+00	 1.385862557355662e+00	-1.005388984486308e+00
1	 1.481321618459244e+00	 1.418558145491916e+00	-1.161408378589943e+00
1	 1.450384234097401e+00	 1.450384234097401e+00	-1.326500771417242e+00
1	 1.418558145491915e+00	 1.481321618459244e+00	-1.500689393197413e+00
1	 1.385862557355662e+00	 1.511352586720562e+00	-1.683946423951644e+00
1	 1.352318112483789e+00	 1.540460968389282e+00	-1.876192797592287e+00
1	 1.317946831042709e+00	 1.568632176303445e+00	-2.077298568513222e+00
1	 1.282772044295103e+00	 1.595853241826199e+00	-2.287083832921711e+00
1	 1.607417507244739e+00	 1.292067583501795e+00	-5.724830132563030e-01
1	 1.579999185721744e+00	 1.327497262466353e+00	-7.013207020099987e-01
1	 1.551623836650896e+00	 1.362117613566305e+00	-8.387728844842858e-01
1	 1.522304522645647e+00	 1.395905136470149e+00	-9.850281050182650e-01
1	 1.492055936573117e+00	 1.428837651443444e+00	-1.140227209799276e+00
1	 1.460894366104057e+00	 1.460894366104057e+00	-1.304461371950690e+00
1	 1.428837651443443e+00	 1.492055936573118e+00	-1.477770648800892e+00
1	 1.395905136470148e+00	 1.522304522645648e+00	-1.660143096629942e+00
1	 1.362117613566304e+00	 1.551623836650896e+00	-1.851514457910966e+00
1	 1.327497262466353e+00	 1.579999185721745e+00	-2.051768425392021e+00
1	 1.292067583501795e+00	 1.607417507244739e+00	-2.260737476610041e+00
1	 1.618981701158121e+00	 1.301363065228178e+00	-5.539723391239313e-01
1	 1.591366124854286e+00	 1.337047634833670e+00	-6.822609207838084e-01
1	 1.562786635888641e+00	 1.371917054052611e+00	-8.190715386257457e-01
1	 1.533256390850693e+00	 1.405947653485699e+00	-9.646125126510611e-01
1	 1.502790188312090e+00	 1.439117093831422e+00	-1.119043784151544e+00
1	 1.471404433121564e+00	 1.471404433121565e+00	-1.282474783211519e+00
1	 1.439117093831422e+00	 1.502790188312090e+00	-1.454962839114541e+00
1	 1.405947653485699e+00	 1.533256390850694e+00	-1.636512161152023e+00
1	 1.371917054052610e+00	 1.562786635888642e+00	-1.827073406803023e+00
1	 1.337047634833670e+00	 1.591366124854286e+00	-2.026543843287526e+00
1	 1.301363065228178e+00	 1.618981701158121e+00	-2.234768097407816e+00
1	 1.208406572365371e+00	 1.503337677589890e+00	-2.507665415532852e+00
1	 1.174537180395669e+00	 1.528074940881948e+00	-2.735001863132374e+00
1	 1.139958270817220e+00	 1.551897360966147e+00	-2.970631202444273e+00
1	 1.104695124050098e+00	 1.574797405047172e+00	-3.213673631898359e+00
1	 1.068773961727374e+00	 1.596769131566166e+00	-3.463190854156054e+00
1	 1.032221864511472e+00	 1.617808190139118e+00	-3.718194578327843e+00
1	 9.950666874472238e-01	 1.637911814921611e+00	-3.977655356804791e+00
1	 9.573369733799303e-01	 1.657078811545492e+00	-4.240511618895678e+00
1	 9.190618649712032e-01	 1.675309537819501e+00	-4.505678765459799e+00
1	 8.802710158444024e-01	 1.692605878429240e+00	-4.772058193669046e+00
1	 8.409945013854322e-01	 1.708971213911920e+00	-5.038546128620535e+00
1	 1.217702298110054e+00	 1.514902175060389e+00	-2.479451458533106e+00
1	 1.183572364211580e+00	 1.539829730941159e+00	-2.705405908887332e+00
1	 1.148727454705886e+00	 1.563835406138682e+00	-2.939586332339026e+00
1	 1.113193044483922e+00	 1.586911609911249e+00	-3.181137393744036e+00
1	 1.076995556889963e+00	 1.609052354994264e+00	-3.429147174298507e+00
1	 1.040162280905762e+00	 1.630253257538177e+00	-3.682655427603012e+00
1	 1.002721285852451e+00	 1.650511530422170e+00	-3.940662156229479e+00
1	 9.647013341425719e-01	 1.669825970090350e+00	-4.202136375198179e+00
1	 9.261317926190918e-01	 1.688196937103913e+00	-4.466024930793093e+00
1	 8.870425430173231e-01	 1.705626330646489e+00	-4.731261248011410e+00
1	 8.474638920795503e-01	 1.722117557260229e+00	-4.996773887367250e+00
1	 1.226998027108757e+00	 1.526466676578907e+00	-2.451350190091166e+00
1	 1.192607551190254e+00	 1.551584525114940e+00	-2.675993180186932e+00
1	 1.157496641664129e+00	 1.575773455489876e+00	-2.908805410605935e+00
1	 1.121690967892286e+00	 1.599025819015588e+00	-3.148952478121510e+00
1	 1.085217154930273e+00	 1.621335582721735e+00	-3.395544687232007e+00
1	 1.048102700079251e+00	 1.642698329293210e+00	-3.647645114310190e+00
1	 1.010375886936732e+00	 1.663111250332794e+00	-3.904277983632577e+00
1	 9.720656974825767e-01	 1.682573133096854e+00	-4.164437224823827e+00
1	 9.332017227411892e-01	 1.701084340899041e+00	-4.427095083255074e+00
1	 8.938140725599177e-01	 1.718646787421024e+00	-4.691210659717920e+00
1	 8.539332850375116e-01	 1.735263905209901e+00	-4.955738262971090e+00
1	 1.236293751769691e+00	 1.538031172701298e+00	-2.423398199916163e+00
1	 1.201642733952688e+00	 1.563339313803775e+00	-2.646800320594615e+00
1	 1.166265824530217e+00	 1.587711499270573e+00	-2.878322959937296e+00
1	 1.130188887335034e+00	 1.611140022467182e+00	-3.117149201517955e+00
1	 1.093438749133876e+00	 1.633618804717538e+00	-3.362407519582659e+00
1	 1.056043115547206e+00	 1.655143395241000e+00	-3.613179704523296e+00
1	 1.018030484448818e+00	 1.675710964363958e+00	-3.868509097008560e+00
1	 9.794300573857903e-01	 1.695320290155044e+00	-4.127409002365296e+00
1	 9.402716495638580e-01	 1.713971738680371e+00	-4.388871158751424e+00
1	 9.005855989422986e-01	 1.731667238119637e+00	-4.651874137349309e+00
1	 8.604026749762183e-01	 1.748410247024885e+00	-4.915391559950556e+00
1	 1.245589464501063e+00	 1.549595653983416e+00	-2.395630985536314e+00
1	 1.210677905119885e+00	 1.575094087408144e+00	-2.617862880029227e+00
1	 1.175034996142414e+00	 1.599649527731621e+00	-2.848172472857236e+00
1	 1.138686795872015e+00	 1.623254210373027e+00	-3.085756975985295e+00
1	 1.101660332786340e+00	 1.645902010950641e+00	-3.329759078477831e+00
1	 1.063983520824891e+00	 1.667588445218332e+00	-3.579274785565000e+00
1	 1.025685072137460e+00	 1.688310662226134e+00	-3.833361568459878e+00
1	 9.867944078380592e-01	 1.708067430854960e+00	-4.091046697523178e+00
1	 9.473415673134616e-01	 1.726859119923383e+00	-4.351335633229695e+00
1	 9.073571166345781e-01	 1.744687672109121e+00	-4.613220353971395e+00
1	 8.668720566125701e-01	 1.761556571969129e+00	-4.875687506756594e+00
1	 1.254885157711081e+00	 1.561160110981111e+00	-2.368082992870375e+00
1	 1.219713057312841e+00	 1.586848836328531e+00	-2.589215355402194e+00
1	 1.183804149338989e+00	 1.611587531123863e+00	-2.818386450019756e+00
1	 1.147184686563072e+00	 1.635368372840115e+00	-3.054804342793504e+00
1	 1.109881899173236e+00	 1.658185191390005e+00	-3.297622078361221e+00
1	 1.071923909427571e+00	 1.680033469061990e+00	-3.545945483915233e+00
1	 1.033339643751411e+00	 1.700910333629796e+00	-3.798841291266528e+00
1	 9.941587428252290e-01	 1.720814544786643e+00	-4.055345449550233e+00
1	 9.544114702163635e-01	 1.739746474103565e+00	-4.314471502866731e+00
1	 9.141286201068681e-01	 1.757708078756272e+00	-4.575218911616223e+00
1	 8.733414246634674e-01	 1.774702869306581e+00	-4.836581203205887e+00
1	 1.264180823807955e+00	 1.572724534250238e+00	-2.340787655013309e+00
1	 1.228748183152559e+00	 1.598603550965414e+00	-2.560891229465741e+00
1	 1.192573276958206e+00	 1.623525499698147e+00	-2.788996436821073e+00
1	 1.155682552468054e+00	 1.647482499975440e+00	-3.024319004602616e+00
1	 1.118103441580135e+00	 1.670468336004593e+00	-3.266018566627852e+00
1	 1.079864274870509e+00	 1.692478456608757e+00	-3.513206482331483e+00
1	 1.040994193039419e+00	 1.713509968285416e+00	-3.764953986644380e+00
1	 1.001523056333147e+00	 1.733561621540132e+00	-4.020300541940145e+00
1	 9.614813524989264e-01	 1.752633790696398e+00	-4.278262265128269e+00
1	 9.209001038292806e-01	 1.770728447427881e+00	-4.537840307307629e+00
1	 8.798107738458119e-01	 1.787849128301191e+00	-4.798029070228443e+00
1	 1.273476455199893e+00	 1.584288914346650e+00	-2.313777429326935e+00
1	 1.237783275260037e+00	 1.610358221719277e+00	-2.532923007963614e+00
1	 1.201342371838334e+00	 1.635463423705318e+00	-2.760033058412001e+00
1	 1.164180386646805e+00	 1.659596581885995e+00	-2.994327856228978e+00
1	 1.126324953292606e+00	 1.682751434763369e+00	-3.234969948138678e+00
1	 1.087804610668972e+00	 1.704923397695415e+00	-3.481072036220911e+00
1	 1.048648713750237e+00	 1.726109555903467e+00	-3.731705210208182e+00
1	 1.008887342347658e+00	 1.746308650705469e+00	-3.985907397348437e+00
1	 9.685512083875132e-01	 1.765521059177368e+00	-4.242691900655969e+00
1	 9.276715622719285e-01	 1.783748767490743e+00	-4.501055900571375e+00
1	 8.862800988765027e-01	 1.800995338216907e+00	-4.759988801810843e+00
1	 1.282772044295103e+00	 1.595853241826199e+00	-2.287083832921711e+00
1	 1.246818326256276e+00	 1.622112838990602e+00	-2.505342255170224e+00
1	 1.210111426817636e+00	 1.647401293396220e+00	-2.731526053191510e+00
1	 1.172678182159172e+00	 1.671710608678773e+00	-2.964857014076562e+00
1	 1.134546427596219e+00	 1.695034477635296e+00	-3.204497008671977e+00
1	 1.095744910338224e+00	 1.717368282158750e+00	-3.449555989302400e+00
1	 1.056303199632615e+00	 1.738709086194423e+00	-3.699100358154334e+00
1	 1.016251594854609e+00	 1.759055621872693e+00	-3.952161572733713e+00
1	 9.756210321084874e-01	 1.778408269021958e+00	-4.207744855940610e+00
1	 9.344429899049229e-01	 1.796769028311650e+00	-4.464837882354849e+00
1	 8.927493944724416e-01	 1.814141488317677e+00	-4.722419319024444e+00
1	 1.292067583501795e+00	 1.607417507244739e+00	-2.260737476610041e+00
1	 1.255853328762274e+00	 1.633867393179869e+00	-2.478179627898766e+00
1	 1.218880434734381e+00	 1.659339099021702e+00	-2.703504304857491e+00
1	 1.181175932065001e+00	 1.683824570460768e+00	-2.935931844300982e+00
1	 1.142767857776545e+00	 1.707317454589337e+00	-3.174619937364260e+00
1	 1.103685167393528e+00	 1.729813099835545e+00	-3.418671788593772e+00
1	 1.063957644435305e+00	 1.751308548868758e+00	-3.667144673177077e+00
1	 1.023615807839845e+00	 1.771802524631845e+00	-3.919058754707970e+00
1	 9.826908178882120e-01	 1.791295409705652e+00	-4.173406026741184e+00
1	 9.412143811983766e-01	 1.809789219257397e+00	-4.429159245285399e+00
1	 8.992186553505291e-01	 1.827287567867451e+00	-4.685280726033625e+00
1	 1.301363065228178e+00	 1.618981701158121e+00	-2.234768097407816e+00
1	 1.264888275399030e+00	 1.645621874687561e+00	-2.451464908055518e+00
1	 1.227649388426834e+00	 1.671276830832607e+00	-2.675995873087298e+00
1	 1.189673629424137e+00	 1.695938457338974e+00	-2.907576989768764e+00
1	 1.150989237119153e+00	 1.719600355594456e+00	-3.145358348191992e+00
1	 1.111625375350151e+00	 1.742257840562584e+00	-3.388432498758346e+00
1	 1.071612041907057e+00	 1.763907933636944e+00	-3.635843250132112e+00
1	 1.030979975289214e+00	 1.784549348572964e+00	-3.886594755086370e+00
1	 9.897605599530503e-01	 1.804182470703934e+00	-4.139660742213422e+00
1	 9.479857306224013e-01	 1.822809329694776e+00	-4.393993755200564e+00
1	 9.056878762276651e-01	 1.840433566130176e+00	-4.648534267985253e+00
1	 8.409945013854322e-01	 1.708971213911920e+00	-5.038546128620535e+00
1	 8.012655243155109e-01	 1.724409337557121e+00	-5.304623761441920e+00
1	 7.611119891663416e-01	 1.738927692802811e+00	-5.569343567984423e+00
1	 7.205646886507253e-01	 1.752533917918023e+00	-5.830880541488304e+00
1	 6.796544872495266e-01	 1.765236971771615e+00	-6.087391523787836e+00
1	 6.384122376849063e-01	 1.777047079428316e+00	-6.337031163711664e+00
1	 5.968686998193392e-01	 1.787975674284199e+00	-6.577967029839745e+00
1	 5.550544623447694e-01	 1.798035337177901e+00	-6.808393729088349e+00
1	 5.129998675914502e-01	 1.807239732918643e+00	-7.026545910547362e+00
1	 4.707349397497000e-01	 1.815603544672573e+00	-7.230710061911847e+00
1	 4.282893167605222e-01	 1.823142406645302e+00	-7.419235033050041e+00
1	 8.474638920795503e-01	 1.722117557260229e+00	-4.996773887367247e+00
1	 8.074292979405404e-01	 1.737674439414771e+00	-5.261953007013594e+00
1	 7.669668797889307e-01	 1.752304477807102e+00	-5.525762457769543e+00
1	 7.261076672119189e-01	 1.766015369464010e+00	-5.786413459472827e+00
1	 6.848827621168465e-01	 1.778816142170903e+00	-6.042098914372807e+00
1	 6.433232545618970e-01	 1.790717099649317e+00	-6.291009127221062e+00
1	 6.014601410312407e-01	 1.801729763247288e+00	-6.531346696141677e+00
1	 5.593242455217809e-01	 1.811866810582170e+00	-6.761340427480487e+00
1	 5.169461437735808e-01	 1.821142011580397e+00	-6.979258155365163e+00
1	 4.743560909394629e-01	 1.829570162359090e+00	-7.183418374217270e+00
1	 4.315839529516940e-01	 1.837167017390746e+00	-7.372200619269702e+00
1	 8.539332850375116e-01	 1.735263905209901e+00	-4.955738262971090e+00
1	 8.135930737223799e-01	 1.750939545915384e+00	-5.219974881340173e+00
1	 7.728217724601693e-01	 1.765681267493491e+00	-5.482802439465767e+00
1	 7.316506477125579e-01	 1.779496825728795e+00	-5.742476127586599e+00
1	 6.901110388134490e-01	 1.792395317323264e+00	-5.997234123854854e+00
1	 6.482342731571338e-01	 1.804387124655278e+00	-6.245312901110903e+00
1	 6.060515838495607e-01	 1.815483857024858e+00	-6.484961716856381e+00
1	 5.635940301926756e-01	 1.825698288828111e+00	-6.714456144130398e+00
1	 5.208924213364347e-01	 1.835044295108718e+00	-6.932110527905911e+00
1	 4.779772433962463e-01	 1.843536784934809e+00	-7.136289278486365e+00
1	 4.348785902957209e-01	 1.851191633045813e+00	-7.325416939545280e+00
1	 8.604026749762183e-01	 1.748410247024885e+00	-4.915391559950558e+00
1	 8.197568466275470e-01	 1.764204646225886e+00	-5.178628818711184e+00
1	 7.786766623988444e-01	 1.779058050937662e+00	-5.440396045557251e+00
1	 7.371936256261629e-01	 1.792978275702541e+00	-5.698999869847990e+00
1	 6.953393130698574e-01	 1.805974486139023e+00	-5.952732662162861e+00
1	 6.531452894602180e-01	 1.818057143282288e+00	-6.199887255922872e+00
1	 6.106430245248660e-01	 1.829237944384306e+00	-6.438770860631337e+00
1	 5.678638128706814e-01	 1.839529760619885e+00	-6.667718031684877e+00
1	 5.248386970574066e-01	 1.848946572149907e+00	-6.885102587794276e+00
1	 4.815983941629303e-01	 1.857503400993456e+00	-7.089348393044076e+00
1	 4.381732261021031e-01	 1.865216242156835e+00	-7.278938945871613e+00
1	 8.668720566125701e-01	 1.761556571969129e+00	-4.875687506756594e+00
1	 8.259206116225591e-01	 1.777469729513201e+00	-5.137856060953196e+00
1	 7.845315448237447e-01	 1.792434817215295e+00	-5.398477821340525e+00
1	 7.427365964262537e-01	 1.806459708375415e+00	-5.655918058288372e+00
1	 7.005675806165935e-01	 1.819553637528503e+00	-5.908531961339457e+00
1	 6.580562994607525e-01	 1.831727144366439e+00	-6.154678606912031e+00
1	 6.152344593077244e-01	 1.842992014093028e+00	-6.392734122055222e+00
1	 5.721335900690260e-01	 1.853361214661656e+00	-6.621103919150168e+00
1	 5.287849677138907e-01	 1.862848831350267e+00	-6.838233901527374e+00
1	 4.852195402823951e-01	 1.871469999128757e+00	-7.042620564851211e+00
1	 4.414678576803406e-01	 1.879240833270148e+00	-7.232819943215758e+00
1	 8.733414246634674e-01	 1.774702869306581e+00	-4.836581203205888e+00
1	 8.320843636739330e-01	 1.790734784944258e+00	-5.097599590637501e+00
1	 7.903864149536578e-01	 1.805811555402070e+00	-5.356984250506592e+00
1	 7.482795555863507e-01	 1.819941112737581e+00	-5.613166037204116e+00
1	 7.057958371841797e-01	 1.833132760402026e+00	-5.864571304427430e+00
1	 6.629672991483389e-01	 1.845397116743820e+00	-6.109634953179986e+00
1	 6.198258844487028e-01	 1.856746054918419e+00	-6.346812676275531e+00
1	 5.764033583009375e-01	 1.867192639657585e+00	-6.574592286843782e+00
1	 5.327312300832817e-01	 1.876751061356101e+00	-6.791504042208507e+00
1	 4.888406787975209e-01	 1.885436567934440e+00	-6.996129898058371e+00
1	 4.447624823399336e-01	 1.893265394932085e+00	-7.187111650511457e+00
1	 8.798107738458119e-01	 1.787849128301191e+00	-4.798029070228443e+00
1	 8.382480977481868e-01	 1.803999801685982e+00	-5.057804067227805e+00
1	 7.962412680073720e-01	 1.819188254573673e+00	-5.315853683998158e+00
1	 7.538224985799749e-01	 1.833422477779206e+00	-5.570681050742234e+00
1	 7.110240785031388e-01	 1.846711843669915e+00	-5.820791757486696e+00
1	 6.678782845125789e-01	 1.859067049250523e+00	-6.064705819486958e+00
1	 6.244172961983688e-01	 1.870500055627877e+00	-6.300968835613901e+00
1	 5.806731140796434e-01	 1.881024024311833e+00	-6.528162242448775e+00
1	 5.366774809429741e-01	 1.890653250813712e+00	-6.744912589293593e+00
1	 4.924618067511876e-01	 1.899403096004228e+00	-6.949899781302972e+00
1	 4.480570973903820e-01	 1.907289915688981e+00	-7.141864258968726e+00
1	 8.862800988765027e-01	 1.800995338216907e+00	-4.759988801810843e+00
1	 8.444118088118379e-01	 1.817264768905302e+00	-5.018415766018360e+00
1	 8.020960992036750e-01	 1.832564903805781e+00	-5.275026271976353e+00
1	 7.593654208806463e-01	 1.846903792490453e+00	-5.528402173651023e+00
1	 7.162523003039928e-01	 1.860290876242493e+00	-5.777136104581866e+00
1	 6.727892515430750e-01	 1.872736930722637e+00	-6.019842200606327e+00
1	 6.290086908072897e-01	 1.884254004988797e+00	-6.255166008076924e+00
1	 5.849428539183718e-01	 1.894855357328564e+00	-6.481793498114581e+00
1	 5.406237170703621e-01	 1.904555388369402e+00	-6.698459128347224e+00
1	 4.960829211862753e-01	 1.913369571931849e+00	-6.903952913813312e+00
1	 4.513517001411860e-01	 1.921314384087171e+00	-7.097126487835172e+00
1	 8.927493944724416e-01	 1.814141488317677e+00	-4.722419319024444e+00
1	 8.505754918314032e-01	 1.830529675769143e+00	-4.979382519720696e+00
1	 8.079509037613544e-01	 1.845941492174077e+00	-5.234443898738287e+00
1	 7.649083179618851e-01	 1.860385045861490e+00	-5.486270245034447e+00
1	 7.214804983172648e-01	 1.873869847030084e+00	-5.733548785590114e+00
1	 6.777001962294289e-01	 1.886406749996252e+00	-5.974996508093655e+00
1	 6.336000645260328e-01	 1.898007891768577e+00	-6.209368657667111e+00
1	 5.892125743303502e-01	 1.908686627411939e+00	-6.435466348550813e+00
1	 5.445699352428404e-01	 1.918457462669473e+00	-6.652143250810711e+00
1	 4.997040191456646e-01	 1.927335984311028e+00	-6.858311330380047e+00
1	 4.546462879018455e-01	 1.935338788672990e+00	-7.052945637738291e+00
1	 8.992186553505291e-01	 1.827287567867451e+00	-4.685280726033626e+00
1	 8.567391417734005e-01	 1.843794511444431e+00	-4.940653662566842e+00
1	 8.138056768991981e-01	 1.859318008754242e+00	-5.194050120438227e+00
1	 7.704511852972115e-01	 1.873866226882480e+00	-5.444227804959858e+00
1	 7.267086682734767e-01	 1.887448744943010e+00	-5.689975836687676e+00
1	 6.826111145612430e-01	 1.900076495907461e+00	-5.930122519347909e+00
1	 6.381914136051653e-01	 1.911761704734611e+00	-6.163542266402869e+00
1	 5.934822718288069e-01	 1.922517823266122e+00	-6.389161650064747e+00
1	 5.485161322378036e-01	 1.932359462360229e+00	-6.605964553778491e+00
1	 5.033250976722351e-01	 1.941302321735491e+00	-6.812996425251877e+00
1	 4.579408579818608e-01	 1.949363117992770e+00	-7.009367641730048e+00
1	 9.056878762276651e-01	 1.840433566130176e+00	-4.648534267985252e+00
1	 8.629027536043467e-01	 1.857059265098094e+00	-4.902179976802387e+00
1	 8.196604138359946e-01	 1.872694442621957e+00	-5.153790105471406e+00
1	 7.759940183601461e-01	 1.887347324543590e+00	-5.402219033776642e+00
1	 7.319368059031509e-01	 1.901027558891593e+00	-5.646364833381449e+00
1	 6.875220025281183e-01	 1.913746157292350e+00	-5.885175328851094e+00
1	 6.427827342952547e-01	 1.925515432654296e+00	-6.117653297963016e+00
1	 5.977519429269694e-01	 1.936348933595271e+00	-6.342860800495395e+00
1	 5.524623048326459e-01	 1.946261376087971e+00	-6.559922639785653e+00
1	 5.069461538088672e-01	 1.955268572798964e+00	-6.768028975009924e+00
1	 4.612354076907317e-01	 1.963387360592848e+00	-6.966437114148822e+00
1	 4.282893167605222e-01	 1.823142406645302e+00	-7.419235033050041e+00
1	 3.856892073858478e-01	 1.829873278754343e+00	-7.592740447359401e+00
1	 3.429662982768709e-01	 1.835812937996986e+00	-7.751390399172847e+00
1	 3.001487493340093e-01	 1.840979461280257e+00	-7.893011982131490e+00
1	 2.572640992986176e-01	 1.845391598947249e+00	-8.015534736815098e+00
1	 2.143392184869364e-01	 1.849068705039692e+00	-8.116998515206864e+00
1	 1.714002659640361e-01	 1.852030668220261e+00	-8.195559697250946e+00
1	 1.284726511608891e-01	 1.854297843677920e+00	-8.249495832234405e+00
1	 8.558099990728006e-02	 1.855890986314603e+00	-8.277208792790839e+00
1	 4.274912482501691e-02	 1.856831185485652e+00	-8.277226541079534e+00
1	 0.000000000000000e+00	 1.857139801539814e+00	-8.248203615332852e+00
1	 4.315839529516940e-01	 1.837167017390746e+00	-7.372200619269703e+00
1	 3.886561401843551e-01	 1.843949667057867e+00	-7.546188827699572e+00
1	 3.456045830397630e-01	 1.849935017415582e+00	-7.705361944164990e+00
1	 3.024576580397679e-01	 1.855141284428371e+00	-7.847350760268292e+00
1	 2.592431157688595e-01	 1.859587362677220e+00	-7.969887618322833e+00
1	 2.159880332445207e-01	 1.863292755085735e+00	-8.070816043790739e+00
1	 1.727187707617282e-01	 1.866277503311066e+00	-8.148098570278576e+00
1	 1.294609332147639e-01	 1.868562119125425e+00	-8.199822824937549e+00
1	 8.623933586883026e-02	 1.870167517088808e+00	-8.224205960142632e+00
1	 4.307797452551022e-02	 1.871114948787420e+00	-8.219597531727072e+00
1	 0.000000000000000e+00	 1.871425938885499e+00	-8.184480934997774e+00
1	 4.348785902957209e-01	 1.851191633045813e+00	-7.325416939545280e+00
1	 3.916230740211588e-01	 1.858026060289259e+00	-7.500027632501247e+00
1	 3.482428687260724e-01	 1.864057101778160e+00	-7.659880338273154e+00
1	 3.047665675538065e-01	 1.869303112534495e+00	-7.802391057643622e+00
1	 2.612221329320471e-01	 1.873783131377193e+00	-7.925074077681423e+00
1	 2.176368485795777e-01	 1.877516810111782e+00	-8.025553775507111e+00
1	 1.740372760213400e-01	 1.880524343389939e+00	-8.101574440121670e+00
1	 1.304492156149808e-01	 1.882826399567176e+00	-8.151008171881371e+00
1	 8.689767206117521e-02	 1.884444052861604e+00	-8.171860940830854e+00
1	 4.340682434133394e-02	 1.885398717090345e+00	-8.162276902762816e+00
1	 0.000000000000000e+00	 1.885712081233184e+00	-8.120541085708812e+00
1	 4.381732261021031e-01	 1.865216242156835e+00	-7.278938945871613e+00
1	 3.945900064733499e-01	 1.872102446952540e+00	-7.454335767916900e+00
1	 3.508811531812543e-01	 1.878179179551401e+00	-7.615035132734890e+00
1	 3.070754759905426e-01	 1.883464934032833e+00	-7.758220500228229e+00
1	 2.632011491719848e-01	 1.887978893453635e+00	-7.881168010740009e+00
1	 2.192856631455576e-01	 1.891740858501185e+00	-7.981260857060847e+00
1	 1.753557806660615e-01	 1.894771176821610e+00	-8.056001485397775e+00
1	 1.314374975544061e-01	 1.897090673353649e+00	-8.103021673278260e+00
1	 8.755600794663987e-02	 1.898720581973453e+00	-8.120090558223342e+00
1	 4.373567400390536e-02	 1.899682478728979e+00	-8.105120712539646e+00
1	 0.000000000000000e+00	 1.899998216915481e+00	-8.056172376864637e+00
1	 4.414678576803406e-01	 1.879240833270148e+00	-7.232819943215760e+00
1	 3.975569351180192e-01	 1.886178815551730e+00	-7.409189778372282e+00
1	 3.535194342507643e-01	 1.892301239201991e+00	-7.570913199942439e+00
1	 3.093843814643928e-01	 1.897626737357590e+00	-7.714924093420448e+00
1	 2.651801628724773e-01	 1.902174637313011e+00	-7.838241103438518e+00
1	 2.209344755959103e-01	 1.905964888637292e+00	-7.937984964684937e+00
1	 1.766742836190827e-01	 1.909017991970809e+00	-8.011393458415171e+00
1	 1.324257782259062e-01	 1.911354928835323e+00	-8.055834027609576e+00
1	 8.821434298754918e-02	 1.912997092764816e+00	-8.068814114542244e+00
1	 4.406452324464179e-02	 1.913966222037871e+00	-8.047989310493973e+00
1	 0.000000000000000e+00	 1.914284334264999e+00	-7.991169428639697e+00
1	 4.447624823399336e-01	 1.893265394932085e+00	-7.187111650511457e+00
1	 4.005238575322579e-01	 1.900255154590855e+00	-7.364663934050712e+00
1	 3.561577097800574e-01	 1.906423269196610e+00	-7.527598832697487e+00
1	 3.116932820897747e-01	 1.911788510942969e+00	-7.672584319168921e+00
1	 2.671591724173288e-01	 1.916370351361791e+00	-7.796362913744739e+00
1	 2.225832845840856e-01	 1.920188888903456e+00	-7.895772358707251e+00
1	 1.779927838035937e-01	 1.923264777202266e+00	-7.967763701070285e+00
1	 1.334140568223472e-01	 1.925619154362675e+00	-8.009416798450987e+00
1	 8.887267664622797e-02	 1.927273573576155e+00	-8.017953299111815e+00
1	 4.439337179496055e-02	 1.928249935351575e+00	-7.990747178209271e+00
1	 0.000000000000000e+00	 1.928570421614352e+00	-7.925332938144762e+00
1	 4.480570973903820e-01	 1.907289915688981e+00	-7.141864258968726e+00
1	 4.034907712931571e-01	 1.914331452573932e+00	-7.320830314526428e+00
1	 3.587959776145891e-01	 1.920545258001943e+00	-7.485173839096609e+00
1	 3.140021759811049e-01	 1.925950243223175e+00	-7.631281228820127e+00
1	 2.691381761903441e-01	 1.930566024006441e+00	-7.755600949983929e+00
1	 2.242320887635335e-01	 1.934412847683027e+00	-7.854667935714692e+00
1	 1.793112801427847e-01	 1.937511520880713e+00	-7.925125160045379e+00
1	 1.344023325365955e-01	 1.939883338286182e+00	-7.963742382757586e+00
1	 8.953100838500133e-02	 1.941550012747933e+00	-7.967432100645464e+00
1	 4.472221938627893e-02	 1.942533607004641e+00	-7.933262777475085e+00
1	 0.000000000000000e+00	 1.942856467296148e+00	-7.858469455881132e+00
1	 4.513517001411860e-01	 1.921314384087171e+00	-7.097126487835173e+00
1	 4.064576739778081e-01	 1.928407698004986e+00	-7.277758888743340e+00
1	 3.614342355998144e-01	 1.934667194084671e+00	-7.443717633269870e+00
1	 3.163110612528008e-01	 1.940111922632410e+00	-7.591092531908649e+00
1	 2.711171725753277e-01	 1.944761643653427e+00	-7.716020745746095e+00
1	 2.258808867877040e-01	 1.948636753359356e+00	-7.814715278438120e+00
1	 1.806297715598457e-01	 1.951758211370878e+00	-7.883490401342053e+00
1	 1.353906045615175e-01	 1.954147468956323e+00	-7.918783980535516e+00
1	 9.018933766619409e-02	 1.955826398620612e+00	-7.917176723365310e+00
1	 4.505106575001425e-02	 1.956817225331620e+00	-7.875408404986194e+00
1	 0.000000000000000e+00	 1.957142459643000e+00	-7.790391171963096e+00
1	 4.546462879018455e-01	 1.935338788672990e+00	-7.052945637738291e+00
1	 4.094245631633016e-01	 1.942483879388039e+00	-7.235517591523729e+00
1	 3.640724815811889e-01	 1.948789065911478e+00	-7.403307322183649e+00
1	 3.186199360192792e-01	 1.954273537604879e+00	-7.552093681095355e+00
1	 2.730961599560841e-01	 1.958957198709218e+00	-7.677685931543332e+00
1	 2.275296773100471e-01	 1.962860594315794e+00	-7.775956703473562e+00
1	 1.819482569779667e-01	 1.966004837037493e+00	-7.842871624184448e+00
1	 1.363788720899793e-01	 1.968411534723574e+00	-7.874515565828486e+00
1	 9.084766395213119e-02	 1.970102719534653e+00	-7.867115506761015e+00
1	 4.537991061758383e-02	 1.971100778667064e+00	-7.817060053344373e+00
1	 0.000000000000000e+00	 1.971428386987518e+00	-7.720915711614315e+00
1	 4.579408579818608e-01	 1.949363117992770e+00	-7.009367641730048e+00
1	 4.123914364267289e-01	 1.956559985227112e+00	-7.194172396781584e+00
1	 3.667107134041679e-01	 1.962910861949047e+00	-7.364017788704037e+00
1	 3.209287983949575e-01	 1.968435076574785e+00	-7.514357953447030e+00
1	 2.750751367164178e-01	 1.973152677580279e+00	-7.640658303380793e+00
1	 2.291784589840126e-01	 1.977084358935692e+00	-7.738433306946994e+00
1	 1.832667353203377e-01	 1.980251386245289e+00	-7.803280674323053e+00
1	 1.373671343148474e-01	 1.982675523938413e+00	-7.830911858954750e+00
1	 9.150598670513761e-02	 1.984378963830518e+00	-7.817178848803668e+00
1	 4.570875372040495e-02	 1.985384255345523e+00	-7.758097278047785e+00
1	 0.000000000000000e+00	 1.985714237662315e+00	-7.649865939472271e+00
1	 4.612354076907317e-01	 1.963387360592848e+00	-6.966437114148822e+00
1	 4.153582913451808e-01	 1.970636004026227e+00	-7.153787387605677e+00
1	 3.693489289142067e-01	 1.977032570664059e+00	-7.325921771108396e+00
1	 3.232376464942527e-01	 1.982596527976333e+00	-7.477956528240423e+00
1	 2.770541012401332e-01	 1.987348068673079e+00	-7.604997888395405e+00
1	 2.308272304630504e-01	 1.991308035602400e+00	-7.702185008227097e+00
1	 1.845852055101490e-01	 1.994497847358994e+00	-7.764729056770073e+00
1	 1.383553904289880e-01	 1.996939424951316e+00	-7.787948299930372e+00
1	 9.216430538753825e-02	 1.998655119848669e+00	-7.767299132444689e+00
1	 4.603759478989493e-02	 1.999667643701550e+00	-7.698403070167463e+00
1	 0.000000000000000e+00	 2.000000000000000e+00	-7.577069772261592e+00
