x	y	stress_xx
 1.0000000000e+00	 0.0000000000e+00	-3.2393776528e+02
 9.9984261196e-01	 1.7741231987e-02	-3.1315969530e+02
 9.9936594664e-01	 3.5604840891e-02	-2.9284590054e+02
 9.9856337511e-01	 5.3583447897e-02	-2.6443472197e+02
 9.9742844690e-01	 7.1669333081e-02	-2.2945016997e+02
 9.9595490861e-01	 8.9854437912e-02	-1.8950014043e+02
 9.9413672265e-01	 1.0813036884e-01	-1.4627413534e+02
 9.9196808625e-01	 1.2648840200e-01	-1.0154047292e+02
 9.8944345047e-01	 1.4491948904e-01	-5.7142974467e+01
 9.8655753924e-01	 1.6341426419e-01	-1.4997118998e+01
 9.8330536840e-01	 1.8196305243e-01	 2.2914340262e+01
 1.0125000000e+00	 0.0000000000e+00	-1.5814847392e+02
 1.0123406446e+00	 1.7962997385e-02	-1.6789821121e+02
 1.0118580210e+00	 3.6049901398e-02	-1.6990180507e+02
 1.0110454173e+00	 5.4253240991e-02	-1.6535810335e+02
 1.0098963025e+00	 7.2565199739e-02	-1.5553719915e+02
 1.0084043450e+00	 9.0977618379e-02	-1.4177892880e+02
 1.0065634317e+00	 1.0948199844e-01	-1.2549095626e+02
 1.0043676873e+00	 1.2806950702e-01	-1.0814643123e+02
 1.0018114936e+00	 1.4673098265e-01	-9.1281210650e+01
 9.9888950849e-01	 1.6545694249e-01	-7.6490635894e+01
 9.9559668551e-01	 1.8423759058e-01	-6.5425861011e+01
 1.0250000000e+00	 0.0000000000e+00	-1.1334068877e+01
 1.0248386773e+00	 1.8184762783e-02	-3.8087088692e+01
 1.0243500953e+00	 3.6494961906e-02	-5.8827153170e+01
 1.0235274595e+00	 5.4923034086e-02	-7.4517874696e+01
 1.0223641581e+00	 7.3461066397e-02	-8.6179943307e+01
 1.0208537813e+00	 9.2100798847e-02	-9.4889903119e+01
 1.0189901407e+00	 1.1083362805e-01	-1.0177859569e+02
 1.0167672884e+00	 1.2965061203e-01	-1.0802926013e+02
 1.0141795367e+00	 1.4854247626e-01	-1.1487528168e+02
 1.0112214777e+00	 1.6749962078e-01	-1.2359758282e+02
 1.0078880026e+00	 1.8651212874e-01	-1.3552165301e+02
 1.0375000000e+00	 0.0000000000e+00	 1.1719128474e+02
 1.0373367099e+00	 1.8406528182e-02	 7.6832116936e+01
 1.0368421696e+00	 3.6940022414e-02	 4.0807071259e+01
 1.0360095017e+00	 5.5592827180e-02	 8.3836670708e+00
 1.0348320137e+00	 7.4356933056e-02	-2.1213733676e+01
 1.0333032177e+00	 9.3223979316e-02	-4.8802977919e+01
 1.0314168498e+00	 1.1218525765e-01	-7.5242919182e+01
 1.0291668895e+00	 1.3123171705e-01	-1.0143195381e+02
 1.0265475799e+00	 1.5035396986e-01	-1.2830628955e+02
 1.0235534470e+00	 1.6954229908e-01	-1.5683794199e+02
 1.0201793197e+00	 1.8878666689e-01	-1.8803245609e+02
 1.0500000000e+00	 0.0000000000e+00	 2.2808076308e+02
 1.0498347426e+00	 1.8628293580e-02	 1.7739125780e+02
 1.0493342440e+00	 3.7385082923e-02	 1.2940945504e+02
 1.0484915439e+00	 5.6262620276e-02	 8.3630048733e+01
 1.0472998693e+00	 7.5252799715e-02	 3.9518257155e+01
 1.0457526540e+00	 9.4347159785e-02	-3.4895003810e+00
 1.0438435588e+00	 1.1353688726e-01	-4.5984751076e+01
 1.0415664906e+00	 1.3281282207e-01	-8.8585935364e+01
 1.0389156230e+00	 1.5216546347e-01	-1.3193718858e+02
 1.0358854162e+00	 1.7158497738e-01	-1.7670693461e+02
 1.0324706368e+00	 1.9106120504e-01	-2.2358628970e+02
 1.0625000000e+00	 0.0000000000e+00	 3.2195680470e+02
 1.0623327752e+00	 1.8850058979e-02	 2.6409715777e+02
 1.0618263183e+00	 3.7830143432e-02	 2.0736935741e+02
 1.0609735861e+00	 5.6932413371e-02	 1.5149145467e+02
 1.0597677248e+00	 7.6148666375e-02	 9.6165476499e+01
 1.0582020904e+00	 9.5470340255e-02	 4.1077833944e+01
 1.0562702678e+00	 1.1488851686e-01	-1.4100171062e+01
 1.0539660917e+00	 1.3439392709e-01	-6.9711737418e+01
 1.0512836661e+00	 1.5397695708e-01	-1.2611385297e+02
 1.0482173855e+00	 1.7362765568e-01	-1.8367647745e+02
 1.0447619539e+00	 1.9333574319e-01	-2.4278161956e+02
 1.0750000000e+00	 0.0000000000e+00	 3.9941289757e+02
 1.0748308079e+00	 1.9071824378e-02	 3.3743306755e+02
 1.0743183926e+00	 3.8275203941e-02	 2.7505802795e+02
 1.0734556282e+00	 5.7602206467e-02	 2.1222550257e+02
 1.0722355804e+00	 7.7044533036e-02	 1.4887042065e+02
 1.0706515268e+00	 9.6593520725e-02	 8.4925059532e+01
 1.0686969769e+00	 1.1624014647e-01	 2.0319209977e+01
 1.0663656927e+00	 1.3597503212e-01	-4.5019635303e+01
 1.0636517093e+00	 1.5578845069e-01	-1.1116606977e+02
 1.0605493547e+00	 1.7567033398e-01	-1.7819653775e+02
 1.0570532710e+00	 1.9561028135e-01	-2.4618907587e+02
 1.0875000000e+00	 0.0000000000e+00	 4.6101524296e+02
 1.0873288405e+00	 1.9293589777e-02	 3.9786001951e+02
 1.0868104670e+00	 3.8720264451e-02	 3.3282964734e+02
 1.0859376704e+00	 5.8271999564e-02	 2.6607796567e+02
 1.0847034360e+00	 7.7940399697e-02	 1.9776903437e+02
 1.0831009631e+00	 9.7716701196e-02	 1.2807701387e+02
 1.0811236859e+00	 1.1759177608e-01	 5.7185993132e+01
 1.0787652938e+00	 1.3755613714e-01	-1.4710236554e+01
 1.0760197524e+00	 1.5759994430e-01	-8.7408463489e+01
 1.0728813239e+00	 1.7771301228e-01	-1.6069639466e+02
 1.0693445882e+00	 1.9788481950e-01	-2.3435305303e+02
 1.1000000000e+00	 0.0000000000e+00	 5.0730430580e+02
 1.0998268732e+00	 1.9515355176e-02	 4.4581809007e+02
 1.0993025413e+00	 3.9165324961e-02	 3.8102229716e+02
 1.0984197126e+00	 5.8941792661e-02	 3.1328344574e+02
 1.0971712916e+00	 7.8836266358e-02	 2.4299108311e+02
 1.0955503995e+00	 9.8839881668e-02	 1.7055740547e+02
 1.0935503949e+00	 1.1894340569e-01	 9.6416752154e+01
 1.0911648949e+00	 1.3913724216e-01	 2.1024969776e+01
 1.0883877955e+00	 1.5941143791e-01	-5.5141357575e+01
 1.0852132932e+00	 1.7975569058e-01	-1.3158581472e+02
 1.0816359053e+00	 2.0015935765e-01	-2.0779320036e+02
 1.1125000000e+00	 0.0000000000e+00	 5.3879626051e+02
 1.1123249058e+00	 1.9737120575e-02	 4.8172757697e+02
 1.1117946156e+00	 3.9610385471e-02	 4.1995886438e+02
 1.1109017548e+00	 5.9611585759e-02	 3.5406600065e+02
 1.1096391472e+00	 7.9732133020e-02	 2.8466050021e+02
 1.1079998358e+00	 9.9963062140e-02	 2.1238887728e+02
 1.1059771040e+00	 1.2029503530e-01	 1.3793181027e+02
 1.1035644960e+00	 1.4071834718e-01	 6.2003100853e+01
 1.1007558387e+00	 1.6122293152e-01	-1.4651577840e+01
 1.0975452624e+00	 1.8179836888e-01	-9.1256148074e+01
 1.0939272224e+00	 2.0243389581e-01	-1.6700581224e+02
 1.1250000000e+00	 0.0000000000e+00	 5.5598434053e+02
 1.1248229385e+00	 1.9958885975e-02	 5.0599009813e+02
 1.1242866900e+00	 4.0055445982e-02	 4.4994788549e+02
 1.1233837970e+00	 6.0281378857e-02	 3.8863973021e+02
 1.1221070028e+00	 8.0627999683e-02	 3.2289571086e+02
 1.1204492722e+00	 1.0108624261e-01	 2.5359306591e+02
 1.1184038130e+00	 1.2164666491e-01	 1.8165503188e+02
 1.1159640971e+00	 1.4229945221e-01	 1.0804940193e+02
 1.1131238818e+00	 1.6303442514e-01	 3.3786797662e+01
 1.1098772317e+00	 1.8384104718e-01	-4.0081351598e+01
 1.1062185395e+00	 2.0470843396e-01	-1.1246512561e+02
 9.8330536840e-01	 1.8196305243e-01	 2.2914340262e+01
 9.7968226449e-01	 2.0055587900e-01	 5.4847144029e+01
 9.7568388344e-01	 2.1918248006e-01	 8.1041590228e+01
 9.7130622879e-01	 2.3783231460e-01	 1.0247954945e+02
 9.6654566967e-01	 2.5649457770e-01	 1.2018816386e+02
 9.6139895816e-01	 2.7515821486e-01	 1.3523726221e+02
 9.5586324607e-01	 2.9381193773e-01	 1.4873645426e+02
 9.4993610115e-01	 3.1244424090e-01	 1.6183190900e+02
 9.4361552236e-01	 3.3104341998e-01	 1.7570282372e+02
 9.3689995435e-01	 3.4959759078e-01	 1.9155759403e+02
 9.2978830103e-01	 3.6809470956e-01	 2.1062969742e+02
 9.9559668551e-01	 1.8423759058e-01	-6.5425861011e+01
 9.9192829280e-01	 2.0306282749e-01	-2.7527937070e+01
 9.8787993198e-01	 2.2192226105e-01	 5.6299611594e+00
 9.8344755666e-01	 2.4080521853e-01	 3.4862678570e+01
 9.7862749055e-01	 2.5970075992e-01	 6.1022685716e+01
 9.7341644514e-01	 2.7859769255e-01	 8.4997923956e+01
 9.6781153666e-01	 2.9748458695e-01	 1.0770938351e+02
 9.6181030243e-01	 3.1634979391e-01	 1.3010841810e+02
 9.5541071639e-01	 3.3518146273e-01	 1.5317380210e+02
 9.4861120379e-01	 3.5396756067e-01	 1.7790853858e+02
 9.4141065480e-01	 3.7269589344e-01	 2.0533642882e+02
 1.0078880026e+00	 1.8651212874e-01	-1.3552165301e+02
 1.0041743211e+00	 2.0556977597e-01	-9.3769699765e+01
 1.0000759805e+00	 2.2466204205e-01	-5.5784996643e+01
 9.9558888452e-01	 2.4377812247e-01	-2.0916538515e+01
 9.9070931143e-01	 2.6290694214e-01	 1.1516795596e+01
 9.8543393212e-01	 2.8203717024e-01	 4.2224511084e+01
 9.7975982724e-01	 3.0115723617e-01	 7.1942551915e+01
 9.7368450370e-01	 3.2025534692e-01	 1.0143114332e+02
 9.6720591043e-01	 3.3931950548e-01	 1.3147242780e+02
 9.6032245323e-01	 3.5833753055e-01	 1.6286790125e+02
 9.5303300857e-01	 3.7729707731e-01	 1.9643565766e+02
 1.0201793197e+00	 1.8878666689e-01	-1.8803245609e+02
 1.0164203494e+00	 2.0807672446e-01	-1.4446125812e+02
 1.0122720291e+00	 2.2740182305e-01	-1.0370916731e+02
 1.0077302124e+00	 2.4675102640e-01	-6.5285947484e+01
 1.0027911323e+00	 2.6611312436e-01	-2.8678625297e+01
 9.9745141910e-01	 2.8547664792e-01	 6.6471953697e+00
 9.9170811782e-01	 3.0482988540e-01	 4.1245856356e+01
 9.8555870497e-01	 3.2416089993e-01	 7.5690007904e+01
 9.7900110447e-01	 3.4345754823e-01	 1.1056881469e+02
 9.7203370266e-01	 3.6270750044e-01	 1.4648601035e+02
 9.6465536234e-01	 3.8189826118e-01	 1.8405780704e+02
 1.0324706368e+00	 1.9106120504e-01	-2.2358628970e+02
 1.0286663777e+00	 2.1058367294e-01	-1.8015795900e+02
 1.0244680776e+00	 2.3014160405e-01	-1.3862434538e+02
 1.0198715402e+00	 2.4972393033e-01	-9.8653020578e+01
 1.0148729532e+00	 2.6931930658e-01	-5.9896071238e+01
 1.0094689061e+00	 2.8891612561e-01	-2.1991002658e+01
 1.0036564084e+00	 3.0850253462e-01	 1.5438246005e+01
 9.9743290624e-01	 3.2806645295e-01	 5.2780176605e+01
 9.9079629850e-01	 3.4759559099e-01	 9.0434499508e+01
 9.8374495210e-01	 3.6707747033e-01	 1.2881079728e+02
 9.7627771611e-01	 3.8649944506e-01	 1.6832708910e+02
 1.0447619539e+00	 1.9333574319e-01	-2.4278161956e+02
 1.0409124060e+00	 2.1309062143e-01	-2.0138901539e+02
 1.0366641262e+00	 2.3288138505e-01	-1.6098965288e+02
 1.0320128681e+00	 2.5269683426e-01	-1.2140605503e+02
 1.0269547741e+00	 2.7252548880e-01	-8.2452389899e+01
 1.0214863931e+00	 2.9235560329e-01	-4.3934969525e+01
 1.0156046990e+00	 3.1217518384e-01	-5.6528101551e+00
 1.0093071075e+00	 3.3197200596e-01	 3.2601747334e+01
 1.0025914925e+00	 3.5173363374e-01	 7.1042358167e+01
 9.9545620154e-01	 3.7144744021e-01	 1.0988793757e+02
 9.8790006988e-01	 3.9110062893e-01	 1.4936187039e+02
 1.0570532710e+00	 1.9561028135e-01	-2.4618907587e+02
 1.0531584344e+00	 2.1559756991e-01	-2.0865902585e+02
 1.0488601747e+00	 2.3562116605e-01	-1.7124285742e+02
 1.0441541960e+00	 2.5566973819e-01	-1.3391528792e+02
 1.0390365949e+00	 2.7573167103e-01	-9.6649692033e+01
 1.0335038801e+00	 2.9579508098e-01	-5.9418201890e+01
 1.0275529896e+00	 3.1584783306e-01	-2.2191818670e+01
 1.0211813088e+00	 3.3587755897e-01	 1.5059464366e+01
 1.0143866866e+00	 3.5587167649e-01	 5.2366527893e+01
 1.0071674510e+00	 3.7581741010e-01	 8.9760981996e+01
 9.9952242365e-01	 3.9570181280e-01	 1.2727501171e+02
 1.0693445882e+00	 1.9788481950e-01	-2.3435305303e+02
 1.0654044627e+00	 2.1810451840e-01	-2.0244938913e+02
 1.0610562233e+00	 2.3836094705e-01	-1.6980159954e+02
 1.0562955238e+00	 2.5864264212e-01	-1.3653393405e+02
 1.0511184158e+00	 2.7893785325e-01	-1.0277619842e+02
 1.0455213670e+00	 2.9923455867e-01	-6.8663461135e+01
 1.0395012801e+00	 3.1952048229e-01	-3.4335722790e+01
 1.0330555100e+00	 3.3978311198e-01	 6.2451303905e-02
 1.0261818806e+00	 3.6000971924e-01	 3.4382334739e+01
 1.0188787004e+00	 3.8018737999e-01	 6.8471478724e+01
 1.0111447774e+00	 4.0030299667e-01	 1.0217418455e+02
 1.0816359053e+00	 2.0015935765e-01	-2.0779320036e+02
 1.0776504910e+00	 2.2061146689e-01	-1.8321962233e+02
 1.0732522718e+00	 2.4110072805e-01	-1.5706453623e+02
 1.0684368517e+00	 2.6161554606e-01	-1.2959915319e+02
 1.0632002367e+00	 2.8214403547e-01	-1.0110702908e+02
 1.0575388540e+00	 3.0267403635e-01	-7.1883383323e+01
 1.0514495707e+00	 3.2319313151e-01	-4.2234332199e+01
 1.0449297113e+00	 3.4368866500e-01	-1.2476037746e+01
 1.0379770746e+00	 3.6414776199e-01	 1.7066226034e+01
 1.0305899498e+00	 3.8455734987e-01	 4.6059087071e+01
 1.0227671312e+00	 4.0490418054e-01	 7.4162165954e+01
 1.0939272224e+00	 2.0243389581e-01	-1.6700581224e+02
 1.0898965193e+00	 2.2311841537e-01	-1.5140859018e+02
 1.0854483204e+00	 2.4384050905e-01	-1.3341240745e+02
 1.0805781796e+00	 2.6458844999e-01	-1.1343295202e+02
 1.0752820576e+00	 2.8535021769e-01	-9.1904939263e+01
 1.0695563410e+00	 3.0611351404e-01	-6.9281048038e+01
 1.0633978613e+00	 3.2686578073e-01	-4.6030723781e+01
 1.0568039126e+00	 3.4759421801e-01	-2.2638850224e+01
 1.0497722687e+00	 3.6828580474e-01	 3.9570739785e-01
 1.0423011993e+00	 3.8892731976e-01	 2.2561683637e+01
 1.0343894849e+00	 4.0950536441e-01	 4.3337113442e+01
 1.1062185395e+00	 2.0470843396e-01	-1.1246512561e+02
 1.1021425476e+00	 2.2562536386e-01	-1.0743565247e+02
 1.0976443689e+00	 2.4658029005e-01	-9.9209031516e+01
 1.0927195074e+00	 2.6756135392e-01	-8.8343025945e+01
 1.0873638784e+00	 2.8855639991e-01	-7.5421006366e+01
 1.0815738280e+00	 3.0955299173e-01	-6.1050509294e+01
 1.0753461519e+00	 3.3053842995e-01	-4.5861615661e+01
 1.0686781139e+00	 3.5149977102e-01	-3.0505151697e+01
 1.0615674627e+00	 3.7242384749e-01	-1.5650716058e+01
 1.0540124487e+00	 3.9329728964e-01	-1.9845386634e+00
 1.0460118387e+00	 4.1410654828e-01	 9.7928216961e+00
 9.2978830103e-01	 3.6809470956e-01	 2.1062969742e+02
 9.2227993796e-01	 3.8652259440e-01	 2.3050048807e+02
 9.1437472369e-01	 4.0486894747e-01	 2.4763238528e+02
 9.0607300986e-01	 4.2312137827e-01	 2.6159784088e+02
 8.9737564997e-01	 4.4126742774e-01	 2.7197232310e+02
 8.8828400681e-01	 4.5929459304e-01	 2.7833616191e+02
 8.7879995838e-01	 4.7719035310e-01	 2.8027641763e+02
 8.6892590241e-01	 4.9494219468e-01	 2.7738876129e+02
 8.5866475920e-01	 5.1253763889e-01	 2.6927935441e+02
 8.4801997290e-01	 5.2996426817e-01	 2.5556671563e+02
 8.3699551121e-01	 5.4720975338e-01	 2.3588356157e+02
 9.4141065480e-01	 3.7269589344e-01	 2.0533642882e+02
 9.3380843719e-01	 3.9135412684e-01	 2.1792733003e+02
 9.2580440774e-01	 4.0992980932e-01	 2.2820520961e+02
 9.1739892249e-01	 4.2841039551e-01	 2.3581729463e+02
 9.0859284561e-01	 4.4678327059e-01	 2.4041350761e+02
 8.9938755690e-01	 4.6503577546e-01	 2.4164799846e+02
 8.8978495788e-01	 4.8315523252e-01	 2.3918069489e+02
 8.7978747621e-01	 5.0112897212e-01	 2.3267886144e+02
 8.6939806870e-01	 5.1894435938e-01	 2.2181865722e+02
 8.5862022257e-01	 5.3658882153e-01	 2.0628668161e+02
 8.4745795511e-01	 5.5404987530e-01	 1.8578149758e+02
 9.5303300857e-01	 3.7729707731e-01	 1.9643565766e+02
 9.4533693642e-01	 3.9618565927e-01	 2.0246559954e+02
 9.3723409180e-01	 4.1499067117e-01	 2.0659830567e+02
 9.2872483512e-01	 4.3369941274e-01	 2.0855436639e+02
 9.1981004124e-01	 4.5229911345e-01	 2.0805675050e+02
 9.1049110700e-01	 4.7077695788e-01	 2.0483202878e+02
 9.0076995736e-01	 4.8912011194e-01	 1.9861161115e+02
 8.9064904999e-01	 5.0731574955e-01	 1.8913298973e+02
 8.8013137819e-01	 5.2535107988e-01	 1.7614097945e+02
 8.6922047224e-01	 5.4321337488e-01	 1.5938894811e+02
 8.5792039901e-01	 5.6088999722e-01	 1.3864002722e+02
 9.6465536234e-01	 3.8189826118e-01	 1.8405780704e+02
 9.5686543566e-01	 4.0101719171e-01	 1.8421973549e+02
 9.4866377585e-01	 4.2005153301e-01	 1.8289049261e+02
 9.4005074775e-01	 4.3898842997e-01	 1.7986267114e+02
 9.3102723687e-01	 4.5781495630e-01	 1.7493092900e+02
 9.2159465709e-01	 4.7651814030e-01	 1.6789290931e+02
 9.1175495685e-01	 4.9508499136e-01	 1.5855016919e+02
 9.0151062378e-01	 5.1350252699e-01	 1.4670911165e+02
 8.9086468769e-01	 5.3175780036e-01	 1.3218191426e+02
 8.7982072191e-01	 5.4983792824e-01	 1.1478744834e+02
 8.6838284291e-01	 5.6773011914e-01	 9.4352182284e+01
 9.7627771611e-01	 3.8649944506e-01	 1.6832708910e+02
 9.6839393489e-01	 4.0584872414e-01	 1.6328920311e+02
 9.6009345990e-01	 4.2511239486e-01	 1.5715683594e+02
 9.5137666038e-01	 4.4427744721e-01	 1.4979327037e+02
 9.4224443250e-01	 4.6333079915e-01	 1.4106354483e+02
 9.3269820718e-01	 4.8225932271e-01	 1.3083507436e+02
 9.2273995634e-01	 5.0104987078e-01	 1.1897827592e+02
 9.1237219757e-01	 5.1968930443e-01	 1.0536719386e+02
 9.0159799719e-01	 5.3816452085e-01	 8.9880121301e+01
 8.9042097157e-01	 5.5646248159e-01	 7.2400213382e+01
 8.7884528680e-01	 5.7457024106e-01	 5.2816087756e+01
 9.8790006988e-01	 3.9110062893e-01	 1.4936187039e+02
 9.7992243412e-01	 4.1068025657e-01	 1.3976878662e+02
 9.7152314396e-01	 4.3017325671e-01	 1.2946886830e+02
 9.6270257301e-01	 4.4956646444e-01	 1.1839482230e+02
 9.5346162813e-01	 4.6884664200e-01	 1.0648080506e+02
 9.4380175727e-01	 4.8800050513e-01	 9.3662749092e+01
 9.3372495582e-01	 5.0701475019e-01	 7.9878689268e+01
 9.2323377135e-01	 5.2587608186e-01	 6.5069086448e+01
 9.1233130668e-01	 5.4457124134e-01	 4.9177146333e+01
 9.0102122124e-01	 5.6308703495e-01	 3.2149131190e+01
 8.8930773069e-01	 5.8141036298e-01	 1.3934662197e+01
 9.9952242365e-01	 3.9570181280e-01	 1.2727501171e+02
 9.9145093335e-01	 4.1551178900e-01	 1.1374886129e+02
 9.8295282801e-01	 4.3523411855e-01	 9.9894794864e+01
 9.7402848564e-01	 4.5485548167e-01	 8.5713721588e+01
 9.6467882376e-01	 4.7436248484e-01	 7.1207697452e+01
 9.5490530736e-01	 4.9374168754e-01	 5.6379961751e+01
 9.4470995530e-01	 5.1297962961e-01	 4.1234968648e+01
 9.3409534513e-01	 5.3206285930e-01	 2.5778413478e+01
 9.2306461617e-01	 5.5097796183e-01	 1.0017253435e+01
 9.1162147090e-01	 5.6971158830e-01	-6.0402776828e+00
 8.9977017459e-01	 5.8825048490e-01	-2.2384660941e+01
 1.0111447774e+00	 4.0030299667e-01	 1.0217418455e+02
 1.0029794326e+00	 4.2034332143e-01	 8.5315646880e+01
 9.9438251205e-01	 4.4029498039e-01	 6.8499684598e+01
 9.8535439826e-01	 4.6014449890e-01	 5.1794229418e+01
 9.7589601939e-01	 4.7987832769e-01	 3.5268060501e+01
 9.6600885745e-01	 4.9948286996e-01	 1.8990554945e+01
 9.5569495479e-01	 5.1894450902e-01	 3.0314289391e+00
 9.4495691892e-01	 5.3824963673e-01	-1.2539529005e+01
 9.3379792566e-01	 5.5738468231e-01	-2.7652731222e+01
 9.2222172056e-01	 5.7633614165e-01	-4.2239068837e+01
 9.1023261848e-01	 5.9509060682e-01	-5.6230192787e+01
 1.0227671312e+00	 4.0490418054e-01	 7.4162165954e+01
 1.0145079318e+00	 4.2517485386e-01	 5.4551443760e+01
 1.0058121961e+00	 4.4535584224e-01	 3.5345648421e+01
 9.9668031089e-01	 4.6543351612e-01	 1.6678594742e+01
 9.8711321501e-01	 4.8539417054e-01	-1.3153512592e+00
 9.7711240753e-01	 5.0522405237e-01	-1.8501803791e+01
 9.6667995426e-01	 5.2490938844e-01	-3.4746902456e+01
 9.5581849270e-01	 5.4443641416e-01	-4.9917867953e+01
 9.4453123515e-01	 5.6379140280e-01	-6.3883564947e+01
 9.3282197022e-01	 5.8296069500e-01	-7.6515068562e+01
 9.2069506237e-01	 6.0193072873e-01	-8.7686230834e+01
 1.0343894849e+00	 4.0950536441e-01	 4.3337113442e+01
 1.0260364310e+00	 4.3000638629e-01	 2.1534853066e+01
 1.0172418801e+00	 4.5041670408e-01	 4.9200541234e-01
 1.0080062235e+00	 4.7072253335e-01	-1.9592832685e+01
 9.9833041064e-01	 4.9091001338e-01	-3.8520806356e+01
 9.8821595761e-01	 5.1096523478e-01	-5.6093612162e+01
 9.7766495374e-01	 5.3087426785e-01	-7.2114325634e+01
 9.6668006647e-01	 5.5062319160e-01	-8.6388241909e+01
 9.5526454464e-01	 5.7019812328e-01	-9.8723724285e+01
 9.4342221988e-01	 5.8958524835e-01	-1.0893305525e+02
 9.3115750625e-01	 6.0877085065e-01	-1.1683328442e+02
 1.0460118387e+00	 4.1410654828e-01	 9.7928216961e+00
 1.0375649302e+00	 4.3483791872e-01	-1.3659017763e+01
 1.0286715642e+00	 4.5547756592e-01	-3.6004562092e+01
 1.0193321361e+00	 4.7601155058e-01	-5.6981496793e+01
 1.0095476063e+00	 4.9642585623e-01	-7.6327539539e+01
 9.9931950770e-01	 5.1670641719e-01	-9.3781523929e+01
 9.8864995322e-01	 5.3683914726e-01	-1.0908450555e+02
 9.7754164025e-01	 5.5680996903e-01	-1.2198088370e+02
 9.6599785412e-01	 5.7660484377e-01	-1.3221953172e+02
 9.5402246954e-01	 5.9620980170e-01	-1.3955492875e+02
 9.4161995014e-01	 6.1561097256e-01	-1.4374828520e+02
 8.3699551121e-01	 5.4720975338e-01	 2.3588356157e+02
 8.2559586329e-01	 5.6426188114e-01	 2.1214575979e+02
 8.1382603605e-01	 5.8110858112e-01	 1.8664623398e+02
 8.0169154870e-01	 5.9773795324e-01	 1.5960040115e+02
 7.8919842564e-01	 6.1413829468e-01	 1.3123020084e+02
 7.7635318758e-01	 6.3029812641e-01	 1.0176324300e+02
 7.6316284109e-01	 6.4620621941e-01	 7.1431917684e+01
 7.4963486641e-01	 6.6185162015e-01	 4.0472471968e+01
 7.3577720369e-01	 6.7722367543e-01	 9.1240600378e+00
 7.2159823775e-01	 6.9231205631e-01	-2.2372227493e+01
 7.0710678120e-01	 7.0710678120e-01	-5.3774348674e+01
 8.4745795511e-01	 5.5404987530e-01	 1.8578149758e+02
 8.3591581159e-01	 5.7131515466e-01	 1.6658562825e+02
 8.2399886151e-01	 5.8837243839e-01	 1.4592388699e+02
 8.1171269307e-01	 6.0520967766e-01	 1.2397537123e+02
 7.9906340596e-01	 6.2181502336e-01	 1.0092458551e+02
 7.8605760243e-01	 6.3817685299e-01	 7.6960732059e+01
 7.7270237661e-01	 6.5428379716e-01	 5.2276969607e+01
 7.5900530224e-01	 6.7012476541e-01	 2.7069645212e+01
 7.4497441875e-01	 6.8568897137e-01	 1.5375037814e+00
 7.3061821572e-01	 7.0096595702e-01	-2.4119119502e+01
 7.1594561597e-01	 7.1594561597e-01	-4.9699118626e+01
 8.5792039901e-01	 5.6088999722e-01	 1.3864002722e+02
 8.4623575989e-01	 5.7836842818e-01	 1.2363432437e+02
 8.3417168697e-01	 5.9563629565e-01	 1.0745310490e+02
 8.2173383743e-01	 6.1268140208e-01	 9.0239799222e+01
 8.0892838629e-01	 6.2949175205e-01	 7.2142147083e+01
 7.9576201728e-01	 6.4605557958e-01	 5.3311628510e+01
 7.8224191213e-01	 6.6236137490e-01	 3.3902869582e+01
 7.6837573808e-01	 6.7839791066e-01	 1.4073026623e+01
 7.5417163380e-01	 6.9415426732e-01	-6.0188472531e+00
 7.3963819370e-01	 7.0961985773e-01	-2.6212449157e+01
 7.2478445074e-01	 7.2478445074e-01	-4.6346882777e+01
 8.6838284291e-01	 5.6773011914e-01	 9.4352182284e+01
 8.5655570819e-01	 5.8542170169e-01	 8.3197595090e+01
 8.4434451242e-01	 6.0290015292e-01	 7.1152548423e+01
 8.3175498180e-01	 6.2015312650e-01	 5.8325434690e+01
 8.1879336662e-01	 6.3716848074e-01	 4.4827874769e+01
 8.0546643213e-01	 6.5393430616e-01	 3.0774287301e+01
 7.9178144765e-01	 6.7043895265e-01	 1.6281439082e+01
 7.7774617391e-01	 6.8667105592e-01	 1.4679793684e+00
 7.6336884885e-01	 7.0261956326e-01	-1.3546038967e+01
 7.4865817167e-01	 7.1827375844e-01	-2.8639648324e+01
 7.3362328551e-01	 7.3362328551e-01	-4.3691462109e+01
 8.7884528680e-01	 5.7457024106e-01	 5.2816087756e+01
 8.6687565648e-01	 5.9247497521e-01	 4.5185675027e+01
 8.5451733788e-01	 6.1016401018e-01	 3.6944751014e+01
 8.4177612616e-01	 6.2762485092e-01	 2.8167276617e+01
 8.2865834694e-01	 6.4484520942e-01	 1.8929376748e+01
 8.1517084698e-01	 6.6181303274e-01	 9.3090458492e+00
 8.0132098316e-01	 6.7851653039e-01	-6.1415922723e-01
 7.8711660974e-01	 6.9494420117e-01	-1.0759437048e+01
 7.7256606389e-01	 7.1108485921e-01	-2.1045068128e+01
 7.5767814965e-01	 7.2692765914e-01	-3.1388748037e+01
 7.4246212027e-01	 7.4246212027e-01	-4.1707924916e+01
 8.8930773069e-01	 5.8141036298e-01	 1.3934662197e+01
 8.7719560478e-01	 5.9952824872e-01	 9.5130225059e+00
 8.6469016333e-01	 6.1742786745e-01	 4.7558910290e+00
 8.5179727052e-01	 6.3509657533e-01	-2.9661772753e-01
 8.3852332726e-01	 6.5252193811e-01	-5.6032739094e+00
 8.2487526183e-01	 6.6969175932e-01	-1.1121892570e+01
 8.1086051868e-01	 6.8659410813e-01	-1.6809500380e+01
 7.9648704558e-01	 7.0321734642e-01	-2.2622507747e+01
 7.8176327894e-01	 7.1955015515e-01	-2.8516885252e+01
 7.6669812762e-01	 7.3558155984e-01	-3.4448343244e+01
 7.5130095504e-01	 7.5130095504e-01	-4.0372513428e+01
 8.9977017459e-01	 5.8825048490e-01	-2.2384660941e+01
 8.8751555307e-01	 6.0658152224e-01	-2.3901926011e+01
 8.7486298878e-01	 6.2469172471e-01	-2.5484420168e+01
 8.6181841488e-01	 6.4256829975e-01	-2.7125310592e+01
 8.4838830758e-01	 6.6019866679e-01	-2.8817682543e+01
 8.3457967667e-01	 6.7757048590e-01	-3.0554567302e+01
 8.2040005419e-01	 6.9467168587e-01	-3.2328970493e+01
 8.0585748141e-01	 7.1149049167e-01	-3.4133900569e+01
 7.9096049399e-01	 7.2801545109e-01	-3.5962397294e+01
 7.7571810559e-01	 7.4423546055e-01	-3.7807560017e+01
 7.6013978980e-01	 7.6013978980e-01	-3.9662575555e+01
 9.1023261848e-01	 5.9509060682e-01	-5.6230192787e+01
 8.9783550136e-01	 6.1363479575e-01	-5.5136984548e+01
 8.8503581423e-01	 6.3195558198e-01	-5.3843335504e+01
 8.7183955924e-01	 6.5004002416e-01	-5.2375149289e+01
 8.5825328790e-01	 6.6787539547e-01	-5.0759266322e+01
 8.4428409152e-01	 6.8544921248e-01	-4.9023361308e+01
 8.2993958971e-01	 7.0274926361e-01	-4.7195835096e+01
 8.1522791724e-01	 7.1976363692e-01	-4.5305701550e+01
 8.0015770903e-01	 7.3648074703e-01	-4.3382470144e+01
 7.8473808356e-01	 7.5288936125e-01	-4.1456025025e+01
 7.6897862457e-01	 7.6897862457e-01	-3.9556501340e+01
 9.2069506237e-01	 6.0193072873e-01	-8.7686230834e+01
 9.0815544965e-01	 6.2068806926e-01	-8.4266430651e+01
 8.9520863968e-01	 6.3921943924e-01	-8.0384956042e+01
 8.8186070360e-01	 6.5751174858e-01	-7.6099920443e+01
 8.6811826822e-01	 6.7555212415e-01	-7.1471378572e+01
 8.5398850636e-01	 6.9332793905e-01	-6.6561095274e+01
 8.3947912522e-01	 7.1082684135e-01	-6.1432302793e+01
 8.2459835306e-01	 7.2803678217e-01	-5.6149447973e+01
 8.0935492408e-01	 7.4494604297e-01	-5.0777930957e+01
 7.9375806153e-01	 7.6154326195e-01	-4.5383837087e+01
 7.7781745933e-01	 7.7781745933e-01	-4.0033663739e+01
 9.3115750625e-01	 6.0877085065e-01	-1.1683328442e+02
 9.1847539794e-01	 6.2774134277e-01	-1.1136120407e+02
 9.0538146513e-01	 6.4648329650e-01	-1.0517050243e+02
 8.9188184795e-01	 6.6498347299e-01	-9.8350993854e+01
 8.7798324854e-01	 6.8322885283e-01	-9.0995424719e+01
 8.6369292120e-01	 7.0120666563e-01	-8.3199115374e+01
 8.4901866073e-01	 7.1890441909e-01	-7.5059584637e+01
 8.3396878889e-01	 7.3630992742e-01	-6.6676159191e+01
 8.1855213912e-01	 7.5341133891e-01	-5.8149570327e+01
 8.0277803950e-01	 7.7019716265e-01	-4.9581540643e+01
 7.8665629409e-01	 7.8665629409e-01	-4.1074363400e+01
 9.4161995014e-01	 6.1561097256e-01	-1.4374828520e+02
 9.2879534623e-01	 6.3479461628e-01	-1.3648909217e+02
 9.1555429058e-01	 6.5374715376e-01	-1.2825847492e+02
 9.0190299231e-01	 6.7245519740e-01	-1.1917745675e+02
 8.8784822886e-01	 6.9090558151e-01	-1.0937097050e+02
 8.7339733604e-01	 7.0908539221e-01	-9.8967375188e+01
 8.5855819624e-01	 7.2698199683e-01	-8.8097949551e+01
 8.4333922472e-01	 7.4458307267e-01	-7.6896365405e+01
 8.2774935416e-01	 7.6187663485e-01	-6.5498144314e+01
 8.1179801747e-01	 7.7885106335e-01	-5.4040100995e+01
 7.9549512885e-01	 7.9549512885e-01	-4.2659777123e+01
 7.0710678120e-01	 7.0710678120e-01	-5.3774348674e+01
 6.9231205631e-01	 7.2159823775e-01	-8.2401992674e+01
 6.7722367543e-01	 7.3577720369e-01	-1.0580457036e+02
 6.6185162015e-01	 7.4963486641e-01	-1.2409928073e+02
 6.4620621941e-01	 7.6316284109e-01	-1.3742255013e+02
 6.3029812641e-01	 7.7635318758e-01	-1.4592935573e+02
 6.1413829468e-01	 7.8919842564e-01	-1.4979245333e+02
 5.9773795324e-01	 8.0169154870e-01	-1.4920151530e+02
 5.8110858112e-01	 8.1382603605e-01	-1.4436218530e+02
 5.6426188114e-01	 8.2559586329e-01	-1.3549505671e+02
 5.4720975338e-01	 8.3699551121e-01	-1.2283458276e+02
 7.1594561597e-01	 7.1594561597e-01	-4.9699118626e+01
 7.0096595702e-01	 7.3061821572e-01	-7.5927929559e+01
 6.8568897137e-01	 7.4497441875e-01	-9.8031996600e+01
 6.7012476541e-01	 7.5900530224e-01	-1.1609161244e+02
 6.5428379716e-01	 7.7270237661e-01	-1.3020245488e+02
 6.3817685299e-01	 7.8605760243e-01	-1.4047509821e+02
 6.2181502336e-01	 7.9906340596e-01	-1.4703444749e+02
 6.0520967766e-01	 8.1171269307e-01	-1.5001909993e+02
 5.8837243839e-01	 8.2399886151e-01	-1.4958063828e+02
 5.7131515466e-01	 8.3591581159e-01	-1.4588286168e+02
 5.5404987530e-01	 8.4745795511e-01	-1.3910095990e+02
 7.2478445074e-01	 7.2478445074e-01	-4.6346882777e+01
 7.0961985773e-01	 7.3963819370e-01	-6.9842279352e+01
 6.9415426732e-01	 7.5417163380e-01	-9.0286880111e+01
 6.7839791066e-01	 7.6837573808e-01	-1.0772479267e+02
 6.6236137490e-01	 7.8224191213e-01	-1.2221173191e+02
 6.4605557958e-01	 7.9576201728e-01	-1.3381471638e+02
 6.2949175205e-01	 8.0892838629e-01	-1.4261170568e+02
 6.1268140208e-01	 8.2173383743e-01	-1.4869118171e+02
 5.9563629565e-01	 8.3417168697e-01	-1.5215167706e+02
 5.7836842818e-01	 8.4623575989e-01	-1.5310125423e+02
 5.6088999722e-01	 8.5792039901e-01	-1.5165693983e+02
 7.3362328551e-01	 7.3362328551e-01	-4.3691462109e+01
 7.1827375844e-01	 7.4865817167e-01	-6.4130955953e+01
 7.0261956326e-01	 7.6336884885e-01	-8.2568181025e+01
 6.8667105592e-01	 7.7774617391e-01	-9.9011755009e+01
 6.7043895265e-01	 7.9178144765e-01	-1.1347818715e+02
 6.5393430616e-01	 8.0546643213e-01	-1.2599175671e+02
 6.3716848074e-01	 8.1879336662e-01	-1.3658435038e+02
 6.2015312650e-01	 8.3175498180e-01	-1.4529525996e+02
 6.0290015292e-01	 8.4434451242e-01	-1.5217094209e+02
 5.8542170169e-01	 8.5655570819e-01	-1.5726474200e+02
 5.6773011914e-01	 8.6838284291e-01	-1.6063658360e+02
 7.4246212027e-01	 7.4246212027e-01	-4.1707924916e+01
 7.2692765914e-01	 7.5767814965e-01	-5.8780544726e+01
 7.1108485921e-01	 7.7256606389e-01	-7.4874909693e+01
 6.9494420117e-01	 7.8711660974e-01	-8.9964817884e+01
 6.7851653039e-01	 8.0132098316e-01	-1.0402830312e+02
 6.6181303274e-01	 8.1517084698e-01	-1.1704769271e+02
 6.4484520942e-01	 8.2865834694e-01	-1.2900964183e+02
 6.2762485092e-01	 8.4177612616e-01	-1.3990514431e+02
 6.1016401018e-01	 8.5451733788e-01	-1.4972952026e+02
 5.9247497521e-01	 8.6687565648e-01	-1.5848238057e+02
 5.7457024106e-01	 8.7884528680e-01	-1.6616756914e+02
 7.5130095504e-01	 7.5130095504e-01	-4.0372513428e+01
 7.3558155984e-01	 7.6669812762e-01	-5.3778263002e+01
 7.1955015515e-01	 7.8176327894e-01	-6.7206123735e+01
 7.0321734642e-01	 7.9648704558e-01	-8.0595720736e+01
 6.8659410813e-01	 8.1086051868e-01	-9.3887316836e+01
 6.6969175932e-01	 8.2487526183e-01	-1.0702204695e+02
 6.5252193811e-01	 8.3852332726e-01	-1.1994214638e+02
 6.3509657533e-01	 8.5179727052e-01	-1.3259117171e+02
 6.1742786745e-01	 8.6469016333e-01	-1.4491421271e+02
 5.9952824872e-01	 8.7719560478e-01	-1.5685809425e+02
 5.8141036298e-01	 8.8930773069e-01	-1.6837156671e+02
 7.6013978980e-01	 7.6013978980e-01	-3.9662575555e+01
 7.4423546055e-01	 7.7571810559e-01	-4.9111923332e+01
 7.2801545109e-01	 7.9096049399e-01	-5.9560925289e+01
 7.1149049167e-01	 8.0585748141e-01	-7.0915657674e+01
 6.9467168587e-01	 8.2040005419e-01	-8.3079292201e+01
 6.7757048590e-01	 8.3457967667e-01	-9.5952504410e+01
 6.6019866679e-01	 8.4838830758e-01	-1.0943389314e+02
 6.4256829975e-01	 8.6181841488e-01	-1.2342040831e+02
 6.2469172471e-01	 8.7486298878e-01	-1.3780778406e+02
 6.0658152224e-01	 8.8751555307e-01	-1.5249097434e+02
 5.8825048490e-01	 8.9977017459e-01	-1.6736458820e+02
 7.6897862457e-01	 7.6897862457e-01	-3.9556501340e+01
 7.5288936125e-01	 7.8473808356e-01	-4.4769899274e+01
 7.3648074703e-01	 8.0015770903e-01	-5.1938458445e+01
 7.1976363692e-01	 8.1522791724e-01	-6.0935308816e+01
 7.0274926361e-01	 8.2993958971e-01	-7.1627187405e+01
 6.8544921248e-01	 8.4428409152e-01	-8.3875018139e+01
 6.6787539547e-01	 8.5825328790e-01	-9.7534519748e+01
 6.5004002416e-01	 8.7183955924e-01	-1.1245683749e+02
 6.3195558198e-01	 8.8503581423e-01	-1.2848919431e+02
 6.1363479575e-01	 8.9783550136e-01	-1.4547555695e+02
 5.9509060682e-01	 9.1023261848e-01	-1.6325731233e+02
 7.7781745933e-01	 7.7781745933e-01	-4.0033663739e+01
 7.6154326195e-01	 7.9375806153e-01	-4.0741093513e+01
 7.4494604297e-01	 8.0935492408e-01	-4.4337906859e+01
 7.2803678217e-01	 8.2459835306e-01	-5.0664869486e+01
 7.1082684135e-01	 8.3947912522e-01	-5.9552917760e+01
 6.9332793905e-01	 8.5398850636e-01	-7.0823907624e+01
 6.7555212415e-01	 8.6811826822e-01	-8.4291408265e+01
 6.5751174858e-01	 8.8186070360e-01	-9.9761534941e+01
 6.3921943924e-01	 8.9520863968e-01	-1.1703381510e+02
 6.2068806926e-01	 9.0815544965e-01	-1.3590208173e+02
 6.0193072873e-01	 9.2069506237e-01	-1.5615538763e+02
 7.8665629409e-01	 7.8665629409e-01	-4.1074363400e+01
 7.7019716265e-01	 8.0277803950e-01	-3.7014908132e+01
 7.5341133891e-01	 8.1855213912e-01	-3.6758491526e+01
 7.3630992742e-01	 8.3396878889e-01	-4.0114077448e+01
 7.1890441909e-01	 8.4901866073e-01	-4.6877414280e+01
 7.0120666563e-01	 8.6369292120e-01	-5.6831950568e+01
 6.8322885283e-01	 8.7798324854e-01	-6.9749811899e+01
 6.6498347299e-01	 8.9188184795e-01	-8.5392832069e+01
 6.4648329650e-01	 9.0538146513e-01	-1.0351363122e+02
 6.2774134277e-01	 9.1847539794e-01	-1.2385673332e+02
 6.0877085065e-01	 9.3115750625e-01	-1.4615971506e+02
 7.9549512885e-01	 7.9549512885e-01	-4.2659777123e+01
 7.7885106335e-01	 8.1179801747e-01	-3.3581216863e+01
 7.6187663485e-01	 8.2774935416e-01	-2.9199468701e+01
 7.4458307267e-01	 8.4333922472e-01	-2.9292238321e+01
 7.2698199683e-01	 8.5855819624e-01	-3.3620678363e+01
 7.0908539221e-01	 8.7339733604e-01	-4.1930468542e+01
 6.9090558151e-01	 8.8784822886e-01	-5.3952973257e+01
 6.7245519740e-01	 9.0190299231e-01	-6.9406468429e+01
 6.5374715376e-01	 9.1555429058e-01	-8.7997428807e+01
 6.3479461628e-01	 9.2879534623e-01	-1.0942186658e+02
 6.1561097256e-01	 9.4161995014e-01	-1.3336671174e+02
 5.4720975338e-01	 8.3699551121e-01	-1.2283458276e+02
 5.2996426817e-01	 8.4801997290e-01	-1.1727081387e+02
 5.1253763889e-01	 8.5866475920e-01	-1.2810050892e+02
 4.9494219468e-01	 8.6892590241e-01	-1.5315457664e+02
 4.7719035310e-01	 8.7879995838e-01	-1.9024053145e+02
 4.5929459304e-01	 8.8828400681e-01	-2.3715205824e+02
 4.4126742774e-01	 8.9737564997e-01	-2.9167845941e+02
 4.2312137827e-01	 9.0607300986e-01	-3.5161392522e+02
 4.0486894747e-01	 9.1437472369e-01	-4.1476657121e+02
 3.8652259440e-01	 9.2227993796e-01	-4.7896719022e+02
 3.6809470956e-01	 9.2978830103e-01	-5.4207767024e+02
 5.5404987530e-01	 8.4745795511e-01	-1.3910095990e+02
 5.3658882153e-01	 8.5862022257e-01	-1.1788306038e+02
 5.1894435938e-01	 8.6939806870e-01	-1.0958441062e+02
 5.0112897212e-01	 8.7978747621e-01	-1.1243003310e+02
 4.8315523252e-01	 8.8978495788e-01	-1.2462725306e+02
 4.6503577546e-01	 8.9938755690e-01	-1.4437352105e+02
 4.4678327059e-01	 9.0859284561e-01	-1.6986413191e+02
 4.2841039551e-01	 9.1739892249e-01	-1.9929979181e+02
 4.0992980932e-01	 9.2580440774e-01	-2.3089398792e+02
 3.9135412684e-01	 9.3380843719e-01	-2.6288011781e+02
 3.7269589344e-01	 9.4141065480e-01	-2.9351833922e+02
 5.6088999722e-01	 8.5792039901e-01	-1.5165693983e+02
 5.4321337488e-01	 8.6922047224e-01	-1.1842674418e+02
 5.2535107988e-01	 8.8013137819e-01	-9.4718509299e+01
 5.0731574955e-01	 8.9064904999e-01	-7.9143828844e+01
 4.8912011194e-01	 9.0076995736e-01	-7.0302210624e+01
 4.7077695788e-01	 9.1049110700e-01	-6.6787184847e+01
 4.5229911345e-01	 9.1981004124e-01	-6.7192322481e+01
 4.3369941274e-01	 9.2872483512e-01	-7.0117126349e+01
 4.1499067117e-01	 9.3723409180e-01	-7.4172759594e+01
 3.9618565927e-01	 9.4533693642e-01	-7.7987578465e+01
 3.7729707731e-01	 9.5303300857e-01	-8.0212438949e+01
 5.6773011914e-01	 8.6838284291e-01	-1.6063658360e+02
 5.4983792824e-01	 8.7982072191e-01	-1.1890429354e+02
 5.3175780036e-01	 8.9086468769e-01	-8.3370820015e+01
 5.1350252699e-01	 9.0151062378e-01	-5.3027057923e+01
 4.9508499136e-01	 9.1175495685e-01	-2.6857345146e+01
 4.7651814030e-01	 9.2159465709e-01	-3.8438832757e+00
 4.5781495630e-01	 9.3102723687e-01	 1.7028917941e+01
 4.3898842997e-01	 9.4005074775e-01	 3.6770199291e+01
 4.2005153301e-01	 9.4866377585e-01	 5.6378539132e+01
 4.0101719171e-01	 9.5686543566e-01	 7.6837992281e+01
 3.8189826118e-01	 9.6465536234e-01	 9.9114302283e+01
 5.7457024106e-01	 8.7884528680e-01	-1.6616756914e+02
 5.5646248159e-01	 8.9042097157e-01	-1.1931802184e+02
 5.3816452085e-01	 9.0159799719e-01	-7.5415643548e+01
 5.1968930443e-01	 9.1237219757e-01	-3.3823620166e+01
 5.0104987078e-01	 9.2273995634e-01	 6.0959702982e+00
 4.8225932271e-01	 9.3269820718e-01	 4.4979398533e+01
 4.6333079915e-01	 9.4224443250e-01	 8.3458587761e+01
 4.4427744721e-01	 9.5137666038e-01	 1.2215849691e+02
 4.2511239486e-01	 9.6009345990e-01	 1.6169459842e+02
 4.0584872414e-01	 9.6839393489e-01	 2.0267046469e+02
 3.8649944506e-01	 9.7627771611e-01	 2.4567547596e+02
 5.8141036298e-01	 8.8930773069e-01	-1.6837156671e+02
 5.6308703495e-01	 9.0102122124e-01	-1.1967013426e+02
 5.4457124134e-01	 9.1233130668e-01	-7.0733196649e+01
 5.2587608186e-01	 9.2323377135e-01	-2.1289467875e+01
 5.0701475019e-01	 9.3372495582e-01	 2.8928073602e+01
 4.8800050513e-01	 9.4380175727e-01	 8.0181062293e+01
 4.6884664200e-01	 9.5346162813e-01	 1.3272467301e+02
 4.4956646444e-01	 9.6270257301e-01	 1.8680660416e+02
 4.3017325671e-01	 9.7152314396e-01	 2.4266612236e+02
 4.1068025657e-01	 9.7992243412e-01	 3.0053317331e+02
 3.9110062893e-01	 9.8790006988e-01	 3.6062756272e+02
 5.8825048490e-01	 8.9977017459e-01	-1.6736458820e+02
 5.6971158830e-01	 9.1162147090e-01	-1.1996273418e+02
 5.5097796183e-01	 9.2306461617e-01	-6.9209268080e+01
 5.3206285930e-01	 9.3409534513e-01	-1.5191905103e+01
 5.1297962961e-01	 9.4470995530e-01	 4.1992076954e+01
 4.9374168754e-01	 9.5490530736e-01	 1.0223632756e+02
 4.7436248484e-01	 9.6467882376e-01	 1.6542595041e+02
 4.5485548167e-01	 9.7402848564e-01	 2.3143806323e+02
 4.3523411855e-01	 9.8295282801e-01	 3.0014238629e+02
 4.1551178900e-01	 9.9145093335e-01	 3.7140185508e+02
 3.9570181280e-01	 9.9952242365e-01	 4.4507325281e+02
 5.9509060682e-01	 9.1023261848e-01	-1.6325731233e+02
 5.7633614165e-01	 9.2222172056e-01	-1.2019782890e+02
 5.5738468231e-01	 9.3379792566e-01	-7.0734898382e+01
 5.3824963673e-01	 9.4495691892e-01	-1.5308935248e+01
 5.1894450902e-01	 9.5569495479e-01	 4.5624856826e+01
 4.9948286996e-01	 9.6600885745e-01	 1.1159856406e+02
 4.7987832769e-01	 9.7589601939e-01	 1.8213366604e+02
 4.6014449890e-01	 9.8535439826e-01	 2.5674314937e+02
 4.4029498039e-01	 9.9438251205e-01	 3.3493361775e+02
 4.2034332143e-01	 1.0029794326e+00	 4.1620738487e+02
 4.0030299667e-01	 1.0111447774e+00	 5.0006453745e+02
 6.0193072873e-01	 9.2069506237e-01	-1.5615538763e+02
 5.8296069500e-01	 9.3282197022e-01	-1.2037733521e+02
 5.6379140280e-01	 9.4453123515e-01	-7.5206081472e+01
 5.4443641416e-01	 9.5581849270e-01	-2.1428653134e+01
 5.2490938844e-01	 9.6667995426e-01	 4.0147976456e+01
 5.0522405237e-01	 9.7711240753e-01	 1.0870053313e+02
 4.8539417054e-01	 9.8711321501e-01	 1.8339309962e+02
 4.6543351612e-01	 9.9668031089e-01	 2.6338076105e+02
 4.4535584224e-01	 1.0058121961e+00	 3.4781321514e+02
 4.2517485386e-01	 1.0145079318e+00	 4.3583832441e+02
 4.0490418054e-01	 1.0227671312e+00	 5.2660558946e+02
 6.0877085065e-01	 9.3115750625e-01	-1.4615971506e+02
 5.8958524835e-01	 9.4342221988e-01	-1.2050308440e+02
 5.7019812328e-01	 9.5526454464e-01	-8.2523486363e+01
 5.5062319160e-01	 9.6668006647e-01	-3.3348678070e+01
 5.3087426785e-01	 9.7766495374e-01	 2.5868546153e+01
 5.1096523478e-01	 9.8821595761e-01	 9.3955545533e+01
 4.9091001338e-01	 9.9833041064e-01	 1.6972502325e+02
 4.7072253335e-01	 1.0080062235e+00	 2.5198018269e+02
 4.5041670408e-01	 1.0172418801e+00	 3.3951981679e+02
 4.3000638629e-01	 1.0260364310e+00	 4.3114329950e+02
 4.0950536441e-01	 1.0343894849e+00	 5.2565544972e+02
 6.1561097256e-01	 9.4161995014e-01	-1.3336671174e+02
 5.9620980170e-01	 9.5402246954e-01	-1.2057682701e+02
 5.7660484377e-01	 9.6599785412e-01	-9.2592197428e+01
 5.5680996903e-01	 9.7754164025e-01	-5.0875624709e+01
 5.3683914726e-01	 9.8864995322e-01	 3.0800262355e+00
 5.1670641719e-01	 9.9931950770e-01	 6.7758542008e+01
 4.9642585623e-01	 1.0095476063e+00	 1.4162706302e+02
 4.7601155058e-01	 1.0193321361e+00	 2.2314272988e+02
 4.5547756592e-01	 1.0286715642e+00	 3.1075923200e+02
 4.3483791872e-01	 1.0375649302e+00	 4.0293321861e+02
 4.1410654828e-01	 1.0460118387e+00	 4.9813053448e+02
 3.6809470956e-01	 9.2978830103e-01	-5.4207767024e+02
 3.4959759078e-01	 9.3689995435e-01	-5.8383677060e+02
 3.3104341998e-01	 9.4361552236e-01	-5.8835948350e+02
 3.1244424090e-01	 9.4993610115e-01	-5.6010491425e+02
 2.9381193773e-01	 9.5586324607e-01	-5.0352401898e+02
 2.7515821486e-01	 9.6139895816e-01	-4.2304216228e+02
 2.5649457770e-01	 9.6654566967e-01	-3.2304240386e+02
 2.3783231460e-01	 9.7130622879e-01	-2.0784958987e+02
 2.1918248006e-01	 9.7568388344e-01	-8.1715315015e+01
 2.0055587900e-01	 9.7968226449e-01	 5.1196188393e+01
 1.8196305243e-01	 9.8330536840e-01	 1.8682118771e+02
 3.7269589344e-01	 9.4141065480e-01	-2.9351833922e+02
 3.5396756067e-01	 9.4861120379e-01	-3.6414833438e+02
 3.3518146273e-01	 9.5541071639e-01	-4.0375227783e+02
 3.1634979391e-01	 9.6181030243e-01	-4.1601598452e+02
 2.9748458695e-01	 9.6781153666e-01	-4.0461950609e+02
 2.7859769255e-01	 9.7341644514e-01	-3.7322263579e+02
 2.5970075992e-01	 9.7862749055e-01	-3.2545101514e+02
 2.4080521853e-01	 9.8344755666e-01	-2.6488290538e+02
 2.2192226105e-01	 9.8787993198e-01	-1.9503667892e+02
 2.0306282749e-01	 9.9192829280e-01	-1.1935907773e+02
 1.8423759058e-01	 9.9559668551e-01	-4.1214277893e+01
 3.7729707731e-01	 9.5303300857e-01	-8.0212438949e+01
 3.5833753055e-01	 9.6032245323e-01	-1.7229044694e+02
 3.3931950548e-01	 9.6720591043e-01	-2.3944985133e+02
 3.2025534692e-01	 9.7368450370e-01	-2.8461783546e+02
 3.0115723617e-01	 9.7975982724e-01	-3.1071811419e+02
 2.8203717024e-01	 9.8543393212e-01	-3.2065933993e+02
 2.6290694214e-01	 9.9070931143e-01	-3.1732398527e+02
 2.4377812247e-01	 9.9558888452e-01	-3.0355775276e+02
 2.2466204205e-01	 1.0000759805e+00	-2.8215955621e+02
 2.0556977597e-01	 1.0041743211e+00	-2.5587211176e+02
 1.8651212874e-01	 1.0078880026e+00	-2.2737316984e+02
 3.8189826118e-01	 9.6465536234e-01	 9.9114302283e+01
 3.6270750044e-01	 9.7203370266e-01	-7.2571334099e+00
 3.4345754823e-01	 9.7900110447e-01	-9.4718244781e+01
 3.2416089993e-01	 9.8555870497e-01	-1.6545171255e+02
 3.0482988540e-01	 9.9170811782e-01	-2.2163895592e+02
 2.8547664792e-01	 9.9745141910e-01	-2.6545139540e+02
 2.6611312436e-01	 1.0027911323e+00	-2.9904206889e+02
 2.4675102640e-01	 1.0077302124e+00	-3.2453763940e+02
 2.2740182305e-01	 1.0122720291e+00	-3.4403082851e+02
 2.0807672446e-01	 1.0164203494e+00	-3.5957330422e+02
 1.8878666689e-01	 1.0201793197e+00	-3.7316904770e+02
 3.8649944506e-01	 9.7627771611e-01	 2.4567547596e+02
 3.6707747033e-01	 9.8374495210e-01	 1.3190967691e+02
 3.4759559099e-01	 9.9079629850e-01	 3.1141549950e+01
 3.2806645295e-01	 9.9743290624e-01	-5.8080707347e+01
 3.0850253462e-01	 1.0036564084e+00	-1.3720975822e+02
 2.8891612561e-01	 1.0094689061e+00	-2.0769320346e+02
 2.6931930658e-01	 1.0148729532e+00	-2.7096788996e+02
 2.4972393033e-01	 1.0198715402e+00	-3.2845447766e+02
 2.3014160405e-01	 1.0244680776e+00	-3.8155228830e+02
 2.1058367294e-01	 1.0286663777e+00	-4.3163445609e+02
 1.9106120504e-01	 1.0324706368e+00	-4.8004339722e+02
 3.9110062893e-01	 9.8790006988e-01	 3.6062756272e+02
 3.7144744021e-01	 9.9545620154e-01	 2.4612296842e+02
 3.5173363374e-01	 1.0025914925e+00	 1.3879564591e+02
 3.3197200596e-01	 1.0093071075e+00	 3.7911527624e+01
 3.1217518384e-01	 1.0156046990e+00	-5.7266355550e+01
 2.9235560329e-01	 1.0214863931e+00	-1.4747472348e+02
 2.7252548880e-01	 1.0269547741e+00	-2.3344700837e+02
 2.5269683426e-01	 1.0320128681e+00	-3.1591044334e+02
 2.3288138505e-01	 1.0366641262e+00	-3.9558329128e+02
 2.1309062143e-01	 1.0409124060e+00	-4.7317222523e+02
 1.9333574319e-01	 1.0447619539e+00	-5.4936986999e+02
 3.9570181280e-01	 9.9952242365e-01	 4.4507325281e+02
 3.7581741010e-01	 1.0071674510e+00	 3.3625326050e+02
 3.5587167649e-01	 1.0143866866e+00	 2.2887917355e+02
 3.3587755897e-01	 1.0211813088e+00	 1.2292197425e+02
 3.1584783306e-01	 1.0275529896e+00	 1.8347781462e+01
 2.9579508098e-01	 1.0335038801e+00	-8.4881731232e+01
 2.7573167103e-01	 1.0390365949e+00	-1.8680891193e+02
 2.5566973819e-01	 1.0441541960e+00	-2.8747970454e+02
 2.3562116605e-01	 1.0488601747e+00	-3.8694322358e+02
 2.1559756991e-01	 1.0531584344e+00	-4.8525133237e+02
 1.9561028135e-01	 1.0570532710e+00	-5.8245822722e+02
 4.0030299667e-01	 1.0111447774e+00	 5.0006453745e+02
 3.8018737999e-01	 1.0188787004e+00	 4.0313104806e+02
 3.6000971924e-01	 1.0261818806e+00	 3.0199806132e+02
 3.3978311198e-01	 1.0330555100e+00	 1.9732936183e+02
 3.1952048229e-01	 1.0395012801e+00	 8.9781984885e+01
 2.9923455867e-01	 1.0455213670e+00	-1.9996059291e+01
 2.7893785325e-01	 1.0511184158e+00	-1.3136794012e+02
 2.5864264212e-01	 1.0562955238e+00	-2.4371003134e+02
 2.3836094705e-01	 1.0610562233e+00	-3.5641379889e+02
 2.1810451840e-01	 1.0654044627e+00	-4.6888754604e+02
 1.9788481950e-01	 1.0693445882e+00	-5.8055801167e+02
 4.0490418054e-01	 1.0227671312e+00	 5.2660558946e+02
 3.8455734987e-01	 1.0305899498e+00	 4.4754907566e+02
 3.6414776199e-01	 1.0379770746e+00	 3.5873069493e+02
 3.4368866500e-01	 1.0449297113e+00	 2.6149520410e+02
 3.2319313151e-01	 1.0514495707e+00	 1.5717879843e+02
 3.0267403635e-01	 1.0575388540e+00	 4.7104178898e+01
 2.8214403547e-01	 1.0632002367e+00	-6.7424144765e+01
 2.6161554606e-01	 1.0684368517e+00	-1.8512429568e+02
 2.4110072805e-01	 1.0732522718e+00	-3.0474119890e+02
 2.2061146689e-01	 1.0776504910e+00	-4.2505046389e+02
 2.0015935765e-01	 1.0816359053e+00	-5.4486196912e+02
 4.0950536441e-01	 1.0343894849e+00	 5.2565544972e+02
 3.8892731976e-01	 1.0423011993e+00	 4.7026445830e+02
 3.6828580474e-01	 1.0497722687e+00	 3.9962946462e+02
 3.4759421801e-01	 1.0568039126e+00	 3.1576476648e+02
 3.2686578073e-01	 1.0633978613e+00	 2.2067435880e+02
 3.0611351404e-01	 1.0695563410e+00	 1.1634438009e+02
 2.8535021769e-01	 1.0752820576e+00	 4.7359072887e+00
 2.6458844999e-01	 1.0805781796e+00	-1.1222187008e+02
 2.4384050905e-01	 1.0854483204e+00	-2.3263806952e+02
 2.2311841537e-01	 1.0898965193e+00	-3.5466610659e+02
 2.0243389581e-01	 1.0939272224e+00	-4.7650923920e+02
 4.1410654828e-01	 1.0460118387e+00	 4.9813053448e+02
 3.9329728964e-01	 1.0540124487e+00	 4.7200066087e+02
 3.7242384749e-01	 1.0615674627e+00	 4.2522220942e+02
 3.5149977102e-01	 1.0686781139e+00	 3.6046796869e+02
 3.3053842995e-01	 1.0753461519e+00	 2.8039875168e+02
 3.0955299173e-01	 1.0815738280e+00	 1.8765325625e+02
 2.8855639991e-01	 1.0873638784e+00	 8.4838385016e+01
 2.6756135392e-01	 1.0927195074e+00	-2.5479933225e+01
 2.4658029005e-01	 1.0976443689e+00	-1.4078538396e+02
 2.2562536386e-01	 1.1021425476e+00	-2.5861933877e+02
 2.0470843396e-01	 1.1062185395e+00	-3.7658833353e+02
 1.8196305243e-01	 9.8330536840e-01	 1.8682118771e+02
 1.6341426419e-01	 9.8655753924e-01	 3.2334591134e+02
 1.4491948904e-01	 9.8944345047e-01	 4.6427377703e+02
 1.2648840200e-01	 9.9196808625e-01	 6.1346883445e+02
 1.0813036884e-01	 9.9413672265e-01	 7.7461480909e+02
 8.9854437912e-02	 9.9595490861e-01	 9.5120862682e+02
 7.1669333081e-02	 9.9742844690e-01	 1.1465551219e+03
 5.3583447897e-02	 9.9856337511e-01	 1.3637628968e+03
 3.5604840891e-02	 9.9936594664e-01	 1.6057412969e+03
 1.7741231987e-02	 9.9984261196e-01	 1.8751984550e+03
 0.0000000000e+00	 1.0000000000e+00	 2.1746403594e+03
 1.8423759058e-01	 9.9559668551e-01	-4.1214277893e+01
 1.6545694249e-01	 9.9888950849e-01	 1.2330801506e+02
 1.4673098265e-01	 1.0018114936e+00	 2.9104061952e+02
 1.2806950702e-01	 1.0043676873e+00	 4.6521886039e+02
 1.0948199844e-01	 1.0065634317e+00	 6.4892737941e+02
 9.0977618379e-02	 1.0084043450e+00	 8.4509467409e+02
 7.2565199739e-02	 1.0098963025e+00	 1.0564886301e+03
 5.4253240991e-02	 1.0110454173e+00	 1.2857130207e+03
 3.6049901398e-02	 1.0118580210e+00	 1.5352049424e+03
 1.7962997385e-02	 1.0123406446e+00	 1.8072331489e+03
 0.0000000000e+00	 1.0125000000e+00	 2.1038972448e+03
 1.8651212874e-01	 1.0078880026e+00	-2.2737316984e+02
 1.6749962078e-01	 1.0112214777e+00	-4.2923024136e+01
 1.4854247626e-01	 1.0141795367e+00	 1.4363906113e+02
 1.2965061203e-01	 1.0167672884e+00	 3.3493087133e+02
 1.1083362805e-01	 1.0189901407e+00	 5.3344859605e+02
 9.2100798847e-02	 1.0208537813e+00	 7.4156236902e+02
 7.3461066397e-02	 1.0223641581e+00	 9.6151261436e+02
 5.4923034086e-02	 1.0235274595e+00	 1.1954071781e+03
 3.6494961906e-02	 1.0243500953e+00	 1.4452192196e+03
 1.8184762783e-02	 1.0248386773e+00	 1.7127858331e+03
 0.0000000000e+00	 1.0250000000e+00	 1.9998073670e+03
 1.8878666689e-01	 1.0201793197e+00	-3.7316904770e+02
 1.6954229908e-01	 1.0235534470e+00	-1.7656908942e+02
 1.5035396986e-01	 1.0265475799e+00	 2.1135480935e+01
 1.3123171705e-01	 1.0291668895e+00	 2.2195569006e+02
 1.1218525765e-01	 1.0314168498e+00	 4.2780952278e+02
 9.3223979316e-02	 1.0333032177e+00	 6.4051844983e+02
 7.4356933056e-02	 1.0348320137e+00	 8.6180457794e+02
 5.5592827180e-02	 1.0360095017e+00	 1.0932884059e+03
 3.6940022414e-02	 1.0368421696e+00	 1.3364871676e+03
 1.8406528182e-02	 1.0373367099e+00	 1.5928137382e+03
 0.0000000000e+00	 1.0375000000e+00	 1.8635760802e+03
 1.9106120504e-01	 1.0324706368e+00	-4.8004339722e+02
 1.7158497738e-01	 1.0358854162e+00	-2.7879387945e+02
 1.5216546347e-01	 1.0389156230e+00	-7.7359284279e+01
 1.3281282207e-01	 1.0415664906e+00	 1.2567505222e+02
 1.1353688726e-01	 1.0438435588e+00	 3.3165879143e+02
 9.4347159785e-02	 1.0457526540e+00	 5.4187409547e+02
 7.5252799715e-02	 1.0472998693e+00	 7.5753357121e+02
 5.6262620276e-02	 1.0484915439e+00	 9.7977864400e+02
 3.7385082923e-02	 1.0493342440e+00	 1.2096783473e+03
 1.8628293580e-02	 1.0498347426e+00	 1.4482285123e+03
 0.0000000000e+00	 1.0500000000e+00	 1.6963513401e+03
 1.9333574319e-01	 1.0447619539e+00	-5.4936986999e+02
 1.7362765568e-01	 1.0482173855e+00	-3.5070633104e+02
 1.5397695708e-01	 1.0512836661e+00	-1.5269255513e+02
 1.3439392709e-01	 1.0539660917e+00	 4.5499787835e+01
 1.1488851686e-01	 1.0562702678e+00	 2.4466156844e+02
 9.5470340255e-02	 1.0582020904e+00	 4.4554466435e+02
 7.6148666375e-02	 1.0597677248e+00	 6.4886068897e+02
 5.6932413371e-02	 1.0609735861e+00	 8.5527997579e+02
 3.7830143432e-02	 1.0618263183e+00	 1.0654308106e+03
 1.8850058979e-02	 1.0623327752e+00	 1.2798989022e+03
 0.0000000000e+00	 1.0625000000e+00	 1.4992270812e+03
 1.9561028135e-01	 1.0570532710e+00	-5.8245822722e+02
 1.7567033398e-01	 1.0605493547e+00	-3.9336380293e+02
 1.5578845069e-01	 1.0636517093e+00	-2.0567224236e+02
 1.3597503212e-01	 1.0663656927e+00	-1.9131870144e+01
 1.1624014647e-01	 1.0686969769e+00	 1.6649859359e+02
 9.6593520725e-02	 1.0706515268e+00	 3.5144945143e+02
 7.7044533036e-02	 1.0722355804e+00	 5.3593953292e+02
 5.7602206467e-02	 1.0734556282e+00	 7.2017578299e+02
 3.8275203941e-02	 1.0743183926e+00	 9.0435293241e+02
 1.9071824378e-02	 1.0748308079e+00	 1.0886532476e+03
 0.0000000000e+00	 1.0750000000e+00	 1.2732463569e+03
 1.9788481950e-01	 1.0693445882e+00	-5.8055801167e+02
 1.7771301228e-01	 1.0728813239e+00	-4.0777504008e+02
 1.5759994430e-01	 1.0760197524e+00	-2.3706911179e+02
 1.3755613714e-01	 1.0787652938e+00	-6.8755860769e+01
 1.1759177608e-01	 1.0811236859e+00	 9.6865284924e+01
 9.7716701196e-02	 1.0831009631e+00	 2.5951146190e+02
 7.7940399697e-02	 1.0847034360e+00	 4.1891664237e+02
 5.8271999564e-02	 1.0859376704e+00	 5.7483182028e+02
 3.8720264451e-02	 1.0868104670e+00	 7.2702511605e+02
 1.9293589777e-02	 1.0873288405e+00	 8.7528180363e+02
 0.0000000000e+00	 1.0875000000e+00	 1.0194042641e+03
 2.0015935765e-01	 1.0816359053e+00	-5.4486196912e+02
 1.7975569058e-01	 1.0852132932e+00	-3.9490293582e+02
 1.5941143791e-01	 1.0883877955e+00	-2.4761889477e+02
 1.3913724216e-01	 1.0911648949e+00	-1.0388376257e+02
 1.1894340569e-01	 1.0935503949e+00	 3.5470904829e+01
 9.8839881668e-02	 1.0955503995e+00	 1.6965720045e+02
 7.8836266358e-02	 1.0971712916e+00	 2.9793189545e+02
 5.8941792661e-02	 1.0984197126e+00	 4.1959721688e+02
 3.9165324961e-02	 1.0993025413e+00	 5.3400138268e+02
 1.9515355176e-02	 1.0998268732e+00	 6.4053890425e+02
 0.0000000000e+00	 1.1000000000e+00	 7.3865066763e+02
 2.0243389581e-01	 1.0939272224e+00	-4.7650923920e+02
 1.8179836888e-01	 1.0975452624e+00	-3.5566710774e+02
 1.6122293152e-01	 1.1007558387e+00	-2.3802425648e+02
 1.4071834718e-01	 1.1035644960e+00	-1.2500416215e+02
 1.2029503530e-01	 1.1059771040e+00	-1.7962217794e+01
 9.9963062140e-02	 1.1079998358e+00	 8.1816474587e+01
 7.9732133020e-02	 1.1096391472e+00	 1.7311888337e+02
 5.9611585759e-02	 1.1109017548e+00	 2.5480541056e+02
 3.9610385471e-02	 1.1117946156e+00	 3.2581085342e+02
 1.9737120575e-02	 1.1123249058e+00	 3.8514498073e+02
 0.0000000000e+00	 1.1125000000e+00	 4.3189274188e+02
 2.0470843396e-01	 1.1062185395e+00	-3.7658833353e+02
 1.8384104718e-01	 1.1098772317e+00	-2.9094630194e+02
 1.6303442514e-01	 1.1131238818e+00	-2.0895663287e+02
 1.4229945221e-01	 1.1159640971e+00	-1.3258393146e+02
 1.2164666491e-01	 1.1184038130e+00	-6.3699413420e+01
 1.0108624261e-01	 1.1204492722e+00	-4.0777887724e+00
 8.0627999683e-02	 1.1221070028e+00	 4.4605259663e+01
 6.0281378857e-02	 1.1233837970e+00	 8.0775019381e+01
 4.0055445982e-02	 1.1242866900e+00	 1.0295913267e+02
 1.9958885975e-02	 1.1248229385e+00	 1.0978844495e+02
 0.0000000000e+00	 1.1250000000e+00	 9.9997342026e+01
 1.1250000000e+00	 0.0000000000e+00	 5.5598434053e+02
 1.1248229385e+00	 1.9958885975e-02	 5.0599009813e+02
 1.1242866900e+00	 4.0055445982e-02	 4.4994788549e+02
 1.1233837970e+00	 6.0281378857e-02	 3.8863973021e+02
 1.1221070028e+00	 8.0627999683e-02	 3.2289571086e+02
 1.1204492722e+00	 1.0108624261e-01	 2.5359306591e+02
 1.1184038130e+00	 1.2164666491e-01	 1.8165503188e+02
 1.1159640971e+00	 1.4229945221e-01	 1.0804940193e+02
 1.1131238818e+00	 1.6303442514e-01	 3.3786797662e+01
 1.1098772317e+00	 1.8384104718e-01	-4.0081351598e+01
 1.1062185395e+00	 2.0470843396e-01	-1.1246512561e+02
 1.1375000000e+00	 0.0000000000e+00	 4.8681878488e+02
 1.1373209711e+00	 2.0180651374e-02	 4.4255372927e+02
 1.1367787643e+00	 4.0500506492e-02	 3.9335853268e+02
 1.1358658392e+00	 6.0951171955e-02	 3.3993124845e+02
 1.1345748584e+00	 8.1523866346e-02	 2.8301131212e+02
 1.1328987086e+00	 1.0220942309e-01	 2.2337868052e+02
 1.1308305220e+00	 1.2299829452e-01	 1.6185273328e+02
 1.1283636981e+00	 1.4388055723e-01	 9.9290929298e+01
 1.1254919249e+00	 1.6484591875e-01	 3.6587212497e+01
 1.1222092009e+00	 1.8588372548e-01	-2.5329837772e+01
 1.1185098566e+00	 2.0698297212e-01	-8.5499114146e+01
 1.1500000000e+00	 0.0000000000e+00	 4.2509269952e+02
 1.1498190038e+00	 2.0402416774e-02	 3.8531219871e+02
 1.1492708386e+00	 4.0945567004e-02	 3.4169048756e+02
 1.1483478814e+00	 6.1620965054e-02	 2.9484296846e+02
 1.1470427139e+00	 8.2419733010e-02	 2.4541986203e+02
 1.1453481449e+00	 1.0333260356e-01	 1.9410537639e+02
 1.1432572311e+00	 1.2434992413e-01	 1.4161667130e+02
 1.1407632992e+00	 1.4546166226e-01	 8.8702611570e+01
 1.1378599681e+00	 1.6665741236e-01	 3.6142305094e+01
 1.1345411702e+00	 1.8792640379e-01	-1.5256577625e+01
 1.1308011737e+00	 2.0925751027e-01	-6.4659704151e+01
 1.1625000000e+00	 0.0000000000e+00	 3.7056609836e+02
 1.1623170364e+00	 2.0624182174e-02	 3.3406567163e+02
 1.1617629130e+00	 4.1390627515e-02	 2.9478499879e+02
 1.1608299236e+00	 6.2290758153e-02	 2.5325811183e+02
 1.1595105695e+00	 8.3315599674e-02	 2.1004739856e+02
 1.1577975813e+00	 1.0445578404e-01	 1.6574280179e+02
 1.1556839401e+00	 1.2570155374e-01	 1.2096084571e+02
 1.1531629003e+00	 1.4704276728e-01	 7.6343485007e+01
 1.1502280112e+00	 1.6846890598e-01	 3.2556773824e+01
 1.1468731394e+00	 1.8996908209e-01	-9.7106476868e+00
 1.1430924908e+00	 2.1153204843e-01	-4.9749249804e+01
 1.1750000000e+00	 0.0000000000e+00	 3.2300920754e+02
 1.1748150691e+00	 2.0845947575e-02	 2.8862281690e+02
 1.1742549873e+00	 4.1835688027e-02	 2.5249007045e+02
 1.1733119658e+00	 6.2960551253e-02	 2.1506486950e+02
 1.1719784251e+00	 8.4211466338e-02	 1.7682310699e+02
 1.1702470176e+00	 1.0557896451e-01	 1.3826189659e+02
 1.1681106491e+00	 1.2705318335e-01	 9.9898660519e+01
 1.1655625014e+00	 1.4862387231e-01	 6.2270073656e+01
 1.1625960543e+00	 1.7028039959e-01	 2.5930861755e+01
 1.1592051086e+00	 1.9201176039e-01	-8.5475468336e+00
 1.1553838079e+00	 2.1380658658e-01	-4.0578515836e+01
 1.1875000000e+00	 0.0000000000e+00	 2.8220192799e+02
 1.1873131017e+00	 2.1067712975e-02	 2.4880035949e+02
 1.1867470616e+00	 4.2280748539e-02	 2.1466010648e+02
 1.1857940079e+00	 6.3630344353e-02	 1.8015614016e+02
 1.1844462807e+00	 8.5107333003e-02	 1.4567915433e+02
 1.1826964540e+00	 1.0670214499e-01	 1.1163482420e+02
 1.1805373582e+00	 1.2840481296e-01	 7.8442955346e+01
 1.1779621024e+00	 1.5020497734e-01	 4.6536521570e+01
 1.1749640975e+00	 1.7209189320e-01	 1.6360591145e+01
 1.1715370779e+00	 1.9405443870e-01	-1.1628858269e+01
 1.1676751250e+00	 2.1608112474e-01	-3.6966234864e+01
 1.2000000000e+00	 0.0000000000e+00	 2.4793333148e+02
 1.1998111344e+00	 2.1289478376e-02	 2.1442266087e+02
 1.1992391360e+00	 4.2725809052e-02	 1.8115557738e+02
 1.1982760501e+00	 6.4300137453e-02	 1.4842928510e+02
 1.1969141363e+00	 8.6003199669e-02	 1.1655053393e+02
 1.1951458903e+00	 1.0782532546e-01	 8.5834907920e+01
 1.1929640672e+00	 1.2975644257e-01	 5.6606034804e+01
 1.1903617035e+00	 1.5178608236e-01	 2.9194716766e+01
 1.1873321406e+00	 1.7390338682e-01	 3.9379832695e+00
 1.1838690471e+00	 1.9609711700e-01	-1.8821932630e+01
 1.1799664421e+00	 2.1835566290e-01	-3.8738692403e+01
 1.2125000000e+00	 0.0000000000e+00	 2.2000118792e+02
 1.2123091670e+00	 2.1511243776e-02	 1.8532132542e+02
 1.2117312103e+00	 4.3170869564e-02	 1.5184270748e+02
 1.2107580923e+00	 6.4969930554e-02	 1.1978589817e+02
 1.2093819919e+00	 8.6899066335e-02	 8.9374919874e+01
 1.2075953267e+00	 1.0894850594e-01	 6.0836571103e+01
 1.2053907762e+00	 1.3110807219e-01	 3.4399696082e+01
 1.2027613046e+00	 1.5336718739e-01	 1.0294407514e+01
 1.1997001837e+00	 1.7571488043e-01	-1.1248735336e+01
 1.1962010164e+00	 1.9813979530e-01	-2.9999590702e+01
 1.1922577592e+00	 2.2063020105e-01	-4.5729337533e+01
 1.2250000000e+00	 0.0000000000e+00	 1.9821152158e+02
 1.2248071996e+00	 2.1733009177e-02	 1.6133483084e+02
 1.2242232846e+00	 4.3615930078e-02	 1.2659318137e+02
 1.2232401345e+00	 6.5639723655e-02	 9.4131589816e+01
 1.2218498475e+00	 8.7794933001e-02	 6.4092530161e+01
 1.2200447631e+00	 1.1007168642e-01	 3.6615281047e+01
 1.2178174853e+00	 1.3245970180e-01	 1.1835254834e+01
 1.2151609057e+00	 1.5494829242e-01	-1.0116688493e+01
 1.2120682269e+00	 1.7752637405e-01	-2.9114939271e+01
 1.2085329856e+00	 2.0018247361e-01	-4.5039844323e+01
 1.2045490763e+00	 2.2290473921e-01	-5.7778417420e+01
 1.2375000000e+00	 0.0000000000e+00	 1.8237819422e+02
 1.2373052323e+00	 2.1954774578e-02	 1.4230818105e+02
 1.2367153590e+00	 4.4060990591e-02	 1.0528386818e+02
 1.2357221767e+00	 6.6309516757e-02	 7.1375784222e+01
 1.2343177030e+00	 8.8690799668e-02	 4.0645998238e+01
 1.2324941994e+00	 1.1119486689e-01	 1.3147496268e+01
 1.2302441943e+00	 1.3381133141e-01	-1.1076430502e+01
 1.2275605068e+00	 1.5652939745e-01	-3.1992781579e+01
 1.2244362700e+00	 1.7933786766e-01	-4.9579422391e+01
 1.2208649548e+00	 2.0222515191e-01	-6.3825634215e+01
 1.2168403934e+00	 2.2517927736e-01	-7.4732633970e+01
 1.2500000000e+00	 0.0000000000e+00	 1.7232251316e+02
 1.2498032649e+00	 2.2176539980e-02	 1.2809257987e+02
 1.2492074333e+00	 4.4506051105e-02	 8.7796562272e+01
 1.2482042189e+00	 6.6979309859e-02	 5.1431528645e+01
 1.2467855586e+00	 8.9586666336e-02	 1.8980252228e+01
 1.2449436358e+00	 1.1231804737e-01	-9.5893830583e+00
 1.2426709033e+00	 1.3516296103e-01	-3.4324935842e+01
 1.2399601078e+00	 1.5811050247e-01	-5.5289913691e+01
 1.2368043131e+00	 1.8114936128e-01	-7.2564226849e+01
 1.2331969241e+00	 2.0426783021e-01	-8.6244583533e+01
 1.2291317105e+00	 2.2745381552e-01	-9.6444821099e+01
 1.1062185395e+00	 2.0470843396e-01	-1.1246512561e+02
 1.1021425476e+00	 2.2562536386e-01	-1.0743565247e+02
 1.0976443689e+00	 2.4658029005e-01	-9.9209031516e+01
 1.0927195074e+00	 2.6756135392e-01	-8.8343025945e+01
 1.0873638784e+00	 2.8855639991e-01	-7.5421006366e+01
 1.0815738280e+00	 3.0955299173e-01	-6.1050509294e+01
 1.0753461519e+00	 3.3053842995e-01	-4.5861615661e+01
 1.0686781139e+00	 3.5149977102e-01	-3.0505151697e+01
 1.0615674627e+00	 3.7242384749e-01	-1.5650716058e+01
 1.0540124487e+00	 3.9329728964e-01	-1.9845386634e+00
 1.0460118387e+00	 4.1410654828e-01	 9.7928216961e+00
 1.1185098566e+00	 2.0698297212e-01	-8.5499114146e+01
 1.1143885759e+00	 2.2813231235e-01	-8.4213352842e+01
 1.1098404175e+00	 2.4932007105e-01	-8.0098294474e+01
 1.1048608353e+00	 2.7053425785e-01	-7.3640428259e+01
 1.0994456993e+00	 2.9176258213e-01	-6.5348752979e+01
 1.0935913150e+00	 3.1299246941e-01	-5.5753522299e+01
 1.0872944425e+00	 3.3421107917e-01	-4.5404832238e+01
 1.0805523151e+00	 3.5540532403e-01	-3.4871052770e+01
 1.0733626567e+00	 3.7656189024e-01	-2.4737106892e+01
 1.0657236981e+00	 3.9766725953e-01	-1.5602601901e+01
 1.0576341925e+00	 4.1870773215e-01	-8.0798189947e+00
 1.1308011737e+00	 2.0925751027e-01	-6.4659704151e+01
 1.1266346042e+00	 2.3063926084e-01	-6.6320859843e+01
 1.1220364660e+00	 2.5205985205e-01	-6.5511567160e+01
 1.1170021632e+00	 2.7350716179e-01	-6.2648253585e+01
 1.1115275202e+00	 2.9496876435e-01	-5.8166808376e+01
 1.1056088019e+00	 3.1643194710e-01	-5.2521512129e+01
 1.0992427330e+00	 3.3788372839e-01	-4.6183830288e+01
 1.0924265164e+00	 3.5931087704e-01	-3.9641072240e+01
 1.0851578508e+00	 3.8069993299e-01	-3.3394918805e+01
 1.0774349476e+00	 4.0203722941e-01	-2.7959822125e+01
 1.0692565462e+00	 4.2330891602e-01	-2.3861283160e+01
 1.1430924908e+00	 2.1153204843e-01	-4.9749249804e+01
 1.1388806325e+00	 2.3314620932e-01	-5.3586229310e+01
 1.1342325145e+00	 2.5479963305e-01	-5.5302897514e+01
 1.1291434910e+00	 2.7648006572e-01	-5.5246793301e+01
 1.1236093411e+00	 2.9817494657e-01	-5.3781917992e+01
 1.1176262889e+00	 3.1987142478e-01	-5.1287846642e+01
 1.1111910236e+00	 3.4155637762e-01	-4.8158724768e+01
 1.1043007177e+00	 3.6321643005e-01	-4.4802151821e+01
 1.0969530448e+00	 3.8483797574e-01	-4.1637953683e+01
 1.0891461970e+00	 4.0640719929e-01	-3.9096847470e+01
 1.0808789000e+00	 4.2791009988e-01	-3.7619002955e+01
 1.1553838079e+00	 2.1380658658e-01	-4.0578515836e+01
 1.1511266608e+00	 2.3565315781e-01	-4.5844833964e+01
 1.1464285631e+00	 2.5753941405e-01	-4.9332544331e+01
 1.1412848189e+00	 2.7945296965e-01	-5.1321432915e+01
 1.1356911619e+00	 3.0138112879e-01	-5.2104795704e+01
 1.1296437759e+00	 3.2331090247e-01	-5.1988729287e+01
 1.1231393142e+00	 3.4522902683e-01	-5.1291328074e+01
 1.1161749189e+00	 3.6712198306e-01	-5.0341789123e+01
 1.1087482388e+00	 3.8897601848e-01	-4.9479426340e+01
 1.1008574464e+00	 4.1077716917e-01	-4.9052596622e+01
 1.0925012538e+00	 4.3251128375e-01	-4.9417541362e+01
 1.1676751250e+00	 2.1608112474e-01	-3.6966234864e+01
 1.1633726891e+00	 2.3816010630e-01	-4.2938978304e+01
 1.1586246116e+00	 2.6027919505e-01	-4.7466650366e+01
 1.1534261467e+00	 2.8242587358e-01	-5.0762383951e+01
 1.1477729828e+00	 3.0458731101e-01	-5.3049914969e+01
 1.1416612629e+00	 3.2675038015e-01	-5.4563049868e+01
 1.1350876048e+00	 3.4890167605e-01	-5.5545060702e+01
 1.1280491202e+00	 3.7102753607e-01	-5.6248008390e+01
 1.1205434329e+00	 3.9311406123e-01	-5.6931995416e+01
 1.1125686958e+00	 4.1514713906e-01	-5.7864349846e+01
 1.1041236075e+00	 4.3711246762e-01	-5.9318743199e+01
 1.1799664421e+00	 2.1835566290e-01	-3.8738692403e+01
 1.1756187174e+00	 2.4066705479e-01	-4.4717537584e+01
 1.1708206602e+00	 2.6301897605e-01	-4.9576935887e+01
 1.1655674746e+00	 2.8539877751e-01	-5.3464432594e+01
 1.1598548037e+00	 3.0779349323e-01	-5.6535313007e+01
 1.1536787499e+00	 3.3018985783e-01	-5.8952244624e+01
 1.1470358954e+00	 3.5257432527e-01	-6.0884867493e+01
 1.1399233214e+00	 3.7493308908e-01	-6.2509333075e+01
 1.1323386269e+00	 3.9725210398e-01	-6.4007792342e+01
 1.1242799453e+00	 4.1951710894e-01	-6.5567834317e+01
 1.1157459613e+00	 4.4171365148e-01	-6.7381876691e+01
 1.1922577592e+00	 2.2063020105e-01	-4.5729337533e+01
 1.1878647457e+00	 2.4317400327e-01	-5.1035619105e+01
 1.1830167087e+00	 2.6575875705e-01	-5.5540411165e+01
 1.1777088025e+00	 2.8837168144e-01	-5.9326703883e+01
 1.1719366245e+00	 3.1099967545e-01	-6.2482407108e+01
 1.1656962368e+00	 3.3362933551e-01	-6.5100164971e+01
 1.1589841859e+00	 3.5624697449e-01	-6.7277139055e+01
 1.1517975227e+00	 3.7883864208e-01	-6.9114760102e+01
 1.1441338209e+00	 4.0139014672e-01	-7.0718448518e+01
 1.1359911947e+00	 4.2388707882e-01	-7.2197304175e+01
 1.1273683150e+00	 4.4631483535e-01	-7.3663766283e+01
 1.2045490763e+00	 2.2290473921e-01	-5.7778417420e+01
 1.2001107741e+00	 2.4568095176e-01	-6.1754244262e+01
 1.1952127573e+00	 2.6849853805e-01	-6.5239106583e+01
 1.1898501303e+00	 2.9134458537e-01	-6.8252440342e+01
 1.1840184454e+00	 3.1420585767e-01	-7.0815822173e+01
 1.1777137238e+00	 3.3706881320e-01	-7.2952954280e+01
 1.1709324765e+00	 3.5991962371e-01	-7.4689638001e+01
 1.1636717240e+00	 3.8274419509e-01	-7.6053735713e+01
 1.1559290149e+00	 4.0552818947e-01	-7.7075120824e+01
 1.1477024441e+00	 4.2825704870e-01	-7.7785615680e+01
 1.1389906688e+00	 4.5091601921e-01	-7.8218917318e+01
 1.2168403934e+00	 2.2517927736e-01	-7.4732633970e+01
 1.2123568024e+00	 2.4818790024e-01	-7.6740049846e+01
 1.2074088058e+00	 2.7123831905e-01	-7.8559819090e+01
 1.2019914582e+00	 2.9431748930e-01	-8.0148794021e+01
 1.1961002663e+00	 3.1741203988e-01	-8.1463228718e+01
 1.1897312108e+00	 3.4050829088e-01	-8.2458932119e+01
 1.1828807671e+00	 3.6359227292e-01	-8.3091429656e+01
 1.1755459252e+00	 3.8664974809e-01	-8.3316132773e+01
 1.1677242090e+00	 4.0966623221e-01	-8.3088515580e+01
 1.1594136936e+00	 4.3262701858e-01	-8.2364297812e+01
 1.1506130226e+00	 4.5551720308e-01	-8.1099633169e+01
 1.2291317105e+00	 2.2745381552e-01	-9.6444821099e+01
 1.2246028307e+00	 2.5069484873e-01	-9.5865007278e+01
 1.2196048543e+00	 2.7397810005e-01	-9.5393873876e+01
 1.2141327860e+00	 2.9729039323e-01	-9.4926631026e+01
 1.2081820871e+00	 3.2061822210e-01	-9.4355190590e+01
 1.2017486978e+00	 3.4394776856e-01	-9.3568485443e+01
 1.1948290577e+00	 3.6726492214e-01	-9.2452816921e+01
 1.1874201265e+00	 3.9055530110e-01	-9.0892229439e+01
 1.1795194030e+00	 4.1380427495e-01	-8.8768911079e+01
 1.1711249430e+00	 4.3699698846e-01	-8.5963618630e+01
 1.1622353763e+00	 4.6011838694e-01	-8.2356125332e+01
 1.0460118387e+00	 4.1410654828e-01	 9.7928216961e+00
 1.0375649302e+00	 4.3483791872e-01	-1.3659017763e+01
 1.0286715642e+00	 4.5547756592e-01	-3.6004562092e+01
 1.0193321361e+00	 4.7601155058e-01	-5.6981496793e+01
 1.0095476063e+00	 4.9642585623e-01	-7.6327539539e+01
 9.9931950770e-01	 5.1670641719e-01	-9.3781523929e+01
 9.8864995322e-01	 5.3683914726e-01	-1.0908450555e+02
 9.7754164025e-01	 5.5680996903e-01	-1.2198088370e+02
 9.6599785412e-01	 5.7660484377e-01	-1.3221953172e+02
 9.5402246954e-01	 5.9620980170e-01	-1.3955492875e+02
 9.4161995014e-01	 6.1561097256e-01	-1.4374828520e+02
 1.0576341925e+00	 4.1870773215e-01	-8.0798189947e+00
 1.0490934295e+00	 4.3966945115e-01	-2.7667840686e+01
 1.0401012482e+00	 4.6053842777e-01	-4.6285678669e+01
 1.0306580488e+00	 4.8130056781e-01	-6.3706158384e+01
 1.0207648019e+00	 5.0194169907e-01	-7.9702160910e+01
 1.0104230578e+00	 5.2244759960e-01	-9.4047562922e+01
 9.9963495269e-01	 5.4280402667e-01	-1.0651819590e+02
 9.8840321402e-01	 5.6299674646e-01	-1.1689281880e+02
 9.7673116361e-01	 5.8301156425e-01	-1.2495409807e+02
 9.6462271920e-01	 6.0283435505e-01	-1.3048958876e+02
 9.5208239402e-01	 6.2245109447e-01	-1.3329271010e+02
 1.0692565462e+00	 4.2330891602e-01	-2.3861283160e+01
 1.0606219287e+00	 4.4450098358e-01	-3.9892860574e+01
 1.0515309323e+00	 4.6559928961e-01	-5.5087020357e+01
 1.0419839614e+00	 4.8658958503e-01	-6.9251133494e+01
 1.0319819975e+00	 5.0745754192e-01	-8.2192649469e+01
 1.0215266079e+00	 5.2818878201e-01	-9.3719894509e+01
 1.0106199522e+00	 5.4876890608e-01	-1.0364288604e+02
 9.9926478780e-01	 5.6918352389e-01	-1.1177415842e+02
 9.8746447310e-01	 5.8941828473e-01	-1.1792959485e+02
 9.7522296885e-01	 6.0945890840e-01	-1.2192925997e+02
 9.6254483791e-01	 6.2929121639e-01	-1.2359822768e+02
 1.0808789000e+00	 4.2791009988e-01	-3.7619002955e+01
 1.0721504279e+00	 4.4933251601e-01	-5.0391593425e+01
 1.0629606163e+00	 4.7066015145e-01	-6.2456294963e+01
 1.0533098740e+00	 4.9187860226e-01	-7.3654448869e+01
 1.0431991931e+00	 5.1297338476e-01	-8.3827497232e+01
 1.0326301579e+00	 5.3392996442e-01	-9.2817641447e+01
 1.0216049516e+00	 5.5473378549e-01	-1.0046851395e+02
 1.0101263616e+00	 5.7537030132e-01	-1.0662585915e+02
 9.9819778258e-01	 5.9582500522e-01	-1.1113821918e+02
 9.8582321851e-01	 6.1608346175e-01	-1.1385762021e+02
 9.7300728180e-01	 6.3613133830e-01	-1.1464025457e+02
 1.0925012538e+00	 4.3251128375e-01	-4.9417541362e+01
 1.0836789271e+00	 4.5416404844e-01	-5.9219108050e+01
 1.0743903004e+00	 4.7572101329e-01	-6.8439180494e+01
 1.0646357866e+00	 4.9716761948e-01	-7.6952513438e+01
 1.0544163887e+00	 5.1848922761e-01	-8.4633984149e+01
 1.0437337080e+00	 5.3967114683e-01	-9.1359113136e+01
 1.0325899511e+00	 5.6069866490e-01	-9.7004595159e+01
 1.0209879354e+00	 5.8155707875e-01	-1.0144883728e+02
 1.0089310921e+00	 6.0223172570e-01	-1.0457250064e+02
 9.9642346817e-01	 6.2270801510e-01	-1.0625904234e+02
 9.8346972568e-01	 6.4297146021e-01	-1.0639525398e+02
 1.1041236075e+00	 4.3711246762e-01	-5.9318743199e+01
 1.0952074264e+00	 4.5899558086e-01	-6.6428154868e+01
 1.0858199844e+00	 4.8078187513e-01	-7.3079431987e+01
 1.0759616992e+00	 5.0245663671e-01	-7.9180203455e+01
 1.0656335844e+00	 5.2400507045e-01	-8.4638241889e+01
 1.0548372581e+00	 5.4541232925e-01	-8.9361848425e+01
 1.0435749506e+00	 5.6666354432e-01	-9.3260244882e+01
 1.0318495091e+00	 5.8774385618e-01	-9.6243970935e+01
 1.0196644016e+00	 6.0863844618e-01	-9.8225283764e+01
 1.0070237178e+00	 6.2933256845e-01	-9.9118557610e+01
 9.9393216957e-01	 6.4981158213e-01	-9.8840680568e+01
 1.1157459613e+00	 4.4171365148e-01	-6.7381876691e+01
 1.1067359256e+00	 4.6382711329e-01	-7.2069286659e+01
 1.0972496685e+00	 4.8584273697e-01	-7.6418981663e+01
 1.0872876119e+00	 5.0774565394e-01	-8.0370942324e+01
 1.0768507800e+00	 5.2952091329e-01	-8.3865313653e+01
 1.0659408082e+00	 5.5115351166e-01	-8.6842655739e+01
 1.0545599501e+00	 5.7262842373e-01	-8.9244198940e+01
 1.0427110829e+00	 5.9393063361e-01	-9.1012102030e+01
 1.0303977110e+00	 6.1504516667e-01	-9.2089711652e+01
 1.0176239675e+00	 6.3595712180e-01	-9.2421821411e+01
 1.0043946135e+00	 6.5665170405e-01	-9.1954928852e+01
 1.1273683150e+00	 4.4631483535e-01	-7.3663766283e+01
 1.1182644248e+00	 4.6865864572e-01	-7.6190971838e+01
 1.1086793525e+00	 4.9090359881e-01	-7.8498032886e+01
 1.0986135245e+00	 5.1303467116e-01	-8.0556775491e+01
 1.0880679756e+00	 5.3503675614e-01	-8.2339210271e+01
 1.0770443583e+00	 5.5689469407e-01	-8.3817650733e+01
 1.0655449496e+00	 5.7859330314e-01	-8.4964833284e+01
 1.0535726567e+00	 6.0011741104e-01	-8.5754038169e+01
 1.0411310205e+00	 6.2145188715e-01	-8.6159210574e+01
 1.0282242171e+00	 6.4258167515e-01	-8.6155081091e+01
 1.0148570573e+00	 6.6349182596e-01	-8.5717284728e+01
 1.1389906688e+00	 4.5091601921e-01	-7.8218917318e+01
 1.1297929240e+00	 4.7349017814e-01	-7.8839700802e+01
 1.1201090366e+00	 4.9596446065e-01	-7.9355148368e+01
 1.1099394371e+00	 5.1832368839e-01	-7.9768440743e+01
 1.0992851712e+00	 5.4055259898e-01	-8.0082962876e+01
 1.0881479084e+00	 5.6263587648e-01	-8.0302291635e+01
 1.0765299490e+00	 5.8455818255e-01	-8.0430182359e+01
 1.0644342305e+00	 6.0630418848e-01	-8.0470554375e+01
 1.0518643300e+00	 6.2785860764e-01	-8.0427475514e+01
 1.0388244668e+00	 6.4920622850e-01	-8.0305145746e+01
 1.0253195012e+00	 6.7033194788e-01	-8.0107879998e+01
 1.1506130226e+00	 4.5551720308e-01	-8.1099633169e+01
 1.1413214233e+00	 4.7832171057e-01	-8.0060085829e+01
 1.1315387206e+00	 5.0102532249e-01	-7.9027333031e+01
 1.1212653497e+00	 5.2361270561e-01	-7.8035434250e+01
 1.1105023669e+00	 5.4606844183e-01	-7.7118672385e+01
 1.0992514584e+00	 5.6837705889e-01	-7.6311412443e+01
 1.0875149485e+00	 5.9052306196e-01	-7.5647956352e+01
 1.0752958043e+00	 6.1249096591e-01	-7.5162394738e+01
 1.0625976395e+00	 6.3426532812e-01	-7.4888456602e+01
 1.0494247165e+00	 6.5583078185e-01	-7.4859357848e+01
 1.0357819451e+00	 6.7717206979e-01	-7.5107649645e+01
 1.1622353763e+00	 4.6011838694e-01	-8.2356125332e+01
 1.1528499225e+00	 4.8315324299e-01	-7.9894954982e+01
 1.1429684046e+00	 5.0608618433e-01	-7.7550111891e+01
 1.1325912624e+00	 5.2890172284e-01	-7.5386072648e+01
 1.1217195625e+00	 5.5158428467e-01	-7.3467556001e+01
 1.1103550085e+00	 5.7411824130e-01	-7.1859254144e+01
 1.0984999480e+00	 5.9648794137e-01	-7.0625557403e+01
 1.0861573780e+00	 6.1867774334e-01	-6.9830273960e+01
 1.0733309490e+00	 6.4067204861e-01	-6.9536346352e+01
 1.0600249661e+00	 6.6245533520e-01	-6.9805566577e+01
 1.0462443890e+00	 6.8401219171e-01	-7.0698291671e+01
 9.4161995014e-01	 6.1561097256e-01	-1.4374828520e+02
 9.2879534623e-01	 6.3479461628e-01	-1.3648909217e+02
 9.1555429058e-01	 6.5374715376e-01	-1.2825847492e+02
 9.0190299231e-01	 6.7245519740e-01	-1.1917745675e+02
 8.8784822886e-01	 6.9090558151e-01	-1.0937097050e+02
 8.7339733604e-01	 7.0908539221e-01	-9.8967375188e+01
 8.5855819624e-01	 7.2698199683e-01	-8.8097949551e+01
 8.4333922472e-01	 7.4458307267e-01	-7.6896365405e+01
 8.2774935416e-01	 7.6187663485e-01	-6.5498144314e+01
 8.1179801747e-01	 7.7885106335e-01	-5.4040100995e+01
 7.9549512885e-01	 7.9549512885e-01	-4.2659777123e+01
 9.5208239402e-01	 6.2245109447e-01	-1.3329271010e+02
 9.3911529451e-01	 6.4184788979e-01	-1.2756154230e+02
 9.2572711602e-01	 6.6101101102e-01	-1.2101656503e+02
 9.1192413666e-01	 6.7992692181e-01	-1.1376061495e+02
 8.9771320917e-01	 6.9858231019e-01	-1.0589977877e+02
 8.8310175088e-01	 7.1696411878e-01	-9.7542981413e+01
 8.6809773175e-01	 7.3505957457e-01	-8.8801554845e+01
 8.5270966054e-01	 7.5285621791e-01	-7.9788790233e+01
 8.3694656920e-01	 7.7034193079e-01	-7.0619476330e+01
 8.2081799544e-01	 7.8750496405e-01	-6.1409427006e+01
 8.0433396361e-01	 8.0433396361e-01	-5.2275001052e+01
 9.6254483791e-01	 6.2929121639e-01	-1.2359822768e+02
 9.4943524280e-01	 6.4890116330e-01	-1.1923393635e+02
 9.3589994147e-01	 6.6827486828e-01	-1.1421022299e+02
 9.2194528102e-01	 6.8739864622e-01	-1.0861203392e+02
 9.0757818949e-01	 7.0625903887e-01	-1.0252691596e+02
 8.9280616572e-01	 7.2484284536e-01	-9.6044674981e+01
 8.7763726726e-01	 7.4313715231e-01	-8.9257019077e+01
 8.6208009637e-01	 7.6112936316e-01	-8.2257188394e+01
 8.4614378425e-01	 7.7880722673e-01	-7.5139574076e+01
 8.2983797340e-01	 7.9615886475e-01	-6.7999328766e+01
 8.1317279837e-01	 8.1317279837e-01	-6.0931971198e+01
 9.7300728180e-01	 6.3613133830e-01	-1.1464025457e+02
 9.5975519109e-01	 6.5595443681e-01	-1.1148688883e+02
 9.4607276692e-01	 6.7553872554e-01	-1.0782536532e+02
 9.3196642537e-01	 6.9487037063e-01	-1.0372302679e+02
 9.1744316981e-01	 7.1393576755e-01	-9.9249176471e+01
 9.0251058056e-01	 7.3272157193e-01	-9.4474806104e+01
 8.8717680277e-01	 7.5121473005e-01	-8.9472312390e+01
 8.7145053220e-01	 7.6940250841e-01	-8.4315203436e+01
 8.5534099929e-01	 7.8727252267e-01	-7.9077797173e+01
 8.3885795137e-01	 8.0481276545e-01	-7.3834913672e+01
 8.2201163313e-01	 8.2201163313e-01	-6.8661563380e+01
 9.8346972568e-01	 6.4297146021e-01	-1.0639525398e+02
 9.7007513938e-01	 6.6300771033e-01	-1.0430183965e+02
 9.5624559236e-01	 6.8280258280e-01	-1.0184850833e+02
 9.4198756973e-01	 7.0234209505e-01	-9.9085276830e+01
 9.2730815012e-01	 7.2161249623e-01	-9.6063491625e+01
 9.1221499541e-01	 7.4060029851e-01	-9.2835625516e+01
 8.9671633828e-01	 7.5929230779e-01	-8.9455066312e+01
 8.8082096802e-01	 7.7767565366e-01	-8.5975898887e+01
 8.6453821433e-01	 7.9573781861e-01	-8.2452681991e+01
 8.4787792934e-01	 8.1346666615e-01	-7.8940221293e+01
 8.3085046789e-01	 8.3085046789e-01	-7.5493340130e+01
 9.9393216957e-01	 6.4981158213e-01	-9.8840680568e+01
 9.8039508766e-01	 6.7006098384e-01	-9.7661010646e+01
 9.6641841781e-01	 6.9006644006e-01	-9.6266736552e+01
 9.5200871408e-01	 7.0981381946e-01	-9.4690817976e+01
 9.3717313044e-01	 7.2928922491e-01	-9.2966922461e+01
 9.2191941025e-01	 7.4847902509e-01	-9.1129289705e+01
 9.0625587379e-01	 7.6736988553e-01	-8.9212591580e+01
 8.9019140385e-01	 7.8594879891e-01	-8.7251788774e+01
 8.7373542937e-01	 8.0420311455e-01	-8.5281984976e+01
 8.5689790731e-01	 8.2212056685e-01	-8.3338279570e+01
 8.3968930266e-01	 8.3968930266e-01	-8.1455619817e+01
 1.0043946135e+00	 6.5665170405e-01	-9.1954928852e+01
 9.9071503595e-01	 6.7711425735e-01	-9.1547364889e+01
 9.7659124326e-01	 6.9733029732e-01	-9.1067673129e+01
 9.6202985844e-01	 7.1728554387e-01	-9.0532016583e+01
 9.4703811076e-01	 7.3696595359e-01	-8.9956652977e+01
 9.3162382509e-01	 7.5635775167e-01	-8.9357865820e+01
 9.1579540930e-01	 7.7544746327e-01	-8.8751894840e+01
 8.9956183968e-01	 7.9422194416e-01	-8.8154866242e+01
 8.8293264442e-01	 8.1266841049e-01	-8.7582723266e+01
 8.6591788528e-01	 8.3077446755e-01	-8.7051157501e+01
 8.4852813742e-01	 8.4852813742e-01	-8.6575541440e+01
 1.0148570573e+00	 6.6349182596e-01	-8.5717284728e+01
 1.0010349842e+00	 6.8416753086e-01	-8.5944568451e+01
 9.8676406871e-01	 7.0459415459e-01	-8.6239452062e+01
 9.7205100279e-01	 7.2475726829e-01	-8.6601554275e+01
 9.5690309108e-01	 7.4464268227e-01	-8.7029983788e+01
 9.4132823993e-01	 7.6423647825e-01	-8.7523336270e+01
 9.2533494481e-01	 7.8352504101e-01	-8.8079694320e+01
 9.0893227550e-01	 8.0249508941e-01	-8.8696630402e+01
 8.9212985946e-01	 8.2113370643e-01	-8.9371212800e+01
 8.7493786325e-01	 8.3942836826e-01	-9.0100014566e+01
 8.5736697218e-01	 8.5736697218e-01	-9.0879125414e+01
 1.0253195012e+00	 6.7033194788e-01	-8.0107879998e+01
 1.0113549325e+00	 6.9122080438e-01	-8.0836954540e+01
 9.9693689416e-01	 7.1185801185e-01	-8.1770692137e+01
 9.8207214715e-01	 7.3222899270e-01	-8.2892411857e+01
 9.6676807139e-01	 7.5231941096e-01	-8.4184326171e+01
 9.5103265477e-01	 7.7211520483e-01	-8.5627603047e+01
 9.3487448032e-01	 7.9160261875e-01	-8.7202434543e+01
 9.1830271133e-01	 8.1076823466e-01	-8.8888111527e+01
 9.0132707451e-01	 8.2959900237e-01	-9.0663104087e+01
 8.8395784122e-01	 8.4808226896e-01	-9.2505147130e+01
 8.6620580695e-01	 8.6620580695e-01	-9.4391330644e+01
 1.0357819451e+00	 6.7717206979e-01	-7.5107649645e+01
 1.0216748808e+00	 6.9827407789e-01	-7.6209489808e+01
 1.0071097196e+00	 7.1912186911e-01	-7.7650472441e+01
 9.9209329151e-01	 7.3970071712e-01	-7.9397854202e+01
 9.7663305171e-01	 7.5999613964e-01	-8.1417196479e+01
 9.6073706962e-01	 7.7999393141e-01	-8.3672491784e+01
 9.4441401583e-01	 7.9968019649e-01	-8.6126300148e+01
 9.2767314716e-01	 8.1904137991e-01	-8.8739894737e+01
 9.1052428955e-01	 8.3806429832e-01	-9.1473415810e+01
 8.9297781919e-01	 8.5673616966e-01	-9.4286032030e+01
 8.7504464171e-01	 8.7504464171e-01	-9.7136108129e+01
 1.0462443890e+00	 6.8401219171e-01	-7.0698291671e+01
 1.0319948291e+00	 7.0532735141e-01	-7.2047742671e+01
 1.0172825451e+00	 7.2638572638e-01	-7.3868309343e+01
 1.0021144359e+00	 7.4717244154e-01	-7.6111416048e+01
 9.8649803203e-01	 7.6767286833e-01	-7.8726210879e+01
 9.7044148446e-01	 7.8787265799e-01	-8.1659755570e+01
 9.5395355135e-01	 8.0775777424e-01	-8.4857228877e+01
 9.3704358299e-01	 8.2731452517e-01	-8.8262142246e+01
 9.1972150459e-01	 8.4652959426e-01	-9.1816566416e+01
 9.0199779716e-01	 8.6539007037e-01	-9.5461367549e+01
 8.8388347647e-01	 8.8388347647e-01	-9.9136451352e+01
 7.9549512885e-01	 7.9549512885e-01	-4.2659777123e+01
 7.7885106335e-01	 8.1179801747e-01	-3.3581216863e+01
 7.6187663485e-01	 8.2774935416e-01	-2.9199468701e+01
 7.4458307267e-01	 8.4333922472e-01	-2.9292238321e+01
 7.2698199683e-01	 8.5855819624e-01	-3.3620678363e+01
 7.0908539221e-01	 8.7339733604e-01	-4.1930468542e+01
 6.9090558151e-01	 8.8784822886e-01	-5.3952973257e+01
 6.7245519740e-01	 9.0190299231e-01	-6.9406468429e+01
 6.5374715376e-01	 9.1555429058e-01	-8.7997428807e+01
 6.3479461628e-01	 9.2879534623e-01	-1.0942186658e+02
 6.1561097256e-01	 9.4161995014e-01	-1.3336671174e+02
 8.0433396361e-01	 8.0433396361e-01	-5.2275001052e+01
 7.8750496405e-01	 8.2081799544e-01	-4.2400029255e+01
 7.7034193079e-01	 8.3694656920e-01	-3.6394340581e+01
 7.5285621791e-01	 8.5270966054e-01	-3.4080475365e+01
 7.3505957457e-01	 8.6809773175e-01	-3.5267180764e+01
 7.1696411878e-01	 8.8310175088e-01	-3.9750281095e+01
 6.9858231019e-01	 8.9771320917e-01	-4.7313613146e+01
 6.7992692181e-01	 9.1192413666e-01	-5.7730019775e+01
 6.6101101102e-01	 9.2572711602e-01	-7.0762394655e+01
 6.4184788979e-01	 9.3911529451e-01	-8.6164770709e+01
 6.2245109447e-01	 9.5208239402e-01	-1.0368344446e+02
 8.1317279837e-01	 8.1317279837e-01	-6.0931971198e+01
 7.9615886475e-01	 8.2983797340e-01	-5.0625469439e+01
 7.7880722673e-01	 8.4614378425e-01	-4.3378111130e+01
 7.6112936316e-01	 8.6208009637e-01	-3.9056517505e+01
 7.4313715231e-01	 8.7763726726e-01	-3.7516235267e+01
 7.2484284536e-01	 8.9280616572e-01	-3.8602400112e+01
 7.0625903887e-01	 9.0757818949e-01	-4.2150452880e+01
 6.8739864622e-01	 9.2194528102e-01	-4.7986903180e+01
 6.6827486828e-01	 9.3589994147e-01	-5.5930135000e+01
 6.4890116330e-01	 9.4943524280e-01	-6.5791248480e+01
 6.2929121639e-01	 9.6254483791e-01	-7.7374931825e+01
 8.2201163313e-01	 8.2201163313e-01	-6.8661563380e+01
 8.0481276545e-01	 8.3885795137e-01	-5.8276642598e+01
 7.8727252267e-01	 8.5534099929e-01	-5.0157553961e+01
 7.6940250841e-01	 8.7145053220e-01	-4.4214270160e+01
 7.5121473005e-01	 8.8717680277e-01	-4.0348368120e+01
 7.3272157193e-01	 9.0251058056e-01	-3.8453488570e+01
 7.1393576755e-01	 9.1744316981e-01	-3.8415836067e+01
 6.9487037063e-01	 9.3196642537e-01	-4.0114715830e+01
 6.7553872554e-01	 9.4607276692e-01	-4.3423103505e+01
 6.5595443681e-01	 9.5975519109e-01	-4.8208243682e+01
 6.3613133830e-01	 9.7300728180e-01	-5.4332272859e+01
 8.3085046789e-01	 8.3085046789e-01	-7.5493340130e+01
 8.1346666615e-01	 8.4787792934e-01	-6.5371841516e+01
 7.9573781861e-01	 8.6453821433e-01	-5.6739155044e+01
 7.7767565366e-01	 8.8082096802e-01	-4.9547898697e+01
 7.5929230779e-01	 8.9671633828e-01	-4.3744934849e+01
 7.4060029851e-01	 9.1221499541e-01	-3.9271628651e+01
 7.2161249623e-01	 9.2730815012e-01	-3.6064134861e+01
 7.0234209505e-01	 9.4198756973e-01	-3.4053710966e+01
 6.8280258280e-01	 9.5624559236e-01	-3.3167054292e+01
 6.6300771033e-01	 9.7007513938e-01	-3.3326660564e+01
 6.4297146021e-01	 9.8346972568e-01	-3.4451201289e+01
 8.3968930266e-01	 8.3968930266e-01	-8.1455619817e+01
 8.2212056685e-01	 8.5689790731e-01	-7.1928589335e+01
 8.0420311455e-01	 8.7373542937e-01	-6.3129127839e+01
 7.8594879891e-01	 8.9019140385e-01	-5.5051814742e+01
 7.6736988553e-01	 9.0625587379e-01	-4.7688076607e+01
 7.4847902509e-01	 9.2191941025e-01	-4.1026247046e+01
 7.2928922491e-01	 9.3717313044e-01	-3.5051643191e+01
 7.0981381946e-01	 9.5200871408e-01	-2.9746658086e+01
 6.9006644006e-01	 9.6641841781e-01	-2.5090868230e+01
 6.7006098384e-01	 9.8039508766e-01	-2.1061155379e+01
 6.4981158213e-01	 9.9393216957e-01	-1.7631841605e+01
 8.4852813742e-01	 8.4852813742e-01	-8.6575541440e+01
 8.3077446755e-01	 8.6591788528e-01	-7.7963679635e+01
 8.1266841049e-01	 8.8293264442e-01	-6.9333427490e+01
 7.9422194416e-01	 8.9956183968e-01	-6.0720663351e+01
 7.7544746327e-01	 9.1579540930e-01	-5.2160679251e+01
 7.5635775167e-01	 9.3162382509e-01	-4.3688044923e+01
 7.3696595359e-01	 9.4703811076e-01	-3.5336476666e+01
 7.1728554387e-01	 9.6202985844e-01	-2.7138711886e+01
 6.9733029732e-01	 9.7659124326e-01	-1.9126390081e+01
 6.7711425735e-01	 9.9071503595e-01	-1.1329940965e+01
 6.5665170405e-01	 1.0043946135e+00	-3.7784803693e+00
 8.5736697218e-01	 8.5736697218e-01	-9.0879125414e+01
 8.3942836826e-01	 8.7493786325e-01	-8.3493214039e+01
 8.2113370643e-01	 8.9212985946e-01	-7.5357764136e+01
 8.0249508941e-01	 9.0893227550e-01	-6.6549310976e+01
 7.8352504101e-01	 9.2533494481e-01	-5.7146334954e+01
 7.6423647825e-01	 9.4132823993e-01	-4.7228932231e+01
 7.4464268227e-01	 9.5690309108e-01	-3.6878478667e+01
 7.2475726829e-01	 9.7205100279e-01	-2.6177289310e+01
 7.0459415459e-01	 9.8676406871e-01	-1.5208275719e+01
 6.8416753086e-01	 1.0010349842e+00	-4.0546034119e+00
 6.6349182596e-01	 1.0148570573e+00	 7.2006483272e+00
 8.6620580695e-01	 8.6620580695e-01	-9.4391330644e+01
 8.4808226896e-01	 8.8395784122e-01	-8.8532637511e+01
 8.2959900237e-01	 9.0132707451e-01	-8.1207615404e+01
 8.1076823466e-01	 9.1830271133e-01	-7.2532834164e+01
 7.9160261875e-01	 9.3487448032e-01	-6.2629306162e+01
 7.7211520483e-01	 9.5103265477e-01	-5.1621966020e+01
 7.5231941096e-01	 9.6676807139e-01	-3.9639132195e+01
 7.3222899270e-01	 9.8207214715e-01	-2.6811954122e+01
 7.1185801185e-01	 9.9693689416e-01	-1.3273848700e+01
 6.9122080438e-01	 1.0113549325e+00	 8.4007004768e-01
 6.7033194788e-01	 1.0253195012e+00	 1.5393564270e+01
 8.7504464171e-01	 8.7504464171e-01	-9.7136108129e+01
 8.5673616966e-01	 8.9297781919e-01	-9.3096771517e+01
 8.3806429832e-01	 9.1052428955e-01	-8.6888238150e+01
 8.1904137991e-01	 9.2767314716e-01	-7.8666508941e+01
 7.9968019649e-01	 9.4441401583e-01	-6.8594491740e+01
 7.7999393141e-01	 9.6073706962e-01	-5.6841292508e+01
 7.5999613964e-01	 9.7663305171e-01	-4.3581477058e+01
 7.3970071712e-01	 9.9209329151e-01	-2.8994308482e+01
 7.1912186911e-01	 1.0071097196e+00	-1.3262965525e+01
 6.9827407789e-01	 1.0216748808e+00	 3.4262527152e+00
 6.7717206979e-01	 1.0357819451e+00	 2.0884730326e+01
 8.8388347647e-01	 8.8388347647e-01	-9.9136451352e+01
 8.6539007037e-01	 9.0199779716e-01	-9.7199845200e+01
 8.4652959426e-01	 9.1972150459e-01	-9.2404679499e+01
 8.2731452517e-01	 9.3704358299e-01	-8.4945800839e+01
 8.0775777424e-01	 9.5395355135e-01	-7.5027395147e+01
 7.8787265799e-01	 9.7044148446e-01	-6.2862092614e+01
 7.6767286833e-01	 9.8649803203e-01	-4.8670032025e+01
 7.4717244154e-01	 1.0021144359e+00	-3.2677891018e+01
 7.2638572638e-01	 1.0172825451e+00	-1.5117888997e+01
 7.0532735141e-01	 1.0319948291e+00	 3.7732304034e+00
 6.8401219171e-01	 1.0462443890e+00	 2.3755230291e+01
 6.1561097256e-01	 9.4161995014e-01	-1.3336671174e+02
 5.9620980170e-01	 9.5402246954e-01	-1.2057682701e+02
 5.7660484377e-01	 9.6599785412e-01	-9.2592197428e+01
 5.5680996903e-01	 9.7754164025e-01	-5.0875624709e+01
 5.3683914726e-01	 9.8864995322e-01	 3.0800262355e+00
 5.1670641719e-01	 9.9931950770e-01	 6.7758542008e+01
 4.9642585623e-01	 1.0095476063e+00	 1.4162706302e+02
 4.7601155058e-01	 1.0193321361e+00	 2.2314272988e+02
 4.5547756592e-01	 1.0286715642e+00	 3.1075923200e+02
 4.3483791872e-01	 1.0375649302e+00	 4.0293321861e+02
 4.1410654828e-01	 1.0460118387e+00	 4.9813053448e+02
 6.2245109447e-01	 9.5208239402e-01	-1.0368344446e+02
 6.0283435505e-01	 9.6462271920e-01	-9.8394404910e+01
 5.8301156425e-01	 9.7673116361e-01	-7.9988870605e+01
 5.6299674646e-01	 9.8840321402e-01	-4.9741198564e+01
 5.4280402667e-01	 9.9963495269e-01	-8.9518354956e+00
 5.2244759960e-01	 1.0104230578e+00	 4.1058540853e+01
 5.0194169907e-01	 1.0207648019e+00	 9.8954868982e+01
 4.8130056781e-01	 1.0306580488e+00	 1.6339350163e+02
 4.6053842777e-01	 1.0401012482e+00	 2.3302791790e+02
 4.3966945115e-01	 1.0490934295e+00	 3.0651431483e+02
 4.1870773215e-01	 1.0576341925e+00	 3.8251704549e+02
 6.2929121639e-01	 9.6254483791e-01	-7.7374931825e+01
 6.0945890840e-01	 9.7522296885e-01	-7.8047129350e+01
 5.8941828473e-01	 9.8746447310e-01	-6.7640693289e+01
 5.6918352389e-01	 9.9926478780e-01	-4.7244796558e+01
 5.4876890608e-01	 1.0106199522e+00	-1.7970783213e+01
 5.2818878201e-01	 1.0215266079e+00	 1.9052846505e+01
 5.0745754192e-01	 1.0319819975e+00	 6.2685440806e+01
 4.8658958503e-01	 1.0419839614e+00	 1.1177915817e+02
 4.6559928961e-01	 1.0515309323e+00	 1.6518385513e+02
 4.4450098358e-01	 1.0606219287e+00	 2.2175187010e+02
 4.2330891602e-01	 1.0692565462e+00	 2.8034267541e+02
 6.3613133830e-01	 9.7300728180e-01	-5.4332272859e+01
 6.1608346175e-01	 9.8582321851e-01	-5.9475763915e+01
 5.9582500522e-01	 9.9819778258e-01	-5.5539396497e+01
 5.7537030132e-01	 1.0101263616e+00	-4.3430314822e+01
 5.5473378549e-01	 1.0216049516e+00	-2.4073968896e+01
 5.3392996442e-01	 1.0326301579e+00	 1.5900687303e+00
 5.1297338476e-01	 1.0431991931e+00	 3.2612276897e+01
 4.9187860226e-01	 1.0533098740e+00	 6.8037323354e+01
 4.7066015145e-01	 1.0629606163e+00	 1.0690813979e+02
 4.4933251601e-01	 1.0721504279e+00	 1.4826990950e+02
 4.2791009988e-01	 1.0808789000e+00	 1.9117394440e+02
 6.4297146021e-01	 9.8346972568e-01	-3.4451201289e+01
 6.2270801510e-01	 9.9642346817e-01	-4.2623593503e+01
 6.0223172570e-01	 1.0089310921e+00	-4.3677063723e+01
 5.8155707875e-01	 1.0209879354e+00	-3.8339782169e+01
 5.6069866490e-01	 1.0325899511e+00	-2.7354410996e+01
 5.3967114683e-01	 1.0437337080e+00	-1.1474741162e+01
 5.1848922761e-01	 1.0544163887e+00	 8.5376623776e+00
 4.9716761948e-01	 1.0646357866e+00	 3.1916785351e+01
 4.7572101329e-01	 1.0743903004e+00	 5.7895437779e+01
 4.5416404844e-01	 1.0836789271e+00	 8.5708456527e+01
 4.3251128375e-01	 1.0925012538e+00	 1.1459581804e+02
 6.4981158213e-01	 9.9393216957e-01	-1.7631841605e+01
 6.2933256845e-01	 1.0070237178e+00	-2.7436291617e+01
 6.0863844618e-01	 1.0196644016e+00	-3.2046112386e+01
 5.8774385618e-01	 1.0318495091e+00	-3.2013458372e+01
 5.6666354432e-01	 1.0435749506e+00	-2.7901211986e+01
 5.4541232925e-01	 1.0548372581e+00	-2.0280429341e+01
 5.2400507045e-01	 1.0656335844e+00	-9.7277933698e+00
 5.0245663671e-01	 1.0759616992e+00	 3.1769091292e+00
 4.8078187513e-01	 1.0858199844e+00	 1.7853270623e+01
 4.5899558086e-01	 1.0952074264e+00	 3.3722690998e+01
 4.3711246762e-01	 1.1041236075e+00	 5.0210736493e+01
 6.5665170405e-01	 1.0043946135e+00	-3.7784803693e+00
 6.3595712180e-01	 1.0176239675e+00	-1.3861795956e+01
 6.1504516667e-01	 1.0303977110e+00	-2.0639276438e+01
 5.9393063361e-01	 1.0427110829e+00	-2.4489926301e+01
 5.7262842373e-01	 1.0545599501e+00	-2.5799762318e+01
 5.5115351166e-01	 1.0659408082e+00	-2.4960057293e+01
 5.2952091329e-01	 1.0768507800e+00	-2.2365590253e+01
 5.0774565394e-01	 1.0872876119e+00	-1.8412914449e+01
 4.8584273697e-01	 1.0972496685e+00	-1.3498654107e+01
 4.6382711329e-01	 1.1067359256e+00	-8.0178402845e+00
 4.4171365148e-01	 1.1157459613e+00	-2.3622956212e+00
 6.6349182596e-01	 1.0148570573e+00	 7.2006483272e+00
 6.4258167515e-01	 1.0282242171e+00	-1.8501917010e+00
 6.2145188715e-01	 1.0411310205e+00	-9.4495900367e+00
 6.0011741104e-01	 1.0535726567e+00	-1.5806178350e+01
 5.7859330314e-01	 1.0655449496e+00	-2.1131931754e+01
 5.5689469407e-01	 1.0770443583e+00	-2.5641199998e+01
 5.3503675614e-01	 1.0880679756e+00	-2.9549744204e+01
 5.1303467116e-01	 1.0986135245e+00	-3.3073785415e+01
 4.9090359881e-01	 1.1086793525e+00	-3.6429070929e+01
 4.6865864572e-01	 1.1182644248e+00	-3.9829964115e+01
 4.4631483535e-01	 1.1273683150e+00	-4.3488563039e+01
 6.7033194788e-01	 1.0253195012e+00	 1.5393564270e+01
 6.4920622850e-01	 1.0388244668e+00	 8.6463980556e+00
 6.2785860764e-01	 1.0518643300e+00	 1.5296277680e+00
 6.0630418848e-01	 1.0644342305e+00	-5.9976975890e+00
 5.8455818255e-01	 1.0765299490e+00	-1.3976248998e+01
 5.6263587648e-01	 1.0881479084e+00	-2.2446225845e+01
 5.4055259898e-01	 1.0992851712e+00	-3.1447169013e+01
 5.1832368839e-01	 1.1099394371e+00	-4.1017779848e+01
 4.9596446065e-01	 1.1201090366e+00	-5.1195746135e+01
 4.7349017814e-01	 1.1297929240e+00	-6.2017576105e+01
 4.5091601921e-01	 1.1389906688e+00	-7.3518441434e+01
 6.7717206979e-01	 1.0357819451e+00	 2.0884730326e+01
 6.5583078185e-01	 1.0494247165e+00	 1.7673915238e+01
 6.3426532812e-01	 1.0625976395e+00	 1.2304787430e+01
 6.1249096591e-01	 1.0752958043e+00	 4.9014660171e+00
 5.9052306196e-01	 1.0875149485e+00	-4.4080704264e+00
 5.6837705889e-01	 1.0992514584e+00	-1.5492559597e+01
 5.4606844183e-01	 1.1105023669e+00	-2.8218035016e+01
 5.2361270561e-01	 1.1212653497e+00	-4.2448405630e+01
 5.0102532249e-01	 1.1315387206e+00	-5.8046031743e+01
 4.7832171057e-01	 1.1413214233e+00	-7.4872293769e+01
 4.5551720308e-01	 1.1506130226e+00	-9.2788150389e+01
 6.8401219171e-01	 1.0462443890e+00	 2.3755230291e+01
 6.6245533520e-01	 1.0600249661e+00	 2.5276463540e+01
 6.4067204861e-01	 1.0733309490e+00	 2.2882042433e+01
 6.1867774334e-01	 1.0861573780e+00	 1.6858623954e+01
 5.9648794137e-01	 1.0984999480e+00	 7.5002612969e+00
 5.7411824130e-01	 1.1103550085e+00	-4.8929295574e+00
 5.5158428467e-01	 1.1217195625e+00	-2.0016106269e+01
 5.2890172284e-01	 1.1325912624e+00	-3.7561030849e+01
 5.0608618433e-01	 1.1429684046e+00	-5.7217386203e+01
 4.8315324299e-01	 1.1528499225e+00	-7.8674070427e+01
 4.6011838694e-01	 1.1622353763e+00	-1.0162046120e+02
 4.1410654828e-01	 1.0460118387e+00	 4.9813053448e+02
 3.9329728964e-01	 1.0540124487e+00	 4.7200066087e+02
 3.7242384749e-01	 1.0615674627e+00	 4.2522220942e+02
 3.5149977102e-01	 1.0686781139e+00	 3.6046796869e+02
 3.3053842995e-01	 1.0753461519e+00	 2.8039875168e+02
 3.0955299173e-01	 1.0815738280e+00	 1.8765325625e+02
 2.8855639991e-01	 1.0873638784e+00	 8.4838385016e+01
 2.6756135392e-01	 1.0927195074e+00	-2.5479933225e+01
 2.4658029005e-01	 1.0976443689e+00	-1.4078538396e+02
 2.2562536386e-01	 1.1021425476e+00	-2.5861933877e+02
 2.0470843396e-01	 1.1062185395e+00	-3.7658833353e+02
 4.1870773215e-01	 1.0576341925e+00	 3.8251704549e+02
 3.9766725953e-01	 1.0657236981e+00	 3.7163584559e+02
 3.7656189024e-01	 1.0733626567e+00	 3.4234562080e+02
 3.5540532403e-01	 1.0805523151e+00	 2.9699876704e+02
 3.3421107917e-01	 1.0872944425e+00	 2.3793788663e+02
 3.1299246941e-01	 1.0935913150e+00	 1.6748682634e+02
 2.9176258213e-01	 1.0994456993e+00	 8.7942117832e+01
 2.7053425785e-01	 1.1048608353e+00	 1.5648581297e+00
 2.4932007105e-01	 1.1098404175e+00	-8.9426937585e+01
 2.2813231235e-01	 1.1143885759e+00	-1.8286548350e+02
 2.0698297212e-01	 1.1185098566e+00	-2.7663984884e+02
 4.2330891602e-01	 1.0692565462e+00	 2.8034267541e+02
 4.0203722941e-01	 1.0774349476e+00	 2.8188203511e+02
 3.8069993299e-01	 1.0851578508e+00	 2.6722102162e+02
 3.5931087704e-01	 1.0924265164e+00	 2.3839709985e+02
 3.3788372839e-01	 1.0992427330e+00	 1.9744007135e+02
 3.1643194710e-01	 1.1056088019e+00	 1.4636427323e+02
 2.9496876435e-01	 1.1115275202e+00	 8.7161123411e+01
 2.7350716179e-01	 1.1170021632e+00	 2.1792045155e+01
 2.5205985205e-01	 1.1220364660e+00	-4.7818200843e+01
 2.3063926084e-01	 1.1266346042e+00	-1.1978775270e+02
 2.0925751027e-01	 1.1308011737e+00	-1.9228343241e+02
 4.2791009988e-01	 1.0808789000e+00	 1.9117394440e+02
 4.0640719929e-01	 1.0891461970e+00	 2.0239697930e+02
 3.8483797574e-01	 1.0969530448e+00	 1.9959838826e+02
 3.6321643005e-01	 1.1043007177e+00	 1.8450599065e+02
 3.4155637762e-01	 1.1111910236e+00	 1.5884202263e+02
 3.1987142478e-01	 1.1176262889e+00	 1.2431648078e+02
 2.9817494657e-01	 1.1236093411e+00	 8.2620756900e+01
 2.7648006572e-01	 1.1291434910e+00	 3.5421592114e+01
 2.5479963305e-01	 1.1342325145e+00	-1.5644625261e+01
 2.3314620932e-01	 1.1388806325e+00	-6.8977197254e+01
 2.1153204843e-01	 1.1430924908e+00	-1.2301607229e+02
 4.3251128375e-01	 1.0925012538e+00	 1.1459581804e+02
 4.1077716917e-01	 1.1008574464e+00	 1.3285299132e+02
 3.8897601848e-01	 1.1087482388e+00	 1.3923833588e+02
 3.6712198306e-01	 1.1161749189e+00	 1.3517514232e+02
 3.4522902683e-01	 1.1231393142e+00	 1.2208314966e+02
 3.2331090247e-01	 1.1296437759e+00	 1.0137301815e+02
 3.0138112879e-01	 1.1356911619e+00	 7.4441038720e+01
 2.7945296965e-01	 1.1412848189e+00	 4.2664102646e+01
 2.5753941405e-01	 1.1464285631e+00	 7.3949521693e+00
 2.3565315781e-01	 1.1511266608e+00	-3.0042270550e+01
 2.1380658658e-01	 1.1553838079e+00	-6.8356161684e+01
 4.3711246762e-01	 1.1041236075e+00	 5.0210736493e+01
 4.1514713906e-01	 1.1125686958e+00	 7.2936181178e+01
 3.9311406123e-01	 1.1205434329e+00	 8.5911558511e+01
 3.7102753607e-01	 1.1280491202e+00	 9.0260585526e+01
 3.4890167605e-01	 1.1350876048e+00	 8.7105412351e+01
 3.2675038015e-01	 1.1416612629e+00	 7.7562209050e+01
 3.0458731101e-01	 1.1477729828e+00	 6.2736935353e+01
 2.8242587358e-01	 1.1534261467e+00	 4.3721312435e+01
 2.6027919505e-01	 1.1586246116e+00	 2.1589013494e+01
 2.3816010630e-01	 1.1633726891e+00	-2.6079125422e+00
 2.1608112474e-01	 1.1676751250e+00	-2.7842372332e+01
 4.4171365148e-01	 1.1157459613e+00	-2.3622956212e+00
 4.1951710894e-01	 1.1242799453e+00	 2.2345737076e+01
 3.9725210398e-01	 1.1323386269e+00	 3.9398304068e+01
 3.7493308908e-01	 1.1399233214e+00	 4.9624349177e+01
 3.5257432527e-01	 1.1470358954e+00	 5.3853188476e+01
 3.3018985783e-01	 1.1536787499e+00	 5.2911196541e+01
 3.0779349323e-01	 1.1598548037e+00	 4.7618622564e+01
 2.8539877751e-01	 1.1655674746e+00	 3.8786551083e+01
 2.6301897605e-01	 1.1708206602e+00	 2.7214020261e+01
 2.4066705479e-01	 1.1756187174e+00	 1.3685308917e+01
 2.1835566290e-01	 1.1799664421e+00	-1.0325983747e+00
 4.4631483535e-01	 1.1273683150e+00	-4.3488563039e+01
 4.2388707882e-01	 1.1359911947e+00	-1.9206748661e+01
 4.0139014672e-01	 1.1441338209e+00	-5.1211806979e-01
 3.7883864208e-01	 1.1517975227e+00	 1.3134151226e+01
 3.5624697449e-01	 1.1589841859e+00	 2.2273149034e+01
 3.3362933551e-01	 1.1656962368e+00	 2.7446003943e+01
 3.1099967545e-01	 1.1719366245e+00	 2.9191732350e+01
 2.8837168144e-01	 1.1777088025e+00	 2.8045175414e+01
 2.6575875705e-01	 1.1830167087e+00	 2.4535033138e+01
 2.4317400327e-01	 1.1878647457e+00	 1.9182003645e+01
 2.2063020105e-01	 1.1922577592e+00	 1.2497034509e+01
 4.5091601921e-01	 1.1389906688e+00	-7.3518441434e+01
 4.2825704870e-01	 1.1477024441e+00	-5.1997912471e+01
 4.0552818947e-01	 1.1559290149e+00	-3.4021799399e+01
 3.8274419509e-01	 1.1636717240e+00	-1.9336891580e+01
 3.5991962371e-01	 1.1709324765e+00	-7.6858587418e+00
 3.3706881320e-01	 1.1777137238e+00	 1.1915919505e+00
 3.1420585767e-01	 1.1840184454e+00	 7.5575847647e+00
 2.9134458537e-01	 1.1898501303e+00	 1.1674976253e+01
 2.6849853805e-01	 1.1952127573e+00	 1.3806293590e+01
 2.4568095176e-01	 1.2001107741e+00	 1.4212715371e+01
 2.2290473921e-01	 1.2045490763e+00	 1.3153099286e+01
 4.5551720308e-01	 1.1506130226e+00	-9.2788150389e+01
 4.3262701858e-01	 1.1594136936e+00	-7.6293214056e+01
 4.0966623221e-01	 1.1677242090e+00	-6.1324666585e+01
 3.8664974809e-01	 1.1755459252e+00	-4.7910536370e+01
 3.6359227292e-01	 1.1828807671e+00	-3.6072921295e+01
 3.4050829088e-01	 1.1897312108e+00	-2.5828087694e+01
 3.1741203988e-01	 1.1961002663e+00	-1.7186594302e+01
 2.9431748930e-01	 1.2019914582e+00	-1.0153439453e+01
 2.7123831905e-01	 1.2074088058e+00	-4.7282296947e+00
 2.4818790024e-01	 1.2123568024e+00	-9.0536785725e-01
 2.2517927736e-01	 1.2168403934e+00	 1.3257413725e+00
 4.6011838694e-01	 1.1622353763e+00	-1.0162046120e+02
 4.3699698846e-01	 1.1711249430e+00	-9.2347495212e+01
 4.1380427495e-01	 1.1795194030e+00	-8.2606889700e+01
 3.9055530110e-01	 1.1874201265e+00	-7.2703670444e+01
 3.6726492214e-01	 1.1948290577e+00	-6.2935162057e+01
 3.4394776856e-01	 1.2017486978e+00	-5.3590041754e+01
 3.2061822210e-01	 1.2081820871e+00	-4.4947468414e+01
 2.9729039323e-01	 1.2141327860e+00	-3.7276289439e+01
 2.7397810005e-01	 1.2196048543e+00	-3.0834327160e+01
 2.5069484873e-01	 1.2246028307e+00	-2.5867745881e+01
 2.2745381552e-01	 1.2291317105e+00	-2.2610499985e+01
 2.0470843396e-01	 1.1062185395e+00	-3.7658833353e+02
 1.8384104718e-01	 1.1098772317e+00	-2.9094630194e+02
 1.6303442514e-01	 1.1131238818e+00	-2.0895663287e+02
 1.4229945221e-01	 1.1159640971e+00	-1.3258393146e+02
 1.2164666491e-01	 1.1184038130e+00	-6.3699413420e+01
 1.0108624261e-01	 1.1204492722e+00	-4.0777887724e+00
 8.0627999683e-02	 1.1221070028e+00	 4.4605259663e+01
 6.0281378857e-02	 1.1233837970e+00	 8.0775019381e+01
 4.0055445982e-02	 1.1242866900e+00	 1.0295913267e+02
 1.9958885975e-02	 1.1248229385e+00	 1.0978844495e+02
 0.0000000000e+00	 1.1250000000e+00	 9.9997342026e+01
 2.0698297212e-01	 1.1185098566e+00	-2.7663984884e+02
 1.8588372548e-01	 1.1222092009e+00	-2.0892494966e+02
 1.6484591875e-01	 1.1254919249e+00	-1.4437995883e+02
 1.4388055723e-01	 1.1283636981e+00	-8.4737339177e+01
 1.2299829452e-01	 1.1308305220e+00	-3.1647126324e+01
 1.0220942309e-01	 1.1328987086e+00	 1.3325819415e+01
 8.1523866346e-02	 1.1345748584e+00	 4.8704035921e+01
 6.0951171955e-02	 1.1358658392e+00	 7.3099171534e+01
 4.0500506492e-02	 1.1367787643e+00	 8.5213204086e+01
 2.0180651374e-02	 1.1373209711e+00	 8.3839186649e+01
 0.0000000000e+00	 1.1375000000e+00	 6.7861542052e+01
 2.0925751027e-01	 1.1308011737e+00	-1.9228343241e+02
 1.8792640379e-01	 1.1345411702e+00	-1.3983888390e+02
 1.6665741236e-01	 1.1378599681e+00	-9.0113442419e+01
 1.4546166226e-01	 1.1407632992e+00	-4.4611100073e+01
 1.2434992413e-01	 1.1432572311e+00	-4.7642008213e+00
 1.0333260356e-01	 1.1453481449e+00	 2.8068943806e+01
 8.2419733010e-02	 1.1470427139e+00	 5.2605982402e+01
 6.1620965054e-02	 1.1483478814e+00	 6.7642007507e+01
 4.0945567004e-02	 1.1492708386e+00	 7.2050610747e+01
 2.0402416774e-02	 1.1498190038e+00	 6.4784526618e+01
 0.0000000000e+00	 1.1500000000e+00	 4.4875884146e+01
 2.1153204843e-01	 1.1430924908e+00	-1.2301607229e+02
 1.8996908209e-01	 1.1468731394e+00	-8.3270795230e+01
 1.6846890598e-01	 1.1502280112e+00	-4.5824455659e+01
 1.4704276728e-01	 1.1531629003e+00	-1.1956128151e+01
 1.2570155374e-01	 1.1556839401e+00	 1.7116159099e+01
 1.0445578404e-01	 1.1577975813e+00	 4.0237448922e+01
 8.3315599674e-02	 1.1595105695e+00	 5.6317490941e+01
 6.2290758153e-02	 1.1608299236e+00	 6.4331999343e+01
 4.1390627515e-02	 1.1617629130e+00	 6.3323545585e+01
 2.0624182174e-02	 1.1623170364e+00	 5.2402100866e+01
 0.0000000000e+00	 1.1625000000e+00	 3.0745244755e+01
 2.1380658658e-01	 1.1553838079e+00	-6.8356161684e+01
 1.9201176039e-01	 1.1592051086e+00	-3.8821132403e+01
 1.7028039959e-01	 1.1625960543e+00	-1.1194525296e+01
 1.4862387231e-01	 1.1655625014e+00	 1.3466062853e+01
 1.2705318335e-01	 1.1681106491e+00	 3.4153651446e+01
 1.0557896451e-01	 1.1702470176e+00	 4.9913545191e+01
 8.4211466338e-02	 1.1719784251e+00	 5.9844681121e+01
 6.2960551253e-02	 1.1733119658e+00	 6.3100662589e+01
 4.1835688027e-02	 1.1742549873e+00	 5.8890490986e+01
 2.0845947575e-02	 1.1748150691e+00	 4.6479007512e+01
 0.0000000000e+00	 1.1750000000e+00	 2.5187058615e+01
 2.1608112474e-01	 1.1676751250e+00	-2.7842372332e+01
 1.9405443870e-01	 1.1715370779e+00	-6.1071677583e+00
 1.7209189320e-01	 1.1749640975e+00	 1.4081412184e+01
 1.5020497734e-01	 1.1779621024e+00	 3.1883917358e+01
 1.2840481296e-01	 1.1805373582e+00	 4.6501249804e+01
 1.0670214499e-01	 1.1826964540e+00	 5.7175981277e+01
 8.5107333003e-02	 1.1844462807e+00	 6.3193414607e+01
 6.3630344353e-02	 1.1857940079e+00	 6.3882396120e+01
 4.2280748539e-02	 1.1867470616e+00	 5.8615887766e+01
 2.1067712975e-02	 1.1873131017e+00	 4.6811308780e+01
 0.0000000000e+00	 1.1875000000e+00	 2.7930657782e+01
 2.1835566290e-01	 1.1799664421e+00	-1.0325983747e+00
 1.9609711700e-01	 1.1838690471e+00	 1.5237879027e+01
 1.7390338682e-01	 1.1873321406e+00	 3.0295708981e+01
 1.5178608236e-01	 1.1903617035e+00	 4.3516360954e+01
 1.2975644257e-01	 1.1929640672e+00	 5.4305553563e+01
 1.0782532546e-01	 1.1951458903e+00	 6.2100224376e+01
 8.6003199669e-02	 1.1969141363e+00	 6.6369308575e+01
 6.4300137453e-02	 1.1982760501e+00	 6.6614331963e+01
 4.2725809052e-02	 1.1992391360e+00	 6.2369824834e+01
 2.1289478376e-02	 1.1998111344e+00	 5.3203564119e+01
 0.0000000000e+00	 1.2000000000e+00	 3.8716651982e+01
 2.2063020105e-01	 1.1922577592e+00	 1.2497034509e+01
 1.9813979530e-01	 1.1962010164e+00	 2.5565662963e+01
 1.7571488043e-01	 1.1997001837e+00	 3.7728661202e+01
 1.5336718739e-01	 1.2027613046e+00	 4.8573291057e+01
 1.3110807219e-01	 1.2053907762e+00	 5.7707116488e+01
 1.0894850594e-01	 1.2075953267e+00	 6.4758629367e+01
 8.6899066335e-02	 1.2093819919e+00	 6.9377748321e+01
 6.4969930554e-02	 1.2107580923e+00	 7.1236194411e+01
 4.3170869564e-02	 1.2117312103e+00	 7.0027748054e+01
 2.1511243776e-02	 1.2123091670e+00	 6.5468392200e+01
 0.0000000000e+00	 1.2125000000e+00	 5.7296347291e+01
 2.2290473921e-01	 1.2045490763e+00	 1.3153099286e+01
 2.0018247361e-01	 1.2085329856e+00	 2.5213485451e+01
 1.7752637405e-01	 1.2120682269e+00	 3.6649123973e+01
 1.5494829242e-01	 1.2151609057e+00	 4.7256037538e+01
 1.3245970180e-01	 1.2178174853e+00	 5.6840755173e+01
 1.1007168642e-01	 1.2200447631e+00	 6.5220597602e+01
 8.7794933001e-02	 1.2218498475e+00	 7.2223899085e+01
 6.5639723655e-02	 1.2232401345e+00	 7.7690167769e+01
 4.3615930078e-02	 1.2242232846e+00	 8.1470186930e+01
 2.1733009177e-02	 1.2248071996e+00	 8.3426059731e+01
 0.0000000000e+00	 1.2250000000e+00	 8.3431200397e+01
 2.2517927736e-01	 1.2168403934e+00	 1.3257413725e+00
 2.0222515191e-01	 1.2208649548e+00	 1.4505019211e+01
 1.7933786766e-01	 1.2244362700e+00	 2.7315089264e+01
 1.5652939745e-01	 1.2275605068e+00	 3.9757795426e+01
 1.3381133141e-01	 1.2302441943e+00	 5.1835838791e+01
 1.1119486689e-01	 1.2324941994e+00	 6.3552726079e+01
 8.8690799668e-02	 1.2343177030e+00	 7.4912717172e+01
 6.6309516757e-02	 1.2357221767e+00	 8.5920772110e+01
 4.4060990591e-02	 1.2367153590e+00	 9.6582497860e+01
 2.1954774578e-02	 1.2373052323e+00	 1.0690409520e+02
 0.0000000000e+00	 1.2375000000e+00	 1.1689230595e+02
 2.2745381552e-01	 1.2291317105e+00	-2.2610499985e+01
 2.0426783021e-01	 1.2331969241e+00	-6.2490102820e+00
 1.8114936128e-01	 1.2368043131e+00	 9.9742290484e+00
 1.5811050247e-01	 1.2399601078e+00	 2.6264031651e+01
 1.3516296103e-01	 1.2426709033e+00	 4.2816561472e+01
 1.1231804737e-01	 1.2449436358e+00	 5.9818947655e+01
 8.9586666336e-02	 1.2467855586e+00	 7.7448960397e+01
 6.6979309859e-02	 1.2482042189e+00	 9.5874746485e+01
 4.4506051105e-02	 1.2492074333e+00	 1.1525462279e+02
 2.2176539980e-02	 1.2498032649e+00	 1.3573692576e+02
 0.0000000000e+00	 1.2500000000e+00	 1.5745991465e+02
 1.2500000000e+00	 0.0000000000e+00	 1.7232251316e+02
 1.2498032649e+00	 2.2176539980e-02	 1.2809257987e+02
 1.2492074333e+00	 4.4506051105e-02	 8.7796562272e+01
 1.2482042189e+00	 6.6979309859e-02	 5.1431528645e+01
 1.2467855586e+00	 8.9586666336e-02	 1.8980252228e+01
 1.2449436358e+00	 1.1231804737e-01	-9.5893830583e+00
 1.2426709033e+00	 1.3516296103e-01	-3.4324935842e+01
 1.2399601078e+00	 1.5811050247e-01	-5.5289913691e+01
 1.2368043131e+00	 1.8114936128e-01	-7.2564226849e+01
 1.2331969241e+00	 2.0426783021e-01	-8.6244583533e+01
 1.2291317105e+00	 2.2745381552e-01	-9.6444821099e+01
 1.2625000000e+00	 0.0000000000e+00	 1.6770453941e+02
 1.2623012976e+00	 2.2398305381e-02	 1.2601051114e+02
 1.2616995076e+00	 4.4951111618e-02	 8.7753053342e+01
 1.2606862611e+00	 6.7649102962e-02	 5.2930988254e+01
 1.2592534142e+00	 9.0482533003e-02	 2.1530539579e+01
 1.2573930721e+00	 1.1344122785e-01	-6.4751974238e+00
 1.2550976124e+00	 1.3651459064e-01	-3.1126749880e+01
 1.2523597089e+00	 1.5969160750e-01	-5.2478720087e+01
 1.2491723562e+00	 1.8296085490e-01	-7.0600192008e+01
 1.2455288933e+00	 2.0631050852e-01	-8.5575086314e+01
 1.2414230276e+00	 2.2972835367e-01	-9.7502458925e+01
 1.2750000000e+00	 0.0000000000e+00	 1.6207801789e+02
 1.2747993302e+00	 2.2620070782e-02	 1.2305781726e+02
 1.2741915820e+00	 4.5396172132e-02	 8.6987559204e+01
 1.2731683033e+00	 6.8318896063e-02	 5.3867824099e+01
 1.2717212698e+00	 9.1378399670e-02	 2.3688266801e+01
 1.2698425085e+00	 1.1456440833e-01	-3.5728498727e+00
 1.2675243214e+00	 1.3786622026e-01	-2.7949090629e+01
 1.2647593100e+00	 1.6127271253e-01	-4.9486247680e+01
 1.2615403994e+00	 1.8477234851e-01	-6.8242700690e+01
 1.2578608626e+00	 2.0835318682e-01	-8.4289732197e+01
 1.2537143447e+00	 2.3200289183e-01	-9.7711794065e+01
 1.2875000000e+00	 0.0000000000e+00	 1.5547232158e+02
 1.2872973629e+00	 2.2841836183e-02	 1.1925985562e+02
 1.2866836563e+00	 4.5841232645e-02	 8.5521109420e+01
 1.2856503455e+00	 6.8988689165e-02	 5.4258425626e+01
 1.2841891254e+00	 9.2274266337e-02	 2.5464871465e+01
 1.2822919448e+00	 1.1568758880e-01	-8.7616519276e-01
 1.2799510304e+00	 1.3921784987e-01	-2.4791353713e+01
 1.2771589111e+00	 1.6285381756e-01	-4.6317768628e+01
 1.2739084425e+00	 1.8658384213e-01	-6.5503203739e+01
 1.2701928318e+00	 2.1039586513e-01	-8.2406448514e+01
 1.2660056618e+00	 2.3427742998e-01	-9.7097522967e+01
 1.3000000000e+00	 0.0000000000e+00	 1.4791569375e+02
 1.2997953955e+00	 2.3063601584e-02	 1.1464100832e+02
 1.2991757306e+00	 4.6286293158e-02	 8.3373924764e+01
 1.2981323876e+00	 6.9658482265e-02	 5.4118551946e+01
 1.2966569810e+00	 9.3170133003e-02	 2.6871351249e+01
 1.2947413812e+00	 1.1681076928e-01	 1.6207943174e+00
 1.2923777395e+00	 1.4056947948e-01	-2.1652958014e+01
 1.2895585121e+00	 1.6443492259e-01	-4.2978352346e+01
 1.2862764856e+00	 1.8839533574e-01	-6.2392711630e+01
 1.2825248010e+00	 2.1243854343e-01	-7.9942473145e+01
 1.2782969789e+00	 2.3655196814e-01	-9.5683392296e+01
 1.3125000000e+00	 0.0000000000e+00	 1.3943530183e+02
 1.3122934282e+00	 2.3285366984e-02	 1.0922472870e+02
 1.3116678050e+00	 4.6731353670e-02	 8.0565455732e+01
 1.3106144298e+00	 7.0328275366e-02	 5.3463361846e+01
 1.3091248366e+00	 9.4065999669e-02	 2.7918284882e+01
 1.3071908176e+00	 1.1793394976e-01	 3.9237401589e+00
 1.3048044485e+00	 1.4192110910e-01	-1.8533344573e+01
 1.3019581132e+00	 1.6601602761e-01	-3.9472875160e+01
 1.2986445288e+00	 1.9020682936e-01	-5.8921815440e+01
 1.2948567703e+00	 2.1448122173e-01	-7.6914387352e+01
 1.2905882961e+00	 2.3882650630e-01	-9.3492244161e+01
 1.3250000000e+00	 0.0000000000e+00	 1.3005728813e+02
 1.3247914608e+00	 2.3507132385e-02	 1.0303358513e+02
 1.3241598793e+00	 4.7176414182e-02	 7.7114418876e+01
 1.3230964720e+00	 7.0998068466e-02	 5.2307442109e+01
 1.3215926922e+00	 9.4961866334e-02	 2.8615851910e+01
 1.3196402539e+00	 1.1905713023e-01	 6.0381683022e+00
 1.3172311575e+00	 1.4327273871e-01	-1.5431975537e+01
 1.3143577143e+00	 1.6759713264e-01	-3.5806029417e+01
 1.3110125719e+00	 1.9201832297e-01	-5.5100706627e+01
 1.3071887395e+00	 2.1652390004e-01	-7.3338146753e+01
 1.3028796132e+00	 2.4110104445e-01	-9.0546058781e+01
 1.3375000000e+00	 0.0000000000e+00	 1.1980681771e+02
 1.3372894935e+00	 2.3728897785e-02	 9.6089302323e+01
 1.3366519536e+00	 4.7621474694e-02	 7.3038831105e+01
 1.3355785142e+00	 7.1667861566e-02	 5.0664834243e+01
 1.3340605477e+00	 9.5857732998e-02	 2.8973851344e+01
 1.3320896903e+00	 1.2018031071e-01	 7.9693692582e+00
 1.3296578666e+00	 1.4462436832e-01	-1.2348333178e+01
 1.3267573154e+00	 1.6917823767e-01	-3.1982332077e+01
 1.3233806150e+00	 1.9382981658e-01	-5.0939195709e+01
 1.3195207088e+00	 2.1856657834e-01	-6.9229110553e+01
 1.3151709303e+00	 2.4337558261e-01	-8.6865994763e+01
 1.3500000000e+00	 0.0000000000e+00	 1.0870812368e+02
 1.3497875261e+00	 2.3950663185e-02	 8.8412800446e+01
 1.3491440280e+00	 4.8066535206e-02	 6.8356042071e+01
 1.3480605564e+00	 7.2337654665e-02	 4.8549059726e+01
 1.3465284033e+00	 9.6753599662e-02	 2.9001719282e+01
 1.3445391266e+00	 1.2130349118e-01	 9.7224375908e+00
 1.3420845756e+00	 1.4597599793e-01	-9.2819189604e+00
 1.3391569165e+00	 1.7075934269e-01	-2.8006132840e+01
 1.3357486581e+00	 1.9564131020e-01	-4.6446729895e+01
 1.3318526780e+00	 2.2060925664e-01	-6.4602069162e+01
 1.3274622474e+00	 2.4565012076e-01	-8.2472427138e+01
 1.3625000000e+00	 0.0000000000e+00	 9.6784549906e+01
 1.3622855588e+00	 2.4172428585e-02	 8.0024231994e+01
 1.3616361023e+00	 4.8511595717e-02	 6.3082764778e+01
 1.3605425986e+00	 7.3007447764e-02	 4.5973143857e+01
 1.3589962589e+00	 9.7649466326e-02	 2.8708545552e+01
 1.3569885630e+00	 1.2242667166e-01	 1.1302280904e+01
 1.3545112846e+00	 1.4732762754e-01	-6.2322526590e+00
 1.3515565175e+00	 1.7234044772e-01	-2.3881621814e+01
 1.3481167013e+00	 1.9745280381e-01	-4.1632409754e+01
 1.3441846472e+00	 2.2265193494e-01	-5.9471270281e+01
 1.3397535645e+00	 2.4792465892e-01	-7.7384983306e+01
 1.3750000000e+00	 0.0000000000e+00	 8.4058591465e+01
 1.3747835914e+00	 2.4394193985e-02	 7.0943016693e+01
 1.3741281766e+00	 4.8956656228e-02	 5.7235104522e+01
 1.3730246408e+00	 7.3677240862e-02	 4.2949638314e+01
 1.3714641145e+00	 9.8545332989e-02	 2.8103089456e+01
 1.3694379993e+00	 1.2354985213e-01	 1.2713628343e+01
 1.3669379937e+00	 1.4867925715e-01	-3.1988715283e+00
 1.3639561186e+00	 1.7392155274e-01	-1.9612836769e+01
 1.3604847444e+00	 1.9926429742e-01	-3.6505004971e+01
 1.3565166165e+00	 2.2469461325e-01	-5.3850443573e+01
 1.3520448816e+00	 2.5019919707e-01	-7.1622577016e+01
 1.2291317105e+00	 2.2745381552e-01	-9.6444821099e+01
 1.2246028307e+00	 2.5069484873e-01	-9.5865007278e+01
 1.2196048543e+00	 2.7397810005e-01	-9.5393873876e+01
 1.2141327860e+00	 2.9729039323e-01	-9.4926631026e+01
 1.2081820871e+00	 3.2061822210e-01	-9.4355190590e+01
 1.2017486978e+00	 3.4394776856e-01	-9.3568485443e+01
 1.1948290577e+00	 3.6726492214e-01	-9.2452816921e+01
 1.1874201265e+00	 3.9055530110e-01	-9.0892229439e+01
 1.1795194030e+00	 4.1380427495e-01	-8.8768911079e+01
 1.1711249430e+00	 4.3699698846e-01	-8.5963618630e+01
 1.1622353763e+00	 4.6011838694e-01	-8.2356125332e+01
 1.2414230276e+00	 2.2972835367e-01	-9.7502458925e+01
 1.2368488590e+00	 2.5320179722e-01	-9.6151630531e+01
 1.2318009029e+00	 2.7671788104e-01	-9.4860601914e+01
 1.2262741139e+00	 3.0026329716e-01	-9.3539067125e+01
 1.2202639080e+00	 3.2382440432e-01	-9.2093982389e+01
 1.2137661847e+00	 3.4738724624e-01	-9.0429845568e+01
 1.2067773482e+00	 3.7093757136e-01	-8.8448999544e+01
 1.1992943278e+00	 3.9446085410e-01	-8.6051958652e+01
 1.1913145970e+00	 4.1794231770e-01	-8.3137757073e+01
 1.1828361924e+00	 4.4136695834e-01	-7.9604317839e+01
 1.1738577301e+00	 4.6471957081e-01	-7.5348840920e+01
 1.2537143447e+00	 2.3200289183e-01	-9.7711794065e+01
 1.2490948873e+00	 2.5570874570e-01	-9.5729907414e+01
 1.2439969514e+00	 2.7945766204e-01	-9.3760177281e+01
 1.2384154418e+00	 3.0323620109e-01	-9.1726563353e+01
 1.2323457289e+00	 3.2703058654e-01	-8.9550839833e+01
 1.2257836717e+00	 3.5082672392e-01	-8.7152835563e+01
 1.2187256388e+00	 3.7461022057e-01	-8.4450693902e+01
 1.2111685290e+00	 3.9836640711e-01	-8.1361151568e+01
 1.2031097911e+00	 4.2208036044e-01	-7.7799835488e+01
 1.1945474419e+00	 4.4573692822e-01	-7.3681576470e+01
 1.1854800839e+00	 4.6932075467e-01	-6.8920738373e+01
 1.2660056618e+00	 2.3427742998e-01	-9.7097522967e+01
 1.2613409156e+00	 2.5821569419e-01	-9.4620456880e+01
 1.2561930000e+00	 2.8219744304e-01	-9.2109105444e+01
 1.2505567696e+00	 3.0620910502e-01	-8.9501482060e+01
 1.2444275498e+00	 3.3023676875e-01	-8.6733959113e+01
 1.2378011587e+00	 3.5426620160e-01	-8.3741469236e+01
 1.2306739294e+00	 3.7828286979e-01	-8.0457722218e+01
 1.2230427303e+00	 4.0227196012e-01	-7.6815436831e+01
 1.2149049851e+00	 4.2621840319e-01	-7.2746586771e+01
 1.2062586913e+00	 4.5010689810e-01	-6.8182659684e+01
 1.1971024376e+00	 4.7392193854e-01	-6.3054928133e+01
 1.2782969789e+00	 2.3655196814e-01	-9.5683392296e+01
 1.2735869439e+00	 2.6072264268e-01	-9.2843104942e+01
 1.2683890485e+00	 2.8493722404e-01	-8.9923257159e+01
 1.2626980975e+00	 3.0918200895e-01	-8.6875710250e+01
 1.2565093706e+00	 3.3344295097e-01	-8.3651221327e+01
 1.2498186457e+00	 3.5770567928e-01	-8.0199606183e+01
 1.2426222199e+00	 3.8195551901e-01	-7.6469913733e+01
 1.2349169316e+00	 4.0617751313e-01	-7.2410611408e+01
 1.2267001791e+00	 4.3035644594e-01	-6.7969780797e+01
 1.2179699407e+00	 4.5447686798e-01	-6.3095322674e+01
 1.2087247914e+00	 4.7852312241e-01	-5.7735170485e+01
 1.2905882961e+00	 2.3882650630e-01	-9.3492244161e+01
 1.2858329722e+00	 2.6322959116e-01	-9.0416922431e+01
 1.2805850970e+00	 2.8767700504e-01	-8.7217898689e+01
 1.2748394253e+00	 3.1215491288e-01	-8.3860682215e+01
 1.2685911915e+00	 3.3664913319e-01	-8.0310207488e+01
 1.2618361326e+00	 3.6114515697e-01	-7.6530959126e+01
 1.2545705105e+00	 3.8562816823e-01	-7.2487104368e+01
 1.2467911328e+00	 4.1008306613e-01	-6.8142632577e+01
 1.2384953731e+00	 4.3449448868e-01	-6.3461501176e+01
 1.2296811901e+00	 4.5884683786e-01	-5.8407787328e+01
 1.2203471452e+00	 4.8312430627e-01	-5.2945844614e+01
 1.3028796132e+00	 2.4110104445e-01	-9.0546058781e+01
 1.2980790005e+00	 2.6573653965e-01	-8.7360260617e+01
 1.2927811456e+00	 2.9041678604e-01	-8.4007720326e+01
 1.2869807532e+00	 3.1512781681e-01	-8.0467400891e+01
 1.2806730124e+00	 3.3985531541e-01	-7.6718212670e+01
 1.2738536196e+00	 3.6458463465e-01	-7.2739100842e+01
 1.2665188011e+00	 3.8930081745e-01	-6.8509136412e+01
 1.2586653341e+00	 4.1398861914e-01	-6.4007610362e+01
 1.2502905672e+00	 4.3863253143e-01	-5.9214130459e+01
 1.2413924396e+00	 4.6321680775e-01	-5.4108720212e+01
 1.2319694989e+00	 4.8772549014e-01	-4.8671919408e+01
 1.3151709303e+00	 2.4337558261e-01	-8.6865994763e+01
 1.3103250288e+00	 2.6824348814e-01	-8.3690784836e+01
 1.3049771941e+00	 2.9315656704e-01	-8.0306863298e+01
 1.2991220810e+00	 3.1810072074e-01	-7.6706458012e+01
 1.2927548332e+00	 3.4306149763e-01	-7.2882259379e+01
 1.2858711066e+00	 3.6802411234e-01	-6.8827470705e+01
 1.2784670917e+00	 3.9297346667e-01	-6.4535858222e+01
 1.2705395353e+00	 4.1789417216e-01	-6.0001800394e+01
 1.2620857612e+00	 4.4277057418e-01	-5.5220336165e+01
 1.2531036890e+00	 4.6758677763e-01	-5.0187211796e+01
 1.2435918527e+00	 4.9232667401e-01	-4.4898925901e+01
 1.3274622474e+00	 2.4565012076e-01	-8.2472427138e+01
 1.3225710571e+00	 2.7075043663e-01	-7.9425506240e+01
 1.3171732427e+00	 2.9589634804e-01	-7.6128945191e+01
 1.3112634089e+00	 3.2107362467e-01	-7.2588053152e+01
 1.3048366541e+00	 3.4626767985e-01	-6.8809110163e+01
 1.2978885936e+00	 3.7146359002e-01	-6.4799380857e+01
 1.2904153822e+00	 3.9664611589e-01	-6.0567123941e+01
 1.2824137366e+00	 4.2179972517e-01	-5.6121597171e+01
 1.2738809552e+00	 4.4690861693e-01	-5.1473057589e+01
 1.2648149384e+00	 4.7195674752e-01	-4.6632756820e+01
 1.2552142064e+00	 4.9692785789e-01	-4.1612931248e+01
 1.3397535645e+00	 2.4792465892e-01	-7.7384983306e+01
 1.3348170854e+00	 2.7325738511e-01	-7.4580811815e+01
 1.3293692912e+00	 2.9863612904e-01	-7.1487083971e+01
 1.3234047368e+00	 3.2404652861e-01	-6.8122011708e+01
 1.3169184750e+00	 3.4947386207e-01	-6.4505279544e+01
 1.3099060805e+00	 3.7490306771e-01	-6.0658022049e+01
 1.3023636728e+00	 4.0031876511e-01	-5.6602793234e+01
 1.2942879379e+00	 4.2570527818e-01	-5.2363527688e+01
 1.2856761493e+00	 4.5104665968e-01	-4.7965493332e+01
 1.2765261879e+00	 4.7632671740e-01	-4.3435235756e+01
 1.2668365602e+00	 5.0152904176e-01	-3.8800514132e+01
 1.3520448816e+00	 2.5019919707e-01	-7.1622577016e+01
 1.3470631137e+00	 2.7576433360e-01	-6.9172492742e+01
 1.3415653398e+00	 3.0137591004e-01	-6.6393920690e+01
 1.3355460646e+00	 3.2701943254e-01	-6.3317801911e+01
 1.3290002958e+00	 3.5268004430e-01	-5.9977045286e+01
 1.3219235675e+00	 3.7834254540e-01	-5.6406469153e+01
 1.3143119634e+00	 4.0399141433e-01	-5.2642731035e+01
 1.3061621391e+00	 4.2961083119e-01	-4.8724245413e+01
 1.2974713433e+00	 4.5518470244e-01	-4.4691089519e+01
 1.2882374373e+00	 4.8069668729e-01	-4.0584897269e+01
 1.2784589140e+00	 5.0613022563e-01	-3.6448741509e+01
 1.1622353763e+00	 4.6011838694e-01	-8.2356125332e+01
 1.1528499225e+00	 4.8315324299e-01	-7.9894954982e+01
 1.1429684046e+00	 5.0608618433e-01	-7.7550111891e+01
 1.1325912624e+00	 5.2890172284e-01	-7.5386072648e+01
 1.1217195625e+00	 5.5158428467e-01	-7.3467556001e+01
 1.1103550085e+00	 5.7411824130e-01	-7.1859254144e+01
 1.0984999480e+00	 5.9648794137e-01	-7.0625557403e+01
 1.0861573780e+00	 6.1867774334e-01	-6.9830273960e+01
 1.0733309490e+00	 6.4067204861e-01	-6.9536346352e+01
 1.0600249661e+00	 6.6245533520e-01	-6.9805566577e+01
 1.0462443890e+00	 6.8401219171e-01	-7.0698291671e+01
 1.1738577301e+00	 4.6471957081e-01	-7.5348840920e+01
 1.1643784217e+00	 4.8798477542e-01	-7.3634348860e+01
 1.1543980887e+00	 5.1114704617e-01	-7.2020398233e+01
 1.1439171750e+00	 5.3419074006e-01	-7.0561790779e+01
 1.1329367581e+00	 5.5710012751e-01	-6.9313485322e+01
 1.1214585586e+00	 5.7985942371e-01	-6.8330367459e+01
 1.1094849475e+00	 6.0245282079e-01	-6.7667013894e+01
 1.0970189518e+00	 6.2486452077e-01	-6.7377452813e+01
 1.0840642585e+00	 6.4707876909e-01	-6.7514921811e+01
 1.0706252158e+00	 6.6907988855e-01	-6.8131624929e+01
 1.0567068329e+00	 6.9085231363e-01	-6.9278490422e+01
 1.1854800839e+00	 4.6932075467e-01	-6.8920738373e+01
 1.1759069209e+00	 4.9281630785e-01	-6.7874243334e+01
 1.1658277727e+00	 5.1620790801e-01	-6.6912918664e+01
 1.1552430876e+00	 5.3947975729e-01	-6.6082039007e+01
 1.1441539537e+00	 5.6261597036e-01	-6.5426952191e+01
 1.1325621087e+00	 5.8560060612e-01	-6.4992886846e+01
 1.1204699470e+00	 6.0841770020e-01	-6.4824755864e+01
 1.1078805256e+00	 6.3105129820e-01	-6.4966956908e+01
 1.0947975680e+00	 6.5348548958e-01	-6.5463171233e+01
 1.0812254655e+00	 6.7570444191e-01	-6.6356162119e+01
 1.0671692768e+00	 6.9769243555e-01	-6.7687574279e+01
 1.1971024376e+00	 4.7392193854e-01	-6.3054928133e+01
 1.1874354202e+00	 4.9764784027e-01	-6.2600039907e+01
 1.1772574568e+00	 5.2126876985e-01	-6.2215353714e+01
 1.1665690002e+00	 5.4476877451e-01	-6.1936760538e+01
 1.1553711494e+00	 5.6813181320e-01	-6.1800141811e+01
 1.1436656588e+00	 5.9134178853e-01	-6.1841214461e+01
 1.1314549464e+00	 6.1438257961e-01	-6.2095373013e+01
 1.1187420994e+00	 6.3723807564e-01	-6.2597529725e+01
 1.1055308775e+00	 6.5989221007e-01	-6.3381953782e+01
 1.0918257151e+00	 6.8232899526e-01	-6.4482110611e+01
 1.0776317207e+00	 7.0453255747e-01	-6.5930502393e+01
 1.2087247914e+00	 4.7852312241e-01	-5.7735170485e+01
 1.1989639194e+00	 5.0247937270e-01	-5.7797701827e+01
 1.1886871408e+00	 5.2632963169e-01	-5.7915858013e+01
 1.1778949129e+00	 5.5005779174e-01	-5.8116285672e+01
 1.1665883450e+00	 5.7364765605e-01	-5.8425540263e+01
 1.1547692089e+00	 5.9708297095e-01	-5.8869968085e+01
 1.1424399459e+00	 6.2034745903e-01	-5.9475586545e+01
 1.1296036732e+00	 6.4342485307e-01	-6.0267963423e+01
 1.1162641870e+00	 6.6629893055e-01	-6.1272095946e+01
 1.1024259648e+00	 6.8895354861e-01	-6.2512290465e+01
 1.0880941646e+00	 7.1137267938e-01	-6.4012043572e+01
 1.2203471452e+00	 4.8312430627e-01	-5.2945844614e+01
 1.2104924186e+00	 5.0731090513e-01	-5.3453727332e+01
 1.2001168249e+00	 5.3139049354e-01	-5.4003037719e+01
 1.1892208255e+00	 5.5534680897e-01	-5.4611313370e+01
 1.1778055406e+00	 5.7916349890e-01	-5.5295920178e+01
 1.1658727590e+00	 6.0282415336e-01	-5.6073970856e+01
 1.1534249454e+00	 6.2631233844e-01	-5.6962242903e+01
 1.1404652469e+00	 6.4961163051e-01	-5.7977096524e+01
 1.1269974965e+00	 6.7270565104e-01	-5.9134393088e+01
 1.1130262144e+00	 6.9557810197e-01	-6.0449414685e+01
 1.0985566085e+00	 7.1821280130e-01	-6.1936785343e+01
 1.2319694989e+00	 4.8772549014e-01	-4.8671919408e+01
 1.2220209178e+00	 5.1214243756e-01	-4.9555124416e+01
 1.2115465089e+00	 5.3645135538e-01	-5.0465929216e+01
 1.2005467381e+00	 5.6063582620e-01	-5.1412893859e+01
 1.1890227363e+00	 5.8467934175e-01	-5.2404327217e+01
 1.1769763091e+00	 6.0856533577e-01	-5.3448241581e+01
 1.1644099449e+00	 6.3227721786e-01	-5.4552307864e+01
 1.1513268207e+00	 6.5579840794e-01	-5.5723811721e+01
 1.1377308060e+00	 6.7911237153e-01	-5.6969610915e+01
 1.1236264641e+00	 7.0220265532e-01	-5.8296094267e+01
 1.1090190524e+00	 7.2505292322e-01	-5.9709142503e+01
 1.2435918527e+00	 4.9232667401e-01	-4.4898925901e+01
 1.2335494171e+00	 5.1697396999e-01	-4.6089387007e+01
 1.2229761930e+00	 5.4151221723e-01	-4.7293979009e+01
 1.2118726507e+00	 5.6592484343e-01	-4.8512412220e+01
 1.2002399319e+00	 5.9019518460e-01	-4.9744067314e+01
 1.1880798591e+00	 6.1430651819e-01	-5.0987985589e+01
 1.1753949444e+00	 6.3824209727e-01	-5.2242860958e+01
 1.1621883945e+00	 6.6198518538e-01	-5.3507033817e+01
 1.1484641155e+00	 6.8551909201e-01	-5.4778486861e+01
 1.1342267138e+00	 7.0882720867e-01	-5.6054842964e+01
 1.1194814963e+00	 7.3189304514e-01	-5.7333365183e+01
 1.2552142064e+00	 4.9692785789e-01	-4.1612931248e+01
 1.2450779163e+00	 5.2180550243e-01	-4.3044472468e+01
 1.2344058770e+00	 5.4657307907e-01	-4.4477024739e+01
 1.2231985634e+00	 5.7121386066e-01	-4.5901572881e+01
 1.2114571275e+00	 5.9571102745e-01	-4.7308694624e+01
 1.1991834092e+00	 6.2004770061e-01	-4.8688586097e+01
 1.1863799439e+00	 6.4420697669e-01	-5.0031090201e+01
 1.1730499683e+00	 6.6817196281e-01	-5.1325727768e+01
 1.1591974249e+00	 6.9192581250e-01	-5.2561731394e+01
 1.1448269634e+00	 7.1545176203e-01	-5.3728081788e+01
 1.1299439402e+00	 7.3873316706e-01	-5.4813546478e+01
 1.2668365602e+00	 5.0152904176e-01	-3.8800514132e+01
 1.2566064155e+00	 5.2663703486e-01	-4.0408780339e+01
 1.2458355611e+00	 5.5163394092e-01	-4.2005277233e+01
 1.2345244760e+00	 5.7650287789e-01	-4.3572384971e+01
 1.2226743231e+00	 6.0122687030e-01	-4.5092000133e+01
 1.2102869593e+00	 6.2578888302e-01	-4.6545596048e+01
 1.1973649433e+00	 6.5017185611e-01	-4.7914287114e+01
 1.1839115421e+00	 6.7435874025e-01	-4.9178896843e+01
 1.1699307344e+00	 6.9833253299e-01	-5.0320029251e+01
 1.1554272131e+00	 7.2207631538e-01	-5.1318143258e+01
 1.1404063840e+00	 7.4557328897e-01	-5.2153629641e+01
 1.2784589140e+00	 5.0613022563e-01	-3.6448741509e+01
 1.2681349147e+00	 5.3146856729e-01	-3.8171132237e+01
 1.2572652451e+00	 5.5669480277e-01	-3.9869303548e+01
 1.2458503886e+00	 5.8179189513e-01	-4.1517148464e+01
 1.2338915188e+00	 6.0674271315e-01	-4.3088000896e+01
 1.2213905094e+00	 6.3153006544e-01	-4.4554730392e+01
 1.2083499428e+00	 6.5613673552e-01	-4.5889842025e+01
 1.1947731159e+00	 6.8054551769e-01	-4.7065580880e+01
 1.1806640439e+00	 7.0473925348e-01	-4.8054040608e+01
 1.1660274628e+00	 7.2870086873e-01	-4.8827275426e+01
 1.1508688279e+00	 7.5241341089e-01	-4.9357414894e+01
 1.0462443890e+00	 6.8401219171e-01	-7.0698291671e+01
 1.0319948291e+00	 7.0532735141e-01	-7.2047742671e+01
 1.0172825451e+00	 7.2638572638e-01	-7.3868309343e+01
 1.0021144359e+00	 7.4717244154e-01	-7.6111416048e+01
 9.8649803203e-01	 7.6767286833e-01	-7.8726210879e+01
 9.7044148446e-01	 7.8787265799e-01	-8.1659755570e+01
 9.5395355135e-01	 8.0775777424e-01	-8.4857228877e+01
 9.3704358299e-01	 8.2731452517e-01	-8.8262142246e+01
 9.1972150459e-01	 8.4652959426e-01	-9.1816566416e+01
 9.0199779716e-01	 8.6539007037e-01	-9.5461367549e+01
 8.8388347647e-01	 8.8388347647e-01	-9.9136451352e+01
 1.0567068329e+00	 6.9085231363e-01	-6.9278490422e+01
 1.0423147774e+00	 7.1238062492e-01	-7.0035625266e+01
 1.0274553705e+00	 7.3364958364e-01	-7.1142408217e+01
 1.0121355802e+00	 7.5464416595e-01	-7.2559905347e+01
 9.9636301235e-01	 7.7534959701e-01	-7.4247419406e+01
 9.8014589930e-01	 7.9575138457e-01	-7.6162642812e+01
 9.6349308686e-01	 8.1583535198e-01	-7.8261821165e+01
 9.4641401882e-01	 8.3558767042e-01	-8.0499926326e+01
 9.2891871964e-01	 8.5499489020e-01	-8.2830837971e+01
 9.1101777513e-01	 8.7404397107e-01	-8.5207532496e+01
 8.9272231124e-01	 8.9272231124e-01	-8.7582278029e+01
 1.0671692768e+00	 6.9769243555e-01	-6.7687574279e+01
 1.0526347257e+00	 7.1943389844e-01	-6.7929404221e+01
 1.0376281960e+00	 7.4091344091e-01	-6.8401852817e+01
 1.0221567246e+00	 7.6211589037e-01	-6.9075489271e+01
 1.0062279927e+00	 7.8302632570e-01	-6.9919625418e+01
 9.8985031415e-01	 8.0363011115e-01	-7.0902432249e+01
 9.7303262237e-01	 8.2391292973e-01	-7.1991064045e+01
 9.5578445465e-01	 8.4386081567e-01	-7.3151789390e+01
 9.3811593468e-01	 8.6346018615e-01	-7.4350128235e+01
 9.2003775310e-01	 8.8269787178e-01	-7.5550994154e+01
 9.0156114600e-01	 9.0156114600e-01	-7.6718840854e+01
 1.0776317207e+00	 7.0453255747e-01	-6.5930502393e+01
 1.0629546740e+00	 7.2648717195e-01	-6.5731795349e+01
 1.0478010214e+00	 7.4817729817e-01	-6.5647044625e+01
 1.0321778689e+00	 7.6958761479e-01	-6.5656188014e+01
 1.0160929730e+00	 7.9070305438e-01	-6.5738405104e+01
 9.9955472899e-01	 8.1150883773e-01	-6.5872197773e+01
 9.8257215788e-01	 8.3199050747e-01	-6.6035475424e+01
 9.6515489048e-01	 8.5213396092e-01	-6.6205644441e+01
 9.4731314973e-01	 8.7192548209e-01	-6.6359701297e+01
 9.2905773107e-01	 8.9135177248e-01	-6.6474328726e+01
 9.1039998077e-01	 9.1039998077e-01	-6.6525994320e+01
 1.0880941646e+00	 7.1137267938e-01	-6.4012043572e+01
 1.0732746223e+00	 7.3354044547e-01	-6.3445410411e+01
 1.0579738469e+00	 7.5544115544e-01	-6.2878370098e+01
 1.0421990133e+00	 7.7705933920e-01	-6.2300098348e+01
 1.0259579533e+00	 7.9837978306e-01	-6.1699505241e+01
 1.0092591438e+00	 8.1938756431e-01	-6.1065280116e+01
 9.9211169340e-01	 8.4006808521e-01	-6.0385938368e+01
 9.7452532631e-01	 8.6040710618e-01	-5.9649869838e+01
 9.5651036478e-01	 8.8039077803e-01	-5.8845388491e+01
 9.3807770905e-01	 9.0000567318e-01	-5.7960783047e+01
 9.1923881553e-01	 9.1923881553e-01	-5.6984368240e+01
 1.0985566085e+00	 7.1821280130e-01	-6.1936785343e+01
 1.0835945706e+00	 7.4059371898e-01	-6.1072762079e+01
 1.0681466723e+00	 7.6270501270e-01	-6.0096201386e+01
 1.0522201577e+00	 7.8453106362e-01	-5.9005389972e+01
 1.0358229336e+00	 8.0605651175e-01	-5.7798835066e+01
 1.0189635587e+00	 8.2726629089e-01	-5.6475274141e+01
 1.0016512289e+00	 8.4814566296e-01	-5.5033683708e+01
 9.8389576214e-01	 8.6868025143e-01	-5.3473287133e+01
 9.6570757982e-01	 8.8885607398e-01	-5.1793561380e+01
 9.4709768702e-01	 9.0865957389e-01	-4.9994242645e+01
 9.2807765030e-01	 9.2807765030e-01	-4.8075330826e+01
 1.1090190524e+00	 7.2505292322e-01	-5.9709142503e+01
 1.0939145189e+00	 7.4764699250e-01	-5.8616268597e+01
 1.0783194978e+00	 7.6996886997e-01	-5.7300897001e+01
 1.0622413020e+00	 7.9200278803e-01	-5.5770302070e+01
 1.0456879140e+00	 8.1373324043e-01	-5.4032458616e+01
 1.0286679735e+00	 8.3514501747e-01	-5.2096016851e+01
 1.0111907644e+00	 8.5622324070e-01	-4.9970273635e+01
 9.9326619797e-01	 8.7695339668e-01	-4.7665140161e+01
 9.7490479487e-01	 8.9732136992e-01	-4.5191106272e+01
 9.5611766499e-01	 9.1731347459e-01	-4.2559201616e+01
 9.3691648507e-01	 9.3691648507e-01	-3.9780953851e+01
 1.1194814963e+00	 7.3189304514e-01	-5.7333365183e+01
 1.1042344672e+00	 7.5470026601e-01	-5.6078258198e+01
 1.0884923232e+00	 7.7723272723e-01	-5.4492802453e+01
 1.0722624464e+00	 7.9947451245e-01	-5.2593140063e+01
 1.0555528943e+00	 8.2140996911e-01	-5.0396587483e+01
 1.0383723884e+00	 8.4302374405e-01	-4.7921576076e+01
 1.0207302999e+00	 8.6430081844e-01	-4.5187586212e+01
 1.0026366338e+00	 8.8522654193e-01	-4.2215075304e+01
 9.8410200992e-01	 9.0578666586e-01	-3.9025400165e+01
 9.6513764296e-01	 9.2596737530e-01	-3.5640734177e+01
 9.4575531983e-01	 9.4575531983e-01	-3.2083979775e+01
 1.1299439402e+00	 7.3873316706e-01	-5.4813546478e+01
 1.1145544155e+00	 7.6175353953e-01	-5.3460973268e+01
 1.0986651487e+00	 7.8449658449e-01	-5.1672250850e+01
 1.0822835907e+00	 8.0694623686e-01	-4.9472272537e+01
 1.0654178746e+00	 8.2908669779e-01	-4.6887573991e+01
 1.0480768032e+00	 8.5090247063e-01	-4.3946239776e+01
 1.0302698355e+00	 8.7237839618e-01	-4.0677800746e+01
 1.0120070696e+00	 8.9349968718e-01	-3.7113122854e+01
 9.9329922497e-01	 9.1425196180e-01	-3.3284288021e+01
 9.7415762093e-01	 9.3462127600e-01	-2.9224467809e+01
 9.5459415459e-01	 9.5459415459e-01	-2.4967790689e+01
 1.1404063840e+00	 7.4557328897e-01	-5.2153629641e+01
 1.1248743638e+00	 7.6880681304e-01	-5.0766574280e+01
 1.1088379741e+00	 7.9176044176e-01	-4.8839563463e+01
 1.0923047351e+00	 8.1441796128e-01	-4.6406128349e+01
 1.0752828549e+00	 8.3676342648e-01	-4.3501904729e+01
 1.0577812181e+00	 8.5878119721e-01	-4.0164505948e+01
 1.0398093710e+00	 8.8045597392e-01	-3.6433383972e+01
 1.0213775055e+00	 9.0177283243e-01	-3.2349679401e+01
 1.0024964400e+00	 9.2271725774e-01	-2.7956061304e+01
 9.8317759891e-01	 9.4327517670e-01	-2.3296557874e+01
 9.6343298936e-01	 9.6343298936e-01	-1.8416378971e+01
 1.1508688279e+00	 7.5241341089e-01	-4.9357414894e+01
 1.1351943120e+00	 7.7586008655e-01	-4.7997143515e+01
 1.1190107996e+00	 7.9902429902e-01	-4.5995050263e+01
 1.1023258795e+00	 8.2188968569e-01	-4.3393193877e+01
 1.0851478353e+00	 8.4444015516e-01	-4.0236194449e+01
 1.0674856329e+00	 8.6665992379e-01	-3.6571073072e+01
 1.0493489065e+00	 8.8853355166e-01	-3.2447076979e+01
 1.0307479413e+00	 9.1004597768e-01	-2.7915491175e+01
 1.0116936551e+00	 9.3118255368e-01	-2.3029437678e+01
 9.9219757688e-01	 9.5192907740e-01	-1.7843663618e+01
 9.7227182412e-01	 9.7227182412e-01	-1.2414319541e+01
 8.8388347647e-01	 8.8388347647e-01	-9.9136451352e+01
 8.6539007037e-01	 9.0199779716e-01	-9.7199845200e+01
 8.4652959426e-01	 9.1972150459e-01	-9.2404679499e+01
 8.2731452517e-01	 9.3704358299e-01	-8.4945800839e+01
 8.0775777424e-01	 9.5395355135e-01	-7.5027395147e+01
 7.8787265799e-01	 9.7044148446e-01	-6.2862092614e+01
 7.6767286833e-01	 9.8649803203e-01	-4.8670032025e+01
 7.4717244154e-01	 1.0021144359e+00	-3.2677891018e+01
 7.2638572638e-01	 1.0172825451e+00	-1.5117888997e+01
 7.0532735141e-01	 1.0319948291e+00	 3.7732304034e+00
 6.8401219171e-01	 1.0462443890e+00	 2.3755230291e+01
 8.9272231124e-01	 8.9272231124e-01	-8.7582278029e+01
 8.7404397107e-01	 9.1101777513e-01	-8.6239951506e+01
 8.5499489020e-01	 9.2891871964e-01	-8.2407981332e+01
 8.3558767042e-01	 9.4641401882e-01	-7.6258780394e+01
 8.1583535198e-01	 9.6349308686e-01	-6.7972928108e+01
 7.9575138457e-01	 9.8014589930e-01	-5.7738378487e+01
 7.7534959701e-01	 9.9636301235e-01	-4.5749632741e+01
 7.5464416595e-01	 1.0121355802e+00	-3.2206882185e+01
 7.3364958364e-01	 1.0274553705e+00	-1.7315127392e+01
 7.1238062492e-01	 1.0423147774e+00	-1.2832797036e+00
 6.9085231363e-01	 1.0567068329e+00	 1.5676748761e+01
 9.0156114600e-01	 9.0156114600e-01	-7.6718840854e+01
 8.8269787178e-01	 9.2003775310e-01	-7.5800257251e+01
 8.6346018615e-01	 9.3811593468e-01	-7.2754223505e+01
 8.4386081567e-01	 9.5578445465e-01	-6.7731066937e+01
 8.2391292973e-01	 9.7303262237e-01	-6.0888124272e+01
 8.0363011115e-01	 9.8985031415e-01	-5.2389051493e+01
 7.8302632570e-01	 1.0062279927e+00	-4.2403103310e+01
 7.6211589037e-01	 1.0221567246e+00	-3.1104387255e+01
 7.4091344091e-01	 1.0376281960e+00	-1.8671097574e+01
 7.1943389844e-01	 1.0526347257e+00	-5.2847342230e+00
 6.9769243555e-01	 1.0671692768e+00	 8.8706876778e+00
 9.1039998077e-01	 9.1039998077e-01	-6.6525994320e+01
 8.9135177248e-01	 9.2905773107e-01	-6.5865583846e+01
 8.7192548209e-01	 9.4731314973e-01	-6.3433390147e+01
 8.5213396092e-01	 9.6515489048e-01	-5.9357992974e+01
 8.3199050747e-01	 9.8257215788e-01	-5.3773839578e+01
 8.1150883773e-01	 9.9955472899e-01	-4.6820655048e+01
 7.9070305438e-01	 1.0160929730e+00	-3.8642827280e+01
 7.6958761479e-01	 1.0321778689e+00	-2.9388770836e+01
 7.4817729817e-01	 1.0478010214e+00	-1.9210274116e+01
 7.2648717195e-01	 1.0629546740e+00	-8.2618343468e+00
 7.0453255747e-01	 1.0776317207e+00	 3.3000150419e+00
 9.1923881553e-01	 9.1923881553e-01	-5.6984368240e+01
 9.0000567318e-01	 9.3807770905e-01	-5.6421336994e+01
 8.8039077803e-01	 9.5651036478e-01	-5.4435851118e+01
 8.6040710618e-01	 9.7452532631e-01	-5.1135071039e+01
 8.4006808521e-01	 9.9211169340e-01	-4.6630897559e+01
 8.1938756431e-01	 1.0092591438e+00	-4.1039481419e+01
 7.9837978306e-01	 1.0259579533e+00	-3.4480712429e+01
 7.7705933920e-01	 1.0421990133e+00	-2.7077691723e+01
 7.5544115544e-01	 1.0579738469e+00	-1.8956190783e+01
 7.3354044547e-01	 1.0732746223e+00	-1.0244100974e+01
 7.1137267938e-01	 1.0880941646e+00	-1.0708773603e+00
 9.2807765030e-01	 9.2807765030e-01	-4.8075330826e+01
 9.0865957389e-01	 9.4709768702e-01	-4.7453478863e+01
 8.8885607398e-01	 9.6570757982e-01	-4.5752343638e+01
 8.6868025143e-01	 9.8389576214e-01	-4.3057985117e+01
 8.4814566296e-01	 1.0016512289e+00	-3.9460090881e+01
 8.2726629089e-01	 1.0189635587e+00	-3.5051583675e+01
 8.0605651175e-01	 1.0358229336e+00	-2.9928213418e+01
 7.8453106362e-01	 1.0522201577e+00	-2.4188136511e+01
 7.6270501270e-01	 1.0681466723e+00	-1.7931485332e+01
 7.4059371898e-01	 1.0835945706e+00	-1.1259930911e+01
 7.1821280130e-01	 1.0985566085e+00	-4.2762417514e+00
 9.3691648507e-01	 9.3691648507e-01	-3.9780953851e+01
 9.1731347459e-01	 9.5611766499e-01	-3.8948501835e+01
 8.9732136992e-01	 9.7490479487e-01	-3.7373954956e+01
 8.7695339668e-01	 9.9326619797e-01	-3.5122582559e+01
 8.5622324070e-01	 1.0111907644e+00	-3.2262182796e+01
 8.3514501747e-01	 1.0286679735e+00	-2.8862786967e+01
 8.1373324043e-01	 1.0456879140e+00	-2.4996353158e+01
 7.9200278803e-01	 1.0622413020e+00	-2.0736451291e+01
 7.6996886997e-01	 1.0783194978e+00	-1.6157941766e+01
 7.4764699250e-01	 1.0939145189e+00	-1.1336649890e+01
 7.2505292322e-01	 1.1090190524e+00	-6.3490383212e+00
 9.4575531983e-01	 9.4575531983e-01	-3.2083979775e+01
 9.2596737530e-01	 9.6513764296e-01	-3.0893403725e+01
 9.0578666586e-01	 9.8410200992e-01	-2.9292105988e+01
 8.8522654193e-01	 1.0026366338e+00	-2.7324866438e+01
 8.6430081844e-01	 1.0207302999e+00	-2.5037908511e+01
 8.4302374405e-01	 1.0383723884e+00	-2.2478699178e+01
 8.2140996911e-01	 1.0555528943e+00	-1.9695742984e+01
 7.9947451245e-01	 1.0722624464e+00	-1.6738371586e+01
 7.7723272723e-01	 1.0884923232e+00	-1.3656530233e+01
 7.5470026601e-01	 1.1042344672e+00	-1.0500562621e+01
 7.3189304514e-01	 1.1194814963e+00	-7.3209955989e+00
 9.5459415459e-01	 9.5459415459e-01	-2.4967790689e+01
 9.3462127600e-01	 9.7415762093e-01	-2.3275664379e+01
 9.1425196180e-01	 9.9329922497e-01	-2.1498535868e+01
 8.9349968718e-01	 1.0120070696e+00	-1.9660988340e+01
 8.7237839618e-01	 1.0302698355e+00	-1.7787976488e+01
 8.5090247063e-01	 1.0480768032e+00	-1.5904720975e+01
 8.2908669779e-01	 1.0654178746e+00	-1.4036601703e+01
 8.0694623686e-01	 1.0822835907e+00	-1.2209050607e+01
 7.8449658449e-01	 1.0986651487e+00	-1.0447444697e+01
 7.6175353953e-01	 1.1145544155e+00	-8.7770000518e+00
 7.3873316706e-01	 1.1299439402e+00	-7.2226674714e+00
 9.6343298936e-01	 9.6343298936e-01	-1.8416378971e+01
 9.4327517670e-01	 9.8317759891e-01	-1.6083223560e+01
 9.2271725774e-01	 1.0024964400e+00	-1.3985287347e+01
 9.0177283243e-01	 1.0213775055e+00	-1.2127241549e+01
 8.8045597392e-01	 1.0398093710e+00	-1.0513069662e+01
 8.5878119721e-01	 1.0577812181e+00	-9.1460553127e+00
 8.3676342648e-01	 1.0752828549e+00	-8.0287736040e+00
 8.1441796128e-01	 1.0923047351e+00	-7.1630859673e+00
 7.9176044176e-01	 1.1088379741e+00	-6.5501385398e+00
 7.6880681304e-01	 1.1248743638e+00	-6.1903640357e+00
 7.4557328897e-01	 1.1404063840e+00	-6.0834870627e+00
 9.7227182412e-01	 9.7227182412e-01	-1.2414319541e+01
 9.5192907740e-01	 9.9219757688e-01	-9.3044600388e+00
 9.3118255368e-01	 1.0116936551e+00	-6.7446929892e+00
 9.1004597768e-01	 1.0307479413e+00	-4.7200546008e+00
 8.8853355166e-01	 1.0493489065e+00	-3.2138466006e+00
 8.6665992379e-01	 1.0674856329e+00	-2.2077164163e+00
 8.4444015516e-01	 1.0851478353e+00	-1.6817454694e+00
 8.2188968569e-01	 1.1023258795e+00	-1.6145449283e+00
 7.9902429902e-01	 1.1190107996e+00	-1.9833582219e+00
 7.7586008655e-01	 1.1351943120e+00	-2.7641695605e+00
 7.5241341089e-01	 1.1508688279e+00	-3.9318176744e+00
 6.8401219171e-01	 1.0462443890e+00	 2.3755230291e+01
 6.6245533520e-01	 1.0600249661e+00	 2.5276463540e+01
 6.4067204861e-01	 1.0733309490e+00	 2.2882042433e+01
 6.1867774334e-01	 1.0861573780e+00	 1.6858623954e+01
 5.9648794137e-01	 1.0984999480e+00	 7.5002612969e+00
 5.7411824130e-01	 1.1103550085e+00	-4.8929295574e+00
 5.5158428467e-01	 1.1217195625e+00	-2.0016106269e+01
 5.2890172284e-01	 1.1325912624e+00	-3.7561030849e+01
 5.0608618433e-01	 1.1429684046e+00	-5.7217386203e+01
 4.8315324299e-01	 1.1528499225e+00	-7.8674070427e+01
 4.6011838694e-01	 1.1622353763e+00	-1.0162046120e+02
 6.9085231363e-01	 1.0567068329e+00	 1.5676748761e+01
 6.6907988855e-01	 1.0706252158e+00	 1.7848581770e+01
 6.4707876909e-01	 1.0840642585e+00	 1.6538805187e+01
 6.2486452077e-01	 1.0970189518e+00	 1.1997192871e+01
 6.0245282079e-01	 1.1094849475e+00	 4.4800856539e+00
 5.7985942371e-01	 1.1214585586e+00	-5.7507728666e+00
 5.5710012751e-01	 1.1329367581e+00	-1.8429403573e+01
 5.3419074006e-01	 1.1439171750e+00	-3.3286754502e+01
 5.1114704617e-01	 1.1543980887e+00	-5.0051851553e+01
 4.8798477542e-01	 1.1643784217e+00	-6.8452930166e+01
 4.6471957081e-01	 1.1738577301e+00	-8.8218541253e+01
 6.9769243555e-01	 1.0671692768e+00	 8.8706876778e+00
 6.7570444191e-01	 1.0812254655e+00	 1.1421560963e+01
 6.5348548958e-01	 1.0947975680e+00	 1.0917621874e+01
 6.3105129820e-01	 1.1078805256e+00	 7.5723374109e+00
 6.0841770020e-01	 1.1204699470e+00	 1.6049222819e+00
 5.8560060612e-01	 1.1325621087e+00	-6.7606582617e+00
 5.6261597036e-01	 1.1441539537e+00	-1.7296688688e+01
 5.3947975729e-01	 1.1552430876e+00	-2.9772699990e+01
 5.1620790801e-01	 1.1658277727e+00	-4.3956456705e+01
 4.9281630785e-01	 1.1759069209e+00	-5.9614928061e+01
 4.6932075467e-01	 1.1854800839e+00	-7.6515237505e+01
 7.0453255747e-01	 1.0776317207e+00	 3.3000150419e+00
 6.8232899526e-01	 1.0918257151e+00	 5.9662788325e+00
 6.5989221007e-01	 1.1055308775e+00	 5.9974910301e+00
 6.3723807564e-01	 1.1187420994e+00	 3.5713712449e+00
 6.1438257961e-01	 1.1314549464e+00	-1.1294227657e+00
 5.9134178853e-01	 1.1436656588e+00	-7.9181273659e+00
 5.6813181320e-01	 1.1553711494e+00	-1.6604708437e+01
 5.4476877451e-01	 1.1665690002e+00	-2.6996694426e+01
 5.2126876985e-01	 1.1772574568e+00	-3.8900001750e+01
 4.9764784027e-01	 1.1874354202e+00	-5.2119747456e+01
 4.7392193854e-01	 1.1971024376e+00	-6.6461044323e+01
 7.1137267938e-01	 1.0880941646e+00	-1.0708773603e+00
 6.8895354861e-01	 1.1024259648e+00	 1.4547326638e+00
 6.6629893055e-01	 1.1162641870e+00	 1.7582184204e+00
 6.4342485307e-01	 1.1296036732e+00	-1.7904532293e-02
 6.2034745903e-01	 1.1424399459e+00	-3.7269826388e+00
 5.9708297095e-01	 1.1547692089e+00	-9.2188937819e+00
 5.7364765605e-01	 1.1665883450e+00	-1.6340719878e+01
 5.5005779174e-01	 1.1778949129e+00	-2.4937418216e+01
 5.2632963169e-01	 1.1886871408e+00	-3.4852487262e+01
 5.0247937270e-01	 1.1989639194e+00	-4.5928622812e+01
 4.7852312241e-01	 1.2087247914e+00	-5.8008360601e+01
 7.1821280130e-01	 1.0985566085e+00	-4.2762417514e+00
 6.9557810197e-01	 1.1130262144e+00	-2.1400139995e+00
 6.7270565104e-01	 1.1269974965e+00	-1.8196213922e+00
 6.4961163051e-01	 1.1404652469e+00	-3.2072246108e+00
 6.2631233844e-01	 1.1534249454e+00	-6.1916373437e+00
 6.0282415336e-01	 1.1658727590e+00	-1.0658834899e+01
 5.7916349890e-01	 1.1778055406e+00	-1.6492466004e+01
 5.5534680897e-01	 1.1892208255e+00	-2.3574364423e+01
 5.3139049354e-01	 1.2001168249e+00	-3.1785057122e+01
 5.0731090513e-01	 1.2104924186e+00	-4.1004265842e+01
 4.8312430627e-01	 1.2203471452e+00	-5.1111399069e+01
 7.2505292322e-01	 1.1090190524e+00	-6.3490383212e+00
 7.0220265532e-01	 1.1236264641e+00	-4.8438816462e+00
 6.7911237153e-01	 1.1377308060e+00	-4.7547213103e+00
 6.5579840794e-01	 1.1513268207e+00	-6.0078813591e+00
 6.3227721786e-01	 1.1644099449e+00	-8.5271209646e+00
 6.0856533577e-01	 1.1769763091e+00	-1.2233984166e+01
 5.8467934175e-01	 1.1890227363e+00	-1.7048152821e+01
 5.6063582620e-01	 1.2005467381e+00	-2.2887800434e+01
 5.3645135538e-01	 1.2115465089e+00	-2.9669944594e+01
 5.1214243756e-01	 1.2220209178e+00	-3.7310795820e+01
 4.8772549014e-01	 1.2319694989e+00	-4.5726100730e+01
 7.3189304514e-01	 1.1194814963e+00	-7.3209955989e+00
 7.0882720867e-01	 1.1342267138e+00	-6.6818222693e+00
 6.8551909201e-01	 1.1484641155e+00	-7.0650759280e+00
 6.6198518538e-01	 1.1621883945e+00	-8.4307454901e+00
 6.3824209727e-01	 1.1753949444e+00	-1.0737028479e+01
 6.1430651819e-01	 1.1880798591e+00	-1.3940523792e+01
 5.9019518460e-01	 1.2002399319e+00	-1.7996427703e+01
 5.6592484343e-01	 1.2118726507e+00	-2.2858731773e+01
 5.4151221723e-01	 1.2229761930e+00	-2.8480421410e+01
 5.1697396999e-01	 1.2335494171e+00	-3.4813673813e+01
 4.9232667401e-01	 1.2435918527e+00	-4.1810054098e+01
 7.3873316706e-01	 1.1299439402e+00	-7.2226674714e+00
 7.1545176203e-01	 1.1448269634e+00	-7.6778642006e+00
 6.9192581250e-01	 1.1591974249e+00	-8.7680138578e+00
 6.6817196281e-01	 1.1730499683e+00	-1.0486285579e+01
 6.4420697669e-01	 1.1863799439e+00	-1.2824822193e+01
 6.2004770061e-01	 1.1991834092e+00	-1.5774777861e+01
 5.9571102745e-01	 1.2114571275e+00	-1.9326358963e+01
 5.7121386066e-01	 1.2231985634e+00	-2.3468867922e+01
 5.4657307907e-01	 1.2344058770e+00	-2.8190749693e+01
 5.2180550243e-01	 1.2450779163e+00	-3.3479640553e+01
 4.9692785789e-01	 1.2552142064e+00	-3.9322418920e+01
 7.4557328897e-01	 1.1404063840e+00	-6.0834870627e+00
 7.2207631538e-01	 1.1554272131e+00	-7.8551544773e+00
 6.9833253299e-01	 1.1699307344e+00	-9.8802282764e+00
 6.7435874025e-01	 1.1839115421e+00	-1.2184586506e+01
 6.5017185611e-01	 1.1973649433e+00	-1.4793837827e+01
 6.2578888302e-01	 1.2102869593e+00	-1.7733205817e+01
 6.0122687030e-01	 1.2226743231e+00	-2.1027416533e+01
 5.7650287789e-01	 1.2345244760e+00	-2.4700590031e+01
 5.5163394092e-01	 1.2458355611e+00	-2.8776136520e+01
 5.2663703486e-01	 1.2566064155e+00	-3.3276657736e+01
 5.0152904176e-01	 1.2668365602e+00	-3.8223854098e+01
 7.5241341089e-01	 1.1508688279e+00	-3.9318176744e+00
 7.2870086873e-01	 1.1660274628e+00	-7.2359988980e+00
 7.0473925348e-01	 1.1806640439e+00	-1.0417805805e+01
 6.8054551769e-01	 1.1947731159e+00	-1.3535366897e+01
 6.5613673552e-01	 1.2083499428e+00	-1.6647290266e+01
 6.3153006544e-01	 1.2213905094e+00	-1.9812396310e+01
 6.0674271315e-01	 1.2338915188e+00	-2.3089453713e+01
 5.8179189513e-01	 1.2458503886e+00	-2.6536920381e+01
 5.5669480277e-01	 1.2572652451e+00	-3.0212690974e+01
 5.3146856729e-01	 1.2681349147e+00	-3.4173852519e+01
 5.0613022563e-01	 1.2784589140e+00	-3.8476449547e+01
 4.6011838694e-01	 1.1622353763e+00	-1.0162046120e+02
 4.3699698846e-01	 1.1711249430e+00	-9.2347495212e+01
 4.1380427495e-01	 1.1795194030e+00	-8.2606889700e+01
 3.9055530110e-01	 1.1874201265e+00	-7.2703670444e+01
 3.6726492214e-01	 1.1948290577e+00	-6.2935162057e+01
 3.4394776856e-01	 1.2017486978e+00	-5.3590041754e+01
 3.2061822210e-01	 1.2081820871e+00	-4.4947468414e+01
 2.9729039323e-01	 1.2141327860e+00	-3.7276289439e+01
 2.7397810005e-01	 1.2196048543e+00	-3.0834327160e+01
 2.5069484873e-01	 1.2246028307e+00	-2.5867745881e+01
 2.2745381552e-01	 1.2291317105e+00	-2.2610499985e+01
 4.6471957081e-01	 1.1738577301e+00	-8.8218541253e+01
 4.4136695834e-01	 1.1828361924e+00	-8.0427233520e+01
 4.1794231770e-01	 1.1913145970e+00	-7.2515925695e+01
 3.9446085410e-01	 1.1992943278e+00	-6.4738205627e+01
 3.7093757136e-01	 1.2067773482e+00	-5.7340297637e+01
 3.4738724624e-01	 1.2137661847e+00	-5.0560307811e+01
 3.2382440432e-01	 1.2202639080e+00	-4.4627535421e+01
 3.0026329716e-01	 1.2262741139e+00	-3.9761852191e+01
 2.7671788104e-01	 1.2318009029e+00	-3.6173150524e+01
 2.5320179722e-01	 1.2368488590e+00	-3.4060861192e+01
 2.2972835367e-01	 1.2414230276e+00	-3.3613540499e+01
 4.6932075467e-01	 1.1854800839e+00	-7.6515237505e+01
 4.4573692822e-01	 1.1945474419e+00	-6.9800265615e+01
 4.2208036044e-01	 1.2031097911e+00	-6.3308676436e+01
 3.9836640711e-01	 1.2111685290e+00	-5.7243400112e+01
 3.7461022057e-01	 1.2187256388e+00	-5.1800333135e+01
 3.5082672392e-01	 1.2257836717e+00	-4.7167772784e+01
 3.2703058654e-01	 1.2323457289e+00	-4.3525908652e+01
 3.0323620109e-01	 1.2384154418e+00	-4.1046372218e+01
 2.7945766204e-01	 1.2439969514e+00	-3.9891844887e+01
 2.5570874570e-01	 1.2490948873e+00	-4.0215724508e+01
 2.3200289183e-01	 1.2537143447e+00	-4.2161849886e+01
 4.7392193854e-01	 1.1971024376e+00	-6.6461044323e+01
 4.5010689810e-01	 1.2062586913e+00	-6.0428891067e+01
 4.2621840319e-01	 1.2149049851e+00	-5.4959370671e+01
 4.0227196012e-01	 1.2230427303e+00	-5.0205513077e+01
 3.7828286979e-01	 1.2306739294e+00	-4.6313636910e+01
 3.5426620160e-01	 1.2378011587e+00	-4.3422970761e+01
 3.3023676875e-01	 1.2444275498e+00	-4.1665322640e+01
 3.0620910502e-01	 1.2505567696e+00	-4.1164797781e+01
 2.8219744304e-01	 1.2561930000e+00	-4.2037564596e+01
 2.5821569419e-01	 1.2613409156e+00	-4.4391668209e+01
 2.3427742998e-01	 1.2660056618e+00	-4.8326890684e+01
 4.7852312241e-01	 1.2087247914e+00	-5.8008360601e+01
 4.5447686798e-01	 1.2179699407e+00	-5.2276859920e+01
 4.3035644594e-01	 1.2267001791e+00	-4.7443228794e+01
 4.0617751313e-01	 1.2349169316e+00	-4.3611332623e+01
 3.8195551901e-01	 1.2426222199e+00	-4.0878640495e+01
 3.5770567928e-01	 1.2498186457e+00	-3.9336031083e+01
 3.3344295097e-01	 1.2565093706e+00	-3.9067637903e+01
 3.0918200895e-01	 1.2626980975e+00	-4.0150733360e+01
 2.8493722404e-01	 1.2683890485e+00	-4.2655650736e+01
 2.6072264268e-01	 1.2735869439e+00	-4.6645743011e+01
 2.3655196814e-01	 1.2782969789e+00	-5.2177377209e+01
 4.8312430627e-01	 1.2203471452e+00	-5.1111399069e+01
 4.5884683786e-01	 1.2296811901e+00	-4.5309303615e+01
 4.3449448868e-01	 1.2384953731e+00	-4.0736415625e+01
 4.1008306613e-01	 1.2467911328e+00	-3.7448150593e+01
 3.8562816823e-01	 1.2545705105e+00	-3.5493835592e+01
 3.6114515697e-01	 1.2618361326e+00	-3.4916697613e+01
 3.3664913319e-01	 1.2685911915e+00	-3.5753882569e+01
 3.1215491288e-01	 1.2748394253e+00	-3.8036503639e+01
 2.8767700504e-01	 1.2805850970e+00	-4.1789717470e+01
 2.6322959116e-01	 1.2858329722e+00	-4.7032826612e+01
 2.3882650630e-01	 1.2905882961e+00	-5.3779406416e+01
 4.8772549014e-01	 1.2319694989e+00	-4.5726100730e+01
 4.6321680775e-01	 1.2413924396e+00	-3.9492669833e+01
 4.3863253143e-01	 1.2502905672e+00	-3.4815995855e+01
 4.1398861914e-01	 1.2586653341e+00	-3.1703738801e+01
 3.8930081745e-01	 1.2665188011e+00	-3.0157771228e+01
 3.6458463465e-01	 1.2738536196e+00	-3.0174346919e+01
 3.3985531541e-01	 1.2806730124e+00	-3.1744291636e+01
 3.1512781681e-01	 1.2869807532e+00	-3.4853213870e+01
 2.9041678604e-01	 1.2927811456e+00	-3.9481733503e+01
 2.6573653965e-01	 1.2980790005e+00	-4.5605726197e+01
 2.4110104445e-01	 1.3028796132e+00	-5.3196581361e+01
 4.9232667401e-01	 1.2435918527e+00	-4.1810054098e+01
 4.6758677763e-01	 1.2531036890e+00	-3.4794660980e+01
 4.4277057418e-01	 1.2620857612e+00	-2.9659891996e+01
 4.1789417216e-01	 1.2705395353e+00	-2.6366326606e+01
 3.9297346667e-01	 1.2784670917e+00	-2.4869051073e+01
 3.6802411234e-01	 1.2858711066e+00	-2.5118005432e+01
 3.4306149763e-01	 1.2927548332e+00	-2.7058344029e+01
 3.1810072074e-01	 1.2991220810e+00	-3.0630806861e+01
 2.9315656704e-01	 1.3049771941e+00	-3.5772098964e+01
 2.6824348814e-01	 1.3103250288e+00	-4.2415275185e+01
 2.4337558261e-01	 1.3151709303e+00	-5.0490127736e+01
 4.9692785789e-01	 1.2552142064e+00	-3.9322418920e+01
 4.7195674752e-01	 1.2648149384e+00	-3.1184176100e+01
 4.4690861693e-01	 1.2738809552e+00	-2.5246844663e+01
 4.2179972517e-01	 1.2824137366e+00	-2.1424579723e+01
 3.9664611589e-01	 1.2904153822e+00	-1.9626330914e+01
 3.7146359002e-01	 1.2978885936e+00	-1.9756365658e+01
 3.4626767985e-01	 1.3048366541e+00	-2.1714797608e+01
 3.2107362467e-01	 1.3112634089e+00	-2.5398116782e+01
 2.9589634804e-01	 1.3171732427e+00	-3.0699718027e+01
 2.7075043663e-01	 1.3225710571e+00	-3.7510424608e+01
 2.4565012076e-01	 1.3274622474e+00	-4.5719003932e+01
 5.0152904176e-01	 1.2668365602e+00	-3.8223854098e+01
 4.7632671740e-01	 1.2765261879e+00	-2.8631255978e+01
 4.5104665968e-01	 1.2856761493e+00	-2.1556375046e+01
 4.2570527818e-01	 1.2942879379e+00	-1.6867580207e+01
 4.0031876511e-01	 1.3023636728e+00	-1.4428316256e+01
 3.7490306771e-01	 1.3099060805e+00	-1.4097801491e+01
 3.4947386207e-01	 1.3169184750e+00	-1.5731722235e+01
 3.2404652861e-01	 1.3234047368e+00	-1.9182920027e+01
 2.9863612904e-01	 1.3293692912e+00	-2.4302067532e+01
 2.7325738511e-01	 1.3348170854e+00	-3.0938329455e+01
 2.4792465892e-01	 1.3397535645e+00	-3.8940005040e+01
 5.0613022563e-01	 1.2784589140e+00	-3.8476449547e+01
 4.8069668729e-01	 1.2882374373e+00	-2.7107031243e+01
 4.5518470244e-01	 1.2974713433e+00	-1.8568749424e+01
 4.2961083119e-01	 1.3061621391e+00	-1.2684807529e+01
 4.0399141433e-01	 1.3143119634e+00	-9.2737600621e+00
 3.7834254540e-01	 1.3219235675e+00	-8.1503826937e+00
 3.5268004430e-01	 1.3290002958e+00	-9.1265310491e+00
 3.2701943254e-01	 1.3355460646e+00	-1.2011983284e+01
 3.0137591004e-01	 1.3415653398e+00	-1.6615261861e+01
 2.7576433360e-01	 1.3470631137e+00	-2.2744430313e+01
 2.5019919707e-01	 1.3520448816e+00	-3.0207861186e+01
 2.2745381552e-01	 1.2291317105e+00	-2.2610499985e+01
 2.0426783021e-01	 1.2331969241e+00	-6.2490102820e+00
 1.8114936128e-01	 1.2368043131e+00	 9.9742290484e+00
 1.5811050247e-01	 1.2399601078e+00	 2.6264031651e+01
 1.3516296103e-01	 1.2426709033e+00	 4.2816561472e+01
 1.1231804737e-01	 1.2449436358e+00	 5.9818947655e+01
 8.9586666336e-02	 1.2467855586e+00	 7.7448960397e+01
 6.6979309859e-02	 1.2482042189e+00	 9.5874746485e+01
 4.4506051105e-02	 1.2492074333e+00	 1.1525462279e+02
 2.2176539980e-02	 1.2498032649e+00	 1.3573692576e+02
 0.0000000000e+00	 1.2500000000e+00	 1.5745991465e+02
 2.2972835367e-01	 1.2414230276e+00	-3.3613540499e+01
 2.0631050852e-01	 1.2455288933e+00	-1.5972569815e+01
 1.8296085490e-01	 1.2491723562e+00	 1.7156389878e+00
 1.5969160750e-01	 1.2523597089e+00	 1.9608341443e+01
 1.3651459064e-01	 1.2550976124e+00	 3.7855464938e+01
 1.1344122785e-01	 1.2573930721e+00	 5.6599341330e+01
 9.0482533003e-02	 1.2592534142e+00	 7.5974488390e+01
 6.7649102962e-02	 1.2606862611e+00	 9.6107438755e+01
 4.4951111618e-02	 1.2616995076e+00	 1.1711661483e+02
 2.2398305381e-02	 1.2623012976e+00	 1.3911224784e+02
 0.0000000000e+00	 1.2625000000e+00	 1.6219633898e+02
 2.3200289183e-01	 1.2537143447e+00	-4.2161849886e+01
 2.0835318682e-01	 1.2578608626e+00	-2.3667359098e+01
 1.8477234851e-01	 1.2615403994e+00	-4.9401151678e+00
 1.6127271253e-01	 1.2647593100e+00	 1.4130267703e+01
 1.3786622026e-01	 1.2675243214e+00	 3.3648147631e+01
 1.1456440833e-01	 1.2698425085e+00	 5.3711704068e+01
 9.1378399670e-02	 1.2717212698e+00	 7.4412823635e+01
 6.8318896063e-02	 1.2731683033e+00	 9.5837021473e+01
 4.5396172132e-02	 1.2741915820e+00	 1.1806339666e+02
 2.2620070782e-02	 1.2747993302e+00	 1.4116462007e+02
 0.0000000000e+00	 1.2750000000e+00	 1.6520695292e+02
 2.3427742998e-01	 1.2660056618e+00	-4.8326890684e+01
 2.1039586513e-01	 1.2701928318e+00	-2.9392433752e+01
 1.8658384213e-01	 1.2739084425e+00	-1.0039682903e+01
 1.6285381756e-01	 1.2771589111e+00	 9.7955462466e+00
 1.3921784987e-01	 1.2799510304e+00	 3.0172690397e+01
 1.1568758880e-01	 1.2822919448e+00	 5.1146402687e+01
 9.2274266337e-02	 1.2841891254e+00	 7.2766541768e+01
 6.8988689165e-02	 1.2856503455e+00	 9.5078184557e+01
 4.5841232645e-02	 1.2866836563e+00	 1.1812166131e+02
 2.2841836183e-02	 1.2872973629e+00	 1.4193261157e+02
 0.0000000000e+00	 1.2875000000e+00	 1.6654205951e+02
 2.3655196814e-01	 1.2782969789e+00	-5.2177377209e+01
 2.1243854343e-01	 1.2825248010e+00	-3.3204578345e+01
 1.8839533574e-01	 1.2862764856e+00	-1.3627919793e+01
 1.6443492259e-01	 1.2895585121e+00	 6.5712304606e+00
 1.4056947948e-01	 1.2923777395e+00	 2.7408016861e+01
 1.1681076928e-01	 1.2947413812e+00	 4.8894174264e+01
 9.3170133003e-02	 1.2966569810e+00	 7.1038119134e+01
 6.9658482265e-02	 1.2981323876e+00	 9.3845052724e+01
 4.6286293158e-02	 1.2991757306e+00	 1.1731707497e+02
 2.3063601584e-02	 1.2997953955e+00	 1.4145330784e+02
 0.0000000000e+00	 1.3000000000e+00	 1.6625002690e+02
 2.3882650630e-01	 1.2905882961e+00	-5.3779406416e+01
 2.1448122173e-01	 1.2948567703e+00	-3.5158414537e+01
 1.9020682936e-01	 1.2986445288e+00	-1.5747972923e+01
 1.6601602761e-01	 1.3019581132e+00	 4.4256285623e+00
 1.4192110910e-01	 1.3048044485e+00	 2.5333853297e+01
 1.1793394976e-01	 1.3071908176e+00	 4.6946108510e+01
 9.4065999669e-02	 1.3091248366e+00	 6.9229937520e+01
 7.0328275366e-02	 1.3106144298e+00	 9.2151212400e+01
 4.6731353670e-02	 1.3116678050e+00	 1.1567432588e+02
 2.3285366984e-02	 1.3122934282e+00	 1.3976238145e+02
 0.0000000000e+00	 1.3125000000e+00	 1.6437738052e+02
 2.4110104445e-01	 1.3028796132e+00	-5.3196581361e+01
 2.1652390004e-01	 1.3071887395e+00	-3.5306503102e+01
 1.9201832297e-01	 1.3110125719e+00	-1.6441361480e+01
 1.6759713264e-01	 1.3143577143e+00	 3.3282444101e+00
 1.4327273871e-01	 1.3172311575e+00	 2.3930690768e+01
 1.1905713023e-01	 1.3196402539e+00	 4.5293631131e+01
 9.4961866334e-02	 1.3215926922e+00	 6.7344288609e+01
 7.0998068466e-02	 1.3230964720e+00	 9.0009737113e+01
 4.7176414182e-02	 1.3241598793e+00	 1.1321717048e+02
 2.3507132385e-02	 1.3247914608e+00	 1.3689415865e+02
 0.0000000000e+00	 1.3250000000e+00	 1.6096888997e+02
 2.4337558261e-01	 1.3151709303e+00	-5.0490127736e+01
 2.1856657834e-01	 1.3195207088e+00	-3.3699440228e+01
 1.9382981658e-01	 1.3233806150e+00	-1.5748052821e+01
 1.6917823767e-01	 1.3267573154e+00	 3.2497216334e+00
 1.4462436832e-01	 1.3296578666e+00	 2.3179749388e+01
 1.2018031071e-01	 1.3320896903e+00	 4.3928488132e+01
 9.5857732998e-02	 1.3340605477e+00	 6.5383378199e+01
 7.1667861566e-02	 1.3355785142e+00	 8.7433211461e+01
 4.7621474694e-02	 1.3366519536e+00	 1.0996847693e+02
 2.3728897785e-02	 1.3372894935e+00	 1.3288168232e+02
 0.0000000000e+00	 1.3375000000e+00	 1.5606765107e+02
 2.4565012076e-01	 1.3274622474e+00	-4.5719003932e+01
 2.2060925664e-01	 1.3318526780e+00	-3.0385948474e+01
 1.9564131020e-01	 1.3357486581e+00	-1.3706534314e+01
 1.7075934269e-01	 1.3391569165e+00	 4.1617908660e+00
 1.4597599793e-01	 1.3420845756e+00	 2.3062944570e+01
 1.2130349118e-01	 1.3445391266e+00	 4.2842730986e+01
 9.6753599662e-02	 1.3465284033e+00	 6.3349330171e+01
 7.2337654665e-02	 1.3480605564e+00	 8.4433753747e+01
 4.8066535206e-02	 1.3491440280e+00	 1.0595026622e+02
 2.3950663185e-02	 1.3497875261e+00	 1.2775677137e+02
 0.0000000000e+00	 1.3500000000e+00	 1.4971516335e+02
 2.4792465892e-01	 1.3397535645e+00	-3.8940005040e+01
 2.2265193494e-01	 1.3441846472e+00	-2.5412962711e+01
 1.9745280381e-01	 1.3481167013e+00	-1.0353881229e+01
 1.7234044772e-01	 1.3515565175e+00	 6.0372198852e+00
 1.4732762754e-01	 1.3545112846e+00	 2.3562855136e+01
 1.2242667166e-01	 1.3569885630e+00	 4.2028702626e+01
 9.7649466326e-02	 1.3589962589e+00	 6.1244190255e+01
 7.3007447764e-02	 1.3605425986e+00	 8.1023037371e+01
 4.8511595717e-02	 1.3616361023e+00	 1.0118375109e+02
 2.4172428585e-02	 1.3622855588e+00	 1.2155007687e+02
 0.0000000000e+00	 1.3625000000e+00	 1.4195140331e+02
 2.5019919707e-01	 1.3520448816e+00	-3.0207861186e+01
 2.2469461325e-01	 1.3565166165e+00	-1.8825711379e+01
 1.9926429742e-01	 1.3604847444e+00	-5.7258209202e+00
 1.7392155274e-01	 1.3639561186e+00	 8.8497664690e+00
 1.4867925715e-01	 1.3669379937e+00	 2.4662693157e+01
 1.2354985213e-01	 1.3694379993e+00	 4.1479024194e+01
 9.8545332989e-02	 1.3714641145e+00	 5.9069929579e+01
 7.3677240862e-02	 1.3730246408e+00	 7.7212311049e+01
 4.8956656228e-02	 1.3741281766e+00	 9.5689372696e+01
 2.4394193985e-02	 1.3747835914e+00	 1.1429113516e+02
 0.0000000000e+00	 1.3750000000e+00	 1.3281489358e+02
 1.3750000000e+00	 0.0000000000e+00	 8.4058591465e+01
 1.3747835914e+00	 2.4394193985e-02	 7.0943016693e+01
 1.3741281766e+00	 4.8956656228e-02	 5.7235104522e+01
 1.3730246408e+00	 7.3677240862e-02	 4.2949638314e+01
 1.3714641145e+00	 9.8545332989e-02	 2.8103089456e+01
 1.3694379993e+00	 1.2354985213e-01	 1.2713628343e+01
 1.3669379937e+00	 1.4867925715e-01	-3.1988715283e+00
 1.3639561186e+00	 1.7392155274e-01	-1.9612836769e+01
 1.3604847444e+00	 1.9926429742e-01	-3.6505004971e+01
 1.3565166165e+00	 2.2469461325e-01	-5.3850443573e+01
 1.3520448816e+00	 2.5019919707e-01	-7.1622577016e+01
 1.3875000000e+00	 0.0000000000e+00	 7.8149775827e+01
 1.3872816241e+00	 2.4615959384e-02	 6.5113298477e+01
 1.3866202510e+00	 4.9401716739e-02	 5.1584108799e+01
 1.3855066830e+00	 7.4347033960e-02	 3.7576914542e+01
 1.3839319701e+00	 9.9441199652e-02	 2.3107778766e+01
 1.3818874357e+00	 1.2467303260e-01	 8.1941164701e+00
 1.3793647027e+00	 1.5003088676e-01	-7.1453147893e+00
 1.3763557197e+00	 1.7550265777e-01	-2.2890430565e+01
 1.3728527875e+00	 2.0107579104e-01	-3.9019841692e+01
 1.3688485857e+00	 2.2673729155e-01	-5.5510883164e+01
 1.3643361987e+00	 2.5247373523e-01	-7.2339649875e+01
 1.4000000000e+00	 0.0000000000e+00	 7.2247214163e+01
 1.3997796567e+00	 2.4837724784e-02	 5.9270602075e+01
 1.3991123253e+00	 4.9846777249e-02	 4.5899032068e+01
 1.3979887252e+00	 7.5016827059e-02	 3.2147128188e+01
 1.3963998257e+00	 1.0033706631e-01	 1.8030540969e+01
 1.3943368721e+00	 1.2579621308e-01	 3.5659298718e+00
 1.3917914117e+00	 1.5138251637e-01	-1.1229059407e+01
 1.3887553208e+00	 1.7708376279e-01	-2.6335822901e+01
 1.3852208307e+00	 2.0288728465e-01	-4.1734831708e+01
 1.3811805550e+00	 2.2877996985e-01	-5.7405670743e+01
 1.3766275158e+00	 2.5474827338e-01	-7.3327082959e+01
 1.4125000000e+00	 0.0000000000e+00	 6.6350739007e+01
 1.4122776894e+00	 2.5059490184e-02	 5.3415271924e+01
 1.4116043996e+00	 5.0291837760e-02	 4.0180780284e+01
 1.4104707673e+00	 7.5686620157e-02	 2.6661796562e+01
 1.4088676813e+00	 1.0123293298e-01	 1.2873554675e+01
 1.4067863084e+00	 1.2691939355e-01	-1.1680415938e+00
 1.4042181208e+00	 1.5273414598e-01	-1.5446454435e+01
 1.4011549218e+00	 1.7866486781e-01	-2.9944552131e+01
 1.3975888738e+00	 2.0469877826e-01	-4.4644653402e+01
 1.3935125242e+00	 2.3082264815e-01	-5.9528575925e+01
 1.3889188329e+00	 2.5702281154e-01	-7.4577688904e+01
 1.4250000000e+00	 0.0000000000e+00	 6.0460188828e+01
 1.4247757220e+00	 2.5281255583e-02	 4.7547640417e+01
 1.4240964740e+00	 5.0736898271e-02	 3.4430227649e+01
 1.4229528095e+00	 7.6356413255e-02	 2.1122383759e+01
 1.4213355368e+00	 1.0212879964e-01	 7.6389220621e+00
 1.4192357448e+00	 1.2804257402e-01	-6.0050094696e+00
 1.4166448298e+00	 1.5408577559e-01	-1.9793977048e+01
 1.4135545229e+00	 1.8024597284e-01	-3.3712313186e+01
 1.4099569169e+00	 2.0651027187e-01	-4.7744171926e+01
 1.4058444934e+00	 2.3286532645e-01	-6.1873586991e+01
 1.4012101500e+00	 2.5929734969e-01	-7.6084532608e+01
 1.4375000000e+00	 0.0000000000e+00	 5.4575407769e+01
 1.4372737547e+00	 2.5503020983e-02	 4.1668028437e+01
 1.4365885483e+00	 5.1181958781e-02	 2.8648217993e+01
 1.4354348517e+00	 7.7026206353e-02	 1.5530302969e+01
 1.4338033924e+00	 1.0302466630e-01	 2.3286721997e+00
 1.4316851811e+00	 1.2916575450e-01	-1.0942282292e+01
 1.4290715388e+00	 1.5543740520e-01	-2.4268226971e+01
 1.4259541240e+00	 1.8182707786e-01	-3.7634950771e+01
 1.4223249601e+00	 2.0832176549e-01	-5.1028431077e+01
 1.4181764627e+00	 2.3490800476e-01	-6.4434901381e+01
 1.4135014671e+00	 2.6157188785e-01	-7.7840920258e+01
 1.4500000000e+00	 0.0000000000e+00	 4.8696245410e+01
 1.4497717873e+00	 2.5724786382e-02	 3.5776745846e+01
 1.4490806226e+00	 5.1627019292e-02	 2.2835566085e+01
 1.4479168939e+00	 7.7695999451e-02	 9.8869186778e+00
 1.4462712480e+00	 1.0392053297e-01	-3.0552358015e+00
 1.4441346175e+00	 1.3028893497e-01	-1.5977261407e+01
 1.4414982479e+00	 1.5678903481e-01	-2.8865921192e+01
 1.4383537251e+00	 1.8340818289e-01	-4.1708452906e+01
 1.4346930032e+00	 2.1013325910e-01	-5.4492645600e+01
 1.4305084319e+00	 2.3695068306e-01	-6.7206916683e+01
 1.4257927842e+00	 2.6384642601e-01	-7.9840388937e+01
 1.4625000000e+00	 0.0000000000e+00	 4.2822556527e+01
 1.4622698200e+00	 2.5946551782e-02	 2.9874091959e+01
 1.4615726970e+00	 5.2072079803e-02	 1.6993058870e+01
 1.4603989361e+00	 7.8365792550e-02	 4.1935487409e+00
 1.4587391036e+00	 1.0481639963e-01	-8.5109097992e+00
 1.4565840538e+00	 1.3141211544e-01	-2.1107437011e+01
 1.4539249569e+00	 1.5814066442e-01	-3.3583888959e+01
 1.4507533262e+00	 1.8498928791e-01	-4.5928944800e+01
 1.4470610463e+00	 2.1194475271e-01	-5.8132193880e+01
 1.4428404012e+00	 2.3899336136e-01	-7.0184222076e+01
 1.4380841013e+00	 2.6612096416e-01	-8.2076696750e+01
 1.4750000000e+00	 0.0000000000e+00	 3.6954200878e+01
 1.4747678526e+00	 2.6168317182e-02	 2.3960355991e+01
 1.4740647713e+00	 5.2517140314e-02	 1.1121456652e+01
 1.4728809783e+00	 7.9035585648e-02	-1.5485336358e+00
 1.4712069592e+00	 1.0571226629e-01	-1.4036521782e+01
 1.4690334902e+00	 1.3253529592e-01	-2.6330384377e+01
 1.4663516659e+00	 1.5949229403e-01	-3.8419067017e+01
 1.4631529272e+00	 1.8657039294e-01	-5.0292683042e+01
 1.4594290895e+00	 2.1375624632e-01	-6.1942611011e+01
 1.4551723704e+00	 2.4103603966e-01	-7.3361590212e+01
 1.4503754184e+00	 2.6839550232e-01	-8.4543813461e+01
 1.4875000000e+00	 0.0000000000e+00	 3.1091042990e+01
 1.4872658853e+00	 2.6390082581e-02	 1.8035817480e+01
 1.4865568456e+00	 5.2962200824e-02	 5.2214942131e+00
 1.4853630205e+00	 7.9705378746e-02	-7.3380980219e+00
 1.4836748148e+00	 1.0660813296e-01	-1.9630305173e+01
 1.4814829266e+00	 1.3365847639e-01	-3.1643760286e+01
 1.4787783750e+00	 1.6084392364e-01	-4.3368495093e+01
 1.4755525283e+00	 1.8815149796e-01	-5.4796050078e+01
 1.4717971326e+00	 2.1556773994e-01	-6.5919582209e+01
 1.4675043396e+00	 2.4307871796e-01	-7.6733969508e+01
 1.4626667355e+00	 2.7067004047e-01	-8.7235911601e+01
 1.5000000000e+00	 0.0000000000e+00	 2.5232951962e+01
 1.4997639179e+00	 2.6611847981e-02	 1.2100746691e+01
 1.4990489200e+00	 5.3407261335e-02	-7.0611812529e-01
 1.4978450627e+00	 8.0375171844e-02	-1.3173954980e+01
 1.4961426704e+00	 1.0750399962e-01	-2.5290552276e+01
 1.4939323629e+00	 1.3478165686e-01	-3.7045299631e+01
 1.4912050840e+00	 1.6219555325e-01	-4.8429311607e+01
 1.4879521294e+00	 1.8973260298e-01	-5.9435548969e+01
 1.4841651757e+00	 2.1737923355e-01	-7.0058936557e+01
 1.4798363089e+00	 2.4512139627e-01	-8.0296476822e+01
 1.4749580526e+00	 2.7294457863e-01	-9.0147358019e+01
 1.3520448816e+00	 2.5019919707e-01	-7.1622577016e+01
 1.3470631137e+00	 2.7576433360e-01	-6.9172492742e+01
 1.3415653398e+00	 3.0137591004e-01	-6.6393920690e+01
 1.3355460646e+00	 3.2701943254e-01	-6.3317801911e+01
 1.3290002958e+00	 3.5268004430e-01	-5.9977045286e+01
 1.3219235675e+00	 3.7834254540e-01	-5.6406469153e+01
 1.3143119634e+00	 4.0399141433e-01	-5.2642731035e+01
 1.3061621391e+00	 4.2961083119e-01	-4.8724245413e+01
 1.2974713433e+00	 4.5518470244e-01	-4.4691089519e+01
 1.2882374373e+00	 4.8069668729e-01	-4.0584897269e+01
 1.2784589140e+00	 5.0613022563e-01	-3.6448741509e+01
 1.3643361987e+00	 2.5247373523e-01	-7.2339649875e+01
 1.3593091420e+00	 2.7827128209e-01	-6.9402262350e+01
 1.3537613883e+00	 3.0411569104e-01	-6.6207474077e+01
 1.3476873925e+00	 3.2999233647e-01	-6.2784606126e+01
 1.3410821167e+00	 3.5588622652e-01	-5.9164653202e+01
 1.3339410545e+00	 3.8178202308e-01	-5.5380222740e+01
 1.3262602540e+00	 4.0766406356e-01	-5.1465463538e+01
 1.3180363404e+00	 4.3351638421e-01	-4.7455983876e+01
 1.3092665373e+00	 4.5932274519e-01	-4.3388759215e+01
 1.2999486867e+00	 4.8506665718e-01	-3.9302029605e+01
 1.2900812677e+00	 5.1073140950e-01	-3.5235187050e+01
 1.3766275158e+00	 2.5474827338e-01	-7.3327082959e+01
 1.3715551703e+00	 2.8077823058e-01	-6.9876192397e+01
 1.3659574368e+00	 3.0685547204e-01	-6.6237653578e+01
 1.3598287203e+00	 3.3296524041e-01	-6.2439191475e+01
 1.3531639376e+00	 3.5909240874e-01	-5.8509914222e+01
 1.3459585415e+00	 3.8522150077e-01	-5.4480249725e+01
 1.3382085445e+00	 4.1133671278e-01	-5.0381873184e+01
 1.3299105417e+00	 4.3742193722e-01	-4.6247625582e+01
 1.3210617313e+00	 4.6346078794e-01	-4.2111423249e+01
 1.3116599361e+00	 4.8943662707e-01	-3.8008158716e+01
 1.3017036215e+00	 5.1533259338e-01	-3.3973593126e+01
 1.3889188329e+00	 2.5702281154e-01	-7.4577688904e+01
 1.3838011986e+00	 2.8328517906e-01	-7.0587790237e+01
 1.3781534854e+00	 3.0959525305e-01	-6.6478696741e+01
 1.3719700482e+00	 3.3593814434e-01	-6.2276560541e+01
 1.3652457584e+00	 3.6229859096e-01	-5.8008630076e+01
 1.3579760284e+00	 3.8866097846e-01	-5.3703184253e+01
 1.3501568351e+00	 4.1500936201e-01	-4.9389458882e+01
 1.3417847429e+00	 4.4132749023e-01	-4.5097565510e+01
 1.3328569254e+00	 4.6759883069e-01	-4.0858402845e+01
 1.3233711856e+00	 4.9380659695e-01	-3.6703561009e+01
 1.3133259753e+00	 5.1993377725e-01	-3.2665218947e+01
 1.4012101500e+00	 2.5929734969e-01	-7.6084532608e+01
 1.3960472269e+00	 2.8579212755e-01	-7.1530791121e+01
 1.3903495339e+00	 3.1233503405e-01	-6.6925043404e+01
 1.3841113761e+00	 3.3891104827e-01	-6.2291891368e+01
 1.3773275793e+00	 3.6550477318e-01	-5.7656749928e+01
 1.3699935154e+00	 3.9210045614e-01	-5.3045778719e+01
 1.3621051257e+00	 4.1868201123e-01	-4.8485807459e+01
 1.3536589442e+00	 4.4523304325e-01	-4.4004255129e+01
 1.3446521194e+00	 4.7173687344e-01	-3.9629043229e+01
 1.3350824350e+00	 4.9817656684e-01	-3.5388503396e+01
 1.3249483290e+00	 5.2453496112e-01	-3.1311279755e+01
 1.4135014671e+00	 2.6157188785e-01	-7.7840920258e+01
 1.4082932552e+00	 2.8829907604e-01	-7.2699148291e+01
 1.4025455825e+00	 3.1507481505e-01	-6.7571326904e+01
 1.3962527039e+00	 3.4188395221e-01	-6.2480529840e+01
 1.3894094002e+00	 3.6871095541e-01	-5.7450363971e+01
 1.3820110024e+00	 3.9553993383e-01	-5.2504898617e+01
 1.3740534163e+00	 4.2235466045e-01	-4.7668589833e+01
 1.3655331454e+00	 4.4913859626e-01	-4.2966199940e+01
 1.3564473134e+00	 4.7587491620e-01	-3.8422712588e+01
 1.3467936844e+00	 5.0254653673e-01	-3.4063243706e+01
 1.3365706828e+00	 5.2913614499e-01	-2.9912948736e+01
 1.4257927842e+00	 2.6384642601e-01	-7.9840388937e+01
 1.4205392835e+00	 2.9080602453e-01	-7.4087023582e+01
 1.4147416310e+00	 3.1781459605e-01	-6.8412365733e+01
 1.4083940318e+00	 3.4485685614e-01	-6.2837982435e+01
 1.4014912211e+00	 3.7191713763e-01	-5.7385697347e+01
 1.3940284894e+00	 3.9897941152e-01	-5.2077517671e+01
 1.3860017068e+00	 4.2602730967e-01	-4.6935557393e+01
 1.3774073467e+00	 4.5304414927e-01	-4.1981957148e+01
 1.3682425075e+00	 4.8001295895e-01	-3.7238801078e+01
 1.3585049339e+00	 5.0691650661e-01	-3.2728031071e+01
 1.3481930365e+00	 5.3373732887e-01	-2.8471358832e+01
 1.4380841013e+00	 2.6612096416e-01	-8.2076696750e+01
 1.4327853118e+00	 2.9331297302e-01	-7.5688778510e+01
 1.4269376796e+00	 3.2055437705e-01	-6.9443155627e+01
 1.4205353596e+00	 3.4782976007e-01	-6.3359909371e+01
 1.4135730419e+00	 3.7512331985e-01	-5.7459104375e+01
 1.4060459763e+00	 4.0241888921e-01	-5.1760713205e+01
 1.3979499974e+00	 4.2969995890e-01	-4.6284538555e+01
 1.3892815480e+00	 4.5694970228e-01	-4.1050133454e+01
 1.3800377015e+00	 4.8415100170e-01	-3.6076719887e+01
 1.3702161833e+00	 5.1128647650e-01	-3.1383106302e+01
 1.3598153903e+00	 5.3833851274e-01	-2.6987604461e+01
 1.4503754184e+00	 2.6839550232e-01	-8.4543813461e+01
 1.4450313402e+00	 2.9581992150e-01	-7.7498965808e+01
 1.4391337281e+00	 3.2329415805e-01	-7.0658862054e+01
 1.4326766875e+00	 3.5080266401e-01	-6.4042118088e+01
 1.4256548628e+00	 3.7832950207e-01	-5.7667063087e+01
 1.4180634633e+00	 4.0585836689e-01	-5.1551661758e+01
 1.4098982880e+00	 4.3337260812e-01	-4.5713435504e+01
 1.4011557492e+00	 4.6085525530e-01	-4.0169382952e+01
 1.3918328955e+00	 4.8828904445e-01	-3.4935900340e+01
 1.3819274327e+00	 5.1565644639e-01	-3.0028702241e+01
 1.3714377441e+00	 5.4293969661e-01	-2.5462743145e+01
 1.4626667355e+00	 2.7067004047e-01	-8.7235911601e+01
 1.4572773685e+00	 2.9832686999e-01	-7.9512321391e+01
 1.4513297766e+00	 3.2603393905e-01	-7.2054813086e+01
 1.4448180154e+00	 3.5377556794e-01	-6.4880557061e+01
 1.4377366837e+00	 3.8153568429e-01	-5.8006170018e+01
 1.4300809503e+00	 4.0929784458e-01	-5.1447634911e+01
 1.4218465786e+00	 4.3704525734e-01	-4.5220221085e+01
 1.4130299505e+00	 4.6476080831e-01	-3.9338405142e+01
 1.4036280896e+00	 4.9242708720e-01	-3.3815793056e+01
 1.3936386821e+00	 5.2002641627e-01	-2.8665044091e+01
 1.3830600978e+00	 5.4754088048e-01	-2.3897797064e+01
 1.4749580526e+00	 2.7294457863e-01	-9.0147358019e+01
 1.4695233968e+00	 3.0083381848e-01	-8.1723756730e+01
 1.4635258252e+00	 3.2877372005e-01	-7.3626492616e+01
 1.4569593432e+00	 3.5674847187e-01	-6.5871309924e+01
 1.4498185046e+00	 3.8474186652e-01	-5.8473135277e+01
 1.4420984373e+00	 4.1273732226e-01	-5.1445995326e+01
 1.4337948692e+00	 4.4071790656e-01	-4.4802935867e+01
 1.4249041518e+00	 4.6866636132e-01	-3.8555943036e+01
 1.4154232836e+00	 4.9656512995e-01	-3.2715867141e+01
 1.4053499316e+00	 5.2439638616e-01	-2.7292349736e+01
 1.3946824516e+00	 5.5214206435e-01	-2.2293754526e+01
 1.2784589140e+00	 5.0613022563e-01	-3.6448741509e+01
 1.2681349147e+00	 5.3146856729e-01	-3.8171132237e+01
 1.2572652451e+00	 5.5669480277e-01	-3.9869303548e+01
 1.2458503886e+00	 5.8179189513e-01	-4.1517148464e+01
 1.2338915188e+00	 6.0674271315e-01	-4.3088000896e+01
 1.2213905094e+00	 6.3153006544e-01	-4.4554730392e+01
 1.2083499428e+00	 6.5613673552e-01	-4.5889842025e+01
 1.1947731159e+00	 6.8054551769e-01	-4.7065580880e+01
 1.1806640439e+00	 7.0473925348e-01	-4.8054040608e+01
 1.1660274628e+00	 7.2870086873e-01	-4.8827275426e+01
 1.1508688279e+00	 7.5241341089e-01	-4.9357414894e+01
 1.2900812677e+00	 5.1073140950e-01	-3.5235187050e+01
 1.2796634140e+00	 5.3630009973e-01	-3.6570701197e+01
 1.2686949292e+00	 5.6175566461e-01	-3.7888983673e+01
 1.2571763012e+00	 5.8708091236e-01	-3.9166148017e+01
 1.2451087144e+00	 6.1225855600e-01	-4.0377758807e+01
 1.2324940595e+00	 6.3727124786e-01	-4.1498917743e+01
 1.2193349423e+00	 6.6210161494e-01	-4.2504354628e+01
 1.2056346896e+00	 6.8673229512e-01	-4.3368522777e+01
 1.1913973534e+00	 7.1114597397e-01	-4.4065698365e+01
 1.1766277124e+00	 7.3532542209e-01	-4.4570083155e+01
 1.1613312718e+00	 7.5925353281e-01	-4.4855909998e+01
 1.3017036215e+00	 5.1533259338e-01	-3.3973593126e+01
 1.2911919132e+00	 5.4113163216e-01	-3.4938013337e+01
 1.2801246132e+00	 5.6681652646e-01	-3.5892093062e+01
 1.2685022139e+00	 5.9236992959e-01	-3.6814136473e+01
 1.2563259100e+00	 6.1777439885e-01	-3.7681908724e+01
 1.2435976096e+00	 6.4301243028e-01	-3.8472713471e+01
 1.2303199418e+00	 6.6806649436e-01	-3.9163475042e+01
 1.2164962634e+00	 6.9291907256e-01	-3.9730824882e+01
 1.2021306629e+00	 7.1755269446e-01	-4.0151191802e+01
 1.1872279621e+00	 7.4194997544e-01	-4.0400895539e+01
 1.1717937157e+00	 7.6609365473e-01	-4.0456243091e+01
 1.3133259753e+00	 5.1993377725e-01	-3.2665218947e+01
 1.3027204124e+00	 5.4596316460e-01	-3.3273908433e+01
 1.2915542973e+00	 5.7187738831e-01	-3.3879054656e+01
 1.2798281265e+00	 5.9765894683e-01	-3.4461123329e+01
 1.2675431056e+00	 6.2329024170e-01	-3.5000050892e+01
 1.2547011597e+00	 6.4875361269e-01	-3.5475313551e+01
 1.2413049413e+00	 6.7403137378e-01	-3.5866000762e+01
 1.2273578372e+00	 6.9910585000e-01	-3.6150892797e+01
 1.2128639724e+00	 7.2395941495e-01	-3.6308542000e+01
 1.1978282118e+00	 7.4857452879e-01	-3.6317357298e+01
 1.1822561596e+00	 7.7293377665e-01	-3.6155691466e+01
 1.3249483290e+00	 5.2453496112e-01	-3.1311279755e+01
 1.3142489116e+00	 5.5079469703e-01	-3.1579197025e+01
 1.3029839813e+00	 5.7693825016e-01	-3.1850276801e+01
 1.2911540391e+00	 6.0294796406e-01	-3.2107118010e+01
 1.2787603013e+00	 6.2880608455e-01	-3.2331799849e+01
 1.2658047098e+00	 6.5449479511e-01	-3.2505942453e+01
 1.2522899408e+00	 6.7999625319e-01	-3.2610771773e+01
 1.2382194110e+00	 7.0529262743e-01	-3.2627188371e+01
 1.2235972819e+00	 7.3036613543e-01	-3.2535839795e+01
 1.2084284614e+00	 7.5519908215e-01	-3.2317196123e+01
 1.1927186035e+00	 7.7977389856e-01	-3.1951628285e+01
 1.3365706828e+00	 5.2913614499e-01	-2.9912948736e+01
 1.3257774109e+00	 5.5562622946e-01	-2.9854661687e+01
 1.3144136654e+00	 5.8199911200e-01	-2.9806153878e+01
 1.3024799517e+00	 6.0823698129e-01	-2.9752129861e+01
 1.2899774969e+00	 6.3432192740e-01	-2.9676783809e+01
 1.2769082598e+00	 6.6023597752e-01	-2.9563851901e+01
 1.2632749402e+00	 6.8596113261e-01	-2.9396668697e+01
 1.2490809848e+00	 7.1147940487e-01	-2.9158227260e+01
 1.2343305914e+00	 7.3677285592e-01	-2.8831242739e+01
 1.2190287111e+00	 7.6182363550e-01	-2.8398219067e+01
 1.2031810474e+00	 7.8661402048e-01	-2.7841518418e+01
 1.3481930365e+00	 5.3373732887e-01	-2.8471358832e+01
 1.3373059101e+00	 5.6045776189e-01	-2.8101058231e+01
 1.3258433494e+00	 5.8705997385e-01	-2.7747066908e+01
 1.3138058643e+00	 6.1352599852e-01	-2.7396168158e+01
 1.3011946925e+00	 6.3983777025e-01	-2.7034644067e+01
 1.2880118099e+00	 6.6597715994e-01	-2.6648319694e+01
 1.2742599397e+00	 6.9192601202e-01	-2.6222611041e+01
 1.2599425586e+00	 7.1766618230e-01	-2.5742576599e+01
 1.2450639009e+00	 7.4317957641e-01	-2.5192972231e+01
 1.2296289607e+00	 7.6844818885e-01	-2.4558309123e+01
 1.2136434913e+00	 7.9345414240e-01	-2.3822914480e+01
 1.3598153903e+00	 5.3833851274e-01	-2.6987604461e+01
 1.3488344093e+00	 5.6528929432e-01	-2.6319116851e+01
 1.3372730334e+00	 5.9212083569e-01	-2.5673384116e+01
 1.3251317770e+00	 6.1881501575e-01	-2.5039242105e+01
 1.3124118881e+00	 6.4535361310e-01	-2.4405034440e+01
 1.2991153600e+00	 6.7171834235e-01	-2.3758648594e+01
 1.2852449392e+00	 6.9789089144e-01	-2.3087555538e+01
 1.2708041323e+00	 7.2385295974e-01	-2.2378852805e+01
 1.2557972104e+00	 7.4958629690e-01	-2.1619310777e+01
 1.2402292104e+00	 7.7507274221e-01	-2.0795421973e+01
 1.2241059352e+00	 8.0029426432e-01	-1.9893453086e+01
 1.3714377441e+00	 5.4293969661e-01	-2.5462743145e+01
 1.3603629085e+00	 5.7012082675e-01	-2.4509543207e+01
 1.3487027175e+00	 5.9718169753e-01	-2.3585461479e+01
 1.3364576896e+00	 6.2410403298e-01	-2.2681360838e+01
 1.3236290838e+00	 6.5086945594e-01	-2.1787620738e+01
 1.3102189101e+00	 6.7745952476e-01	-2.0894165266e+01
 1.2962299387e+00	 7.0385577085e-01	-1.9990494562e+01
 1.2816657061e+00	 7.3003973717e-01	-1.9065719488e+01
 1.2665305199e+00	 7.5599301738e-01	-1.8108599408e+01
 1.2508294601e+00	 7.8169729556e-01	-1.7107582912e+01
 1.2345683791e+00	 8.0713438623e-01	-1.6050851284e+01
 1.3830600978e+00	 5.4754088048e-01	-2.3897797064e+01
 1.3718914078e+00	 5.7495235918e-01	-2.2673019455e+01
 1.3601324015e+00	 6.0224255938e-01	-2.1483643236e+01
 1.3477836022e+00	 6.2939305020e-01	-2.0322533426e+01
 1.3348462794e+00	 6.5638529879e-01	-1.9182080253e+01
 1.3213224602e+00	 6.8320070718e-01	-1.8054219270e+01
 1.3072149381e+00	 7.0982065027e-01	-1.6930454632e+01
 1.2925272799e+00	 7.3622651460e-01	-1.5801885462e+01
 1.2772638293e+00	 7.6239973787e-01	-1.4659235213e+01
 1.2614297097e+00	 7.8832184891e-01	-1.3492883918e+01
 1.2450308230e+00	 8.1397450815e-01	-1.2292903181e+01
 1.3946824516e+00	 5.5214206435e-01	-2.2293754526e+01
 1.3834199070e+00	 5.7978389161e-01	-2.0810205225e+01
 1.3715620856e+00	 6.0730342122e-01	-1.9368262375e+01
 1.3591095148e+00	 6.3468206743e-01	-1.7962768874e+01
 1.3460634750e+00	 6.6190114164e-01	-1.6588101286e+01
 1.3324260103e+00	 6.8894188959e-01	-1.5238182109e+01
 1.3181999376e+00	 7.1578552968e-01	-1.3906494989e+01
 1.3033888537e+00	 7.4241329204e-01	-1.2586102864e+01
 1.2879971388e+00	 7.6880645835e-01	-1.1269669004e+01
 1.2720299594e+00	 7.9494640226e-01	-9.9494808701e+00
 1.2554932668e+00	 8.2081463007e-01	-8.6174767211e+00
 1.1508688279e+00	 7.5241341089e-01	-4.9357414894e+01
 1.1351943120e+00	 7.7586008655e-01	-4.7997143515e+01
 1.1190107996e+00	 7.9902429902e-01	-4.5995050263e+01
 1.1023258795e+00	 8.2188968569e-01	-4.3393193877e+01
 1.0851478353e+00	 8.4444015516e-01	-4.0236194449e+01
 1.0674856329e+00	 8.6665992379e-01	-3.6571073072e+01
 1.0493489065e+00	 8.8853355166e-01	-3.2447076979e+01
 1.0307479413e+00	 9.1004597768e-01	-2.7915491175e+01
 1.0116936551e+00	 9.3118255368e-01	-2.3029437678e+01
 9.9219757688e-01	 9.5192907740e-01	-1.7843663618e+01
 9.7227182412e-01	 9.7227182412e-01	-1.2414319541e+01
 1.1613312718e+00	 7.5925353281e-01	-4.4855909998e+01
 1.1455142603e+00	 7.8291336007e-01	-4.3750247693e+01
 1.1291836250e+00	 8.0628815628e-01	-4.2043389835e+01
 1.1123470238e+00	 8.2936141010e-01	-3.9773832733e+01
 1.0950128156e+00	 8.5211688384e-01	-3.6982476126e+01
 1.0771900478e+00	 8.7453865036e-01	-3.3712476736e+01
 1.0588884420e+00	 8.9661112940e-01	-3.0009088226e+01
 1.0401183771e+00	 9.1831912293e-01	-2.5919488446e+01
 1.0208908701e+00	 9.3964784962e-01	-2.1492595038e+01
 1.0012175549e+00	 9.6058297811e-01	-1.6778870488e+01
 9.8111065889e-01	 9.8111065889e-01	-1.1830117911e+01
 1.1717937157e+00	 7.6609365473e-01	-4.0456243091e+01
 1.1558342086e+00	 7.8996663358e-01	-3.9577906570e+01
 1.1393564505e+00	 8.1355201354e-01	-3.8138304135e+01
 1.1223681682e+00	 8.3683313452e-01	-3.6172419226e+01
 1.1048777959e+00	 8.5979361252e-01	-3.3717482845e+01
 1.0868944626e+00	 8.8241737694e-01	-3.0812840856e+01
 1.0684279775e+00	 9.0468870714e-01	-2.7499808571e+01
 1.0494888130e+00	 9.2659226818e-01	-2.3821513445e+01
 1.0300880852e+00	 9.4811314557e-01	-1.9822726829e+01
 1.0102375328e+00	 9.6923687881e-01	-1.5549685793e+01
 9.8994949365e-01	 9.8994949365e-01	-1.1049906171e+01
 1.1822561596e+00	 7.7293377665e-01	-3.6155691466e+01
 1.1661541569e+00	 7.9701990710e-01	-3.5478121618e+01
 1.1495292759e+00	 8.2081587081e-01	-3.4278537324e+01
 1.1323893126e+00	 8.4430485893e-01	-3.2588457398e+01
 1.1147427762e+00	 8.6747034120e-01	-3.0441494354e+01
 1.0965988775e+00	 8.9029610352e-01	-2.7873235282e+01
 1.0779675130e+00	 9.1276628488e-01	-2.4921110897e+01
 1.0588592488e+00	 9.3486541343e-01	-2.1624253506e+01
 1.0392853002e+00	 9.5657844151e-01	-1.8023344714e+01
 1.0192575108e+00	 9.7789077951e-01	-1.4160453827e+01
 9.9878832842e-01	 9.9878832842e-01	-1.0078867949e+01
 1.1927186035e+00	 7.7977389856e-01	-3.1951628285e+01
 1.1764741052e+00	 8.0407318061e-01	-3.1448964781e+01
 1.1597021014e+00	 8.2807972807e-01	-3.0462877987e+01
 1.1424104569e+00	 8.5177658335e-01	-2.9021469067e+01
 1.1246077565e+00	 8.7514706988e-01	-2.7154780965e+01
 1.1063032923e+00	 8.9817483010e-01	-2.4894692711e+01
 1.0875070486e+00	 9.2084386262e-01	-2.2274802766e+01
 1.0682296846e+00	 9.4313855868e-01	-1.9330302072e+01
 1.0484825153e+00	 9.6504373745e-01	-1.6097837550e+01
 1.0282774888e+00	 9.8654468022e-01	-1.2615366867e+01
 1.0076271632e+00	 1.0076271632e+00	-8.9220054109e+00
 1.2031810474e+00	 7.8661402048e-01	-2.7841518418e+01
 1.1867940535e+00	 8.1112645412e-01	-2.7488575410e+01
 1.1698749268e+00	 8.3534358534e-01	-2.6690157200e+01
 1.1524316013e+00	 8.5924830776e-01	-2.5470993044e+01
 1.1344727369e+00	 8.8282379857e-01	-2.3857603960e+01
 1.1160077072e+00	 9.0605355668e-01	-2.1878210305e+01
 1.0970465841e+00	 9.2892144036e-01	-1.9562629256e+01
 1.0776001205e+00	 9.5141170393e-01	-1.6942162779e+01
 1.0576797303e+00	 9.7350903339e-01	-1.4049476722e+01
 1.0372974667e+00	 9.9519858092e-01	-1.0918471783e+01
 1.0164659980e+00	 1.0164659980e+00	-7.5841471512e+00
 1.2136434913e+00	 7.9345414240e-01	-2.3822914480e+01
 1.1971140018e+00	 8.1817972764e-01	-2.3595157359e+01
 1.1800477523e+00	 8.4260744260e-01	-2.2959246698e+01
 1.1624527456e+00	 8.6672003218e-01	-2.1936584404e+01
 1.1443377172e+00	 8.9050052725e-01	-2.0550215980e+01
 1.1257121220e+00	 9.1393228326e-01	-1.8824751215e+01
 1.1065861196e+00	 9.3699901811e-01	-1.6786275657e+01
 1.0869705563e+00	 9.5968484918e-01	-1.4462253318e+01
 1.0668769453e+00	 9.8197432933e-01	-1.1881421206e+01
 1.0463174447e+00	 1.0038524816e+00	-9.0736762990e+00
 1.0253048327e+00	 1.0253048327e+00	-6.0699556688e+00
 1.2241059352e+00	 8.0029426432e-01	-1.9893453086e+01
 1.2074339501e+00	 8.2523300115e-01	-1.9766976224e+01
 1.1902205777e+00	 8.4987129986e-01	-1.9269057132e+01
 1.1724738900e+00	 8.7419175659e-01	-1.8417813787e+01
 1.1542026975e+00	 8.9817725593e-01	-1.7232861389e+01
 1.1354165368e+00	 9.2181100984e-01	-1.5735246035e+01
 1.1161256551e+00	 9.4507659585e-01	-1.3947370015e+01
 1.0963409921e+00	 9.6795799444e-01	-1.1892909110e+01
 1.0760741604e+00	 9.9043962528e-01	-9.5967223723e+00
 1.0553374227e+00	 1.0125063823e+00	-7.0847549399e+00
 1.0341436675e+00	 1.0341436675e+00	-4.3839344635e+00
 1.2345683791e+00	 8.0713438623e-01	-1.6050851284e+01
 1.2177538984e+00	 8.3228627467e-01	-1.6002356724e+01
 1.2003934032e+00	 8.5713515713e-01	-1.5618536423e+01
 1.1824950344e+00	 8.8166348101e-01	-1.4914266737e+01
 1.1640676778e+00	 9.0585398462e-01	-1.3905776626e+01
 1.1451209517e+00	 9.2968973642e-01	-1.2610594177e+01
 1.1256651906e+00	 9.5315417359e-01	-1.1047485565e+01
 1.1057114279e+00	 9.7623113969e-01	-9.2363867878e+00
 1.0852713754e+00	 9.9890492122e-01	-7.1983285372e+00
 1.0643574007e+00	 1.0211602830e+00	-4.9553546709e+00
 1.0429825022e+00	 1.0429825022e+00	-2.5304347705e+00
 1.2450308230e+00	 8.1397450815e-01	-1.2292903181e+01
 1.2280738467e+00	 8.3933954818e-01	-1.2299680217e+01
 1.2105662286e+00	 8.6439901439e-01	-1.2006668189e+01
 1.1925161787e+00	 8.8913520543e-01	-1.1425543070e+01
 1.1739326581e+00	 9.1353071330e-01	-1.0569190534e+01
 1.1548253665e+00	 9.3756846300e-01	-9.4516651798e+00
 1.1352047261e+00	 9.6123175134e-01	-8.0881430238e+00
 1.1150818638e+00	 9.8450428494e-01	-6.4948675052e+00
 1.0944685905e+00	 1.0073702172e+00	-4.6890892949e+00
 1.0733773786e+00	 1.0298141837e+00	-2.6890002555e+00
 1.0518213370e+00	 1.0518213370e+00	-5.1366195502e-01
 1.2554932668e+00	 8.2081463007e-01	-8.6174767211e+00
 1.2383937950e+00	 8.4639282170e-01	-8.6573823364e+00
 1.2207390541e+00	 8.7166287166e-01	-8.4324702583e+00
 1.2025373231e+00	 8.9660692984e-01	-7.9512562833e+00
 1.1837976385e+00	 9.2120744199e-01	-7.2233246750e+00
 1.1645297814e+00	 9.4544718958e-01	-6.2592999539e+00
 1.1447442616e+00	 9.6930932908e-01	-5.0708127790e+00
 1.1244522996e+00	 9.9277743019e-01	-3.6704600774e+00
 1.1036658055e+00	 1.0158355131e+00	-2.0717596265e+00
 1.0823973566e+00	 1.0384680844e+00	-2.8909934429e-01
 1.0606601718e+00	 1.0606601718e+00	 1.6623184121e+00
 9.7227182412e-01	 9.7227182412e-01	-1.2414319541e+01
 9.5192907740e-01	 9.9219757688e-01	-9.3044600388e+00
 9.3118255368e-01	 1.0116936551e+00	-6.7446929892e+00
 9.1004597768e-01	 1.0307479413e+00	-4.7200546008e+00
 8.8853355166e-01	 1.0493489065e+00	-3.2138466006e+00
 8.6665992379e-01	 1.0674856329e+00	-2.2077164163e+00
 8.4444015516e-01	 1.0851478353e+00	-1.6817454694e+00
 8.2188968569e-01	 1.1023258795e+00	-1.6145449283e+00
 7.9902429902e-01	 1.1190107996e+00	-1.9833582219e+00
 7.7586008655e-01	 1.1351943120e+00	-2.7641695605e+00
 7.5241341089e-01	 1.1508688279e+00	-3.9318176744e+00
 9.8111065889e-01	 9.8111065889e-01	-1.1830117911e+01
 9.6058297811e-01	 1.0012175549e+00	-8.7209336518e+00
 9.3964784962e-01	 1.0208908701e+00	-6.1043196410e+00
 9.1831912293e-01	 1.0401183771e+00	-3.9702677009e+00
 8.9661112940e-01	 1.0588884420e+00	-2.3072066939e+00
 8.7453865036e-01	 1.0771900478e+00	-1.1020603626e+00
 8.5211688384e-01	 1.0950128156e+00	-3.4031260274e-01
 8.2936141010e-01	 1.1123470238e+00	-6.0796806982e-03
 8.0628815628e-01	 1.1291836250e+00	-8.2188853957e-02
 7.8291336007e-01	 1.1455142603e+00	-5.5026280598e-01
 7.5925353281e-01	 1.1613312718e+00	-1.3908092672e+00
 9.8994949365e-01	 9.8994949365e-01	-1.1049906171e+01
 9.6923687881e-01	 1.0102375328e+00	-7.9751194701e+00
 9.4811314557e-01	 1.0300880852e+00	-5.3363101226e+00
 9.2659226818e-01	 1.0494888130e+00	-3.1283578059e+00
 9.0468870714e-01	 1.0684279775e+00	-1.3447486862e+00
 8.8241737694e-01	 1.0868944626e+00	 2.2388829392e-02
 8.5979361252e-01	 1.1048777959e+00	 9.8224157597e-01
 8.3683313452e-01	 1.1223681682e+00	 1.5452626806e+00
 8.1355201354e-01	 1.1393564505e+00	 1.7231165617e+00
 7.8996663358e-01	 1.1558342086e+00	 1.5286183046e+00
 7.6609365473e-01	 1.1717937157e+00	 9.7566788248e-01
 9.9878832842e-01	 9.9878832842e-01	-1.0078867949e+01
 9.7789077951e-01	 1.0192575108e+00	-7.0713057383e+00
 9.5657844151e-01	 1.0392853002e+00	-4.4440326188e+00
 9.3486541343e-01	 1.0588592488e+00	-2.1967501611e+00
 9.1276628488e-01	 1.0779675130e+00	-3.2793385532e-01
 8.9029610352e-01	 1.0965988775e+00	 1.1651529760e+00
 8.6747034120e-01	 1.1147427762e+00	 2.2864391616e+00
 8.4430485893e-01	 1.1323893126e+00	 3.0410197371e+00
 8.2081587081e-01	 1.1495292759e+00	 3.4351242975e+00
 7.9701990710e-01	 1.1661541569e+00	 3.4760799163e+00
 7.7293377665e-01	 1.1822561596e+00	 3.1722689376e+00
 1.0076271632e+00	 1.0076271632e+00	-8.9220054109e+00
 9.8654468022e-01	 1.0282774888e+00	-6.0136306632e+00
 9.6504373745e-01	 1.0484825153e+00	-3.4307375637e+00
 9.4313855868e-01	 1.0682296846e+00	-1.1777853499e+00
 9.2084386262e-01	 1.0875070486e+00	 7.4182735585e-01
 8.9817483010e-01	 1.1063032923e+00	 2.3257702311e+00
 8.7514706988e-01	 1.1246077565e+00	 3.5727834872e+00
 8.5177658335e-01	 1.1424104569e+00	 4.4826746758e+00
 8.2807972807e-01	 1.1597021014e+00	 5.0563101367e+00
 8.0407318061e-01	 1.1764741052e+00	 5.2956011977e+00
 7.7977389856e-01	 1.1927186035e+00	 5.2034852776e+00
 1.0164659980e+00	 1.0164659980e+00	-7.5841471512e+00
 9.9519858092e-01	 1.0372974667e+00	-4.8060889334e+00
 9.7350903339e-01	 1.0576797303e+00	-2.2995627570e+00
 9.5141170393e-01	 1.0776001205e+00	-7.3722972747e-02
 9.2892144036e-01	 1.0970465841e+00	 1.8631731317e+00
 9.0605355668e-01	 1.1160077072e+00	 3.5037943787e+00
 8.8282379857e-01	 1.1344727369e+00	 4.8417599423e+00
 8.5924830776e-01	 1.1524316013e+00	 5.8716586573e+00
 8.3534358534e-01	 1.1698749268e+00	 6.5890633100e+00
 8.1112645412e-01	 1.1867940535e+00	 6.9905398647e+00
 7.8661402048e-01	 1.2031810474e+00	 7.0736516229e+00
 1.0253048327e+00	 1.0253048327e+00	-6.0699556688e+00
 1.0038524816e+00	 1.0463174447e+00	-3.4525379037e+00
 9.8197432933e-01	 1.0668769453e+00	-1.0535382163e+00
 9.5968484918e-01	 1.0869705563e+00	 1.1132548658e+00
 9.3699901811e-01	 1.1065861196e+00	 3.0347881910e+00
 9.1393228326e-01	 1.1257121220e+00	 4.6987941624e+00
 8.9050052725e-01	 1.1443377172e+00	 6.0938367499e+00
 8.6672003218e-01	 1.1624527456e+00	 7.2093530615e+00
 8.4260744260e-01	 1.1800477523e+00	 8.0356902298e+00
 8.1817972764e-01	 1.1971140018e+00	 8.5641374189e+00
 7.9345414240e-01	 1.2136434913e+00	 8.7869527899e+00
 1.0341436675e+00	 1.0341436675e+00	-4.3839344635e+00
 1.0125063823e+00	 1.0553374227e+00	-1.9567034602e+00
 9.9043962528e-01	 1.0760741604e+00	 3.0440921958e-01
 9.6795799444e-01	 1.0963409921e+00	 2.3810402478e+00
 9.4507659585e-01	 1.1161256551e+00	 4.2554018013e+00
 9.2181100984e-01	 1.1354165368e+00	 5.9103526485e+00
 8.9817725593e-01	 1.1542026975e+00	 7.3294657026e+00
 8.7419175659e-01	 1.1724738900e+00	 8.4970916173e+00
 8.4987129986e-01	 1.1902205777e+00	 9.3984180322e+00
 8.2523300115e-01	 1.2074339501e+00	 1.0019524116e+01
 8.0029426432e-01	 1.2241059352e+00	 1.0347430100e+01
 1.0429825022e+00	 1.0429825022e+00	-2.5304347705e+00
 1.0211602830e+00	 1.0643574007e+00	-3.2218558905e-01
 9.9890492122e-01	 1.0852713754e+00	 1.7714515216e+00
 9.7623113969e-01	 1.1057114279e+00	 3.7275963014e+00
 9.5315417359e-01	 1.1256651906e+00	 5.5237858940e+00
 9.2968973642e-01	 1.1451209517e+00	 7.1380666229e+00
 9.0585398462e-01	 1.1640676778e+00	 8.5490828619e+00
 8.8166348101e-01	 1.1824950344e+00	 9.7361624254e+00
 8.5713515713e-01	 1.2003934032e+00	 1.0679397939e+01
 8.3228627467e-01	 1.2177538984e+00	 1.1359723685e+01
 8.0713438623e-01	 1.2345683791e+00	 1.1758987464e+01
 1.0518213370e+00	 1.0518213370e+00	-5.1366195502e-01
 1.0298141837e+00	 1.0733773786e+00	 1.4475363366e+00
 1.0073702172e+00	 1.0944685905e+00	 3.3448553215e+00
 9.8450428494e-01	 1.1150818638e+00	 5.1509542186e+00
 9.6123175134e-01	 1.1352047261e+00	 6.8387532744e+00
 9.3756846300e-01	 1.1548253665e+00	 8.3815460167e+00
 9.1353071330e-01	 1.1739326581e+00	 9.7531092220e+00
 8.8913520543e-01	 1.1925161787e+00	 1.0927809878e+01
 8.6439901439e-01	 1.2105662286e+00	 1.1880708450e+01
 8.3933954818e-01	 1.2280738467e+00	 1.2587657803e+01
 8.1397450815e-01	 1.2450308230e+00	 1.3025397157e+01
 1.0606601718e+00	 1.0606601718e+00	 1.6623184121e+00
 1.0384680844e+00	 1.0823973566e+00	 3.3490985340e+00
 1.0158355131e+00	 1.1036658055e+00	 5.0219779706e+00
 9.9277743019e-01	 1.1244522996e+00	 6.6492104220e+00
 9.6930932908e-01	 1.1447442616e+00	 8.1991559220e+00
 9.4544718958e-01	 1.1645297814e+00	 9.6404133617e+00
 9.2120744199e-01	 1.1837976385e+00	 1.0941951341e+01
 8.9660692984e-01	 1.2025373231e+00	 1.2073236482e+01
 8.7166287166e-01	 1.2207390541e+00	 1.3004358377e+01
 8.4639282170e-01	 1.2383937950e+00	 1.3706150353e+01
 8.2081463007e-01	 1.2554932668e+00	 1.4150305307e+01
 7.5241341089e-01	 1.1508688279e+00	-3.9318176744e+00
 7.2870086873e-01	 1.1660274628e+00	-7.2359988980e+00
 7.0473925348e-01	 1.1806640439e+00	-1.0417805805e+01
 6.8054551769e-01	 1.1947731159e+00	-1.3535366897e+01
 6.5613673552e-01	 1.2083499428e+00	-1.6647290266e+01
 6.3153006544e-01	 1.2213905094e+00	-1.9812396310e+01
 6.0674271315e-01	 1.2338915188e+00	-2.3089453713e+01
 5.8179189513e-01	 1.2458503886e+00	-2.6536920381e+01
 5.5669480277e-01	 1.2572652451e+00	-3.0212690974e+01
 5.3146856729e-01	 1.2681349147e+00	-3.4173852519e+01
 5.0613022563e-01	 1.2784589140e+00	-3.8476449547e+01
 7.5925353281e-01	 1.1613312718e+00	-1.3908092672e+00
 7.3532542209e-01	 1.1766277124e+00	-4.9738220171e+00
 7.1114597397e-01	 1.1913973534e+00	-8.6275014515e+00
 6.8673229512e-01	 1.2056346896e+00	-1.2391920367e+01
 6.6210161494e-01	 1.2193349423e+00	-1.6307247360e+01
 6.3727124786e-01	 1.2324940595e+00	-2.0413562459e+01
 6.1225855600e-01	 1.2451087144e+00	-2.4750675917e+01
 5.8708091236e-01	 1.2571763012e+00	-2.9357951341e+01
 5.6175566461e-01	 1.2686949292e+00	-3.4274134253e+01
 5.3630009973e-01	 1.2796634140e+00	-3.9537187103e+01
 5.1073140950e-01	 1.2900812677e+00	-4.5184131682e+01
 7.6609365473e-01	 1.1717937157e+00	 9.7566788248e-01
 7.4194997544e-01	 1.1872279621e+00	-2.7687597072e+00
 7.1755269446e-01	 1.2021306629e+00	-6.7737994733e+00
 6.9291907256e-01	 1.2164962634e+00	-1.1061717294e+01
 6.6806649436e-01	 1.2303199418e+00	-1.5654495293e+01
 6.4301243028e-01	 1.2435976096e+00	-2.0573729432e+01
 6.1777439885e-01	 1.2563259100e+00	-2.5840530187e+01
 5.9236992959e-01	 1.2685022139e+00	-3.1475426925e+01
 5.6681652646e-01	 1.2801246132e+00	-3.7498276580e+01
 5.4113163216e-01	 1.2911919132e+00	-4.3928177155e+01
 5.1533259338e-01	 1.3017036215e+00	-5.0783386537e+01
 7.7293377665e-01	 1.1822561596e+00	 3.1722689376e+00
 7.4857452879e-01	 1.1978282118e+00	-6.1927385063e-01
 7.2395941495e-01	 1.2128639724e+00	-4.8583609640e+00
 6.9910585000e-01	 1.2273578372e+00	-9.5496935446e+00
 6.7403137378e-01	 1.2413049413e+00	-1.4697313543e+01
 6.4875361269e-01	 1.2547011597e+00	-2.0304582361e+01
 6.2329024170e-01	 1.2675431056e+00	-2.6374162480e+01
 5.9765894683e-01	 1.2798281265e+00	-3.2908002183e+01
 5.7187738831e-01	 1.2915542973e+00	-3.9907323449e+01
 5.4596316460e-01	 1.3027204124e+00	-4.7372613059e+01
 5.1993377725e-01	 1.3133259753e+00	-5.5303616961e+01
 7.7977389856e-01	 1.1927186035e+00	 5.2034852776e+00
 7.5519908215e-01	 1.2084284614e+00	 1.4761192582e+00
 7.3036613543e-01	 1.2235972819e+00	-2.8827891740e+00
 7.0529262743e-01	 1.2382194110e+00	-7.8606122331e+00
 6.7999625319e-01	 1.2522899408e+00	-1.3443691518e+01
 6.5449479511e-01	 1.2658047098e+00	-1.9617396805e+01
 6.2880608455e-01	 1.2787603013e+00	-2.6366187742e+01
 6.0294796406e-01	 1.2911540391e+00	-3.3673678025e+01
 5.7693825016e-01	 1.3029839813e+00	-4.1522701630e+01
 5.5079469703e-01	 1.3142489116e+00	-4.9895380683e+01
 5.2453496112e-01	 1.3249483290e+00	-5.8773194527e+01
 7.8661402048e-01	 1.2031810474e+00	 7.0736516229e+00
 7.6182363550e-01	 1.2190287111e+00	 3.5188512816e+00
 7.3677285592e-01	 1.2343305914e+00	-8.4863202272e-01
 7.1147940487e-01	 1.2490809848e+00	-5.9990712325e+00
 6.8596113261e-01	 1.2632749402e+00	-1.1901341159e+01
 6.6023597752e-01	 1.2769082598e+00	-1.8523056554e+01
 6.3432192740e-01	 1.2899774969e+00	-2.5830712995e+01
 6.0823698129e-01	 1.3024799517e+00	-3.3789829654e+01
 5.8199911200e-01	 1.3144136654e+00	-4.2365093022e+01
 5.5562622946e-01	 1.3257774109e+00	-5.1520500700e+01
 5.2913614499e-01	 1.3365706828e+00	-6.1219504363e+01
 7.9345414240e-01	 1.2136434913e+00	 8.7869527899e+00
 7.6844818885e-01	 1.2296289607e+00	 5.5103040847e+00
 7.4317957641e-01	 1.2450639009e+00	 1.2426155195e+00
 7.1766618230e-01	 1.2599425586e+00	-3.9695102936e+00
 6.9192601202e-01	 1.2742599397e+00	-1.0077708902e+01
 6.6597715994e-01	 1.2880118099e+00	-1.7032070513e+01
 6.3983777025e-01	 1.3011946925e+00	-2.4781359223e+01
 6.1352599852e-01	 1.3138058643e+00	-3.3273233537e+01
 5.8705997385e-01	 1.3258433494e+00	-4.2454466758e+01
 5.6045776189e-01	 1.3373059101e+00	-5.2271165882e+01
 5.3373732887e-01	 1.3481930365e+00	-6.2668987673e+01
 8.0029426432e-01	 1.2241059352e+00	 1.0347430100e+01
 7.7507274221e-01	 1.2402292104e+00	 7.4518118668e+00
 7.4958629690e-01	 1.2557972104e+00	 3.3895091714e+00
 7.2385295974e-01	 1.2708041323e+00	-1.7762177990e+00
 6.9789089144e-01	 1.2852449392e+00	-7.9799870180e+00
 6.7171834235e-01	 1.2991153600e+00	-1.5154588719e+01
 6.4535361310e-01	 1.3124118881e+00	-2.3231282143e+01
 6.1881501575e-01	 1.3251317770e+00	-3.2140092990e+01
 5.9212083569e-01	 1.3372730334e+00	-4.1810109661e+01
 5.6528929432e-01	 1.3488344093e+00	-5.2169776473e+01
 5.3833851274e-01	 1.3598153903e+00	-6.3147182070e+01
 8.0713438623e-01	 1.2345683791e+00	 1.1758987464e+01
 7.8169729556e-01	 1.2508294601e+00	 9.3446631833e+00
 7.5599301738e-01	 1.2665305199e+00	 5.5906531957e+00
 7.3003973717e-01	 1.2816657061e+00	 5.7666282511e-01
 7.0385577085e-01	 1.2962299387e+00	-5.6151243817e+00
 6.7745952476e-01	 1.3102189101e+00	-1.2900417546e+01
 6.5086945594e-01	 1.3236290838e+00	-2.1193191918e+01
 6.2410403298e-01	 1.3364576896e+00	-3.0406062459e+01
 5.9718169753e-01	 1.3487027175e+00	-4.0450655155e+01
 5.7012082675e-01	 1.3603629085e+00	-5.1237973773e+01
 5.4293969661e-01	 1.3714377441e+00	-6.2678759864e+01
 8.1397450815e-01	 1.2450308230e+00	 1.3025397157e+01
 7.8832184891e-01	 1.2614297097e+00	 1.1190102867e+01
 7.6239973787e-01	 1.2772638293e+00	 7.8446983625e+00
 7.3622651460e-01	 1.2925272799e+00	 3.0851270215e+00
 7.0982065027e-01	 1.3072149381e+00	-2.9898366953e+00
 6.8320070718e-01	 1.3213224602e+00	-1.0279034141e+01
 6.5638529879e-01	 1.3348462794e+00	-1.8679371872e+01
 6.2939305020e-01	 1.3477836022e+00	-2.8086270580e+01
 6.0224255938e-01	 1.3601324015e+00	-3.8394110714e+01
 5.7495235918e-01	 1.3718914078e+00	-4.9496672022e+01
 5.4754088048e-01	 1.3830600978e+00	-6.1287564414e+01
 8.2081463007e-01	 1.2554932668e+00	 1.4150305307e+01
 7.9494640226e-01	 1.2720299594e+00	 1.2989333853e+01
 7.6880645835e-01	 1.2879971388e+00	 1.0150340014e+01
 7.4241329204e-01	 1.3033888537e+00	 5.7453033184e+00
 7.1578552968e-01	 1.3181999376e+00	-1.1061620123e-01
 6.8894188959e-01	 1.3324260103e+00	-7.2996001403e+00
 6.6190114164e-01	 1.3460634750e+00	-1.5701696274e+01
 6.3468206743e-01	 1.3591095148e+00	-2.5195342087e+01
 6.0730342122e-01	 1.3715620856e+00	-3.5657883943e+01
 5.7978389161e-01	 1.3834199070e+00	-4.6966088692e+01
 5.5214206435e-01	 1.3946824516e+00	-5.8996644669e+01
 5.0613022563e-01	 1.2784589140e+00	-3.8476449547e+01
 4.8069668729e-01	 1.2882374373e+00	-2.7107031243e+01
 4.5518470244e-01	 1.2974713433e+00	-1.8568749424e+01
 4.2961083119e-01	 1.3061621391e+00	-1.2684807529e+01
 4.0399141433e-01	 1.3143119634e+00	-9.2737600621e+00
 3.7834254540e-01	 1.3219235675e+00	-8.1503826937e+00
 3.5268004430e-01	 1.3290002958e+00	-9.1265310491e+00
 3.2701943254e-01	 1.3355460646e+00	-1.2011983284e+01
 3.0137591004e-01	 1.3415653398e+00	-1.6615261861e+01
 2.7576433360e-01	 1.3470631137e+00	-2.2744430313e+01
 2.5019919707e-01	 1.3520448816e+00	-3.0207861186e+01
 5.1073140950e-01	 1.2900812677e+00	-4.5184131682e+01
 4.8506665718e-01	 1.2999486867e+00	-3.3636244983e+01
 4.5932274519e-01	 1.3092665373e+00	-2.4589838174e+01
 4.3351638421e-01	 1.3180363404e+00	-1.7901066150e+01
 4.0766406356e-01	 1.3262602540e+00	-1.3421530200e+01
 3.8178202308e-01	 1.3339410545e+00	-1.0999015252e+01
 3.5588622652e-01	 1.3410821167e+00	-1.0478220605e+01
 3.2999233647e-01	 1.3476873925e+00	-1.1701479819e+01
 3.0411569104e-01	 1.3537613883e+00	-1.4509465745e+01
 2.7827128209e-01	 1.3593091420e+00	-1.8741876928e+01
 2.5247373523e-01	 1.3643361987e+00	-2.4238101990e+01
 5.1533259338e-01	 1.3017036215e+00	-5.0783386537e+01
 4.8943662707e-01	 1.3116599361e+00	-3.9279887517e+01
 4.6346078794e-01	 1.3210617313e+00	-2.9952496956e+01
 4.3742193722e-01	 1.3299105417e+00	-2.2689863360e+01
 4.1133671278e-01	 1.3382085445e+00	-1.7376177231e+01
 3.8522150077e-01	 1.3459585415e+00	-1.3891776983e+01
 3.5909240874e-01	 1.3531639376e+00	-1.2113753065e+01
 3.3296524041e-01	 1.3598287203e+00	-1.1916546578e+01
 3.0685547204e-01	 1.3659574368e+00	-1.3172538872e+01
 2.8077823058e-01	 1.3715551703e+00	-1.5752628862e+01
 2.5474827338e-01	 1.3766275158e+00	-1.9526795019e+01
 5.1993377725e-01	 1.3133259753e+00	-5.5303616961e+01
 4.9380659695e-01	 1.3233711856e+00	-4.4061444799e+01
 4.6759883069e-01	 1.3328569254e+00	-3.4674181049e+01
 4.4132749023e-01	 1.3417847429e+00	-2.7062522143e+01
 4.1500936201e-01	 1.3501568351e+00	-2.1142802375e+01
 3.8866097846e-01	 1.3579760284e+00	-1.6827469970e+01
 3.6229859096e-01	 1.3652457584e+00	-1.4025566025e+01
 3.3593814434e-01	 1.3719700482e+00	-1.2643203201e+01
 3.0959525305e-01	 1.3781534854e+00	-1.2584041202e+01
 2.8328517906e-01	 1.3838011986e+00	-1.3749756205e+01
 2.5702281154e-01	 1.3889188329e+00	-1.6040501623e+01
 5.2453496112e-01	 1.3249483290e+00	-5.8773194527e+01
 4.9817656684e-01	 1.3350824350e+00	-4.8003579105e+01
 4.7173687344e-01	 1.3446521194e+00	-3.8771733652e+01
 4.4523304325e-01	 1.3536589442e+00	-3.1029968562e+01
 4.1868201123e-01	 1.3621051257e+00	-2.4726328225e+01
 3.9210045614e-01	 1.3699935154e+00	-1.9804938683e+01
 3.6550477318e-01	 1.3773275793e+00	-1.6206362767e+01
 3.3891104827e-01	 1.3841113761e+00	-1.3867960200e+01
 3.1233503405e-01	 1.3903495339e+00	-1.2724250207e+01
 2.8579212755e-01	 1.3960472269e+00	-1.2707274261e+01
 2.5929734969e-01	 1.4012101500e+00	-1.3746956726e+01
 5.2913614499e-01	 1.3365706828e+00	-6.1219504363e+01
 5.0254653673e-01	 1.3467936844e+00	-5.1128164847e+01
 4.7587491620e-01	 1.3564473134e+00	-4.2261412489e+01
 4.4913859626e-01	 1.3655331454e+00	-3.4602749009e+01
 4.2235466045e-01	 1.3740534163e+00	-2.8131506513e+01
 3.9553993383e-01	 1.3820110024e+00	-2.2823068132e+01
 3.6871095541e-01	 1.3894094002e+00	-1.8649100712e+01
 3.4188395221e-01	 1.3962527039e+00	-1.5577797612e+01
 3.1507481505e-01	 1.4025455825e+00	-1.3574129675e+01
 2.8829907604e-01	 1.4082932552e+00	-1.2600102450e+01
 2.6157188785e-01	 1.4135014671e+00	-1.2615017808e+01
 5.3373732887e-01	 1.3481930365e+00	-6.2668987673e+01
 5.0691650661e-01	 1.3585049339e+00	-5.3456322527e+01
 4.8001295895e-01	 1.3682425075e+00	-4.5158915047e+01
 4.5304414927e-01	 1.3774073467e+00	-3.7791046574e+01
 4.2602730967e-01	 1.3860017068e+00	-3.1362925473e+01
 3.9897941152e-01	 1.3940284894e+00	-2.5880782121e+01
 3.7191713763e-01	 1.4014912211e+00	-2.1346980462e+01
 3.4485685614e-01	 1.4083940318e+00	-1.7760144760e+01
 3.1781459605e-01	 1.4147416310e+00	-1.5115300124e+01
 2.9080602453e-01	 1.4205392835e+00	-1.3404025338e+01
 2.6384642601e-01	 1.4257927842e+00	-1.2614616512e+01
 5.3833851274e-01	 1.3598153903e+00	-6.3147182070e+01
 5.1128647650e-01	 1.3702161833e+00	-5.5008450953e+01
 4.8415100170e-01	 1.3800377015e+00	-4.7479402514e+01
 4.5694970228e-01	 1.3892815480e+00	-4.0604696564e+01
 4.2969995890e-01	 1.3979499974e+00	-3.4425016823e+01
 4.0241888921e-01	 1.4060459763e+00	-2.8977041582e+01
 3.7512331985e-01	 1.4135730419e+00	-2.4293435403e+01
 3.4782976007e-01	 1.4205353596e+00	-2.0402861049e+01
 3.2055437705e-01	 1.4269376796e+00	-1.7330010735e+01
 2.9331297302e-01	 1.4327853118e+00	-1.5095655663e+01
 2.6612096416e-01	 1.4380841013e+00	-1.3716712738e+01
 5.4293969661e-01	 1.3714377441e+00	-6.2678759864e+01
 5.1565644639e-01	 1.3819274327e+00	-5.5804257820e+01
 4.8828904445e-01	 1.3918328955e+00	-4.9237522500e+01
 4.6085525530e-01	 1.4011557492e+00	-4.3053201240e+01
 4.3337260812e-01	 1.4098982880e+00	-3.7322062401e+01
 4.0585836689e-01	 1.4180634633e+00	-3.2110843010e+01
 3.7832950207e-01	 1.4256548628e+00	-2.7482121845e+01
 3.5080266401e-01	 1.4326766875e+00	-2.3494217747e+01
 3.2329415805e-01	 1.4391337281e+00	-2.0201112716e+01
 2.9581992150e-01	 1.4450313402e+00	-1.7652399240e+01
 2.6839550232e-01	 1.4503754184e+00	-1.5893251077e+01
 5.4754088048e-01	 1.3830600978e+00	-6.1287564414e+01
 5.2002641627e-01	 1.3936386821e+00	-5.5862788744e+01
 4.9242708720e-01	 1.4036280896e+00	-5.0447430618e+01
 4.6476080831e-01	 1.4130299505e+00	-4.5145743807e+01
 4.3704525734e-01	 1.4218465786e+00	-4.0058200454e+01
 4.0929784458e-01	 1.4300809503e+00	-3.5281216955e+01
 3.8153568429e-01	 1.4377366837e+00	-3.0906909650e+01
 3.5377556794e-01	 1.4448180154e+00	-2.7022880669e+01
 3.2603393905e-01	 1.4513297766e+00	-2.3712034001e+01
 2.9832686999e-01	 1.4572773685e+00	-2.1052421640e+01
 2.7067004047e-01	 1.4626667355e+00	-1.9117119429e+01
 5.5214206435e-01	 1.3946824516e+00	-5.8996644669e+01
 5.2439638616e-01	 1.4053499316e+00	-5.5202454844e+01
 4.9656512995e-01	 1.4154232836e+00	-5.1122810977e+01
 4.6866636132e-01	 1.4249041518e+00	-4.6891201707e+01
 4.4071790656e-01	 1.4337948692e+00	-4.2637431624e+01
 4.1273732226e-01	 1.4420984373e+00	-3.8487226611e+01
 3.8474186652e-01	 1.4498185046e+00	-3.4561873331e+01
 3.5674847187e-01	 1.4569593432e+00	-3.0977893745e+01
 3.2877372005e-01	 1.4635258252e+00	-2.7846755220e+01
 3.0083381848e-01	 1.4695233968e+00	-2.5274616529e+01
 2.7294457863e-01	 1.4749580526e+00	-2.3362109703e+01
 2.5019919707e-01	 1.3520448816e+00	-3.0207861186e+01
 2.2469461325e-01	 1.3565166165e+00	-1.8825711379e+01
 1.9926429742e-01	 1.3604847444e+00	-5.7258209202e+00
 1.7392155274e-01	 1.3639561186e+00	 8.8497664690e+00
 1.4867925715e-01	 1.3669379937e+00	 2.4662693157e+01
 1.2354985213e-01	 1.3694379993e+00	 4.1479024194e+01
 9.8545332989e-02	 1.3714641145e+00	 5.9069929579e+01
 7.3677240862e-02	 1.3730246408e+00	 7.7212311049e+01
 4.8956656228e-02	 1.3741281766e+00	 9.5689372696e+01
 2.4394193985e-02	 1.3747835914e+00	 1.1429113516e+02
 0.0000000000e+00	 1.3750000000e+00	 1.3281489358e+02
 2.5247373523e-01	 1.3643361987e+00	-2.4238101990e+01
 2.2673729155e-01	 1.3688485857e+00	-1.3869366480e+01
 2.0107579104e-01	 1.3728527875e+00	-1.9505375307e+00
 1.7550265777e-01	 1.3763557197e+00	 1.1303703649e+01
 1.5003088676e-01	 1.3793647027e+00	 2.5681781456e+01
 1.2467303260e-01	 1.3818874357e+00	 4.0975887734e+01
 9.9441199652e-02	 1.3839319701e+00	 5.6982595803e+01
 7.4347033960e-02	 1.3855066830e+00	 7.3503425570e+01
 4.9401716739e-02	 1.3866202510e+00	 9.0345359036e+01
 2.4615959384e-02	 1.3872816241e+00	 1.0732130592e+02
 0.0000000000e+00	 1.3875000000e+00	 1.2425051946e+02
 2.5474827338e-01	 1.3766275158e+00	-1.9526795019e+01
 2.2877996985e-01	 1.3811805550e+00	-9.9550367813e+00
 2.0288728465e-01	 1.3852208307e+00	 1.0003004791e+00
 1.7708376279e-01	 1.3887553208e+00	 1.3151525565e+01
 1.5138251637e-01	 1.3917914117e+00	 2.6313481230e+01
 1.2579621308e-01	 1.3943368721e+00	 4.0304132093e+01
 1.0033706631e-01	 1.3963998257e+00	 5.4945111170e+01
 7.5016827059e-02	 1.3979887252e+00	 7.0062223983e+01
 4.9846777249e-02	 1.3991123253e+00	 8.5485909556e+01
 2.4837724784e-02	 1.3997796567e+00	 1.0105165797e+02
 0.0000000000e+00	 1.4000000000e+00	 1.1660038449e+02
 2.5702281154e-01	 1.3889188329e+00	-1.6040501623e+01
 2.3082264815e-01	 1.3935125242e+00	-7.0550293350e+00
 2.0469877826e-01	 1.3975888738e+00	 3.1486102766e+00
 1.7866486781e-01	 1.4011549218e+00	 1.4409353413e+01
 1.5273414598e-01	 1.4042181208e+00	 2.6568107165e+01
 1.2691939355e-01	 1.4067863084e+00	 3.9468264302e+01
 1.0123293298e-01	 1.4088676813e+00	 5.2956183037e+01
 7.5686620157e-02	 1.4104707673e+00	 6.6881630781e+01
 5.0291837760e-02	 1.4116043996e+00	 8.1098191204e+01
 2.5059490184e-02	 1.4122776894e+00	 9.5463634241e+01
 0.0000000000e+00	 1.4125000000e+00	 1.0984024895e+02
 2.5929734969e-01	 1.4012101500e+00	-1.3746956726e+01
 2.3286532645e-01	 1.4058444934e+00	-5.1426231523e+00
 2.0651027187e-01	 1.4099569169e+00	 4.5155397425e+00
 1.8024597284e-01	 1.4135545229e+00	 1.5092742482e+01
 1.5408577559e-01	 1.4166448298e+00	 2.6455611791e+01
 1.2804257402e-01	 1.4192357448e+00	 3.8472633034e+01
 1.0212879964e-01	 1.4213355368e+00	 5.1014563918e+01
 7.6356413255e-02	 1.4229528095e+00	 6.3954818533e+01
 5.0736898271e-02	 1.4240964740e+00	 7.7169821041e+01
 2.5281255583e-02	 1.4247757220e+00	 9.0539328621e+01
 0.0000000000e+00	 1.4250000000e+00	 1.0394672349e+02
 2.6157188785e-01	 1.4135014671e+00	-1.2615017808e+01
 2.3490800476e-01	 1.4181764627e+00	-4.1920269450e+00
 2.0832176549e-01	 1.4223249601e+00	 5.1215009184e+00
 1.8182707786e-01	 1.4259541240e+00	 1.5216706764e+01
 1.5543740520e-01	 1.4290715388e+00	 2.5985601236e+01
 1.2916575450e-01	 1.4316851811e+00	 3.7321435486e+01
 1.0302466630e-01	 1.4338033924e+00	 4.9119049515e+01
 7.7026206353e-02	 1.4354348517e+00	 6.1275197100e+01
 5.1181958781e-02	 1.4365885483e+00	 7.3688846674e+01
 2.5503020983e-02	 1.4372737547e+00	 8.6261457680e+01
 0.0000000000e+00	 1.4375000000e+00	 9.8897232173e+01
 2.6384642601e-01	 1.4257927842e+00	-1.2614616512e+01
 2.3695068306e-01	 1.4305084319e+00	-4.1783390508e+00
 2.1013325910e-01	 1.4346930032e+00	 4.9862017252e+00
 1.8340818289e-01	 1.4383537251e+00	 1.4795742283e+01
 1.5678903481e-01	 1.4414982479e+00	 2.5167350149e+01
 1.3028893497e-01	 1.4441346175e+00	 3.6018723914e+01
 1.0392053297e-01	 1.4462712480e+00	 4.7268476862e+01
 7.7695999451e-02	 1.4479168939e+00	 5.8836403410e+01
 5.1627019292e-02	 1.4490806226e+00	 7.0643727694e+01
 2.5724786382e-02	 1.4497717873e+00	 8.2613333816e+01
 0.0000000000e+00	 1.4500000000e+00	 9.4669977412e+01
 2.6612096416e-01	 1.4380841013e+00	-1.3716712738e+01
 2.3899336136e-01	 1.4428404012e+00	-5.0775094137e+00
 2.1194475271e-01	 1.4470610463e+00	 4.1286760547e+00
 1.8498928791e-01	 1.4507533262e+00	 1.3843849231e+01
 1.5814066442e-01	 1.4539249569e+00	 2.4009815877e+01
 1.3141211544e-01	 1.4565840538e+00	 3.4568411823e+01
 1.0481639963e-01	 1.4587391036e+00	 4.5461722556e+01
 7.8365792550e-02	 1.4603989361e+00	 5.6632291748e+01
 5.2072079803e-02	 1.4615726970e+00	 6.8023318073e+01
 2.5946551782e-02	 1.4622698200e+00	 7.9578839795e+01
 0.0000000000e+00	 1.4625000000e+00	 9.1243906706e+01
 2.6839550232e-01	 1.4503754184e+00	-1.5893251077e+01
 2.4103603966e-01	 1.4551723704e+00	-6.8663034984e+00
 2.1375624632e-01	 1.4594290895e+00	 2.5673123312e+00
 1.8657039294e-01	 1.4631529272e+00	 1.2374552983e+01
 1.5949229403e-01	 1.4663516659e+00	 2.2521651901e+01
 1.3253529592e-01	 1.4690334902e+00	 3.2974279848e+01
 1.0571226629e-01	 1.4712069592e+00	 4.3697701084e+01
 7.9035585648e-02	 1.4728809783e+00	 5.4656924554e+01
 5.2517140314e-02	 1.4740647713e+00	 6.5816849451e+01
 2.6168317182e-02	 1.4747678526e+00	 7.7142404583e+01
 0.0000000000e+00	 1.4750000000e+00	 8.8598681064e+01
 2.7067004047e-01	 1.4626667355e+00	-1.9117119429e+01
 2.4307871796e-01	 1.4675043396e+00	-9.5222680233e+00
 2.1556773994e-01	 1.4717971326e+00	 3.1988063284e-01
 1.8815149796e-01	 1.4755525283e+00	 1.0400924043e+01
 1.6084392364e-01	 1.4787783750e+00	 2.0711220610e+01
 1.3365847639e-01	 1.4814829266e+00	 3.1239981340e+01
 1.0660813296e-01	 1.4836748148e+00	 4.1975363228e+01
 7.9705378746e-02	 1.4853630205e+00	 5.2904563672e+01
 5.2962200824e-02	 1.4865568456e+00	 6.4013915269e+01
 2.6390082581e-02	 1.4872658853e+00	 7.5288980400e+01
 0.0000000000e+00	 1.4875000000e+00	 8.6714645033e+01
 2.7294457863e-01	 1.4749580526e+00	-2.3362109703e+01
 2.4512139627e-01	 1.4798363089e+00	-1.3023698407e+01
 2.1737923355e-01	 1.4841651757e+00	-2.5964415431e+00
 1.8973260298e-01	 1.4879521294e+00	 7.9355970011e+00
 1.6219555325e-01	 1.4912050840e+00	 1.8586605430e+01
 1.3478165686e-01	 1.4939323629e+00	 2.9369047667e+01
 1.0750399962e-01	 1.4961426704e+00	 4.0293694556e+01
 8.0375171844e-02	 1.4978450627e+00	 5.1369662045e+01
 5.3407261335e-02	 1.4990489200e+00	 6.2604455696e+01
 2.6611847981e-02	 1.4997639179e+00	 7.4004020912e+01
 0.0000000000e+00	 1.5000000000e+00	 8.5572798212e+01
 1.5000000000e+00	 0.0000000000e+00	 2.5232951962e+01
 1.4997639179e+00	 2.6611847981e-02	 1.2100746691e+01
 1.4990489200e+00	 5.3407261335e-02	-7.0611812529e-01
 1.4978450627e+00	 8.0375171844e-02	-1.3173954980e+01
 1.4961426704e+00	 1.0750399962e-01	-2.5290552276e+01
 1.4939323629e+00	 1.3478165686e-01	-3.7045299631e+01
 1.4912050840e+00	 1.6219555325e-01	-4.8429311607e+01
 1.4879521294e+00	 1.8973260298e-01	-5.9435548969e+01
 1.4841651757e+00	 2.1737923355e-01	-7.0058936557e+01
 1.4798363089e+00	 2.4512139627e-01	-8.0296476822e+01
 1.4749580526e+00	 2.7294457863e-01	-9.0147358019e+01
 1.5125000000e+00	 0.0000000000e+00	 2.6301799964e+01
 1.5122619506e+00	 2.6833613381e-02	 1.2951472816e+01
 1.5115409943e+00	 5.3852321846e-02	 2.7854144861e-02
 1.5103271049e+00	 8.1044964942e-02	-1.2462397987e+01
 1.5086105259e+00	 1.0839986628e-01	-2.4514714378e+01
 1.5063817993e+00	 1.3590483734e-01	-3.6126739800e+01
 1.5036317930e+00	 1.6354718286e-01	-4.7298453590e+01
 1.5003517305e+00	 1.9131370801e-01	-5.8032284673e+01
 1.4965332189e+00	 2.1919072716e-01	-6.8333219960e+01
 1.4921682781e+00	 2.4716407457e-01	-7.8208905032e+01
 1.4872493697e+00	 2.7521911678e-01	-8.7669736028e+01
 1.5250000000e+00	 0.0000000000e+00	 2.7862814736e+01
 1.5247599832e+00	 2.7055378780e-02	 1.4218162547e+01
 1.5240330686e+00	 5.4297382357e-02	 1.0996216870e+00
 1.5228091470e+00	 8.1714758041e-02	-1.1493102087e+01
 1.5210783815e+00	 1.0929573294e-01	-2.3562998096e+01
 1.5188312356e+00	 1.3702801781e-01	-3.5115875638e+01
 1.5160585021e+00	 1.6489881247e-01	-4.6160481456e+01
 1.5127513316e+00	 1.9289481303e-01	-5.6708608573e+01
 1.5089012620e+00	 2.2100222078e-01	-6.6775195275e+01
 1.5045002474e+00	 2.4920675287e-01	-7.6378413068e+01
 1.4995406868e+00	 2.7749365494e-01	-8.5539742375e+01
 1.5375000000e+00	 0.0000000000e+00	 2.9903991441e+01
 1.5372580159e+00	 2.7277144180e-02	 1.5890670757e+01
 1.5365251430e+00	 5.4742442867e-02	 2.5009469734e+00
 1.5352911892e+00	 8.2384551139e-02	-1.0272351205e+01
 1.5335462371e+00	 1.1019159961e-01	-2.2439689790e+01
 1.5312806720e+00	 1.3815119828e-01	-3.4014954191e+01
 1.5284852111e+00	 1.6625044208e-01	-4.5015563568e+01
 1.5251509326e+00	 1.9447591806e-01	-5.5462573509e+01
 1.5212693051e+00	 2.2281371439e-01	-6.5380765688e+01
 1.5168322166e+00	 2.5124943117e-01	-7.4798723178e+01
 1.5118320039e+00	 2.7976819309e-01	-8.3748890115e+01
 1.5500000000e+00	 0.0000000000e+00	 3.2413712548e+01
 1.5497560485e+00	 2.7498909579e-02	 1.7959179625e+01
 1.5490172173e+00	 5.5187503378e-02	 4.2238582349e+00
 1.5477732314e+00	 8.3054344237e-02	-8.8062265349e+00
 1.5460140927e+00	 1.1108746627e-01	-2.1148937541e+01
 1.5437301084e+00	 1.3927437876e-01	-3.2826150026e+01
 1.5409119201e+00	 1.6760207169e-01	-4.3863862872e+01
 1.5375505337e+00	 1.9605702308e-01	-5.4292295161e+01
 1.5336373482e+00	 2.2462520800e-01	-6.4145966577e+01
 1.5291641859e+00	 2.5329210948e-01	-7.3463760175e+01
 1.5241233210e+00	 2.8204273125e-01	-8.2288966138e+01
 1.5625000000e+00	 0.0000000000e+00	 3.5380732341e+01
 1.5622540812e+00	 2.7720674979e-02	 2.0414185543e+01
 1.5615092916e+00	 5.5632563889e-02	 6.2606388306e+00
 1.5602552736e+00	 8.3724137335e-02	-7.1006146548e+00
 1.5584819483e+00	 1.1198333293e-01	-1.9694756683e+01
 1.5561795447e+00	 1.4039755923e-01	-3.1551568125e+01
 1.5533386292e+00	 1.6895370130e-01	-4.2705537114e+01
 1.5499501348e+00	 1.9763812811e-01	-5.3195949536e+01
 1.5460053914e+00	 2.2643670161e-01	-6.3066960230e+01
 1.5414961551e+00	 2.5533478778e-01	-7.2367643328e+01
 1.5364146382e+00	 2.8431726940e-01	-8.1152020221e+01
 1.5750000000e+00	 0.0000000000e+00	 3.8794162163e+01
 1.5747521138e+00	 2.7942440379e-02	 2.3246486647e+01
 1.5740013660e+00	 5.6077624400e-02	 8.6038171237e+00
 1.5727373158e+00	 8.4393930433e-02	-5.1612152465e+00
 1.5709498039e+00	 1.1287919960e-01	-1.8081035072e+01
 1.5686289811e+00	 1.4152073970e-01	-3.0193246649e+01
 1.5657653382e+00	 1.7030533091e-01	-4.1540739049e+01
 1.5623497359e+00	 1.9921923313e-01	-5.2171770570e+01
 1.5583734345e+00	 2.2824819523e-01	-6.2140030807e+01
 1.5538281243e+00	 2.5737746608e-01	-7.1504678650e+01
 1.5487059553e+00	 2.8659180756e-01	-8.0330354594e+01
 1.5875000000e+00	 0.0000000000e+00	 4.2643456362e+01
 1.5872501465e+00	 2.8164205778e-02	 2.6447170938e+01
 1.5864934403e+00	 5.6522684910e-02	 1.1246156836e+01
 1.5852193580e+00	 8.5063723532e-02	-2.9935484544e+00
 1.5834176595e+00	 1.1377506626e-01	-1.6311538101e+01
 1.5810784174e+00	 1.4264392017e-01	-2.8753159568e+01
 1.5781920472e+00	 1.7165696052e-01	-4.0369616637e+01
 1.5747493369e+00	 2.0080033816e-01	-5.1218047854e+01
 1.5707414776e+00	 2.3005968884e-01	-6.1361579541e+01
 1.5661600936e+00	 2.5942014438e-01	-7.0869351542e+01
 1.5609972724e+00	 2.8886634572e-01	-7.9816514000e+01
 1.6000000000e+00	 0.0000000000e+00	 4.6918398888e+01
 1.5997481791e+00	 2.8385971178e-02	 3.0007604959e+01
 1.5989855146e+00	 5.6967745421e-02	 1.4180647853e+01
 1.5977014002e+00	 8.5733516630e-02	-6.0296189883e-01
 1.5958855151e+00	 1.1467093292e-01	-1.4389913488e+01
 1.5935278538e+00	 1.4376710065e-01	-2.7233219171e+01
 1.5906187563e+00	 1.7300859013e-01	-3.9192313229e+01
 1.5871489380e+00	 2.0238144318e-01	-5.0333124455e+01
 1.5831095208e+00	 2.3187118245e-01	-6.0728120167e+01
 1.5784920628e+00	 2.6146282268e-01	-7.0456319790e+01
 1.5732885895e+00	 2.9114088387e-01	-7.9603276224e+01
 1.6125000000e+00	 0.0000000000e+00	 5.1609090520e+01
 1.6122462118e+00	 2.8607736578e-02	 3.3919422996e+01
 1.6114775890e+00	 5.7412805932e-02	 1.7400497460e+01
 1.6101834424e+00	 8.6403309728e-02	 2.0053626370e+00
 1.6083533706e+00	 1.1556679958e-01	-1.2319695836e+01
 1.6059772901e+00	 1.4489028112e-01	-2.5635278453e+01
 1.6030454653e+00	 1.7436021974e-01	-3.8008967745e+01
 1.5995485391e+00	 2.0396254820e-01	-4.9515394846e+01
 1.5954775639e+00	 2.3368267606e-01	-6.0236274560e+01
 1.5908240321e+00	 2.6350550099e-01	-7.0260406880e+01
 1.5855799066e+00	 2.9341542203e-01	-7.9683643056e+01
 1.6250000000e+00	 0.0000000000e+00	 5.6705936682e+01
 1.6247442444e+00	 2.8829501977e-02	 3.8174516787e+01
 1.6239696633e+00	 5.7857866443e-02	 2.0899121977e+01
 1.6226654846e+00	 8.7073102826e-02	 4.8264028284e+00
 1.6208212262e+00	 1.1646266625e-01	-1.0104310983e+01
 1.6184267265e+00	 1.4601346159e-01	-2.3961133397e+01
 1.6154721743e+00	 1.7571184935e-01	-3.6819714846e+01
 1.6119481402e+00	 2.0554365323e-01	-4.8763302925e+01
 1.6078456070e+00	 2.3549416968e-01	-5.9882768575e+01
 1.6031560013e+00	 2.6554817929e-01	-7.0276595627e+01
 1.5978712237e+00	 2.9568996018e-01	-8.0050831680e+01
 1.4749580526e+00	 2.7294457863e-01	-9.0147358019e+01
 1.4695233968e+00	 3.0083381848e-01	-8.1723756730e+01
 1.4635258252e+00	 3.2877372005e-01	-7.3626492616e+01
 1.4569593432e+00	 3.5674847187e-01	-6.5871309924e+01
 1.4498185046e+00	 3.8474186652e-01	-5.8473135277e+01
 1.4420984373e+00	 4.1273732226e-01	-5.1445995326e+01
 1.4337948692e+00	 4.4071790656e-01	-4.4802935867e+01
 1.4249041518e+00	 4.6866636132e-01	-3.8555943036e+01
 1.4154232836e+00	 4.9656512995e-01	-3.2715867141e+01
 1.4053499316e+00	 5.2439638616e-01	-2.7292349736e+01
 1.3946824516e+00	 5.5214206435e-01	-2.2293754526e+01
 1.4872493697e+00	 2.7521911678e-01	-8.7669736028e+01
 1.4817694251e+00	 3.0334076697e-01	-7.8775979457e+01
 1.4757218737e+00	 3.3151350105e-01	-7.0341823323e+01
 1.4691006711e+00	 3.5972137580e-01	-6.2378932800e+01
 1.4619003254e+00	 3.8794804874e-01	-5.4897564654e+01
 1.4541159243e+00	 4.1617679995e-01	-4.7906482383e+01
 1.4457431597e+00	 4.4439055579e-01	-4.1412875745e+01
 1.4367783530e+00	 4.7257191433e-01	-3.5422285378e+01
 1.4272184776e+00	 5.0070317270e-01	-2.9938533205e+01
 1.4170611810e+00	 5.2876635604e-01	-2.4963659311e+01
 1.4063048054e+00	 5.5674324821e-01	-2.0497865955e+01
 1.4995406868e+00	 2.7749365494e-01	-8.5539742375e+01
 1.4940154534e+00	 3.0584771545e-01	-7.6129035611e+01
 1.4879179223e+00	 3.3425328206e-01	-6.7308934100e+01
 1.4812419989e+00	 3.6269427974e-01	-5.9087068574e+01
 1.4739821463e+00	 3.9115423096e-01	-5.1469076982e+01
 1.4661334112e+00	 4.1961627764e-01	-4.4458517157e+01
 1.4576914503e+00	 4.4806320501e-01	-3.8056786761e+01
 1.4486525543e+00	 4.7647746734e-01	-3.2263051312e+01
 1.4390136716e+00	 5.0484121545e-01	-2.7074181112e+01
 1.4287724304e+00	 5.3313632592e-01	-2.2484697843e+01
 1.4179271591e+00	 5.6134443208e-01	-1.8486731569e+01
 1.5118320039e+00	 2.7976819309e-01	-8.3748890115e+01
 1.5062614817e+00	 3.0835466394e-01	-7.3775578932e+01
 1.5001139708e+00	 3.3699306306e-01	-6.4521674502e+01
 1.4933833268e+00	 3.6566718367e-01	-5.5990816656e+01
 1.4860639672e+00	 3.9436041318e-01	-4.8184074314e+01
 1.4781508982e+00	 4.2305575532e-01	-4.1099855735e+01
 1.4696397409e+00	 4.5173585423e-01	-3.4733828865e+01
 1.4605267556e+00	 4.8038302035e-01	-2.9078852763e+01
 1.4508088657e+00	 5.0897925820e-01	-2.4124920996e+01
 1.4404836799e+00	 5.3750629581e-01	-1.9859117885e+01
 1.4295495129e+00	 5.6594561595e-01	-1.6265588375e+01
 1.5241233210e+00	 2.8204273125e-01	-8.2288966138e+01
 1.5185075100e+00	 3.1086161243e-01	-7.1708500217e+01
 1.5123100194e+00	 3.3973284406e-01	-6.1974092579e+01
 1.5055246547e+00	 3.6864008760e-01	-5.3085434640e+01
 1.4981457880e+00	 3.9756659540e-01	-4.5039074884e+01
 1.4901683852e+00	 4.2649523301e-01	-3.7828326718e+01
 1.4815880315e+00	 4.5540850345e-01	-3.1443189247e+01
 1.4724009568e+00	 4.8428857336e-01	-2.5870282068e+01
 1.4626040597e+00	 5.1311730095e-01	-2.1092795091e+01
 1.4521949293e+00	 5.4187626569e-01	-1.7090454348e+01
 1.4411718666e+00	 5.7054679982e-01	-1.3839504632e+01
 1.5364146382e+00	 2.8431726940e-01	-8.1152020221e+01
 1.5307535383e+00	 3.1336856092e-01	-6.9920917833e+01
 1.5245060679e+00	 3.4247262506e-01	-5.9660426931e+01
 1.5176659825e+00	 3.7161299154e-01	-5.0366331982e+01
 1.5102276089e+00	 4.0077277763e-01	-4.2030708457e+01
 1.5021858722e+00	 4.2993471070e-01	-3.4641828322e+01
 1.4935363220e+00	 4.5908115267e-01	-2.8184081250e+01
 1.4842751581e+00	 4.8819412638e-01	-2.2637912764e+01
 1.4743992537e+00	 5.1725534370e-01	-1.7979780442e+01
 1.4639061787e+00	 5.4624623558e-01	-1.4182129200e+01
 1.4527942204e+00	 5.7514798369e-01	-1.1213386607e+01
 1.5487059553e+00	 2.8659180756e-01	-8.0330354594e+01
 1.5429995666e+00	 3.1587550940e-01	-6.8406168690e+01
 1.5367021165e+00	 3.4521240606e-01	-5.7575099151e+01
 1.5298073104e+00	 3.7458589547e-01	-4.7829063973e+01
 1.5223094298e+00	 4.0397895985e-01	-3.9155711905e+01
 1.5142033592e+00	 4.3337418838e-01	-3.1538325611e+01
 1.5054846126e+00	 4.6275380190e-01	-2.4955743327e+01
 1.4961493594e+00	 4.9209967939e-01	-1.9382300334e+01
 1.4861944478e+00	 5.2139338645e-01	-1.4787791495e+01
 1.4756174282e+00	 5.5061620546e-01	-1.1137455951e+01
 1.4644165742e+00	 5.7974916756e-01	-8.3919849971e+00
 1.5609972724e+00	 2.8886634572e-01	-7.9816514000e+01
 1.5552455949e+00	 3.1838245789e-01	-6.7157799635e+01
 1.5488981650e+00	 3.4795218706e-01	-5.5712706619e+01
 1.5419486383e+00	 3.7755879940e-01	-4.5469325995e+01
 1.5343912507e+00	 4.0718514207e-01	-3.6410924989e+01
 1.5262208461e+00	 4.3681366607e-01	-2.8515847869e+01
 1.5174329032e+00	 4.6642645112e-01	-2.1757438055e+01
 1.5080235606e+00	 4.9600523240e-01	-1.6103982912e+01
 1.4979896418e+00	 5.2553142920e-01	-1.1518682560e+01
 1.4873286776e+00	 5.5498617535e-01	-7.9596439220e+00
 1.4760389279e+00	 5.8435035143e-01	-5.3799010555e+00
 1.5732885895e+00	 2.9114088387e-01	-7.9603276224e+01
 1.5674916232e+00	 3.2088940638e-01	-6.6169559254e+01
 1.5610942135e+00	 3.5069196806e-01	-5.4068015634e+01
 1.5540899661e+00	 3.8053170334e-01	-4.3282948050e+01
 1.5464730715e+00	 4.1039132429e-01	-3.3793286339e+01
 1.5382383331e+00	 4.4025314375e-01	-2.5572486087e+01
 1.5293811938e+00	 4.7009910034e-01	-1.8588451195e+01
 1.5198977619e+00	 4.9991078541e-01	-1.2803481965e+01
 1.5097848358e+00	 5.2966947195e-01	-8.1742501597e+00
 1.4990399270e+00	 5.5935614523e-01	-4.6518023140e+00
 1.4876612817e+00	 5.8895153530e-01	-2.1815924293e+00
 1.5855799066e+00	 2.9341542203e-01	-7.9683643056e+01
 1.5797376515e+00	 3.2339635487e-01	-6.5435390048e+01
 1.5732902621e+00	 3.5343174906e-01	-5.2635954868e+01
 1.5662312940e+00	 3.8350460727e-01	-4.1265889541e+01
 1.5585548924e+00	 4.1359750651e-01	-3.1299829624e+01
 1.5502558201e+00	 4.4369262144e-01	-2.2706390576e+01
 1.5413294843e+00	 4.7377174956e-01	-1.5448090785e+01
 1.5317719632e+00	 5.0381633842e-01	-9.4813029367e+00
 1.5215800299e+00	 5.3380751470e-01	-4.7562352690e+00
 1.5107511764e+00	 5.6372611512e-01	-1.2169440875e+00
 1.4992836355e+00	 5.9355271917e-01	 1.1986212758e+00
 1.5978712237e+00	 2.9568996018e-01	-8.0050831680e+01
 1.5919836798e+00	 3.2590330336e-01	-6.4949420979e+01
 1.5854863106e+00	 3.5617153006e-01	-5.1411609122e+01
 1.5783726218e+00	 3.8647751120e-01	-3.9414234296e+01
 1.5706367133e+00	 4.1680368873e-01	-2.8927679894e+01
 1.5622733071e+00	 4.4713209913e-01	-1.9915768680e+01
 1.5532777749e+00	 4.7744439878e-01	-1.2335686291e+01
 1.5436461644e+00	 5.0772189143e-01	-6.1379358636e+00
 1.5333752239e+00	 5.3794555745e-01	-1.2663254497e+00
 1.5224624259e+00	 5.6809608500e-01	 2.3420103362e+00
 1.5109059892e+00	 5.9815390303e-01	 4.7565531871e+00
 1.3946824516e+00	 5.5214206435e-01	-2.2293754526e+01
 1.3834199070e+00	 5.7978389161e-01	-2.0810205225e+01
 1.3715620856e+00	 6.0730342122e-01	-1.9368262375e+01
 1.3591095148e+00	 6.3468206743e-01	-1.7962768874e+01
 1.3460634750e+00	 6.6190114164e-01	-1.6588101286e+01
 1.3324260103e+00	 6.8894188959e-01	-1.5238182109e+01
 1.3181999376e+00	 7.1578552968e-01	-1.3906494989e+01
 1.3033888537e+00	 7.4241329204e-01	-1.2586102864e+01
 1.2879971388e+00	 7.6880645835e-01	-1.1269669004e+01
 1.2720299594e+00	 7.9494640226e-01	-9.9494808701e+00
 1.2554932668e+00	 8.2081463007e-01	-8.6174767211e+00
 1.4063048054e+00	 5.5674324821e-01	-2.0497865955e+01
 1.3949484062e+00	 5.8461542404e-01	-1.9544940843e+01
 1.3829917696e+00	 6.1236428306e-01	-1.8511359896e+01
 1.3704354275e+00	 6.3997108466e-01	-1.7395150651e+01
 1.3572806706e+00	 6.6741698448e-01	-1.6194381414e+01
 1.3435295603e+00	 6.9468307200e-01	-1.4907169926e+01
 1.3291849371e+00	 7.2175040909e-01	-1.3531692241e+01
 1.3142504274e+00	 7.4860006947e-01	-1.2066191740e+01
 1.2987304483e+00	 7.7521317884e-01	-1.0508988264e+01
 1.2826302090e+00	 8.0157095562e-01	-8.8584872685e+00
 1.2659557107e+00	 8.2765475199e-01	-7.1131889715e+00
 1.4179271591e+00	 5.6134443208e-01	-1.8486731569e+01
 1.4064769054e+00	 5.8944695647e-01	-1.8095649840e+01
 1.3944214537e+00	 6.1742514490e-01	-1.7503673315e+01
 1.3817613401e+00	 6.4526010189e-01	-1.6711976668e+01
 1.3684978662e+00	 6.7293282733e-01	-1.5722276833e+01
 1.3546331104e+00	 7.0042425441e-01	-1.4536838108e+01
 1.3401699366e+00	 7.2771528851e-01	-1.3158474738e+01
 1.3251120012e+00	 7.5478684690e-01	-1.1590550908e+01
 1.3094637578e+00	 7.8161989933e-01	-9.8369780625e+00
 1.2932304587e+00	 8.0819550897e-01	-7.9022095046e+00
 1.2764181546e+00	 8.3449487391e-01	-5.7912322530e+00
 1.4295495129e+00	 5.6594561595e-01	-1.6265588375e+01
 1.4180054047e+00	 5.9427848890e-01	-1.6466807509e+01
 1.4058511377e+00	 6.2248600675e-01	-1.6348866897e+01
 1.3930872527e+00	 6.5054911911e-01	-1.5916051754e+01
 1.3797150619e+00	 6.7844867017e-01	-1.5173685582e+01
 1.3657366605e+00	 7.0616543683e-01	-1.4128131726e+01
 1.3511549360e+00	 7.3368016792e-01	-1.2786789739e+01
 1.3359735750e+00	 7.6097362433e-01	-1.1158086416e+01
 1.3201970673e+00	 7.8802661981e-01	-9.2514614199e+00
 1.3038307084e+00	 8.1482006232e-01	-7.0773474653e+00
 1.2868805985e+00	 8.4133499582e-01	-4.6471450426e+00
 1.4411718666e+00	 5.7054679982e-01	-1.3839504632e+01
 1.4295339039e+00	 5.9911002133e-01	-1.4662744984e+01
 1.4172808218e+00	 6.2754686859e-01	-1.5050486918e+01
 1.4044131653e+00	 6.5583813634e-01	-1.5010090486e+01
 1.3909322575e+00	 6.8396451302e-01	-1.4550444706e+01
 1.3768402106e+00	 7.1190661924e-01	-1.3681965617e+01
 1.3621399355e+00	 7.3964504733e-01	-1.2416586465e+01
 1.3468351488e+00	 7.6716040177e-01	-1.0767739867e+01
 1.3309303768e+00	 7.9443334030e-01	-8.7503318594e+00
 1.3144309580e+00	 8.2144461567e-01	-6.3807077790e+00
 1.2973430424e+00	 8.4817511774e-01	-3.6766100327e+00
 1.4527942204e+00	 5.7514798369e-01	-1.1213386607e+01
 1.4410624031e+00	 6.0394155376e-01	-1.2687655001e+01
 1.4287105058e+00	 6.3260773043e-01	-1.3611966387e+01
 1.4157390779e+00	 6.6112715357e-01	-1.3996720795e+01
 1.4021494531e+00	 6.8948035586e-01	-1.3854332699e+01
 1.3879437607e+00	 7.1764780165e-01	-1.3199225583e+01
 1.3731249350e+00	 7.4560992674e-01	-1.2047816011e+01
 1.3576967225e+00	 7.7334717920e-01	-1.0418487000e+01
 1.3416636863e+00	 8.0084006078e-01	-8.3315505846e+00
 1.3250312077e+00	 8.2806916902e-01	-5.8091995444e+00
 1.3078054863e+00	 8.5501523966e-01	-2.8754483603e+00
 1.4644165742e+00	 5.7974916756e-01	-8.3919849971e+00
 1.4525909023e+00	 6.0877308619e-01	-1.0545597394e+01
 1.4401401898e+00	 6.3766859227e-01	-1.2036629536e+01
 1.4270649906e+00	 6.6641617079e-01	-1.2878487407e+01
 1.4133666487e+00	 6.9499619871e-01	-1.3087071825e+01
 1.3990473108e+00	 7.2338898406e-01	-1.2680769548e+01
 1.3841099345e+00	 7.5157480616e-01	-1.1680431279e+01
 1.3685582963e+00	 7.7953395663e-01	-1.0109336327e+01
 1.3523969957e+00	 8.0724678127e-01	-7.9931437923e+00
 1.3356314573e+00	 8.3469372238e-01	-5.3598302625e+00
 1.3182679302e+00	 8.6185536158e-01	-2.2396141122e+00
 1.4760389279e+00	 5.8435035143e-01	-5.3799010555e+00
 1.4641194016e+00	 6.1360461862e-01	-8.2405043211e+00
 1.4515698739e+00	 6.4272945412e-01	-1.0327696103e+01
 1.4383909032e+00	 6.7170518802e-01	-1.1657855117e+01
 1.4245838444e+00	 7.0051204155e-01	-1.2250330333e+01
 1.4101508608e+00	 7.2913016647e-01	-1.2127428652e+01
 1.3950949340e+00	 7.5753968557e-01	-1.1314386901e+01
 1.3794198701e+00	 7.8572073407e-01	-9.8393278471e+00
 1.3631303052e+00	 8.1365350175e-01	-7.7332001124e+00
 1.3462317070e+00	 8.4131827573e-01	-5.0297019609e+00
 1.3287303741e+00	 8.6869548350e-01	-1.7651890884e+00
 1.4876612817e+00	 5.8895153530e-01	-2.1815924293e+00
 1.4756479008e+00	 6.1843615105e-01	-5.7761852551e+00
 1.4629995579e+00	 6.4779031596e-01	-8.4882854143e+00
 1.4497168158e+00	 6.7699420525e-01	-1.0337211909e+01
 1.4358010400e+00	 7.0602788440e-01	-1.1345724560e+01
 1.4212544109e+00	 7.3487134888e-01	-1.1540008296e+01
 1.4060799334e+00	 7.6350456498e-01	-1.0949639169e+01
 1.3902814439e+00	 7.9190751150e-01	-9.6075318107e+00
 1.3738636147e+00	 8.2006022224e-01	-7.5498681672e+00
 1.3568319566e+00	 8.4794282908e-01	-4.8160074999e+00
 1.3391928179e+00	 8.7553560541e-01	-1.4483778118e+00
 1.4992836355e+00	 5.9355271917e-01	 1.1986212758e+00
 1.4871764000e+00	 6.2326768348e-01	-3.1563317366e+00
 1.4744292420e+00	 6.5285117780e-01	-6.5214202747e+00
 1.4610427284e+00	 6.8228322248e-01	-8.9188719311e+00
 1.4470182356e+00	 7.1154372724e-01	-1.0374820951e+01
 1.4323579610e+00	 7.4061253130e-01	-1.0919289140e+01
 1.4170649329e+00	 7.6946944439e-01	-1.0586145973e+01
 1.4011430177e+00	 7.9809428893e-01	-9.4130475495e+00
 1.3845969242e+00	 8.2646694273e-01	-7.4413542454e+00
 1.3674322063e+00	 8.5456738243e-01	-4.7160270502e+00
 1.3496552618e+00	 8.8237572733e-01	-1.2855027701e+00
 1.5109059892e+00	 5.9815390303e-01	 4.7565531871e+00
 1.4987048992e+00	 6.2809921591e-01	-3.8452190894e-01
 1.4858589260e+00	 6.5791203964e-01	-4.4300306778e+00
 1.4723686411e+00	 6.8757223970e-01	-7.4050783387e+00
 1.4582354312e+00	 7.1705957009e-01	-9.3391379662e+00
 1.4434615111e+00	 7.4635371371e-01	-1.0266028052e+01
 1.4280499324e+00	 7.7543432381e-01	-1.0223866737e+01
 1.4120045914e+00	 8.0428106636e-01	-9.2550023542e+00
 1.3953302337e+00	 8.3287366321e-01	-7.4059200818e+00
 1.3780324560e+00	 8.6119193579e-01	-4.7271247332e+00
 1.3601177057e+00	 8.8921584925e-01	-1.2729998769e+00
 1.2554932668e+00	 8.2081463007e-01	-8.6174767211e+00
 1.2383937950e+00	 8.4639282170e-01	-8.6573823364e+00
 1.2207390541e+00	 8.7166287166e-01	-8.4324702583e+00
 1.2025373231e+00	 8.9660692984e-01	-7.9512562833e+00
 1.1837976385e+00	 9.2120744199e-01	-7.2233246750e+00
 1.1645297814e+00	 9.4544718958e-01	-6.2592999539e+00
 1.1447442616e+00	 9.6930932908e-01	-5.0708127790e+00
 1.1244522996e+00	 9.9277743019e-01	-3.6704600774e+00
 1.1036658055e+00	 1.0158355131e+00	-2.0717596265e+00
 1.0823973566e+00	 1.0384680844e+00	-2.8909934429e-01
 1.0606601718e+00	 1.0606601718e+00	 1.6623184121e+00
 1.2659557107e+00	 8.2765475199e-01	-7.1131889715e+00
 1.2487137432e+00	 8.5344609521e-01	-6.8200169043e+00
 1.2309118795e+00	 8.7892672892e-01	-6.3318089056e+00
 1.2125584674e+00	 9.0407865426e-01	-5.6541788711e+00
 1.1936626188e+00	 9.2888417067e-01	-4.7935445931e+00
 1.1742341962e+00	 9.5332591617e-01	-3.7571106769e+00
 1.1542837971e+00	 9.7738690683e-01	-2.5528470113e+00
 1.1338227354e+00	 1.0010505754e+00	-1.1894628818e+00
 1.1128630206e+00	 1.0243008091e+00	 3.2362315129e-01
 1.0914173346e+00	 1.0471219851e+00	 1.9763174465e+00
 1.0694990065e+00	 1.0694990065e+00	 3.7578893510e+00
 1.2764181546e+00	 8.3449487391e-01	-5.7912322530e+00
 1.2590336915e+00	 8.6049936873e-01	-5.1433347128e+00
 1.2410847050e+00	 8.8619058619e-01	-4.3691297629e+00
 1.2225796118e+00	 9.1155037868e-01	-3.4713669374e+00
 1.2035275991e+00	 9.3656089936e-01	-2.4533380002e+00
 1.1839386111e+00	 9.6120464275e-01	-1.3188708707e+00
 1.1638233327e+00	 9.8546448457e-01	-7.2320552812e-02
 1.1431931713e+00	 1.0093237207e+00	 1.2814429149e+00
 1.1220602356e+00	 1.0327661050e+00	 2.7370494430e+00
 1.1004373125e+00	 1.0557758859e+00	 4.2886467402e+00
 1.0783378413e+00	 1.0783378413e+00	 5.9299209332e+00
 1.2868805985e+00	 8.4133499582e-01	-4.6471450426e+00
 1.2693536398e+00	 8.6755264225e-01	-3.6234021821e+00
 1.2512575304e+00	 8.9345444346e-01	-2.5410528924e+00
 1.2326007561e+00	 9.1902210310e-01	-1.4000189673e+00
 1.2133925794e+00	 9.4423762804e-01	-2.0050559646e-01
 1.1936430259e+00	 9.6908336933e-01	 1.0569938133e+00
 1.1733628682e+00	 9.9354206231e-01	 2.3716943796e+00
 1.1525636071e+00	 1.0175968660e+00	 3.7425180981e+00
 1.1312574507e+00	 1.0412314009e+00	 5.1680938439e+00
 1.1094572905e+00	 1.0644297866e+00	 6.6467590422e+00
 1.0871766761e+00	 1.0871766761e+00	 8.1765630163e+00
 1.2973430424e+00	 8.4817511774e-01	-3.6766100327e+00
 1.2796735881e+00	 8.7460591576e-01	-2.2564129259e+00
 1.2614303559e+00	 9.0071830072e-01	-8.4430769837e-01
 1.2426219005e+00	 9.2649382751e-01	 5.6257586311e-01
 1.2232575597e+00	 9.5191435673e-01	 1.9670806457e+00
 1.2033474407e+00	 9.7696209591e-01	 3.3720066046e+00
 1.1829024037e+00	 1.0016196401e+00	 4.7800953002e+00
 1.1619340429e+00	 1.0258700112e+00	 6.1940146944e+00
 1.1404546657e+00	 1.0496966969e+00	 7.6163443199e+00
 1.1184772685e+00	 1.0730836873e+00	 9.0495609361e+00
 1.0960155108e+00	 1.0960155108e+00	 1.0496024778e+01
 1.3078054863e+00	 8.5501523966e-01	-2.8754483603e+00
 1.2899935364e+00	 8.8165918928e-01	-1.0386826616e+00
 1.2716031813e+00	 9.0798215799e-01	 7.2427144832e-01
 1.2526430448e+00	 9.3396555193e-01	 2.4190413163e+00
 1.2331225400e+00	 9.5959108542e-01	 4.0514803349e+00
 1.2130518556e+00	 9.8484082249e-01	 5.6276416604e+00
 1.1924419392e+00	 1.0096972178e+00	 7.1537506676e+00
 1.1713044787e+00	 1.0341431565e+00	 8.6361763241e+00
 1.1496518808e+00	 1.0581619928e+00	 1.0081401675e+01
 1.1274972465e+00	 1.0817375880e+00	 1.1495993643e+01
 1.1048543456e+00	 1.1048543456e+00	 1.2886572346e+01
 1.3182679302e+00	 8.6185536158e-01	-2.2396141122e+00
 1.3003134847e+00	 8.8871246279e-01	 3.3355636719e-02
 1.2817760068e+00	 9.1524601525e-01	 2.1677493776e+00
 1.2626641892e+00	 9.4143727635e-01	 4.1719175502e+00
 1.2429875204e+00	 9.6726781410e-01	 6.0546873777e+00
 1.2227562704e+00	 9.9271954908e-01	 7.8253260147e+00
 1.2019814747e+00	 1.0177747955e+00	 9.4935010396e+00
 1.1806749146e+00	 1.0424163017e+00	 1.1069238538e+01
 1.1588490958e+00	 1.0666272888e+00	 1.2562879046e+01
 1.1365172244e+00	 1.0903914887e+00	 1.3985031650e+01
 1.1136931804e+00	 1.1136931804e+00	 1.5346526541e+01
 1.3287303741e+00	 8.6869548350e-01	-1.7651890884e+00
 1.3106334330e+00	 8.9576573631e-01	 9.6315635646e-01
 1.2919488322e+00	 9.2250987252e-01	 3.4890940905e+00
 1.2726853336e+00	 9.4890900077e-01	 5.8236644115e+00
 1.2528525007e+00	 9.7494454279e-01	 7.9786325673e+00
 1.2324606853e+00	 1.0005982757e+00	 9.9664414364e+00
 1.2115210102e+00	 1.0258523733e+00	 1.1800160174e+01
 1.1900453504e+00	 1.0506894470e+00	 1.3493429135e+01
 1.1680463108e+00	 1.0750925847e+00	 1.5060401415e+01
 1.1455372024e+00	 1.0990453894e+00	 1.6515681401e+01
 1.1225320151e+00	 1.1225320151e+00	 1.7874260725e+01
 1.3391928179e+00	 8.7553560541e-01	-1.4483778118e+00
 1.3209533813e+00	 9.0281900982e-01	 1.7540656484e+00
 1.3021216577e+00	 9.2977372978e-01	 4.6911805432e+00
 1.2827064779e+00	 9.5638072518e-01	 7.3766645751e+00
 1.2627174810e+00	 9.8262127147e-01	 9.8251860511e+00
 1.2421651001e+00	 1.0084770022e+00	 1.2052326199e+01
 1.2210605457e+00	 1.0339299510e+00	 1.4074516079e+01
 1.1994157862e+00	 1.0589625922e+00	 1.5908968470e+01
 1.1772435259e+00	 1.0835578807e+00	 1.7573605154e+01
 1.1545571804e+00	 1.1076992901e+00	 1.9086980054e+01
 1.1313708499e+00	 1.1313708499e+00	 2.0468198751e+01
 1.3496552618e+00	 8.8237572733e-01	-1.2855027701e+00
 1.3312733296e+00	 9.0987228334e-01	 2.4093256234e+00
 1.3122944831e+00	 9.3703758705e-01	 5.7767942556e+00
 1.2927276223e+00	 9.6385244960e-01	 8.8332265367e+00
 1.2725824613e+00	 9.9029800016e-01	 1.1596159684e+01
 1.2518695150e+00	 1.0163557288e+00	 1.4084276768e+01
 1.2306000812e+00	 1.0420075288e+00	 1.6317332010e+01
 1.2087862221e+00	 1.0672357375e+00	 1.8316069745e+01
 1.1864407409e+00	 1.0920231766e+00	 2.0102137583e+01
 1.1635771583e+00	 1.1163531908e+00	 2.1697994291e+01
 1.1402096847e+00	 1.1402096847e+00	 2.3126813011e+01
 1.3601177057e+00	 8.8921584925e-01	-1.2729998769e+00
 1.3415932778e+00	 9.1692555685e-01	 2.9320783561e+00
 1.3224673086e+00	 9.4430144431e-01	 6.7486347527e+00
 1.3027487666e+00	 9.7132417402e-01	 1.0195587468e+01
 1.2824474416e+00	 9.9797472884e-01	 1.3293309269e+01
 1.2615739298e+00	 1.0242344554e+00	 1.6063549414e+01
 1.2401396167e+00	 1.0500851065e+00	 1.8529347427e+01
 1.2181566579e+00	 1.0755088827e+00	 2.0714939281e+01
 1.1956379560e+00	 1.1004884725e+00	 2.2645656551e+01
 1.1725971363e+00	 1.1250070915e+00	 2.4347819182e+01
 1.1490485194e+00	 1.1490485194e+00	 2.5848622568e+01
 1.0606601718e+00	 1.0606601718e+00	 1.6623184121e+00
 1.0384680844e+00	 1.0823973566e+00	 3.3490985340e+00
 1.0158355131e+00	 1.1036658055e+00	 5.0219779706e+00
 9.9277743019e-01	 1.1244522996e+00	 6.6492104220e+00
 9.6930932908e-01	 1.1447442616e+00	 8.1991559220e+00
 9.4544718958e-01	 1.1645297814e+00	 9.6404133617e+00
 9.2120744199e-01	 1.1837976385e+00	 1.0941951341e+01
 8.9660692984e-01	 1.2025373231e+00	 1.2073236482e+01
 8.7166287166e-01	 1.2207390541e+00	 1.3004358377e+01
 8.4639282170e-01	 1.2383937950e+00	 1.3706150353e+01
 8.2081463007e-01	 1.2554932668e+00	 1.4150305307e+01
 1.0694990065e+00	 1.0694990065e+00	 3.7578893510e+00
 1.0471219851e+00	 1.0914173346e+00	 5.1402413121e+00
 1.0243008091e+00	 1.1128630206e+00	 6.5006923832e+00
 1.0010505754e+00	 1.1338227354e+00	 7.8088343626e+00
 9.7738690683e-01	 1.1542837971e+00	 9.0343966475e+00
 9.5332591617e-01	 1.1742341962e+00	 1.0147373204e+01
 9.2888417067e-01	 1.1936626188e+00	 1.1118147743e+01
 9.0407865426e-01	 1.2125584674e+00	 1.1917616277e+01
 8.7892672892e-01	 1.2309118795e+00	 1.2517306252e+01
 8.5344609521e-01	 1.2487137432e+00	 1.2889491513e+01
 8.2765475199e-01	 1.2659557107e+00	 1.3007302346e+01
 1.0783378413e+00	 1.0783378413e+00	 5.9299209332e+00
 1.0557758859e+00	 1.1004373125e+00	 7.0164612145e+00
 1.0327661050e+00	 1.1220602356e+00	 8.0732807898e+00
 1.0093237207e+00	 1.1431931713e+00	 9.0712924872e+00
 9.8546448457e-01	 1.1638233327e+00	 9.9815776098e+00
 9.6120464275e-01	 1.1839386111e+00	 1.0775507415e+01
 9.3656089936e-01	 1.2035275991e+00	 1.1424862682e+01
 9.1155037868e-01	 1.2225796118e+00	 1.1901950569e+01
 8.8619058619e-01	 1.2410847050e+00	 1.2179718013e+01
 8.6049936873e-01	 1.2590336915e+00	 1.2231860938e+01
 8.3449487391e-01	 1.2764181546e+00	 1.2032928590e+01
 1.0871766761e+00	 1.0871766761e+00	 8.1765630163e+00
 1.0644297866e+00	 1.1094572905e+00	 8.9756979875e+00
 1.0412314009e+00	 1.1312574507e+00	 9.7374684359e+00
 1.0175968660e+00	 1.1525636071e+00	 1.0434091569e+01
 9.9354206231e-01	 1.1733628682e+00	 1.1037983564e+01
 9.6908336933e-01	 1.1936430259e+00	 1.1521875625e+01
 9.4423762804e-01	 1.2133925794e+00	 1.1858927992e+01
 9.1902210310e-01	 1.2326007561e+00	 1.2022841178e+01
 8.9345444346e-01	 1.2512575304e+00	 1.1987963689e+01
 8.6755264225e-01	 1.2693536398e+00	 1.1729395546e+01
 8.4133499582e-01	 1.2868805985e+00	 1.1223086975e+01
 1.0960155108e+00	 1.0960155108e+00	 1.0496024778e+01
 1.0730836873e+00	 1.1184772685e+00	 1.1015957471e+01
 1.0496966969e+00	 1.1404546657e+00	 1.1491053576e+01
 1.0258700112e+00	 1.1619340429e+00	 1.1894818434e+01
 1.0016196401e+00	 1.1829024037e+00	 1.2200986480e+01
 9.7696209591e-01	 1.2033474407e+00	 1.2383631935e+01
 9.5191435673e-01	 1.2232575597e+00	 1.2417277327e+01
 9.2649382751e-01	 1.2426219005e+00	 1.2276999161e+01
 9.0071830072e-01	 1.2614303559e+00	 1.1938530024e+01
 8.7460591576e-01	 1.2796735881e+00	 1.1378356491e+01
 8.4817511774e-01	 1.2973430424e+00	 1.0573812217e+01
 1.1048543456e+00	 1.1048543456e+00	 1.2886572346e+01
 1.0817375880e+00	 1.1274972465e+00	 1.3135308959e+01
 1.0581619928e+00	 1.1496518808e+00	 1.3331904558e+01
 1.0341431565e+00	 1.1713044787e+00	 1.3451136763e+01
 1.0096972178e+00	 1.1924419392e+00	 1.3468042053e+01
 9.8484082249e-01	 1.2130518556e+00	 1.3358021144e+01
 9.5959108542e-01	 1.2331225400e+00	 1.3096942091e+01
 9.3396555193e-01	 1.2526430448e+00	 1.2661240446e+01
 9.0798215799e-01	 1.2716031813e+00	 1.2028015812e+01
 8.8165918928e-01	 1.2899935364e+00	 1.1175124191e+01
 8.5501523966e-01	 1.3078054863e+00	 1.0081265547e+01
 1.1136931804e+00	 1.1136931804e+00	 1.5346526541e+01
 1.0903914887e+00	 1.1365172244e+00	 1.5331882680e+01
 1.0666272888e+00	 1.1588490958e+00	 1.5257957041e+01
 1.0424163017e+00	 1.1806749146e+00	 1.5100784045e+01
 1.0177747955e+00	 1.2019814747e+00	 1.4836686386e+01
 9.9271954908e-01	 1.2227562704e+00	 1.4442375151e+01
 9.6726781410e-01	 1.2429875204e+00	 1.3895047561e+01
 9.4143727635e-01	 1.2626641892e+00	 1.3172481673e+01
 9.1524601525e-01	 1.2817760068e+00	 1.2253127451e+01
 8.8871246279e-01	 1.3003134847e+00	 1.1116193604e+01
 8.6185536158e-01	 1.3182679302e+00	 9.7417296927e+00
 1.1225320151e+00	 1.1225320151e+00	 1.7874260725e+01
 1.0990453894e+00	 1.1455372024e+00	 1.7603867405e+01
 1.0750925847e+00	 1.1680463108e+00	 1.7267211349e+01
 1.0506894470e+00	 1.1900453504e+00	 1.6841568672e+01
 1.0258523733e+00	 1.2115210102e+00	 1.6304532826e+01
 1.0005982757e+00	 1.2324606853e+00	 1.5634109530e+01
 9.7494454279e-01	 1.2528525007e+00	 1.4808809194e+01
 9.4890900077e-01	 1.2726853336e+00	 1.3807736235e+01
 9.2250987252e-01	 1.2919488322e+00	 1.2610674709e+01
 8.9576573631e-01	 1.3106334330e+00	 1.1198169719e+01
 8.6869548350e-01	 1.3287303741e+00	 9.5516040955e+00
 1.1313708499e+00	 1.1313708499e+00	 2.0468198751e+01
 1.1076992901e+00	 1.1545571804e+00	 1.9949508162e+01
 1.0835578807e+00	 1.1772435259e+00	 1.9357729950e+01
 1.0589625922e+00	 1.1994157862e+00	 1.8671367172e+01
 1.0339299510e+00	 1.2210605457e+00	 1.7869268950e+01
 1.0084770022e+00	 1.2421651001e+00	 1.6930720262e+01
 9.8262127147e-01	 1.2627174810e+00	 1.5835529107e+01
 9.5638072518e-01	 1.2827064779e+00	 1.4564110493e+01
 9.2977372978e-01	 1.3021216577e+00	 1.3097566692e+01
 9.0281900982e-01	 1.3209533813e+00	 1.1417763257e+01
 8.7553560541e-01	 1.3391928179e+00	 9.5074003571e+00
 1.1402096847e+00	 1.1402096847e+00	 2.3126813011e+01
 1.1163531908e+00	 1.1635771583e+00	 2.2367104055e+01
 1.0920231766e+00	 1.1864407409e+00	 2.1527635047e+01
 1.0672357375e+00	 1.2087862221e+00	 2.0588121573e+01
 1.0420075288e+00	 1.2306000812e+00	 1.9528653690e+01
 1.0163557288e+00	 1.2518695150e+00	 1.8329780620e+01
 9.9029800016e-01	 1.2725824613e+00	 1.6972592719e+01
 9.6385244960e-01	 1.2927276223e+00	 1.5438800186e+01
 9.3703758705e-01	 1.3122944831e+00	 1.3710807993e+01
 9.0987228334e-01	 1.3312733296e+00	 1.1771786582e+01
 8.8237572733e-01	 1.3496552618e+00	 9.6057378930e+00
 1.1490485194e+00	 1.1490485194e+00	 2.5848622568e+01
 1.1250070915e+00	 1.1725971363e+00	 2.4855006193e+01
 1.1004884725e+00	 1.1956379560e+00	 2.3775106282e+01
 1.0755088827e+00	 1.2181566579e+00	 2.2589836884e+01
 1.0500851065e+00	 1.2401396167e+00	 2.1280514591e+01
 1.0242344554e+00	 1.2615739298e+00	 1.9828938204e+01
 9.9797472884e-01	 1.2824474416e+00	 1.8217465554e+01
 9.7132417402e-01	 1.3027487666e+00	 1.6429086987e+01
 9.4430144431e-01	 1.3224673086e+00	 1.4447495023e+01
 9.1692555685e-01	 1.3415932778e+00	 1.2257149788e+01
 8.8921584925e-01	 1.3601177057e+00	 9.8433397884e+00
 8.2081463007e-01	 1.2554932668e+00	 1.4150305307e+01
 7.9494640226e-01	 1.2720299594e+00	 1.2989333853e+01
 7.6880645835e-01	 1.2879971388e+00	 1.0150340014e+01
 7.4241329204e-01	 1.3033888537e+00	 5.7453033184e+00
 7.1578552968e-01	 1.3181999376e+00	-1.1061620123e-01
 6.8894188959e-01	 1.3324260103e+00	-7.2996001403e+00
 6.6190114164e-01	 1.3460634750e+00	-1.5701696274e+01
 6.3468206743e-01	 1.3591095148e+00	-2.5195342087e+01
 6.0730342122e-01	 1.3715620856e+00	-3.5657883943e+01
 5.7978389161e-01	 1.3834199070e+00	-4.6966088692e+01
 5.5214206435e-01	 1.3946824516e+00	-5.8996644669e+01
 8.2765475199e-01	 1.2659557107e+00	 1.3007302346e+01
 8.0157095562e-01	 1.2826302090e+00	 1.2348698315e+01
 7.7521317884e-01	 1.2987304483e+00	 1.0126637811e+01
 7.4860006947e-01	 1.3142504274e+00	 6.4386142817e+00
 7.2175040909e-01	 1.3291849371e+00	 1.3851540727e+00
 6.9468307200e-01	 1.3435295603e+00	-4.9306429827e+00
 6.6741698448e-01	 1.3572806706e+00	-1.2403566206e+01
 6.3997108466e-01	 1.3704354275e+00	-2.0926756898e+01
 6.1236428306e-01	 1.3829917696e+00	-3.0392168363e+01
 5.8461542404e-01	 1.3949484062e+00	-4.0691020280e+01
 5.5674324821e-01	 1.4063048054e+00	-5.1714244686e+01
 8.3449487391e-01	 1.2764181546e+00	 1.2032928590e+01
 8.0819550897e-01	 1.2932304587e+00	 1.1786100785e+01
 7.8161989933e-01	 1.3094637578e+00	 1.0088732446e+01
 7.5478684690e-01	 1.3251120012e+00	 7.0240161727e+00
 7.2771528851e-01	 1.3401699366e+00	 2.6780313586e+00
 7.0042425441e-01	 1.3546331104e+00	-2.8606531746e+00
 6.7293282733e-01	 1.3684978662e+00	-9.5013805739e+00
 6.4526010189e-01	 1.3817613401e+00	-1.7151808722e+01
 6.1742514490e-01	 1.3944214537e+00	-2.5718311760e+01
 5.8944695647e-01	 1.4064769054e+00	-3.5106377828e+01
 5.6134443208e-01	 1.4179271591e+00	-4.5221000635e+01
 8.4133499582e-01	 1.2868805985e+00	 1.1223086975e+01
 8.1482006232e-01	 1.3038307084e+00	 1.1299653946e+01
 7.8802661981e-01	 1.3201970673e+00	 1.0036986610e+01
 7.6097362433e-01	 1.3359735750e+00	 7.5041574414e+00
 7.3368016792e-01	 1.3511549360e+00	 3.7729810557e+00
 7.0616543683e-01	 1.3657366605e+00	-1.0823217507e+00
 6.7844867017e-01	 1.3797150619e+00	-6.9854648068e+00
 6.5054911911e-01	 1.3930872527e+00	-1.3858439914e+01
 6.2248600675e-01	 1.4058511377e+00	-2.1621860479e+01
 5.9427848890e-01	 1.4180054047e+00	-3.0195303242e+01
 5.6594561595e-01	 1.4295495129e+00	-3.9497645985e+01
 8.4817511774e-01	 1.2973430424e+00	 1.0573812217e+01
 8.2144461567e-01	 1.3144309580e+00	 1.0887530979e+01
 7.9443334030e-01	 1.3309303768e+00	 9.9717509200e+00
 7.6716040177e-01	 1.3468351488e+00	 7.8816007276e+00
 7.3964504733e-01	 1.3621399355e+00	 4.6748080150e+00
 7.1190661924e-01	 1.3768402106e+00	 4.1142411056e-01
 6.8396451302e-01	 1.3909322575e+00	-4.8464567850e+00
 6.5583813634e-01	 1.4044131653e+00	-1.1034982146e+01
 6.2754686859e-01	 1.4172808218e+00	-1.8088827473e+01
 5.9911002133e-01	 1.4295339039e+00	-2.5941482586e+01
 5.7054679982e-01	 1.4411718666e+00	-3.4525536051e+01
 8.5501523966e-01	 1.3078054863e+00	 1.0081265547e+01
 8.2806916902e-01	 1.3250312077e+00	 1.0547963152e+01
 8.0084006078e-01	 1.3416636863e+00	 9.8933643966e+00
 7.7334717920e-01	 1.3576967225e+00	 8.1588262956e+00
 7.4560992674e-01	 1.3731249350e+00	 5.3881629644e+00
 7.1764780165e-01	 1.3879437607e+00	 1.6274305355e+00
 6.8948035586e-01	 1.4021494531e+00	-3.0752943375e+00
 6.6112715357e-01	 1.4157390779e+00	-8.6701408350e+00
 6.3260773043e-01	 1.4287105058e+00	-1.5105673630e+01
 6.0394155376e-01	 1.4410624031e+00	-2.2329124320e+01
 5.7514798369e-01	 1.4527942204e+00	-3.0286623122e+01
 8.6185536158e-01	 1.3182679302e+00	 9.7417296927e+00
 8.3469372238e-01	 1.3356314573e+00	 1.0279237514e+01
 8.0724678127e-01	 1.3523969957e+00	 9.8021549326e+00
 7.7953395663e-01	 1.3685582963e+00	 8.3382353064e+00
 7.5157480616e-01	 1.3841099345e+00	 5.9175486265e+00
 7.2338898406e-01	 1.3990473108e+00	 2.5723259534e+00
 6.9499619871e-01	 1.4133666487e+00	-1.6632033374e+00
 6.6641617079e-01	 1.4270649906e+00	-6.7529803076e+00
 6.3766859227e-01	 1.4401401898e+00	-1.2659290000e+01
 6.0877308619e-01	 1.4525909023e+00	-1.9342938563e+01
 5.7974916756e-01	 1.4644165742e+00	-2.6763432762e+01
 8.6869548350e-01	 1.3287303741e+00	 9.5516040955e+00
 8.4131827573e-01	 1.3462317070e+00	 1.0079694701e+01
 8.1365350175e-01	 1.3631303052e+00	 9.6984397310e+00
 7.8572073407e-01	 1.3794198701e+00	 8.4221529337e+00
 7.5753968557e-01	 1.3950949340e+00	 6.2673255490e+00
 7.2913016647e-01	 1.4101508608e+00	 3.2525296696e+00
 7.0051204155e-01	 1.4245838444e+00	-6.0168635936e-01
 6.7170518802e-01	 1.4383909032e+00	-5.2729096682e+00
 6.4272945412e-01	 1.4515698739e+00	-1.0736980853e+01
 6.1360461862e-01	 1.4641194016e+00	-1.6968117345e+01
 5.8435035143e-01	 1.4760389279e+00	-2.3939041246e+01
 8.7553560541e-01	 1.3391928179e+00	 9.5074003571e+00
 8.4794282908e-01	 1.3568319566e+00	 9.9477268462e+00
 8.2006022224e-01	 1.3738636147e+00	 9.5825257263e+00
 7.9190751150e-01	 1.3902814439e+00	 8.4128313350e+00
 7.6350456498e-01	 1.4060799334e+00	 6.4417176599e+00
 7.3487134888e-01	 1.4212544109e+00	 3.6742600372e+00
 7.0602788440e-01	 1.4358010400e+00	 1.1748813188e-01
 6.7699420525e-01	 1.4497168158e+00	-4.2196693285e+00
 6.4779031596e-01	 1.4629995579e+00	-9.3264475420e+00
 6.1843615105e-01	 1.4756479008e+00	-1.5190315774e+01
 5.8895153530e-01	 1.4876612817e+00	-2.1797054041e+01
 8.8237572733e-01	 1.3496552618e+00	 9.6057378930e+00
 8.5456738243e-01	 1.3674322063e+00	 9.8817755885e+00
 8.2646694273e-01	 1.3845969242e+00	 9.4547099842e+00
 7.9809428893e-01	 1.4011430177e+00	 8.3124524845e+00
 7.6946944439e-01	 1.4170649329e+00	 6.4448175659e+00
 7.4061253130e-01	 1.4323579610e+00	 3.8435422476e+00
 7.1154372724e-01	 1.4470182356e+00	 5.0229608927e-01
 6.8228322248e-01	 1.4610427284e+00	-3.5833181637e+00
 6.5285117780e-01	 1.4744292420e+00	-8.4157731026e+00
 6.2326768348e-01	 1.4871764000e+00	-1.3995634091e+01
 5.9355271917e-01	 1.4992836355e+00	-2.0321585296e+01
 8.8921584925e-01	 1.3601177057e+00	 9.8433397884e+00
 8.6119193579e-01	 1.3780324560e+00	 9.8803301679e+00
 8.3287366321e-01	 1.3953302337e+00	 9.3152800842e+00
 8.0428106636e-01	 1.4120045914e+00	 8.1231308743e+00
 7.7543432381e-01	 1.4280499324e+00	 6.2805916058e+00
 7.4635371371e-01	 1.4434615111e+00	 3.7662157630e+00
 7.1705957009e-01	 1.4582354312e+00	 5.6046771605e-01
 6.8757223970e-01	 1.4723686411e+00	-3.3542212620e+00
 6.5791203964e-01	 1.4858589260e+00	-7.9934075755e+00
 6.2809921591e-01	 1.4987048992e+00	-1.3370600544e+01
 5.9815390303e-01	 1.5109059892e+00	-1.9497238269e+01
 5.5214206435e-01	 1.3946824516e+00	-5.8996644669e+01
 5.2439638616e-01	 1.4053499316e+00	-5.5202454844e+01
 4.9656512995e-01	 1.4154232836e+00	-5.1122810977e+01
 4.6866636132e-01	 1.4249041518e+00	-4.6891201707e+01
 4.4071790656e-01	 1.4337948692e+00	-4.2637431624e+01
 4.1273732226e-01	 1.4420984373e+00	-3.8487226611e+01
 3.8474186652e-01	 1.4498185046e+00	-3.4561873331e+01
 3.5674847187e-01	 1.4569593432e+00	-3.0977893745e+01
 3.2877372005e-01	 1.4635258252e+00	-2.7846755220e+01
 3.0083381848e-01	 1.4695233968e+00	-2.5274616529e+01
 2.7294457863e-01	 1.4749580526e+00	-2.3362109703e+01
 5.5674324821e-01	 1.4063048054e+00	-5.1714244686e+01
 5.2876635604e-01	 1.4170611810e+00	-4.8554260938e+01
 5.0070317270e-01	 1.4272184776e+00	-4.5309283246e+01
 4.7257191433e-01	 1.4367783530e+00	-4.2081241690e+01
 4.4439055579e-01	 1.4457431597e+00	-3.8968628462e+01
 4.1617679995e-01	 1.4541159243e+00	-3.6066219855e+01
 3.8794804874e-01	 1.4619003254e+00	-3.3464826606e+01
 3.5972137580e-01	 1.4691006711e+00	-3.1251073026e+01
 3.3151350105e-01	 1.4757218737e+00	-2.9507205077e+01
 3.0334076697e-01	 1.4817694251e+00	-2.8310927362e+01
 2.7521911678e-01	 1.4872493697e+00	-2.7735268739e+01
 5.6134443208e-01	 1.4179271591e+00	-4.5221000635e+01
 5.3313632592e-01	 1.4287724304e+00	-4.2489737033e+01
 5.0484121545e-01	 1.4390136716e+00	-3.9871920422e+01
 4.7647746734e-01	 1.4486525543e+00	-3.7438315824e+01
 4.4806320501e-01	 1.4576914503e+00	-3.5256492309e+01
 4.1961627764e-01	 1.4661334112e+00	-3.3390660442e+01
 3.9115423096e-01	 1.4739821463e+00	-3.1901532372e+01
 3.6269427974e-01	 1.4812419989e+00	-3.0846204501e+01
 3.3425328206e-01	 1.4879179223e+00	-3.0278062554e+01
 3.0584771545e-01	 1.4940154534e+00	-3.0246708631e+01
 2.7749365494e-01	 1.4995406868e+00	-3.0797909750e+01
 5.6594561595e-01	 1.4295495129e+00	-3.9497645985e+01
 5.3750629581e-01	 1.4404836799e+00	-3.6994628044e+01
 5.0897925820e-01	 1.4508088657e+00	-3.4801528099e+01
 4.8038302035e-01	 1.4605267556e+00	-3.2958330016e+01
 4.5173585423e-01	 1.4696397409e+00	-3.1502059524e+01
 4.2305575532e-01	 1.4781508982e+00	-3.0466735970e+01
 3.9436041318e-01	 1.4860639672e+00	-2.9883341040e+01
 3.6566718367e-01	 1.4933833268e+00	-2.9779803961e+01
 3.3699306306e-01	 1.5001139708e+00	-3.0181002572e+01
 3.0835466394e-01	 1.5062614817e+00	-3.1108779569e+01
 2.7976819309e-01	 1.5118320039e+00	-3.2581973140e+01
 5.7054679982e-01	 1.4411718666e+00	-3.4525536051e+01
 5.4187626569e-01	 1.4521949293e+00	-3.2055139067e+01
 5.1311730095e-01	 1.4626040597e+00	-3.0089208797e+01
 4.8428857336e-01	 1.4724009568e+00	-2.8637322566e+01
 4.5540850345e-01	 1.4815880315e+00	-2.7706333357e+01
 4.2649523301e-01	 1.4901683852e+00	-2.7300434743e+01
 3.9756659540e-01	 1.4981457880e+00	-2.7421237179e+01
 3.6864008760e-01	 1.5055246547e+00	-2.8067854716e+01
 3.3973284406e-01	 1.5123100194e+00	-2.9237001142e+01
 3.1086161243e-01	 1.5185075100e+00	-3.0923094543e+01
 2.8204273125e-01	 1.5241233210e+00	-3.3118369233e+01
 5.7514798369e-01	 1.4527942204e+00	-3.0286623122e+01
 5.4624623558e-01	 1.4639061787e+00	-2.7657916971e+01
 5.1725534370e-01	 1.4743992537e+00	-2.5726350083e+01
 4.8819412638e-01	 1.4842751581e+00	-2.4471458866e+01
 4.5908115267e-01	 1.4935363220e+00	-2.3870285262e+01
 4.2993471070e-01	 1.5021858722e+00	-2.3897553746e+01
 4.0077277763e-01	 1.5102276089e+00	-2.4525854148e+01
 3.7161299154e-01	 1.5176659825e+00	-2.5725828897e+01
 3.4247262506e-01	 1.5245060679e+00	-2.7466363317e+01
 3.1336856092e-01	 1.5307535383e+00	-2.9714777643e+01
 2.8431726940e-01	 1.5364146382e+00	-3.2437019476e+01
 5.7974916756e-01	 1.4644165742e+00	-2.6763432762e+01
 5.5061620546e-01	 1.4756174282e+00	-2.3790032861e+01
 5.2139338645e-01	 1.4861944478e+00	-2.1704613257e+01
 4.9209967939e-01	 1.4961493594e+00	-2.0457026361e+01
 4.6275380190e-01	 1.5054846126e+00	-1.9994856164e+01
 4.3337418838e-01	 1.5142033592e+00	-2.0263706230e+01
 4.0397895985e-01	 1.5223094298e+00	-2.1207488026e+01
 3.7458589547e-01	 1.5298073104e+00	-2.2768707737e+01
 3.4521240606e-01	 1.5367021165e+00	-2.4888749815e+01
 3.1587550940e-01	 1.5429995666e+00	-2.7508155631e+01
 2.8659180756e-01	 1.5487059553e+00	-3.0566895680e+01
 5.8435035143e-01	 1.4760389279e+00	-2.3939041246e+01
 5.5498617535e-01	 1.4873286776e+00	-2.0438965381e+01
 5.2553142920e-01	 1.4979896418e+00	-1.8015922576e+01
 4.9600523240e-01	 1.5080235606e+00	-1.6590429737e+01
 4.6642645112e-01	 1.5174329032e+00	-1.6080957655e+01
 4.3681366607e-01	 1.5262208461e+00	-1.6404328948e+01
 4.0718514207e-01	 1.5343912507e+00	-1.7476110897e+01
 3.7755879940e-01	 1.5419486383e+00	-1.9211000897e+01
 3.4795218706e-01	 1.5488981650e+00	-2.1523202390e+01
 3.1838245789e-01	 1.5552455949e+00	-2.4326789331e+01
 2.8886634572e-01	 1.5609972724e+00	-2.7536057406e+01
 5.8895153530e-01	 1.4876612817e+00	-2.1797054041e+01
 5.5935614523e-01	 1.4990399270e+00	-1.7592584786e+01
 5.2966947195e-01	 1.5097848358e+00	-1.4652454976e+01
 4.9991078541e-01	 1.5198977619e+00	-1.2868186340e+01
 4.7009910034e-01	 1.5293811938e+00	-1.2129473141e+01
 4.4025314375e-01	 1.5382383331e+00	-1.2324689047e+01
 4.1039132429e-01	 1.5464730715e+00	-1.3341383499e+01
 3.8053170334e-01	 1.5540899661e+00	-1.5066764886e+01
 3.5069196806e-01	 1.5610942135e+00	-1.7388168003e+01
 3.2088940638e-01	 1.5674916232e+00	-2.0193503544e+01
 2.9114088387e-01	 1.5732885895e+00	-2.3371687599e+01
 5.9355271917e-01	 1.4992836355e+00	-2.0321585296e+01
 5.6372611512e-01	 1.5107511764e+00	-1.5239137763e+01
 5.3380751470e-01	 1.5215800299e+00	-1.1606630280e+01
 5.0381633842e-01	 1.5317719632e+00	-9.2869218085e+00
 4.7377174956e-01	 1.5413294843e+00	-8.1412589305e+00
 4.4369262144e-01	 1.5502558201e+00	-8.0298906364e+00
 4.1359750651e-01	 1.5585548924e+00	-8.8126672902e+00
 3.8350460727e-01	 1.5662312940e+00	-1.0349620622e+01
 3.5343174906e-01	 1.5732902621e+00	-1.2501521880e+01
 3.2339635487e-01	 1.5797376515e+00	-1.5130415577e+01
 2.9341542203e-01	 1.5855799066e+00	-1.8100126560e+01
 5.9815390303e-01	 1.5109059892e+00	-1.9497238269e+01
 5.6809608500e-01	 1.5224624259e+00	-1.3367232952e+01
 5.3794555745e-01	 1.5333752239e+00	-8.8711018537e+00
 5.0772189143e-01	 1.5436461644e+00	-5.8433659084e+00
 4.7744439878e-01	 1.5532777749e+00	-4.1171452747e+00
 4.4713209913e-01	 1.5622733071e+00	-3.5248810629e+00
 4.1680368873e-01	 1.5706367133e+00	-3.8990359621e+00
 3.8647751120e-01	 1.5783726218e+00	-5.0727701854e+00
 3.5617153006e-01	 1.5854863106e+00	-6.8805894974e+00
 3.2590330336e-01	 1.5919836798e+00	-9.1589624554e+00
 2.9568996018e-01	 1.5978712237e+00	-1.1746904361e+01
 2.7294457863e-01	 1.4749580526e+00	-2.3362109703e+01
 2.4512139627e-01	 1.4798363089e+00	-1.3023698407e+01
 2.1737923355e-01	 1.4841651757e+00	-2.5964415431e+00
 1.8973260298e-01	 1.4879521294e+00	 7.9355970011e+00
 1.6219555325e-01	 1.4912050840e+00	 1.8586605430e+01
 1.3478165686e-01	 1.4939323629e+00	 2.9369047667e+01
 1.0750399962e-01	 1.4961426704e+00	 4.0293694556e+01
 8.0375171844e-02	 1.4978450627e+00	 5.1369662045e+01
 5.3407261335e-02	 1.4990489200e+00	 6.2604455696e+01
 2.6611847981e-02	 1.4997639179e+00	 7.4004020912e+01
 0.0000000000e+00	 1.5000000000e+00	 8.5572798212e+01
 2.7521911678e-01	 1.4872493697e+00	-2.7735268739e+01
 2.4716407457e-01	 1.4921682781e+00	-1.7730714690e+01
 2.1919072716e-01	 1.4965332189e+00	-7.2894078694e+00
 1.9131370801e-01	 1.5003517305e+00	 3.5676960345e+00
 1.6354718286e-01	 1.5036317930e+00	 1.4818230302e+01
 1.3590483734e-01	 1.5063817993e+00	 2.6438563695e+01
 1.0839986628e-01	 1.5086105259e+00	 3.8403946707e+01
 8.1044964942e-02	 1.5103271049e+00	 5.0688656669e+01
 5.3852321846e-02	 1.5115409943e+00	 6.3266140906e+01
 2.6833613381e-02	 1.5122619506e+00	 7.6109157165e+01
 0.0000000000e+00	 1.5125000000e+00	 8.9189910656e+01
 2.7749365494e-01	 1.4995406868e+00	-3.0797909750e+01
 2.4920675287e-01	 1.5045002474e+00	-2.1364873933e+01
 2.2100222078e-01	 1.5089012620e+00	-1.1150696835e+01
 1.9289481303e-01	 1.5127513316e+00	-2.1277206317e-01
 1.6489881247e-01	 1.5160585021e+00	 1.1390426651e+01
 1.3702801781e-01	 1.5188312356e+00	 2.3599613673e+01
 1.0929573294e-01	 1.5210783815e+00	 3.6354951645e+01
 8.1714758041e-02	 1.5228091470e+00	 4.9596302511e+01
 5.4297382357e-02	 1.5240330686e+00	 6.3263468350e+01
 2.7055378780e-02	 1.5247599832e+00	 7.7296421185e+01
 0.0000000000e+00	 1.5250000000e+00	 9.1635520992e+01
 2.7976819309e-01	 1.5118320039e+00	-3.2581973140e+01
 2.5124943117e-01	 1.5168322166e+00	-2.3952319429e+01
 2.2281371439e-01	 1.5212693051e+00	-1.4200568796e+01
 1.9447591806e-01	 1.5251509326e+00	-3.4201099636e+00
 1.6625044208e-01	 1.5284852111e+00	 8.2949133137e+00
 1.3815119828e-01	 1.5312806720e+00	 2.0849991013e+01
 1.1019159961e-01	 1.5335462371e+00	 3.4150619883e+01
 8.2384551139e-02	 1.5352911892e+00	 4.8102659372e+01
 5.4742442867e-02	 1.5365251430e+00	 6.2612669247e+01
 2.7277144180e-02	 1.5372580159e+00	 7.7588227918e+01
 0.0000000000e+00	 1.5375000000e+00	 9.2938230691e+01
 2.8204273125e-01	 1.5241233210e+00	-3.3118369233e+01
 2.5329210948e-01	 1.5291641859e+00	-2.5518351380e+01
 2.2462520800e-01	 1.5336373482e+00	-1.6458630781e+01
 1.9605702308e-01	 1.5375505337e+00	-6.0681591828e+00
 1.6760207169e-01	 1.5409119201e+00	 5.5236760507e+00
 1.3927437876e-01	 1.5437301084e+00	 1.8187560114e+01
 1.1108746627e-01	 1.5460140927e+00	 3.1794735603e+01
 8.3054344237e-02	 1.5477732314e+00	 4.6217462380e+01
 5.5187503378e-02	 1.5490172173e+00	 6.1329451070e+01
 2.7498909579e-02	 1.5497560485e+00	 7.7006269106e+01
 0.0000000000e+00	 1.5500000000e+00	 9.3125718473e+01
 2.8431726940e-01	 1.5364146382e+00	-3.2437019476e+01
 2.5533478778e-01	 1.5414961551e+00	-2.6087460626e+01
 2.2643670161e-01	 1.5460053914e+00	-1.7943862626e+01
 1.9763812811e-01	 1.5499501348e+00	-8.1703185267e+00
 1.6895370130e-01	 1.5533386292e+00	 3.0689568743e+00
 1.4039755923e-01	 1.5561795447e+00	 1.5610253521e+01
 1.1198333293e-01	 1.5584819483e+00	 2.9290961718e+01
 8.3724137335e-02	 1.5602552736e+00	 4.3950134972e+01
 5.5632563889e-02	 1.5615092916e+00	 5.9429018506e+01
 2.7720674979e-02	 1.5622540812e+00	 7.5571542219e+01
 0.0000000000e+00	 1.5625000000e+00	 9.2224777215e+01
 2.8659180756e-01	 1.5487059553e+00	-3.0566895680e+01
 2.5737746608e-01	 1.5538281243e+00	-2.5683360759e+01
 2.2824819523e-01	 1.5583734345e+00	-1.8674641858e+01
 1.9921923313e-01	 1.5623497359e+00	-9.7395616578e+00
 1.7030533091e-01	 1.5657653382e+00	 9.2324387819e-01
 1.4152073970e-01	 1.5686289811e+00	 1.3116069223e+01
 1.1287919960e-01	 1.5709498039e+00	 2.6642844676e+01
 8.4393930433e-02	 1.5727373158e+00	 4.1309801263e+01
 5.6077624400e-02	 1.5740013660e+00	 5.6926093399e+01
 2.7942440379e-02	 1.5747521138e+00	 7.3304378003e+01
 0.0000000000e+00	 1.5750000000e+00	 9.0261349104e+01
 2.8886634572e-01	 1.5609972724e+00	-2.7536057406e+01
 2.5942014438e-01	 1.5661600936e+00	-2.4329018722e+01
 2.3005968884e-01	 1.5707414776e+00	-1.8668767412e+01
 2.0080033816e-01	 1.5747493369e+00	-1.0788453833e+01
 1.7165696052e-01	 1.5781920472e+00	-9.2073844932e-01
 1.4264392017e-01	 1.5810784174e+00	 1.0703068075e+01
 1.1377506626e-01	 1.5834176595e+00	 2.3853819055e+01
 8.5063723532e-02	 1.5852193580e+00	 3.8305297833e+01
 5.6522684910e-02	 1.5864934403e+00	 5.3834933768e+01
 2.8164205778e-02	 1.5872501465e+00	 7.0224466732e+01
 0.0000000000e+00	 1.5875000000e+00	 8.7260559129e+01
 2.9114088387e-01	 1.5732885895e+00	-2.3371687599e+01
 2.6146282268e-01	 1.5784920628e+00	-2.2046683977e+01
 2.3187118245e-01	 1.5831095208e+00	-1.7943482226e+01
 2.0238144318e-01	 1.5871489380e+00	-1.1329167855e+01
 1.7300859013e-01	 1.5906187563e+00	-2.4700384592e+00
 1.4376710065e-01	 1.5935278538e+00	 8.3693713430e+00
 1.1467093292e-01	 1.5958855151e+00	 2.0927211925e+01
 8.5733516630e-02	 1.5977014002e+00	 3.4945184959e+01
 5.6967745421e-02	 1.5989855146e+00	 5.0169351918e+01
 2.8385971178e-02	 1.5997481791e+00	 6.6350883225e+01
 0.0000000000e+00	 1.6000000000e+00	 8.3246747005e+01
 2.9341542203e-01	 1.5855799066e+00	-1.8100126560e+01
 2.6350550099e-01	 1.5908240321e+00	-1.8857916309e+01
 2.3368267606e-01	 1.5954775639e+00	-1.6515494794e+01
 2.0396254820e-01	 1.5995485391e+00	-1.1373499284e+01
 1.7436021974e-01	 1.6030454653e+00	-3.7314861454e+00
 1.4489028112e-01	 1.6059772901e+00	 6.1131583660e+00
 1.1556679958e-01	 1.6083533706e+00	 1.7866247021e+01
 8.6403309728e-02	 1.6101834424e+00	 3.1237757321e+01
 5.7412805932e-02	 1.6114775890e+00	 4.5942731721e+01
 2.8607736578e-02	 1.6122462118e+00	 6.1702110700e+01
 0.0000000000e+00	 1.6125000000e+00	 7.8243497606e+01
 2.9568996018e-01	 1.5978712237e+00	-1.1746904361e+01
 2.6554817929e-01	 1.6031560013e+00	-1.4783612353e+01
 2.3549416968e-01	 1.6078456070e+00	-1.4400999722e+01
 2.0554365323e-01	 1.6119481402e+00	-1.0932880946e+01
 1.7571184935e-01	 1.6154721743e+00	-4.7117015429e+00
 1.4601346159e-01	 1.6184267265e+00	 3.9326643190e+00
 1.1646266625e-01	 1.6208212262e+00	 1.4674048715e+01
 8.7073102826e-02	 1.6226654846e+00	 2.7191054224e+01
 5.7857866443e-02	 1.6239696633e+00	 4.1168045092e+01
 2.8829501977e-02	 1.6247442444e+00	 5.6296063529e+01
 0.0000000000e+00	 1.6250000000e+00	 7.2273670000e+01
 1.6250000000e+00	 0.0000000000e+00	 5.6705936682e+01
 1.6247442444e+00	 2.8829501977e-02	 3.8174516787e+01
 1.6239696633e+00	 5.7857866443e-02	 2.0899121977e+01
 1.6226654846e+00	 8.7073102826e-02	 4.8264028284e+00
 1.6208212262e+00	 1.1646266625e-01	-1.0104310983e+01
 1.6184267265e+00	 1.4601346159e-01	-2.3961133397e+01
 1.6154721743e+00	 1.7571184935e-01	-3.6819714846e+01
 1.6119481402e+00	 2.0554365323e-01	-4.8763302925e+01
 1.6078456070e+00	 2.3549416968e-01	-5.9882768575e+01
 1.6031560013e+00	 2.6554817929e-01	-7.0276595627e+01
 1.5978712237e+00	 2.9568996018e-01	-8.0050831680e+01
 1.6375000000e+00	 0.0000000000e+00	 1.0883004379e+01
 1.6372422771e+00	 2.9051267377e-02	 2.6658634847e+00
 1.6364617376e+00	 5.8302926953e-02	-5.6322409752e+00
 1.6351475267e+00	 8.7742895924e-02	-1.4072552272e+01
 1.6332890818e+00	 1.1735853291e-01	-2.2719328373e+01
 1.6308761629e+00	 1.4713664207e-01	-3.1639752757e+01
 1.6278988834e+00	 1.7706347896e-01	-4.0903826021e+01
 1.6243477413e+00	 2.0712475825e-01	-5.0584237749e+01
 1.6202136502e+00	 2.3730566329e-01	-6.0756218248e+01
 1.6154879705e+00	 2.6759085759e-01	-7.1497369861e+01
 1.6101625408e+00	 2.9796449834e-01	-8.2887477725e+01
 1.6500000000e+00	 0.0000000000e+00	-3.6929311058e+01
 1.6497403097e+00	 2.9273032776e-02	-3.4645721094e+01
 1.6489538120e+00	 5.8747987464e-02	-3.3758277572e+01
 1.6476295689e+00	 8.8412689023e-02	-3.4335965069e+01
 1.6457569374e+00	 1.1825439957e-01	-3.6446520085e+01
 1.6433255992e+00	 1.4825982254e-01	-4.0156132098e+01
 1.6403255924e+00	 1.7841510857e-01	-4.5529135951e+01
 1.6367473423e+00	 2.0870586328e-01	-5.2627696870e+01
 1.6325816933e+00	 2.3911715690e-01	-6.1511489562e+01
 1.6278199398e+00	 2.6963353589e-01	-7.2237372984e+01
 1.6224538579e+00	 3.0023903649e-01	-8.4859062495e+01
 1.6625000000e+00	 0.0000000000e+00	-8.6686136533e+01
 1.6622383424e+00	 2.9494798176e-02	-7.3719568622e+01
 1.6614458863e+00	 5.9193047975e-02	-6.3443016157e+01
 1.6601116111e+00	 8.9082482121e-02	-5.5933055922e+01
 1.6582247930e+00	 1.1915026624e-01	-5.1260796297e+01
 1.6557750356e+00	 1.4938300301e-01	-4.9491370655e+01
 1.6527523014e+00	 1.7976673818e-01	-5.0683432527e+01
 1.6491469434e+00	 2.1028696830e-01	-5.4888655672e+01
 1.6449497364e+00	 2.4092865051e-01	-6.2151242313e+01
 1.6401519090e+00	 2.7167621419e-01	-7.2507443007e+01
 1.6347451750e+00	 3.0251357465e-01	-8.5985091674e+01
 1.6750000000e+00	 0.0000000000e+00	-1.3834393840e+02
 1.6747363750e+00	 2.9716563576e-02	-1.1451622471e+02
 1.6739379606e+00	 5.9638108486e-02	-9.4651558826e+01
 1.6725936533e+00	 8.9752275219e-02	-7.8833963966e+01
 1.6706926486e+00	 1.2004613290e-01	-6.7137816131e+01
 1.6682244719e+00	 1.5050618349e-01	-5.9627131870e+01
 1.6651790105e+00	 1.8111836779e-01	-5.6354868196e+01
 1.6615465445e+00	 2.1186807333e-01	-5.7362239552e+01
 1.6573177796e+00	 2.4274014413e-01	-6.2678056938e+01
 1.6524838783e+00	 2.7371889250e-01	-7.2318094470e+01
 1.6470364921e+00	 3.0478811280e-01	-8.6284488746e+01
 1.6875000000e+00	 0.0000000000e+00	-1.9186047283e+02
 1.6872344077e+00	 2.9938328975e-02	-1.5699740396e+02
 1.6864300350e+00	 6.0083168996e-02	-1.2735004166e+02
 1.6850756955e+00	 9.0422068317e-02	-1.0300971309e+02
 1.6831605042e+00	 1.2094199956e-01	-8.4053959912e+01
 1.6806739083e+00	 1.5162936396e-01	-7.0545622495e+01
 1.6776057195e+00	 1.8246999740e-01	-6.2531946458e+01
 1.6739461456e+00	 2.1344917835e-01	-6.0043718368e+01
 1.6696858227e+00	 2.4455163774e-01	-6.3094437452e+01
 1.6648158475e+00	 2.7576157080e-01	-7.1679530416e+01
 1.6593278092e+00	 3.0706265096e-01	-8.5775616563e+01
 1.7000000000e+00	 0.0000000000e+00	-2.4719473844e+02
 1.6997324403e+00	 3.0160094375e-02	-2.0112594696e+02
 1.6989221093e+00	 6.0528229507e-02	-1.6150559670e+02
 1.6975577377e+00	 9.1091861415e-02	-1.2843217939e+02
 1.6956283597e+00	 1.2183786622e-01	-1.0198630265e+02
 1.6931233446e+00	 1.5275254443e-01	-8.2229572615e+01
 1.6900324285e+00	 1.8382162701e-01	-6.9203508960e+01
 1.6863457466e+00	 2.1503028338e-01	-6.2928501126e+01
 1.6820538658e+00	 2.4636313135e-01	-6.3402814263e+01
 1.6771478167e+00	 2.7780424910e-01	-7.0601653849e+01
 1.6716191263e+00	 3.0933718911e-01	-8.4476297950e+01
 1.7125000000e+00	 0.0000000000e+00	-3.0430693090e+02
 1.7122304730e+00	 3.0381859775e-02	-2.4686577921e+02
 1.7114141836e+00	 6.0973290018e-02	-1.9708631563e+02
 1.7100397799e+00	 9.1761654514e-02	-1.5507406009e+02
 1.7080962153e+00	 1.2273373289e-01	-1.2091258870e+02
 1.7055727810e+00	 1.5387572491e-01	-9.4662216551e+01
 1.7024591376e+00	 1.8517325662e-01	-7.6358723155e+01
 1.6987453477e+00	 2.1661138840e-01	-6.6012130900e+01
 1.6944219089e+00	 2.4817462496e-01	-6.3605546853e+01
 1.6894797860e+00	 2.7984692740e-01	-6.9094078682e+01
 1.6839104434e+00	 3.1161172727e-01	-8.2403835417e+01
 1.7250000000e+00	 0.0000000000e+00	-3.6315839959e+02
 1.7247285056e+00	 3.0603625174e-02	-2.9418187181e+02
 1.7239062580e+00	 6.1418350529e-02	-2.3406121495e+02
 1.7225218221e+00	 9.2431447612e-02	-1.8290884379e+02
 1.7205640709e+00	 1.2362959955e-01	-1.4081120750e+02
 1.7180222174e+00	 1.5499890538e-01	-1.0782727459e+02
 1.7148858466e+00	 1.8652488623e-01	-8.3987070500e+01
 1.7111449488e+00	 2.1819249342e-01	-6.9290279977e+01
 1.7067899521e+00	 2.4998611858e-01	-6.3704926350e+01
 1.7018117552e+00	 2.8188960570e-01	-6.7166140212e+01
 1.6962017605e+00	 3.1388626542e-01	-7.9575030011e+01
 1.7375000000e+00	 0.0000000000e+00	-4.2371160607e+02
 1.7372265383e+00	 3.0825390574e-02	-3.4304020386e+02
 1.7363983323e+00	 6.1863411039e-02	-2.7240020277e+02
 1.7350038643e+00	 9.3101240710e-02	-2.1191078197e+02
 1.7330319265e+00	 1.2452546621e-01	-1.6166117035e+02
 1.7304716537e+00	 1.5612208585e-01	-1.2170893550e+02
 1.7273125556e+00	 1.8787651584e-01	-9.2078335155e+01
 1.7235445499e+00	 2.1977359845e-01	-7.2758745208e+01
 1.7191579952e+00	 2.5179761219e-01	-6.3703177987e+01
 1.7141437245e+00	 2.8393228401e-01	-6.4826905142e+01
 1.7084930776e+00	 3.1616080358e-01	-7.6006199356e+01
 1.7500000000e+00	 0.0000000000e+00	-4.8593008440e+02
 1.7497245709e+00	 3.1047155973e-02	-3.9340772642e+02
 1.7488904066e+00	 6.2308471550e-02	-3.1207404694e+02
 1.7474859064e+00	 9.3771033808e-02	-2.4205486177e+02
 1.7454997821e+00	 1.2542133288e-01	-1.8344208825e+02
 1.7429210901e+00	 1.5724526633e-01	-1.3629183981e+02
 1.7397392647e+00	 1.8922814545e-01	-1.0062259318e+02
 1.7359441510e+00	 2.2135470347e-01	-7.6413443559e+01
 1.7315260383e+00	 2.5360910580e-01	-6.3602463457e+01
 1.7264756937e+00	 2.8597496231e-01	-6.2085181172e+01
 1.7207843947e+00	 3.1843534174e-01	-7.1713194912e+01
 1.5978712237e+00	 2.9568996018e-01	-8.0050831680e+01
 1.5919836798e+00	 3.2590330336e-01	-6.4949420979e+01
 1.5854863106e+00	 3.5617153006e-01	-5.1411609122e+01
 1.5783726218e+00	 3.8647751120e-01	-3.9414234296e+01
 1.5706367133e+00	 4.1680368873e-01	-2.8927679894e+01
 1.5622733071e+00	 4.4713209913e-01	-1.9915768680e+01
 1.5532777749e+00	 4.7744439878e-01	-1.2335686291e+01
 1.5436461644e+00	 5.0772189143e-01	-6.1379358636e+00
 1.5333752239e+00	 5.3794555745e-01	-1.2663254497e+00
 1.5224624259e+00	 5.6809608500e-01	 2.3420103362e+00
 1.5109059892e+00	 5.9815390303e-01	 4.7565531871e+00
 1.6101625408e+00	 2.9796449834e-01	-8.2887477725e+01
 1.6042297081e+00	 3.2841025184e-01	-6.8768769959e+01
 1.5976823592e+00	 3.5891131106e-01	-5.5814215816e+01
 1.5905139497e+00	 3.8945041513e-01	-4.4010835792e+01
 1.5827185341e+00	 4.2000987096e-01	-3.3340866065e+01
 1.5742907940e+00	 4.5057157681e-01	-2.3781664963e+01
 1.5652260655e+00	 4.8111704801e-01	-1.5305640784e+01
 1.5555203657e+00	 5.1162744444e-01	-7.8802023742e+00
 1.5451704179e+00	 5.4208360020e-01	-1.4677337967e+00
 1.5341736753e+00	 5.7246605488e-01	 3.9744057663e+00
 1.5225283430e+00	 6.0275508690e-01	 8.4938558359e+00
 1.6224538579e+00	 3.0023903649e-01	-8.4859062495e+01
 1.6164757364e+00	 3.3091720033e-01	-7.1838885647e+01
 1.6098784077e+00	 3.6165109207e-01	-5.9589694147e+01
 1.6026552775e+00	 3.9242331907e-01	-4.8108590546e+01
 1.5948003550e+00	 4.2321605318e-01	-3.7389546294e+01
 1.5863082810e+00	 4.5401105450e-01	-2.7423320344e+01
 1.5771743561e+00	 4.8478969723e-01	-1.8197391200e+01
 1.5673945670e+00	 5.1553299746e-01	-9.6959034419e+00
 1.5569656119e+00	 5.4622164295e-01	-1.8996296962e+00
 1.5458849247e+00	 5.7683602477e-01	 5.2140510462e+00
 1.5341506968e+00	 6.0735627077e-01	 1.1671157976e+01
 1.6347451750e+00	 3.0251357465e-01	-8.5985091674e+01
 1.6287217648e+00	 3.3342414882e-01	-7.4176660578e+01
 1.6220744563e+00	 3.6439087307e-01	-6.2752181959e+01
 1.6147966054e+00	 3.9539622300e-01	-5.1718742427e+01
 1.6068821759e+00	 4.2642223540e-01	-4.1081933836e+01
 1.5983257680e+00	 4.5745053219e-01	-3.0845783872e+01
 1.5891226466e+00	 4.8846234645e-01	-2.1012692231e+01
 1.5792687682e+00	 5.1943855047e-01	-1.1583373075e+01
 1.5687608060e+00	 5.5035968570e-01	-2.5568043774e+00
 1.5575961742e+00	 5.8120599466e-01	 6.0698152040e+00
 1.5457730505e+00	 6.1195745464e-01	 1.4301101369e+01
 1.6470364921e+00	 3.0478811280e-01	-8.6284488746e+01
 1.6409677931e+00	 3.3593109731e-01	-7.5798483107e+01
 1.6342705048e+00	 3.6713065407e-01	-6.5315395156e+01
 1.6269379333e+00	 3.9836912693e-01	-5.4852199758e+01
 1.6189639967e+00	 4.2962841762e-01	-4.4425996882e+01
 1.6103432550e+00	 4.6089000987e-01	-3.4053953998e+01
 1.6010709372e+00	 4.9213499567e-01	-2.3753246317e+01
 1.5911429695e+00	 5.2334410348e-01	-1.3540995151e+01
 1.5805560000e+00	 5.5449772845e-01	-3.4342047049e+00
 1.5693074236e+00	 5.8557596454e-01	 6.5503023607e+00
 1.5573954043e+00	 6.1655863851e-01	 1.6395950241e+01
 1.6593278092e+00	 3.0706265096e-01	-8.5775616563e+01
 1.6532138214e+00	 3.3843804579e-01	-7.6720256080e+01
 1.6464665533e+00	 3.6987043507e-01	-6.7292643327e+01
 1.6390792611e+00	 4.0134203087e-01	-5.7519547751e+01
 1.6310458176e+00	 4.3283459984e-01	-4.7429467632e+01
 1.6223607419e+00	 4.6432948756e-01	-3.7052584149e+01
 1.6130192278e+00	 4.9580764490e-01	-2.6420705581e+01
 1.6030171708e+00	 5.2724965649e-01	-1.5567201570e+01
 1.5923511940e+00	 5.5863577120e-01	-4.5269274137e+00
 1.5810186730e+00	 5.8994593443e-01	 6.6638615423e+00
 1.5690177580e+00	 6.2115982239e-01	 1.7967605265e+01
 1.6716191263e+00	 3.0933718911e-01	-8.4476297950e+01
 1.6654598497e+00	 3.4094499428e-01	-7.6957414682e+01
 1.6586626019e+00	 3.7261021607e-01	-6.8696844683e+01
 1.6512205890e+00	 4.0431493480e-01	-5.9731060376e+01
 1.6431276385e+00	 4.3604078207e-01	-5.0099850973e+01
 1.6343782289e+00	 4.6776896525e-01	-3.9846288059e+01
 1.6249675184e+00	 4.9948029412e-01	-2.9016673681e+01
 1.6148913720e+00	 5.3115520951e-01	-1.7660470490e+01
 1.6041463881e+00	 5.6277381395e-01	-5.8302135989e+00
 1.5927299225e+00	 5.9431590431e-01	 6.4185960585e+00
 1.5806401118e+00	 6.2576100626e-01	 1.9027616928e+01
 1.6839104434e+00	 3.1161172727e-01	-8.2403835417e+01
 1.6777058780e+00	 3.4345194277e-01	-7.6524943506e+01
 1.6708586504e+00	 3.7534999707e-01	-6.9540540346e+01
 1.6633619168e+00	 4.0728783873e-01	-6.1496711730e+01
 1.6552094594e+00	 4.3924696429e-01	-5.2444432775e+01
 1.6463957159e+00	 4.7120844293e-01	-4.2439544871e+01
 1.6369158090e+00	 5.0315294334e-01	-3.1542707577e+01
 1.6267655733e+00	 5.3506076252e-01	-1.9819324636e+01
 1.6159415821e+00	 5.6691185670e-01	-7.3394434465e+00
 1.6044411719e+00	 5.9868587420e-01	 5.8223724716e+00
 1.5922624656e+00	 6.3036219013e-01	 1.9587198312e+01
 1.6962017605e+00	 3.1388626542e-01	-7.9575030011e+01
 1.6899519063e+00	 3.4595889126e-01	-7.5437392878e+01
 1.6830546990e+00	 3.7808977807e-01	-6.9835908004e+01
 1.6755032447e+00	 4.1026074267e-01	-6.2826186895e+01
 1.6672912802e+00	 4.4245314651e-01	-5.4470287824e+01
 1.6584132029e+00	 4.7464792062e-01	-4.4836704007e+01
 1.6488640995e+00	 5.0682559256e-01	-3.4000319224e+01
 1.6386397746e+00	 5.3896631553e-01	-2.2042329686e+01
 1.6277367761e+00	 5.7104989945e-01	-9.0501311934e+00
 1.6161524213e+00	 6.0305584409e-01	 4.8828291742e+00
 1.6038848193e+00	 6.3496337400e-01	 1.9657237320e+01
 1.7084930776e+00	 3.1616080358e-01	-7.6006199356e+01
 1.7021979346e+00	 3.4846583975e-01	-7.3708894481e+01
 1.6952507475e+00	 3.8082955907e-01	-6.9594774990e+01
 1.6876445726e+00	 4.1323364660e-01	-6.3728892336e+01
 1.6793731011e+00	 4.4565932873e-01	-5.6184287417e+01
 1.6704306899e+00	 4.7808739831e-01	-4.7041989840e+01
 1.6608123901e+00	 5.1049824179e-01	-3.6390977186e+01
 1.6505139758e+00	 5.4287186855e-01	-2.4328092725e+01
 1.6395319702e+00	 5.7518794221e-01	-1.0957920305e+01
 1.6278636708e+00	 6.0742581398e-01	 3.6073845978e+00
 1.6155071731e+00	 6.3956455788e-01	 1.9248308372e+01
 1.7207843947e+00	 3.1843534174e-01	-7.1713194912e+01
 1.7144439629e+00	 3.5097278823e-01	-7.1353176303e+01
 1.7074467961e+00	 3.8356934007e-01	-6.8828630793e+01
 1.6997859004e+00	 4.1620655053e-01	-6.4213965852e+01
 1.6914549220e+00	 4.4886551095e-01	-5.7593106629e+01
 1.6824481768e+00	 4.8152687600e-01	-4.9059506157e+01
 1.6727606807e+00	 5.1417089101e-01	-3.8716108192e+01
 1.6623881771e+00	 5.4677742156e-01	-2.6675260766e+01
 1.6513271642e+00	 5.7932598496e-01	-1.3058578860e+01
 1.6395749202e+00	 6.1179578386e-01	 2.0032450689e+00
 1.6271295269e+00	 6.4416574175e-01	 1.8370683604e+01
 1.5109059892e+00	 5.9815390303e-01	 4.7565531871e+00
 1.4987048992e+00	 6.2809921591e-01	-3.8452190894e-01
 1.4858589260e+00	 6.5791203964e-01	-4.4300306778e+00
 1.4723686411e+00	 6.8757223970e-01	-7.4050783387e+00
 1.4582354312e+00	 7.1705957009e-01	-9.3391379662e+00
 1.4434615111e+00	 7.4635371371e-01	-1.0266028052e+01
 1.4280499324e+00	 7.7543432381e-01	-1.0223866737e+01
 1.4120045914e+00	 8.0428106636e-01	-9.2550023542e+00
 1.3953302337e+00	 8.3287366321e-01	-7.4059200818e+00
 1.3780324560e+00	 8.6119193579e-01	-4.7271247332e+00
 1.3601177057e+00	 8.8921584925e-01	-1.2729998769e+00
 1.5225283430e+00	 6.0275508690e-01	 8.4938558359e+00
 1.5102333985e+00	 6.3293074833e-01	 4.7076575161e+00
 1.4972886101e+00	 6.6297290149e-01	 1.7047039939e+00
 1.4836945537e+00	 6.9286125693e-01	-5.3089772040e-01
 1.4694526269e+00	 7.2257541294e-01	-2.0181129902e+00
 1.4545650612e+00	 7.5209489612e-01	-2.7789711336e+00
 1.4390349319e+00	 7.8139920322e-01	-2.8385407689e+00
 1.4228661652e+00	 8.1046784380e-01	-2.2248886204e+00
 1.4060635432e+00	 8.3928038370e-01	-9.6902160525e-01
 1.3886327056e+00	 8.6781648914e-01	 8.9518784170e-01
 1.3705801496e+00	 8.9605597117e-01	 3.3310931118e+00
 1.5341506968e+00	 6.0735627077e-01	 1.1671157976e+01
 1.5217618977e+00	 6.3776228076e-01	 9.3214769665e+00
 1.5087182941e+00	 6.6803376333e-01	 7.4474652690e+00
 1.4950204663e+00	 6.9815027416e-01	 6.0423391109e+00
 1.4806698225e+00	 7.2809125578e-01	 5.0975244467e+00
 1.4656686113e+00	 7.5783607853e-01	 4.6026514756e+00
 1.4500199314e+00	 7.8736408263e-01	 4.5455583696e+00
 1.4337277390e+00	 8.1665462123e-01	 4.9123044529e+00
 1.4167968527e+00	 8.4568710418e-01	 5.6871930039e+00
 1.3992329553e+00	 8.7444104249e-01	 6.8528037756e+00
 1.3810425935e+00	 9.0289609308e-01	 8.3900352547e+00
 1.5457730505e+00	 6.1195745464e-01	 1.4301101369e+01
 1.5332903969e+00	 6.4259381320e-01	 1.3467736830e+01
 1.5201479782e+00	 6.7309462517e-01	 1.2807105082e+01
 1.5063463789e+00	 7.0343929139e-01	 1.2321430883e+01
 1.4918870181e+00	 7.3360709863e-01	 1.2012417738e+01
 1.4767721614e+00	 7.6357726095e-01	 1.1881228635e+01
 1.4610049308e+00	 7.9332896205e-01	 1.1928469024e+01
 1.4445893128e+00	 8.2284139866e-01	 1.2154172231e+01
 1.4275301622e+00	 8.5209382467e-01	 1.2557787456e+01
 1.4098332050e+00	 8.8106559584e-01	 1.3138170515e+01
 1.3915050374e+00	 9.0973621500e-01	 1.3893577457e+01
 1.5573954043e+00	 6.1655863851e-01	 1.6395950241e+01
 1.5448188961e+00	 6.4742534563e-01	 1.7156914916e+01
 1.5315776622e+00	 6.7815548702e-01	 1.7792210941e+01
 1.5176722916e+00	 7.0872830862e-01	 1.8312973176e+01
 1.5031042137e+00	 7.3912294148e-01	 1.8731071459e+01
 1.4878757114e+00	 7.6931844336e-01	 1.9059077677e+01
 1.4719899303e+00	 7.9929384146e-01	 1.9310228171e+01
 1.4554508866e+00	 8.2902817610e-01	 1.9498381627e+01
 1.4382634717e+00	 8.5850054516e-01	 1.9637972571e+01
 1.4204334546e+00	 8.8769014920e-01	 1.9743960708e+01
 1.4019674813e+00	 9.1657633692e-01	 1.9831776310e+01
 1.5690177580e+00	 6.2115982239e-01	 1.7967605265e+01
 1.5563473954e+00	 6.5225687806e-01	 2.0399178400e+01
 1.5430073463e+00	 6.8321634886e-01	 2.2411115722e+01
 1.5289982042e+00	 7.1401732585e-01	 2.4023365950e+01
 1.5143214094e+00	 7.4463878433e-01	 2.5257856512e+01
 1.4989792615e+00	 7.7505962577e-01	 2.6138447057e+01
 1.4829749298e+00	 8.0525872088e-01	 2.6690871467e+01
 1.4663124604e+00	 8.3521495353e-01	 2.6942668448e+01
 1.4489967812e+00	 8.6490726564e-01	 2.6923100832e+01
 1.4310337043e+00	 8.9431470255e-01	 2.6663063859e+01
 1.4124299252e+00	 9.2341645884e-01	 2.6194982770e+01
 1.5806401118e+00	 6.2576100626e-01	 1.9027616928e+01
 1.5678758946e+00	 6.5708841049e-01	 2.3204395248e+01
 1.5544370303e+00	 6.8827721071e-01	 2.6671907030e+01
 1.5403241168e+00	 7.1930634308e-01	 2.9458820735e+01
 1.5255386050e+00	 7.5015462717e-01	 3.1597015039e+01
 1.5100828116e+00	 7.8080080819e-01	 3.3121518890e+01
 1.4939599293e+00	 8.1122360029e-01	 3.4070433300e+01
 1.4771740341e+00	 8.4140173097e-01	 3.4484834869e+01
 1.4597300907e+00	 8.7131398613e-01	 3.4408661177e+01
 1.4416339539e+00	 9.0093925590e-01	 3.3888578365e+01
 1.4228923691e+00	 9.3025658076e-01	 3.2973831340e+01
 1.5922624656e+00	 6.3036219013e-01	 1.9587198312e+01
 1.5794043938e+00	 6.6191994292e-01	 2.5582145137e+01
 1.5658667144e+00	 6.9333807255e-01	 3.0582436154e+01
 1.5516500294e+00	 7.2459536031e-01	 3.4625367513e+01
 1.5367558006e+00	 7.5567047002e-01	 3.7752665122e+01
 1.5211863617e+00	 7.8654199061e-01	 4.0010411366e+01
 1.5049449288e+00	 8.1718847971e-01	 4.1448946836e+01
 1.4880356079e+00	 8.4758850840e-01	 4.2122747009e+01
 1.4704634002e+00	 8.7772070662e-01	 4.2090274022e+01
 1.4522342036e+00	 9.0756380926e-01	 4.1413803888e+01
 1.4333548130e+00	 9.3709670267e-01	 4.0159229720e+01
 1.6038848193e+00	 6.3496337400e-01	 1.9657237320e+01
 1.5909328930e+00	 6.6675147536e-01	 2.7541729900e+01
 1.5772963984e+00	 6.9839893440e-01	 3.4150326628e+01
 1.5629759421e+00	 7.2988437754e-01	 3.9528861290e+01
 1.5479729963e+00	 7.6118631287e-01	 4.3728805281e+01
 1.5322899118e+00	 7.9228317302e-01	 4.6807181077e+01
 1.5159299283e+00	 8.2315335913e-01	 4.8826444067e+01
 1.4988971817e+00	 8.5377528584e-01	 4.9854332618e+01
 1.4811967096e+00	 8.8412742711e-01	 4.9963686497e+01
 1.4628344533e+00	 9.1418836261e-01	 4.9232234065e+01
 1.4438172569e+00	 9.4393682459e-01	 4.7742348910e+01
 1.6155071731e+00	 6.3956455788e-01	 1.9248308372e+01
 1.6024613923e+00	 6.7158300779e-01	 2.9092183521e+01
 1.5887260825e+00	 7.0345979625e-01	 3.7382982422e+01
 1.5743018547e+00	 7.3517339477e-01	 4.4174988398e+01
 1.5591901919e+00	 7.6670215573e-01	 4.9529318775e+01
 1.5433934619e+00	 7.9802435544e-01	 5.3513825223e+01
 1.5269149277e+00	 8.2911823854e-01	 5.6202955850e+01
 1.5097587555e+00	 8.5996206328e-01	 5.7677578857e+01
 1.4919300191e+00	 8.9053414760e-01	 5.8024767891e+01
 1.4734347029e+00	 9.2081291596e-01	 5.7337549535e+01
 1.4542797008e+00	 9.5077694651e-01	 5.5714613745e+01
 1.6271295269e+00	 6.4416574175e-01	 1.8370683604e+01
 1.6139898915e+00	 6.7641454023e-01	 3.0242281700e+01
 1.6001557665e+00	 7.0852065810e-01	 4.0287595792e+01
 1.5856277673e+00	 7.4046241201e-01	 4.8569272517e+01
 1.5704073875e+00	 7.7221799858e-01	 5.5157977718e+01
 1.5544970120e+00	 8.0376553786e-01	 6.0132283742e+01
 1.5378999272e+00	 8.3508311796e-01	 6.3578511951e+01
 1.5206203293e+00	 8.6614884071e-01	 6.5590530182e+01
 1.5026633286e+00	 8.9694086809e-01	 6.6269505287e+01
 1.4840349526e+00	 9.2743746932e-01	 6.5723611258e+01
 1.4647421446e+00	 9.5761706843e-01	 6.4067693824e+01
 1.3601177057e+00	 8.8921584925e-01	-1.2729998769e+00
 1.3415932778e+00	 9.1692555685e-01	 2.9320783561e+00
 1.3224673086e+00	 9.4430144431e-01	 6.7486347527e+00
 1.3027487666e+00	 9.7132417402e-01	 1.0195587468e+01
 1.2824474416e+00	 9.9797472884e-01	 1.3293309269e+01
 1.2615739298e+00	 1.0242344554e+00	 1.6063549414e+01
 1.2401396167e+00	 1.0500851065e+00	 1.8529347427e+01
 1.2181566579e+00	 1.0755088827e+00	 2.0714939281e+01
 1.1956379560e+00	 1.1004884725e+00	 2.2645656551e+01
 1.1725971363e+00	 1.1250070915e+00	 2.4347819182e+01
 1.1490485194e+00	 1.1490485194e+00	 2.5848622568e+01
 1.3705801496e+00	 8.9605597117e-01	 3.3310931118e+00
 1.3519132261e+00	 9.2397883037e-01	 6.9126116872e+00
 1.3326401340e+00	 9.5156530158e-01	 1.0223067421e+01
 1.3127699110e+00	 9.7879589844e-01	 1.3274748239e+01
 1.2923124220e+00	 1.0056514575e+00	 1.6080949454e+01
 1.2712783446e+00	 1.0321131820e+00	 1.8655921933e+01
 1.2496791523e+00	 1.0581626843e+00	 2.1014814673e+01
 1.2275270937e+00	 1.0837820280e+00	 2.3173612127e+01
 1.2048351710e+00	 1.1089537685e+00	 2.5149066651e+01
 1.1816171143e+00	 1.1336609922e+00	 2.6958626525e+01
 1.1578873542e+00	 1.1578873542e+00	 2.8620359988e+01
 1.3810425935e+00	 9.0289609308e-01	 8.3900352547e+00
 1.3622331744e+00	 9.3103210388e-01	 1.1303377818e+01
 1.3428129595e+00	 9.5882915884e-01	 1.4061536353e+01
 1.3227910553e+00	 9.8626762285e-01	 1.6670248291e+01
 1.3021774023e+00	 1.0133281862e+00	 1.9135815701e+01
 1.2809827595e+00	 1.0399919086e+00	 2.1465079492e+01
 1.2592186878e+00	 1.0662402620e+00	 2.3665390501e+01
 1.2368975295e+00	 1.0920551732e+00	 2.5744577664e+01
 1.2140323861e+00	 1.1174190644e+00	 2.7710913435e+01
 1.1906370923e+00	 1.1423148929e+00	 2.9573076715e+01
 1.1667261890e+00	 1.1667261890e+00	 3.1340113495e+01
 1.3915050374e+00	 9.0973621500e-01	 1.3893577457e+01
 1.3725531227e+00	 9.3808537740e-01	 1.6095134011e+01
 1.3529857849e+00	 9.6609301611e-01	 1.8255840805e+01
 1.3328121997e+00	 9.9373934727e-01	 2.0374962714e+01
 1.3120423826e+00	 1.0210049149e+00	 2.2451890880e+01
 1.2906871743e+00	 1.0478706351e+00	 2.4486142689e+01
 1.2687582233e+00	 1.0743178398e+00	 2.6477361108e+01
 1.2462679654e+00	 1.1003283185e+00	 2.8425313393e+01
 1.2232296011e+00	 1.1258843604e+00	 3.0329889179e+01
 1.1996570702e+00	 1.1509687936e+00	 3.2191097965e+01
 1.1755650237e+00	 1.1755650237e+00	 3.4009066034e+01
 1.4019674813e+00	 9.1657633692e-01	 1.9831776310e+01
 1.3828730710e+00	 9.4513865091e-01	 2.1278913164e+01
 1.3631586104e+00	 9.7335687337e-01	 2.2798024559e+01
 1.3428333441e+00	 1.0012110717e+00	 2.4381979006e+01
 1.3219073629e+00	 1.0286816436e+00	 2.6023337192e+01
 1.3003915892e+00	 1.0557493617e+00	 2.7714377487e+01
 1.2782977588e+00	 1.0823954175e+00	 2.9447123256e+01
 1.2556384012e+00	 1.1086014637e+00	 3.1213371818e+01
 1.2324268162e+00	 1.1343496563e+00	 3.3004724890e+01
 1.2086770482e+00	 1.1596226943e+00	 3.4812620321e+01
 1.1844038585e+00	 1.1844038585e+00	 3.6628364925e+01
 1.4124299252e+00	 9.2341645884e-01	 2.6194982770e+01
 1.3931930193e+00	 9.5219192443e-01	 2.6846013609e+01
 1.3733314358e+00	 9.8062073064e-01	 2.7680366869e+01
 1.3528544884e+00	 1.0086827961e+00	 2.8684589203e+01
 1.3317723432e+00	 1.0363583723e+00	 2.9844489530e+01
 1.3100960040e+00	 1.0636280883e+00	 3.1145189833e+01
 1.2878372943e+00	 1.0904729952e+00	 3.2571180181e+01
 1.2650088370e+00	 1.1168746090e+00	 3.4106377664e+01
 1.2416240312e+00	 1.1428149523e+00	 3.5734188879e+01
 1.2176970262e+00	 1.1682765950e+00	 3.7437575598e+01
 1.1932426932e+00	 1.1932426932e+00	 3.9199123188e+01
 1.4228923691e+00	 9.3025658076e-01	 3.2973831340e+01
 1.4035129676e+00	 9.5924519794e-01	 3.2787989352e+01
 1.3835042613e+00	 9.8788458790e-01	 3.2895373810e+01
 1.3628756328e+00	 1.0161545205e+00	 3.3276282368e+01
 1.3416373236e+00	 1.0440351009e+00	 3.3909849134e+01
 1.3198004189e+00	 1.0715068149e+00	 3.4774120510e+01
 1.2973768298e+00	 1.0985505730e+00	 3.5846137680e+01
 1.2743792729e+00	 1.1251477542e+00	 3.7102025227e+01
 1.2508212463e+00	 1.1512802482e+00	 3.8517085386e+01
 1.2267170041e+00	 1.1769304957e+00	 4.0065897319e+01
 1.2020815280e+00	 1.2020815280e+00	 4.1722420805e+01
 1.4333548130e+00	 9.3709670267e-01	 4.0159229720e+01
 1.4138329159e+00	 9.6629847146e-01	 3.9096640743e+01
 1.3936770867e+00	 9.9514844517e-01	 3.8435769993e+01
 1.3728967771e+00	 1.0236262449e+00	 3.8150737397e+01
 1.3515023039e+00	 1.0517118296e+00	 3.8214077518e+01
 1.3295048337e+00	 1.0793855415e+00	 3.8596840224e+01
 1.3069163653e+00	 1.1066281507e+00	 3.9268700367e+01
 1.2837497087e+00	 1.1334208995e+00	 4.0198075837e+01
 1.2600184613e+00	 1.1597455441e+00	 4.1352253272e+01
 1.2357369821e+00	 1.1855843964e+00	 4.2697520652e+01
 1.2109203628e+00	 1.2109203628e+00	 4.4199305925e+01
 1.4438172569e+00	 9.4393682459e-01	 4.7742348910e+01
 1.4241528642e+00	 9.7335174497e-01	 4.5764005552e+01
 1.4038499122e+00	 1.0024123024e+00	 4.4294490656e+01
 1.3829179215e+00	 1.0310979693e+00	 4.3301816145e+01
 1.3613672842e+00	 1.0593885583e+00	 4.2751990671e+01
 1.3392092486e+00	 1.0872642680e+00	 4.2609144891e+01
 1.3164559009e+00	 1.1147057285e+00	 4.2835668098e+01
 1.2931201445e+00	 1.1416940447e+00	 4.3392355431e+01
 1.2692156763e+00	 1.1682108401e+00	 4.4238564772e+01
 1.2447569601e+00	 1.1942382971e+00	 4.5332382356e+01
 1.2197591975e+00	 1.2197591975e+00	 4.6630796025e+01
 1.4542797008e+00	 9.5077694651e-01	 5.5714613745e+01
 1.4344728125e+00	 9.8040501848e-01	 5.2782350433e+01
 1.4140227376e+00	 1.0096761597e+00	 5.0464674089e+01
 1.3929390659e+00	 1.0385696938e+00	 4.8723556844e+01
 1.3712322645e+00	 1.0670652870e+00	 4.7518553495e+01
 1.3489136634e+00	 1.0951429946e+00	 4.6806951143e+01
 1.3259954364e+00	 1.1227833062e+00	 4.6543932546e+01
 1.3024905804e+00	 1.1499671900e+00	 4.6682752230e+01
 1.2784128914e+00	 1.1766761360e+00	 4.7174924289e+01
 1.2537769381e+00	 1.2028921978e+00	 4.7970420721e+01
 1.2285980323e+00	 1.2285980323e+00	 4.9017879012e+01
 1.4647421446e+00	 9.5761706843e-01	 6.4067693824e+01
 1.4447927608e+00	 9.8745829200e-01	 6.0144162750e+01
 1.4241955631e+00	 1.0169400170e+00	 5.6939654376e+01
 1.4029602102e+00	 1.0460414182e+00	 5.4410167809e+01
 1.3810972449e+00	 1.0747420157e+00	 5.2508874492e+01
 1.3586180783e+00	 1.1030217212e+00	 5.1186292010e+01
 1.3355349719e+00	 1.1308608839e+00	 5.0390473924e+01
 1.3118610162e+00	 1.1582403352e+00	 5.0067214518e+01
 1.2876101064e+00	 1.1851414320e+00	 5.0160267251e+01
 1.2627969160e+00	 1.2115460985e+00	 5.0611575521e+01
 1.2374368671e+00	 1.2374368671e+00	 5.1361514281e+01
 1.1490485194e+00	 1.1490485194e+00	 2.5848622568e+01
 1.1250070915e+00	 1.1725971363e+00	 2.4855006193e+01
 1.1004884725e+00	 1.1956379560e+00	 2.3775106282e+01
 1.0755088827e+00	 1.2181566579e+00	 2.2589836884e+01
 1.0500851065e+00	 1.2401396167e+00	 2.1280514591e+01
 1.0242344554e+00	 1.2615739298e+00	 1.9828938204e+01
 9.9797472884e-01	 1.2824474416e+00	 1.8217465554e+01
 9.7132417402e-01	 1.3027487666e+00	 1.6429086987e+01
 9.4430144431e-01	 1.3224673086e+00	 1.4447495023e+01
 9.1692555685e-01	 1.3415932778e+00	 1.2257149788e+01
 8.8921584925e-01	 1.3601177057e+00	 9.8433397884e+00
 1.1578873542e+00	 1.1578873542e+00	 2.8620359988e+01
 1.1336609922e+00	 1.1816171143e+00	 2.7578070772e+01
 1.1089537685e+00	 1.2048351710e+00	 2.6536563625e+01
 1.0837820280e+00	 1.2275270937e+00	 2.5472270840e+01
 1.0581626843e+00	 1.2496791523e+00	 2.4361703931e+01
 1.0321131820e+00	 1.2712783446e+00	 2.3181554843e+01
 1.0056514575e+00	 1.2923124220e+00	 2.1908795863e+01
 9.7879589844e-01	 1.3127699110e+00	 2.0520777547e+01
 9.5156530158e-01	 1.3326401340e+00	 1.8995324030e+01
 9.2397883037e-01	 1.3519132261e+00	 1.7310825097e+01
 8.9605597117e-01	 1.3705801496e+00	 1.5446324441e+01
 1.1667261890e+00	 1.1667261890e+00	 3.1340113495e+01
 1.1423148929e+00	 1.1906370923e+00	 3.0225752423e+01
 1.1174190644e+00	 1.2140323861e+00	 2.9197846478e+01
 1.0920551732e+00	 1.2368975295e+00	 2.8228395402e+01
 1.0662402620e+00	 1.2592186878e+00	 2.7289158175e+01
 1.0399919086e+00	 1.2809827595e+00	 2.6351775591e+01
 1.0133281862e+00	 1.3021774023e+00	 2.5387893026e+01
 9.8626762285e-01	 1.3227910553e+00	 2.4369282600e+01
 9.5882915884e-01	 1.3428129595e+00	 2.3267963888e+01
 9.3103210388e-01	 1.3622331744e+00	 2.2056322398e+01
 9.0289609308e-01	 1.3810425935e+00	 2.0707225042e+01
 1.1755650237e+00	 1.1755650237e+00	 3.4009066034e+01
 1.1509687936e+00	 1.1996570702e+00	 3.2799761892e+01
 1.1258843604e+00	 1.2232296011e+00	 3.1761224816e+01
 1.1003283185e+00	 1.2462679654e+00	 3.0861070088e+01
 1.0743178398e+00	 1.2687582233e+00	 3.0066355522e+01
 1.0478706351e+00	 1.2906871743e+00	 2.9343725198e+01
 1.0210049149e+00	 1.3120423826e+00	 2.8659554904e+01
 9.9373934727e-01	 1.3328121997e+00	 2.7980098289e+01
 9.6609301611e-01	 1.3529857849e+00	 2.7271632758e+01
 9.3808537740e-01	 1.3725531227e+00	 2.6500604112e+01
 9.0973621500e-01	 1.3915050374e+00	 2.5633768987e+01
 1.1844038585e+00	 1.1844038585e+00	 3.6628364925e+01
 1.1596226943e+00	 1.2086770482e+00	 3.5301758545e+01
 1.1343496563e+00	 1.2324268162e+00	 3.4228900538e+01
 1.1086014637e+00	 1.2556384012e+00	 3.3373068741e+01
 1.0823954175e+00	 1.2782977588e+00	 3.2696670017e+01
 1.0557493617e+00	 1.3003915892e+00	 3.2161404964e+01
 1.0286816436e+00	 1.3219073629e+00	 3.1728435810e+01
 1.0012110717e+00	 1.3428333441e+00	 3.1358556364e+01
 9.7335687337e-01	 1.3631586104e+00	 3.1012362854e+01
 9.4513865091e-01	 1.3828730710e+00	 3.0650424498e+01
 9.1657633692e-01	 1.4019674813e+00	 3.0233452673e+01
 1.1932426932e+00	 1.1932426932e+00	 3.9199123188e+01
 1.1682765950e+00	 1.2176970262e+00	 3.7733352273e+01
 1.1428149523e+00	 1.2416240312e+00	 3.6603009987e+01
 1.1168746090e+00	 1.2650088370e+00	 3.5767082697e+01
 1.0904729952e+00	 1.2878372943e+00	 3.5183375419e+01
 1.0636280883e+00	 1.3100960040e+00	 3.4808697310e+01
 1.0363583723e+00	 1.3317723432e+00	 3.4599051831e+01
 1.0086827961e+00	 1.3528544884e+00	 3.4509830276e+01
 9.8062073064e-01	 1.3733314358e+00	 3.4496007334e+01
 9.5219192443e-01	 1.3931930193e+00	 3.4512337367e+01
 9.2341645884e-01	 1.4124299252e+00	 3.4513550058e+01
 1.2020815280e+00	 1.2020815280e+00	 4.1722420805e+01
 1.1769304957e+00	 1.2267170041e+00	 4.0096105308e+01
 1.1512802482e+00	 1.2508212463e+00	 3.8885626362e+01
 1.1251477542e+00	 1.2743792729e+00	 3.8045723824e+01
 1.0985505730e+00	 1.2973768298e+00	 3.7529648883e+01
 1.0715068149e+00	 1.3198004189e+00	 3.7289370153e+01
 1.0440351009e+00	 1.3416373236e+00	 3.7275785912e+01
 1.0161545205e+00	 1.3628756328e+00	 3.7438940998e+01
 9.8788458790e-01	 1.3835042613e+00	 3.7728246888e+01
 9.5924519794e-01	 1.4035129676e+00	 3.8092703449e+01
 9.3025658076e-01	 1.4228923691e+00	 3.8481120843e+01
 1.2109203628e+00	 1.2109203628e+00	 4.4199305925e+01
 1.1855843964e+00	 1.2357369821e+00	 4.2391533972e+01
 1.1597455441e+00	 1.2600184613e+00	 4.1078762030e+01
 1.1334208995e+00	 1.2837497087e+00	 4.0211527427e+01
 1.1066281507e+00	 1.3069163653e+00	 3.9738574493e+01
 1.0793855415e+00	 1.3295048337e+00	 3.9607081089e+01
 1.0517118296e+00	 1.3515023039e+00	 3.9762892715e+01
 1.0236262449e+00	 1.3728967771e+00	 4.0150762591e+01
 9.9514844517e-01	 1.3936770867e+00	 4.0714596032e+01
 9.6629847146e-01	 1.4138329159e+00	 4.1397697450e+01
 9.3709670267e-01	 1.4333548130e+00	 4.2143018294e+01
 1.2197591975e+00	 1.2197591975e+00	 4.6630796025e+01
 1.1942382971e+00	 1.2447569601e+00	 4.4621110335e+01
 1.1682108401e+00	 1.2692156763e+00	 4.3184370727e+01
 1.1416940447e+00	 1.2931201445e+00	 4.2266955020e+01
 1.1147057285e+00	 1.3164559009e+00	 4.1813146638e+01
 1.0872642680e+00	 1.3392092486e+00	 4.1765381388e+01
 1.0593885583e+00	 1.3613672842e+00	 4.2064503272e+01
 1.0310979693e+00	 1.3829179215e+00	 4.2650027534e+01
 1.0024123024e+00	 1.4038499122e+00	 4.3460409132e+01
 9.7335174497e-01	 1.4241528642e+00	 4.4433314787e+01
 9.4393682459e-01	 1.4438172569e+00	 4.5505896721e+01
 1.2285980323e+00	 1.2285980323e+00	 4.9017879012e+01
 1.2028921978e+00	 1.2537769381e+00	 4.6786263815e+01
 1.1766761360e+00	 1.2784128914e+00	 4.5204349669e+01
 1.1499671900e+00	 1.3024905804e+00	 4.4214396983e+01
 1.1227833062e+00	 1.3259954364e+00	 4.3756273232e+01
 1.0951429946e+00	 1.3489136634e+00	 4.3767719828e+01
 1.0670652870e+00	 1.3712322645e+00	 4.4184629435e+01
 1.0385696938e+00	 1.3929390659e+00	 4.4941331811e+01
 1.0096761597e+00	 1.4140227376e+00	 4.5970886168e+01
 9.8040501848e-01	 1.4344728125e+00	 4.7205378043e+01
 9.5077694651e-01	 1.4542797008e+00	 4.8576218640e+01
 1.2374368671e+00	 1.2374368671e+00	 5.1361514281e+01
 1.2115460985e+00	 1.2627969160e+00	 4.8888382702e+01
 1.1851414320e+00	 1.2876101064e+00	 4.7140541580e+01
 1.1582403352e+00	 1.3118610162e+00	 4.6056175109e+01
 1.1308608839e+00	 1.3355349719e+00	 4.5570778816e+01
 1.1030217212e+00	 1.3586180783e+00	 4.5617446349e+01
 1.0747420157e+00	 1.3810972449e+00	 4.6127168132e+01
 1.0460414182e+00	 1.4029602102e+00	 4.7029139798e+01
 1.0169400170e+00	 1.4241955631e+00	 4.8251078248e+01
 9.8745829200e-01	 1.4447927608e+00	 4.9719543143e+01
 9.5761706843e-01	 1.4647421446e+00	 5.1360261622e+01
 8.8921584925e-01	 1.3601177057e+00	 9.8433397884e+00
 8.6119193579e-01	 1.3780324560e+00	 9.8803301679e+00
 8.3287366321e-01	 1.3953302337e+00	 9.3152800842e+00
 8.0428106636e-01	 1.4120045914e+00	 8.1231308743e+00
 7.7543432381e-01	 1.4280499324e+00	 6.2805916058e+00
 7.4635371371e-01	 1.4434615111e+00	 3.7662157630e+00
 7.1705957009e-01	 1.4582354312e+00	 5.6046771605e-01
 6.8757223970e-01	 1.4723686411e+00	-3.3542212620e+00
 6.5791203964e-01	 1.4858589260e+00	-7.9934075755e+00
 6.2809921591e-01	 1.4987048992e+00	-1.3370600544e+01
 5.9815390303e-01	 1.5109059892e+00	-1.9497238269e+01
 8.9605597117e-01	 1.3705801496e+00	 1.5446324441e+01
 8.6781648914e-01	 1.3886327056e+00	 1.5782067691e+01
 8.3928038370e-01	 1.4060635432e+00	 1.4798683372e+01
 8.1046784380e-01	 1.4228661652e+00	 1.2537862763e+01
 7.8139920322e-01	 1.4390349319e+00	 9.0445729257e+00
 7.5209489612e-01	 1.4545650612e+00	 4.3668225340e+00
 7.2257541294e-01	 1.4694526269e+00	-1.4445825604e+00
 6.9286125693e-01	 1.4836945537e+00	-8.3362922411e+00
 6.6297290149e-01	 1.4972886101e+00	-1.6252671691e+01
 6.3293074833e-01	 1.5102333985e+00	-2.5136065795e+01
 6.0275508690e-01	 1.5225283430e+00	-3.4927066573e+01
 9.0289609308e-01	 1.3810425935e+00	 2.0707225042e+01
 8.7444104249e-01	 1.3992329553e+00	 2.1704275554e+01
 8.4568710418e-01	 1.4167968527e+00	 2.0675085854e+01
 8.1665462123e-01	 1.4337277390e+00	 1.7727325127e+01
 7.8736408263e-01	 1.4500199314e+00	 1.2973432341e+01
 7.5783607853e-01	 1.4656686113e+00	 6.5300741759e+00
 7.2809125578e-01	 1.4806698225e+00	-1.4824073756e+00
 6.9815027416e-01	 1.4950204663e+00	-1.0940553919e+01
 6.6803376333e-01	 1.5087182941e+00	-2.1718352318e+01
 6.3776228076e-01	 1.5217618977e+00	-3.3687795426e+01
 6.0735627077e-01	 1.5341506968e+00	-4.6719438326e+01
 9.0973621500e-01	 1.3915050374e+00	 2.5633768987e+01
 8.8106559584e-01	 1.4098332050e+00	 2.7646503432e+01
 8.5209382467e-01	 1.4275301622e+00	 2.6935634519e+01
 8.2284139866e-01	 1.4445893128e+00	 2.3674054720e+01
 7.9332896205e-01	 1.4610049308e+00	 1.8040906556e+01
 7.6357726095e-01	 1.4767721614e+00	 1.0220735505e+01
 7.3360709863e-01	 1.4918870181e+00	 4.0263252808e-01
 7.0343929139e-01	 1.5063463789e+00	-1.1220627984e+01
 6.7309462517e-01	 1.5201479782e+00	-2.4453449142e+01
 6.4259381320e-01	 1.5332903969e+00	-3.9098265849e+01
 6.1195745464e-01	 1.5457730505e+00	-5.4956387146e+01
 9.1657633692e-01	 1.4019674813e+00	 3.0233452673e+01
 8.8769014920e-01	 1.4204334546e+00	 3.3608314114e+01
 8.5850054516e-01	 1.4382634717e+00	 3.3571740299e+01
 8.2902817610e-01	 1.4554508866e+00	 3.0361109266e+01
 7.9929384146e-01	 1.4719899303e+00	 2.4221515932e+01
 7.6931844336e-01	 1.4878757114e+00	 1.5404622815e+01
 7.3912294148e-01	 1.5031042137e+00	 4.1675002927e+00
 7.0872830862e-01	 1.5176722916e+00	-9.2285357915e+00
 6.7815548702e-01	 1.5315776622e+00	-2.4519081574e+01
 6.4742534563e-01	 1.5448188961e+00	-4.1437790310e+01
 6.1655863851e-01	 1.5573954043e+00	-5.9717498187e+01
 9.2341645884e-01	 1.4124299252e+00	 3.4513550058e+01
 8.9431470255e-01	 1.4310337043e+00	 3.9589283021e+01
 8.6490726564e-01	 1.4489967812e+00	 4.0575068298e+01
 8.3521495353e-01	 1.4663124604e+00	 3.7772048160e+01
 8.0525872088e-01	 1.4829749298e+00	 3.1490535464e+01
 7.7505962577e-01	 1.4989792615e+00	 2.2048564934e+01
 7.4463878433e-01	 1.5143214094e+00	 9.7704339140e+00
 7.1401732585e-01	 1.5289982042e+00	-5.0147576324e+00
 6.8321634886e-01	 1.5430073463e+00	-2.1974558383e+01
 6.5225687806e-01	 1.5563473954e+00	-4.0774598999e+01
 6.2115982239e-01	 1.5690177580e+00	-6.1079998819e+01
 9.3025658076e-01	 1.4228923691e+00	 3.8481120843e+01
 9.0093925590e-01	 1.4416339539e+00	 4.5588997744e+01
 8.7131398613e-01	 1.4597300907e+00	 4.7937528445e+01
 8.4140173097e-01	 1.4771740341e+00	 4.5890914032e+01
 8.1122360029e-01	 1.4939599293e+00	 3.9823967042e+01
 7.8080080819e-01	 1.5100828116e+00	 3.0120366002e+01
 7.5015462717e-01	 1.5255386050e+00	 1.7170899374e+01
 7.1930634308e-01	 1.5403241168e+00	 1.3717106129e+00
 6.8827721071e-01	 1.5544370303e+00	-1.6877444264e+01
 6.5708841049e-01	 1.5678758946e+00	-3.7174915633e+01
 6.2576100626e-01	 1.5806401118e+00	-5.9118845315e+01
 9.3709670267e-01	 1.4333548130e+00	 4.2143018294e+01
 9.0756380926e-01	 1.4522342036e+00	 5.1607057602e+01
 8.7772070662e-01	 1.4704634002e+00	 5.5651266564e+01
 8.4758850840e-01	 1.4880356079e+00	 5.4702215107e+01
 8.1718847971e-01	 1.5049449288e+00	 4.9198512919e+01
 7.8654199061e-01	 1.5211863617e+00	 3.9588769880e+01
 7.5567047002e-01	 1.5367558006e+00	 2.6329545828e+01
 7.2459536031e-01	 1.5516500294e+00	 9.8833033002e+00
 6.9333807255e-01	 1.5658667144e+00	-9.2836234871e+00
 6.6191994292e-01	 1.5794043938e+00	-3.0703030681e+01
 6.3036219013e-01	 1.5922624656e+00	-5.3906805728e+01
 9.4393682459e-01	 1.4438172569e+00	 4.5505896721e+01
 9.1418836261e-01	 1.4628344533e+00	 5.7643073222e+01
 8.8412742711e-01	 1.4811967096e+00	 6.3708655830e+01
 8.5377528584e-01	 1.4988971817e+00	 6.4190908344e+01
 8.2315335913e-01	 1.5159299283e+00	 5.9591550345e+01
 7.9228317302e-01	 1.5322899118e+00	 5.0423426100e+01
 7.6118631287e-01	 1.5479729963e+00	 3.7208162733e+01
 7.2988437754e-01	 1.5629759421e+00	 2.0473833203e+01
 6.9839893440e-01	 1.5772963984e+00	 7.5263921840e-01
 6.6675147536e-01	 1.5909328930e+00	-2.1421371411e+01
 6.3496337400e-01	 1.6038848193e+00	-4.5514539178e+01
 9.5077694651e-01	 1.4542797008e+00	 4.8576218640e+01
 9.2081291596e-01	 1.4734347029e+00	 6.3696666129e+01
 8.9053414760e-01	 1.4919300191e+00	 7.2102288592e+01
 8.5996206328e-01	 1.5097587555e+00	 7.4342383293e+01
 8.2911823854e-01	 1.5269149277e+00	 7.0981107281e+01
 7.9802435544e-01	 1.5433934619e+00	 6.2594857293e+01
 7.6670215573e-01	 1.5591901919e+00	 4.9769638839e+01
 7.3517339477e-01	 1.5743018547e+00	 3.3098441934e+01
 7.0345979625e-01	 1.5887260825e+00	 1.3178640410e+01
 6.7158300779e-01	 1.6024613923e+00	-9.3905689056e+00
 6.3956455788e-01	 1.6155071731e+00	-3.4010671709e+01
 9.5761706843e-01	 1.4647421446e+00	 5.1360261622e+01
 9.2743746932e-01	 1.4840349526e+00	 6.9767468366e+01
 8.9694086809e-01	 1.5026633286e+00	 8.0824968548e+01
 8.6614884071e-01	 1.5206203293e+00	 8.5142446649e+01
 8.3508311796e-01	 1.5378999272e+00	 8.3345839169e+01
 8.0376553786e-01	 1.5544970120e+00	 7.6074428006e+01
 7.7221799858e-01	 1.5704073875e+00	 6.3977922924e+01
 7.4046241201e-01	 1.5856277673e+00	 4.7713552484e+01
 7.0852065810e-01	 1.6001557665e+00	 2.7943182175e+01
 6.7641454023e-01	 1.6139898915e+00	 5.3304777886e+00
 6.4416574175e-01	 1.6271295269e+00	-1.9461868896e+01
 5.9815390303e-01	 1.5109059892e+00	-1.9497238269e+01
 5.6809608500e-01	 1.5224624259e+00	-1.3367232952e+01
 5.3794555745e-01	 1.5333752239e+00	-8.8711018537e+00
 5.0772189143e-01	 1.5436461644e+00	-5.8433659084e+00
 4.7744439878e-01	 1.5532777749e+00	-4.1171452747e+00
 4.4713209913e-01	 1.5622733071e+00	-3.5248810629e+00
 4.1680368873e-01	 1.5706367133e+00	-3.8990359621e+00
 3.8647751120e-01	 1.5783726218e+00	-5.0727701854e+00
 3.5617153006e-01	 1.5854863106e+00	-6.8805894974e+00
 3.2590330336e-01	 1.5919836798e+00	-9.1589624554e+00
 2.9568996018e-01	 1.5978712237e+00	-1.1746904361e+01
 6.0275508690e-01	 1.5225283430e+00	-3.4927066573e+01
 5.7246605488e-01	 1.5341736753e+00	-3.1300371218e+01
 5.4208360020e-01	 1.5451704179e+00	-2.7783383260e+01
 5.1162744444e-01	 1.5555203657e+00	-2.4372694293e+01
 4.8111704801e-01	 1.5652260655e+00	-2.1063872784e+01
 4.5057157681e-01	 1.5742907940e+00	-1.7851527275e+01
 4.2000987096e-01	 1.5827185341e+00	-1.4729372564e+01
 3.8945041513e-01	 1.5905139497e+00	-1.1690298304e+01
 3.5891131106e-01	 1.5976823592e+00	-8.7264394619e+00
 3.2841025184e-01	 1.6042297081e+00	-5.8292480785e+00
 2.9796449834e-01	 1.6101625408e+00	-2.9895657943e+00
 6.0735627077e-01	 1.5341506968e+00	-4.6719438326e+01
 5.7683602477e-01	 1.5458849247e+00	-4.6515122317e+01
 5.4622164295e-01	 1.5569656119e+00	-4.4913109027e+01
 5.1553299746e-01	 1.5673945670e+00	-4.2070185974e+01
 4.8478969723e-01	 1.5771743561e+00	-3.8142498206e+01
 4.5401105450e-01	 1.5863082810e+00	-3.3284959124e+01
 4.2321605318e-01	 1.5948003550e+00	-2.7650688144e+01
 3.9242331907e-01	 1.6026552775e+00	-2.1390477609e+01
 3.6165109207e-01	 1.6098784077e+00	-1.4652291049e+01
 3.3091720033e-01	 1.6164757364e+00	-7.5807945290e+00
 3.0023903649e-01	 1.6224538579e+00	-3.1692250262e-01
 6.1195745464e-01	 1.5457730505e+00	-5.4956387146e+01
 5.8120599466e-01	 1.5575961742e+00	-5.9072788547e+01
 5.5035968570e-01	 1.5687608060e+00	-6.0300472019e+01
 5.1943855047e-01	 1.5792687682e+00	-5.8954588558e+01
 4.8846234645e-01	 1.5891226466e+00	-5.5350030281e+01
 4.5745053219e-01	 1.5983257680e+00	-4.9800194896e+01
 4.2642223540e-01	 1.6068821759e+00	-4.2615800619e+01
 3.9539622300e-01	 1.6147966054e+00	-3.4103756938e+01
 3.6439087307e-01	 1.6220744563e+00	-2.4566095924e+01
 3.3342414882e-01	 1.6287217648e+00	-1.4298968123e+01
 3.0251357465e-01	 1.6347451750e+00	-3.5917063799e+00
 6.1655863851e-01	 1.5573954043e+00	-5.9717498187e+01
 5.8557596454e-01	 1.5693074236e+00	-6.9032842581e+01
 5.5449772845e-01	 1.5805560000e+00	-7.3984465601e+01
 5.2334410348e-01	 1.5911429695e+00	-7.5044090300e+01
 4.9213499567e-01	 1.6010709372e+00	-7.2683567317e+01
 4.6089000987e-01	 1.6103432550e+00	-6.7372998869e+01
 4.2962841762e-01	 1.6189639967e+00	-5.9578936587e+01
 3.9836912693e-01	 1.6269379333e+00	-4.9762661535e+01
 3.6713065407e-01	 1.6342705048e+00	-3.8378553709e+01
 3.3593109731e-01	 1.6409677931e+00	-2.5872557314e+01
 3.0478811280e-01	 1.6470364921e+00	-1.2680747102e+01
 6.2115982239e-01	 1.5690177580e+00	-6.1079998819e+01
 5.8994593443e-01	 1.5810186730e+00	-7.6452995230e+01
 5.5863577120e-01	 1.5923511940e+00	-8.6002928065e+01
 5.2724965649e-01	 1.6030171708e+00	-9.0356340826e+01
 4.9580764490e-01	 1.6130192278e+00	-9.0140293870e+01
 4.6432948756e-01	 1.6223607419e+00	-8.5979853681e+01
 4.3283459984e-01	 1.6310458176e+00	-7.8495679152e+01
 4.0134203087e-01	 1.6390792611e+00	-6.8301716147e+01
 3.6987043507e-01	 1.6464665533e+00	-5.6003010204e+01
 3.3843804579e-01	 1.6532138214e+00	-4.2193645946e+01
 3.0706265096e-01	 1.6593278092e+00	-2.7454820358e+01
 6.2576100626e-01	 1.5806401118e+00	-5.9118845315e+01
 5.9431590431e-01	 1.5927299225e+00	-8.1389260216e+01
 5.6277381395e-01	 1.6041463881e+00	-9.6392585094e+01
 5.3115520951e-01	 1.6148913720e+00	-1.0490847093e+02
 4.9948029412e-01	 1.6249675184e+00	-1.0771747757e+02
 4.6776896525e-01	 1.6343782289e+00	-1.0559793392e+02
 4.3604078207e-01	 1.6431276385e+00	-9.9322918056e+01
 4.0431493480e-01	 1.6512205890e+00	-8.9657371510e+01
 3.7261021607e-01	 1.6586626019e+00	-7.7355360102e+01
 3.4094499428e-01	 1.6654598497e+00	-6.3157492099e+01
 3.0933718911e-01	 1.6716191263e+00	-4.7788502772e+01
 6.3036219013e-01	 1.5922624656e+00	-5.3906805728e+01
 5.9868587420e-01	 1.6044411719e+00	-8.3896016107e+01
 5.6691185670e-01	 1.6159415821e+00	-1.0518909037e+02
 5.3506076252e-01	 1.6267655733e+00	-1.1871711151e+02
 5.0315294334e-01	 1.6369158090e+00	-1.2541246610e+02
 4.7120844293e-01	 1.6463957159e+00	-1.2620508087e+02
 4.3924696429e-01	 1.6552094594e+00	-1.2201880198e+02
 4.0728783873e-01	 1.6633619168e+00	-1.1376793406e+02
 3.7534999707e-01	 1.6708586504e+00	-1.0235395396e+02
 3.4345194277e-01	 1.6777058780e+00	-8.8662412237e+01
 3.1161172727e-01	 1.6839104434e+00	-7.3560033185e+01
 6.3496337400e-01	 1.6038848193e+00	-4.5514539178e+01
 6.0305584409e-01	 1.6161524213e+00	-8.4026065558e+01
 5.7104989945e-01	 1.6277367761e+00	-1.1242706439e+02
 5.3896631553e-01	 1.6386397746e+00	-1.3179841167e+02
 5.0682559256e-01	 1.6488640995e+00	-1.4322268428e+02
 4.7464792062e-01	 1.6584132029e+00	-1.4777977836e+02
 4.4245314651e-01	 1.6672912802e+00	-1.4654269295e+02
 4.1026074267e-01	 1.6755032447e+00	-1.4057349869e+02
 3.7808977807e-01	 1.6830546990e+00	-1.3091950923e+02
 3.4595889126e-01	 1.6899519063e+00	-1.1860967040e+02
 3.1388626542e-01	 1.6962017605e+00	-1.0465117996e+02
 6.3956455788e-01	 1.6155071731e+00	-3.4010671709e+01
 6.0742581398e-01	 1.6278636708e+00	-8.1830692001e+01
 5.7518794221e-01	 1.6395319702e+00	-1.1814013168e+02
 5.4287186855e-01	 1.6505139758e+00	-1.4416805607e+02
 5.1049824179e-01	 1.6608123901e+00	-1.6114563127e+02
 4.7808739831e-01	 1.6704306899e+00	-1.7030112962e+02
 4.4565932873e-01	 1.6793731011e+00	-1.7285512265e+02
 4.1323364660e-01	 1.6876445726e+00	-1.7001588442e+02
 3.8082955907e-01	 1.6952507475e+00	-1.6297502509e+02
 3.4846583975e-01	 1.7021979346e+00	-1.5290337218e+02
 3.1616080358e-01	 1.7084930776e+00	-1.4094711404e+02
 6.4416574175e-01	 1.6271295269e+00	-1.9461868896e+01
 6.1179578386e-01	 1.6395749202e+00	-7.7359713898e+01
 5.7932598496e-01	 1.6513271642e+00	-1.2236095631e+02
 5.4677742156e-01	 1.6623881771e+00	-1.5584128149e+02
 5.1417089101e-01	 1.6727606807e+00	-1.7917887799e+02
 4.8152687600e-01	 1.6824481768e+00	-1.9374883520e+02
 4.4886551095e-01	 1.6914549220e+00	-2.0091775070e+02
 4.1620655053e-01	 1.6997859004e+00	-2.0203857282e+02
 3.8356934007e-01	 1.7074467961e+00	-1.9844570098e+02
 3.5097278823e-01	 1.7144439629e+00	-1.9145036321e+02
 3.1843534174e-01	 1.7207843947e+00	-1.8233628737e+02
 2.9568996018e-01	 1.5978712237e+00	-1.1746904361e+01
 2.6554817929e-01	 1.6031560013e+00	-1.4783612353e+01
 2.3549416968e-01	 1.6078456070e+00	-1.4400999722e+01
 2.0554365323e-01	 1.6119481402e+00	-1.0932880946e+01
 1.7571184935e-01	 1.6154721743e+00	-4.7117015429e+00
 1.4601346159e-01	 1.6184267265e+00	 3.9326643190e+00
 1.1646266625e-01	 1.6208212262e+00	 1.4674048715e+01
 8.7073102826e-02	 1.6226654846e+00	 2.7191054224e+01
 5.7857866443e-02	 1.6239696633e+00	 4.1168045092e+01
 2.8829501977e-02	 1.6247442444e+00	 5.6296063529e+01
 0.0000000000e+00	 1.6250000000e+00	 7.2273670000e+01
 2.9796449834e-01	 1.6101625408e+00	-2.9895657943e+00
 2.6759085759e-01	 1.6154879705e+00	-3.5606021092e+00
 2.3730566329e-01	 1.6202136502e+00	-2.7748663794e+00
 2.0712475825e-01	 1.6243477413e+00	-7.6756770513e-01
 1.7706347896e-01	 1.6278988834e+00	 2.3262017827e+00
 1.4713664207e-01	 1.6308761629e+00	 6.3719841639e+00
 1.1735853291e-01	 1.6332890818e+00	 1.1236446340e+01
 8.7742895924e-02	 1.6351475267e+00	 1.6787842496e+01
 5.8302926953e-02	 1.6364617376e+00	 2.2896447173e+01
 2.9051267377e-02	 1.6372422771e+00	 2.9434958024e+01
 0.0000000000e+00	 1.6375000000e+00	 3.6278867575e+01
 3.0023903649e-01	 1.6224538579e+00	-3.1692250262e-01
 2.6963353589e-01	 1.6278199398e+00	 2.7421751394e+00
 2.3911715690e-01	 1.6325816933e+00	 5.1160622750e+00
 2.0870586328e-01	 1.6367473423e+00	 6.8658453067e+00
 1.7841510857e-01	 1.6403255924e+00	 8.0515193741e+00
 1.4825982254e-01	 1.6433255992e+00	 8.7318066871e+00
 1.1825439957e-01	 1.6457569374e+00	 8.9640086979e+00
 8.8412689023e-02	 1.6476295689e+00	 8.8038722028e+00
 5.8747987464e-02	 1.6489538120e+00	 8.3054693574e+00
 2.9273032776e-02	 1.6497403097e+00	 7.5210914932e+00
 0.0000000000e+00	 1.6500000000e+00	 6.5011565315e+00
 3.0251357465e-01	 1.6347451750e+00	-3.5917063799e+00
 2.7167621419e-01	 1.6401519090e+00	 4.2357220014e+00
 2.4092865051e-01	 1.6449497364e+00	 9.3560594607e+00
 2.1028696830e-01	 1.6491469434e+00	 1.2024489678e+01
 1.7976673818e-01	 1.6527523014e+00	 1.2493880061e+01
 1.4938300301e-01	 1.6557750356e+00	 1.1013947267e+01
 1.1915026624e-01	 1.6582247930e+00	 7.8304766506e+00
 8.9082482121e-02	 1.6601116111e+00	 3.1845973262e+00
 5.9193047975e-02	 1.6614458863e+00	-2.6878859675e+00
 2.9494798176e-02	 1.6622383424e+00	-9.5571034832e+00
 0.0000000000e+00	 1.6625000000e+00	-1.7199673306e+01
 3.0478811280e-01	 1.6470364921e+00	-1.2680747102e+01
 2.7371889250e-01	 1.6524838783e+00	 1.0277273571e+00
 2.4274014413e-01	 1.6573177796e+00	 1.0026882571e+01
 2.1186807333e-01	 1.6615465445e+00	 1.4763791379e+01
 1.8111836779e-01	 1.6651790105e+00	 1.5682028042e+01
 1.5050618349e-01	 1.6682244719e+00	 1.3220166914e+01
 1.2004613290e-01	 1.6706926486e+00	 7.8103747527e+00
 8.9752275219e-02	 1.6725936533e+00	-1.2290006454e-01
 5.9638108486e-02	 1.6739379606e+00	-1.0164139015e+01
 2.9716563576e-02	 1.6747363750e+00	-2.1907864081e+01
 0.0000000000e+00	 1.6750000000e+00	-3.4959646849e+01
 3.0706265096e-01	 1.6593278092e+00	-2.7454820358e+01
 2.7576157080e-01	 1.6648158475e+00	-6.7773109098e+00
 2.4455163774e-01	 1.6696858227e+00	 7.2078663537e+00
 2.1344917835e-01	 1.6739461456e+00	 1.5137533936e+01
 1.8246999740e-01	 1.6776057195e+00	 1.7643855655e+01
 1.5162936396e-01	 1.6806739083e+00	 1.5352174292e+01
 1.2094199956e-01	 1.6831605042e+00	 8.8789822248e+00
 9.0422068317e-02	 1.6850756955e+00	-1.1699701120e+00
 6.0083168996e-02	 1.6864300350e+00	-1.4201424353e+01
 2.9938328975e-02	 1.6872344077e+00	-2.9636220577e+01
 0.0000000000e+00	 1.6875000000e+00	-4.6910758754e+01
 3.0933718911e-01	 1.6716191263e+00	-4.7788502772e+01
 2.7780424910e-01	 1.6771478167e+00	-1.9077968595e+01
 2.4636313135e-01	 1.6820538658e+00	 9.7601197770e-01
 2.1503028338e-01	 1.6863457466e+00	 1.3197918813e+01
 1.8382162701e-01	 1.6900324285e+00	 1.8406434690e+01
 1.5275254443e-01	 1.6931233446e+00	 1.7411627634e+01
 1.2183786622e-01	 1.6956283597e+00	 1.1012305208e+01
 9.1091861415e-02	 1.6975577377e+00	-6.4528092504e-03
 6.0528229507e-02	 1.6989221093e+00	-1.4875578610e+01
 3.0160094375e-02	 1.6997324403e+00	-3.2844114244e+01
 0.0000000000e+00	 1.7000000000e+00	-5.3181121596e+01
 3.1161172727e-01	 1.6839104434e+00	-7.3560033185e+01
 2.7984692740e-01	 1.6894797860e+00	-3.5775782996e+01
 2.4817462496e-01	 1.6944219089e+00	-8.5939277973e+00
 2.1661138840e-01	 1.6987453477e+00	 8.9956231520e+00
 1.8517325662e-01	 1.7024591376e+00	 1.7996046341e+01
 1.5387572491e-01	 1.7055727810e+00	 1.9400136590e+01
 1.2273373289e-01	 1.7080962153e+00	 1.4187050237e+01
 9.1761654514e-02	 1.7100397799e+00	 3.3192668853e+00
 6.0973290018e-02	 1.7114141836e+00	-1.2260224342e+01
 3.0381859775e-02	 1.7122304730e+00	-3.1630510095e+01
 0.0000000000e+00	 1.7125000000e+00	-5.3895107548e+01
 3.1388626542e-01	 1.6962017605e+00	-1.0465117996e+02
 2.8188960570e-01	 1.7018117552e+00	-5.6775145608e+01
 2.4998611858e-01	 1.7067899521e+00	-2.1429367156e+01
 2.1819249342e-01	 1.7111449488e+00	 2.5798550060e+00
 1.8652488623e-01	 1.7148858466e+00	 1.6438209848e+01
 1.5499890538e-01	 1.7180222174e+00	 2.1319263986e+01
 1.2362959955e-01	 1.7205640709e+00	 1.8380598861e+01
 9.2431447612e-02	 1.7225218221e+00	 8.7602063298e+00
 6.1418350529e-02	 1.7239062580e+00	-6.4268502556e+00
 3.0603625174e-02	 1.7247285056e+00	-2.6091504712e+01
 0.0000000000e+00	 1.7250000000e+00	-4.9173483903e+01
 3.1616080358e-01	 1.7084930776e+00	-1.4094711404e+02
 2.8393228401e-01	 1.7141437245e+00	-8.1983199455e+01
 2.5179761219e-01	 1.7191579952e+00	-3.7459809281e+01
 2.1977359845e-01	 1.7235445499e+00	-6.0015938185e+00
 1.8787651584e-01	 1.7273125556e+00	 1.3757709911e+01
 1.5612208585e-01	 1.7304716537e+00	 2.3170527505e+01
 1.2452546621e-01	 1.7330319265e+00	 2.3570983363e+01
 9.3101240710e-02	 1.7350038643e+00	 1.6270734756e+01
 6.1863411039e-02	 1.7363983323e+00	 2.5551120411e+00
 3.0825390574e-02	 1.7372265383e+00	-1.6320429432e+01
 0.0000000000e+00	 1.7375000000e+00	-3.9133542751e+01
 3.1843534174e-01	 1.7207843947e+00	-1.8233628737e+02
 2.8597496231e-01	 1.7264756937e+00	-1.1130974082e+02
 2.5360910580e-01	 1.7315260383e+00	-5.6616771742e+01
 2.2135470347e-01	 1.7359441510e+00	-1.6702297180e+01
 1.8922814545e-01	 1.7397392647e+00	 9.9786229177e+00
 1.5724526633e-01	 1.7429210901e+00	 2.4955401308e+01
 1.2542133288e-01	 1.7454997821e+00	 2.9736863523e+01
 9.3771033808e-02	 1.7474859064e+00	 2.5806524987e+01
 6.2308471550e-02	 1.7488904066e+00	 1.4618214566e+01
 3.1047155973e-02	 1.7497245709e+00	-2.4079491041e+00
 0.0000000000e+00	 1.7500000000e+00	-2.3889225084e+01
 1.7500000000e+00	 0.0000000000e+00	-4.8593008440e+02
 1.7497245709e+00	 3.1047155973e-02	-3.9340772642e+02
 1.7488904066e+00	 6.2308471550e-02	-3.1207404694e+02
 1.7474859064e+00	 9.3771033808e-02	-2.4205486177e+02
 1.7454997821e+00	 1.2542133288e-01	-1.8344208825e+02
 1.7429210901e+00	 1.5724526633e-01	-1.3629183981e+02
 1.7397392647e+00	 1.8922814545e-01	-1.0062259318e+02
 1.7359441510e+00	 2.2135470347e-01	-7.6413443559e+01
 1.7315260383e+00	 2.5360910580e-01	-6.3602463457e+01
 1.7264756937e+00	 2.8597496231e-01	-6.2085181172e+01
 1.7207843947e+00	 3.1843534174e-01	-7.1713194912e+01
 1.7625000000e+00	 0.0000000000e+00	-3.3709978150e+02
 1.7622226036e+00	 3.1268921373e-02	-2.7293257240e+02
 1.7613824810e+00	 6.2753532061e-02	-2.1673973952e+02
 1.7599679486e+00	 9.4440826906e-02	-1.6858555007e+02
 1.7579676377e+00	 1.2631719954e-01	-1.2850912697e+02
 1.7553705264e+00	 1.5836844680e-01	-9.6523143367e+01
 1.7521659737e+00	 1.9057977506e-01	-7.2612576004e+01
 1.7483437520e+00	 2.2293580850e-01	-5.6733528642e+01
 1.7438940815e+00	 2.5542059941e-01	-4.8812136636e+01
 1.7388076629e+00	 2.8801764061e-01	-4.8743564052e+01
 1.7330757118e+00	 3.2070987989e-01	-5.6391104599e+01
 1.7750000000e+00	 0.0000000000e+00	-1.8550544312e+02
 1.7747206362e+00	 3.1490686773e-02	-1.4981285004e+02
 1.7738745553e+00	 6.3198592571e-02	-1.1892835391e+02
 1.7724499908e+00	 9.5110620005e-02	-9.2855454257e+01
 1.7704354933e+00	 1.2721306620e-01	-7.1581178736e+01
 1.7678199628e+00	 1.5949162727e-01	-5.5075371845e+01
 1.7645926827e+00	 1.9193140467e-01	-4.3290029098e+01
 1.7607433531e+00	 2.2451691352e-01	-3.6158683300e+01
 1.7562621246e+00	 2.5723209303e-01	-3.3595849715e+01
 1.7511396322e+00	 2.9006031891e-01	-3.5496536854e+01
 1.7453670289e+00	 3.2298441805e-01	-4.1735829540e+01
 1.7875000000e+00	 0.0000000000e+00	-3.1205055756e+01
 1.7872186689e+00	 3.1712452172e-02	-2.4104038768e+01
 1.7863666296e+00	 6.3643653082e-02	-1.8691855029e+01
 1.7849320330e+00	 9.5780413103e-02	-1.4912000972e+01
 1.7829033488e+00	 1.2810893287e-01	-1.2700093389e+01
 1.7802693991e+00	 1.6061480775e-01	-1.1983746984e+01
 1.7770193918e+00	 1.9328303428e-01	-1.2682483897e+01
 1.7731429542e+00	 2.2609801855e-01	-1.4707677644e+01
 1.7686301677e+00	 2.5904358664e-01	-1.7962533805e+01
 1.7634716014e+00	 2.9210299722e-01	-2.2342109638e+01
 1.7576583461e+00	 3.2525895620e-01	-2.7733374681e+01
 1.8000000000e+00	 0.0000000000e+00	 1.2574500490e+02
 1.7997167015e+00	 3.1934217572e-02	 1.0413992312e+02
 1.7988587040e+00	 6.4088713593e-02	 8.3919235665e+01
 1.7974140752e+00	 9.6450206201e-02	 6.5198700573e+01
 1.7953712044e+00	 1.2900479953e-01	 4.8093441722e+01
 1.7927188355e+00	 1.6173798822e-01	 3.2717487851e+01
 1.7894461008e+00	 1.9463466389e-01	 1.9183292910e+01
 1.7855425553e+00	 2.2767912357e-01	 7.6012395821e+00
 1.7809982109e+00	 2.6085508025e-01	-1.9208719645e+00
 1.7758035707e+00	 2.9414567552e-01	-9.2783477840e+00
 1.7699496632e+00	 3.2753349436e-01	-1.4370133779e+01
 1.8125000000e+00	 0.0000000000e+00	 2.8528991838e+02
 1.8122147342e+00	 3.2155982972e-02	 2.3486658530e+02
 1.8113507783e+00	 6.4533774104e-02	 1.8885579045e+02
 1.8098961174e+00	 9.7119999299e-02	 1.4743181316e+02
 1.8078390600e+00	 1.2990066619e-01	 1.1075986167e+02
 1.8051682719e+00	 1.6286116869e-01	 7.8995033939e+01
 1.8018728098e+00	 1.9598629350e-01	 5.2281273012e+01
 1.7979421564e+00	 2.2926022860e-01	 3.0750323025e+01
 1.7933662540e+00	 2.6266657387e-01	 1.4520692244e+01
 1.7881355399e+00	 2.9618835382e-01	 3.6966299140e+00
 1.7822409803e+00	 3.2980803251e-01	-1.6328759883e+00
 1.8250000000e+00	 0.0000000000e+00	 4.4737636620e+02
 1.8247127668e+00	 3.2377748371e-02	 3.6802493452e+02
 1.8238428526e+00	 6.4978834614e-02	 2.9607002761e+02
 1.8223781596e+00	 9.7789792397e-02	 2.3174372801e+02
 1.8203069156e+00	 1.3079653285e-01	 1.7526068550e+02
 1.8176177082e+00	 1.6398434917e-01	 1.2681650485e+02
 1.8142995189e+00	 1.9733792311e-01	 8.6586141187e+01
 1.8103417574e+00	 2.3084133362e-01	 5.4722313480e+01
 1.8057342971e+00	 2.6447806748e-01	 3.1353946555e+01
 1.8004675092e+00	 2.9823103212e-01	 1.6584653076e+01
 1.7945322974e+00	 3.3208257067e-01	 1.0491266991e+01
 1.8375000000e+00	 0.0000000000e+00	 6.1195248076e+02
 1.8372107995e+00	 3.2599513771e-02	 5.0356534565e+02
 1.8363349270e+00	 6.5423895125e-02	 4.0551546560e+02
 1.8348602018e+00	 9.8459585495e-02	 3.1809202297e+02
 1.8327747712e+00	 1.3169239952e-01	 2.4155847937e+02
 1.8300671446e+00	 1.6510752964e-01	 1.7615039540e+02
 1.8267262279e+00	 1.9868955272e-01	 1.2207327105e+02
 1.8227413585e+00	 2.3242243864e-01	 7.9500421355e+01
 1.8181023403e+00	 2.6628956109e-01	 4.8570902129e+01
 1.8127994784e+00	 3.0027371042e-01	 2.9387501492e+01
 1.8068236145e+00	 3.3435710882e-01	 2.2014813246e+01
 1.8500000000e+00	 0.0000000000e+00	 7.7896779635e+02
 1.8497088321e+00	 3.2821279170e-02	 6.4143953481e+02
 1.8488270013e+00	 6.5868955636e-02	 5.1714687920e+02
 1.8473422440e+00	 9.9129378594e-02	 4.0643542249e+02
 1.8452426268e+00	 1.3258826618e-01	 3.0961682117e+02
 1.8425165809e+00	 1.6623071011e-01	 2.2696605190e+02
 1.8391529369e+00	 2.0004118233e-01	 1.5871870177e+02
 1.8351409596e+00	 2.3400354367e-01	 1.0506831081e+02
 1.8304703834e+00	 2.6810105470e-01	 6.6163786010e+01
 1.8251314476e+00	 3.0231638873e-01	 4.2106906805e+01
 1.8191149316e+00	 3.3663164698e-01	 3.2949942484e+01
 1.8625000000e+00	 0.0000000000e+00	 9.4837320205e+02
 1.8622068648e+00	 3.3043044570e-02	 7.8160051438e+02
 1.8613190756e+00	 6.6314016147e-02	 6.3092025729e+02
 1.8598242861e+00	 9.9799171692e-02	 4.9673375906e+02
 1.8577104824e+00	 1.3348413284e-01	 3.7940026656e+02
 1.8549660173e+00	 1.6735389059e-01	 2.7923364359e+02
 1.8515796460e+00	 2.0139281194e-01	 1.9649911576e+02
 1.8475405607e+00	 2.3558464869e-01	 1.3141008452e+02
 1.8428384265e+00	 2.6991254832e-01	 8.4125033873e+01
 1.8374634169e+00	 3.0435906703e-01	 5.4744554126e+01
 1.8314062487e+00	 3.3890618513e-01	 4.3308507385e+01
 1.8750000000e+00	 0.0000000000e+00	 1.1201208966e+03
 1.8747048974e+00	 3.3264809970e-02	 9.2400254978e+02
 1.8738111500e+00	 6.6759076657e-02	 7.4679276242e+02
 1.8723063283e+00	 1.0046896479e-01	 5.8894793634e+02
 1.8701783380e+00	 1.3437999951e-01	 4.5087431639e+02
 1.8674154537e+00	 1.6847707106e-01	 3.3292413518e+02
 1.8640063550e+00	 2.0274444155e-01	 2.3539181722e+02
 1.8599401617e+00	 2.3716575372e-01	 1.5851026906e+02
 1.8552064697e+00	 2.7172404193e-01	 1.0244728308e+02
 1.8497953861e+00	 3.0640174533e-01	 6.7302083587e+01
 1.8436975658e+00	 3.4118072329e-01	 5.3102044503e+01
 1.7207843947e+00	 3.1843534174e-01	-7.1713194912e+01
 1.7144439629e+00	 3.5097278823e-01	-7.1353176303e+01
 1.7074467961e+00	 3.8356934007e-01	-6.8828630793e+01
 1.6997859004e+00	 4.1620655053e-01	-6.4213965852e+01
 1.6914549220e+00	 4.4886551095e-01	-5.7593106629e+01
 1.6824481768e+00	 4.8152687600e-01	-4.9059506157e+01
 1.6727606807e+00	 5.1417089101e-01	-3.8716108192e+01
 1.6623881771e+00	 5.4677742156e-01	-2.6675260766e+01
 1.6513271642e+00	 5.7932598496e-01	-1.3058578860e+01
 1.6395749202e+00	 6.1179578386e-01	 2.0032450689e+00
 1.6271295269e+00	 6.4416574175e-01	 1.8370683604e+01
 1.7330757118e+00	 3.2070987989e-01	-5.6391104599e+01
 1.7266899912e+00	 3.5347973672e-01	-5.5612475193e+01
 1.7196428446e+00	 3.8630912108e-01	-5.3252212635e+01
 1.7119272283e+00	 4.1917945447e-01	-4.9374580812e+01
 1.7035367429e+00	 4.5207169318e-01	-4.4051031253e+01
 1.6944656638e+00	 4.8496635368e-01	-3.7360178113e+01
 1.6847089713e+00	 5.1784354024e-01	-2.9387736243e+01
 1.6742623784e+00	 5.5068297457e-01	-2.0226421078e+01
 1.6631223582e+00	 5.8346402771e-01	-9.9758093172e+00
 1.6512861696e+00	 6.1616575375e-01	 1.2578403548e+00
 1.6387518806e+00	 6.4876692562e-01	 1.3361806989e+01
 1.7453670289e+00	 3.2298441805e-01	-4.1735829540e+01
 1.7389360195e+00	 3.5598668521e-01	-4.0414520717e+01
 1.7318388932e+00	 3.8904890208e-01	-3.8085933695e+01
 1.7240685562e+00	 4.2215235840e-01	-3.4804268176e+01
 1.7156185637e+00	 4.5527787540e-01	-3.0628603605e+01
 1.7064831508e+00	 4.8840583137e-01	-2.5622839293e+01
 1.6966572619e+00	 5.2151618946e-01	-1.9855608006e+01
 1.6861365796e+00	 5.5458852759e-01	-1.3400162380e+01
 1.6749175523e+00	 5.8760207046e-01	-6.3342337090e+00
 1.6629974191e+00	 6.2053572364e-01	 1.2601371580e+00
 1.6503742344e+00	 6.5336810950e-01	 9.2967968471e+00
 1.7576583461e+00	 3.2525895620e-01	-2.7733374681e+01
 1.7511820478e+00	 3.5849363370e-01	-2.5747920318e+01
 1.7440349417e+00	 3.9178868308e-01	-2.3321183074e+01
 1.7362098840e+00	 4.2512526233e-01	-2.0497376215e+01
 1.7277003846e+00	 4.5848405762e-01	-1.7323306501e+01
 1.7185006378e+00	 4.9184530906e-01	-1.3848279828e+01
 1.7086055524e+00	 5.2518883868e-01	-1.0123990613e+01
 1.6980107809e+00	 5.5849408060e-01	-6.2043949335e+00
 1.6867127463e+00	 5.9174011322e-01	-2.1455675015e+00
 1.6747086685e+00	 6.2490569353e-01	 1.9944572609e+00
 1.6619965882e+00	 6.5796929337e-01	 6.1558596790e+00
 1.7699496632e+00	 3.2753349436e-01	-1.4370133779e+01
 1.7634280761e+00	 3.6100058218e-01	-1.1601597959e+01
 1.7562309902e+00	 3.9452846408e-01	-8.9495891462e+00
 1.7483512119e+00	 4.2809816627e-01	-6.4484102828e+00
 1.7397822055e+00	 4.6169023984e-01	-4.1326927772e+00
 1.7305181248e+00	 4.9528478674e-01	-2.0372680061e+00
 1.7205538430e+00	 5.2886148791e-01	-1.9703278369e-01
 1.7098849822e+00	 5.6239963361e-01	 1.3531906041e+00
 1.6985079403e+00	 5.9587815597e-01	 2.5787991337e+00
 1.6864199179e+00	 6.2927566342e-01	 3.4455578086e+00
 1.6736189419e+00	 6.6257047724e-01	 3.9197516508e+00
 1.7822409803e+00	 3.2980803251e-01	-1.6328759883e+00
 1.7756741044e+00	 3.6350753067e-01	 2.0352167809e+00
 1.7684270388e+00	 3.9726824508e-01	 5.0369887004e+00
 1.7604925398e+00	 4.3107107020e-01	 7.3479726061e+00
 1.7518640264e+00	 4.6489642207e-01	 8.9456171287e+00
 1.7425356117e+00	 4.9872426443e-01	 9.8094489723e+00
 1.7325021336e+00	 5.3253413713e-01	 9.9212310982e+00
 1.7217591834e+00	 5.6630518663e-01	 9.2651156081e+00
 1.7103031344e+00	 6.0001619872e-01	 7.8277901039e+00
 1.6981311674e+00	 6.3364563330e-01	 5.5986162967e+00
 1.6852412957e+00	 6.6717166111e-01	 2.5697596431e+00
 1.7945322974e+00	 3.3208257067e-01	 1.0491266991e+01
 1.7879201328e+00	 3.6601447916e-01	 1.5172999179e+01
 1.7806230873e+00	 4.0000802608e-01	 1.8646467970e+01
 1.7726338676e+00	 4.3404397413e-01	 2.0896968969e+01
 1.7639458472e+00	 4.6810260429e-01	 2.1913937490e+01
 1.7545530987e+00	 5.0216374212e-01	 2.1691144274e+01
 1.7444504242e+00	 5.3620678635e-01	 2.0226877065e+01
 1.7336333847e+00	 5.7021073964e-01	 1.7524106224e+01
 1.7220983284e+00	 6.0415424147e-01	 1.3590632639e+01
 1.7098424168e+00	 6.3801560319e-01	 8.4392161766e+00
 1.6968636495e+00	 6.7177284498e-01	 2.0876830756e+00
 1.8068236145e+00	 3.3435710882e-01	 2.2014813246e+01
 1.8001661611e+00	 3.6852142765e-01	 2.7821939405e+01
 1.7928191359e+00	 4.0274780708e-01	 3.1886550650e+01
 1.7847751955e+00	 4.3701687807e-01	 3.4203633835e+01
 1.7760276681e+00	 4.7130878651e-01	 3.4774519511e+01
 1.7665705857e+00	 5.0560321981e-01	 3.3607110741e+01
 1.7563987147e+00	 5.3987943557e-01	 3.0716087810e+01
 1.7455075860e+00	 5.7411629265e-01	 2.6123086405e+01
 1.7338935224e+00	 6.0829228422e-01	 1.9856846975e+01
 1.7215536662e+00	 6.4238557307e-01	 1.1953333048e+01
 1.7084860032e+00	 6.7637402885e-01	 2.4558164747e+00
 1.8191149316e+00	 3.3663164698e-01	 3.2949942484e+01
 1.8124121894e+00	 3.7102837614e-01	 3.9991952155e+01
 1.8050151844e+00	 4.0548758808e-01	 4.4764730493e+01
 1.7969165233e+00	 4.3998978200e-01	 4.7272885530e+01
 1.7881094890e+00	 4.7451496873e-01	 4.7529553461e+01
 1.7785880727e+00	 5.0904269749e-01	 4.5556660225e+01
 1.7683470053e+00	 5.4355208480e-01	 4.1385149087e+01
 1.7573817872e+00	 5.7802184566e-01	 3.5055171226e+01
 1.7456887164e+00	 6.1243032697e-01	 2.6616236455e+01
 1.7332649156e+00	 6.4675554296e-01	 1.6127321409e+01
 1.7201083570e+00	 6.8097521272e-01	 3.6569327474e+00
 1.8314062487e+00	 3.3890618513e-01	 4.3308507385e+01
 1.8246582177e+00	 3.7353532462e-01	 5.1692685896e+01
 1.8172112330e+00	 4.0822736909e-01	 5.7288300002e+01
 1.8090578512e+00	 4.4296268593e-01	 6.0109510260e+01
 1.8001913098e+00	 4.7772115095e-01	 6.0181170718e+01
 1.7906055596e+00	 5.1248217518e-01	 5.7539122947e+01
 1.7802952959e+00	 5.4722473402e-01	 5.2230446250e+01
 1.7692559885e+00	 5.8192739867e-01	 4.4313660476e+01
 1.7574839105e+00	 6.1656836972e-01	 3.3858878032e+01
 1.7449761651e+00	 6.5112551284e-01	 2.0947901947e+01
 1.7317307107e+00	 6.8557639659e-01	 5.6742671289e+00
 1.8436975658e+00	 3.4118072329e-01	 5.3102044503e+01
 1.8369042460e+00	 3.7604227311e-01	 6.2933531737e+01
 1.8294072815e+00	 4.1096715009e-01	 6.9464357142e+01
 1.8211991790e+00	 4.4593558987e-01	 7.2718166515e+01
 1.8122731307e+00	 4.8092733318e-01	 7.2731445731e+01
 1.8026230466e+00	 5.1592165286e-01	 6.9553846893e+01
 1.7922435865e+00	 5.5089738324e-01	 6.3248460935e+01
 1.7811301897e+00	 5.8583295169e-01	 5.3892032496e+01
 1.7692791045e+00	 6.2070641247e-01	 4.1575113146e+01
 1.7566874145e+00	 6.5549548273e-01	 2.6402149328e+01
 1.7433530645e+00	 6.9017758046e-01	 8.4915017723e+00
 1.6271295269e+00	 6.4416574175e-01	 1.8370683604e+01
 1.6139898915e+00	 6.7641454023e-01	 3.0242281700e+01
 1.6001557665e+00	 7.0852065810e-01	 4.0287595792e+01
 1.5856277673e+00	 7.4046241201e-01	 4.8569272517e+01
 1.5704073875e+00	 7.7221799858e-01	 5.5157977718e+01
 1.5544970120e+00	 8.0376553786e-01	 6.0132283742e+01
 1.5378999272e+00	 8.3508311796e-01	 6.3578511951e+01
 1.5206203293e+00	 8.6614884071e-01	 6.5590530182e+01
 1.5026633286e+00	 8.9694086809e-01	 6.6269505287e+01
 1.4840349526e+00	 9.2743746932e-01	 6.5723611258e+01
 1.4647421446e+00	 9.5761706843e-01	 6.4067693824e+01
 1.6387518806e+00	 6.4876692562e-01	 1.3361806989e+01
 1.6255183907e+00	 6.8124607266e-01	 2.2324081309e+01
 1.6115854506e+00	 7.1358151994e-01	 3.0045012190e+01
 1.5969536799e+00	 7.4575142924e-01	 3.6570651608e+01
 1.5816245831e+00	 7.7773384143e-01	 4.1952644516e+01
 1.5656005621e+00	 8.0950672027e-01	 4.6248139926e+01
 1.5488849267e+00	 8.4104799738e-01	 4.9519670450e+01
 1.5314819031e+00	 8.7233561815e-01	 5.1835000160e+01
 1.5133966381e+00	 9.0334758858e-01	 5.3266940953e+01
 1.4946352023e+00	 9.3406202267e-01	 5.3893137815e+01
 1.4752045885e+00	 9.6445719035e-01	 5.3795823692e+01
 1.6503742344e+00	 6.5336810950e-01	 9.2967968471e+00
 1.6370468900e+00	 6.8607760509e-01	 1.5209763489e+01
 1.6230151346e+00	 7.1864238179e-01	 2.0458020191e+01
 1.6082795926e+00	 7.5104044647e-01	 2.5071199525e+01
 1.5928417788e+00	 7.8324968428e-01	 2.9082124156e+01
 1.5767041122e+00	 8.1524790269e-01	 3.2526741518e+01
 1.5598699262e+00	 8.4701287680e-01	 3.5444040067e+01
 1.5423434768e+00	 8.7852239559e-01	 3.7875947131e+01
 1.5241299476e+00	 9.0975430906e-01	 3.9867208550e+01
 1.5052354519e+00	 9.4068657602e-01	 4.1465250431e+01
 1.4856670324e+00	 9.7129731226e-01	 4.2720023525e+01
 1.6619965882e+00	 6.5796929337e-01	 6.1558596790e+00
 1.6485753892e+00	 6.9090913753e-01	 8.8824715086e+00
 1.6344448187e+00	 7.2370324364e-01	 1.1512874082e+01
 1.6196055052e+00	 7.5632946371e-01	 1.4060452151e+01
 1.6040589744e+00	 7.8876552713e-01	 1.6539400533e+01
 1.5878076622e+00	 8.2098908511e-01	 1.8964682186e+01
 1.5708549257e+00	 8.5297775622e-01	 2.1351980877e+01
 1.5532050506e+00	 8.8470917302e-01	 2.3717648609e+01
 1.5348632571e+00	 9.1616102955e-01	 2.6078648007e+01
 1.5158357016e+00	 9.4731112938e-01	 2.8452489921e+01
 1.4961294763e+00	 9.7813743418e-01	 3.0857166558e+01
 1.6736189419e+00	 6.6257047724e-01	 3.9197516508e+00
 1.6601038884e+00	 6.9574066996e-01	 3.3258167151e+00
 1.6458745027e+00	 7.2876410549e-01	 3.1962098052e+00
 1.6309314178e+00	 7.6161848094e-01	 3.5282358642e+00
 1.6152761700e+00	 7.9428136998e-01	 4.3176522501e+00
 1.5989112123e+00	 8.2673026752e-01	 5.5586500257e+00
 1.5818399252e+00	 8.5894263563e-01	 7.2438427536e+00
 1.5640666244e+00	 8.9089595046e-01	 9.3642630842e+00
 1.5455965666e+00	 9.2256775004e-01	 1.1909367376e+01
 1.5264359513e+00	 9.5393568273e-01	 1.4867048522e+01
 1.5065919202e+00	 9.8497755610e-01	 1.8223657101e+01
 1.6852412957e+00	 6.6717166111e-01	 2.5697596431e+00
 1.6716323876e+00	 7.0057220239e-01	-1.4761376007e+00
 1.6573041868e+00	 7.3382496733e-01	-4.5049681985e+00
 1.6422573304e+00	 7.6690749817e-01	-6.5353424810e+00
 1.6264933656e+00	 7.9979721283e-01	-7.5897540972e+00
 1.6100147624e+00	 8.3247144994e-01	-7.6945756923e+00
 1.5928249246e+00	 8.6490751505e-01	-6.8800342778e+00
 1.5749281982e+00	 8.9708272789e-01	-5.1801658759e+00
 1.5563298761e+00	 9.2897447053e-01	-2.6327491715e+00
 1.5370362009e+00	 9.6056023608e-01	 7.2078192197e-01
 1.5170543641e+00	 9.9181767802e-01	 4.8354467093e+00
 1.6968636495e+00	 6.7177284498e-01	 2.0876830756e+00
 1.6831608869e+00	 7.0540373482e-01	-5.5388916829e+00
 1.6687338708e+00	 7.3888582918e-01	-1.1603299612e+01
 1.6535832431e+00	 7.7219651540e-01	-1.6139905158e+01
 1.6377105613e+00	 8.0531305568e-01	-1.9189270355e+01
 1.6211183125e+00	 8.3821263235e-01	-2.0798127646e+01
 1.6038099241e+00	 8.7087239446e-01	-2.1019319702e+01
 1.5857897720e+00	 9.0326950533e-01	-1.9911705686e+01
 1.5670631856e+00	 9.3538119102e-01	-1.7540033676e+01
 1.5476364506e+00	 9.6718478944e-01	-1.3974779222e+01
 1.5275168080e+00	 9.9865779994e-01	-9.2919503099e+00
 1.7084860032e+00	 6.7637402885e-01	 2.4558164747e+00
 1.6946893861e+00	 7.1023526726e-01	-8.8775241560e+00
 1.6801635549e+00	 7.4394669102e-01	-1.8111080343e+01
 1.6649091557e+00	 7.7748553263e-01	-2.5294812781e+01
 1.6489277569e+00	 8.1082889853e-01	-3.0487172989e+01
 1.6322218626e+00	 8.4395381477e-01	-3.3755053457e+01
 1.6147949236e+00	 8.7683727388e-01	-3.5173692189e+01
 1.5966513457e+00	 9.0945628276e-01	-3.4826530968e+01
 1.5777964951e+00	 9.4178791150e-01	-3.2805027033e+01
 1.5582367002e+00	 9.7380934279e-01	-2.9208418219e+01
 1.5379792519e+00	 1.0054979219e+00	-2.4143442023e+01
 1.7201083570e+00	 6.8097521272e-01	 3.6569327474e+00
 1.7062178853e+00	 7.1506679969e-01	-1.1506706268e+01
 1.6915932389e+00	 7.4900755286e-01	-2.4040274141e+01
 1.6762350683e+00	 7.8277454986e-01	-3.4009173141e+01
 1.6601449525e+00	 8.1634474137e-01	-4.1489569003e+01
 1.6433254127e+00	 8.4969499718e-01	-4.6568318559e+01
 1.6257799231e+00	 8.8280215329e-01	-4.9342839283e+01
 1.6075129195e+00	 9.1564306020e-01	-4.9920919929e+01
 1.5885298046e+00	 9.4819463199e-01	-4.8420471939e+01
 1.5688369499e+00	 9.8043389614e-01	-4.4969221742e+01
 1.5484416958e+00	 1.0123380438e+00	-3.9704344600e+01
 1.7317307107e+00	 6.8557639659e-01	 5.6742671289e+00
 1.7177463845e+00	 7.1989833212e-01	-1.3440715558e+01
 1.7030229229e+00	 7.5406841471e-01	-2.9402523738e+01
 1.6875609809e+00	 7.8806356708e-01	-4.2291849695e+01
 1.6713621481e+00	 8.2186058422e-01	-5.2202401631e+01
 1.6544289627e+00	 8.5543617959e-01	-5.9240808959e+01
 1.6367649225e+00	 8.8876703271e-01	-6.3526457102e+01
 1.6183744933e+00	 9.2182983763e-01	-6.5191250882e+01
 1.5992631140e+00	 9.5460135247e-01	-6.4379306116e+01
 1.5794371996e+00	 9.8705844950e-01	-6.1246569644e+01
 1.5589041397e+00	 1.0191781657e+00	-5.5960368618e+01
 1.7433530645e+00	 6.9017758046e-01	 8.4915017723e+00
 1.7292748837e+00	 7.2472986455e-01	-1.4693448984e+01
 1.7144526070e+00	 7.5912927655e-01	-3.4209161552e+01
 1.6988868935e+00	 7.9335258431e-01	-5.0151469703e+01
 1.6825793438e+00	 8.2737642706e-01	-6.2631455793e+01
 1.6655325128e+00	 8.6117736201e-01	-7.1775333882e+01
 1.6477499220e+00	 8.9473191212e-01	-7.7724250055e+01
 1.6292360671e+00	 9.2801661506e-01	-8.0633998911e+01
 1.6099964235e+00	 9.6100807296e-01	-8.0674655810e+01
 1.5900374492e+00	 9.9368300285e-01	-7.8030125183e+01
 1.5693665835e+00	 1.0260182876e+00	-7.2897605912e+01
 1.4647421446e+00	 9.5761706843e-01	 6.4067693824e+01
 1.4447927608e+00	 9.8745829200e-01	 6.0144162750e+01
 1.4241955631e+00	 1.0169400170e+00	 5.6939654376e+01
 1.4029602102e+00	 1.0460414182e+00	 5.4410167809e+01
 1.3810972449e+00	 1.0747420157e+00	 5.2508874492e+01
 1.3586180783e+00	 1.1030217212e+00	 5.1186292010e+01
 1.3355349719e+00	 1.1308608839e+00	 5.0390473924e+01
 1.3118610162e+00	 1.1582403352e+00	 5.0067214518e+01
 1.2876101064e+00	 1.1851414320e+00	 5.0160267251e+01
 1.2627969160e+00	 1.2115460985e+00	 5.0611575521e+01
 1.2374368671e+00	 1.2374368671e+00	 5.1361514281e+01
 1.4752045885e+00	 9.6445719035e-01	 5.3795823692e+01
 1.4551127091e+00	 9.9451156551e-01	 5.0745746798e+01
 1.4343683886e+00	 1.0242038742e+00	 4.8428090716e+01
 1.4129813546e+00	 1.0535131426e+00	 4.6805389127e+01
 1.3909622252e+00	 1.0824187444e+00	 4.5837238265e+01
 1.3683224931e+00	 1.1109004478e+00	 4.5480440254e+01
 1.3450745074e+00	 1.1389384617e+00	 4.5689162965e+01
 1.3212314520e+00	 1.1665134805e+00	 4.6415115517e+01
 1.2968073215e+00	 1.1936067279e+00	 4.7607738380e+01
 1.2718168940e+00	 1.2201999992e+00	 4.9214406939e+01
 1.2462757018e+00	 1.2462757018e+00	 5.1180647214e+01
 1.4856670324e+00	 9.7129731226e-01	 4.2720023525e+01
 1.4654326574e+00	 1.0015648390e+00	 4.0584837491e+01
 1.4445412140e+00	 1.0314677315e+00	 3.9194836943e+01
 1.4230024990e+00	 1.0609848670e+00	 3.8519008846e+01
 1.4008272055e+00	 1.0900954730e+00	 3.8523294117e+01
 1.3780269080e+00	 1.1187791744e+00	 3.9170700785e+01
 1.3546140429e+00	 1.1470160394e+00	 4.0421434173e+01
 1.3306018879e+00	 1.1747866257e+00	 4.2233043425e+01
 1.3060045365e+00	 1.2020720239e+00	 4.4560583553e+01
 1.2808368720e+00	 1.2288538999e+00	 4.7356792060e+01
 1.2551145366e+00	 1.2551145366e+00	 5.0572279029e+01
 1.4961294763e+00	 9.7813743418e-01	 3.0857166558e+01
 1.4757526057e+00	 1.0086181125e+00	 2.9677438677e+01
 1.4547140395e+00	 1.0387315887e+00	 2.9255040802e+01
 1.4330236433e+00	 1.0684565914e+00	 2.9565333603e+01
 1.4106921858e+00	 1.0977722017e+00	 3.0580524252e+01
 1.3877313228e+00	 1.1266579009e+00	 3.2269749706e+01
 1.3641535784e+00	 1.1550936172e+00	 3.4599177490e+01
 1.3399723237e+00	 1.1830597710e+00	 3.7532123537e+01
 1.3152017516e+00	 1.2105373198e+00	 4.1029186453e+01
 1.2898568500e+00	 1.2375078006e+00	 4.5048397462e+01
 1.2639533714e+00	 1.2639533714e+00	 4.9545385109e+01
 1.5065919202e+00	 9.8497755610e-01	 1.8223657101e+01
 1.4860725540e+00	 1.0156713861e+00	 1.8039109419e+01
 1.4648868649e+00	 1.0459954460e+00	 1.8623429031e+01
 1.4430447877e+00	 1.0759283158e+00	 1.9958272386e+01
 1.4205571662e+00	 1.1054489304e+00	 2.2022036125e+01
 1.3974357376e+00	 1.1345366275e+00	 2.4789910755e+01
 1.3736931140e+00	 1.1631711949e+00	 2.8233952325e+01
 1.3493427595e+00	 1.1913329162e+00	 3.2323171852e+01
 1.3243989666e+00	 1.2190026157e+00	 3.7023642068e+01
 1.2988768279e+00	 1.2461617013e+00	 4.2298620939e+01
 1.2727922061e+00	 1.2727922061e+00	 4.8108691247e+01
 1.5170543641e+00	 9.9181767802e-01	 4.8354467093e+00
 1.4963925022e+00	 1.0227246596e+00	 5.6849793397e+00
 1.4750596904e+00	 1.0532593033e+00	 7.3143218792e+00
 1.4530659320e+00	 1.0834000402e+00	 9.7113502514e+00
 1.4304221465e+00	 1.1131256591e+00	 1.2860575362e+01
 1.4071401525e+00	 1.1424153541e+00	 1.6743167457e+01
 1.3832326495e+00	 1.1712487727e+00	 2.1336998958e+01
 1.3587131954e+00	 1.1996060615e+00	 2.6616705744e+01
 1.3335961817e+00	 1.2274679117e+00	 3.2553766641e+01
 1.3078968059e+00	 1.2548156020e+00	 3.9116600774e+01
 1.2816310409e+00	 1.2816310409e+00	 4.6270682262e+01
 1.5275168080e+00	 9.9865779994e-01	-9.2919503099e+00
 1.5067124505e+00	 1.0297779331e+00	-7.3702366734e+00
 1.4852325158e+00	 1.0605231605e+00	-4.6583529667e+00
 1.4630870764e+00	 1.0908717647e+00	-1.1622785307e+00
 1.4402871268e+00	 1.1208023878e+00	 3.1085381547e+00
 1.4168445673e+00	 1.1502940807e+00	 8.1411747777e+00
 1.3927721850e+00	 1.1793263504e+00	 1.3919249468e+01
 1.3680836312e+00	 1.2078792067e+00	 2.0422954187e+01
 1.3427933967e+00	 1.2359332076e+00	 2.7629107224e+01
 1.3169167839e+00	 1.2634695027e+00	 3.5511224630e+01
 1.2904698757e+00	 1.2904698757e+00	 4.4039610252e+01
 1.5379792519e+00	 1.0054979219e+00	-2.4143442023e+01
 1.5170323988e+00	 1.0368312066e+00	-2.1112224359e+01
 1.4954053413e+00	 1.0677870178e+00	-1.7281047033e+01
 1.4731082208e+00	 1.0983434891e+00	-1.2649817860e+01
 1.4501521071e+00	 1.1284791165e+00	-7.2220168530e+00
 1.4265489822e+00	 1.1581728073e+00	-1.0047296979e+00
 1.4023117205e+00	 1.1874039281e+00	 5.9913382173e+00
 1.3774540670e+00	 1.2161523520e+00	 1.3751867566e+01
 1.3519906118e+00	 1.2443985036e+00	 2.2258950833e+01
 1.3259367618e+00	 1.2721234034e+00	 3.1491138070e+01
 1.2993087104e+00	 1.2993087104e+00	 4.1423502509e+01
 1.5484416958e+00	 1.0123380438e+00	-3.9704344600e+01
 1.5273523471e+00	 1.0438844801e+00	-3.5527056548e+01
 1.5055781667e+00	 1.0750508751e+00	-3.0540578244e+01
 1.4831293651e+00	 1.1058152135e+00	-2.4738817704e+01
 1.4600170874e+00	 1.1361558451e+00	-1.8119357158e+01
 1.4362533970e+00	 1.1660515338e+00	-1.0683515044e+01
 1.4118512560e+00	 1.1954815059e+00	-2.4363880871e+00
 1.3868245028e+00	 1.2244254973e+00	 6.6131270950e+00
 1.3611878268e+00	 1.2528637995e+00	 1.6452333238e+01
 1.3349567398e+00	 1.2807773042e+00	 2.7064752747e+01
 1.3081475452e+00	 1.3081475452e+00	 3.8430169117e+01
 1.5589041397e+00	 1.0191781657e+00	-5.5960368618e+01
 1.5376722954e+00	 1.0509377536e+00	-5.0601180168e+01
 1.5157509922e+00	 1.0823147323e+00	-4.4424118626e+01
 1.4931505095e+00	 1.1132869379e+00	-3.7417162487e+01
 1.4698820678e+00	 1.1438325738e+00	-2.9572065454e+01
 1.4459578119e+00	 1.1739302604e+00	-2.0884446701e+01
 1.4213907915e+00	 1.2035590836e+00	-1.1353860739e+01
 1.3961949387e+00	 1.2326986425e+00	-9.8384615293e-01
 1.3703850419e+00	 1.2613290955e+00	 1.0218047390e+01
 1.3439767178e+00	 1.2894312049e+00	 2.2240254247e+01
 1.3169863800e+00	 1.3169863800e+00	 3.5067210245e+01
 1.5693665835e+00	 1.0260182876e+00	-7.2897605912e+01
 1.5479922437e+00	 1.0579910271e+00	-6.6321403776e+01
 1.5259238176e+00	 1.0895785896e+00	-5.8919182502e+01
 1.5031716538e+00	 1.1207586623e+00	-5.0673059933e+01
 1.4797470481e+00	 1.1515093025e+00	-4.1569029121e+01
 1.4556622267e+00	 1.1818089870e+00	-3.1597076592e+01
 1.4309303270e+00	 1.2116366614e+00	-2.0751279766e+01
 1.4055653745e+00	 1.2409717878e+00	-9.0298825700e+00
 1.3795822569e+00	 1.2697943914e+00	 3.5646515251e+00
 1.3529966958e+00	 1.2980851056e+00	 1.7025609632e+01
 1.3258252147e+00	 1.3258252147e+00	 3.1342023144e+01
 1.2374368671e+00	 1.2374368671e+00	 5.1361514281e+01
 1.2115460985e+00	 1.2627969160e+00	 4.8888382702e+01
 1.1851414320e+00	 1.2876101064e+00	 4.7140541580e+01
 1.1582403352e+00	 1.3118610162e+00	 4.6056175109e+01
 1.1308608839e+00	 1.3355349719e+00	 4.5570778816e+01
 1.1030217212e+00	 1.3586180783e+00	 4.5617446349e+01
 1.0747420157e+00	 1.3810972449e+00	 4.6127168132e+01
 1.0460414182e+00	 1.4029602102e+00	 4.7029139798e+01
 1.0169400170e+00	 1.4241955631e+00	 4.8251078248e+01
 9.8745829200e-01	 1.4447927608e+00	 4.9719543143e+01
 9.5761706843e-01	 1.4647421446e+00	 5.1360261622e+01
 1.2462757018e+00	 1.2462757018e+00	 5.1180647214e+01
 1.2201999992e+00	 1.2718168940e+00	 4.9652906760e+01
 1.1936067279e+00	 1.2968073215e+00	 4.8051271803e+01
 1.1665134805e+00	 1.3212314520e+00	 4.6359566853e+01
 1.1389384617e+00	 1.3450745074e+00	 4.4561711264e+01
 1.1109004478e+00	 1.3683224931e+00	 4.2641789880e+01
 1.0824187444e+00	 1.3909622252e+00	 4.0584122840e+01
 1.0535131426e+00	 1.4129813546e+00	 3.8373334056e+01
 1.0242038742e+00	 1.4343683886e+00	 3.5994417916e+01
 9.9451156551e-01	 1.4551127091e+00	 3.3432803780e+01
 9.6445719035e-01	 1.4752045885e+00	 3.0674417834e+01
 1.2551145366e+00	 1.2551145366e+00	 5.0572279029e+01
 1.2288538999e+00	 1.2808368720e+00	 5.0226864457e+01
 1.2020720239e+00	 1.3060045365e+00	 4.9019396193e+01
 1.1747866257e+00	 1.3306018879e+00	 4.6978850489e+01
 1.1470160394e+00	 1.3546140429e+00	 4.4137055862e+01
 1.1187791744e+00	 1.3780269080e+00	 4.0528549514e+01
 1.0900954730e+00	 1.4008272055e+00	 3.6190420305e+01
 1.0609848670e+00	 1.4230024990e+00	 3.1162139402e+01
 1.0314677315e+00	 1.4445412140e+00	 2.5485379824e+01
 1.0015648390e+00	 1.4654326574e+00	 1.9203826190e+01
 9.7129731226e-01	 1.4856670324e+00	 1.2362976043e+01
 1.2639533714e+00	 1.2639533714e+00	 4.9545385109e+01
 1.2375078006e+00	 1.2898568500e+00	 5.0614260488e+01
 1.2105373198e+00	 1.3152017516e+00	 5.0043717468e+01
 1.1830597710e+00	 1.3399723237e+00	 4.7907405717e+01
 1.1550936172e+00	 1.3641535784e+00	 4.4284559046e+01
 1.1266579009e+00	 1.3877313228e+00	 3.9259639482e+01
 1.0977722017e+00	 1.4106921858e+00	 3.2921955388e+01
 1.0684565914e+00	 1.4330236433e+00	 2.5365256351e+01
 1.0387315887e+00	 1.4547140395e+00	 1.6687307721e+01
 1.0086181125e+00	 1.4757526057e+00	 6.9894478397e+00
 9.7813743418e-01	 1.4961294763e+00	-3.6238689212e+00
 1.2727922061e+00	 1.2727922061e+00	 4.8108691247e+01
 1.2461617013e+00	 1.2988768279e+00	 5.0818988038e+01
 1.2190026157e+00	 1.3243989666e+00	 5.1123071332e+01
 1.1913329162e+00	 1.3493427595e+00	 4.9138795856e+01
 1.1631711949e+00	 1.3736931140e+00	 4.4992307349e+01
 1.1345366275e+00	 1.3974357376e+00	 3.8817476119e+01
 1.1054489304e+00	 1.4205571662e+00	 3.0755292256e+01
 1.0759283158e+00	 1.4430447877e+00	 2.0953226785e+01
 1.0459954460e+00	 1.4648868649e+00	 9.5645633072e+00
 1.0156713861e+00	 1.4860725540e+00	-3.2522951275e+00
 9.8497755610e-01	 1.5065919202e+00	-1.7334539035e+01
 1.2816310409e+00	 1.2816310409e+00	 4.6270682262e+01
 1.2548156020e+00	 1.3078968059e+00	 5.0844832624e+01
 1.2274679117e+00	 1.3335961817e+00	 5.2256325336e+01
 1.1996060615e+00	 1.3587131954e+00	 5.0666761517e+01
 1.1712487727e+00	 1.3832326495e+00	 4.6248715677e+01
 1.1424153541e+00	 1.4071401525e+00	 3.9184960552e+01
 1.1131256591e+00	 1.4304221465e+00	 2.9667641306e+01
 1.0834000402e+00	 1.4530659320e+00	 1.7897404947e+01
 1.0532593033e+00	 1.4750596904e+00	 4.0824911259e+00
 1.0227246596e+00	 1.4963925022e+00	-1.1562209223e+01
 9.9181767802e-01	 1.5170543641e+00	-2.8816120773e+01
 1.2904698757e+00	 1.2904698757e+00	 4.4039610252e+01
 1.2634695027e+00	 1.3169167839e+00	 5.0695475786e+01
 1.2359332076e+00	 1.3427933967e+00	 5.3442377790e+01
 1.2078792067e+00	 1.3680836312e+00	 5.2485214535e+01
 1.1793263504e+00	 1.3927721850e+00	 4.8042516068e+01
 1.1502940807e+00	 1.4168445673e+00	 4.0345462096e+01
 1.1208023878e+00	 1.4402871268e+00	 2.9636837035e+01
 1.0908717647e+00	 1.4630870764e+00	 1.6169929624e+01
 1.0605231605e+00	 1.4852325158e+00	 2.0738491289e-01
 1.0297779331e+00	 1.5067124505e+00	-1.7979983246e+01
 9.9865779994e-01	 1.5275168080e+00	-3.8114410845e+01
 1.2993087104e+00	 1.2993087104e+00	 4.1423502509e+01
 1.2721234034e+00	 1.3259367618e+00	 5.0374498629e+01
 1.2443985036e+00	 1.3519906118e+00	 5.4680156723e+01
 1.2161523520e+00	 1.3774540670e+00	 5.4588232142e+01
 1.1874039281e+00	 1.4023117205e+00	 5.0362746903e+01
 1.1581728073e+00	 1.4265489822e+00	 4.2282802337e+01
 1.1284791165e+00	 1.4501521071e+00	 3.0641316813e+01
 1.0983434891e+00	 1.4731082208e+00	 1.5743697458e+01
 1.0677870178e+00	 1.4954053413e+00	-2.0935446895e+00
 1.0368312066e+00	 1.5170323988e+00	-2.2544226298e+01
 1.0054979219e+00	 1.5379792519e+00	-4.5273960063e+01
 1.3081475452e+00	 1.3081475452e+00	 3.8430169117e+01
 1.2807773042e+00	 1.3349567398e+00	 4.9885385211e+01
 1.2528637995e+00	 1.3611878268e+00	 5.5968618873e+01
 1.2244254973e+00	 1.3868245028e+00	 5.6970051386e+01
 1.1954815059e+00	 1.4118512560e+00	 5.3198742561e+01
 1.1660515338e+00	 1.4362533970e+00	 4.4981239851e+01
 1.1361558451e+00	 1.4600170874e+00	 3.2660100521e+01
 1.1058152135e+00	 1.4831293651e+00	 1.6592337351e+01
 1.0750508751e+00	 1.5055781667e+00	-2.8522011064e+00
 1.0438844801e+00	 1.5273523471e+00	-2.5292504260e+01
 1.0123380438e+00	 1.5484416958e+00	-5.0338115428e+01
 1.3169863800e+00	 1.3169863800e+00	 3.5067210245e+01
 1.2894312049e+00	 1.3439767178e+00	 4.9231525810e+01
 1.2613290955e+00	 1.3703850419e+00	 5.7306748735e+01
 1.2326986425e+00	 1.3961949387e+00	 5.9625063767e+01
 1.2035590836e+00	 1.4213907915e+00	 5.6540123489e+01
 1.1739302604e+00	 1.4459578119e+00	 4.8425455541e+01
 1.1438325738e+00	 1.4698820678e+00	 3.5672771000e+01
 1.1132869379e+00	 1.4931505095e+00	 1.8690185890e+01
 1.0823147323e+00	 1.5157509922e+00	-2.0996315573e+00
 1.0509377536e+00	 1.5376722954e+00	-2.6261374794e+01
 1.0191781657e+00	 1.5589041397e+00	-5.3349060525e+01
 1.3258252147e+00	 1.3258252147e+00	 3.1342023144e+01
 1.2980851056e+00	 1.3529966958e+00	 4.8416220045e+01
 1.2697943914e+00	 1.3795822569e+00	 5.8693557629e+01
 1.2409717878e+00	 1.4055653745e+00	 6.2547810093e+01
 1.2116366614e+00	 1.4309303270e+00	 6.0376786666e+01
 1.1818089870e+00	 1.4556622267e+00	 5.2600538566e+01
 1.1515093025e+00	 1.4797470481e+00	 3.9659455296e+01
 1.1207586623e+00	 1.5031716538e+00	 2.2012263765e+01
 1.0895785896e+00	 1.5259238176e+00	 1.3394440576e-01
 1.0579910271e+00	 1.5479922437e+00	-2.5486420949e+01
 1.0260182876e+00	 1.5693665835e+00	-5.4347854305e+01
 9.5761706843e-01	 1.4647421446e+00	 5.1360261622e+01
 9.2743746932e-01	 1.4840349526e+00	 6.9767468366e+01
 8.9694086809e-01	 1.5026633286e+00	 8.0824968548e+01
 8.6614884071e-01	 1.5206203293e+00	 8.5142446649e+01
 8.3508311796e-01	 1.5378999272e+00	 8.3345839169e+01
 8.0376553786e-01	 1.5544970120e+00	 7.6074428006e+01
 7.7221799858e-01	 1.5704073875e+00	 6.3977922924e+01
 7.4046241201e-01	 1.5856277673e+00	 4.7713552484e+01
 7.0852065810e-01	 1.6001557665e+00	 2.7943182175e+01
 6.7641454023e-01	 1.6139898915e+00	 5.3304777886e+00
 6.4416574175e-01	 1.6271295269e+00	-1.9461868896e+01
 9.6445719035e-01	 1.4752045885e+00	 3.0674417834e+01
 9.3406202267e-01	 1.4946352023e+00	 4.8604863085e+01
 9.0334758858e-01	 1.5133966381e+00	 6.1794739489e+01
 8.7233561815e-01	 1.5314819031e+00	 7.0605640340e+01
 8.4104799738e-01	 1.5488849267e+00	 7.5410314380e+01
 8.0950672027e-01	 1.5656005621e+00	 7.6590900269e+01
 7.7773384143e-01	 1.5816245831e+00	 7.4537147798e+01
 7.4575142924e-01	 1.5969536799e+00	 6.9644637838e+01
 7.1358151994e-01	 1.6115854506e+00	 6.2313012676e+01
 6.8124607266e-01	 1.6255183907e+00	 5.2944227979e+01
 6.4876692562e-01	 1.6387518806e+00	 4.1940837116e+01
 9.7129731226e-01	 1.4856670324e+00	 1.2362976043e+01
 9.4068657602e-01	 1.5052354519e+00	 2.8543874207e+01
 9.0975430906e-01	 1.5241299476e+00	 4.2560607501e+01
 8.7852239559e-01	 1.5423434768e+00	 5.4529367583e+01
 8.4701287680e-01	 1.5598699262e+00	 6.4572448866e+01
 8.1524790269e-01	 1.5767041122e+00	 7.2817613885e+01
 7.8324968428e-01	 1.5928417788e+00	 7.9397443106e+01
 7.5104044647e-01	 1.6082795926e+00	 8.4448673836e+01
 7.1864238179e-01	 1.6230151346e+00	 8.8111532845e+01
 6.8607760509e-01	 1.6370468900e+00	 9.0529067236e+01
 6.5336810950e-01	 1.6503742344e+00	 9.1846477956e+01
 9.7813743418e-01	 1.4961294763e+00	-3.6238689212e+00
 9.4731112938e-01	 1.5158357016e+00	 9.5613985489e+00
 9.1616102955e-01	 1.5348632571e+00	 2.3126858134e+01
 8.8470917302e-01	 1.5532050506e+00	 3.6945932986e+01
 8.5297775622e-01	 1.5708549257e+00	 5.0893139271e+01
 8.2098908511e-01	 1.5878076622e+00	 6.4844572463e+01
 7.8876552713e-01	 1.6040589744e+00	 7.8678375808e+01
 7.5632946371e-01	 1.6196055052e+00	 9.2275188340e+01
 7.2370324364e-01	 1.6344448187e+00	 1.0551857010e+02
 6.9090913753e-01	 1.6485753892e+00	 1.1829540241e+02
 6.5796929337e-01	 1.6619965882e+00	 1.3049626134e+02
 9.8497755610e-01	 1.5065919202e+00	-1.7334539035e+01
 9.5393568273e-01	 1.5264359513e+00	-8.3650256010e+00
 9.2256775004e-01	 1.5455965666e+00	 3.4976576133e+00
 8.9089595046e-01	 1.5640666244e+00	 1.7886743525e+01
 8.5894263563e-01	 1.5818399252e+00	 3.4431590387e+01
 8.2673026752e-01	 1.5989112123e+00	 5.2759279237e+01
 7.9428136998e-01	 1.6152761700e+00	 7.2496191283e+01
 7.6161848094e-01	 1.6309314178e+00	 9.3269555390e+01
 7.2876410549e-01	 1.6458745027e+00	 1.1470895639e+02
 6.9574066996e-01	 1.6601038884e+00	 1.3644779546e+02
 6.6257047724e-01	 1.6736189419e+00	 1.5812469451e+02
 9.9181767802e-01	 1.5170543641e+00	-2.8816120773e+01
 9.6056023608e-01	 1.5370362009e+00	-2.5257240598e+01
 9.2897447053e-01	 1.5563298761e+00	-1.6322943044e+01
 8.9708272789e-01	 1.5749281982e+00	-2.6176604971e+00
 8.6490751505e-01	 1.5928249246e+00	 1.5245373497e+01
 8.3247144994e-01	 1.6100147624e+00	 3.6646823285e+01
 7.9979721283e-01	 1.6264933656e+00	 6.0963927871e+01
 7.6690749817e-01	 1.6422573304e+00	 8.7573138439e+01
 7.3382496733e-01	 1.6573041868e+00	 1.1585270044e+02
 7.0057220239e-01	 1.6716323876e+00	 1.4518516498e+02
 6.6717166111e-01	 1.6852412957e+00	 1.7495981527e+02
 9.9865779994e-01	 1.5275168080e+00	-3.8114410845e+01
 9.6718478944e-01	 1.5476364506e+00	-4.1136490652e+01
 9.3538119102e-01	 1.5670631856e+00	-3.6331004081e+01
 9.0326950533e-01	 1.5857897720e+00	-2.4537575773e+01
 8.7087239446e-01	 1.6038099241e+00	-6.6095176830e+00
 8.3821263235e-01	 1.6211183125e+00	 1.6589962208e+01
 8.0531305568e-01	 1.6377105613e+00	 4.4191526706e+01
 7.7219651540e-01	 1.6535832431e+00	 7.5323427702e+01
 7.3888582918e-01	 1.6687338708e+00	 1.0911515294e+02
 7.0540373482e-01	 1.6831608869e+00	 1.4470097950e+02
 6.7177284498e-01	 1.6968636495e+00	 1.8122341359e+02
 1.0054979219e+00	 1.5379792519e+00	-4.5273960063e+01
 9.7380934279e-01	 1.5582367002e+00	-5.6023442168e+01
 9.4178791150e-01	 1.5777964951e+00	-5.6522693212e+01
 9.0945628276e-01	 1.5966513457e+00	-4.7844107514e+01
 8.7683727388e-01	 1.6147949236e+00	-3.1078613342e+01
 8.4395381477e-01	 1.6322218626e+00	-7.3307985644e+00
 8.1082889853e-01	 1.6489277569e+00	 2.2285937063e+01
 7.7748553263e-01	 1.6649091557e+00	 5.6654171908e+01
 7.4394669102e-01	 1.6801635549e+00	 9.4657164995e+01
 7.1023526726e-01	 1.6946893861e+00	 1.3518344282e+02
 6.7637402885e-01	 1.7084860032e+00	 1.7713124405e+02
 1.0123380438e+00	 1.5484416958e+00	-5.0338115428e+01
 9.8043389614e-01	 1.5688369499e+00	-6.9938203266e+01
 9.4819463199e-01	 1.5885298046e+00	-7.6894281993e+01
 9.1564306020e-01	 1.6075129195e+00	-7.2509142137e+01
 8.8280215329e-01	 1.6257799231e+00	-5.8108916088e+01
 8.4969499718e-01	 1.6433254127e+00	-3.5037129686e+01
 8.1634474137e-01	 1.6601449525e+00	-4.6487825656e+00
 7.8277454986e-01	 1.6762350683e+00	 3.1695504696e+01
 7.4900755286e-01	 1.6915932389e+00	 7.2635240117e+01
 7.1506679969e-01	 1.7062178853e+00	 1.1681567193e+02
 6.8097521272e-01	 1.7201083570e+00	 1.6289322982e+02
 1.0191781657e+00	 1.5589041397e+00	-5.3349060525e+01
 9.8705844950e-01	 1.5794371996e+00	-8.2900342512e+01
 9.5460135247e-01	 1.5992631140e+00	-9.7442142336e+01
 9.2182983763e-01	 1.6183744933e+00	-9.8505321048e+01
 8.8876703271e-01	 1.6367649225e+00	-8.7648851539e+01
 8.5543617959e-01	 1.6544289627e+00	-6.6452804871e+01
 8.2186058422e-01	 1.6713621481e+00	-3.6511367456e+01
 7.8806356708e-01	 1.6875609809e+00	 5.7406593073e-01
 7.5406841471e-01	 1.7030229229e+00	 4.3201680137e+01
 7.1989833212e-01	 1.7177463845e+00	 8.9775867660e+01
 6.8557639659e-01	 1.7317307107e+00	 1.3871365825e+02
 1.0260182876e+00	 1.5693665835e+00	-5.4347854305e+01
 9.9368300285e-01	 1.5900374492e+00	-9.4928906903e+01
 9.6100807296e-01	 1.6099964235e+00	-1.1816274316e+02
 9.2801661506e-01	 1.6292360671e+00	-1.2580601547e+02
 8.9473191212e-01	 1.6477499220e+00	-1.1964822088e+02
 8.6117736201e-01	 1.6655325128e+00	-1.0150363079e+02
 8.2737642706e-01	 1.6825793438e+00	-7.3203253529e+01
 7.9335258431e-01	 1.6988868935e+00	-3.6586881834e+01
 7.5912927655e-01	 1.7144526070e+00	 6.5047252550e+00
 7.2472986455e-01	 1.7292748837e+00	 5.4237478575e+01
 6.9017758046e-01	 1.7433530645e+00	 1.0479136885e+02
 6.4416574175e-01	 1.6271295269e+00	-1.9461868896e+01
 6.1179578386e-01	 1.6395749202e+00	-7.7359713898e+01
 5.7932598496e-01	 1.6513271642e+00	-1.2236095631e+02
 5.4677742156e-01	 1.6623881771e+00	-1.5584128149e+02
 5.1417089101e-01	 1.6727606807e+00	-1.7917887799e+02
 4.8152687600e-01	 1.6824481768e+00	-1.9374883520e+02
 4.4886551095e-01	 1.6914549220e+00	-2.0091775070e+02
 4.1620655053e-01	 1.6997859004e+00	-2.0203857282e+02
 3.8356934007e-01	 1.7074467961e+00	-1.9844570098e+02
 3.5097278823e-01	 1.7144439629e+00	-1.9145036321e+02
 3.1843534174e-01	 1.7207843947e+00	-1.8233628737e+02
 6.4876692562e-01	 1.6387518806e+00	 4.1940837116e+01
 6.1616575375e-01	 1.6512861696e+00	-1.3241869070e+01
 5.8346402771e-01	 1.6631223582e+00	-5.9694391417e+01
 5.5068297457e-01	 1.6742623784e+00	-9.8278521554e+01
 5.1784354024e-01	 1.6847089713e+00	-1.2985983193e+02
 4.8496635368e-01	 1.6944656638e+00	-1.5530407152e+02
 4.5207169318e-01	 1.7035367429e+00	-1.7547368615e+02
 4.1917945447e-01	 1.7119272283e+00	-1.9122448037e+02
 3.8630912108e-01	 1.7196428446e+00	-2.0340243587e+02
 3.5347973672e-01	 1.7266899912e+00	-2.1284069949e+02
 3.2070987989e-01	 1.7330757118e+00	-2.2035675226e+02
 6.5336810950e-01	 1.6503742344e+00	 9.1846477956e+01
 6.2053572364e-01	 1.6629974191e+00	 4.2166004403e+01
 5.8760207046e-01	 1.6749175523e+00	-2.9109793175e+00
 5.5458852759e-01	 1.6861365796e+00	-4.3737891334e+01
 5.2151618946e-01	 1.6966572619e+00	-8.0673176262e+01
 4.8840583137e-01	 1.7064831508e+00	-1.1407868155e+02
 4.5527787540e-01	 1.7156185637e+00	-1.4431807414e+02
 4.2215235840e-01	 1.7240685562e+00	-1.7175530577e+02
 3.8904890208e-01	 1.7318388932e+00	-1.9675313453e+02
 3.5598668521e-01	 1.7389360195e+00	-2.1967170948e+02
 3.2298441805e-01	 1.7453670289e+00	-2.4086722441e+02
 6.5796929337e-01	 1.6619965882e+00	 1.3049626134e+02
 6.2490569353e-01	 1.6747086685e+00	 8.9046644185e+01
 5.9174011322e-01	 1.6867127463e+00	 4.8112714237e+01
 5.5849408060e-01	 1.6980107809e+00	 7.8440224527e+00
 5.2518883868e-01	 1.7086055524e+00	-3.1616121091e+01
 4.9184530906e-01	 1.7185006378e+00	-7.0130987121e+01
 4.5848405762e-01	 1.7277003846e+00	-1.0757072381e+02
 4.2512526233e-01	 1.7362098840e+00	-1.4381261005e+02
 3.9178868308e-01	 1.7440349417e+00	-1.7874126553e+02
 3.5849363370e-01	 1.7511820478e+00	-2.1224881828e+02
 3.2525895620e-01	 1.7576583461e+00	-2.4423503043e+02
 6.6257047724e-01	 1.6736189419e+00	 1.5812469451e+02
 6.2927566342e-01	 1.6864199179e+00	 1.2757771164e+02
 5.9587815597e-01	 1.6985079403e+00	 9.3496694515e+01
 5.6239963361e-01	 1.7098849822e+00	 5.6528871359e+01
 5.2886148791e-01	 1.7205538430e+00	 1.7314045736e+01
 4.9528478674e-01	 1.7305181248e+00	-2.3517690221e+01
 4.6169023984e-01	 1.7397822055e+00	-6.5348116468e+01
 4.2809816627e-01	 1.7483512119e+00	-1.0757291109e+02
 3.9452846408e-01	 1.7562309902e+00	-1.4960353466e+02
 3.6100058218e-01	 1.7634280761e+00	-1.9086896720e+02
 3.2753349436e-01	 1.7699496632e+00	-2.3081729360e+02
 6.6717166111e-01	 1.6852412957e+00	 1.7495981527e+02
 6.3364563330e-01	 1.6981311674e+00	 1.5793196686e+02
 6.0001619872e-01	 1.7103031344e+00	 1.3335765604e+02
 5.6630518663e-01	 1.7217591834e+00	 1.0237660596e+02
 5.3253413713e-01	 1.7325021336e+00	 6.6119961313e+01
 4.9872426443e-01	 1.7425356117e+00	 2.5706071107e+01
 4.6489642207e-01	 1.7518640264e+00	-1.7763520380e+01
 4.3107107020e-01	 1.7604925398e+00	-6.3207857551e+01
 3.9726824508e-01	 1.7684270388e+00	-1.0957011808e+02
 3.6350753067e-01	 1.7756741044e+00	-1.5582090625e+02
 3.2980803251e-01	 1.7822409803e+00	-2.0096128574e+02
 6.7177284498e-01	 1.6968636495e+00	 1.8122341359e+02
 6.3801560319e-01	 1.7098424168e+00	 1.8027743656e+02
 6.0415424147e-01	 1.7220983284e+00	 1.6780909600e+02
 5.7021073964e-01	 1.7336333847e+00	 1.4544553411e+02
 5.3620678635e-01	 1.7444504242e+00	 1.1480419025e+02
 5.0216374212e-01	 1.7545530987e+00	 7.7486669223e+01
 4.6810260429e-01	 1.7639458472e+00	 3.5072899200e+01
 4.3404397413e-01	 1.7726338676e+00	-1.0884395598e+01
 4.0000802608e-01	 1.7806230873e+00	-5.8864885985e+01
 3.6601447916e-01	 1.7879201328e+00	-1.0738547468e+02
 3.3208257067e-01	 1.7945322974e+00	-1.5500476456e+02
 6.7637402885e-01	 1.7084860032e+00	 1.7713124405e+02
 6.4238557307e-01	 1.7215536662e+00	 1.9477757503e+02
 6.0829228422e-01	 1.7338935224e+00	 1.9696142294e+02
 5.7411629265e-01	 1.7455075860e+00	 1.8579237681e+02
 5.3987943557e-01	 1.7563987147e+00	 1.6336922714e+02
 5.0560321981e-01	 1.7665705857e+00	 1.3177193552e+02
 4.7130878651e-01	 1.7760276681e+00	 9.3053974491e+01
 4.3701687807e-01	 1.7847751955e+00	 4.9235071139e+01
 4.0274780708e-01	 1.7928191359e+00	 2.2943829267e+00
 3.6852142765e-01	 1.8001661611e+00	-4.5835870086e+01
 3.3435710882e-01	 1.8068236145e+00	-9.3276297266e+01
 6.8097521272e-01	 1.7201083570e+00	 1.6289322982e+02
 6.4675554296e-01	 1.7332649156e+00	 2.0159141865e+02
 6.1243032697e-01	 1.7456887164e+00	 2.2092206120e+02
 5.7802184566e-01	 1.7573817872e+00	 2.2347232183e+02
 5.4355208480e-01	 1.7683470053e+00	 2.1181749892e+02
 5.0904269749e-01	 1.7785880727e+00	 1.8851111112e+02
 4.7451496873e-01	 1.7881094890e+00	 1.5607543392e+02
 4.3998978200e-01	 1.7969165233e+00	 1.1699252810e+02
 4.0548758808e-01	 1.8050151844e+00	 7.3695795670e+01
 3.7102837614e-01	 1.8124121894e+00	 2.8562093484e+01
 3.3663164698e-01	 1.8191149316e+00	-1.6095571089e+01
 6.8557639659e-01	 1.7317307107e+00	 1.3871365825e+02
 6.5112551284e-01	 1.7449761651e+00	 2.0087373410e+02
 6.1656836972e-01	 1.7574839105e+00	 2.3979555098e+02
 5.8192739867e-01	 1.7692559885e+00	 2.5853907517e+02
 5.4722473402e-01	 1.7802952959e+00	 2.6015136716e+02
 5.1248217518e-01	 1.7906055596e+00	 2.4765479958e+02
 4.7772115095e-01	 1.8001913098e+00	 2.2403580494e+02
 4.4296268593e-01	 1.8090578512e+00	 1.9223420253e+02
 4.0822736909e-01	 1.8172112330e+00	 1.5513314745e+02
 3.7353532462e-01	 1.8246582177e+00	 1.1554973772e+02
 3.3890618513e-01	 1.8314062487e+00	 7.6226308776e+01
 6.9017758046e-01	 1.7433530645e+00	 1.0479136885e+02
 6.5549548273e-01	 1.7566874145e+00	 1.9277516075e+02
 6.2070641247e-01	 1.7692791045e+00	 2.5368364451e+02
 5.8583295169e-01	 1.7811301897e+00	 2.9104491042e+02
 5.5089738324e-01	 1.7922435865e+00	 3.0837313021e+02
 5.1592165286e-01	 1.8026230466e+00	 3.0915492149e+02
 4.8092733318e-01	 1.8122731307e+00	 2.9683632071e+02
 4.4593558987e-01	 1.8211991790e+00	 2.7481042205e+02
 4.1096715009e-01	 1.8294072815e+00	 2.4640573208e+02
 3.7604227311e-01	 1.8369042460e+00	 2.1487528220e+02
 3.4118072329e-01	 1.8436975658e+00	 1.8338653308e+02
 3.1843534174e-01	 1.7207843947e+00	-1.8233628737e+02
 2.8597496231e-01	 1.7264756937e+00	-1.1130974082e+02
 2.5360910580e-01	 1.7315260383e+00	-5.6616771742e+01
 2.2135470347e-01	 1.7359441510e+00	-1.6702297180e+01
 1.8922814545e-01	 1.7397392647e+00	 9.9786229177e+00
 1.5724526633e-01	 1.7429210901e+00	 2.4955401308e+01
 1.2542133288e-01	 1.7454997821e+00	 2.9736863523e+01
 9.3771033808e-02	 1.7474859064e+00	 2.5806524987e+01
 6.2308471550e-02	 1.7488904066e+00	 1.4618214566e+01
 3.1047155973e-02	 1.7497245709e+00	-2.4079491041e+00
 0.0000000000e+00	 1.7500000000e+00	-2.3889225084e+01
 3.2070987989e-01	 1.7330757118e+00	-2.2035675226e+02
 2.8801764061e-01	 1.7388076629e+00	-1.5007723047e+02
 2.5542059941e-01	 1.7438940815e+00	-9.1907518002e+01
 2.2293580850e-01	 1.7483437520e+00	-4.4869621107e+01
 1.9057977506e-01	 1.7521659737e+00	-7.9860049783e+00
 1.5836844680e-01	 1.7553705264e+00	 1.9716739493e+01
 1.2631719954e-01	 1.7579676377e+00	 3.9204420388e+01
 9.4440826906e-02	 1.7599679486e+00	 5.1431971140e+01
 6.2753532061e-02	 1.7613824810e+00	 5.7340386845e+01
 3.1268921373e-02	 1.7622226036e+00	 5.7853876721e+01
 0.0000000000e+00	 1.7625000000e+00	 5.3877237011e+01
 3.2298441805e-01	 1.7453670289e+00	-2.4086722441e+02
 2.9006031891e-01	 1.7511396322e+00	-1.7472645073e+02
 2.5723209303e-01	 1.7562621246e+00	-1.1650112397e+02
 2.2451691352e-01	 1.7607433531e+00	-6.5784272753e+01
 1.9193140467e-01	 1.7645926827e+00	-2.2159819941e+01
 1.5949162727e-01	 1.7678199628e+00	 1.4795453911e+01
 1.2721306620e-01	 1.7704354933e+00	 4.5510006657e+01
 9.5110620005e-02	 1.7724499908e+00	 7.0415698231e+01
 6.3198592571e-02	 1.7738745553e+00	 8.9946028933e+01
 3.1490686773e-02	 1.7747206362e+00	 1.0453445843e+02
 0.0000000000e+00	 1.7750000000e+00	 1.1461281060e+02
 3.2525895620e-01	 1.7576583461e+00	-2.4423503043e+02
 2.9210299722e-01	 1.7634716014e+00	-1.8555357256e+02
 2.5904358664e-01	 1.7686301677e+00	-1.3062198804e+02
 2.2609801855e-01	 1.7731429542e+00	-7.9598388315e+01
 1.9328303428e-01	 1.7770193918e+00	-3.2622331113e+01
 1.6061480775e-01	 1.7802693991e+00	 1.0184905354e+01
 1.2810893287e-01	 1.7829033488e+00	 4.8719977044e+01
 9.5780413103e-02	 1.7849320330e+00	 8.2897063320e+01
 6.3643653082e-02	 1.7863666296e+00	 1.1264739665e+02
 3.1712452172e-02	 1.7872186689e+00	 1.3791873876e+02
 0.0000000000e+00	 1.7875000000e+00	 1.5867480919e+02
 3.2753349436e-01	 1.7699496632e+00	-2.3081729360e+02
 2.9414567552e-01	 1.7758035707e+00	-1.8284654013e+02
 2.6085508025e-01	 1.7809982109e+00	-1.3448827550e+02
 2.2767912357e-01	 1.7855425553e+00	-8.6459878157e+01
 1.9463466389e-01	 1.7894461008e+00	-3.9450839219e+01
 1.6173798822e-01	 1.7927188355e+00	 5.8786388757e+00
 1.2900479953e-01	 1.7953712044e+00	 4.8898842929e+01
 9.6450206201e-02	 1.7974140752e+00	 8.9011552298e+01
 6.4088713593e-02	 1.7988587040e+00	 1.2565084969e+02
 3.1934217572e-02	 1.7997167015e+00	 1.5828374526e+02
 0.0000000000e+00	 1.8000000000e+00	 1.8641062082e+02
 3.2980803251e-01	 1.7822409803e+00	-2.0096128574e+02
 2.9618835382e-01	 1.7881355399e+00	-1.6688535451e+02
 2.6266657387e-01	 1.7933662540e+00	-1.2831213346e+02
 2.2926022860e-01	 1.7979421564e+00	-8.6512572536e+01
 1.9598629350e-01	 1.8018728098e+00	-4.2720512715e+01
 1.6286116869e-01	 1.8051682719e+00	 1.8703774437e+00
 1.2990066619e-01	 1.8078390600e+00	 4.6109335917e+01
 9.7119999299e-02	 1.8098961174e+00	 8.8890913378e+01
 6.4533774104e-02	 1.8113507783e+00	 1.2915705495e+02
 3.2155982972e-02	 1.8122147342e+00	 1.6589886324e+02
 0.0000000000e+00	 1.8125000000e+00	 1.9815805030e+02
 3.3208257067e-01	 1.7945322974e+00	-1.5500476456e+02
 2.9823103212e-01	 1.8004675092e+00	-1.3794234572e+02
 2.6447806748e-01	 1.8057342971e+00	-1.1229989697e+02
 2.3084133362e-01	 1.8103417574e+00	-7.9896361324e+01
 1.9733792311e-01	 1.8142995189e+00	-4.2504460810e+01
 1.6398434917e-01	 1.8176177082e+00	-1.8459841578e+00
 1.3079653285e-01	 1.8203069156e+00	 4.0412468797e+01
 9.7789792397e-02	 1.8223781596e+00	 8.2663285095e+01
 6.4978834614e-02	 1.8238428526e+00	 1.2336118146e+02
 3.2377748371e-02	 1.8247127668e+00	 1.6102609744e+02
 0.0000000000e+00	 1.8250000000e+00	 1.9424564741e+02
 3.3435710882e-01	 1.8068236145e+00	-9.3276297266e+01
 3.0027371042e-01	 1.8127994784e+00	-9.6282433611e+01
 2.6628956109e-01	 1.8181023403e+00	-8.6652286703e+01
 2.3242243864e-01	 1.8227413585e+00	-6.6747328038e+01
 1.9868955272e-01	 1.8267262279e+00	-3.8873803511e+01
 1.6510752964e-01	 1.8300671446e+00	-5.2763851692e+00
 1.3169239952e-01	 1.8327747712e+00	 3.1867594000e+01
 9.8459585495e-02	 1.8348602018e+00	 7.0453319090e+01
 6.5423895125e-02	 1.8363349270e+00	 1.0845308741e+02
 3.2599513771e-02	 1.8372107995e+00	 1.4392032313e+02
 0.0000000000e+00	 1.8375000000e+00	 1.7499302168e+02
 3.3663164698e-01	 1.8191149316e+00	-1.6095571089e+01
 3.0231638873e-01	 1.8251314476e+00	-4.2163378216e+01
 2.6810105470e-01	 1.8304703834e+00	-5.1564598621e+01
 2.3400354367e-01	 1.8351409596e+00	-4.7197878431e+01
 2.0004118233e-01	 1.8391529369e+00	-3.1897738823e+01
 1.6623071011e-01	 1.8425165809e+00	-8.4266044629e+00
 1.3258826618e-01	 1.8452426268e+00	 2.0532459695e+01
 9.9129378594e-02	 1.8473422440e+00	 5.2382297904e+01
 6.5868955636e-02	 1.8488270013e+00	 8.4617499577e+01
 3.2821279170e-02	 1.8497088321e+00	 1.1482952695e+02
 0.0000000000e+00	 1.8500000000e+00	 1.4071114446e+02
 3.3890618513e-01	 1.8314062487e+00	 7.6226308776e+01
 3.0435906703e-01	 1.8374634169e+00	 2.4163979969e+01
 2.6991254832e-01	 1.8428384265e+00	-7.2268860172e+00
 2.3558464869e-01	 1.8475405607e+00	-2.1376863906e+01
 2.0139281194e-01	 1.8515796460e+00	-2.1643607245e+01
 1.6735389059e-01	 1.8549660173e+00	-1.1302265924e+01
 1.3348413284e-01	 1.8577104824e+00	 6.4632636228e+00
 9.9799171692e-02	 1.8598242861e+00	 2.8568248040e+01
 6.6314016147e-02	 1.8613190756e+00	 5.2034185491e+01
 3.3043044570e-02	 1.8622068648e+00	 7.3995038041e+01
 0.0000000000e+00	 1.8625000000e+00	 9.1702638771e+01
 3.4118072329e-01	 1.8436975658e+00	 1.8338653308e+02
 3.0640174533e-01	 1.8497953861e+00	 1.0245548935e+02
 2.7172404193e-01	 1.8552064697e+00	 4.6175865728e+01
 2.3716575372e-01	 1.8599401617e+00	 1.0590300003e+01
 2.0274444155e-01	 1.8640063550e+00	-8.1769536867e+00
 1.6847707106e-01	 1.8674154537e+00	-1.3908843618e+01
 1.3437999951e-01	 1.8701783380e+00	-1.0285295222e+01
 1.0046896479e-01	 1.8723063283e+00	-8.7395150367e-01
 6.6759076657e-02	 1.8738111500e+00	 1.0878118764e+01
 3.3264809970e-02	 1.8747048974e+00	 2.1651750010e+01
 0.0000000000e+00	 1.8750000000e+00	 2.8262057573e+01
 1.8750000000e+00	 0.0000000000e+00	 1.1201208966e+03
 1.8747048974e+00	 3.3264809970e-02	 9.2400254978e+02
 1.8738111500e+00	 6.6759076657e-02	 7.4679276242e+02
 1.8723063283e+00	 1.0046896479e-01	 5.8894793634e+02
 1.8701783380e+00	 1.3437999951e-01	 4.5087431639e+02
 1.8674154537e+00	 1.6847707106e-01	 3.3292413518e+02
 1.8640063550e+00	 2.0274444155e-01	 2.3539181722e+02
 1.8599401617e+00	 2.3716575372e-01	 1.5851026906e+02
 1.8552064697e+00	 2.7172404193e-01	 1.0244728308e+02
 1.8497953861e+00	 3.0640174533e-01	 6.7302083587e+01
 1.8436975658e+00	 3.4118072329e-01	 5.3102044503e+01
 1.8875000000e+00	 0.0000000000e+00	 8.7248838260e+02
 1.8872029301e+00	 3.3486575369e-02	 7.2638560950e+02
 1.8863032243e+00	 6.7204137168e-02	 5.9372043562e+02
 1.8847883705e+00	 1.0113875789e-01	 4.7482947255e+02
 1.8826461935e+00	 1.3527586617e-01	 3.7001355275e+02
 1.8798648900e+00	 1.6960025153e-01	 2.7953492946e+02
 1.8764330640e+00	 2.0409607116e-01	 2.0361451680e+02
 1.8723397628e+00	 2.3874685874e-01	 1.4242918942e+02
 1.8675745128e+00	 2.7353553554e-01	 9.6109161616e+01
 1.8621273554e+00	 3.0844442363e-01	 6.4735466576e+01
 1.8559888829e+00	 3.4345526144e-01	 4.8337556988e+01
 1.9000000000e+00	 0.0000000000e+00	 6.2124731012e+02
 1.8997009627e+00	 3.3708340769e-02	 5.2524447131e+02
 1.8987952986e+00	 6.7649197680e-02	 4.3728433573e+02
 1.8972704127e+00	 1.0180855099e-01	 3.5758512225e+02
 1.8951140491e+00	 1.3617173283e-01	 2.8634352382e+02
 1.8923143264e+00	 1.7072343201e-01	 2.2373295327e+02
 1.8888597731e+00	 2.0544770077e-01	 1.6990181049e+02
 1.8847393639e+00	 2.4032796377e-01	 1.2497178272e+02
 1.8799425559e+00	 2.7534702916e-01	 8.9036190315e+01
 1.8744593246e+00	 3.1048710194e-01	 6.2158390919e+01
 1.8682802000e+00	 3.4572979960e-01	 4.4370255048e+01
 1.9125000000e+00	 0.0000000000e+00	 3.6646843595e+02
 1.9121989954e+00	 3.3930106169e-02	 3.2064823843e+02
 1.9112873730e+00	 6.8094258191e-02	 2.7755042094e+02
 1.9097524549e+00	 1.0247834409e-01	 2.3727617975e+02
 1.9075819047e+00	 1.3706759950e-01	 1.9991931612e+02
 1.9047637627e+00	 1.7184661248e-01	 1.6556551917e+02
 1.9012864821e+00	 2.0679933038e-01	 1.3429165118e+02
 1.8971389650e+00	 2.4190906879e-01	 1.0616503987e+02
 1.8923105990e+00	 2.7715852277e-01	 8.1242782445e+01
 1.8867912938e+00	 3.1252978024e-01	 5.9571066433e+01
 1.8805715171e+00	 3.4800433776e-01	 4.1184512599e+01
 1.9250000000e+00	 0.0000000000e+00	 1.0822067904e+02
 1.9246970280e+00	 3.4151871570e-02	 1.1266421923e+02
 1.9237794473e+00	 6.8539318703e-02	 1.1458293629e+02
 1.9222344971e+00	 1.0314813719e-01	 1.1396234728e+02
 1.9200497603e+00	 1.3796346616e-01	 1.1079458534e+02
 1.9172131991e+00	 1.7296979296e-01	 1.0507871080e+02
 1.9137131911e+00	 2.0815095999e-01	 9.6821005935e+01
 1.9095385661e+00	 2.4349017382e-01	 8.6035250722e+01
 1.9046786422e+00	 2.7897001638e-01	 7.2742976868e+01
 1.8991232631e+00	 3.1457245854e-01	 5.6973697441e+01
 1.8928628342e+00	 3.5027887591e-01	 3.8765109380e+01
 1.9375000000e+00	 0.0000000000e+00	-1.5342882017e+02
 1.9371950607e+00	 3.4373636970e-02	-9.8642014891e+01
 1.9362715216e+00	 6.8984379215e-02	-5.1555531101e+01
 1.9347165393e+00	 1.0381793029e-01	-1.2298213595e+01
 1.9325176159e+00	 1.3885933283e-01	 1.9021602537e+01
 1.9296626354e+00	 1.7409297343e-01	 4.2317422565e+01
 1.9261399002e+00	 2.0950258961e-01	 5.7525887826e+01
 1.9219381671e+00	 2.4507127885e-01	 6.4608026620e+01
 1.9170466853e+00	 2.8078151000e-01	 6.3550450122e+01
 1.9114552323e+00	 3.1661513685e-01	 5.4366482952e+01
 1.9051541513e+00	 3.5255341407e-01	 3.7097217858e+01
 1.9500000000e+00	 0.0000000000e+00	-4.1841464276e+02
 1.9496930933e+00	 3.4595402371e-02	-3.1320657379e+02
 1.9487635960e+00	 6.9429439728e-02	-2.2080399890e+02
 1.9471985815e+00	 1.0448772339e-01	-1.4144883263e+02
 1.9449854715e+00	 1.3975519949e-01	-7.5348701526e+01
 1.9421120718e+00	 1.7521615391e-01	-2.2674602284e+01
 1.9385666092e+00	 2.1085421922e-01	 1.6441386499e+01
 1.9343377682e+00	 2.4665238388e-01	 4.1908322204e+01
 1.9294147284e+00	 2.8259300362e-01	 5.3678528029e+01
 1.9237872016e+00	 3.1865781515e-01	 5.1749616828e+01
 1.9174454684e+00	 3.5482795223e-01	 3.6166390640e+01
 1.9625000000e+00	 0.0000000000e+00	-6.8667303646e+02
 1.9621911260e+00	 3.4817167771e-02	-5.3096719509e+02
 1.9612556703e+00	 6.9874500241e-02	-3.9310303841e+02
 1.9596806237e+00	 1.0515751649e-01	-2.7343428340e+02
 1.9574533271e+00	 1.4065106616e-01	-1.7226669367e+02
 1.9545615082e+00	 1.7633933439e-01	-8.9854734979e+01
 1.9509933182e+00	 2.1220584883e-01	-2.6398302422e+01
 1.9467373693e+00	 2.4823348890e-01	 1.7960456298e+01
 1.9417827716e+00	 2.8440449723e-01	 4.3140196870e+01
 1.9361191708e+00	 3.2070049346e-01	 4.9123287952e+01
 1.9297367855e+00	 3.5710249039e-01	 3.5958548371e+01
 1.9750000000e+00	 0.0000000000e+00	-9.5814186296e+02
 1.9746891586e+00	 3.5038933172e-02	-7.5186319263e+02
 1.9737477446e+00	 7.0319560754e-02	-5.6839472547e+02
 1.9721626658e+00	 1.0582730959e-01	-4.0820073757e+02
 1.9699211826e+00	 1.4154693283e-01	-2.7168399727e+02
 1.9670109445e+00	 1.7746251487e-01	-1.5918142596e+02
 1.9634200273e+00	 2.1355747845e-01	-7.0959849035e+01
 1.9591369704e+00	 2.4981459393e-01	-7.2118679608e+00
 1.9541508147e+00	 2.8621599085e-01	 3.1948114123e+01
 1.9484511400e+00	 3.2274317177e-01	 4.6487680382e+01
 1.9420281026e+00	 3.5937702855e-01	 3.6459968083e+01
 1.9875000000e+00	 0.0000000000e+00	-1.2327605471e+03
 1.9871871913e+00	 3.5260698574e-02	-9.7583540691e+02
 1.9862398189e+00	 7.0764621268e-02	-7.4662259309e+02
 1.9846447080e+00	 1.0649710269e-01	-5.4569572100e+02
 1.9823890382e+00	 1.4244279949e-01	-3.7355345268e+02
 1.9794603809e+00	 1.7858569534e-01	-2.3061417096e+02
 1.9758467363e+00	 2.1490910806e-01	-1.1721076194e+02
 1.9715365715e+00	 2.5139569896e-01	-3.3585543767e+01
 1.9665188578e+00	 2.8802748447e-01	 2.0114618811e+01
 1.9607831093e+00	 3.2478585007e-01	 4.3842973504e+01
 1.9543194197e+00	 3.6165156671e-01	 3.7657271989e+01
 2.0000000000e+00	 0.0000000000e+00	-1.5104700282e+03
 1.9996852239e+00	 3.5482463975e-02	-1.2028261574e+03
 1.9987318933e+00	 7.1209681781e-02	-9.2773158593e+02
 1.9971267502e+00	 1.0716689579e-01	-6.8586807138e+02
 1.9948568938e+00	 1.4333866616e-01	-4.7782907926e+02
 1.9919098172e+00	 1.7970887582e-01	-3.0411347829e+02
 1.9882734453e+00	 2.1626073768e-01	-1.6511936204e+02
 1.9839361725e+00	 2.5297680400e-01	-6.1138042007e+01
 1.9788869010e+00	 2.8983897809e-01	 7.6517414461e+00
 1.9731150785e+00	 3.2682852838e-01	 4.1189342179e+01
 1.9666107368e+00	 3.6392610487e-01	 3.9537416698e+01
 1.8436975658e+00	 3.4118072329e-01	 5.3102044503e+01
 1.8369042460e+00	 3.7604227311e-01	 6.2933531737e+01
 1.8294072815e+00	 4.1096715009e-01	 6.9464357142e+01
 1.8211991790e+00	 4.4593558987e-01	 7.2718166515e+01
 1.8122731307e+00	 4.8092733318e-01	 7.2731445731e+01
 1.8026230466e+00	 5.1592165286e-01	 6.9553846893e+01
 1.7922435865e+00	 5.5089738324e-01	 6.3248460935e+01
 1.7811301897e+00	 5.8583295169e-01	 5.3892032496e+01
 1.7692791045e+00	 6.2070641247e-01	 4.1575113146e+01
 1.7566874145e+00	 6.5549548273e-01	 2.6402149328e+01
 1.7433530645e+00	 6.9017758046e-01	 8.4915017723e+00
 1.8559888829e+00	 3.4345526144e-01	 4.8337556988e+01
 1.8491502743e+00	 3.7854922160e-01	 5.6259921102e+01
 1.8416033300e+00	 4.1370693109e-01	 6.1874531977e+01
 1.8333405069e+00	 4.4890849380e-01	 6.5193754828e+01
 1.8243549516e+00	 4.8413351540e-01	 6.6238958823e+01
 1.8146405336e+00	 5.1936113055e-01	 6.5040763929e+01
 1.8041918770e+00	 5.5457003246e-01	 6.1639250728e+01
 1.7930043910e+00	 5.8973850470e-01	 5.6084130189e+01
 1.7810742985e+00	 6.2484445522e-01	 4.8434870499e+01
 1.7683986639e+00	 6.5986545261e-01	 3.8760778338e+01
 1.7549754183e+00	 6.9477876433e-01	 2.7141032157e+01
 1.8682802000e+00	 3.4572979960e-01	 4.4370255048e+01
 1.8613963026e+00	 3.8105617009e-01	 5.0222351798e+01
 1.8537993786e+00	 4.1644671209e-01	 5.4745955173e+01
 1.8454818348e+00	 4.5188139773e-01	 5.7942213990e+01
 1.8364367724e+00	 4.8733969762e-01	 5.9817478781e+01
 1.8266580206e+00	 5.2280060824e-01	 6.0383470090e+01
 1.8161401676e+00	 5.5824268168e-01	 5.9657426151e+01
 1.8048785923e+00	 5.9364405771e-01	 5.7662228033e+01
 1.7928694925e+00	 6.2898249797e-01	 5.4426500460e+01
 1.7801099133e+00	 6.6423542250e-01	 4.9984686589e+01
 1.7665977720e+00	 6.9937994820e-01	 4.4377095204e+01
 1.8805715171e+00	 3.4800433776e-01	 4.1184512599e+01
 1.8736423309e+00	 3.8356311858e-01	 4.4808357663e+01
 1.8659954271e+00	 4.1918649309e-01	 4.8069588073e+01
 1.8576231626e+00	 4.5485430167e-01	 5.0958199186e+01
 1.8485185933e+00	 4.9054587984e-01	 5.3465619040e+01
 1.8386755075e+00	 5.2624008592e-01	 5.5584798873e+01
 1.8280884582e+00	 5.6191533091e-01	 5.7310299274e+01
 1.8167527935e+00	 5.9754961072e-01	 5.8638371201e+01
 1.8046646866e+00	 6.3312054072e-01	 5.9567031120e+01
 1.7918211628e+00	 6.6860539238e-01	 6.0096129496e+01
 1.7782201258e+00	 7.0398113207e-01	 6.0227411929e+01
 1.8928628342e+00	 3.5027887591e-01	 3.8765109380e+01
 1.8858883592e+00	 3.8607006707e-01	 4.0005796267e+01
 1.8781914757e+00	 4.2192627409e-01	 4.1836626724e+01
 1.8697644905e+00	 4.5782720560e-01	 4.4236504347e+01
 1.8606004142e+00	 4.9375206206e-01	 4.7182028962e+01
 1.8506929945e+00	 5.2967956361e-01	 5.0647510080e+01
 1.8400367488e+00	 5.6558798013e-01	 5.4604992141e+01
 1.8286269948e+00	 6.0145516373e-01	 5.9024291889e+01
 1.8164598806e+00	 6.3725858347e-01	 6.3873048161e+01
 1.8035324122e+00	 6.7297536226e-01	 6.9116784284e+01
 1.7898424795e+00	 7.0858231593e-01	 7.4718983186e+01
 1.9051541513e+00	 3.5255341407e-01	 3.7097217858e+01
 1.8981343875e+00	 3.8857701556e-01	 3.5802838474e+01
 1.8903875242e+00	 4.2466605510e-01	 3.6038494297e+01
 1.8819058183e+00	 4.6080010953e-01	 3.7772057677e+01
 1.8726822351e+00	 4.9695824429e-01	 4.0965392676e+01
 1.8627104815e+00	 5.3311904130e-01	 4.5574292194e+01
 1.8519850393e+00	 5.6926062935e-01	 5.1548442896e+01
 1.8405011961e+00	 6.0536071674e-01	 5.8831419415e+01
 1.8282550746e+00	 6.4139662622e-01	 6.7360709126e+01
 1.8152436616e+00	 6.7734533215e-01	 7.7067768636e+01
 1.8014648333e+00	 7.1318349980e-01	 8.7878112899e+01
 1.9174454684e+00	 3.5482795223e-01	 3.6166390640e+01
 1.9103804158e+00	 3.9108396405e-01	 3.2187958399e+01
 1.9025835728e+00	 4.2740583610e-01	 3.0666833816e+01
 1.8940471462e+00	 4.6377301347e-01	 3.1559917347e+01
 1.8847640559e+00	 5.0016442651e-01	 3.4814427966e+01
 1.8747279685e+00	 5.3655851898e-01	 4.0367764669e+01
 1.8639333299e+00	 5.7293327857e-01	 4.8147411678e+01
 1.8523753973e+00	 6.0926626975e-01	 5.8070889924e+01
 1.8400502687e+00	 6.4553466897e-01	 7.0045757143e+01
 1.8269549110e+00	 6.8171530203e-01	 8.3969658630e+01
 1.8130871871e+00	 7.1778468367e-01	 9.9730430396e+01
 1.9297367855e+00	 3.5710249039e-01	 3.5958548371e+01
 1.9226264441e+00	 3.9359091254e-01	 2.9149923748e+01
 1.9147796213e+00	 4.3014561710e-01	 2.5713501151e+01
 1.9061884741e+00	 4.6674591740e-01	 2.5595267357e+01
 1.8968458768e+00	 5.0337060873e-01	 2.8727885197e+01
 1.8867454554e+00	 5.3999799667e-01	 3.5030480128e+01
 1.8758816205e+00	 5.7660592779e-01	 4.4408486291e+01
 1.8642495986e+00	 6.1317182276e-01	 5.6753555731e+01
 1.8518454627e+00	 6.4967271171e-01	 7.1943534125e+01
 1.8386661605e+00	 6.8608527191e-01	 8.9842505987e+01
 1.8247095408e+00	 7.2238586753e-01	 1.1030091190e+02
 1.9420281026e+00	 3.5937702855e-01	 3.6459968083e+01
 1.9348724724e+00	 3.9609786103e-01	 2.6677786531e+01
 1.9269756698e+00	 4.3288539810e-01	 2.1170558284e+01
 1.9183298019e+00	 4.6971882134e-01	 1.9873413552e+01
 1.9089276977e+00	 5.0657679095e-01	 2.2704546283e+01
 1.8987629424e+00	 5.4343747436e-01	 2.9564926474e+01
 1.8878299111e+00	 5.8027857701e-01	 4.0338087657e+01
 1.8761237998e+00	 6.1707737577e-01	 5.4889994297e+01
 1.8636406567e+00	 6.5381075446e-01	 7.3068993465e+01
 1.8503774099e+00	 6.9045524179e-01	 9.4705854666e+01
 1.8363318946e+00	 7.2698705140e-01	 1.1961390119e+02
 1.9543194197e+00	 3.6165156671e-01	 3.7657271989e+01
 1.9471185007e+00	 3.9860480952e-01	 2.4760874119e+01
 1.9391717184e+00	 4.3562517911e-01	 1.7030266828e+01
 1.9304711298e+00	 4.7269172527e-01	 1.4389779797e+01
 1.9210095185e+00	 5.0978297318e-01	 1.6743223700e+01
 1.9107804294e+00	 5.4687695204e-01	 2.3973528931e+01
 1.8997782016e+00	 5.8395122623e-01	 3.5942475067e+01
 1.8879980011e+00	 6.2098292878e-01	 5.2490516877e+01
 1.8754358507e+00	 6.5794879721e-01	 7.3436712251e+01
 1.8620886593e+00	 6.9482521167e-01	 9.8578756831e+01
 1.8479542483e+00	 7.3158823526e-01	 1.2769312949e+02
 1.9666107368e+00	 3.6392610487e-01	 3.9537416698e+01
 1.9593645290e+00	 4.0111175801e-01	 2.3388780641e+01
 1.9513677669e+00	 4.3836496011e-01	 1.3285081787e+01
 1.9426124577e+00	 4.7566462921e-01	 9.1399042799e+00
 1.9330913394e+00	 5.1298915540e-01	 1.0842759525e+01
 1.9227979164e+00	 5.5031642973e-01	 1.8258652000e+01
 1.9117264922e+00	 5.8762387546e-01	 3.1227751228e+01
 1.8998722024e+00	 6.2488848179e-01	 4.9565176834e+01
 1.8872310448e+00	 6.6208683996e-01	 7.3060903034e+01
 1.8737999088e+00	 6.9919518155e-01	 1.0147978822e+02
 1.8595766021e+00	 7.3618941913e-01	 1.3456173462e+02
 1.7433530645e+00	 6.9017758046e-01	 8.4915017723e+00
 1.7292748837e+00	 7.2472986455e-01	-1.4693448984e+01
 1.7144526070e+00	 7.5912927655e-01	-3.4209161552e+01
 1.6988868935e+00	 7.9335258431e-01	-5.0151469703e+01
 1.6825793438e+00	 8.2737642706e-01	-6.2631455793e+01
 1.6655325128e+00	 8.6117736201e-01	-7.1775333882e+01
 1.6477499220e+00	 8.9473191212e-01	-7.7724250055e+01
 1.6292360671e+00	 9.2801661506e-01	-8.0633998911e+01
 1.6099964235e+00	 9.6100807296e-01	-8.0674655810e+01
 1.5900374492e+00	 9.9368300285e-01	-7.8030125183e+01
 1.5693665835e+00	 1.0260182876e+00	-7.2897605912e+01
 1.7549754183e+00	 6.9477876433e-01	 2.7141032157e+01
 1.7408033830e+00	 7.2956139697e-01	 8.7996615595e+00
 1.7258822910e+00	 7.6419013839e-01	-6.6770808277e+00
 1.7102128062e+00	 7.9864160154e-01	-1.9361260550e+01
 1.6937965394e+00	 8.3289226991e-01	-2.9336877033e+01
 1.6766360629e+00	 8.6691854442e-01	-3.6699785461e+01
 1.6587349215e+00	 9.0069679153e-01	-4.1557554087e+01
 1.6400976408e+00	 9.3420339250e-01	-4.4029256050e+01
 1.6207297330e+00	 9.6741479345e-01	-4.4245195316e+01
 1.6006376989e+00	 1.0003075562e+00	-4.2346566857e+01
 1.5798290274e+00	 1.0328584095e+00	-3.8485051775e+01
 1.7665977720e+00	 6.9937994820e-01	 4.4377095204e+01
 1.7523318822e+00	 7.3439292940e-01	 3.1068007376e+01
 1.7373119751e+00	 7.6925100023e-01	 1.9829480882e+01
 1.7215387188e+00	 8.0393061877e-01	 1.0612976017e+01
 1.7050137350e+00	 8.3840811275e-01	 3.3613039812e+00
 1.6877396130e+00	 8.7265972683e-01	-1.9913334680e+00
 1.6697199210e+00	 9.0666167094e-01	-5.5192578440e+00
 1.6509592146e+00	 9.4039016993e-01	-7.3051804838e+00
 1.6314630425e+00	 9.7382151393e-01	-7.4400214118e+00
 1.6112379485e+00	 1.0069321096e+00	-6.0226804956e+00
 1.5902914713e+00	 1.0396985314e+00	-3.1597612704e+00
 1.7782201258e+00	 7.0398113207e-01	 6.0227411929e+01
 1.7638603814e+00	 7.3922446183e-01	 5.2135609395e+01
 1.7487416591e+00	 7.7431186207e-01	 4.5330637672e+01
 1.7328646314e+00	 8.0921963599e-01	 3.9787245272e+01
 1.7162309306e+00	 8.4392395560e-01	 3.5474787049e+01
 1.6988431631e+00	 8.7840090924e-01	 3.2357225695e+01
 1.6807049204e+00	 9.1262655035e-01	 3.0393161835e+01
 1.6618207884e+00	 9.4657694736e-01	 2.9535893335e+01
 1.6421963520e+00	 9.8022823441e-01	 2.9733504255e+01
 1.6218381982e+00	 1.0135566629e+00	 3.0928983601e+01
 1.6007539152e+00	 1.0465386534e+00	 3.3060373832e+01
 1.7898424795e+00	 7.0858231593e-01	 7.4718983186e+01
 1.7753888806e+00	 7.4405599426e-01	 7.2025864482e+01
 1.7601713431e+00	 7.7937272391e-01	 6.9845981043e+01
 1.7441905440e+00	 8.1450865322e-01	 6.8177136607e+01
 1.7274481262e+00	 8.4943979844e-01	 6.7014967913e+01
 1.7099467131e+00	 8.8414209165e-01	 6.6352908348e+01
 1.6916899199e+00	 9.1859142976e-01	 6.6182162398e+01
 1.6726823622e+00	 9.5276372479e-01	 6.6491691407e+01
 1.6529296615e+00	 9.8663495490e-01	 6.7268211060e+01
 1.6324384478e+00	 1.0201812163e+00	 6.8496200924e+01
 1.6112163591e+00	 1.0533787753e+00	 7.0157926287e+01
 1.8014648333e+00	 7.1318349980e-01	 8.7878112899e+01
 1.7869173798e+00	 7.4888752668e-01	 9.0761565568e+01
 1.7716010272e+00	 7.8443358575e-01	 9.3394596761e+01
 1.7555164566e+00	 8.1979767044e-01	 9.5797836952e+01
 1.7386653219e+00	 8.5495564128e-01	 9.7992948071e+01
 1.7210502632e+00	 8.8988327406e-01	 1.0000254958e+02
 1.7026749194e+00	 9.2455630917e-01	 1.0185013770e+02
 1.6835439359e+00	 9.5895050222e-01	 1.0355999824e+02
 1.6636629710e+00	 9.9304167538e-01	 1.0515711324e+02
 1.6430386975e+00	 1.0268057696e+00	 1.0666706225e+02
 1.6216788030e+00	 1.0602188972e+00	 1.0811591839e+02
 1.8130871871e+00	 7.1778468367e-01	 9.9730430396e+01
 1.7984458791e+00	 7.5371905911e-01	 1.0836492101e+02
 1.7830307112e+00	 7.8949444759e-01	 1.1599508106e+02
 1.7668423693e+00	 8.2508668766e-01	 1.2266414368e+02
 1.7498825175e+00	 8.6047148412e-01	 1.2841954421e+02
 1.7321538133e+00	 8.9562445646e-01	 1.3331280904e+02
 1.7136599189e+00	 9.3052118858e-01	 1.3739942006e+02
 1.6944055097e+00	 9.6513727965e-01	 1.4073865496e+02
 1.6743962804e+00	 9.9944839586e-01	 1.4339340398e+02
 1.6536389472e+00	 1.0334303230e+00	 1.4542996352e+02
 1.6321412469e+00	 1.0670590191e+00	 1.4691780757e+02
 1.8247095408e+00	 7.2238586753e-01	 1.1030091190e+02
 1.8099743783e+00	 7.5855059154e-01	 1.2485757322e+02
 1.7944603953e+00	 7.9455530943e-01	 1.3766555626e+02
 1.7781682819e+00	 8.3037570489e-01	 1.4879047699e+02
 1.7610997131e+00	 8.6598732697e-01	 1.5830529726e+02
 1.7432573634e+00	 9.0136563887e-01	 1.6629017657e+02
 1.7246449183e+00	 9.3648606799e-01	 1.7283228217e+02
 1.7052670835e+00	 9.7132405707e-01	 1.7802555754e+02
 1.6851295899e+00	 1.0058551163e+00	 1.8197044970e+02
 1.6642391968e+00	 1.0400548763e+00	 1.8477359614e+02
 1.6426036908e+00	 1.0738991410e+00	 1.8654747253e+02
 1.8363318946e+00	 7.2698705140e-01	 1.1961390119e+02
 1.8215028775e+00	 7.6338212396e-01	 1.4026061653e+02
 1.8058900793e+00	 7.9961617127e-01	 1.5842368570e+02
 1.7894941945e+00	 8.3566472211e-01	 1.7419089189e+02
 1.7723169087e+00	 8.7150316981e-01	 1.8766048116e+02
 1.7543609135e+00	 9.0710682128e-01	 1.9894097753e+02
 1.7356299178e+00	 9.4245094740e-01	 2.0815093905e+02
 1.7161286573e+00	 9.7751083450e-01	 2.1541865503e+02
 1.6958628994e+00	 1.0122618368e+00	 2.2088178458e+02
 1.6748394465e+00	 1.0466794296e+00	 2.2468693765e+02
 1.6530661346e+00	 1.0807392629e+00	 2.2698919992e+02
 1.8479542483e+00	 7.3158823526e-01	 1.2769312949e+02
 1.8330313767e+00	 7.6821365638e-01	 1.5459461450e+02
 1.8173197634e+00	 8.0467703310e-01	 1.7828668827e+02
 1.8008201071e+00	 8.4095373933e-01	 1.9887908964e+02
 1.7835341043e+00	 8.7701901264e-01	 2.1649511122e+02
 1.7654644635e+00	 9.1284800368e-01	 2.3127137798e+02
 1.7466149173e+00	 9.4841582680e-01	 2.4335754982e+02
 1.7269902311e+00	 9.8369761193e-01	 2.5291594792e+02
 1.7065962089e+00	 1.0186685573e+00	 2.6012110529e+02
 1.6854396961e+00	 1.0533039830e+00	 2.6515924267e+02
 1.6635285785e+00	 1.0875793848e+00	 2.6822767153e+02
 1.8595766021e+00	 7.3618941913e-01	 1.3456173462e+02
 1.8445598760e+00	 7.7304518881e-01	 1.6787961645e+02
 1.8287494474e+00	 8.0973789494e-01	 1.9727135221e+02
 1.8121460197e+00	 8.4624275655e-01	 2.2286842881e+02
 1.7947513000e+00	 8.8253485548e-01	 2.4481895220e+02
 1.7765680136e+00	 9.1858918609e-01	 2.6328738970e+02
 1.7575999168e+00	 9.5438070621e-01	 2.7845421946e+02
 1.7378518048e+00	 9.8988438935e-01	 2.9051548651e+02
 1.7173295184e+00	 1.0250752778e+00	 2.9968226591e+02
 1.6960399458e+00	 1.0599285363e+00	 3.0618003430e+02
 1.6739910224e+00	 1.0944195068e+00	 3.1024795189e+02
 1.5693665835e+00	 1.0260182876e+00	-7.2897605912e+01
 1.5479922437e+00	 1.0579910271e+00	-6.6321403776e+01
 1.5259238176e+00	 1.0895785896e+00	-5.8919182502e+01
 1.5031716538e+00	 1.1207586623e+00	-5.0673059933e+01
 1.4797470481e+00	 1.1515093025e+00	-4.1569029121e+01
 1.4556622267e+00	 1.1818089870e+00	-3.1597076592e+01
 1.4309303270e+00	 1.2116366614e+00	-2.0751279766e+01
 1.4055653745e+00	 1.2409717878e+00	-9.0298825700e+00
 1.3795822569e+00	 1.2697943914e+00	 3.5646515251e+00
 1.3529966958e+00	 1.2980851056e+00	 1.7025609632e+01
 1.3258252147e+00	 1.3258252147e+00	 3.1342023144e+01
 1.5798290274e+00	 1.0328584095e+00	-3.8485051775e+01
 1.5583121920e+00	 1.0650443007e+00	-3.2508569351e+01
 1.5360966431e+00	 1.0968424469e+00	-2.6228002012e+01
 1.5131927982e+00	 1.1282303867e+00	-1.9624613321e+01
 1.4896120284e+00	 1.1591860312e+00	-1.2681444709e+01
 1.4653666416e+00	 1.1896877136e+00	-5.3834212404e+00
 1.4404698626e+00	 1.2197142391e+00	 2.2825522277e+00
 1.4149358103e+00	 1.2492449330e+00	 1.0327505316e+01
 1.3887794720e+00	 1.2782596873e+00	 1.8760327530e+01
 1.3620166737e+00	 1.3067390063e+00	 2.7587705447e+01
 1.3346640495e+00	 1.3346640495e+00	 3.6814072203e+01
 1.5902914713e+00	 1.0396985314e+00	-3.1597612704e+00
 1.5686321403e+00	 1.0720975742e+00	 2.2243317752e+00
 1.5462694685e+00	 1.1041063041e+00	 7.3979659476e+00
 1.5232139425e+00	 1.1357021112e+00	 1.2380744132e+01
 1.4994770087e+00	 1.1668627599e+00	 1.7192569824e+01
 1.4750710564e+00	 1.1975664402e+00	 2.1853553699e+01
 1.4500093981e+00	 1.2277918169e+00	 2.6383918657e+01
 1.4243062462e+00	 1.2575180783e+00	 3.0803904006e+01
 1.3979766870e+00	 1.2867249833e+00	 3.5133669434e+01
 1.3710366517e+00	 1.3153929070e+00	 3.9393199462e+01
 1.3435028843e+00	 1.3435028843e+00	 4.3602209037e+01
 1.6007539152e+00	 1.0465386534e+00	 3.3060373832e+01
 1.5789520886e+00	 1.0791508477e+00	 3.7859263968e+01
 1.5564422939e+00	 1.1113701614e+00	 4.1940396966e+01
 1.5332350869e+00	 1.1431738356e+00	 4.5324254097e+01
 1.5093419890e+00	 1.1745394886e+00	 4.8033677213e+01
 1.4847754712e+00	 1.2054451667e+00	 5.0093787516e+01
 1.4595489336e+00	 1.2358693946e+00	 5.1531891743e+01
 1.4336766820e+00	 1.2657912235e+00	 5.2377376279e+01
 1.4071739020e+00	 1.2951902792e+00	 5.2661589825e+01
 1.3800566297e+00	 1.3240468077e+00	 5.2417715321e+01
 1.3523417190e+00	 1.3523417190e+00	 5.1680631940e+01
 1.6112163591e+00	 1.0533787753e+00	 7.0157926287e+01
 1.5892720368e+00	 1.0862041212e+00	 7.4378659849e+01
 1.5666151194e+00	 1.1186340187e+00	 7.7381442388e+01
 1.5432562312e+00	 1.1506455600e+00	 7.9187645260e+01
 1.5192069693e+00	 1.1822162172e+00	 7.9823042243e+01
 1.4944798861e+00	 1.2133238933e+00	 7.9317740344e+01
 1.4690884691e+00	 1.2439469723e+00	 7.7706087066e+01
 1.4430471178e+00	 1.2740643688e+00	 7.5026554489e+01
 1.4163711171e+00	 1.3036555752e+00	 7.1321600738e+01
 1.3890766076e+00	 1.3327007084e+00	 6.6637509587e+01
 1.3611805538e+00	 1.3611805538e+00	 6.1024209147e+01
 1.6216788030e+00	 1.0602188972e+00	 1.0811591839e+02
 1.5995919851e+00	 1.0932573947e+00	 1.1176540519e+02
 1.5767879448e+00	 1.1258978759e+00	 1.1370371396e+02
 1.5532773756e+00	 1.1581172844e+00	 1.1395311762e+02
 1.5290719497e+00	 1.1898929459e+00	 1.1254231556e+02
 1.5041843009e+00	 1.2212026199e+00	 1.0950637635e+02
 1.4786280046e+00	 1.2520245501e+00	 1.0488664604e+02
 1.4524175536e+00	 1.2823375140e+00	 9.8730622190e+01
 1.4255683321e+00	 1.3121208711e+00	 9.1091794318e+01
 1.3980965856e+00	 1.3413546091e+00	 8.2029451332e+01
 1.3700193886e+00	 1.3700193886e+00	 7.1608457223e+01
 1.6321412469e+00	 1.0670590191e+00	 1.4691780757e+02
 1.6099119334e+00	 1.1003106682e+00	 1.5000282440e+02
 1.5869607703e+00	 1.1331617332e+00	 1.5089026909e+02
 1.5632985200e+00	 1.1655890088e+00	 1.4960332738e+02
 1.5389369300e+00	 1.1975696746e+00	 1.4617361810e+02
 1.5138887158e+00	 1.2290813465e+00	 1.4064114760e+02
 1.4881675401e+00	 1.2601021278e+00	 1.3305421904e+02
 1.4617879895e+00	 1.2906106593e+00	 1.2346929647e+02
 1.4347655472e+00	 1.3205861671e+00	 1.1195082423e+02
 1.4071165636e+00	 1.3500085098e+00	 9.8571002503e+01
 1.3788582233e+00	 1.3788582233e+00	 8.3409520291e+01
 1.6426036908e+00	 1.0738991410e+00	 1.8654747253e+02
 1.6202318817e+00	 1.1073639417e+00	 1.8907466654e+02
 1.5971335957e+00	 1.1404255904e+00	 1.8892459664e+02
 1.5733196643e+00	 1.1730607332e+00	 1.8612137243e+02
 1.5488019103e+00	 1.2052464033e+00	 1.8069952610e+02
 1.5235931306e+00	 1.2369600731e+00	 1.7270397849e+02
 1.4977070756e+00	 1.2681797056e+00	 1.6218994925e+02
 1.4711584253e+00	 1.2988838045e+00	 1.4922281098e+02
 1.4439627622e+00	 1.3290514630e+00	 1.3387788777e+02
 1.4161365416e+00	 1.3586624105e+00	 1.1624019905e+02
 1.3876970581e+00	 1.3876970581e+00	 9.6404150043e+01
 1.6530661346e+00	 1.0807392629e+00	 2.2698919992e+02
 1.6305518300e+00	 1.1144172153e+00	 2.2896509191e+02
 1.6073064212e+00	 1.1476894477e+00	 2.2779060327e+02
 1.5833408087e+00	 1.1805324577e+00	 2.2349077835e+02
 1.5586668906e+00	 1.2129231320e+00	 2.1610305672e+02
 1.5332975455e+00	 1.2448387997e+00	 2.0567725085e+02
 1.5072466112e+00	 1.2762572833e+00	 1.9227545701e+02
 1.4805288611e+00	 1.3071569498e+00	 1.7597189955e+02
 1.4531599773e+00	 1.3375167590e+00	 1.5685270868e+02
 1.4251565195e+00	 1.3673163112e+00	 1.3501563275e+02
 1.3965358929e+00	 1.3965358929e+00	 1.1056968652e+02
 1.6635285785e+00	 1.0875793848e+00	 2.6822767153e+02
 1.6408717783e+00	 1.1214704888e+00	 2.6965865908e+02
 1.6174792466e+00	 1.1549533050e+00	 2.6747260034e+02
 1.5933619530e+00	 1.1880041821e+00	 2.6169548497e+02
 1.5685318710e+00	 1.2205998607e+00	 2.5236765415e+02
 1.5430019603e+00	 1.2527175262e+00	 2.3954378949e+02
 1.5167861467e+00	 1.2843348611e+00	 2.2329282482e+02
 1.4898992970e+00	 1.3154300950e+00	 2.0369778050e+02
 1.4623571923e+00	 1.3459820549e+00	 1.8085552059e+02
 1.4341764975e+00	 1.3759702119e+00	 1.5487643374e+02
 1.4053747276e+00	 1.4053747276e+00	 1.2588403960e+02
 1.6739910224e+00	 1.0944195068e+00	 3.1024795189e+02
 1.6511917266e+00	 1.1285237623e+00	 3.1114031250e+02
 1.6276520721e+00	 1.1622171622e+00	 3.0795529121e+02
 1.6033830974e+00	 1.1954759065e+00	 3.0071983346e+02
 1.5783968513e+00	 1.2282765894e+00	 2.8947717629e+02
 1.5527063752e+00	 1.2605962528e+00	 2.7428684844e+02
 1.5263256822e+00	 1.2924124388e+00	 2.5522458294e+02
 1.4992697328e+00	 1.3237032403e+00	 2.3238214148e+02
 1.4715544074e+00	 1.3544473509e+00	 2.0586705106e+02
 1.4431964755e+00	 1.3846241126e+00	 1.7580225371e+02
 1.4142135624e+00	 1.4142135624e+00	 1.4232567121e+02
 1.3258252147e+00	 1.3258252147e+00	 3.1342023144e+01
 1.2980851056e+00	 1.3529966958e+00	 4.8416220045e+01
 1.2697943914e+00	 1.3795822569e+00	 5.8693557629e+01
 1.2409717878e+00	 1.4055653745e+00	 6.2547810093e+01
 1.2116366614e+00	 1.4309303270e+00	 6.0376786666e+01
 1.1818089870e+00	 1.4556622267e+00	 5.2600538566e+01
 1.1515093025e+00	 1.4797470481e+00	 3.9659455296e+01
 1.1207586623e+00	 1.5031716538e+00	 2.2012263765e+01
 1.0895785896e+00	 1.5259238176e+00	 1.3394440576e-01
 1.0579910271e+00	 1.5479922437e+00	-2.5486420949e+01
 1.0260182876e+00	 1.5693665835e+00	-5.4347854305e+01
 1.3346640495e+00	 1.3346640495e+00	 3.6814072203e+01
 1.3067390063e+00	 1.3620166737e+00	 5.1189430041e+01
 1.2782596873e+00	 1.3887794720e+00	 6.0765480989e+01
 1.2492449330e+00	 1.4149358103e+00	 6.5824839075e+01
 1.2197142391e+00	 1.4404698626e+00	 6.6667204348e+01
 1.1896877136e+00	 1.4653666416e+00	 6.3608012137e+01
 1.1591860312e+00	 1.4896120284e+00	 5.6977004193e+01
 1.1282303867e+00	 1.5131927982e+00	 4.7116731793e+01
 1.0968424469e+00	 1.5360966431e+00	 3.4381001406e+01
 1.0650443007e+00	 1.5583121920e+00	 1.9133273885e+01
 1.0328584095e+00	 1.5798290274e+00	 1.7450284103e+00
 1.3435028843e+00	 1.3435028843e+00	 4.3602209037e+01
 1.3153929070e+00	 1.3710366517e+00	 5.4833835303e+01
 1.2867249833e+00	 1.3979766870e+00	 6.3238225628e+01
 1.2575180783e+00	 1.4243062462e+00	 6.9007765285e+01
 1.2277918169e+00	 1.4500093981e+00	 7.2345037736e+01
 1.1975664402e+00	 1.4750710564e+00	 7.3461912479e+01
 1.1668627599e+00	 1.4994770087e+00	 7.2578587035e+01
 1.1357021112e+00	 1.5232139425e+00	 6.9922589828e+01
 1.1041063041e+00	 1.5462694685e+00	 6.5727750966e+01
 1.0720975742e+00	 1.5686321403e+00	 6.0233148150e+01
 1.0396985314e+00	 1.5902914713e+00	 5.3682035056e+01
 1.3523417190e+00	 1.3523417190e+00	 5.1680631940e+01
 1.3240468077e+00	 1.3800566297e+00	 5.9332357457e+01
 1.2951902792e+00	 1.4071739020e+00	 6.6103936164e+01
 1.2657912235e+00	 1.4336766820e+00	 7.2098437722e+01
 1.2358693946e+00	 1.4595489336e+00	 7.7422302144e+01
 1.2054451667e+00	 1.4847754712e+00	 8.2184862562e+01
 1.1745394886e+00	 1.5093419890e+00	 8.6497854157e+01
 1.1431738356e+00	 1.5332350869e+00	 9.0474912674e+01
 1.1113701614e+00	 1.5564422939e+00	 9.4231065980e+01
 1.0791508477e+00	 1.5789520886e+00	 9.7882222186e+01
 1.0465386534e+00	 1.6007539152e+00	 1.0154465780e+02
 1.3611805538e+00	 1.3611805538e+00	 6.1024209147e+01
 1.3327007084e+00	 1.3890766076e+00	 6.4668361491e+01
 1.3036555752e+00	 1.4163711171e+00	 6.9354961014e+01
 1.2740643688e+00	 1.4430471178e+00	 7.5098657123e+01
 1.2439469723e+00	 1.4690884691e+00	 8.1910700560e+01
 1.2133238933e+00	 1.4944798861e+00	 8.9798897506e+01
 1.1822162172e+00	 1.5192069693e+00	 9.8767581617e+01
 1.1506455600e+00	 1.5432562312e+00	 1.0881760412e+02
 1.1186340187e+00	 1.5666151194e+00	 1.1994634188e+02
 1.0862041212e+00	 1.5892720368e+00	 1.3214772335e+02
 1.0533787753e+00	 1.6112163591e+00	 1.4541227189e+02
 1.3700193886e+00	 1.3700193886e+00	 7.1608457223e+01
 1.3413546091e+00	 1.3980965856e+00	 7.0825641453e+01
 1.3121208711e+00	 1.4255683321e+00	 7.2983845820e+01
 1.2823375140e+00	 1.4524175536e+00	 7.8010177516e+01
 1.2520245501e+00	 1.4786280046e+00	 8.5821633723e+01
 1.2212026199e+00	 1.5041843009e+00	 9.6325483545e+01
 1.1898929459e+00	 1.5290719497e+00	 1.0941969940e+02
 1.1581172844e+00	 1.5532773756e+00	 1.2499343470e+02
 1.1258978759e+00	 1.5767879448e+00	 1.4292754430e+02
 1.0932573947e+00	 1.5995919851e+00	 1.6309514386e+02
 1.0602188972e+00	 1.6216788030e+00	 1.8536220394e+02
 1.3788582233e+00	 1.3788582233e+00	 8.3409520291e+01
 1.3500085098e+00	 1.4071165636e+00	 7.7788406697e+01
 1.3205861671e+00	 1.4347655472e+00	 7.6983327134e+01
 1.2906106593e+00	 1.4617879895e+00	 8.0834707724e+01
 1.2601021278e+00	 1.4881675401e+00	 8.9166209810e+01
 1.2290813465e+00	 1.5138887158e+00	 1.0178553626e+02
 1.1975696746e+00	 1.5389369300e+00	 1.1848531854e+02
 1.1655890088e+00	 1.5632985200e+00	 1.3904407805e+02
 1.1331617332e+00	 1.5869607703e+00	 1.6322725491e+02
 1.1003106682e+00	 1.6099119334e+00	 1.9078829642e+02
 1.0670590191e+00	 1.6321412469e+00	 2.2146979759e+02
 1.3876970581e+00	 1.3876970581e+00	 9.6404150043e+01
 1.3586624105e+00	 1.4161365416e+00	 8.5541268665e+01
 1.3290514630e+00	 1.4439627622e+00	 8.1346326337e+01
 1.2988838045e+00	 1.4711584253e+00	 8.3573912807e+01
 1.2681797056e+00	 1.4977070756e+00	 9.1955253761e+01
 1.2369600731e+00	 1.5235931306e+00	 1.0619943813e+02
 1.2052464033e+00	 1.5488019103e+00	 1.2599475719e+02
 1.1730607332e+00	 1.5733196643e+00	 1.5101014582e+02
 1.1404255904e+00	 1.5971335957e+00	 1.8089671547e+02
 1.1073639417e+00	 1.6202318817e+00	 2.1528936768e+02
 1.0738991410e+00	 1.6426036908e+00	 2.5380847667e+02
 1.3965358929e+00	 1.3965358929e+00	 1.1056968652e+02
 1.3673163112e+00	 1.4251565195e+00	 9.4069228160e+01
 1.3375167590e+00	 1.4531599773e+00	 8.6065943792e+01
 1.3071569498e+00	 1.4805288611e+00	 8.6229415444e+01
 1.2762572833e+00	 1.5072466112e+00	 9.4199316239e+01
 1.2448387997e+00	 1.5332975455e+00	 1.0958705538e+02
 1.2129231320e+00	 1.5586668906e+00	 1.3197756575e+02
 1.1805324577e+00	 1.5833408087e+00	 1.6093122129e+02
 1.1476894477e+00	 1.6073064212e+00	 1.9598587026e+02
 1.1144172153e+00	 1.6305518300e+00	 2.3665896972e+02
 1.0807392629e+00	 1.6530661346e+00	 2.8244980593e+02
 1.4053747276e+00	 1.4053747276e+00	 1.2588403960e+02
 1.3759702119e+00	 1.4341764975e+00	 1.0335766311e+02
 1.3459820549e+00	 1.4623571923e+00	 9.1135453219e+01
 1.3154300950e+00	 1.4898992970e+00	 8.8802797272e+01
 1.2843348611e+00	 1.5167861467e+00	 9.5908682258e+01
 1.2527175262e+00	 1.5430019603e+00	 1.1196775424e+02
 1.2205998607e+00	 1.5685318710e+00	 1.3646255097e+02
 1.1880041821e+00	 1.5933619530e+00	 1.6884589170e+02
 1.1549533050e+00	 1.6174792466e+00	 2.0854340688e+02
 1.1214704888e+00	 1.6408717783e+00	 2.5495618958e+02
 1.0875793848e+00	 1.6635285785e+00	 3.0746354955e+02
 1.4142135624e+00	 1.4142135624e+00	 1.4232567121e+02
 1.3846241126e+00	 1.4431964755e+00	 1.1339231676e+02
 1.3544473509e+00	 1.4715544074e+00	 9.6548296276e+01
 1.3237032403e+00	 1.4992697328e+00	 9.1295600167e+01
 1.2924124388e+00	 1.5263256822e+00	 9.7093379489e+01
 1.2605962528e+00	 1.5527063752e+00	 1.1336041656e+02
 1.2282765894e+00	 1.5783968513e+00	 1.3947779922e+02
 1.1954759065e+00	 1.6033830974e+00	 1.7479177939e+02
 1.1622171622e+00	 1.6276520721e+00	 2.1861679551e+02
 1.1285237623e+00	 1.6511917266e+00	 2.7023863688e+02
 1.0944195068e+00	 1.6739910224e+00	 3.2891772737e+02
 1.0260182876e+00	 1.5693665835e+00	-5.4347854305e+01
 9.9368300285e-01	 1.5900374492e+00	-9.4928906903e+01
 9.6100807296e-01	 1.6099964235e+00	-1.1816274316e+02
 9.2801661506e-01	 1.6292360671e+00	-1.2580601547e+02
 8.9473191212e-01	 1.6477499220e+00	-1.1964822088e+02
 8.6117736201e-01	 1.6655325128e+00	-1.0150363079e+02
 8.2737642706e-01	 1.6825793438e+00	-7.3203253529e+01
 7.9335258431e-01	 1.6988868935e+00	-3.6586881834e+01
 7.5912927655e-01	 1.7144526070e+00	 6.5047252550e+00
 7.2472986455e-01	 1.7292748837e+00	 5.4237478575e+01
 6.9017758046e-01	 1.7433530645e+00	 1.0479136885e+02
 1.0328584095e+00	 1.5798290274e+00	 1.7450284103e+00
 1.0003075562e+00	 1.6006376989e+00	-3.9112102255e+01
 9.6741479345e-01	 1.6207297330e+00	-6.7558866634e+01
 9.3420339250e-01	 1.6400976408e+00	-8.4913783792e+01
 9.0069679153e-01	 1.6587349215e+00	-9.2518050628e+01
 8.6691854442e-01	 1.6766360629e+00	-9.1729508963e+01
 8.3289226991e-01	 1.6937965394e+00	-8.3916646881e+01
 7.9864160154e-01	 1.7102128062e+00	-7.0452672848e+01
 7.6419013839e-01	 1.7258822910e+00	-5.2709699501e+01
 7.2956139697e-01	 1.7408033830e+00	-3.2053072062e+01
 6.9477876433e-01	 1.7549754183e+00	-9.8358741210e+00
 1.0396985314e+00	 1.5902914713e+00	 5.3682035056e+01
 1.0069321096e+00	 1.6112379485e+00	 1.4647967491e+01
 9.7382151393e-01	 1.6314630425e+00	-1.6854380014e+01
 9.4039016993e-01	 1.6509592146e+00	-4.1709867416e+01
 9.0666167094e-01	 1.6697199210e+00	-6.0815948118e+01
 8.7265972683e-01	 1.6877396130e+00	-7.5078656316e+01
 8.3840811275e-01	 1.7050137350e+00	-8.5408629950e+01
 8.0393061877e-01	 1.7215387188e+00	-9.2717194553e+01
 7.6925100023e-01	 1.7373119751e+00	-9.7912532095e+01
 7.3439292940e-01	 1.7523318822e+00	-1.0189595757e+02
 6.9937994820e-01	 1.7665977720e+00	-1.0555832452e+02
 1.0465386534e+00	 1.6007539152e+00	 1.0154465780e+02
 1.0135566629e+00	 1.6218381982e+00	 6.6391635055e+01
 9.8022823441e-01	 1.6421963520e+00	 3.3948748752e+01
 9.4657694736e-01	 1.6618207884e+00	 3.7604115410e+00
 9.1262655035e-01	 1.6807049204e+00	-2.4631553787e+01
 8.7840090924e-01	 1.6988431631e+00	-5.1685905113e+01
 8.4392395560e-01	 1.7162309306e+00	-7.7860008791e+01
 8.0921963599e-01	 1.7328646314e+00	-1.0360791656e+02
 7.7431186207e-01	 1.7487416591e+00	-1.2937850299e+02
 7.3922446183e-01	 1.7638603814e+00	-1.5561367416e+02
 7.0398113207e-01	 1.7782201258e+00	-1.8274665708e+02
 1.0533787753e+00	 1.6112163591e+00	 1.4541227189e+02
 1.0201812163e+00	 1.6324384478e+00	 1.1615818531e+02
 9.8663495490e-01	 1.6529296615e+00	 8.4848602584e+01
 9.5276372479e-01	 1.6726823622e+00	 5.1452907914e+01
 9.1859142976e-01	 1.6916899199e+00	 1.5947820014e+01
 8.8414209165e-01	 1.7099467131e+00	-2.1682585728e+01
 8.4943979844e-01	 1.7274481262e+00	-6.1446893435e+01
 8.1450865322e-01	 1.7441905440e+00	-1.0334640040e+02
 7.7937272391e-01	 1.7601713431e+00	-1.4737520703e+02
 7.4405599426e-01	 1.7753888806e+00	-1.9352034172e+02
 7.0858231593e-01	 1.7898424795e+00	-2.4176191885e+02
 1.0602188972e+00	 1.6216788030e+00	 1.8536220394e+02
 1.0268057696e+00	 1.6430386975e+00	 1.6398588909e+02
 9.9304167538e-01	 1.6636629710e+00	 1.3584331363e+02
 9.5895050222e-01	 1.6835439359e+00	 1.0132461553e+02
 9.2455630917e-01	 1.7026749194e+00	 6.0837113917e+01
 8.8988327406e-01	 1.7210502632e+00	 1.4803360404e+01
 8.5495564128e-01	 1.7386653219e+00	-3.6340849375e+01
 8.1979767044e-01	 1.7555164566e+00	-9.2148490142e+01
 7.8443358575e-01	 1.7716010272e+00	-1.5216333362e+02
 7.4888752668e-01	 1.7869173798e+00	-2.1592197407e+02
 7.1318349980e-01	 1.8014648333e+00	-2.8295583978e+02
 1.0670590191e+00	 1.6321412469e+00	 2.2146979759e+02
 1.0334303230e+00	 1.6536389472e+00	 2.0991203568e+02
 9.9944839586e-01	 1.6743962804e+00	 1.8693106171e+02
 9.6513727965e-01	 1.6944055097e+00	 1.5333363071e+02
 9.3052118858e-01	 1.7136599189e+00	 1.0995344933e+02
 8.9562445646e-01	 1.7321538133e+00	 5.7647272161e+01
 8.6047148412e-01	 1.7498825175e+00	-2.7090432165e+00
 8.2508668766e-01	 1.7668423693e+00	-7.0224495609e+01
 7.8949444759e-01	 1.7830307112e+00	-1.4399688803e+02
 7.5371905911e-01	 1.7984458791e+00	-2.2311673873e+02
 7.1778468367e-01	 1.8130871871e+00	-3.0667113128e+02
 1.0738991410e+00	 1.6426036908e+00	 2.5380847667e+02
 1.0400548763e+00	 1.6642391968e+00	 2.5397296409e+02
 1.0058551163e+00	 1.6851295899e+00	 2.3811007278e+02
 9.7132405707e-01	 1.7052670835e+00	 2.0743911714e+02
 9.3648606799e-01	 1.7246449183e+00	 1.6321605899e+02
 9.0136563887e-01	 1.7432573634e+00	 1.0672766427e+02
 8.6598732697e-01	 1.7610997131e+00	 3.9285617226e+01
 8.3037570489e-01	 1.7781682819e+00	-3.7779368637e+01
 7.9455530943e-01	 1.7944603953e+00	-1.2312340430e+02
 7.5855059154e-01	 1.8099743783e+00	-2.1539520684e+02
 7.2238586753e-01	 1.8247095408e+00	-3.1324177352e+02
 1.0807392629e+00	 1.6530661346e+00	 2.8244980593e+02
 1.0466794296e+00	 1.6748394465e+00	 2.9620409314e+02
 1.0122618368e+00	 1.6958628994e+00	 2.8937861746e+02
 9.7751083450e-01	 1.7161286573e+00	 2.6360127211e+02
 9.4245094740e-01	 1.7356299178e+00	 2.2054622013e+02
 9.0710682128e-01	 1.7543609135e+00	 1.6192612682e+02
 8.7150316981e-01	 1.7723169087e+00	 8.9484348163e+01
 8.3566472211e-01	 1.7894941945e+00	 4.9871273651e+00
 7.9961617127e-01	 1.8058900793e+00	-8.9784149997e+01
 7.6338212396e-01	 1.8215028775e+00	-1.9304059349e+02
 7.2698705140e-01	 1.8363318946e+00	-3.0299329168e+02
 1.0875793848e+00	 1.6635285785e+00	 3.0746354955e+02
 1.0533039830e+00	 1.6854396961e+00	 3.3663995037e+02
 1.0186685573e+00	 1.7065962089e+00	 3.4073500968e+02
 9.8369761193e-01	 1.7269902311e+00	 3.2178129403e+02
 9.4841582680e-01	 1.7466149173e+00	 2.8186719024e+02
 9.1284800368e-01	 1.7654644635e+00	 2.2312722852e+02
 8.7701901264e-01	 1.7835341043e+00	 1.4773236014e+02
 8.4095373933e-01	 1.8008201071e+00	 5.7880254266e+01
 8.0467703310e-01	 1.8173197634e+00	-4.4214323288e+01
 7.6821365638e-01	 1.8330313767e+00	-1.5632898911e+02
 7.3158823526e-01	 1.8479542483e+00	-2.7624302182e+02
 1.0944195068e+00	 1.6739910224e+00	 3.2891772737e+02
 1.0599285363e+00	 1.6960399458e+00	 3.7531419989e+02
 1.0250752778e+00	 1.7173295184e+00	 3.9217760527e+02
 9.8988438935e-01	 1.7378518048e+00	 3.8194135110e+02
 9.5438070621e-01	 1.7575999168e+00	 3.4710414511e+02
 9.1858918609e-01	 1.7765680136e+00	 2.9021842367e+02
 8.8253485548e-01	 1.7947513000e+00	 2.1387873324e+02
 8.4624275655e-01	 1.8121460197e+00	 1.2071014217e+02
 8.0973789494e-01	 1.8287494474e+00	 1.3356757405e+01
 7.7304518881e-01	 1.8445598760e+00	-1.0552958208e+02
 7.3618941913e-01	 1.8595766021e+00	-2.3330036684e+02
 6.9017758046e-01	 1.7433530645e+00	 1.0479136885e+02
 6.5549548273e-01	 1.7566874145e+00	 1.9277516075e+02
 6.2070641247e-01	 1.7692791045e+00	 2.5368364451e+02
 5.8583295169e-01	 1.7811301897e+00	 2.9104491042e+02
 5.5089738324e-01	 1.7922435865e+00	 3.0837313021e+02
 5.1592165286e-01	 1.8026230466e+00	 3.0915492149e+02
 4.8092733318e-01	 1.8122731307e+00	 2.9683632071e+02
 4.4593558987e-01	 1.8211991790e+00	 2.7481042205e+02
 4.1096715009e-01	 1.8294072815e+00	 2.4640573208e+02
 3.7604227311e-01	 1.8369042460e+00	 2.1487528220e+02
 3.4118072329e-01	 1.8436975658e+00	 1.8338653308e+02
 6.9477876433e-01	 1.7549754183e+00	-9.8358741210e+00
 6.5986545261e-01	 1.7683986639e+00	 7.7530921468e+01
 6.2484445522e-01	 1.7810742985e+00	 1.4482250458e+02
 5.8973850470e-01	 1.7930043910e+00	 1.9468994288e+02
 5.5457003246e-01	 1.8041918770e+00	 2.2977298154e+02
 5.1936113055e-01	 1.8146405336e+00	 2.5268979874e+02
 4.8413351540e-01	 1.8243549516e+00	 2.6602722311e+02
 4.4890849380e-01	 1.8333405069e+00	 2.7233145617e+02
 4.1370693109e-01	 1.8416033300e+00	 2.7409933699e+02
 3.7854922160e-01	 1.8491502743e+00	 2.7377018033e+02
 3.4345526144e-01	 1.8559888829e+00	 2.7371821385e+02
 6.9937994820e-01	 1.7665977720e+00	-1.0555832452e+02
 6.6423542250e-01	 1.7801099133e+00	-2.3285361587e+01
 6.2898249797e-01	 1.7928694925e+00	 4.5850708315e+01
 5.9364405771e-01	 1.8048785923e+00	 1.0363276696e+02
 5.5824268168e-01	 1.8161401676e+00	 1.5183491425e+02
 5.2280060824e-01	 1.8266580206e+00	 1.9221558690e+02
 4.8733969762e-01	 1.8364367724e+00	 2.2651099385e+02
 4.5188139773e-01	 1.8454818348e+00	 2.5642889712e+02
 4.1644671209e-01	 1.8537993786e+00	 2.8364276265e+02
 3.8105617009e-01	 1.8613963026e+00	 3.0978630209e+02
 3.4572979960e-01	 1.8682802000e+00	 3.3644842203e+02
 7.0398113207e-01	 1.7782201258e+00	-1.8274665708e+02
 6.6860539238e-01	 1.7918211628e+00	-1.0995658159e+02
 6.3312054072e-01	 1.8046646866e+00	-4.3425644585e+01
 5.9754961072e-01	 1.8167527935e+00	 1.7769513319e+01
 5.6191533091e-01	 1.8280884582e+00	 7.4545955808e+01
 5.2624008592e-01	 1.8386755075e+00	 1.2781090555e+02
 4.9054587984e-01	 1.8485185933e+00	 1.7845837157e+02
 4.5485430167e-01	 1.8576231626e+00	 2.2736596374e+02
 4.1918649309e-01	 1.8659954271e+00	 2.7539190668e+02
 3.8356311858e-01	 1.8736423309e+00	 3.2337226330e+02
 3.4800433776e-01	 1.8805715171e+00	 3.7211837598e+02
 7.0858231593e-01	 1.7898424795e+00	-2.4176191885e+02
 6.7297536226e-01	 1.8035324122e+00	-1.8275828407e+02
 6.3725858347e-01	 1.8164598806e+00	-1.2319541826e+02
 6.0145516373e-01	 1.8286269948e+00	-6.3000989726e+01
 5.6558798013e-01	 1.8400367488e+00	-2.1065296145e+00
 5.2967956361e-01	 1.8506929945e+00	 5.9552331991e+01
 4.9375206206e-01	 1.8606004142e+00	 1.2203565991e+02
 4.5782720560e-01	 1.8697644905e+00	 1.8539903784e+02
 4.2192627409e-01	 1.8781914757e+00	 2.4969342242e+02
 3.8607006707e-01	 1.8858883592e+00	 3.1496502725e+02
 3.5027887591e-01	 1.8928628342e+00	 3.8125523625e+02
 7.1318349980e-01	 1.8014648333e+00	-2.8295583978e+02
 6.7734533215e-01	 1.8152436616e+00	-2.4195890393e+02
 6.4139662622e-01	 1.8282550746e+00	-1.9364260317e+02
 6.0536071674e-01	 1.8405011961e+00	-1.3877730317e+02
 5.6926062935e-01	 1.8519850393e+00	-7.8134851951e+01
 5.3311904130e-01	 1.8627104815e+00	-1.2485532866e+01
 4.9695824429e-01	 1.8726822351e+00	 5.7404870637e+01
 4.6080010953e-01	 1.8819058183e+00	 1.3077788472e+02
 4.2466605510e-01	 1.8903875242e+00	 2.0688501711e+02
 3.8857701556e-01	 1.8981343875e+00	 2.8499028057e+02
 3.5255341407e-01	 1.9051541513e+00	 3.6437255906e+02
 7.1778468367e-01	 1.8130871871e+00	-3.0667113128e+02
 6.8171530203e-01	 1.8269549110e+00	-2.8781999333e+02
 6.4553466897e-01	 1.8400502687e+00	-2.5494647225e+02
 6.0926626975e-01	 1.8523753973e+00	-2.0965546102e+02
 5.7293327857e-01	 1.8639333299e+00	-1.5355100571e+02
 5.3655851898e-01	 1.8747279685e+00	-8.8230001162e+01
 5.0016442651e-01	 1.8847640559e+00	-1.5276138860e+01
 4.6377301347e-01	 1.8940471462e+00	 6.3745865264e+01
 4.2740583610e-01	 1.9025835728e+00	 1.4729573865e+02
 3.9108396405e-01	 1.9103804158e+00	 2.3386279466e+02
 3.5482795223e-01	 1.9174454684e+00	 3.2197073237e+02
 7.2238586753e-01	 1.8247095408e+00	-3.1324177352e+02
 6.8608527191e-01	 1.8386661605e+00	-3.2059644091e+02
 6.4967271171e-01	 1.8518454627e+00	-3.0728173123e+02
 6.1317182276e-01	 1.8642495986e+00	-2.7572905077e+02
 5.7660592779e-01	 1.8758816205e+00	-2.2836668000e+02
 5.3999799667e-01	 1.8867454554e+00	-1.6761023716e+02
 5.0337060873e-01	 1.8968458768e+00	-9.5853533215e+01
 4.6674591740e-01	 1.9061884741e+00	-1.5459860136e+01
 4.3014561710e-01	 1.9147796213e+00	 7.1246251375e+01
 3.9359091254e-01	 1.9226264441e+00	 1.6198677332e+02
 3.5710249039e-01	 1.9297367855e+00	 2.5453739521e+02
 7.2698705140e-01	 1.8363318946e+00	-3.0299329168e+02
 6.9045524179e-01	 1.8503774099e+00	-3.4053668263e+02
 6.5381075446e-01	 1.8636406567e+00	-3.5081866309e+02
 6.1707737577e-01	 1.8761237998e+00	-3.3708929081e+02
 5.8027857701e-01	 1.8878299111e+00	-3.0259326823e+02
 5.4343747436e-01	 1.8987629424e+00	-2.5055719861e+02
 5.0657679095e-01	 1.9089276977e+00	-1.8417737183e+02
 4.6971882134e-01	 1.9183298019e+00	-1.0660813532e+02
 4.3288539810e-01	 1.9269756698e+00	-2.0950898650e+01
 3.9609786103e-01	 1.9348724724e+00	 6.9756187170e+01
 3.5937702855e-01	 1.9420281026e+00	 1.6254784115e+02
 7.3158823526e-01	 1.8479542483e+00	-2.7624302182e+02
 6.9482521167e-01	 1.8620886593e+00	-3.4788290473e+02
 6.5794879721e-01	 1.8754358507e+00	-3.8572326718e+02
 6.2098292878e-01	 1.8879980011e+00	-3.9382510492e+02
 5.8395122623e-01	 1.8997782016e+00	-3.7624187735e+02
 5.4687695204e-01	 1.9107804294e+00	-3.3700358041e+02
 5.0978297318e-01	 1.9210095185e+00	-2.8010148637e+02
 4.7269172527e-01	 1.9304711298e+00	-2.0947361958e+02
 4.3562517911e-01	 1.9391717184e+00	-1.2899102834e+02
 3.9860480952e-01	 1.9471185007e+00	-4.2444904562e+01
 3.6165156671e-01	 1.9543194197e+00	 4.6465406519e+01
 7.3618941913e-01	 1.8595766021e+00	-2.3330036684e+02
 6.9919518155e-01	 1.8737999088e+00	-3.4287123896e+02
 6.6208683996e-01	 1.8872310448e+00	-4.1215739306e+02
 6.2488848179e-01	 1.8998722024e+00	-4.4602319402e+02
 5.8762387546e-01	 1.9117264922e+00	-4.4932333686e+02
 5.5031642973e-01	 1.9227979164e+00	-4.2688376023e+02
 5.1298915540e-01	 1.9330913394e+00	-3.8348336293e+02
 4.7566462921e-01	 1.9426124577e+00	-3.2383660588e+02
 4.3836496011e-01	 1.9513677669e+00	-2.5257707187e+02
 4.0111175801e-01	 1.9593645290e+00	-1.7424204430e+02
 3.6392610487e-01	 1.9666107368e+00	-9.3258155932e+01
 3.4118072329e-01	 1.8436975658e+00	 1.8338653308e+02
 3.0640174533e-01	 1.8497953861e+00	 1.0245548935e+02
 2.7172404193e-01	 1.8552064697e+00	 4.6175865728e+01
 2.3716575372e-01	 1.8599401617e+00	 1.0590300003e+01
 2.0274444155e-01	 1.8640063550e+00	-8.1769536867e+00
 1.6847707106e-01	 1.8674154537e+00	-1.3908843618e+01
 1.3437999951e-01	 1.8701783380e+00	-1.0285295222e+01
 1.0046896479e-01	 1.8723063283e+00	-8.7395150367e-01
 6.6759076657e-02	 1.8738111500e+00	 1.0878118764e+01
 3.3264809970e-02	 1.8747048974e+00	 2.1651750010e+01
 0.0000000000e+00	 1.8750000000e+00	 2.8262057573e+01
 3.4345526144e-01	 1.8559888829e+00	 2.7371821385e+02
 3.0844442363e-01	 1.8621273554e+00	 1.8450525767e+02
 2.7353553554e-01	 1.8675745128e+00	 1.1434543193e+02
 2.3874685874e-01	 1.8723397628e+00	 6.0218011347e+01
 2.0409607116e-01	 1.8764330640e+00	 1.9164054620e+01
 1.6960025153e-01	 1.8798648900e+00	-1.1705014466e+01
 1.3527586617e-01	 1.8826461935e+00	-3.5199556480e+01
 1.0113875789e-01	 1.8847883705e+00	-5.4044604033e+01
 6.7204137168e-02	 1.8863032243e+00	-7.0873489521e+01
 3.3486575369e-02	 1.8872029301e+00	-8.8222209313e+01
 0.0000000000e+00	 1.8875000000e+00	-1.0852451573e+02
 3.4572979960e-01	 1.8682802000e+00	 3.3644842203e+02
 3.1048710194e-01	 1.8744593246e+00	 2.4428305060e+02
 2.7534702916e-01	 1.8799425559e+00	 1.6559988092e+02
 2.4032796377e-01	 1.8847393639e+00	 9.8305664001e+01
 2.0544770077e-01	 1.8888597731e+00	 4.0349320729e+01
 1.7072343201e-01	 1.8923143264e+00	-1.0272056929e+01
 1.3617173283e-01	 1.8951140491e+00	-5.5507711778e+01
 1.0180855099e-01	 1.8972704127e+00	-9.7248239935e+01
 6.7649197680e-02	 1.8987952986e+00	-1.3732112355e+02
 3.3708340769e-02	 1.8997009627e+00	-1.7748677545e+02
 0.0000000000e+00	 1.9000000000e+00	-2.1943508990e+02
 3.4800433776e-01	 1.8805715171e+00	 3.7211837598e+02
 3.1252978024e-01	 1.8867912938e+00	 2.8222558718e+02
 2.7715852277e-01	 1.8923105990e+00	 2.0027089598e+02
 2.4190906879e-01	 1.8971389650e+00	 1.2507954860e+02
 2.0679933038e-01	 1.9012864821e+00	 5.5499561112e+01
 1.7184661248e-01	 1.9047637627e+00	-9.5948395550e+00
 1.3706759950e-01	 1.9075819047e+00	-7.1300059918e+01
 1.0247834409e-01	 1.9097524549e+00	-1.3068027323e+02
 6.8094258191e-02	 1.9112873730e+00	-1.8876484290e+02
 3.3930106169e-02	 1.9121989954e+00	-2.4654603513e+02
 0.0000000000e+00	 1.9125000000e+00	-3.0497701777e+02
 3.5027887591e-01	 1.8928628342e+00	 3.8125523625e+02
 3.1457245854e-01	 1.8991232631e+00	 2.9875824295e+02
 2.7897001638e-01	 1.9046786422e+00	 2.1868154506e+02
 2.4349017382e-01	 1.9095385661e+00	 1.4076007795e+02
 2.0815095999e-01	 1.9137131911e+00	 6.4732356599e+01
 1.7296979296e-01	 1.9172131991e+00	-9.6586240613e+00
 1.3796346616e-01	 1.9200497603e+00	-8.2664554416e+01
 1.0314813719e-01	 1.9222344971e+00	-1.5453104237e+02
 6.8539318703e-02	 1.9237794473e+00	-2.2549691350e+02
 3.4151871570e-02	 1.9246970280e+00	-2.9579357942e+02
 0.0000000000e+00	 1.9250000000e+00	-3.6564447430e+02
 3.5255341407e-01	 1.9051541513e+00	 3.6437255906e+02
 3.1661513685e-01	 1.9114552323e+00	 2.9429541582e+02
 2.8078151000e-01	 1.9170466853e+00	 2.2114655872e+02
 2.4507127885e-01	 1.9219381671e+00	 1.4556197660e+02
 2.0950258961e-01	 1.9261399002e+00	 6.8162253524e+01
 1.7409297343e-01	 1.9296626354e+00	-1.0449052650e+01
 1.3885933283e-01	 1.9325176159e+00	-8.9686879154e+01
 1.0381793029e-01	 1.9347165393e+00	-1.6898597399e+02
 6.8984379215e-02	 1.9362715216e+00	-2.4780205905e+02
 3.4373636970e-02	 1.9371950607e+00	-3.2561284230e+02
 0.0000000000e+00	 1.9375000000e+00	-4.0191888160e+02
 3.5482795223e-01	 1.9174454684e+00	 3.2197073237e+02
 3.1865781515e-01	 1.9237872016e+00	 2.6924087797e+02
 2.8259300362e-01	 1.9294147284e+00	 2.0797259735e+02
 2.4665238388e-01	 1.9343377682e+00	 1.3969446322e+02
 2.1085421922e-01	 1.9385666092e+00	 6.5900860989e+01
 1.7521615391e-01	 1.9421120718e+00	-1.1952135812e+01
 1.3975519949e-01	 1.9449854715e+00	-9.2450521121e+01
 1.0448772339e-01	 1.9471985815e+00	-1.7422574030e+02
 6.9429439728e-02	 1.9487635960e+00	-2.5595770278e+02
 3.4595402371e-02	 1.9496930933e+00	-3.3637742623e+02
 0.0000000000e+00	 1.9500000000e+00	-4.1426931777e+02
 3.5710249039e-01	 1.9297367855e+00	 2.5453739521e+02
 3.2070049346e-01	 1.9361191708e+00	 2.2398811420e+02
 2.8440449723e-01	 1.9417827716e+00	 1.7945850815e+02
 2.4823348890e-01	 1.9467373693e+00	 1.2336142589e+02
 2.1220584883e-01	 1.9509933182e+00	 5.8056944403e+01
 1.7633933439e-01	 1.9545615082e+00	-1.4154240599e+01
 1.4065106616e-01	 1.9574533271e+00	-9.1036840385e+01
 1.0515751649e-01	 1.9596806237e+00	-1.7042641054e+02
 6.9874500241e-02	 1.9612556703e+00	-2.5023419989e+02
 3.4817167771e-02	 1.9621911260e+00	-3.2845141525e+02
 0.0000000000e+00	 1.9625000000e+00	-4.0315290996e+02
 3.5937702855e-01	 1.9420281026e+00	 1.6254784115e+02
 3.2274317177e-01	 1.9484511400e+00	 1.5892064752e+02
 2.8621599085e-01	 1.9541508147e+00	 1.3589557243e+02
 2.4981459393e-01	 1.9591369704e+00	 9.6761590820e+01
 2.1355747845e-01	 1.9634200273e+00	 4.4736515479e+01
 1.7746251487e-01	 1.9670109445e+00	-1.7042079337e+01
 1.4154693283e-01	 1.9699211826e+00	-8.5525137394e+01
 1.0582730959e-01	 1.9721626658e+00	-1.5775959660e+02
 7.0319560754e-02	 1.9737477446e+00	-2.3089506129e+02
 3.5038933172e-02	 1.9746891586e+00	-3.0218967618e+02
 0.0000000000e+00	 1.9750000000e+00	-3.6901521255e+02
 3.6165156671e-01	 1.9543194197e+00	 4.6465406519e+01
 3.2478585007e-01	 1.9607831093e+00	 7.4412352381e+01
 2.8802748447e-01	 1.9665188578e+00	 7.7567743493e+01
 2.5139569896e-01	 1.9715365715e+00	 6.0088684678e+01
 2.1490910806e-01	 1.9758467363e+00	 2.6042918820e+01
 1.7858569534e-01	 1.9794603809e+00	-2.0602698772e+01
 1.4244279949e-01	 1.9823890382e+00	-7.5992717744e+01
 1.0649710269e-01	 1.9846447080e+00	-1.3639259323e+02
 7.0764621268e-02	 1.9862398189e+00	-1.9819716880e+02
 3.5260698574e-02	 1.9871871913e+00	-2.5793814847e+02
 0.0000000000e+00	 1.9875000000e+00	-3.1229057115e+02
 3.6392610487e-01	 1.9666107368e+00	-9.3258155932e+01
 3.2682852838e-01	 1.9731150785e+00	-2.9172243773e+01
 2.8983897809e-01	 1.9788869010e+00	 4.7518756768e+00
 2.5297680400e-01	 1.9839361725e+00	 1.3531590803e+01
 2.1626073768e-01	 1.9882734453e+00	 2.0769152747e+00
 1.7970887582e-01	 1.9919098172e+00	-2.4823469615e+01
 1.4333866616e-01	 1.9948568938e+00	-6.2514954521e+01
 1.0716689579e-01	 1.9971267502e+00	-1.0648851293e+02
 7.1209681781e-02	 1.9987318933e+00	-1.5239098228e+02
 3.5482463975e-02	 1.9996852239e+00	-1.9603412319e+02
 0.0000000000e+00	 2.0000000000e+00	-2.3340247278e+02
