x	y	stress_yy
 1.000000000000000e+00	 0.000000000000000e+00	-1.124263117738366e+02
 9.998426119581704e-01	 1.774123198744521e-02	-1.032884905470432e+02
 9.993659466402713e-01	 3.560484089073321e-02	-8.243900174628007e+01
 9.985633751090949e-01	 5.358344789747921e-02	-5.340597529299930e+01
 9.974284469032259e-01	 7.166933308134273e-02	-1.988936261636607e+01
 9.959549086084808e-01	 8.985443791194039e-02	 1.424512647340001e+01
 9.941367226520526e-01	 1.081303688402291e-01	 4.497320183960900e+01
 9.919680862544972e-01	 1.264884019976692e-01	 6.812030808076995e+01
 9.894434504702301e-01	 1.449194890435835e-01	 7.937109146674125e+01
 9.865575392429453e-01	 1.634142641907508e-01	 7.428002575208350e+01
 9.833053683983746e-01	 1.819630524344169e-01	 4.828319539060426e+01
 1.012500000000000e+00	 0.000000000000000e+00	 1.479530157360074e+02
 1.012340644607676e+00	 1.796299738536411e-02	 1.117045544694841e+02
 1.011858020973390e+00	 3.604990139831822e-02	 8.487226724321492e+01
 1.011045417298220e+00	 5.425324099133014e-02	 6.451847748542670e+01
 1.009896302489983e+00	 7.256519973898737e-02	 4.756260497691751e+01
 1.008404344966822e+00	 9.097761837928382e-02	 3.078624612584598e+01
 1.006563431686269e+00	 1.094819984438203e-01	 1.083918504871838e+01
 1.004367687334138e+00	 1.280695070157070e-01	-1.575364620752105e+01
 1.001811493603026e+00	 1.467309826500149e-01	-5.258424599883428e+01
 9.988895084859243e-01	 1.654569424871888e-01	-1.033526542459874e+02
 9.955966855063876e-01	 1.842375905849211e-01	-1.718570977872643e+02
 1.025000000000000e+00	 0.000000000000000e+00	 3.640576457073129e+02
 1.024838677257182e+00	 1.818476278346252e-02	 2.906037303448377e+02
 1.024350095306508e+00	 3.649496190623553e-02	 2.243572917062133e+02
 1.023527459487344e+00	 5.492303408563875e-02	 1.629603391496604e+02
 1.022364158076741e+00	 7.346106639718697e-02	 1.039403705348129e+02
 1.020853781325163e+00	 9.210079884725078e-02	 4.471448328807528e+01
 1.018990140720485e+00	 1.108336280480742e-01	-1.740576498803799e+01
 1.016767288413778e+00	 1.296506120344168e-01	-8.520873170480104e+01
 1.014179536735822e+00	 1.485424762570972e-01	-1.615762904877743e+02
 1.011221477728904e+00	 1.674996207842254e-01	-2.494766539063691e+02
 1.007888002614400e+00	 1.865121287359399e-01	-3.519564189706505e+02
 1.037500000000000e+00	 0.000000000000000e+00	 5.374878595354295e+02
 1.037336709906687e+00	 1.840652818174046e-02	 4.347136287085289e+02
 1.036842169639627e+00	 3.694002241448514e-02	 3.370218362815441e+02
 1.036009501676469e+00	 5.559282718040499e-02	 2.426237993026942e+02
 1.034832013663499e+00	 7.435693305594146e-02	 1.496442087606605e+02
 1.033303217683504e+00	 9.322397931584123e-02	 5.612428458987181e+01
 1.031416849754700e+00	 1.121852576529908e-01	-3.997449828629092e+01
 1.029166889493419e+00	 1.312317170537988e-01	-1.407661018319867e+02
 1.026547579868618e+00	 1.503539698648304e-01	-2.484350273739364e+02
 1.023553446971883e+00	 1.695422990818606e-01	-3.652308254093911e+02
 1.020179319722413e+00	 1.887866668874734e-01	-4.934620138511889e+02
 1.050000000000000e+00	 0.000000000000000e+00	 6.697677349292277e+02
 1.049834742556193e+00	 1.862829358019793e-02	 5.452767179648583e+02
 1.049334243972746e+00	 3.738508292306705e-02	 4.238237722351254e+02
 1.048491543865594e+00	 5.626262027562888e-02	 3.041795148855751e+02
 1.047299869250256e+00	 7.525279971525092e-02	 1.850553338283001e+02
 1.045752654041845e+00	 9.434715978505519e-02	 6.510559936689276e+01
 1.043843558788917e+00	 1.135368872585703e-01	-5.706972898901152e+01
 1.041566490573060e+00	 1.328128220738529e-01	-1.829220930301679e+02
 1.038915623001414e+00	 1.521654634732144e-01	-3.139509187757842e+02
 1.035885416214862e+00	 1.715849773800943e-01	-4.516997897452500e+02
 1.032470636830427e+00	 1.910612050395216e-01	-5.977522115340059e+02
 1.062500000000000e+00	 0.000000000000000e+00	 7.623496284807037e+02
 1.062332775205699e+00	 1.885005897883492e-02	 6.234769976000472e+02
 1.061826318305864e+00	 3.783014343198125e-02	 4.856758947169001e+02
 1.060973586054718e+00	 5.693241337131042e-02	 3.482665826865818e+02
 1.059767724837014e+00	 7.614866637511535e-02	 2.105370205892737e+02
 1.058202090400185e+00	 9.547034025489266e-02	 7.174414420688821e+01
 1.056270267823133e+00	 1.148885168648125e-01	-6.888463159488944e+01
 1.053966091652700e+00	 1.343939270945790e-01	-2.121496845836025e+02
 1.051283666134210e+00	 1.539769570822494e-01	-3.588772284545093e+02
 1.048217385457841e+00	 1.736276556789267e-01	-5.099171267848589e+02
 1.044761953938439e+00	 1.933357431920845e-01	-6.661404784555154e+02
 1.075000000000000e+00	 0.000000000000000e+00	 8.166183454971823e+02
 1.074830807855204e+00	 1.907182437765143e-02	 6.704433975377148e+02
 1.074318392638983e+00	 3.827520394122774e-02	 5.234485434649764e+02
 1.073455628243843e+00	 5.760220646744962e-02	 3.754943742334833e+02
 1.072235580423771e+00	 7.704453303553466e-02	 2.264356475562679e+02
 1.070651526758527e+00	 9.659352072535370e-02	 7.612164903921288e+01
 1.068696976857348e+00	 1.162401464717175e-01	-7.560339558937486e+01
 1.066365692732341e+00	 1.359750321159773e-01	-2.288998565946013e+02
 1.063651709267006e+00	 1.557884506919352e-01	-3.839321845099568e+02
 1.060549354700821e+00	 1.756703339783577e-01	-5.408683427876142e+02
 1.057053271046452e+00	 1.956102813451620e-01	-6.998791894697360e+02
 1.087500000000000e+00	 0.000000000000000e+00	 8.338950222588960e+02
 1.087328840504711e+00	 1.929358977664748e-02	 6.872529430560562e+02
 1.086810466972101e+00	 3.872026445080654e-02	 5.379720427715506e+02
 1.085937670432968e+00	 5.827199956404649e-02	 3.864442441415080e+02
 1.084703436010529e+00	 7.794039969650891e-02	 2.330816679566647e+02
 1.083100963116868e+00	 9.771670119643823e-02	 7.831608625264384e+01
 1.081123685891564e+00	 1.175917760792853e-01	-7.740174182530961e+01
 1.078765293811981e+00	 1.375561371380476e-01	-2.336028543049684e+02
 1.076019752399802e+00	 1.575999443022719e-01	-3.898009929251085e+02
 1.072881323943800e+00	 1.777130122783873e-01	-5.454936332534434e+02
 1.069344588154466e+00	 1.978848194987542e-01	-7.001631388596797e+02
 1.100000000000000e+00	 0.000000000000000e+00	 8.154407435771959e+02
 1.099826873154216e+00	 1.951535517582304e-02	 6.749337039152185e+02
 1.099302541305220e+00	 3.916532496071764e-02	 5.300389750875240e+02
 1.098419712622092e+00	 5.894179266110097e-02	 3.816711219830433e+02
 1.097171291597287e+00	 7.883626635803816e-02	 2.307905145778985e+02
 1.095550399475209e+00	 9.883988166814628e-02	 7.840188419153196e+01
 1.093550394925780e+00	 1.189434056875159e-01	-7.444740369578386e+01
 1.091164894891622e+00	 1.391372421607900e-01	-2.266693662137067e+02
 1.088387795532598e+00	 1.594114379132595e-01	-3.771377138234365e+02
 1.085213293186779e+00	 1.797556905790154e-01	-5.246904573985810e+02
 1.081635905262479e+00	 2.001593576528611e-01	-6.681328119615982e+02
 1.112500000000000e+00	 0.000000000000000e+00	 7.624599164724440e+02
 1.112324905803722e+00	 1.973712057517813e-02	 6.344675446671104e+02
 1.111794615638338e+00	 3.961038547096103e-02	 5.004063013504092e+02
 1.110901754811217e+00	 5.961158575861313e-02	 3.617049968402825e+02
 1.109639147184044e+00	 7.973213302012230e-02	 2.198634436120031e+02
 1.107999835833550e+00	 9.996306214047786e-02	 7.645012625895286e+01
 1.105977103959996e+00	 1.202950352964092e-01	-6.690057586837547e+01
 1.103564495971262e+00	 1.407183471842045e-01	-2.084916227710588e+02
 1.100755838665393e+00	 1.612229315248979e-01	-3.465670112369993e+02
 1.097545262429758e+00	 1.817983688802421e-01	-4.793159390711724e+02
 1.093927222370492e+00	 2.024338958074826e-01	-6.048774362302852e+02
 1.125000000000000e+00	 0.000000000000000e+00	 6.761034189400521e+02
 1.124822938453228e+00	 1.995888597471274e-02	 5.667926916112290e+02
 1.124286689971457e+00	 4.005544598153672e-02	 4.497973399570441e+02
 1.123383797000342e+00	 6.028137885658293e-02	 3.270523028876935e+02
 1.122107002770802e+00	 8.062799968276138e-02	 2.005883222438569e+02
 1.120449272191891e+00	 1.010862426134330e-01	 7.252873674631758e+01
 1.118403812994212e+00	 1.216466649059652e-01	-5.491433310376993e+01
 1.115964097050903e+00	 1.422994522082910e-01	-1.794444218262756e+02
 1.113123881798189e+00	 1.630344251371873e-01	-2.986857862233277e+02
 1.109877231672737e+00	 1.838410471820675e-01	-4.101891076058349e+02
 1.106218539478505e+00	 2.047084339626188e-01	-5.114378289000175e+02
 9.833053683983746e-01	 1.819630524344169e-01	 4.828319539060426e+01
 9.796822644935034e-01	 2.005558790047255e-01	 6.801289116008295e+00
 9.756838834365029e-01	 2.191824800562895e-01	-4.001542740304152e+01
 9.713062287906588e-01	 2.378323146029681e-01	-8.965159611039736e+01
 9.665456696731551e-01	 2.564945776994924e-01	-1.395093935179283e+02
 9.613989581557346e-01	 2.751582148638952e-01	-1.869161234305970e+02
 9.558632460744549e-01	 2.938119377279353e-01	-2.291324933635900e+02
 9.499361011546518e-01	 3.124442408950446e-01	-2.633615520941609e+02
 9.436155223571460e-01	 3.310434199775670e-01	-2.867582593790376e+02
 9.368999543523497e-01	 3.495975907771368e-01	-2.964396523985866e+02
 9.297883010302649e-01	 3.680947095640363e-01	-2.894955670354228e+02
 9.955966855063876e-01	 1.842375905849211e-01	-1.718570977872643e+02
 9.919282928033321e-01	 2.030628274885299e-01	-1.811003210539581e+02
 9.878799319837496e-01	 2.219222610543536e-01	-1.948027774950418e+02
 9.834475566554662e-01	 2.408052185339226e-01	-2.108767270746677e+02
 9.786274905496307e-01	 2.597007599201509e-01	-2.271657488312194e+02
 9.734164451388825e-01	 2.785976925500452e-01	-2.414510633115532e+02
 9.678115366572296e-01	 2.974845869507597e-01	-2.514584251842554e+02
 9.618103024265737e-01	 3.163497939082676e-01	-2.548655672454466e+02
 9.554107163947458e-01	 3.351814627300659e-01	-2.493101716804673e+02
 9.486112037905381e-01	 3.539675606653077e-01	-2.323983390460781e+02
 9.414106548025766e-01	 3.726958934376526e-01	-2.017135200521049e+02
 1.007888002614400e+00	 1.865121287359399e-01	-3.519564189706505e+02
 1.004174321113151e+00	 2.055697759727489e-01	-3.339604582328274e+02
 1.000075980530958e+00	 2.246620420527318e-01	-3.195717382573447e+02
 9.955888845201883e-01	 2.437781224650910e-01	-3.071220266861790e+02
 9.907093114259543e-01	 2.629069421409228e-01	-2.948879466044605e+02
 9.854339321217915e-01	 2.820371702362078e-01	-2.810960485905122e+02
 9.797598272396584e-01	 3.011572361734960e-01	-2.639283412187730e+02
 9.736845036980223e-01	 3.202553469213019e-01	-2.415282649468261e+02
 9.672059104317243e-01	 3.393195054822754e-01	-2.120070900134613e+02
 9.603224532279363e-01	 3.583375305530889e-01	-1.734507146309495e+02
 9.530330085739085e-01	 3.772970773107793e-01	-1.239268354210863e+02
 1.020179319722413e+00	 1.887866668874734e-01	-4.934620138511889e+02
 1.016420349422961e+00	 2.080767244573826e-01	-4.530456607967536e+02
 1.012272029078130e+00	 2.274018230514244e-01	-4.154072883425976e+02
 1.007730212384825e+00	 2.467510263964731e-01	-3.792903546143754e+02
 1.002791132302125e+00	 2.661131243618078e-01	-3.433964703812022e+02
 9.974514191044608e-01	 2.854766479223831e-01	-3.063892399085950e+02
 9.917081178217403e-01	 3.048298853961441e-01	-2.668984502604858e+02
 9.855587049689970e-01	 3.241608999341473e-01	-2.235245976479630e+02
 9.790011044680813e-01	 3.434575482341956e-01	-1.748437361488353e+02
 9.720337026645446e-01	 3.627075004404805e-01	-1.194126308180008e+02
 9.646553623442610e-01	 3.818982611834161e-01	-5.577419391168536e+01
 1.032470636830427e+00	 1.910612050395216e-01	-5.977522115340059e+02
 1.028666377732762e+00	 2.105836729424308e-01	-5.395621556561025e+02
 1.024468077625263e+00	 2.301416040504314e-01	-4.833427406498527e+02
 1.019871540249377e+00	 2.497239303280692e-01	-4.282415771192942e+02
 1.014872953178144e+00	 2.693193065828061e-01	-3.733774948852085e+02
 1.009468906086891e+00	 2.889161256085709e-01	-3.178431711428085e+02
 1.003656408403476e+00	 3.085025346187041e-01	-2.607079987254864e+02
 9.974329062394982e-01	 3.280664529468040e-01	-2.010211866893047e+02
 9.907962985038169e-01	 3.475955909858267e-01	-1.378150831754213e+02
 9.837449521003627e-01	 3.670774703274826e-01	-7.010870822841326e+01
 9.762777161136343e-01	 3.864994450555633e-01	 3.088518026548016e+00
 1.044761953938439e+00	 1.933357431920845e-01	-6.661404784555154e+02
 1.040912406042553e+00	 2.130906214278937e-01	-5.946594059897183e+02
 1.036664126172359e+00	 2.328813850497527e-01	-5.243627814875673e+02
 1.032012868113843e+00	 2.526968342598790e-01	-4.547950960767039e+02
 1.026954774054010e+00	 2.725254888039177e-01	-3.854849041874076e+02
 1.021486393069082e+00	 2.923556032947711e-01	-3.159462568638576e+02
 1.015604698984865e+00	 3.121751838411760e-01	-2.456802684406288e+02
 1.009307107509526e+00	 3.319720059592721e-01	-1.741768123684537e+02
 1.002591492538931e+00	 3.517336337371683e-01	-1.009163407177691e+02
 9.954562015353910e-01	 3.714474402140948e-01	-2.537182061989986e+01
 9.879000698820278e-01	 3.911006289272207e-01	 5.298922036156117e+01
 1.057053271046452e+00	 1.956102813451620e-01	-6.998791894697360e+02
 1.053158434352335e+00	 2.155975699137711e-01	-6.194334114628423e+02
 1.048860174719417e+00	 2.356211660493882e-01	-5.394062977019705e+02
 1.044154195978224e+00	 2.556697381919028e-01	-4.597322015596218e+02
 1.039036594929724e+00	 2.757316710251425e-01	-3.803421690704914e+02
 1.033503880051033e+00	 2.957950809809841e-01	-3.011641946224788e+02
 1.027552989565909e+00	 3.158478330635599e-01	-2.221235048184133e+02
 1.021181308779080e+00	 3.358775589715513e-01	-1.431428698158573e+02
 1.014386686573424e+00	 3.558716764882207e-01	-6.414294118518313e+01
 1.007167450969629e+00	 3.758174101003176e-01	 1.495738494570577e+01
 9.995224236494423e-01	 3.957018127983884e-01	 9.424058096504947e+01
 1.069344588154466e+00	 1.978848194987542e-01	-7.001631388596797e+02
 1.065404462662107e+00	 2.181045184000633e-01	-6.149297808437896e+02
 1.061056223266437e+00	 2.383609470493381e-01	-5.293690088310522e+02
 1.056295523842520e+00	 2.586426421241405e-01	-4.437982621728261e+02
 1.051118415805285e+00	 2.789378532464805e-01	-3.585440949200900e+02
 1.045521367032745e+00	 2.992345586672095e-01	-2.739412705263654e+02
 1.039501280146605e+00	 3.195204822858554e-01	-1.903317810198160e+02
 1.033055510048160e+00	 3.397831119836419e-01	-1.080637934307884e+02
 1.026181880607295e+00	 3.600097192389838e-01	-2.749052696909132e+01
 1.018878700403077e+00	 3.801873799861507e-01	 5.103093484297622e+01
 1.011144777415877e+00	 4.003029966690664e-01	 1.271408921686320e+02
 1.081635905262479e+00	 2.001593576528611e-01	-6.681328119615982e+02
 1.077650490971870e+00	 2.206114668867699e-01	-5.821465951240262e+02
 1.073252271813420e+00	 2.411007280496023e-01	-4.951059197935065e+02
 1.068436851706730e+00	 2.616155460565918e-01	-4.077047660463758e+02
 1.063200236680694e+00	 2.821440354679318e-01	-3.206584504415456e+02
 1.057538854014219e+00	 3.026740363534475e-01	-2.347015758004832e+02
 1.051449570726956e+00	 3.231931315080629e-01	-1.505858031969160e+02
 1.044929711316766e+00	 3.436886649955435e-01	-6.907745237851175e+01
 1.037977074640545e+00	 3.641477619894577e-01	 9.045061486680043e+00
 1.030589949835735e+00	 3.845573498715942e-01	 8.299394516383681e+01
 1.022767131181332e+00	 4.049041805392548e-01	 1.519748875548340e+02
 1.093927222370492e+00	 2.024338958074826e-01	-6.048774362302852e+02
 1.089896519281624e+00	 2.231184153738912e-01	-5.220370776189143e+02
 1.085448320360364e+00	 2.438405090501808e-01	-4.374336082278508e+02
 1.080578179570856e+00	 2.645884499892571e-01	-3.521312242340560e+02
 1.075282057555951e+00	 2.853502176894963e-01	-2.672274865755514e+02
 1.069556340995452e+00	 3.061135140396980e-01	-1.838501413320803e+02
 1.063397861306960e+00	 3.268657807301824e-01	-1.031536614495017e+02
 1.056803912584899e+00	 3.475942180072564e-01	-2.631551942471223e+01
 1.049772268673173e+00	 3.682858047396423e-01	 4.546779681138415e+01
 1.042301199267603e+00	 3.889273197566481e-01	 1.109850099346332e+02
 1.034389484945809e+00	 4.095053644089534e-01	 1.690145036835101e+02
 1.106218539478505e+00	 2.047084339626188e-01	-5.114378289000175e+02
 1.102142547591368e+00	 2.256253638614272e-01	-4.355120860617346e+02
 1.097644368907272e+00	 2.465802900510737e-01	-3.571323593422705e+02
 1.092719507434896e+00	 2.675613539221362e-01	-2.777269472185901e+02
 1.087363878431055e+00	 2.885563999111739e-01	-1.987693541527446e+02
 1.081573827976446e+00	 3.095529917259612e-01	-1.217739965793595e+02
 1.075346151886618e+00	 3.305384299522137e-01	-4.829153071790086e+01
 1.068678113852559e+00	 3.514997710187806e-01	 2.009618481903902e+01
 1.061567462705179e+00	 3.724238474895377e-01	 8.178147509113339e+01
 1.054012448698681e+00	 3.932972896413123e-01	 1.351365634520616e+02
 1.046011838709305e+00	 4.141065482781622e-01	 1.785195910365111e+02
 9.297883010302649e-01	 3.680947095640363e-01	-2.894955670354228e+02
 9.222799379563009e-01	 3.865225944039564e-01	-2.747752931758492e+02
 9.143747236862125e-01	 4.048689474701951e-01	-2.637109798686715e+02
 9.060730098564396e-01	 4.231213782743761e-01	-2.572563166632668e+02
 8.973756499704220e-01	 4.412674277413337e-01	-2.563662327942703e+02
 8.882840068073012e-01	 4.592945930433334e-01	-2.619928941532694e+02
 8.787999583847406e-01	 4.771903531042267e-01	-2.750816092790998e+02
 8.689259024143142e-01	 4.949421946770166e-01	-2.965666690000778e+02
 8.586647591951593e-01	 5.125376388923134e-01	-3.273671456875140e+02
 8.480199728994641e-01	 5.299642681697645e-01	-3.683826791861928e+02
 8.369955112118155e-01	 5.472097533798151e-01	-4.204892773525964e+02
 9.414106548025766e-01	 3.726958934376526e-01	-2.017135200521049e+02
 9.338084371907733e-01	 3.913541268386016e-01	-1.993010237782748e+02
 9.258044077427657e-01	 4.099298093186076e-01	-1.999611850969183e+02
 9.173989224904455e-01	 4.284103955081879e-01	-2.044802482394462e+02
 9.085928456060454e-01	 4.467832705937361e-01	-2.136452432831277e+02
 8.993875569034437e-01	 4.650357754621704e-01	-2.282406680739165e+02
 8.897849578755234e-01	 4.831552325238889e-01	-2.490450958189708e+02
 8.797874762052527e-01	 5.011289721163065e-01	-2.768277288173318e+02
 8.693980686955066e-01	 5.189443593841651e-01	-3.123449198896851e+02
 8.586202225706245e-01	 5.365888215273571e-01	-3.563366839777602e+02
 8.474579551112504e-01	 5.540498753022077e-01	-4.095232230927845e+02
 9.530330085739085e-01	 3.772970773107793e-01	-1.239268354210863e+02
 9.453369364240809e-01	 3.961856592726618e-01	-1.321486521055299e+02
 9.372340917979960e-01	 4.149906711663489e-01	-1.428749246980312e+02
 9.287248351230007e-01	 4.336994127412525e-01	-1.567276574868050e+02
 9.198100412401194e-01	 4.522991134453253e-01	-1.743291972951444e+02
 9.104911069979682e-01	 4.707769578801373e-01	-1.962995893661585e+02
 9.007699573646499e-01	 4.891201119426346e-01	-2.232538752994262e+02
 8.906490499945261e-01	 5.073157495546431e-01	-2.557993494055322e+02
 8.801313781942111e-01	 5.253510798750376e-01	-2.945327907068586e+02
 8.692204722401954e-01	 5.432133748839548e-01	-3.400376885289205e+02
 8.579203990091799e-01	 5.608899972236004e-01	-3.928814801815445e+02
 9.646553623442610e-01	 3.818982611834161e-01	-5.577419391168536e+01
 9.568654356562231e-01	 4.010171917061370e-01	-7.301734369866659e+01
 9.486637758519040e-01	 4.200515330134196e-01	-9.221130323091742e+01
 9.400507477541058e-01	 4.389884299735700e-01	-1.138169263728782e+02
 9.310272368726441e-01	 4.578149562961006e-01	-1.382949763611553e+02
 9.215946570908742e-01	 4.765181402972340e-01	-1.661041450591272e+02
 9.117549568521194e-01	 4.950849913604636e-01	-1.976990303865761e+02
 9.015106237821341e-01	 5.135025269920270e-01	-2.335280842478614e+02
 8.908646876912724e-01	 5.317578003649310e-01	-2.740315439180109e+02
 8.798207219081765e-01	 5.498379282395579e-01	-3.196393603710407e+02
 8.683828429056041e-01	 5.677301191439930e-01	-3.707691374384708e+02
 9.762777161136343e-01	 3.864994450555633e-01	 3.088518026548016e+00
 9.683939348872000e-01	 4.058487241390272e-01	-2.162058956652217e+01
 9.600934599044899e-01	 4.251123948598194e-01	-4.774089649831880e+01
 9.513766603837601e-01	 4.442774472051405e-01	-7.557508539046643e+01
 9.422444325036197e-01	 4.633307991460626e-01	-1.054253248590591e+02
 9.326982071821625e-01	 4.822593227134609e-01	-1.375919419254136e+02
 9.227399563379315e-01	 5.010498707773759e-01	-1.723720684750327e+02
 9.123721975680773e-01	 5.196893044284582e-01	-2.100582701038725e+02
 9.015979971866909e-01	 5.381645208538457e-01	-2.509371661034651e+02
 8.904209715745676e-01	 5.564624815941661e-01	-2.952880496732699e+02
 8.788452868005231e-01	 5.745702410633855e-01	-3.433815177030814e+02
 9.879000698820278e-01	 3.911006289272207e-01	 5.298922036156117e+01
 9.799224341170119e-01	 4.106802565713322e-01	 2.231463648776474e+01
 9.715231439557533e-01	 4.301732567055483e-01	-9.245076768843205e+00
 9.627025730119644e-01	 4.495664644359640e-01	-4.183730482190145e+01
 9.534616281330460e-01	 4.688466419952109e-01	-7.560850514148341e+01
 9.438017572718324e-01	 4.880005051288175e-01	-1.107035229677312e+02
 9.337249558220870e-01	 5.070147501933717e-01	-1.472648967048278e+02
 9.232337713523547e-01	 5.258760818639360e-01	-1.854321574058873e+02
 9.123313066804664e-01	 5.445712413417811e-01	-2.253411269515342e+02
 9.010212212393695e-01	 5.630870349477797e-01	-2.671232196763808e+02
 8.893077306939365e-01	 5.814103629817780e-01	-3.109047523049549e+02
 9.995224236494423e-01	 3.957018127983884e-01	 9.424058096504947e+01
 9.914509333456585e-01	 4.155117890030526e-01	 5.904866174905164e+01
 9.829528280056942e-01	 4.352341185506064e-01	 2.348461492347235e+01
 9.740284856387178e-01	 4.548554816660403e-01	-1.244642149651785e+01
 9.646788237609235e-01	 4.743624848435458e-01	-4.873797672431195e+01
 9.549053073598841e-01	 4.937416875433039e-01	-8.538219670883262e+01
 9.447099553045856e-01	 5.129796296084510e-01	-1.223697987213229e+02
 9.340953451349669e-01	 5.320628592984610e-01	-1.596900315579663e+02
 9.230646161725991e-01	 5.509779618287377e-01	-1.973306418693431e+02
 9.116214709025816e-01	 5.697115883003986e-01	-2.352778470963518e+02
 8.997701745858451e-01	 5.882504848991706e-01	-2.735163154545443e+02
 1.011144777415877e+00	 4.003029966690664e-01	 1.271408921686320e+02
 1.002979432573140e+00	 4.203433214341877e-01	 8.882984441165279e+01
 9.943825120543131e-01	 4.402949803949937e-01	 5.064705318991668e+01
 9.853543982640206e-01	 4.601444988953695e-01	 1.274750181447420e+01
 9.758960193872512e-01	 4.798783276910670e-01	-2.471209760013117e+01
 9.660088574463180e-01	 4.994828699569205e-01	-6.157387825453173e+01
 9.556949547854272e-01	 5.189445090226136e-01	-9.767941303788470e+01
 9.449569189159139e-01	 5.382496367320331e-01	-1.328703258694322e+02
 9.337979256630885e-01	 5.573846823147149e-01	-1.669889164825567e+02
 9.222217205642039e-01	 5.763361416520226e-01	-1.998787949139007e+02
 9.102326184762480e-01	 5.950906068155633e-01	-2.313855217794521e+02
 1.022767131181332e+00	 4.049041805392548e-01	 1.519748875548340e+02
 1.014507931799456e+00	 4.251748538647378e-01	 1.118952536402460e+02
 1.005812196101609e+00	 4.453558422387101e-01	 7.243207285167470e+01
 9.966803108878730e-01	 4.654335161239517e-01	 3.388758696185788e+01
 9.871132150120300e-01	 4.853941705377748e-01	-3.433845916671290e+00
 9.771124075311334e-01	 5.052240523696667e-01	-3.922694119333465e+01
 9.666799542646118e-01	 5.249093884358594e-01	-7.318671287382668e+01
 9.558184926951958e-01	 5.444364141646523e-01	-1.050097267883749e+02
 9.445312351519353e-01	 5.637914027997134e-01	-1.343953744646709e+02
 9.328219702242366e-01	 5.829606950026520e-01	-1.610471597465471e+02
 9.206950623651458e-01	 6.019307287309560e-01	-1.846739899377718e+02
 1.034389484945809e+00	 4.095053644089534e-01	 1.690145036835101e+02
 1.026036431024607e+00	 4.300063862947030e-01	 1.284713037839812e+02
 1.017241880147583e+00	 4.504167040817556e-01	 8.902097679218359e+01
 1.008006223510275e+00	 4.707225333517867e-01	 5.111052330381919e+01
 9.983304106352595e-01	 4.909100133836690e-01	 1.518943958150893e+01
 9.882159576143311e-01	 5.109652347815431e-01	-1.829207948036079e+01
 9.776649537421397e-01	 5.308742678481889e-01	-4.888498735158937e+01
 9.666800664728121e-01	 5.506231915963183e-01	-7.614327204075960e+01
 9.552645446391390e-01	 5.701981232837328e-01	-9.962587000701782e+01
 9.434222198826796e-01	 5.895852483522865e-01	-1.188985958023273e+02
 9.311575062525380e-01	 6.087708506453484e-01	-1.335360749765934e+02
 1.046011838709305e+00	 4.141065482781622e-01	 1.785195910365111e+02
 1.037564930248593e+00	 4.348379187240830e-01	 1.387743463096509e+02
 1.028671564192235e+00	 4.554775659241303e-01	 1.005870099526669e+02
 1.019332136131226e+00	 4.760115505788748e-01	 6.454692506566491e+01
 1.009547606256940e+00	 4.964258562287497e-01	 3.124630180745082e+01
 9.993195076959104e-01	 5.167064171925492e-01	 1.277821471000692e+00
 9.886499532180107e-01	 5.368391472596017e-01	-2.476782394743663e+01
 9.775416402487633e-01	 5.568099690270316e-01	-4.630444222692258e+01
 9.659978541247000e-01	 5.766048437667730e-01	-6.275288612410382e+01
 9.540224695395332e-01	 5.962098017009265e-01	-7.354361723659372e+01
 9.416199501384250e-01	 6.156109725587411e-01	-7.811927186660418e+01
 8.369955112118155e-01	 5.472097533798151e-01	-4.204892773525964e+02
 8.255958632931958e-01	 5.642618811384013e-01	-4.784731594173596e+02
 8.138260360506314e-01	 5.811085811170719e-01	-5.362888027157846e+02
 8.016915487021741e-01	 5.977379532449607e-01	-5.935437710505489e+02
 7.891984256370140e-01	 6.141382946773878e-01	-6.498461031136212e+02
 7.763531875817183e-01	 6.302981264093361e-01	-7.048059294900507e+02
 7.631628410930560e-01	 6.462062194093811e-01	-7.580370941151764e+02
 7.496348664083717e-01	 6.618516201518141e-01	-8.091587694223223e+02
 7.357772036946522e-01	 6.772236754270479e-01	-8.577970543503021e+02
 7.215982377473873e-01	 6.923120563137026e-01	-9.035865444224892e+02
 7.071067811999999e-01	 7.071067811999999e-01	-9.461718632622698e+02
 8.474579551112504e-01	 5.540498753022077e-01	-4.095232230927845e+02
 8.359158115929692e-01	 5.713151546574315e-01	-4.572268868578485e+02
 8.239988615092374e-01	 5.883724383855524e-01	-5.048387294731971e+02
 8.117126930683318e-01	 6.052096776648181e-01	-5.520308423027963e+02
 7.990634059643095e-01	 6.218150233649912e-01	-5.984756141835981e+02
 7.860576024328196e-01	 6.381768529934919e-01	-6.438470833170352e+02
 7.727023766125910e-01	 6.542837971560034e-01	-6.878222933310174e+02
 7.590053022439359e-01	 6.701247654077456e-01	-7.300826445125329e+02
 7.449744187459286e-01	 6.856889713740123e-01	-7.703152311508470e+02
 7.306182157240029e-01	 7.009659570219055e-01	-8.082141559633388e+02
 7.159456159695000e-01	 7.159456159695000e-01	-8.434818127005670e+02
 8.579203990091799e-01	 5.608899972236004e-01	-3.928814801815445e+02
 8.462357598913327e-01	 5.783684281754621e-01	-4.309009694437220e+02
 8.341716869665182e-01	 5.956362956530330e-01	-4.689007498478109e+02
 8.217338374332409e-01	 6.126814020836755e-01	-5.066162865981360e+02
 8.089283862904220e-01	 6.294917520515947e-01	-5.437831697383868e+02
 7.957620172827934e-01	 6.460555795766478e-01	-5.801382050719076e+02
 7.822419121310444e-01	 6.623613749016258e-01	-6.154205089693764e+02
 7.683757380784541e-01	 6.783979106626776e-01	-6.493725998009824e+02
 7.541716337961848e-01	 6.941542673199765e-01	-6.817414786775369e+02
 7.396381936996136e-01	 7.096198577291084e-01	-7.122796922068045e+02
 7.247844507379998e-01	 7.247844507379999e-01	-7.407463700679484e+02
 8.683828429056041e-01	 5.677301191439930e-01	-3.707691374384708e+02
 8.565557081882860e-01	 5.854217016924925e-01	-3.996789511394446e+02
 8.443445124224748e-01	 6.029001529195133e-01	-4.286370186445866e+02
 8.317549817969009e-01	 6.201531265015331e-01	-4.574410669778872e+02
 8.187933666153511e-01	 6.371684807371980e-01	-4.858887799787285e+02
 8.054664321316400e-01	 6.539343061588038e-01	-5.137786322423535e+02
 7.917814476484165e-01	 6.704389526462485e-01	-5.409107266645183e+02
 7.777461739119264e-01	 6.866710559166093e-01	-5.670876300391587e+02
 7.633688488454204e-01	 7.026195632649410e-01	-5.921152011128028e+02
 7.486581716742190e-01	 7.182737584353109e-01	-6.158034055112104e+02
 7.336232855055000e-01	 7.336232855055000e-01	-6.379671120226454e+02
 8.788452868005231e-01	 5.745702410633855e-01	-3.433815177030814e+02
 8.668756564838288e-01	 5.924749752085229e-01	-3.637356358896233e+02
 8.545173378771065e-01	 6.101640101849937e-01	-3.842019691944783e+02
 8.417761261593122e-01	 6.276248509183908e-01	-4.046394341550783e+02
 8.286583469390975e-01	 6.448452094218015e-01	-4.249067405451103e+02
 8.151708469793590e-01	 6.618130327399596e-01	-4.448629721840400e+02
 8.013209831647067e-01	 6.785165303898708e-01	-4.643681710674248e+02
 7.871166097443530e-01	 6.949442011695413e-01	-4.832839209543926e+02
 7.725660638936355e-01	 7.110848592089053e-01	-5.014739265109515e+02
 7.576781496478195e-01	 7.269276591405139e-01	-5.188045841095573e+02
 7.424621202719999e-01	 7.424621202720001e-01	-5.351455404271849e+02
 8.893077306939365e-01	 5.814103629817780e-01	-3.109047523049549e+02
 8.771956047779617e-01	 5.995282487235530e-01	-3.232376017384684e+02
 8.646901633304135e-01	 6.174278674494742e-01	-3.357427675593620e+02
 8.517972705204740e-01	 6.350965753342479e-01	-3.483393213577920e+02
 8.385233272616601e-01	 6.525219381054047e-01	-3.609459686688247e+02
 8.248752618259512e-01	 6.696917593201157e-01	-3.734813803640304e+02
 8.108605186799150e-01	 6.865941081324930e-01	-3.858645270803524e+02
 7.964870455757337e-01	 7.032173464214730e-01	-3.980150144867542e+02
 7.817632789408300e-01	 7.195501551518694e-01	-4.098534171587293e+02
 7.666981276204146e-01	 7.355815598447166e-01	-4.213016088228050e+02
 7.513009550375001e-01	 7.513009550375001e-01	-4.322830867480835e+02
 8.997701745858451e-01	 5.882504848991706e-01	-2.735163154545443e+02
 8.875155530706845e-01	 6.065815222375835e-01	-2.783436790804521e+02
 8.748629887823961e-01	 6.246917247129546e-01	-2.833997350482452e+02
 8.618184148803874e-01	 6.425682997491056e-01	-2.886627116252952e+02
 8.483883075830400e-01	 6.601986667880082e-01	-2.941103158705731e+02
 8.345796766714155e-01	 6.775704858992714e-01	-2.997198191918419e+02
 8.204000541940423e-01	 6.946716858741154e-01	-3.054681456564472e+02
 8.058574814060682e-01	 7.114904916724046e-01	-3.113319624977932e+02
 7.909604939870044e-01	 7.280154510938338e-01	-3.172877722363348e+02
 7.757181055920049e-01	 7.442354605479196e-01	-3.233120058164043e+02
 7.601397898020000e-01	 7.601397898019999e-01	-3.293811161485745e+02
 9.102326184762480e-01	 5.950906068155633e-01	-2.313855217794521e+02
 8.978355013619972e-01	 6.136347957506137e-01	-2.292053959281610e+02
 8.850358142330540e-01	 6.319555819754350e-01	-2.273067415944251e+02
 8.718395592390517e-01	 6.500400241629630e-01	-2.257259797733888e+02
 8.582532879032364e-01	 6.678753954696115e-01	-2.244988590936719e+02
 8.442840915157530e-01	 6.854492124774274e-01	-2.236602990001035e+02
 8.299395897070877e-01	 7.027492636147378e-01	-2.232442354062660e+02
 8.152279172353567e-01	 7.197636369223365e-01	-2.232834698786772e+02
 8.001577090321583e-01	 7.364807470347983e-01	-2.238095233983467e+02
 7.847380835625897e-01	 7.528893612501224e-01	-2.248524957184448e+02
 7.689786245654999e-01	 7.689786245654999e-01	-2.264409312990877e+02
 9.206950623651458e-01	 6.019307287309560e-01	-1.846739899377718e+02
 9.081554496518998e-01	 6.206880692626442e-01	-1.759673928209708e+02
 8.952086396823874e-01	 6.392194392369155e-01	-1.675915723114690e+02
 8.818607035964670e-01	 6.575117485758205e-01	-1.596402110439491e+02
 8.681182682222500e-01	 6.755521241502151e-01	-1.522061719872588e+02
 8.539885063589624e-01	 6.933279390545832e-01	-1.453811025947030e+02
 8.394791252190520e-01	 7.108268413543603e-01	-1.392550411402156e+02
 8.245983530635995e-01	 7.280367821712683e-01	-1.339160279009498e+02
 8.093549240762918e-01	 7.449460429747625e-01	-1.294497238377758e+02
 7.937580615321697e-01	 7.615432619513252e-01	-1.259390393888481e+02
 7.778174593279999e-01	 7.778174593279999e-01	-1.234637759279151e+02
 9.311575062525380e-01	 6.087708506453484e-01	-1.335360749765934e+02
 9.184753979403921e-01	 6.277413427736747e-01	-1.187678097623449e+02
 9.053814651303959e-01	 6.464832964973959e-01	-1.043762693375558e+02
 8.918818479526330e-01	 6.649834729876779e-01	-9.051149827246121e+01
 8.779832485400803e-01	 6.832288528298185e-01	-7.732257790073814e+01
 8.636929212010450e-01	 7.012066656307392e-01	-6.495699466671527e+01
 8.490186607299344e-01	 7.189044190929826e-01	-5.356001037442092e+01
 8.339687888907961e-01	 7.363099274192001e-01	-4.327403857735167e+01
 8.185521391194046e-01	 7.534113389137267e-01	-3.423803134579015e+01
 8.027780395007446e-01	 7.701971626515282e-01	-2.658688060297746e+01
 7.866562940895000e-01	 7.866562940895000e-01	-2.045083813250530e+01
 9.416199501384250e-01	 6.156109725587411e-01	-7.811927186660418e+01
 9.287953462274744e-01	 6.347946162837050e-01	-5.773864736131390e+01
 9.155542905770797e-01	 6.537471537568762e-01	-3.777745089018879e+01
 9.019029923075504e-01	 6.724551973985354e-01	-1.844121924438782e+01
 8.878482288567273e-01	 6.909055815084219e-01	 6.561398807276930e-02
 8.733973360420002e-01	 7.090853922058951e-01	 1.754058275646177e+01
 8.585581962397351e-01	 7.269819968306050e-01	 3.378405126379990e+01
 8.433392247169470e-01	 7.445830726661317e-01	 4.860006926808769e+01
 8.277493541614975e-01	 7.618766348516912e-01	 6.179721416587179e+01
 8.117980174683143e-01	 7.788510633507310e-01	 7.318941411031594e+01
 7.954951288500001e-01	 7.954951288500001e-01	 8.259674652999720e+01
 7.071067811999999e-01	 7.071067811999999e-01	-9.461718632622698e+02
 6.923120563137025e-01	 7.215982377473872e-01	-9.843141920456259e+02
 6.772236754270478e-01	 7.357772036946522e-01	-1.016897250199520e+03
 6.618516201518141e-01	 7.496348664083716e-01	-1.043773502148996e+03
 6.462062194093813e-01	 7.631628410930559e-01	-1.064816655194746e+03
 6.302981264093362e-01	 7.763531875817182e-01	-1.079922089093950e+03
 6.141382946773881e-01	 7.891984256370137e-01	-1.089007169326123e+03
 5.977379532449610e-01	 8.016915487021739e-01	-1.092011442719779e+03
 5.811085811170723e-01	 8.138260360506312e-01	-1.088896715102118e+03
 5.642618811384018e-01	 8.255958632931955e-01	-1.079647011613838e+03
 5.472097533798151e-01	 8.369955112118155e-01	-1.064268421292818e+03
 7.159456159695000e-01	 7.159456159695000e-01	-8.434818127005670e+02
 7.009659570219053e-01	 7.306182157240030e-01	-8.764701497296264e+02
 6.856889713740122e-01	 7.449744187459286e-01	-9.049001913762696e+02
 6.701247654077458e-01	 7.590053022439357e-01	-9.286366417553641e+02
 6.542837971560036e-01	 7.727023766125908e-01	-9.475618205674602e+02
 6.381768529934920e-01	 7.860576024328195e-01	-9.615760725473663e+02
 6.218150233649915e-01	 7.990634059643091e-01	-9.705980798138158e+02
 6.052096776648186e-01	 8.117126930683318e-01	-9.745650756786333e+02
 5.883724383855530e-01	 8.239988615092370e-01	-9.734329593026553e+02
 5.713151546574324e-01	 8.359158115929688e-01	-9.671763114131995e+02
 5.540498753022077e-01	 8.474579551112504e-01	-9.557883121125158e+02
 7.247844507379998e-01	 7.247844507379999e-01	-7.407463700679484e+02
 7.096198577291083e-01	 7.396381936996136e-01	-7.687187479574527e+02
 6.941542673199766e-01	 7.541716337961849e-01	-7.931106798666021e+02
 6.783979106626776e-01	 7.683757380784542e-01	-8.137989103238779e+02
 6.623613749016261e-01	 7.822419121310443e-01	-8.306742324578521e+02
 6.460555795766482e-01	 7.957620172827933e-01	-8.436418776207706e+02
 6.294917520515949e-01	 8.089283862904216e-01	-8.526218268368464e+02
 6.126814020836757e-01	 8.217338374332406e-01	-8.575490425176064e+02
 5.956362956530332e-01	 8.341716869665180e-01	-8.583736195609687e+02
 5.783684281754625e-01	 8.462357598913323e-01	-8.550608556272946e+02
 5.608899972236003e-01	 8.579203990091798e-01	-8.475912410561644e+02
 7.336232855055000e-01	 7.336232855055000e-01	-6.379671120226454e+02
 7.182737584353108e-01	 7.486581716742190e-01	-6.610565739250803e+02
 7.026195632649409e-01	 7.633688488454202e-01	-6.815211493474972e+02
 6.866710559166094e-01	 7.777461739119265e-01	-6.992494311566434e+02
 6.704389526462485e-01	 7.917814476484162e-01	-7.141405519584109e+02
 6.539343061588040e-01	 8.054664321316398e-01	-7.261045541926241e+02
 6.371684807371982e-01	 8.187933666153508e-01	-7.350627006941131e+02
 6.201531265015334e-01	 8.317549817969007e-01	-7.409477240480998e+02
 6.029001529195136e-01	 8.443445124224743e-01	-7.437040135895465e+02
 5.854217016924929e-01	 8.565557081882855e-01	-7.432877394243673e+02
 5.677301191439930e-01	 8.683828429056042e-01	-7.396669133783912e+02
 7.424621202719999e-01	 7.424621202720001e-01	-5.351455404271849e+02
 7.269276591405137e-01	 7.576781496478194e-01	-5.534803776361309e+02
 7.110848592089053e-01	 7.725660638936355e-01	-5.701243940994000e+02
 6.949442011695413e-01	 7.871166097443529e-01	-5.849778458046198e+02
 6.785165303898705e-01	 8.013209831647063e-01	-5.979480756663147e+02
 6.618130327399598e-01	 8.151708469793592e-01	-6.089498643775050e+02
 6.448452094218017e-01	 8.286583469390970e-01	-6.179057400972750e+02
 6.276248509183910e-01	 8.417761261593117e-01	-6.247462451895017e+02
 6.101640101849942e-01	 8.545173378771063e-01	-6.294101585990655e+02
 5.924749752085233e-01	 8.668756564838282e-01	-6.318446728337833e+02
 5.745702410633855e-01	 8.788452868005230e-01	-6.320055249079226e+02
 7.513009550375001e-01	 7.513009550375001e-01	-4.322830867480835e+02
 7.355815598447167e-01	 7.666981276204147e-01	-4.459870623248078e+02
 7.195501551518695e-01	 7.817632789408299e-01	-4.589135477940407e+02
 7.032173464214733e-01	 7.964870455757336e-01	-4.709742835821120e+02
 6.865941081324931e-01	 8.108605186799150e-01	-4.820846983004320e+02
 6.696917593201157e-01	 8.248752618259508e-01	-4.921642406294500e+02
 6.525219381054053e-01	 8.385233272616602e-01	-5.011366881459713e+02
 6.350965753342483e-01	 8.517972705204742e-01	-5.089304311975844e+02
 6.174278674494746e-01	 8.646901633304133e-01	-5.154787301508112e+02
 5.995282487235538e-01	 8.771956047779614e-01	-5.207199445770499e+02
 5.814103629817781e-01	 8.893077306939365e-01	-5.245977331895855e+02
 7.601397898020000e-01	 7.601397898019999e-01	-3.293811161485745e+02
 7.442354605479196e-01	 7.757181055920047e-01	-3.385736755470109e+02
 7.280154510938339e-01	 7.909604939870044e-01	-3.478820637621828e+02
 7.114904916724047e-01	 8.058574814060682e-01	-3.572293332081577e+02
 6.946716858741158e-01	 8.204000541940424e-01	-3.665388779264495e+02
 6.775704858992717e-01	 8.345796766714155e-01	-3.757347467683077e+02
 6.601986667880085e-01	 8.483883075830395e-01	-3.847419513745430e+02
 6.425682997491058e-01	 8.618184148803871e-01	-3.934867669467154e+02
 6.246917247129552e-01	 8.748629887823960e-01	-4.018970238798865e+02
 6.065815222375840e-01	 8.875155530706840e-01	-4.099023884222660e+02
 5.882504848991708e-01	 8.997701745858451e-01	-4.174346306396245e+02
 7.689786245654999e-01	 7.689786245654999e-01	-2.264409312990877e+02
 7.528893612501225e-01	 7.847380835625901e-01	-2.312374008858476e+02
 7.364807470347983e-01	 8.001577090321584e-01	-2.370236966221995e+02
 7.197636369223366e-01	 8.152279172353567e-01	-2.437340164036682e+02
 7.027492636147382e-01	 8.299395897070879e-01	-2.512996035802702e+02
 6.854492124774276e-01	 8.442840915157526e-01	-2.596490416939192e+02
 6.678753954696118e-01	 8.582532879032362e-01	-2.687085616231223e+02
 6.500400241629634e-01	 8.718395592390513e-01	-2.784023590202049e+02
 6.319555819754356e-01	 8.850358142330536e-01	-2.886529198581764e+02
 6.136347957506144e-01	 8.978355013619969e-01	-2.993813518589561e+02
 5.950906068155634e-01	 9.102326184762480e-01	-3.105077195524067e+02
 7.778174593279999e-01	 7.778174593279999e-01	-1.234637759279151e+02
 7.615432619513252e-01	 7.937580615321698e-01	-1.239755502226822e+02
 7.449460429747624e-01	 8.093549240762917e-01	-1.263324851612514e+02
 7.280367821712684e-01	 8.245983530635994e-01	-1.304797632887752e+02
 7.108268413543607e-01	 8.394791252190520e-01	-1.363563650989014e+02
 6.933279390545833e-01	 8.539885063589621e-01	-1.438953455743479e+02
 6.755521241502154e-01	 8.681182682222498e-01	-1.530241405084128e+02
 6.575117485758207e-01	 8.818607035964664e-01	-1.636649003853971e+02
 6.392194392369160e-01	 8.952086396823867e-01	-1.757348493871297e+02
 6.206880692626449e-01	 9.081554496518994e-01	-1.891466669087107e+02
 6.019307287309560e-01	 9.206950623651458e-01	-2.038088888111959e+02
 7.866562940895000e-01	 7.866562940895000e-01	-2.045083813250530e+01
 7.701971626515279e-01	 8.027780395007448e-01	-1.678555652923356e+01
 7.534113389137267e-01	 8.185521391194046e-01	-1.580273637054026e+01
 7.363099274192003e-01	 8.339687888907965e-01	-1.745838943877174e+01
 7.189044190929827e-01	 8.490186607299340e-01	-2.169912498521442e+01
 7.012066656307393e-01	 8.636929212010448e-01	-2.846240831354547e+01
 6.832288528298186e-01	 8.779832485400799e-01	-3.767686628970893e+01
 6.649834729876783e-01	 8.918818479526329e-01	-4.926263745021629e+01
 6.464832964973964e-01	 9.053814651303955e-01	-6.313176402921523e+01
 6.277413427736752e-01	 9.184753979403918e-01	-7.918862290364771e+01
 6.087708506453484e-01	 9.311575062525379e-01	-9.733039216899446e+01
 7.954951288500001e-01	 7.954951288500001e-01	 8.259674652999720e+01
 7.788510633507308e-01	 8.117980174683144e-01	 9.033503285980487e+01
 7.618766348516911e-01	 8.277493541614976e-01	 9.457098945512075e+01
 7.445830726661320e-01	 8.433392247169471e-01	 9.533792553033611e+01
 7.269819968306053e-01	 8.585581962397351e-01	 9.268170785161112e+01
 7.090853922058953e-01	 8.733973360420000e-01	 8.666051987882760e+01
 6.909055815084221e-01	 8.878482288567272e-01	 7.734455705616620e+01
 6.724551973985359e-01	 9.019029923075501e-01	 6.481566068405888e+01
 6.537471537568769e-01	 9.155542905770793e-01	 4.916689329604484e+01
 6.347946162837055e-01	 9.287953462274742e-01	 3.050205892035632e+01
 6.156109725587411e-01	 9.416199501384250e-01	 8.935172022669903e+00
 5.472097533798151e-01	 8.369955112118155e-01	-1.064268421292818e+03
 5.299642681697644e-01	 8.480199728994640e-01	-1.046247611652233e+03
 5.125376388923134e-01	 8.586647591951594e-01	-1.028360387031453e+03
 4.949421946770166e-01	 8.689259024143141e-01	-1.009572433900492e+03
 4.771903531042269e-01	 8.787999583847403e-01	-9.888654317726974e+02
 4.592945930433337e-01	 8.882840068073012e-01	-9.652410841983065e+02
 4.412674277413340e-01	 8.973756499704219e-01	-9.377249668534876e+02
 4.231213782743766e-01	 9.060730098564395e-01	-9.053701716707222e+02
 4.048689474701956e-01	 9.143747236862123e-01	-8.672607281699443e+02
 3.865225944039570e-01	 9.222799379563006e-01	-8.225147854832625e+02
 3.680947095640363e-01	 9.297883010302649e-01	-7.702875409871672e+02
 5.540498753022077e-01	 8.474579551112504e-01	-9.557883121125158e+02
 5.365888215273570e-01	 8.586202225706244e-01	-9.323718431761108e+02
 5.189443593841651e-01	 8.693980686955066e-01	-9.083234870766626e+02
 5.011289721163066e-01	 8.797874762052528e-01	-8.827828477434199e+02
 4.831552325238891e-01	 8.897849578755235e-01	-8.549055579187295e+02
 4.650357754621707e-01	 8.993875569034435e-01	-8.238665872213286e+02
 4.467832705937365e-01	 9.085928456060449e-01	-7.888633849096973e+02
 4.284103955081883e-01	 9.173989224904452e-01	-7.491188404925895e+02
 4.099298093186080e-01	 9.258044077427652e-01	-7.038840472595458e+02
 3.913541268386022e-01	 9.338084371907733e-01	-6.524408558201070e+02
 3.726958934376526e-01	 9.414106548025766e-01	-5.941042068186557e+02
 5.608899972236003e-01	 8.579203990091798e-01	-8.475912410561644e+02
 5.432133748839548e-01	 8.692204722401957e-01	-8.204884095105754e+02
 5.253510798750377e-01	 8.801313781942111e-01	-7.920056325284100e+02
 5.073157495546432e-01	 8.906490499945261e-01	-7.614530622879926e+02
 4.891201119426348e-01	 9.007699573646497e-01	-7.281569198416408e+02
 4.707769578801375e-01	 9.104911069979682e-01	-6.914620918994719e+02
 4.522991134453255e-01	 9.198100412401192e-01	-6.507345796254166e+02
 4.336994127412528e-01	 9.287248351230004e-01	-6.053637867307574e+02
 4.149906711663495e-01	 9.372340917979960e-01	-5.547646357932410e+02
 3.961856592726625e-01	 9.453369364240807e-01	-4.983795034324793e+02
 3.772970773107793e-01	 9.530330085739084e-01	-4.356799667131647e+02
 5.677301191439930e-01	 8.683828429056042e-01	-7.396669133783912e+02
 5.498379282395577e-01	 8.798207219081762e-01	-7.105252343742353e+02
 5.317578003649310e-01	 8.908646876912723e-01	-6.792723361995880e+02
 5.135025269920271e-01	 9.015106237821341e-01	-6.453856718482255e+02
 4.950849913604638e-01	 9.117549568521192e-01	-6.083588073848736e+02
 4.765181402972344e-01	 9.215946570908742e-01	-5.677033186792378e+02
 4.578149562961010e-01	 9.310272368726438e-01	-5.229505571823751e+02
 4.389884299735704e-01	 9.400507477541058e-01	-4.736532761085762e+02
 4.200515330134201e-01	 9.486637758519038e-01	-4.193871097494301e+02
 4.010171917061375e-01	 9.568654356562227e-01	-3.597519000413128e+02
 3.818982611834161e-01	 9.646553623442610e-01	-2.943728659155688e+02
 5.745702410633855e-01	 8.788452868005230e-01	-6.320055249079226e+02
 5.564624815941662e-01	 8.904209715745679e-01	-6.024136740396907e+02
 5.381645208538457e-01	 9.015979971866910e-01	-5.699955154060710e+02
 5.196893044284583e-01	 9.123721975680770e-01	-5.343926713603374e+02
 5.010498707773762e-01	 9.227399563379314e-01	-4.952629255120420e+02
 4.822593227134611e-01	 9.326982071821623e-01	-4.522814302398938e+02
 4.633307991460628e-01	 9.422444325036196e-01	-4.051418000053018e+02
 4.442774472051409e-01	 9.513766603837600e-01	-3.535570858490695e+02
 4.251123948598199e-01	 9.600934599044898e-01	-2.972606275423229e+02
 4.058487241390278e-01	 9.683939348871998e-01	-2.360067809535599e+02
 3.864994450555633e-01	 9.762777161136343e-01	-1.695715192736980e+02
 5.814103629817781e-01	 8.893077306939365e-01	-5.245977331895855e+02
 5.630870349477796e-01	 9.010212212393696e-01	-4.960883154178368e+02
 5.445712413417813e-01	 9.123313066804662e-01	-4.640531152304516e+02
 5.258760818639362e-01	 9.232337713523550e-01	-4.282949034041454e+02
 5.070147501933719e-01	 9.337249558220868e-01	-3.886326640048491e+02
 4.880005051288177e-01	 9.438017572718324e-01	-3.449021231259593e+02
 4.688466419952113e-01	 9.534616281330459e-01	-2.969561799231896e+02
 4.495664644359644e-01	 9.627025730119640e-01	-2.446652392916755e+02
 4.301732567055489e-01	 9.715231439557529e-01	-1.879174463483259e+02
 4.106802565713329e-01	 9.799224341170115e-01	-1.266188236738336e+02
 3.911006289272207e-01	 9.879000698820278e-01	-6.069331302545075e+01
 5.882504848991708e-01	 8.997701745858451e-01	-4.174346306396245e+02
 5.697115883003985e-01	 9.116214709025819e-01	-3.914867882292985e+02
 5.509779618287376e-01	 9.230646161725989e-01	-3.613287580697009e+02
 5.320628592984612e-01	 9.340953451349671e-01	-3.269215438043483e+02
 5.129796296084511e-01	 9.447099553045852e-01	-2.882424181123663e+02
 4.937416875433043e-01	 9.549053073598841e-01	-2.452847827541537e+02
 4.743624848435461e-01	 9.646788237609232e-01	-1.980579471565075e+02
 4.548554816660406e-01	 9.740284856387172e-01	-1.465868287915399e+02
 4.352341185506070e-01	 9.829528280056942e-01	-9.091157915382067e+01
 4.155117890030531e-01	 9.914509333456581e-01	-3.108713963619294e+01
 3.957018127983884e-01	 9.995224236494423e-01	 3.281726795734360e+01
 5.950906068155634e-01	 9.102326184762480e-01	-3.105077195524067e+02
 5.763361416520227e-01	 9.222217205642042e-01	-2.885495901295686e+02
 5.573846823147151e-01	 9.337979256630887e-01	-2.617114173519454e+02
 5.382496367320332e-01	 9.449569189159140e-01	-2.301096227076012e+02
 5.189445090226138e-01	 9.556949547854271e-01	-1.938769560520511e+02
 4.994828699569208e-01	 9.660088574463179e-01	-1.531616966957448e+02
 4.798783276910674e-01	 9.758960193872510e-01	-1.081267890294650e+02
 4.601444988953700e-01	 9.853543982640203e-01	-5.894891979818533e+01
 4.402949803949942e-01	 9.943825120543127e-01	-5.817544420365948e+00
 4.203433214341882e-01	 1.002979432573140e+00	 5.106613004558903e+01
 4.003029966690664e-01	 1.011144777415877e+00	 1.114901975625928e+02
 6.019307287309560e-01	 9.206950623651458e-01	-2.038088888111959e+02
 5.829606950026519e-01	 9.328219702242370e-01	-1.872199237574301e+02
 5.637914027997134e-01	 9.445312351519353e-01	-1.650951134998311e+02
 5.444364141646524e-01	 9.558184926951957e-01	-1.377035783134116e+02
 5.249093884358597e-01	 9.666799542646118e-01	-1.053308296357220e+02
 5.052240523696671e-01	 9.771124075311334e-01	-6.827732159872902e+01
 4.853941705377752e-01	 9.871132150120299e-01	-2.685695286097186e+01
 4.654335161239521e-01	 9.966803108878728e-01	 1.860447034392300e+01
 4.453558422387106e-01	 1.005812196101609e+00	 6.777079900001841e+01
 4.251748538647384e-01	 1.014507931799456e+00	 1.202971230834462e+02
 4.049041805392548e-01	 1.022767131181332e+00	 1.758313596456599e+02
 6.087708506453484e-01	 9.311575062525379e-01	-9.733039216899446e+01
 5.895852483522863e-01	 9.434222198826796e-01	-8.744354476888017e+01
 5.701981232837326e-01	 9.552645446391391e-01	-7.137863039075121e+01
 5.506231915963185e-01	 9.666800664728121e-01	-4.955484069060073e+01
 5.308742678481890e-01	 9.776649537421396e-01	-2.240782462859744e+01
 5.109652347815433e-01	 9.882159576143307e-01	 9.612400469010119e+00
 4.909100133836695e-01	 9.983304106352595e-01	 4.604357201345759e+01
 4.707225333517872e-01	 1.008006223510275e+00	 8.641332474989500e+01
 4.504167040817562e-01	 1.017241880147583e+00	 1.302413384045163e+02
 4.300063862947036e-01	 1.026036431024607e+00	 1.770414763065919e+02
 4.095053644089534e-01	 1.034389484945808e+00	 2.263239014028624e+02
 6.156109725587411e-01	 9.416199501384250e-01	 8.935172022669903e+00
 5.962098017009264e-01	 9.540224695395332e-01	 1.083137999787883e+01
 5.766048437667730e-01	 9.659978541247000e-01	 1.953474928028419e+01
 5.568099690270316e-01	 9.775416402487633e-01	 3.447855666066037e+01
 5.368391472596018e-01	 9.886499532180105e-01	 5.507955224892307e+01
 5.167064171925495e-01	 9.993195076959103e-01	 8.074068009941475e+01
 4.964258562287501e-01	 1.009547606256940e+00	 1.108538176879199e+02
 4.760115505788752e-01	 1.019332136131226e+00	 1.448025158586377e+02
 4.554775659241308e-01	 1.028671564192235e+00	 1.819647213432108e+02
 4.348379187240837e-01	 1.037564930248593e+00	 2.217154646003184e+02
 4.141065482781622e-01	 1.046011838709305e+00	 2.634294965200623e+02
 3.680947095640363e-01	 9.297883010302649e-01	-7.702875409871672e+02
 3.495975907771368e-01	 9.368999543523497e-01	-7.033574559551482e+02
 3.310434199775671e-01	 9.436155223571460e-01	-6.164156408257430e+02
 3.124442408950447e-01	 9.499361011546517e-01	-5.115254132273943e+02
 2.938119377279355e-01	 9.558632460744549e-01	-3.907562613055472e+02
 2.751582148638955e-01	 9.613989581557346e-01	-2.561755474337946e+02
 2.564945776994927e-01	 9.665456696731550e-01	-1.098405062699838e+02
 2.378323146029685e-01	 9.713062287906586e-01	 4.620942468977965e+01
 2.191824800562900e-01	 9.756838834365028e-01	 2.099599081422190e+02
 2.005558790047262e-01	 9.796822644935033e-01	 3.794286140217034e+02
 1.819630524344169e-01	 9.833053683983746e-01	 5.526717053877717e+02
 3.726958934376526e-01	 9.414106548025766e-01	-5.941042068186557e+02
 3.539675606653077e-01	 9.486112037905382e-01	-5.484263386345257e+02
 3.351814627300657e-01	 9.554107163947457e-01	-4.855968231960476e+02
 3.163497939082678e-01	 9.618103024265738e-01	-4.073286212181995e+02
 2.974845869507599e-01	 9.678115366572296e-01	-3.153418641350940e+02
 2.785976925500455e-01	 9.734164451388825e-01	-2.113568845942123e+02
 2.597007599201513e-01	 9.786274905496308e-01	-9.708748449183147e+01
 2.408052185339230e-01	 9.834475566554659e-01	 2.576552693443307e+01
 2.219222610543540e-01	 9.878799319837492e-01	 1.555204959487170e+02
 2.030628274885305e-01	 9.919282928033322e-01	 2.905207626966567e+02
 1.842375905849211e-01	 9.955966855063876e-01	 4.291401533844194e+02
 3.772970773107793e-01	 9.530330085739084e-01	-4.356799667131647e+02
 3.583375305530888e-01	 9.603224532279364e-01	-4.079574453444344e+02
 3.393195054822754e-01	 9.672059104317243e-01	-3.658959793121460e+02
 3.202553469213020e-01	 9.736845036980224e-01	-3.108647080952574e+02
 3.011572361734961e-01	 9.797598272396583e-01	-2.442409051100287e+02
 2.820371702362082e-01	 9.854339321217914e-01	-1.674043143122943e+02
 2.629069421409231e-01	 9.907093114259542e-01	-8.173166844961953e+01
 2.437781224650914e-01	 9.955888845201885e-01	 1.140858407620934e+01
 2.246620420527323e-01	 1.000075980530958e+00	 1.106613195683060e+02
 2.055697759727496e-01	 1.004174321113151e+00	 2.146895253290286e+02
 1.865121287359399e-01	 1.007888002614400e+00	 3.221788135369468e+02
 3.818982611834161e-01	 9.646553623442610e-01	-2.943728659155688e+02
 3.627075004404804e-01	 9.720337026645445e-01	-2.814279859752787e+02
 3.434575482341956e-01	 9.790011044680814e-01	-2.569111962794494e+02
 3.241608999341474e-01	 9.855587049689971e-01	-2.218541145175611e+02
 3.048298853961442e-01	 9.917081178217401e-01	-1.772974198874691e+02
 2.854766479223834e-01	 9.974514191044608e-01	-1.242864758778846e+02
 2.661131243618082e-01	 1.002791132302125e+00	-6.386707968904699e+01
 2.467510263964736e-01	 1.007730212384825e+00	 2.918640225095544e+00
 2.274018230514250e-01	 1.012272029078129e+00	 7.503615909613831e+01
 2.080767244573832e-01	 1.016420349422961e+00	 1.514623060305567e+02
 1.887866668874734e-01	 1.020179319722413e+00	 2.311888144342035e+02
 3.864994450555633e-01	 9.762777161136343e-01	-1.695715192736980e+02
 3.670774703274824e-01	 9.837449521003626e-01	-1.683400655069417e+02
 3.475955909858267e-01	 9.907962985038169e-01	-1.582597002276348e+02
 3.280664529468041e-01	 9.974329062394982e-01	-1.400305938005439e+02
 3.085025346187044e-01	 1.003656408403476e+00	-1.143628712959540e+02
 2.889161256085711e-01	 1.009468906086891e+00	-8.197350223628075e+01
 2.693193065828065e-01	 1.014872953178144e+00	-4.358326281728517e+01
 2.497239303280696e-01	 1.019871540249376e+00	 8.621331419394096e-02
 2.301416040504319e-01	 1.024468077625263e+00	 4.831528103431484e+01
 2.105836729424314e-01	 1.028666377732761e+00	 1.003890132362273e+02
 1.910612050395216e-01	 1.032470636830427e+00	 1.555998021213361e+02
 3.911006289272207e-01	 9.879000698820278e-01	-6.069331302545075e+01
 3.714474402140946e-01	 9.954562015353907e-01	-6.821921959084227e+01
 3.517336337371683e-01	 1.002591492538931e+00	-6.957673048479339e+01
 3.319720059592722e-01	 1.009307107509526e+00	-6.514042881774638e+01
 3.121751838411762e-01	 1.015604698984865e+00	-5.529571244215039e+01
 2.923556032947714e-01	 1.021486393069082e+00	-4.043693212531765e+01
 2.725254888039181e-01	 1.026954774054010e+00	-2.096554885151772e+01
 2.526968342598795e-01	 1.032012868113843e+00	 2.711678993223870e+00
 2.328813850497531e-01	 1.036664126172358e+00	 3.018446850394182e+01
 2.130906214278943e-01	 1.040912406042553e+00	 6.104073592119124e+01
 1.933357431920845e-01	 1.044761953938439e+00	 9.486826260293321e+01
 3.957018127983884e-01	 9.995224236494423e-01	 3.281726795734360e+01
 3.758174101003174e-01	 1.007167450969629e+00	 1.938694769932744e+01
 3.558716764882207e-01	 1.014386686573424e+00	 9.485507702453717e+00
 3.358775589715515e-01	 1.021181308779080e+00	 3.058296462733523e+00
 3.158478330635600e-01	 1.027552989565908e+00	 3.901970151445511e-02
 2.957950809809843e-01	 1.033503880051033e+00	 3.503716575688074e-01
 2.757316710251428e-01	 1.039036594929724e+00	 3.904699805677481e+00
 2.556697381919033e-01	 1.044154195978224e+00	 1.060469750619552e+01
 2.356211660493888e-01	 1.048860174719417e+00	 2.034411911680263e+01
 2.155975699137717e-01	 1.053158434352334e+00	 3.300851217465032e+01
 1.956102813451620e-01	 1.057053271046452e+00	 4.847596138085851e+01
 4.003029966690664e-01	 1.011144777415877e+00	 1.114901975625928e+02
 3.801873799861506e-01	 1.018878700403077e+00	 9.491003216862717e+01
 3.600097192389839e-01	 1.026181880607295e+00	 7.925881822261874e+01
 3.397831119836419e-01	 1.033055510048160e+00	 6.479637520293102e+01
 3.195204822858556e-01	 1.039501280146605e+00	 5.177008268077790e+01
 2.992345586672098e-01	 1.045521367032745e+00	 4.041429835152744e+01
 2.789378532464808e-01	 1.051118415805285e+00	 3.094986128579480e+01
 2.586426421241408e-01	 1.056295523842520e+00	 2.358368009476391e+01
 2.383609470493386e-01	 1.061056223266437e+00	 1.850840506277774e+01
 2.181045184000638e-01	 1.065404462662107e+00	 1.590218269967221e+01
 1.978848194987542e-01	 1.069344588154466e+00	 1.592849061014158e+01
 4.049041805392548e-01	 1.022767131181332e+00	 1.758313596456599e+02
 3.845573498715942e-01	 1.030589949835736e+00	 1.587620113268218e+02
 3.641477619894577e-01	 1.037977074640545e+00	 1.400599226720882e+02
 3.436886649955436e-01	 1.044929711316767e+00	 1.202941096771044e+02
 3.231931315080631e-01	 1.051449570726956e+00	 1.000203811445648e+02
 3.026740363534478e-01	 1.057538854014218e+00	 7.977956014009872e+01
 2.821440354679321e-01	 1.063200236680694e+00	 6.009584172481372e+01
 2.616155460565923e-01	 1.068436851706730e+00	 4.147529178316817e+01
 2.411007280496028e-01	 1.073252271813419e+00	 2.440449046403452e+01
 2.206114668867706e-01	 1.077650490971870e+00	 9.349322483481330e+00
 2.001593576528611e-01	 1.081635905262479e+00	-3.246084687560881e+00
 4.095053644089534e-01	 1.034389484945808e+00	 2.263239014028624e+02
 3.889273197566479e-01	 1.042301199267603e+00	 2.113363465406745e+02
 3.682858047396424e-01	 1.049772268673173e+00	 1.921913076757644e+02
 3.475942180072565e-01	 1.056803912584900e+00	 1.697619006482956e+02
 3.268657807301825e-01	 1.063397861306960e+00	 1.449072956602267e+02
 3.061135140396982e-01	 1.069556340995452e+00	 1.184697582787163e+02
 2.853502176894966e-01	 1.075282057555951e+00	 9.127187706144963e+01
 2.645884499892575e-01	 1.080578179570855e+00	 6.411398768328954e+01
 2.438405090501814e-01	 1.085448320360364e+00	 3.777180149185389e+01
 2.231184153738919e-01	 1.089896519281624e+00	 1.299424448997217e+01
 2.024338958074826e-01	 1.093927222370491e+00	-9.498489144005191e+00
 4.141065482781622e-01	 1.046011838709305e+00	 2.634294965200623e+02
 3.932972896413123e-01	 1.054012448698682e+00	 2.530090117094209e+02
 3.724238474895377e-01	 1.061567462705179e+00	 2.359420157196612e+02
 3.514997710187807e-01	 1.068678113852559e+00	 2.134007974531131e+02
 3.305384299522138e-01	 1.075346151886617e+00	 1.865429896077675e+02
 3.095529917259615e-01	 1.081573827976446e+00	 1.565074448137109e+02
 2.885563999111744e-01	 1.087363878431055e+00	 1.244103480488511e+02
 2.675613539221366e-01	 1.092719507434895e+00	 9.134158021270659e+01
 2.465802900510743e-01	 1.097644368907271e+00	 5.836134514233471e+01
 2.256253638614278e-01	 1.102142547591368e+00	 2.649706977272569e+01
 2.047084339626188e-01	 1.106218539478505e+00	-3.259415396387880e+00
 1.819630524344169e-01	 9.833053683983746e-01	 5.526717053877717e+02
 1.634142641907509e-01	 9.865575392429453e-01	 7.543205021042686e+02
 1.449194890435836e-01	 9.894434504702300e-01	 1.010956420530329e+03
 1.264884019976694e-01	 9.919680862544974e-01	 1.323417327962207e+03
 1.081303688402294e-01	 9.941367226520524e-01	 1.692311453488293e+03
 8.985443791194073e-02	 9.959549086084808e-01	 2.118024316134863e+03
 7.166933308134309e-02	 9.974284469032259e-01	 2.600726388497582e+03
 5.358344789747966e-02	 9.985633751090948e-01	 3.140381412295292e+03
 3.560484089073371e-02	 9.993659466402712e-01	 3.736755282416090e+03
 1.774123198744578e-02	 9.998426119581703e-01	 4.389425416889605e+03
 0.000000000000000e+00	 1.000000000000000e+00	 5.097790531750166e+03
 1.842375905849211e-01	 9.955966855063876e-01	 4.291401533844194e+02
 1.654569424871889e-01	 9.988895084859244e-01	 6.338455344303045e+02
 1.467309826500151e-01	 1.001811493603026e+00	 8.837856251897124e+02
 1.280695070157072e-01	 1.004367687334138e+00	 1.179656539999212e+03
 1.094819984438205e-01	 1.006563431686268e+00	 1.521963027342445e+03
 9.097761837928414e-02	 1.008404344966822e+00	 1.911024255996726e+03
 7.256519973898776e-02	 1.009896302489984e+00	 2.346980215260636e+03
 5.425324099133060e-02	 1.011045417298220e+00	 2.829798659406655e+03
 3.604990139831873e-02	 1.011858020973390e+00	 3.359282526618052e+03
 1.796299738536468e-02	 1.012340644607676e+00	 3.935077763394933e+03
 0.000000000000000e+00	 1.012500000000000e+00	 4.556681486698000e+03
 1.865121287359399e-01	 1.007888002614400e+00	 3.221788135369468e+02
 1.674996207842255e-01	 1.011221477728904e+00	 5.256267680638430e+02
 1.485424762570973e-01	 1.014179536735822e+00	 7.648285401605051e+02
 1.296506120344171e-01	 1.016767288413778e+00	 1.040340102860726e+03
 1.108336280480745e-01	 1.018990140720485e+00	 1.352563677034068e+03
 9.210079884725111e-02	 1.020853781325163e+00	 1.701752396098811e+03
 7.346106639718736e-02	 1.022364158076741e+00	 2.088015465218229e+03
 5.492303408563919e-02	 1.023527459487344e+00	 2.511323758619906e+03
 3.649496190623605e-02	 1.024350095306508e+00	 2.971515798775974e+03
 1.818476278346310e-02	 1.024838677257182e+00	 3.468304061771635e+03
 0.000000000000000e+00	 1.025000000000000e+00	 4.001281554230467e+03
 1.887866668874734e-01	 1.020179319722413e+00	 2.311888144342035e+02
 1.695422990818606e-01	 1.023553446971883e+00	 4.292212587910137e+02
 1.503539698648305e-01	 1.026547579868618e+00	 6.537883344374670e+02
 1.312317170537990e-01	 1.029166889493419e+00	 9.053074265098197e+02
 1.121852576529911e-01	 1.031416849754700e+00	 1.184079146809805e+03
 9.322397931584156e-02	 1.033303217683504e+00	 1.490290896905980e+03
 7.435693305594188e-02	 1.034832013663499e+00	 1.824020807862564e+03
 5.559282718040544e-02	 1.036009501676469e+00	 2.185242013527256e+03
 3.694002241448566e-02	 1.036842169639627e+00	 2.573827214390694e+03
 1.840652818174105e-02	 1.037336709906688e+00	 2.989553489487475e+03
 0.000000000000000e+00	 1.037500000000000e+00	 3.432107314609866e+03
 1.910612050395216e-01	 1.032470636830427e+00	 1.555998021213361e+02
 1.715849773800944e-01	 1.035885416214862e+00	 3.442071547626372e+02
 1.521654634732146e-01	 1.038915623001414e+00	 5.503823116218398e+02
 1.328128220738531e-01	 1.041566490573059e+00	 7.744055678651193e+02
 1.135368872585706e-01	 1.043843558788917e+00	 1.016476811968313e+03
 9.434715978505553e-02	 1.045752654041845e+00	 1.276718006320826e+03
 7.525279971525133e-02	 1.047299869250256e+00	 1.555175928280831e+03
 5.626262027562935e-02	 1.048491543865594e+00	 1.851825141708107e+03
 3.738508292306758e-02	 1.049334243972746e+00	 2.166571169066249e+03
 1.862829358019852e-02	 1.049834742556193e+00	 2.499253834512649e+03
 0.000000000000000e+00	 1.050000000000000e+00	 2.849650748960993e+03
 1.933357431920845e-01	 1.044761953938439e+00	 9.486826260293321e+01
 1.736276556789268e-01	 1.048217385457841e+00	 2.701824557674378e+02
 1.539769570822495e-01	 1.051283666134210e+00	 4.543410784744098e+02
 1.343939270945792e-01	 1.053966091652700e+00	 6.474887809803039e+02
 1.148885168648128e-01	 1.056270267823132e+00	 8.497255829163802e+02
 9.547034025489304e-02	 1.058202090400186e+00	 1.061108289834757e+03
 7.614866637511571e-02	 1.059767724837014e+00	 1.281652055649817e+03
 5.693241337131089e-02	 1.060973586054718e+00	 1.511332073906478e+03
 3.783014343198180e-02	 1.061826318305864e+00	 1.750085380856819e+03
 1.885005897883552e-02	 1.062332775205699e+00	 1.997812753525485e+03
 0.000000000000000e+00	 1.062500000000000e+00	 2.254380686279123e+03
 1.956102813451620e-01	 1.057053271046452e+00	 4.847596138085851e+01
 1.756703339783578e-01	 1.060549354700821e+00	 2.067638590675835e+02
 1.557884506919354e-01	 1.063651709267005e+00	 3.654077714765026e+02
 1.359750321159775e-01	 1.066365692732341e+00	 5.244180986064748e+02
 1.162401464717178e-01	 1.068696976857348e+00	 6.837958159188682e+02
 9.659352072535407e-02	 1.070651526758527e+00	 8.435328446219943e+02
 7.704453303553507e-02	 1.072235580423771e+00	 1.003612454858918e+03
 5.760220646745011e-02	 1.073455628243843e+00	 1.164009697451820e+03
 3.827520394122830e-02	 1.074318392638983e+00	 1.324691859891826e+03
 1.907182437765204e-02	 1.074830807855205e+00	 1.485618942336462e+03
 0.000000000000000e+00	 1.075000000000000e+00	 1.646744149484026e+03
 1.978848194987542e-01	 1.069344588154466e+00	 1.592849061014158e+01
 1.777130122783873e-01	 1.072881323943800e+00	 1.535856848317860e+02
 1.575999443022721e-01	 1.076019752399801e+00	 2.833373367315804e+02
 1.375561371380478e-01	 1.078765293811981e+00	 4.050609426122934e+02
 1.175917760792856e-01	 1.081123685891564e+00	 5.186592300037777e+02
 9.771670119643860e-02	 1.083100963116868e+00	 6.240594988684451e+02
 7.794039969650934e-02	 1.084703436010529e+00	 7.212128842280167e+02
 5.827199956404695e-02	 1.085937670432968e+00	 8.100935484094680e+02
 3.872026445080710e-02	 1.086810466972101e+00	 8.906978111303373e+02
 1.929358977664810e-02	 1.087328840504710e+00	 9.630432255932579e+02
 0.000000000000000e+00	 1.087500000000000e+00	 1.027167608642647e+03
 2.001593576528611e-01	 1.081635905262479e+00	-3.246084687560881e+00
 1.797556905790155e-01	 1.085213293186779e+00	 1.102988748343217e+02
 1.594114379132596e-01	 1.088387795532598e+00	 2.078958589644797e+02
 1.391372421607902e-01	 1.091164894891622e+00	 2.892907609663541e+02
 1.189434056875161e-01	 1.093550394925780e+00	 3.542888295329116e+02
 9.883988166814665e-02	 1.095550399475209e+00	 4.027529975100077e+02
 7.883626635803856e-02	 1.097171291597286e+00	 4.346020220173806e+02
 5.894179266110147e-02	 1.098419712622093e+00	 4.498084565390128e+02
 3.916532496071819e-02	 1.099302541305220e+00	 4.483964755640327e+02
 1.951535517582367e-02	 1.099826873154216e+00	 4.304395721877652e+02
 0.000000000000000e+00	 1.100000000000000e+00	 3.960581487447715e+02
 2.024338958074826e-01	 1.093927222370491e+00	-9.498489144005191e+00
 1.817983688802422e-01	 1.097545262429758e+00	 7.657005865748880e+01
 1.612229315248981e-01	 1.100755838665393e+00	 1.388599357566376e+02
 1.407183471842047e-01	 1.103564495971262e+00	 1.769866891926884e+02
 1.202950352964094e-01	 1.105977103959997e+00	 1.906588319924878e+02
 9.996306214047822e-02	 1.107999835833549e+00	 1.796751754491644e+02
 7.973213302012272e-02	 1.109639147184044e+00	 1.439218641840599e+02
 5.961158575861362e-02	 1.110901754811217e+00	 8.336914677231749e+01
 3.961038547096159e-02	 1.111794615638339e+00	-1.932085290140520e+00
 1.973712057517876e-02	 1.112324905803722e+00	-1.118539577913046e+02
 0.000000000000000e+00	 1.112500000000000e+00	-2.461954412477277e+02
 2.047084339626188e-01	 1.106218539478505e+00	-3.259415396387880e+00
 1.838410471820675e-01	 1.109877231672737e+00	 5.208068214723781e+01
 1.630344251371875e-01	 1.113123881798189e+00	 7.601609349898084e+01
 1.422994522082913e-01	 1.115964097050903e+00	 6.803323439587507e+01
 1.216466649059655e-01	 1.118403812994212e+00	 2.774460059769871e+01
 1.010862426134333e-01	 1.120449272191891e+00	-4.511488077618291e+01
 8.062799968276181e-02	 1.122107002770802e+00	-1.506919043788009e+02
 6.028137885658343e-02	 1.123383797000342e+00	-2.890191994069788e+02
 4.005544598153728e-02	 1.124286689971457e+00	-4.600202571968225e+02
 1.995888597471339e-02	 1.124822938453228e+00	-6.635143292359908e+02
 0.000000000000000e+00	 1.125000000000000e+00	-8.992216519549399e+02
 1.125000000000000e+00	 0.000000000000000e+00	 6.761034189400521e+02
 1.124822938453228e+00	 1.995888597471274e-02	 5.667926916112290e+02
 1.124286689971457e+00	 4.005544598153672e-02	 4.497973399570441e+02
 1.123383797000342e+00	 6.028137885658293e-02	 3.270523028876935e+02
 1.122107002770802e+00	 8.062799968276138e-02	 2.005883222438569e+02
 1.120449272191891e+00	 1.010862426134330e-01	 7.252873674631758e+01
 1.118403812994212e+00	 1.216466649059652e-01	-5.491433310376993e+01
 1.115964097050903e+00	 1.422994522082910e-01	-1.794444218262756e+02
 1.113123881798189e+00	 1.630344251371873e-01	-2.986857862233277e+02
 1.109877231672737e+00	 1.838410471820675e-01	-4.101891076058349e+02
 1.106218539478505e+00	 2.047084339626188e-01	-5.114378289000175e+02
 1.137500000000000e+00	 0.000000000000000e+00	 5.466609061381997e+02
 1.137320971102731e+00	 2.018065137442460e-02	 4.577241376202750e+02
 1.136778764304567e+00	 4.050050649243549e-02	 3.622739595465466e+02
 1.135865839189446e+00	 6.095117195498952e-02	 2.620117764948768e+02
 1.134574858357522e+00	 8.152386634591800e-02	 1.587225992224807e+02
 1.132898708550173e+00	 1.022094230869528e-01	 5.427219419182308e+01
 1.130830522028343e+00	 1.229982945160989e-01	-4.939630122987556e+01
 1.128363698130427e+00	 1.438805572329329e-01	-1.502663087715957e+02
 1.125491924930832e+00	 1.648459187499742e-01	-2.462522919037782e+02
 1.122209200915521e+00	 1.858837254842960e-01	-3.352047948280940e+02
 1.118509856586275e+00	 2.069829721180270e-01	-4.149160374732114e+02
 1.150000000000000e+00	 0.000000000000000e+00	 4.345771945430648e+02
 1.149819003752230e+00	 2.040241677431140e-02	 3.630427789872131e+02
 1.149270838637657e+00	 4.094556700364810e-02	 2.861302806532264e+02
 1.148347881378508e+00	 6.162096505381197e-02	 2.053113934615629e+02
 1.147042713944167e+00	 8.241973300955485e-02	 1.221294186410322e+02
 1.145348144908337e+00	 1.033326035609785e-01	 3.819676541498139e+01
 1.143257231062303e+00	 1.243499241267248e-01	-4.480800896031187e+01
 1.140763299209717e+00	 1.454616622580135e-01	-1.251436289282323e+02
 1.137859968063168e+00	 1.666574123631049e-01	-2.010100062861935e+02
 1.134541170157914e+00	 1.879264037867323e-01	-2.705526246714440e+02
 1.130801173693560e+00	 2.092575102734646e-01	-3.318674022940090e+02
 1.162500000000000e+00	 0.000000000000000e+00	 3.392923166045097e+02
 1.162317036401724e+00	 2.062418217437315e-02	 2.822845089024221e+02
 1.161762912970730e+00	 4.139062751517460e-02	 2.209992148682254e+02
 1.160829923567528e+00	 6.229075815305031e-02	 1.566821180920012e+02
 1.159510569530738e+00	 8.331559967367190e-02	 9.063870209810844e+01
 1.157797581266385e+00	 1.044557840355102e-01	 2.423209791813685e+01
 1.155683940096093e+00	 1.257015537378430e-01	-4.111945631602967e+01
 1.153162900288774e+00	 1.470427672835326e-01	-1.039455511577684e+02
 1.150228011195196e+00	 1.684689059765797e-01	-1.627269418883166e+02
 1.146873139399917e+00	 1.899690820893765e-01	-2.158992869496766e+02
 1.143092490800359e+00	 2.115320484289315e-01	-2.618572879449802e+02
 1.175000000000000e+00	 0.000000000000000e+00	 2.602701333443122e+02
 1.174815069051214e+00	 2.084594757460985e-02	 2.150049699446109e+02
 1.174254987303784e+00	 4.183568802701497e-02	 1.665292947245472e+02
 1.173311965756507e+00	 6.296055125270457e-02	 1.158663631718060e+02
 1.171978425117234e+00	 8.421146633826908e-02	 6.408760871963388e+01
 1.170247017624314e+00	 1.055789645105478e-01	 1.231083306942110e+01
 1.168110649129713e+00	 1.270531833494537e-01	-3.830191977710313e+01
 1.165562501367597e+00	 1.486238723094903e-01	-8.654681147598558e+01
 1.162596054326918e+00	 1.702803995903985e-01	-1.311809829154602e+02
 1.159205108641529e+00	 1.920117603922284e-01	-1.709256547773126e+02
 1.155383807906674e+00	 2.138065865844276e-01	-2.044695540307409e+02
 1.187500000000000e+00	 0.000000000000000e+00	 1.969970802208477e+02
 1.187313101700699e+00	 2.106771297502151e-02	 1.607785146392625e+02
 1.186747061636820e+00	 4.228074853916918e-02	 1.223838515420560e+02
 1.185794007945443e+00	 6.363034435277468e-02	 8.261738741604752e+01
 1.184446280703655e+00	 8.510733300334646e-02	 4.232015423601705e+01
 1.182696453982126e+00	 1.067021449860912e-01	 2.368448530437888e+00
 1.180537358163162e+00	 1.284048129615565e-01	-3.632788510118721e+01
 1.177962102446187e+00	 1.502049773358866e-01	-7.282742004532469e+01
 1.174964097458333e+00	 1.720918932045612e-01	-1.061593656986364e+02
 1.171537077882749e+00	 1.940544386952882e-01	-1.353260380807760e+02
 1.167675125012503e+00	 2.160811247399532e-01	-1.593055817564673e+02
 1.200000000000000e+00	 0.000000000000000e+00	 1.489809913772261e+02
 1.199811134350180e+00	 2.128947837560811e-02	 1.191972309821806e+02
 1.199239135969837e+00	 4.272580905163728e-02	 8.824024465716569e+01
 1.198276050134338e+00	 6.430013745326070e-02	 5.669873057683198e+01
 1.196914136290001e+00	 8.600319966890399e-02	 2.518685386698605e+01
 1.195145890339820e+00	 1.078253254621407e-01	-5.656889467784929e+00
 1.192964067196440e+00	 1.297564425741518e-01	-3.517098434080635e+01
 1.190361703524544e+00	 1.517860823627215e-01	-6.267238648031712e+01
 1.187332140589441e+00	 1.739033868190680e-01	-8.745819160530651e+01
 1.183869047123579e+00	 1.960971169985557e-01	-1.088074837651205e+02
 1.179966442117847e+00	 2.183556628955082e-01	-1.259833613452566e+02
 1.212500000000000e+00	 0.000000000000000e+00	 1.157499966163479e+02
 1.212309166999656e+00	 2.151124377636965e-02	 8.987002823992023e+01
 1.211731210302836e+00	 4.317086956441923e-02	 6.378913832903856e+01
 1.210758092323192e+00	 6.496993055416259e-02	 3.788368349268185e+01
 1.209381991876273e+00	 8.689906633494171e-02	 1.254438729602158e+01
 1.207595326697396e+00	 1.089485059386960e-01	-1.182446471127319e+01
 1.205390776229548e+00	 1.311080721872393e-01	-3.480593675649290e+01
 1.202761304602666e+00	 1.533671873899949e-01	-5.597146214443336e+01
 1.199700183720242e+00	 1.757148804339188e-01	-7.488197007936122e+01
 1.196201016364018e+00	 1.981397953020310e-01	-9.108911916941292e+01
 1.192257759222705e+00	 2.206302010510924e-01	-1.041366359038975e+02
 1.225000000000000e+00	 0.000000000000000e+00	 9.685148590809357e+01
 1.224807199649127e+00	 2.173300917730615e-02	 7.242177872162625e+01
 1.224223284635816e+00	 4.361593007751505e-02	 4.873382291683356e+01
 1.223240134512003e+00	 6.563972365548039e-02	 2.595479058387220e+01
 1.221849847462470e+00	 8.779493300145964e-02	 4.255284156560574e+00
 1.220044763054855e+00	 1.100716864157573e-01	-1.619114110469692e+01
 1.217817485262486e+00	 1.324597018008191e-01	-3.520849334748136e+01
 1.215160905680556e+00	 1.549482924177070e-01	-5.261889822467398e+01
 1.212068226850737e+00	 1.775263740491136e-01	-6.824318965824540e+01
 1.208532985604066e+00	 2.001824736057143e-01	-8.190153571872443e+01
 1.204549076327078e+00	 2.229047392067060e-01	-9.341409770502405e+01
 1.237500000000000e+00	 0.000000000000000e+00	 9.185113665365341e+01
 1.237305232298594e+00	 2.195477457841760e-02	 6.649251156469231e+01
 1.236715358968778e+00	 4.406099059092473e-02	 4.278957719772635e+01
 1.235722176700773e+00	 6.630951675721405e-02	 2.070338249956471e+01
 1.234317703048592e+00	 8.869079966845773e-02	 1.876285796400978e-01
 1.232494199412197e+00	 1.111948668933245e-01	-1.881148488801561e+01
 1.230244194295253e+00	 1.338113314148913e-01	-3.635538474418011e+01
 1.227560506758211e+00	 1.565293974458576e-01	-5.251321846830741e+01
 1.224436269980924e+00	 1.793378676646523e-01	-6.736191498904461e+01
 1.220864954843724e+00	 2.022251519096052e-01	-8.098620993054824e+01
 1.216840393430966e+00	 2.251792773623488e-01	-9.347863317944163e+01
 1.250000000000000e+00	 0.000000000000000e+00	 1.003319993139943e+02
 1.249803264948056e+00	 2.217653997970400e-02	 7.173665489328374e+01
 1.249207433301722e+00	 4.450605110464827e-02	 4.568306894584648e+01
 1.248204218889501e+00	 6.697930985936361e-02	 2.192913680611282e+01
 1.246785558634639e+00	 8.958666633593600e-02	 2.147814686841230e-01
 1.244943635769421e+00	 1.123180473713976e-01	-1.973787952012459e+01
 1.242670903327850e+00	 1.351629610294558e-01	-3.822427222709504e+01
 1.239960107835634e+00	 1.581105024744469e-01	-5.555700555540202e+01
 1.236804313110804e+00	 1.811493612805350e-01	-7.206540802360631e+01
 1.233196924082991e+00	 2.042678302137040e-01	-8.809495916083104e+01
 1.229131710534368e+00	 2.274538155180211e-01	-1.040066132089139e+02
 1.106218539478505e+00	 2.047084339626188e-01	-5.114378289000175e+02
 1.102142547591368e+00	 2.256253638614272e-01	-4.355120860617346e+02
 1.097644368907272e+00	 2.465802900510737e-01	-3.571323593422705e+02
 1.092719507434896e+00	 2.675613539221362e-01	-2.777269472185901e+02
 1.087363878431055e+00	 2.885563999111739e-01	-1.987693541527446e+02
 1.081573827976446e+00	 3.095529917259612e-01	-1.217739965793595e+02
 1.075346151886618e+00	 3.305384299522137e-01	-4.829153071790086e+01
 1.068678113852559e+00	 3.514997710187806e-01	 2.009618481903902e+01
 1.061567462705179e+00	 3.724238474895377e-01	 8.178147509113339e+01
 1.054012448698681e+00	 3.932972896413123e-01	 1.351365634520616e+02
 1.046011838709305e+00	 4.141065482781622e-01	 1.785195910365111e+02
 1.118509856586275e+00	 2.069829721180270e-01	-4.149160374732114e+02
 1.114388575900822e+00	 2.281323123490921e-01	-3.541207868393928e+02
 1.109840417453845e+00	 2.493200710519664e-01	-2.911385673797848e+02
 1.104860835298564e+00	 2.705342578549000e-01	-2.272176989234067e+02
 1.099445699305754e+00	 2.917625821326358e-01	-1.636461651441728e+02
 1.093591314957006e+00	 3.129924694119225e-01	-1.017478591291539e+02
 1.087294442465818e+00	 3.342110791738725e-01	-4.287849743514278e+01
 1.080552315119742e+00	 3.554053240298770e-01	 1.157878604898464e+01
 1.073362656736697e+00	 3.765618902389651e-01	 6.021815199805138e+01
 1.065723698129263e+00	 3.976672595254847e-01	 1.016160557249537e+02
 1.057634192472302e+00	 4.187077321468711e-01	 1.343365147216887e+02
 1.130801173693560e+00	 2.092575102734646e-01	-3.318674022940090e+02
 1.126634604209704e+00	 2.306392608366003e-01	-2.843279459213334e+02
 1.122036465999790e+00	 2.520598520525441e-01	-2.348608627568333e+02
 1.117002163161574e+00	 2.735071617872195e-01	-1.845375530460095e+02
 1.111527520179795e+00	 2.949687643535529e-01	-1.344636294293555e+02
 1.105608801936938e+00	 3.164319470972682e-01	-8.577569449923510e+01
 1.099242733044450e+00	 3.378837283948746e-01	-3.963783284501985e+01
 1.092426516386447e+00	 3.593108770403062e-01	 2.762172728810896e+00
 1.085157850767857e+00	 3.806999329877463e-01	 4.021688844298027e+01
 1.077434947559639e+00	 4.020372294090629e-01	 7.150352516756294e+01
 1.069256546235278e+00	 4.233089160150696e-01	 9.538846465848172e+01
 1.143092490800359e+00	 2.115320484289315e-01	-2.618572879449802e+02
 1.138880632518016e+00	 2.331462093239517e-01	-2.257593998545517e+02
 1.134232514545106e+00	 2.547996330528071e-01	-1.879858015510626e+02
 1.129143491023926e+00	 2.764800657190944e-01	-1.494339340841366e+02
 1.123609341053178e+00	 2.981749465739247e-01	-1.110300872131485e+02
 1.117626288916241e+00	 3.198714247819978e-01	-7.372670160545039e+01
 1.111191023622513e+00	 3.415563776152200e-01	-3.849943088067128e+01
 1.104300717652674e+00	 3.632164300500684e-01	-6.343971573243564e+00
 1.096953044798661e+00	 3.848379757358811e-01	 2.172732865966510e+01
 1.089146196989810e+00	 4.064071992920468e-01	 4.468907198350943e+01
 1.080878899998233e+00	 4.279100998827580e-01	 6.150660561651421e+01
 1.155383807906674e+00	 2.138065865844276e-01	-2.044695540307409e+02
 1.151126660825756e+00	 2.356531578111465e-01	-1.780569069424884e+02
 1.146428563089792e+00	 2.575394140527553e-01	-1.502132777967556e+02
 1.141284818885619e+00	 2.794529696505251e-01	-1.216650143571295e+02
 1.135691161925902e+00	 3.013811287937518e-01	-9.316203437522370e+01
 1.129643775894916e+00	 3.233109024661115e-01	-6.547564531747182e+01
 1.123139314200007e+00	 3.452290268349085e-01	-3.939616867414634e+01
 1.116174918918422e+00	 3.671219830591637e-01	-1.573037532982561e+01
 1.108748238829107e+00	 3.889760184833697e-01	 4.701259693821527e+00
 1.100857446419777e+00	 4.107771691744366e-01	 2.106747296419143e+01
 1.092501253761168e+00	 4.325112837499361e-01	 3.252928683105640e+01
 1.167675125012503e+00	 2.160811247399532e-01	-1.593055817564673e+02
 1.163372689132924e+00	 2.381601062981845e-01	-1.408773092586320e+02
 1.158624611633849e+00	 2.602791950523886e-01	-1.212558214879502e+02
 1.153426146746654e+00	 2.824258735815113e-01	-1.009991483319901e+02
 1.147772982797968e+00	 3.045873110130340e-01	-8.068369322494100e+01
 1.141661262872963e+00	 3.267503801496095e-01	-6.090256351479908e+01
 1.135087604776933e+00	 3.489016760539403e-01	-4.226374954689696e+01
 1.128049120183692e+00	 3.710275360675916e-01	-2.538815736908058e+01
 1.120543432859196e+00	 3.931140612302118e-01	-1.090750137742111e+01
 1.112568695849540e+00	 4.151471390562321e-01	 5.379353516049221e-01
 1.104123607524082e+00	 4.371124676166038e-01	 8.301663872284344e+00
 1.179966442117847e+00	 2.183556628955082e-01	-1.259833613452566e+02
 1.175618717439522e+00	 2.406670547850658e-01	-1.138917470342750e+02
 1.170820660177278e+00	 2.630189760517072e-01	-1.008379404563619e+02
 1.165567474607031e+00	 2.853987775120529e-01	-8.721434230405768e+01
 1.159854803669377e+00	 3.077934932317711e-01	-7.342661008403778e+01
 1.153678749850381e+00	 3.301898578324914e-01	-5.989249245175982e+01
 1.147035895353290e+00	 3.525743252723154e-01	-4.704055581336316e+01
 1.139923321448485e+00	 3.749330890753527e-01	-3.530880654459863e+01
 1.132338626888928e+00	 3.972521039764076e-01	-2.514321317729115e+01
 1.124279945279097e+00	 4.195171089374333e-01	-1.699613391525657e+01
 1.115745961286976e+00	 4.417136514827613e-01	-1.132465585228728e+01
 1.192257759222705e+00	 2.206302010510924e-01	-1.041366359038975e+02
 1.187864745745548e+00	 2.431740032717905e-01	-9.678492164084042e+01
 1.183016708720077e+00	 2.657587570507109e-01	-8.869550295788912e+01
 1.177708802466750e+00	 2.883716814421504e-01	-8.009775688094425e+01
 1.171936624540126e+00	 3.109996754499633e-01	-7.122927776110970e+01
 1.165696236827171e+00	 3.336293355147576e-01	-6.233520911024244e+01
 1.158984185929078e+00	 3.562469744900338e-01	-5.366751068948730e+01
 1.151797522712798e+00	 3.788386420824467e-01	-4.548416266288671e+01
 1.144133820918304e+00	 4.013901467219569e-01	-3.804830922103009e+01
 1.135991194708451e+00	 4.238870788180404e-01	-3.162734468058013e+01
 1.127368315049849e+00	 4.463148353484084e-01	-2.649194566768440e+01
 1.204549076327078e+00	 2.229047392067060e-01	-9.341409770502405e+01
 1.200110774051002e+00	 2.456809517583584e-01	-8.925440369573958e+01
 1.195212757262247e+00	 2.684985380493998e-01	-8.457515805994294e+01
 1.189850130325810e+00	 2.913445853718033e-01	-7.944523992663406e+01
 1.184018445410218e+00	 3.142058576676106e-01	-7.393678113989782e+01
 1.177713723803332e+00	 3.370688131964078e-01	-6.812498932674700e+01
 1.170932476504299e+00	 3.599196237070955e-01	-6.208794865580894e+01
 1.163671723976633e+00	 3.827441950888736e-01	-5.590639857854569e+01
 1.155929014947322e+00	 4.055281894668601e-01	-4.966349103459162e+01
 1.147702444137599e+00	 4.282570486980532e-01	-4.344452679802404e+01
 1.138990668812702e+00	 4.509160192135453e-01	-3.733667183993010e+01
 1.216840393430966e+00	 2.251792773623488e-01	-9.347863317944163e+01
 1.212356802355885e+00	 2.481879002447696e-01	-9.100998310120838e+01
 1.207408805803788e+00	 2.712383190477738e-01	-8.823379115681833e+01
 1.201991458184212e+00	 2.943174893010117e-01	-8.506088781200135e+01
 1.196100266279652e+00	 3.174120398847128e-01	-8.140046424707124e+01
 1.189731210778864e+00	 3.405082908774421e-01	-7.716038057840265e+01
 1.182880767078950e+00	 3.635922729235002e-01	-7.224749367733850e+01
 1.175545925239990e+00	 3.866497480946335e-01	-6.656800337458476e+01
 1.167724208975982e+00	 4.096662322111168e-01	-6.002781562977718e+01
 1.159413693566543e+00	 4.326270185774718e-01	-5.253292104025682e+01
 1.150613022575534e+00	 4.555172030781720e-01	-4.398978686277277e+01
 1.229131710534368e+00	 2.274538155180211e-01	-1.040066132089139e+02
 1.224602830660197e+00	 2.506948487310240e-01	-1.017730580808129e+02
 1.219604854344699e+00	 2.739781000458331e-01	-9.943801215414140e+01
 1.214132786041956e+00	 2.972903932297759e-01	-9.675663299029550e+01
 1.208182087148427e+00	 3.206182221012702e-01	-9.347761729594203e+01
 1.201748697753769e+00	 3.439477685578606e-01	-8.934398840182132e+01
 1.194829057653032e+00	 3.672649221392482e-01	-8.409394473023718e+01
 1.187420126502869e+00	 3.905553010997262e-01	-7.746176655191604e+01
 1.179519403004286e+00	 4.138042749547273e-01	-6.917877773086249e+01
 1.171124942995283e+00	 4.369969884562962e-01	-5.897435855392494e+01
 1.162235376338345e+00	 4.601183869422883e-01	-4.657700514720797e+01
 1.046011838709305e+00	 4.141065482781622e-01	 1.785195910365111e+02
 1.037564930248593e+00	 4.348379187240830e-01	 1.387743463096509e+02
 1.028671564192235e+00	 4.554775659241303e-01	 1.005870099526669e+02
 1.019332136131226e+00	 4.760115505788748e-01	 6.454692506566491e+01
 1.009547606256940e+00	 4.964258562287497e-01	 3.124630180745082e+01
 9.993195076959104e-01	 5.167064171925492e-01	 1.277821471000692e+00
 9.886499532180107e-01	 5.368391472596017e-01	-2.476782394743663e+01
 9.775416402487633e-01	 5.568099690270316e-01	-4.630444222692258e+01
 9.659978541247000e-01	 5.766048437667730e-01	-6.275288612410382e+01
 9.540224695395332e-01	 5.962098017009265e-01	-7.354361723659372e+01
 9.416199501384250e-01	 6.156109725587411e-01	-7.811927186660418e+01
 1.057634192472302e+00	 4.187077321468711e-01	 1.343365147216887e+02
 1.049093429472079e+00	 4.396694511529656e-01	 1.023290833107539e+02
 1.040101248236386e+00	 4.605384277660148e-01	 7.167508965018200e+01
 1.030658048751678e+00	 4.813005678054846e-01	 4.288321164071415e+01
 1.020764801878120e+00	 5.019416990733694e-01	 1.646456834783021e+01
 1.010423057776990e+00	 5.224475996031163e-01	-7.069351761062975e+00
 9.996349526933814e-01	 5.428040266706026e-01	-2.720881820913215e+01
 9.884032140242147e-01	 5.629967464573652e-01	-4.344802902023424e+01
 9.767311636097610e-01	 5.830115642494709e-01	-5.528731108703960e+01
 9.646227191958864e-01	 6.028343550492662e-01	-6.223533649973895e+01
 9.520823940238123e-01	 6.224510944718811e-01	-6.381134042157962e+01
 1.069256546235278e+00	 4.233089160150696e-01	 9.538846465848172e+01
 1.060621928695730e+00	 4.445009835814379e-01	 7.039786917204029e+01
 1.051530932280860e+00	 4.655992896075891e-01	 4.656168324231940e+01
 1.041983961372580e+00	 4.865895850318852e-01	 2.430929029493127e+01
 1.031981997499850e+00	 5.074575419178803e-01	 4.072096062052090e+00
 1.021526607858687e+00	 5.281887820136757e-01	-1.371822367293435e+01
 1.010619952169409e+00	 5.487689060816964e-01	-2.863152220986704e+01
 9.992647878003310e-01	 5.691835238878922e-01	-4.024101735368609e+01
 9.874644730954648e-01	 5.894182847324629e-01	-4.812515190081405e+01
 9.752229688528294e-01	 6.094589083980005e-01	-5.186946742868867e+01
 9.625448379097046e-01	 6.292912163855157e-01	-5.106847919158035e+01
 1.080878899998233e+00	 4.279100998827580e-01	 6.150660561651421e+01
 1.072150427919546e+00	 4.493325160095001e-01	 4.283512756317401e+01
 1.062960616325657e+00	 4.706601514488539e-01	 2.512429766759985e+01
 1.053309873993932e+00	 4.918786022580766e-01	 8.725531386643951e+00
 1.043199193122128e+00	 5.129733847622828e-01	-6.008145565429075e+00
 1.032630157941003e+00	 5.339299644242272e-01	-1.872353446897476e+01
 1.021604951646094e+00	 5.547337854928831e-01	-2.906873910144479e+01
 1.010126361577113e+00	 5.753703013186130e-01	-3.669467079383702e+01
 9.981977825818115e-01	 5.958250052157493e-01	-4.125657382799120e+01
 9.858232185103620e-01	 6.160834617471294e-01	-4.241556152130271e+01
 9.730072817961023e-01	 6.361313382996451e-01	-3.984015298964748e+01
 1.092501253761168e+00	 4.325112837499361e-01	 3.252928683105640e+01
 1.083678927143527e+00	 4.541640484371521e-01	 1.950147686593908e+01
 1.074390300370775e+00	 4.757210132898089e-01	 7.245652296671885e+00
 1.064635786615735e+00	 4.971676194840585e-01	-3.963455218494730e+00
 1.054416388744956e+00	 5.184892276065766e-01	-1.384990922114542e+01
 1.043733708023937e+00	 5.396711468347709e-01	-2.213769506178540e+01
 1.032589951123436e+00	 5.606986649041628e-01	-2.855187624884290e+01
 1.020987935354560e+00	 5.815570787495272e-01	-3.281977371177099e+01
 1.008931092068801e+00	 6.022317256993295e-01	-3.467216074896067e+01
 9.964234681684848e-01	 6.227080150966529e-01	-3.384446608770977e+01
 9.834697256830054e-01	 6.429714602142690e-01	-3.007797720639575e+01
 1.104123607524082e+00	 4.371124676166038e-01	 8.301663872284344e+00
 1.095207426367674e+00	 4.589955808643940e-01	 2.634041358037251e-01
 1.085819984416216e+00	 4.807818751304540e-01	-7.186595407156666e+00
 1.075961699237989e+00	 5.024566367098313e-01	-1.384904328038331e+01
 1.065633584368334e+00	 5.240050704507618e-01	-1.952384228081325e+01
 1.054837258107488e+00	 5.454123292453066e-01	-2.401090966735735e+01
 1.043574950601434e+00	 5.666635443155353e-01	-2.711101869348390e+01
 1.031849509132672e+00	 5.877438561806352e-01	-2.862665650467243e+01
 1.019664401556434e+00	 6.086384461832040e-01	-2.836289313013454e+01
 1.007023717827197e+00	 6.293325684465709e-01	-2.612825605032218e+01
 9.939321695704136e-01	 6.498115821293877e-01	-2.173560462232508e+01
 1.115745961286976e+00	 4.417136514827613e-01	-1.132465585228728e+01
 1.106735925591986e+00	 4.638271132912256e-01	-1.500704055911180e+01
 1.097249668461980e+00	 4.858427369707892e-01	-1.828010708117044e+01
 1.087287611860693e+00	 5.077456539353947e-01	-2.101879937153962e+01
 1.076850779992260e+00	 5.295209132948384e-01	-2.309764854513994e+01
 1.065940808191658e+00	 5.511535116558346e-01	-2.439129073802063e+01
 1.054559950080090e+00	 5.726284237270007e-01	-2.477499802504820e+01
 1.042711082911450e+00	 5.939306336119368e-01	-2.412521924105069e+01
 1.030397711044709e+00	 6.150451666673727e-01	-2.232012736912612e+01
 1.017623967486499e+00	 6.359571217968834e-01	-1.924017000634612e+01
 1.004394613458327e+00	 6.566517040450012e-01	-1.476861929435915e+01
 1.127368315049849e+00	 4.463148353484084e-01	-2.649194566768440e+01
 1.118264424816463e+00	 4.686586457176470e-01	-2.643253089219581e+01
 1.108679352508066e+00	 4.909035988108147e-01	-2.613810474763294e+01
 1.098613524483847e+00	 5.130346711607490e-01	-2.555667912476163e+01
 1.088067975616736e+00	 5.350367561388065e-01	-2.463623997135287e+01
 1.077044358276446e+00	 5.568946940663547e-01	-2.332496678613555e+01
 1.065544949559402e+00	 5.785933031385589e-01	-2.157145699317122e+01
 1.053572656690893e+00	 6.001174110434317e-01	-1.932495384336901e+01
 1.041131020533627e+00	 6.214518871518355e-01	-1.653557641754454e+01
 1.028224217146390e+00	 6.425816751475903e-01	-1.315455024518481e+01
 1.014857057346746e+00	 6.634918259611092e-01	-9.134437006099454e+00
 1.138990668812702e+00	 4.509160192135453e-01	-3.733667183993010e+01
 1.129792924041105e+00	 4.734901781436583e-01	-3.413073347612606e+01
 1.120109036554474e+00	 4.959644606505302e-01	-3.085959732565599e+01
 1.109939437107452e+00	 5.183236883858939e-01	-2.754321146561998e+01
 1.099285171241760e+00	 5.405525989826659e-01	-2.420187911503815e+01
 1.088147908361853e+00	 5.626358764768669e-01	-2.085618360633065e+01
 1.076529949039371e+00	 5.845581825502102e-01	-1.752691016331916e+01
 1.064434230471001e+00	 6.063041884751205e-01	-1.423496491255052e+01
 1.051864330023189e+00	 6.278586076365928e-01	-1.100129159014525e+01
 1.038824466806871e+00	 6.492062284986921e-01	-7.846786438241914e+00
 1.025319501235670e+00	 6.703319478777121e-01	-4.792211812957930e+00
 1.150613022575534e+00	 4.555172030781720e-01	-4.398978686277277e+01
 1.141321423265912e+00	 4.783217105692595e-01	-3.821456074562921e+01
 1.131538720601204e+00	 5.010253224899361e-01	-3.253959341507532e+01
 1.121265349731507e+00	 5.236127056108295e-01	-2.705567167934240e+01
 1.110502366867334e+00	 5.460684418264167e-01	-2.185431293913771e+01
 1.099251458447877e+00	 5.683770588873712e-01	-1.702739936305580e+01
 1.087514948519997e+00	 5.905230619619543e-01	-1.266680089654791e+01
 1.075295804251774e+00	 6.124909659070027e-01	-8.863989290389863e+00
 1.062597639513394e+00	 6.342653281216439e-01	-5.709645476452188e+00
 1.049424716467942e+00	 6.558307818501883e-01	-3.293262741460588e+00
 1.035781945125100e+00	 6.771720697948095e-01	-1.702748251219319e+00
 1.162235376338345e+00	 4.601183869422883e-01	-4.657700514720797e+01
 1.152849922490885e+00	 4.831532429944503e-01	-3.879240866727469e+01
 1.142968404648257e+00	 5.060861843290319e-01	-3.126930131328968e+01
 1.132591262356013e+00	 5.289017228355558e-01	-2.416824409368291e+01
 1.121719562493458e+00	 5.515842846700590e-01	-1.765089859440355e+01
 1.110355008534519e+00	 5.741182412978676e-01	-1.187937397287927e+01
 1.098499948001281e+00	 5.964879413737912e-01	-7.015554910472492e+00
 1.086157378033213e+00	 6.186777433390787e-01	-3.220414448215870e+00
 1.073330949004241e+00	 6.406720486069893e-01	-6.533158776803987e-01
 1.060024966129602e+00	 6.624553352020790e-01	 5.286919282931208e-01
 1.046244389015035e+00	 6.840121917124017e-01	 1.715811854465770e-01
 9.416199501384250e-01	 6.156109725587411e-01	-7.811927186660418e+01
 9.287953462274744e-01	 6.347946162837050e-01	-5.773864736131390e+01
 9.155542905770797e-01	 6.537471537568762e-01	-3.777745089018879e+01
 9.019029923075504e-01	 6.724551973985354e-01	-1.844121924438782e+01
 8.878482288567273e-01	 6.909055815084219e-01	 6.561398807276930e-02
 8.733973360420002e-01	 7.090853922058951e-01	 1.754058275646177e+01
 8.585581962397351e-01	 7.269819968306050e-01	 3.378405126379990e+01
 8.433392247169470e-01	 7.445830726661317e-01	 4.860006926808769e+01
 8.277493541614975e-01	 7.618766348516912e-01	 6.179721416587179e+01
 8.117980174683143e-01	 7.788510633507310e-01	 7.318941411031594e+01
 7.954951288500001e-01	 7.954951288500001e-01	 8.259674652999720e+01
 9.520823940238123e-01	 6.224510944718811e-01	-6.381134042157962e+01
 9.391152945140595e-01	 6.418478897935279e-01	-4.644566642556579e+01
 9.257271160232740e-01	 6.610110110161846e-01	-2.945401395556415e+01
 9.119241366619902e-01	 6.799269218092460e-01	-1.301434986049950e+01
 8.977132091729143e-01	 6.985823101868938e-01	 2.696378836923031e+00
 8.831017508825175e-01	 7.169641187809249e-01	 1.750299423882827e+01
 8.680977317491259e-01	 7.350595745680968e-01	 3.123283510833807e+01
 8.527096605427205e-01	 7.528562179129182e-01	 4.371649761440798e+01
 8.369465692032501e-01	 7.703419307894854e-01	 5.478856425530802e+01
 8.208179954355866e-01	 7.875049640497287e-01	 6.428831598117334e+01
 8.043339636102501e-01	 8.043339636102501e-01	 7.206042263805483e+01
 9.625448379097046e-01	 6.292912163855157e-01	-5.106847919158035e+01
 9.494352428010591e-01	 6.489011633039358e-01	-3.648170340492308e+01
 9.358999414698121e-01	 6.682748682761483e-01	-2.222516229870023e+01
 9.219452810167237e-01	 6.873986462206629e-01	-8.449709291428725e+00
 9.075781894893646e-01	 7.062590388661032e-01	 4.694740324346782e+00
 8.928061657232872e-01	 7.248428453567026e-01	 1.705984528217603e+01
 8.776372672587778e-01	 7.431371523063274e-01	 2.849947233558664e+01
 8.620800963687846e-01	 7.611293631604144e-01	 3.887032407520404e+01
 8.461437842453429e-01	 7.788072267279392e-01	 4.803255630113888e+01
 8.298379734032688e-01	 7.961588647493163e-01	 5.585038072901781e+01
 8.131727983709998e-01	 8.131727983709998e-01	 6.219264889816167e+01
 9.730072817961023e-01	 6.361313382996451e-01	-3.984015298964748e+01
 9.597551910884740e-01	 6.559544368149283e-01	-2.780383684818865e+01
 9.460727669166951e-01	 6.755387255367674e-01	-1.605553602703157e+01
 9.319664253717509e-01	 6.948703706327861e-01	-4.719432299049217e+00
 9.174431698060769e-01	 7.139357675460493e-01	 6.081150611349855e+00
 9.025105805643084e-01	 7.327215719332285e-01	 1.622427111408303e+01
 8.871768027686909e-01	 7.512147300452967e-01	 2.558989179015933e+01
 8.714505321951391e-01	 7.694025084086192e-01	 3.406039585721764e+01
 8.553409992877762e-01	 7.872725226670531e-01	 4.152109454788647e+01
 8.388579513713611e-01	 8.048127654494942e-01	 4.786072192735515e+01
 8.220116331322499e-01	 8.220116331322499e-01	 5.297191375490696e+01
 9.834697256830054e-01	 6.429714602142690e-01	-3.007797720639575e+01
 9.700751393763041e-01	 6.630077103265059e-01	-2.037097190554204e+01
 9.562455923639225e-01	 6.828025827980423e-01	-1.091128009319070e+01
 9.419875697270718e-01	 7.023420950456155e-01	-1.796839580919126e+00
 9.273081501230523e-01	 7.216124962267327e-01	 6.875191361752101e+00
 9.122149954055820e-01	 7.406002985105027e-01	 1.500884781261550e+01
 8.967163382788652e-01	 7.592923077850046e-01	 2.250976981099274e+01
 8.808209680217846e-01	 7.776756536575339e-01	 2.928560899750676e+01
 8.645382143305497e-01	 7.957378186068262e-01	 3.524642750578803e+01
 8.478779293398637e-01	 8.134666661502616e-01	 4.030508637085753e+01
 8.308504678940001e-01	 8.308504678940001e-01	 4.437762078570444e+01
 9.939321695704136e-01	 6.498115821293877e-01	-2.173560462232508e+01
 9.803950876645493e-01	 6.700609838386684e-01	-1.414374419216933e+01
 9.664184178114943e-01	 6.900664400599723e-01	-6.759965093111774e+00
 9.520087140826864e-01	 7.098138194591513e-01	 3.436246469709587e-01
 9.371731304402908e-01	 7.292892249081534e-01	 7.095619557482209e+00
 9.219194102471076e-01	 7.484790250885244e-01	 1.342562173497295e+01
 9.062558737893012e-01	 7.673698855254514e-01	 1.926454352090690e+01
 8.901914038487204e-01	 7.859487989071573e-01	 2.454490579328913e+01
 8.737354293736630e-01	 8.042031145472591e-01	 2.920112983147799e+01
 8.568979073087760e-01	 8.221205668516193e-01	 3.316982074792995e+01
 8.396893026562502e-01	 8.396893026562502e-01	 3.639004053597347e+01
 1.004394613458327e+00	 6.566517040450012e-01	-1.476861929435915e+01
 9.907150359532092e-01	 6.771142573514157e-01	-9.084429660412027e+00
 9.765912432594107e-01	 6.973302973225582e-01	-3.570513014246380e+00
 9.620298584385946e-01	 7.172855438733935e-01	 1.726451166375966e+00
 9.470381107577920e-01	 7.369659535903109e-01	 6.760410450417453e+00
 9.316238250888850e-01	 7.563577516672941e-01	 1.148613710684226e+01
 9.157954092999983e-01	 7.754474632666368e-01	 1.585942328557420e+01
 8.995618396759473e-01	 7.942219441574904e-01	 1.983727239242272e+01
 8.829326444171172e-01	 8.126684104883521e-01	 2.337808534112893e+01
 8.659178852780987e-01	 8.307744675535668e-01	 2.644184039624805e+01
 8.485281374190000e-01	 8.485281374190000e-01	 2.899026536462397e+01
 1.014857057346746e+00	 6.634918259611092e-01	-9.134437006099454e+00
 1.001034984242285e+00	 6.841675308647481e-01	-5.156860046831568e+00
 9.867640687076716e-01	 7.045941545857993e-01	-1.313127576670873e+00
 9.720510027947967e-01	 7.247572682883416e-01	 2.375120653418605e+00
 9.569030910755562e-01	 7.446426822732061e-01	 5.886797857413057e+00
 9.413282399309146e-01	 7.642364782468121e-01	 9.201461905197064e+00
 9.253349448109566e-01	 7.835250410085610e-01	 1.229940440183128e+01
 9.089322755034644e-01	 8.024950894085326e-01	 1.516173653293018e+01
 8.921298594609115e-01	 8.211337064301045e-01	 1.777047107432870e+01
 8.749378632478313e-01	 8.394283682561041e-01	 2.010859999094045e+01
 8.573669721822499e-01	 8.573669721822500e-01	 2.216016708260442e+01
 1.025319501235670e+00	 6.703319478777121e-01	-4.792211812957930e+00
 1.011354932531775e+00	 6.912208043786654e-01	-2.326343495980211e+00
 9.969368941562768e-01	 7.118580118496960e-01	 4.077116097818134e-02
 9.820721471512923e-01	 7.322289927039963e-01	 2.312155214200018e+00
 9.667680713935828e-01	 7.523194109568380e-01	 4.491311988291628e+00
 9.510326547731961e-01	 7.721152048270781e-01	 6.582212156440299e+00
 9.348744803221760e-01	 7.916026187512237e-01	 8.589278070382598e+00
 9.183027113312726e-01	 8.107682346602844e-01	 1.051736542092330e+01
 9.013270745050462e-01	 8.295990023725169e-01	 1.237174233363889e+01
 8.839578412179739e-01	 8.480822689592314e-01	 1.415806602737784e+01
 8.662058069460000e-01	 8.662058069460000e-01	 1.588235718501182e+01
 1.035781945125100e+00	 6.771720697948095e-01	-1.702748251219319e+00
 1.021674880821681e+00	 6.982740778931678e-01	-5.595899948497518e-01
 1.007109719605227e+00	 7.191218691142480e-01	 5.186082322968062e-01
 9.920932915080820e-01	 7.397007171203575e-01	 1.559166797039126e+00
 9.766330517118729e-01	 7.599961396412075e-01	 2.589814981229431e+00
 9.607370696157297e-01	 7.799939314080919e-01	 3.638574761931558e+00
 9.444140158336568e-01	 7.996801964946254e-01	 4.733641703496268e+00
 9.276731471593713e-01	 8.190413799127453e-01	 5.903263737140833e+00
 9.105242895495208e-01	 8.380642983155886e-01	 7.175618630851410e+00
 8.929778191885266e-01	 8.567361696629487e-01	 8.578690971671584e+00
 8.750446417102501e-01	 8.750446417102501e-01	 1.014014949337717e+01
 1.046244389015035e+00	 6.840121917124017e-01	 1.715811854465770e-01
 1.031994829112001e+00	 7.053273514082546e-01	 1.753587187500685e-01
 1.017282545054521e+00	 7.263857263794559e-01	 1.467115080620971e-01
 1.002114435865165e+00	 7.471724415374245e-01	 1.369026999837573e-01
 9.864980320304253e-01	 7.676728683263137e-01	 1.975343060225185e-01
 9.704414844585151e-01	 7.878726579898537e-01	 3.803289539899808e-01
 9.539535513453987e-01	 8.077577742387658e-01	 7.369086142370094e-01
 9.370435829877606e-01	 8.273145251659155e-01	 1.318571763093630e+00
 9.197215045943361e-01	 8.465295942593203e-01	 2.176070476470422e+00
 9.019977971594894e-01	 8.653900703672559e-01	 3.359388962145104e+00
 8.838834764750000e-01	 8.838834764750000e-01	 4.917525039415665e+00
 7.954951288500001e-01	 7.954951288500001e-01	 8.259674652999720e+01
 7.788510633507308e-01	 8.117980174683144e-01	 9.033503285980487e+01
 7.618766348516911e-01	 8.277493541614976e-01	 9.457098945512075e+01
 7.445830726661320e-01	 8.433392247169471e-01	 9.533792553033611e+01
 7.269819968306053e-01	 8.585581962397351e-01	 9.268170785161112e+01
 7.090853922058953e-01	 8.733973360420000e-01	 8.666051987882760e+01
 6.909055815084221e-01	 8.878482288567272e-01	 7.734455705616620e+01
 6.724551973985359e-01	 9.019029923075501e-01	 6.481566068405888e+01
 6.537471537568769e-01	 9.155542905770793e-01	 4.916689329604484e+01
 6.347946162837055e-01	 9.287953462274742e-01	 3.050205892035632e+01
 6.156109725587411e-01	 9.416199501384250e-01	 8.935172022669903e+00
 8.043339636102501e-01	 8.043339636102501e-01	 7.206042263805483e+01
 7.875049640497286e-01	 8.208179954355866e-01	 7.996696669246700e+01
 7.703419307894857e-01	 8.369465692032504e-01	 8.483593650841557e+01
 7.528562179129183e-01	 8.527096605427203e-01	 8.668498390197513e+01
 7.350595745680969e-01	 8.680977317491256e-01	 8.554275594303112e+01
 7.169641187809250e-01	 8.831017508825173e-01	 8.144873157329454e+01
 6.985823101868941e-01	 8.977132091729141e-01	 7.445300181367040e+01
 6.799269218092464e-01	 9.119241366619899e-01	 6.461599538254637e+01
 6.610110110161852e-01	 9.257271160232733e-01	 5.200815198550576e+01
 6.418478897935284e-01	 9.391152945140590e-01	 3.670954594865747e+01
 6.224510944718810e-01	 9.520823940238121e-01	 1.880946324747071e+01
 8.131727983709998e-01	 8.131727983709998e-01	 6.219264889816167e+01
 7.961588647493163e-01	 8.298379734032689e-01	 7.014948449326141e+01
 7.788072267279395e-01	 8.461437842453429e-01	 7.552389948822224e+01
 7.611293631604142e-01	 8.620800963687844e-01	 7.831814353701381e+01
 7.431371523063276e-01	 8.776372672587778e-01	 7.854392274143194e+01
 7.248428453567030e-01	 8.928061657232867e-01	 7.622231267863135e+01
 7.062590388661033e-01	 9.075781894893641e-01	 7.138362235571972e+01
 6.873986462206633e-01	 9.219452810167234e-01	 6.406721030974498e+01
 6.682748682761487e-01	 9.358999414698115e-01	 5.432125445919715e+01
 6.489011633039364e-01	 9.494352428010588e-01	 4.220247768081526e+01
 6.292912163855158e-01	 9.625448379097047e-01	 2.777583142878836e+01
 8.220116331322499e-01	 8.220116331322499e-01	 5.297191375490696e+01
 8.048127654494940e-01	 8.388579513713611e-01	 6.086488027708661e+01
 7.872725226670528e-01	 8.553409992877761e-01	 6.662128766140356e+01
 7.694025084086196e-01	 8.714505321951391e-01	 7.022823040441943e+01
 7.512147300452968e-01	 8.871768027686908e-01	 7.168074337875676e+01
 7.327215719332288e-01	 9.025105805643083e-01	 7.098179023798698e+01
 7.139357675460497e-01	 9.174431698060764e-01	 6.814220998660407e+01
 6.948703706327866e-01	 9.319664253717506e-01	 6.318062233786416e+01
 6.755387255367677e-01	 9.460727669166946e-01	 5.612329281957258e+01
 6.559544368149288e-01	 9.597551910884736e-01	 4.700395891216753e+01
 6.361313382996451e-01	 9.730072817961023e-01	 3.586361881080803e+01
 8.308504678940001e-01	 8.308504678940001e-01	 4.437762078570444e+01
 8.134666661502615e-01	 8.478779293398638e-01	 5.209620124434385e+01
 7.957378186068262e-01	 8.645382143305497e-01	 5.811508835566298e+01
 7.776756536575337e-01	 8.808209680217844e-01	 6.240646058230381e+01
 7.592923077850048e-01	 8.967163382788653e-01	 6.494894269989902e+01
 7.406002985105028e-01	 9.122149954055819e-01	 6.572766858009106e+01
 7.216124962267330e-01	 9.273081501230521e-01	 6.473430928015244e+01
 7.023420950456158e-01	 9.419875697270713e-01	 6.196706647386955e+01
 6.828025827980426e-01	 9.562455923639220e-01	 5.743063154583986e+01
 6.630077103265065e-01	 9.700751393763041e-01	 5.113611095272957e+01
 6.429714602142689e-01	 9.834697256830051e-01	 4.310091872696007e+01
 8.396893026562502e-01	 8.396893026562502e-01	 3.639004053597347e+01
 8.221205668516191e-01	 8.568979073087760e-01	 4.382720813972930e+01
 8.042031145472591e-01	 8.737354293736630e-01	 4.999283653549337e+01
 7.859487989071573e-01	 8.901914038487202e-01	 5.484441972612660e+01
 7.673698855254515e-01	 9.062558737893011e-01	 5.834442527813593e+01
 7.484790250885247e-01	 9.219194102471072e-01	 6.046043051513906e+01
 7.292892249081535e-01	 9.371731304402904e-01	 6.116523106598977e+01
 7.098138194591518e-01	 9.520087140826861e-01	 6.043692122130744e+01
 6.900664400599729e-01	 9.664184178114940e-01	 5.825894579046591e+01
 6.700609838386691e-01	 9.803950876645489e-01	 5.462012339017164e+01
 6.498115821293877e-01	 9.939321695704137e-01	 4.951464133269914e+01
 8.485281374190000e-01	 8.485281374190000e-01	 2.899026536462397e+01
 8.307744675535665e-01	 8.659178852780989e-01	 3.604233808860405e+01
 8.126684104883521e-01	 8.829326444171173e-01	 4.224258627962735e+01
 7.942219441574904e-01	 8.995618396759469e-01	 4.753404382014161e+01
 7.754474632666368e-01	 9.157954092999980e-01	 5.186326605460243e+01
 7.563577516672944e-01	 9.316238250888849e-01	 5.518053845593246e+01
 7.369659535903115e-01	 9.470381107577917e-01	 5.744006460415427e+01
 7.172855438733938e-01	 9.620298584385945e-01	 5.860013235701696e+01
 6.973302973225586e-01	 9.765912432594104e-01	 5.862325728215311e+01
 6.771142573514164e-01	 9.907150359532090e-01	 5.747630261760921e+01
 6.566517040450012e-01	 1.004394613458327e+00	 5.513057522998196e+01
 8.573669721822499e-01	 8.573669721822500e-01	 2.216016708260442e+01
 8.394283682561042e-01	 8.749378632478314e-01	 2.872666973214701e+01
 8.211337064301045e-01	 8.921298594609115e-01	 3.485288402277155e+01
 8.024950894085328e-01	 9.089322755034644e-01	 4.046760111947223e+01
 7.835250410085610e-01	 9.253349448109562e-01	 4.550170155676491e+01
 7.642364782468123e-01	 9.413282399309145e-01	 4.988843546967033e+01
 7.446426822732063e-01	 9.569030910755558e-01	 5.356368900664475e+01
 7.247572682883421e-01	 9.720510027947962e-01	 5.646623523711728e+01
 7.045941545857998e-01	 9.867640687076713e-01	 5.853796800801028e+01
 6.841675308647487e-01	 1.001034984242284e+00	 5.972411735967538e+01
 6.634918259611091e-01	 1.014857057346746e+00	 5.997344527992446e+01
 8.662058069460000e-01	 8.662058069460000e-01	 1.588235718501182e+01
 8.480822689592312e-01	 8.839578412179739e-01	 2.186589049709028e+01
 8.295990023725168e-01	 9.013270745050461e-01	 2.781274343560237e+01
 8.107682346602842e-01	 9.183027113312724e-01	 3.363767519777701e+01
 7.916026187512240e-01	 9.348744803221758e-01	 3.925612165454088e+01
 7.721152048270784e-01	 9.510326547731961e-01	 4.458454626534850e+01
 7.523194109568384e-01	 9.667680713935827e-01	 4.954078395969125e+01
 7.322289927039969e-01	 9.820721471512921e-01	 5.404437573732032e+01
 7.118580118496967e-01	 9.969368941562767e-01	 5.801689183355195e+01
 6.912208043786661e-01	 1.011354932531775e+00	 6.138224141128070e+01
 6.703319478777120e-01	 1.025319501235670e+00	 6.406696687590465e+01
 8.750446417102501e-01	 8.750446417102501e-01	 1.014014949337717e+01
 8.567361696629487e-01	 8.929778191885266e-01	 1.544626584911116e+01
 8.380642983155886e-01	 9.105242895495208e-01	 2.111162182718822e+01
 8.190413799127454e-01	 9.276731471593713e-01	 2.703714902233187e+01
 7.996801964946257e-01	 9.444140158336568e-01	 3.312306181604761e+01
 7.799939314080920e-01	 9.607370696157294e-01	 3.926927812131385e+01
 7.599961396412075e-01	 9.766330517118722e-01	 4.537583979618884e+01
 7.397007171203579e-01	 9.920932915080817e-01	 5.134332992413810e+01
 7.191218691142488e-01	 1.007109719605227e+00	 5.707328420633191e+01
 6.982740778931683e-01	 1.021674880821680e+00	 6.246859378614664e+01
 6.771720697948095e-01	 1.035781945125100e+00	 6.743389692738911e+01
 8.838834764750000e-01	 8.838834764750000e-01	 4.917525039415665e+00
 8.653900703672558e-01	 9.019977971594894e-01	 9.454610391018697e+00
 8.465295942593203e-01	 9.197215045943362e-01	 1.473939796326765e+01
 8.273145251659157e-01	 9.370435829877607e-01	 2.065918998460360e+01
 8.077577742387659e-01	 9.539535513453987e-01	 2.709919582800914e+01
 7.878726579898540e-01	 9.704414844585149e-01	 3.394302175716861e+01
 7.676728683263140e-01	 9.864980320304252e-01	 4.107316696378907e+01
 7.471724415374250e-01	 1.002114435865165e+00	 4.837152254581305e+01
 7.263857263794565e-01	 1.017282545054521e+00	 5.571987007736006e+01
 7.053273514082554e-01	 1.031994829112000e+00	 6.300037645642479e+01
 6.840121917124017e-01	 1.046244389015035e+00	 7.009608178472678e+01
 6.156109725587411e-01	 9.416199501384250e-01	 8.935172022669903e+00
 5.962098017009264e-01	 9.540224695395332e-01	 1.083137999787883e+01
 5.766048437667730e-01	 9.659978541247000e-01	 1.953474928028419e+01
 5.568099690270316e-01	 9.775416402487633e-01	 3.447855666066037e+01
 5.368391472596018e-01	 9.886499532180105e-01	 5.507955224892307e+01
 5.167064171925495e-01	 9.993195076959103e-01	 8.074068009941475e+01
 4.964258562287501e-01	 1.009547606256940e+00	 1.108538176879199e+02
 4.760115505788752e-01	 1.019332136131226e+00	 1.448025158586377e+02
 4.554775659241308e-01	 1.028671564192235e+00	 1.819647213432108e+02
 4.348379187240837e-01	 1.037564930248593e+00	 2.217154646003184e+02
 4.141065482781622e-01	 1.046011838709305e+00	 2.634294965200623e+02
 6.224510944718810e-01	 9.520823940238121e-01	 1.880946324747071e+01
 6.028343550492661e-01	 9.646227191958865e-01	 1.922718225804498e+01
 5.830115642494710e-01	 9.767311636097610e-01	 2.547993504515952e+01
 5.629967464573653e-01	 9.884032140242146e-01	 3.707611005845659e+01
 5.428040266706029e-01	 9.996349526933817e-01	 5.350967231373100e+01
 5.224475996031166e-01	 1.010423057776989e+00	 7.426253016334007e+01
 5.019416990733697e-01	 1.020764801878120e+00	 9.880691900518619e+01
 4.813005678054852e-01	 1.030658048751678e+00	 1.266077859072233e+02
 4.605384277660153e-01	 1.040101248236386e+00	 1.571251595414542e+02
 4.396694511529662e-01	 1.049093429472078e+00	 1.898164903803820e+02
 4.187077321468711e-01	 1.057634192472302e+00	 2.241389467983420e+02
 6.292912163855158e-01	 9.625448379097047e-01	 2.777583142878836e+01
 6.094589083980003e-01	 9.752229688528293e-01	 2.732190811721156e+01
 5.894182847324629e-01	 9.874644730954647e-01	 3.175027763857088e+01
 5.691835238878924e-01	 9.992647878003311e-01	 4.064312324114236e+01
 5.487689060816965e-01	 1.010619952169409e+00	 5.357027806169559e+01
 5.281887820136760e-01	 1.021526607858687e+00	 7.009124318654277e+01
 5.074575419178806e-01	 1.031981997499849e+00	 8.975722075796011e+01
 4.865895850318857e-01	 1.041983961372579e+00	 1.121131484296907e+02
 4.655992896075897e-01	 1.051530932280860e+00	 1.366997218263142e+02
 4.445009835814387e-01	 1.060621928695729e+00	 1.630553921340353e+02
 4.233089160150698e-01	 1.069256546235278e+00	 1.907183265350919e+02
 6.361313382996451e-01	 9.730072817961023e-01	 3.586361881080803e+01
 6.160834617471291e-01	 9.858232185103623e-01	 3.512532386329816e+01
 5.958250052157492e-01	 9.981977825818114e-01	 3.833534198258559e+01
 5.753703013186131e-01	 1.010126361577113e+00	 4.514837683660464e+01
 5.547337854928833e-01	 1.021604951646094e+00	 5.520882634472052e+01
 5.339299644242276e-01	 1.032630157941003e+00	 6.815245700893456e+01
 5.129733847622833e-01	 1.043199193122128e+00	 8.360809141658656e+01
 4.918786022580771e-01	 1.053309873993932e+00	 1.011992975140712e+02
 4.706601514488546e-01	 1.062960616325656e+00	 1.205460685371280e+02
 4.493325160095007e-01	 1.072150427919546e+00	 1.412664828709419e+02
 4.279100998827580e-01	 1.080878899998233e+00	 1.629783335945235e+02
 6.429714602142689e-01	 9.834697256830051e-01	 4.310091872696007e+01
 6.227080150966526e-01	 9.964234681684844e-01	 4.264677989150486e+01
 6.022317256993296e-01	 1.008931092068801e+00	 4.522513673849909e+01
 5.815570787495273e-01	 1.020987935354560e+00	 5.056197965010686e+01
 5.606986649041629e-01	 1.032589951123436e+00	 5.837500958764214e+01
 5.396711468347712e-01	 1.043733708023936e+00	 6.837497351352303e+01
 5.184892276065770e-01	 1.054416388744956e+00	 8.026701112955101e+01
 4.971676194840591e-01	 1.064635786615735e+00	 9.375200379688881e+01
 4.757210132898095e-01	 1.074390300370775e+00	 1.085279167249758e+02
 4.541640484371527e-01	 1.083678927143527e+00	 1.242911258203286e+02
 4.325112837499361e-01	 1.092501253761168e+00	 1.407377209653381e+02
 6.498115821293877e-01	 9.939321695704137e-01	 4.951464133269914e+01
 6.293325684465706e-01	 1.007023717827196e+00	 4.989523259407587e+01
 6.086384461832042e-01	 1.019664401556434e+00	 5.241009095284515e+01
 5.877438561806352e-01	 1.031849509132672e+00	 5.685529876095090e+01
 5.666635443155355e-01	 1.043574950601434e+00	 6.302063812725755e+01
 5.454123292453070e-01	 1.054837258107488e+00	 7.069059209861058e+01
 5.240050704507622e-01	 1.065633584368333e+00	 7.964535532016563e+01
 5.024566367098319e-01	 1.075961699237989e+00	 8.966184727720575e+01
 4.807818751304545e-01	 1.085819984416216e+00	 1.005147213791915e+02
 4.589955808643948e-01	 1.095207426367674e+00	 1.119773633676154e+02
 4.371124676166038e-01	 1.104123607524082e+00	 1.238228728076185e+02
 6.566517040450012e-01	 1.004394613458327e+00	 5.513057522998196e+01
 6.359571217968834e-01	 1.017623967486498e+00	 5.687926488195075e+01
 6.150451666673726e-01	 1.030397711044709e+00	 5.988103216303104e+01
 5.939306336119369e-01	 1.042711082911450e+00	 6.400089398810077e+01
 5.726284237270008e-01	 1.054559950080089e+00	 6.909952990516267e+01
 5.511535116558349e-01	 1.065940808191658e+00	 7.503395355797863e+01
 5.295209132948389e-01	 1.076850779992260e+00	 8.165819180846067e+01
 5.077456539353953e-01	 1.087287611860692e+00	 8.882396682978984e+01
 4.858427369707898e-01	 1.097249668461979e+00	 9.638137657721809e+01
 4.638271132912263e-01	 1.106735925591985e+00	 1.041795691825020e+02
 4.417136514827614e-01	 1.115745961286976e+00	 1.120674069967890e+02
 6.634918259611091e-01	 1.014857057346746e+00	 5.997344527992446e+01
 6.425816751475903e-01	 1.028224217146390e+00	 6.360710543703586e+01
 6.214518871518357e-01	 1.041131020533627e+00	 6.762916585726141e+01
 6.001174110434320e-01	 1.053572656690893e+00	 7.197245640947564e+01
 5.785933031385591e-01	 1.065544949559402e+00	 7.656740698371416e+01
 5.568946940663551e-01	 1.077044358276446e+00	 8.134239361796782e+01
 5.350367561388070e-01	 1.088067975616736e+00	 8.622409048223462e+01
 5.130346711607495e-01	 1.098613524483847e+00	 9.113782521230971e+01
 4.909035988108152e-01	 1.108679352508065e+00	 9.600793512003594e+01
 4.686586457176479e-01	 1.118264424816463e+00	 1.007581218649042e+02
 4.463148353484084e-01	 1.127368315049849e+00	 1.053118022524822e+02
 6.703319478777120e-01	 1.025319501235670e+00	 6.406696687590465e+01
 6.492062284986920e-01	 1.038824466806871e+00	 7.008664678576419e+01
 6.278586076365926e-01	 1.051864330023189e+00	 7.564605619201677e+01
 6.063041884751207e-01	 1.064434230471001e+00	 8.074475064536816e+01
 5.845581825502105e-01	 1.076529949039371e+00	 8.538179839774538e+01
 5.626358764768672e-01	 1.088147908361853e+00	 8.955580544167353e+01
 5.405525989826665e-01	 1.099285171241760e+00	 9.326494462089852e+01
 5.183236883858944e-01	 1.109939437107452e+00	 9.650698845984567e+01
 4.959644606505308e-01	 1.120109036554474e+00	 9.927934533276718e+01
 4.734901781436591e-01	 1.129792924041105e+00	 1.015790985717490e+02
 4.509160192135453e-01	 1.138990668812702e+00	 1.034030480962506e+02
 6.771720697948095e-01	 1.035781945125100e+00	 6.743389692738911e+01
 6.558307818501883e-01	 1.049424716467942e+00	 7.632546227728670e+01
 6.342653281216438e-01	 1.062597639513393e+00	 8.392360787816921e+01
 6.124909659070029e-01	 1.075295804251774e+00	 9.029356063983508e+01
 5.905230619619546e-01	 1.087514948519997e+00	 9.550194889405662e+01
 5.683770588873716e-01	 1.099251458447877e+00	 9.961651046621830e+01
 5.460684418264172e-01	 1.110502366867334e+00	 1.027058030481729e+02
 5.236127056108301e-01	 1.121265349731507e+00	 1.048389186494253e+02
 5.010253224899366e-01	 1.131538720601204e+00	 1.060852038167571e+02
 4.783217105692602e-01	 1.141321423265912e+00	 1.065139872118429e+02
 4.555172030781719e-01	 1.150613022575534e+00	 1.061943160239584e+02
 6.840121917124017e-01	 1.046244389015035e+00	 7.009608178472678e+01
 6.624553352020789e-01	 1.060024966129602e+00	 8.233082204297263e+01
 6.406720486069893e-01	 1.073330949004241e+00	 9.245404915393101e+01
 6.186777433390788e-01	 1.086157378033213e+00	 1.005956386952047e+02
 5.964879413737916e-01	 1.098499948001280e+00	 1.068887331465363e+02
 5.741182412978680e-01	 1.110355008534519e+00	 1.114691369897885e+02
 5.515842846700593e-01	 1.121719562493458e+00	 1.144747123556259e+02
 5.289017228355563e-01	 1.132591262356013e+00	 1.160447790986897e+02
 5.060861843290325e-01	 1.142968404648257e+00	 1.163195230365321e+02
 4.831532429944511e-01	 1.152849922490885e+00	 1.154394159090446e+02
 4.601183869422882e-01	 1.162235376338345e+00	 1.135446504078334e+02
 4.141065482781622e-01	 1.046011838709305e+00	 2.634294965200623e+02
 3.932972896413123e-01	 1.054012448698682e+00	 2.530090117094209e+02
 3.724238474895377e-01	 1.061567462705179e+00	 2.359420157196612e+02
 3.514997710187807e-01	 1.068678113852559e+00	 2.134007974531131e+02
 3.305384299522138e-01	 1.075346151886617e+00	 1.865429896077675e+02
 3.095529917259615e-01	 1.081573827976446e+00	 1.565074448137109e+02
 2.885563999111744e-01	 1.087363878431055e+00	 1.244103480488511e+02
 2.675613539221366e-01	 1.092719507434895e+00	 9.134158021270659e+01
 2.465802900510743e-01	 1.097644368907271e+00	 5.836134514233471e+01
 2.256253638614278e-01	 1.102142547591368e+00	 2.649706977272569e+01
 2.047084339626188e-01	 1.106218539478505e+00	-3.259415396387880e+00
 4.187077321468711e-01	 1.057634192472302e+00	 2.241389467983420e+02
 3.976672595254846e-01	 1.065723698129262e+00	 2.209568667379532e+02
 3.765618902389651e-01	 1.073362656736697e+00	 2.114397912750516e+02
 3.554053240298771e-01	 1.080552315119742e+00	 1.966186462588397e+02
 3.342110791738727e-01	 1.087294442465818e+00	 1.775130294602545e+02
 3.129924694119229e-01	 1.093591314957006e+00	 1.551275279923746e+02
 2.917625821326362e-01	 1.099445699305754e+00	 1.304482382145924e+02
 2.705342578549005e-01	 1.104860835298564e+00	 1.044395017930209e+02
 2.493200710519669e-01	 1.109840417453845e+00	 7.804086931752184e+01
 2.281323123490928e-01	 1.114388575900822e+00	 5.216430060901560e+01
 2.069829721180270e-01	 1.118509856586275e+00	 2.769160861455700e+01
 4.233089160150698e-01	 1.069256546235278e+00	 1.907183265350919e+02
 4.020372294090627e-01	 1.077434947559639e+00	 1.934256470593939e+02
 3.806999329877463e-01	 1.085157850767857e+00	 1.901107235688987e+02
 3.593108770403063e-01	 1.092426516386447e+00	 1.816654867206793e+02
 3.378837283948748e-01	 1.099242733044450e+00	 1.689738096643890e+02
 3.164319470972685e-01	 1.105608801936938e+00	 1.529082605643301e+02
 2.949687643535532e-01	 1.111527520179795e+00	 1.343270242909594e+02
 2.735071617872199e-01	 1.117002163161573e+00	 1.140710057634348e+02
 2.520598520525447e-01	 1.122036465999790e+00	 9.296112547102469e+01
 2.306392608366009e-01	 1.126634604209704e+00	 7.179581574526196e+01
 2.092575102734646e-01	 1.130801173693560e+00	 5.134872441874698e+01
 4.279100998827580e-01	 1.080878899998233e+00	 1.629783335945235e+02
 4.064071992920467e-01	 1.089146196989810e+00	 1.702695662631498e+02
 3.848379757358810e-01	 1.096953044798660e+00	 1.718525020375372e+02
 3.632164300500685e-01	 1.104300717652674e+00	 1.684823678622545e+02
 3.415563776152200e-01	 1.111191023622512e+00	 1.609095480466157e+02
 3.198714247819980e-01	 1.117626288916241e+00	 1.498767659055119e+02
 2.981749465739252e-01	 1.123609341053177e+00	 1.361164017210575e+02
 2.764800657190950e-01	 1.129143491023926e+00	 1.203479583306821e+02
 2.547996330528077e-01	 1.134232514545106e+00	 1.032756840077087e+02
 2.331462093239524e-01	 1.138880632518015e+00	 8.558636065119703e+01
 2.115320484289314e-01	 1.143092490800359e+00	 6.794726366213710e+01
 4.325112837499361e-01	 1.092501253761168e+00	 1.407377209653381e+02
 4.107771691744364e-01	 1.100857446419777e+00	 1.513490413359379e+02
 3.889760184833697e-01	 1.108748238829107e+00	 1.565671694850250e+02
 3.671219830591637e-01	 1.116174918918422e+00	 1.570128469931798e+02
 3.452290268349087e-01	 1.123139314200007e+00	 1.533051337567320e+02
 3.233109024661119e-01	 1.129643775894916e+00	 1.460590129554286e+02
 3.013811287937522e-01	 1.135691161925902e+00	 1.358830999430886e+02
 2.794529696505255e-01	 1.141284818885619e+00	 1.233774652054055e+02
 2.575394140527559e-01	 1.146428563089792e+00	 1.091315801995317e+02
 2.356531578111472e-01	 1.151126660825756e+00	 9.372239354362753e+01
 2.138065865844276e-01	 1.155383807906674e+00	 7.771254367729949e+01
 4.371124676166038e-01	 1.104123607524082e+00	 1.238228728076185e+02
 4.151471390562320e-01	 1.112568695849540e+00	 1.365303661679911e+02
 3.931140612302117e-01	 1.120543432859196e+00	 1.441608929593200e+02
 3.710275360675918e-01	 1.128049120183693e+00	 1.472028576947780e+02
 3.489016760539405e-01	 1.135087604776933e+00	 1.461460919358316e+02
 3.267503801496099e-01	 1.141661262872963e+00	 1.414798769777007e+02
 3.045873110130343e-01	 1.147772982797968e+00	 1.336910384965744e+02
 2.824258735815118e-01	 1.153426146746654e+00	 1.232621221552531e+02
 2.602791950523892e-01	 1.158624611633849e+00	 1.106696581405415e+02
 2.381601062981852e-01	 1.163372689132924e+00	 9.638252155824273e+01
 2.160811247399532e-01	 1.167675125012503e+00	 8.086039455310976e+01
 4.417136514827614e-01	 1.115745961286976e+00	 1.120674069967890e+02
 4.195171089374332e-01	 1.124279945279097e+00	 1.256854054651289e+02
 3.972521039764076e-01	 1.132338626888928e+00	 1.345437489486880e+02
 3.749330890753527e-01	 1.139923321448485e+00	 1.390005860566959e+02
 3.525743252723156e-01	 1.147035895353290e+00	 1.394185505925012e+02
 3.301898578324918e-01	 1.153678749850381e+00	 1.361631965230662e+02
 3.077934932317715e-01	 1.159854803669376e+00	 1.296014733719346e+02
 2.853987775120535e-01	 1.165567474607031e+00	 1.201002498984026e+02
 2.630189760517078e-01	 1.170820660177278e+00	 1.080248932046875e+02
 2.406670547850666e-01	 1.175618717439521e+00	 9.373790966067909e+01
 2.183556628955082e-01	 1.179966442117847e+00	 7.759765326257811e+01
 4.463148353484084e-01	 1.127368315049849e+00	 1.053118022524822e+02
 4.238870788180403e-01	 1.135991194708451e+00	 1.186913075940969e+02
 4.013901467219571e-01	 1.144133820918303e+00	 1.276295218649319e+02
 3.788386420824468e-01	 1.151797522712798e+00	 1.323563545689798e+02
 3.562469744900341e-01	 1.158984185929079e+00	 1.331092095279095e+02
 3.336293355147580e-01	 1.165696236827171e+00	 1.301318268688988e+02
 3.109996754499638e-01	 1.171936624540127e+00	 1.236731343075160e+02
 2.883716814421509e-01	 1.177708802466749e+00	 1.139861144675892e+02
 2.657587570507115e-01	 1.183016708720077e+00	 1.013266945577853e+02
 2.431740032717912e-01	 1.187864745745547e+00	 8.595266426412064e+01
 2.206302010510924e-01	 1.192257759222705e+00	 6.812262722607083e+01
 4.509160192135453e-01	 1.138990668812702e+00	 1.034030480962506e+02
 4.282570486980531e-01	 1.147702444137599e+00	 1.154302350088045e+02
 4.055281894668601e-01	 1.155929014947321e+00	 1.233355148643823e+02
 3.827441950888737e-01	 1.163671723976633e+00	 1.272225131228009e+02
 3.599196237070956e-01	 1.170932476504298e+00	 1.272053111634419e+02
 3.370688131964081e-01	 1.177713723803332e+00	 1.234076901869176e+02
 3.142058576676110e-01	 1.184018445410219e+00	 1.159623536806807e+02
 2.913445853718038e-01	 1.189850130325810e+00	 1.050101340824572e+02
 2.684985380494003e-01	 1.195212757262246e+00	 9.069918914834147e+01
 2.456809517583592e-01	 1.200110774051002e+00	 7.318419336010228e+01
 2.229047392067060e-01	 1.204549076327078e+00	 5.262552949310607e+01
 4.555172030781719e-01	 1.150613022575534e+00	 1.061943160239584e+02
 4.326270185774718e-01	 1.159413693566544e+00	 1.157891110143641e+02
 4.096662322111168e-01	 1.167724208975982e+00	 1.215823721342796e+02
 3.866497480946336e-01	 1.175545925239990e+00	 1.235533366171957e+02
 3.635922729235004e-01	 1.182880767078950e+00	 1.216946131363556e+02
 3.405082908774424e-01	 1.189731210778864e+00	 1.160118226704294e+02
 3.174120398847132e-01	 1.196100266279651e+00	 1.065231875873092e+02
 2.943174893010123e-01	 1.201991458184212e+00	 9.325907348419278e+01
 2.712383190477745e-01	 1.207408805803788e+00	 7.626148848681014e+01
 2.481879002447703e-01	 1.212356802355885e+00	 5.558354482320441e+01
 2.251792773623489e-01	 1.216840393430966e+00	 3.128888754949591e+01
 4.601183869422882e-01	 1.162235376338345e+00	 1.135446504078334e+02
 4.369969884562961e-01	 1.171124942995283e+00	 1.196593817252880e+02
 4.138042749547273e-01	 1.179519403004286e+00	 1.222939118419707e+02
 3.905553010997264e-01	 1.187420126502869e+00	 1.213049287094006e+02
 3.672649221392484e-01	 1.194829057653032e+00	 1.165653625396953e+02
 3.439477685578608e-01	 1.201748697753768e+00	 1.079644188339344e+02
 3.206182221012706e-01	 1.208182087148427e+00	 9.540752965653397e+01
 2.972903932297764e-01	 1.214132786041956e+00	 7.881622661007580e+01
 2.739781000458337e-01	 1.219604854344699e+00	 5.812793941809335e+01
 2.506948487310247e-01	 1.224602830660197e+00	 3.329572441746340e+01
 2.274538155180211e-01	 1.229131710534368e+00	 4.287927596059927e+00
 2.047084339626188e-01	 1.106218539478505e+00	-3.259415396387880e+00
 1.838410471820675e-01	 1.109877231672737e+00	 5.208068214723781e+01
 1.630344251371875e-01	 1.113123881798189e+00	 7.601609349898084e+01
 1.422994522082913e-01	 1.115964097050903e+00	 6.803323439587507e+01
 1.216466649059655e-01	 1.118403812994212e+00	 2.774460059769871e+01
 1.010862426134333e-01	 1.120449272191891e+00	-4.511488077618291e+01
 8.062799968276181e-02	 1.122107002770802e+00	-1.506919043788009e+02
 6.028137885658343e-02	 1.123383797000342e+00	-2.890191994069788e+02
 4.005544598153728e-02	 1.124286689971457e+00	-4.600202571968225e+02
 1.995888597471339e-02	 1.124822938453228e+00	-6.635143292359908e+02
 0.000000000000000e+00	 1.125000000000000e+00	-8.992216519549399e+02
 2.069829721180270e-01	 1.118509856586275e+00	 2.769160861455700e+01
 1.858837254842960e-01	 1.122209200915521e+00	 6.860455634957610e+01
 1.648459187499743e-01	 1.125491924930832e+00	 8.187670817861975e+01
 1.438805572329332e-01	 1.128363698130427e+00	 6.706000702651080e+01
 1.229982945160992e-01	 1.130830522028343e+00	 2.381763367241513e+01
 1.022094230869531e-01	 1.132898708550173e+00	-4.807923197804353e+01
 8.152386634591845e-02	 1.134574858357522e+00	-1.487550058663314e+02
 6.095117195499002e-02	 1.135865839189446e+00	-2.782336113533588e+02
 4.050050649243606e-02	 1.136778764304567e+00	-4.364426677663253e+02
 2.018065137442525e-02	 1.137320971102731e+00	-6.232179166660788e+02
 0.000000000000000e+00	 1.137500000000000e+00	-8.383078472702432e+02
 2.092575102734646e-01	 1.130801173693560e+00	 5.134872441874698e+01
 1.879264037867324e-01	 1.134541170157915e+00	 7.937560996834146e+01
 1.666574123631051e-01	 1.137859968063168e+00	 8.343312124555369e+01
 1.454616622580137e-01	 1.140763299209717e+00	 6.313806315846315e+01
 1.243499241267251e-01	 1.143257231062304e+00	 1.820386416654521e+01
 1.033326035609789e-01	 1.145348144908337e+00	-5.156225928970485e+01
 8.241973300955530e-02	 1.147042713944167e+00	-1.462624470226501e+02
 6.162096505381248e-02	 1.148347881378508e+00	-2.659116134582585e+02
 4.094556700364869e-02	 1.149270838637658e+00	-4.104411056182922e+02
 2.040241677431206e-02	 1.149819003752230e+00	-5.797025665518530e+02
 0.000000000000000e+00	 1.150000000000000e+00	-7.734719706545822e+02
 2.115320484289314e-01	 1.143092490800359e+00	 6.794726366213710e+01
 1.899690820893766e-01	 1.146873139399917e+00	 8.457946145465510e+01
 1.684689059765799e-01	 1.150228011195196e+00	 8.082422080485790e+01
 1.470427672835328e-01	 1.153162900288774e+00	 5.636256485822246e+01
 1.257015537378434e-01	 1.155683940096093e+00	 1.095774652357778e+01
 1.044557840355105e-01	 1.157797581266385e+00	-5.554719049889826e+01
 8.331559967367232e-02	 1.159510569530738e+00	-1.432321123913169e+02
 6.229075815305083e-02	 1.160829923567528e+00	-2.521027280969987e+02
 4.139062751517519e-02	 1.161762912970730e+00	-3.820937249483065e+02
 2.062418217437382e-02	 1.162317036401724e+00	-5.330720778841049e+02
 0.000000000000000e+00	 1.162500000000000e+00	-7.048405036303218e+02
 2.138065865844276e-01	 1.155383807906674e+00	 7.771254367729949e+01
 1.920117603922285e-01	 1.159205108641528e+00	 8.439383041290108e+01
 1.702803995903987e-01	 1.162596054326918e+00	 7.418298465218012e+01
 1.486238723094905e-01	 1.165562501367597e+00	 4.682462457767128e+01
 1.270531833494540e-01	 1.168110649129712e+00	 2.131417824343448e+00
 1.055789645105481e-01	 1.170247017624314e+00	-6.001796724381163e+01
 8.421146633826952e-02	 1.171978425117234e+00	-1.396811255974797e+02
 6.296055125270505e-02	 1.173311965756507e+00	-2.368543704222041e+02
 4.183568802701556e-02	 1.174254987303784e+00	-3.514753543401135e+02
 2.084594757461052e-02	 1.174815069051214e+00	-4.834258327598566e+02
 0.000000000000000e+00	 1.175000000000000e+00	-6.325345455977072e+02
 2.160811247399532e-01	 1.167675125012503e+00	 8.086039455310976e+01
 1.940544386952883e-01	 1.171537077882749e+00	 7.898895333001229e+01
 1.720918932045614e-01	 1.174964097458333e+00	 6.363679134311874e+01
 1.502049773358868e-01	 1.177962102446187e+00	 3.461151829209668e+01
 1.284048129615569e-01	 1.180537358163162e+00	-8.225180246179907e+00
 1.067021449860916e-01	 1.182696453982126e+00	-6.495920744171799e+01
 8.510733300334690e-02	 1.184446280703655e+00	-1.356258893959787e+02
 6.363034435277519e-02	 1.185794007945443e+00	-2.202119592700786e+02
 4.228074853916980e-02	 1.186747061636820e+00	-3.186576717976827e+02
 2.106771297502218e-02	 1.187313101700699e+00	-4.308590288503825e+02
 0.000000000000000e+00	 1.187500000000000e+00	-5.566700971044322e+02
 2.183556628955082e-01	 1.179966442117847e+00	 7.759765326257811e+01
 1.960971169985559e-01	 1.183869047123579e+00	 6.852797332167333e+01
 1.739033868190682e-01	 1.187332140589441e+00	 4.930771182075608e+01
 1.517860823627217e-01	 1.190361703524544e+00	 1.980688531707819e+01
 1.297564425741521e-01	 1.192964067196440e+00	-2.006418705499146e+01
 1.078253254621411e-01	 1.195145890339820e+00	-7.035617006582262e+01
 8.600319966890443e-02	 1.196914136290001e+00	-1.310821232164404e+02
 6.430013745326123e-02	 1.198276050134339e+00	-2.022190211350460e+02
 4.272580905163788e-02	 1.199239135969837e+00	-2.837093688377942e+02
 2.128947837560878e-02	 1.199811134350180e+00	-3.754628973399840e+02
 0.000000000000000e+00	 1.200000000000000e+00	-4.773583254108698e+02
 2.206302010510924e-01	 1.192257759222705e+00	 6.812262722607083e+01
 1.981397953020312e-01	 1.196201016364018e+00	 5.316730577051125e+01
 1.757148804339190e-01	 1.199700183720243e+00	 3.131278300437958e+01
 1.533671873899952e-01	 1.202761304602666e+00	 2.490915765565795e+00
 1.311080721872396e-01	 1.205390776229548e+00	-3.333971575000664e+01
 1.089485059386964e-01	 1.207595326697396e+00	-7.619472210085499e+01
 8.689906633494215e-02	 1.209381991876273e+00	-1.260648983859950e+02
 6.496993055416314e-02	 1.210758092323192e+00	-1.829172877129618e+02
 4.317086956441985e-02	 1.211731210302836e+00	-2.466963044325483e+02
 2.151124377637034e-02	 1.212309166999656e+00	-3.173249073840236e+02
 0.000000000000000e+00	 1.212500000000000e+00	-3.947058136285870e+02
 2.229047392067060e-01	 1.204549076327078e+00	 5.262552949310607e+01
 2.001824736057144e-01	 1.208532985604066e+00	 3.305698157827312e+01
 1.775263740491137e-01	 1.212068226850737e+00	 9.764264627870709e+00
 1.549482924177072e-01	 1.215160905680556e+00	-1.725947347200494e+01
 1.324597018008195e-01	 1.217817485262486e+00	-4.800775255661341e+01
 1.100716864157577e-01	 1.220044763054856e+00	-8.246130752178900e+01
 8.779493300146010e-02	 1.221849847462470e+00	-1.205886711955041e+02
 6.563972365548093e-02	 1.223240134512003e+00	-1.623467874722931e+02
 4.361593007751567e-02	 1.224223284635816e+00	-2.076816495268383e+02
 2.173300917730685e-02	 1.224807199649127e+00	-2.565289580490979e+02
 0.000000000000000e+00	 1.225000000000000e+00	-3.088147946054740e+02
 2.251792773623489e-01	 1.216840393430966e+00	 3.128888754949591e+01
 2.022251519096053e-01	 1.220864954843724e+00	 8.340969614840256e+00
 1.793378676646525e-01	 1.224436269980924e+00	-1.523011948787092e+01
 1.565293974458579e-01	 1.227560506758212e+00	-3.937047341306083e+01
 1.338113314148917e-01	 1.230244194295253e+00	-6.402606217746691e+01
 1.111948668933249e-01	 1.232494199412197e+00	-8.914291815264335e+01
 8.869079966845822e-02	 1.234317703048592e+00	-1.146673139617718e+02
 6.630951675721461e-02	 1.235722176700773e+00	-1.405459316755389e+02
 4.406099059092536e-02	 1.236715358968778e+00	-1.667260227971796e+02
 2.195477457841831e-02	 1.237305232298594e+00	-1.931555586205075e+02
 0.000000000000000e+00	 1.237500000000000e+00	-2.197833706360278e+02
 2.274538155180211e-01	 1.229131710534368e+00	 4.287927596059927e+00
 2.042678302137041e-01	 1.233196924082991e+00	-2.084252017970055e+01
 1.811493612805352e-01	 1.236804313110804e+00	-4.356695463884677e+01
 1.581105024744471e-01	 1.239960107835634e+00	-6.377122758711697e+01
 1.351629610294562e-01	 1.242670903327850e+00	-8.135409886829909e+01
 1.123180473713980e-01	 1.244943635769421e+00	-9.622706627375572e+01
 8.958666633593650e-02	 1.246785558634639e+00	-1.083141442260233e+02
 6.697930985936418e-02	 1.248204218889501e+00	-1.175515952393500e+02
 4.450605110464890e-02	 1.249207433301722e+00	-1.238876182650130e+02
 2.217653997970472e-02	 1.249803264948056e+00	-1.272819980912424e+02
 0.000000000000000e+00	 1.250000000000000e+00	-1.277057199890107e+02
 1.250000000000000e+00	 0.000000000000000e+00	 1.003319993139943e+02
 1.249803264948056e+00	 2.217653997970400e-02	 7.173665489328374e+01
 1.249207433301722e+00	 4.450605110464827e-02	 4.568306894584648e+01
 1.248204218889501e+00	 6.697930985936361e-02	 2.192913680611282e+01
 1.246785558634639e+00	 8.958666633593600e-02	 2.147814686841230e-01
 1.244943635769421e+00	 1.123180473713976e-01	-1.973787952012459e+01
 1.242670903327850e+00	 1.351629610294558e-01	-3.822427222709504e+01
 1.239960107835634e+00	 1.581105024744469e-01	-5.555700555540202e+01
 1.236804313110804e+00	 1.811493612805350e-01	-7.206540802360631e+01
 1.233196924082991e+00	 2.042678302137040e-01	-8.809495916083104e+01
 1.229131710534368e+00	 2.274538155180211e-01	-1.040066132089139e+02
 1.262500000000000e+00	 0.000000000000000e+00	 1.155560828690975e+02
 1.262301297597516e+00	 2.239830538099040e-02	 8.547419133416641e+01
 1.261699507634656e+00	 4.495111161837182e-02	 5.762024224441345e+01
 1.260686261078208e+00	 6.764910296151318e-02	 3.178342251584970e+01
 1.259253414220649e+00	 9.048253300341427e-02	 7.737105288850890e+00
 1.257393072126586e+00	 1.134412278494708e-01	-1.476100911179855e+01
 1.255097612360361e+00	 1.365145906440204e-01	-3.596866877367084e+01
 1.252359708912939e+00	 1.596916075030361e-01	-5.615875880019645e+01
 1.249172356240532e+00	 1.829608548964178e-01	-7.561889980436348e+01
 1.245528893322062e+00	 2.063105085178028e-01	-9.465095366983184e+01
 1.241423027637528e+00	 2.297283536736933e-01	-1.135704345096561e+02
 1.275000000000000e+00	 0.000000000000000e+00	 1.284269255147342e+02
 1.274799330246976e+00	 2.262007078210185e-02	 9.725560922227331e+01
 1.274191581967590e+00	 4.539617213178149e-02	 6.800624278607792e+01
 1.273168303266915e+00	 6.831889606324687e-02	 4.049885447681655e+01
 1.271721269806660e+00	 9.137839967041235e-02	 1.453978611048645e+01
 1.269842508483751e+00	 1.145644083270380e-01	-1.007819170728931e+01
 1.267524321392873e+00	 1.378662202580925e-01	-3.357569225077151e+01
 1.264759309990245e+00	 1.612727125311867e-01	-5.618645014916834e+01
 1.261540399370259e+00	 1.847723485119565e-01	-7.815698093171417e+01
 1.257860862561133e+00	 2.083531868216938e-01	-9.974616033225423e+01
 1.253714344740687e+00	 2.320028918293363e-01	-1.212247215193753e+02
 1.287500000000000e+00	 0.000000000000000e+00	 1.390130641489027e+02
 1.287297362896436e+00	 2.284183618303835e-02	 1.071378809960888e+02
 1.286683656300524e+00	 4.584123264487731e-02	 7.688625066111362e+01
 1.285650345455622e+00	 6.898868916456465e-02	 4.810860565266668e+01
 1.284189125392670e+00	 9.227426633693030e-02	 2.064378901255278e+01
 1.282291944840916e+00	 1.156875888040993e-01	-5.680855946284475e+00
 1.279951030425384e+00	 1.392178498716724e-01	-3.104933503325298e+01
 1.277158911067551e+00	 1.628538175588988e-01	-5.565678903290376e+01
 1.273908442499985e+00	 1.865838421271512e-01	-7.970921365737068e+01
 1.270192831800205e+00	 2.103958651253769e-01	-1.034231115959054e+02
 1.266005661843847e+00	 2.342774299849499e-01	-1.270250750599364e+02
 1.300000000000000e+00	 0.000000000000000e+00	 1.473803997853597e+02
 1.299795395545896e+00	 2.306360158379989e-02	 1.151757879928454e+02
 1.299175730633459e+00	 4.628629315765927e-02	 8.430370840588060e+01
 1.298132387644330e+00	 6.965848226546656e-02	 5.464457326059636e+01
 1.296656980978680e+00	 9.317013300296803e-02	 2.606927285589797e+01
 1.294741381198081e+00	 1.168107692806546e-01	-1.560760011342818e+00
 1.292377739457895e+00	 1.405694794847599e-01	-2.839343582504907e+01
 1.289558512144857e+00	 1.644349225861723e-01	-5.458584210085575e+01
 1.286276485629712e+00	 1.883953357420020e-01	-8.030402312046223e+01
 1.282524801039276e+00	 2.124385434288523e-01	-1.057227039506205e+02
 1.278296978947007e+00	 2.365519681405341e-01	-1.310249573742278e+02
 1.312500000000000e+00	 0.000000000000000e+00	 1.535923230719249e+02
 1.312293428195356e+00	 2.328536698438650e-02	 1.214220247865980e+02
 1.311667804966393e+00	 4.673135367012735e-02	 9.030040374332395e+01
 1.310614429833036e+00	 7.032827536595254e-02	 6.013743952093344e+01
 1.309124836564690e+00	 9.406599966852559e-02	 3.083562867427796e+01
 1.307190817555246e+00	 1.179339497567040e-01	 2.290024064233416e+00
 1.304804448490407e+00	 1.419211090973551e-01	-2.561168697729152e+01
 1.301958113222162e+00	 1.660160276130072e-01	-5.298906383048867e+01
 1.298644528759440e+00	 1.902068293565088e-01	-7.996875149632842e+01
 1.294856770278347e+00	 2.144812217321199e-01	-1.066842758316512e+02
 1.290588296050166e+00	 2.388265062960890e-01	-1.332757939639299e+02
 1.325000000000000e+00	 0.000000000000000e+00	 1.577098327039730e+02
 1.324791460844817e+00	 2.350713238479816e-02	 1.259272976203689e+02
 1.324159879299327e+00	 4.717641418228159e-02	 9.491654764004875e+01
 1.323096472021744e+00	 7.099806846602269e-02	 6.461672896806874e+01
 1.321592692150699e+00	 9.496186633360294e-02	 3.496151589229916e+01
 1.319640253912411e+00	 1.190571302322476e-01	 5.879125200292481e+00
 1.317231157522919e+00	 1.432727387094580e-01	-2.270764139219645e+01
 1.314357714299468e+00	 1.675971326394035e-01	-5.088132540382974e+01
 1.311012571889166e+00	 1.920183229706716e-01	-7.872970908028751e+01
 1.307188739517419e+00	 2.165239000351796e-01	-1.063456811134275e+02
 1.302879613153326e+00	 2.411010444516146e-01	-1.338270696628807e+02
 1.337500000000000e+00	 0.000000000000000e+00	 1.597916471979184e+02
 1.337289493494276e+00	 2.372889778503485e-02	 1.287404173187348e+02
 1.336651953632262e+00	 4.762147469412194e-02	 9.819084798636194e+01
 1.335578514210450e+00	 7.166786156567692e-02	 6.811086254769228e+01
 1.334060547736709e+00	 9.585773299820013e-02	 3.846489651244926e+01
 1.332089690269576e+00	 1.201803107072851e-01	 9.213887243602292e+00
 1.329657866555430e+00	 1.446243683210686e-01	-1.968471903981718e+01
 1.326757315376773e+00	 1.691782376653612e-01	-4.827694196477398e+01
 1.323380615018894e+00	 1.938298165844904e-01	-7.661222250689420e+01
 1.319520708756490e+00	 2.185665783380315e-01	-1.047433584821741e+02
 1.315170930256486e+00	 2.433755826071108e-01	-1.327264193231490e+02
 1.350000000000000e+00	 0.000000000000000e+00	 1.598943104550607e+02
 1.349787526143736e+00	 2.395066318509660e-02	 1.299083870386008e+02
 1.349144027965196e+00	 4.806653520564843e-02	 1.001605791829786e+02
 1.348060556399157e+00	 7.233765466491528e-02	 7.064720870862544e+01
 1.346528403322719e+00	 9.675359966231714e-02	 4.136306740284893e+01
 1.344539126626741e+00	 1.213034911818168e-01	 1.230138216529972e+01
 1.342084575587941e+00	 1.459759979321868e-01	-1.654621311275434e+01
 1.339156916454079e+00	 1.707593426908803e-01	-4.518969836209327e+01
 1.335748658148621e+00	 1.956413101979651e-01	-7.364068029034760e+01
 1.331852677995562e+00	 2.206092566406757e-01	-1.019123969544915e+02
 1.327462247359646e+00	 2.456501207625777e-01	-1.300197134629921e+02
 1.362500000000000e+00	 0.000000000000000e+00	 1.580722915145764e+02
 1.362285558793196e+00	 2.417242858498341e-02	 1.294764851896584e+02
 1.361636102298130e+00	 4.851159571686106e-02	 1.008616478972678e+02
 1.360542598587865e+00	 7.300744776373773e-02	 7.225213168226041e+01
 1.358996258908729e+00	 9.764946632595396e-02	 4.367269080769556e+01
 1.356988562983906e+00	 1.224266716558425e-01	 1.514842253187459e+01
 1.354511284620453e+00	 1.473276275428128e-01	-1.329529584207460e+01
 1.351556517531384e+00	 1.723404477159608e-01	-4.163287347539988e+01
 1.348116701278348e+00	 1.974528038110959e-01	-6.983857585808840e+01
 1.344184647234633e+00	 2.226519349431120e-01	-9.788659778940908e+01
 1.339753564462805e+00	 2.479246589180152e-01	-1.257511392002459e+02
 1.375000000000000e+00	 0.000000000000000e+00	 1.543780788654373e+02
 1.374783591442656e+00	 2.439419398469526e-02	 1.274883438319081e+02
 1.374128176631064e+00	 4.895665622775984e-02	 1.003286552327934e+02
 1.373024640776572e+00	 7.367724086214431e-02	 7.295103712857477e+01
 1.371464114494739e+00	 9.854533298911061e-02	 4.540982319350227e+01
 1.369437999341071e+00	 1.235498521293624e-01	 1.776157329591844e+01
 1.366937993652964e+00	 1.486792571529464e-01	-9.935023995996655e+00
 1.363956118608690e+00	 1.739215527406027e-01	-3.761926321423800e+01
 1.360484744408075e+00	 1.992642974238827e-01	-6.522854823710864e+01
 1.356516616473704e+00	 2.246946132453406e-01	-9.269853302341681e+01
 1.352044881565965e+00	 2.501991970734234e-01	-1.199632767711657e+02
 1.229131710534368e+00	 2.274538155180211e-01	-1.040066132089139e+02
 1.224602830660197e+00	 2.506948487310240e-01	-1.017730580808129e+02
 1.219604854344699e+00	 2.739781000458331e-01	-9.943801215414140e+01
 1.214132786041956e+00	 2.972903932297759e-01	-9.675663299029550e+01
 1.208182087148427e+00	 3.206182221012702e-01	-9.347761729594203e+01
 1.201748697753769e+00	 3.439477685578606e-01	-8.934398840182132e+01
 1.194829057653032e+00	 3.672649221392482e-01	-8.409394473023718e+01
 1.187420126502869e+00	 3.905553010997262e-01	-7.746176655191604e+01
 1.179519403004286e+00	 4.138042749547273e-01	-6.917877773086249e+01
 1.171124942995283e+00	 4.369969884562962e-01	-5.897435855392494e+01
 1.162235376338345e+00	 4.601183869422883e-01	-4.657700514720797e+01
 1.241423027637528e+00	 2.297283536736933e-01	-1.135704345096561e+02
 1.236848858964224e+00	 2.532017972172809e-01	-1.088625449908686e+02
 1.231800902885296e+00	 2.767178810439017e-01	-1.040333898155938e+02
 1.226274113899371e+00	 3.002632971585613e-01	-9.887337155233860e+01
 1.220263908016873e+00	 3.238244043178657e-01	-9.316743922572110e+01
 1.213766184728358e+00	 3.473872462383388e-01	-8.669576762584549e+01
 1.206777348226831e+00	 3.709375713550829e-01	-7.923448873493150e+01
 1.199294327765508e+00	 3.944608541049375e-01	-7.055647292096791e+01
 1.191314597032411e+00	 4.179423176984929e-01	-6.043215703138151e+01
 1.182836192423920e+00	 4.413669583353181e-01	-4.863041600337104e+01
 1.173857730101146e+00	 4.647195708066494e-01	-3.491947409786209e+01
 1.253714344740687e+00	 2.320028918293363e-01	-1.212247215193753e+02
 1.249094887268250e+00	 2.557087457036991e-01	-1.143661631928243e+02
 1.243996951425893e+00	 2.794576620423040e-01	-1.073675110346511e+02
 1.238415441756786e+00	 3.032362010878337e-01	-1.000538786362398e+02
 1.232345728885320e+00	 3.270305865350823e-01	-9.224591845316351e+01
 1.225783671702949e+00	 3.508267239195527e-01	-8.376039429736234e+01
 1.218725638800629e+00	 3.746102205717475e-01	-7.441079718766210e+01
 1.211168529028148e+00	 3.983664071110527e-01	-6.400800255355364e+01
 1.203109791060537e+00	 4.220803604432159e-01	-5.236096635463220e+01
 1.194547441852557e+00	 4.457369282153292e-01	-3.927745724631307e+01
 1.185480083863948e+00	 4.693207546720106e-01	-2.456482149660506e+01
 1.266005661843847e+00	 2.342774299849499e-01	-1.270250750599364e+02
 1.261340915572276e+00	 2.582156941902787e-01	-1.183300844921774e+02
 1.256192999966490e+00	 2.821974430410401e-01	-1.094770910763026e+02
 1.250556769614201e+00	 3.062091050175934e-01	-1.003254009974184e+02
 1.244427549753766e+00	 3.302367687529200e-01	-9.073083724405186e+01
 1.237801158677538e+00	 3.542662016015020e-01	-8.054620659597030e+01
 1.230673929374427e+00	 3.782828697892420e-01	-6.962180132067112e+01
 1.223042730290788e+00	 4.022719601180717e-01	-5.780593391478644e+01
 1.214904985088662e+00	 4.262184031888958e-01	-4.494550287740456e+01
 1.206258691281194e+00	 4.501068980963296e-01	-3.088658715408699e+01
 1.197102437626749e+00	 4.739219385383718e-01	-1.547506654740673e+01
 1.278296978947007e+00	 2.365519681405341e-01	-1.310249573742278e+02
 1.273586943876303e+00	 2.607226426770197e-01	-1.207987047790519e+02
 1.268389048507087e+00	 2.849372240401096e-01	-1.103974330127886e+02
 1.262698097471615e+00	 3.091820089478399e-01	-9.971413738188997e+01
 1.256509370622212e+00	 3.334429509713790e-01	-8.863929388383926e+01
 1.249818645652128e+00	 3.577056792841868e-01	-7.706122196557574e+01
 1.242622219948226e+00	 3.819555190075664e-01	-6.486647344700782e+01
 1.234916931553427e+00	 4.061775131259946e-01	-5.194024628347738e+01
 1.226700179116788e+00	 4.303564459355328e-01	-3.816682157410415e+01
 1.217969940709831e+00	 4.544768679783192e-01	-2.343002195732155e+01
 1.208724791389550e+00	 4.785231224057330e-01	-7.613689273884589e+00
 1.290588296050166e+00	 2.388265062960890e-01	-1.332757939639299e+02
 1.285832972180329e+00	 2.632295911639221e-01	-1.218147285963149e+02
 1.280585097047684e+00	 2.876770050395130e-01	-1.101624949716302e+02
 1.274839425329030e+00	 3.121549128785735e-01	-9.824528843226381e+01
 1.268591191490658e+00	 3.366491331904589e-01	-8.598773524895597e+01
 1.261836132626718e+00	 3.611451569676073e-01	-7.331315238835623e+01
 1.254570510522024e+00	 3.856281682267207e-01	-6.014382500515049e+01
 1.246791132816067e+00	 4.100830661348213e-01	-4.640130066662893e+01
 1.238495373144913e+00	 4.344944886831269e-01	-3.200669913201472e+01
 1.229681190138469e+00	 4.588468378612980e-01	-1.688103632492817e+01
 1.220347145152352e+00	 4.831243062740942e-01	-9.455609573153865e-01
 1.302879613153326e+00	 2.411010444516146e-01	-1.338270696628807e+02
 1.298079000484355e+00	 2.657365396509859e-01	-1.214192489208187e+02
 1.292781145588281e+00	 2.904167860392501e-01	-1.088049535771659e+02
 1.286980753186445e+00	 3.151278168097941e-01	-9.594310376887285e+01
 1.280673012359105e+00	 3.398553154101601e-01	-8.279198753445652e+01
 1.273853619601308e+00	 3.645846346517633e-01	-6.930941879416005e+01
 1.266518801095822e+00	 3.893008174467049e-01	-5.545290471430913e+01
 1.258665334078706e+00	 4.139886191445518e-01	-4.117982179423817e+01
 1.250290567173038e+00	 4.386325314316781e-01	-2.644759990909126e+01
 1.241392439567106e+00	 4.632168077452660e-01	-1.121391343861687e+01
 1.231969498915152e+00	 4.877254901434555e-01	 4.563121487884281e+00
 1.315170930256486e+00	 2.433755826071108e-01	-1.327264193231490e+02
 1.310325028788382e+00	 2.682434881382111e-01	-1.196518224709249e+02
 1.304977194128878e+00	 2.931565670393207e-01	-1.063562638346174e+02
 1.299122081043860e+00	 3.181007207415019e-01	-9.283092643083779e+01
 1.292754833227551e+00	 3.430614976304824e-01	-7.906728525861911e+01
 1.285871106575899e+00	 3.680241123366550e-01	-6.505716466189884e+01
 1.278467091669621e+00	 3.929734666675191e-01	-5.079279683316580e+01
 1.270539535341346e+00	 4.178941721551863e-01	-3.626688112373466e+01
 1.262085761201164e+00	 4.427705741811864e-01	-2.147264380065816e+01
 1.253103688995743e+00	 4.675867776302233e-01	-6.403897866969231e+00
 1.243591852677954e+00	 4.923266740138165e-01	 8.944897458800359e+00
 1.327462247359646e+00	 2.456501207625777e-01	-1.300197134629921e+02
 1.322571057092408e+00	 2.707504366255978e-01	-1.165505408302799e+02
 1.317173242669475e+00	 2.958963480397251e-01	-1.028467156872625e+02
 1.311263408901274e+00	 3.210736246736966e-01	-8.893123484818270e+01
 1.304836654095997e+00	 3.462676798514259e-01	-7.482829865617694e+01
 1.297888593550488e+00	 3.714635900222821e-01	-6.056326886530630e+01
 1.290415382243419e+00	 3.966461158891632e-01	-4.616261951535055e+01
 1.282413736603985e+00	 4.217997251667246e-01	-3.165388078861475e+01
 1.273880955229289e+00	 4.469086169316517e-01	-1.706557589129016e+01
 1.264814938424380e+00	 4.719567475161698e-01	-2.427151057617163e+00
 1.255214206440755e+00	 4.969278578851778e-01	 1.223110116729763e+01
 1.339753564462805e+00	 2.479246589180152e-01	-1.257511392002459e+02
 1.334817085396434e+00	 2.732573851131458e-01	-1.121520976565156e+02
 1.329369291210072e+00	 2.986361290404630e-01	-9.830548746036682e+01
 1.323404736758689e+00	 3.240465286063783e-01	-8.426568250355663e+01
 1.316918474964443e+00	 3.494738620729904e-01	-7.008915956366425e+01
 1.309906080525078e+00	 3.749030677086448e-01	-5.583435781158872e+01
 1.302363672817217e+00	 4.003187651116372e-01	-4.156152325543959e+01
 1.294287937866625e+00	 4.257052781791670e-01	-2.733253843063428e+01
 1.285676149257414e+00	 4.510466596830741e-01	-1.321073777722834e+01
 1.276526187853017e+00	 4.763267174031054e-01	 7.392907206102386e-01
 1.266836560203556e+00	 5.015290417575390e-01	 1.445191692293423e+01
 1.352044881565965e+00	 2.501991970734234e-01	-1.199632767711657e+02
 1.347063113700461e+00	 2.757643336008552e-01	-1.064918522240233e+02
 1.341565339750669e+00	 3.013759100415347e-01	-9.276069638999226e+01
 1.335546064616104e+00	 3.270194325395472e-01	-7.885513543058816e+01
 1.329000295832889e+00	 3.526800442951761e-01	-6.486348589283226e+01
 1.321923567499668e+00	 3.783425453957430e-01	-5.087681691796629e+01
 1.314311963391016e+00	 4.039914143349411e-01	-3.698868941971489e+01
 1.306162139129264e+00	 4.296108311925129e-01	-2.329487285933539e+01
 1.297471343285539e+00	 4.551847024354536e-01	-9.893040453026595e+00
 1.288237437281654e+00	 4.806966872910303e-01	 3.117556141476722e+00
 1.278458913966357e+00	 5.061302256309002e-01	 1.563643140044720e+01
 1.162235376338345e+00	 4.601183869422883e-01	-4.657700514720797e+01
 1.152849922490885e+00	 4.831532429944503e-01	-3.879240866727469e+01
 1.142968404648257e+00	 5.060861843290319e-01	-3.126930131328968e+01
 1.132591262356013e+00	 5.289017228355558e-01	-2.416824409368291e+01
 1.121719562493458e+00	 5.515842846700590e-01	-1.765089859440355e+01
 1.110355008534519e+00	 5.741182412978676e-01	-1.187937397287927e+01
 1.098499948001281e+00	 5.964879413737912e-01	-7.015554910472492e+00
 1.086157378033213e+00	 6.186777433390787e-01	-3.220414448215870e+00
 1.073330949004241e+00	 6.406720486069893e-01	-6.533158776803987e-01
 1.060024966129602e+00	 6.624553352020790e-01	 5.286919282931208e-01
 1.046244389015035e+00	 6.840121917124017e-01	 1.715811854465770e-01
 1.173857730101146e+00	 4.647195708066494e-01	-3.491947409786209e+01
 1.164378421715943e+00	 4.879847754199314e-01	-2.909112692151578e+01
 1.154398088695481e+00	 5.111470461684536e-01	-2.347105496550207e+01
 1.143917174980766e+00	 5.341907400606339e-01	-1.819705639424355e+01
 1.132936758119894e+00	 5.571001275140689e-01	-1.340788810313400e+01
 1.121458558621532e+00	 5.798594237087382e-01	-9.242703989178626e+00
 1.109484947482980e+00	 6.024528207859984e-01	-5.840476803518801e+00
 1.097018951815104e+00	 6.248645207715108e-01	-3.339406964905610e+00
 1.084064258495567e+00	 6.470787690926668e-01	-1.876321926085978e+00
 1.070625215791757e+00	 6.690798885542671e-01	-1.586069868494270e+00
 1.056706832905469e+00	 6.908523136302467e-01	-2.600911651322576e+00
 1.185480083863948e+00	 4.693207546720106e-01	-2.456482149660506e+01
 1.175906920941005e+00	 4.928163078464028e-01	-2.050915645791799e+01
 1.165827772742723e+00	 5.162079080088365e-01	-1.660979532385968e+01
 1.155243087605563e+00	 5.394797572866247e-01	-1.298212093819312e+01
 1.144153953746409e+00	 5.626159703589233e-01	-9.742335153526646e+00
 1.132562108708666e+00	 5.856006061203647e-01	-7.006987204960655e+00
 1.120469946964856e+00	 6.084177001988529e-01	-4.892488255570218e+00
 1.107880525597237e+00	 6.310512982044613e-01	-3.514614953626747e+00
 1.094797567987208e+00	 6.534854895787139e-01	-2.988005020593661e+00
 1.081225465454313e+00	 6.757044419066560e-01	-3.425648043291314e+00
 1.067169276796399e+00	 6.976924355481020e-01	-4.938374770423064e+00
 1.197102437626749e+00	 4.739219385383718e-01	-1.547506654740673e+01
 1.187435420166073e+00	 4.976478402738645e-01	-1.301386180270246e+01
 1.177257456789986e+00	 5.212687698501810e-01	-1.065819610829512e+01
 1.166569000230403e+00	 5.447687745135282e-01	-8.501374389075512e+00
 1.155371149373001e+00	 5.681318132046219e-01	-6.637382919019554e+00
 1.143665658795923e+00	 5.913417885327469e-01	-5.160506658356560e+00
 1.131454946446909e+00	 6.143825796123552e-01	-4.164935320060664e+00
 1.118742099379610e+00	 6.372380756379310e-01	-3.744360472771344e+00
 1.105530877479165e+00	 6.598922100651305e-01	-3.991566133023213e+00
 1.091825715117267e+00	 6.823289952592448e-01	-4.998015425279057e+00
 1.077631720687823e+00	 7.045325574659680e-01	-6.853435991495722e+00
 1.208724791389550e+00	 4.785231224057330e-01	-7.613689273884589e+00
 1.198963919391144e+00	 5.024793727023167e-01	-6.573862724132809e+00
 1.188687140837268e+00	 5.263296316924868e-01	-5.589982092805055e+00
 1.177894912855287e+00	 5.500577917413444e-01	-4.733602055398993e+00
 1.166588344999672e+00	 5.736476560511649e-01	-4.076822979437296e+00
 1.154769208883302e+00	 5.970829709458854e-01	-3.691996118542502e+00
 1.142439945929137e+00	 6.203474590265043e-01	-3.651420061794791e+00
 1.129603673162223e+00	 6.434248530719191e-01	-4.027030218869179e+00
 1.116264186971437e+00	 6.662989305519170e-01	-4.890083234237643e+00
 1.102425964780622e+00	 6.889535486120343e-01	-6.310838320950719e+00
 1.088094164579742e+00	 7.113726793838446e-01	-8.358237584427222e+00
 1.220347145152352e+00	 4.831243062740942e-01	-9.455609573153865e-01
 1.210492418616221e+00	 5.073109051317592e-01	-1.158974459923581e+00
 1.200116824884569e+00	 5.313904935357540e-01	-1.379879056075382e+00
 1.189220825480215e+00	 5.553468089700732e-01	-1.658397479767263e+00
 1.177805540626420e+00	 5.791634988985520e-01	-2.045064445264995e+00
 1.165872758970802e+00	 6.028241533597791e-01	-2.590618623091068e+00
 1.153424945411542e+00	 6.263123384413013e-01	-3.345788366628788e+00
 1.140465246945077e+00	 6.496116305064259e-01	-4.361072449235994e+00
 1.126997496464023e+00	 6.727056510390734e-01	-5.686517151946518e+00
 1.113026214444376e+00	 6.955781019650239e-01	-7.371491110994590e+00
 1.098556608472156e+00	 7.182128013017320e-01	-9.464459391281071e+00
 1.231969498915152e+00	 4.877254901434555e-01	 4.563121487884281e+00
 1.222020917841303e+00	 5.121424375621921e-01	 3.259848671999872e+00
 1.211546508931890e+00	 5.364513553799823e-01	 1.996433434910287e+00
 1.200546738105186e+00	 5.606358261997149e-01	 7.438756845843351e-01
 1.189022736253246e+00	 5.846793417467834e-01	-5.271048296004963e-01
 1.176976309058426e+00	 6.085653357744293e-01	-1.845946230187447e+00
 1.164409944894123e+00	 6.322772178567456e-01	-3.242118441165822e+00
 1.151326820728172e+00	 6.557984079414517e-01	-4.744994078813349e+00
 1.137730805956926e+00	 6.791123715265995e-01	-6.383717096929409e+00
 1.123626464108531e+00	 7.022026553182141e-01	-8.187070020936858e+00
 1.109019052365064e+00	 7.250529232196299e-01	-1.018334063943789e+01
 1.243591852677954e+00	 4.923266740138165e-01	 8.944897458800359e+00
 1.233549417066389e+00	 5.169739699936152e-01	 6.710566500731158e+00
 1.222976192979229e+00	 5.415122172251722e-01	 4.562366593619000e+00
 1.211872650730201e+00	 5.659248434302693e-01	 2.492119659490747e+00
 1.200239931880150e+00	 5.901951845958592e-01	 4.914974465467985e-01
 1.188079859146171e+00	 6.143065181898351e-01	-1.447940906231871e+00
 1.175394944376881e+00	 6.382420972728371e-01	-3.334709957325288e+00
 1.162188394511508e+00	 6.619851853769962e-01	-5.177357939794597e+00
 1.148464115450142e+00	 6.855190920144951e-01	-6.984425879375291e+00
 1.134226713773085e+00	 7.088272086716045e-01	-8.764406119594643e+00
 1.119481496258467e+00	 7.318930451375384e-01	-1.052570053156473e+01
 1.255214206440755e+00	 4.969278578851778e-01	 1.223110116729763e+01
 1.245077916291481e+00	 5.218055024260289e-01	 9.220103272546623e+00
 1.234405877026588e+00	 5.465730790713230e-01	 6.340464506677129e+00
 1.223198563355260e+00	 5.712138606617362e-01	 3.604536528357666e+00
 1.211457127507132e+00	 5.957110274457791e-01	 1.024649021476304e+00
 1.199183409234037e+00	 6.200477006059969e-01	-1.386936475239512e+00
 1.186379943859815e+00	 6.442069766895762e-01	-3.618073799988398e+00
 1.173049968295084e+00	 6.681719628130592e-01	-5.656780193494967e+00
 1.159197424943675e+00	 6.919258125027606e-01	-7.491284835422931e+00
 1.144826963438039e+00	 7.154517620251954e-01	-9.110077595389214e+00
 1.129943940152365e+00	 7.387331670554576e-01	-1.050195769169520e+01
 1.266836560203556e+00	 5.015290417575390e-01	 1.445191692293423e+01
 1.256606415516577e+00	 5.266370348594331e-01	 1.081439515390675e+01
 1.245835561073966e+00	 5.516339409184358e-01	 7.352443909551361e+00
 1.234524475980362e+00	 5.765028778941159e-01	 4.098660351846778e+00
 1.222674323134192e+00	 6.012268702965434e-01	 1.085746130633112e+00
 1.210286959322027e+00	 6.257888830229146e-01	-1.653621561847384e+00
 1.197364943342925e+00	 6.501718561069625e-01	-4.086922378990700e+00
 1.183911542078901e+00	 6.743587402496409e-01	-6.181927884680618e+00
 1.169930734437522e+00	 6.983325329913959e-01	-7.906838482511652e+00
 1.155427213103392e+00	 7.220763153789866e-01	-9.230421356896995e+00
 1.140406384046757e+00	 7.455732889733871e-01	-1.012214854087992e+01
 1.278458913966357e+00	 5.061302256309002e-01	 1.563643140044720e+01
 1.268134914741677e+00	 5.314685672938273e-01	 1.151843514338779e+01
 1.257265245121364e+00	 5.566948027665093e-01	 7.619231792651355e+00
 1.245850388605507e+00	 5.817918951274083e-01	 3.991387531800019e+00
 1.233891518761329e+00	 6.067427131481519e-01	 6.876978060184307e-01
 1.221390509410137e+00	 6.315300654405880e-01	-2.239023464700701e+00
 1.208349942826211e+00	 6.561367355249965e-01	-4.736160469548480e+00
 1.194773115862958e+00	 6.805455176867415e-01	-6.751516629298418e+00
 1.180664043931685e+00	 7.047392534804008e-01	-8.233538920800759e+00
 1.166027462769146e+00	 7.287008687329783e-01	-9.131544000638430e+00
 1.150868827941644e+00	 7.524134108913275e-01	-9.395944670524923e+00
 1.046244389015035e+00	 6.840121917124017e-01	 1.715811854465770e-01
 1.031994829112001e+00	 7.053273514082546e-01	 1.753587187500685e-01
 1.017282545054521e+00	 7.263857263794559e-01	 1.467115080620971e-01
 1.002114435865165e+00	 7.471724415374245e-01	 1.369026999837573e-01
 9.864980320304253e-01	 7.676728683263137e-01	 1.975343060225185e-01
 9.704414844585151e-01	 7.878726579898537e-01	 3.803289539899808e-01
 9.539535513453987e-01	 8.077577742387658e-01	 7.369086142370094e-01
 9.370435829877606e-01	 8.273145251659155e-01	 1.318571763093630e+00
 9.197215045943361e-01	 8.465295942593203e-01	 2.176070476470422e+00
 9.019977971594894e-01	 8.653900703672559e-01	 3.359388962145104e+00
 8.838834764750000e-01	 8.838834764750000e-01	 4.917525039415665e+00
 1.056706832905469e+00	 6.908523136302467e-01	-2.600911651322576e+00
 1.042314777402819e+00	 7.123806249235496e-01	-1.744288988984763e+00
 1.027455370504306e+00	 7.336495836448358e-01	-9.099710483427828e-01
 1.012135580222726e+00	 7.546441659546386e-01	-5.789017562895538e-02
 9.963630123494379e-01	 7.753495970115514e-01	 8.522810684046291e-01
 9.801458993017382e-01	 7.957513845717418e-01	 1.860958049118963e+00
 9.634930868575512e-01	 8.158353519830368e-01	 3.008469840925805e+00
 9.464140188165280e-01	 8.355876704192311e-01	 4.334883807221971e+00
 9.289187196394912e-01	 8.549948902032221e-01	 5.879830155952092e+00
 9.110177751307498e-01	 8.740439710717682e-01	 7.682327661514528e+00
 8.927223112400001e-01	 8.927223112400001e-01	 9.780611743599948e+00
 1.067169276796399e+00	 6.976924355481020e-01	-4.938374770423064e+00
 1.052634725694217e+00	 7.194338984386744e-01	-3.314950102839305e+00
 1.037628195954726e+00	 7.409134409099047e-01	-1.703762233025756e+00
 1.022156724580948e+00	 7.621158903714401e-01	-7.577476373315051e-02
 1.006227992669108e+00	 7.830263256963153e-01	 1.598230430350633e+00
 9.898503141455847e-01	 8.036301111531332e-01	 3.347527152671901e+00
 9.730326223702622e-01	 8.239129297268302e-01	 5.201317136529951e+00
 9.557844546457592e-01	 8.438608156721282e-01	 7.188601449070333e+00
 9.381159346849866e-01	 8.634601861468045e-01	 9.338051915565124e+00
 9.200377531021950e-01	 8.826978717761008e-01	 1.167788344060511e+01
 9.015611460049998e-01	 9.015611460049998e-01	 1.423572810245801e+01
 1.077631720687823e+00	 7.045325574659680e-01	-6.853435991495722e+00
 1.062954673986195e+00	 7.264871719536292e-01	-4.546745672482608e+00
 1.047801021405781e+00	 7.481772981746628e-01	-2.242274868820630e+00
 1.032177868939832e+00	 7.695876147878290e-01	 7.814101407655016e-02
 1.016092972989436e+00	 7.907030543806040e-01	 2.432771233809689e+00
 9.995547289900544e-01	 8.115088377340292e-01	 4.839908907582867e+00
 9.825721578835327e-01	 8.319905074701464e-01	 7.317789161895114e+00
 9.651548904754556e-01	 8.521339609246066e-01	 9.884506785407943e+00
 9.473131497308213e-01	 8.719254820900676e-01	 1.255793394596142e+01
 9.290577310738252e-01	 8.913517724802531e-01	 1.535563853790981e+01
 9.103999807700000e-01	 9.103999807700000e-01	 1.829480372531682e+01
 1.088094164579742e+00	 7.113726793838446e-01	-8.358237584427222e+00
 1.073274622278753e+00	 7.335404454684142e-01	-5.449407622858303e+00
 1.057973846857473e+00	 7.554411554391099e-01	-2.532829134618417e+00
 1.042199013299377e+00	 7.770593392038053e-01	 3.989455275852478e-01
 1.025957953310421e+00	 7.983797830644190e-01	 3.353392572876665e+00
 1.009259143835148e+00	 8.193875643144291e-01	 6.337980668626322e+00
 9.921116933973619e-01	 8.400680852129850e-01	 9.360134433764991e+00
 9.745253263056164e-01	 8.604071061766666e-01	 1.242719778192036e+01
 9.565103647769959e-01	 8.803907780330110e-01	 1.554639737179432e+01
 9.380777090456406e-01	 9.000056731842258e-01	 1.872480642401818e+01
 9.192388155350000e-01	 9.192388155350000e-01	 2.196930916284291e+01
 1.098556608472156e+00	 7.182128013017320e-01	-9.464459391281071e+00
 1.083594570571891e+00	 7.405937189830295e-01	-6.032297284394478e+00
 1.068146672309800e+00	 7.627050127032456e-01	-2.582466501197128e+00
 1.052220157659584e+00	 7.845310636193691e-01	 8.819140904030149e-01
 1.035822933632064e+00	 8.060565117477595e-01	 4.357679019592844e+00
 1.018963558680864e+00	 8.272662908943328e-01	 7.841624277817420e+00
 1.001651228911751e+00	 8.481456629553464e-01	 1.133051561719148e+01
 9.838957621362415e-01	 8.686802514283076e-01	 1.482109704125187e+01
 9.657075798235105e-01	 8.888560739756349e-01	 1.831009944529224e+01
 9.470976870176407e-01	 9.086595738880187e-01	 2.179424936200877e+01
 9.280776503000001e-01	 9.280776503000001e-01	 2.527027776705351e+01
 1.109019052365064e+00	 7.250529232196299e-01	-1.018334063943789e+01
 1.093914518865609e+00	 7.476469924974751e-01	-6.304422874329759e+00
 1.078319497762762e+00	 7.699688699670706e-01	-2.397962878228878e+00
 1.062241302020453e+00	 7.920027880345202e-01	 1.522500141518510e+00
 1.045687913954364e+00	 8.137332404306257e-01	 5.443306119987405e+00
 1.028667973527204e+00	 8.351450174737410e-01	 9.350725852527297e+00
 1.011190764426698e+00	 8.562232406972299e-01	 1.323101357498098e+01
 9.932661979673315e-01	 8.769533966795300e-01	 1.707046007474542e+01
 9.749047948703654e-01	 8.973213699179398e-01	 2.085544599303027e+01
 9.561176649898260e-01	 9.173134745916315e-01	 2.457249497385919e+01
 9.369164850650002e-01	 9.369164850650001e-01	 2.820832631397354e+01
 1.119481496258467e+00	 7.318930451375384e-01	-1.052570053156473e+01
 1.104234467159906e+00	 7.547002660117507e-01	-6.274455997775707e+00
 1.088492323216361e+00	 7.772327272305846e-01	-1.985841024068399e+00
 1.072262446381982e+00	 7.994745124492590e-01	 2.316326921348772e+00
 1.055552894277321e+00	 8.214099691130178e-01	 6.608036142679282e+00
 1.038372388374167e+00	 8.430237440526529e-01	 1.086517558548261e+01
 1.020730299942205e+00	 8.643008184386362e-01	 1.506363119007094e+01
 1.002636633798886e+00	 8.852265419303337e-01	 1.917938311034809e+01
 9.841020099175596e-01	 9.057866658599246e-01	 2.318860316475382e+01
 9.651376429621962e-01	 9.259673752950645e-01	 2.706775187790101e+01
 9.457553198299999e-01	 9.457553198299999e-01	 3.079367446987958e+01
 1.129943940152365e+00	 7.387331670554576e-01	-1.050195769169520e+01
 1.114554415454784e+00	 7.617535395258563e-01	-5.950747232051064e+00
 1.098665148670595e+00	 7.844965844937873e-01	-1.352382266106058e+00
 1.082283590744174e+00	 8.069462368635849e-01	 3.259179610234483e+00
 1.065417874600936e+00	 8.290866977949353e-01	 7.849714063672177e+00
 1.048076803221754e+00	 8.509024706310688e-01	 1.238486755587726e+01
 1.030269835458270e+00	 8.723783961795647e-01	 1.683029697555273e+01
 1.012007069630905e+00	 8.934996871807190e-01	 2.115181046674713e+01
 9.932992249650937e-01	 9.142519618015905e-01	 2.531550852948961e+01
 9.741576209347511e-01	 9.346212759983175e-01	 2.928792445752837e+01
 9.545941545949999e-01	 9.545941545949999e-01	 3.303616317609058e+01
 1.140406384046757e+00	 7.455732889733871e-01	-1.012214854087992e+01
 1.124874363750242e+00	 7.688068130397925e-01	-5.341340853158055e+00
 1.108837974125464e+00	 7.917604417566795e-01	-5.036375759609513e-01
 1.092304735107027e+00	 8.144179612774985e-01	 4.346997899678396e+00
 1.075282854925209e+00	 8.367634264763789e-01	 9.166263772170215e+00
 1.057781218069964e+00	 8.587811972089886e-01	 1.390969955088644e+01
 1.039809370974894e+00	 8.804559739200161e-01	 1.853286848598460e+01
 1.021377505463388e+00	 9.017728324306855e-01	 2.299154152159236e+01
 1.002496440012967e+00	 9.227172577429366e-01	 2.724188156086740e+01
 9.831775989074915e-01	 9.432751767013908e-01	 3.124062681695192e+01
 9.634329893600002e-01	 9.634329893600002e-01	 3.494527202175148e+01
 1.150868827941644e+00	 7.524134108913275e-01	-9.395944670524923e+00
 1.135194312046280e+00	 7.758600865535584e-01	-4.453988758995582e+00
 1.119010799580969e+00	 7.990242990192602e-01	 5.545619594302451e-01
 1.102325879470541e+00	 8.218896856909992e-01	 5.575868968794651e+00
 1.085147835250138e+00	 8.444401551573477e-01	 1.055568448335364e+01
 1.067485632918797e+00	 8.666599237864125e-01	 1.543957289691739e+01
 1.049348906492078e+00	 8.885335516599897e-01	 2.017313554262955e+01
 1.030747941296336e+00	 9.100459776802332e-01	 2.470223729963423e+01
 1.011693655061181e+00	 9.311825536839639e-01	 2.897323355051283e+01
 9.921975768804164e-01	 9.519290774042841e-01	 3.293319597573189e+01
 9.722718241249999e-01	 9.722718241249999e-01	 3.653013566901266e+01
 8.838834764750000e-01	 8.838834764750000e-01	 4.917525039415665e+00
 8.653900703672558e-01	 9.019977971594894e-01	 9.454610391018697e+00
 8.465295942593203e-01	 9.197215045943362e-01	 1.473939796326765e+01
 8.273145251659157e-01	 9.370435829877607e-01	 2.065918998460360e+01
 8.077577742387659e-01	 9.539535513453987e-01	 2.709919582800914e+01
 7.878726579898540e-01	 9.704414844585149e-01	 3.394302175716861e+01
 7.676728683263140e-01	 9.864980320304252e-01	 4.107316696378907e+01
 7.471724415374250e-01	 1.002114435865165e+00	 4.837152254581305e+01
 7.263857263794565e-01	 1.017282545054521e+00	 5.571987007736006e+01
 7.053273514082554e-01	 1.031994829112000e+00	 6.300037645642479e+01
 6.840121917124017e-01	 1.046244389015035e+00	 7.009608178472678e+01
 8.927223112400001e-01	 8.927223112400001e-01	 9.780611743599948e+00
 8.740439710717682e-01	 9.110177751307497e-01	 1.364176236212604e+01
 8.549948902032222e-01	 9.289187196394916e-01	 1.813239406567995e+01
 8.355876704192313e-01	 9.464140188165279e-01	 2.315237199259738e+01
 8.158353519830368e-01	 9.634930868575508e-01	 2.859980405460409e+01
 7.957513845717418e-01	 9.801458993017379e-01	 3.437147563288117e+01
 7.753495970115517e-01	 9.963630123494376e-01	 4.036328935727079e+01
 7.546441659546392e-01	 1.012135580222726e+00	 4.647070700048119e+01
 7.336495836448365e-01	 1.027455370504305e+00	 5.258919052410351e+01
 7.123806249235501e-01	 1.042314777402819e+00	 5.861463934830891e+01
 6.908523136302465e-01	 1.056706832905469e+00	 6.444382098144816e+01
 9.015611460049998e-01	 9.015611460049998e-01	 1.423572810245801e+01
 8.826978717761006e-01	 9.200377531021950e-01	 1.751779132059023e+01
 8.634601861468045e-01	 9.381159346849864e-01	 2.131314162074953e+01
 8.438608156721283e-01	 9.557844546457592e-01	 2.553401454852818e+01
 8.239129297268304e-01	 9.730326223702622e-01	 3.009121972207336e+01
 8.036301111531335e-01	 9.898503141455844e-01	 3.489452119278948e+01
 7.830263256963154e-01	 1.006227992669108e+00	 3.985302169537522e+01
 7.621158903714405e-01	 1.022156724580948e+00	 4.487554819653477e+01
 7.409134409099053e-01	 1.037628195954725e+00	 4.987103616045303e+01
 7.194338984386750e-01	 1.052634725694217e+00	 5.474890998406216e+01
 6.976924355481020e-01	 1.067169276796399e+00	 5.941945711550498e+01
 9.103999807700000e-01	 9.103999807700000e-01	 1.829480372531682e+01
 8.913517724802530e-01	 9.290577310738252e-01	 2.109180619724541e+01
 8.719254820900674e-01	 9.473131497308210e-01	 2.428786979326050e+01
 8.521339609246068e-01	 9.651548904754556e-01	 2.780741357236727e+01
 8.319905074701465e-01	 9.825721578835326e-01	 3.157375776173758e+01
 8.115088377340296e-01	 9.995547289900545e-01	 3.550945047595095e+01
 7.907030543806044e-01	 1.016092972989435e+00	 3.953659714556858e+01
 7.695876147878296e-01	 1.032177868939832e+00	 4.357719043734566e+01
 7.481772981746633e-01	 1.047801021405781e+00	 4.755343846088790e+01
 7.264871719536298e-01	 1.062954673986194e+00	 5.138808909138801e+01
 7.045325574659680e-01	 1.077631720687823e+00	 5.500474829453313e+01
 9.192388155350000e-01	 9.192388155350000e-01	 2.196930916284291e+01
 9.000056731842259e-01	 9.380777090456406e-01	 2.437256534512897e+01
 8.803907780330109e-01	 9.565103647769959e-01	 2.706256792419612e+01
 8.604071061766667e-01	 9.745253263056164e-01	 2.997573797170700e+01
 8.400680852129850e-01	 9.921116933973620e-01	 3.304772074082682e+01
 8.193875643144292e-01	 1.009259143835148e+00	 3.621365941787647e+01
 7.983797830644193e-01	 1.025957953310421e+00	 3.940847041672727e+01
 7.770593392038057e-01	 1.042199013299377e+00	 4.256711836681393e+01
 7.554411554391103e-01	 1.057973846857472e+00	 4.562488896186569e+01
 7.335404454684151e-01	 1.073274622278753e+00	 4.851765787118354e+01
 7.113726793838446e-01	 1.088094164579742e+00	 5.118215396786541e+01
 9.280776503000001e-01	 9.280776503000001e-01	 2.527027776705351e+01
 9.086595738880183e-01	 9.470976870176407e-01	 2.736849323379870e+01
 8.888560739756349e-01	 9.657075798235105e-01	 2.964299695111316e+01
 8.686802514283077e-01	 9.838957621362414e-01	 3.204203569021809e+01
 8.481456629553463e-01	 1.001651228911750e+00	 3.451339945154950e+01
 8.272662908943332e-01	 1.018963558680864e+00	 3.700464290343670e+01
 8.060565117477597e-01	 1.035822933632063e+00	 3.946330720995311e+01
 7.845310636193695e-01	 1.052220157659584e+00	 4.183714076312478e+01
 7.627050127032463e-01	 1.068146672309799e+00	 4.407431735459938e+01
 7.405937189830302e-01	 1.083594570571890e+00	 4.612365035649119e+01
 7.182128013017320e-01	 1.098556608472156e+00	 4.793480152987532e+01
 9.369164850650002e-01	 9.369164850650001e-01	 2.820832631397354e+01
 9.173134745916314e-01	 9.561176649898259e-01	 3.008769619868892e+01
 8.973213699179396e-01	 9.749047948703653e-01	 3.203470018208297e+01
 8.769533966795300e-01	 9.932661979673313e-01	 3.400923941374454e+01
 8.562232406972300e-01	 1.011190764426698e+00	 3.597107346682022e+01
 8.351450174737411e-01	 1.028667973527204e+00	 3.787999009979118e+01
 8.137332404306261e-01	 1.045687913954363e+00	 3.969597426650812e+01
 7.920027880345210e-01	 1.062241302020452e+00	 4.137937524984233e+01
 7.699688699670710e-01	 1.078319497762762e+00	 4.289107081787095e+01
 7.476469924974758e-01	 1.093914518865608e+00	 4.419262733603691e+01
 7.250529232196300e-01	 1.109019052365064e+00	 4.524645481369905e+01
 9.457553198299999e-01	 9.457553198299999e-01	 3.079367446987958e+01
 9.259673752950643e-01	 9.651376429621963e-01	 3.253797730732722e+01
 9.057866658599246e-01	 9.841020099175595e-01	 3.424301346548372e+01
 8.852265419303337e-01	 1.002636633798885e+00	 3.588017195642919e+01
 8.643008184386362e-01	 1.020730299942204e+00	 3.742101166482519e+01
 8.430237440526532e-01	 1.038372388374167e+00	 3.883738005102332e+01
 8.214099691130180e-01	 1.055552894277321e+00	 4.010152997381296e+01
 7.994745124492595e-01	 1.072262446381982e+00	 4.118623386432407e+01
 7.772327272305850e-01	 1.088492323216360e+00	 4.206489450974775e+01
 7.547002660117512e-01	 1.104234467159906e+00	 4.271165174000092e+01
 7.318930451375383e-01	 1.119481496258467e+00	 4.310148435166158e+01
 9.545941545949999e-01	 9.545941545949999e-01	 3.303616317609058e+01
 9.346212759983176e-01	 9.741576209347513e-01	 3.472685039965155e+01
 9.142519618015904e-01	 9.932992249650935e-01	 3.627307479480983e+01
 8.934996871807190e-01	 1.012007069630904e+00	 3.765755134761237e+01
 8.723783961795650e-01	 1.030269835458270e+00	 3.886347272444591e+01
 8.509024706310692e-01	 1.048076803221754e+00	 3.987457751751850e+01
 8.290866977949357e-01	 1.065417874600936e+00	 4.067521549333323e+01
 8.069462368635854e-01	 1.082283590744173e+00	 4.125040942788890e+01
 7.844965844937880e-01	 1.098665148670594e+00	 4.158591314309512e+01
 7.617535395258571e-01	 1.114554415454784e+00	 4.166826539324357e+01
 7.387331670554576e-01	 1.129943940152365e+00	 4.148483928790241e+01
 9.634329893600002e-01	 9.634329893600002e-01	 3.494527202175148e+01
 9.432751767013909e-01	 9.831775989074915e-01	 3.666155335546617e+01
 9.227172577429366e-01	 1.002496440012967e+00	 3.812983338477252e+01
 9.017728324306855e-01	 1.021377505463388e+00	 3.934399563871916e+01
 8.804559739200162e-01	 1.039809370974894e+00	 4.029870559341143e+01
 8.587811972089889e-01	 1.057781218069964e+00	 4.098942904436790e+01
 8.367634264763789e-01	 1.075282854925208e+00	 4.141244637683800e+01
 8.144179612774990e-01	 1.092304735107027e+00	 4.156486266625446e+01
 7.917604417566800e-01	 1.108837974125464e+00	 4.144461357527975e+01
 7.688068130397931e-01	 1.124874363750241e+00	 4.105046704817289e+01
 7.455732889733871e-01	 1.140406384046757e+00	 4.038202083709540e+01
 9.722718241249999e-01	 9.722718241249999e-01	 3.653013566901266e+01
 9.519290774042841e-01	 9.921975768804165e-01	 3.834906063822114e+01
 9.311825536839636e-01	 1.011693655061181e+00	 3.981805825234676e+01
 9.100459776802337e-01	 1.030747941296336e+00	 4.094202744795117e+01
 8.885335516599900e-01	 1.049348906492078e+00	 4.172694993091793e+01
 8.666599237864129e-01	 1.067485632918797e+00	 4.217985924422322e+01
 8.444401551573482e-01	 1.085147835250138e+00	 4.230880463995564e+01
 8.218896856909996e-01	 1.102325879470541e+00	 4.212281003249392e+01
 7.990242990192610e-01	 1.119010799580969e+00	 4.163182834752575e+01
 7.758600865535591e-01	 1.135194312046279e+00	 4.084669161581446e+01
 7.524134108913274e-01	 1.150868827941644e+00	 3.977905719087296e+01
 6.840121917124017e-01	 1.046244389015035e+00	 7.009608178472678e+01
 6.624553352020789e-01	 1.060024966129602e+00	 8.233082204297263e+01
 6.406720486069893e-01	 1.073330949004241e+00	 9.245404915393101e+01
 6.186777433390788e-01	 1.086157378033213e+00	 1.005956386952047e+02
 5.964879413737916e-01	 1.098499948001280e+00	 1.068887331465363e+02
 5.741182412978680e-01	 1.110355008534519e+00	 1.114691369897885e+02
 5.515842846700593e-01	 1.121719562493458e+00	 1.144747123556259e+02
 5.289017228355563e-01	 1.132591262356013e+00	 1.160447790986897e+02
 5.060861843290325e-01	 1.142968404648257e+00	 1.163195230365321e+02
 4.831532429944511e-01	 1.152849922490885e+00	 1.154394159090446e+02
 4.601183869422882e-01	 1.162235376338345e+00	 1.135446504078334e+02
 6.908523136302465e-01	 1.056706832905469e+00	 6.444382098144816e+01
 6.690798885542670e-01	 1.070625215791757e+00	 7.721447999854816e+01
 6.470787690926667e-01	 1.084064258495567e+00	 8.804631942820524e+01
 6.248645207715108e-01	 1.097018951815105e+00	 9.705247286034519e+01
 6.024528207859987e-01	 1.109484947482980e+00	 1.043490534299371e+02
 5.798594237087384e-01	 1.121458558621532e+00	 1.100546235760831e+02
 5.571001275140695e-01	 1.132936758119894e+00	 1.142896649246331e+02
 5.341907400606344e-01	 1.143917174980766e+00	 1.171760517042137e+02
 5.111470461684543e-01	 1.154398088695481e+00	 1.188365309789528e+02
 4.879847754199321e-01	 1.164378421715942e+00	 1.193942128264337e+02
 4.647195708066494e-01	 1.173857730101146e+00	 1.189720734093225e+02
 6.976924355481020e-01	 1.067169276796399e+00	 5.941945711550498e+01
 6.757044419066557e-01	 1.081225465454312e+00	 7.260158898584287e+01
 6.534854895787137e-01	 1.094797567987208e+00	 8.401480429014919e+01
 6.310512982044615e-01	 1.107880525597236e+00	 9.375575387828330e+01
 6.084177001988532e-01	 1.120469946964856e+00	 1.019237840983212e+02
 5.856006061203651e-01	 1.132562108708666e+00	 1.086204802500765e+02
 5.626159703589236e-01	 1.144153953746409e+00	 1.139492097460257e+02
 5.394797572866252e-01	 1.155243087605563e+00	 1.180146679233023e+02
 5.162079080088372e-01	 1.165827772742723e+00	 1.209224293435101e+02
 4.928163078464036e-01	 1.175906920941005e+00	 1.227785072858273e+02
 4.693207546720107e-01	 1.185480083863948e+00	 1.236889239856630e+02
 7.045325574659680e-01	 1.077631720687823e+00	 5.500474829453313e+01
 6.823289952592447e-01	 1.091825715117267e+00	 6.847753150665125e+01
 6.598922100651304e-01	 1.105530877479165e+00	 8.034859188771622e+01
 6.372380756379310e-01	 1.118742099379610e+00	 9.069834924594468e+01
 6.143825796123554e-01	 1.131454946446909e+00	 9.960963805472980e+01
 5.913417885327474e-01	 1.143665658795923e+00	 1.071673236640149e+02
 5.681318132046224e-01	 1.155371149373001e+00	 1.134579178097893e+02
 5.447687745135287e-01	 1.166569000230403e+00	 1.185691959046814e+02
 5.212687698501816e-01	 1.177257456789986e+00	 1.225898185051401e+02
 4.976478402738654e-01	 1.187435420166072e+00	 1.256089592426286e+02
 4.739219385383718e-01	 1.197102437626749e+00	 1.277159413795761e+02
 7.113726793838446e-01	 1.088094164579742e+00	 5.118215396786541e+01
 6.889535486120340e-01	 1.102425964780622e+00	 6.482825200379300e+01
 6.662989305519171e-01	 1.116264186971437e+00	 7.703718978476284e+01
 6.434248530719193e-01	 1.129603673162223e+00	 8.787340051693559e+01
 6.203474590265048e-01	 1.142439945929137e+00	 9.740345435962797e+01
 5.970829709458856e-01	 1.154769208883302e+00	 1.056957464849660e+02
 5.736476560511651e-01	 1.166588344999672e+00	 1.128201840330326e+02
 5.500577917413448e-01	 1.177894912855286e+00	 1.188478739901471e+02
 5.263296316924875e-01	 1.188687140837267e+00	 1.238508139496493e+02
 5.024793727023174e-01	 1.198963919391144e+00	 1.279015876294131e+02
 4.785231224057330e-01	 1.208724791389550e+00	 1.310730669198820e+02
 7.182128013017320e-01	 1.098556608472156e+00	 4.793480152987532e+01
 6.955781019650238e-01	 1.113026214444376e+00	 6.164023010261720e+01
 6.727056510390736e-01	 1.126997496464024e+00	 7.407050498949151e+01
 6.496116305064261e-01	 1.140465246945077e+00	 8.527431025188099e+01
 6.263123384413014e-01	 1.153424945411542e+00	 9.530219222408513e+01
 6.028241533597797e-01	 1.165872758970803e+00	 1.042063185376658e+02
 5.791634988985525e-01	 1.177805540626420e+00	 1.120402356451178e+02
 5.553468089700738e-01	 1.189220825480215e+00	 1.188586264203747e+02
 5.313904935357544e-01	 1.200116824884568e+00	 1.247170693643921e+02
 5.073109051317600e-01	 1.210492418616221e+00	 1.296718008815493e+02
 4.831243062740943e-01	 1.220347145152352e+00	 1.337794820181213e+02
 7.250529232196300e-01	 1.109019052365064e+00	 4.524645481369905e+01
 7.022026553182140e-01	 1.123626464108531e+00	 5.890045536713922e+01
 6.791123715265995e-01	 1.137730805956926e+00	 7.143882511336101e+01
 6.557984079414519e-01	 1.151326820728172e+00	 8.289472970742145e+01
 6.322772178567455e-01	 1.164409944894123e+00	 9.330292534296456e+01
 6.085653357744295e-01	 1.176976309058425e+00	 1.026995878826748e+02
 5.846793417467839e-01	 1.189022736253246e+00	 1.111221400981602e+02
 5.606358261997154e-01	 1.200546738105186e+00	 1.186090781517195e+02
 5.364513553799830e-01	 1.211546508931889e+00	 1.251997984219354e+02
 5.121424375621928e-01	 1.222020917841302e+00	 1.309344257349520e+02
 4.877254901434555e-01	 1.231969498915153e+00	 1.358536440144229e+02
 7.318930451375383e-01	 1.119481496258467e+00	 4.310148435166158e+01
 7.088272086716046e-01	 1.134226713773085e+00	 5.659640347171901e+01
 6.855190920144951e-01	 1.148464115450143e+00	 6.913280058650460e+01
 6.619851853769962e-01	 1.162188394511507e+00	 8.072854721554651e+01
 6.382420972728374e-01	 1.175394944376881e+00	 9.140283654587655e+01
 6.143065181898355e-01	 1.188079859146170e+00	 1.011760818340749e+02
 5.901951845958594e-01	 1.200239931880150e+00	 1.100698125339491e+02
 5.659248434302697e-01	 1.211872650730201e+00	 1.181065688421673e+02
 5.415122172251726e-01	 1.222976192979229e+00	 1.253097953422039e+02
 5.169739699936161e-01	 1.233549417066389e+00	 1.317037344090083e+02
 4.923266740138165e-01	 1.243591852677954e+00	 1.373133200133201e+02
 7.387331670554576e-01	 1.129943940152365e+00	 4.148483928790241e+01
 7.154517620251952e-01	 1.144826963438039e+00	 5.471601369653611e+01
 6.919258125027606e-01	 1.159197424943675e+00	 6.714342786118067e+01
 6.681719628130595e-01	 1.173049968295084e+00	 7.876987720851909e+01
 6.442069766895764e-01	 1.186379943859815e+00	 8.959921274529985e+01
 6.200477006059973e-01	 1.199183409234037e+00	 9.963630792062787e+01
 5.957110274457796e-01	 1.211457127507132e+00	 1.088870228360352e+02
 5.712138606617366e-01	 1.223198563355260e+00	 1.173581660602866e+02
 5.465730790713239e-01	 1.234405877026588e+00	 1.250574543122792e+02
 5.218055024260299e-01	 1.245077916291480e+00	 1.319934702793375e+02
 4.969278578851778e-01	 1.255214206440755e+00	 1.381756188398003e+02
 7.455732889733871e-01	 1.140406384046757e+00	 4.038202083709540e+01
 7.220763153789865e-01	 1.155427213103392e+00	 5.324766766184270e+01
 6.983325329913959e-01	 1.169930734437522e+00	 6.546203353980111e+01
 6.743587402496412e-01	 1.183911542078901e+00	 7.701304984793194e+01
 6.501718561069627e-01	 1.197364943342925e+00	 8.788944016278590e+01
 6.257888830229149e-01	 1.210286959322026e+00	 9.808075479402419e+01
 6.012268702965438e-01	 1.222674323134191e+00	 1.075774022936326e+02
 5.765028778941165e-01	 1.234524475980362e+00	 1.163706777670808e+02
 5.516339409184363e-01	 1.245835561073966e+00	 1.244527878372266e+02
 5.266370348594338e-01	 1.256606415516577e+00	 1.318168721373737e+02
 5.015290417575390e-01	 1.266836560203556e+00	 1.384570212363035e+02
 7.524134108913274e-01	 1.150868827941644e+00	 3.977905719087296e+01
 7.287008687329781e-01	 1.166027462769146e+00	 5.218016922217015e+01
 7.047392534804007e-01	 1.180664043931685e+00	 6.408025936870604e+01
 6.805455176867415e-01	 1.194773115862958e+00	 7.545260121945178e+01
 6.561367355249966e-01	 1.208349942826211e+00	 8.627099981555413e+01
 6.315300654405884e-01	 1.221390509410137e+00	 9.650989308758962e+01
 6.067427131481523e-01	 1.233891518761329e+00	 1.061444499020310e+02
 5.817918951274087e-01	 1.245850388605507e+00	 1.151506641170127e+02
 5.566948027665101e-01	 1.257265245121364e+00	 1.235054440899588e+02
 5.314685672938282e-01	 1.268134914741677e+00	 1.311866971266941e+02
 5.061302256309000e-01	 1.278458913966357e+00	 1.381734084126119e+02
 4.601183869422882e-01	 1.162235376338345e+00	 1.135446504078334e+02
 4.369969884562961e-01	 1.171124942995283e+00	 1.196593817252880e+02
 4.138042749547273e-01	 1.179519403004286e+00	 1.222939118419707e+02
 3.905553010997264e-01	 1.187420126502869e+00	 1.213049287094006e+02
 3.672649221392484e-01	 1.194829057653032e+00	 1.165653625396953e+02
 3.439477685578608e-01	 1.201748697753768e+00	 1.079644188339344e+02
 3.206182221012706e-01	 1.208182087148427e+00	 9.540752965653397e+01
 2.972903932297764e-01	 1.214132786041956e+00	 7.881622661007580e+01
 2.739781000458337e-01	 1.219604854344699e+00	 5.812793941809335e+01
 2.506948487310247e-01	 1.224602830660197e+00	 3.329572441746340e+01
 2.274538155180211e-01	 1.229131710534368e+00	 4.287927596059927e+00
 4.647195708066494e-01	 1.173857730101146e+00	 1.189720734093225e+02
 4.413669583353180e-01	 1.182836192423920e+00	 1.239194534831598e+02
 4.179423176984929e-01	 1.191314597032411e+00	 1.253416739700964e+02
 3.944608541049377e-01	 1.199294327765508e+00	 1.231176184548622e+02
 3.709375713550830e-01	 1.206777348226831e+00	 1.171419700770295e+02
 3.473872462383391e-01	 1.213766184728358e+00	 1.073251711643609e+02
 3.238244043178661e-01	 1.220263908016873e+00	 9.359330611889450e+01
 3.002632971585618e-01	 1.226274113899371e+00	 7.588791124348708e+01
 2.767178810439023e-01	 1.231800902885296e+00	 5.416571559902221e+01
 2.532017972172816e-01	 1.236848858964223e+00	 2.839831732683685e+01
 2.297283536736934e-01	 1.241423027637528e+00	-1.428199843615001e+00
 4.693207546720107e-01	 1.185480083863948e+00	 1.236889239856630e+02
 4.457369282153291e-01	 1.194547441852557e+00	 1.276604053841368e+02
 4.220803604432159e-01	 1.203109791060537e+00	 1.280615290837936e+02
 3.983664071110528e-01	 1.211168529028148e+00	 1.247930392060794e+02
 3.746102205717478e-01	 1.218725638800630e+00	 1.177710450191208e+02
 3.508267239195530e-01	 1.225783671702948e+00	 1.069269080465411e+02
 3.270305865350828e-01	 1.232345728885319e+00	 9.220705736712111e+01
 3.032362010878344e-01	 1.238415441756786e+00	 7.357273702416957e+01
 2.794576620423047e-01	 1.243996951425893e+00	 5.099968981599260e+01
 2.557087457036998e-01	 1.249094887268250e+00	 2.447778203398791e+01
 2.320028918293363e-01	 1.253714344740687e+00	-5.989426047605980e+00
 4.739219385383718e-01	 1.197102437626749e+00	 1.277159413795761e+02
 4.501068980963295e-01	 1.206258691281194e+00	 1.308973999490151e+02
 4.262184031888958e-01	 1.214904985088661e+00	 1.304630699522439e+02
 4.022719601180718e-01	 1.223042730290787e+00	 1.263352307119499e+02
 3.782828697892422e-01	 1.230673929374427e+00	 1.184511003451791e+02
 3.542662016015024e-01	 1.237801158677538e+00	 1.067626511927401e+02
 3.302367687529205e-01	 1.244427549753766e+00	 9.123635831095933e+01
 3.062091050175939e-01	 1.250556769614200e+00	 7.185288517369568e+01
 2.821974430410407e-01	 1.256192999966490e+00	 4.860671103572594e+01
 2.582156941902795e-01	 1.261340915572276e+00	 2.150570465508484e+01
 2.342774299849499e-01	 1.266005661843847e+00	-9.429350737936790e+00
 4.785231224057330e-01	 1.208724791389550e+00	 1.310730669198820e+02
 4.544768679783190e-01	 1.217969940709831e+00	 1.336450162791580e+02
 4.303564459355328e-01	 1.226700179116788e+00	 1.325555201521202e+02
 4.061775131259946e-01	 1.234916931553427e+00	 1.277480771128151e+02
 3.819555190075666e-01	 1.242622219948226e+00	 1.191807060006897e+02
 3.577056792841872e-01	 1.249818645652129e+00	 1.068256904913458e+02
 3.334429509713793e-01	 1.256509370622212e+00	 9.066926153643897e+01
 3.091820089478404e-01	 1.262698097471615e+00	 7.071122204769227e+01
 2.849372240401104e-01	 1.268389048507087e+00	 4.696451845439624e+01
 2.607226426770205e-01	 1.273586943876302e+00	 1.945476396217788e+01
 2.365519681405341e-01	 1.278296978947007e+00	-1.178028151592557e+01
 4.831243062740943e-01	 1.220347145152352e+00	 1.337794820181213e+02
 4.588468378612978e-01	 1.229681190138469e+00	 1.359172778390830e+02
 4.344944886831269e-01	 1.238495373144913e+00	 1.343477516488867e+02
 4.100830661348214e-01	 1.246791132816067e+00	 1.290353143510769e+02
 3.856281682267209e-01	 1.254570510522024e+00	 1.199584861854028e+02
 3.611451569676077e-01	 1.261836132626718e+00	 1.071095712372226e+02
 3.366491331904594e-01	 1.268591191490658e+00	 9.049427456000652e+01
 3.121549128785740e-01	 1.274839425329030e+00	 7.013126651100276e+01
 2.876770050395138e-01	 1.280585097047684e+00	 4.605169910631309e+01
 2.632295911639229e-01	 1.285832972180329e+00	 1.829867935249511e+01
 2.388265062960890e-01	 1.290588296050166e+00	-1.307329539125166e+01
 4.877254901434555e-01	 1.231969498915153e+00	 1.358536440144229e+02
 4.632168077452659e-01	 1.241392439567105e+00	 1.377276786664545e+02
 4.386325314316782e-01	 1.250290567173038e+00	 1.358483013829254e+02
 4.139886191445520e-01	 1.258665334078706e+00	 1.302005371623481e+02
 3.893008174467052e-01	 1.266518801095822e+00	 1.207831167948324e+02
 3.645846346517638e-01	 1.273853619601308e+00	 1.076080820848784e+02
 3.398553154101606e-01	 1.280673012359104e+00	 9.070033837015767e+01
 3.151278168097947e-01	 1.286980753186445e+00	 7.009715915953829e+01
 2.904167860392506e-01	 1.292781145588281e+00	 4.584764787211230e+01
 2.657365396509867e-01	 1.298079000484355e+00	 1.801216176286938e+01
 2.411010444516146e-01	 1.302879613153326e+00	-1.333829682824724e+01
 4.923266740138165e-01	 1.243591852677954e+00	 1.373133200133201e+02
 4.675867776302232e-01	 1.253103688995743e+00	 1.390892081123545e+02
 4.427705741811864e-01	 1.262085761201164e+00	 1.370653869256030e+02
 4.178941721551864e-01	 1.270539535341346e+00	 1.312472056745738e+02
 3.929734666675194e-01	 1.278467091669621e+00	 1.216533230052208e+02
 3.680241123366553e-01	 1.285871106575899e+00	 1.083152436771511e+02
 3.430614976304829e-01	 1.292754833227551e+00	 9.127680717234429e+01
 3.181007207415024e-01	 1.299122081043860e+00	 7.059363326800288e+01
 2.931565670393215e-01	 1.304977194128878e+00	 4.633252972947795e+01
 2.682434881382119e-01	 1.310325028788381e+00	 1.857086733662922e+01
 2.433755826071108e-01	 1.315170930256486e+00	-1.260407253725644e+01
 4.969278578851778e-01	 1.255214206440755e+00	 1.381756188398003e+02
 4.719567475161696e-01	 1.264814938424380e+00	 1.400143742070919e+02
 4.469086169316517e-01	 1.273880955229289e+00	 1.380069212655520e+02
 4.217997251667246e-01	 1.282413736603985e+00	 1.321786516405299e+02
 3.966461158891635e-01	 1.290415382243419e+00	 1.225678769926705e+02
 3.714635900222824e-01	 1.297888593550488e+00	 1.092252979056340e+02
 3.462676798514263e-01	 1.304836654095997e+00	 9.221342925915950e+01
 3.210736246736973e-01	 1.311263408901275e+00	 7.160598735163607e+01
 2.958963480397257e-01	 1.317173242669475e+00	 4.748724410104347e+01
 2.707504366255986e-01	 1.322571057092408e+00	 1.995135366454686e+01
 2.456501207625777e-01	 1.327462247359646e+00	-1.089834322203057e+01
 5.015290417575390e-01	 1.266836560203556e+00	 1.384570212363035e+02
 4.763267174031054e-01	 1.276526187853017e+00	 1.405152257398185e+02
 4.510466596830741e-01	 1.285676149257414e+00	 1.386805267810268e+02
 4.257052781791671e-01	 1.294287937866625e+00	 1.329980843272538e+02
 4.003187651116374e-01	 1.302363672817217e+00	 1.235255957778282e+02
 3.749030677086451e-01	 1.309906080525078e+00	 1.103326977622708e+02
 3.494738620729909e-01	 1.316918474964443e+00	 9.350032893354297e+01
 3.240465286063789e-01	 1.323404736758689e+00	 7.312005923831623e+01
 2.986361290404637e-01	 1.329369291210072e+00	 4.929339116479497e+01
 2.732573851131466e-01	 1.334817085396434e+00	 2.213103843454547e+01
 2.479246589180153e-01	 1.339753564462806e+00	-8.247812478644436e+00
 5.061302256309000e-01	 1.278458913966357e+00	 1.381734084126119e+02
 4.806966872910303e-01	 1.288237437281654e+00	 1.406033731338043e+02
 4.551847024354536e-01	 1.297471343285539e+00	 1.390935484501336e+02
 4.296108311925131e-01	 1.306162139129264e+00	 1.337085960842279e+02
 4.039914143349413e-01	 1.314311963391015e+00	 1.245253391881305e+02
 3.783425453957433e-01	 1.321923567499668e+00	 1.116320977444973e+02
 3.526800442951766e-01	 1.329000295832889e+00	 9.512798941798923e+01
 3.270194325395477e-01	 1.335546064616104e+00	 7.512220155491076e+01
 3.013759100415353e-01	 1.341565339750669e+00	 5.173324000208842e+01
 2.757643336008559e-01	 1.347063113700460e+00	 2.508816033687176e+01
 2.501991970734234e-01	 1.352044881565965e+00	-4.678213027198877e+00
 2.274538155180211e-01	 1.229131710534368e+00	 4.287927596059927e+00
 2.042678302137041e-01	 1.233196924082991e+00	-2.084252017970055e+01
 1.811493612805352e-01	 1.236804313110804e+00	-4.356695463884677e+01
 1.581105024744471e-01	 1.239960107835634e+00	-6.377122758711697e+01
 1.351629610294562e-01	 1.242670903327850e+00	-8.135409886829909e+01
 1.123180473713980e-01	 1.244943635769421e+00	-9.622706627375572e+01
 8.958666633593650e-02	 1.246785558634639e+00	-1.083141442260233e+02
 6.697930985936418e-02	 1.248204218889501e+00	-1.175515952393500e+02
 4.450605110464890e-02	 1.249207433301722e+00	-1.238876182650130e+02
 2.217653997970472e-02	 1.249803264948056e+00	-1.272819980912424e+02
 0.000000000000000e+00	 1.250000000000000e+00	-1.277057199890107e+02
 2.297283536736934e-01	 1.241423027637528e+00	-1.428199843615001e+00
 2.063105085178029e-01	 1.245528893322062e+00	-2.510848212874839e+01
 1.829608548964180e-01	 1.249172356240531e+00	-4.645198163913192e+01
 1.596916075030363e-01	 1.252359708912939e+00	-6.536427749921681e+01
 1.365145906440207e-01	 1.255097612360361e+00	-8.176287244097074e+01
 1.134412278494712e-01	 1.257393072126586e+00	-9.557699274736719e+01
 9.048253300341476e-02	 1.259253414220649e+00	-1.067473430556087e+02
 6.764910296151375e-02	 1.260686261078208e+00	-1.152258198460218e+02
 4.495111161837246e-02	 1.261699507634656e+00	-1.209751875150978e+02
 2.239830538099112e-02	 1.262301297597516e+00	-1.239687209647914e+02
 0.000000000000000e+00	 1.262500000000000e+00	-1.241898186371144e+02
 2.320028918293363e-01	 1.253714344740687e+00	-5.989426047605980e+00
 2.083531868216939e-01	 1.257860862561134e+00	-2.842521929639085e+01
 1.847723485119567e-01	 1.261540399370259e+00	-4.859050213838492e+01
 1.612727125311870e-01	 1.264759309990245e+00	-6.641030684015593e+01
 1.378662202580929e-01	 1.267524321392872e+00	-8.182061985913919e+01
 1.145644083270384e-01	 1.269842508483751e+00	-9.476815209480029e+01
 9.137839967041286e-02	 1.271721269806659e+00	-1.052100700092186e+02
 6.831889606324743e-02	 1.273168303266915e+00	-1.131136912686905e+02
 4.539617213178213e-02	 1.274191581967590e+00	-1.184561485985986e+02
 2.262007078210258e-02	 1.274799330246976e+00	-1.212240255492167e+02
 0.000000000000000e+00	 1.275000000000000e+00	-1.214129678428962e+02
 2.342774299849499e-01	 1.266005661843847e+00	-9.429350737936790e+00
 2.103958651253771e-01	 1.270192831800205e+00	-3.082034134974395e+01
 1.865838421271515e-01	 1.273908442499986e+00	-5.000422191539049e+01
 1.628538175588991e-01	 1.277158911067550e+00	-6.692521165248036e+01
 1.392178498716727e-01	 1.279951030425384e+00	-8.153752912946649e+01
 1.156875888040997e-01	 1.282291944840916e+00	-9.380513309024710e+01
 9.227426633693080e-02	 1.284189125392670e+00	-1.037014300840372e+02
 6.898868916456520e-02	 1.285650345455622e+00	-1.112089523804510e+02
 4.584123264487796e-02	 1.286683656300524e+00	-1.163190096586972e+02
 2.284183618303908e-02	 1.287297362896436e+00	-1.190313179373988e+02
 0.000000000000000e+00	 1.287500000000000e+00	-1.193536091603768e+02
 2.365519681405341e-01	 1.278296978947007e+00	-1.178028151592557e+01
 2.124385434288524e-01	 1.282524801039276e+00	-3.232039621201336e+01
 1.883953357420022e-01	 1.286276485629713e+00	-5.071401206735943e+01
 1.644349225861726e-01	 1.289558512144856e+00	-6.692427673792031e+01
 1.405694794847602e-01	 1.292377739457896e+00	-8.092339654669607e+01
 1.168107692806550e-01	 1.294741381198081e+00	-9.269234813982597e+01
 9.317013300296850e-02	 1.296656980978679e+00	-1.022205628121611e+02
 6.965848226546710e-02	 1.298132387644329e+00	-1.095055868130916e+02
 4.628629315765993e-02	 1.299175730633459e+00	-1.145527209210472e+02
 2.306360158380064e-02	 1.299795395545896e+00	-1.173746425252010e+02
 0.000000000000000e+00	 1.300000000000000e+00	-1.179910133779877e+02
 2.388265062960890e-01	 1.290588296050166e+00	-1.307329539125166e+01
 2.144812217321199e-01	 1.294856770278347e+00	-3.295092062128045e+01
 1.902068293565090e-01	 1.298644528759439e+00	-5.073994875626259e+01
 1.660160276130074e-01	 1.301958113222162e+00	-6.642220476373954e+01
 1.419211090973555e-01	 1.304804448490407e+00	-7.998764534628417e+01
 1.179339497567045e-01	 1.307190817555246e+00	-9.143404167980073e+01
 9.406599966852608e-02	 1.309124836564689e+00	-1.007666406158707e+02
 7.032827536595314e-02	 1.310614429833036e+00	-1.079978074922297e+02
 4.673135367012803e-02	 1.311667804966393e+00	-1.131466536421112e+02
 2.328536698438725e-02	 1.312293428195356e+00	-1.162386516160292e+02
 0.000000000000000e+00	 1.312500000000000e+00	-1.173052410312172e+02
 2.411010444516146e-01	 1.302879613153326e+00	-1.333829682824724e+01
 2.165239000351797e-01	 1.307188739517419e+00	-3.273648782746917e+01
 1.920183229706717e-01	 1.311012571889167e+00	-5.010135070537892e+01
 1.675971326394038e-01	 1.314357714299468e+00	-6.543314372155129e+01
 1.432727387094584e-01	 1.317231157522919e+00	-7.873934330123109e+01
 1.190571302322480e-01	 1.319640253912411e+00	-9.003429809943029e+01
 9.496186633360344e-02	 1.321592692150699e+00	-9.933886725599405e+01
 7.099806846602327e-02	 1.323096472021744e+00	-1.066800458214121e+02
 4.717641418228224e-02	 1.324159879299327e+00	-1.120905802491191e+02
 2.350713238479890e-02	 1.324791460844816e+00	-1.156085767458970e+02
 0.000000000000000e+00	 1.325000000000000e+00	-1.172771051503875e+02
 2.433755826071108e-01	 1.315170930256486e+00	-1.260407253725644e+01
 2.185665783380317e-01	 1.319520708756490e+00	-3.170075261471929e+01
 1.938298165844906e-01	 1.323380615018894e+00	-4.881681459322794e+01
 1.691782376653614e-01	 1.326757315376773e+00	-6.397071284639085e+01
 1.446243683210689e-01	 1.329657866555430e+00	-7.718721933217033e+01
 1.201803107072856e-01	 1.332089690269576e+00	-8.849704921954054e+01
 9.585773299820063e-02	 1.334060547736709e+00	-9.793647636728258e+01
 7.166786156567753e-02	 1.335578514210451e+00	-1.055469414727033e+02
 4.762147469412262e-02	 1.336651953632262e+00	-1.113746555936576e+02
 2.372889778503561e-02	 1.337289493494276e+00	-1.154702016164251e+02
 0.000000000000000e+00	 1.337500000000000e+00	-1.178881360973434e+02
 2.456501207625777e-01	 1.327462247359646e+00	-1.089834322203057e+01
 2.206092566406758e-01	 1.331852677995562e+00	-2.986649382251568e+01
 1.956413101979653e-01	 1.335748658148621e+00	-4.690424848117757e+01
 1.707593426908806e-01	 1.339156916454079e+00	-6.204802709583869e+01
 1.459759979321872e-01	 1.342084575587941e+00	-7.533967919467563e+01
 1.213034911818173e-01	 1.344539126626741e+00	-8.682608135562435e+01
 9.675359966231767e-02	 1.346528403322719e+00	-9.655873007515183e+01
 7.233765466491589e-02	 1.348060556399157e+00	-1.045933327444696e+02
 4.806653520564912e-02	 1.349144027965196e+00	-1.109893992467368e+02
 2.395066318509738e-02	 1.349787526143736e+00	-1.158098365315647e+02
 0.000000000000000e+00	 1.350000000000000e+00	-1.191205483556577e+02
 2.479246589180153e-01	 1.339753564462806e+00	-8.247812478644436e+00
 2.226519349431121e-01	 1.344184647234633e+00	-2.725565452620632e+01
 1.974528038110961e-01	 1.348116701278348e+00	-4.438090340099890e+01
 1.723404477159611e-01	 1.351556517531384e+00	-5.967772028166895e+01
 1.473276275428132e-01	 1.354511284620453e+00	-7.320482030304822e+01
 1.224266716558430e-01	 1.356988562983906e+00	-8.502504199214493e+01
 9.764946632595450e-02	 1.358996258908729e+00	-9.520491768856863e+01
 7.300744776373835e-02	 1.360542598587865e+00	-1.038142474499300e+02
 4.851159571686176e-02	 1.361636102298130e+00	-1.109256787684374e+02
 2.417242858498419e-02	 1.362285558793196e+00	-1.166142942414774e+02
 0.000000000000000e+00	 1.362500000000000e+00	-1.209572091488994e+02
 2.501991970734234e-01	 1.352044881565965e+00	-4.678213027198877e+00
 2.246946132453406e-01	 1.356516616473704e+00	-2.388938002585678e+01
 1.992642974238829e-01	 1.360484744408075e+00	-4.126340321946259e+01
 1.739215527406030e-01	 1.363956118608690e+00	-5.687196693977278e+01
 1.486792571529468e-01	 1.366937993652964e+00	-7.079044574553282e+01
 1.235498521293628e-01	 1.369437999341071e+00	-8.309744609278965e+01
 9.854533298911115e-02	 1.371464114494739e+00	-9.387435446423119e+01
 7.367724086214492e-02	 1.373024640776572e+00	-1.032048943026873e+02
 4.895665622776053e-02	 1.374128176631064e+00	-1.111746938901206e+02
 2.439419398469604e-02	 1.374783591442656e+00	-1.178708671040106e+02
 0.000000000000000e+00	 1.375000000000000e+00	-1.233816087706318e+02
 1.375000000000000e+00	 0.000000000000000e+00	 1.543780788654373e+02
 1.374783591442656e+00	 2.439419398469526e-02	 1.274883438319081e+02
 1.374128176631064e+00	 4.895665622775984e-02	 1.003286552327934e+02
 1.373024640776572e+00	 7.367724086214431e-02	 7.295103712857477e+01
 1.371464114494739e+00	 9.854533298911061e-02	 4.540982319350227e+01
 1.369437999341071e+00	 1.235498521293624e-01	 1.776157329591844e+01
 1.366937993652964e+00	 1.486792571529464e-01	-9.935023995996655e+00
 1.363956118608690e+00	 1.739215527406027e-01	-3.761926321423800e+01
 1.360484744408075e+00	 1.992642974238827e-01	-6.522854823710864e+01
 1.356516616473704e+00	 2.246946132453406e-01	-9.269853302341681e+01
 1.352044881565965e+00	 2.501991970734234e-01	-1.199632767711657e+02
 1.387500000000000e+00	 0.000000000000000e+00	 1.528613186688146e+02
 1.387281624092118e+00	 2.461595938431963e-02	 1.263094073483056e+02
 1.386620250964008e+00	 4.940171673850166e-02	 9.953040344093185e+01
 1.385506682965300e+00	 7.434703396034295e-02	 7.257237432697625e+01
 1.383931970080787e+00	 9.944119965202716e-02	 4.548540081829378e+01
 1.381887435698295e+00	 1.246730326026292e-01	 1.832149553328052e+01
 1.379364702685561e+00	 1.500308867628339e-01	-8.865491312065320e+00
 1.376355719686112e+00	 1.755026577650253e-01	-3.601997885975106e+01
 1.372852787537955e+00	 2.010757910364976e-01	-6.308477539134093e+01
 1.368848585712971e+00	 2.267372915474652e-01	-9.000121092472979e+01
 1.364336198669367e+00	 2.524737352288170e-01	-1.167092825194088e+02
 1.400000000000000e+00	 0.000000000000000e+00	 1.513591882692291e+02
 1.399779656741585e+00	 2.483772478394402e-02	 1.250998219979235e+02
 1.399112325296970e+00	 4.984677724924350e-02	 9.865519443202501e+01
 1.397988725154069e+00	 7.501682705854158e-02	 7.206946485906789e+01
 1.396399825666909e+00	 1.003370663149437e-01	 4.538851360060668e+01
 1.394336872055636e+00	 1.257962130758961e-01	 1.865986217434339e+01
 1.391791411718328e+00	 1.513825163727214e-01	-8.067417653544421e+00
 1.388755320763768e+00	 1.770837627894480e-01	-3.474280602100286e+01
 1.385220830668143e+00	 2.028872846491123e-01	-6.131444834652638e+01
 1.381180554952629e+00	 2.287799698495898e-01	-8.772927986664395e+01
 1.376627515773255e+00	 2.547482733842105e-01	-1.139331611851011e+02
 1.412500000000000e+00	 0.000000000000000e+00	 1.498712969120275e+02
 1.412277689391056e+00	 2.505949018356840e-02	 1.238604010902036e+02
 1.411604399629950e+00	 5.029183775998533e-02	 9.770507289142662e+01
 1.410470767342881e+00	 7.568662015674019e-02	 7.144561080526611e+01
 1.408867681253106e+00	 1.012329329778603e-01	 4.512374564199653e+01
 1.406786308413095e+00	 1.269193935491629e-01	 1.878256247460109e+01
 1.404218120751266e+00	 1.527341459826088e-01	-7.533587071033025e+00
 1.401154921841658e+00	 1.786648678138706e-01	-3.377918220599535e+01
 1.397588873798637e+00	 2.046987782617271e-01	-5.990764000751751e+01
 1.393512524192677e+00	 2.308226481517144e-01	-8.587143197322588e+01
 1.388918832877628e+00	 2.570228115396040e-01	-1.116222099089885e+02
 1.425000000000000e+00	 0.000000000000000e+00	 1.483972676904777e+02
 1.424775722040532e+00	 2.528125558319277e-02	 1.225919295302582e+02
 1.424096473962949e+00	 5.073689827072717e-02	 9.668201188908716e+01
 1.422952809531734e+00	 7.635641325493886e-02	 7.070399850605818e+01
 1.421335536839377e+00	 1.021287996407769e-01	 4.469552031500471e+01
 1.419235744770672e+00	 1.280425740224298e-01	 1.869527915930286e+01
 1.416644829784374e+00	 1.540857755924963e-01	-7.257036702845269e+00
 1.413554522919780e+00	 1.802459728382932e-01	-3.312084526479187e+01
 1.409956916929438e+00	 2.065102718743419e-01	-5.885477150968796e+01
 1.405844493433116e+00	 2.328653264538391e-01	-8.441675605554637e+01
 1.401210149982486e+00	 2.592973496949976e-01	-1.097641714740021e+02
 1.437500000000000e+00	 0.000000000000000e+00	 1.469367369436849e+02
 1.437273754690013e+00	 2.550302098281715e-02	 1.212951650537640e+02
 1.436588548295966e+00	 5.118195878146901e-02	 9.558791599311631e+01
 1.435434851720629e+00	 7.702620635313746e-02	 6.984770359395036e+01
 1.433803392425724e+00	 1.030246663036934e-01	 4.410810725108671e+01
 1.431685181128366e+00	 1.291657544956966e-01	 1.840349740267454e+01
 1.429071538817652e+00	 1.554374052023837e-01	-7.231045771610639e+00
 1.425954123998137e+00	 1.818270778627159e-01	-3.275982033163658e+01
 1.422324960060546e+00	 2.083217654869567e-01	-5.814659707899640e+01
 1.418176462673946e+00	 2.349080047559637e-01	-8.335472036498831e+01
 1.413501467087830e+00	 2.615718878503911e-01	-1.083472149301224e+02
 1.450000000000000e+00	 0.000000000000000e+00	 1.454893536856501e+02
 1.449771787339498e+00	 2.572478638244153e-02	 1.199708393979815e+02
 1.449080622629002e+00	 5.162701929221086e-02	 9.442462422229848e+01
 1.447916893909566e+00	 7.769599945133610e-02	 6.887969576514334e+01
 1.446271248012145e+00	 1.039205329666100e-01	 4.336562896709508e+01
 1.444134617486178e+00	 1.302889349689635e-01	 1.791251334269834e+01
 1.441498247851101e+00	 1.567890348122712e-01	-7.449125150015750e+00
 1.438353725076727e+00	 1.834081828871385e-01	-3.268840744248139e+01
 1.434693003191961e+00	 2.101332590995715e-01	-5.777418967515099e+01
 1.430508431915167e+00	 2.369506830580883e-01	-8.267515623862407e+01
 1.425792784193659e+00	 2.638464260057847e-01	-1.073599172214047e+02
 1.462500000000000e+00	 0.000000000000000e+00	 1.440547790636082e+02
 1.462269819988988e+00	 2.594655178206591e-02	 1.186196594127237e+02
 1.461572696962056e+00	 5.207207980295267e-02	 9.319391284719723e+01
 1.460398936098544e+00	 7.836579254953473e-02	 6.780284330650694e+01
 1.458739103598641e+00	 1.048163996295265e-01	 4.247206715194422e+01
 1.456584053844107e+00	 1.314121154422303e-01	 1.722744215923723e+01
 1.453924956884720e+00	 1.581406644221587e-01	-7.905007461635632e+00
 1.450753326155549e+00	 1.849892879115611e-01	-3.289916978751126e+01
 1.447061046323683e+00	 2.119447527121864e-01	-5.772892737102046e+01
 1.442840401156778e+00	 2.389933613602129e-01	-8.236824258329062e+01
 1.438084101299973e+00	 2.661209641611783e-01	-1.067912457552079e+02
 1.475000000000000e+00	 0.000000000000000e+00	 1.426326858439074e+02
 1.474767852638482e+00	 2.616831718169029e-02	 1.172423081148331e+02
 1.474064771295128e+00	 5.251714031369450e-02	 9.189749804883144e+01
 1.472880978287565e+00	 7.903558564773337e-02	 6.661991739236883e+01
 1.471206959185211e+00	 1.057122662924431e-01	 4.143126863361330e+01
 1.469033490202154e+00	 1.325352959154971e-01	 1.635322574140749e+01
 1.466351665918510e+00	 1.594922940320462e-01	-8.592637685112409e+00
 1.463152927234607e+00	 1.865703929359837e-01	-3.338492256099796e+01
 1.459429089455712e+00	 2.137562463248012e-01	-5.800248042461728e+01
 1.455172370398780e+00	 2.410360396623376e-01	-8.242449114860953e+01
 1.450375418406773e+00	 2.683955023165718e-01	-1.066305418577308e+02
 1.487500000000000e+00	 0.000000000000000e+00	 1.412227579238116e+02
 1.487265885287981e+00	 2.639008258131467e-02	 1.158394456894928e+02
 1.486556845628220e+00	 5.296220082443635e-02	 9.053703844329974e+01
 1.485363020476627e+00	 7.970537874593198e-02	 6.533359616465914e+01
 1.483674814771857e+00	 1.066081329553596e-01	 4.024695104529248e+01
 1.481482926560319e+00	 1.336584763887640e-01	 1.529463996836115e+01
 1.478778374952471e+00	 1.608439236419336e-01	-9.506164232072363e+00
 1.475552528313897e+00	 1.881514979604064e-01	-3.413872237334553e+01
 1.471797132588047e+00	 2.155677399374159e-01	-5.858679900291301e+01
 1.467504339641173e+00	 2.430787179644622e-01	-8.283473254254331e+01
 1.462666735514058e+00	 2.706700404719652e-01	-1.068675050637257e+02
 1.500000000000000e+00	 0.000000000000000e+00	 1.398246898677113e+02
 1.499763917937484e+00	 2.661184798093904e-02	 1.144117104414726e+02
 1.499048919961329e+00	 5.340726133517817e-02	 8.911413748017436e+01
 1.497845062665731e+00	 8.037517184413061e-02	 6.394646860904777e+01
 1.496142670358577e+00	 1.075039996182762e-01	 3.892270820822215e+01
 1.493932362918601e+00	 1.347816568620308e-01	 1.405630162602954e+01
 1.491205083986601e+00	 1.621955532518211e-01	-1.063993047114725e+01
 1.487952129393420e+00	 1.897326029848289e-01	-3.515385719253366e+01
 1.484165175720690e+00	 2.173792335500308e-01	-5.947410151946270e+01
 1.479836308883957e+00	 2.451213962665869e-01	-8.359010294617261e+01
 1.474958052621828e+00	 2.729445786273588e-01	-1.074921781917221e+02
 1.352044881565965e+00	 2.501991970734234e-01	-1.199632767711657e+02
 1.347063113700461e+00	 2.757643336008552e-01	-1.064918522240233e+02
 1.341565339750669e+00	 3.013759100415347e-01	-9.276069638999226e+01
 1.335546064616104e+00	 3.270194325395472e-01	-7.885513543058816e+01
 1.329000295832889e+00	 3.526800442951761e-01	-6.486348589283226e+01
 1.321923567499668e+00	 3.783425453957430e-01	-5.087681691796629e+01
 1.314311963391016e+00	 4.039914143349411e-01	-3.698868941971489e+01
 1.306162139129264e+00	 4.296108311925129e-01	-2.329487285933539e+01
 1.297471343285539e+00	 4.551847024354536e-01	-9.893040453026595e+00
 1.288237437281654e+00	 4.806966872910303e-01	 3.117556141476722e+00
 1.278458913966357e+00	 5.061302256309002e-01	 1.563643140044720e+01
 1.364336198669367e+00	 2.524737352288170e-01	-1.167092825194088e+02
 1.359309142004773e+00	 2.782712820886430e-01	-1.037116083663234e+02
 1.353761388291581e+00	 3.041156910427638e-01	-9.048796748143525e+01
 1.347687392473848e+00	 3.299923364729382e-01	-7.711667946118685e+01
 1.341082116701665e+00	 3.558862265176344e-01	-6.367875379144360e+01
 1.333941054474572e+00	 3.817820230831492e-01	-5.025767035649258e+01
 1.326260253965098e+00	 4.076640635585734e-01	-3.693913906855907e+01
 1.318036340392143e+00	 4.335163842061925e-01	-2.381083921097727e+01
 1.309266537313843e+00	 4.593227451881562e-01	-1.096213927789130e+01
 1.299948686710394e+00	 4.850666571792523e-01	 1.516201714430114e+00
 1.290081267729169e+00	 5.107314095045163e-01	 1.353235027707249e+01
 1.376627515773255e+00	 2.547482733842105e-01	-1.139331611851011e+02
 1.371555170309656e+00	 2.807782305764259e-01	-1.013449084020829e+02
 1.365957436833121e+00	 3.068554720439740e-01	-8.856375999498411e+01
 1.359828720332250e+00	 3.329652404062867e-01	-7.566112733211695e+01
 1.353163937571098e+00	 3.590924087400163e-01	-6.271081514719462e+01
 1.345958541450105e+00	 3.852215007704358e-01	-4.978882013522669e+01
 1.338208544539750e+00	 4.113367127820325e-01	-3.697311079480068e+01
 1.329910541655500e+00	 4.374219372196355e-01	-2.434338907612384e+01
 1.321061731342504e+00	 4.634607879405481e-01	-1.198083456557040e+01
 1.311659936139337e+00	 4.894366270670794e-01	 3.216788916645186e-02
 1.301703621492001e+00	 5.153325933776431e-01	 1.161231603582281e+01
 1.388918832877628e+00	 2.570228115396040e-01	-1.116222099089885e+02
 1.383801198615110e+00	 2.832851790642043e-01	-9.938075570953626e+01
 1.378153485375291e+00	 3.095952530451653e-01	-8.697880200472481e+01
 1.371970048191311e+00	 3.359381443395925e-01	-7.448094766264586e+01
 1.365245758441190e+00	 3.622985909623221e-01	-6.195389225923375e+01
 1.357976028426266e+00	 3.886609784576026e-01	-4.946625255333296e+01
 1.350156835114969e+00	 4.150093620053185e-01	-3.708836230958042e+01
 1.341784742919335e+00	 4.413274902328413e-01	-2.489205599505588e+01
 1.332856925371522e+00	 4.675988306926294e-01	-1.295043702885492e+01
 1.323371185568486e+00	 4.938065969545113e-01	-1.337631418450336e+00
 1.313325975254853e+00	 5.199337772502799e-01	 9.871472228813950e+00
 1.401210149982486e+00	 2.592973496949976e-01	-1.097641714740021e+02
 1.396047226921136e+00	 2.857921275519781e-01	-9.780853944985742e+01
 1.390349533918090e+00	 3.123350340463378e-01	-8.572414686108640e+01
 1.384111376051029e+00	 3.389110482728556e-01	-7.356887328595502e+01
 1.377327579311940e+00	 3.655047731845517e-01	-6.140241011758495e+01
 1.369993515403056e+00	 3.921004561446497e-01	-4.928609471593090e+01
 1.362105125690758e+00	 4.186820112284312e-01	-3.728272998520347e+01
 1.353658944183649e+00	 4.452330432458106e-01	-2.545638986960718e+01
 1.344652119400897e+00	 4.717368734443999e-01	-1.387221139548102e+01
 1.335082434997839e+00	 4.981765668415484e-01	-2.596174024199380e+00
 1.324948329017727e+00	 5.245349611224271e-01	 8.305132784037948e+00
 1.413501467087830e+00	 2.615718878503911e-01	-1.083472149301224e+02
 1.408293255227734e+00	 2.882990760397471e-01	-9.661801779463659e+01
 1.402545582461518e+00	 3.150748150474914e-01	-8.479115904907182e+01
 1.396252703911406e+00	 3.418839522060762e-01	-7.291788976228665e+01
 1.389409400183348e+00	 3.687109554067051e-01	-6.105098759123138e+01
 1.382011002380474e+00	 3.955399338315773e-01	-4.924460841284366e+01
 1.374053416267115e+00	 4.223546604513709e-01	-3.755412543584660e+01
 1.365533145448441e+00	 4.491385962585428e-01	-2.603595625255852e+01
 1.356447313430629e+00	 4.758749161958595e-01	-1.474737840824672e+01
 1.346793684427397e+00	 5.025465367281904e-01	-3.746334183586171e+00
 1.336570682780620e+00	 5.291361449940847e-01	 6.908774596962690e+00
 1.425792784193659e+00	 2.638464260057847e-01	-1.073599172214047e+02
 1.420539283534902e+00	 2.908060245275114e-01	-9.579930202090102e+01
 1.414741631005576e+00	 3.178145960486264e-01	-8.417150077795868e+01
 1.408394031772441e+00	 3.448568561392540e-01	-7.252122448623663e+01
 1.401491221055414e+00	 3.719171376287824e-01	-6.089442907198598e+01
 1.394028489358520e+00	 3.989794115183852e-01	-4.933818431396233e+01
 1.386001706844041e+00	 4.260273096741372e-01	-3.790053227512531e+01
 1.377407346713711e+00	 4.530441492710384e-01	-2.663033567378424e+01
 1.368242507460718e+00	 4.800129589470085e-01	-1.557711672167272e+01
 1.358504933857160e+00	 5.069165066144373e-01	-4.790887056401331e+00
 1.348193036543535e+00	 5.337373288652523e-01	 5.678030505326010e+00
 1.438084101299973e+00	 2.661209641611783e-01	-1.067912457552079e+02
 1.432785311842642e+00	 2.933129730152711e-01	-9.534284142177427e+01
 1.426937679550262e+00	 3.205543770497423e-01	-8.385711925870680e+01
 1.420535359634135e+00	 3.478297600723892e-01	-7.237233635264676e+01
 1.413573041928139e+00	 3.751233198507835e-01	-6.092771654688003e+01
 1.406045976337195e+00	 4.024188892050735e-01	-4.956333646228168e+01
 1.397949997421535e+00	 4.296999588967306e-01	-3.832000303993654e+01
 1.389281547979460e+00	 4.569497022832971e-01	-2.723912300095396e+01
 1.380037701491165e+00	 4.841510016978469e-01	-1.636256470139543e+01
 1.370216183287127e+00	 5.112864765002894e-01	-5.732512942325540e+00
 1.359815390306469e+00	 5.383385127359304e-01	 4.608682624199464e+00
 1.450375418406773e+00	 2.683955023165718e-01	-1.066305418577308e+02
 1.445031340150954e+00	 2.958199215030261e-01	-9.523940898438957e+01
 1.439133728095578e+00	 3.232941580508395e-01	-8.384023462827591e+01
 1.432676687496486e+00	 3.508026640054819e-01	-7.246490594795834e+01
 1.425654862801522e+00	 3.783295020727082e-01	-6.114600207364984e+01
 1.418063463316499e+00	 4.058583668916420e-01	-4.991669704694965e+01
 1.409898287999598e+00	 4.333726081191508e-01	-3.881065627071486e+01
 1.401155749245687e+00	 4.608552552953189e-01	-2.786192683273890e+01
 1.391832895521968e+00	 4.882890444483744e-01	-1.710482213206478e+01
 1.381927432717298e+00	 5.156564463857464e-01	-6.573801301162782e+00
 1.371437744069425e+00	 5.429396966061187e-01	 3.696656019949558e+00
 1.462666735514058e+00	 2.706700404719652e-01	-1.068675050637257e+02
 1.457277368459836e+00	 2.983268699907763e-01	-9.548008778992394e+01
 1.451329776641522e+00	 3.260339390519178e-01	-8.411332848280004e+01
 1.444818015359496e+00	 3.537755679385318e-01	-7.279282623611840e+01
 1.437736683675562e+00	 3.815356842945568e-01	-6.154460063560822e+01
 1.430080950296430e+00	 4.092978445780909e-01	-5.039501143985868e+01
 1.421846578578230e+00	 4.370452573413978e-01	-3.937067373890108e+01
 1.413029950512391e+00	 4.647608083071040e-01	-2.849836892261071e+01
 1.403628089553128e+00	 4.924270871985911e-01	-1.780495183912585e+01
 1.393638682147674e+00	 5.200264162708083e-01	-7.317254570370110e+00
 1.383060097832401e+00	 5.475408804758173e-01	 2.938012703161164e+00
 1.474958052621828e+00	 2.729445786273588e-01	-1.074921781917221e+02
 1.469523396769290e+00	 3.008338184785218e-01	-9.605625809362972e+01
 1.463525825188096e+00	 3.287737200529772e-01	-8.466913298410233e+01
 1.456959343223164e+00	 3.567484718715391e-01	-7.335019371018890e+01
 1.449818504550261e+00	 3.847418665163292e-01	-6.211898335377192e+01
 1.442098437276991e+00	 4.127373222644202e-01	-5.099513348040625e+01
 1.433794869157430e+00	 4.407179065634715e-01	-3.999829781303514e+01
 1.424904151779575e+00	 4.686663613186522e-01	-2.914808363144902e+01
 1.415423283584646e+00	 4.965651299484973e-01	-1.846398122951081e+01
 1.405349931578255e+00	 5.243963861554752e-01	-7.965291791709282e+00
 1.394682451595397e+00	 5.521420643450261e-01	 2.328945921917198e+00
 1.278458913966357e+00	 5.061302256309002e-01	 1.563643140044720e+01
 1.268134914741677e+00	 5.314685672938273e-01	 1.151843514338779e+01
 1.257265245121364e+00	 5.566948027665093e-01	 7.619231792651355e+00
 1.245850388605507e+00	 5.817918951274083e-01	 3.991387531800019e+00
 1.233891518761329e+00	 6.067427131481519e-01	 6.876978060184307e-01
 1.221390509410137e+00	 6.315300654405880e-01	-2.239023464700701e+00
 1.208349942826211e+00	 6.561367355249965e-01	-4.736160469548480e+00
 1.194773115862958e+00	 6.805455176867415e-01	-6.751516629298418e+00
 1.180664043931685e+00	 7.047392534804008e-01	-8.233538920800759e+00
 1.166027462769146e+00	 7.287008687329783e-01	-9.131544000638430e+00
 1.150868827941644e+00	 7.524134108913275e-01	-9.395944670524923e+00
 1.290081267729169e+00	 5.107314095045163e-01	 1.353235027707249e+01
 1.279663413966696e+00	 5.363000997284292e-01	 9.903953243197474e+00
 1.268694929168601e+00	 5.617556646147478e-01	 6.481827225673165e+00
 1.257176301230428e+00	 5.870809123608272e-01	 3.314142703122666e+00
 1.245108714388191e+00	 6.122585559998535e-01	 4.492779568557488e-01
 1.232494059497939e+00	 6.372712478583265e-01	-2.064374154868386e+00
 1.219334942309169e+00	 6.621016149430717e-01	-4.178604746030988e+00
 1.205634689646682e+00	 6.867322951238657e-01	-5.845591621974192e+00
 1.191397353425526e+00	 7.111459739694163e-01	-7.018104943707117e+00
 1.176627712434604e+00	 7.353254220869723e-01	-7.649714551424374e+00
 1.161331271836279e+00	 7.592535328092679e-01	-7.694997611154760e+00
 1.301703621492001e+00	 5.153325933776431e-01	 1.161231603582281e+01
 1.291191913191545e+00	 5.411316321624557e-01	 8.440948093454377e+00
 1.280124613215495e+00	 5.668165264623538e-01	 5.463570699165675e+00
 1.268502213854855e+00	 5.923699295935861e-01	 2.724020576573047e+00
 1.256325910014428e+00	 6.177743988508976e-01	 2.663211234265965e-01
 1.243597609585001e+00	 6.430124302754390e-01	-1.865493463367919e+00
 1.230319941791294e+00	 6.680664943605835e-01	-3.627558918210223e+00
 1.216496263429501e+00	 6.929190725605179e-01	-4.976365443298844e+00
 1.202130662918409e+00	 7.175526944580828e-01	-5.868944936723512e+00
 1.187227962099074e+00	 7.419499754407718e-01	-6.263059741830249e+00
 1.171793715729913e+00	 7.660936547271976e-01	-6.117391701747309e+00
 1.313325975254853e+00	 5.199337772502799e-01	 9.871472228813950e+00
 1.302720412416223e+00	 5.459631645959069e-01	 7.125429012578536e+00
 1.291554297262048e+00	 5.718773883093278e-01	 4.561330830230943e+00
 1.279828126478787e+00	 5.976589468256857e-01	 2.218740955512935e+00
 1.267543105640037e+00	 6.232902417012837e-01	 1.373885295180663e-01
 1.254701159671323e+00	 6.487536126919254e-01	-1.642990168261324e+00
 1.241304941272585e+00	 6.740313737775310e-01	-3.082814842008828e+00
 1.227357837211414e+00	 6.991058499966986e-01	-4.142827748245629e+00
 1.212863972410334e+00	 7.239594149464007e-01	-4.784262705744407e+00
 1.197828211762553e+00	 7.485745287943757e-01	-4.969015490727580e+00
 1.182256159622547e+00	 7.729337766451166e-01	-4.659814519889593e+00
 1.324948329017727e+00	 5.245349611224271e-01	 8.305132784037948e+00
 1.314248911640731e+00	 5.507946970287825e-01	 5.953545306548747e+00
 1.302983981308260e+00	 5.769382501556699e-01	 3.772086062132075e+00
 1.291154039102225e+00	 6.029479640571251e-01	 1.796103592729860e+00
 1.278760301265018e+00	 6.288060845510121e-01	 6.109181431695987e-02
 1.265804709756905e+00	 6.544947951077862e-01	-1.397451765378698e+00
 1.252289940753044e+00	 6.799962531939144e-01	-2.544171765369697e+00
 1.238219410992422e+00	 7.052926274324078e-01	-3.344003741391557e+00
 1.223597281901301e+00	 7.303661354343699e-01	-3.762325189934240e+00
 1.208428461425044e+00	 7.551990821477844e-01	-3.765107803483868e+00
 1.192718603514182e+00	 7.797738985630251e-01	-3.319069996853111e+00
 1.336570682780620e+00	 5.291361449940847e-01	 6.908774596962690e+00
 1.325777410865070e+00	 5.556262294610830e-01	 4.921580181746080e+00
 1.314413665354130e+00	 5.819991120013793e-01	 3.092919888519774e+00
 1.302479951725169e+00	 6.082369812879048e-01	 1.453984713675307e+00
 1.289977496889373e+00	 6.343219274000825e-01	 3.609083976109240e-02
 1.276908259841745e+00	 6.602359775230207e-01	-1.129445394275555e+00
 1.263274940232669e+00	 6.859611326097342e-01	-2.011436007473096e+00
 1.249080984772522e+00	 7.114794048676448e-01	-2.578952631852028e+00
 1.234330591391309e+00	 7.367728559219902e-01	-2.801459717333476e+00
 1.219028711086545e+00	 7.618236355009983e-01	-2.648948855644681e+00
 1.203181047404816e+00	 7.866140204809229e-01	-2.092073359179244e+00
 1.348193036543535e+00	 5.337373288652523e-01	 5.678030505326010e+00
 1.337305910089237e+00	 5.604577618928078e-01	 4.025944972652992e+00
 1.325843349399657e+00	 5.870599738464568e-01	 2.521016324684295e+00
 1.313805864347619e+00	 6.135259985180249e-01	 1.190333719537376e+00
 1.301194692513100e+00	 6.398377702484953e-01	 6.109161130892637e-02
 1.288011809925847e+00	 6.659771599376293e-01	-8.395187162935560e-01
 1.274259939711461e+00	 6.919260120249896e-01	-1.484420654542637e+00
 1.259942558551717e+00	 7.176661823024106e-01	-1.846766168133357e+00
 1.245063900880360e+00	 7.431795764092617e-01	-1.900051402412608e+00
 1.229628960747055e+00	 7.684481888540168e-01	-1.618233279182295e+00
 1.213643491294451e+00	 7.934541423988104e-01	-9.758463319035293e-01
 1.359815390306469e+00	 5.383385127359304e-01	 4.608682624199464e+00
 1.348834409313236e+00	 5.652892943239575e-01	 3.263173665570044e+00
 1.337273033444844e+00	 5.921208356909020e-01	 2.053655611053816e+00
 1.325131776969575e+00	 6.188150157474851e-01	 1.003170059389261e+00
 1.312411888136201e+00	 6.453536130962503e-01	 1.348443053366726e-01
 1.299115360009208e+00	 6.717183423516120e-01	-5.282007475887802e-01
 1.285244939189419e+00	 6.978908914396811e-01	-9.629452712476070e-01
 1.270804132330007e+00	 7.238529597367049e-01	-1.146567248114376e+00
 1.255797210368453e+00	 7.495862968961844e-01	-1.056540677081795e+00
 1.240229210406577e+00	 7.750727422068403e-01	-6.707346391891278e-01
 1.224105935183085e+00	 8.002942643166867e-01	 3.248741223451290e-02
 1.371437744069425e+00	 5.429396966061187e-01	 3.696656019949558e+00
 1.360362908537064e+00	 5.701208267545316e-01	 2.629917700790493e+00
 1.348702717489688e+00	 5.971816975347151e-01	 1.688210135161368e+00
 1.336457689591036e+00	 6.241040329762855e-01	 8.905802613844660e-01
 1.323629083758674e+00	 6.508694559433473e-01	 2.561413968405919e-01
 1.310218910091828e+00	 6.774595247649685e-01	-1.960026498009757e-01
 1.296229938666545e+00	 7.038557708538085e-01	-4.468356267780980e-01
 1.281665706107390e+00	 7.300397371705269e-01	-4.775085997068960e-01
 1.266530519855588e+00	 7.559930173827586e-01	-2.694209472403486e-01
 1.250829460065109e+00	 7.816972955594688e-01	 1.956979102794971e-01
 1.234568379070720e+00	 8.071343862345530e-01	 9.357065721885736e-01
 1.383060097832401e+00	 5.475408804758173e-01	 2.938012703161164e+00
 1.371891407760723e+00	 5.749523591845306e-01	 2.122941036852483e+00
 1.360132401534192e+00	 6.022425593778959e-01	 1.422140559229359e+00
 1.347783602212004e+00	 6.293930502044260e-01	 8.507151136416358e-01
 1.334846279380521e+00	 6.563852987897866e-01	 4.238158815446091e-01
 1.321322460173709e+00	 6.832007071776993e-01	 1.565815191468776e-01
 1.307214938142837e+00	 7.098206502673718e-01	 6.407656527233740e-02
 1.292527279883867e+00	 7.362265146038777e-01	 1.612284719663801e-01
 1.277263829341764e+00	 7.623997378689840e-01	 4.627636325197395e-01
 1.261429709722652e+00	 7.883218489119022e-01	 9.831428017534716e-01
 1.245030822957354e+00	 8.139745081524086e-01	 1.736496320219566e+00
 1.394682451595397e+00	 5.521420643450261e-01	 2.328945921917198e+00
 1.383419906984210e+00	 5.797838916139538e-01	 1.739115461580898e+00
 1.371562085578352e+00	 6.073034212204445e-01	 1.252992141377597e+00
 1.359109514832477e+00	 6.346820674319068e-01	 8.817869860879473e-01
 1.346063475001740e+00	 6.619011416355681e-01	 6.367395869040635e-01
 1.332426010254849e+00	 6.889418895898038e-01	 5.290740917905481e-01
 1.318199937618296e+00	 7.157855296803712e-01	 5.699538940208386e-01
 1.303388853659439e+00	 7.424132920367565e-01	 7.704352747562941e-01
 1.287997138826982e+00	 7.688064583548604e-01	 1.141420272948680e+00
 1.272029959379205e+00	 7.949464022641402e-01	 1.693609071121252e+00
 1.255493266842989e+00	 8.208146300702533e-01	 2.437452198433173e+00
 1.150868827941644e+00	 7.524134108913275e-01	-9.395944670524923e+00
 1.135194312046280e+00	 7.758600865535584e-01	-4.453988758995582e+00
 1.119010799580969e+00	 7.990242990192602e-01	 5.545619594302451e-01
 1.102325879470541e+00	 8.218896856909992e-01	 5.575868968794651e+00
 1.085147835250138e+00	 8.444401551573477e-01	 1.055568448335364e+01
 1.067485632918797e+00	 8.666599237864125e-01	 1.543957289691739e+01
 1.049348906492078e+00	 8.885335516599897e-01	 2.017313554262955e+01
 1.030747941296336e+00	 9.100459776802332e-01	 2.470223729963423e+01
 1.011693655061181e+00	 9.311825536839639e-01	 2.897323355051283e+01
 9.921975768804164e-01	 9.519290774042841e-01	 3.293319597573189e+01
 9.722718241249999e-01	 9.722718241249999e-01	 3.653013566901266e+01
 1.161331271836279e+00	 7.592535328092679e-01	-7.694997611154760e+00
 1.145514260342112e+00	 7.829133600673248e-01	-3.195359074019372e+00
 1.129183625036312e+00	 8.062881562818414e-01	 1.388175893205368e+00
 1.112347023833931e+00	 8.293614101044999e-01	 6.006965127475137e+00
 1.095012815574977e+00	 8.521168838383165e-01	 1.061192001611156e+01
 1.077190047767566e+00	 8.745386503638365e-01	 1.515370498484435e+01
 1.058888442009220e+00	 8.966111293999636e-01	 1.958294036864513e+01
 1.040118377129261e+00	 9.183191229297812e-01	 2.385040734934638e+01
 1.020890870109385e+00	 9.396478496249905e-01	 2.790725361139873e+01
 1.001217554853339e+00	 9.605829781071776e-01	 3.170519834788936e+01
 9.811106588900002e-01	 9.811106588899999e-01	 3.519673524351251e+01
 1.171793715729913e+00	 7.660936547271976e-01	-6.117391701747309e+00
 1.155834208636955e+00	 7.899666335812606e-01	-2.022698025482267e+00
 1.139356450490695e+00	 8.135520135447331e-01	 2.172895344106635e+00
 1.122368168196411e+00	 8.368331345184133e-01	 6.425870240419371e+00
 1.104877795898975e+00	 8.597936125197603e-01	 1.069222523900446e+01
 1.086894462615585e+00	 8.824173769417563e-01	 1.492765344422022e+01
 1.068427977525723e+00	 9.046887071404149e-01	 1.908772373069061e+01
 1.049488812961676e+00	 9.265922681797479e-01	 2.312806426945533e+01
 1.030088085157229e+00	 9.481131455663370e-01	 2.700454713599681e+01
 1.010237532826072e+00	 9.692368788102509e-01	 3.067347277651977e+01
 9.899494936549997e-01	 9.899494936549997e-01	 3.409175310035403e+01
 1.182256159622547e+00	 7.729337766451166e-01	-4.659814519889593e+00
 1.166154156930807e+00	 7.970199070953664e-01	-9.336848774875364e-01
 1.149529275944117e+00	 8.208158708079358e-01	 2.910057230021405e+00
 1.132389312557980e+00	 8.443048589327393e-01	 6.832947198274958e+00
 1.114742776222132e+00	 8.674703412016775e-01	 1.079600071871026e+01
 1.096598877462853e+00	 8.902961035201722e-01	 1.475987011685255e+01
 1.077967513041584e+00	 9.127662848813437e-01	 1.868500421705962e+01
 1.058859248793580e+00	 9.348654134301332e-01	 2.253181070793487e+01
 1.039285300204712e+00	 9.565784415080028e-01	 2.626081994982012e+01
 1.019257510798614e+00	 9.778907795135040e-01	 2.983284914341508e+01
 9.987883284199998e-01	 9.987883284199998e-01	 3.320916576701514e+01
 1.192718603514182e+00	 7.797738985630251e-01	-3.319069996853111e+00
 1.176474105223669e+00	 8.040731806096418e-01	 7.391953883864844e-02
 1.159702101396579e+00	 8.280797280714499e-01	 3.600951412662379e+00
 1.142410456918639e+00	 8.517765833474782e-01	 7.228546003126340e+00
 1.124607756544448e+00	 8.751470698840697e-01	 1.092266789063714e+01
 1.106303292309371e+00	 8.981748300990842e-01	 1.464886099375663e+01
 1.087507048556805e+00	 9.208438626227500e-01	 1.837238730324403e+01
 1.068229684624973e+00	 9.431385586809372e-01	 2.205836833085367e+01
 1.048482515251834e+00	 9.650437374499877e-01	 2.567192835697902e+01
 1.028277488770966e+00	 9.865446802169371e-01	 2.917833853730509e+01
 1.007627163185000e+00	 1.007627163185000e+00	 3.254316091408177e+01
 1.203181047404816e+00	 7.866140204809229e-01	-2.092073359179244e+00
 1.186794053515542e+00	 8.111264541240873e-01	 1.002276371347181e+00
 1.169874926848081e+00	 8.353435853352749e-01	 4.246822743146376e+00
 1.152431601278387e+00	 8.592483077626292e-01	 7.613004328577032e+00
 1.134472736865924e+00	 8.828237985669359e-01	 1.107166815135006e+01
 1.116007707155137e+00	 9.060535566784921e-01	 1.459318386065839e+01
 1.097046584071386e+00	 9.289214403646335e-01	 1.814756157409875e+01
 1.077600120455857e+00	 9.514117039321597e-01	 2.170457264760070e+01
 1.057679730298597e+00	 9.735090333922922e-01	 2.523387259761191e+01
 1.037297466743129e+00	 9.951985809205499e-01	 2.870512537532606e+01
 1.016465997950000e+00	 1.016465997950000e+00	 3.208812817519766e+01
 1.213643491294451e+00	 7.934541423988104e-01	-9.758463319035293e-01
 1.197114001806424e+00	 8.181797276387025e-01	 1.853472109455398e+00
 1.180047752298623e+00	 8.426074425994110e-01	 4.848873001769570e+00
 1.162452745637224e+00	 8.667200321781930e-01	 7.986648050864359e+00
 1.144337717186559e+00	 8.905005272502764e-01	 1.124246199794284e+01
 1.125712122000154e+00	 9.139322832583960e-01	 1.459144606528343e+01
 1.106586119585325e+00	 9.369990181069947e-01	 1.800829514141669e+01
 1.086970556286230e+00	 9.596848491838008e-01	 2.146736810377195e+01
 1.066876945345000e+00	 9.819743293349166e-01	 2.494279064372671e+01
 1.046317444715101e+00	 1.003852481624343e+00	 2.840855993200248e+01
 1.025304832715000e+00	 1.025304832715000e+00	 3.183865044184557e+01
 1.224105935183085e+00	 8.002942643166867e-01	 3.248741223451290e-02
 1.207433950096316e+00	 8.252330011534879e-01	 2.629521774297462e+00
 1.190220577748204e+00	 8.498712998638577e-01	 5.408262738310031e+00
 1.172473889995152e+00	 8.741917565941695e-01	 8.349791752739332e+00
 1.154202697506354e+00	 8.981772559340911e-01	 1.143452821154756e+01
 1.135416536844419e+00	 9.218110098387959e-01	 1.464230239914730e+01
 1.116125655098625e+00	 9.450765958498334e-01	 1.795243224521730e+01
 1.096340992116092e+00	 9.679579944358603e-01	 2.134380342570648e+01
 1.076074160391042e+00	 9.904396252778599e-01	 2.479495231320552e+01
 1.055337422686883e+00	 1.012506382328315e+00	 2.828415125135838e+01
 1.034143667480000e+00	 1.034143667480000e+00	 3.178949560455059e+01
 1.234568379070720e+00	 8.071343862345530e-01	 9.357065721885736e-01
 1.217753898385218e+00	 8.322862746684426e-01	 3.332371946667621e+00
 1.200393403196825e+00	 8.571351571286158e-01	 5.926113018758068e+00
 1.182495034352168e+00	 8.816634810105580e-01	 8.702739201730068e+00
 1.164067677825308e+00	 9.058539846183804e-01	 1.164736308236305e+01
 1.145120951687934e+00	 9.296897364196918e-01	 1.474445308705173e+01
 1.125665190611283e+00	 9.531541735931494e-01	 1.797789002785321e+01
 1.105711427945443e+00	 9.762311396883390e-01	 2.133102720174303e+01
 1.085271375436723e+00	 9.989049212211228e-01	 2.478675368309934e+01
 1.064357400658475e+00	 1.021160283032468e+00	 2.832756041943285e+01
 1.042982502245000e+00	 1.042982502245000e+00	 3.193560871402525e+01
 1.245030822957354e+00	 8.139745081524086e-01	 1.736496320219566e+00
 1.228073846673131e+00	 8.393395481835675e-01	 3.963903642296978e+00
 1.210566228644485e+00	 8.643990143936846e-01	 6.403507083978182e+00
 1.192516178708275e+00	 8.891352054273600e-01	 9.045783804290716e+00
 1.173932658143422e+00	 9.135307133031441e-01	 1.188047967375942e+01
 1.154825366530698e+00	 9.375684630010837e-01	 1.489664187795501e+01
 1.135204726123301e+00	 9.612317513369427e-01	 1.808265547077158e+01
 1.115081863774285e+00	 9.845042849412358e-01	 2.142628368627269e+01
 1.094468590482045e+00	 1.007370217164705e+00	 2.491471178460762e+01
 1.073377378629877e+00	 1.029814183736800e+00	 2.853459417599651e+01
 1.051821337010000e+00	 1.051821337010000e+00	 3.227210453755120e+01
 1.255493266842989e+00	 8.208146300702533e-01	 2.437452198433173e+00
 1.238393794960052e+00	 8.463928216988620e-01	 4.525935043367542e+00
 1.220739054091186e+00	 8.716628716590645e-01	 6.841491925441772e+00
 1.202537323063470e+00	 8.966069298445739e-01	 9.379209037247907e+00
 1.183797638460694e+00	 9.212074419883817e-01	 1.213340712317964e+01
 1.164529781372711e+00	 9.454471895829715e-01	 1.509765423129995e+01
 1.144744261634678e+00	 9.693093290812137e-01	 1.826478248443590e+01
 1.124452299602615e+00	 9.927774301945512e-01	 2.162690881358976e+01
 1.103665805527006e+00	 1.015835513108607e+00	 2.517545956330908e+01
 1.082397356601088e+00	 1.038468084441313e+00	 2.890119884568508e+01
 1.060660171775000e+00	 1.060660171775000e+00	 3.279426048754382e+01
 9.722718241249999e-01	 9.722718241249999e-01	 3.653013566901266e+01
 9.519290774042841e-01	 9.921975768804165e-01	 3.834906063822114e+01
 9.311825536839636e-01	 1.011693655061181e+00	 3.981805825234676e+01
 9.100459776802337e-01	 1.030747941296336e+00	 4.094202744795117e+01
 8.885335516599900e-01	 1.049348906492078e+00	 4.172694993091793e+01
 8.666599237864129e-01	 1.067485632918797e+00	 4.217985924422322e+01
 8.444401551573482e-01	 1.085147835250138e+00	 4.230880463995564e+01
 8.218896856909996e-01	 1.102325879470541e+00	 4.212281003249392e+01
 7.990242990192610e-01	 1.119010799580969e+00	 4.163182834752575e+01
 7.758600865535591e-01	 1.135194312046279e+00	 4.084669161581446e+01
 7.524134108913274e-01	 1.150868827941644e+00	 3.977905719087296e+01
 9.811106588900002e-01	 9.811106588899999e-01	 3.519673524351251e+01
 9.605829781071776e-01	 1.001217554853339e+00	 3.728314877834696e+01
 9.396478496249905e-01	 1.020890870109385e+00	 3.902425525641954e+01
 9.183191229297815e-01	 1.040118377129261e+00	 4.042039501547377e+01
 8.966111293999636e-01	 1.058888442009220e+00	 4.147302540350456e+01
 8.745386503638366e-01	 1.077190047767566e+00	 4.218470864738092e+01
 8.521168838383170e-01	 1.095012815574976e+00	 4.255909413423739e+01
 8.293614101045006e-01	 1.112347023833931e+00	 4.260089526239206e+01
 8.062881562818418e-01	 1.129183625036312e+00	 4.231586106158979e+01
 7.829133600673254e-01	 1.145514260342112e+00	 4.171074282296185e+01
 7.592535328092677e-01	 1.161331271836278e+00	 4.079325601675810e+01
 9.899494936549997e-01	 9.899494936549997e-01	 3.409175310035403e+01
 9.692368788102508e-01	 1.010237532826071e+00	 3.641494665784202e+01
 9.481131455663370e-01	 1.030088085157229e+00	 3.839752180589433e+01
 9.265922681797482e-01	 1.049488812961676e+00	 4.003531934766770e+01
 9.046887071404153e-01	 1.068427977525723e+00	 4.132533088968245e+01
 8.824173769417565e-01	 1.086894462615585e+00	 4.226570530370218e+01
 8.597936125197605e-01	 1.104877795898974e+00	 4.285574921398239e+01
 8.368331345184140e-01	 1.122368168196410e+00	 4.309592154773926e+01
 8.135520135447336e-01	 1.139356450490694e+00	 4.298782223495962e+01
 7.899666335812616e-01	 1.155834208636955e+00	 4.253417519056043e+01
 7.660936547271977e-01	 1.171793715729913e+00	 4.173880575690912e+01
 9.987883284199998e-01	 9.987883284199998e-01	 3.320916576701514e+01
 9.778907795135039e-01	 1.019257510798614e+00	 3.573924612263748e+01
 9.565784415080025e-01	 1.039285300204712e+00	 3.793346321451762e+01
 9.348654134301334e-01	 1.058859248793580e+00	 3.978321580928122e+01
 9.127662848813437e-01	 1.077967513041584e+00	 4.128108683410169e+01
 8.902961035201726e-01	 1.096598877462853e+00	 4.242086822975141e+01
 8.674703412016779e-01	 1.114742776222131e+00	 4.319757944557981e+01
 8.443048589327401e-01	 1.132389312557980e+00	 4.360747949660468e+01
 8.208158708079366e-01	 1.149529275944116e+00	 4.364807255630206e+01
 7.970199070953669e-01	 1.166154156930806e+00	 4.331810711185322e+01
 7.729337766451166e-01	 1.182256159622547e+00	 4.261756876082928e+01
 1.007627163185000e+00	 1.007627163185000e+00	 3.254316091408177e+01
 9.865446802169368e-01	 1.028277488770966e+00	 3.525102154847073e+01
 9.650437374499879e-01	 1.048482515251834e+00	 3.762783877794864e+01
 9.431385586809371e-01	 1.068229684624974e+00	 3.966062531945100e+01
 9.208438626227501e-01	 1.087507048556805e+00	 4.133761098319852e+01
 8.981748300990846e-01	 1.106303292309370e+00	 4.264828572013133e+01
 8.751470698840700e-01	 1.124607756544448e+00	 4.358343593170414e+01
 8.517765833474784e-01	 1.142410456918638e+00	 4.413517384572816e+01
 8.280797280714506e-01	 1.159702101396579e+00	 4.429695982046823e+01
 8.040731806096427e-01	 1.176474105223669e+00	 4.406361749855789e+01
 7.797738985630250e-01	 1.192718603514182e+00	 4.343134179171877e+01
 1.016465997950000e+00	 1.016465997950000e+00	 3.208812817519766e+01
 9.951985809205498e-01	 1.037297466743129e+00	 3.494542190494440e+01
 9.735090333922922e-01	 1.057679730298597e+00	 3.747655507907822e+01
 9.514117039321597e-01	 1.077600120455857e+00	 3.966420889305257e+01
 9.289214403646335e-01	 1.097046584071385e+00	 4.149231415496603e+01
 9.060535566784923e-01	 1.116007707155137e+00	 4.294611233572478e+01
 8.828237985669360e-01	 1.134472736865924e+00	 4.401220950575965e+01
 8.592483077626301e-01	 1.152431601278386e+00	 4.467862284664177e+01
 8.353435853352754e-01	 1.169874926848081e+00	 4.493481948954074e+01
 8.111264541240881e-01	 1.186794053515541e+00	 4.477174749793905e+01
 7.866140204809230e-01	 1.203181047404816e+00	 4.418185887856898e+01
 1.025304832715000e+00	 1.025304832715000e+00	 3.183865044184557e+01
 1.003852481624343e+00	 1.046317444715101e+00	 3.481776323006448e+01
 9.819743293349165e-01	 1.066876945345000e+00	 3.747565963963007e+01
 9.596848491838006e-01	 1.086970556286229e+00	 3.979074246439394e+01
 9.369990181069949e-01	 1.106586119585325e+00	 4.174269622753081e+01
 9.139322832583963e-01	 1.125712122000153e+00	 4.331256604771607e+01
 8.905005272502765e-01	 1.144337717186559e+00	 4.448282901971906e+01
 8.667200321781937e-01	 1.162452745637224e+00	 4.523745768354423e+01
 8.426074425994116e-01	 1.180047752298622e+00	 4.556197522486669e+01
 8.181797276387035e-01	 1.197114001806424e+00	 4.544350212106353e+01
 7.934541423988104e-01	 1.213643491294451e+00	 4.487079402073400e+01
 1.034143667480000e+00	 1.034143667480000e+00	 3.178949560455059e+01
 1.012506382328315e+00	 1.055337422686883e+00	 3.486352149070248e+01
 9.904396252778600e-01	 1.076074160391042e+00	 3.762133489731873e+01
 9.679579944358603e-01	 1.096340992116092e+00	 4.003711197636390e+01
 9.450765958498334e-01	 1.116125655098624e+00	 4.208634233344494e+01
 9.218110098387960e-01	 1.135416536844419e+00	 4.374592552807133e+01
 8.981772559340918e-01	 1.154202697506354e+00	 4.499425971976234e+01
 8.741917565941700e-01	 1.172473889995151e+00	 4.581132192102596e+01
 8.498712998638585e-01	 1.190220577748203e+00	 4.617873939180167e+01
 8.252330011534884e-01	 1.207433950096316e+00	 4.607985178755991e+01
 8.002942643166867e-01	 1.224105935183085e+00	 4.549976375380410e+01
 1.042982502245000e+00	 1.042982502245000e+00	 3.193560871402525e+01
 1.021160283032468e+00	 1.064357400658475e+00	 3.507832580608543e+01
 9.989049212211227e-01	 1.085271375436723e+00	 3.790989248925611e+01
 9.762311396883389e-01	 1.105711427945443e+00	 4.040030871928300e+01
 9.531541735931496e-01	 1.125665190611283e+00	 4.252091924748800e+01
 9.296897364196920e-01	 1.145120951687934e+00	 4.424452757779342e+01
 9.058539846183808e-01	 1.164067677825307e+00	 4.554550170451292e+01
 8.816634810105588e-01	 1.182495034352168e+00	 4.639987097987854e+01
 8.571351571286164e-01	 1.200393403196824e+00	 4.678541353879108e+01
 8.322862746684434e-01	 1.217753898385218e+00	 4.668173379182478e+01
 8.071343862345530e-01	 1.234568379070720e+00	 4.607032958501247e+01
 1.051821337010000e+00	 1.051821337010000e+00	 3.227210453755120e+01
 1.029814183736800e+00	 1.073377378629877e+00	 3.545795201295920e+01
 1.007370217164705e+00	 1.094468590482045e+00	 3.833776782359081e+01
 9.845042849412359e-01	 1.115081863774285e+00	 4.087742490477398e+01
 9.612317513369429e-01	 1.135204726123301e+00	 4.304417195659700e+01
 9.375684630010840e-01	 1.154825366530698e+00	 4.480676468484510e+01
 9.135307133031443e-01	 1.173932658143421e+00	 4.613558846100762e+01
 8.891352054273607e-01	 1.192516178708274e+00	 4.700277163933246e+01
 8.643990143936855e-01	 1.210566228644485e+00	 4.738228885229583e+01
 8.393395481835683e-01	 1.228073846673130e+00	 4.725005369530842e+01
 8.139745081524083e-01	 1.245030822957354e+00	 4.658400030584700e+01
 1.060660171775000e+00	 1.060660171775000e+00	 3.279426048754382e+01
 1.038468084441312e+00	 1.082397356601088e+00	 3.599831655249634e+01
 1.015835513108607e+00	 1.103665805527006e+00	 3.890151492256597e+01
 9.927774301945514e-01	 1.124452299602615e+00	 4.146564946093581e+01
 9.693093290812139e-01	 1.144744261634678e+00	 4.365392040130261e+01
 9.454471895829717e-01	 1.164529781372711e+00	 4.543108270417633e+01
 9.212074419883821e-01	 1.183797638460694e+00	 4.676358547387134e+01
 8.966069298445744e-01	 1.202537323063470e+00	 4.761970156418375e+01
 8.716628716590653e-01	 1.220739054091185e+00	 4.796964658897092e+01
 8.463928216988629e-01	 1.238393794960052e+00	 4.778568664917999e+01
 8.208146300702533e-01	 1.255493266842989e+00	 4.704223418903112e+01
 7.524134108913274e-01	 1.150868827941644e+00	 3.977905719087296e+01
 7.287008687329781e-01	 1.166027462769146e+00	 5.218016922217015e+01
 7.047392534804007e-01	 1.180664043931685e+00	 6.408025936870604e+01
 6.805455176867415e-01	 1.194773115862958e+00	 7.545260121945178e+01
 6.561367355249966e-01	 1.208349942826211e+00	 8.627099981555413e+01
 6.315300654405884e-01	 1.221390509410137e+00	 9.650989308758962e+01
 6.067427131481523e-01	 1.233891518761329e+00	 1.061444499020310e+02
 5.817918951274087e-01	 1.245850388605507e+00	 1.151506641170127e+02
 5.566948027665101e-01	 1.257265245121364e+00	 1.235054440899588e+02
 5.314685672938282e-01	 1.268134914741677e+00	 1.311866971266941e+02
 5.061302256309000e-01	 1.278458913966357e+00	 1.381734084126119e+02
 7.592535328092677e-01	 1.161331271836278e+00	 4.079325601675810e+01
 7.353254220869722e-01	 1.176627712434605e+00	 5.307508519565557e+01
 7.111459739694163e-01	 1.191397353425526e+00	 6.475214045584337e+01
 6.867322951238658e-01	 1.205634689646682e+00	 7.580487664226347e+01
 6.621016149430722e-01	 1.219334942309169e+00	 8.621453290867547e+01
 6.372712478583268e-01	 1.232494059497939e+00	 9.596319910626985e+01
 6.122585559998541e-01	 1.245108714388192e+00	 1.050338783502563e+02
 5.870809123608277e-01	 1.257176301230428e+00	 1.134105454058029e+02
 5.617556646147485e-01	 1.268694929168600e+00	 1.210782005722827e+02
 5.363000997284300e-01	 1.279663413966696e+00	 1.280229187847458e+02
 5.107314095045163e-01	 1.290081267729169e+00	 1.342318936933643e+02
 7.660936547271977e-01	 1.171793715729913e+00	 4.173880575690912e+01
 7.419499754407716e-01	 1.187227962099074e+00	 5.394595524210784e+01
 7.175526944580827e-01	 1.202130662918409e+00	 6.544628050291948e+01
 6.929190725605181e-01	 1.216496263429501e+00	 7.622731834909048e+01
 6.680664943605837e-01	 1.230319941791294e+00	 8.627763989369512e+01
 6.430124302754393e-01	 1.243597609585001e+00	 9.558688229240772e+01
 6.177743988508980e-01	 1.256325910014428e+00	 1.041457762335991e+02
 5.923699295935869e-01	 1.268502213854855e+00	 1.119461690593791e+02
 5.668165264623545e-01	 1.280124613215495e+00	 1.189810434304238e+02
 5.411316321624565e-01	 1.291191913191544e+00	 1.252445314803858e+02
 5.153325933776431e-01	 1.301703621492001e+00	 1.307319244384837e+02
 7.729337766451166e-01	 1.182256159622547e+00	 4.261756876082928e+01
 7.485745287943755e-01	 1.197828211762553e+00	 5.479345732724957e+01
 7.239594149464007e-01	 1.212863972410334e+00	 6.616212789530915e+01
 6.991058499966988e-01	 1.227357837211414e+00	 7.671810258599854e+01
 6.740313737775313e-01	 1.241304941272586e+00	 8.645718503192403e+01
 6.487536126919259e-01	 1.254701159671323e+00	 9.537645785593688e+01
 6.232902417012843e-01	 1.267543105640036e+00	 1.034742754774143e+02
 5.976589468256861e-01	 1.279828126478787e+00	 1.107502523625765e+02
 5.718773883093287e-01	 1.291554297262048e+00	 1.172052468631331e+02
 5.459631645959077e-01	 1.302720412416223e+00	 1.228413408135717e+02
 5.199337772502799e-01	 1.313325975254853e+00	 1.276618150812735e+02
 7.797738985630250e-01	 1.192718603514182e+00	 4.343134179171877e+01
 7.551990821477842e-01	 1.208428461425044e+00	 5.561824538731086e+01
 7.303661354343698e-01	 1.223597281901301e+00	 6.689915013208693e+01
 7.052926274324078e-01	 1.238219410992421e+00	 7.727546934977455e+01
 6.799962531939148e-01	 1.252289940753043e+00	 8.675014237103447e+01
 6.544947951077865e-01	 1.265804709756905e+00	 9.532759812990534e+01
 6.288060845510125e-01	 1.278760301265018e+00	 1.030137136686124e+02
 6.029479640571257e-01	 1.291154039102225e+00	 1.098157679009551e+02
 5.769382501556705e-01	 1.302983981308259e+00	 1.157423910076559e+02
 5.507946970287833e-01	 1.314248911640731e+00	 1.208035098562077e+02
 5.245349611224271e-01	 1.324948329017727e+00	 1.250102898527831e+02
 7.866140204809230e-01	 1.203181047404816e+00	 4.418185887856898e+01
 7.618236355009980e-01	 1.219028711086544e+00	 5.642095037433224e+01
 7.367728559219902e-01	 1.234330591391309e+00	 6.765683299556261e+01
 7.114794048676450e-01	 1.249080984772522e+00	 7.789771961674634e+01
 6.859611326097343e-01	 1.263274940232669e+00	 8.715359097234912e+01
 6.602359775230212e-01	 1.276908259841746e+00	 9.543612573966033e+01
 6.343219274000830e-01	 1.289977496889372e+00	 1.027586251144911e+02
 6.082369812879054e-01	 1.302479951725169e+00	 1.091359324614116e+02
 5.819991120013801e-01	 1.314413665354129e+00	 1.145843486387042e+02
 5.556262294610839e-01	 1.325777410865069e+00	 1.191215436105352e+02
 5.291361449940846e-01	 1.336570682780620e+00	 1.227664649651615e+02
 7.934541423988104e-01	 1.213643491294451e+00	 4.487079402073400e+01
 7.684481888540168e-01	 1.229628960747055e+00	 5.720218124740382e+01
 7.431795764092617e-01	 1.245063900880360e+00	 6.843467976377515e+01
 7.176661823024110e-01	 1.259942558551717e+00	 7.858321271493853e+01
 6.919260120249895e-01	 1.274259939711460e+00	 8.766471038499436e+01
 6.659771599376296e-01	 1.288011809925846e+00	 9.569800712535113e+01
 6.398377702484958e-01	 1.301194692513100e+00	 1.027037323640355e+02
 6.135259985180255e-01	 1.313805864347619e+00	 1.087041965068995e+02
 5.870599738464576e-01	 1.325843349399657e+00	 1.137232725554173e+02
 5.604577618928086e-01	 1.337305910089237e+00	 1.177862742713979e+02
 5.337373288652524e-01	 1.348193036543535e+00	 1.209198317165586e+02
 8.002942643166867e-01	 1.224105935183085e+00	 4.549976375380410e+01
 7.750727422068404e-01	 1.240229210406577e+00	 5.796252591306524e+01
 7.495862968961846e-01	 1.255797210368453e+00	 6.923221046337152e+01
 7.238529597367048e-01	 1.270804132330007e+00	 7.933036383099085e+01
 6.978908914396812e-01	 1.285244939189419e+00	 8.828077635214787e+01
 6.717183423516123e-01	 1.299115360009208e+00	 9.610934639660742e+01
 6.453536130962506e-01	 1.312411888136201e+00	 1.028439381640270e+02
 6.188150157474855e-01	 1.325131776969574e+00	 1.085142341909002e+02
 5.921208356909027e-01	 1.337273033444843e+00	 1.131515836151385e+02
 5.652892943239584e-01	 1.348834409313236e+00	 1.167888472442876e+02
 5.383385127359304e-01	 1.359815390306469e+00	 1.194602404624427e+02
 8.071343862345530e-01	 1.234568379070720e+00	 4.607032958501247e+01
 7.816972955594687e-01	 1.250829460065110e+00	 5.870255211789343e+01
 7.559930173827586e-01	 1.266530519855587e+00	 7.004896116046967e+01
 7.300397371705273e-01	 1.281665706107390e+00	 8.013764164384069e+01
 7.038557708538088e-01	 1.296229938666545e+00	 8.899915673560949e+01
 6.774595247649688e-01	 1.310218910091828e+00	 9.666637949969498e+01
 6.508694559433478e-01	 1.323629083758674e+00	 1.031743178241584e+02
 6.241040329762860e-01	 1.336457689591036e+00	 1.085599338796384e+02
 5.971816975347158e-01	 1.348702717489688e+00	 1.128619593756464e+02
 5.701208267545327e-01	 1.360362908537064e+00	 1.161207078743369e+02
 5.429396966061187e-01	 1.371437744069425e+00	 1.183778854019327e+02
 8.139745081524083e-01	 1.245030822957354e+00	 4.658400030584700e+01
 7.883218489119019e-01	 1.261429709722652e+00	 5.942280829608071e+01
 7.623997378689837e-01	 1.277263829341764e+00	 7.088448328728003e+01
 7.362265146038778e-01	 1.292527279883868e+00	 8.100356607771479e+01
 7.098206502673721e-01	 1.307214938142837e+00	 8.981730764585731e+01
 6.832007071776995e-01	 1.321322460173709e+00	 9.736546867875859e+01
 6.563852987897871e-01	 1.334846279380521e+00	 1.036901119671024e+02
 6.293930502044267e-01	 1.347783602212004e+00	 1.088353891521618e+02
 6.022425593778966e-01	 1.360132401534191e+00	 1.128473233100438e+02
 5.749523591845315e-01	 1.371891407760722e+00	 1.157735888444344e+02
 5.475408804758173e-01	 1.383060097832401e+00	 1.176632901312072e+02
 8.208146300702533e-01	 1.255493266842989e+00	 4.704223418903112e+01
 7.949464022641402e-01	 1.272029959379205e+00	 6.012382437463842e+01
 7.688064583548604e-01	 1.287997138826982e+00	 7.173834300239332e+01
 7.424132920367567e-01	 1.303388853659439e+00	 8.192670616747293e+01
 7.157855296803717e-01	 1.318199937618296e+00	 9.073276976559805e+01
 6.889418895898042e-01	 1.332426010254849e+00	 9.820309721400537e+01
 6.619011416355685e-01	 1.346063475001740e+00	 1.043867196410765e+02
 6.346820674319077e-01	 1.359109514832477e+00	 1.093348902504218e+02
 6.073034212204453e-01	 1.371562085578352e+00	 1.131008345609033e+02
 5.797838916139548e-01	 1.383419906984210e+00	 1.157394982034359e+02
 5.521420643450261e-01	 1.394682451595397e+00	 1.173072939192408e+02
 5.061302256309000e-01	 1.278458913966357e+00	 1.381734084126119e+02
 4.806966872910303e-01	 1.288237437281654e+00	 1.406033731338043e+02
 4.551847024354536e-01	 1.297471343285539e+00	 1.390935484501336e+02
 4.296108311925131e-01	 1.306162139129264e+00	 1.337085960842279e+02
 4.039914143349413e-01	 1.314311963391015e+00	 1.245253391881305e+02
 3.783425453957433e-01	 1.321923567499668e+00	 1.116320977444973e+02
 3.526800442951766e-01	 1.329000295832889e+00	 9.512798941798923e+01
 3.270194325395477e-01	 1.335546064616104e+00	 7.512220155491076e+01
 3.013759100415353e-01	 1.341565339750669e+00	 5.173324000208842e+01
 2.757643336008559e-01	 1.347063113700460e+00	 2.508816033687176e+01
 2.501991970734234e-01	 1.352044881565965e+00	-4.678213027198877e+00
 5.107314095045163e-01	 1.290081267729169e+00	 1.342318936933643e+02
 4.850666571792522e-01	 1.299948686710393e+00	 1.361035761802317e+02
 4.593227451881562e-01	 1.309266537313843e+00	 1.342840213932442e+02
 4.335163842061927e-01	 1.318036340392143e+00	 1.288245475047165e+02
 4.076640635585735e-01	 1.326260253965098e+00	 1.197882434281479e+02
 3.817820230831497e-01	 1.333941054474572e+00	 1.072493695196536e+02
 3.558862265176348e-01	 1.341082116701665e+00	 9.129272304345866e+01
 3.299923364729388e-01	 1.347687392473848e+00	 7.201297372760362e+01
 3.041156910427644e-01	 1.353761388291580e+00	 4.951397473352087e+01
 2.782712820886437e-01	 1.359309142004772e+00	 2.390805431071323e+01
 2.524737352288170e-01	 1.364336198669367e+00	-4.684706691342466e+00
 5.153325933776431e-01	 1.301703621492001e+00	 1.307319244384837e+02
 4.894366270670793e-01	 1.311659936139338e+00	 1.319694892698330e+02
 4.634607879405481e-01	 1.321061731342504e+00	 1.297605634880534e+02
 4.374219372196355e-01	 1.329910541655500e+00	 1.241433123941371e+02
 4.113367127820329e-01	 1.338208544539750e+00	 1.151672860741818e+02
 3.852215007704361e-01	 1.345958541450105e+00	 1.028928846257801e+02
 3.590924087400167e-01	 1.353163937571098e+00	 8.739078746915143e+01
 3.329652404062873e-01	 1.359828720332250e+00	 6.874135170146960e+01
 3.068554720439746e-01	 1.365957436833121e+00	 4.703398447470691e+01
 2.807782305764268e-01	 1.371555170309656e+00	 2.236649435122970e+01
 2.547482733842105e-01	 1.376627515773255e+00	-5.155573479755840e+00
 5.199337772502799e-01	 1.313325975254853e+00	 1.276618150812735e+02
 4.938065969545112e-01	 1.323371185568486e+00	 1.281914398176994e+02
 4.675988306926293e-01	 1.332856925371522e+00	 1.255156161556179e+02
 4.413274902328415e-01	 1.341784742919335e+00	 1.196595421421264e+02
 4.150093620053187e-01	 1.350156835114969e+00	 1.106594192597882e+02
 3.886609784576029e-01	 1.357976028426266e+00	 9.856198142328253e+01
 3.622985909623225e-01	 1.365245758441190e+00	 8.342398738811033e+01
 3.359381443395930e-01	 1.371970048191310e+00	 6.531168116622047e+01
 3.095952530451660e-01	 1.378153485375291e+00	 4.430022508939629e+01
 2.832851790642052e-01	 1.383801198615110e+00	 2.047311016123270e+01
 2.570228115396040e-01	 1.388918832877628e+00	-6.078451704940516e+00
 5.245349611224271e-01	 1.324948329017727e+00	 1.250102898527831e+02
 4.981765668415482e-01	 1.335082434997839e+00	 1.247600944103706e+02
 4.717368734443999e-01	 1.344652119400897e+00	 1.215418858179018e+02
 4.452330432458106e-01	 1.353658944183649e+00	 1.153680756020387e+02
 4.186820112284315e-01	 1.362105125690758e+00	 1.062617018603921e+02
 3.921004561446502e-01	 1.369993515403056e+00	 9.425602129361312e+01
 3.655047731845522e-01	 1.377327579311940e+00	 7.939406398328759e+01
 3.389110482728562e-01	 1.384111376051029e+00	 6.172815515094607e+01
 3.123350340463384e-01	 1.390349533918090e+00	 4.131940820329187e+01
 2.857921275519789e-01	 1.396047226921136e+00	 1.823719339456641e+01
 2.592973496949976e-01	 1.401210149982486e+00	-7.441413579135369e+00
 5.291361449940846e-01	 1.336570682780620e+00	 1.227664649651615e+02
 5.025465367281904e-01	 1.346793684427397e+00	 1.216664440598884e+02
 4.758749161958596e-01	 1.356447313430629e+00	 1.178323323766317e+02
 4.491385962585430e-01	 1.365533145448441e+00	 1.112639309409645e+02
 4.223546604513710e-01	 1.374053416267115e+00	 1.019712948529368e+02
 3.955399338315778e-01	 1.382011002380474e+00	 8.997438763893697e+01
 3.687109554067056e-01	 1.389409400183348e+00	 7.530269768941136e+01
 3.418839522060768e-01	 1.396252703911406e+00	 5.799482066206616e+01
 3.150748150474922e-01	 1.402545582461518e+00	 3.809801182360063e+01
 2.882990760397479e-01	 1.408293255227734e+00	 1.566771235436264e+01
 2.615718878503911e-01	 1.413501467087830e+00	-9.232946348670936e+00
 5.337373288652524e-01	 1.348193036543535e+00	 1.209198317165586e+02
 5.069165066144372e-01	 1.358504933857160e+00	 1.189017902205723e+02
 4.800129589470085e-01	 1.368242507460719e+00	 1.143801582880647e+02
 4.530441492710384e-01	 1.377407346713711e+00	 1.073422979113044e+02
 4.260273096741375e-01	 1.386001706844041e+00	 9.778545691555084e+01
 3.989794115183856e-01	 1.394028489358520e+00	 8.571648493353882e+01
 3.719171376287828e-01	 1.401491221055414e+00	 7.115151081199619e+01
 3.448568561392546e-01	 1.408394031772441e+00	 5.411558497793888e+01
 3.178145960486270e-01	 1.414741631005575e+00	 3.464229040929480e+01
 2.908060245275123e-01	 1.420539283534902e+00	 1.277332593103966e+01
 2.638464260057847e-01	 1.425792784193659e+00	-1.144193440413397e+01
 5.383385127359304e-01	 1.359815390306469e+00	 1.194602404624427e+02
 5.112864765002892e-01	 1.370216183287127e+00	 1.164577315228824e+02
 4.841510016978469e-01	 1.380037701491165e+00	 1.111787981980297e+02
 4.569497022832972e-01	 1.389281547979459e+00	 1.035985305186655e+02
 4.296999588967309e-01	 1.397949997421536e+00	 9.370154025287242e+01
 4.024188892050738e-01	 1.406045976337196e+00	 8.148173782387391e+01
 3.751233198507839e-01	 1.413573041928139e+00	 6.694207001204492e+01
 3.478297600723899e-01	 1.420535359634134e+00	 5.009422162066684e+01
 3.205543770497430e-01	 1.426937679550262e+00	 3.095828442495032e+01
 2.933129730152719e-01	 1.432785311842642e+00	 9.562396825532035e+00
 2.661209641611783e-01	 1.438084101299974e+00	-1.405764230796022e+01
 5.429396966061187e-01	 1.371437744069425e+00	 1.183778854019327e+02
 5.156564463857463e-01	 1.381927432717298e+00	 1.143261511818307e+02
 4.882890444483744e-01	 1.391832895521968e+00	 1.082219091039968e+02
 4.608552552953190e-01	 1.401155749245686e+00	 1.000281400625785e+02
 4.333726081191510e-01	 1.409898287999599e+00	 8.971698663364387e+01
 4.058583668916424e-01	 1.418063463316499e+00	 7.726959027437964e+01
 3.783295020727088e-01	 1.425654862801521e+00	 6.267588866440968e+01
 3.508026640054825e-01	 1.432676687496486e+00	 4.593437602425304e+01
 3.232941580508401e-01	 1.439133728095577e+00	 2.705182940879517e+01
 2.958199215030269e-01	 1.445031340150954e+00	 6.043004100151357e+00
 2.683955023165718e-01	 1.450375418406773e+00	-1.706969868503030e+01
 5.475408804758173e-01	 1.383060097832401e+00	 1.176632901312072e+02
 5.200264162708083e-01	 1.393638682147674e+00	 1.124992050402606e+02
 4.924270871985911e-01	 1.403628089553128e+00	 1.055033610131772e+02
 4.647608083071041e-01	 1.413029950512392e+00	 9.662678852810279e+01
 4.370452573413979e-01	 1.421846578578230e+00	 8.582932362809188e+01
 4.092978445780913e-01	 1.430080950296430e+00	 7.307950475635306e+01
 3.815356842945573e-01	 1.437736683675562e+00	 5.835442909724135e+01
 3.537755679385325e-01	 1.444818015359496e+00	 4.163957091696467e+01
 3.260339390519186e-01	 1.451329776641522e+00	 2.292856458354474e+01
 2.983268699907771e-01	 1.457277368459836e+00	 2.222955096630400e+00
 2.706700404719653e-01	 1.462666735514058e+00	-2.046808092550695e+01
 5.521420643450261e-01	 1.394682451595397e+00	 1.173072939192408e+02
 5.243963861554752e-01	 1.405349931578255e+00	 1.109693102099627e+02
 4.965651299484972e-01	 1.415423283584646e+00	 1.030172280677143e+02
 4.686663613186524e-01	 1.424904151779574e+00	 9.339028230784861e+01
 4.407179065634718e-01	 1.433794869157430e+00	 8.203616103343529e+01
 4.127373222644204e-01	 1.442098437276991e+00	 6.891096147738472e+01
 3.847418665163297e-01	 1.449818504550261e+00	 5.397910471946602e+01
 3.567484718715399e-01	 1.456959343223164e+00	 3.721321143458022e+01
 3.287737200529779e-01	 1.463525825188096e+00	 1.859394103669516e+01
 3.008338184785227e-01	 1.469523396769290e+00	-1.890203241735497e+00
 2.729445786273588e-01	 1.474958052621828e+00	-2.424310065252845e+01
 2.501991970734234e-01	 1.352044881565965e+00	-4.678213027198877e+00
 2.246946132453406e-01	 1.356516616473704e+00	-2.388938002585678e+01
 1.992642974238829e-01	 1.360484744408075e+00	-4.126340321946259e+01
 1.739215527406030e-01	 1.363956118608690e+00	-5.687196693977278e+01
 1.486792571529468e-01	 1.366937993652964e+00	-7.079044574553282e+01
 1.235498521293628e-01	 1.369437999341071e+00	-8.309744609278965e+01
 9.854533298911115e-02	 1.371464114494739e+00	-9.387435446423119e+01
 7.367724086214492e-02	 1.373024640776572e+00	-1.032048943026873e+02
 4.895665622776053e-02	 1.374128176631064e+00	-1.111746938901206e+02
 2.439419398469604e-02	 1.374783591442656e+00	-1.178708671040106e+02
 0.000000000000000e+00	 1.375000000000000e+00	-1.233816087706318e+02
 2.524737352288170e-01	 1.364336198669367e+00	-4.684706691342466e+00
 2.267372915474652e-01	 1.368848585712971e+00	-2.362301030709570e+01
 2.010757910364978e-01	 1.372852787537955e+00	-4.082895553367908e+01
 1.755026577650256e-01	 1.376355719686112e+00	-5.636305042964996e+01
 1.500308867628343e-01	 1.379364702685561e+00	-7.028964371235838e+01
 1.246730326026296e-01	 1.381887435698295e+00	-8.267650072642006e+01
 9.944119965202770e-02	 1.383931970080786e+00	-9.359438339504379e+01
 7.434703396034356e-02	 1.385506682965300e+00	-1.031166364451814e+02
 4.940171673850238e-02	 1.386620250964008e+00	-1.113187820151093e+02
 2.461595938432043e-02	 1.387281624092119e+00	-1.182781245639824e+02
 0.000000000000000e+00	 1.387500000000000e+00	-1.240733678095404e+02
 2.547482733842105e-01	 1.376627515773255e+00	-5.155573479755840e+00
 2.287799698495900e-01	 1.381180554952629e+00	-2.373837361166942e+01
 2.028872846491126e-01	 1.385220830668143e+00	-4.069252557671395e+01
 1.770837627894483e-01	 1.388755320763768e+00	-5.606751609485683e+01
 1.513825163727218e-01	 1.391791411718328e+00	-6.991682066072906e+01
 1.257962130758965e-01	 1.394336872055636e+00	-8.229751341562745e+01
 1.003370663149443e-01	 1.396399825666909e+00	-9.326987855444585e+01
 7.501682705854221e-02	 1.397988725154069e+00	-1.028970255049324e+02
 4.984677724924420e-02	 1.399112325296969e+00	-1.112445099555667e+02
 2.483772478394482e-02	 1.399779656741585e+00	-1.183799626393478e+02
 0.000000000000000e+00	 1.400000000000000e+00	-1.243727276063365e+02
 2.570228115396040e-01	 1.388918832877628e+00	-6.078451704940516e+00
 2.308226481517145e-01	 1.393512524192677e+00	-2.422530262272569e+01
 2.046987782617274e-01	 1.397588873798637e+00	-4.084616894969878e+01
 1.786648678138709e-01	 1.401154921841657e+00	-5.597966688853958e+01
 1.527341459826092e-01	 1.404218120751266e+00	-6.966854727806705e+01
 1.269193935491633e-01	 1.406786308413095e+00	-8.195933898461158e+01
 1.012329329778609e-01	 1.408867681253106e+00	-9.290199140787720e+01
 7.568662015674081e-02	 1.410470767342880e+00	-1.025495182857381e+02
 5.029183775998605e-02	 1.411604399629950e+00	-1.109576448422833e+02
 2.505949018356920e-02	 1.412277689391056e+00	-1.181844601743171e+02
 0.000000000000000e+00	 1.412500000000000e+00	-1.242900766157436e+02
 2.592973496949976e-01	 1.401210149982486e+00	-7.441413579135369e+00
 2.328653264538391e-01	 1.405844493433116e+00	-2.507398691901613e+01
 2.065102718743421e-01	 1.409956916929438e+00	-4.128222014326276e+01
 1.802459728382935e-01	 1.413554522919780e+00	-5.609400578960820e+01
 1.540857755924967e-01	 1.416644829784374e+00	-6.954151469838493e+01
 1.280425740224302e-01	 1.419235744770672e+00	-8.166087254920214e+01
 1.021287996407774e-01	 1.421335536839377e+00	-9.249183311845927e+01
 7.635641325493947e-02	 1.422952809531733e+00	-1.020774503897510e+02
 5.073689827072789e-02	 1.424096473962949e+00	-1.104637515298416e+02
 2.528125558319359e-02	 1.424775722040532e+00	-1.176994126134937e+02
 0.000000000000000e+00	 1.425000000000000e+00	-1.238354388431129e+02
 2.615718878503911e-01	 1.413501467087830e+00	-9.232946348670936e+00
 2.349080047559638e-01	 1.418176462673946e+00	-2.627495745729288e+01
 2.083217654869569e-01	 1.422324960060546e+00	-4.199328041153722e+01
 1.818270778627161e-01	 1.425954123998136e+00	-5.640522710564085e+01
 1.554374052023842e-01	 1.429071538817652e+00	-6.953252926519227e+01
 1.291657544956971e-01	 1.431685181128366e+00	-8.140104776481097e+01
 1.030246663036940e-01	 1.433803392425723e+00	-9.204047629908166e+01
 7.702620635313809e-02	 1.435434851720629e+00	-1.014840414869720e+02
 5.118195878146975e-02	 1.436588548295966e+00	-1.097682013911306e+02
 2.550302098281797e-02	 1.437273754690013e+00	-1.169323443235524e+02
 0.000000000000000e+00	 1.437500000000000e+00	-1.230184896900472e+02
 2.638464260057847e-01	 1.425792784193659e+00	-1.144193440413397e+01
 2.369506830580884e-01	 1.430508431915166e+00	-2.781907185734010e+01
 2.101332590995718e-01	 1.434693003191961e+00	-4.297220627336865e+01
 1.834081828871388e-01	 1.438353725076726e+00	-5.690820822563634e+01
 1.567890348122716e-01	 1.441498247851101e+00	-6.963850756529301e+01
 1.302889349689639e-01	 1.444134617486177e+00	-8.117883516501064e+01
 1.039205329666105e-01	 1.446271248012144e+00	-9.154895667385554e+01
 7.769599945133675e-02	 1.447916893909566e+00	-1.007724003121780e+02
 5.162701929221158e-02	 1.449080622629002e+00	-1.088761806569814e+02
 2.572478638244236e-02	 1.449771787339498e+00	-1.158905202775791e+02
 0.000000000000000e+00	 1.450000000000000e+00	-1.218485709804254e+02
 2.661209641611783e-01	 1.438084101299974e+00	-1.405764230796022e+01
 2.389933613602131e-01	 1.442840401156778e+00	-2.969750044161989e+01
 2.119447527121866e-01	 1.447061046323683e+00	-4.421209860321102e+01
 1.849892879115614e-01	 1.450753326155550e+00	-5.759800179570401e+01
 1.581406644221591e-01	 1.453924956884721e+00	-6.985647171725424e+01
 1.314121154422308e-01	 1.456584053844107e+00	-8.099324058530831e+01
 1.048163996295271e-01	 1.458739103598640e+00	-9.101827465436993e+01
 7.836579254953538e-02	 1.460398936098545e+00	-9.994552940560435e+01
 5.207207980295342e-02	 1.461572696962056e+00	-1.077926983281208e+02
 2.594655178206674e-02	 1.462269819988988e+00	-1.145809571402219e+02
 0.000000000000000e+00	 1.462500000000000e+00	-1.203347052158612e+02
 2.683955023165718e-01	 1.450375418406773e+00	-1.706969868503030e+01
 2.410360396623377e-01	 1.455172370398780e+00	-3.190171298476746e+01
 2.137562463248014e-01	 1.459429089455712e+00	-4.570629227672184e+01
 1.865703929359840e-01	 1.463152927234606e+00	-5.846982829260023e+01
 1.594922940320465e-01	 1.466351665918511e+00	-7.018354489944909e+01
 1.325352959154976e-01	 1.469033490202154e+00	-8.084330366707080e+01
 1.057122662924437e-01	 1.471206959185211e+00	-9.044939683579815e+01
 7.903558564773400e-02	 1.472880978287564e+00	-9.900632961256792e+01
 5.251714031369526e-02	 1.474064771295128e+00	-1.065225936848304e+02
 2.616831718169113e-02	 1.474767852638482e+00	-1.130104337891834e+02
 0.000000000000000e+00	 1.475000000000000e+00	-1.184856091063060e+02
 2.706700404719653e-01	 1.462666735514058e+00	-2.046808092550695e+01
 2.430787179644623e-01	 1.467504339641174e+00	-3.442346613117945e+01
 2.155677399374162e-01	 1.471797132588047e+00	-4.744834633842731e+01
 1.881514979604067e-01	 1.475552528313897e+00	-5.951906897170802e+01
 1.608439236419340e-01	 1.478778374952471e+00	-7.061694710357330e+01
 1.336584763887645e-01	 1.481482926560319e+00	-8.072809643687982e+01
 1.066081329553602e-01	 1.483674814771857e+00	-8.984325741756959e+01
 7.970537874593264e-02	 1.485363020476627e+00	-9.795760435622513e+01
 5.296220082443710e-02	 1.486556845628219e+00	-1.050705434179591e+02
 2.639008258131552e-02	 1.487265885287981e+00	-1.111855013062269e+02
 0.000000000000000e+00	 1.487500000000000e+00	-1.163097064184385e+02
 2.729445786273588e-01	 1.474958052621828e+00	-2.424310065252845e+01
 2.451213962665869e-01	 1.479836308883957e+00	-3.725479144172249e+01
 2.173792335500309e-01	 1.484165175720690e+00	-4.943203466100386e+01
 1.897326029848293e-01	 1.487952129393421e+00	-6.074125916761739e+01
 1.621955532518215e-01	 1.491205083986602e+00	-7.115399110048932e+01
 1.347816568620313e-01	 1.493932362918601e+00	-8.064672195692404e+01
 1.075039996182768e-01	 1.496142670358577e+00	-8.920075955300720e+01
 8.037517184413129e-02	 1.497845062665731e+00	-9.680206369668750e+01
 5.340726133517893e-02	 1.499048919961328e+00	-1.034410684033898e+02
 2.661184798093990e-02	 1.499763917937484e+00	-1.091124924686175e+02
 0.000000000000000e+00	 1.500000000000000e+00	-1.138151401816350e+02
 1.500000000000000e+00	 0.000000000000000e+00	 1.398246898677113e+02
 1.499763917937484e+00	 2.661184798093904e-02	 1.144117104414726e+02
 1.499048919961329e+00	 5.340726133517817e-02	 8.911413748017436e+01
 1.497845062665731e+00	 8.037517184413061e-02	 6.394646860904777e+01
 1.496142670358577e+00	 1.075039996182762e-01	 3.892270820822215e+01
 1.493932362918601e+00	 1.347816568620308e-01	 1.405630162602954e+01
 1.491205083986601e+00	 1.621955532518211e-01	-1.063993047114725e+01
 1.487952129393420e+00	 1.897326029848289e-01	-3.515385719253366e+01
 1.484165175720690e+00	 2.173792335500308e-01	-5.947410151946270e+01
 1.479836308883957e+00	 2.451213962665869e-01	-8.359010294617261e+01
 1.474958052621828e+00	 2.729445786273588e-01	-1.074921781917221e+02
 1.512500000000000e+00	 0.000000000000000e+00	 1.418766346874024e+02
 1.512261950586988e+00	 2.683361338056342e-02	 1.163175154725686e+02
 1.511540994294438e+00	 5.385232184592000e-02	 9.097364903899010e+01
 1.510327104854835e+00	 8.104496494232924e-02	 6.584007092046730e+01
 1.508610525945297e+00	 1.083998662811928e-01	 4.091026460200238e+01
 1.506381799276883e+00	 1.359048373352977e-01	 1.617612466550679e+01
 1.503631793020732e+00	 1.635471828617086e-01	-8.372073463263925e+00
 1.500351730472945e+00	 1.913137080092516e-01	-3.274569658132516e+01
 1.496533218853332e+00	 2.191907271626456e-01	-5.695776902237053e+01
 1.492168278126741e+00	 2.471640745687115e-01	-8.102297967754136e+01
 1.487249369729599e+00	 2.752191167827523e-01	-1.049576802154965e+02
 1.525000000000000e+00	 0.000000000000000e+00	 1.450770058277165e+02
 1.524759983236486e+00	 2.705537878018779e-02	 1.191918227101455e+02
 1.524033068627529e+00	 5.429738235666183e-02	 9.361942458847351e+01
 1.522809147043897e+00	 8.171475804052787e-02	 6.833561360621160e+01
 1.521078381531942e+00	 1.092957329441093e-01	 4.331359326317492e+01
 1.518831235635048e+00	 1.370280178085645e-01	 1.852396024372480e+01
 1.516058502054693e+00	 1.648988124715960e-01	-6.065290752526057e+00
 1.512751331552235e+00	 1.928948130336742e-01	-3.048874842879990e+01
 1.508901261985667e+00	 2.210022207752603e-01	-5.478355186759922e+01
 1.504500247369134e+00	 2.492067528708361e-01	-7.898934244419067e+01
 1.499540686836884e+00	 2.774936549381459e-01	-1.031482001357586e+02
 1.537500000000000e+00	 0.000000000000000e+00	 1.493977920008512e+02
 1.537258015885981e+00	 2.727714417981218e-02	 1.230110110305726e+02
 1.536525142960601e+00	 5.474244286740368e-02	 9.703228958307507e+01
 1.535291189232917e+00	 8.238455113872650e-02	 7.141841953226600e+01
 1.533546237118513e+00	 1.101915996070258e-01	 4.612255942456321e+01
 1.531280671993095e+00	 1.381511982818314e-01	 2.109425474589937e+01
 1.528485211088482e+00	 1.662504420814835e-01	-3.720522469464679e+00
 1.525150932631292e+00	 1.944759180580968e-01	-2.837931377777748e+01
 1.521269305117696e+00	 2.228137143878751e-01	-5.294309339904390e+01
 1.516832216611136e+00	 2.512494311729607e-01	-7.747616552345404e+01
 1.511832003943683e+00	 2.797681930935394e-01	-1.020460392763762e+02
 1.550000000000000e+00	 0.000000000000000e+00	 1.548118856350962e+02
 1.549756048535470e+00	 2.749890957943656e-02	 1.277522214033654e+02
 1.549017217293655e+00	 5.518750337814550e-02	 1.011936881271956e+02
 1.547773231421895e+00	 8.305434423692513e-02	 7.507428513115249e+01
 1.546014092705009e+00	 1.110874662699424e-01	 4.932735535152754e+01
 1.543730108351024e+00	 1.392743787550982e-01	 2.388163380424013e+01
 1.540911920122102e+00	 1.676020716913709e-01	-1.338678326501078e+00
 1.537550533710115e+00	 1.960570230825194e-01	-2.641381290812675e+01
 1.533637348249418e+00	 2.246252080004899e-01	-5.142830645350442e+01
 1.529164185852748e+00	 2.532921094750853e-01	-7.647084330843659e+01
 1.524123321049998e+00	 2.820427312489329e-01	-1.016340698255288e+02
 1.562500000000000e+00	 0.000000000000000e+00	 1.612930467261888e+02
 1.562254081184955e+00	 2.772067497906093e-02	 1.333933264073887e+02
 1.561509291626691e+00	 5.563256388888735e-02	 1.060856582290507e+02
 1.560255273610832e+00	 8.372413733512374e-02	 7.928946145906460e+01
 1.558481948291430e+00	 1.119833329328590e-01	 5.291848726039797e+01
 1.556179544708835e+00	 1.403975592283651e-01	 2.688089512774714e+01
 1.553338629155550e+00	 1.689537013012584e-01	 1.079361164950615e+00
 1.549950134788705e+00	 1.976381281069421e-01	-2.458878056771185e+01
 1.546005391380833e+00	 2.264367016131047e-01	-5.023136258144432e+01
 1.541496155093968e+00	 2.553347877772099e-01	-7.596117350390109e+01
 1.536414638155826e+00	 2.843172694043264e-01	-1.018957120016895e+02
 1.575000000000000e+00	 0.000000000000000e+00	 1.688158684100344e+02
 1.574752113834436e+00	 2.794244037868531e-02	 1.399129011986695e+02
 1.574001365959708e+00	 5.607762439962918e-02	 1.116908082329213e+02
 1.572737315799726e+00	 8.439393043332238e-02	 8.405063615504375e+01
 1.570949803877776e+00	 1.128791995957756e-01	 5.688676285983959e+01
 1.568628981066530e+00	 1.415207397016319e-01	 3.008700167344534e+01
 1.565765338188829e+00	 1.703053309111458e-01	 3.532743535338753e+00
 1.562349735867061e+00	 1.992192331313647e-01	-2.290086143043692e+01
 1.558373434511941e+00	 2.282481952257195e-01	-4.934468178104626e+01
 1.553828124334798e+00	 2.573774660793345e-01	-7.593534112234947e+01
 1.548705955261170e+00	 2.865918075597200e-01	-1.028149123069402e+02
 1.587500000000000e+00	 0.000000000000000e+00	 1.773557441619127e+02
 1.587250146483912e+00	 2.816420577830969e-02	 1.472901958498094e+02
 1.586493440292707e+00	 5.652268491037100e-02	 1.179922943648405e+02
 1.585219357988580e+00	 8.506372353152102e-02	 8.934491625247718e+01
 1.583417659464048e+00	 1.137750662586921e-01	 6.122327948081465e+01
 1.581078417424106e+00	 1.426439201748988e-01	 3.349507514023958e+01
 1.578192047221937e+00	 1.716569605210333e-01	 6.020643252592397e+00
 1.574749336945184e+00	 2.008003381557873e-01	-2.134680576886961e+01
 1.570741477642742e+00	 2.300596888383343e-01	-4.876092271727202e+01
 1.566160093575237e+00	 2.594201443814592e-01	-7.638190323619366e+01
 1.560997272366028e+00	 2.888663457151135e-01	-1.043761228076888e+02
 1.600000000000000e+00	 0.000000000000000e+00	 1.868888365332206e+02
 1.599748179133383e+00	 2.838597117793407e-02	 1.555051089859865e+02
 1.598985514625687e+00	 5.696774542111284e-02	 1.249737993308291e+02
 1.597701400177391e+00	 8.573351662971965e-02	 9.515981179630833e+01
 1.595885515050245e+00	 1.146709329216086e-01	 6.591941276295279e+01
 1.593527853781565e+00	 1.437671006481656e-01	 3.710038976774390e+01
 1.590618756254874e+00	 1.730085901309208e-01	 8.542260669507385e+00
 1.587148938023073e+00	 2.023814431802099e-01	-1.992346532971084e+01
 1.583109520773236e+00	 2.318711824509491e-01	-4.847297339940395e+01
 1.578492062815286e+00	 2.614628226835838e-01	-7.728977444466935e+01
 1.573288589470401e+00	 2.911408838705071e-01	-1.065642813866029e+02
 1.612500000000000e+00	 0.000000000000000e+00	 1.973920473423202e+02
 1.612246211782850e+00	 2.860773657755843e-02	 1.645381626471903e+02
 1.611477588958649e+00	 5.741280593185468e-02	 1.326195119105575e+02
 1.610183442366161e+00	 8.640330972791826e-02	 1.014832202222364e+02
 1.608353370636367e+00	 1.155667995845252e-01	 7.096680586713634e+01
 1.605977290138907e+00	 1.448902811214324e-01	 4.089836642353877e+01
 1.603045465287642e+00	 1.743602197408082e-01	 1.109682102009193e+01
 1.599548539100729e+00	 2.039625482046325e-01	-1.862778940110298e+01
 1.595477563903424e+00	 2.336826760635639e-01	-4.847394229218816e+01
 1.590824032054943e+00	 2.635055009857084e-01	-7.864821301670429e+01
 1.585579906574289e+00	 2.934154220259006e-01	-1.093647929130556e+02
 1.625000000000000e+00	 0.000000000000000e+00	 2.088429892411949e+02
 1.624744244432312e+00	 2.882950197718282e-02	 1.743704783106613e+02
 1.623969663291593e+00	 5.785786644259652e-02	 1.409141074928448e+02
 1.622665484554890e+00	 8.707310282611692e-02	 1.083034114568770e+02
 1.620821226222414e+00	 1.164626662474418e-01	 7.635735918596788e+01
 1.618426726496131e+00	 1.460134615946994e-01	 4.488456696332311e+01
 1.615472174320238e+00	 1.757118493506957e-01	 1.368357346223515e+01
 1.611948140178151e+00	 2.055436532290552e-01	-1.745682106144521e+01
 1.607845607033305e+00	 2.354941696761788e-01	-4.875714983723218e+01
 1.603156001294210e+00	 2.655481792878331e-01	-8.044680767334849e+01
 1.597871223677692e+00	 2.956899601812942e-01	-1.127635112826281e+02
 1.474958052621828e+00	 2.729445786273588e-01	-1.074921781917221e+02
 1.469523396769290e+00	 3.008338184785218e-01	-9.605625809362972e+01
 1.463525825188096e+00	 3.287737200529772e-01	-8.466913298410233e+01
 1.456959343223164e+00	 3.567484718715391e-01	-7.335019371018890e+01
 1.449818504550261e+00	 3.847418665163292e-01	-6.211898335377192e+01
 1.442098437276991e+00	 4.127373222644202e-01	-5.099513348040625e+01
 1.433794869157430e+00	 4.407179065634715e-01	-3.999829781303514e+01
 1.424904151779575e+00	 4.686663613186522e-01	-2.914808363144902e+01
 1.415423283584646e+00	 4.965651299484973e-01	-1.846398122951081e+01
 1.405349931578255e+00	 5.243963861554752e-01	-7.965291791709282e+00
 1.394682451595397e+00	 5.521420643450261e-01	 2.328945921917198e+00
 1.487249369729599e+00	 2.752191167827523e-01	-1.049576802154965e+02
 1.481769425078744e+00	 3.033407669662652e-01	-9.351284720840221e+01
 1.475721873734670e+00	 3.315135010540273e-01	-8.218309771408242e+01
 1.469100671086833e+00	 3.597213758045253e-01	-7.097585223722749e+01
 1.461900325424960e+00	 3.879480487380636e-01	-5.989813371744122e+01
 1.454115924257551e+00	 4.161767999506894e-01	-4.895653471192600e+01
 1.445743159736630e+00	 4.443905557854587e-01	-3.815718587595919e+01
 1.436778353046758e+00	 4.725719143300821e-01	-2.750572599246936e+01
 1.427218477616163e+00	 5.007031726982478e-01	-1.700727380008984e+01
 1.417061181008836e+00	 5.287663560399447e-01	-6.666401864556278e+00
 1.406304805358394e+00	 5.567432482139901e-01	 3.512887268863112e+00
 1.499540686836884e+00	 2.774936549381459e-01	-1.031482001357586e+02
 1.494015453387626e+00	 3.058477154540085e-01	-9.159768221073210e+01
 1.487917922280615e+00	 3.342532820550773e-01	-8.022735294944883e+01
 1.481241998949843e+00	 3.626942797375113e-01	-6.903280831847087e+01
 1.473982146299001e+00	 3.911542309597980e-01	-5.800870317799562e+01
 1.466133411237483e+00	 4.196162776369589e-01	-4.714874909263122e+01
 1.457691450315262e+00	 4.480632050074460e-01	-3.644571727432185e+01
 1.448652554313463e+00	 4.764774673415118e-01	-2.589144685958157e+01
 1.439013671647323e+00	 5.048412154479985e-01	-1.547685868848458e+01
 1.428772430439212e+00	 5.331363259244142e-01	-5.191974714622150e+00
 1.417927159121370e+00	 5.613444320829541e-01	 4.974056866276904e+00
 1.511832003943683e+00	 2.797681930935394e-01	-1.020460392763762e+02
 1.506261481695937e+00	 3.083546639417515e-01	-9.029542331834288e+01
 1.500113970825930e+00	 3.369930630561272e-01	-7.878894671153706e+01
 1.493383326812194e+00	 3.656671836704973e-01	-6.751052313371605e+01
 1.486063967172383e+00	 3.943604131815324e-01	-5.644258772084729e+01
 1.478150898216786e+00	 4.230557553232283e-01	-4.556612520767288e+01
 1.469639740893325e+00	 4.517358542294331e-01	-3.486070699716761e+01
 1.460526755579689e+00	 4.803830203529415e-01	-2.430453731229571e+01
 1.450808865678127e+00	 5.089792581977491e-01	-1.387450851628679e+01
 1.440483679869384e+00	 5.375062958088838e-01	-3.546265615994580e+00
 1.429549512884325e+00	 5.659456159519182e-01	 6.705720112624903e+00
 1.524123321049998e+00	 2.820427312489329e-01	-1.016340698255288e+02
 1.518507510003678e+00	 3.108616124294948e-01	-8.959122552829153e+01
 1.512310019370616e+00	 3.397328440571772e-01	-7.785534478370529e+01
 1.505524654673888e+00	 3.686400876034834e-01	-6.639879778978766e+01
 1.498145788045108e+00	 3.975665954032666e-01	-5.519194472533352e+01
 1.490168385195461e+00	 4.264952330094976e-01	-4.420319392918177e+01
 1.481588031470819e+00	 4.554085034514203e-01	-3.339907276841406e+01
 1.472400956845438e+00	 4.842885733643713e-01	-2.274431130052499e+01
 1.462604059708573e+00	 5.131173009474997e-01	-1.220193873524210e+01
 1.452194929299351e+00	 5.418762656933532e-01	-1.733392596898040e+00
 1.441171866647260e+00	 5.705467998208821e-01	 8.701359620970239e+00
 1.536414638155826e+00	 2.843172694043264e-01	-1.018957120016895e+02
 1.530753538310847e+00	 3.133685609172381e-01	-8.947071882638232e+01
 1.524506067914674e+00	 3.424726250582273e-01	-7.741441400146921e+01
 1.517665982534923e+00	 3.716129915364694e-01	-6.568775972409613e+01
 1.510227608917174e+00	 4.007727776250010e-01	-5.424918250961771e+01
 1.502185872173508e+00	 4.299347106957671e-01	-4.305466112546147e+01
 1.493536322047746e+00	 4.590811526734075e-01	-3.205783093813830e+01
 1.484275158110709e+00	 4.881941263758013e-01	-2.121010473045552e+01
 1.474399253738662e+00	 5.172553436972505e-01	-1.046080991472949e+01
 1.463906178729113e+00	 5.462462355778226e-01	 2.426580697912728e-01
 1.452794220410174e+00	 5.751479836898462e-01	 1.095466652971694e+01
 1.548705955261170e+00	 2.865918075597200e-01	-1.028149123069402e+02
 1.542999566617443e+00	 3.158755094049813e-01	-8.991998933898942e+01
 1.536702116458102e+00	 3.452124060592773e-01	-7.745440633834362e+01
 1.529807310395300e+00	 3.745858954694554e-01	-6.536784975564424e+01
 1.522309429788582e+00	 4.039789598467353e-01	-5.360695037345131e+01
 1.514203359150925e+00	 4.333741883820365e-01	-4.211540071736076e+01
 1.505484612624103e+00	 4.627538018953948e-01	-3.083409256951491e+01
 1.496149359375500e+00	 4.920996793872311e-01	-1.970127459394405e+01
 1.486194447768395e+00	 5.213933864470012e-01	-8.652729920311145e+00
 1.475617428158671e+00	 5.506162054622920e-01	 2.378026637484689e+00
 1.464416574173068e+00	 5.797491675588102e-01	 1.345953222713039e+01
 1.560997272366028e+00	 2.888663457151135e-01	-1.043761228076888e+02
 1.555245594923469e+00	 3.183824578927246e-01	-9.092556137534297e+01
 1.548898165000901e+00	 3.479521870603273e-01	-7.796394374353297e+01
 1.541948638255018e+00	 3.775587994024414e-01	-6.542980974779620e+01
 1.534391250659332e+00	 4.071851420684697e-01	-5.325812911135445e+01
 1.526220846127715e+00	 4.368136660683060e-01	-4.138044806269065e+01
 1.517432903199891e+00	 4.664264511173821e-01	-2.972505971062083e+01
 1.508023560639813e+00	 4.960052323986609e-01	-1.821719813904484e+01
 1.497989641797769e+00	 5.255314291967518e-01	-6.779255989356855e+00
 1.487328677588024e+00	 5.549861753467614e-01	 4.668974903865193e+00
 1.476038927935941e+00	 5.843503514277741e-01	 1.621004046682768e+01
 1.573288589470401e+00	 2.911408838705071e-01	-1.065642813866029e+02
 1.567491623228924e+00	 3.208894063804678e-01	-9.247438031158228e+01
 1.561094213543070e+00	 3.506919680613774e-01	-7.893200369035468e+01
 1.554089966114079e+00	 3.805317033354274e-01	-6.586467084935306e+01
 1.546473071529424e+00	 4.103913242902040e-01	-5.319582197049043e+01
 1.538238333103876e+00	 4.402531437545753e-01	-4.084499365074451e+01
 1.529381193775111e+00	 4.700991003393692e-01	-2.872802184099820e+01
 1.519897761903649e+00	 4.999107854100907e-01	-1.675727207941677e+01
 1.509784835826787e+00	 5.296694719465024e-01	-4.841896709371944e+00
 1.499039927017173e+00	 5.593561452312309e-01	 7.111881462405505e+00
 1.487661281698794e+00	 5.889515352967382e-01	 1.920045985285650e+01
 1.585579906574289e+00	 2.934154220259006e-01	-1.093647929130556e+02
 1.579737651533808e+00	 3.233963548682111e-01	-9.455379627089887e+01
 1.573290262084611e+00	 3.534317490624274e-01	-8.034790539682682e+01
 1.566231293972480e+00	 3.835046072684134e-01	-6.666374228255359e+01
 1.558554892398857e+00	 4.135975065119385e-01	-5.341334602910251e+01
 1.550255820079409e+00	 4.436926214408446e-01	-4.050437709009546e+01
 1.541329484349762e+00	 4.737717495613564e-01	-2.784035248349164e+01
 1.531771963167006e+00	 5.038163384215205e-01	-1.532091184049956e+01
 1.521580029855448e+00	 5.338075146962531e-01	-2.842113904307320e+00
 1.510751176446117e+00	 5.637261151157004e-01	 9.703237174747580e+00
 1.499283635461626e+00	 5.935527191657022e-01	 2.242523667430720e+01
 1.597871223677692e+00	 2.956899601812942e-01	-1.127635112826281e+02
 1.591983679838119e+00	 3.259033033559543e-01	-9.715154855690271e+01
 1.585486310625523e+00	 3.561715300634776e-01	-8.220129668222856e+01
 1.578372621830225e+00	 3.864775112013996e-01	-6.781860064855098e+01
 1.570636713267633e+00	 4.168036887336729e-01	-5.390422397286794e+01
 1.562273307054313e+00	 4.471320991271141e-01	-4.035408137387849e+01
 1.553277774923845e+00	 4.774443987833438e-01	-2.705950597246042e+01
 1.543646164429884e+00	 5.077218914329503e-01	-1.390755084048050e+01
 1.533375223883753e+00	 5.379455574460040e-01	-7.813244338078822e-01
 1.522462425874856e+00	 5.680960850001699e-01	 1.243964085205165e+01
 1.510905989224438e+00	 5.981539030346663e-01	 2.587898807063752e+01
 1.394682451595397e+00	 5.521420643450261e-01	 2.328945921917198e+00
 1.383419906984210e+00	 5.797838916139538e-01	 1.739115461580898e+00
 1.371562085578352e+00	 6.073034212204445e-01	 1.252992141377597e+00
 1.359109514832477e+00	 6.346820674319068e-01	 8.817869860879473e-01
 1.346063475001740e+00	 6.619011416355681e-01	 6.367395869040635e-01
 1.332426010254849e+00	 6.889418895898038e-01	 5.290740917905481e-01
 1.318199937618296e+00	 7.157855296803712e-01	 5.699538940208386e-01
 1.303388853659439e+00	 7.424132920367565e-01	 7.704352747562941e-01
 1.287997138826982e+00	 7.688064583548604e-01	 1.141420272948680e+00
 1.272029959379205e+00	 7.949464022641402e-01	 1.693609071121252e+00
 1.255493266842989e+00	 8.208146300702533e-01	 2.437452198433173e+00
 1.406304805358394e+00	 5.567432482139901e-01	 3.512887268863112e+00
 1.394948406207697e+00	 5.846154240430896e-01	 2.916141656314313e+00
 1.382991769622504e+00	 6.123642830626772e-01	 2.461733663116568e+00
 1.370435427452928e+00	 6.399710846590581e-01	 2.154788285097270e+00
 1.357280670622920e+00	 6.674169844810206e-01	 2.000221560017488e+00
 1.343529560335928e+00	 6.946830720015954e-01	 2.002717449180274e+00
 1.329184937093667e+00	 7.217504090930887e-01	 2.166705101140168e+00
 1.314250427434890e+00	 7.486000694693998e-01	 2.496336652171639e+00
 1.298730448312043e+00	 7.752131788405625e-01	 2.995465719290000e+00
 1.282630209035559e+00	 8.015709556162806e-01	 3.667626741246938e+00
 1.265955710728375e+00	 8.276547519880928e-01	 4.516015321001796e+00
 1.417927159121370e+00	 5.613444320829541e-01	 4.974056866276904e+00
 1.406476905431348e+00	 5.894469564722256e-01	 4.326362063096436e+00
 1.394421453666978e+00	 6.174251449049096e-01	 3.859014364366827e+00
 1.381761340073830e+00	 6.452601018862087e-01	 3.571127266446030e+00
 1.368497866244649e+00	 6.729328273264731e-01	 3.461370452641857e+00
 1.354633110417626e+00	 7.004242544133872e-01	 3.527967353755932e+00
 1.340169936569694e+00	 7.277152885058061e-01	 3.768694757799282e+00
 1.325112001211006e+00	 7.547868469020427e-01	 4.180884523285980e+00
 1.309463757797747e+00	 7.816198993262644e-01	 4.761427435515069e+00
 1.293230458692502e+00	 8.081955089684213e-01	 5.506779229396551e+00
 1.276418154614268e+00	 8.344948739059324e-01	 6.412968785812732e+00
 1.429549512884325e+00	 5.659456159519182e-01	 6.705720112624903e+00
 1.418005404655163e+00	 5.942784889013609e-01	 5.964116969417365e+00
 1.405851137711774e+00	 6.224860067471424e-01	 5.440264514444216e+00
 1.393087252695183e+00	 6.505491191133597e-01	 5.127337456458857e+00
 1.379715061866928e+00	 6.784486701719254e-01	 5.017834440708540e+00
 1.365736660499942e+00	 7.061654368251790e-01	 5.103596081279406e+00
 1.351154936046379e+00	 7.336801679185235e-01	 5.375826693236267e+00
 1.335973574987789e+00	 7.609736243346858e-01	 5.825119679647959e+00
 1.320197067284093e+00	 7.880266198119669e-01	 6.441486497610067e+00
 1.303830708350034e+00	 8.148200623205618e-01	 7.214389096176336e+00
 1.286880598500666e+00	 8.413349958237717e-01	 8.132775688052147e+00
 1.441171866647260e+00	 5.705467998208821e-01	 8.701359620970239e+00
 1.429533903879145e+00	 5.991100213304970e-01	 7.823929193951844e+00
 1.417280821756893e+00	 6.275468685893746e-01	 7.201061743601995e+00
 1.404413165316985e+00	 6.558381363405106e-01	 6.820064143973603e+00
 1.390932257489756e+00	 6.839645130173780e-01	 6.667337496817217e+00
 1.376840210582875e+00	 7.119066192369704e-01	 6.728415433596984e+00
 1.362139935523721e+00	 7.396450473312408e-01	 6.988007751880831e+00
 1.346835148765235e+00	 7.671604017673291e-01	 7.430049242784741e+00
 1.330930376771083e+00	 7.944333402976689e-01	 8.037753519341102e+00
 1.314430958008157e+00	 8.214446156727025e-01	 8.793671609261629e+00
 1.297343042387568e+00	 8.481751177416111e-01	 9.679755030136327e+00
 1.452794220410174e+00	 5.751479836898462e-01	 1.095466652971694e+01
 1.441062403103291e+00	 6.039415537596327e-01	 9.900496784654043e+00
 1.428710505802334e+00	 6.326077304316072e-01	 9.137125147952460e+00
 1.415739077939239e+00	 6.611271535676618e-01	 8.646059909222510e+00
 1.402149453113134e+00	 6.894803558628307e-01	 8.407676357775093e+00
 1.387943760666427e+00	 7.176478016487620e-01	 8.401275157030392e+00
 1.373124935001719e+00	 7.456099267439583e-01	 8.605147672214297e+00
 1.357696722543348e+00	 7.733471791999721e-01	 8.996648010503957e+00
 1.341663686258716e+00	 8.008400607833710e-01	 9.552271470281536e+00
 1.325031207666869e+00	 8.280691690248431e-01	 1.024773903469288e+01
 1.307805486274977e+00	 8.550152396594507e-01	 1.105808748504395e+01
 1.464416574173068e+00	 5.797491675588102e-01	 1.345953222713039e+01
 1.452590902327603e+00	 6.087730861887682e-01	 1.218868606456315e+01
 1.440140189848097e+00	 6.376685922738400e-01	 1.124430967510918e+01
 1.427064990561943e+00	 6.664161707948125e-01	 1.060218036562451e+01
 1.413366648737060e+00	 6.949961987082831e-01	 1.023671763654179e+01
 1.399047310750597e+00	 7.233889840605537e-01	 1.012106143608552e+01
 1.384109934480375e+00	 7.515748061566756e-01	 1.022715897139902e+01
 1.368558296322125e+00	 7.795339566326149e-01	 1.052585973908919e+01
 1.352396995746991e+00	 8.072467812690729e-01	 1.098701835965088e+01
 1.335631457326171e+00	 8.346937223769836e-01	 1.157960472382661e+01
 1.318267930162891e+00	 8.618553615772905e-01	 1.227182088520550e+01
 1.476038927935941e+00	 5.843503514277741e-01	 1.621004046682768e+01
 1.464119401552080e+00	 6.136046186179041e-01	 1.468352500615723e+01
 1.451569873894183e+00	 6.427294541160723e-01	 1.351860077507707e+01
 1.438390903185097e+00	 6.717051880219633e-01	 1.268538010275640e+01
 1.424583844361535e+00	 7.005120415537357e-01	 1.215239507061965e+01
 1.410150860835385e+00	 7.291301664723454e-01	 1.188669545832697e+01
 1.395094933959687e+00	 7.575396855693931e-01	 1.185395683536141e+01
 1.379419870101568e+00	 7.857207340652584e-01	 1.201859836492180e+01
 1.363130305235910e+00	 8.136535017547750e-01	 1.234390979335983e+01
 1.346231706986062e+00	 8.413182757291240e-01	 1.279218700720486e+01
 1.328730374051309e+00	 8.686954834951300e-01	 1.332487545207825e+01
 1.487661281698794e+00	 5.889515352967382e-01	 1.920045985285650e+01
 1.475647900776722e+00	 6.184361510470401e-01	 1.738019691628572e+01
 1.462999557940591e+00	 6.477903159583051e-01	 1.595610930188329e+01
 1.449716815808702e+00	 6.769942052491146e-01	 1.489270881949925e+01
 1.435801039986560e+00	 7.060278843991882e-01	 1.415270689942927e+01
 1.421254410920791e+00	 7.348713488841370e-01	 1.369713204652632e+01
 1.406079933439656e+00	 7.635045649821103e-01	 1.348545901403137e+01
 1.390281443881676e+00	 7.919075114979012e-01	 1.347574916884162e+01
 1.373863614725471e+00	 8.200602222404771e-01	 1.362480141119778e+01
 1.356831956646543e+00	 8.479428290812646e-01	 1.388831290590299e+01
 1.339192817940233e+00	 8.755356054129694e-01	 1.422104878058712e+01
 1.499283635461626e+00	 5.935527191657022e-01	 2.242523667430720e+01
 1.487176400001530e+00	 6.232676834761757e-01	 2.027403441482815e+01
 1.474429241987322e+00	 6.528511778005376e-01	 1.855306665234586e+01
 1.461042728432757e+00	 6.822832224762654e-01	 1.722130763704082e+01
 1.447018235612134e+00	 7.115437272446408e-01	 1.623571336366901e+01
 1.432357961006815e+00	 7.406125312959287e-01	 1.555135835443480e+01
 1.417064932920283e+00	 7.694694443948278e-01	 1.512158572145431e+01
 1.401143017662449e+00	 7.980942889305445e-01	 1.489816988635387e+01
 1.384596924215675e+00	 8.264669427261790e-01	 1.483149121066424e+01
 1.367432206307614e+00	 8.545673824334052e-01	 1.487072167025765e+01
 1.349655261829663e+00	 8.823757273308089e-01	 1.496402059173385e+01
 1.510905989224438e+00	 5.981539030346663e-01	 2.587898807063752e+01
 1.498704899226502e+00	 6.280992159053116e-01	 2.336051369126397e+01
 1.485858926034374e+00	 6.579120396427700e-01	 2.130582012920704e+01
 1.472368641057263e+00	 6.875722397034166e-01	 1.966840558204987e+01
 1.458235431238258e+00	 7.170595700900936e-01	 1.839953432009230e+01
 1.443461511093458e+00	 7.463537137077204e-01	 1.744839262275284e+01
 1.428049932401566e+00	 7.754343238075454e-01	 1.676225954051813e+01
 1.412004591443889e+00	 8.042810663631879e-01	 1.628669176659899e+01
 1.395330233706523e+00	 8.328736632118814e-01	 1.596572176354985e+01
 1.378032455969274e+00	 8.611919357855460e-01	 1.574206815527205e+01
 1.360117705719598e+00	 8.892158492486488e-01	 1.555735726585709e+01
 1.255493266842989e+00	 8.208146300702533e-01	 2.437452198433173e+00
 1.238393794960052e+00	 8.463928216988620e-01	 4.525935043367542e+00
 1.220739054091186e+00	 8.716628716590645e-01	 6.841491925441772e+00
 1.202537323063470e+00	 8.966069298445739e-01	 9.379209037247907e+00
 1.183797638460694e+00	 9.212074419883817e-01	 1.213340712317964e+01
 1.164529781372711e+00	 9.454471895829715e-01	 1.509765423129995e+01
 1.144744261634678e+00	 9.693093290812137e-01	 1.826478248443590e+01
 1.124452299602615e+00	 9.927774301945512e-01	 2.162690881358976e+01
 1.103665805527006e+00	 1.015835513108607e+00	 2.517545956330908e+01
 1.082397356601088e+00	 1.038468084441313e+00	 2.890119884568508e+01
 1.060660171775000e+00	 1.060660171775000e+00	 3.279426048754382e+01
 1.265955710728375e+00	 8.276547519880928e-01	 4.516015321001796e+00
 1.248713743246684e+00	 8.534460952142418e-01	 6.638330226334179e+00
 1.230911879537568e+00	 8.789267289246001e-01	 8.971856997159030e+00
 1.212558467418335e+00	 9.040786542619943e-01	 1.151532771029623e+01
 1.193662618777638e+00	 9.288841706738568e-01	 1.426677308708353e+01
 1.174234196214413e+00	 9.533259161651070e-01	 1.722351992137897e+01
 1.154283797145776e+00	 9.773869068257236e-01	 2.038219211125601e+01
 1.133822735430714e+00	 1.001050575448077e+00	 2.373871533925954e+01
 1.112863020571797e+00	 1.024300809052669e+00	 2.728832541645749e+01
 1.091417334572207e+00	 1.047121985145915e+00	 3.102558027530689e+01
 1.069499006540000e+00	 1.069499006540000e+00	 3.494437556593184e+01
 1.276418154614268e+00	 8.344948739059324e-01	 6.412968785812732e+00
 1.259033691533726e+00	 8.604993687296211e-01	 8.593271555748418e+00
 1.241084704984276e+00	 8.861905861901355e-01	 1.096909954902055e+01
 1.222579611773449e+00	 9.115503786794145e-01	 1.354278529007922e+01
 1.203527599094765e+00	 9.365608993593316e-01	 1.631602334386106e+01
 1.183938611056242e+00	 9.612046427472428e-01	 1.928985257768111e+01
 1.163823332656955e+00	 9.854644845702333e-01	 2.246464161552025e+01
 1.143193171258858e+00	 1.009323720701601e+00	 2.584007763037582e+01
 1.122060235616609e+00	 1.032766104996730e+00	 2.941515859449509e+01
 1.100437312543332e+00	 1.055775885850517e+00	 3.318818907982097e+01
 1.078337841305000e+00	 1.078337841305000e+00	 3.715677967222467e+01
 1.286880598500666e+00	 8.413349958237717e-01	 8.132775688052147e+00
 1.269353639821178e+00	 8.675526422450008e-01	 1.039463333927017e+01
 1.251257530431308e+00	 8.934544434556709e-01	 1.283650077428993e+01
 1.232600756128812e+00	 9.190221030968349e-01	 1.546426663820895e+01
 1.213392579412076e+00	 9.442376280448065e-01	 1.828324433291045e+01
 1.193643025898199e+00	 9.690833693293788e-01	 2.129813926674877e+01
 1.173362868168216e+00	 9.935420623147427e-01	 2.451301888945420e+01
 1.152563607087049e+00	 1.017596865955126e+00	 2.793128575779368e+01
 1.131257450661441e+00	 1.041231400940791e+00	 3.155565385538839e+01
 1.109457290514461e+00	 1.064429786555119e+00	 3.538812836532860e+01
 1.087176676070000e+00	 1.087176676070000e+00	 3.942998906709850e+01
 1.297343042387568e+00	 8.481751177416111e-01	 9.679755030136327e+00
 1.279673588109040e+00	 8.746059157603802e-01	 1.204616477678114e+01
 1.261430355878664e+00	 9.007183007212065e-01	 1.457723588328871e+01
 1.242621900484424e+00	 9.264938275142550e-01	 1.728236986226009e+01
 1.223257559729569e+00	 9.519143567302811e-01	 2.017045503624276e+01
 1.203347440740282e+00	 9.769620959115145e-01	 2.324981892537522e+01
 1.182902403679558e+00	 1.001619640059252e+00	 2.652818301711036e+01
 1.161934042915285e+00	 1.025870011208651e+00	 3.001262026248379e+01
 1.140454665706294e+00	 1.049696696884853e+00	 3.370951562496150e+01
 1.118477268485596e+00	 1.073083687259721e+00	 3.762452998581812e+01
 1.096015510835000e+00	 1.096015510835000e+00	 4.176256768449829e+01
 1.307805486274977e+00	 8.550152396594507e-01	 1.105808748504395e+01
 1.289993536397313e+00	 8.816591892757599e-01	 1.355149496436115e+01
 1.271603181326345e+00	 9.079821579867418e-01	 1.619437834242371e+01
 1.252643044840285e+00	 9.339655519316756e-01	 1.899960978568908e+01
 1.233122540047246e+00	 9.595910854157564e-01	 2.197960967658083e+01
 1.213051855582494e+00	 9.848408224936503e-01	 2.514628428564833e+01
 1.192441939190983e+00	 1.009697217803762e+00	 2.851096542659580e+01
 1.171304478743568e+00	 1.034143156462176e+00	 3.208435253667768e+01
 1.149651880751167e+00	 1.058161992828914e+00	 3.587645761017996e+01
 1.127497246456736e+00	 1.081737587964323e+00	 3.989655339329585e+01
 1.104854345600000e+00	 1.104854345600000e+00	 4.415312522479991e+01
 1.318267930162891e+00	 8.618553615772905e-01	 1.227182088520550e+01
 1.300313484685995e+00	 8.887124627911391e-01	 1.491413765998184e+01
 1.281776006774351e+00	 9.152460152522772e-01	 1.769090391135919e+01
 1.262664189196394e+00	 9.414372763490958e-01	 2.061842125251978e+01
 1.242987520365106e+00	 9.672678141012309e-01	 2.371260028698059e+01
 1.222756270424832e+00	 9.927195490757862e-01	 2.698888370832453e+01
 1.201981474702488e+00	 1.017774795548272e+00	 3.046217098743436e+01
 1.180674914571895e+00	 1.042416301715701e+00	 3.414674518686346e+01
 1.158849095796060e+00	 1.066627288772976e+00	 3.805620243084888e+01
 1.136517224427881e+00	 1.090391488668925e+00	 4.220338454267129e+01
 1.113693180365000e+00	 1.113693180365000e+00	 4.660031533877361e+01
 1.328730374051309e+00	 8.686954834951300e-01	 1.332487545207825e+01
 1.310633432975088e+00	 8.957657363065190e-01	 1.613749582405158e+01
 1.291948832222681e+00	 9.225098725178128e-01	 1.906969448945822e+01
 1.272685333552753e+00	 9.489090007665163e-01	 2.214116227590558e+01
 1.252852500683149e+00	 9.749445427867061e-01	 2.537125915905417e+01
 1.232460685267298e+00	 1.000598275657922e+00	 2.877892292959107e+01
 1.211521010214075e+00	 1.025852373292782e+00	 3.238257905608420e+01
 1.190045350400269e+00	 1.050689446969226e+00	 3.620005237963496e+01
 1.168046310840973e+00	 1.075092584717037e+00	 4.024848126871547e+01
 1.145537202399030e+00	 1.099045389373528e+00	 4.454423484838276e+01
 1.122532015130000e+00	 1.122532015130000e+00	 4.910283389734651e+01
 1.339192817940233e+00	 8.755356054129694e-01	 1.422104878058712e+01
 1.320953381264590e+00	 9.028190098218986e-01	 1.722486594712576e+01
 1.302121657671336e+00	 9.297737297833478e-01	 2.033354178192468e+01
 1.282706477909361e+00	 9.563807251839367e-01	 2.357011703910393e+01
 1.262717481001375e+00	 9.826212714721810e-01	 2.695736117643605e+01
 1.242165100109891e+00	 1.008477002240058e+00	 3.051766672595011e+01
 1.221060545725744e+00	 1.033929951037291e+00	 3.427294447245280e+01
 1.199415786228689e+00	 1.058962592222751e+00	 3.824452017133080e+01
 1.177243525885908e+00	 1.083557880661099e+00	 4.245303353301991e+01
 1.154557180370186e+00	 1.107699290078130e+00	 4.691834018993418e+01
 1.131370849895000e+00	 1.131370849895000e+00	 5.165941734247114e+01
 1.349655261829663e+00	 8.823757273308089e-01	 1.496402059173385e+01
 1.331273329554503e+00	 9.098722833372782e-01	 1.817944217632990e+01
 1.312294483120316e+00	 9.370375870488835e-01	 2.148515079542990e+01
 1.292727622266217e+00	 9.638524496013569e-01	 2.490749875687414e+01
 1.272582461319784e+00	 9.902980001576561e-01	 2.847262603971721e+01
 1.251869514952611e+00	 1.016355728822194e+00	 3.220634050166797e+01
 1.230600081237495e+00	 1.042007528781801e+00	 3.613399851006127e+01
 1.208786222057155e+00	 1.067235737476276e+00	 4.028038682234205e+01
 1.186440740930863e+00	 1.092023176605160e+00	 4.466960654160420e+01
 1.163577158341345e+00	 1.116353190782732e+00	 4.932495996368485e+01
 1.140209684660000e+00	 1.140209684660000e+00	 5.426884111469961e+01
 1.360117705719598e+00	 8.892158492486488e-01	 1.555735726585709e+01
 1.341593277844827e+00	 9.169255568526578e-01	 1.900432025133596e+01
 1.322467308569620e+00	 9.443014443144191e-01	 2.252714317240401e+01
 1.302748766623323e+00	 9.713241740187775e-01	 2.615545240481218e+01
 1.282447441638377e+00	 9.979747288431313e-01	 2.991872038869224e+01
 1.261573929795459e+00	 1.024234455404330e+00	 3.384613180296070e+01
 1.240139616749326e+00	 1.050085106526311e+00	 3.796644978235766e+01
 1.218156657885667e+00	 1.075508882729801e+00	 4.230788309691818e+01
 1.195637955975838e+00	 1.100488472549222e+00	 4.689795521673973e+01
 1.172597136312511e+00	 1.125007091487334e+00	 5.176337617840542e+01
 1.149048519425000e+00	 1.149048519425000e+00	 5.692991815333063e+01
 1.060660171775000e+00	 1.060660171775000e+00	 3.279426048754382e+01
 1.038468084441312e+00	 1.082397356601088e+00	 3.599831655249634e+01
 1.015835513108607e+00	 1.103665805527006e+00	 3.890151492256597e+01
 9.927774301945514e-01	 1.124452299602615e+00	 4.146564946093581e+01
 9.693093290812139e-01	 1.144744261634678e+00	 4.365392040130261e+01
 9.454471895829717e-01	 1.164529781372711e+00	 4.543108270417633e+01
 9.212074419883821e-01	 1.183797638460694e+00	 4.676358547387134e+01
 8.966069298445744e-01	 1.202537323063470e+00	 4.761970156418375e+01
 8.716628716590653e-01	 1.220739054091185e+00	 4.796964658897092e+01
 8.463928216988629e-01	 1.238393794960052e+00	 4.778568664917999e+01
 8.208146300702533e-01	 1.255493266842989e+00	 4.704223418903112e+01
 1.069499006540000e+00	 1.069499006540000e+00	 3.494437556593184e+01
 1.047121985145914e+00	 1.091417334572208e+00	 3.798145834652869e+01
 1.024300809052668e+00	 1.112863020571797e+00	 4.072055766388634e+01
 1.001050575448077e+00	 1.133822735430714e+00	 4.312393569207221e+01
 9.773869068257237e-01	 1.154283797145776e+00	 4.515526242280553e+01
 9.533259161651076e-01	 1.174234196214413e+00	 4.677976219188383e+01
 9.288841706738570e-01	 1.193662618777638e+00	 4.796435125995021e+01
 9.040786542619949e-01	 1.212558467418335e+00	 4.867776558767210e+01
 8.789267289246008e-01	 1.230911879537568e+00	 4.889067803356895e+01
 8.534460952142426e-01	 1.248713743246684e+00	 4.857580429782913e+01
 8.276547519880928e-01	 1.265955710728375e+00	 4.770799703632118e+01
 1.078337841305000e+00	 1.078337841305000e+00	 3.715677967222467e+01
 1.055775885850517e+00	 1.100437312543332e+00	 4.003114212813493e+01
 1.032766104996730e+00	 1.122060235616609e+00	 4.261039689602743e+01
 1.009323720701601e+00	 1.143193171258858e+00	 4.485726632215042e+01
 9.854644845702336e-01	 1.163823332656955e+00	 4.673588204804290e+01
 9.612046427472433e-01	 1.183938611056242e+00	 4.821192973576779e+01
 9.365608993593318e-01	 1.203527599094765e+00	 4.925278484072459e+01
 9.115503786794150e-01	 1.222579611773449e+00	 4.982763858403122e+01
 8.861905861901361e-01	 1.241084704984275e+00	 4.990761336454661e+01
 8.604993687296220e-01	 1.259033691533725e+00	 4.946586694553054e+01
 8.344948739059326e-01	 1.276418154614268e+00	 4.847768485146609e+01
 1.087176676070000e+00	 1.087176676070000e+00	 3.942998906709850e+01
 1.064429786555119e+00	 1.109457290514461e+00	 4.214578042075136e+01
 1.041231400940791e+00	 1.131257450661441e+00	 4.456934133871822e+01
 1.017596865955126e+00	 1.152563607087049e+00	 4.666384640107984e+01
 9.935420623147430e-01	 1.173362868168216e+00	 4.839388099060022e+01
 9.690833693293790e-01	 1.193643025898198e+00	 4.972558424473145e+01
 9.442376280448070e-01	 1.213392579412075e+00	 5.062678304804457e+01
 9.190221030968353e-01	 1.232600756128811e+00	 5.106711622882964e+01
 8.934544434556715e-01	 1.251257530431307e+00	 5.101814821160407e+01
 8.675526422450017e-01	 1.269353639821178e+00	 5.045347147201189e+01
 8.413349958237718e-01	 1.286880598500666e+00	 4.934879724083559e+01
 1.096015510835000e+00	 1.096015510835000e+00	 4.176256768449829e+01
 1.073083687259721e+00	 1.118477268485596e+00	 4.432383676274044e+01
 1.049696696884853e+00	 1.140454665706294e+00	 4.659575407083378e+01
 1.025870011208651e+00	 1.161934042915285e+00	 4.854193867824867e+01
 1.001619640059253e+00	 1.182902403679558e+00	 5.012742199355514e+01
 9.769620959115149e-01	 1.203347440740282e+00	 5.131878897047655e+01
 9.519143567302818e-01	 1.223257559729569e+00	 5.208431034684470e+01
 9.264938275142555e-01	 1.242621900484423e+00	 5.239406509176439e+01
 9.007183007212070e-01	 1.261430355878663e+00	 5.222005232424935e+01
 8.746059157603812e-01	 1.279673588109040e+00	 5.153629206114910e+01
 8.481751177416113e-01	 1.297343042387569e+00	 5.031891425212203e+01
 1.104854345600000e+00	 1.104854345600000e+00	 4.415312522479991e+01
 1.081737587964323e+00	 1.127497246456736e+00	 4.656382366693147e+01
 1.058161992828914e+00	 1.149651880751166e+00	 4.868805035621327e+01
 1.034143156462176e+00	 1.171304478743567e+00	 5.048986129477107e+01
 1.009697217803762e+00	 1.192441939190982e+00	 5.193472638856176e+01
 9.848408224936508e-01	 1.213051855582493e+00	 5.298966893409875e+01
 9.595910854157568e-01	 1.233122540047245e+00	 5.362339613016814e+01
 9.339655519316761e-01	 1.252643044840284e+00	 5.380641980127302e+01
 9.079821579867426e-01	 1.271603181326344e+00	 5.351116660741894e+01
 8.816591892757606e-01	 1.289993536397312e+00	 5.271207710924415e+01
 8.550152396594509e-01	 1.307805486274977e+00	 5.138569315715439e+01
 1.113693180365000e+00	 1.113693180365000e+00	 4.660031533877361e+01
 1.090391488668925e+00	 1.136517224427881e+00	 4.886430067732625e+01
 1.066627288772976e+00	 1.158849095796060e+00	 5.084469557300910e+01
 1.042416301715701e+00	 1.180674914571895e+00	 5.250598558562554e+01
 1.017774795548272e+00	 1.201981474702488e+00	 5.381407177117628e+01
 9.927195490757867e-01	 1.222756270424832e+00	 5.473640847522503e+01
 9.672678141012316e-01	 1.242987520365105e+00	 5.524213214299216e+01
 9.414372763490964e-01	 1.262664189196394e+00	 5.530218034416693e+01
 9.152460152522779e-01	 1.281776006774350e+00	 5.488940029825845e+01
 8.887124627911401e-01	 1.300313484685995e+00	 5.397864628052559e+01
 8.618553615772904e-01	 1.318267930162891e+00	 5.254686538791702e+01
 1.122532015130000e+00	 1.122532015130000e+00	 4.910283389734651e+01
 1.099045389373527e+00	 1.145537202399030e+00	 5.122387251761636e+01
 1.075092584717037e+00	 1.168046310840974e+00	 5.306420324086282e+01
 1.050689446969226e+00	 1.190045350400269e+00	 5.458873398563293e+01
 1.025852373292782e+00	 1.211521010214075e+00	 5.576378978600268e+01
 1.000598275657922e+00	 1.232460685267297e+00	 5.655724891694007e+01
 9.749445427867065e-01	 1.252852500683148e+00	 5.693867002776850e+01
 9.489090007665166e-01	 1.272685333552752e+00	 5.687940949284048e+01
 9.225098725178134e-01	 1.291948832222681e+00	 5.635272827628158e+01
 8.957657363065197e-01	 1.310633432975087e+00	 5.533388770175984e+01
 8.686954834951300e-01	 1.328730374051309e+00	 5.380023361731784e+01
 1.131370849895000e+00	 1.131370849895000e+00	 5.165941734247114e+01
 1.107699290078130e+00	 1.154557180370186e+00	 5.364118732648937e+01
 1.083557880661099e+00	 1.177243525885908e+00	 5.534513314056069e+01
 1.058962592222751e+00	 1.199415786228689e+00	 5.673657803358972e+01
 1.033929951037292e+00	 1.221060545725744e+00	 5.778226401566700e+01
 1.008477002240058e+00	 1.242165100109890e+00	 5.845048634017090e+01
 9.826212714721815e-01	 1.262717481001375e+00	 5.871121898501453e+01
 9.563807251839371e-01	 1.282706477909361e+00	 5.853623035307820e+01
 9.297737297833488e-01	 1.302121657671336e+00	 5.789918849961964e+01
 9.028190098218994e-01	 1.320953381264590e+00	 5.677575528836203e+01
 8.755356054129694e-01	 1.339192817940233e+00	 5.514366897679854e+01
 1.140209684660000e+00	 1.140209684660000e+00	 5.426884111469961e+01
 1.116353190782732e+00	 1.163577158341346e+00	 5.611493497501386e+01
 1.092023176605160e+00	 1.186440740930862e+00	 5.768608952114432e+01
 1.067235737476276e+00	 1.208786222057155e+00	 5.894803646923603e+01
 1.042007528781801e+00	 1.230600081237494e+00	 5.986792796797318e+01
 1.016355728822194e+00	 1.251869514952611e+00	 6.041446946158828e+01
 9.902980001576563e-01	 1.272582461319784e+00	 6.055804354271342e+01
 9.638524496013575e-01	 1.292727622266217e+00	 6.027082402591928e+01
 9.370375870488843e-01	 1.312294483120315e+00	 5.952687956050975e+01
 9.098722833372790e-01	 1.331273329554503e+00	 5.830226619487861e+01
 8.823757273308089e-01	 1.349655261829663e+00	 5.657510840335604e+01
 1.149048519425000e+00	 1.149048519425000e+00	 5.692991815333063e+01
 1.125007091487334e+00	 1.172597136312511e+00	 5.864384546168686e+01
 1.100488472549222e+00	 1.195637955975838e+00	 6.008571938977480e+01
 1.075508882729801e+00	 1.218156657885667e+00	 6.122167341805393e+01
 1.050085106526311e+00	 1.240139616749326e+00	 6.201926315596629e+01
 1.024234455404330e+00	 1.261573929795459e+00	 6.244759760945084e+01
 9.979747288431317e-01	 1.282447441638376e+00	 6.247746142866571e+01
 9.713241740187781e-01	 1.302748766623323e+00	 6.208142737743625e+01
 9.443014443144199e-01	 1.322467308569620e+00	 6.123395835361059e+01
 9.169255568526588e-01	 1.341593277844826e+00	 5.991149838313546e+01
 8.892158492486486e-01	 1.360117705719598e+00	 5.809255210901001e+01
 8.208146300702533e-01	 1.255493266842989e+00	 4.704223418903112e+01
 7.949464022641402e-01	 1.272029959379205e+00	 6.012382437463842e+01
 7.688064583548604e-01	 1.287997138826982e+00	 7.173834300239332e+01
 7.424132920367567e-01	 1.303388853659439e+00	 8.192670616747293e+01
 7.157855296803717e-01	 1.318199937618296e+00	 9.073276976559805e+01
 6.889418895898042e-01	 1.332426010254849e+00	 9.820309721400537e+01
 6.619011416355685e-01	 1.346063475001740e+00	 1.043867196410765e+02
 6.346820674319077e-01	 1.359109514832477e+00	 1.093348902504218e+02
 6.073034212204453e-01	 1.371562085578352e+00	 1.131008345609033e+02
 5.797838916139548e-01	 1.383419906984210e+00	 1.157394982034359e+02
 5.521420643450261e-01	 1.394682451595397e+00	 1.173072939192408e+02
 8.276547519880928e-01	 1.265955710728375e+00	 4.770799703632118e+01
 8.015709556162803e-01	 1.282630209035559e+00	 6.105461297493654e+01
 7.752131788405626e-01	 1.298730448312043e+00	 7.293769043439772e+01
 7.486000694693997e-01	 1.314250427434890e+00	 8.339043524189968e+01
 7.217504090930887e-01	 1.329184937093667e+00	 9.244913275535644e+01
 6.946830720015958e-01	 1.343529560335928e+00	 1.001529443922833e+02
 6.674169844810209e-01	 1.357280670622919e+00	 1.065436951686233e+02
 6.399710846590586e-01	 1.370435427452928e+00	 1.116656538094259e+02
 6.123642830626780e-01	 1.382991769622504e+00	 1.155653070058143e+02
 5.846154240430909e-01	 1.394948406207696e+00	 1.182911293896023e+02
 5.567432482139901e-01	 1.406304805358394e+00	 1.198933507788296e+02
 8.344948739059326e-01	 1.276418154614268e+00	 4.847768485146609e+01
 8.081955089684212e-01	 1.293230458692502e+00	 6.203795923580322e+01
 7.816198993262644e-01	 1.309463757797747e+00	 7.413828966327853e+01
 7.547868469020430e-01	 1.325112001211007e+00	 8.480426762833582e+01
 7.277152885058064e-01	 1.340169936569694e+00	 9.406470236112327e+01
 7.004242544133874e-01	 1.354633110417626e+00	 1.019514458587958e+02
 6.729328273264735e-01	 1.368497866244649e+00	 1.084992074823492e+02
 6.452601018862094e-01	 1.381761340073830e+00	 1.137453595384707e+02
 6.174251449049104e-01	 1.394421453666977e+00	 1.177297352950831e+02
 5.894469564722263e-01	 1.406476905431347e+00	 1.204944208935996e+02
 5.613444320829541e-01	 1.417927159121370e+00	 1.220835426207223e+02
 8.413349958237718e-01	 1.286880598500666e+00	 4.934879724083559e+01
 8.148200623205618e-01	 1.303830708350034e+00	 6.307261541068154e+01
 7.880266198119669e-01	 1.320197067284093e+00	 7.534014407927755e+01
 7.609736243346860e-01	 1.335973574987789e+00	 8.616945400507997e+01
 7.336801679185236e-01	 1.351154936046379e+00	 9.558197039916357e+01
 7.061654368251792e-01	 1.365736660499941e+00	 1.036023261609024e+02
 6.784486701719261e-01	 1.379715061866928e+00	 1.102582032487275e+02
 6.505491191133607e-01	 1.393087252695183e+00	 1.155801634644334e+02
 6.224860067471428e-01	 1.405851137711774e+00	 1.196014699752339e+02
 5.942784889013624e-01	 1.418005404655163e+00	 1.223579009293380e+02
 5.659456159519182e-01	 1.429549512884325e+00	 1.238875565383763e+02
 8.481751177416113e-01	 1.297343042387569e+00	 5.031891425212203e+01
 8.214446156727022e-01	 1.314430958008157e+00	 6.415737378615177e+01
 7.944333402976689e-01	 1.330930376771083e+00	 7.654325674677230e+01
 7.671604017673291e-01	 1.346835148765235e+00	 8.748720449017824e+01
 7.396450473312413e-01	 1.362139935523721e+00	 9.700334808994864e+01
 7.119066192369707e-01	 1.376840210582875e+00	 1.051091894862745e+02
 6.839645130173785e-01	 1.390932257489756e+00	 1.118254693534176e+02
 6.558381363405112e-01	 1.404413165316985e+00	 1.171760228242654e+02
 6.275468685893755e-01	 1.417280821756893e+00	 1.211876242729245e+02
 5.991100213304978e-01	 1.429533903879145e+00	 1.238898224049680e+02
 5.705467998208821e-01	 1.441171866647260e+00	 1.253147669400779e+02
 8.550152396594509e-01	 1.307805486274977e+00	 5.138569315715439e+01
 8.280691690248427e-01	 1.325031207666869e+00	 6.529106508110094e+01
 8.008400607833710e-01	 1.341663686258716e+00	 7.774763041782666e+01
 7.733471791999721e-01	 1.357696722543348e+00	 8.875869026436901e+01
 7.456099267439583e-01	 1.373124935001719e+00	 9.833116928254097e+01
 7.176478016487626e-01	 1.387943760666427e+00	 1.064755244778458e+02
 6.894803558628312e-01	 1.402149453113133e+00	 1.132056392930716e+02
 6.611271535676622e-01	 1.415739077939239e+00	 1.185387040171707e+02
 6.326077304316081e-01	 1.428710505802333e+00	 1.224950835883247e+02
 6.039415537596337e-01	 1.441062403103291e+00	 1.250981739356992e+02
 5.751479836898462e-01	 1.452794220410174e+00	 1.263742480569335e+02
 8.618553615772904e-01	 1.318267930162891e+00	 5.254686538791702e+01
 8.346937223769834e-01	 1.335631457326171e+00	 6.647255692212208e+01
 8.072467812690728e-01	 1.352396995746991e+00	 7.895326754509726e+01
 7.795339566326152e-01	 1.368558296322125e+00	 8.998504511674723e+01
 7.515748061566757e-01	 1.384109934480375e+00	 9.956769352543543e+01
 7.233889840605542e-01	 1.399047310750597e+00	 1.077047088194824e+02
 6.949961987082838e-01	 1.413366648737060e+00	 1.144031992627698e+02
 6.664161707948132e-01	 1.427064990561942e+00	 1.196737901781106e+02
 6.376685922738407e-01	 1.440140189848097e+00	 1.235305145364340e+02
 6.087730861887695e-01	 1.452590902327603e+00	 1.259906903321958e+02
 5.797491675588102e-01	 1.464416574173068e+00	 1.270747858552393e+02
 8.686954834951300e-01	 1.328730374051309e+00	 5.380023361731784e+01
 8.413182757291239e-01	 1.346231706986062e+00	 6.770075239093919e+01
 8.136535017547751e-01	 1.363130305235910e+00	 8.016017029412744e+01
 7.857207340652586e-01	 1.379419870101568e+00	 9.116736691740083e+01
 7.575396855693932e-01	 1.395094933959687e+00	 1.007151089923195e+02
 7.291301664723457e-01	 1.410150860835385e+00	 1.088000136050042e+02
 7.005120415537363e-01	 1.424583844361535e+00	 1.154224939558584e+02
 6.717051880219642e-01	 1.438390903185097e+00	 1.205866883934997e+02
 6.427294541160733e-01	 1.451569873894183e+00	 1.243003735612416e+02
 6.136046186179049e-01	 1.464119401552080e+00	 1.265748625934566e+02
 5.843503514277741e-01	 1.476038927935941e+00	 1.274248893860654e+02
 8.755356054129694e-01	 1.339192817940233e+00	 5.514366897679854e+01
 8.479428290812644e-01	 1.356831956646543e+00	 6.897458863992470e+01
 8.200602222404771e-01	 1.373863614725471e+00	 8.136834055506512e+01
 7.919075114979014e-01	 1.390281443881676e+00	 9.230671902101773e+01
 7.635045649821107e-01	 1.406079933439657e+00	 1.017755352706871e+02
 7.348713488841375e-01	 1.421254410920791e+00	 1.097646075024065e+02
 7.060278843991887e-01	 1.435801039986560e+00	 1.162677320919219e+02
 6.769942052491154e-01	 1.449716815808702e+00	 1.212826365786707e+02
 6.477903159583056e-01	 1.462999557940591e+00	 1.248109151461033e+02
 6.184361510470409e-01	 1.475647900776722e+00	 1.268579474312773e+02
 5.889515352967382e-01	 1.487661281698794e+00	 1.274328016028205e+02
 8.823757273308089e-01	 1.349655261829663e+00	 5.657510840335604e+01
 8.545673824334050e-01	 1.367432206307614e+00	 7.029303557200774e+01
 8.264669427261790e-01	 1.384596924215675e+00	 8.257777995383685e+01
 7.980942889305445e-01	 1.401143017662449e+00	 9.340413160520885e+01
 7.694694443948279e-01	 1.417064932920282e+00	 1.027510260207526e+02
 7.406125312959290e-01	 1.432357961006815e+00	 1.106015607243990e+02
 7.115437272446413e-01	 1.447018235612134e+00	 1.169429916876350e+02
 6.822832224762662e-01	 1.461042728432757e+00	 1.217667100354503e+02
 6.528511778005384e-01	 1.474429241987322e+00	 1.250681996422351e+02
 6.232676834761766e-01	 1.487176400001529e+00	 1.268469763517154e+02
 5.935527191657022e-01	 1.499283635461626e+00	 1.271065096756806e+02
 8.892158492486486e-01	 1.360117705719598e+00	 5.809255210901001e+01
 8.611919357855461e-01	 1.378032455969275e+00	 7.165509458151021e+01
 8.328736632118816e-01	 1.395330233706523e+00	 8.378848986280204e+01
 8.042810663631879e-01	 1.412004591443889e+00	 9.446060294706264e+01
 7.754343238075456e-01	 1.428049932401566e+00	 1.036435715116404e+02
 7.463537137077207e-01	 1.443461511093458e+00	 1.113138488156852e+02
 7.170595700900940e-01	 1.458235431238257e+00	 1.174522250843469e+02
 6.875722397034173e-01	 1.472368641057263e+00	 1.220438277070806e+02
 6.579120396427711e-01	 1.485858926034374e+00	 1.250781007358931e+02
 6.280992159053126e-01	 1.498704899226502e+00	 1.265487643174065e+02
 5.981539030346663e-01	 1.510905989224438e+00	 1.264537548299577e+02
 5.521420643450261e-01	 1.394682451595397e+00	 1.173072939192408e+02
 5.243963861554752e-01	 1.405349931578255e+00	 1.109693102099627e+02
 4.965651299484972e-01	 1.415423283584646e+00	 1.030172280677143e+02
 4.686663613186524e-01	 1.424904151779574e+00	 9.339028230784861e+01
 4.407179065634718e-01	 1.433794869157430e+00	 8.203616103343529e+01
 4.127373222644204e-01	 1.442098437276991e+00	 6.891096147738472e+01
 3.847418665163297e-01	 1.449818504550261e+00	 5.397910471946602e+01
 3.567484718715399e-01	 1.456959343223164e+00	 3.721321143458022e+01
 3.287737200529779e-01	 1.463525825188096e+00	 1.859394103669516e+01
 3.008338184785227e-01	 1.469523396769290e+00	-1.890203241735497e+00
 2.729445786273588e-01	 1.474958052621828e+00	-2.424310065252845e+01
 5.567432482139901e-01	 1.406304805358394e+00	 1.198933507788296e+02
 5.287663560399445e-01	 1.417061181008836e+00	 1.126185047558589e+02
 5.007031726982477e-01	 1.427218477616163e+00	 1.037067025649865e+02
 4.725719143300822e-01	 1.436778353046758e+00	 9.311168177947053e+01
 4.443905557854591e-01	 1.445743159736631e+00	 8.079531000022591e+01
 4.161767999506898e-01	 1.454115924257551e+00	 6.672749425164758e+01
 3.879480487380641e-01	 1.461900325424960e+00	 5.088605263667799e+01
 3.597213758045257e-01	 1.469100671086833e+00	 3.325655054454784e+01
 3.315135010540280e-01	 1.475721873734670e+00	 1.383210387954809e+01
 3.033407669662659e-01	 1.481769425078743e+00	-7.386848077838364e+00
 2.752191167827523e-01	 1.487249369729599e+00	-3.039279745507987e+01
 5.613444320829541e-01	 1.417927159121370e+00	 1.220835426207223e+02
 5.331363259244141e-01	 1.428772430439212e+00	 1.139729509540181e+02
 5.048412154479984e-01	 1.439013671647323e+00	 1.042023206088613e+02
 4.764774673415119e-01	 1.448652554313463e+00	 9.273971639194895e+01
 4.480632050074462e-01	 1.457691450315262e+00	 7.956101446044167e+01
 4.196162776369592e-01	 1.466133411237483e+00	 6.464976572046071e+01
 3.911542309597985e-01	 1.473982146299001e+00	 4.799702483245341e+01
 3.626942797375119e-01	 1.481241998949842e+00	 2.960114725284426e+01
 3.342532820550780e-01	 1.487917922280614e+00	 9.467556883585743e+00
 3.058477154540093e-01	 1.494015453387626e+00	-1.239151298798052e+01
 2.774936549381459e-01	 1.499540686836884e+00	-3.595730269666021e+01
 5.659456159519182e-01	 1.429549512884325e+00	 1.238875565383763e+02
 5.375062958088834e-01	 1.440483679869384e+00	 1.150398693607289e+02
 5.089792581977491e-01	 1.450808865678127e+00	 1.045088416994690e+02
 4.803830203529417e-01	 1.460526755579689e+00	 9.227669435189708e+01
 4.517358542294334e-01	 1.469639740893325e+00	 7.833314525957763e+01
 4.230557553232287e-01	 1.478150898216786e+00	 6.267522734755629e+01
 3.943604131815328e-01	 1.486063967172383e+00	 4.530707528220228e+01
 3.656671836704979e-01	 1.493383326812194e+00	 2.623968371209549e+01
 3.369930630561280e-01	 1.500113970825930e+00	 5.490639666099575e+00
 3.083546639417524e-01	 1.506261481695937e+00	-1.691616813826718e+01
 2.797681930935394e-01	 1.511832003943683e+00	-4.095086027405796e+01
 5.705467998208821e-01	 1.441171866647260e+00	 1.253147669400779e+02
 5.418762656933529e-01	 1.452194929299350e+00	 1.158262474170347e+02
 5.131173009474997e-01	 1.462604059708573e+00	 1.046308716152150e+02
 4.842885733643716e-01	 1.472400956845438e+00	 9.172484922318347e+01
 4.554085034514207e-01	 1.481588031470819e+00	 7.711157723031326e+01
 4.264952330094980e-01	 1.490168385195461e+00	 6.080141263416252e+01
 3.975665954032672e-01	 1.498145788045108e+00	 4.281141734325547e+01
 3.686400876034840e-01	 1.505524654673887e+00	 2.316507797368872e+01
 3.397328440571781e-01	 1.512310019370616e+00	 1.892003315550141e+00
 3.108616124294957e-01	 1.518507510003677e+00	-2.097239770743040e+01
 2.820427312489330e-01	 1.524123321049998e+00	-4.538725474317753e+01
 5.751479836898462e-01	 1.452794220410174e+00	 1.263742480569335e+02
 5.462462355778224e-01	 1.463906178729113e+00	 1.163388487739241e+02
 5.172553436972506e-01	 1.474399253738663e+00	 1.045728685622185e+02
 4.881941263758014e-01	 1.484275158110708e+00	 9.108634291320345e+01
 4.590811526734078e-01	 1.493536322047745e+00	 7.589618903356902e+01
 4.299347106957674e-01	 1.502185872173508e+00	 5.902593383803058e+01
 4.007727776250016e-01	 1.510227608917174e+00	 4.050541738009206e+01
 3.716129915364700e-01	 1.517665982534923e+00	 2.037047455230402e+01
 3.424726250582280e-01	 1.524506067914673e+00	-1.337402066821861e+00
 3.133685609172390e-01	 1.530753538310846e+00	-2.457141532589339e+01
 2.843172694043264e-01	 1.536414638155826e+00	-4.927982969227611e+01
 5.797491675588102e-01	 1.464416574173068e+00	 1.270747858552393e+02
 5.506162054622918e-01	 1.475617428158671e+00	 1.165842221734585e+02
 5.213933864470012e-01	 1.486194447768394e+00	 1.043391490309183e+02
 4.920996793872311e-01	 1.496149359375500e+00	 9.036326851694028e+01
 4.627538018953951e-01	 1.505484612624103e+00	 7.468686300712999e+01
 4.333741883820368e-01	 1.514203359150925e+00	 5.734647884869690e+01
 4.039789598467358e-01	 1.522309429788582e+00	 3.838458869312911e+01
 3.745858954694560e-01	 1.529807310395299e+00	 1.784923543975432e+01
 3.452124060592781e-01	 1.536702116458102e+00	-4.206339232129584e+00
 3.158755094049823e-01	 1.542999566617443e+00	-2.772407877964366e+01
 2.865918075597200e-01	 1.548705955261170e+00	-5.264150524028423e+01
 5.843503514277741e-01	 1.476038927935941e+00	 1.274248893860654e+02
 5.549861753467613e-01	 1.487328677588024e+00	 1.165687099103231e+02
 5.255314291967518e-01	 1.497989641797769e+00	 1.039338933759908e+02
 4.960052323986610e-01	 1.508023560639814e+00	 8.955765302666474e+01
 4.664264511173823e-01	 1.517432903199891e+00	 7.348348502142066e+01
 4.368136660683061e-01	 1.526220846127715e+00	 5.576080821036930e+01
 4.071851420684702e-01	 1.534391250659332e+00	 3.644458573433820e+01
 3.775587994024420e-01	 1.541948638255018e+00	 1.559493154336747e+01
 3.479521870603281e-01	 1.548898165000901e+00	-6.723295088415581e+00
 3.183824578927254e-01	 1.555245594923469e+00	-3.044090401943431e+01
 2.888663457151135e-01	 1.560997272366028e+00	-5.548479470843480e+01
 5.889515352967382e-01	 1.487661281698794e+00	 1.274328016028205e+02
 5.593561452312308e-01	 1.499039927017173e+00	 1.162984558967388e+02
 5.296694719465024e-01	 1.509784835826787e+00	 1.033611511347058e+02
 4.999107854100908e-01	 1.519897761903649e+00	 8.867145991461243e+01
 4.700991003393695e-01	 1.529381193775111e+00	 7.228594434203896e+01
 4.402531437545756e-01	 1.538238333103876e+00	 5.426675228436531e+01
 4.103913242902046e-01	 1.546473071529423e+00	 3.468119859400429e+01
 3.805317033354282e-01	 1.554089966114078e+00	 1.360133452569351e+01
 3.506919680613781e-01	 1.561094213543070e+00	-8.896491475327920e+00
 3.208894063804688e-01	 1.567491623228924e+00	-3.273207851330525e+01
 2.911408838705071e-01	 1.573288589470401e+00	-5.782182051040881e+01
 5.935527191657022e-01	 1.499283635461626e+00	 1.271065096756806e+02
 5.637261151157001e-01	 1.510751176446117e+00	 1.157794133522609e+02
 5.338075146962531e-01	 1.521580029855448e+00	 1.026248460979158e+02
 5.038163384215206e-01	 1.531771963167005e+00	 8.770659159553830e+01
 4.737717495613566e-01	 1.541329484349762e+00	 7.109413349868339e+01
 4.436926214408450e-01	 1.550255820079409e+00	 5.286220854352918e+01
 4.135975065119389e-01	 1.558554892398857e+00	 3.309034774391384e+01
 3.835046072684140e-01	 1.566231293972480e+00	 1.186240902375913e+01
 3.534317490624282e-01	 1.573290262084611e+00	-1.073389543764752e+01
 3.233963548682120e-01	 1.579737651533807e+00	-3.460747397805833e+01
 2.934154220259006e-01	 1.585579906574289e+00	-5.966432930340726e+01
 5.981539030346663e-01	 1.510905989224438e+00	 1.264537548299577e+02
 5.680960850001699e-01	 1.522462425874857e+00	 1.150173521386641e+02
 5.379455574460040e-01	 1.533375223883753e+00	 1.017287811470024e+02
 5.077218914329504e-01	 1.543646164429884e+00	 8.666489177561429e+01
 4.774443987833440e-01	 1.553277774923845e+00	 6.990794816012929e+01
 4.471320991271144e-01	 1.562273307054313e+00	 5.154513899152065e+01
 4.168036887336734e-01	 1.570636713267633e+00	 3.166807902316444e+01
 3.864775112014002e-01	 1.578372621830225e+00	 1.037230522743384e+01
 3.561715300634782e-01	 1.585486310625523e+00	-1.224322902465466e+01
 3.259033033559552e-01	 1.591983679838119e+00	-3.607665852312395e+01
 2.956899601812942e-01	 1.597871223677692e+00	-6.102370643994118e+01
 2.729445786273588e-01	 1.474958052621828e+00	-2.424310065252845e+01
 2.451213962665869e-01	 1.479836308883957e+00	-3.725479144172249e+01
 2.173792335500309e-01	 1.484165175720690e+00	-4.943203466100386e+01
 1.897326029848293e-01	 1.487952129393421e+00	-6.074125916761739e+01
 1.621955532518215e-01	 1.491205083986602e+00	-7.115399110048932e+01
 1.347816568620313e-01	 1.493932362918601e+00	-8.064672195692404e+01
 1.075039996182768e-01	 1.496142670358577e+00	-8.920075955300720e+01
 8.037517184413129e-02	 1.497845062665731e+00	-9.680206369668750e+01
 5.340726133517893e-02	 1.499048919961328e+00	-1.034410684033898e+02
 2.661184798093990e-02	 1.499763917937484e+00	-1.091124924686175e+02
 0.000000000000000e+00	 1.500000000000000e+00	-1.138151401816350e+02
 2.752191167827523e-01	 1.487249369729599e+00	-3.039279745507987e+01
 2.471640745687116e-01	 1.492168278126741e+00	-4.318845430563888e+01
 2.191907271626458e-01	 1.496533218853332e+00	-5.469367061177285e+01
 1.913137080092519e-01	 1.500351730472944e+00	-6.489448820054426e+01
 1.635471828617090e-01	 1.503631793020732e+00	-7.378283174824718e+01
 1.359048373352982e-01	 1.506381799276883e+00	-8.135626864275615e+01
 1.083998662811933e-01	 1.508610525945297e+00	-8.761775352516133e+01
 8.104496494232989e-02	 1.510327104854834e+00	-9.257535987001279e+01
 5.385232184592077e-02	 1.511540994294438e+00	-9.624200091659941e+01
 2.683361338056428e-02	 1.512261950586988e+00	-9.863514219935340e+01
 0.000000000000000e+00	 1.512500000000000e+00	-9.977650784558934e+01
 2.774936549381459e-01	 1.499540686836884e+00	-3.595730269666021e+01
 2.492067528708362e-01	 1.504500247369135e+00	-4.861887315036303e+01
 2.210022207752605e-01	 1.508901261985668e+00	-5.954067898684582e+01
 1.928948130336745e-01	 1.512751331552235e+00	-6.872811069485968e+01
 1.648988124715964e-01	 1.516058502054692e+00	-7.619322028378325e+01
 1.370280178085651e-01	 1.518831235635048e+00	-8.195437402624677e+01
 1.092957329441099e-01	 1.521078381531942e+00	-8.603589165329961e+01
 8.171475804052857e-02	 1.522809147043897e+00	-8.846767488704869e+01
 5.429738235666262e-02	 1.524033068627529e+00	-8.928482810146355e+01
 2.705537878018867e-02	 1.524759983236486e+00	-8.852727378921642e+01
 0.000000000000000e+00	 1.525000000000000e+00	-8.623936538352113e+01
 2.797681930935394e-01	 1.511832003943683e+00	-4.095086027405796e+01
 2.512494311729608e-01	 1.516832216611136e+00	-5.355829342759539e+01
 2.228137143878753e-01	 1.521269305117696e+00	-6.398314413608629e+01
 1.944759180580971e-01	 1.525150932631291e+00	-7.224989368854364e+01
 1.662504420814838e-01	 1.528485211088482e+00	-7.839045683809974e+01
 1.381511982818319e-01	 1.531280671993094e+00	-8.244372849282148e+01
 1.101915996070264e-01	 1.533546237118513e+00	-8.445511861055317e+01
 8.238455113872716e-02	 1.535291189232917e+00	-8.447607870368483e+01
 5.474244286740446e-02	 1.536525142960601e+00	-8.256362321860450e+01
 2.727714417981305e-02	 1.537258015885981e+00	-7.877984889373614e+01
 0.000000000000000e+00	 1.537500000000000e+00	-7.319145502259968e+01
 2.820427312489330e-01	 1.524123321049998e+00	-4.538725474317753e+01
 2.532921094750855e-01	 1.529164185852748e+00	-5.801856570648434e+01
 2.246252080004902e-01	 1.533637348249418e+00	-6.803082523186018e+01
 1.960570230825197e-01	 1.537550533710115e+00	-7.546735378591730e+01
 1.676020716913713e-01	 1.540911920122102e+00	-8.037967067779340e+01
 1.392743787550988e-01	 1.543730108351024e+00	-8.282693574023091e+01
 1.110874662699430e-01	 1.546014092705009e+00	-8.287538094492882e+01
 8.305434423692580e-02	 1.547773231421895e+00	-8.059773587449629e+01
 5.518750337814630e-02	 1.549017217293655e+00	-7.607265078574002e+01
 2.749890957943743e-02	 1.549756048535470e+00	-6.938412079056579e+01
 0.000000000000000e+00	 1.550000000000000e+00	-6.062091445516746e+01
 2.843172694043264e-01	 1.536414638155826e+00	-4.927982969227611e+01
 2.553347877772101e-01	 1.541496155093969e+00	-6.201116146855960e+01
 2.264367016131050e-01	 1.546005391380833e+00	-7.169316927580471e+01
 1.976381281069424e-01	 1.549950134788705e+00	-7.838776717469574e+01
 1.689537013012588e-01	 1.553338629155550e+00	-8.216582703937459e+01
 1.403975592283656e-01	 1.556179544708835e+00	-8.310651624584027e+01
 1.119833329328596e-01	 1.558481948291430e+00	-8.129662700413500e+01
 8.372413733512445e-02	 1.560255273610832e+00	-7.682990176866062e+01
 5.563256388888813e-02	 1.561509291626691e+00	-6.980635892731408e+01
 2.772067497906182e-02	 1.562254081184955e+00	-6.033162271454885e+01
 0.000000000000000e+00	 1.562500000000000e+00	-4.851626102013296e+01
 2.865918075597200e-01	 1.548705955261170e+00	-5.264150524028423e+01
 2.573774660793346e-01	 1.553828124334798e+00	-6.554718815052881e+01
 2.282481952257197e-01	 1.558373434511941e+00	-7.497932348622507e+01
 1.992192331313650e-01	 1.562349735867061e+00	-8.101817916603595e+01
 1.703053309111463e-01	 1.565765338188829e+00	-8.375373363814386e+01
 1.415207397016324e-01	 1.568628981066530e+00	-8.328491056880918e+01
 1.128791995957761e-01	 1.570949803877776e+00	-7.971880686399264e+01
 8.439393043332308e-02	 1.572737315799727e+00	-7.316991896607277e+01
 5.607762439962997e-02	 1.574001365959708e+00	-6.375937208842142e+01
 2.794244037868620e-02	 1.574752113834436e+00	-5.161415674826180e+01
 0.000000000000000e+00	 1.575000000000000e+00	-3.686637663763171e+01
 2.888663457151135e-01	 1.560997272366028e+00	-5.548479470843480e+01
 2.594201443814593e-01	 1.566160093575237e+00	-6.863740347639131e+01
 2.300596888383345e-01	 1.570741477642742e+00	-7.789814710026401e+01
 2.008003381557876e-01	 1.574749336945183e+00	-8.336541328387507e+01
 1.716569605210337e-01	 1.578192047221936e+00	-8.514804686956104e+01
 1.426439201748993e-01	 1.581078417424107e+00	-8.336448249626555e+01
 1.137750662586927e-01	 1.583417659464048e+00	-7.814187226022462e+01
 8.506372353152170e-02	 1.585219357988580e+00	-6.961521382372152e+01
 5.652268491037181e-02	 1.586493440292707e+00	-5.792648409296484e+01
 2.816420577831059e-02	 1.587250146483912e+00	-4.322378323741364e+01
 0.000000000000000e+00	 1.587500000000000e+00	-2.566049345543396e+01
 2.911408838705071e-01	 1.573288589470401e+00	-5.782182051040881e+01
 2.614628226835839e-01	 1.578492062815286e+00	-7.129222911773395e+01
 2.318711824509493e-01	 1.583109520773236e+00	-8.045822262283953e+01
 2.023814431802102e-01	 1.587148938023073e+00	-8.543607992820463e+01
 1.730085901309212e-01	 1.590618756254874e+00	-8.635327771992368e+01
 1.437671006481662e-01	 1.593527853781566e+00	-8.334752204200217e+01
 1.146709329216093e-01	 1.595885515050245e+00	-7.656577652344423e+01
 8.573351662972034e-02	 1.597701400177391e+00	-6.616329320301389e+01
 5.696774542111365e-02	 1.598985514625687e+00	-5.230265152720646e+01
 2.838597117793497e-02	 1.599748179133383e+00	-3.515281070239990e+01
 0.000000000000000e+00	 1.600000000000000e+00	-1.488818016817753e+01
 2.934154220259006e-01	 1.585579906574289e+00	-5.966432930340726e+01
 2.635055009857086e-01	 1.590824032054943e+00	-7.352176371866382e+01
 2.336826760635642e-01	 1.595477563903424e+00	-8.266786655238337e+01
 2.039625482046329e-01	 1.599548539100729e+00	-8.723658463540391e+01
 1.743602197408086e-01	 1.603045465287642e+00	-8.737379740213696e+01
 1.448902811214330e-01	 1.605977290138907e+00	-8.323624830569221e+01
 1.155667995845258e-01	 1.608353370636367e+00	-7.499047451716822e+01
 8.640330972791899e-02	 1.610183442366161e+00	-6.281174134932207e+01
 5.741280593185549e-02	 1.611477588958649e+00	-4.688298743106203e+01
 2.860773657755936e-02	 1.612246211782850e+00	-2.739378621908061e+01
 0.000000000000000e+00	 1.612500000000000e+00	-4.539328972915897e+00
 2.956899601812942e-01	 1.597871223677692e+00	-6.102370643994118e+01
 2.655481792878332e-01	 1.603156001294210e+00	-7.533579531959289e+01
 2.354941696761790e-01	 1.607845607033304e+00	-8.453513961153836e+01
 2.055436532290555e-01	 1.611948140178152e+00	-8.877313595732733e+01
 1.757118493506961e-01	 1.615472174320239e+00	-8.821384273136387e+01
 1.460134615946999e-01	 1.618426726496131e+00	-8.303281220015552e+01
 1.164626662474424e-01	 1.620821226222415e+00	-7.341592257869017e+01
 8.707310282611763e-02	 1.622665484554889e+00	-5.955821691554827e+01
 5.785786644259734e-02	 1.623969663291593e+00	-4.166275528056510e+01
 2.882950197718375e-02	 1.624744244432313e+00	-1.993948624352973e+01
 0.000000000000000e+00	 1.625000000000000e+00	 5.395856873283552e+00
 1.625000000000000e+00	 0.000000000000000e+00	 2.088429892411949e+02
 1.624744244432312e+00	 2.882950197718282e-02	 1.743704783106613e+02
 1.623969663291593e+00	 5.785786644259652e-02	 1.409141074928448e+02
 1.622665484554890e+00	 8.707310282611692e-02	 1.083034114568770e+02
 1.620821226222414e+00	 1.164626662474418e-01	 7.635735918596788e+01
 1.618426726496131e+00	 1.460134615946994e-01	 4.488456696332311e+01
 1.615472174320238e+00	 1.757118493506957e-01	 1.368357346223515e+01
 1.611948140178151e+00	 2.055436532290552e-01	-1.745682106144521e+01
 1.607845607033305e+00	 2.354941696761788e-01	-4.875714983723218e+01
 1.603156001294210e+00	 2.655481792878331e-01	-8.044680767334849e+01
 1.597871223677692e+00	 2.956899601812942e-01	-1.127635112826281e+02
 1.637500000000000e+00	 0.000000000000000e+00	 1.969282698615132e+02
 1.637242277081775e+00	 2.905126737680721e-02	 1.656376805670521e+02
 1.636461737624536e+00	 5.830292695333835e-02	 1.345311584337711e+02
 1.635147526743617e+00	 8.774289592431556e-02	 1.034940984797697e+02
 1.633289081808462e+00	 1.173585329103583e-01	 7.240615744626533e+01
 1.630876162853355e+00	 1.471366420679662e-01	 4.114145857334039e+01
 1.627898883352835e+00	 1.770634789605832e-01	 9.568834942931371e+00
 1.624347741255574e+00	 2.071247582534779e-01	-2.244788780086505e+01
 1.620213650163185e+00	 2.373056632887935e-01	-5.504956879408198e+01
 1.615487970533477e+00	 2.675908575899578e-01	-8.838138907095637e+01
 1.610162540781094e+00	 2.979644983366877e-01	-1.225924484662128e+02
 1.650000000000000e+00	 0.000000000000000e+00	 1.803716936918105e+02
 1.649740309731242e+00	 2.927303277643158e-02	 1.528468615659948e+02
 1.648953811957498e+00	 5.874798746408018e-02	 1.246887736248812e+02
 1.647629568932387e+00	 8.841268902251417e-02	 9.583808851699408e+01
 1.645756937394584e+00	 1.182543995732749e-01	 6.623450293671851e+01
 1.643325599210696e+00	 1.482598225412330e-01	 3.581694810514394e+01
 1.640325592385603e+00	 1.784151085704706e-01	 4.523801496345239e+00
 1.636747342333229e+00	 2.087058632779004e-01	-2.770688655770725e+01
 1.632581693293372e+00	 2.391171569014083e-01	-6.093715189034367e+01
 1.627819939773135e+00	 2.696335358920823e-01	-9.522886180361965e+01
 1.622453857884982e+00	 3.002390364920812e-01	-1.306434474537042e+02
 1.662500000000000e+00	 0.000000000000000e+00	 1.592779646219901e+02
 1.662238342380713e+00	 2.949479817605596e-02	 1.360895575656321e+02
 1.661445886290478e+00	 5.919304797482201e-02	 1.114649889568005e+02
 1.660111611121198e+00	 8.908248212071281e-02	 8.539959781366775e+01
 1.658224792980781e+00	 1.191502662361914e-01	 5.789248758911938e+01
 1.655775035568156e+00	 1.493830030144999e-01	 2.894671427387980e+01
 1.652752301418540e+00	 1.797667381803581e-01	-1.430533366455595e+00
 1.649146943411119e+00	 2.102869683023231e-01	-3.322776295317942e+01
 1.644949736423866e+00	 2.409286505140231e-01	-6.642901861849364e+01
 1.640151909013183e+00	 2.716762141942070e-01	-1.010137336738345e+02
 1.634745174989355e+00	 3.025135746474747e-01	-1.369565974097441e+02
 1.675000000000000e+00	 0.000000000000000e+00	 1.337486611694551e+02
 1.674736375030189e+00	 2.971656357568033e-02	 1.154545725101881e+02
 1.673937960623477e+00	 5.963810848556386e-02	 9.493551099684231e+01
 1.672593653310052e+00	 8.975227521891144e-02	 7.224092581251931e+01
 1.670692648567052e+00	 1.200461328991080e-01	 4.742870814800315e+01
 1.668224471925732e+00	 1.505061834877667e-01	 2.056537084621647e+01
 1.665179010451648e+00	 1.811183677902456e-01	-8.273802725387327e+00
 1.661546544489242e+00	 2.118680733267457e-01	-3.900464326232510e+01
 1.657317779554668e+00	 2.427401441266379e-01	-7.153401618083259e+01
 1.652483878253622e+00	 2.737188924963316e-01	-1.057597808490017e+02
 1.647036492094213e+00	 3.047881128028683e-01	-1.415707907564340e+02
 1.687500000000000e+00	 0.000000000000000e+00	 1.038823522336448e+02
 1.687234407679670e+00	 2.993832897530471e-02	 9.102807922671575e+01
 1.686430034956494e+00	 6.008316899630568e-02	 7.517380326011396e+01
 1.685075695498947e+00	 9.042206831711005e-02	 5.642252614638100e+01
 1.683160504153399e+00	 1.209419995620246e-01	 3.489032154770991e+01
 1.680673908283426e+00	 1.516293639610336e-01	 1.070650608258349e+01
 1.677605719484926e+00	 1.824699974001330e-01	-1.598624304462353e+01
 1.673946145567598e+00	 2.134491783511683e-01	-4.503182772353414e+01
 1.669685822685775e+00	 2.445516377392527e-01	-7.626072957474261e+01
 1.664815847494452e+00	 2.757615707984562e-01	-1.094900749594954e+02
 1.659327809199556e+00	 3.070626509582619e-01	-1.445237674976383e+02
 1.700000000000000e+00	 0.000000000000000e+00	 6.977470774375419e+01
 1.699732440329154e+00	 3.016009437492909e-02	 6.289371615727828e+01
 1.698922109289530e+00	 6.052822950704752e-02	 5.225116867454406e+01
 1.697557737687883e+00	 9.109186141530867e-02	 3.800307449866160e+01
 1.695628359739820e+00	 1.218378662249411e-01	 2.032309784634034e+01
 1.693123344641237e+00	 1.527525444343004e-01	-5.972795606884844e-01
 1.690032428518375e+00	 1.838216270100204e-01	-2.454867198969488e+01
 1.686345746646188e+00	 2.150302833755909e-01	-5.130378414322099e+01
 1.682053865817190e+00	 2.463631313518675e-01	-8.061749123300380e+01
 1.677147816735672e+00	 2.778042491005809e-01	-1.122270090012282e+02
 1.671619126305386e+00	 3.093371891136554e-01	-1.458521575878040e+02
 1.712500000000000e+00	 0.000000000000000e+00	 3.151860446056781e+01
 1.712230472978644e+00	 3.038185977455347e-02	 3.113267985469088e+01
 1.711414183622584e+00	 6.097329001778935e-02	 2.623682843430275e+01
 1.710039779876862e+00	 9.176165451350732e-02	 1.703953349182473e+01
 1.708096215326316e+00	 1.227337328878577e-01	 3.771470841436582e+00
 1.705572780999167e+00	 1.538757249075673e-01	-1.331433738041526e+01
 1.702459137551995e+00	 1.851732566199080e-01	-3.394246721610206e+01
 1.698745347725011e+00	 2.166113884000136e-01	-5.781514178059031e+01
 1.694421908948913e+00	 2.481746249644823e-01	-8.461239024191011e+01
 1.689479785977284e+00	 2.798469274027054e-01	-1.139923221037972e+02
 1.683910443411700e+00	 3.116117272690490e-01	-1.455915214452113e+02
 1.725000000000000e+00	 0.000000000000000e+00	-1.079577282178693e+01
 1.724728505628139e+00	 3.060362517417785e-02	-4.176186543298570e+00
 1.723906257955657e+00	 6.141835052853120e-02	-2.802002575187558e+00
 1.722521822065882e+00	 9.243144761170595e-02	-6.412785245367346e+00
 1.720564070912886e+00	 1.236295995507742e-01	-1.472141351501916e+01
 1.718022217357214e+00	 1.549989053808341e-01	-2.741393594304166e+01
 1.714885846585785e+00	 1.865248862297954e-01	-4.414954608016305e+01
 1.711144948804068e+00	 2.181924934244362e-01	-6.456068549828049e+01
 1.706789952080941e+00	 2.499861185770972e-01	-8.825328115859276e+01
 1.701811755219286e+00	 2.818896057048301e-01	-1.148071232217533e+02
 1.696201760518499e+00	 3.138862654244425e-01	-1.437763887037766e+02
 1.737499999999999e+00	 0.000000000000000e+00	-5.708083444250690e+01
 1.737226538277637e+00	 3.082539057380222e-02	-4.295630865885350e+01
 1.736398332288748e+00	 6.186341103927302e-02	-3.480004360799722e+01
 1.735003864254944e+00	 9.310124070990457e-02	-3.230016168977421e+01
 1.733031926499532e+00	 1.245254662136908e-01	-3.511365079146169e+01
 1.730471653715378e+00	 1.561220858541010e-01	-4.286622808961774e+01
 1.727312555619745e+00	 1.878765158396829e-01	-5.515234622565134e+01
 1.723544549883358e+00	 2.197735984488587e-01	-7.153535016549984e+01
 1.719157995213276e+00	 2.517976121897119e-01	-9.154779244774370e+01
 1.714143724461679e+00	 2.839322840069546e-01	-1.146919138032249e+02
 1.708493077625785e+00	 3.161608035798360e-01	-1.404402952921160e+02
 1.750000000000000e+00	 0.000000000000000e+00	-1.072514931907819e+02
 1.749724570927141e+00	 3.104715597342660e-02	-8.513329984697303e+01
 1.748890406621857e+00	 6.230847155001488e-02	-6.969387898140242e+01
 1.747485906444049e+00	 9.377103380810323e-02	-6.057041058100254e+01
 1.745499782086252e+00	 1.254213328766073e-01	-5.736453373696335e+01
 1.742921090073661e+00	 1.572452663273678e-01	-5.964221935485038e+01
 1.739739264653876e+00	 1.892281454495704e-01	-6.693380700243360e+01
 1.735944150962882e+00	 2.213547034732815e-01	-7.873421530102480e+01
 1.731526038345919e+00	 2.536091058023268e-01	-9.450333455676092e+01
 1.726475693704463e+00	 2.859749623090794e-01	-1.136666094870285e+02
 1.720784394733555e+00	 3.184353417352296e-01	-1.356158189235051e+02
 1.597871223677692e+00	 2.956899601812942e-01	-1.127635112826281e+02
 1.591983679838119e+00	 3.259033033559543e-01	-9.715154855690271e+01
 1.585486310625523e+00	 3.561715300634776e-01	-8.220129668222856e+01
 1.578372621830225e+00	 3.864775112013996e-01	-6.781860064855098e+01
 1.570636713267633e+00	 4.168036887336729e-01	-5.390422397286794e+01
 1.562273307054313e+00	 4.471320991271141e-01	-4.035408137387849e+01
 1.553277774923845e+00	 4.774443987833438e-01	-2.705950597246042e+01
 1.543646164429884e+00	 5.077218914329503e-01	-1.390755084048050e+01
 1.533375223883753e+00	 5.379455574460040e-01	-7.813244338078822e-01
 1.522462425874856e+00	 5.680960850001699e-01	 1.243964085205165e+01
 1.510905989224438e+00	 5.981539030346663e-01	 2.587898807063752e+01
 1.610162540781094e+00	 2.979644983366877e-01	-1.225924484662128e+02
 1.604229708142434e+00	 3.284102518436999e-01	-1.067328399231717e+02
 1.597682359166444e+00	 3.589113110645371e-01	-9.133699957729689e+01
 1.590513949687990e+00	 3.894504151344069e-01	-7.634153390858671e+01
 1.582718534136446e+00	 4.200098709554452e-01	-6.167945547260805e+01
 1.574290794029277e+00	 4.505715768134433e-01	-4.728033850972352e+01
 1.565226065498014e+00	 4.811170480054174e-01	-3.307049886287145e+01
 1.555520365692882e+00	 5.116274444444987e-01	-1.897319812855114e+01
 1.545170417912212e+00	 5.420836001959101e-01	-4.908871765061216e+00
 1.534173675303793e+00	 5.724660548848370e-01	 9.204619326636911e+00
 1.522528342987494e+00	 6.027550869038752e-01	 2.345171444877097e+01
 1.622453857884982e+00	 3.002390364920812e-01	-1.306434474537042e+02
 1.616475736447324e+00	 3.309172003314502e-01	-1.147717293869468e+02
 1.609878407708013e+00	 3.616510920656152e-01	-9.916905914019961e+01
 1.602655277546456e+00	 3.924233190674569e-01	-8.380245485369140e+01
 1.594800355005993e+00	 4.232160531772940e-01	-6.863681235846181e+01
 1.586308281004989e+00	 4.540110544998922e-01	-5.363498442775845e+01
 1.577174356072925e+00	 4.847896972276646e-01	-3.875787421554948e+01
 1.567394566956594e+00	 5.155329974562836e-01	-2.396454290825026e+01
 1.556965611941338e+00	 5.462216429461266e-01	-9.212331500426258e+00
 1.545884924733330e+00	 5.768360247698988e-01	 5.543003515444129e+00
 1.534150696751060e+00	 6.073562707735738e-01	 2.034714087993924e+01
 1.634745174989355e+00	 3.025135746474747e-01	-1.369565974097441e+02
 1.628721764752790e+00	 3.334241488192052e-01	-1.213029920497531e+02
 1.622074456250230e+00	 3.643908730667124e-01	-1.057268637719072e+02
 1.614796605405623e+00	 3.953962230005494e-01	-9.022530043869784e+01
 1.606882175876277e+00	 4.264222353992188e-01	-7.479472364465990e+01
 1.598325767981450e+00	 4.574505321864608e-01	-5.943089230156800e+01
 1.589122646648578e+00	 4.884623464500846e-01	-4.412891038298852e+01
 1.579268768221021e+00	 5.194385504683054e-01	-2.888323895504365e+01
 1.568760805971133e+00	 5.503596856966543e-01	-1.368771258943687e+01
 1.557596174163466e+00	 5.812059946553559e-01	 1.464439778658330e+00
 1.545773050515137e+00	 6.119574546437619e-01	 1.658056952107076e+01
 1.647036492094213e+00	 3.047881128028683e-01	-1.415707907564340e+02
 1.640967793058833e+00	 3.359310973069648e-01	-1.263603649073768e+02
 1.634270504793095e+00	 3.671306540678284e-01	-1.110389245729133e+02
 1.626937933265491e+00	 3.983691269336848e-01	-9.563329305608079e+01
 1.618963996747293e+00	 4.296284176212197e-01	-8.017106820772348e+01
 1.610343254958658e+00	 4.608900098731490e-01	-6.468055102163157e+01
 1.601070937224973e+00	 4.921349956726779e-01	-4.919066845285523e+01
 1.591142969486164e+00	 5.233441034805641e-01	-3.373089068613815e+01
 1.580556000001596e+00	 5.544977284474926e-01	-1.833114313441033e+01
 1.569307423594202e+00	 5.855759645412079e-01	-3.021713500314593e+00
 1.557395404279724e+00	 6.165586385144400e-01	 1.216684571380042e+01
 1.659327809199556e+00	 3.070626509582619e-01	-1.445237674976383e+02
 1.653213821365451e+00	 3.384380457947292e-01	-1.299765852987622e+02
 1.646466553336608e+00	 3.698704350689632e-01	-1.151329078364057e+02
 1.639079261126060e+00	 4.013420308668626e-01	-1.000489670018102e+02
 1.631045817619043e+00	 4.328345998432970e-01	-8.478319516253188e+01
 1.622360741936615e+00	 4.643294875599568e-01	-6.939607942863910e+01
 1.613019227802109e+00	 4.958076448954443e-01	-5.395000029544948e+01
 1.603017170752021e+00	 5.272496564930599e-01	-3.850905498918345e+01
 1.592351194032726e+00	 5.586357711986414e-01	-2.313886597799814e+01
 1.581018673025537e+00	 5.899459344274548e-01	-7.906375249652830e+00
 1.569017758044822e+00	 6.211598223856076e-01	 7.120374902952501e+00
 1.671619126305386e+00	 3.093371891136554e-01	-1.458521575878040e+02
 1.665459849672645e+00	 3.409449942824981e-01	-1.321834276586316e+02
 1.658662601880769e+00	 3.726102160701169e-01	-1.180356661079126e+02
 1.651220588987329e+00	 4.043149348000832e-01	-1.034941937735914e+02
 1.643127638491529e+00	 4.360407820654503e-01	-8.864794333944374e+01
 1.634378228915319e+00	 4.677689652468843e-01	-7.358923991886439e+01
 1.624967518379987e+00	 4.994802941183839e-01	-5.841355625612859e+01
 1.614891372018594e+00	 5.311552095057921e-01	-4.321924297029413e+01
 1.604146388064525e+00	 5.627738139501012e-01	-2.810723448540163e+01
 1.592729922457472e+00	 5.943159043140966e-01	-1.318073151444448e+01
 1.580640111810430e+00	 6.257610062572652e-01	 1.455138808621633e+00
 1.683910443411700e+00	 3.116117272690490e-01	-1.455915214452113e+02
 1.677705877980416e+00	 3.434519427702719e-01	-1.330117386605016e+02
 1.670858650425578e+00	 3.753499970712894e-01	-1.197732678846739e+02
 1.663361916849300e+00	 4.072878387333462e-01	-1.059902062611537e+02
 1.655209459364748e+00	 4.392469642876800e-01	-9.178165990840553e+01
 1.646395715894772e+00	 4.712084429339317e-01	-7.727145145368264e+01
 1.636915808958608e+00	 5.031529433414967e-01	-6.258779251083530e+01
 1.626765573285881e+00	 5.350607625187611e-01	-4.786292162551455e+01
 1.615941582096990e+00	 5.669118567018717e-01	-3.323270851130689e+01
 1.604441171890006e+00	 5.986858742011337e-01	-1.883622570849434e+01
 1.592262465576548e+00	 6.303621901294124e-01	-4.815289110009440e+00
 1.696201760518499e+00	 3.138862654244425e-01	-1.437763887037766e+02
 1.689951906288762e+00	 3.459588912580502e-01	-1.324914708317409e+02
 1.683054698971034e+00	 3.780897780724807e-01	-1.203710260237320e+02
 1.675503244711972e+00	 4.102607426666521e-01	-1.075576218847842e+02
 1.667291280238703e+00	 4.424531465099858e-01	-9.420021819331440e+01
 1.658413202874972e+00	 4.746479206210985e-01	-8.045380200345353e+01
 1.648864099537969e+00	 5.068255925647827e-01	-6.647897810181888e+01
 1.638639774553884e+00	 5.389663155319671e-01	-5.244151543960901e+01
 1.627736776130124e+00	 5.710498994539528e-01	-3.851185054216747e+01
 1.616152421323140e+00	 6.030558440885657e-01	-2.486454928996214e+01
 1.603884819343176e+00	 6.349633740020493e-01	-1.167772886319156e+01
 1.708493077625785e+00	 3.161608035798360e-01	-1.404402952921160e+02
 1.702197934597685e+00	 3.484658397458333e-01	-1.306517147176174e+02
 1.695250747517139e+00	 3.808295590736910e-01	-1.198535249237739e+02
 1.687644572575343e+00	 4.132336466000003e-01	-1.082164647350762e+02
 1.679373101113391e+00	 4.456593287323678e-01	-9.591903471741377e+01
 1.670430689855921e+00	 4.780873983083849e-01	-8.314706045425838e+01
 1.660812390118072e+00	 5.104982417882418e-01	-7.009320166965425e+01
 1.650513975822603e+00	 5.428718685454100e-01	-5.695640791583887e+01
 1.639531970163926e+00	 5.751879422063448e-01	-4.394132200500645e+01
 1.627863670756874e+00	 6.074258139763927e-01	-3.125763283949060e+01
 1.615507173110314e+00	 6.395645578751757e-01	-1.911937977760839e+01
 1.720784394733555e+00	 3.184353417352296e-01	-1.356158189235051e+02
 1.714443962907183e+00	 3.509727882336210e-01	-1.275207296668852e+02
 1.707446796063893e+00	 3.835693400749201e-01	-1.182446465420374e+02
 1.699785900439417e+00	 4.162065505333916e-01	-1.079861867638304e+02
 1.691454921988814e+00	 4.488655109548259e-01	-9.695308551817237e+01
 1.682448176837619e+00	 4.815268759957912e-01	-8.536168800434751e+01
 1.672760680698918e+00	 5.141708910118742e-01	-7.343637789674506e+01
 1.662388177092036e+00	 5.467774215590895e-01	-6.140894304017520e+01
 1.651327164198396e+00	 5.793259849590476e-01	-4.951787973441137e+01
 1.639574920191208e+00	 6.117957838646149e-01	-3.800763752069639e+01
 1.627129526877964e+00	 6.441657417487923e-01	-2.712780694993193e+01
 1.510905989224438e+00	 5.981539030346663e-01	 2.587898807063752e+01
 1.498704899226502e+00	 6.280992159053116e-01	 2.336051369126397e+01
 1.485858926034374e+00	 6.579120396427700e-01	 2.130582012920704e+01
 1.472368641057263e+00	 6.875722397034166e-01	 1.966840558204987e+01
 1.458235431238258e+00	 7.170595700900936e-01	 1.839953432009230e+01
 1.443461511093458e+00	 7.463537137077204e-01	 1.744839262275284e+01
 1.428049932401566e+00	 7.754343238075454e-01	 1.676225954051813e+01
 1.412004591443889e+00	 8.042810663631879e-01	 1.628669176659899e+01
 1.395330233706523e+00	 8.328736632118814e-01	 1.596572176354985e+01
 1.378032455969274e+00	 8.611919357855460e-01	 1.574206815527205e+01
 1.360117705719598e+00	 8.892158492486488e-01	 1.555735726585709e+01
 1.522528342987494e+00	 6.027550869038752e-01	 2.345171444877097e+01
 1.510233398451768e+00	 6.329307483347351e-01	 2.064591848292489e+01
 1.497288610081763e+00	 6.629729014853188e-01	 1.823106531868121e+01
 1.483694553682143e+00	 6.928612569308974e-01	 1.617992200033622e+01
 1.469452626864788e+00	 7.225754129358748e-01	 1.446360430402967e+01
 1.454565061180536e+00	 7.520948961198251e-01	 1.305166352259730e+01
 1.439034931883308e+00	 7.813992032205446e-01	 1.191218355866220e+01
 1.422866165225804e+00	 8.104678437960667e-01	 1.101188796806640e+01
 1.406063543197860e+00	 8.392803836977581e-01	 1.031625650254749e+01
 1.388632705631432e+00	 8.678164891377840e-01	 9.789650608878819e+00
 1.370580149610033e+00	 8.960559711664935e-01	 9.395447252690149e+00
 1.534150696751060e+00	 6.073562707735738e-01	 2.034714087993924e+01
 1.521761897677453e+00	 6.377622807647338e-01	 1.738010349085940e+01
 1.508718294129500e+00	 6.680337633284998e-01	 1.473236812566570e+01
 1.495020466307320e+00	 6.981502741590380e-01	 1.239575194166578e+01
 1.480669822491582e+00	 7.280912557823142e-01	 1.036099721521281e+01
 1.465668611267865e+00	 7.578360785325557e-01	 8.617789625297588e+00
 1.450019931365309e+00	 7.873640826341082e-01	 7.154782370689010e+00
 1.433727739008006e+00	 8.166546212294172e-01	 5.959626117545408e+00
 1.416796852689532e+00	 8.456871041839829e-01	 5.019004726528514e+00
 1.399232955293995e+00	 8.744410424902175e-01	 4.318676659526911e+00
 1.381042593500962e+00	 9.028960930843489e-01	 3.843521916699120e+00
 1.545773050515137e+00	 6.119574546437619e-01	 1.658056952107076e+01
 1.533290396903557e+00	 6.425938131953080e-01	 1.357552769123376e+01
 1.520147978177585e+00	 6.730946251723129e-01	 1.081931729125112e+01
 1.506346378932792e+00	 7.034392913878383e-01	 8.322591791980454e+00
 1.491887018118640e+00	 7.336070986294112e-01	 6.095500040203339e+00
 1.476772161355447e+00	 7.635772609459125e-01	 4.147636676575383e+00
 1.461004930847569e+00	 7.933289620482357e-01	 2.487993954088318e+00
 1.444589312790497e+00	 8.228413986632396e-01	 1.124915305741251e+00
 1.427530162181541e+00	 8.520938246705574e-01	 6.605100713460654e-02
 1.409833204956963e+00	 8.810655958428456e-01	-6.816837268370843e-01
 1.391505037392386e+00	 9.097362150022149e-01	-1.112147882162788e+00
 1.557395404279724e+00	 6.165586385144400e-01	 1.216684571380042e+01
 1.544818896130082e+00	 6.474253456264577e-01	 9.244278107254933e+00
 1.531577662226018e+00	 6.781554870167580e-01	 6.501215273560336e+00
 1.517672291558561e+00	 7.087283086172986e-01	 3.966937984635372e+00
 1.503104213745963e+00	 7.391229414771657e-01	 1.670786652251288e+00
 1.487875711443280e+00	 7.693184433598950e-01	-3.579554982755706e-01
 1.471989930330090e+00	 7.992938414629270e-01	-2.090182246193667e+00
 1.455450886573275e+00	 8.290281760975334e-01	-3.497086487737391e+00
 1.438263471673887e+00	 8.585005451574800e-01	-4.550283903828888e+00
 1.420433454620336e+00	 8.876901491956692e-01	-5.221937408552639e+00
 1.401967481284305e+00	 9.165763369200914e-01	-5.484881575126476e+00
 1.569017758044822e+00	 6.211598223856076e-01	 7.120374902952501e+00
 1.556347395357026e+00	 6.522568780581823e-01	 4.398083584617723e+00
 1.543007346274800e+00	 6.832163488618352e-01	 1.787088850250539e+00
 1.528998204184627e+00	 7.140173258474188e-01	-6.649055944996682e-01
 1.514321409373551e+00	 7.446387843255788e-01	-2.909577999849342e+00
 1.498979261531365e+00	 7.750596257745035e-01	-4.898172034872822e+00
 1.482974929812870e+00	 8.052587208781824e-01	-6.581687594796337e+00
 1.466312460356341e+00	 8.352149535322990e-01	-7.911077909219131e+00
 1.448996781166568e+00	 8.649072656447517e-01	-8.837451822208653e+00
 1.431033704284114e+00	 8.943147025486877e-01	-9.312280038081962e+00
 1.412429925176719e+00	 9.234164588379790e-01	-9.287604059335875e+00
 1.580640111810430e+00	 6.257610062572652e-01	 1.455138808621633e+00
 1.567875894584390e+00	 6.570884104904827e-01	-9.516720407861303e-01
 1.554437030323932e+00	 6.882772107075451e-01	-3.314300746740102e+00
 1.540324116810989e+00	 7.193063430781983e-01	-5.566820528632416e+00
 1.525538605001402e+00	 7.501546271746492e-01	-7.642133887704663e+00
 1.510082811619702e+00	 7.808008081897383e-01	-9.472222112557795e+00
 1.493959929295910e+00	 8.112236002940020e-01	-1.098840644252626e+01
 1.477174034139694e+00	 8.414017309675366e-01	-1.212161950250629e+01
 1.459730090659585e+00	 8.713139861323719e-01	-1.280268549338424e+01
 1.441633953948298e+00	 9.009392559019015e-01	-1.296260750376380e+01
 1.422892369069628e+00	 9.302565807558768e-01	-1.253286020309999e+01
 1.592262465576548e+00	 6.303621901294124e-01	-4.815289110009440e+00
 1.579404393812174e+00	 6.619199429233585e-01	-6.793937351844662e+00
 1.565866714373410e+00	 6.933380725538867e-01	-8.794448140301103e+00
 1.551650029437647e+00	 7.245953603096378e-01	-1.073286710164126e+01
 1.536755800629518e+00	 7.556704700243774e-01	-1.252352207462310e+01
 1.521186361708292e+00	 7.865419906055987e-01	-1.407933807737443e+01
 1.504944928779209e+00	 8.171884797103856e-01	-1.531216820761133e+01
 1.488035607923336e+00	 8.475885084032455e-01	-1.613313874953947e+01
 1.470463400152938e+00	 8.777207066203410e-01	-1.645300658793186e+01
 1.452234203612885e+00	 9.075638092553103e-01	-1.618252687046546e+01
 1.433354812963030e+00	 9.370967026737852e-01	-1.523282871587663e+01
 1.603884819343176e+00	 6.349633740020493e-01	-1.167772886319156e+01
 1.590932893040378e+00	 6.667514753568098e-01	-1.311798130663647e+01
 1.577296398423238e+00	 6.983989344008606e-01	-1.464509453859883e+01
 1.562975942064603e+00	 7.298843775417372e-01	-1.615727782394479e+01
 1.547972996257898e+00	 7.611863128747637e-01	-1.755048105338022e+01
 1.532289911797133e+00	 7.922831730220851e-01	-1.871877460317738e+01
 1.515929928262769e+00	 8.231533591273329e-01	-1.955474936646397e+01
 1.498897181707264e+00	 8.537752858394262e-01	-1.994993489189895e+01
 1.481196709646628e+00	 8.841274271086590e-01	-1.979523334964889e+01
 1.462834453277879e+00	 9.141883626089145e-01	-1.898136684455177e+01
 1.443817256856928e+00	 9.439368245917042e-01	-1.739933541521100e+01
 1.615507173110314e+00	 6.395645578751757e-01	-1.911937977760839e+01
 1.602461392269001e+00	 6.715830077908362e-01	-1.991338171470574e+01
 1.588726082473415e+00	 7.034597962484670e-01	-2.085821886564889e+01
 1.574301854691855e+00	 7.351733947744963e-01	-2.183445123782717e+01
 1.559190191886543e+00	 7.667021557258078e-01	-2.271984324206340e+01
 1.543393461886226e+00	 7.980243554391976e-01	-2.338980788894791e+01
 1.526914927746587e+00	 8.291182385448446e-01	-2.371787535850878e+01
 1.509758755491481e+00	 8.599620632760784e-01	-2.357618354418278e+01
 1.491930019140653e+00	 8.905341475973255e-01	-2.283598791344513e+01
 1.473434702943277e+00	 9.208129159627136e-01	-2.136818778712706e+01
 1.454279700751320e+00	 9.507769465096340e-01	-1.904386592099803e+01
 1.627129526877964e+00	 6.441657417487923e-01	-2.712780694993193e+01
 1.613989891498045e+00	 6.764145402254381e-01	-2.717001420721012e+01
 1.600155766523939e+00	 7.085206580967053e-01	-2.742602927200337e+01
 1.585627767319404e+00	 7.404624120079153e-01	-2.775894598824911e+01
 1.570407387515452e+00	 7.722179985775097e-01	-2.802853163009238e+01
 1.554497011975571e+00	 8.037655378569363e-01	-2.809173489051008e+01
 1.537899927230667e+00	 8.350831179629202e-01	-2.780322240937318e+01
 1.520620329275986e+00	 8.661488407132029e-01	-2.701594110966514e+01
 1.502663328635016e+00	 8.969408680863412e-01	-2.558170330960784e+01
 1.484034952609081e+00	 9.274374693167079e-01	-2.335179129813528e+01
 1.464742144646208e+00	 9.576170684275745e-01	-2.017757780570261e+01
 1.360117705719598e+00	 8.892158492486488e-01	 1.555735726585709e+01
 1.341593277844827e+00	 9.169255568526578e-01	 1.900432025133596e+01
 1.322467308569620e+00	 9.443014443144191e-01	 2.252714317240401e+01
 1.302748766623323e+00	 9.713241740187775e-01	 2.615545240481218e+01
 1.282447441638377e+00	 9.979747288431313e-01	 2.991872038869224e+01
 1.261573929795459e+00	 1.024234455404330e+00	 3.384613180296070e+01
 1.240139616749326e+00	 1.050085106526311e+00	 3.796644978235766e+01
 1.218156657885667e+00	 1.075508882729801e+00	 4.230788309691818e+01
 1.195637955975838e+00	 1.100488472549222e+00	 4.689795521673973e+01
 1.172597136312511e+00	 1.125007091487334e+00	 5.176337617840542e+01
 1.149048519425000e+00	 1.149048519425000e+00	 5.692991815333063e+01
 1.370580149610033e+00	 8.960559711664935e-01	 9.395447252690149e+00
 1.351913226135645e+00	 9.239788303679526e-01	 1.316119308468287e+01
 1.332640134019405e+00	 9.515653015797990e-01	 1.702642073223878e+01
 1.312769910980884e+00	 9.787958984359916e-01	 2.101019393462230e+01
 1.292312421957389e+00	 1.005651457528369e+00	 2.513133815063438e+01
 1.271278344638683e+00	 1.032113181986217e+00	 2.940835129881678e+01
 1.249679152261479e+00	 1.058162684270582e+00	 3.385931518427198e+01
 1.227527093714434e+00	 1.083782027983117e+00	 3.850180823412497e+01
 1.204835171020993e+00	 1.108953768493124e+00	 4.335282016043987e+01
 1.181617114283771e+00	 1.133660992191846e+00	 4.842866915969802e+01
 1.157887354190000e+00	 1.157887354190000e+00	 5.374492224176284e+01
 1.381042593500962e+00	 9.028960930843489e-01	 3.843521916699120e+00
 1.362233174427042e+00	 9.310321038830772e-01	 7.864377658768744e+00
 1.342812959469824e+00	 9.588291588448681e-01	 1.200835800328574e+01
 1.322791055339106e+00	 9.862676228527927e-01	 1.628408582877474e+01
 1.302177402277060e+00	 1.013328186213132e+00	 2.069986199312648e+01
 1.280982759482529e+00	 1.039991908567609e+00	 2.526362020877560e+01
 1.259218687774190e+00	 1.066240262014375e+00	 2.998288324318893e+01
 1.236897529543666e+00	 1.092055173236013e+00	 3.486472077159662e+01
 1.214032386066488e+00	 1.117419064436706e+00	 3.991570919948625e+01
 1.190637092255217e+00	 1.142314892896179e+00	 4.514189375946823e+01
 1.166726188955000e+00	 1.166726188955000e+00	 5.054875317086852e+01
 1.391505037392386e+00	 9.097362150022149e-01	-1.112147882162788e+00
 1.372553122719020e+00	 9.380853773980324e-01	 3.101581341012597e+00
 1.352985784920880e+00	 9.660930161096258e-01	 7.462098349170951e+00
 1.332812199697990e+00	 9.937393472691818e-01	 1.196770419049050e+01
 1.312042382597387e+00	 1.021004914897422e+00	 1.661629474345186e+01
 1.290687174326999e+00	 1.047870635148505e+00	 2.140535930587590e+01
 1.268758223287460e+00	 1.074317839757692e+00	 2.633198114278663e+01
 1.246267965373361e+00	 1.100328318488492e+00	 3.139284002758760e+01
 1.223229601112323e+00	 1.125884360379969e+00	 3.658421679543954e+01
 1.199657070226847e+00	 1.150968793600331e+00	 4.190199991166755e+01
 1.175565023720000e+00	 1.175565023720000e+00	 4.734169404167606e+01
 1.401967481284305e+00	 9.165763369200914e-01	-5.484881575126476e+00
 1.382873071011578e+00	 9.451386509128173e-01	-1.139121680316528e+00
 1.363158610372572e+00	 9.733568733740730e-01	 3.377109081926984e+00
 1.342833344057535e+00	 1.001211071685158e+00	 8.051906296443352e+00
 1.321907362918373e+00	 1.028681643581236e+00	 1.287287780725582e+01
 1.300391589172092e+00	 1.055749361728905e+00	 1.782718560876909e+01
 1.278297758801289e+00	 1.082395417500530e+00	 2.290159032425933e+01
 1.255638401203523e+00	 1.108601463740551e+00	 2.808249801625385e+01
 1.232426816158497e+00	 1.134349656322913e+00	 3.335600905169229e+01
 1.208677048198662e+00	 1.159622694304304e+00	 3.870796872555192e+01
 1.184403858485000e+00	 1.184403858485000e+00	 4.412401933018531e+01
 1.412429925176719e+00	 9.234164588379790e-01	-9.287604059335875e+00
 1.393193019304716e+00	 9.521919244274326e-01	-4.869303982345187e+00
 1.373331435824899e+00	 9.806207306382088e-01	-2.568305363422212e-01
 1.352854488417742e+00	 1.008682796100722e+00	 4.527820182726209e+00
 1.331772343240015e+00	 1.036358372264577e+00	 9.462082332147819e+00
 1.310096004017809e+00	 1.063628088308809e+00	 1.452290511324782e+01
 1.287837294315678e+00	 1.090472995242892e+00	 1.968684077300365e+01
 1.265008837034148e+00	 1.116874608992193e+00	 2.493013527370152e+01
 1.241624031205012e+00	 1.142814952265537e+00	 3.022882106008100e+01
 1.217697026170662e+00	 1.168276595008097e+00	 3.555881133109940e+01
 1.193242693250000e+00	 1.193242693250000e+00	 4.089599520691116e+01
 1.422892369069628e+00	 9.302565807558768e-01	-1.253286020309999e+01
 1.403512967598433e+00	 9.592451979418776e-01	-8.100197894444804e+00
 1.383504261277862e+00	 9.878845879020337e-01	-3.449640762455516e+00
 1.362875632778610e+00	 1.016154520515873e+00	 1.386834690260031e+00
 1.341637323562315e+00	 1.044035100947443e+00	 6.376600761149987e+00
 1.319800418864149e+00	 1.071506814888217e+00	 1.148650584444145e+01
 1.297376829830625e+00	 1.098550572984775e+00	 1.668300555736331e+01
 1.274379272865238e+00	 1.125147754243415e+00	 2.193229686818100e+01
 1.250821246251867e+00	 1.151280248207841e+00	 2.720045436456044e+01
 1.226717004142848e+00	 1.176930495711709e+00	 3.245356777536024e+01
 1.202081528015000e+00	 1.202081528015000e+00	 3.765787984232887e+01
 1.433354812963030e+00	 9.370967026737852e-01	-1.523282871587663e+01
 1.413832915892732e+00	 9.662984714561537e-01	-1.084270791631145e+01
 1.393677086731460e+00	 9.951484451655477e-01	-6.210952338855272e+00
 1.372896777140140e+00	 1.023626244930612e+00	-1.379410053826451e+00
 1.351502303885272e+00	 1.051711829629835e+00	 3.609338756066899e+00
 1.329504833711112e+00	 1.079385541467129e+00	 8.712151213298879e+00
 1.306916365346132e+00	 1.106628150726181e+00	 1.388549560655439e+01
 1.283749708696792e+00	 1.133420899494219e+00	 1.908562858501865e+01
 1.260018461299061e+00	 1.159745544149826e+00	 2.426877453595988e+01
 1.235736982115218e+00	 1.185584396415142e+00	 2.939130596714913e+01
 1.210920362780000e+00	 1.210920362780000e+00	 3.440992369894492e+01
 1.443817256856928e+00	 9.439368245917042e-01	-1.739933541521100e+01
 1.424152864187609e+00	 9.733517449702592e-01	-1.310742259612644e+01
 1.403849912185693e+00	 1.002412302428751e+00	-8.550116983492380e+00
 1.382917921502332e+00	 1.031097969344938e+00	-3.779031740962022e+00
 1.361367284208887e+00	 1.059388558311753e+00	 1.153407472018017e+00
 1.339209248558698e+00	 1.087264268045545e+00	 6.194173661921351e+00
 1.316455900862197e+00	 1.114705728467110e+00	 1.128985471564073e+01
 1.293120144528811e+00	 1.141694044744604e+00	 1.638687327742366e+01
 1.269215676346595e+00	 1.168210840091492e+00	 2.143170885218659e+01
 1.244756960087773e+00	 1.194238297118396e+00	 2.637112066761889e+01
 1.219759197545000e+00	 1.219759197545000e+00	 3.115236981067058e+01
 1.454279700751320e+00	 9.507769465096340e-01	-1.904386592099803e+01
 1.434472812483067e+00	 9.804050184841950e-01	-1.490462589598917e+01
 1.414022737640563e+00	 1.009676159691643e+00	-1.047621742690832e+01
 1.392939065865185e+00	 1.038569693758851e+00	-5.819914592885009e+00
 1.371232264533160e+00	 1.067065286993196e+00	-9.978838345568803e-01
 1.348913663406908e+00	 1.095142994623464e+00	 3.927068583198562e+00
 1.325995436378822e+00	 1.122783306207561e+00	 8.891754766122146e+00
 1.302490580361295e+00	 1.149967189994570e+00	 1.383286737481455e+01
 1.278412891394469e+00	 1.176676136032838e+00	 1.868724407856499e+01
 1.253776938060513e+00	 1.202892197821469e+00	 2.339213252440804e+01
 1.228598032310000e+00	 1.228598032310000e+00	 2.788545405013607e+01
 1.464742144646208e+00	 9.576170684275745e-01	-2.017757780570261e+01
 1.444792760779105e+00	 9.874582919979614e-01	-1.624430807025661e+01
 1.424195563096069e+00	 1.016940016954224e+00	-1.199807701915444e+01
 1.402960210228699e+00	 1.046041418172352e+00	-7.509717700031700e+00
 1.381097244858090e+00	 1.074742015674165e+00	-2.851034881089127e+00
 1.358618078255741e+00	 1.103021721200889e+00	 1.905488501035165e+00
 1.335534971896006e+00	 1.130860883947535e+00	 6.686991151357084e+00
 1.311861016194242e+00	 1.158240335244118e+00	 1.142053754079109e+01
 1.287610106442683e+00	 1.185141431973866e+00	 1.603342434330629e+01
 1.262796916033438e+00	 1.211546098524362e+00	 2.045348714718373e+01
 1.237436867075000e+00	 1.237436867075000e+00	 2.460940538455026e+01
 1.149048519425000e+00	 1.149048519425000e+00	 5.692991815333063e+01
 1.125007091487334e+00	 1.172597136312511e+00	 5.864384546168686e+01
 1.100488472549222e+00	 1.195637955975838e+00	 6.008571938977480e+01
 1.075508882729801e+00	 1.218156657885667e+00	 6.122167341805393e+01
 1.050085106526311e+00	 1.240139616749326e+00	 6.201926315596629e+01
 1.024234455404330e+00	 1.261573929795459e+00	 6.244759760945084e+01
 9.979747288431317e-01	 1.282447441638376e+00	 6.247746142866571e+01
 9.713241740187781e-01	 1.302748766623323e+00	 6.208142737743625e+01
 9.443014443144199e-01	 1.322467308569620e+00	 6.123395835361059e+01
 9.169255568526588e-01	 1.341593277844826e+00	 5.991149838313546e+01
 8.892158492486486e-01	 1.360117705719598e+00	 5.809255210901001e+01
 1.157887354190000e+00	 1.157887354190000e+00	 5.374492224176284e+01
 1.133660992191846e+00	 1.181617114283772e+00	 5.527555255843124e+01
 1.108953768493124e+00	 1.204835171020993e+00	 5.661547206625647e+01
 1.083782027983116e+00	 1.227527093714434e+00	 5.773089247964641e+01
 1.058162684270582e+00	 1.249679152261479e+00	 5.858914574697535e+01
 1.032113181986218e+00	 1.271278344638683e+00	 5.915881734713288e+01
 1.005651457528369e+00	 1.292312421957389e+00	 5.940987214526574e+01
 9.787958984359921e-01	 1.312769910980883e+00	 5.931377201543609e+01
 9.515653015798000e-01	 1.332640134019404e+00	 5.884358451300916e+01
 9.239788303679534e-01	 1.351913226135644e+00	 5.797408196119672e+01
 8.960559711664935e-01	 1.370580149610033e+00	 5.668183040328765e+01
 1.166726188955000e+00	 1.166726188955000e+00	 5.054875317086852e+01
 1.142314892896179e+00	 1.190637092255217e+00	 5.189931295185973e+01
 1.117419064436706e+00	 1.214032386066488e+00	 5.313930285408443e+01
 1.092055173236014e+00	 1.236897529543666e+00	 5.423501014700339e+01
 1.066240262014376e+00	 1.259218687774190e+00	 5.515354353458371e+01
 1.039991908567610e+00	 1.280982759482529e+00	 5.586296846962723e+01
 1.013328186213133e+00	 1.302177402277059e+00	 5.633243659151910e+01
 9.862676228527935e-01	 1.322791055339106e+00	 5.653230846157847e+01
 9.588291588448689e-01	 1.342812959469824e+00	 5.643426883280679e+01
 9.310321038830781e-01	 1.362233174427042e+00	 5.601143376057023e+01
 9.028960930843491e-01	 1.381042593500963e+00	 5.523844893667074e+01
 1.175565023720000e+00	 1.175565023720000e+00	 4.734169404167606e+01
 1.150968793600331e+00	 1.199657070226847e+00	 4.851533691783023e+01
 1.125884360379969e+00	 1.223229601112323e+00	 4.965737628584502e+01
 1.100328318488492e+00	 1.246267965373361e+00	 5.073417235355946e+01
 1.074317839757692e+00	 1.268758223287460e+00	 5.171261098957039e+01
 1.047870635148505e+00	 1.290687174326999e+00	 5.256024104433659e+01
 1.021004914897422e+00	 1.312042382597387e+00	 5.324540734449549e+01
 9.937393472691824e-01	 1.332812199697989e+00	 5.373737850129265e+01
 9.660930161096266e-01	 1.352985784920880e+00	 5.400646872425621e+01
 9.380853773980332e-01	 1.372553122719020e+00	 5.402415288920792e+01
 9.097362150022150e-01	 1.391505037392387e+00	 5.376317417458012e+01
 1.184403858485000e+00	 1.184403858485000e+00	 4.412401933018531e+01
 1.159622694304304e+00	 1.208677048198662e+00	 4.512382827712226e+01
 1.134349656322913e+00	 1.232426816158497e+00	 4.616985180096029e+01
 1.108601463740551e+00	 1.255638401203522e+00	 4.722852049160863e+01
 1.082395417500531e+00	 1.278297758801290e+00	 4.826649778394504e+01
 1.055749361728906e+00	 1.300391589172092e+00	 4.925081927491793e+01
 1.028681643581237e+00	 1.321907362918372e+00	 5.014902924956660e+01
 1.001211071685159e+00	 1.342833344057535e+00	 5.092931352378760e+01
 9.733568733740733e-01	 1.363158610372571e+00	 5.156062774968518e+01
 9.451386509128182e-01	 1.382873071011578e+00	 5.201282037560359e+01
 9.165763369200917e-01	 1.401967481284305e+00	 5.225674950685780e+01
 1.193242693250000e+00	 1.193242693250000e+00	 4.089599520691116e+01
 1.168276595008097e+00	 1.217697026170663e+00	 4.172498463465379e+01
 1.142814952265537e+00	 1.241624031205012e+00	 4.267688393450067e+01
 1.116874608992193e+00	 1.265008837034148e+00	 4.371819158071233e+01
 1.090472995242892e+00	 1.287837294315678e+00	 4.481534896893049e+01
 1.063628088308809e+00	 1.310096004017808e+00	 4.593488171874692e+01
 1.036358372264577e+00	 1.331772343240015e+00	 4.704353970708821e+01
 1.008682796100723e+00	 1.352854488417742e+00	 4.810843490744556e+01
 9.806207306382095e-01	 1.373331435824898e+00	 4.909717613580070e+01
 9.521919244274334e-01	 1.393193019304715e+00	 4.997799983880934e+01
 9.234164588379790e-01	 1.412429925176719e+00	 5.071989610284801e+01
 1.202081528015000e+00	 1.202081528015000e+00	 3.765787984232887e+01
 1.176930495711710e+00	 1.226717004142848e+00	 3.831899760814173e+01
 1.151280248207841e+00	 1.250821246251867e+00	 3.917862249767010e+01
 1.125147754243415e+00	 1.274379272865238e+00	 4.020331842867439e+01
 1.098550572984775e+00	 1.297376829830625e+00	 4.135930514509890e+01
 1.071506814888217e+00	 1.319800418864148e+00	 4.261260149478609e+01
 1.044035100947444e+00	 1.341637323562315e+00	 4.392916894643164e+01
 1.016154520515874e+00	 1.362875632778610e+00	 4.527505438821908e+01
 9.878845879020346e-01	 1.383504261277861e+00	 4.661653126434581e+01
 9.592451979418788e-01	 1.403512967598433e+00	 4.792023812889308e+01
 9.302565807558767e-01	 1.422892369069627e+00	 4.915331372875665e+01
 1.210920362780000e+00	 1.210920362780000e+00	 3.440992369894492e+01
 1.185584396415142e+00	 1.235736982115218e+00	 3.490605304675178e+01
 1.159745544149826e+00	 1.260018461299061e+00	 3.567521275038489e+01
 1.133420899494219e+00	 1.283749708696792e+00	 3.668402978547032e+01
 1.106628150726181e+00	 1.306916365346132e+00	 3.789850262505112e+01
 1.079385541467129e+00	 1.329504833711111e+00	 3.928414648235113e+01
 1.051711829629836e+00	 1.351502303885272e+00	 4.080614028801361e+01
 1.023626244930612e+00	 1.372896777140139e+00	 4.242947441188802e+01
 9.951484451655483e-01	 1.393677086731459e+00	 4.411909814126874e+01
 9.662984714561544e-01	 1.413832915892731e+00	 4.584006593934579e+01
 9.370967026737852e-01	 1.433354812963030e+00	 4.755768152921003e+01
 1.219759197545000e+00	 1.219759197545000e+00	 3.115236981067058e+01
 1.194238297118396e+00	 1.244756960087773e+00	 3.148633124024227e+01
 1.168210840091492e+00	 1.269215676346595e+00	 3.216679556635388e+01
 1.141694044744604e+00	 1.293120144528811e+00	 3.316045049048245e+01
 1.114705728467110e+00	 1.316455900862197e+00	 3.443307358902788e+01
 1.087264268045545e+00	 1.339209248558698e+00	 3.594967951123596e+01
 1.059388558311753e+00	 1.361367284208887e+00	 3.767467039393552e+01
 1.031097969344938e+00	 1.382917921502331e+00	 3.957198847100562e+01
 1.002412302428751e+00	 1.403849912185693e+00	 4.160526984549315e+01
 9.733517449702599e-01	 1.424152864187609e+00	 4.373799839285914e+01
 9.439368245917042e-01	 1.443817256856928e+00	 4.593365877483501e+01
 1.228598032310000e+00	 1.228598032310000e+00	 2.788545405013607e+01
 1.202892197821469e+00	 1.253776938060513e+00	 2.806000711908024e+01
 1.176676136032838e+00	 1.278412891394469e+00	 2.865350759102942e+01
 1.149967189994570e+00	 1.302490580361294e+00	 2.963270161338132e+01
 1.122783306207561e+00	 1.325995436378822e+00	 3.096314623380171e+01
 1.095142994623465e+00	 1.348913663406907e+00	 3.260935854362947e+01
 1.067065286993196e+00	 1.371232264533159e+00	 3.453496950780251e+01
 1.038569693758852e+00	 1.392939065865184e+00	 3.670288142729721e+01
 1.009676159691643e+00	 1.414022737640563e+00	 3.907542795831472e+01
 9.804050184841961e-01	 1.434472812483067e+00	 4.161453560182399e+01
 9.507769465096340e-01	 1.454279700751320e+00	 4.428188557756795e+01
 1.237436867075000e+00	 1.237436867075000e+00	 2.460940538455026e+01
 1.211546098524362e+00	 1.262796916033438e+00	 2.462725044598344e+01
 1.185141431973866e+00	 1.287610106442683e+00	 2.513548139279413e+01
 1.158240335244119e+00	 1.311861016194243e+00	 2.610090058896927e+01
 1.130860883947535e+00	 1.335534971896005e+00	 2.748884491519100e+01
 1.103021721200889e+00	 1.358618078255741e+00	 2.926333684823726e+01
 1.074742015674166e+00	 1.381097244858090e+00	 3.138724168426464e+01
 1.046041418172353e+00	 1.402960210228699e+00	 3.382242982024344e+01
 1.016940016954224e+00	 1.424195563096068e+00	 3.652994297439928e+01
 9.874582919979624e-01	 1.444792760779105e+00	 3.947016320480150e+01
 9.576170684275745e-01	 1.464742144646208e+00	 4.260298357530768e+01
 8.892158492486486e-01	 1.360117705719598e+00	 5.809255210901001e+01
 8.611919357855461e-01	 1.378032455969275e+00	 7.165509458151021e+01
 8.328736632118816e-01	 1.395330233706523e+00	 8.378848986280204e+01
 8.042810663631879e-01	 1.412004591443889e+00	 9.446060294706264e+01
 7.754343238075456e-01	 1.428049932401566e+00	 1.036435715116404e+02
 7.463537137077207e-01	 1.443461511093458e+00	 1.113138488156852e+02
 7.170595700900940e-01	 1.458235431238257e+00	 1.174522250843469e+02
 6.875722397034173e-01	 1.472368641057263e+00	 1.220438277070806e+02
 6.579120396427711e-01	 1.485858926034374e+00	 1.250781007358931e+02
 6.280992159053126e-01	 1.498704899226502e+00	 1.265487643174065e+02
 5.981539030346663e-01	 1.510905989224438e+00	 1.264537548299577e+02
 8.960559711664935e-01	 1.370580149610033e+00	 5.668183040328765e+01
 8.678164891377838e-01	 1.388632705631433e+00	 7.055782774486134e+01
 8.392803836977581e-01	 1.406063543197860e+00	 8.257943763038790e+01
 8.104678437960666e-01	 1.422866165225804e+00	 9.273863394446327e+01
 7.813992032205448e-01	 1.439034931883307e+00	 1.010328618357139e+02
 7.520948961198254e-01	 1.454565061180535e+00	 1.074649541474592e+02
 7.225754129358753e-01	 1.469452626864787e+00	 1.120430232422606e+02
 6.928612569308982e-01	 1.483694553682143e+00	 1.147803294693170e+02
 6.629729014853196e-01	 1.497288610081763e+00	 1.156951276740698e+02
 6.329307483347361e-01	 1.510233398451768e+00	 1.148104932816470e+02
 6.027550869038751e-01	 1.522528342987494e+00	 1.121541295990145e+02
 9.028960930843491e-01	 1.381042593500963e+00	 5.523844893667074e+01
 8.744410424902173e-01	 1.399232955293995e+00	 6.955017299089431e+01
 8.456871041839830e-01	 1.416796852689532e+00	 8.158848290936564e+01
 8.166546212294176e-01	 1.433727739008007e+00	 9.136917506570055e+01
 7.873640826341083e-01	 1.450019931365309e+00	 9.891470415103170e+01
 7.578360785325561e-01	 1.465668611267865e+00	 1.042539743497755e+02
 7.280912557823146e-01	 1.480669822491582e+00	 1.074221028432674e+02
 6.981502741590386e-01	 1.495020466307319e+00	 1.084601578025445e+02
 6.680337633285006e-01	 1.508718294129499e+00	 1.074148731750831e+02
 6.377622807647348e-01	 1.521761897677452e+00	 1.043383426869729e+02
 6.073562707735738e-01	 1.534150696751061e+00	 9.928769557137805e+01
 9.097362150022150e-01	 1.391505037392387e+00	 5.376317417458012e+01
 8.810655958428457e-01	 1.409833204956963e+00	 6.863013857458571e+01
 8.520938246705574e-01	 1.427530162181541e+00	 8.081073558162655e+01
 8.228413986632397e-01	 1.444589312790497e+00	 9.034430411841215e+01
 7.933289620482358e-01	 1.461004930847569e+00	 9.727801721121932e+01
 7.635772609459127e-01	 1.476772161355446e+00	 1.016665490964589e+02
 7.336070986294119e-01	 1.491887018118641e+00	 1.035717116142064e+02
 7.034392913878393e-01	 1.506346378932792e+00	 1.030620629543148e+02
 6.730946251723136e-01	 1.520147978177585e+00	 1.002124919575077e+02
 6.425938131953089e-01	 1.533290396903557e+00	 9.510378127505454e+01
 6.119574546437619e-01	 1.545773050515137e+00	 8.782215275633794e+01
 9.165763369200917e-01	 1.401967481284305e+00	 5.225674950685780e+01
 8.876901491956691e-01	 1.420433454620336e+00	 6.779579201000740e+01
 8.585005451574801e-01	 1.438263471673887e+00	 8.024145130718982e+01
 8.290281760975334e-01	 1.455450886573275e+00	 8.965633519887653e+01
 7.992938414629273e-01	 1.471989930330090e+00	 9.611205035988745e+01
 7.693184433598954e-01	 1.487875711443280e+00	 9.968874653591976e+01
 7.391229414771665e-01	 1.503104213745964e+00	 1.004746270106568e+02
 7.087283086172992e-01	 1.517672291558560e+00	 9.856542930567002e+01
 6.781554870167587e-01	 1.531577662226018e+00	 9.406388020539040e+01
 6.474253456264587e-01	 1.544818896130081e+00	 8.707912928531863e+01
 6.165586385144400e-01	 1.557395404279724e+00	 7.772616516389617e+01
 9.234164588379790e-01	 1.412429925176719e+00	 5.071989610284801e+01
 8.943147025486875e-01	 1.431033704284114e+00	 6.704525787599599e+01
 8.649072656447517e-01	 1.448996781166568e+00	 7.987602612548532e+01
 8.352149535322991e-01	 1.466312460356341e+00	 8.929780994106818e+01
 8.052587208781826e-01	 1.482974929812870e+00	 9.540637128706487e+01
 7.750596257745040e-01	 1.498979261531365e+00	 9.830704742223992e+01
 7.446387843255793e-01	 1.514321409373550e+00	 9.811413659787684e+01
 7.140173258474193e-01	 1.528998204184626e+00	 9.495025188524612e+01
 6.832163488618361e-01	 1.543007346274800e+00	 8.894564810709826e+01
 6.522568780581836e-01	 1.556347395357025e+00	 8.023752691852775e+01
 6.211598223856076e-01	 1.569017758044822e+00	 6.896932510156884e+01
 9.302565807558767e-01	 1.422892369069627e+00	 4.915331372875665e+01
 9.009392559019015e-01	 1.441633953948297e+00	 6.637671571863399e+01
 8.713139861323717e-01	 1.459730090659585e+00	 7.970999129481250e+01
 8.414017309675366e-01	 1.477174034139694e+00	 8.926148915178891e+01
 8.112236002940023e-01	 1.493959929295910e+00	 9.515085432578384e+01
 7.808008081897385e-01	 1.510082811619702e+00	 9.750832994635594e+01
 7.501546271746498e-01	 1.525538605001402e+00	 9.647401929729128e+01
 7.193063430781990e-01	 1.540324116810988e+00	 9.219711391952052e+01
 6.882772107075457e-01	 1.554437030323931e+00	 8.483509360568789e+01
 6.570884104904839e-01	 1.567875894584390e+00	 7.455290419167208e+01
 6.257610062572652e-01	 1.580640111810430e+00	 6.152211904632669e+01
 9.370967026737852e-01	 1.433354812963030e+00	 4.755768152921003e+01
 9.075638092553103e-01	 1.452234203612885e+00	 6.578839804558883e+01
 8.777207066203410e-01	 1.470463400152938e+00	 7.973900835780960e+01
 8.475885084032457e-01	 1.488035607923335e+00	 8.954034481213630e+01
 8.171884797103856e-01	 1.504944928779209e+00	 9.533566926122249e+01
 7.865419906055990e-01	 1.521186361708291e+00	 9.727985523156947e+01
 7.556704700243780e-01	 1.536755800629518e+00	 9.553852745429691e+01
 7.245953603096386e-01	 1.551650029437648e+00	 9.028716536625440e+01
 6.933380725538877e-01	 1.565866714373410e+00	 8.171017729889290e+01
 6.619199429233596e-01	 1.579404393812174e+00	 6.999995211308487e+01
 6.303621901294124e-01	 1.592262465576548e+00	 5.535589501119681e+01
 9.439368245917042e-01	 1.443817256856928e+00	 4.593365877483501e+01
 9.141883626089141e-01	 1.462834453277879e+00	 6.527858840765916e+01
 8.841274271086591e-01	 1.481196709646628e+00	 7.995886442146613e+01
 8.537752858394263e-01	 1.498897181707264e+00	 9.012755242673985e+01
 8.231533591273332e-01	 1.515929928262769e+00	 9.595127062640746e+01
 7.922831730220854e-01	 1.532289911797133e+00	 9.760925345968725e+01
 7.611863128747642e-01	 1.547972996257898e+00	 9.529236968573123e+01
 7.298843775417380e-01	 1.562975942064603e+00	 8.920210238126865e+01
 6.983989344008616e-01	 1.577296398423238e+00	 7.954949843041473e+01
 6.667514753568107e-01	 1.590932893040377e+00	 6.655409511080921e+01
 6.349633740020493e-01	 1.603884819343176e+00	 5.044283133070550e+01
 9.507769465096340e-01	 1.454279700751320e+00	 4.428188557756795e+01
 9.208129159627132e-01	 1.473434702943277e+00	 6.484561956312731e+01
 8.905341475973253e-01	 1.491930019140653e+00	 8.036546764087618e+01
 8.599620632760784e-01	 1.509758755491480e+00	 9.101648370324043e+01
 8.291182385448447e-01	 1.526914927746587e+00	 9.698838745997026e+01
 7.980243554391980e-01	 1.543393461886226e+00	 9.848451059603086e+01
 7.667021557258082e-01	 1.559190191886543e+00	 9.572069446773334e+01
 7.351733947744968e-01	 1.574301854691855e+00	 8.892414767153981e+01
 7.034597962484678e-01	 1.588726082473414e+00	 7.833227191755967e+01
 6.715830077908371e-01	 1.602461392269001e+00	 6.419146465111069e+01
 6.395645578751757e-01	 1.615507173110314e+00	 4.675590679371056e+01
 9.576170684275745e-01	 1.464742144646208e+00	 4.260298357530768e+01
 9.274374693167079e-01	 1.484034952609081e+00	 6.448787172078228e+01
 8.969408680863412e-01	 1.502663328635016e+00	 8.095484289654442e+01
 8.661488407132029e-01	 1.520620329275986e+00	 9.220069954550959e+01
 8.350831179629206e-01	 1.537899927230666e+00	 9.843801350285825e+01
 8.037655378569366e-01	 1.554497011975572e+00	 9.989395568337585e+01
 7.722179985775102e-01	 1.570407387515452e+00	 9.680907442698434e+01
 7.404624120079161e-01	 1.585627767319404e+00	 8.943603169030840e+01
 7.085206580967063e-01	 1.600155766523939e+00	 7.803830636340501e+01
 6.764145402254393e-01	 1.613989891498045e+00	 6.288887398762103e+01
 6.441657417487923e-01	 1.627129526877964e+00	 4.426887205625411e+01
 5.981539030346663e-01	 1.510905989224438e+00	 1.264537548299577e+02
 5.680960850001699e-01	 1.522462425874857e+00	 1.150173521386641e+02
 5.379455574460040e-01	 1.533375223883753e+00	 1.017287811470024e+02
 5.077218914329504e-01	 1.543646164429884e+00	 8.666489177561429e+01
 4.774443987833440e-01	 1.553277774923845e+00	 6.990794816012929e+01
 4.471320991271144e-01	 1.562273307054313e+00	 5.154513899152065e+01
 4.168036887336734e-01	 1.570636713267633e+00	 3.166807902316444e+01
 3.864775112014002e-01	 1.578372621830225e+00	 1.037230522743384e+01
 3.561715300634782e-01	 1.585486310625523e+00	-1.224322902465466e+01
 3.259033033559552e-01	 1.591983679838119e+00	-3.607665852312395e+01
 2.956899601812942e-01	 1.597871223677692e+00	-6.102370643994118e+01
 6.027550869038751e-01	 1.522528342987494e+00	 1.121541295990145e+02
 5.724660548848367e-01	 1.534173675303793e+00	 9.877126168346723e+01
 5.420836001959101e-01	 1.545170417912212e+00	 8.469822173434616e+01
 5.116274444444988e-01	 1.555520365692882e+00	 6.994678988142293e+01
 4.811170480054178e-01	 1.565226065498014e+00	 5.453205481515185e+01
 4.505715768134437e-01	 1.574290794029277e+00	 3.847225431562919e+01
 4.200098709554459e-01	 1.582718534136446e+00	 2.178860441071312e+01
 3.894504151344075e-01	 1.590513949687990e+00	 4.505118704627593e+00
 3.589113110645378e-01	 1.597682359166444e+00	-1.335158057082200e+01
 3.284102518437008e-01	 1.604229708142433e+00	-3.175245823489490e+01
 2.979644983366877e-01	 1.610162540781094e+00	-5.066626703799174e+01
 6.073562707735738e-01	 1.534150696751061e+00	 9.928769557137805e+01
 5.768360247698988e-01	 1.545884924733330e+00	 8.364379007566018e+01
 5.462216429461266e-01	 1.556965611941338e+00	 6.845652029008676e+01
 5.155329974562838e-01	 1.567394566956594e+00	 5.367337864590325e+01
 4.847896972276649e-01	 1.577174356072925e+00	 3.924307889113442e+01
 4.540110544998927e-01	 1.586308281004989e+00	 2.511572365763570e+01
 4.232160531772945e-01	 1.594800355005994e+00	 1.124295815106984e+01
 3.924233190674576e-01	 1.602655277546456e+00	-2.421890419340487e+00
 3.616510920656160e-01	 1.609878407708013e+00	-1.592368792461469e+01
 3.309172003314512e-01	 1.616475736447324e+00	-2.930538304116147e+01
 3.002390364920813e-01	 1.622453857884982e+00	-4.260791162499167e+01
 6.119574546437619e-01	 1.545773050515137e+00	 8.782215275633794e+01
 5.812059946553556e-01	 1.557596174163466e+00	 6.960973272452772e+01
 5.503596856966543e-01	 1.568760805971133e+00	 5.298591022412881e+01
 5.194385504683057e-01	 1.579268768221021e+00	 3.783465443942652e+01
 4.884623464500848e-01	 1.589122646648578e+00	 2.403908662263108e+01
 4.574505321864613e-01	 1.598325767981450e+00	 1.148197161956680e+01
 4.264222353992193e-01	 1.606882175876276e+00	 4.619304266830326e-02
 3.953962230005502e-01	 1.614796605405623e+00	-1.038479019971063e+01
 3.643908730667133e-01	 1.622074456250230e+00	-1.992650806088017e+01
 3.334241488192061e-01	 1.628721764752790e+00	-2.869306598896333e+01
 3.025135746474747e-01	 1.634745174989355e+00	-3.679675556625868e+01
 6.165586385144400e-01	 1.557395404279724e+00	 7.772616516389617e+01
 5.855759645412076e-01	 1.569307423594202e+00	 5.664463724093741e+01
 5.544977284474925e-01	 1.580556000001596e+00	 3.826915512228388e+01
 5.233441034805644e-01	 1.591142969486163e+00	 2.242091208263383e+01
 4.921349956726781e-01	 1.601070937224973e+00	 8.918201807842301e+00
 4.608900098731494e-01	 1.610343254958658e+00	-2.422769131257255e+00
 4.296284176212204e-01	 1.618963996747293e+00	-1.178708760341464e+01
 3.983691269336854e-01	 1.626937933265491e+00	-1.936036322248605e+01
 3.671306540678292e-01	 1.634270504793095e+00	-2.532798445176626e+01
 3.359310973069657e-01	 1.640967793058833e+00	-2.987440494256978e+01
 3.047881128028683e-01	 1.647036492094213e+00	-3.318246314771698e+01
 6.211598223856076e-01	 1.569017758044822e+00	 6.896932510156884e+01
 5.899459344274547e-01	 1.581018673025537e+00	 4.472477557854743e+01
 5.586357711986415e-01	 1.592351194032726e+00	 2.428952911064546e+01
 5.272496564930597e-01	 1.603017170752021e+00	 7.422733793230435e+00
 4.958076448954447e-01	 1.613019227802109e+00	-6.121396322877047e+00
 4.643294875599572e-01	 1.622360741936614e+00	-1.659245075305128e+01
 4.328345998432976e-01	 1.631045817619043e+00	-2.424271331531856e+01
 4.013420308668634e-01	 1.639079261126060e+00	-2.932608013989102e+01
 3.698704350689641e-01	 1.646466553336608e+00	-3.209701052936619e+01
 3.384380457947301e-01	 1.653213821365451e+00	-3.280951573800388e+01
 3.070626509582619e-01	 1.659327809199556e+00	-3.171619020810288e+01
 6.257610062572652e-01	 1.580640111810430e+00	 6.152211904632669e+01
 5.943159043140965e-01	 1.592729922457472e+00	 3.382711740407858e+01
 5.627738139501012e-01	 1.604146388064524e+00	 1.103079808623971e+01
 5.311552095057922e-01	 1.614891372018594e+00	-7.169021379579476e+00
 4.994802941183842e-01	 1.624967518379987e+00	-2.108147514447511e+01
 4.677689652468848e-01	 1.634378228915318e+00	-3.102120343403356e+01
 4.360407820654509e-01	 1.643127638491529e+00	-3.730693054673603e+01
 4.043149348000838e-01	 1.651220588987329e+00	-4.026007437338195e+01
 3.726102160701177e-01	 1.658662601880768e+00	-4.020339476030829e+01
 3.409449942824992e-01	 1.665459849672645e+00	-3.745968740428101e+01
 3.093371891136554e-01	 1.671619126305386e+00	-3.235052930210141e+01
 6.303621901294124e-01	 1.592262465576548e+00	 5.535589501119681e+01
 5.986858742011336e-01	 1.604441171890006e+00	 2.392930463385104e+01
 5.669118567018716e-01	 1.615941582096991e+00	-1.522798230311004e+00
 5.350607625187613e-01	 1.626765573285882e+00	-2.136322765793440e+01
 5.031529433414970e-01	 1.636915808958607e+00	-3.596375058542765e+01
 4.712084429339320e-01	 1.646395715894772e+00	-4.570332889451090e+01
 4.392469642876805e-01	 1.655209459364748e+00	-5.096638746019934e+01
 4.072878387333470e-01	 1.663361916849300e+00	-5.214111792455746e+01
 3.753499970712901e-01	 1.670858650425577e+00	-4.961782724992324e+01
 3.434519427702728e-01	 1.677705877980415e+00	-4.378733934576037e+01
 3.116117272690490e-01	 1.683910443411700e+00	-3.503945726509893e+01
 6.349633740020493e-01	 1.603884819343176e+00	 5.044283133070550e+01
 6.030558440885656e-01	 1.616152421323141e+00	 1.500962707742673e+01
 5.710498994539527e-01	 1.627736776130124e+00	-1.338656346180417e+01
 5.389663155319673e-01	 1.638639774553884e+00	-3.516850219890220e+01
 5.068255925647830e-01	 1.648864099537968e+00	-5.076988899126150e+01
 4.746479206210989e-01	 1.658413202874972e+00	-6.063329417148079e+01
 4.424531465099864e-01	 1.667291280238702e+00	-6.520811937196348e+01
 4.102607426666527e-01	 1.675503244711971e+00	-6.494859823776676e+01
 3.780897780724816e-01	 1.683054698971034e+00	-6.031184779840742e+01
 3.459588912580512e-01	 1.689951906288762e+00	-5.175598038613410e+01
 3.138862654244425e-01	 1.696201760518499e+00	-3.973828505772966e+01
 6.395645578751757e-01	 1.615507173110314e+00	 4.675590679371056e+01
 6.074258139763925e-01	 1.627863670756874e+00	 7.046999132604668e+00
 5.751879422063448e-01	 1.639531970163926e+00	-2.457536100045344e+01
 5.428718685454100e-01	 1.650513975822602e+00	-4.859321434093577e+01
 5.104982417882420e-01	 1.660812390118072e+00	-6.550150890763413e+01
 4.780873983083853e-01	 1.670430689855921e+00	-7.580572567152721e+01
 4.456593287323683e-01	 1.679373101113391e+00	-8.001953482516950e+01
 4.132336466000011e-01	 1.687644572575344e+00	-7.866249606145770e+01
 3.808295590736919e-01	 1.695250747517139e+00	-7.225781533585602e+01
 3.484658397458342e-01	 1.702197934597684e+00	-6.133016958030317e+01
 3.161608035798359e-01	 1.708493077625785e+00	-4.640360977540546e+01
 6.441657417487923e-01	 1.627129526877964e+00	 4.426887205625411e+01
 6.117957838646149e-01	 1.639574920191208e+00	 2.093747920079636e-02
 5.793259849590476e-01	 1.651327164198396e+00	-3.510362972991548e+01
 5.467774215590897e-01	 1.662388177092036e+00	-6.164549445405416e+01
 5.141708910118744e-01	 1.672760680698918e+00	-8.016018278700163e+01
 4.815268759957917e-01	 1.682448176837619e+00	-9.121540347859110e+01
 4.488655109548267e-01	 1.691454921988814e+00	-9.538840225987103e+01
 4.162065505333923e-01	 1.699785900439417e+00	-9.326336425832329e+01
 3.835693400749210e-01	 1.707446796063892e+00	-8.542887866722462e+01
 3.509727882336220e-01	 1.714443962907183e+00	-7.247547870574397e+01
 3.184353417352296e-01	 1.720784394733555e+00	-5.499326871458155e+01
 2.956899601812942e-01	 1.597871223677692e+00	-6.102370643994118e+01
 2.655481792878332e-01	 1.603156001294210e+00	-7.533579531959289e+01
 2.354941696761790e-01	 1.607845607033304e+00	-8.453513961153836e+01
 2.055436532290555e-01	 1.611948140178152e+00	-8.877313595732733e+01
 1.757118493506961e-01	 1.615472174320239e+00	-8.821384273136387e+01
 1.460134615946999e-01	 1.618426726496131e+00	-8.303281220015552e+01
 1.164626662474424e-01	 1.620821226222415e+00	-7.341592257869017e+01
 8.707310282611763e-02	 1.622665484554889e+00	-5.955821691554827e+01
 5.785786644259734e-02	 1.623969663291593e+00	-4.166275528056510e+01
 2.882950197718375e-02	 1.624744244432313e+00	-1.993948624352973e+01
 0.000000000000000e+00	 1.625000000000000e+00	 5.395856873283552e+00
 2.979644983366877e-01	 1.610162540781094e+00	-5.066626703799174e+01
 2.675908575899578e-01	 1.615487970533476e+00	-6.067392711827405e+01
 2.373056632887938e-01	 1.620213650163185e+00	-6.850315572734871e+01
 2.071247582534782e-01	 1.624347741255574e+00	-7.420217928690683e+01
 1.770634789605836e-01	 1.627898883352835e+00	-7.782620674148434e+01
 1.471366420679667e-01	 1.630876162853355e+00	-7.943689893995875e+01
 1.173585329103589e-01	 1.633289081808462e+00	-7.910183201934849e+01
 8.774289592431626e-02	 1.635147526743617e+00	-7.689395833819287e+01
 5.830292695333918e-02	 1.636461737624537e+00	-7.289106831399086e+01
 2.905126737680813e-02	 1.637242277081775e+00	-6.717525630911247e+01
 0.000000000000000e+00	 1.637500000000000e+00	-5.983239348571885e+01
 3.002390364920813e-01	 1.622453857884982e+00	-4.260791162499167e+01
 2.696335358920826e-01	 1.627819939773135e+00	-4.798059813443802e+01
 2.391171569014086e-01	 1.632581693293372e+00	-5.406853883191177e+01
 2.087058632779007e-01	 1.636747342333230e+00	-6.081812744808160e+01
 1.784151085704711e-01	 1.640325592385602e+00	-6.817711137743072e+01
 1.482598225412336e-01	 1.643325599210697e+00	-7.609469214133796e+01
 1.182543995732755e-01	 1.645756937394584e+00	-8.452161403470663e+01
 8.841268902251494e-02	 1.647629568932387e+00	-9.341024114851109e+01
 5.874798746408103e-02	 1.648953811957498e+00	-1.027146230304143e+02
 2.927303277643252e-02	 1.649740309731242e+00	-1.123905493083285e+02
 0.000000000000000e+00	 1.650000000000000e+00	-1.223955936572702e+02
 3.025135746474747e-01	 1.634745174989355e+00	-3.679675556625868e+01
 2.716762141942071e-01	 1.640151909013182e+00	-3.721137981541121e+01
 2.409286505140234e-01	 1.644949736423866e+00	-4.119523286040841e+01
 2.102869683023234e-01	 1.649146943411119e+00	-4.859418310019403e+01
 1.797667381803585e-01	 1.652752301418539e+00	-5.924987295379339e+01
 1.493830030145004e-01	 1.655775035568155e+00	-7.300044440280456e+01
 1.191502662361921e-01	 1.658224792980780e+00	-8.968124697306820e+01
 8.908248212071354e-02	 1.660111611121198e+00	-1.091255250216862e+02
 5.919304797482287e-02	 1.661445886290479e+00	-1.311650815256384e+02
 2.949479817605690e-02	 1.662238342380713e+00	-1.556309159013157e+02
 0.000000000000000e+00	 1.662500000000000e+00	-1.823538337166968e+02
 3.047881128028683e-01	 1.647036492094213e+00	-3.318246314771698e+01
 2.737188924963317e-01	 1.652483878253622e+00	-2.832316995274203e+01
 2.427401441266382e-01	 1.657317779554668e+00	-2.984825816023080e+01
 2.118680733267460e-01	 1.661546544489241e+00	-3.750434892776210e+01
 1.811183677902460e-01	 1.665179010451648e+00	-5.102830590276746e+01
 1.505061834877673e-01	 1.668224471925732e+00	-7.014857997663898e+01
 1.200461328991086e-01	 1.670692648567053e+00	-9.458653080635011e+01
 8.975227521891216e-02	 1.672593653310051e+00	-1.240577186716574e+02
 5.963810848556471e-02	 1.673937960623477e+00	-1.582731608240263e+02
 2.971656357568129e-02	 1.674736375030189e+00	-1.969405470845417e+02
 0.000000000000000e+00	 1.675000000000000e+00	-2.397654100549145e+02
 3.070626509582619e-01	 1.659327809199556e+00	-3.171619020810288e+01
 2.757615707984564e-01	 1.664815847494451e+00	-2.127414355800473e+01
 2.445516377392530e-01	 1.669685822685776e+00	-1.999367162356045e+01
 2.134491783511686e-01	 1.673946145567598e+00	-2.752339800964437e+01
 1.824699974001335e-01	 1.677605719484926e+00	-4.349670432511692e+01
 1.516293639610341e-01	 1.680673908283426e+00	-6.753368841114306e+01
 1.209419995620252e-01	 1.683160504153399e+00	-9.924309373645207e+01
 9.042206831711082e-02	 1.685075695498947e+00	-1.382242002569624e+02
 6.008316899630655e-02	 1.686430034956494e+00	-1.840686678810645e+02
 2.993832897530567e-02	 1.687234407679669e+00	-2.363623245486746e+02
 0.000000000000000e+00	 1.687500000000000e+00	-2.946868918111858e+02
 3.093371891136554e-01	 1.671619126305386e+00	-3.235052930210141e+01
 2.778042491005809e-01	 1.677147816735672e+00	-1.602370590584782e+01
 2.463631313518678e-01	 1.682053865817191e+00	-1.159852857880161e+01
 2.150302833755913e-01	 1.686345746646188e+00	-1.862684549545148e+01
 1.838216270100210e-01	 1.690032428518376e+00	-3.663982435506727e+01
 1.527525444343010e-01	 1.693123344641238e+00	-6.515051847338384e+01
 1.218378662249418e-01	 1.695628359739820e+00	-1.036563985101698e+02
 9.109186141530945e-02	 1.697557737687884e+00	-1.516418368863365e+02
 6.052822950704838e-02	 1.698922109289530e+00	-2.085805330416955e+02
 3.016009437493006e-02	 1.699732440329154e+00	-2.739378688147853e+02
 0.000000000000000e+00	 1.700000000000000e+00	-3.471731843750166e+02
 3.116117272690490e-01	 1.683910443411700e+00	-3.503945726509893e+01
 2.798469274027056e-01	 1.689479785977283e+00	-1.253244763355206e+01
 2.481746249644826e-01	 1.694421908948912e+00	-4.630846351004299e+00
 2.166113884000138e-01	 1.698745347725011e+00	-1.079092152240331e+01
 1.851732566199084e-01	 1.702459137551994e+00	-3.044286729753690e+01
 1.538757249075678e-01	 1.705572780999167e+00	-6.299397233809064e+01
 1.227337328878583e-01	 1.708096215326316e+00	-1.078317484575446e+02
 9.176165451350807e-02	 1.710039779876861e+00	-1.643270032700407e+02
 6.097329001779021e-02	 1.711414183622584e+00	-2.318368420333238e+02
 3.038185977455445e-02	 1.712230472978645e+00	-3.097075852623894e+02
 0.000000000000000e+00	 1.712500000000000e+00	-3.972775901069516e+02
 3.138862654244425e-01	 1.696201760518499e+00	-3.973828505772966e+01
 2.818896057048302e-01	 1.701811755219286e+00	-1.076210179278159e+01
 2.499861185770973e-01	 1.706789952080941e+00	 9.404305933841837e-01
 2.181924934244365e-01	 1.711144948804068e+00	-3.992545309717829e+00
 1.865248862297958e-01	 1.714885846585784e+00	-2.489146349853296e+01
 1.549989053808347e-01	 1.718022217357214e+00	-6.105910002921464e+01
 1.236295995507749e-01	 1.720564070912886e+00	-1.117742932676715e+02
 9.243144761170670e-02	 1.722521822065882e+00	-1.762955995602642e+02
 6.141835052853206e-02	 1.723906257955657e+00	-2.538648665678139e+02
 3.060362517417883e-02	 1.724728505628139e+00	-3.437107081562811e+02
 0.000000000000000e+00	 1.725000000000000e+00	-4.450518664193329e+02
 3.161608035798359e-01	 1.708493077625785e+00	-4.640360977540546e+01
 2.839322840069549e-01	 1.714143724461679e+00	-1.067550275521652e+01
 2.517976121897121e-01	 1.719157995213276e+00	 5.145463997223082e+00
 2.197735984488592e-01	 1.723544549883358e+00	 1.790699628774995e+00
 1.878765158396833e-01	 1.727312555619745e+00	-1.997165691179162e+01
 1.561220858541015e-01	 1.730471653715379e+00	-5.934109410141286e+01
 1.245254662136915e-01	 1.733031926499532e+00	-1.154890345151975e+02
 9.310124070990533e-02	 1.735003864254944e+00	-1.875630684214418e+02
 6.186341103927389e-02	 1.736398332288747e+00	-2.746910936225478e+02
 3.082539057380321e-02	 1.737226538277638e+00	-3.759853427729139e+02
 0.000000000000000e+00	 1.737499999999999e+00	-4.905462813499765e+02
 3.184353417352296e-01	 1.720784394733555e+00	-5.499326871458155e+01
 2.859749623090795e-01	 1.726475693704463e+00	-1.223654687937366e+01
 2.536091058023270e-01	 1.731526038345919e+00	 8.013553734066384e+00
 2.213547034732818e-01	 1.735944150962882e+00	 6.580589209699244e+00
 1.892281454495708e-01	 1.739739264653876e+00	-1.566989032684542e+01
 1.572452663273684e-01	 1.742921090073661e+00	-5.783528454947883e+01
 1.254213328766080e-01	 1.745499782086253e+00	-1.189808309499674e+02
 9.377103380810400e-02	 1.747485906444048e+00	-1.981444113689835e+02
 6.230847155001576e-02	 1.748890406621857e+00	-2.943412534665792e+02
 3.104715597342760e-02	 1.749724570927141e+00	-4.065685057213781e+02
 0.000000000000000e+00	 1.750000000000000e+00	-5.338096667541207e+02
 1.750000000000000e+00	 0.000000000000000e+00	-1.072514931907819e+02
 1.749724570927141e+00	 3.104715597342660e-02	-8.513329984697303e+01
 1.748890406621857e+00	 6.230847155001488e-02	-6.969387898140242e+01
 1.747485906444049e+00	 9.377103380810323e-02	-6.057041058100254e+01
 1.745499782086252e+00	 1.254213328766073e-01	-5.736453373696335e+01
 1.742921090073661e+00	 1.572452663273678e-01	-5.964221935485038e+01
 1.739739264653876e+00	 1.892281454495704e-01	-6.693380700243360e+01
 1.735944150962882e+00	 2.213547034732815e-01	-7.873421530102480e+01
 1.731526038345919e+00	 2.536091058023268e-01	-9.450333455676092e+01
 1.726475693704463e+00	 2.859749623090794e-01	-1.136666094870285e+02
 1.720784394733555e+00	 3.184353417352296e-01	-1.356158189235051e+02
 1.762500000000000e+00	 0.000000000000000e+00	-6.586593289464533e+01
 1.762222603576645e+00	 3.126892137305098e-02	-5.273949528226363e+01
 1.761382480954966e+00	 6.275353206075669e-02	-4.451178869691228e+01
 1.759967948633153e+00	 9.444082690630186e-02	-4.086985342713665e+01
 1.757967637672972e+00	 1.263171995395239e-01	-4.147292088795001e+01
 1.755370526431943e+00	 1.583684468006347e-01	-4.595242188375818e+01
 1.752165973688007e+00	 1.905797750594578e-01	-5.391212841912480e+01
 1.748343752042406e+00	 2.229358084977041e-01	-6.492843603582190e+01
 1.743894081478562e+00	 2.554205994149417e-01	-7.855079303904841e+01
 1.738807662947248e+00	 2.880176406112040e-01	-9.430228225679130e+01
 1.733075711841326e+00	 3.207098798906232e-01	-1.116803601542347e+02
 1.775000000000000e+00	 0.000000000000000e+00	-1.803091930917540e+01
 1.774720636226143e+00	 3.149068677267536e-02	-1.456460034353632e+01
 1.773874555288057e+00	 6.319859257149853e-02	-1.424456962728409e+01
 1.772449990822214e+00	 9.511062000450050e-02	-1.680725956966478e+01
 1.770435493259618e+00	 1.272130662024405e-01	-2.196895024236699e+01
 1.767819962790108e+00	 1.594916272739015e-01	-2.942591177295714e+01
 1.764592682721967e+00	 1.919314046693453e-01	-3.885464995650727e+01
 1.760743353121696e+00	 2.245169135221267e-01	-4.991225965754055e+01
 1.756262124610897e+00	 2.572320930275563e-01	-6.223689005197927e+01
 1.751139632189640e+00	 2.900603189133286e-01	-7.544832516123796e+01
 1.745367028948611e+00	 3.229844180460166e-01	-8.914868245899613e+01
 1.787500000000000e+00	 0.000000000000000e+00	 3.611824577256210e+01
 1.787218668875638e+00	 3.171245217229974e-02	 2.927010620512761e+01
 1.786366629621130e+00	 6.364365308224038e-02	 2.100110145456658e+01
 1.784932033011234e+00	 9.578041310269911e-02	 1.152586534811973e+01
 1.782903348846188e+00	 1.281089328653570e-01	 1.071601417317293e+00
 1.780269399148155e+00	 1.606148077471684e-01	-1.012219223352181e+01
 1.777019391755757e+00	 1.932830342792328e-01	-2.180407120206630e+01
 1.773142954200753e+00	 2.260980185465493e-01	-3.371106839247743e+01
 1.768630167742926e+00	 2.590435866401711e-01	-4.556919470602502e+01
 1.763471601431642e+00	 2.921029972154534e-01	-5.709401809712009e+01
 1.757658346055410e+00	 3.252589562014102e-01	-6.799132175174719e+01
 1.800000000000000e+00	 0.000000000000000e+00	 9.645001904927861e+01
 1.799716701525128e+00	 3.193421757192412e-02	 7.864671455752918e+01
 1.798858703954184e+00	 6.408871359298220e-02	 6.112151111709267e+01
 1.797414075200213e+00	 9.645020620089774e-02	 4.404055759806444e+01
 1.795371204432684e+00	 1.290047995282736e-01	 2.757506230471225e+01
 1.792718835506084e+00	 1.617379882204352e-01	 1.190088646936363e+01
 1.789446100789376e+00	 1.946346638891202e-01	-2.801905571514858e+00
 1.785542555279577e+00	 2.276791235709719e-01	-1.634953933999976e+01
 1.780998210874648e+00	 2.608550802527859e-01	-2.855506580074697e+01
 1.775803570673254e+00	 2.941456755175779e-01	-3.922893869143226e+01
 1.769949663161724e+00	 3.275334943568037e-01	-4.817963235048458e+01
 1.812500000000000e+00	 0.000000000000000e+00	 1.628364861082977e+02
 1.812214734174612e+00	 3.215598297154849e-02	 1.334505676943282e+02
 1.811350778287220e+00	 6.453377410372405e-02	 1.060158070858128e+02
 1.809896117389150e+00	 9.711999929909636e-02	 8.065030771473465e+01
 1.807839060019105e+00	 1.299006661911902e-01	 5.746979304320774e+01
 1.805168271863896e+00	 1.628611686937021e-01	 3.658707001799591e+01
 1.801872809822825e+00	 1.959862934990077e-01	 1.811147878841151e+01
 1.797942156358166e+00	 2.292602285953945e-01	 2.148331212370849e+00
 1.793366254006062e+00	 2.626665738654007e-01	-1.120165907729655e+01
 1.788135539914474e+00	 2.961883538197025e-01	-2.184295203528582e+01
 1.782240980267553e+00	 3.298080325121973e-01	-2.968575875687976e+01
 1.825000000000000e+00	 0.000000000000000e+00	 2.351532371485474e+02
 1.824712766824093e+00	 3.237774837117288e-02	 1.935701499861731e+02
 1.823842852620237e+00	 6.497883461446587e-02	 1.555859002583613e+02
 1.822378159578045e+00	 9.778979239729499e-02	 1.212709764451485e+02
 1.820306915605452e+00	 1.307965328541067e-01	 9.068611706267447e+01
 1.817617708221590e+00	 1.639843491669689e-01	 6.388164538614343e+01
 1.814299518856104e+00	 1.973379231088951e-01	 4.089681977809515e+01
 1.810341757436523e+00	 2.308413336198172e-01	 2.175920447312450e+01
 1.805734297137171e+00	 2.644780674780155e-01	 6.484065827131513e+00
 1.800467509155304e+00	 2.982310321218272e-01	-4.926200839678273e+00
 1.794532297372897e+00	 3.320825706675907e-01	-1.248260859565514e+01
 1.837500000000000e+00	 0.000000000000000e+00	 3.132792477760843e+02
 1.837210799473569e+00	 3.259951377079726e-02	 2.588969803436410e+02
 1.836334926953235e+00	 6.542389512520771e-02	 2.097363707189250e+02
 1.834860201766898e+00	 9.845958549549363e-02	 1.658207141291343e+02
 1.832774771191723e+00	 1.316923995170233e-01	 1.271562538371157e+02
 1.830067144579166e+00	 1.651075296402358e-01	 9.373138841389525e+01
 1.826726227889211e+00	 1.986895527187826e-01	 6.551592372407106e+01
 1.822741358514645e+00	 2.324224386442398e-01	 4.246037678259669e+01
 1.818102340267972e+00	 2.662895610906304e-01	 2.449533870870410e+01
 1.812799478395743e+00	 3.002737104239518e-01	 1.153090400693185e+01
 1.806823614477755e+00	 3.343571088229843e-01	 3.456173341525425e+00
 1.850000000000000e+00	 0.000000000000000e+00	 3.970967646322311e+02
 1.849708832123041e+00	 3.282127917042164e-02	 3.293255096989394e+02
 1.848827001286216e+00	 6.586895563594955e-02	 2.683743775629063e+02
 1.847342243955709e+00	 9.912937859369225e-02	 2.142198833480516e+02
 1.845242626777920e+00	 1.325882661799398e-01	 1.668142548289011e+02
 1.842516580936625e+00	 1.662307101135026e-01	 1.260845135078549e+02
 1.839152936922149e+00	 2.000411823286701e-01	 9.193162928323517e+01
 1.835140959592534e+00	 2.340035436686624e-01	 6.422975815545709e+01
 1.830470383398466e+00	 2.681010547032451e-01	 4.282557239678123e+01
 1.825131447635792e+00	 3.023163887260764e-01	 2.753769249825126e+01
 1.819114931582128e+00	 3.366316469783779e-01	 1.815622999989255e+01
 1.862500000000000e+00	 0.000000000000000e+00	 4.864911956272927e+02
 1.862206864772507e+00	 3.304304457004600e-02	 4.047530226158555e+02
 1.861319075619178e+00	 6.631401614669137e-02	 3.314095723528067e+02
 1.859824286144479e+00	 9.979917169189090e-02	 2.663909846883274e+02
 1.857710482364042e+00	 1.334841328428564e-01	 2.095959420124267e+02
 1.854966017293967e+00	 1.673538905867695e-01	 1.608906253668283e+02
 1.851579645954916e+00	 2.013928119385575e-01	 1.201077728005754e+02
 1.847540560670190e+00	 2.355846486930850e-01	 8.704585168725964e+01
 1.842838426528654e+00	 2.699125483158599e-01	 6.146835661147620e+01
 1.837463416875449e+00	 3.043590670282010e-01	 4.310324420495969e+01
 1.831406248686016e+00	 3.389061851337714e-01	 3.164251596256622e+01
 1.875000000000000e+00	 0.000000000000000e+00	 5.813510045649261e+02
 1.874704897421970e+00	 3.326480996967039e-02	 4.850795428353179e+02
 1.873811149952121e+00	 6.675907665743323e-02	 3.987540160358767e+02
 1.872306328333207e+00	 1.004689647900895e-01	 3.222585854744590e+02
 1.870178337950090e+00	 1.343799995057729e-01	 2.554388488568311e+02
 1.867415453651191e+00	 1.684770710600364e-01	 1.981006726384864e+02
 1.864006354987513e+00	 2.027444415484450e-01	 1.500091550525931e+02
 1.859940161747613e+00	 2.371657537175077e-01	 1.108877337847332e+02
 1.855206469658534e+00	 2.717240419284748e-01	 8.041745206691186e+01
 1.849795386114716e+00	 3.064017453303257e-01	 5.823639662172801e+01
 1.843697565789419e+00	 3.411807232891650e-01	 4.393932039551681e+01
 1.720784394733555e+00	 3.184353417352296e-01	-1.356158189235051e+02
 1.714443962907183e+00	 3.509727882336210e-01	-1.275207296668852e+02
 1.707446796063893e+00	 3.835693400749201e-01	-1.182446465420374e+02
 1.699785900439417e+00	 4.162065505333916e-01	-1.079861867638304e+02
 1.691454921988814e+00	 4.488655109548259e-01	-9.695308551817237e+01
 1.682448176837619e+00	 4.815268759957912e-01	-8.536168800434751e+01
 1.672760680698918e+00	 5.141708910118742e-01	-7.343637789674506e+01
 1.662388177092036e+00	 5.467774215590895e-01	-6.140894304017520e+01
 1.651327164198396e+00	 5.793259849590476e-01	-4.951787973441137e+01
 1.639574920191208e+00	 6.117957838646149e-01	-3.800763752069639e+01
 1.627129526877964e+00	 6.441657417487923e-01	-2.712780694993193e+01
 1.733075711841326e+00	 3.207098798906232e-01	-1.116803601542347e+02
 1.726689991216679e+00	 3.534797367214088e-01	-1.039471482732238e+02
 1.719642844610636e+00	 3.863091210761491e-01	-9.528997478851502e+01
 1.711927228303469e+00	 4.191794544667827e-01	-8.587759848090219e+01
 1.703536742864199e+00	 4.520716931772842e-01	-7.588619584839145e+01
 1.694465663819255e+00	 4.849663536831973e-01	-6.549891882349468e+01
 1.684708971279676e+00	 5.178435402355064e-01	-5.490539980366543e+01
 1.674262378361351e+00	 5.506829745727694e-01	-4.430120480815144e+01
 1.663122358232710e+00	 5.834640277117502e-01	-3.388723602879683e+01
 1.651286169625344e+00	 6.161657537528370e-01	-2.386908550840513e+01
 1.638751880645368e+00	 6.487669256224087e-01	-1.445634215330294e+01
 1.745367028948611e+00	 3.229844180460166e-01	-8.914868245899613e+01
 1.738936019525595e+00	 3.559866852091919e-01	-8.155511095024724e+01
 1.731838893156713e+00	 3.890489020773594e-01	-7.329058914185292e+01
 1.724068556166777e+00	 4.221523584001311e-01	-6.449433232599172e+01
 1.715618563738773e+00	 4.552778753996662e-01	-5.531129025336834e+01
 1.706483150800026e+00	 4.884058313704840e-01	-4.589176996537433e+01
 1.696657261859521e+00	 5.215161894589655e-01	-3.639101673737676e+01
 1.686136579629713e+00	 5.545885275862120e-01	-2.696875394531653e+01
 1.674917552266045e+00	 5.876020704641420e-01	-1.778868303558325e+01
 1.662997419058485e+00	 6.205357236406640e-01	-9.017945153953955e+00
 1.650374234411771e+00	 6.533681094955353e-01	-8.265463692406341e-01
 1.757658346055410e+00	 3.252589562014102e-01	-6.799132175174719e+01
 1.751182047833929e+00	 3.584936336969702e-01	-6.031981487384352e+01
 1.744034941702122e+00	 3.917886830785507e-01	-5.222643243948781e+01
 1.736209884029342e+00	 4.251252623334367e-01	-4.382115459111250e+01
 1.727700384612536e+00	 4.584840576219720e-01	-3.521802930946532e+01
 1.718500637779927e+00	 4.918453090576508e-01	-2.653485981229694e+01
 1.708605552438449e+00	 5.251888386822515e-01	-1.789286076840834e+01
 1.698010780897124e+00	 5.584940805994180e-01	-9.416284137973767e+00
 1.686712746298402e+00	 5.917401132162234e-01	-1.232015732074001e+00
 1.674708668490632e+00	 6.249056935280959e-01	 6.530856129319956e+00
 1.661996588177176e+00	 6.579692933681721e-01	 1.374149819422974e+01
 1.769949663161724e+00	 3.275334943568037e-01	-4.817963235048458e+01
 1.763428076141683e+00	 3.610005821847440e-01	-4.021714615220282e+01
 1.756230990246865e+00	 3.945284640797232e-01	-3.207800463511106e+01
 1.748351211891164e+00	 4.280981662666999e-01	-2.384325470766819e+01
 1.739782205485490e+00	 4.616902398442015e-01	-1.559636078815449e+01
 1.730518124758961e+00	 4.952847867446978e-01	-7.422956232969333e+00
 1.720553843016463e+00	 5.288614879053642e-01	 5.894258072810349e-01
 1.709884982163583e+00	 5.623996336123871e-01	 8.351641294422885e+00
 1.698507940329780e+00	 5.958781559679937e-01	 1.577324296565689e+01
 1.686419917921784e+00	 6.292756634151330e-01	 2.276280554886270e+01
 1.673618941941580e+00	 6.625704772403191e-01	 2.922826713054892e+01
 1.782240980267553e+00	 3.298080325121973e-01	-2.968575875687976e+01
 1.775674104448857e+00	 3.635075306725129e-01	-2.122365607002067e+01
 1.768427038790941e+00	 3.972682450808769e-01	-1.282634358827508e+01
 1.760492539752241e+00	 4.310710701999204e-01	-4.546230655969088e+00
 1.751864026357632e+00	 4.648964220663550e-01	 3.563490246717865e+00
 1.742535611737127e+00	 4.987242644316255e-01	 1.144902857165583e+01
 1.732502133593562e+00	 5.325341371283038e-01	 1.905619082034617e+01
 1.721759183429090e+00	 5.663051866251195e-01	 2.633058490330000e+01
 1.710303134360180e+00	 6.000161987194534e-01	 3.321783282078562e+01
 1.698131167351941e+00	 6.336456333017750e-01	 3.966379063508423e+01
 1.685241295704983e+00	 6.671716611119766e-01	 4.561477459954869e+01
 1.794532297372897e+00	 3.320825706675907e-01	-1.248260859565514e+01
 1.787920132755449e+00	 3.660144791602774e-01	-3.316538308967798e+00
 1.780623087334351e+00	 4.000080260820117e-01	 5.546993356531926e+00
 1.772633867612575e+00	 4.340439741330983e-01	 1.408392502564310e+01
 1.763945847228964e+00	 4.681026042884321e-01	 2.227103093470662e+01
 1.754553098714425e+00	 5.021637421184332e-01	 3.008604301071679e+01
 1.744450424169746e+00	 5.362067863510702e-01	 3.750777256563171e+01
 1.733633384693645e+00	 5.702107396376150e-01	 4.451623079976393e+01
 1.722098328389602e+00	 6.041542414706025e-01	 5.109274727932183e+01
 1.709842416781103e+00	 6.380156031880218e-01	 5.722008553112187e+01
 1.696863649467388e+00	 6.717728449831445e-01	 6.288255488286182e+01
 1.806823614477755e+00	 3.343571088229843e-01	 3.456173341525425e+00
 1.800166161061462e+00	 3.685214276480370e-01	 1.352639290206458e+01
 1.792819135877093e+00	 4.027478070831276e-01	 2.305994703893906e+01
 1.784775195472166e+00	 4.370168780662335e-01	 3.206083866061632e+01
 1.776027668099485e+00	 4.713087865104332e-01	 4.053550972696203e+01
 1.766570585690856e+00	 5.056032198051217e-01	 4.849290084405403e+01
 1.756398714745015e+00	 5.398794355736636e-01	 5.594450012597175e+01
 1.745507585957248e+00	 5.741162926498736e-01	 6.290438051936880e+01
 1.733893522418045e+00	 6.082922842214408e-01	 6.938922484089522e+01
 1.721553666209272e+00	 6.423855730738739e-01	 7.541833784220739e+01
 1.708486003228792e+00	 6.763740288538224e-01	 8.101364469217337e+01
 1.819114931582128e+00	 3.366316469783779e-01	 1.815622999989255e+01
 1.812412189366892e+00	 3.710283761357918e-01	 2.932672375092145e+01
 1.805015184419169e+00	 4.054875880842249e-01	 3.972997343543071e+01
 1.796916523331014e+00	 4.399897819993261e-01	 4.939776830996188e+01
 1.788109488969196e+00	 4.745149687323580e-01	 5.836592512517417e+01
 1.778588072666419e+00	 5.090426974916901e-01	 6.667428573063390e+01
 1.768347005319369e+00	 5.435520847960839e-01	 7.436669368286285e+01
 1.757381787219899e+00	 5.780218456618955e-01	 8.149094905452945e+01
 1.745688716445509e+00	 6.124303269719682e-01	 8.809874077937431e+01
 1.733264915636445e+00	 6.467555429593308e-01	 9.424555601817030e+01
 1.720108356989195e+00	 6.809752127240108e-01	 9.999056619470959e+01
 1.831406248686016e+00	 3.389061851337714e-01	 3.164251596256622e+01
 1.824658217671743e+00	 3.735353246235422e-01	 4.410546096195028e+01
 1.817211232960577e+00	 4.082273690853030e-01	 5.557405992942901e+01
 1.809057851189117e+00	 4.429626859323761e-01	 6.610761612954394e+01
 1.800191309838096e+00	 4.777211509542068e-01	 7.577103406861298e+01
 1.790605559641113e+00	 5.124821751781390e-01	 8.463475559381745e+01
 1.780295295892808e+00	 5.472247340183306e-01	 9.277466481462940e+01
 1.769255988481599e+00	 5.819273986736807e-01	 1.002719610467068e+02
 1.757483910471995e+00	 6.165683697221850e-01	 1.072129991968877e+02
 1.744976165062624e+00	 6.511255128443929e-01	 1.136890972440290e+02
 1.731730710748600e+00	 6.855763965937093e-01	 1.197963107222617e+02
 1.843697565789419e+00	 3.411807232891650e-01	 4.393932039551681e+01
 1.836904245976013e+00	 3.760422731112877e-01	 5.788305111098442e+01
 1.829407281501320e+00	 4.109671500863628e-01	 7.060874093057127e+01
 1.821199179046478e+00	 4.459355898653836e-01	 8.220294023307649e+01
 1.812273130706186e+00	 4.809273331759791e-01	 9.275935998569153e+01
 1.802623046614941e+00	 5.159216528644683e-01	 1.023787468120193e+02
 1.792243586465333e+00	 5.508973832404047e-01	 1.111687167826642e+02
 1.781130189742346e+00	 5.858329516852289e-01	 1.192435471309067e+02
 1.769279104497502e+00	 6.207064124720912e-01	 1.267239253956853e+02
 1.756687414487809e+00	 6.554954827290598e-01	 1.337366558149602e+02
 1.743353064507004e+00	 6.901775804629183e-01	 1.404143231318562e+02
 1.627129526877964e+00	 6.441657417487923e-01	-2.712780694993193e+01
 1.613989891498045e+00	 6.764145402254381e-01	-2.717001420721012e+01
 1.600155766523939e+00	 7.085206580967053e-01	-2.742602927200337e+01
 1.585627767319404e+00	 7.404624120079153e-01	-2.775894598824911e+01
 1.570407387515452e+00	 7.722179985775097e-01	-2.802853163009238e+01
 1.554497011975571e+00	 8.037655378569363e-01	-2.809173489051008e+01
 1.537899927230667e+00	 8.350831179629202e-01	-2.780322240937318e+01
 1.520620329275986e+00	 8.661488407132029e-01	-2.701594110966514e+01
 1.502663328635016e+00	 8.969408680863412e-01	-2.558170330960784e+01
 1.484034952609081e+00	 9.274374693167079e-01	-2.335179129813528e+01
 1.464742144646208e+00	 9.576170684275745e-01	-2.017757780570261e+01
 1.638751880645368e+00	 6.487669256224087e-01	-1.445634215330294e+01
 1.625518390726798e+00	 6.812460726600401e-01	-1.385190024661415e+01
 1.611585450574138e+00	 7.135815199449438e-01	-1.335201758787228e+01
 1.596953679946601e+00	 7.457514292413342e-01	-1.285605681241496e+01
 1.581624583143993e+00	 7.777338414292114e-01	-1.226108487746297e+01
 1.565600562064543e+00	 8.095067202746747e-01	-1.146225014275511e+01
 1.548884926714374e+00	 8.410479973809957e-01	-1.035317978569588e+01
 1.531481903060134e+00	 8.723356181503270e-01	-8.826395503241820e+00
 1.513396638129045e+00	 9.033475885753565e-01	-6.773745235673331e+00
 1.494635202274586e+00	 9.340620226707022e-01	-4.086848445996459e+00
 1.475204588540842e+00	 9.644571903455147e-01	-6.575523060725565e-01
 1.650374234411771e+00	 6.533681094955353e-01	-8.265463692406341e-01
 1.637046889954552e+00	 6.860776050940667e-01	 2.046527173712924e-01
 1.623015134623337e+00	 7.186423817925500e-01	 1.238647566459942e+00
 1.608279592572798e+00	 7.510404464740931e-01	 2.340190354831572e+00
 1.592841778771534e+00	 7.832496842802550e-01	 3.575308533307176e+00
 1.576704112152514e+00	 8.152479026917873e-01	 5.011057503919595e+00
 1.559869926197083e+00	 8.470128767985073e-01	 6.715261095015872e+00
 1.542343476843282e+00	 8.785223955869790e-01	 8.756241204099572e+00
 1.524129947622075e+00	 9.097543090640229e-01	 1.120253811215184e+01
 1.505235451939092e+00	 9.406865760245012e-01	 1.412262309630938e+01
 1.485667032434476e+00	 9.712973122634445e-01	 1.758460507823757e+01
 1.661996588177176e+00	 6.579692933681721e-01	 1.374149819422974e+01
 1.648575389181304e+00	 6.909091375275175e-01	 1.498417619549388e+01
 1.634444818671535e+00	 7.237032436395238e-01	 1.633515110054419e+01
 1.619605505197995e+00	 7.563294637061926e-01	 1.782366545482439e+01
 1.604058974398076e+00	 7.887655271306413e-01	 1.947922694135856e+01
 1.587807662239485e+00	 8.209890851082737e-01	 2.133148968975091e+01
 1.570854925678792e+00	 8.529777562154547e-01	 2.341013144451761e+01
 1.553205050625430e+00	 8.847091730231600e-01	 2.574472729010699e+01
 1.534863257114104e+00	 9.161610295523409e-01	 2.836462068137240e+01
 1.515835701602599e+00	 9.473111293781052e-01	 3.129879257378824e+01
 1.496129476327111e+00	 9.781374341813636e-01	 3.457572948656564e+01
 1.673618941941580e+00	 6.625704772403191e-01	 2.922826713054892e+01
 1.660103888407058e+00	 6.957406699603933e-01	 3.047163133311506e+01
 1.645874502718734e+00	 7.287641054858656e-01	 3.192697828956654e+01
 1.630931417822192e+00	 7.616184809376318e-01	 3.358840864697525e+01
 1.615276170023616e+00	 7.942813699803695e-01	 3.544928810743005e+01
 1.598911212325456e+00	 8.267302675241344e-01	 3.750225626626565e+01
 1.581839925159500e+00	 8.589426356318381e-01	 3.973923930153727e+01
 1.564066624406578e+00	 8.908959504588688e-01	 4.215146654496615e+01
 1.545596566605134e+00	 9.225677500403102e-01	 4.472949093415891e+01
 1.526435951265105e+00	 9.539356827315140e-01	 4.746321331445102e+01
 1.506591920218745e+00	 9.849775560992717e-01	 5.034191052657824e+01
 1.685241295704983e+00	 6.671716611119766e-01	 4.561477459954869e+01
 1.671632387631811e+00	 7.005722023926938e-01	 4.665239409469599e+01
 1.657304186764933e+00	 7.338249673315752e-01	 4.800390441640204e+01
 1.642257330445389e+00	 7.669074981684119e-01	 4.962862443869410e+01
 1.626493365648157e+00	 7.997972128294403e-01	 5.148414785402527e+01
 1.610014762410427e+00	 8.324714499393688e-01	 5.352647846096634e+01
 1.592824924639209e+00	 8.649075150476579e-01	 5.571017722698240e+01
 1.574928198186726e+00	 8.970827278941063e-01	 5.798852049462515e+01
 1.556329876095164e+00	 9.289744705279305e-01	 6.031366858786922e+01
 1.537036200926610e+00	 9.605602360847276e-01	 6.263684396751309e+01
 1.517054364109380e+00	 9.918176780171698e-01	 6.490851798197573e+01
 1.696863649467388e+00	 6.717728449831445e-01	 6.288255488286182e+01
 1.683160886855564e+00	 7.054037348244186e-01	 6.351224105714140e+01
 1.668733870810132e+00	 7.388858291766527e-01	 6.455598483933821e+01
 1.653583243067586e+00	 7.721965153985318e-01	 6.593867605654761e+01
 1.637710561271698e+00	 8.053130556778525e-01	 6.758249876146601e+01
 1.621118312494399e+00	 8.382126323539776e-01	 6.940719191196413e+01
 1.603809924117917e+00	 8.708723944629133e-01	 7.133032968290972e+01
 1.585789771965874e+00	 9.032695053288717e-01	 7.326762012179400e+01
 1.567063185584193e+00	 9.353811910152019e-01	 7.513322066760585e+01
 1.547636450587117e+00	 9.671847894377464e-01	 7.684006886879197e+01
 1.527516807999014e+00	 9.986577999350574e-01	 7.830022646371981e+01
 1.708486003228792e+00	 6.763740288538224e-01	 8.101364469217337e+01
 1.694689386078318e+00	 7.102352672555683e-01	 8.103733578301002e+01
 1.680163554854331e+00	 7.439466910210980e-01	 8.157354546520332e+01
 1.664909155688782e+00	 7.774855326279917e-01	 8.251308004716978e+01
 1.648927756894240e+00	 8.108288985256076e-01	 8.374306891716824e+01
 1.632221862577370e+00	 8.439538147679603e-01	 8.514734957875118e+01
 1.614794923595626e+00	 8.768372738776048e-01	 8.660688011031058e+01
 1.596651345744023e+00	 9.094562827631659e-01	 8.800017710853780e+01
 1.577796495072223e+00	 9.417879115021248e-01	 8.920377690356916e+01
 1.558236700246622e+00	 9.738093427905699e-01	 9.009271757486655e+01
 1.537979251887649e+00	 1.005497921852934e+00	 9.054103905508966e+01
 1.720108356989195e+00	 6.809752127240108e-01	 9.999056619470959e+01
 1.706217885300071e+00	 7.150667996861424e-01	 9.921421574616458e+01
 1.691593238897530e+00	 7.490075528649108e-01	 9.904717360871609e+01
 1.676235068308979e+00	 7.827745498567924e-01	 9.934650109705481e+01
 1.660144952515781e+00	 8.163447413727047e-01	 9.996462071562806e+01
 1.643325412659340e+00	 8.496949971813165e-01	 1.007498245349695e+02
 1.625779923072334e+00	 8.828021532917318e-01	 1.015468177199688e+02
 1.607512919521170e+00	 9.156430601969879e-01	 1.021972946230901e+02
 1.588529804559253e+00	 9.481946319886988e-01	 1.025405445041956e+02
 1.568836949905128e+00	 9.804338961431981e-01	 1.024140836053169e+02
 1.548441695775283e+00	 1.012338043770800e+00	 1.016543099981574e+02
 1.731730710748600e+00	 6.855763965937093e-01	 1.197963107222617e+02
 1.717746384520824e+00	 7.198983321161414e-01	 1.180297797839046e+02
 1.703022922939729e+00	 7.540684147080918e-01	 1.169677092199227e+02
 1.687560980928176e+00	 7.880635670849330e-01	 1.164337470609518e+02
 1.671362148136322e+00	 8.218605842191440e-01	 1.162459497067302e+02
 1.654428962740312e+00	 8.554361795940472e-01	 1.162174126487244e+02
 1.636764922548042e+00	 8.887670327052954e-01	 1.161569440098539e+02
 1.618374493297319e+00	 9.218298376303385e-01	 1.158697776723035e+02
 1.599263114045282e+00	 9.546013524749239e-01	 1.151583223344081e+02
 1.579437199562634e+00	 9.870584494956315e-01	 1.138229424302395e+02
 1.558904139661917e+00	 1.019178165688655e+00	 1.116627664667170e+02
 1.743353064507004e+00	 6.901775804629183e-01	 1.404143231318562e+02
 1.729274883740578e+00	 7.247298645455649e-01	 1.374712760510225e+02
 1.714452606980928e+00	 7.591292765506406e-01	 1.353262364625348e+02
 1.698886893546374e+00	 7.933525843124138e-01	 1.337697641891282e+02
 1.682579343755863e+00	 8.273764270649256e-01	 1.325858834901269e+02
 1.665532512820283e+00	 8.611773620061519e-01	 1.315528351556869e+02
 1.647749922022751e+00	 8.947319121182951e-01	 1.304438790218300e+02
 1.629236067072467e+00	 9.280166150632179e-01	 1.290281430400005e+02
 1.609996423530313e+00	 9.610080729608007e-01	 1.270715145267363e+02
 1.590037449219140e+00	 9.936830028478698e-01	 1.243375687382680e+02
 1.569366583547552e+00	 1.026018287606500e+00	 1.205885294682979e+02
 1.464742144646208e+00	 9.576170684275745e-01	-2.017757780570261e+01
 1.444792760779105e+00	 9.874582919979614e-01	-1.624430807025661e+01
 1.424195563096069e+00	 1.016940016954224e+00	-1.199807701915444e+01
 1.402960210228699e+00	 1.046041418172352e+00	-7.509717700031700e+00
 1.381097244858090e+00	 1.074742015674165e+00	-2.851034881089127e+00
 1.358618078255741e+00	 1.103021721200889e+00	 1.905488501035165e+00
 1.335534971896006e+00	 1.130860883947535e+00	 6.686991151357084e+00
 1.311861016194242e+00	 1.158240335244118e+00	 1.142053754079109e+01
 1.287610106442683e+00	 1.185141431973866e+00	 1.603342434330629e+01
 1.262796916033438e+00	 1.211546098524362e+00	 2.045348714718373e+01
 1.237436867075000e+00	 1.237436867075000e+00	 2.460940538455026e+01
 1.475204588540842e+00	 9.644571903455147e-01	-6.575523060725565e-01
 1.455112709074938e+00	 9.945115655117275e-01	 2.416993351235895e+00
 1.434368388551411e+00	 1.024203874216805e+00	 5.876257663985850e+00
 1.412981354592089e+00	 1.053513142585853e+00	 9.670754151607602e+00
 1.390962225182928e+00	 1.082418744355134e+00	 1.374971171484268e+01
 1.368322493104510e+00	 1.110900447778312e+00	 1.806127481535346e+01
 1.345074507413148e+00	 1.138938461687509e+00	 2.255271120591085e+01
 1.321231452027168e+00	 1.166513480493667e+00	 2.717062590539724e+01
 1.296807321490887e+00	 1.193606727914892e+00	 3.186118004633500e+01
 1.271816894006361e+00	 1.220199999227256e+00	 3.657031316940062e+01
 1.246275701840000e+00	 1.246275701840000e+00	 4.124396750020033e+01
 1.485667032434476e+00	 9.712973122634445e-01	 1.758460507823757e+01
 1.465432657369780e+00	 1.001564839025664e+00	 1.991803327011510e+01
 1.444541214005794e+00	 1.031467731479696e+00	 2.270610556852478e+01
 1.423002498954569e+00	 1.060984866999766e+00	 2.592045104974910e+01
 1.400827205506926e+00	 1.090095473036578e+00	 2.953110471404285e+01
 1.378026907952530e+00	 1.118779174356233e+00	 3.350661513607204e+01
 1.354614042929651e+00	 1.147016039427960e+00	 3.781416094663389e+01
 1.330601887859582e+00	 1.174786625743633e+00	 4.241967547256652e+01
 1.306004536538730e+00	 1.202072023856238e+00	 4.728797878622457e+01
 1.280836871979093e+00	 1.228853899930329e+00	 5.238291634708004e+01
 1.255114536605000e+00	 1.255114536605000e+00	 5.766750335684939e+01
 1.496129476327111e+00	 9.781374341813636e-01	 3.457572948656564e+01
 1.475752605663633e+00	 1.008618112539770e+00	 3.628317974553173e+01
 1.454714039459216e+00	 1.038731588742899e+00	 3.851340607023984e+01
 1.433023643316138e+00	 1.068456591414092e+00	 4.125892693148052e+01
 1.410692185830083e+00	 1.097772201718495e+00	 4.451036063533720e+01
 1.387731322799798e+00	 1.126657900934648e+00	 4.825644127010344e+01
 1.364153578445512e+00	 1.155093617168889e+00	 5.248404475351614e+01
 1.339972323691486e+00	 1.183059770994018e+00	 5.717822493463806e+01
 1.315201751586213e+00	 1.210537319797904e+00	 6.232225962023576e+01
 1.289856849951636e+00	 1.237507800633582e+00	 6.789770631126622e+01
 1.263953371370000e+00	 1.263953371370000e+00	 7.388446735211679e+01
 1.506591920218745e+00	 9.849775560992717e-01	 5.034191052657824e+01
 1.486072553956495e+00	 1.015671386054045e+00	 5.153612382868742e+01
 1.464886864911678e+00	 1.045995446006413e+00	 5.331948899435911e+01
 1.443044787676797e+00	 1.075928315828831e+00	 5.570519243976612e+01
 1.420557166152399e+00	 1.105448930400887e+00	 5.870421762623247e+01
 1.397435737646315e+00	 1.134536627513560e+00	 6.232527011206707e+01
 1.373693113960733e+00	 1.163171194910295e+00	 6.657471396233112e+01
 1.349342759522880e+00	 1.191332916244822e+00	 7.145652009313811e+01
 1.324398966633336e+00	 1.219002615739889e+00	 7.697222703374150e+01
 1.298876827923988e+00	 1.246161701337016e+00	 8.312091449011656e+01
 1.272792206135000e+00	 1.272792206135000e+00	 8.989918998915711e+01
 1.517054364109380e+00	 9.918176780171698e-01	 6.490851798197573e+01
 1.496392502248367e+00	 1.022724659568490e+00	 6.569990290769078e+01
 1.475059690363180e+00	 1.053259303270238e+00	 6.714509563433853e+01
 1.453065932036545e+00	 1.083400040243982e+00	 6.927773365755851e+01
 1.430422146473876e+00	 1.113125659083753e+00	 7.212895195834822e+01
 1.407140152492082e+00	 1.142415354092968e+00	 7.572721795152098e+01
 1.383232649475314e+00	 1.171248772652179e+00	 8.009817903852351e+01
 1.358713195353763e+00	 1.199606061496045e+00	 8.526452395845173e+01
 1.333596181680099e+00	 1.227467911682194e+00	 9.124585902894023e+01
 1.307896805896150e+00	 1.254815602040628e+00	 9.805860025389732e+01
 1.281631040900000e+00	 1.281631040900000e+00	 1.057158821489854e+02
 1.527516807999014e+00	 9.986577999350574e-01	 7.830022646371981e+01
 1.506712450539249e+00	 1.029777933083105e+00	 7.879692309303758e+01
 1.485232515813721e+00	 1.060523160534374e+00	 8.001039890685459e+01
 1.463087076395382e+00	 1.090871764659546e+00	 8.199453007201551e+01
 1.440287126794510e+00	 1.120802387767094e+00	 8.480039384495903e+01
 1.416844567337098e+00	 1.150294080672872e+00	 8.847601419222454e+01
 1.392772184989253e+00	 1.179326350394540e+00	 9.306612125080314e+01
 1.368083631184136e+00	 1.207879206747686e+00	 9.861192643444066e+01
 1.342793396726501e+00	 1.235933207624818e+00	 1.051509148811572e+02
 1.316916783868122e+00	 1.263469502744421e+00	 1.127166568074391e+02
 1.290469875665000e+00	 1.290469875665000e+00	 1.213386391872291e+02
 1.537979251887649e+00	 1.005497921852934e+00	 9.054103905508966e+01
 1.517032398829141e+00	 1.036831206597890e+00	 9.084898068940002e+01
 1.495405341263303e+00	 1.067787017798821e+00	 9.193502268414767e+01
 1.473108220753309e+00	 1.098343489075522e+00	 9.387307180548922e+01
 1.450152107114305e+00	 1.128479116450908e+00	 9.673394261291985e+01
 1.426548982181364e+00	 1.158172807253272e+00	 1.005850145114334e+02
 1.402311720502552e+00	 1.187403928137378e+00	 1.054899038682624e+02
 1.377454067013998e+00	 1.216152351999745e+00	 1.115081536077724e+02
 1.351990611772543e+00	 1.244398503567761e+00	 1.186949425785632e+02
 1.325936761839904e+00	 1.272123403448393e+00	 1.271008168420912e+02
 1.299308710430000e+00	 1.299308710430000e+00	 1.367714448636644e+02
 1.548441695775283e+00	 1.012338043770800e+00	 1.016543099981574e+02
 1.527352347118043e+00	 1.043884480112846e+00	 1.018772827969413e+02
 1.505578166711924e+00	 1.075050875063579e+00	 1.029380603426240e+02
 1.483129365110326e+00	 1.105815213491911e+00	 1.049303761479593e+02
 1.460017087433259e+00	 1.136155845135198e+00	 1.079445812595226e+02
 1.436253397024878e+00	 1.166051533834168e+00	 1.120672134857138e+02
 1.411851256015211e+00	 1.195481505880694e+00	 1.173805829035666e+02
 1.386824502843350e+00	 1.224425497252223e+00	 1.239623766606573e+02
 1.361187826818225e+00	 1.252863799511024e+00	 1.318852859602850e+02
 1.334956739811496e+00	 1.280777304152546e+00	 1.412166579585426e+02
 1.308147545195000e+00	 1.308147545195000e+00	 1.520181751124520e+02
 1.558904139661917e+00	 1.019178165688655e+00	 1.116627664667170e+02
 1.537672295405955e+00	 1.050937753627970e+00	 1.119024670830480e+02
 1.515750992159585e+00	 1.082314732328648e+00	 1.130380925645342e+02
 1.493150509466432e+00	 1.113286937908712e+00	 1.151830034237359e+02
 1.469882067751373e+00	 1.143832573819961e+00	 1.184468904231648e+02
 1.445957811867642e+00	 1.173930260415559e+00	 1.229352567083319e+02
 1.421390791527228e+00	 1.203559083624488e+00	 1.287489174235257e+02
 1.396194938672191e+00	 1.232698642505121e+00	 1.359835204246824e+02
 1.370385041863546e+00	 1.261329095454607e+00	 1.447290915670768e+02
 1.343976717782898e+00	 1.289431204856878e+00	 1.550696078712733e+02
 1.316986379960000e+00	 1.316986379960000e+00	 1.670826016605495e+02
 1.569366583547552e+00	 1.026018287606500e+00	 1.205885294682979e+02
 1.547992243692877e+00	 1.057991027143265e+00	 1.209446207631960e+02
 1.525923817606285e+00	 1.089578589594028e+00	 1.222532044275887e+02
 1.503171653821628e+00	 1.120758662325927e+00	 1.246470722234953e+02
 1.479747048068645e+00	 1.151509302505199e+00	 1.282550617951987e+02
 1.455662226709656e+00	 1.181808986997448e+00	 1.332014524219553e+02
 1.430930327038606e+00	 1.211636661368759e+00	 1.396053794472505e+02
 1.405565374500522e+00	 1.240971787758436e+00	 1.475802715924970e+02
 1.379582256908508e+00	 1.269794391398509e+00	 1.572333152179640e+02
 1.352996695754110e+00	 1.298085105561391e+00	 1.686649494048331e+02
 1.325825214725000e+00	 1.325825214725000e+00	 1.819683955013901e+02
 1.237436867075000e+00	 1.237436867075000e+00	 2.460940538455026e+01
 1.211546098524362e+00	 1.262796916033438e+00	 2.462725044598344e+01
 1.185141431973866e+00	 1.287610106442683e+00	 2.513548139279413e+01
 1.158240335244119e+00	 1.311861016194243e+00	 2.610090058896927e+01
 1.130860883947535e+00	 1.335534971896005e+00	 2.748884491519100e+01
 1.103021721200889e+00	 1.358618078255741e+00	 2.926333684823726e+01
 1.074742015674166e+00	 1.381097244858090e+00	 3.138724168426464e+01
 1.046041418172353e+00	 1.402960210228699e+00	 3.382242982024344e+01
 1.016940016954224e+00	 1.424195563096068e+00	 3.652994297439928e+01
 9.874582919979624e-01	 1.444792760779105e+00	 3.947016320480150e+01
 9.576170684275745e-01	 1.464742144646208e+00	 4.260298357530768e+01
 1.246275701840000e+00	 1.246275701840000e+00	 4.124396750020033e+01
 1.220199999227256e+00	 1.271816894006361e+00	 4.186619482160052e+01
 1.193606727914892e+00	 1.296807321490887e+00	 4.254081143141732e+01
 1.166513480493667e+00	 1.321231452027167e+00	 4.324955090276831e+01
 1.138938461687509e+00	 1.345074507413148e+00	 4.397424375591912e+01
 1.110900447778313e+00	 1.368322493104510e+00	 4.469689284005791e+01
 1.082418744355135e+00	 1.390962225182927e+00	 4.539974730125303e+01
 1.053513142585854e+00	 1.412981354592089e+00	 4.606537465524411e+01
 1.024203874216806e+00	 1.434368388551411e+00	 4.667673050355345e+01
 9.945115655117286e-01	 1.455112709074937e+00	 4.721722545569429e+01
 9.644571903455147e-01	 1.475204588540842e+00	 4.767078884868341e+01
 1.255114536605000e+00	 1.255114536605000e+00	 5.766750335684939e+01
 1.228853899930329e+00	 1.280836871979093e+00	 5.896923628557953e+01
 1.202072023856238e+00	 1.306004536538730e+00	 5.989130486663318e+01
 1.174786625743633e+00	 1.330601887859582e+00	 6.043021194262560e+01
 1.147016039427960e+00	 1.354614042929651e+00	 6.058410520751493e+01
 1.118779174356233e+00	 1.378026907952529e+00	 6.035277756472136e+01
 1.090095473036578e+00	 1.400827205506926e+00	 5.973765857730798e+01
 1.060984866999767e+00	 1.423002498954568e+00	 5.874179712826211e+01
 1.031467731479697e+00	 1.444541214005793e+00	 5.736983548155266e+01
 1.001564839025664e+00	 1.465432657369779e+00	 5.562797500460520e+01
 9.712973122634446e-01	 1.485667032434477e+00	 5.352393387927391e+01
 1.263953371370000e+00	 1.263953371370000e+00	 7.388446735211679e+01
 1.237507800633582e+00	 1.289856849951636e+00	 7.593925314149554e+01
 1.210537319797904e+00	 1.315201751586213e+00	 7.718813921274437e+01
 1.183059770994018e+00	 1.339972323691486e+00	 7.764223913740616e+01
 1.155093617168889e+00	 1.364153578445512e+00	 7.731584502102720e+01
 1.126657900934648e+00	 1.387731322799797e+00	 7.622635349744316e+01
 1.097772201718496e+00	 1.410692185830083e+00	 7.439417538325115e+01
 1.068456591414093e+00	 1.433023643316137e+00	 7.184262970500112e+01
 1.038731588742900e+00	 1.454714039459216e+00	 6.859782293666382e+01
 1.008618112539770e+00	 1.475752605663632e+00	 6.468851440019004e+01
 9.781374341813637e-01	 1.496129476327111e+00	 6.014596888615279e+01
 1.272792206135000e+00	 1.272792206135000e+00	 8.989918998915711e+01
 1.246161701337015e+00	 1.298876827923988e+00	 9.277904357556628e+01
 1.219002615739890e+00	 1.324398966633336e+00	 9.443245910789875e+01
 1.191332916244822e+00	 1.349342759522880e+00	 9.488500565070444e+01
 1.163171194910296e+00	 1.373693113960733e+00	 9.416695055992126e+01
 1.134536627513560e+00	 1.397435737646315e+00	 9.231311175939054e+01
 1.105448930400887e+00	 1.420557166152399e+00	 8.936268630664667e+01
 1.075928315828831e+00	 1.443044787676796e+00	 8.535905655018794e+01
 1.045995446006414e+00	 1.464886864911678e+00	 8.034957535748377e+01
 1.015671386054046e+00	 1.486072553956495e+00	 7.438533205315497e+01
 9.849775560992720e-01	 1.506591920218745e+00	 6.752090084835473e+01
 1.281631040900000e+00	 1.281631040900000e+00	 1.057158821489854e+02
 1.254815602040628e+00	 1.307896805896150e+00	 1.094913284194598e+02
 1.227467911682194e+00	 1.333596181680099e+00	 1.116253774479251e+02
 1.199606061496045e+00	 1.358713195353763e+00	 1.121579017695116e+02
 1.171248772652179e+00	 1.383232649475313e+00	 1.111349783309233e+02
 1.142415354092968e+00	 1.407140152492081e+00	 1.086086676818878e+02
 1.113125659083754e+00	 1.430422146473875e+00	 1.046367621446322e+02
 1.083400040243983e+00	 1.453065932036545e+00	 9.928250484862168e+01
 1.053259303270239e+00	 1.475059690363180e+00	 9.261428174638496e+01
 1.022724659568491e+00	 1.496392502248366e+00	 8.470528893104813e+01
 9.918176780171699e-01	 1.517054364109380e+00	 7.563317775492791e+01
 1.290469875665000e+00	 1.290469875665000e+00	 1.213386391872291e+02
 1.263469502744421e+00	 1.316916783868122e+00	 1.260787537995590e+02
 1.235933207624818e+00	 1.342793396726501e+00	 1.287679764735717e+02
 1.207879206747686e+00	 1.368083631184136e+00	 1.294603343180017e+02
 1.179326350394540e+00	 1.392772184989253e+00	 1.282175516163435e+02
 1.150294080672872e+00	 1.416844567337098e+00	 1.251087565529112e+02
 1.120802387767094e+00	 1.440287126794510e+00	 1.202101496641597e+02
 1.090871764659547e+00	 1.463087076395382e+00	 1.136046364828966e+02
 1.060523160534375e+00	 1.485232515813721e+00	 1.053814271228183e+02
 1.029777933083107e+00	 1.506712450539249e+00	 9.563560579983536e+01
 9.986577999350573e-01	 1.527516807999014e+00	 8.446767350224940e+01
 1.299308710430000e+00	 1.299308710430000e+00	 1.367714448636644e+02
 1.272123403448393e+00	 1.325936761839904e+00	 1.425438936780976e+02
 1.244398503567761e+00	 1.351990611772543e+00	 1.458613088133671e+02
 1.216152351999746e+00	 1.377454067013998e+00	 1.467917260952497e+02
 1.187403928137379e+00	 1.402311720502552e+00	 1.454123582030290e+02
 1.158172807253272e+00	 1.426548982181363e+00	 1.418092295371989e+02
 1.128479116450909e+00	 1.450152107114305e+00	 1.360767656169254e+02
 1.098343489075523e+00	 1.473108220753309e+00	 1.283173400508050e+02
 1.067787017798822e+00	 1.495405341263302e+00	 1.186407824550535e+02
 1.036831206597892e+00	 1.517032398829141e+00	 1.071638509862335e+02
 1.005497921852934e+00	 1.537979251887649e+00	 9.400967340777103e+01
 1.308147545195000e+00	 1.308147545195000e+00	 1.520181751124520e+02
 1.280777304152546e+00	 1.334956739811497e+00	 1.588892522912776e+02
 1.252863799511024e+00	 1.361187826818225e+00	 1.629063984842088e+02
 1.224425497252224e+00	 1.386824502843349e+00	 1.641515153357453e+02
 1.195481505880695e+00	 1.411851256015210e+00	 1.627171482033999e+02
 1.166051533834168e+00	 1.436253397024877e+00	 1.587060497617626e+02
 1.136155845135198e+00	 1.460017087433259e+00	 1.522306909969368e+02
 1.105815213491912e+00	 1.483129365110326e+00	 1.434127232063615e+02
 1.075050875063580e+00	 1.505578166711923e+00	 1.323823950000917e+02
 1.043884480112846e+00	 1.527352347118043e+00	 1.192779286361557e+02
 1.012338043770800e+00	 1.548441695775283e+00	 1.042448603110495e+02
 1.316986379960000e+00	 1.316986379960000e+00	 1.670826016605495e+02
 1.289431204856878e+00	 1.343976717782898e+00	 1.751172664892053e+02
 1.261329095454607e+00	 1.370385041863546e+00	 1.799042418516536e+02
 1.232698642505121e+00	 1.396194938672191e+00	 1.815391551916272e+02
 1.203559083624488e+00	 1.421390791527228e+00	 1.801297319642154e+02
 1.173930260415560e+00	 1.445957811867642e+00	 1.757952885590284e+02
 1.143832573819962e+00	 1.469882067751372e+00	 1.686661655293179e+02
 1.113286937908713e+00	 1.493150509466432e+00	 1.588831053092412e+02
 1.082314732328649e+00	 1.515750992159584e+00	 1.465965790325743e+02
 1.050937753627971e+00	 1.537672295405955e+00	 1.319660674459819e+02
 1.019178165688655e+00	 1.558904139661917e+00	 1.151593012344636e+02
 1.325825214725000e+00	 1.325825214725000e+00	 1.819683955013901e+02
 1.298085105561391e+00	 1.352996695754110e+00	 1.912303079822371e+02
 1.269794391398509e+00	 1.379582256908508e+00	 1.968558085518065e+02
 1.240971787758436e+00	 1.405565374500522e+00	 1.989541132356364e+02
 1.211636661368759e+00	 1.430930327038606e+00	 1.976479780590027e+02
 1.181808986997448e+00	 1.455662226709656e+00	 1.930731218602528e+02
 1.151509302505200e+00	 1.479747048068645e+00	 1.853775823795609e+02
 1.120758662325928e+00	 1.503171653821628e+00	 1.747210103682427e+02
 1.089578589594029e+00	 1.525923817606285e+00	 1.612739069445359e+02
 1.057991027143266e+00	 1.547992243692877e+00	 1.452168098445715e+02
 1.026018287606500e+00	 1.569366583547552e+00	 1.267394345775057e+02
 9.576170684275745e-01	 1.464742144646208e+00	 4.260298357530768e+01
 9.274374693167079e-01	 1.484034952609081e+00	 6.448787172078228e+01
 8.969408680863412e-01	 1.502663328635016e+00	 8.095484289654442e+01
 8.661488407132029e-01	 1.520620329275986e+00	 9.220069954550959e+01
 8.350831179629206e-01	 1.537899927230666e+00	 9.843801350285825e+01
 8.037655378569366e-01	 1.554497011975572e+00	 9.989395568337585e+01
 7.722179985775102e-01	 1.570407387515452e+00	 9.680907442698434e+01
 7.404624120079161e-01	 1.585627767319404e+00	 8.943603169030840e+01
 7.085206580967063e-01	 1.600155766523939e+00	 7.803830636340501e+01
 6.764145402254393e-01	 1.613989891498045e+00	 6.288887398762103e+01
 6.441657417487923e-01	 1.627129526877964e+00	 4.426887205625411e+01
 9.644571903455147e-01	 1.475204588540842e+00	 4.767078884868341e+01
 9.340620226707020e-01	 1.494635202274587e+00	 6.814520526519091e+01
 9.033475885753567e-01	 1.513396638129045e+00	 8.442901255136421e+01
 8.723356181503269e-01	 1.531481903060134e+00	 9.661820348777700e+01
 8.410479973809958e-01	 1.548884926714374e+00	 1.048218476498930e+02
 8.095067202746751e-01	 1.565600562064542e+00	 1.091613992755817e+02
 7.777338414292119e-01	 1.581624583143993e+00	 1.097699556856804e+02
 7.457514292413349e-01	 1.596953679946601e+00	 1.067914722637374e+02
 7.135815199449446e-01	 1.611585450574138e+00	 1.003799401881428e+02
 6.812460726600413e-01	 1.625518390726798e+00	 9.069853323003889e+01
 6.487669256224087e-01	 1.638751880645368e+00	 7.791872998466567e+01
 9.712973122634446e-01	 1.485667032434477e+00	 5.352393387927391e+01
 9.406865760245010e-01	 1.505235451939093e+00	 7.207877088069765e+01
 9.097543090640229e-01	 1.524129947622075e+00	 8.765445942203661e+01
 8.785223955869794e-01	 1.542343476843282e+00	 1.002472836325285e+02
 8.470128767985073e-01	 1.559869926197083e+00	 1.098639359439947e+02
 8.152479026917877e-01	 1.576704112152514e+00	 1.165212988535384e+02
 7.832496842802557e-01	 1.592841778771534e+00	 1.202461791213532e+02
 7.510404464740938e-01	 1.608279592572798e+00	 1.210749972546021e+02
 7.186423817925509e-01	 1.623015134623336e+00	 1.190534354103540e+02
 6.860776050940676e-01	 1.637046889954551e+00	 1.142360470931212e+02
 6.533681094955354e-01	 1.650374234411771e+00	 1.066858322241117e+02
 9.781374341813637e-01	 1.496129476327111e+00	 6.014596888615279e+01
 9.473111293781052e-01	 1.515835701602599e+00	 7.628279918335259e+01
 9.161610295523410e-01	 1.534863257114104e+00	 9.063642697720221e+01
 8.847091730231601e-01	 1.553205050625430e+00	 1.031045056596654e+02
 8.529777562154551e-01	 1.570854925678792e+00	 1.135924520322663e+02
 8.209890851082741e-01	 1.587807662239485e+00	 1.220136977688619e+02
 7.887655271306419e-01	 1.604058974398075e+00	 1.282898951830882e+02
 7.563294637061935e-01	 1.619605505197995e+00	 1.323510770221962e+02
 7.237032436395248e-01	 1.634444818671535e+00	 1.341357703852494e+02
 6.909091375275186e-01	 1.648575389181304e+00	 1.335910652275609e+02
 6.579692933681720e-01	 1.661996588177175e+00	 1.306726382609413e+02
 9.849775560992720e-01	 1.506591920218745e+00	 6.752090084835473e+01
 9.539356827315137e-01	 1.526435951265105e+00	 8.075168087171490e+01
 9.225677500403102e-01	 1.545596566605134e+00	 9.338001285602849e+01
 8.908959504588690e-01	 1.564066624406578e+00	 1.052059749146837e+02
 8.589426356318386e-01	 1.581839925159500e+00	 1.160347867851435e+02
 8.267302675241348e-01	 1.598911212325456e+00	 1.256775268840985e+02
 7.942813699803704e-01	 1.615276170023616e+00	 1.339518055245808e+02
 7.616184809376328e-01	 1.630931417822191e+00	 1.406823909129620e+02
 7.287641054858667e-01	 1.645874502718734e+00	 1.457017850134408e+02
 6.957406699603945e-01	 1.660103888407058e+00	 1.488507468519173e+02
 6.625704772403191e-01	 1.673618941941579e+00	 1.499787613237998e+02
 9.918176780171699e-01	 1.517054364109380e+00	 7.563317775492791e+01
 9.605602360847276e-01	 1.537036200926611e+00	 8.547996120718157e+01
 9.289744705279306e-01	 1.556329876095164e+00	 9.589017389724648e+01
 8.970827278941061e-01	 1.574928198186726e+00	 1.065673522827179e+02
 8.649075150476579e-01	 1.592824924639208e+00	 1.172175752891561e+02
 8.324714499393694e-01	 1.610014762410427e+00	 1.275506429348894e+02
 7.997972128294406e-01	 1.626493365648157e+00	 1.372812129630762e+02
 7.669074981684126e-01	 1.642257330445388e+00	 1.461298890200369e+02
 7.338249673315762e-01	 1.657304186764933e+00	 1.538242544812424e+02
 7.005722023926947e-01	 1.671632387631810e+00	 1.600998466300738e+02
 6.671716611119766e-01	 1.685241295704983e+00	 1.647010665309341e+02
 9.986577999350573e-01	 1.527516807999014e+00	 8.446767350224940e+01
 9.671847894377462e-01	 1.547636450587116e+00	 9.046233472115583e+01
 9.353811910152018e-01	 1.567063185584193e+00	 9.817173096151143e+01
 9.032695053288720e-01	 1.585789771965874e+00	 1.072038694102351e+02
 8.708723944629133e-01	 1.603809924117917e+00	 1.171667227303956e+02
 8.382126323539778e-01	 1.621118312494398e+00	 1.276698653156031e+02
 8.053130556778535e-01	 1.637710561271698e+00	 1.383260693852015e+02
 7.721965153985323e-01	 1.653583243067585e+00	 1.487528514047382e+02
 7.388858291766537e-01	 1.668733870810132e+00	 1.585739599705468e+02
 7.054037348244198e-01	 1.683160886855564e+00	 1.674207970194872e+02
 6.717728449831446e-01	 1.696863649467388e+00	 1.749337650040458e+02
 1.005497921852934e+00	 1.537979251887649e+00	 9.400967340777103e+01
 9.738093427905699e-01	 1.558236700246622e+00	 9.569364013824293e+01
 9.417879115021248e-01	 1.577796495072223e+00	 1.002293735569372e+02
 9.094562827631661e-01	 1.596651345744022e+00	 1.071303433054283e+02
 8.768372738776050e-01	 1.614794923595625e+00	 1.159074292215118e+02
 8.439538147679604e-01	 1.632221862577369e+00	 1.260710113635172e+02
 8.108288985256082e-01	 1.648927756894240e+00	 1.371330216974574e+02
 7.774855326279926e-01	 1.664909155688782e+00	 1.486089449008403e+02
 7.439466910210989e-01	 1.680163554854331e+00	 1.600197564825861e+02
 7.102352672555692e-01	 1.694689386078317e+00	 1.708937872582788e+02
 6.763740288538225e-01	 1.708486003228792e+00	 1.807685041407619e+02
 1.012338043770800e+00	 1.548441695775283e+00	 1.042448603110495e+02
 9.804338961431978e-01	 1.568836949905128e+00	 1.011688555052695e+02
 9.481946319886988e-01	 1.588529804559253e+00	 1.020676642771009e+02
 9.156430601969882e-01	 1.607512919521170e+00	 1.063611903467030e+02
 8.828021532917325e-01	 1.625779923072334e+00	 1.134642136222111e+02
 8.496949971813170e-01	 1.643325412659341e+00	 1.227889302125533e+02
 8.163447413727055e-01	 1.660144952515780e+00	 1.337474559138503e+02
 7.827745498567932e-01	 1.676235068308980e+00	 1.457542776159797e+02
 7.490075528649117e-01	 1.691593238897529e+00	 1.582286379120735e+02
 7.150667996861435e-01	 1.706217885300070e+00	 1.705968391501490e+02
 6.809752127240106e-01	 1.720108356989195e+00	 1.822944542274075e+02
 1.019178165688655e+00	 1.558904139661917e+00	 1.151593012344636e+02
 9.870584494956313e-01	 1.579437199562634e+00	 1.068830935164425e+02
 9.546013524749237e-01	 1.599263114045282e+00	 1.036910430603445e+02
 9.218298376303387e-01	 1.618374493297318e+00	 1.049104397270632e+02
 8.887670327052957e-01	 1.636764922548042e+00	 1.098609364005384e+02
 8.554361795940475e-01	 1.654428962740311e+00	 1.178575352837821e+02
 8.218605842191447e-01	 1.671362148136321e+00	 1.282135394681824e+02
 7.880635670849336e-01	 1.687560980928176e+00	 1.402434512383660e+02
 7.540684147080928e-01	 1.703022922939728e+00	 1.532657995009180e+02
 7.198983321161423e-01	 1.717746384520824e+00	 1.666058797975455e+02
 6.855763965937093e-01	 1.731730710748600e+00	 1.795983915640197e+02
 1.026018287606500e+00	 1.569366583547552e+00	 1.267394345775057e+02
 9.936830028478698e-01	 1.590037449219140e+00	 1.128315970255041e+02
 9.610080729608007e-01	 1.609996423530313e+00	 1.051038312786961e+02
 9.280166150632180e-01	 1.629236067072467e+00	 1.027917463607239e+02
 8.947319121182953e-01	 1.647749922022751e+00	 1.051208215797093e+02
 8.611773620061525e-01	 1.665532512820283e+00	 1.113098354762990e+02
 8.273764270649263e-01	 1.682579343755863e+00	 1.205742618338524e+02
 7.933525843124147e-01	 1.698886893546373e+00	 1.321296112512257e+02
 7.591292765506416e-01	 1.714452606980927e+00	 1.451946977937794e+02
 7.247298645455660e-01	 1.729274883740578e+00	 1.589948114255063e+02
 6.901775804629183e-01	 1.743353064507004e+00	 1.727647782643531e+02
 6.441657417487923e-01	 1.627129526877964e+00	 4.426887205625411e+01
 6.117957838646149e-01	 1.639574920191208e+00	 2.093747920079636e-02
 5.793259849590476e-01	 1.651327164198396e+00	-3.510362972991548e+01
 5.467774215590897e-01	 1.662388177092036e+00	-6.164549445405416e+01
 5.141708910118744e-01	 1.672760680698918e+00	-8.016018278700163e+01
 4.815268759957917e-01	 1.682448176837619e+00	-9.121540347859110e+01
 4.488655109548267e-01	 1.691454921988814e+00	-9.538840225987103e+01
 4.162065505333923e-01	 1.699785900439417e+00	-9.326336425832329e+01
 3.835693400749210e-01	 1.707446796063892e+00	-8.542887866722462e+01
 3.509727882336220e-01	 1.714443962907183e+00	-7.247547870574397e+01
 3.184353417352296e-01	 1.720784394733555e+00	-5.499326871458155e+01
 6.487669256224087e-01	 1.638751880645368e+00	 7.791872998466567e+01
 6.161657537528369e-01	 1.651286169625344e+00	 3.541754949159705e+01
 5.834640277117503e-01	 1.663122358232710e+00	-6.110801974024227e-02
 5.506829745727695e-01	 1.674262378361350e+00	-2.883948833479678e+01
 5.178435402355067e-01	 1.684708971279677e+00	-5.125412018610620e+01
 4.849663536831978e-01	 1.694465663819255e+00	-6.765402294551575e+01
 4.520716931772849e-01	 1.703536742864199e+00	-7.839891510665939e+01
 4.191794544667834e-01	 1.711927228303469e+00	-8.385743470604825e+01
 3.863091210761500e-01	 1.719642844610636e+00	-8.440538224325195e+01
 3.534797367214098e-01	 1.726689991216679e+00	-8.042399600255112e+01
 3.207098798906232e-01	 1.733075711841326e+00	-7.229826896138947e+01
 6.533681094955354e-01	 1.650374234411771e+00	 1.066858322241117e+02
 6.205357236406640e-01	 1.662997419058485e+00	 6.708261209260557e+01
 5.876020704641420e-01	 1.674917552266045e+00	 3.242261271359431e+01
 5.545885275862121e-01	 1.686136579629713e+00	 2.599651010030090e+00
 5.215161894589658e-01	 1.696657261859521e+00	-2.250615814654489e+01
 4.884058313704844e-01	 1.706483150800025e+00	-4.302748810389014e+01
 4.552778753996668e-01	 1.715618563738773e+00	-5.910885559001080e+01
 4.221523584001318e-01	 1.724068556166777e+00	-7.090565198654481e+01
 3.890489020773603e-01	 1.731838893156712e+00	-7.858315770044800e+01
 3.559866852091929e-01	 1.738936019525595e+00	-8.231554642724643e+01
 3.229844180460166e-01	 1.745367028948611e+00	-8.228488585293822e+01
 6.579692933681720e-01	 1.661996588177175e+00	 1.306726382609413e+02
 6.249056935280957e-01	 1.674708668490631e+00	 9.509443342186323e+01
 5.917401132162232e-01	 1.686712746298402e+00	 6.240123733492022e+01
 5.584940805994181e-01	 1.698010780897124e+00	 3.270062267738474e+01
 5.251888386822519e-01	 1.708605552438449e+00	 6.087043547424560e+00
 4.918453090576513e-01	 1.718500637779927e+00	-1.735812157114204e+01
 4.584840576219726e-01	 1.727700384612536e+00	-3.756646432631241e+01
 4.251252623334376e-01	 1.736209884029342e+00	-5.448238162008750e+01
 3.917886830785516e-01	 1.744034941702122e+00	-6.806285477497651e+01
 3.584936336969712e-01	 1.751182047833929e+00	-7.827717645357981e+01
 3.252589562014102e-01	 1.757658346055410e+00	-8.510662926084839e+01
 6.625704772403191e-01	 1.673618941941579e+00	 1.499787613237998e+02
 6.292756634151327e-01	 1.686419917921784e+00	 1.195291462356020e+02
 5.958781559679939e-01	 1.698507940329780e+00	 8.992697875381086e+01
 5.623996336123873e-01	 1.709884982163583e+00	 6.149132841775680e+01
 5.288614879053646e-01	 1.720553843016463e+00	 3.452873218283739e+01
 4.952847867446983e-01	 1.730518124758960e+00	 9.332373967728072e+00
 4.616902398442022e-01	 1.739782205485489e+00	-1.381864205020179e+01
 4.280981662667007e-01	 1.748351211891163e+00	-3.465992354827753e+01
 3.945284640797241e-01	 1.756230990246865e+00	-5.294232750184077e+01
 3.610005821847450e-01	 1.763428076141683e+00	-6.843240360582938e+01
 3.275334943568037e-01	 1.769949663161724e+00	-8.091274500707274e+01
 6.671716611119766e-01	 1.685241295704983e+00	 1.647010665309341e+02
 6.336456333017748e-01	 1.698131167351941e+00	 1.404607829203542e+02
 6.000161987194534e-01	 1.710303134360181e+00	 1.150506093717892e+02
 5.663051866251195e-01	 1.721759183429090e+00	 8.899890013033590e+01
 5.325341371283041e-01	 1.732502133593562e+00	 6.282206532291302e+01
 4.987242644316259e-01	 1.742535611737127e+00	 3.702289438360403e+01
 4.648964220663556e-01	 1.751864026357632e+00	 1.208900418303635e+01
 4.310710701999212e-01	 1.760492539752242e+00	-1.150858336049031e+01
 3.972682450808779e-01	 1.768427038790942e+00	-3.331673061798846e+01
 3.635075306725140e-01	 1.775674104448856e+00	-5.290133814635367e+01
 3.298080325121973e-01	 1.782240980267553e+00	-6.984836189975512e+01
 6.717728449831446e-01	 1.696863649467388e+00	 1.749337650040458e+02
 6.380156031880218e-01	 1.709842416781104e+00	 1.579613474238969e+02
 6.041542414706024e-01	 1.722098328389602e+00	 1.378215104152661e+02
 5.702107396376153e-01	 1.733633384693645e+00	 1.152497262282444e+02
 5.362067863510706e-01	 1.744450424169746e+00	 9.097011388023661e+01
 5.021637421184337e-01	 1.754553098714425e+00	 6.569291360519991e+01
 4.681026042884328e-01	 1.763945847228964e+00	 4.011211669380066e+01
 4.340439741330990e-01	 1.772633867612575e+00	 1.490325940679052e+01
 4.000080260820126e-01	 1.780623087334350e+00	-9.278612003646291e+00
 3.660144791602783e-01	 1.787920132755449e+00	-3.180079976228640e+01
 3.320825706675907e-01	 1.794532297372897e+00	-5.205463272652143e+01
 6.763740288538225e-01	 1.708486003228792e+00	 1.807685041407619e+02
 6.423855730738738e-01	 1.721553666209272e+00	 1.721008842502438e+02
 6.082922842214408e-01	 1.733893522418045e+00	 1.582877192548860e+02
 5.741162926498737e-01	 1.745507585957248e+00	 1.402694769276349e+02
 5.398794355736638e-01	 1.756398714745015e+00	 1.189758650645040e+02
 5.056032198051220e-01	 1.766570585690856e+00	 9.532246395765897e+01
 4.713087865104338e-01	 1.776027668099485e+00	 7.020754468281673e+01
 4.370168780662343e-01	 1.784775195472166e+00	 4.450908575836685e+01
 4.027478070831286e-01	 1.792819135877093e+00	 1.908199864946014e+01
 3.685214276480380e-01	 1.800166161061461e+00	-5.244429489508757e+00
 3.343571088229843e-01	 1.806823614477755e+00	-2.766886949294154e+01
 6.809752127240106e-01	 1.720108356989195e+00	 1.822944542274075e+02
 6.467555429593308e-01	 1.733264915636446e+00	 1.829475446575366e+02
 6.124303269719683e-01	 1.745688716445509e+00	 1.764959748065245e+02
 5.780218456618959e-01	 1.757381787219899e+00	 1.640831285115524e+02
 5.435520847960841e-01	 1.768347005319369e+00	 1.468422252107642e+02
 5.090426974916905e-01	 1.778588072666419e+00	 1.258921172982370e+02
 4.745149687323587e-01	 1.788109488969196e+00	 1.023333034585634e+02
 4.399897819993270e-01	 1.796916523331014e+00	 7.724417438459413e+01
 4.054875880842257e-01	 1.805015184419168e+00	 5.167750476454424e+01
 3.710283761357929e-01	 1.812412189366892e+00	 2.665720290083438e+01
 3.366316469783779e-01	 1.819114931582128e+00	 3.175326821648063e+00
 6.855763965937093e-01	 1.731730710748600e+00	 1.795983915640197e+02
 6.511255128443928e-01	 1.744976165062624e+00	 1.905676501902533e+02
 6.165683697221850e-01	 1.757483910471994e+00	 1.924917611040516e+02
 5.819273986736807e-01	 1.769255988481598e+00	 1.867149866167322e+02
 5.472247340183309e-01	 1.780295295892808e+00	 1.745720224937684e+02
 5.124821751781393e-01	 1.790605559641113e+00	 1.573829669116216e+02
 4.777211509542074e-01	 1.800191309838096e+00	 1.364485353065485e+02
 4.429626859323769e-01	 1.809057851189117e+00	 1.130455413367544e+02
 4.082273690853040e-01	 1.817211232960577e+00	 8.842266123197703e+01
 3.735353246235432e-01	 1.824658217671742e+00	 6.379649584010987e+01
 3.389061851337714e-01	 1.831406248686016e+00	 4.034794173338776e+01
 6.901775804629183e-01	 1.743353064507004e+00	 1.727647782643531e+02
 6.554954827290597e-01	 1.756687414487810e+00	 1.950257536701235e+02
 6.207064124720911e-01	 1.769279104497503e+00	 2.063193491291878e+02
 5.858329516852290e-01	 1.781130189742346e+00	 2.081887085889198e+02
 5.508973832404049e-01	 1.792243586465333e+00	 2.021680095337506e+02
 5.159216528644688e-01	 1.802623046614941e+00	 1.897766101294390e+02
 4.809273331759799e-01	 1.812273130706186e+00	 1.725134719238135e+02
 4.459355898653843e-01	 1.821199179046478e+00	 1.518518821154115e+02
 4.109671500863636e-01	 1.829407281501319e+00	 1.292344960274159e+02
 3.760422731112888e-01	 1.836904245976013e+00	 1.060687170224583e+02
 3.411807232891650e-01	 1.843697565789419e+00	 8.372242770436984e+01
 3.184353417352296e-01	 1.720784394733555e+00	-5.499326871458155e+01
 2.859749623090795e-01	 1.726475693704463e+00	-1.223654687937366e+01
 2.536091058023270e-01	 1.731526038345919e+00	 8.013553734066384e+00
 2.213547034732818e-01	 1.735944150962882e+00	 6.580589209699244e+00
 1.892281454495708e-01	 1.739739264653876e+00	-1.566989032684542e+01
 1.572452663273684e-01	 1.742921090073661e+00	-5.783528454947883e+01
 1.254213328766080e-01	 1.745499782086253e+00	-1.189808309499674e+02
 9.377103380810400e-02	 1.747485906444048e+00	-1.981444113689835e+02
 6.230847155001576e-02	 1.748890406621857e+00	-2.943412534665792e+02
 3.104715597342760e-02	 1.749724570927141e+00	-4.065685057213781e+02
 0.000000000000000e+00	 1.750000000000000e+00	-5.338096667541207e+02
 3.207098798906232e-01	 1.733075711841326e+00	-7.229826896138947e+01
 2.880176406112042e-01	 1.738807662947247e+00	-3.222263703146407e+01
 2.554205994149419e-01	 1.743894081478562e+00	-1.040145126522095e+01
 2.229358084977045e-01	 1.748343752042406e+00	-6.283604812489513e+00
 1.905797750594583e-01	 1.752165973688006e+00	-1.927898903814472e+01
 1.583684468006353e-01	 1.755370526431943e+00	-4.876229396116609e+01
 1.263171995395246e-01	 1.757967637672972e+00	-9.407679716862873e+01
 9.444082690630262e-02	 1.759967948633152e+00	-1.545381196369970e+02
 6.275353206075759e-02	 1.761382480954967e+00	-2.294379283948814e+02
 3.126892137305198e-02	 1.762222603576644e+00	-3.180475675422730e+02
 0.000000000000000e+00	 1.762500000000000e+00	-4.196216007788647e+02
 3.229844180460166e-01	 1.745367028948611e+00	-8.228488585293822e+01
 2.900603189133288e-01	 1.751139632189640e+00	-4.617314274696415e+01
 2.572320930275566e-01	 1.756262124610897e+00	-2.411149016922916e+01
 2.245169135221270e-01	 1.760743353121696e+00	-1.581825072242539e+01
 1.919314046693457e-01	 1.764592682721967e+00	-2.097572236020102e+01
 1.594916272739021e-01	 1.767819962790108e+00	-3.923284545626008e+01
 1.272130662024412e-01	 1.770435493259618e+00	-7.020790223941310e+01
 9.511062000450128e-02	 1.772449990822214e+00	-1.134912310911740e+02
 6.319859257149944e-02	 1.773874555288057e+00	-1.686479391199183e+02
 3.149068677267637e-02	 1.774720636226143e+00	-2.352205974294830e+02
 0.000000000000000e+00	 1.775000000000000e+00	-3.127319045736122e+02
 3.252589562014102e-01	 1.757658346055410e+00	-8.510662926084839e+01
 2.921029972154534e-01	 1.763471601431642e+00	-5.421466214188800e+01
 2.590435866401714e-01	 1.768630167742926e+00	-3.321524612886752e+01
 2.260980185465497e-01	 1.773142954200753e+00	-2.209317684885298e+01
 1.932830342792332e-01	 1.777019391755757e+00	-2.080018761223446e+01
 1.606148077471690e-01	 1.780269399148155e+00	-2.925649293359201e+01
 1.281089328653577e-01	 1.782903348846188e+00	-4.735240791124611e+01
 9.578041310269989e-02	 1.784932033011234e+00	-7.495002999450526e+01
 6.364365308224128e-02	 1.786366629621130e+00	-1.118849700054206e+02
 3.171245217230076e-02	 1.787218668875638e+00	-1.579681197134195e+02
 0.000000000000000e+00	 1.787500000000000e+00	-2.129874437752480e+02
 3.275334943568037e-01	 1.769949663161724e+00	-8.091274500707274e+01
 2.941456755175780e-01	 1.775803570673254e+00	-5.647027682531471e+01
 2.608550802527862e-01	 1.780998210874648e+00	-3.780866119758274e+01
 2.276791235709723e-01	 1.785542555279576e+00	-2.517627193948666e+01
 1.946346638891207e-01	 1.789446100789376e+00	-1.879136838723604e+01
 1.617379882204359e-01	 1.792718835506084e+00	-1.884252498737176e+01
 1.290047995282743e-01	 1.795371204432684e+00	-2.548917984793426e+01
 9.645020620089854e-02	 1.797414075200213e+00	-3.886229278134040e+01
 6.408871359298313e-02	 1.798858703954184e+00	-5.906510313208503e+01
 3.193421757192514e-02	 1.799716701525127e+00	-8.617397754623214e+01
 0.000000000000000e+00	 1.800000000000000e+00	-1.202393377987241e+02
 3.298080325121973e-01	 1.782240980267553e+00	-6.984836189975512e+01
 2.961883538197027e-01	 1.788135539914474e+00	-5.305967315793864e+01
 2.626665738654010e-01	 1.793366254006063e+00	-3.798503085168048e+01
 2.292602285953949e-01	 1.797942156358166e+00	-2.513355204286516e+01
 1.959862934990082e-01	 1.801872809822824e+00	-1.498717295610110e+01
 1.628611686937026e-01	 1.805168271863896e+00	-7.999974055440205e+00
 1.299006661911908e-01	 1.807839060019105e+00	-4.597666803367066e+00
 9.711999929909716e-02	 1.809896117389149e+00	-5.177236603089796e+00
 6.453377410372496e-02	 1.811350778287220e+00	-1.010673561760295e+01
 3.215598297154953e-02	 1.812214734174612e+00	-1.972521845963746e+01
 0.000000000000000e+00	 1.812500000000000e+00	-3.434281315505760e+01
 3.320825706675907e-01	 1.794532297372897e+00	-5.205463272652143e+01
 2.982310321218273e-01	 1.800467509155304e+00	-4.409925852739291e+01
 2.644780674780159e-01	 1.805734297137171e+00	-3.383509462625069e+01
 2.308413336198176e-01	 1.810341757436522e+00	-2.202922464163647e+01
 1.973379231088956e-01	 1.814299518856103e+00	-9.424471093513016e+00
 1.639843491669695e-01	 1.817617708221590e+00	 3.262374808436583e+00
 1.307965328541074e-01	 1.820306915605452e+00	 1.534211934747183e+01
 9.778979239729581e-02	 1.822378159578045e+00	 2.615453001151415e+01
 6.497883461446680e-02	 1.823842852620236e+00	 3.506949966550501e+01
 3.237774837117391e-02	 1.824712766824093e+00	 4.148801537414686e+01
 0.000000000000000e+00	 1.825000000000000e+00	 4.484293720264193e+01
 3.343571088229843e-01	 1.806823614477755e+00	-2.766886949294154e+01
 3.002737104239519e-01	 1.812799478395743e+00	-2.970227287764062e+01
 2.662895610906306e-01	 1.818102340267972e+00	-2.544712305166726e+01
 2.324224386442401e-01	 1.822741358514645e+00	-1.592575016815857e+01
 1.986895527187831e-01	 1.826726227889211e+00	-2.139129400727768e+00
 1.651075296402364e-01	 1.830067144579166e+00	 1.493597552032497e+01
 1.316923995170240e-01	 1.832774771191723e+00	 3.434962276243076e+01
 9.845958549549444e-02	 1.834860201766898e+00	 5.518105448228884e+01
 6.542389512520864e-02	 1.836334926953235e+00	 7.654081013604790e+01
 3.259951377079830e-02	 1.837210799473569e+00	 9.757259240231818e+01
 0.000000000000000e+00	 1.837500000000000e+00	 1.174548887921702e+02
 3.366316469783779e-01	 1.819114931582128e+00	 3.175326821648063e+00
 3.023163887260765e-01	 1.825131447635791e+00	-9.978895716905550e+00
 2.681010547032454e-01	 1.830470383398466e+00	-1.290700106563575e+01
 2.340035436686628e-01	 1.835140959592535e+00	-6.883901026223914e+00
 2.000411823286705e-01	 1.839152936922148e+00	 6.833954803644435e+00
 1.662307101135032e-01	 1.842516580936626e+00	 2.701251289299910e+01
 1.325882661799405e-01	 1.845242626777920e+00	 5.244376200960690e+01
 9.912937859369306e-02	 1.847342243955709e+00	 8.194908558485700e+01
 6.586895563595048e-02	 1.848827001286216e+00	 1.143823164673707e+02
 3.282127917042268e-02	 1.849708832123040e+00	 1.486324926841171e+02
 0.000000000000000e+00	 1.850000000000000e+00	 1.836263150457783e+02
 3.389061851337714e-01	 1.831406248686016e+00	 4.034794173338776e+01
 3.043590670282013e-01	 1.837463416875449e+00	 1.496365118344185e+01
 2.699125483158602e-01	 1.842838426528653e+00	 3.701691933633091e+00
 2.355846486930855e-01	 1.847540560670190e+00	 5.037181763929320e+00
 2.013928119385580e-01	 1.851579645954916e+00	 1.746082095758843e+01
 1.673538905867701e-01	 1.854966017293967e+00	 3.948389488790914e+01
 1.334841328428570e-01	 1.857710482364042e+00	 6.964294770473040e+01
 9.979917169189172e-02	 1.859824286144479e+00	 1.065041170294216e+02
 6.631401614669230e-02	 1.861319075619177e+00	 1.486671226124440e+02
 3.304304457004707e-02	 1.862206864772507e+00	 1.947689048166346e+02
 0.000000000000000e+00	 1.862500000000000e+00	 2.434869115412313e+02
 3.411807232891650e-01	 1.843697565789419e+00	 8.372242770436984e+01
 3.064017453303258e-01	 1.849795386114716e+00	 4.502100519795356e+01
 2.717240419284751e-01	 1.855206469658534e+00	 2.429760523637773e+01
 2.371657537175081e-01	 1.859940161747613e+00	 1.977993418640587e+01
 2.027444415484455e-01	 1.864006354987513e+00	 2.970841403067434e+01
 1.684770710600370e-01	 1.867415453651191e+00	 5.234224517707025e+01
 1.343799995057737e-01	 1.870178337950090e+00	 8.596509944305743e+01
 1.004689647900904e-01	 1.872306328333207e+00	 1.288904292963908e+02
 6.675907665743416e-02	 1.873811149952121e+00	 1.794663830279541e+02
 3.326480996967145e-02	 1.874704897421970e+00	 2.360803189835888e+02
 0.000000000000000e+00	 1.875000000000000e+00	 2.971629152636261e+02
 1.875000000000000e+00	 0.000000000000000e+00	 5.813510045649261e+02
 1.874704897421970e+00	 3.326480996967039e-02	 4.850795428353179e+02
 1.873811149952121e+00	 6.675907665743323e-02	 3.987540160358767e+02
 1.872306328333207e+00	 1.004689647900895e-01	 3.222585854744590e+02
 1.870178337950090e+00	 1.343799995057729e-01	 2.554388488568311e+02
 1.867415453651191e+00	 1.684770710600364e-01	 1.981006726384864e+02
 1.864006354987513e+00	 2.027444415484450e-01	 1.500091550525931e+02
 1.859940161747613e+00	 2.371657537175077e-01	 1.108877337847332e+02
 1.855206469658534e+00	 2.717240419284748e-01	 8.041745206691186e+01
 1.849795386114716e+00	 3.064017453303257e-01	 5.823639662172801e+01
 1.843697565789419e+00	 3.411807232891650e-01	 4.393932039551681e+01
 1.887500000000000e+00	 0.000000000000000e+00	 4.951949382087529e+02
 1.887202930071432e+00	 3.348657536938452e-02	 4.180337151014356e+02
 1.886303224285065e+00	 6.720413716834120e-02	 3.479175931820516e+02
 1.884788370521935e+00	 1.011387578885170e-01	 2.847833898723469e+02
 1.882646193536138e+00	 1.352758661689670e-01	 2.285409955294211e+02
 1.879864890008415e+00	 1.696002515336150e-01	 1.790724925876915e+02
 1.876433064020110e+00	 2.040960711586639e-01	 1.362313631552592e+02
 1.872339762825035e+00	 2.387468587422663e-01	 9.984179508008322e+01
 1.867574512788415e+00	 2.735355355414151e-01	 6.969809639845441e+01
 1.862127355353983e+00	 3.084444236327496e-01	 4.556422787491226e+01
 1.855988882892821e+00	 3.434552614448158e-01	 2.717346303354810e+01
 1.900000000000000e+00	 0.000000000000000e+00	 4.006189393603473e+02
 1.899700962720899e+00	 3.370834076927819e-02	 3.433860867181842e+02
 1.898795298618027e+00	 6.764919767958150e-02	 2.903391194684573e+02
 1.897270412710705e+00	 1.018085509874021e-01	 2.414670953472323e+02
 1.895114049122259e+00	 1.361717328327159e-01	 1.967436767429854e+02
 1.892314326365756e+00	 1.707234320078171e-01	 1.561265339184611e+02
 1.888859773052877e+00	 2.054477007695455e-01	 1.195567947938165e+02
 1.884739363902691e+00	 2.403279637676972e-01	 8.695854738293824e+01
 1.879942555918602e+00	 2.753470291550062e-01	 5.823840096657608e+01
 1.874459324593640e+00	 3.104871019357721e-01	 3.328511201987799e+01
 1.868280199996709e+00	 3.457297996009814e-01	 1.196928078434132e+01
 1.912500000000000e+00	 0.000000000000000e+00	 2.977881070872057e+02
 1.912198995370370e+00	 3.393010616935138e-02	 2.612857162353397e+02
 1.911287372951007e+00	 6.809425819115406e-02	 2.261507968571291e+02
 1.909752454899517e+00	 1.024783440867449e-01	 1.924242393548514e+02
 1.907581904708456e+00	 1.370675994970198e-01	 1.601429677352390e+02
 1.904763762723215e+00	 1.718466124826427e-01	 1.293396242541531e+02
 1.901286482085814e+00	 2.067993303810899e-01	 1.000422590515617e+02
 1.897138964980580e+00	 2.419090687937999e-01	 7.227402697634065e+01
 1.892310599049096e+00	 2.771585227692481e-01	 4.605289388622083e+01
 1.886791293833689e+00	 3.125297802393932e-01	 2.139135477851720e+01
 1.880571517101082e+00	 3.480043377576615e-01	-1.703833839952473e+00
 1.925000000000000e+00	 0.000000000000000e+00	 1.868632522712184e+02
 1.924697028019846e+00	 3.415187156960411e-02	 1.718777906482911e+02
 1.923779447284006e+00	 6.853931870305893e-02	 1.554813935832866e+02
 1.922234497088370e+00	 1.031481371865453e-01	 1.377663844363213e+02
 1.920049760294728e+00	 1.379634661618787e-01	 1.188324483610220e+02
 1.917213199080792e+00	 1.729697929580919e-01	 9.878659576668178e+01
 1.913713191118923e+00	 2.081509599932970e-01	 7.774308951562521e+01
 1.909538566058704e+00	 2.434901738205749e-01	 5.582333419344067e+01
 1.904678642179897e+00	 2.789700163841410e-01	 3.315572596902876e+01
 1.899123263074128e+00	 3.145724585436129e-01	 9.875461767167046e+00
 1.892862834205940e+00	 3.502788759148565e-01	-1.387569329180008e+01
 1.937500000000000e+00	 0.000000000000000e+00	 6.800103593722800e+01
 1.937195060669326e+00	 3.437363697003634e-02	 7.530375028682894e+01
 1.936271521617023e+00	 6.898437921529610e-02	 7.845635492058972e+01
 1.934716539277264e+00	 1.038179302868033e-01	 7.760221418296067e+01
 1.932517615881075e+00	 1.388593328272925e-01	 7.290328358830881e+01
 1.929662635438486e+00	 1.740929734341646e-01	 6.454034954566215e+01
 1.926139900152201e+00	 2.095025896061670e-01	 5.271319187332337e+01
 1.921938167137059e+00	 2.450712788480219e-01	 3.764066360909465e+01
 1.917046685311006e+00	 2.807815099996848e-01	 1.956068289403829e+01
 1.911455232314958e+00	 3.166151368484312e-01	-1.269867951996634e+00
 1.905154151311284e+00	 3.525534140725660e-01	-2.457534063501838e+01
 1.950000000000000e+00	 0.000000000000000e+00	-5.864589773873973e+01
 1.949693093318812e+00	 3.459540237064810e-02	-2.829859109948040e+01
 1.948763595950059e+00	 6.942943972786557e-02	-4.802090313793528e+00
 1.947198581466201e+00	 1.044877233875190e-01	 1.203762551015656e+01
 1.944985471467495e+00	 1.397551994932612e-01	 2.244430089821639e+01
 1.942112071796298e+00	 1.752161539108608e-01	 2.667191749181844e+01
 1.938566609185650e+00	 2.108542192196997e-01	 2.500508967788339e+01
 1.934337768215650e+00	 2.466523838761410e-01	 1.775933307024600e+01
 1.929414728442420e+00	 2.825930036158795e-01	 5.281196910287832e+00
 1.923787201556179e+00	 3.186578151538481e-01	-1.205174807154615e+01
 1.917445468417113e+00	 3.548279522307903e-01	-3.383107420509251e+01
 1.962499999999999e+00	 0.000000000000000e+00	-1.929287935043632e+02
 1.962191125968301e+00	 3.481716777143939e-02	-1.387949308451750e+02
 1.961255670283113e+00	 6.987450024076731e-02	-9.417482732438390e+01
 1.959680623655179e+00	 1.051575164886924e-01	-5.882418259515735e+01
 1.957453327053991e+00	 1.406510661597848e-01	-3.245793527294698e+01
 1.954561508154227e+00	 1.763393343881805e-01	-1.474947815496074e+01
 1.950993318219269e+00	 2.122058488338951e-01	-5.330031634842330e+00
 1.946737369294472e+00	 2.482334889049322e-01	-3.788188383134772e+00
 1.941782771574142e+00	 2.844044972327250e-01	-9.669641907817372e+00
 1.936119170797790e+00	 3.207004934598635e-01	-2.247711100242090e+01
 1.929736785523427e+00	 3.571024903895291e-01	-4.167047132706207e+01
 1.975000000000000e+00	 0.000000000000000e+00	-3.347026619638262e+02
 1.974689158617796e+00	 3.503893317241022e-02	-2.560543662586949e+02
 1.973747744616185e+00	 7.031956075400138e-02	-1.895457567925099e+02
 1.972162665844200e+00	 1.058273095903234e-01	-1.348826236971788e+02
 1.969921182640562e+00	 1.415469328268634e-01	-9.171905191855151e+01
 1.967010944512274e+00	 1.774625148661237e-01	-5.965636754812401e+01
 1.963420027253059e+00	 2.135574784487534e-01	-3.824228240117883e+01
 1.959136970373529e+00	 2.498145939343955e-01	-2.697025365739775e+01
 1.954150814706171e+00	 2.862159908502214e-01	-2.527907483255489e+01
 1.948451140039792e+00	 3.227431717664775e-01	-3.255271361108088e+01
 1.942028102630227e+00	 3.593770285487826e-01	-4.812041113272388e+01
 1.987500000000000e+00	 0.000000000000000e+00	-4.838261611546657e+02
 1.987187191267294e+00	 3.526069857356055e-02	-3.799492877050396e+02
 1.986239818949276e+00	 7.076462126756775e-02	-2.908017000501102e+02
 1.984644708033262e+00	 1.064971026924121e-01	-2.160396417557060e+02
 1.982389038227208e+00	 1.424427994944970e-01	-1.552567985489665e+02
 1.979460380870438e+00	 1.785856953446905e-01	-1.079829781280011e+02
 1.975846736287019e+00	 2.149091080642744e-01	-7.368302798236677e+01
 1.971536571452820e+00	 2.513956989645308e-01	-5.175601175817105e+01
 1.966518857838506e+00	 2.880274844683688e-01	-4.153466406353745e+01
 1.960783109282185e+00	 3.247858500736903e-01	-4.228514274016177e+01
 1.954319419737511e+00	 3.616515667085508e-01	-5.320709651681457e+01
 2.000000000000000e+00	 0.000000000000000e+00	-6.401614825654910e+02
 1.999685223916798e+00	 3.548246397489042e-02	-5.103552756978001e+02
 1.998731893282386e+00	 7.120968178146642e-02	-3.978323078095146e+02
 1.997126750222366e+00	 1.071668957949584e-01	-3.021996320514289e+02
 1.994856893813928e+00	 1.433386661626855e-01	-2.229909808631092e+02
 1.991909817228721e+00	 1.797088758238808e-01	-1.596651815818346e+02
 1.988273445321150e+00	 2.162607376804582e-01	-1.116048495453217e+02
 1.983936172532344e+00	 2.529768039953384e-01	-7.811538291258341e+01
 1.978886900971149e+00	 2.898389780871670e-01	-5.842428269909408e+01
 1.973115078524969e+00	 3.268285283815016e-01	-5.168082052210715e+01
 1.966610736845282e+00	 3.639261048688338e-01	-5.695607526982647e+01
 1.843697565789419e+00	 3.411807232891650e-01	 4.393932039551681e+01
 1.836904245976013e+00	 3.760422731112877e-01	 5.788305111098442e+01
 1.829407281501320e+00	 4.109671500863628e-01	 7.060874093057127e+01
 1.821199179046478e+00	 4.459355898653836e-01	 8.220294023307649e+01
 1.812273130706186e+00	 4.809273331759791e-01	 9.275935998569153e+01
 1.802623046614941e+00	 5.159216528644683e-01	 1.023787468120193e+02
 1.792243586465333e+00	 5.508973832404047e-01	 1.111687167826642e+02
 1.781130189742346e+00	 5.858329516852289e-01	 1.192435471309067e+02
 1.769279104497502e+00	 6.207064124720912e-01	 1.267239253956853e+02
 1.756687414487809e+00	 6.554954827290598e-01	 1.337366558149602e+02
 1.743353064507004e+00	 6.901775804629183e-01	 1.404143231318562e+02
 1.855988882892821e+00	 3.434552614448158e-01	 2.717346303354810e+01
 1.849150274280280e+00	 3.785492215992383e-01	 3.993972362958039e+01
 1.841603330042052e+00	 4.137069310875700e-01	 5.190926031278615e+01
 1.833340506903817e+00	 4.489084937984764e-01	 6.313025561779403e+01
 1.824354951574237e+00	 4.841335153977702e-01	 7.365551422146365e+01
 1.814640533588709e+00	 5.193611305507440e-01	 8.354241203746959e+01
 1.804191877037770e+00	 5.545700324623478e-01	 9.285281950392066e+01
 1.793004391002975e+00	 5.897385046965644e-01	 1.016529983881122e+02
 1.781074298522854e+00	 6.248444552216972e-01	 1.100134716133140e+02
 1.768398663912796e+00	 6.598654526133346e-01	 1.180088658079501e+02
 1.754975418265163e+00	 6.947787643316375e-01	 1.257177264862267e+02
 1.868280199996709e+00	 3.457297996009814e-01	 1.196928078434132e+01
 1.861396302585124e+00	 3.810561700876036e-01	 2.328508909695944e+01
 1.853799378583433e+00	 4.164467120890913e-01	 3.421930029229265e+01
 1.845481834761856e+00	 4.518813977317833e-01	 4.478209691201832e+01
 1.836436772443023e+00	 4.873396976196745e-01	 5.498576859053861e+01
 1.826658020563224e+00	 5.228006082370322e-01	 6.484473462411435e+01
 1.816140167610950e+00	 5.582426816842028e-01	 7.437555607890246e+01
 1.804878592264319e+00	 5.936440577077110e-01	 8.359693688232150e+01
 1.792869492548874e+00	 6.289824979710139e-01	 9.252971340491047e+01
 1.780109913338382e+00	 6.642354224972196e-01	 1.011968321109073e+02
 1.766597772023832e+00	 6.993799481998669e-01	 1.096233149348090e+02
 1.880571517101082e+00	 3.480043377576615e-01	-1.703833839952473e+00
 1.873642330890543e+00	 3.835631185763834e-01	 7.893893526506959e+00
 1.865995427125461e+00	 4.191864930909272e-01	 1.751908171801163e+01
 1.857623162620597e+00	 4.548543016653039e-01	 2.714427392133958e+01
 1.848518593312543e+00	 4.905458798416917e-01	 3.674162830449881e+01
 1.838675507538488e+00	 5.262400859233329e-01	 4.628301351921564e+01
 1.828088458184871e+00	 5.619153309059697e-01	 5.574010896605658e+01
 1.816752793526378e+00	 5.975496107186689e-01	 6.508450938566473e+01
 1.804664686575561e+00	 6.331205407200413e-01	 7.428783328517113e+01
 1.791821162764569e+00	 6.686053923807149e-01	 8.332183465643027e+01
 1.778220125783012e+00	 7.039811320676065e-01	 9.215851739305636e+01
 1.892862834205940e+00	 3.502788759148565e-01	-1.387569329180008e+01
 1.885888359196539e+00	 3.860700670655777e-01	-6.258461092491199e+00
 1.878191475668137e+00	 4.219262740930773e-01	 1.789339203667964e+00
 1.869764490480039e+00	 4.578272055990384e-01	 1.020296504081460e+01
 1.860600414182798e+00	 4.937520620638225e-01	 1.891481922410202e+01
 1.850692994514499e+00	 5.296795636096463e-01	 2.785461782489151e+01
 1.840036748759534e+00	 5.655879801276484e-01	 3.694957795254146e+01
 1.828626994789152e+00	 6.014551637294382e-01	 4.612462507410078e+01
 1.816459880602917e+00	 6.372585834687796e-01	 5.530261939249363e+01
 1.803532412191354e+00	 6.729753622638208e-01	 6.440460061879723e+01
 1.789842479542702e+00	 7.085823159348567e-01	 7.335005029682090e+01
 1.905154151311284e+00	 3.525534140725660e-01	-2.457534063501838e+01
 1.898134387503110e+00	 3.885770155551868e-01	-1.919593795581109e+01
 1.890387524211462e+00	 4.246660550955419e-01	-1.298869544573864e+01
 1.881905818340181e+00	 4.608001095329867e-01	-6.055294635503778e+00
 1.872682235053787e+00	 4.969582442860664e-01	 1.497280741069527e+00
 1.862710481491260e+00	 5.331190412959723e-01	 9.556984534551011e+00
 1.851985039334939e+00	 5.692606293492392e-01	 1.800698282053432e+01
 1.840501196052641e+00	 6.053607167400185e-01	 2.672596319130395e+01
 1.828255074630939e+00	 6.413966262172286e-01	 3.558847821028735e+01
 1.815243661618739e+00	 6.773453321465369e-01	 4.446532224438644e+01
 1.801464833302902e+00	 7.131834998016169e-01	 5.322394058508026e+01
 1.917445468417113e+00	 3.548279522307903e-01	-3.383107420509251e+01
 1.910380415810258e+00	 3.910839640452103e-01	-3.094188579137399e+01
 1.902583572755435e+00	 4.274058360983207e-01	-2.683330917001809e+01
 1.894047146201024e+00	 4.637730134671488e-01	-2.164362474770740e+01
 1.884764055925510e+00	 5.001644265084235e-01	-1.551884106634869e+01
 1.874727968468767e+00	 5.365585189823108e-01	-8.612383643609792e+00
 1.863933329911085e+00	 5.729332785707417e-01	-1.084734089010048e+00
 1.852375397316846e+00	 6.092662697504101e-01	 6.896980417782814e+00
 1.840050268659630e+00	 6.455346689653881e-01	 1.515944679900529e+01
 1.826954911046724e+00	 6.817153020288634e-01	 2.352367399630423e+01
 1.813087187063613e+00	 7.177846836678874e-01	 3.180554779871198e+01
 1.929736785523427e+00	 3.571024903895291e-01	-4.167047132706207e+01
 1.922626444117981e+00	 3.935909125356485e-01	-4.151905842872952e+01
 1.914779621300055e+00	 4.301456171014137e-01	-3.976232298085272e+01
 1.906188474062569e+00	 4.667459174015250e-01	-3.657481066624045e+01
 1.896845876797968e+00	 5.033706087308940e-01	-3.214120001623677e+01
 1.886745455447024e+00	 5.399979966686618e-01	-2.665592037993124e+01
 1.875881620487973e+00	 5.766059277921560e-01	-2.032270541057868e+01
 1.864249598581766e+00	 6.131718227606131e-01	-1.335408204161965e+01
 1.851845462688989e+00	 6.496727117132586e-01	-5.970795439289390e+00
 1.838666160475309e+00	 6.860852719108005e-01	 1.598829043811627e+00
 1.824709540824834e+00	 7.223858675336682e-01	 9.119585334733017e+00
 1.942028102630227e+00	 3.593770285487826e-01	-4.812041113272388e+01
 1.934872472426280e+00	 3.960978610265014e-01	-5.094963362539568e+01
 1.926975669845323e+00	 4.328853981048212e-01	-5.179310670681697e+01
 1.918329801924813e+00	 4.697188213361148e-01	-5.086131407052534e+01
 1.908927697671160e+00	 5.065767909534776e-01	-4.837725615589220e+01
 1.898762942426027e+00	 5.434374743550253e-01	-4.457599773712024e+01
 1.887829911065603e+00	 5.802785770134823e-01	-3.970413638195537e+01
 1.876123799847400e+00	 6.170773757706272e-01	-3.401919163937082e+01
 1.863640656719016e+00	 6.538107544608398e-01	-2.778891544311084e+01
 1.850377409904492e+00	 6.904552417923476e-01	-2.129052487443099e+01
 1.836331894586565e+00	 7.269870513989594e-01	-1.480985910658336e+01
 1.954319419737511e+00	 3.616515667085508e-01	-5.320709651681457e+01
 1.947118500735156e+00	 3.986048095177688e-01	-5.925523118276975e+01
 1.939171718391239e+00	 4.356251791085429e-01	-6.294259318198360e+01
 1.930471129787760e+00	 4.726917252709185e-01	-6.451528312839874e+01
 1.921009518545086e+00	 5.097829731761744e-01	-6.423428185572755e+01
 1.910780429405780e+00	 5.468769520414016e-01	-6.237492810808340e+01
 1.899778201643975e+00	 5.839512262347204e-01	-5.922630256158660e+01
 1.887998001113750e+00	 6.209829287804526e-01	-5.509051792418841e+01
 1.875435850749710e+00	 6.579487972081314e-01	-5.028191560082390e+01
 1.862088659334276e+00	 6.948252116735054e-01	-4.512617018572873e+01
 1.847954248348806e+00	 7.315882352637606e-01	-3.995930384617726e+01
 1.966610736845282e+00	 3.639261048688338e-01	-5.695607526982647e+01
 1.959364529044608e+00	 4.011117580094511e-01	-6.645693038269056e+01
 1.951367766937805e+00	 4.383649601125791e-01	-7.322729190245042e+01
 1.942612457651407e+00	 4.756646292059362e-01	-7.754856229381242e+01
 1.933091339419748e+00	 5.129891553989847e-01	-7.971936767465068e+01
 1.922797916386281e+00	 5.503164297277904e-01	-8.005496608109421e+01
 1.911726492223089e+00	 5.876238754558706e-01	-7.888654763155270e+01
 1.899872202380815e+00	 6.248884817900893e-01	-7.656042622601841e+01
 1.887231044781072e+00	 6.620868399551341e-01	-7.343712326831840e+01
 1.873799908764660e+00	 6.991951815542736e-01	-6.989034479114198e+01
 1.859576602111558e+00	 7.361894191280726e-01	-6.630585428850510e+01
 1.743353064507004e+00	 6.901775804629183e-01	 1.404143231318562e+02
 1.729274883740578e+00	 7.247298645455649e-01	 1.374712760510225e+02
 1.714452606980928e+00	 7.591292765506406e-01	 1.353262364625348e+02
 1.698886893546374e+00	 7.933525843124138e-01	 1.337697641891282e+02
 1.682579343755863e+00	 8.273764270649256e-01	 1.325858834901269e+02
 1.665532512820283e+00	 8.611773620061519e-01	 1.315528351556869e+02
 1.647749922022751e+00	 8.947319121182951e-01	 1.304438790218300e+02
 1.629236067072467e+00	 9.280166150632179e-01	 1.290281430400005e+02
 1.609996423530313e+00	 9.610080729608007e-01	 1.270715145267363e+02
 1.590037449219140e+00	 9.936830028478698e-01	 1.243375687382680e+02
 1.569366583547552e+00	 1.026018287606500e+00	 1.205885294682979e+02
 1.754975418265163e+00	 6.947787643316375e-01	 1.257177264862267e+02
 1.740803382960041e+00	 7.295613969744104e-01	 1.220280189797912e+02
 1.725882291021801e+00	 7.641901383925472e-01	 1.190213955358084e+02
 1.710212806164218e+00	 7.986416015392133e-01	 1.165450931369367e+02
 1.693796539375036e+00	 8.328922699100104e-01	 1.144412080658454e+02
 1.676636062899880e+00	 8.669185444175695e-01	 1.125472384361215e+02
 1.658734921497089e+00	 9.006967915306421e-01	 1.106966653482369e+02
 1.640097640847259e+00	 9.342033924955047e-01	 1.087195699303606e+02
 1.620729733015010e+00	 9.674147934461709e-01	 1.064432831396205e+02
 1.600637698875349e+00	 1.000307556199713e+00	 1.036930648340956e+02
 1.579829027432933e+00	 1.032858409524087e+00	 1.002928082844236e+02
 1.766597772023832e+00	 6.993799481998669e-01	 1.096233149348090e+02
 1.752331882179924e+00	 7.343929294026761e-01	 1.055060040093574e+02
 1.737311975063022e+00	 7.692510002338026e-01	 1.019588582255952e+02
 1.721538718782361e+00	 8.039306187653088e-01	 9.888522812230295e+01
 1.705013734994474e+00	 8.384081127543593e-01	 9.618470493293341e+01
 1.687739612979730e+00	 8.726597268282392e-01	 9.375345527728346e+01
 1.669719920971688e+00	 9.066616709422494e-01	 9.148458278054636e+01
 1.650959214622339e+00	 9.403901699270792e-01	 8.926851499699085e+01
 1.631463042500044e+00	 9.738215139308771e-01	 8.699341375434773e+01
 1.611237948531963e+00	 1.006932109550961e+00	 8.454560678416951e+01
 1.590291471318810e+00	 1.039698531441169e+00	 8.181003826642490e+01
 1.778220125783012e+00	 7.039811320676065e-01	 9.215851739305636e+01
 1.763860381400227e+00	 7.392244618303614e-01	 8.792640452197617e+01
 1.748741659104592e+00	 7.743118620744064e-01	 8.415350303606137e+01
 1.732864631400799e+00	 8.092196359907015e-01	 8.079872447817210e+01
 1.716230930614176e+00	 8.439239555979724e-01	 7.781858927593626e+01
 1.698843163059831e+00	 8.784009092381607e-01	 7.516735528447664e+01
 1.680704920446545e+00	 9.126265503531157e-01	 7.279716165496293e+01
 1.661820788397706e+00	 9.465769473579415e-01	 7.065818751529233e+01
 1.642196351985415e+00	 9.802282344149192e-01	 6.869882481006778e+01
 1.621838198188981e+00	 1.013556662901614e+00	 6.686586450989662e+01
 1.600753915205181e+00	 1.046538653357745e+00	 6.510469526656468e+01
 1.789842479542702e+00	 7.085823159348567e-01	 7.335005029682090e+01
 1.775388880620949e+00	 7.440559942574663e-01	 6.930984389434850e+01
 1.760171343146511e+00	 7.793727239143585e-01	 6.561982196192731e+01
 1.744190544019534e+00	 8.145086532153905e-01	 6.229391525917316e+01
 1.727448126234142e+00	 8.494397984408504e-01	 5.934501867332855e+01
 1.709946713140184e+00	 8.841420916473343e-01	 5.678491527040143e+01
 1.691689919921663e+00	 9.185914297632422e-01	 5.462420416483602e+01
 1.672682362173361e+00	 9.527637247880916e-01	 5.287223279480440e+01
 1.652929661471120e+00	 9.866349548982979e-01	 5.153703417221521e+01
 1.632438447846405e+00	 1.020181216251673e+00	 5.062526965214863e+01
 1.611216359092047e+00	 1.053378775273816e+00	 5.014217773572654e+01
 1.801464833302902e+00	 7.131834998016169e-01	 5.322394058508026e+01
 1.786917379842092e+00	 7.488875266839913e-01	 4.967641323926177e+01
 1.771601027188778e+00	 7.844335857536594e-01	 4.637193295605707e+01
 1.755516456638565e+00	 8.197976704393758e-01	 4.337891841144899e+01
 1.738665321854372e+00	 8.549556412829922e-01	 4.076609495535556e+01
 1.721050263220789e+00	 8.898832740557597e-01	 3.860221579646038e+01
 1.702674919397040e+00	 9.245563091726281e-01	 3.695577559070762e+01
 1.683543935949303e+00	 9.589505022175293e-01	 3.589471811325210e+01
 1.663662970957163e+00	 9.930416753810126e-01	 3.548613979587211e+01
 1.643038697504234e+00	 1.026805769601136e+00	 3.579599099939074e+01
 1.621678802979408e+00	 1.060218897189382e+00	 3.688877696192527e+01
 1.813087187063613e+00	 7.177846836678874e-01	 3.180554779871198e+01
 1.798445879063653e+00	 7.537190591099358e-01	 2.904568846486046e+01
 1.783030711231393e+00	 7.894944475923085e-01	 2.642359191752624e+01
 1.766842369257893e+00	 8.250866876626581e-01	 2.406164366672513e+01
 1.749882517474867e+00	 8.604714841243986e-01	 2.208386599042594e+01
 1.732153813301645e+00	 8.956244564634370e-01	 2.061543784709202e+01
 1.713659918872676e+00	 9.305211885812739e-01	 1.978219586767132e+01
 1.694405509725534e+00	 9.651372796462546e-01	 1.971011919159216e+01
 1.674396280443541e+00	 9.994483958630631e-01	 2.052480113284714e+01
 1.653638947162468e+00	 1.033430322950004e+00	 2.235091086088431e+01
 1.632141246867263e+00	 1.067059019104442e+00	 2.531164845349446e+01
 1.824709540824834e+00	 7.223858675336682e-01	 9.119585334733017e+00
 1.809974378285636e+00	 7.585505915353004e-01	 7.436746681972707e+00
 1.794460395274358e+00	 7.945553094303062e-01	 5.788204221549009e+00
 1.778168281877518e+00	 8.303757048852366e-01	 4.349799172913237e+00
 1.761099713095627e+00	 8.659873269650693e-01	 3.300327403233254e+00
 1.743257363382755e+00	 9.013656388703668e-01	 2.820859631200847e+00
 1.724644918348573e+00	 9.364860679891791e-01	 3.094031474996129e+00
 1.705267083502052e+00	 9.713240570742675e-01	 4.303307185937044e+00
 1.685129589930255e+00	 1.005855116344450e+00	 6.632221249316771e+00
 1.664239196821106e+00	 1.040054876298278e+00	 1.026360234282811e+01
 1.642603690755613e+00	 1.073899141018997e+00	 1.537878441591103e+01
 1.836331894586565e+00	 7.269870513989594e-01	-1.480985910658336e+01
 1.821502877508037e+00	 7.633821239600846e-01	-1.513181801162298e+01
 1.805890079317670e+00	 7.996161712676525e-01	-1.552116418843761e+01
 1.789494194497439e+00	 8.356647221071117e-01	-1.574910212707799e+01
 1.772316908716650e+00	 8.715031698050042e-01	-1.558257577236496e+01
 1.754360913464116e+00	 9.071068212765480e-01	-1.478514649494423e+01
 1.735629917824729e+00	 9.424509473963442e-01	-1.311791236625608e+01
 1.716128657278858e+00	 9.775108345015684e-01	-1.034046382653915e+01
 1.695862899417306e+00	 1.012261836825173e+00	-6.211870377457984e+00
 1.674839446480150e+00	 1.046679429645957e+00	-4.916925125690881e-01
 1.653066134644457e+00	 1.080739262933047e+00	 7.058987273805869e+00
 1.847954248348806e+00	 7.315882352637606e-01	-3.995930384617726e+01
 1.833031376730859e+00	 7.682136563842887e-01	-3.864187934256542e+01
 1.817319763361331e+00	 8.046770331043469e-01	-3.749177612725700e+01
 1.800820107117657e+00	 8.409537393282837e-01	-3.622773635724188e+01
 1.783534104337938e+00	 8.770190126442036e-01	-3.456294750283674e+01
 1.765464463545728e+00	 9.128480036819814e-01	-3.220611698869246e+01
 1.746614917301145e+00	 9.484158268027688e-01	-2.886259920118246e+01
 1.726990231055951e+00	 9.836976119281569e-01	-2.423556888946496e+01
 1.706596208904692e+00	 1.018668557305231e+00	-1.802723441322775e+01
 1.685439696139599e+00	 1.053303982993040e+00	-9.940083763071129e+00
 1.663528578533797e+00	 1.087579384846591e+00	 3.218441921459316e-01
 1.859576602111558e+00	 7.361894191280726e-01	-6.630585428850510e+01
 1.844559875954101e+00	 7.730451888079128e-01	-6.307576424284697e+01
 1.828749447405340e+00	 8.097378949403902e-01	-6.011121289473512e+01
 1.812146019738172e+00	 8.462427565487523e-01	-5.707896280054743e+01
 1.794751299959490e+00	 8.825348554826673e-01	-5.363893922411225e+01
 1.776568013627593e+00	 9.185891860866668e-01	-4.944549997095706e+01
 1.757599916777820e+00	 9.543807062084535e-01	-4.414876856744067e+01
 1.737851804833333e+00	 9.898843893540332e-01	-3.739602375756235e+01
 1.717329518392415e+00	 1.025075277784627e+00	-2.883313760007499e+01
 1.696039945799453e+00	 1.059928536339529e+00	-1.810605381354756e+01
 1.673991022423631e+00	 1.094419506759630e+00	-4.862297447125684e+00
 1.569366583547552e+00	 1.026018287606500e+00	 1.205885294682979e+02
 1.547992243692877e+00	 1.057991027143265e+00	 1.209446207631960e+02
 1.525923817606285e+00	 1.089578589594028e+00	 1.222532044275887e+02
 1.503171653821628e+00	 1.120758662325927e+00	 1.246470722234953e+02
 1.479747048068645e+00	 1.151509302505199e+00	 1.282550617951987e+02
 1.455662226709656e+00	 1.181808986997448e+00	 1.332014524219553e+02
 1.430930327038606e+00	 1.211636661368759e+00	 1.396053794472505e+02
 1.405565374500522e+00	 1.240971787758436e+00	 1.475802715924970e+02
 1.379582256908508e+00	 1.269794391398509e+00	 1.572333152179640e+02
 1.352996695754110e+00	 1.298085105561391e+00	 1.686649494048331e+02
 1.325825214725000e+00	 1.325825214725000e+00	 1.819683955013901e+02
 1.579829027432933e+00	 1.032858409524087e+00	 1.002928082844236e+02
 1.558312191979597e+00	 1.065044300658442e+00	 1.026993660613312e+02
 1.536096643052833e+00	 1.096842446859411e+00	 1.056653336904224e+02
 1.513192798176722e+00	 1.128230386743245e+00	 1.092882769869814e+02
 1.489612028385866e+00	 1.159186031190622e+00	 1.136633262399235e+02
 1.465366641551668e+00	 1.189687713579582e+00	 1.188827320327590e+02
 1.440469862550032e+00	 1.219714239113318e+00	 1.250354323329392e+02
 1.414935810328952e+00	 1.249244933012061e+00	 1.322066339386262e+02
 1.388779471953618e+00	 1.278259687342719e+00	 1.404774112857528e+02
 1.362016673725522e+00	 1.306739006266193e+00	 1.499243254998769e+02
 1.334664049490250e+00	 1.334664049490250e+00	 1.606190664279071e+02
 1.590291471318810e+00	 1.039698531441169e+00	 8.181003826642490e+01
 1.568632140266901e+00	 1.072097574173214e+00	 8.609100712442347e+01
 1.546269468500037e+00	 1.104106304124489e+00	 9.054458060842779e+01
 1.523213942532522e+00	 1.135702111160359e+00	 9.523345709945900e+01
 1.499477008703824e+00	 1.166862759875942e+00	 1.002194039021893e+02
 1.475071056394428e+00	 1.197566440161714e+00	 1.055629717738965e+02
 1.450009398062197e+00	 1.227791816857975e+00	 1.113232133742484e+02
 1.424306246158092e+00	 1.257518078265884e+00	 1.175574076149891e+02
 1.397976686999389e+00	 1.286724983287230e+00	 1.243207918608581e+02
 1.371036651697523e+00	 1.315392906971395e+00	 1.316663038847320e+02
 1.343502884256000e+00	 1.343502884256000e+00	 1.396443354113538e+02
 1.600753915205181e+00	 1.046538653357745e+00	 6.510469526656468e+01
 1.578952088554790e+00	 1.079150847687581e+00	 7.108747199263890e+01
 1.556442293947896e+00	 1.111370161389263e+00	 7.686220229582175e+01
 1.533235086889028e+00	 1.143173835577269e+00	 8.245706860718775e+01
 1.509341989022520e+00	 1.174539488561158e+00	 8.790081286746945e+01
 1.484775471237937e+00	 1.205445166743843e+00	 9.322260843039521e+01
 1.459548933575101e+00	 1.235869394602729e+00	 9.845192859874471e+01
 1.433676681987940e+00	 1.265791223519906e+00	 1.036184126709019e+02
 1.407173902045819e+00	 1.295190279232040e+00	 1.087517304059549e+02
 1.380056629670115e+00	 1.324046807676997e+00	 1.138814458365107e+02
 1.352341719022250e+00	 1.352341719022250e+00	 1.190368813699782e+02
 1.611216359092047e+00	 1.053378775273816e+00	 5.014217773572654e+01
 1.589272036843264e+00	 1.086204121201542e+00	 5.765752163202599e+01
 1.566615119396410e+00	 1.118634018653731e+00	 6.459020231797126e+01
 1.543256231246241e+00	 1.150645559993975e+00	 7.093423091341342e+01
 1.519206969341953e+00	 1.182216217246272e+00	 7.668565503997912e+01
 1.494479886082193e+00	 1.213323893325969e+00	 8.184258679116164e+01
 1.469088469088744e+00	 1.243946972347583e+00	 8.640522010528812e+01
 1.443047117818499e+00	 1.274064368774127e+00	 9.037583732638306e+01
 1.416371117092909e+00	 1.303655575177150e+00	 9.375880482576409e+01
 1.389076607643296e+00	 1.332700708382998e+00	 9.656055764727446e+01
 1.361180553789000e+00	 1.361180553789000e+00	 9.878957323027515e+01
 1.621678802979408e+00	 1.060218897189382e+00	 3.688877696192527e+01
 1.599591985132323e+00	 1.093257394715098e+00	 4.577072306572838e+01
 1.576787944845580e+00	 1.125897875917895e+00	 5.370130661215104e+01
 1.553277375604159e+00	 1.158117284410476e+00	 6.064070537961788e+01
 1.529071949662122e+00	 1.189892945931280e+00	 6.655259730971360e+01
 1.504184300927196e+00	 1.221202619908093e+00	 7.140434326169373e+01
 1.478628004603125e+00	 1.252024550092534e+00	 7.516715199718547e+01
 1.452417553649766e+00	 1.282337514028546e+00	 7.781622609568146e+01
 1.425568332140659e+00	 1.312120871122559e+00	 7.933088764637546e+01
 1.398096585617068e+00	 1.341354609089400e+00	 7.969468272040665e+01
 1.370019388556250e+00	 1.370019388556250e+00	 7.889546379779567e+01
 1.632141246867263e+00	 1.067059019104442e+00	 2.531164845349446e+01
 1.609911933421967e+00	 1.100310668228250e+00	 3.539742353861688e+01
 1.586960770295406e+00	 1.133161733181755e+00	 4.416894033442594e+01
 1.563298519962784e+00	 1.165589008826773e+00	 5.155287474979777e+01
 1.538936929983029e+00	 1.197569674616187e+00	 5.748085344382646e+01
 1.513888715772949e+00	 1.229081346490214e+00	 6.188979010707320e+01
 1.488167540118244e+00	 1.260102127837583e+00	 6.472219685637818e+01
 1.461787989481743e+00	 1.290610659283165e+00	 6.592646836759499e+01
 1.434765547189069e+00	 1.320586167068268e+00	 6.545713657229925e+01
 1.407116563591429e+00	 1.350008509796201e+00	 6.327509397095861e+01
 1.378858223324000e+00	 1.378858223324000e+00	 5.934778386369312e+01
 1.642603690755613e+00	 1.073899141018997e+00	 1.537878441591103e+01
 1.620231881712195e+00	 1.107363941740996e+00	 2.650872566926229e+01
 1.597133595745887e+00	 1.140425590445309e+00	 3.596720559136983e+01
 1.573319664322116e+00	 1.173060733242866e+00	 4.364772336108052e+01
 1.548801910304673e+00	 1.205246403300989e+00	 4.945016667006176e+01
 1.523593130619449e+00	 1.236960073072333e+00	 5.328130029713828e+01
 1.497707075634103e+00	 1.268179705582731e+00	 5.505522273453815e+01
 1.471158425314429e+00	 1.298883804537982e+00	 5.469378742221055e+01
 1.443962762238138e+00	 1.329051463014275e+00	 5.212698540439155e+01
 1.416136541566381e+00	 1.358662410503402e+00	 4.729328651643713e+01
 1.387697058092250e+00	 1.387697058092250e+00	 4.013993653650048e+01
 1.653066134644457e+00	 1.080739262933047e+00	 7.058987273805869e+00
 1.630551830003009e+00	 1.114417215253336e+00	 1.907646354550593e+01
 1.607306421197023e+00	 1.147689447708559e+00	 2.907086001741722e+01
 1.583340808682154e+00	 1.180532457658756e+00	 3.690281810583733e+01
 1.558666890627054e+00	 1.212923131985688e+00	 4.244079292157986e+01
 1.533297545466696e+00	 1.244838799654449e+00	 4.556169292716097e+01
 1.507246611150701e+00	 1.276257283327976e+00	 4.615148063817806e+01
 1.480528861147824e+00	 1.307156949792999e+00	 4.410572986473431e+01
 1.453159977287867e+00	 1.337516758960583e+00	 3.933013530266696e+01
 1.425156519541922e+00	 1.367316311211003e+00	 3.174097064515744e+01
 1.396535892861000e+00	 1.396535892861000e+00	 2.126549178915431e+01
 1.663528578533797e+00	 1.087579384846591e+00	 3.218441921459316e-01
 1.640871778294408e+00	 1.121470488765272e+00	 1.307317972208682e+01
 1.617479246648815e+00	 1.154953304971504e+00	 2.345529616061697e+01
 1.593361953042898e+00	 1.188004182074440e+00	 3.129629011220767e+01
 1.568531870950172e+00	 1.220599860670283e+00	 3.643348471404900e+01
 1.543001960314693e+00	 1.252717526236562e+00	 3.871421918868336e+01
 1.516786146668037e+00	 1.284334861073320e+00	 3.799659248602315e+01
 1.489899296981929e+00	 1.315430095048214e+00	 3.415015545804378e+01
 1.462357192338255e+00	 1.345982054907189e+00	 2.705654637882515e+01
 1.434176497518053e+00	 1.375970211919004e+00	 1.661006504994073e+01
 1.405374727630250e+00	 1.405374727630250e+00	 2.718181211795709e+00
 1.673991022423631e+00	 1.094419506759630e+00	-4.862297447125684e+00
 1.651191726586392e+00	 1.128523762276803e+00	 8.472103080857352e+00
 1.627652072101263e+00	 1.162217162234144e+00	 1.909652164142383e+01
 1.603383097404348e+00	 1.195475906489921e+00	 2.680681711160634e+01
 1.578396851274028e+00	 1.228276589354776e+00	 3.140947562735349e+01
 1.552706375163437e+00	 1.260596252818672e+00	 3.272254886645536e+01
 1.526325682186112e+00	 1.292412438818762e+00	 3.057653951798009e+01
 1.499269732816743e+00	 1.323703240303628e+00	 2.481522733652029e+01
 1.471554407389304e+00	 1.354447350854096e+00	 1.529642960405148e+01
 1.443196475494775e+00	 1.384624112627405e+00	 1.892690315548890e+00
 1.414213562400000e+00	 1.414213562400000e+00	-1.550810703865970e+01
 1.325825214725000e+00	 1.325825214725000e+00	 1.819683955013901e+02
 1.298085105561391e+00	 1.352996695754110e+00	 1.912303079822371e+02
 1.269794391398509e+00	 1.379582256908508e+00	 1.968558085518065e+02
 1.240971787758436e+00	 1.405565374500522e+00	 1.989541132356364e+02
 1.211636661368759e+00	 1.430930327038606e+00	 1.976479780590027e+02
 1.181808986997448e+00	 1.455662226709656e+00	 1.930731218602528e+02
 1.151509302505200e+00	 1.479747048068645e+00	 1.853775823795609e+02
 1.120758662325928e+00	 1.503171653821628e+00	 1.747210103682427e+02
 1.089578589594029e+00	 1.525923817606285e+00	 1.612739069445359e+02
 1.057991027143266e+00	 1.547992243692877e+00	 1.452168098445715e+02
 1.026018287606500e+00	 1.569366583547552e+00	 1.267394345775057e+02
 1.334664049490250e+00	 1.334664049490250e+00	 1.606190664279071e+02
 1.306739006266193e+00	 1.362016673725522e+00	 1.676638962270868e+02
 1.278259687342720e+00	 1.388779471953618e+00	 1.723791158303516e+02
 1.249244933012061e+00	 1.414935810328952e+00	 1.748607664088991e+02
 1.219714239113318e+00	 1.440469862550032e+00	 1.752136025685159e+02
 1.189687713579582e+00	 1.465366641551668e+00	 1.735506085752342e+02
 1.159186031190623e+00	 1.489612028385866e+00	 1.699924725624087e+02
 1.128230386743246e+00	 1.513192798176721e+00	 1.646670225223884e+02
 1.096842446859412e+00	 1.536096643052833e+00	 1.577086281761926e+02
 1.065044300658443e+00	 1.558312191979596e+00	 1.492575730602113e+02
 1.032858409524087e+00	 1.579829027432933e+00	 1.394594013674369e+02
 1.343502884256000e+00	 1.343502884256000e+00	 1.396443354113538e+02
 1.315392906971395e+00	 1.371036651697524e+00	 1.444213355309970e+02
 1.286724983287230e+00	 1.397976686999389e+00	 1.481587519995664e+02
 1.257518078265884e+00	 1.424306246158092e+00	 1.509395975408613e+02
 1.227791816857975e+00	 1.450009398062197e+00	 1.528508141592169e+02
 1.197566440161714e+00	 1.475071056394428e+00	 1.539828819723276e+02
 1.166862759875943e+00	 1.499477008703824e+00	 1.544294105351760e+02
 1.135702111160360e+00	 1.523213942532522e+00	 1.542867155237186e+02
 1.104106304124490e+00	 1.546269468500036e+00	 1.536533837481066e+02
 1.072097574173215e+00	 1.568632140266900e+00	 1.526298295350101e+02
 1.039698531441169e+00	 1.590291471318810e+00	 1.513178455565253e+02
 1.352341719022250e+00	 1.352341719022250e+00	 1.190368813699782e+02
 1.324046807676997e+00	 1.380056629670115e+00	 1.214962997473908e+02
 1.295190279232041e+00	 1.407173902045819e+00	 1.241897147595286e+02
 1.265791223519906e+00	 1.433676681987940e+00	 1.271872542206680e+02
 1.235869394602730e+00	 1.459548933575101e+00	 1.305582326510323e+02
 1.205445166743843e+00	 1.484775471237936e+00	 1.343708519274236e+02
 1.174539488561159e+00	 1.509341989022520e+00	 1.386919087421592e+02
 1.143173835577269e+00	 1.533235086889027e+00	 1.435865108117556e+02
 1.111370161389264e+00	 1.556442293947895e+00	 1.491178036902142e+02
 1.079150847687582e+00	 1.578952088554790e+00	 1.553467099370511e+02
 1.046538653357745e+00	 1.600753915205181e+00	 1.623316822687486e+02
 1.361180553789000e+00	 1.361180553789000e+00	 9.878957323027515e+01
 1.332700708382998e+00	 1.389076607643297e+00	 9.888262689272770e+01
 1.303655575177150e+00	 1.416371117092909e+00	 1.004671315852996e+02
 1.274064368774127e+00	 1.443047117818499e+00	 1.036004709560630e+02
 1.243946972347583e+00	 1.469088469088743e+00	 1.083345135539073e+02
 1.213323893325970e+00	 1.494479886082192e+00	 1.147154045229649e+02
 1.182216217246271e+00	 1.519206969341952e+00	 1.227833882338474e+02
 1.150645559993975e+00	 1.543256231246240e+00	 1.325726628730327e+02
 1.118634018653732e+00	 1.566615119396410e+00	 1.441112677389024e+02
 1.086204121201543e+00	 1.589272036843264e+00	 1.574210037149634e+02
 1.053378775273816e+00	 1.611216359092047e+00	 1.725173871111541e+02
 1.370019388556250e+00	 1.370019388556250e+00	 7.889546379779567e+01
 1.341354609089400e+00	 1.398096585617068e+00	 7.657431385106540e+01
 1.312120871122559e+00	 1.425568332140659e+00	 7.698625554080226e+01
 1.282337514028547e+00	 1.452417553649766e+00	 8.017606636976799e+01
 1.252024550092534e+00	 1.478628004603124e+00	 8.617834691674427e+01
 1.221202619908093e+00	 1.504184300927196e+00	 9.501740281573382e+01
 1.189892945931281e+00	 1.529071949662122e+00	 1.067071816153935e+02
 1.158117284410477e+00	 1.553277375604159e+00	 1.212512646269806e+02
 1.125897875917896e+00	 1.576787944845579e+00	 1.386429134113197e+02
 1.093257394715099e+00	 1.599591985132322e+00	 1.588651701053520e+02
 1.060218897189382e+00	 1.621678802979408e+00	 1.818910103521896e+02
 1.378858223324000e+00	 1.378858223324000e+00	 5.934778386369312e+01
 1.350008509796201e+00	 1.407116563591429e+00	 5.456551128228567e+01
 1.320586167068267e+00	 1.434765547189069e+00	 5.374246125370920e+01
 1.290610659283165e+00	 1.461787989481743e+00	 5.691094050368660e+01
 1.260102127837583e+00	 1.488167540118244e+00	 6.408845622061639e+01
 1.229081346490215e+00	 1.513888715772948e+00	 7.527768757511024e+01
 1.197569674616187e+00	 1.538936929983029e+00	 9.046653588167864e+01
 1.165589008826774e+00	 1.563298519962784e+00	 1.096282526046658e+02
 1.133161733181756e+00	 1.586960770295405e+00	 1.327216437691472e+02
 1.100310668228251e+00	 1.609911933421966e+00	 1.596913487168644e+02
 1.067059019104442e+00	 1.632141246867263e+00	 1.904681905547190e+02
 1.387697058092250e+00	 1.387697058092250e+00	 4.013993653650048e+01
 1.358662410503402e+00	 1.416136541566380e+00	 3.285051872491468e+01
 1.329051463014275e+00	 1.443962762238138e+00	 3.073124104415431e+01
 1.298883804537982e+00	 1.471158425314429e+00	 3.380207222613672e+01
 1.268179705582731e+00	 1.497707075634103e+00	 4.206359731427177e+01
 1.236960073072333e+00	 1.523593130619448e+00	 5.549707799311246e+01
 1.205246403300989e+00	 1.548801910304673e+00	 7.406461514403655e+01
 1.173060733242868e+00	 1.573319664322116e+00	 9.770941192961195e+01
 1.140425590445310e+00	 1.597133595745886e+00	 1.263561348856480e+02
 1.107363941740996e+00	 1.620231881712195e+00	 1.599113697097705e+02
 1.073899141018997e+00	 1.642603690755613e+00	 1.982641676880274e+02
 1.396535892861000e+00	 1.396535892861000e+00	 2.126549178915431e+01
 1.367316311211003e+00	 1.425156519541922e+00	 1.142377988491362e+01
 1.337516758960583e+00	 1.453159977287867e+00	 7.948201200456666e+00
 1.307156949792999e+00	 1.480528861147824e+00	 1.084651673754204e+01
 1.276257283327977e+00	 1.507246611150701e+00	 2.010255739006870e+01
 1.244838799654449e+00	 1.533297545466696e+00	 3.567637236748195e+01
 1.212923131985688e+00	 1.558666890627054e+00	 5.750450325342489e+01
 1.180532457658757e+00	 1.583340808682153e+00	 8.550038110948073e+01
 1.147689447708560e+00	 1.607306421197023e+00	 1.195548430291772e+02
 1.114417215253337e+00	 1.630551830003009e+00	 1.595367635889705e+02
 1.080739262933047e+00	 1.653066134644457e+00	 2.052937957419027e+02
 1.405374727630250e+00	 1.405374727630250e+00	 2.718181211795709e+00
 1.375970211919004e+00	 1.434176497518053e+00	-9.720121897751461e+00
 1.345982054907189e+00	 1.462357192338255e+00	-1.461094160461489e+01
 1.315430095048214e+00	 1.489899296981929e+00	-1.195859682975111e+01
 1.284334861073321e+00	 1.516786146668037e+00	-1.795846001448140e+00
 1.252717526236562e+00	 1.543001960314692e+00	 1.581634875898303e+01
 1.220599860670284e+00	 1.568531870950172e+00	 4.078920632461379e+01
 1.188004182074441e+00	 1.593361953042897e+00	 7.300665664693108e+01
 1.154953304971505e+00	 1.617479246648815e+00	 1.123260115755976e+02
 1.121470488765273e+00	 1.640871778294407e+00	 1.585787706274651e+02
 1.087579384846591e+00	 1.663528578533797e+00	 2.115715548647095e+02
 1.414213562400000e+00	 1.414213562400000e+00	-1.550810703865970e+01
 1.384624112627405e+00	 1.443196475494774e+00	-3.058646801253313e+01
 1.354447350854096e+00	 1.471554407389304e+00	-3.695036376318846e+01
 1.323703240303628e+00	 1.499269732816743e+00	-3.461606772165014e+01
 1.292412438818763e+00	 1.526325682186112e+00	-2.363276590001762e+01
 1.260596252818672e+00	 1.552706375163436e+00	-4.082234375939493e+00
 1.228276589354776e+00	 1.578396851274027e+00	 2.392165516571552e+01
 1.195475906489922e+00	 1.603383097404348e+00	 6.023359747757271e+01
 1.162217162234145e+00	 1.627652072101262e+00	 1.046776776614942e+02
 1.128523762276804e+00	 1.651191726586391e+00	 1.570483499364367e+02
 1.094419506759630e+00	 1.673991022423631e+00	 2.171115630462984e+02
 1.026018287606500e+00	 1.569366583547552e+00	 1.267394345775057e+02
 9.936830028478698e-01	 1.590037449219140e+00	 1.128315970255041e+02
 9.610080729608007e-01	 1.609996423530313e+00	 1.051038312786961e+02
 9.280166150632180e-01	 1.629236067072467e+00	 1.027917463607239e+02
 8.947319121182953e-01	 1.647749922022751e+00	 1.051208215797093e+02
 8.611773620061525e-01	 1.665532512820283e+00	 1.113098354762990e+02
 8.273764270649263e-01	 1.682579343755863e+00	 1.205742618338524e+02
 7.933525843124147e-01	 1.698886893546373e+00	 1.321296112512257e+02
 7.591292765506416e-01	 1.714452606980927e+00	 1.451946977937794e+02
 7.247298645455660e-01	 1.729274883740578e+00	 1.589948114255063e+02
 6.901775804629183e-01	 1.743353064507004e+00	 1.727647782643531e+02
 1.032858409524087e+00	 1.579829027432933e+00	 1.394594013674369e+02
 1.000307556199713e+00	 1.600637698875349e+00	 1.291658012022066e+02
 9.674147934461709e-01	 1.620729733015011e+00	 1.224128954643558e+02
 9.342033924955050e-01	 1.640097640847259e+00	 1.185982074155198e+02
 9.006967915306425e-01	 1.658734921497089e+00	 1.171160387859307e+02
 8.669185444175702e-01	 1.676636062899880e+00	 1.173600743192795e+02
 8.328922699100108e-01	 1.693796539375036e+00	 1.187259382571740e+02
 7.986416015392142e-01	 1.710212806164218e+00	 1.206136871065554e+02
 7.641901383925483e-01	 1.725882291021801e+00	 1.224302239673262e+02
 7.295613969744115e-01	 1.740803382960041e+00	 1.235916207487431e+02
 6.947787643316375e-01	 1.754975418265163e+00	 1.235253357554992e+02
 1.039698531441169e+00	 1.590291471318810e+00	 1.513178455565253e+02
 1.006932109550961e+00	 1.611237948531963e+00	 1.453855542445988e+02
 9.738215139308771e-01	 1.631463042500044e+00	 1.403873171996869e+02
 9.403901699270795e-01	 1.650959214622338e+00	 1.358808696589236e+02
 9.066616709422495e-01	 1.669719920971687e+00	 1.314275755486101e+02
 8.726597268282396e-01	 1.687739612979729e+00	 1.265942146383925e+02
 8.384081127543602e-01	 1.705013734994474e+00	 1.209547066202000e+02
 8.039306187653098e-01	 1.721538718782360e+00	 1.140917622524102e+02
 7.692510002338034e-01	 1.737311975063022e+00	 1.055984525629035e+02
 7.343929294026771e-01	 1.752331882179924e+00	 9.507968802125285e+01
 6.993799481998668e-01	 1.766597772023833e+00	 8.215360055726480e+01
 1.046538653357745e+00	 1.600753915205181e+00	 1.623316822687486e+02
 1.013556662901614e+00	 1.621838198188981e+00	 1.614931226478145e+02
 9.802282344149195e-01	 1.642196351985414e+00	 1.590140724457166e+02
 9.465769473579416e-01	 1.661820788397706e+00	 1.546108099913387e+02
 9.126265503531162e-01	 1.680704920446545e+00	 1.480100356962093e+02
 8.784009092381612e-01	 1.698843163059831e+00	 1.389498486929831e+02
 8.439239555979734e-01	 1.716230930614175e+00	 1.271806454894810e+02
 8.092196359907021e-01	 1.732864631400798e+00	 1.124659365308673e+02
 7.743118620744075e-01	 1.748741659104592e+00	 9.458307733579970e+01
 7.392244618303623e-01	 1.763860381400226e+00	 7.332391165532172e+01
 7.039811320676067e-01	 1.778220125783012e+00	 4.849532488631006e+01
 1.053378775273816e+00	 1.611216359092047e+00	 1.725173871111541e+02
 1.020181216251672e+00	 1.632438447846405e+00	 1.774907138743071e+02
 9.866349548982980e-01	 1.652929661471120e+00	 1.782804752882160e+02
 9.527637247880920e-01	 1.672682362173361e+00	 1.747598564015276e+02
 9.185914297632424e-01	 1.691689919921662e+00	 1.668192020188470e+02
 8.841420916473348e-01	 1.709946713140184e+00	 1.543661895645961e+02
 8.494397984408509e-01	 1.727448126234142e+00	 1.373259091567777e+02
 8.145086532153912e-01	 1.744190544019534e+00	 1.156408524912595e+02
 7.793727239143596e-01	 1.760171343146511e+00	 8.927081283120513e+01
 7.440559942574673e-01	 1.775388880620949e+00	 5.819269904661070e+01
 7.085823159348565e-01	 1.789842479542702e+00	 2.240026724947347e+01
 1.060218897189382e+00	 1.621678802979408e+00	 1.818910103521896e+02
 1.026805769601136e+00	 1.643038697504233e+00	 1.933804782585150e+02
 9.930416753810124e-01	 1.663662970957163e+00	 1.981741670308531e+02
 9.589505022175296e-01	 1.683543935949304e+00	 1.963005637383660e+02
 9.245563091726284e-01	 1.702674919397039e+00	 1.878119982377043e+02
 8.898832740557604e-01	 1.721050263220789e+00	 1.727840188728255e+02
 8.549556412829928e-01	 1.738665321854372e+00	 1.513146606806219e+02
 8.197976704393767e-01	 1.755516456638565e+00	 1.235236133677980e+02
 7.844335857536603e-01	 1.771601027188778e+00	 8.955129693981792e+01
 7.488875266839924e-01	 1.786917379842091e+00	 4.955785338158708e+01
 7.131834998016169e-01	 1.801464833302902e+00	 3.722063209048343e+00
 1.067059019104442e+00	 1.632141246867263e+00	 1.904681905547190e+02
 1.033430322950004e+00	 1.653638947162467e+00	 2.091645108382695e+02
 9.994483958630631e-01	 1.674396280443540e+00	 2.186831057078317e+02
 9.651372796462548e-01	 1.694405509725534e+00	 2.192061904144585e+02
 9.305211885812740e-01	 1.713659918872676e+00	 2.109464524371471e+02
 8.956244564634376e-01	 1.732153813301645e+00	 1.941456365020847e+02
 8.604714841243993e-01	 1.749882517474867e+00	 1.690730075032037e+02
 8.250866876626589e-01	 1.766842369257893e+00	 1.360237042119155e+02
 7.894944475923095e-01	 1.783030711231393e+00	 9.531699720131797e+01
 7.537190591099371e-01	 1.798445879063653e+00	 4.729446479852375e+01
 7.177846836678873e-01	 1.813087187063613e+00	-7.681898881379055e+00
 1.073899141018997e+00	 1.642603690755613e+00	 1.982641676880274e+02
 1.040054876298278e+00	 1.664239196821106e+00	 2.248448531162150e+02
 1.005855116344450e+00	 1.685129589930255e+00	 2.397955559973305e+02
 9.713240570742678e-01	 1.705267083502052e+00	 2.434506760000504e+02
 9.364860679891795e-01	 1.724644918348573e+00	 2.361816618943331e+02
 9.013656388703671e-01	 1.743257363382755e+00	 2.183948122496531e+02
 8.659873269650699e-01	 1.761099713095627e+00	 1.905289395277538e+02
 8.303757048852374e-01	 1.778168281877517e+00	 1.530529160386417e+02
 7.945553094303071e-01	 1.794460395274357e+00	 1.064631206885938e+02
 7.585505915353016e-01	 1.809974378285635e+00	 5.128080570793814e+01
 7.223858675336681e-01	 1.824709540824833e+00	-1.195059739213696e+01
 1.080739262933047e+00	 1.653066134644457e+00	 2.052937957419027e+02
 1.046679429645956e+00	 1.674839446480151e+00	 2.404234947543318e+02
 1.012261836825172e+00	 1.695862899417306e+00	 2.615000795179654e+02
 9.775108345015685e-01	 1.716128657278857e+00	 2.690086196678208e+02
 9.424509473963443e-01	 1.735629917824729e+00	 2.634777592444208e+02
 9.071068212765485e-01	 1.754360913464115e+00	 2.454767393098629e+02
 8.715031698050051e-01	 1.772316908716650e+00	 2.156122695474253e+02
 8.356647221071125e-01	 1.789494194497438e+00	 1.745252728535147e+02
 7.996161712676533e-01	 1.805890079317670e+00	 1.228875273140922e+02
 7.633821239600858e-01	 1.821502877508038e+00	 6.139823008820956e+01
 7.269870513989594e-01	 1.836331894586565e+00	-9.219492394128082e+00
 1.087579384846591e+00	 1.663528578533797e+00	 2.115715548647095e+02
 1.053303982993040e+00	 1.685439696139599e+00	 2.559023752045300e+02
 1.018668557305232e+00	 1.706596208904692e+00	 2.837855254914402e+02
 9.836976119281569e-01	 1.726990231055951e+00	 2.958552594510542e+02
 9.484158268027693e-01	 1.746614917301144e+00	 2.927958799225416e+02
 9.128480036819818e-01	 1.765464463545728e+00	 2.753379895136109e+02
 8.770190126442042e-01	 1.783534104337938e+00	 2.442545759221324e+02
 8.409537393282845e-01	 1.800820107117657e+00	 2.003569614331744e+02
 8.046770331043480e-01	 1.817319763361330e+00	 1.444906464076155e+02
 7.682136563842901e-01	 1.833031376730859e+00	 7.753107658136349e+01
 7.315882352637607e-01	 1.847954248348806e+00	 3.793637032521815e-01
 1.094419506759630e+00	 1.673991022423631e+00	 2.171115630462984e+02
 1.059928536339529e+00	 1.696039945799453e+00	 2.712833852780731e+02
 1.025075277784627e+00	 1.717329518392415e+00	 3.066410217553222e+02
 9.898843893540332e-01	 1.737851804833332e+00	 3.239664522796564e+02
 9.543807062084537e-01	 1.757599916777820e+00	 3.240981308267186e+02
 9.185891860866674e-01	 1.776568013627593e+00	 3.079264702463839e+02
 8.825348554826680e-01	 1.794751299959490e+00	 2.763891474050114e+02
 8.462427565487531e-01	 1.812146019738171e+00	 2.304662637391931e+02
 8.097378949403913e-01	 1.828749447405340e+00	 1.711753964224646e+02
 7.730451888079141e-01	 1.844559875954101e+00	 9.956657522275934e+01
 7.361894191280726e-01	 1.859576602111558e+00	 1.671721966311962e+01
 6.901775804629183e-01	 1.743353064507004e+00	 1.727647782643531e+02
 6.554954827290597e-01	 1.756687414487810e+00	 1.950257536701235e+02
 6.207064124720911e-01	 1.769279104497503e+00	 2.063193491291878e+02
 5.858329516852290e-01	 1.781130189742346e+00	 2.081887085889198e+02
 5.508973832404049e-01	 1.792243586465333e+00	 2.021680095337506e+02
 5.159216528644688e-01	 1.802623046614941e+00	 1.897766101294390e+02
 4.809273331759799e-01	 1.812273130706186e+00	 1.725134719238135e+02
 4.459355898653843e-01	 1.821199179046478e+00	 1.518518821154115e+02
 4.109671500863636e-01	 1.829407281501319e+00	 1.292344960274159e+02
 3.760422731112888e-01	 1.836904245976013e+00	 1.060687170224583e+02
 3.411807232891650e-01	 1.843697565789419e+00	 8.372242770436984e+01
 6.947787643316375e-01	 1.754975418265163e+00	 1.235253357554992e+02
 6.598654526133345e-01	 1.768398663912796e+00	 1.438413975334764e+02
 6.248444552216971e-01	 1.781074298522854e+00	 1.563842147193124e+02
 5.897385046965644e-01	 1.793004391002975e+00	 1.623258974163581e+02
 5.545700324623483e-01	 1.804191877037771e+00	 1.628298412458805e+02
 5.193611305507445e-01	 1.814640533588709e+00	 1.590463394554950e+02
 4.841335153977708e-01	 1.824354951574237e+00	 1.521084116028115e+02
 4.489084937984773e-01	 1.833340506903816e+00	 1.431278663757062e+02
 4.137069310875708e-01	 1.841603330042052e+00	 1.331916135259567e+02
 3.785492215992395e-01	 1.849150274280280e+00	 1.233582372948893e+02
 3.434552614448158e-01	 1.855988882892821e+00	 1.146548411282817e+02
 6.993799481998668e-01	 1.766597772023833e+00	 8.215360055726480e+01
 6.642354224972193e-01	 1.780109913338382e+00	 9.864428356241456e+01
 6.289824979710141e-01	 1.792869492548873e+00	 1.105265843154408e+02
 5.936440577077111e-01	 1.804878592264319e+00	 1.186053402902001e+02
 5.582426816842031e-01	 1.816140167610950e+00	 1.236769099846228e+02
 5.228006082370326e-01	 1.826658020563224e+00	 1.265262379526231e+02
 4.873396976196750e-01	 1.836436772443023e+00	 1.279240779387507e+02
 4.518813977317842e-01	 1.845481834761856e+00	 1.286243852753250e+02
 4.164467120890923e-01	 1.853799378583433e+00	 1.293618879003764e+02
 3.810561700876046e-01	 1.861396302585124e+00	 1.308498435541062e+02
 3.457297996009814e-01	 1.868280199996709e+00	 1.337779889320225e+02
 7.039811320676067e-01	 1.778220125783012e+00	 4.849532488631006e+01
 6.686053923807149e-01	 1.791821162764569e+00	 5.931703571665614e+01
 6.331205407200413e-01	 1.804664686575561e+00	 6.866652760879052e+01
 5.975496107186692e-01	 1.816752793526378e+00	 7.698505287246398e+01
 5.619153309059700e-01	 1.828088458184871e+00	 8.470560419589104e+01
 5.262400859233336e-01	 1.838675507538488e+00	 9.225142079657600e+01
 4.905458798416924e-01	 1.848518593312543e+00	 1.000345947011819e+02
 4.548543016653047e-01	 1.857623162620597e+00	 1.084547819599471e+02
 4.191864930909281e-01	 1.865995427125461e+00	 1.178980225769870e+02
 3.835631185763844e-01	 1.873642330890543e+00	 1.287356719285251e+02
 3.480043377576615e-01	 1.880571517101082e+00	 1.413234454572836e+02
 7.085823159348565e-01	 1.789842479542702e+00	 2.240026724947347e+01
 6.729753622638208e-01	 1.803532412191355e+00	 2.574532654174212e+01
 6.372585834687796e-01	 1.816459880602917e+00	 3.072619026350098e+01
 6.014551637294383e-01	 1.828626994789152e+00	 3.742414119219033e+01
 5.655879801276489e-01	 1.840036748759533e+00	 4.591240600090057e+01
 5.296795636096469e-01	 1.850692994514499e+00	 5.625609095351179e+01
 4.937520620638231e-01	 1.860600414182798e+00	 6.851216024423391e+01
 4.578272055990393e-01	 1.869764490480038e+00	 8.272945547934096e+01
 4.219262740930783e-01	 1.878191475668138e+00	 9.894875454604208e+01
 3.860700670655788e-01	 1.885888359196539e+00	 1.172028678894670e+02
 3.502788759148565e-01	 1.892862834205940e+00	 1.375167700246576e+02
 7.131834998016169e-01	 1.801464833302902e+00	 3.722063209048343e+00
 6.773453321465368e-01	 1.815243661618740e+00	-2.182221172004759e+00
 6.413966262172285e-01	 1.828255074630939e+00	-3.370273049806087e+00
 6.053607167400187e-01	 1.840501196052642e+00	-1.172335272603107e-01
 5.692606293492394e-01	 1.851985039334938e+00	 7.293888174804209e+00
 5.331190412959727e-01	 1.862710481491259e+00	 1.857356860651393e+01
 4.969582442860671e-01	 1.872682235053787e+00	 3.342710961717844e+01
 4.608001095329875e-01	 1.881905818340180e+00	 5.155595575857576e+01
 4.246660550955427e-01	 1.890387524211462e+00	 7.265898231164506e+01
 3.885770155551879e-01	 1.898134387503110e+00	 9.643374724043554e+01
 3.525534140725660e-01	 1.905154151311284e+00	 1.225777009668941e+02
 7.177846836678873e-01	 1.813087187063613e+00	-7.681898881379055e+00
 6.817153020288633e-01	 1.826954911046724e+00	-2.457412894817396e+01
 6.455346689653881e-01	 1.840050268659631e+00	-3.369676304483094e+01
 6.092662697504103e-01	 1.852375397316846e+00	-3.567788868811832e+01
 5.729332785707419e-01	 1.863933329911085e+00	-3.115328875847261e+01
 5.365585189823112e-01	 1.874727968468767e+00	-2.076368054967960e+01
 5.001644265084243e-01	 1.884764055925510e+00	-5.152025713872765e+00
 4.637730134671497e-01	 1.894047146201024e+00	 1.503907491649275e+01
 4.274058360983216e-01	 1.902583572755435e+00	 3.916988892050502e+01
 3.910839640452114e-01	 1.910380415810258e+00	 6.660595091449582e+01
 3.548279522307902e-01	 1.917445468417113e+00	 9.672034219933755e+01
 7.223858675336681e-01	 1.824709540824833e+00	-1.195059739213696e+01
 6.860852719108003e-01	 1.838666160475309e+00	-4.153615356924932e+01
 6.496727117132584e-01	 1.851845462688989e+00	-6.032529774960416e+01
 6.131718227606133e-01	 1.864249598581766e+00	-6.929565284563179e+01
 5.766059277921564e-01	 1.875881620487973e+00	-6.943237932036956e+01
 5.399979966686622e-01	 1.886745455447023e+00	-6.172401809527382e+01
 5.033706087308947e-01	 1.896845876797968e+00	-4.715846042663041e+01
 4.667459174015257e-01	 1.906188474062568e+00	-2.671906490570343e+01
 4.301456171014146e-01	 1.914779621300055e+00	-1.380939711041840e+00
 3.935909125356498e-01	 1.922626444117981e+00	 2.789259385583364e+01
 3.571024903895291e-01	 1.929736785523427e+00	 6.015334266028164e+01
 7.269870513989594e-01	 1.836331894586565e+00	-9.219492394128082e+00
 6.904552417923476e-01	 1.850377409904493e+00	-5.317137456798790e+01
 6.538107544608396e-01	 1.863640656719015e+00	-8.332607208472476e+01
 6.170773757706274e-01	 1.876123799847400e+00	-1.010073970002794e+02
 5.802785770134827e-01	 1.887829911065603e+00	-1.075465557657230e+02
 5.434374743550259e-01	 1.898762942426027e+00	-1.042766067054366e+02
 5.065767909534783e-01	 1.908927697671160e+00	-9.252710008453238e+01
 4.697188213361155e-01	 1.918329801924813e+00	-7.361892705111649e+01
 4.328853981048221e-01	 1.926975669845323e+00	-4.885940096344671e+01
 3.960978610265026e-01	 1.934872472426280e+00	-1.953759175242258e+01
 3.593770285487826e-01	 1.942028102630226e+00	 1.308006893713828e+01
 7.315882352637607e-01	 1.847954248348806e+00	 3.793637032521815e-01
 6.948252116735053e-01	 1.862088659334276e+00	-5.958027841724058e+01
 6.579487972081315e-01	 1.875435850749710e+00	-1.027675151933638e+02
 6.209829287804527e-01	 1.887998001113750e+00	-1.308490647091429e+02
 5.839512262347207e-01	 1.899778201643975e+00	-1.454989106693652e+02
 5.468769520414020e-01	 1.910780429405780e+00	-1.483913849582402e+02
 5.097829731761752e-01	 1.921009518545087e+00	-1.411944879638544e+02
 4.726917252709194e-01	 1.930471129787759e+00	-1.255634790422509e+02
 4.356251791085438e-01	 1.939171718391240e+00	-1.031347659759639e+02
 3.986048095177700e-01	 1.947118500735156e+00	-7.552011866519618e+01
 3.616515667085508e-01	 1.954319419737511e+00	-4.430122862159791e+01
 7.361894191280726e-01	 1.859576602111558e+00	 1.671721966311962e+01
 6.991951815542736e-01	 1.873799908764660e+00	-6.086083956264959e+01
 6.620868399551343e-01	 1.887231044781072e+00	-1.187163456213921e+02
 6.248884817900895e-01	 1.899872202380815e+00	-1.588557010681068e+02
 5.876238754558710e-01	 1.911726492223089e+00	-1.832924594157285e+02
 5.503164297277909e-01	 1.922797916386281e+00	-1.940390430873122e+02
 5.129891553989854e-01	 1.933091339419748e+00	-1.930987538748173e+02
 4.756646292059370e-01	 1.942612457651407e+00	-1.824581143250640e+02
 4.383649601125800e-01	 1.951367766937804e+00	-1.640795742163493e+02
 4.011117580094523e-01	 1.959364529044608e+00	-1.398946119208284e+02
 3.639261048688338e-01	 1.966610736845282e+00	-1.117972560235801e+02
 3.411807232891650e-01	 1.843697565789419e+00	 8.372242770436984e+01
 3.064017453303258e-01	 1.849795386114716e+00	 4.502100519795356e+01
 2.717240419284751e-01	 1.855206469658534e+00	 2.429760523637773e+01
 2.371657537175081e-01	 1.859940161747613e+00	 1.977993418640587e+01
 2.027444415484455e-01	 1.864006354987513e+00	 2.970841403067434e+01
 1.684770710600370e-01	 1.867415453651191e+00	 5.234224517707025e+01
 1.343799995057737e-01	 1.870178337950090e+00	 8.596509944305743e+01
 1.004689647900904e-01	 1.872306328333207e+00	 1.288904292963908e+02
 6.675907665743416e-02	 1.873811149952121e+00	 1.794663830279541e+02
 3.326480996967145e-02	 1.874704897421970e+00	 2.360803189835888e+02
 0.000000000000000e+00	 1.875000000000000e+00	 2.971629152636261e+02
 3.434552614448158e-01	 1.855988882892821e+00	 1.146548411282817e+02
 3.084444236327498e-01	 1.862127355353983e+00	 7.234102840940967e+01
 2.735355355414154e-01	 1.867574512788415e+00	 4.416876413477894e+01
 2.387468587422667e-01	 1.872339762825035e+00	 2.878399154757450e+01
 2.040960711586644e-01	 1.876433064020110e+00	 2.484105163697938e+01
 1.696002515336156e-01	 1.879864890008415e+00	 3.100738557564527e+01
 1.352758661689677e-01	 1.882646193536137e+00	 4.596795679549189e+01
 1.011387578885178e-01	 1.884788370521935e+00	 6.842938151944652e+01
 6.720413716834214e-02	 1.886303224285065e+00	 9.712375933461838e+01
 3.348657536938560e-02	 1.887202930071432e+00	 1.308121980541149e+02
 0.000000000000000e+00	 1.887500000000000e+00	 1.682880296497501e+02
 3.457297996009814e-01	 1.868280199996709e+00	 1.337779889320225e+02
 3.104871019357723e-01	 1.874459324593641e+00	 9.005017422989199e+01
 2.753470291550064e-01	 1.879942555918602e+00	 5.665858038097759e+01
 2.403279637676975e-01	 1.884739363902691e+00	 3.266321629481256e+01
 2.054477007695459e-01	 1.888859773052877e+00	 1.712822821643166e+01
 1.707234320078177e-01	 1.892314326365756e+00	 9.125252603886139e+00
 1.361717328327167e-01	 1.895114049122259e+00	 7.736577358694678e+00
 1.018085509874029e-01	 1.897270412710705e+00	 1.205810294502518e+01
 6.764919767958245e-02	 1.898795298618027e+00	 2.120209688121331e+01
 3.370834076927928e-02	 1.899700962720899e+00	 3.429973696550677e+01
 0.000000000000000e+00	 1.900000000000000e+00	 5.050344039182502e+01
 3.480043377576615e-01	 1.880571517101082e+00	 1.413234454572836e+02
 3.125297802393933e-01	 1.886791293833689e+00	 9.833691130212324e+01
 2.771585227692485e-01	 1.892310599049096e+00	 6.191180620911413e+01
 2.419090687938004e-01	 1.897138964980581e+00	 3.151811533207566e+01
 2.067993303810904e-01	 1.901286482085814e+00	 6.625757082500165e+00
 1.718466124826434e-01	 1.904763762723215e+00	-1.329340295291739e+01
 1.370675994970205e-01	 1.907581904708456e+00	-2.876364176131937e+01
 1.024783440867457e-01	 1.909752454899516e+00	-4.030357808291815e+01
 6.809425819115501e-02	 1.911287372951007e+00	-4.842448565014013e+01
 3.393010616935248e-02	 1.912198995370370e+00	-5.362872401565799e+01
 0.000000000000000e+00	 1.912500000000000e+00	-5.640828943996783e+01
 3.502788759148565e-01	 1.892862834205940e+00	 1.375167700246576e+02
 3.145724585436130e-01	 1.899123263074128e+00	 9.738481288175313e+01
 2.789700163841413e-01	 1.904678642179897e+00	 6.006943396301173e+01
 2.434901738205753e-01	 1.909538566058704e+00	 2.544658490810550e+01
 2.081509599932976e-01	 1.913713191118922e+00	-6.611998228210183e+00
 1.729697929580925e-01	 1.917213199080792e+00	-3.623810962508218e+01
 1.379634661618794e-01	 1.920049760294728e+00	-6.356640475041530e+01
 1.031481371865461e-01	 1.922234497088370e+00	-8.873375090192067e+01
 6.853931870305990e-02	 1.923779447284006e+00	-1.118785999886070e+02
 3.415187156960520e-02	 1.924697028019846e+00	-1.331403859779919e+02
 0.000000000000000e+00	 1.925000000000000e+00	-1.526589491061398e+02
 3.525534140725660e-01	 1.905154151311284e+00	 1.225777009668941e+02
 3.166151368484313e-01	 1.911455232314958e+00	 8.737271475336328e+01
 2.807815099996850e-01	 1.917046685311005e+00	 5.126881738321913e+01
 2.450712788480224e-01	 1.921938167137059e+00	 1.454399483134750e+01
 2.095025896061675e-01	 1.926139900152201e+00	-2.253207718875957e+01
 1.740929734341652e-01	 1.929662635438486e+00	-5.969866624817831e+01
 1.388593328272932e-01	 1.932517615881074e+00	-9.670454607678096e+01
 1.038179302868042e-01	 1.934716539277265e+00	-1.333084897024689e+02
 6.898437921529707e-02	 1.936271521617023e+00	-1.692796937451658e+02
 3.437363697003744e-02	 1.937195060669326e+00	-2.043981351925084e+02
 0.000000000000000e+00	 1.937500000000000e+00	-2.384548623807639e+02
 3.548279522307902e-01	 1.917445468417113e+00	 9.672034219933755e+01
 3.186578151538482e-01	 1.923787201556179e+00	 6.847486707277203e+01
 2.825930036158798e-01	 1.929414728442421e+00	 3.564378822917165e+01
 2.466523838761414e-01	 1.934337768215650e+00	-1.096730554170847e+00
 2.108542192197002e-01	 1.938566609185649e+00	-4.108287731341684e+01
 1.752161539108614e-01	 1.942112071796298e+00	-8.366513329922768e+01
 1.397551994932619e-01	 1.944985471467495e+00	-1.282100583663568e+02
 1.044877233875199e-01	 1.947198581466201e+00	-1.741019181159387e+02
 6.942943972786655e-02	 1.948763595950059e+00	-2.207441518265784e+02
 3.459540237064921e-02	 1.949693093318812e+00	-2.675606814080120e+02
 0.000000000000000e+00	 1.950000000000000e+00	-3.139970627273115e+02
 3.571024903895291e-01	 1.929736785523427e+00	 6.015334266028164e+01
 3.207004934598637e-01	 1.936119170797790e+00	 4.086108040645659e+01
 2.844044972327253e-01	 1.941782771574142e+00	 1.332476844445182e+01
 2.482334889049326e-01	 1.946737369294472e+00	-2.138503448757569e+01
 2.122058488338956e-01	 1.950993318219269e+00	-6.221411090773535e+01
 1.763393343881811e-01	 1.954561508154227e+00	-1.081278245640090e+02
 1.406510661597856e-01	 1.957453327053991e+00	-1.581141192129564e+02
 1.051575164886933e-01	 1.959680623655180e+00	-2.111862713342032e+02
 6.987450024076833e-02	 1.961255670283113e+00	-2.663853939736669e+02
 3.481716777144051e-02	 1.962191125968301e+00	-3.227826908613177e+02
 0.000000000000000e+00	 1.962499999999999e+00	-3.794814617798699e+02
 3.593770285487826e-01	 1.942028102630226e+00	 1.308006893713828e+01
 3.227431717664778e-01	 1.948451140039792e+00	 4.696866225163163e+00
 2.862159908502217e-01	 1.954150814706171e+00	-1.556112193739060e+01
 2.498145939343959e-01	 1.959136970373530e+00	-4.623265286740402e+01
 2.135574784487539e-01	 1.963420027253059e+00	-8.587676346104107e+01
 1.774625148661244e-01	 1.967010944512274e+00	-1.330772991207827e+02
 1.415469328268642e-01	 1.969921182640562e+00	-1.864471169702879e+02
 1.058273095903243e-01	 1.972162665844200e+00	-2.446319558702696e+02
 7.031956075400238e-02	 1.973747744616185e+00	-3.063139685955957e+02
 3.503893317241133e-02	 1.974689158617795e+00	-3.702149142364469e+02
 0.000000000000000e+00	 1.975000000000000e+00	-4.350990114263414e+02
 3.616515667085508e-01	 1.954319419737511e+00	-4.430122862159791e+01
 3.247858500736904e-01	 1.960783109282185e+00	-3.985642790411710e+01
 2.880274844683691e-01	 1.966518857838506e+00	-5.088996095893727e+01
 2.513956989645312e-01	 1.971536571452820e+00	-7.555354215516998e+01
 2.149091080642749e-01	 1.975846736287019e+00	-1.120230536090076e+02
 1.785856953446911e-01	 1.979460380870439e+00	-1.585043536265311e+02
 1.424427994944977e-01	 1.982389038227207e+00	-2.132386755706887e+02
 1.064971026924130e-01	 1.984644708033262e+00	-2.745076070638027e+02
 7.076462126756874e-02	 1.986239818949276e+00	-3.406376430632594e+02
 3.526069857356168e-02	 1.987187191267294e+00	-4.100043097951805e+02
 0.000000000000000e+00	 1.987500000000000e+00	-4.810358597752942e+02
 3.639261048688338e-01	 1.966610736845282e+00	-1.117972560235801e+02
 3.268285283815017e-01	 1.973115078524969e+00	-9.264148819588155e+01
 2.898389780871672e-01	 1.978886900971149e+00	-9.254092479876905e+01
 2.529768039953388e-01	 1.983936172532344e+00	-1.092638099825505e+02
 2.162607376804587e-01	 1.988273445321150e+00	-1.406063945976392e+02
 1.797088758238815e-01	 1.991909817228721e+00	-1.844000148924534e+02
 1.433386661626862e-01	 1.994856893813928e+00	-2.385176784131550e+02
 1.071668957949593e-01	 1.997126750222366e+00	-3.008801444301798e+02
 7.120968178146743e-02	 1.998731893282386e+00	-3.694614906166439e+02
 3.548246397489156e-02	 1.999685223916798e+00	-4.422941618902057e+02
 0.000000000000000e+00	 2.000000000000000e+00	-5.174735012740579e+02
