patch_n	x	y	stress_yy
0	 0.000000000000000e+00	 0.000000000000000e+00	 5.233260948356874e+01
0	 0.000000000000000e+00	 7.142881171115513e-01	 3.254755656058489e+01
0	 0.000000000000000e+00	 1.428580650948409e+00	 1.684926670013691e+01
0	 0.000000000000000e+00	 2.142877018163878e+00	 4.930355547491418e+00
0	 0.000000000000000e+00	 2.857176635411265e+00	-3.516549834268424e+00
0	 0.000000000000000e+00	 3.571478919343873e+00	-8.798810965047284e+00
0	 0.000000000000000e+00	 4.285783286615008e+00	-1.122377794840222e+01
0	 0.000000000000000e+00	 5.000089153877976e+00	-1.109878947206734e+01
0	 0.000000000000000e+00	 5.714395937786080e+00	-8.731172808338620e+00
0	 0.000000000000000e+00	 6.428703054992629e+00	-4.428243814318858e+00
0	 0.000000000000000e+00	 7.143009922150927e+00	 1.502693067977190e+00
0	 7.142881171115513e-01	 0.000000000000000e+00	 3.872857480294989e+01
0	 7.142881171115515e-01	 7.142881171115515e-01	 2.514298548365667e+01
0	 7.142881171115516e-01	 1.428580650948409e+00	 1.418354336413633e+01
0	 7.142881171115512e-01	 2.142877018163878e+00	 5.701129552378287e+00
0	 7.142881171115510e-01	 2.857176635411264e+00	-4.533658378808899e-01
0	 7.142881171115515e-01	 3.571478919343873e+00	-4.429043687778861e+00
0	 7.142881171115515e-01	 4.285783286615009e+00	-6.374995873838714e+00
0	 7.142881171115512e-01	 5.000089153877973e+00	-6.440305268369795e+00
0	 7.142881171115514e-01	 5.714395937786080e+00	-4.774045739758193e+00
0	 7.142881171115514e-01	 6.428703054992629e+00	-1.525282152647049e+00
0	 7.142881171115515e-01	 7.143009922150928e+00	 3.156929631993620e+00
0	 1.428580650948409e+00	 0.000000000000000e+00	 2.366615854961306e+01
0	 1.428580650948409e+00	 7.142881171115514e-01	 1.652160427826662e+01
0	 1.428580650948409e+00	 1.428580650948410e+00	 1.060574790318343e+01
0	 1.428580650948409e+00	 2.142877018163877e+00	 5.900784214410213e+00
0	 1.428580650948409e+00	 2.857176635411265e+00	 2.388914066253112e+00
0	 1.428580650948409e+00	 3.571478919343873e+00	 5.234437687406679e-02
0	 1.428580650948409e+00	 4.285783286615007e+00	-1.126711872038543e+00
0	 1.428580650948410e+00	 5.000089153877976e+00	-1.166035635524973e+00
0	 1.428580650948410e+00	 5.714395937786082e+00	-8.340180553489196e-02
0	 1.428580650948410e+00	 6.428703054992631e+00	 2.103420788966083e+00
0	 1.428580650948409e+00	 7.143009922150926e+00	 5.376669381964205e+00
0	 2.142877018163878e+00	 0.000000000000000e+00	 7.875167557588613e+00
0	 2.142877018163878e+00	 7.142881171115512e-01	 7.160238880715419e+00
0	 2.142877018163878e+00	 1.428580650948410e+00	 6.376244463333375e+00
0	 2.142877018163878e+00	 2.142877018163878e+00	 5.609740622418304e+00
0	 2.142877018163879e+00	 2.857176635411264e+00	 4.947286447286504e+00
0	 2.142877018163879e+00	 3.571478919343874e+00	 4.475443799431373e+00
0	 2.142877018163879e+00	 4.285783286615009e+00	 4.280777312393989e+00
0	 2.142877018163879e+00	 5.000089153877975e+00	 4.449854391667658e+00
0	 2.142877018163880e+00	 5.714395937786082e+00	 5.069245214636399e+00
0	 2.142877018163878e+00	 6.428703054992627e+00	 6.225522730547411e+00
0	 2.142877018163878e+00	 7.143009922150926e+00	 8.005262660517483e+00
0	 2.857176635411265e+00	 0.000000000000000e+00	-7.914591473028350e+00
0	 2.857176635411264e+00	 7.142881171115510e-01	-2.464286901542443e+00
0	 2.857176635411265e+00	 1.428580650948409e+00	 1.755393905847848e+00
0	 2.857176635411264e+00	 2.142877018163879e+00	 4.908416131363771e+00
0	 2.857176635411264e+00	 2.857176635411264e+00	 7.158744266204209e+00
0	 2.857176635411264e+00	 3.571478919343873e+00	 8.670342110632456e+00
0	 2.857176635411265e+00	 4.285783286615009e+00	 9.607172774054641e+00
0	 2.857176635411265e+00	 5.000089153877974e+00	 1.013319867508958e+01
0	 2.857176635411265e+00	 5.714395937786081e+00	 1.041238154163030e+01
0	 2.857176635411265e+00	 6.428703054992630e+00	 1.060868241089692e+01
0	 2.857176635411264e+00	 7.143009922150927e+00	 1.088606162948122e+01
0	 3.571478919343873e+00	 0.000000000000000e+00	-2.297331197604634e+01
0	 3.571478919343873e+00	 7.142881171115515e-01	-1.187515138974335e+01
0	 3.571478919343873e+00	 1.428580650948409e+00	-2.996446192580192e+00
0	 3.571478919343873e+00	 2.142877018163878e+00	 3.877224362586745e+00
0	 3.571478919343873e+00	 2.857176635411264e+00	 8.960276876059110e+00
0	 3.571478919343874e+00	 3.571478919343874e+00	 1.246712380163115e+01
0	 3.571478919343873e+00	 4.285783286615009e+00	 1.461217344687346e+01
0	 3.571478919343873e+00	 5.000089153877975e+00	 1.560982997336591e+01
0	 3.571478919343873e+00	 5.714395937786081e+00	 1.567449339687977e+01
0	 3.571478919343873e+00	 6.428703054992628e+00	 1.502055958750908e+01
0	 3.571478919343873e+00	 7.143009922150927e+00	 1.386242026975120e+01
0	 4.285783286615008e+00	 0.000000000000000e+00	-3.657118751914754e+01
0	 4.285783286615009e+00	 7.142881171115514e-01	-2.059553503368544e+01
0	 4.285783286615007e+00	 1.428580650948409e+00	-7.618921539641974e+00
0	 4.285783286615009e+00	 2.142877018163879e+00	 2.596575204009262e+00
0	 4.285783286615009e+00	 2.857176635411266e+00	 1.028887002216375e+01
0	 4.285783286615008e+00	 3.571478919343873e+00	 1.569587032415335e+01
0	 4.285783286615008e+00	 4.285783286615008e+00	 1.905547610422266e+01
0	 4.285783286615009e+00	 5.000089153877976e+00	 2.060557994191459e+01
0	 4.285783286615008e+00	 5.714395937786080e+00	 2.058406700236502e+01
0	 4.285783286615008e+00	 6.428703054992630e+00	 1.922881503650671e+01
0	 4.285783286615009e+00	 7.143009922150927e+00	 1.677769438118232e+01
0	 5.000089153877976e+00	 0.000000000000000e+00	-4.797841180385933e+01
0	 5.000089153877975e+00	 7.142881171115513e-01	-2.814862041162541e+01
0	 5.000089153877975e+00	 1.428580650948409e+00	-1.185168112726861e+01
0	 5.000089153877975e+00	 2.142877018163879e+00	 1.146874810292626e+00
0	 5.000089153877976e+00	 2.857176635411265e+00	 1.108150584223795e+01
0	 5.000089153877976e+00	 3.571478919343873e+00	 1.818666009061748e+01
0	 5.000089153877976e+00	 4.285783286615009e+00	 2.269677535899790e+01
0	 5.000089153877975e+00	 5.000089153877974e+00	 2.484627913298210e+01
0	 5.000089153877975e+00	 5.714395937786080e+00	 2.486958858060236e+01
0	 5.000089153877976e+00	 6.428703054992630e+00	 2.300111055258722e+01
0	 5.000089153877976e+00	 7.143009922150928e+00	 1.947524158250194e+01
0	 5.714395937786080e+00	 0.000000000000000e+00	-5.646517866552772e+01
0	 5.714395937786081e+00	 7.142881171115514e-01	-3.405759223020154e+01
0	 5.714395937786080e+00	 1.428580650948410e+00	-1.543437723152715e+01
0	 5.714395937786081e+00	 2.142877018163879e+00	-3.914743970510770e-01
0	 5.714395937786080e+00	 2.857176635411265e+00	 1.127516286651210e+01
0	 5.714395937786081e+00	 3.571478919343873e+00	 1.976956847421769e+01
0	 5.714395937786080e+00	 4.285783286615009e+00	 2.529576366367323e+01
0	 5.714395937786081e+00	 5.000089153877976e+00	 2.805775699566567e+01
0	 5.714395937786080e+00	 5.714395937786080e+00	 2.825954435463315e+01
0	 5.714395937786080e+00	 6.428703054992627e+00	 2.610510894898152e+01
0	 5.714395937786082e+00	 7.143009922150927e+00	 2.179842131124560e+01
0	 6.428703054992629e+00	 0.000000000000000e+00	-6.130168207329205e+01
0	 6.428703054992630e+00	 7.142881171115513e-01	-3.784563732438271e+01
0	 6.428703054992631e+00	 1.428580650948410e+00	-1.810666541255652e+01
0	 6.428703054992629e+00	 2.142877018163878e+00	-1.938073729593130e+00
0	 6.428703054992629e+00	 2.857176635411265e+00	 1.080681601778633e+01
0	 6.428703054992629e+00	 3.571478919343873e+00	 2.027466780896976e+01
0	 6.428703054992629e+00	 4.285783286615008e+00	 2.661213131032945e+01
0	 6.428703054992628e+00	 5.000089153877976e+00	 2.996584187592194e+01
0	 6.428703054992628e+00	 5.714395937786080e+00	 3.048242054801265e+01
0	 6.428703054992631e+00	 6.428703054992630e+00	 2.830847405742511e+01
0	 6.428703054992631e+00	 7.143009922150928e+00	 2.359059482371488e+01
0	 7.143009922150927e+00	 0.000000000000000e+00	-6.175811613006177e+01
0	 7.143009922150926e+00	 7.142881171115513e-01	-3.903594465744349e+01
0	 7.143009922150926e+00	 1.428580650948409e+00	-1.960820451454427e+01
0	 7.143009922150927e+00	 2.142877018163878e+00	-3.412528231968086e+00
0	 7.143009922150926e+00	 2.857176635411264e+00	 9.613436611445479e+00
0	 7.143009922150926e+00	 3.571478919343873e+00	 1.953202738971991e+01
0	 7.143009922150926e+00	 4.285783286615008e+00	 2.640556643065604e+01
0	 7.143009922150927e+00	 5.000089153877976e+00	 3.029636101656205e+01
0	 7.143009922150926e+00	 5.714395937786080e+00	 3.126670338479895e+01
0	 7.143009922150927e+00	 6.428703054992628e+00	 2.937887072814201e+01
0	 7.143009922150927e+00	 7.143009922150927e+00	 2.469512519495767e+01
0	 0.000000000000000e+00	 7.143009922150927e+00	 1.502693067977186e+00
0	 0.000000000000000e+00	 7.857266066626719e+00	 7.352514085025303e+00
0	 0.000000000000000e+00	 8.571521461152161e+00	 1.172428119692495e+01
0	 0.000000000000000e+00	 9.285776189055182e+00	 1.477758252458841e+01
0	 0.000000000000000e+00	 1.000003033366371e+01	 1.667200662910982e+01
0	 0.000000000000000e+00	 1.071428397830567e+01	 1.756714251177066e+01
0	 0.000000000000000e+00	 1.142853720630899e+01	 1.762257961404440e+01
0	 0.000000000000000e+00	 1.214279010100160e+01	 1.699790781760050e+01
0	 0.000000000000000e+00	 1.285704274571142e+01	 1.585271744430753e+01
0	 0.000000000000000e+00	 1.357129522376639e+01	 1.434659925623565e+01
0	 0.000000000000000e+00	 1.428554761849444e+01	 1.263914445565812e+01
0	 7.142881171115515e-01	 7.143009922150928e+00	 3.156929631993620e+00
0	 7.142881171115513e-01	 7.857266066626721e+00	 7.933743282439488e+00
0	 7.142881171115513e-01	 8.571521461152166e+00	 1.162753777821569e+01
0	 7.142881171115514e-01	 9.285776189055184e+00	 1.432997898371309e+01
0	 7.142881171115514e-01	 1.000003033366371e+01	 1.613273319846099e+01
0	 7.142881171115513e-01	 1.071428397830567e+01	 1.712746715713231e+01
0	 7.142881171115512e-01	 1.142853720630899e+01	 1.740584802954810e+01
0	 7.142881171115512e-01	 1.214279010100160e+01	 1.705954342068122e+01
0	 7.142881171115512e-01	 1.285704274571143e+01	 1.618022137065927e+01
0	 7.142881171115514e-01	 1.357129522376639e+01	 1.485955035476684e+01
0	 7.142881171115514e-01	 1.428554761849444e+01	 1.318919928344683e+01
0	 1.428580650948409e+00	 7.143009922150926e+00	 5.376669381964205e+00
0	 1.428580650948410e+00	 7.857266066626718e+00	 8.834743957751094e+00
0	 1.428580650948409e+00	 8.571521461152161e+00	 1.161120070311381e+01
0	 1.428580650948409e+00	 9.285776189055182e+00	 1.374021579238540e+01
0	 1.428580650948409e+00	 1.000003033366371e+01	 1.525596578287246e+01
0	 1.428580650948409e+00	 1.071428397830567e+01	 1.619262761485973e+01
0	 1.428580650948409e+00	 1.142853720630899e+01	 1.658437861161380e+01
0	 1.428580650948409e+00	 1.214279010100159e+01	 1.646539647938631e+01
0	 1.428580650948410e+00	 1.285704274571143e+01	 1.586985930741637e+01
0	 1.428580650948410e+00	 1.357129522376639e+01	 1.483194556793243e+01
0	 1.428580650948410e+00	 1.428554761849444e+01	 1.338583411615333e+01
0	 2.142877018163878e+00	 7.143009922150926e+00	 8.005262660517483e+00
0	 2.142877018163879e+00	 7.857266066626722e+00	 9.985502451199755e+00
0	 2.142877018163878e+00	 8.571521461152162e+00	 1.167727014953931e+01
0	 2.142877018163879e+00	 9.285776189055184e+00	 1.306768441597482e+01
0	 2.142877018163878e+00	 1.000003033366371e+01	 1.414386420486881e+01
0	 2.142877018163878e+00	 1.071428397830566e+01	 1.489292876451086e+01
0	 2.142877018163878e+00	 1.142853720630899e+01	 1.530199763712059e+01
0	 2.142877018163878e+00	 1.214279010100160e+01	 1.535819065884987e+01
0	 2.142877018163878e+00	 1.285704274571142e+01	 1.504862795978469e+01
0	 2.142877018163879e+00	 1.357129522376639e+01	 1.436042996394637e+01
0	 2.142877018163878e+00	 1.428554761849444e+01	 1.328071738929242e+01
0	 2.857176635411264e+00	 7.143009922150927e+00	 1.088606162948122e+01
0	 2.857176635411264e+00	 7.857266066626720e+00	 1.131600740329537e+01
0	 2.857176635411264e+00	 8.571521461152162e+00	 1.182774877805575e+01
0	 2.857176635411264e+00	 9.285776189055182e+00	 1.237177873729366e+01
0	 2.857176635411265e+00	 1.000003033366371e+01	 1.289859044276582e+01
0	 2.857176635411265e+00	 1.071428397830567e+01	 1.335867723445623e+01
0	 2.857176635411265e+00	 1.142853720630899e+01	 1.370253263057783e+01
0	 2.857176635411264e+00	 1.214279010100160e+01	 1.388065032757389e+01
0	 2.857176635411264e+00	 1.285704274571142e+01	 1.384352420011891e+01
0	 2.857176635411265e+00	 1.357129522376640e+01	 1.354164830111938e+01
0	 2.857176635411264e+00	 1.428554761849444e+01	 1.292551686171411e+01
0	 3.571478919343873e+00	 7.143009922150927e+00	 1.386242026975120e+01
0	 3.571478919343873e+00	 7.857266066626722e+00	 1.275624975465595e+01
0	 3.571478919343874e+00	 8.571521461152168e+00	 1.206464173169736e+01
0	 3.571478919343873e+00	 9.285776189055186e+00	 1.171189505642982e+01
0	 3.571478919343872e+00	 1.000003033366371e+01	 1.162230863052242e+01
0	 3.571478919343873e+00	 1.071428397830567e+01	 1.172018140175947e+01
0	 3.571478919343873e+00	 1.142853720630899e+01	 1.192981236404065e+01
0	 3.571478919343873e+00	 1.214279010100160e+01	 1.217550055738136e+01
0	 3.571478919343873e+00	 1.285704274571143e+01	 1.238154506791276e+01
0	 3.571478919343873e+00	 1.357129522376639e+01	 1.247224502788187e+01
0	 3.571478919343873e+00	 1.428554761849444e+01	 1.237189961565151e+01
0	 4.285783286615009e+00	 7.143009922150927e+00	 1.677769438118233e+01
0	 4.285783286615009e+00	 7.857266066626719e+00	 1.423622274587365e+01
0	 4.285783286615007e+00	 8.571521461152161e+00	 1.238995663582644e+01
0	 4.285783286615008e+00	 9.285776189055181e+00	 1.114743209060923e+01
0	 4.285783286615009e+00	 1.000003033366371e+01	 1.041718505761887e+01
0	 4.285783286615008e+00	 1.071428397830567e+01	 1.010775139207933e+01
0	 4.285783286615008e+00	 1.142853720630899e+01	 1.012766685704069e+01
0	 4.285783286615009e+00	 1.214279010100160e+01	 1.038546712337807e+01
0	 4.285783286615009e+00	 1.285704274571143e+01	 1.078968776979103e+01
0	 4.285783286615009e+00	 1.357129522376640e+01	 1.124886428280294e+01
0	 4.285783286615008e+00	 1.428554761849444e+01	 1.167153205676050e+01
0	 5.000089153877976e+00	 7.143009922150928e+00	 1.947524158250194e+01
0	 5.000089153877974e+00	 7.857266066626717e+00	 1.568592191740898e+01
0	 5.000089153877973e+00	 8.571521461152159e+00	 1.280570359802120e+01
0	 5.000089153877975e+00	 9.285776189055181e+00	 1.073779097408803e+01
0	 5.000089153877977e+00	 1.000003033366371e+01	 9.385388168961432e+00
0	 5.000089153877975e+00	 1.071428397830567e+01	 8.651699079593119e+00
0	 5.000089153877976e+00	 1.142853720630899e+01	 8.439927376532165e+00
0	 5.000089153877975e+00	 1.214279010100160e+01	 8.653276503923028e+00
0	 5.000089153877976e+00	 1.285704274571142e+01	 9.194949679503935e+00
0	 5.000089153877975e+00	 1.357129522376639e+01	 9.968149894605753e+00
0	 5.000089153877975e+00	 1.428554761849444e+01	 1.087607991415112e+01
0	 5.714395937786082e+00	 7.143009922150927e+00	 2.179842131124560e+01
0	 5.714395937786080e+00	 7.857266066626718e+00	 1.703534510951323e+01
0	 5.714395937786080e+00	 8.571521461152162e+00	 1.331389520799402e+01
0	 5.714395937786080e+00	 9.285776189055182e+00	 1.054237525807417e+01
0	 5.714395937786081e+00	 1.000003033366371e+01	 8.629088564813514e+00
0	 5.714395937786082e+00	 1.071428397830567e+01	 7.482338086941422e+00
0	 5.714395937786081e+00	 1.142853720630899e+01	 7.010426436853264e+00
0	 5.714395937786080e+00	 1.214279010100160e+01	 7.121655880607495e+00
0	 5.714395937786081e+00	 1.285704274571142e+01	 7.724328337923311e+00
0	 5.714395937786081e+00	 1.357129522376640e+01	 8.726745382178951e+00
0	 5.714395937786081e+00	 1.428554761849444e+01	 1.003720824041060e+01
0	 6.428703054992631e+00	 7.143009922150928e+00	 2.359059482371488e+01
0	 6.428703054992631e+00	 7.857266066626720e+00	 1.821449246217887e+01
0	 6.428703054992631e+00	 8.571521461152162e+00	 1.391654653754014e+01
0	 6.428703054992630e+00	 9.285776189055186e+00	 1.062059091067877e+01
0	 6.428703054992630e+00	 1.000003033366371e+01	 8.250459000753096e+00
0	 6.428703054992631e+00	 1.071428397830567e+01	 6.729983785194451e+00
0	 6.428703054992628e+00	 1.142853720630899e+01	 5.982997799702696e+00
0	 6.428703054992629e+00	 1.214279010100160e+01	 5.933333138242599e+00
0	 6.428703054992629e+00	 1.285704274571142e+01	 6.504821453040943e+00
0	 6.428703054992628e+00	 1.357129522376639e+01	 7.621293954584401e+00
0	 6.428703054992630e+00	 1.428554761849444e+01	 9.206581411618192e+00
0	 7.143009922150927e+00	 7.143009922150927e+00	 2.469512519495767e+01
0	 7.143009922150926e+00	 7.857266066626718e+00	 1.915336641511851e+01
0	 7.143009922150929e+00	 8.571521461152162e+00	 1.461567514051666e+01
0	 7.143009922150926e+00	 9.285776189055184e+00	 1.103184631689694e+01
0	 7.143009922150927e+00	 1.000003033366371e+01	 8.351674387656642e+00
0	 7.143009922150926e+00	 1.071428397830567e+01	 6.524953293839677e+00
0	 7.143009922150925e+00	 1.142853720630899e+01	 5.501476474131630e+00
0	 7.143009922150927e+00	 1.214279010100160e+01	 5.231036864855589e+00
0	 7.143009922150928e+00	 1.285704274571143e+01	 5.663426899968945e+00
0	 7.143009922150926e+00	 1.357129522376639e+01	 6.748438511061029e+00
0	 7.143009922150930e+00	 1.428554761849445e+01	 8.435863127351663e+00
0	 0.000000000000000e+00	 1.428554761849444e+01	 1.263914445565812e+01
0	 0.000000000000000e+00	 1.499984997172426e+01	 1.118774885720649e+01
0	 0.000000000000000e+00	 1.571415215828766e+01	 1.028446274483533e+01
0	 0.000000000000000e+00	 1.642845401151722e+01	 9.840490854258460e+00
0	 0.000000000000000e+00	 1.714275536474550e+01	 9.767037990756695e+00
0	 0.000000000000000e+00	 1.785705605130510e+01	 9.975309029177268e+00
0	 0.000000000000000e+00	 1.857135590452858e+01	 1.037650891393346e+01
0	 0.000000000000000e+00	 1.928565475774854e+01	 1.088184265900460e+01
0	 0.000000000000000e+00	 1.999995244429753e+01	 1.140251534793612e+01
0	 0.000000000000000e+00	 2.071424879750816e+01	 1.184973213384000e+01
0	 0.000000000000000e+00	 2.142854365071296e+01	 1.213469823939538e+01
0	 7.142881171115514e-01	 1.428554761849444e+01	 1.318919928344684e+01
0	 7.142881171115516e-01	 1.499984997172426e+01	 1.161783891066482e+01
0	 7.142881171115514e-01	 1.571415215828766e+01	 1.049636964509138e+01
0	 7.142881171115512e-01	 1.642845401151722e+01	 9.769424261882145e+00
0	 7.142881171115512e-01	 1.714275536474550e+01	 9.381635734358367e+00
0	 7.142881171115515e-01	 1.785705605130510e+01	 9.277637234006800e+00
0	 7.142881171115514e-01	 1.857135590452859e+01	 9.402062130480111e+00
0	 7.142881171115513e-01	 1.928565475774854e+01	 9.699543991598185e+00
0	 7.142881171115514e-01	 1.999995244429753e+01	 1.011471658334989e+01
0	 7.142881171115513e-01	 2.071424879750816e+01	 1.059221386989572e+01
0	 7.142881171115512e-01	 2.142854365071296e+01	 1.107667001357107e+01
0	 1.428580650948410e+00	 1.428554761849444e+01	 1.338583411615333e+01
0	 1.428580650948409e+00	 1.499984997172426e+01	 1.192100509773658e+01
0	 1.428580650948409e+00	 1.571415215828766e+01	 1.078650320097426e+01
0	 1.428580650948410e+00	 1.642845401151722e+01	 9.955510406641993e+00
0	 1.428580650948410e+00	 1.714275536474550e+01	 9.401208953108139e+00
0	 1.428580650948409e+00	 1.785705605130510e+01	 9.096781336333867e+00
0	 1.428580650948409e+00	 1.857135590452859e+01	 9.015410309874119e+00
0	 1.428580650948409e+00	 1.928565475774854e+01	 9.130278884879422e+00
0	 1.428580650948409e+00	 1.999995244429754e+01	 9.414570330098766e+00
0	 1.428580650948409e+00	 2.071424879750816e+01	 9.841468171883193e+00
0	 1.428580650948409e+00	 2.142854365071297e+01	 1.038415619419037e+01
0	 2.142877018163878e+00	 1.428554761849444e+01	 1.328071738929242e+01
0	 2.142877018163878e+00	 1.499984997172426e+01	 1.210082247216986e+01
0	 2.142877018163879e+00	 1.571415215828766e+01	 1.111874419466498e+01
0	 2.142877018163878e+00	 1.642845401151720e+01	 1.033133504485880e+01
0	 2.142877018163878e+00	 1.714275536474549e+01	 9.735447770440283e+00
0	 2.142877018163879e+00	 1.785705605130510e+01	 9.327935378706563e+00
0	 2.142877018163878e+00	 1.857135590452858e+01	 9.105651136564070e+00
0	 2.142877018163879e+00	 1.928565475774854e+01	 9.065448570530588e+00
0	 2.142877018163878e+00	 1.999995244429753e+01	 9.204181466738152e+00
0	 2.142877018163879e+00	 2.071424879750816e+01	 9.518703870936982e+00
0	 2.142877018163878e+00	 2.142854365071296e+01	 1.000587008850020e+01
0	 2.857176635411264e+00	 1.428554761849444e+01	 1.292551686171411e+01
0	 2.857176635411266e+00	 1.499984997172427e+01	 1.216086519318548e+01
0	 2.857176635411264e+00	 1.571415215828766e+01	 1.145697243348206e+01
0	 2.857176635411265e+00	 1.642845401151721e+01	 1.082948299127341e+01
0	 2.857176635411265e+00	 1.714275536474550e+01	 1.029404149120008e+01
0	 2.857176635411265e+00	 1.785705605130510e+01	 9.866292773873965e+00
0	 2.857176635411264e+00	 1.857135590452858e+01	 9.561881895879313e+00
0	 2.857176635411264e+00	 1.928565475774854e+01	 9.396454129774556e+00
0	 2.857176635411265e+00	 1.999995244429753e+01	 9.385654964094856e+00
0	 2.857176635411264e+00	 2.071424879750815e+01	 9.545130103355437e+00
0	 2.857176635411265e+00	 2.142854365071296e+01	 9.890525468055648e+00
0	 3.571478919343873e+00	 1.428554761849444e+01	 1.237189961565151e+01
0	 3.571478919343873e+00	 1.499984997172426e+01	 1.210470652553968e+01
0	 3.571478919343873e+00	 1.571415215828766e+01	 1.176506674994947e+01
0	 3.571478919343873e+00	 1.642845401151722e+01	 1.138253811911210e+01
0	 3.571478919343872e+00	 1.714275536474550e+01	 1.098667860170050e+01
0	 3.571478919343873e+00	 1.785705605130510e+01	 1.060704630482960e+01
0	 3.571478919343873e+00	 1.857135590452858e+01	 1.027319947405712e+01
0	 3.571478919343873e+00	 1.928565475774854e+01	 1.001469649338480e+01
0	 3.571478919343873e+00	 1.999995244429753e+01	 9.861095885260216e+00
0	 3.571478919343873e+00	 2.071424879750816e+01	 9.841956310578936e+00
0	 3.571478919343872e+00	 2.142854365071296e+01	 9.986836568687311e+00
0	 4.285783286615008e+00	 1.428554761849444e+01	 1.167153205676050e+01
0	 4.285783286615009e+00	 1.499984997172426e+01	 1.193591883957594e+01
0	 4.285783286615008e+00	 1.571415215828766e+01	 1.200690500185270e+01
0	 4.285783286615008e+00	 1.642845401151721e+01	 1.192308336014052e+01
0	 4.285783286615008e+00	 1.714275536474550e+01	 1.172304676976886e+01
0	 4.285783286615008e+00	 1.785705605130509e+01	 1.144538812484714e+01
0	 4.285783286615007e+00	 1.857135590452858e+01	 1.112870035826512e+01
0	 4.285783286615009e+00	 1.928565475774854e+01	 1.081157644169345e+01
0	 4.285783286615009e+00	 1.999995244429753e+01	 1.053260938558425e+01
0	 4.285783286615007e+00	 2.071424879750815e+01	 1.033039223917195e+01
0	 4.285783286615009e+00	 2.142854365071296e+01	 1.024351809047424e+01
0	 5.000089153877975e+00	 1.428554761849444e+01	 1.087607991415112e+01
0	 5.000089153877975e+00	 1.499984997172426e+01	 1.165807361126574e+01
0	 5.000089153877976e+00	 1.571415215828766e+01	 1.214636407228286e+01
0	 5.000089153877974e+00	 1.642845401151721e+01	 1.238370070470600e+01
0	 5.000089153877976e+00	 1.714275536474550e+01	 1.241283284478339e+01
0	 5.000089153877977e+00	 1.785705605130510e+01	 1.227650975750830e+01
0	 5.000089153877976e+00	 1.857135590452858e+01	 1.201748063661880e+01
0	 5.000089153877976e+00	 1.928565475774854e+01	 1.167849460459750e+01
0	 5.000089153877975e+00	 1.999995244429753e+01	 1.130230071267095e+01
0	 5.000089153877975e+00	 2.071424879750816e+01	 1.093164794080877e+01
0	 5.000089153877975e+00	 2.142854365071297e+01	 1.060928519772259e+01
0	 5.714395937786081e+00	 1.428554761849444e+01	 1.003720824041060e+01
0	 5.714395937786080e+00	 1.499984997172426e+01	 1.127474142223838e+01
0	 5.714395937786081e+00	 1.571415215828766e+01	 1.214731986966884e+01
0	 5.714395937786082e+00	 1.642845401151722e+01	 1.269697120176835e+01
0	 5.714395937786082e+00	 1.714275536474550e+01	 1.296572285769990e+01
0	 5.714395937786080e+00	 1.785705605130509e+01	 1.299560209672318e+01
0	 5.714395937786079e+00	 1.857135590452858e+01	 1.282863599819406e+01
0	 5.714395937786080e+00	 1.928565475774854e+01	 1.250685146156329e+01
0	 5.714395937786080e+00	 1.999995244429753e+01	 1.207227520637477e+01
0	 5.714395937786080e+00	 2.071424879750816e+01	 1.156693377226302e+01
0	 5.714395937786080e+00	 2.142854365071296e+01	 1.103285351895006e+01
0	 6.428703054992630e+00	 1.428554761849444e+01	 9.206581411618192e+00
0	 6.428703054992627e+00	 1.499984997172426e+01	 1.078949195979991e+01
0	 6.428703054992629e+00	 1.571415215828766e+01	 1.197364732779754e+01
0	 6.428703054992629e+00	 1.642845401151721e+01	 1.279547495891925e+01
0	 6.428703054992630e+00	 1.714275536474550e+01	 1.329140202106825e+01
0	 6.428703054992629e+00	 1.785705605130510e+01	 1.349785540674274e+01
0	 6.428703054992628e+00	 1.857135590452858e+01	 1.345126173303494e+01
0	 6.428703054992631e+00	 1.928565475774854e+01	 1.318804734162899e+01
0	 6.428703054992629e+00	 1.999995244429753e+01	 1.274463829879818e+01
0	 6.428703054992628e+00	 2.071424879750815e+01	 1.215746039540089e+01
0	 6.428703054992630e+00	 2.142854365071296e+01	 1.146293914687582e+01
0	 7.143009922150930e+00	 1.428554761849445e+01	 8.435863127351663e+00
0	 7.143009922150927e+00	 1.499984997172427e+01	 1.020589401694105e+01
0	 7.143009922150928e+00	 1.571415215828766e+01	 1.158922040582210e+01
0	 7.143009922150927e+00	 1.642845401151721e+01	 1.261179114238984e+01
0	 7.143009922150927e+00	 1.714275536474550e+01	 1.329955472903895e+01
0	 7.143009922150927e+00	 1.785705605130510e+01	 1.367845932216370e+01
0	 7.143009922150926e+00	 1.857135590452859e+01	 1.377445273215648e+01
0	 7.143009922150926e+00	 1.928565475774854e+01	 1.361348242340538e+01
0	 7.143009922150926e+00	 1.999995244429754e+01	 1.322149551429032e+01
0	 7.143009922150927e+00	 2.071424879750816e+01	 1.262443877717813e+01
0	 7.143009922150927e+00	 2.142854365071296e+01	 1.184825863841631e+01
0	 0.000000000000000e+00	 2.142854365071296e+01	 1.213469823939538e+01
0	 0.000000000000000e+00	 2.214283692057824e+01	 1.219632418122072e+01
0	 0.000000000000000e+00	 2.285712885710494e+01	 1.206393786747577e+01
0	 0.000000000000000e+00	 2.357141979362770e+01	 1.178437053455406e+01
0	 0.000000000000000e+00	 2.428571006348117e+01	 1.140445325114834e+01
0	 0.000000000000000e+00	 2.500000000000001e+01	 1.097101691824815e+01
0	 0.000000000000000e+00	 2.571428993651884e+01	 1.053089226913844e+01
0	 0.000000000000000e+00	 2.642858020637231e+01	 1.013090986939949e+01
0	 0.000000000000000e+00	 2.714287114289507e+01	 9.817900116907891e+00
0	 0.000000000000000e+00	 2.785716307942177e+01	 9.638693241838803e+00
0	 0.000000000000000e+00	 2.857145634928704e+01	 9.640119306669312e+00
0	 7.142881171115512e-01	 2.142854365071296e+01	 1.107667001357107e+01
0	 7.142881171115515e-01	 2.214283692057824e+01	 1.144651323953495e+01
0	 7.142881171115514e-01	 2.285712885710494e+01	 1.163701712518989e+01
0	 7.142881171115515e-01	 2.357141979362770e+01	 1.167808405036102e+01
0	 7.142881171115510e-01	 2.428571006348117e+01	 1.159961644886300e+01
0	 7.142881171115515e-01	 2.500000000000001e+01	 1.143151680850199e+01
0	 7.142881171115512e-01	 2.571428993651883e+01	 1.120368767107703e+01
0	 7.142881171115515e-01	 2.642858020637232e+01	 1.094603163238117e+01
0	 7.142881171115513e-01	 2.714287114289507e+01	 1.068845134220219e+01
0	 7.142881171115514e-01	 2.785716307942178e+01	 1.046084950432287e+01
0	 7.142881171115512e-01	 2.857145634928703e+01	 1.029312887652105e+01
0	 1.428580650948409e+00	 2.142854365071297e+01	 1.038415619419037e+01
0	 1.428580650948409e+00	 2.214283692057823e+01	 1.089717589848861e+01
0	 1.428580650948410e+00	 2.285712885710495e+01	 1.126319426488099e+01
0	 1.428580650948409e+00	 2.357141979362771e+01	 1.149758362990521e+01
0	 1.428580650948410e+00	 2.428571006348118e+01	 1.161571651866278e+01
0	 1.428580650948409e+00	 2.500000000000001e+01	 1.163296564482351e+01
0	 1.428580650948410e+00	 2.571428993651884e+01	 1.156470391062841e+01
0	 1.428580650948409e+00	 2.642858020637231e+01	 1.142630440689153e+01
0	 1.428580650948409e+00	 2.714287114289507e+01	 1.123314041300038e+01
0	 1.428580650948409e+00	 2.785716307942177e+01	 1.100058539691495e+01
0	 1.428580650948409e+00	 2.857145634928703e+01	 1.074401301516556e+01
0	 2.142877018163878e+00	 2.142854365071296e+01	 1.000587008850020e+01
0	 2.142877018163878e+00	 2.214283692057824e+01	 1.052632510756245e+01
0	 2.142877018163879e+00	 2.285712885710494e+01	 1.094497143913434e+01
0	 2.142877018163878e+00	 2.357141979362770e+01	 1.126505005473855e+01
0	 2.142877018163879e+00	 2.428571006348117e+01	 1.148980217538999e+01
0	 2.142877018163878e+00	 2.500000000000001e+01	 1.162246927160119e+01
0	 2.142877018163878e+00	 2.571428993651883e+01	 1.166629306338594e+01
0	 2.142877018163878e+00	 2.642858020637231e+01	 1.162451552026121e+01
0	 2.142877018163878e+00	 2.714287114289507e+01	 1.150037886124727e+01
0	 2.142877018163879e+00	 2.785716307942177e+01	 1.129712555486606e+01
0	 2.142877018163879e+00	 2.857145634928704e+01	 1.101799831913795e+01
0	 2.857176635411265e+00	 2.142854365071296e+01	 9.890525468055648e+00
0	 2.857176635411264e+00	 2.214283692057824e+01	 1.031197436797638e+01
0	 2.857176635411264e+00	 2.285712885710494e+01	 1.068485137380184e+01
0	 2.857176635411264e+00	 2.357141979362770e+01	 1.100266464705713e+01
0	 2.857176635411264e+00	 2.428571006348117e+01	 1.125892259951234e+01
0	 2.857176635411265e+00	 2.500000000000001e+01	 1.144713389318778e+01
0	 2.857176635411265e+00	 2.571428993651883e+01	 1.156080744035730e+01
0	 2.857176635411264e+00	 2.642858020637231e+01	 1.159345240355004e+01
0	 2.857176635411265e+00	 2.714287114289507e+01	 1.153857819555028e+01
0	 2.857176635411265e+00	 2.785716307942177e+01	 1.138969447939562e+01
0	 2.857176635411264e+00	 2.857145634928704e+01	 1.114031116837340e+01
0	 3.571478919343872e+00	 2.142854365071296e+01	 9.986836568687311e+00
0	 3.571478919343871e+00	 2.214283692057823e+01	 1.023213773265084e+01
0	 3.571478919343873e+00	 2.285712885710494e+01	 1.048533736796195e+01
0	 3.571478919343873e+00	 2.357141979362770e+01	 1.073260926966351e+01
0	 3.571478919343874e+00	 2.428571006348118e+01	 1.096012743709082e+01
0	 3.571478919343873e+00	 2.500000000000001e+01	 1.115406607387560e+01
0	 3.571478919343873e+00	 2.571428993651884e+01	 1.130059958794854e+01
0	 3.571478919343873e+00	 2.642858020637231e+01	 1.138590259154041e+01
0	 3.571478919343872e+00	 2.714287114289507e+01	 1.139614990118183e+01
0	 3.571478919343872e+00	 2.785716307942177e+01	 1.131751653770149e+01
0	 3.571478919343873e+00	 2.857145634928703e+01	 1.113617772622303e+01
0	 4.285783286615009e+00	 2.142854365071296e+01	 1.024351809047424e+01
0	 4.285783286615009e+00	 2.214283692057824e+01	 1.026482980617484e+01
0	 4.285783286615008e+00	 2.285712885710494e+01	 1.034893329388664e+01
0	 4.285783286615009e+00	 2.357141979362770e+01	 1.047706632593575e+01
0	 4.285783286615009e+00	 2.428571006348118e+01	 1.063046679975303e+01
0	 4.285783286615009e+00	 2.500000000000001e+01	 1.079037273787616e+01
0	 4.285783286615008e+00	 2.571428993651883e+01	 1.093802228795096e+01
0	 4.285783286615009e+00	 2.642858020637231e+01	 1.105465372273183e+01
0	 4.285783286615009e+00	 2.714287114289508e+01	 1.112150544008123e+01
0	 4.285783286615009e+00	 2.785716307942177e+01	 1.111981596296836e+01
0	 4.285783286615008e+00	 2.857145634928704e+01	 1.103082393946697e+01
0	 5.000089153877975e+00	 2.142854365071297e+01	 1.060928519772259e+01
0	 5.000089153877976e+00	 2.214283692057823e+01	 1.038806574478084e+01
0	 5.000089153877976e+00	 2.285712885710494e+01	 1.027814359701544e+01
0	 5.000089153877974e+00	 2.357141979362770e+01	 1.025821875980304e+01
0	 5.000089153877975e+00	 2.428571006348118e+01	 1.030699126467236e+01
0	 5.000089153877975e+00	 2.500000000000000e+01	 1.040316116930416e+01
0	 5.000089153877975e+00	 2.571428993651884e+01	 1.052542855753100e+01
0	 5.000089153877975e+00	 2.642858020637231e+01	 1.065249353933684e+01
0	 5.000089153877977e+00	 2.714287114289508e+01	 1.076305625085642e+01
0	 5.000089153877975e+00	 2.785716307942177e+01	 1.083581685437452e+01
0	 5.000089153877975e+00	 2.857145634928704e+01	 1.084947553832496e+01
0	 5.714395937786080e+00	 2.142854365071296e+01	 1.103285351895006e+01
0	 5.714395937786080e+00	 2.214283692057824e+01	 1.057986125632627e+01
0	 5.714395937786079e+00	 2.285712885710493e+01	 1.027547329593641e+01
0	 5.714395937786081e+00	 2.357141979362770e+01	 1.009825005572786e+01
0	 5.714395937786080e+00	 2.428571006348118e+01	 1.002675187455284e+01
0	 5.714395937786080e+00	 2.500000000000000e+01	 1.003953901216603e+01
0	 5.714395937786082e+00	 2.571428993651883e+01	 1.011517164922285e+01
0	 5.714395937786080e+00	 2.642858020637231e+01	 1.023220988727810e+01
0	 5.714395937786083e+00	 2.714287114289508e+01	 1.036921374878539e+01
0	 5.714395937786081e+00	 2.785716307942177e+01	 1.050474317709697e+01
0	 5.714395937786080e+00	 2.857145634928703e+01	 1.061735803646413e+01
0	 6.428703054992630e+00	 2.142854365071296e+01	 1.146293914687582e+01
0	 6.428703054992628e+00	 2.214283692057824e+01	 1.081823260028196e+01
0	 6.428703054992630e+00	 2.285712885710494e+01	 1.034342798237420e+01
0	 6.428703054992629e+00	 2.357141979362769e+01	 1.001934423869490e+01
0	 6.428703054992629e+00	 2.428571006348118e+01	 9.826800137619680e+00
0	 6.428703054992629e+00	 2.500000000000000e+01	 9.746614270352811e+00
0	 6.428703054992629e+00	 2.571428993651883e+01	 9.759605050924092e+00
0	 6.428703054992629e+00	 2.642858020637231e+01	 9.846590716186855e+00
0	 6.428703054992628e+00	 2.714287114289507e+01	 9.988389325817296e+00
0	 6.428703054992628e+00	 2.785716307942177e+01	 1.016581876231488e+01
0	 6.428703054992631e+00	 2.857145634928704e+01	 1.035969673100419e+01
0	 7.143009922150927e+00	 2.142854365071296e+01	 1.184825863841631e+01
0	 7.143009922150927e+00	 2.214283692057824e+01	 1.108119658772720e+01
0	 7.143009922150925e+00	 2.285712885710493e+01	 1.048451382118507e+01
0	 7.143009922150926e+00	 2.357141979362770e+01	 1.004368587420654e+01
0	 7.143009922150927e+00	 2.428571006348117e+01	 9.744188027615539e+00
0	 7.143009922150926e+00	 2.500000000000000e+01	 9.571495307637321e+00
0	 7.143009922150926e+00	 2.571428993651883e+01	 9.511082485894097e+00
0	 7.143009922150926e+00	 2.642858020637231e+01	 9.548424079402587e+00
0	 7.143009922150928e+00	 2.714287114289507e+01	 9.668994350573259e+00
0	 7.143009922150926e+00	 2.785716307942177e+01	 9.858267307211417e+00
0	 7.143009922150926e+00	 2.857145634928704e+01	 1.010171670252002e+01
0	 0.000000000000000e+00	 2.857145634928704e+01	 9.640119306669312e+00
0	 0.000000000000000e+00	 2.928575120249186e+01	 9.789121975900962e+00
0	 0.000000000000000e+00	 3.000004755570248e+01	 1.000404563002153e+01
0	 0.000000000000000e+00	 3.071434524225148e+01	 1.025882120035424e+01
0	 0.000000000000000e+00	 3.142864409547142e+01	 1.052737951240801e+01
0	 0.000000000000000e+00	 3.214294394869492e+01	 1.078365128587965e+01
0	 0.000000000000000e+00	 3.285724463525451e+01	 1.100156713465555e+01
0	 0.000000000000000e+00	 3.357154598848280e+01	 1.115505756681310e+01
0	 0.000000000000000e+00	 3.428584784171235e+01	 1.121805298462184e+01
0	 0.000000000000000e+00	 3.500015002827575e+01	 1.116448368454392e+01
0	 0.000000000000000e+00	 3.571445238150555e+01	 1.096827985723454e+01
0	 7.142881171115512e-01	 2.857145634928703e+01	 1.029312887652105e+01
0	 7.142881171115513e-01	 2.928575120249186e+01	 1.020681071843758e+01
0	 7.142881171115515e-01	 3.000004755570248e+01	 1.019209651578525e+01
0	 7.142881171115512e-01	 3.071434524225148e+01	 1.023190938453894e+01
0	 7.142881171115513e-01	 3.142864409547143e+01	 1.030917241213137e+01
0	 7.142881171115515e-01	 3.214294394869491e+01	 1.040680865745365e+01
0	 7.142881171115510e-01	 3.285724463525450e+01	 1.050774115085560e+01
0	 7.142881171115512e-01	 3.357154598848280e+01	 1.059489289414611e+01
0	 7.142881171115514e-01	 3.428584784171235e+01	 1.065118686059325e+01
0	 7.142881171115515e-01	 3.500015002827575e+01	 1.065954599492438e+01
0	 7.142881171115512e-01	 3.571445238150555e+01	 1.060289321332616e+01
0	 1.428580650948409e+00	 2.857145634928703e+01	 1.074401301516556e+01
0	 1.428580650948410e+00	 2.928575120249186e+01	 1.051677608039835e+01
0	 1.428580650948409e+00	 3.000004755570248e+01	 1.035576087345864e+01
0	 1.428580650948410e+00	 3.071434524225147e+01	 1.025164141228907e+01
0	 1.428580650948410e+00	 3.142864409547143e+01	 1.019509173841553e+01
0	 1.428580650948409e+00	 3.214294394869490e+01	 1.017678591694655e+01
0	 1.428580650948409e+00	 3.285724463525450e+01	 1.018739803657266e+01
0	 1.428580650948409e+00	 3.357154598848279e+01	 1.021760220956606e+01
0	 1.428580650948410e+00	 3.428584784171235e+01	 1.025807257178016e+01
0	 1.428580650948409e+00	 3.500015002827575e+01	 1.029948328264931e+01
0	 1.428580650948409e+00	 3.571445238150557e+01	 1.033250852518859e+01
0	 2.142877018163879e+00	 2.857145634928704e+01	 1.101799831913795e+01
0	 2.142877018163878e+00	 2.928575120249186e+01	 1.072911723300582e+01
0	 2.142877018163878e+00	 3.000004755570249e+01	 1.049256284740673e+01
0	 2.142877018163878e+00	 3.071434524225147e+01	 1.030551881607558e+01
0	 2.142877018163878e+00	 3.142864409547142e+01	 1.016516884688282e+01
0	 2.142877018163878e+00	 3.214294394869492e+01	 1.006869670183317e+01
0	 2.142877018163879e+00	 3.285724463525450e+01	 1.001328619706460e+01
0	 2.142877018163878e+00	 3.357154598848279e+01	 9.996121202847403e+00
0	 2.142877018163878e+00	 3.428584784171234e+01	 1.001438564358352e+01
0	 2.142877018163878e+00	 3.500015002827574e+01	 1.006526349780603e+01
0	 2.142877018163879e+00	 3.571445238150555e+01	 1.014593879817883e+01
0	 2.857176635411264e+00	 2.857145634928704e+01	 1.114031116837340e+01
0	 2.857176635411264e+00	 2.928575120249186e+01	 1.085393308522105e+01
0	 2.857176635411264e+00	 3.000004755570248e+01	 1.060002630786742e+01
0	 2.857176635411266e+00	 3.071434524225148e+01	 1.038104287008862e+01
0	 2.857176635411264e+00	 3.142864409547143e+01	 1.019943487234934e+01
0	 2.857176635411265e+00	 3.214294394869493e+01	 1.005765448180135e+01
0	 2.857176635411265e+00	 3.285724463525452e+01	 9.958153932282231e+00
0	 2.857176635411264e+00	 3.357154598848280e+01	 9.903385524314368e+00
0	 2.857176635411264e+00	 3.428584784171235e+01	 9.895801625104056e+00
0	 2.857176635411265e+00	 3.500015002827575e+01	 9.937854668541036e+00
0	 2.857176635411265e+00	 3.571445238150556e+01	 1.003199715519808e+01
0	 3.571478919343873e+00	 2.857145634928703e+01	 1.113617772622303e+01
0	 3.571478919343873e+00	 2.928575120249186e+01	 1.090132228376257e+01
0	 3.571478919343873e+00	 3.000004755570248e+01	 1.067567485097108e+01
0	 3.571478919343873e+00	 3.071434524225148e+01	 1.046571459025600e+01
0	 3.571478919343873e+00	 3.142864409547143e+01	 1.027792072884087e+01
0	 3.571478919343873e+00	 3.214294394869492e+01	 1.011877255876392e+01
0	 3.571478919343873e+00	 3.285724463525451e+01	 9.994749436876837e+00
0	 3.571478919343873e+00	 3.357154598848280e+01	 9.912330784843789e+00
0	 3.571478919343873e+00	 3.428584784171236e+01	 9.877996089140673e+00
0	 3.571478919343872e+00	 3.500015002827574e+01	 9.898224901054578e+00
0	 3.571478919343873e+00	 3.571445238150555e+01	 9.979496836683508e+00
0	 4.285783286615008e+00	 2.857145634928704e+01	 1.103082393946697e+01
0	 4.285783286615009e+00	 2.928575120249186e+01	 1.088138321312216e+01
0	 4.285783286615008e+00	 3.000004755570248e+01	 1.071703179875702e+01
0	 4.285783286615008e+00	 3.071434524225148e+01	 1.054703473425865e+01
0	 4.285783286615008e+00	 3.142864409547142e+01	 1.038065710960599e+01
0	 4.285783286615008e+00	 3.214294394869491e+01	 1.022716406686874e+01
0	 4.285783286615007e+00	 3.285724463525450e+01	 1.009582080020641e+01
0	 4.285783286615009e+00	 3.357154598848280e+01	 9.995892555867513e+00
0	 4.285783286615010e+00	 3.428584784171235e+01	 9.936644632189044e+00
0	 4.285783286615008e+00	 3.500015002827575e+01	 9.927342379596013e+00
0	 4.285783286615009e+00	 3.571445238150556e+01	 9.977251200601266e+00
0	 5.000089153877975e+00	 2.857145634928704e+01	 1.084947553832496e+01
0	 5.000089153877975e+00	 2.928575120249186e+01	 1.080421399557735e+01
0	 5.000089153877976e+00	 3.000004755570248e+01	 1.072162019918647e+01
0	 5.000089153877975e+00	 3.071434524225147e+01	 1.061250380154280e+01
0	 5.000089153877978e+00	 3.142864409547143e+01	 1.048767448712643e+01
0	 5.000089153877977e+00	 3.214294394869492e+01	 1.035794197250654e+01
0	 5.000089153877975e+00	 3.285724463525450e+01	 1.023411600634063e+01
0	 5.000089153877975e+00	 3.357154598848280e+01	 1.012700636937425e+01
0	 5.000089153877974e+00	 3.428584784171235e+01	 1.004742287444057e+01
0	 5.000089153877974e+00	 3.500015002827575e+01	 1.000617536646022e+01
0	 5.000089153877975e+00	 3.571445238150555e+01	 1.001407372244111e+01
0	 5.714395937786080e+00	 2.857145634928703e+01	 1.061735803646413e+01
0	 5.714395937786079e+00	 2.928575120249185e+01	 1.067991249120082e+01
0	 5.714395937786082e+00	 3.000004755570248e+01	 1.068696282615226e+01
0	 5.714395937786080e+00	 3.071434524225147e+01	 1.064962203332905e+01
0	 5.714395937786081e+00	 3.142864409547143e+01	 1.057900311312495e+01
0	 5.714395937786081e+00	 3.214294394869491e+01	 1.048621907431685e+01
0	 5.714395937786081e+00	 3.285724463525451e+01	 1.038238293406460e+01
0	 5.714395937786082e+00	 3.357154598848280e+01	 1.027860771791097e+01
0	 5.714395937786080e+00	 3.428584784171235e+01	 1.018600645978159e+01
0	 5.714395937786081e+00	 3.500015002827575e+01	 1.011569220198494e+01
0	 5.714395937786081e+00	 3.571445238150557e+01	 1.007877799521240e+01
0	 6.428703054992631e+00	 2.857145634928704e+01	 1.035969673100419e+01
0	 6.428703054992629e+00	 2.928575120249186e+01	 1.051857629786645e+01
0	 6.428703054992630e+00	 3.000004755570247e+01	 1.061058217948515e+01
0	 6.428703054992631e+00	 3.071434524225149e+01	 1.064588941261830e+01
0	 6.428703054992629e+00	 3.142864409547143e+01	 1.063467301857015e+01
0	 6.428703054992630e+00	 3.214294394869491e+01	 1.058710800319176e+01
0	 6.428703054992629e+00	 3.285724463525450e+01	 1.051336935688117e+01
0	 6.428703054992628e+00	 3.357154598848280e+01	 1.042363205458386e+01
0	 6.428703054992627e+00	 3.428584784171233e+01	 1.032807105579290e+01
0	 6.428703054992628e+00	 3.500015002827574e+01	 1.023686130454916e+01
0	 6.428703054992629e+00	 3.571445238150555e+01	 1.016017772944146e+01
0	 7.143009922150926e+00	 2.857145634928704e+01	 1.010171670252002e+01
0	 7.143009922150928e+00	 2.928575120249186e+01	 1.033030275125226e+01
0	 7.143009922150926e+00	 3.000004755570247e+01	 1.049000048495675e+01
0	 7.143009922150928e+00	 3.071434524225147e+01	 1.058880566419442e+01
0	 7.143009922150927e+00	 3.142864409547143e+01	 1.063471401367899e+01
0	 7.143009922150926e+00	 3.214294394869490e+01	 1.063572122227767e+01
0	 7.143009922150926e+00	 3.285724463525450e+01	 1.059982294301209e+01
0	 7.143009922150926e+00	 3.357154598848279e+01	 1.053501479305873e+01
0	 7.143009922150926e+00	 3.428584784171235e+01	 1.044929235374954e+01
0	 7.143009922150927e+00	 3.500015002827575e+01	 1.035065117057225e+01
0	 7.143009922150928e+00	 3.571445238150556e+01	 1.024708675317055e+01
0	 0.000000000000000e+00	 3.571445238150555e+01	 1.096827985723454e+01
0	 0.000000000000000e+00	 3.642870477623359e+01	 1.068534625467200e+01
0	 0.000000000000000e+00	 3.714295725428858e+01	 1.039911275523919e+01
0	 0.000000000000000e+00	 3.785720989899839e+01	 1.012485512387268e+01
0	 0.000000000000000e+00	 3.857146279369101e+01	 9.877849073333609e+00
0	 0.000000000000000e+00	 3.928571602169433e+01	 9.673370264207737e+00
0	 0.000000000000000e+00	 3.999996966633629e+01	 9.526694304905652e+00
0	 0.000000000000000e+00	 4.071422381094481e+01	 9.453096751662994e+00
0	 0.000000000000000e+00	 4.142847853884783e+01	 9.467853108540778e+00
0	 0.000000000000000e+00	 4.214273393337328e+01	 9.586238827425875e+00
0	 0.000000000000000e+00	 4.285699007784908e+01	 9.823529308031544e+00
0	 7.142881171115512e-01	 3.571445238150555e+01	 1.060289321332615e+01
0	 7.142881171115512e-01	 3.642870477623359e+01	 1.049570682881263e+01
0	 7.142881171115512e-01	 3.714295725428858e+01	 1.037058590133778e+01
0	 7.142881171115513e-01	 3.785720989899840e+01	 1.023765434676876e+01
0	 7.142881171115513e-01	 3.857146279369100e+01	 1.010703605742854e+01
0	 7.142881171115513e-01	 3.928571602169433e+01	 9.988854902095964e+00
0	 7.142881171115515e-01	 3.999996966633629e+01	 9.893234726005860e+00
0	 7.142881171115513e-01	 4.071422381094482e+01	 9.830299350849076e+00
0	 7.142881171115513e-01	 4.142847853884783e+01	 9.810172574772725e+00
0	 7.142881171115513e-01	 4.214273393337328e+01	 9.842978172380324e+00
0	 7.142881171115514e-01	 4.285699007784908e+01	 9.938839894732084e+00
0	 1.428580650948409e+00	 3.571445238150557e+01	 1.033250852518859e+01
0	 1.428580650948409e+00	 3.642870477623361e+01	 1.034412135407309e+01
0	 1.428580650948410e+00	 3.714295725428857e+01	 1.033129571694947e+01
0	 1.428580650948409e+00	 3.785720989899838e+01	 1.029970174973112e+01
0	 1.428580650948409e+00	 3.857146279369102e+01	 1.025500958522257e+01
0	 1.428580650948410e+00	 3.928571602169433e+01	 1.020288935311947e+01
0	 1.428580650948410e+00	 3.999996966633629e+01	 1.014901118000853e+01
0	 1.428580650948409e+00	 4.071422381094482e+01	 1.009904518936771e+01
0	 1.428580650948409e+00	 4.142847853884785e+01	 1.005866150156610e+01
0	 1.428580650948409e+00	 4.214273393337326e+01	 1.003353023386398e+01
0	 1.428580650948409e+00	 4.285699007784908e+01	 1.002932150041294e+01
0	 2.142877018163879e+00	 3.571445238150555e+01	 1.014593879817883e+01
0	 2.142877018163878e+00	 3.642870477623360e+01	 1.022774319533722e+01
0	 2.142877018163878e+00	 3.714295725428858e+01	 1.028517513499642e+01
0	 2.142877018163878e+00	 3.785720989899839e+01	 1.032014901767291e+01
0	 2.142877018163877e+00	 3.857146279369101e+01	 1.033457925410612e+01
0	 2.142877018163878e+00	 3.928571602169432e+01	 1.033038026525847e+01
0	 2.142877018163878e+00	 3.999996966633628e+01	 1.030946648231536e+01
0	 2.142877018163878e+00	 4.071422381094482e+01	 1.027375234668511e+01
0	 2.142877018163879e+00	 4.142847853884784e+01	 1.022515230999887e+01
0	 2.142877018163878e+00	 4.214273393337328e+01	 1.016558083411059e+01
0	 2.142877018163878e+00	 4.285699007784906e+01	 1.009695239109694e+01
0	 2.857176635411265e+00	 3.571445238150556e+01	 1.003199715519808e+01
0	 2.857176635411265e+00	 3.642870477623360e+01	 1.014372585514341e+01
0	 2.857176635411264e+00	 3.714295725428858e+01	 1.023615722863138e+01
0	 2.857176635411264e+00	 3.785720989899839e+01	 1.030814796420023e+01
0	 2.857176635411264e+00	 3.857146279369100e+01	 1.035855476793231e+01
0	 2.857176635411265e+00	 3.928571602169433e+01	 1.038623436345406e+01
0	 2.857176635411265e+00	 3.999996966633628e+01	 1.039004349193597e+01
0	 2.857176635411264e+00	 4.071422381094482e+01	 1.036883891209250e+01
0	 2.857176635411264e+00	 4.142847853884783e+01	 1.032147740018202e+01
0	 2.857176635411265e+00	 4.214273393337328e+01	 1.024681575000660e+01
0	 2.857176635411264e+00	 4.285699007784908e+01	 1.014371077291187e+01
0	 3.571478919343873e+00	 3.571445238150555e+01	 9.979496836683509e+00
0	 3.571478919343872e+00	 3.642870477623359e+01	 1.008922297367486e+01
0	 3.571478919343873e+00	 3.714295725428858e+01	 1.018817521122759e+01
0	 3.571478919343872e+00	 3.785720989899839e+01	 1.027285053160301e+01
0	 3.571478919343873e+00	 3.857146279369100e+01	 1.033974593700953e+01
0	 3.571478919343872e+00	 3.928571602169433e+01	 1.038535844960264e+01
0	 3.571478919343872e+00	 3.999996966633629e+01	 1.040618511148485e+01
0	 3.571478919343872e+00	 4.071422381094479e+01	 1.039872298470562e+01
0	 3.571478919343873e+00	 4.142847853884784e+01	 1.035946915126119e+01
0	 3.571478919343873e+00	 4.214273393337328e+01	 1.028492071309448e+01
0	 3.571478919343873e+00	 4.285699007784908e+01	 1.017157479209482e+01
0	 4.285783286615009e+00	 3.571445238150556e+01	 9.977251200601266e+00
0	 4.285783286615008e+00	 3.642870477623359e+01	 1.006138832875153e+01
0	 4.285783286615007e+00	 3.714295725428858e+01	 1.014516243637073e+01
0	 4.285783286615009e+00	 3.785720989899840e+01	 1.022340879084756e+01
0	 4.285783286615009e+00	 3.857146279369101e+01	 1.029096267809527e+01
0	 4.285783286615009e+00	 3.928571602169433e+01	 1.034265940255169e+01
0	 4.285783286615008e+00	 3.999996966633629e+01	 1.037333428717912e+01
0	 4.285783286615009e+00	 4.071422381094481e+01	 1.037782267346424e+01
0	 4.285783286615009e+00	 4.142847853884784e+01	 1.035095992141804e+01
0	 4.285783286615009e+00	 4.214273393337329e+01	 1.028758140957560e+01
0	 4.285783286615008e+00	 4.285699007784908e+01	 1.018252253499599e+01
0	 5.000089153877975e+00	 3.571445238150555e+01	 1.001407372244111e+01
0	 5.000089153877975e+00	 3.642870477623359e+01	 1.005737583582378e+01
0	 5.000089153877975e+00	 3.714295725428857e+01	 1.011105239785237e+01
0	 5.000089153877975e+00	 3.785720989899840e+01	 1.016897494157058e+01
0	 5.000089153877976e+00	 3.857146279369100e+01	 1.022501501439121e+01
0	 5.000089153877976e+00	 3.928571602169433e+01	 1.027304417809617e+01
0	 5.000089153877977e+00	 3.999996966633629e+01	 1.030693400883642e+01
0	 5.000089153877975e+00	 4.071422381094481e+01	 1.032055609713189e+01
0	 5.000089153877976e+00	 4.142847853884784e+01	 1.030778204787141e+01
0	 5.000089153877975e+00	 4.214273393337327e+01	 1.026248348031257e+01
0	 5.000089153877976e+00	 4.285699007784908e+01	 1.017853202808158e+01
0	 5.714395937786081e+00	 3.571445238150557e+01	 1.007877799521240e+01
0	 5.714395937786083e+00	 3.642870477623359e+01	 1.007433954796762e+01
0	 5.714395937786080e+00	 3.714295725428857e+01	 1.008977872966524e+01
0	 5.714395937786082e+00	 3.785720989899841e+01	 1.011870131207492e+01
0	 5.714395937786081e+00	 3.857146279369100e+01	 1.015471307553971e+01
0	 5.714395937786080e+00	 3.928571602169432e+01	 1.019141980897605e+01
0	 5.714395937786080e+00	 3.999996966633628e+01	 1.022242730987367e+01
0	 5.714395937786082e+00	 4.071422381094482e+01	 1.024134138429564e+01
0	 5.714395937786080e+00	 4.142847853884783e+01	 1.024176784687821e+01
0	 5.714395937786081e+00	 4.214273393337327e+01	 1.021731252083086e+01
0	 5.714395937786082e+00	 4.285699007784908e+01	 1.016158123793604e+01
0	 6.428703054992629e+00	 3.571445238150555e+01	 1.016017772944146e+01
0	 6.428703054992629e+00	 3.642870477623360e+01	 1.010943365588178e+01
0	 6.428703054992628e+00	 3.714295725428856e+01	 1.008527520600016e+01
0	 6.428703054992631e+00	 3.785720989899841e+01	 1.008174035932671e+01
0	 6.428703054992630e+00	 3.857146279369101e+01	 1.009286709762155e+01
0	 6.428703054992627e+00	 3.928571602169432e+01	 1.011269340487470e+01
0	 6.428703054992628e+00	 3.999996966633628e+01	 1.013525726730622e+01
0	 6.428703054992629e+00	 4.071422381094480e+01	 1.015459667336605e+01
0	 6.428703054992630e+00	 4.142847853884783e+01	 1.016474961373407e+01
0	 6.428703054992630e+00	 4.214273393337327e+01	 1.015975408132004e+01
0	 6.428703054992629e+00	 4.285699007784908e+01	 1.013364807126358e+01
0	 7.143009922150928e+00	 3.571445238150556e+01	 1.024708675317055e+01
0	 7.143009922150929e+00	 3.642870477623360e+01	 1.015981248788637e+01
0	 7.143009922150926e+00	 3.714295725428856e+01	 1.010147574124475e+01
0	 7.143009922150927e+00	 3.785720989899839e+01	 1.006724466895423e+01
0	 7.143009922150927e+00	 3.857146279369102e+01	 1.005228742315488e+01
0	 7.143009922150926e+00	 3.928571602169433e+01	 1.005177215241828e+01
0	 7.143009922150926e+00	 3.999996966633628e+01	 1.006086700174754e+01
0	 7.143009922150926e+00	 4.071422381094481e+01	 1.007474011257728e+01
0	 7.143009922150927e+00	 4.142847853884783e+01	 1.008855962277365e+01
0	 7.143009922150926e+00	 4.214273393337328e+01	 1.009749366663442e+01
0	 7.143009922150927e+00	 4.285699007784908e+01	 1.009671037488887e+01
0	 0.000000000000000e+00	 4.285699007784908e+01	 9.823529308031542e+00
0	 0.000000000000000e+00	 4.357129694500737e+01	 1.010477000036703e+01
0	 0.000000000000000e+00	 4.428560406221392e+01	 1.033515003622509e+01
0	 0.000000000000000e+00	 4.499991084612202e+01	 1.050022333426860e+01
0	 0.000000000000000e+00	 4.571421671338500e+01	 1.058554334244120e+01
0	 0.000000000000000e+00	 4.642852108065614e+01	 1.057666303796554e+01
0	 0.000000000000000e+00	 4.714282336458874e+01	 1.045913492733565e+01
0	 0.000000000000000e+00	 4.785712298183613e+01	 1.021851104630384e+01
0	 0.000000000000000e+00	 4.857141934905160e+01	 9.840342959861410e+00
0	 0.000000000000000e+00	 4.928571188288846e+01	 9.310181762213967e+00
0	 0.000000000000000e+00	 5.000000000000000e+01	 8.613578076750830e+00
0	 7.142881171115514e-01	 4.285699007784908e+01	 9.938839894732080e+00
0	 7.142881171115515e-01	 4.357129694500738e+01	 1.006455648783801e+01
0	 7.142881171115514e-01	 4.428560406221393e+01	 1.017364935538594e+01
0	 7.142881171115513e-01	 4.499991084612201e+01	 1.025635350863123e+01
0	 7.142881171115512e-01	 4.571421671338499e+01	 1.030290373142576e+01
0	 7.142881171115517e-01	 4.642852108065615e+01	 1.030353458021711e+01
0	 7.142881171115510e-01	 4.714282336458873e+01	 1.024848038404497e+01
0	 7.142881171115514e-01	 4.785712298183613e+01	 1.012797524453475e+01
0	 7.142881171115514e-01	 4.857141934905159e+01	 9.932253035888312e+00
0	 7.142881171115514e-01	 4.928571188288846e+01	 9.651547404872101e+00
0	 7.142881171115513e-01	 5.000000000000001e+01	 9.276091770802379e+00
0	 1.428580650948409e+00	 4.285699007784908e+01	 1.002932150041294e+01
0	 1.428580650948410e+00	 4.357129694500738e+01	 1.004257415538124e+01
0	 1.428580650948409e+00	 4.428560406221393e+01	 1.006224142627308e+01
0	 1.428580650948409e+00	 4.499991084612203e+01	 1.008261665806612e+01
0	 1.428580650948410e+00	 4.571421671338501e+01	 1.009799314657610e+01
0	 1.428580650948409e+00	 4.642852108065613e+01	 1.010266413845668e+01
0	 1.428580650948409e+00	 4.714282336458876e+01	 1.009092283119871e+01
0	 1.428580650948409e+00	 4.785712298183613e+01	 1.005706237312899e+01
0	 1.428580650948410e+00	 4.857141934905160e+01	 9.995375863408258e+00
0	 1.428580650948409e+00	 4.928571188288845e+01	 9.900156352028736e+00
0	 1.428580650948409e+00	 4.999999999999999e+01	 9.765696839810996e+00
0	 2.142877018163878e+00	 4.285699007784906e+01	 1.009695239109694e+01
0	 2.142877018163878e+00	 4.357129694500737e+01	 1.003516165424502e+01
0	 2.142877018163880e+00	 4.428560406221393e+01	 9.993323048120899e+00
0	 2.142877018163878e+00	 4.499991084612202e+01	 9.969165503927819e+00
0	 2.142877018163878e+00	 4.571421671338499e+01	 9.960418025193583e+00
0	 2.142877018163878e+00	 4.642852108065613e+01	 9.964809687770986e+00
0	 2.142877018163879e+00	 4.714282336458875e+01	 9.980069639839098e+00
0	 2.142877018163878e+00	 4.785712298183613e+01	 1.000392710190541e+01
0	 2.142877018163878e+00	 4.857141934905159e+01	 1.003411136680890e+01
0	 2.142877018163879e+00	 4.928571188288848e+01	 1.006835179972400e+01
0	 2.142877018163878e+00	 4.999999999999999e+01	 1.010437783816531e+01
0	 2.857176635411264e+00	 4.285699007784908e+01	 1.014371077291186e+01
0	 2.857176635411265e+00	 4.357129694500736e+01	 1.003865757340981e+01
0	 2.857176635411265e+00	 4.428560406221392e+01	 9.959290965726263e+00
0	 2.857176635411264e+00	 4.499991084612205e+01	 9.906152728114439e+00
0	 2.857176635411265e+00	 4.571421671338501e+01	 9.879784784202950e+00
0	 2.857176635411264e+00	 4.642852108065615e+01	 9.880729202996537e+00
0	 2.857176635411265e+00	 4.714282336458874e+01	 9.909528198878638e+00
0	 2.857176635411265e+00	 4.785712298183613e+01	 9.966724131615614e+00
0	 2.857176635411265e+00	 4.857141934905161e+01	 1.005285950636289e+01
0	 2.857176635411264e+00	 4.928571188288846e+01	 1.016847697367274e+01
0	 2.857176635411265e+00	 5.000000000000000e+01	 1.031411932950394e+01
0	 3.571478919343873e+00	 4.285699007784908e+01	 1.017157479209482e+01
0	 3.571478919343873e+00	 4.357129694500737e+01	 1.004940043959275e+01
0	 3.571478919343872e+00	 4.428560406221392e+01	 9.952541869452464e+00
0	 3.571478919343873e+00	 4.499991084612203e+01	 9.883730973070655e+00
0	 3.571478919343873e+00	 4.571421671338500e+01	 9.845699820153962e+00
0	 3.571478919343873e+00	 4.642852108065613e+01	 9.841180658719644e+00
0	 3.571478919343873e+00	 4.714282336458874e+01	 9.872905915098800e+00
0	 3.571478919343873e+00	 4.785712298183614e+01	 9.943608193941749e+00
0	 3.571478919343873e+00	 4.857141934905161e+01	 1.005602027822535e+01
0	 3.571478919343874e+00	 4.928571188288846e+01	 1.021287512926271e+01
0	 3.571478919343873e+00	 5.000000000000000e+01	 1.041690588671513e+01
0	 4.285783286615008e+00	 4.285699007784908e+01	 1.018252253499599e+01
0	 4.285783286615007e+00	 4.357129694500736e+01	 1.006372871725159e+01
0	 4.285783286615008e+00	 4.428560406221392e+01	 9.965472395232572e+00
0	 4.285783286615008e+00	 4.499991084612202e+01	 9.892052841790193e+00
0	 4.285783286615009e+00	 4.571421671338499e+01	 9.847769509222754e+00
0	 4.285783286615009e+00	 4.642852108065614e+01	 9.836922029276575e+00
0	 4.285783286615009e+00	 4.714282336458876e+01	 9.863810213149229e+00
0	 4.285783286615008e+00	 4.785712298183612e+01	 9.932734051494913e+00
0	 4.285783286615009e+00	 4.857141934905160e+01	 1.004799371443201e+01
0	 4.285783286615008e+00	 4.928571188288846e+01	 1.021388955155299e+01
0	 4.285783286615008e+00	 5.000000000000000e+01	 1.043472209193623e+01
0	 5.000089153877976e+00	 4.285699007784908e+01	 1.017853202808158e+01
0	 5.000089153877976e+00	 4.357129694500737e+01	 1.007798080858768e+01
0	 5.000089153877976e+00	 4.428560406221393e+01	 9.990479124572241e+00
0	 5.000089153877974e+00	 4.499991084612203e+01	 9.921270897817713e+00
0	 5.000089153877974e+00	 4.571421671338500e+01	 9.875600207212825e+00
0	 5.000089153877977e+00	 4.642852108065615e+01	 9.858711288753724e+00
0	 5.000089153877976e+00	 4.714282336458875e+01	 9.875848535546854e+00
0	 5.000089153877974e+00	 4.785712298183613e+01	 9.932256497813725e+00
0	 5.000089153877975e+00	 4.857141934905160e+01	 1.003317988289771e+01
0	 5.000089153877977e+00	 4.928571188288846e+01	 1.018386355527274e+01
0	 5.000089153877976e+00	 5.000000000000000e+01	 1.038955253655389e+01
0	 5.714395937786082e+00	 4.285699007784908e+01	 1.016158123793604e+01
0	 5.714395937786081e+00	 4.357129694500737e+01	 1.008849505354826e+01
0	 5.714395937786082e+00	 4.428560406221392e+01	 1.001995858455161e+01
0	 5.714395937786083e+00	 4.499991084612203e+01	 9.961537665250347e+00
0	 5.714395937786080e+00	 4.571421671338499e+01	 9.918798249555904e+00
0	 5.714395937786080e+00	 4.642852108065614e+01	 9.897306410987667e+00
0	 5.714395937786080e+00	 4.714282336458874e+01	 9.902628342675493e+00
0	 5.714395937786080e+00	 4.785712298183615e+01	 9.940330357363429e+00
0	 5.714395937786082e+00	 4.857141934905160e+01	 1.001597888741507e+01
0	 5.714395937786081e+00	 4.928571188288847e+01	 1.013514048482025e+01
0	 5.714395937786080e+00	 4.999999999999999e+01	 1.030338182120339e+01
0	 6.428703054992629e+00	 4.285699007784908e+01	 1.013364807126358e+01
0	 6.428703054992631e+00	 4.357129694500737e+01	 1.009160972982809e+01
0	 6.428703054992630e+00	 4.428560406221391e+01	 1.004630724782663e+01
0	 6.428703054992629e+00	 4.499991084612203e+01	 1.000300562873875e+01
0	 6.428703054992631e+00	 4.571421671338499e+01	 9.966969951312493e+00
0	 6.428703054992629e+00	 4.642852108065614e+01	 9.943465369565287e+00
0	 6.428703054992628e+00	 4.714282336458874e+01	 9.937757112785512e+00
0	 6.428703054992630e+00	 4.785712298183614e+01	 9.955110485535288e+00
0	 6.428703054992630e+00	 4.857141934905160e+01	 1.000079086765396e+01
0	 6.428703054992631e+00	 4.928571188288846e+01	 1.008006371426250e+01
0	 6.428703054992629e+00	 5.000000000000000e+01	 1.019819455576907e+01
0	 7.143009922150927e+00	 4.285699007784908e+01	 1.009671037488887e+01
0	 7.143009922150927e+00	 4.357129694500738e+01	 1.008366305287014e+01
0	 7.143009922150926e+00	 4.428560406221391e+01	 1.006192153262992e+01
0	 7.143009922150925e+00	 4.499991084612201e+01	 1.003582723348754e+01
0	 7.143009922150927e+00	 4.571421671338501e+01	 1.000972160717225e+01
0	 7.143009922150927e+00	 4.642852108065613e+01	 9.987946137823849e+00
0	 7.143009922150925e+00	 4.714282336458874e+01	 9.974842341993762e+00
0	 7.143009922150926e+00	 4.785712298183612e+01	 9.974751768646453e+00
0	 7.143009922150928e+00	 4.857141934905161e+01	 9.992015999161364e+00
0	 7.143009922150927e+00	 4.928571188288848e+01	 1.003097664733513e+01
0	 7.143009922150927e+00	 5.000000000000001e+01	 1.009597535938413e+01
0	 7.143009922150927e+00	 0.000000000000000e+00	-6.175811613006175e+01
0	 7.143009922150926e+00	 7.142881171115513e-01	-3.903594465744349e+01
0	 7.143009922150926e+00	 1.428580650948409e+00	-1.960820451454427e+01
0	 7.143009922150927e+00	 2.142877018163878e+00	-3.412528231968085e+00
0	 7.143009922150926e+00	 2.857176635411264e+00	 9.613436611445479e+00
0	 7.143009922150926e+00	 3.571478919343873e+00	 1.953202738971991e+01
0	 7.143009922150926e+00	 4.285783286615008e+00	 2.640556643065604e+01
0	 7.143009922150927e+00	 5.000089153877976e+00	 3.029636101656205e+01
0	 7.143009922150926e+00	 5.714395937786080e+00	 3.126670338479895e+01
0	 7.143009922150927e+00	 6.428703054992628e+00	 2.937887072814201e+01
0	 7.143009922150927e+00	 7.143009922150927e+00	 2.469512519495767e+01
0	 7.857266066626719e+00	 0.000000000000000e+00	-5.763511144730816e+01
0	 7.857266066626720e+00	 7.142881171115513e-01	-3.720078121909423e+01
0	 7.857266066626718e+00	 1.428580650948409e+00	-1.940363852012996e+01
0	 7.857266066626721e+00	 2.142877018163879e+00	-4.270744384642860e+00
0	 7.857266066626720e+00	 2.857176635411265e+00	 8.170825392187631e+00
0	 7.857266066626721e+00	 3.571478919343873e+00	 1.789398025530375e+01
0	 7.857266066626718e+00	 4.285783286615009e+00	 2.487161489066218e+01
0	 7.857266066626718e+00	 5.000089153877975e+00	 2.907660922594593e+01
0	 7.857266066626718e+00	 5.714395937786079e+00	 3.048182843109536e+01
0	 7.857266066626719e+00	 6.428703054992632e+00	 2.906012291865867e+01
0	 7.857266066626718e+00	 7.143009922150926e+00	 2.478432834396121e+01
0	 8.571521461152161e+00	 0.000000000000000e+00	-4.982503096594664e+01
0	 8.571521461152166e+00	 7.142881171115514e-01	-3.264685532239958e+01
0	 8.571521461152162e+00	 1.428580650948409e+00	-1.738432828368204e+01
0	 8.571521461152162e+00	 2.142877018163878e+00	-4.137199507921935e+00
0	 8.571521461152162e+00	 2.857176635411264e+00	 6.994767768412958e+00
0	 8.571521461152164e+00	 3.571478919343873e+00	 1.591179673149940e+01
0	 8.571521461152164e+00	 4.285783286615009e+00	 2.251409699097693e+01
0	 8.571521461152159e+00	 5.000089153877974e+00	 2.670186458059969e+01
0	 8.571521461152161e+00	 5.714395937786080e+00	 2.837528195872189e+01
0	 8.571521461152164e+00	 6.428703054992630e+00	 2.743451800861709e+01
0	 8.571521461152162e+00	 7.143009922150928e+00	 2.377972803863100e+01
0	 9.285776189055182e+00	 0.000000000000000e+00	-3.923608223349846e+01
0	 9.285776189055186e+00	 7.142881171115514e-01	-2.599907559887078e+01
0	 9.285776189055182e+00	 1.428580650948410e+00	-1.392983630163035e+01
0	 9.285776189055181e+00	 2.142877018163878e+00	-3.184061410208180e+00
0	 9.285776189055186e+00	 2.857176635411265e+00	 6.082540320577844e+00
0	 9.285776189055184e+00	 3.571478919343873e+00	 1.371424845036785e+01
0	 9.285776189055184e+00	 4.285783286615009e+00	 1.955533085396161e+01
0	 9.285776189055182e+00	 5.000089153877974e+00	 2.345004372187713e+01
0	 9.285776189055182e+00	 5.714395937786081e+00	 2.524263156076590e+01
0	 9.285776189055186e+00	 6.428703054992631e+00	 2.477732719368517e+01
0	 9.285776189055184e+00	 7.143009922150926e+00	 2.189835176022715e+01
0	 1.000003033366371e+01	 0.000000000000000e+00	-2.677647241868002e+01
0	 1.000003033366371e+01	 7.142881171115514e-01	-1.788235056470579e+01
0	 1.000003033366371e+01	 1.428580650948409e+00	-9.419725135703230e+00
0	 1.000003033366371e+01	 2.142877018163878e+00	-1.583498074656840e+00
0	 1.000003033366371e+01	 2.857176635411265e+00	 5.431419404369016e+00
0	 1.000003033366371e+01	 3.571478919343873e+00	 1.143010681689800e+01
0	 1.000003033366371e+01	 4.285783286615008e+00	 1.621763440859619e+01
0	 1.000003033366371e+01	 5.000089153877975e+00	 1.959906315571278e+01
0	 1.000003033366371e+01	 5.714395937786081e+00	 2.137944476540739e+01
0	 1.000003033366371e+01	 6.428703054992629e+00	 2.136382167596366e+01
0	 1.000003033366371e+01	 7.143009922150926e+00	 1.935722705688940e+01
0	 1.071428397830567e+01	 0.000000000000000e+00	-1.335440831139954e+01
0	 1.071428397830567e+01	 7.142881171115514e-01	-8.921588620788812e+00
0	 1.071428397830567e+01	 1.428580650948409e+00	-4.233557412929009e+00
0	 1.071428397830567e+01	 2.142877018163879e+00	 4.923223408221729e-01
0	 1.071428397830567e+01	 2.857176635411265e+00	 5.038681150700846e+00
0	 1.071428397830567e+01	 3.571478919343873e+00	 9.188143009004001e+00
0	 1.071428397830567e+01	 4.285783286615008e+00	 1.272332539047689e+01
0	 1.071428397830567e+01	 5.000089153877975e+00	 1.542683925262036e+01
0	 1.071428397830567e+01	 5.714395937786082e+00	 1.708128903591845e+01
0	 1.071428397830567e+01	 6.428703054992630e+00	 1.746927266398627e+01
0	 1.071428397830567e+01	 7.143009922150928e+00	 1.637338154363777e+01
0	 1.142853720630899e+01	 0.000000000000000e+00	 1.219036772453785e-01
0	 1.142853720630899e+01	 7.142881171115514e-01	 2.583019473101165e-01
0	 1.142853720630899e+01	 1.428580650948409e+00	 1.249104174363066e+00
0	 1.142853720630899e+01	 2.142877018163878e+00	 2.871231503562325e+00
0	 1.142853720630899e+01	 2.857176635411265e+00	 4.901601465712996e+00
0	 1.142853720630899e+01	 3.571478919343873e+00	 7.117127977522956e+00
0	 1.142853720630899e+01	 4.285783286615008e+00	 9.294721341814476e+00
0	 1.142853720630899e+01	 5.000089153877976e+00	 1.121128824769146e+01
0	 1.142853720630899e+01	 5.714395937786080e+00	 1.264373177066257e+01
0	 1.142853720630899e+01	 6.428703054992629e+00	 1.336895137271983e+01
0	 1.142853720630899e+01	 7.143009922150926e+00	 1.316384290237331e+01
0	 1.214279010100160e+01	 0.000000000000000e+00	 1.274425751496958e+01
0	 1.214279010100160e+01	 7.142881171115514e-01	 9.032412969335150e+00
0	 1.214279010100159e+01	 1.428580650948409e+00	 6.648696868541602e+00
0	 1.214279010100159e+01	 2.142877018163878e+00	 5.381060906138674e+00
0	 1.214279010100160e+01	 2.857176635411265e+00	 5.017456030768501e+00
0	 1.214279010100160e+01	 3.571478919343873e+00	 5.345832446213084e+00
0	 1.214279010100160e+01	 4.285783286615009e+00	 6.154139611432632e+00
0	 1.214279010100160e+01	 5.000089153877975e+00	 7.230326240594674e+00
0	 1.214279010100160e+01	 5.714395937786080e+00	 8.362340303094134e+00
0	 1.214279010100160e+01	 6.428703054992629e+00	 9.338129023564317e+00
0	 1.214279010100160e+01	 7.143009922150926e+00	 9.945638881878653e+00
0	 1.285704274571142e+01	 0.000000000000000e+00	 2.360444754830164e+01
0	 1.285704274571142e+01	 7.142881171115512e-01	 1.677583639034460e+01
0	 1.285704274571142e+01	 1.428580650948410e+00	 1.158565784667230e+01
0	 1.285704274571142e+01	 2.142877018163878e+00	 7.849641866366553e+00
0	 1.285704274571142e+01	 2.857176635411265e+00	 5.383520302452176e+00
0	 1.285704274571143e+01	 3.571478919343873e+00	 4.003026911752282e+00
0	 1.285704274571142e+01	 4.285783286615008e+00	 3.523897354766844e+00
0	 1.285704274571142e+01	 5.000089153877977e+00	 3.761869195574581e+00
0	 1.285704274571142e+01	 5.714395937786080e+00	 4.532681901758208e+00
0	 1.285704274571142e+01	 6.428703054992629e+00	 5.652076844352950e+00
0	 1.285704274571143e+01	 7.143009922150927e+00	 6.935797297818415e+00
0	 1.357129522376639e+01	 0.000000000000000e+00	 3.179426850258444e+01
0	 1.357129522376640e+01	 7.142881171115514e-01	 2.286366427071072e+01
0	 1.357129522376639e+01	 1.428580650948409e+00	 1.568042422051705e+01
0	 1.357129522376640e+01	 2.142877018163878e+00	 1.010480552730046e+01
0	 1.357129522376639e+01	 2.857176635411264e+00	 5.997069512569517e+00
0	 1.357129522376639e+01	 3.571478919343872e+00	 3.217481643737014e+00
0	 1.357129522376640e+01	 4.285783286615009e+00	 1.626311533863460e+00
0	 1.357129522376640e+01	 5.000089153877975e+00	 1.083832941451331e+00
0	 1.357129522376639e+01	 5.714395937786080e+00	 1.450323770290136e+00
0	 1.357129522376639e+01	 6.428703054992629e+00	 2.586066069352246e+00
0	 1.357129522376639e+01	 7.143009922150926e+00	 4.351346032739523e+00
0	 1.428554761849444e+01	 0.000000000000000e+00	 3.640551548197486e+01
0	 1.428554761849444e+01	 7.142881171115513e-01	 2.667098878611911e+01
0	 1.428554761849444e+01	 1.428580650948410e+00	 1.855343303653328e+01
0	 1.428554761849444e+01	 2.142877018163878e+00	 1.197438285723329e+01
0	 1.428554761849445e+01	 2.857176635411265e+00	 6.855378668145903e+00
0	 1.428554761849444e+01	 3.571478919343873e+00	 3.117966684681696e+00
0	 1.428554761849444e+01	 4.285783286615009e+00	 6.836989173792598e-01
0	 1.428554761849444e+01	 5.000089153877974e+00	-5.258668283797583e-01
0	 1.428554761849444e+01	 5.714395937786081e+00	-5.891669525845088e-01
0	 1.428554761849444e+01	 6.428703054992629e+00	 4.153679392620916e-01
0	 1.428554761849444e+01	 7.143009922150925e+00	 2.409313036071445e+00
0	 7.143009922150927e+00	 7.143009922150927e+00	 2.469512519495767e+01
0	 7.143009922150926e+00	 7.857266066626718e+00	 1.915336641511851e+01
0	 7.143009922150929e+00	 8.571521461152162e+00	 1.461567514051666e+01
0	 7.143009922150926e+00	 9.285776189055184e+00	 1.103184631689694e+01
0	 7.143009922150927e+00	 1.000003033366371e+01	 8.351674387656642e+00
0	 7.143009922150926e+00	 1.071428397830567e+01	 6.524953293839678e+00
0	 7.143009922150925e+00	 1.142853720630899e+01	 5.501476474131630e+00
0	 7.143009922150927e+00	 1.214279010100160e+01	 5.231036864855588e+00
0	 7.143009922150928e+00	 1.285704274571143e+01	 5.663426899968945e+00
0	 7.143009922150926e+00	 1.357129522376639e+01	 6.748438511061031e+00
0	 7.143009922150930e+00	 1.428554761849445e+01	 8.435863127351661e+00
0	 7.857266066626718e+00	 7.143009922150926e+00	 2.478432834396121e+01
0	 7.857266066626719e+00	 7.857266066626718e+00	 1.950656820422920e+01
0	 7.857266066626720e+00	 8.571521461152162e+00	 1.508210447113321e+01
0	 7.857266066626720e+00	 9.285776189055186e+00	 1.148966852760586e+01
0	 7.857266066626719e+00	 1.000003033366371e+01	 8.707991235700547e+00
0	 7.857266066626719e+00	 1.071428397830567e+01	 6.715802936585376e+00
0	 7.857266066626720e+00	 1.142853720630899e+01	 5.491833450538015e+00
0	 7.857266066626721e+00	 1.214279010100160e+01	 5.014812076941468e+00
0	 7.857266066626718e+00	 1.285704274571142e+01	 5.263467594280793e+00
0	 7.857266066626720e+00	 1.357129522376639e+01	 6.216528260140668e+00
0	 7.857266066626718e+00	 1.428554761849444e+01	 7.852721811203922e+00
0	 8.571521461152162e+00	 7.143009922150928e+00	 2.377972803863100e+01
0	 8.571521461152162e+00	 7.857266066626720e+00	 1.907212988496105e+01
0	 8.571521461152162e+00	 8.571521461152162e+00	 1.504093327091468e+01
0	 8.571521461152161e+00	 9.285776189055182e+00	 1.168933022536287e+01
0	 8.571521461152162e+00	 1.000003033366371e+01	 9.020512275530697e+00
0	 8.571521461152164e+00	 1.071428397830567e+01	 7.037670446991538e+00
0	 8.571521461152164e+00	 1.142853720630899e+01	 5.743995263662191e+00
0	 8.571521461152159e+00	 1.214279010100159e+01	 5.142676747798823e+00
0	 8.571521461152162e+00	 1.285704274571142e+01	 5.236904419993817e+00
0	 8.571521461152161e+00	 1.357129522376639e+01	 6.029867299173494e+00
0	 8.571521461152162e+00	 1.428554761849444e+01	 7.524753902596745e+00
0	 9.285776189055184e+00	 7.143009922150926e+00	 2.189835176022715e+01
0	 9.285776189055184e+00	 7.857266066626718e+00	 1.799503489976105e+01
0	 9.285776189055181e+00	 8.571521461152162e+00	 1.457543689690971e+01
0	 9.285776189055184e+00	 9.285776189055182e+00	 1.166273466570314e+01
0	 9.285776189055184e+00	 1.000003033366371e+01	 9.280104668289097e+00
0	 9.285776189055184e+00	 1.071428397830567e+01	 7.450722914927984e+00
0	 9.285776189055184e+00	 1.142853720630899e+01	 6.197764963988415e+00
0	 9.285776189055184e+00	 1.214279010100160e+01	 5.544405921943635e+00
0	 9.285776189055182e+00	 1.285704274571142e+01	 5.513820443368696e+00
0	 9.285776189055182e+00	 1.357129522376639e+01	 6.129182730938471e+00
0	 9.285776189055182e+00	 1.428554761849444e+01	 7.413666535426387e+00
0	 1.000003033366371e+01	 7.143009922150926e+00	 1.935722705688940e+01
0	 1.000003033366371e+01	 7.857266066626718e+00	 1.642026679826112e+01
0	 1.000003033366371e+01	 8.571521461152162e+00	 1.376889083417783e+01
0	 1.000003033366371e+01	 9.285776189055182e+00	 1.144178523665220e+01
0	 1.000003033366371e+01	 1.000003033366371e+01	 9.477635698873918e+00
0	 1.000003033366371e+01	 1.071428397830567e+01	 7.915127535205421e+00
0	 1.000003033366371e+01	 1.142853720630899e+01	 6.792945681178247e+00
0	 1.000003033366371e+01	 1.214279010100160e+01	 6.149774693490058e+00
0	 1.000003033366371e+01	 1.285704274571143e+01	 6.024298750002321e+00
0	 1.000003033366371e+01	 1.357129522376639e+01	 6.455201649738654e+00
0	 1.000003033366371e+01	 1.428554761849444e+01	 7.481166812883848e+00
0	 1.071428397830567e+01	 7.143009922150928e+00	 1.637338154363777e+01
0	 1.071428397830567e+01	 7.857266066626718e+00	 1.449280923727916e+01
0	 1.071428397830567e+01	 8.571521461152164e+00	 1.270457069579085e+01
0	 1.071428397830567e+01	 9.285776189055184e+00	 1.105838545872750e+01
0	 1.071428397830567e+01	 1.000003033366371e+01	 9.603972775940882e+00
0	 1.071428397830567e+01	 1.071428397830567e+01	 8.391051607576619e+00
0	 1.071428397830567e+01	 1.142853720630899e+01	 7.469340624071442e+00
0	 1.071428397830567e+01	 1.214279010100160e+01	 6.888558206150981e+00
0	 1.071428397830567e+01	 1.285704274571142e+01	 6.698422444827999e+00
0	 1.071428397830567e+01	 1.357129522376639e+01	 6.948651141401201e+00
0	 1.071428397830567e+01	 1.428554761849444e+01	 7.688961807454524e+00
0	 1.142853720630899e+01	 7.143009922150926e+00	 1.316384290237331e+01
0	 1.142853720630899e+01	 7.857266066626721e+00	 1.235764598082025e+01
0	 1.142853720630899e+01	 8.571521461152164e+00	 1.146575222283418e+01
0	 1.142853720630899e+01	 9.285776189055182e+00	 1.054443898493967e+01
0	 1.142853720630899e+01	 1.000003033366371e+01	 9.649983431904470e+00
0	 1.142853720630899e+01	 1.071428397830567e+01	 8.838662536737431e+00
0	 1.142853720630899e+01	 1.142853720630899e+01	 8.166753080686741e+00
0	 1.142853720630899e+01	 1.214279010100160e+01	 7.690531653238498e+00
0	 1.142853720630899e+01	 1.285704274571143e+01	 7.466274652115646e+00
0	 1.142853720630899e+01	 1.357129522376639e+01	 7.550258283277214e+00
0	 1.142853720630899e+01	 1.428554761849444e+01	 7.998758560917898e+00
0	 1.214279010100160e+01	 7.143009922150926e+00	 9.945638881878653e+00
0	 1.214279010100160e+01	 7.857266066626720e+00	 1.015976090007740e+01
0	 1.214279010100160e+01	 8.571521461152164e+00	 1.013571128440781e+01
0	 1.214279010100160e+01	 9.285776189055186e+00	 9.931849600793566e+00
0	 1.214279010100160e+01	 1.000003033366371e+01	 9.606535322938891e+00
0	 1.214279010100160e+01	 1.071428397830567e+01	 9.218127832327610e+00
0	 1.214279010100160e+01	 1.142853720630899e+01	 8.824986418222421e+00
0	 1.214279010100160e+01	 1.214279010100160e+01	 8.485470277664275e+00
0	 1.214279010100160e+01	 1.285704274571143e+01	 8.257938515471938e+00
0	 1.214279010100160e+01	 1.357129522376640e+01	 8.200750144241704e+00
0	 1.214279010100160e+01	 1.428554761849445e+01	 8.372264084347321e+00
0	 1.285704274571143e+01	 7.143009922150927e+00	 6.935797297818416e+00
0	 1.285704274571142e+01	 7.857266066626718e+00	 8.044137973432308e+00
0	 1.285704274571142e+01	 8.571521461152162e+00	 8.797723877627146e+00
0	 1.285704274571142e+01	 9.285776189055184e+00	 9.252521224289124e+00
0	 1.285704274571143e+01	 1.000003033366371e+01	 9.464496228978835e+00
0	 1.285704274571143e+01	 1.071428397830567e+01	 9.489615108931446e+00
0	 1.285704274571142e+01	 1.142853720630899e+01	 9.383844083056854e+00
0	 1.285704274571143e+01	 1.214279010100160e+01	 9.203149371939869e+00
0	 1.285704274571142e+01	 1.285704274571142e+01	 9.003497197840378e+00
0	 1.285704274571142e+01	 1.357129522376639e+01	 8.840853784693511e+00
0	 1.285704274571142e+01	 1.428554761849444e+01	 8.771185358109776e+00
0	 1.357129522376639e+01	 7.143009922150926e+00	 4.351346032739523e+00
0	 1.357129522376639e+01	 7.857266066626719e+00	 6.155761286455794e+00
0	 1.357129522376639e+01	 8.571521461152164e+00	 7.535066127623520e+00
0	 1.357129522376639e+01	 9.285776189055182e+00	 8.538357905921883e+00
0	 1.357129522376639e+01	 1.000003033366370e+01	 9.214734053720033e+00
0	 1.357129522376639e+01	 1.071428397830567e+01	 9.613292086078223e+00
0	 1.357129522376639e+01	 1.142853720630899e+01	 9.783129600748788e+00
0	 1.357129522376639e+01	 1.214279010100160e+01	 9.773344278176930e+00
0	 1.357129522376640e+01	 1.285704274571143e+01	 9.633033881501456e+00
0	 1.357129522376639e+01	 1.357129522376639e+01	 9.411296256555264e+00
0	 1.357129522376639e+01	 1.428554761849444e+01	 9.157229331865796e+00
0	 1.428554761849444e+01	 7.143009922150925e+00	 2.409313036071445e+00
0	 1.428554761849444e+01	 7.857266066626719e+00	 4.639615031908113e+00
0	 1.428554761849444e+01	 8.571521461152162e+00	 6.431014287544580e+00
0	 1.428554761849444e+01	 9.285776189055181e+00	 7.821263828683367e+00
0	 1.428554761849444e+01	 1.000003033366371e+01	 8.848116824619538e+00
0	 1.428554761849444e+01	 1.071428397830567e+01	 9.549326588242499e+00
0	 1.428554761849444e+01	 1.142853720630899e+01	 9.962646576037571e+00
0	 1.428554761849444e+01	 1.214279010100160e+01	 1.012583038808732e+01
0	 1.428554761849444e+01	 1.285704274571142e+01	 1.007663176807259e+01
0	 1.428554761849444e+01	 1.357129522376639e+01	 9.852804603273377e+00
0	 1.428554761849444e+01	 1.428554761849444e+01	 9.492102924569329e+00
0	 7.143009922150930e+00	 1.428554761849445e+01	 8.435863127351663e+00
0	 7.143009922150927e+00	 1.499984997172427e+01	 1.020589401694105e+01
0	 7.143009922150928e+00	 1.571415215828766e+01	 1.158922040582210e+01
0	 7.143009922150927e+00	 1.642845401151721e+01	 1.261179114238984e+01
0	 7.143009922150927e+00	 1.714275536474550e+01	 1.329955472903896e+01
0	 7.143009922150927e+00	 1.785705605130510e+01	 1.367845932216369e+01
0	 7.143009922150926e+00	 1.857135590452859e+01	 1.377445273215648e+01
0	 7.143009922150926e+00	 1.928565475774854e+01	 1.361348242340538e+01
0	 7.143009922150926e+00	 1.999995244429754e+01	 1.322149551429032e+01
0	 7.143009922150927e+00	 2.071424879750816e+01	 1.262443877717813e+01
0	 7.143009922150927e+00	 2.142854365071296e+01	 1.184825863841631e+01
0	 7.857266066626718e+00	 1.428554761849444e+01	 7.852721811203922e+00
0	 7.857266066626718e+00	 1.499984997172426e+01	 9.647977151359736e+00
0	 7.857266066626718e+00	 1.571415215828766e+01	 1.110140432017393e+01
0	 7.857266066626720e+00	 1.642845401151721e+01	 1.222691594127912e+01
0	 7.857266066626718e+00	 1.714275536474550e+01	 1.303842425551632e+01
0	 7.857266066626718e+00	 1.785705605130510e+01	 1.354984112093478e+01
0	 7.857266066626721e+00	 1.857135590452858e+01	 1.377507801279042e+01
0	 7.857266066626719e+00	 1.928565475774854e+01	 1.372804602354295e+01
0	 7.857266066626718e+00	 1.999995244429753e+01	 1.342265586285168e+01
0	 7.857266066626718e+00	 2.071424879750815e+01	 1.287281785757000e+01
0	 7.857266066626719e+00	 2.142854365071296e+01	 1.209244195173841e+01
0	 8.571521461152162e+00	 1.428554761849444e+01	 7.524753902596745e+00
0	 8.571521461152164e+00	 1.499984997172426e+01	 9.227918147816910e+00
0	 8.571521461152162e+00	 1.571415215828766e+01	 1.064575533628144e+01
0	 8.571521461152161e+00	 1.642845401151722e+01	 1.178190326432420e+01
0	 8.571521461152164e+00	 1.714275536474550e+01	 1.263999933993806e+01
0	 8.571521461152168e+00	 1.785705605130510e+01	 1.322368058277467e+01
0	 8.571521461152161e+00	 1.857135590452858e+01	 1.353658362414289e+01
0	 8.571521461152164e+00	 1.928565475774854e+01	 1.358234470700584e+01
0	 8.571521461152161e+00	 1.999995244429754e+01	 1.336459968597668e+01
0	 8.571521461152162e+00	 2.071424879750816e+01	 1.288698402731281e+01
0	 8.571521461152161e+00	 2.142854365071296e+01	 1.215313280890902e+01
0	 9.285776189055182e+00	 1.428554761849444e+01	 7.413666535426387e+00
0	 9.285776189055182e+00	 1.499984997172426e+01	 8.931638565187487e+00
0	 9.285776189055179e+00	 1.571415215828766e+01	 1.022853860266760e+01
0	 9.285776189055184e+00	 1.642845401151721e+01	 1.129949103337780e+01
0	 9.285776189055186e+00	 1.714275536474550e+01	 1.213961987476162e+01
0	 9.285776189055182e+00	 1.785705605130510e+01	 1.274404877619497e+01
0	 9.285776189055184e+00	 1.857135590452859e+01	 1.310790101898447e+01
0	 9.285776189055184e+00	 1.928565475774854e+01	 1.322629951636477e+01
0	 9.285776189055181e+00	 1.999995244429753e+01	 1.309436681349442e+01
0	 9.285776189055186e+00	 2.071424879750816e+01	 1.270722508745054e+01
0	 9.285776189055184e+00	 2.142854365071296e+01	 1.205999614722213e+01
0	 1.000003033366371e+01	 1.428554761849444e+01	 7.481166812883848e+00
0	 1.000003033366371e+01	 1.499984997172427e+01	 8.745059917398818e+00
0	 1.000003033366371e+01	 1.571415215828766e+01	 9.856019216149102e+00
0	 1.000003033366371e+01	 1.642845401151722e+01	 1.080241711807828e+01
0	 1.000003033366371e+01	 1.714275536474550e+01	 1.157262570473985e+01
0	 1.000003033366371e+01	 1.785705605130510e+01	 1.215501673029710e+01
0	 1.000003033366371e+01	 1.857135590452859e+01	 1.253796162152173e+01
0	 1.000003033366371e+01	 1.928565475774854e+01	 1.270983147779135e+01
0	 1.000003033366371e+01	 1.999995244429753e+01	 1.265899707108584e+01
0	 1.000003033366371e+01	 2.071424879750815e+01	 1.237382884598266e+01
0	 1.000003033366371e+01	 2.142854365071297e+01	 1.184269691965082e+01
0	 1.071428397830567e+01	 1.428554761849444e+01	 7.688961807454524e+00
0	 1.071428397830567e+01	 1.499984997172426e+01	 8.654103673430155e+00
0	 1.071428397830567e+01	 1.571415215828767e+01	 9.534462221835785e+00
0	 1.071428397830567e+01	 1.642845401151721e+01	 1.031341933584917e+01
0	 1.071428397830567e+01	 1.714275536474550e+01	 1.097435662692042e+01
0	 1.071428397830567e+01	 1.785705605130510e+01	 1.150065543477187e+01
0	 1.071428397830567e+01	 1.857135590452858e+01	 1.187569682739692e+01
0	 1.071428397830567e+01	 1.928565475774854e+01	 1.208286160105800e+01
0	 1.071428397830567e+01	 1.999995244429754e+01	 1.210553028028357e+01
0	 1.071428397830567e+01	 2.071424879750815e+01	 1.192708311786413e+01
0	 1.071428397830567e+01	 2.142854365071296e+01	 1.153090009484736e+01
0	 1.142853720630899e+01	 1.428554761849444e+01	 7.998758560917898e+00
0	 1.142853720630899e+01	 1.499984997172426e+01	 8.644691257312241e+00
0	 1.142853720630899e+01	 1.571415215828766e+01	 9.270132613130144e+00
0	 1.142853720630899e+01	 1.642845401151721e+01	 9.855235451898613e+00
0	 1.142853720630899e+01	 1.714275536474550e+01	 1.038015239064544e+01
0	 1.142853720630899e+01	 1.785705605130509e+01	 1.082503583989905e+01
0	 1.142853720630899e+01	 1.857135590452859e+01	 1.117003800368768e+01
0	 1.142853720630899e+01	 1.928565475774854e+01	 1.139531087953784e+01
0	 1.142853720630899e+01	 1.999995244429754e+01	 1.148100625847199e+01
0	 1.142853720630899e+01	 2.071424879750815e+01	 1.140727572500563e+01
0	 1.142853720630899e+01	 2.142854365071296e+01	 1.115427065714349e+01
0	 1.214279010100160e+01	 1.428554761849445e+01	 8.372264084347321e+00
0	 1.214279010100159e+01	 1.499984997172426e+01	 8.702744048126931e+00
0	 1.214279010100160e+01	 1.571415215828766e+01	 9.069295331726906e+00
0	 1.214279010100160e+01	 1.642845401151721e+01	 9.450603179218978e+00
0	 1.214279010100160e+01	 1.714275536474550e+01	 9.825352697551040e+00
0	 1.214279010100160e+01	 1.785705605130510e+01	 1.017222885654714e+01
0	 1.214279010100160e+01	 1.857135590452858e+01	 1.046991648890688e+01
0	 1.214279010100160e+01	 1.928565475774854e+01	 1.069710029020448e+01
0	 1.214279010100160e+01	 1.999995244429754e+01	 1.083246481888722e+01
0	 1.214279010100160e+01	 2.071424879750815e+01	 1.085469449627354e+01
0	 1.214279010100160e+01	 2.142854365071297e+01	 1.074247360655048e+01
0	 1.285704274571142e+01	 1.428554761849444e+01	 8.771185358109776e+00
0	 1.285704274571142e+01	 1.499984997172426e+01	 8.814183380006924e+00
0	 1.285704274571143e+01	 1.571415215828767e+01	 8.938215267612764e+00
0	 1.285704274571142e+01	 1.642845401151721e+01	 9.122260178586526e+00
0	 1.285704274571142e+01	 1.714275536474550e+01	 9.345297201567117e+00
0	 1.285704274571142e+01	 1.785705605130510e+01	 9.586305356173089e+00
0	 1.285704274571142e+01	 1.857135590452858e+01	 9.824263593002421e+00
0	 1.285704274571142e+01	 1.928565475774854e+01	 1.003815079363204e+01
0	 1.285704274571142e+01	 1.999995244429753e+01	 1.020694577061710e+01
0	 1.285704274571142e+01	 2.071424879750816e+01	 1.030962726749003e+01
0	 1.285704274571142e+01	 2.142854365071296e+01	 1.032517395875932e+01
0	 1.357129522376639e+01	 1.428554761849444e+01	 9.157229331865796e+00
0	 1.357129522376639e+01	 1.499984997172426e+01	 8.964930542135589e+00
0	 1.357129522376640e+01	 1.571415215828766e+01	 8.883157259066095e+00
0	 1.357129522376639e+01	 1.642845401151722e+01	 8.892944058561234e+00
0	 1.357129522376640e+01	 1.714275536474550e+01	 8.975325508917138e+00
0	 1.357129522376639e+01	 1.785705605130510e+01	 9.111336170822208e+00
0	 1.357129522376639e+01	 1.857135590452858e+01	 9.282010597357164e+00
0	 1.357129522376639e+01	 1.928565475774854e+01	 9.468383333995050e+00
0	 1.357129522376639e+01	 1.999995244429753e+01	 9.651488918601189e+00
0	 1.357129522376640e+01	 2.071424879750815e+01	 9.812361881433171e+00
0	 1.357129522376639e+01	 2.142854365071297e+01	 9.932036745140778e+00
0	 1.428554761849444e+01	 1.428554761849444e+01	 9.492102924569329e+00
0	 1.428554761849444e+01	 1.499984997172426e+01	 9.140906778746800e+00
0	 1.428554761849444e+01	 1.571415215828766e+01	 8.910386092656868e+00
0	 1.428554761849444e+01	 1.642845401151721e+01	 8.785392375486611e+00
0	 1.428554761849444e+01	 1.714275536474550e+01	 8.750777178118007e+00
0	 1.428554761849445e+01	 1.785705605130510e+01	 8.791392093128021e+00
0	 1.428554761849444e+01	 1.857135590452859e+01	 8.892088754788885e+00
0	 1.428554761849444e+01	 1.928565475774854e+01	 9.037718839068447e+00
0	 1.428554761849444e+01	 1.999995244429753e+01	 9.213134063630809e+00
0	 1.428554761849444e+01	 2.071424879750816e+01	 9.403186187836932e+00
0	 1.428554761849444e+01	 2.142854365071296e+01	 9.592727012745492e+00
0	 7.143009922150927e+00	 2.142854365071296e+01	 1.184825863841631e+01
0	 7.143009922150927e+00	 2.214283692057824e+01	 1.108119658772720e+01
0	 7.143009922150925e+00	 2.285712885710493e+01	 1.048451382118507e+01
0	 7.143009922150926e+00	 2.357141979362770e+01	 1.004368587420654e+01
0	 7.143009922150927e+00	 2.428571006348117e+01	 9.744188027615541e+00
0	 7.143009922150926e+00	 2.500000000000000e+01	 9.571495307637321e+00
0	 7.143009922150926e+00	 2.571428993651883e+01	 9.511082485894095e+00
0	 7.143009922150926e+00	 2.642858020637231e+01	 9.548424079402587e+00
0	 7.143009922150928e+00	 2.714287114289507e+01	 9.668994350573259e+00
0	 7.143009922150926e+00	 2.785716307942177e+01	 9.858267307211417e+00
0	 7.143009922150926e+00	 2.857145634928704e+01	 1.010171670252002e+01
0	 7.857266066626719e+00	 2.142854365071296e+01	 1.209244195173841e+01
0	 7.857266066626720e+00	 2.214283692057824e+01	 1.128207143375919e+01
0	 7.857266066626718e+00	 2.285712885710494e+01	 1.062694955537028e+01
0	 7.857266066626717e+00	 2.357141979362770e+01	 1.011803569279513e+01
0	 7.857266066626718e+00	 2.428571006348117e+01	 9.746288921308761e+00
0	 7.857266066626719e+00	 2.500000000000000e+01	 9.502668015230764e+00
0	 7.857266066626718e+00	 2.571428993651883e+01	 9.378131447920392e+00
0	 7.857266066626718e+00	 2.642858020637231e+01	 9.363637391773832e+00
0	 7.857266066626716e+00	 2.714287114289507e+01	 9.450143718223487e+00
0	 7.857266066626720e+00	 2.785716307942178e+01	 9.628607997739451e+00
0	 7.857266066626718e+00	 2.857145634928704e+01	 9.889987499833008e+00
0	 8.571521461152161e+00	 2.142854365071296e+01	 1.215313280890902e+01
0	 8.571521461152161e+00	 2.214283692057824e+01	 1.136084605998495e+01
0	 8.571521461152164e+00	 2.285712885710494e+01	 1.070263445619503e+01
0	 8.571521461152164e+00	 2.357141979362770e+01	 1.017419851530635e+01
0	 8.571521461152161e+00	 2.428571006348118e+01	 9.771238437075050e+00
0	 8.571521461152161e+00	 2.500000000000001e+01	 9.489454103239002e+00
0	 8.571521461152162e+00	 2.571428993651883e+01	 9.324545077512804e+00
0	 8.571521461152164e+00	 2.642858020637231e+01	 9.272210605584959e+00
0	 8.571521461152162e+00	 2.714287114289508e+01	 9.328149615117312e+00
0	 8.571521461152161e+00	 2.785716307942177e+01	 9.488060715746698e+00
0	 8.571521461152162e+00	 2.857145634928703e+01	 9.747642199088823e+00
0	 9.285776189055184e+00	 2.142854365071296e+01	 1.205999614722213e+01
0	 9.285776189055182e+00	 2.214283692057824e+01	 1.133548750202092e+01
0	 9.285776189055184e+00	 2.285712885710494e+01	 1.071955844679475e+01
0	 9.285776189055184e+00	 2.357141979362770e+01	 1.021190796012239e+01
0	 9.285776189055179e+00	 2.428571006348117e+01	 9.812234709984278e+00
0	 9.285776189055184e+00	 2.500000000000001e+01	 9.520237053755441e+00
0	 9.285776189055186e+00	 2.571428993651884e+01	 9.335613038200758e+00
0	 9.285776189055184e+00	 2.642858020637231e+01	 9.258060399472328e+00
0	 9.285776189055184e+00	 2.714287114289507e+01	 9.287276563109007e+00
0	 9.285776189055182e+00	 2.785716307942177e+01	 9.422958644038125e+00
0	 9.285776189055181e+00	 2.857145634928704e+01	 9.664803446579411e+00
0	 1.000003033366371e+01	 2.142854365071297e+01	 1.184269691965082e+01
0	 1.000003033366371e+01	 2.214283692057824e+01	 1.122396281656522e+01
0	 1.000003033366371e+01	 2.285712885710494e+01	 1.068571147369591e+01
0	 1.000003033366371e+01	 2.357141979362770e+01	 1.023089766875233e+01
0	 1.000003033366371e+01	 2.428571006348118e+01	 9.862475895915264e+00
0	 1.000003033366371e+01	 2.500000000000000e+01	 9.583400365830510e+00
0	 1.000003033366371e+01	 2.571428993651883e+01	 9.396625005604669e+00
0	 1.000003033366371e+01	 2.642858020637231e+01	 9.305103458802806e+00
0	 1.000003033366371e+01	 2.714287114289508e+01	 9.311789085448208e+00
0	 1.000003033366371e+01	 2.785716307942178e+01	 9.419634962024013e+00
0	 1.000003033366371e+01	 2.857145634928704e+01	 9.631593881476922e+00
0	 1.071428397830567e+01	 2.142854365071296e+01	 1.153090009484736e+01
0	 1.071428397830567e+01	 2.214283692057824e+01	 1.104423908139791e+01
0	 1.071428397830567e+01	 2.285712885710494e+01	 1.060908350681629e+01
0	 1.071428397830567e+01	 2.357141979362770e+01	 1.023090130583238e+01
0	 1.071428397830566e+01	 2.428571006348118e+01	 9.915160171556050e+00
0	 1.071428397830567e+01	 2.500000000000000e+01	 9.667327555471967e+00
0	 1.071428397830567e+01	 2.571428993651884e+01	 9.492870667436094e+00
0	 1.071428397830567e+01	 2.642858020637232e+01	 9.397256475673830e+00
0	 1.071428397830567e+01	 2.714287114289508e+01	 9.385951706779924e+00
0	 1.071428397830567e+01	 2.785716307942177e+01	 9.464422845719959e+00
0	 1.071428397830567e+01	 2.857145634928704e+01	 9.638136135833651e+00
0	 1.142853720630899e+01	 2.142854365071296e+01	 1.115427065714349e+01
0	 1.142853720630899e+01	 2.214283692057824e+01	 1.081428339538122e+01
0	 1.142853720630899e+01	 2.285712885710494e+01	 1.049766453946525e+01
0	 1.142853720630899e+01	 2.357141979362770e+01	 1.021165255912615e+01
0	 1.142853720630899e+01	 2.428571006348118e+01	 9.963485734404086e+00
0	 1.142853720630898e+01	 2.499999999999999e+01	 9.760402155644988e+00
0	 1.142853720630899e+01	 2.571428993651884e+01	 9.609639723497864e+00
0	 1.142853720630899e+01	 2.642858020637232e+01	 9.518436148913505e+00
0	 1.142853720630899e+01	 2.714287114289508e+01	 9.494028953144541e+00
0	 1.142853720630899e+01	 2.785716307942177e+01	 9.543655467746792e+00
0	 1.142853720630899e+01	 2.857145634928704e+01	 9.674552834581950e+00
0	 1.214279010100160e+01	 2.142854365071297e+01	 1.074247360655048e+01
0	 1.214279010100160e+01	 2.214283692057823e+01	 1.055206287845975e+01
0	 1.214279010100160e+01	 2.285712885710493e+01	 1.035944458834393e+01
0	 1.214279010100160e+01	 2.357141979362770e+01	 1.017288513952482e+01
0	 1.214279010100160e+01	 2.428571006348117e+01	 1.000065080276644e+01
0	 1.214279010100160e+01	 2.500000000000000e+01	 9.851007716272388e+00
0	 1.214279010100160e+01	 2.571428993651884e+01	 9.732221885684197e+00
0	 1.214279010100160e+01	 2.642858020637230e+01	 9.652559184080632e+00
0	 1.214279010100160e+01	 2.714287114289508e+01	 9.620285351977865e+00
0	 1.214279010100160e+01	 2.785716307942177e+01	 9.643665997330604e+00
0	 1.214279010100160e+01	 2.857145634928704e+01	 9.730966595534158e+00
0	 1.285704274571142e+01	 2.142854365071296e+01	 1.032517395875932e+01
0	 1.285704274571142e+01	 2.214283692057824e+01	 1.027554467166065e+01
0	 1.285704274571143e+01	 2.285712885710494e+01	 1.020241369354538e+01
0	 1.285704274571142e+01	 2.357141979362770e+01	 1.011433278104737e+01
0	 1.285704274571143e+01	 2.428571006348118e+01	 1.001985361575993e+01
0	 1.285704274571142e+01	 2.500000000000001e+01	 9.927527804234668e+00
0	 1.285704274571143e+01	 2.571428993651884e+01	 9.845906877980756e+00
0	 1.285704274571142e+01	 2.642858020637232e+01	 9.783542293464782e+00
0	 1.285704274571142e+01	 2.714287114289507e+01	 9.748985432111102e+00
0	 1.285704274571142e+01	 2.785716307942177e+01	 9.750787600302690e+00
0	 1.285704274571142e+01	 2.857145634928703e+01	 9.797500029382594e+00
0	 1.357129522376639e+01	 2.142854365071297e+01	 9.932036745140778e+00
0	 1.357129522376640e+01	 2.214283692057824e+01	 1.000269593709366e+01
0	 1.357129522376640e+01	 2.285712885710494e+01	 1.003456191855479e+01
0	 1.357129522376639e+01	 2.357141979362770e+01	 1.003572924084064e+01
0	 1.357129522376639e+01	 2.428571006348117e+01	 1.001429243331125e+01
0	 1.357129522376640e+01	 2.500000000000001e+01	 9.978346003370174e+00
0	 1.357129522376639e+01	 2.571428993651883e+01	 9.935984436464738e+00
0	 1.357129522376639e+01	 2.642858020637231e+01	 9.895302196086325e+00
0	 1.357129522376639e+01	 2.714287114289508e+01	 9.864393723770881e+00
0	 1.357129522376640e+01	 2.785716307942178e+01	 9.851353439099553e+00
0	 1.357129522376639e+01	 2.857145634928703e+01	 9.864275739699469e+00
0	 1.428554761849444e+01	 2.142854365071296e+01	 9.592727012745492e+00
0	 1.428554761849444e+01	 2.214283692057823e+01	 9.751483857951300e+00
0	 1.428554761849445e+01	 2.285712885710494e+01	 9.863879350249452e+00
0	 1.428554761849444e+01	 2.357141979362770e+01	 9.936808299179443e+00
0	 1.428554761849445e+01	 2.428571006348118e+01	 9.977165536156999e+00
0	 1.428554761849444e+01	 2.500000000000000e+01	 9.991845914475103e+00
0	 1.428554761849444e+01	 2.571428993651883e+01	 9.987744309304894e+00
0	 1.428554761849444e+01	 2.642858020637231e+01	 9.971755617696436e+00
0	 1.428554761849444e+01	 2.714287114289507e+01	 9.950774758579273e+00
0	 1.428554761849444e+01	 2.785716307942177e+01	 9.931696672762870e+00
0	 1.428554761849444e+01	 2.857145634928703e+01	 9.921416322936921e+00
0	 7.143009922150926e+00	 2.857145634928704e+01	 1.010171670252002e+01
0	 7.143009922150928e+00	 2.928575120249186e+01	 1.033030275125226e+01
0	 7.143009922150926e+00	 3.000004755570247e+01	 1.049000048495675e+01
0	 7.143009922150928e+00	 3.071434524225147e+01	 1.058880566419442e+01
0	 7.143009922150927e+00	 3.142864409547143e+01	 1.063471401367899e+01
0	 7.143009922150926e+00	 3.214294394869490e+01	 1.063572122227767e+01
0	 7.143009922150926e+00	 3.285724463525450e+01	 1.059982294301209e+01
0	 7.143009922150926e+00	 3.357154598848279e+01	 1.053501479305873e+01
0	 7.143009922150926e+00	 3.428584784171235e+01	 1.044929235374954e+01
0	 7.143009922150927e+00	 3.500015002827575e+01	 1.035065117057225e+01
0	 7.143009922150928e+00	 3.571445238150556e+01	 1.024708675317055e+01
0	 7.857266066626718e+00	 2.857145634928704e+01	 9.889987499833008e+00
0	 7.857266066626717e+00	 2.928575120249185e+01	 1.015605116507450e+01
0	 7.857266066626720e+00	 3.000004755570248e+01	 1.035817104663058e+01
0	 7.857266066626719e+00	 3.071434524225147e+01	 1.050170881971258e+01
0	 7.857266066626719e+00	 3.142864409547143e+01	 1.059202610956143e+01
0	 7.857266066626718e+00	 3.214294394869491e+01	 1.063448449144879e+01
0	 7.857266066626720e+00	 3.285724463525450e+01	 1.063444549067817e+01
0	 7.857266066626721e+00	 3.357154598848281e+01	 1.059727058258565e+01
0	 7.857266066626721e+00	 3.428584784171235e+01	 1.052832119254054e+01
0	 7.857266066626719e+00	 3.500015002827575e+01	 1.043295869594591e+01
0	 7.857266066626717e+00	 3.571445238150555e+01	 1.031654441823886e+01
0	 8.571521461152162e+00	 2.857145634928703e+01	 9.747642199088823e+00
0	 8.571521461152162e+00	 2.928575120249185e+01	 1.002631994016304e+01
0	 8.571521461152162e+00	 3.000004755570248e+01	 1.024842709194273e+01
0	 8.571521461152166e+00	 3.071434524225148e+01	 1.041702258097057e+01
0	 8.571521461152162e+00	 3.142864409547143e+01	 1.053516527580157e+01
0	 8.571521461152166e+00	 3.214294394869491e+01	 1.060591398700440e+01
0	 8.571521461152161e+00	 3.285724463525451e+01	 1.063232746716258e+01
0	 8.571521461152161e+00	 3.357154598848280e+01	 1.061746441087540e+01
0	 8.571521461152162e+00	 3.428584784171236e+01	 1.056438345475865e+01
0	 8.571521461152162e+00	 3.500015002827575e+01	 1.047614317744518e+01
0	 8.571521461152161e+00	 3.571445238150555e+01	 1.035580209958525e+01
0	 9.285776189055181e+00	 2.857145634928704e+01	 9.664803446579411e+00
0	 9.285776189055184e+00	 2.928575120249186e+01	 9.935556497414559e+00
0	 9.285776189055184e+00	 3.000004755570248e+01	 1.015889065457720e+01
0	 9.285776189055182e+00	 3.071434524225146e+01	 1.033589344085465e+01
0	 9.285776189055184e+00	 3.142864409547143e+01	 1.046765231822495e+01
0	 9.285776189055184e+00	 3.214294394869492e+01	 1.055525468785818e+01
0	 9.285776189055182e+00	 3.285724463525450e+01	 1.059978789011773e+01
0	 9.285776189055182e+00	 3.357154598848279e+01	 1.060233920456122e+01
0	 9.285776189055182e+00	 3.428584784171235e+01	 1.056399584994133e+01
0	 9.285776189055184e+00	 3.500015002827575e+01	 1.048584498420628e+01
0	 9.285776189055182e+00	 3.571445238150556e+01	 1.036897370450023e+01
0	 1.000003033366371e+01	 2.857145634928704e+01	 9.631593881476922e+00
0	 1.000003033366371e+01	 2.928575120249186e+01	 9.878208248340240e+00
0	 1.000003033366371e+01	 3.000004755570247e+01	 1.008768375791945e+01
0	 1.000003033366371e+01	 3.071434524225147e+01	 1.025946788216030e+01
0	 1.000003033366371e+01	 3.142864409547143e+01	 1.039300803366287e+01
0	 1.000003033366371e+01	 3.214294394869491e+01	 1.048775156568303e+01
0	 1.000003033366371e+01	 3.285724463525451e+01	 1.054314577213357e+01
0	 1.000003033366371e+01	 3.357154598848280e+01	 1.055863788758514e+01
0	 1.000003033366371e+01	 3.428584784171236e+01	 1.053367508726701e+01
0	 1.000003033366371e+01	 3.500015002827575e+01	 1.046770448706761e+01
0	 1.000003033366371e+01	 3.571445238150557e+01	 1.036017314353488e+01
0	 1.071428397830567e+01	 2.857145634928704e+01	 9.638136135833651e+00
0	 1.071428397830567e+01	 2.928575120249186e+01	 9.848722595065592e+00
0	 1.071428397830567e+01	 3.000004755570248e+01	 1.003292841505632e+01
0	 1.071428397830566e+01	 3.071434524225146e+01	 1.018889237759208e+01
0	 1.071428397830567e+01	 3.142864409547143e+01	 1.031475320995228e+01
0	 1.071428397830567e+01	 3.214294394869491e+01	 1.040864958491090e+01
0	 1.071428397830567e+01	 3.285724463525451e+01	 1.046872012073742e+01
0	 1.071428397830567e+01	 3.357154598848280e+01	 1.049310338119779e+01
0	 1.071428397830567e+01	 3.428584784171235e+01	 1.047993787555505e+01
0	 1.071428397830567e+01	 3.500015002827575e+01	 1.042736205856988e+01
0	 1.071428397830567e+01	 3.571445238150556e+01	 1.033351433050083e+01
0	 1.142853720630899e+01	 2.857145634928704e+01	 9.674552834581950e+00
0	 1.142853720630899e+01	 2.928575120249186e+01	 9.841546930330427e+00
0	 1.142853720630899e+01	 3.000004755570248e+01	 9.992746628775866e+00
0	 1.142853720630899e+01	 3.071434524225147e+01	 1.012531338976355e+01
0	 1.142853720630899e+01	 3.142864409547143e+01	 1.023640862593573e+01
0	 1.142853720630899e+01	 3.214294394869491e+01	 1.032319370273276e+01
0	 1.142853720630899e+01	 3.285724463525451e+01	 1.038282993839399e+01
0	 1.142853720630899e+01	 3.357154598848280e+01	 1.041247860395851e+01
0	 1.142853720630899e+01	 3.428584784171234e+01	 1.040930092326577e+01
0	 1.142853720630899e+01	 3.500015002827575e+01	 1.037045807295599e+01
0	 1.142853720630899e+01	 3.571445238150555e+01	 1.029311118247037e+01
0	 1.214279010100160e+01	 2.857145634928704e+01	 9.730966595534158e+00
0	 1.214279010100160e+01	 2.928575120249185e+01	 9.851128637488765e+00
0	 1.214279010100160e+01	 3.000004755570248e+01	 9.965260391567307e+00
0	 1.214279010100160e+01	 3.071434524225148e+01	 1.006987737119719e+01
0	 1.214279010100160e+01	 3.142864409547143e+01	 1.016149505146124e+01
0	 1.214279010100160e+01	 3.214294394869492e+01	 1.023662886909857e+01
0	 1.214279010100160e+01	 3.285724463525450e+01	 1.029179422250531e+01
0	 1.214279010100160e+01	 3.357154598848280e+01	 1.032350647173531e+01
0	 1.214279010100160e+01	 3.428584784171235e+01	 1.032828093850045e+01
0	 1.214279010100160e+01	 3.500015002827575e+01	 1.030263290617115e+01
0	 1.214279010100160e+01	 3.571445238150555e+01	 1.024307761977649e+01
0	 1.285704274571142e+01	 2.857145634928703e+01	 9.797500029382594e+00
0	 1.285704274571142e+01	 2.928575120249185e+01	 9.871915090508743e+00
0	 1.285704274571142e+01	 3.000004755570248e+01	 9.948591685620936e+00
0	 1.285704274571142e+01	 3.071434524225148e+01	 1.002373076432432e+01
0	 1.285704274571143e+01	 3.142864409547143e+01	 1.009353324738229e+01
0	 1.285704274571143e+01	 3.214294394869491e+01	 1.015420002671717e+01
0	 1.285704274571142e+01	 3.285724463525451e+01	 1.020193196541076e+01
0	 1.285704274571143e+01	 3.357154598848281e+01	 1.023292989770480e+01
0	 1.285704274571143e+01	 3.428584784171235e+01	 1.024339462900130e+01
0	 1.285704274571142e+01	 3.500015002827575e+01	 1.022952693586287e+01
0	 1.285704274571142e+01	 3.571445238150555e+01	 1.018752756601279e+01
0	 1.357129522376639e+01	 2.857145634928703e+01	 9.864275739699469e+00
0	 1.357129522376640e+01	 2.928575120249185e+01	 9.898353653972615e+00
0	 1.357129522376640e+01	 3.000004755570248e+01	 9.940862482828113e+00
0	 1.357129522376639e+01	 3.071434524225147e+01	 9.988020001485056e+00
0	 1.357129522376640e+01	 3.142864409547143e+01	 1.003604396555776e+01
0	 1.357129522376640e+01	 3.214294394869492e+01	 1.008115211105634e+01
0	 1.357129522376640e+01	 3.285724463525452e+01	 1.011956215438696e+01
0	 1.357129522376640e+01	 3.357154598848280e+01	 1.014749179235228e+01
0	 1.357129522376640e+01	 3.428584784171235e+01	 1.016115870215156e+01
0	 1.357129522376639e+01	 3.500015002827574e+01	 1.015678054138098e+01
0	 1.357129522376639e+01	 3.571445238150555e+01	 1.013057494803367e+01
0	 1.428554761849444e+01	 2.857145634928703e+01	 9.921416322936921e+00
0	 1.428554761849444e+01	 2.928575120249186e+01	 9.924891683076661e+00
0	 1.428554761849444e+01	 3.000004755570247e+01	 9.940194744781186e+00
0	 1.428554761849444e+01	 3.071434524225147e+01	 9.963891504928267e+00
0	 1.428554761849444e+01	 3.142864409547143e+01	 9.992547948851922e+00
0	 1.428554761849444e+01	 3.214294394869491e+01	 1.002273005034267e+01
0	 1.428554761849444e+01	 3.285724463525450e+01	 1.005100377164782e+01
0	 1.428554761849444e+01	 3.357154598848280e+01	 1.007393506347161e+01
0	 1.428554761849444e+01	 3.428584784171235e+01	 1.008808986497537e+01
0	 1.428554761849444e+01	 3.500015002827575e+01	 1.009003410377764e+01
0	 1.428554761849444e+01	 3.571445238150556e+01	 1.007633369595423e+01
0	 7.143009922150928e+00	 3.571445238150556e+01	 1.024708675317055e+01
0	 7.143009922150929e+00	 3.642870477623360e+01	 1.015981248788637e+01
0	 7.143009922150926e+00	 3.714295725428856e+01	 1.010147574124475e+01
0	 7.143009922150927e+00	 3.785720989899839e+01	 1.006724466895423e+01
0	 7.143009922150927e+00	 3.857146279369102e+01	 1.005228742315488e+01
0	 7.143009922150926e+00	 3.928571602169433e+01	 1.005177215241828e+01
0	 7.143009922150926e+00	 3.999996966633628e+01	 1.006086700174754e+01
0	 7.143009922150926e+00	 4.071422381094481e+01	 1.007474011257728e+01
0	 7.143009922150927e+00	 4.142847853884783e+01	 1.008855962277365e+01
0	 7.143009922150926e+00	 4.214273393337328e+01	 1.009749366663442e+01
0	 7.143009922150927e+00	 4.285699007784908e+01	 1.009671037488887e+01
0	 7.857266066626717e+00	 3.571445238150555e+01	 1.031654441823886e+01
0	 7.857266066626719e+00	 3.642870477623360e+01	 1.020649998441257e+01
0	 7.857266066626718e+00	 3.714295725428857e+01	 1.012436529112886e+01
0	 7.857266066626720e+00	 3.785720989899840e+01	 1.006670530951566e+01
0	 7.857266066626719e+00	 3.857146279369100e+01	 1.003008500275773e+01
0	 7.857266066626721e+00	 3.928571602169433e+01	 1.001106932609671e+01
0	 7.857266066626718e+00	 3.999996966633628e+01	 1.000622322683114e+01
0	 7.857266066626718e+00	 4.071422381094482e+01	 1.001211164431642e+01
0	 7.857266066626720e+00	 4.142847853884783e+01	 1.002529950996495e+01
0	 7.857266066626718e+00	 4.214273393337327e+01	 1.004235174724608e+01
0	 7.857266066626720e+00	 4.285699007784908e+01	 1.005983327168630e+01
0	 8.571521461152161e+00	 3.571445238150555e+01	 1.035580209958525e+01
0	 8.571521461152161e+00	 3.642870477623359e+01	 1.023402463534537e+01
0	 8.571521461152162e+00	 3.714295725428857e+01	 1.013794880249329e+01
0	 8.571521461152161e+00	 3.785720989899839e+01	 1.006537190298882e+01
0	 8.571521461152164e+00	 3.857146279369102e+01	 1.001409122791979e+01
0	 8.571521461152162e+00	 3.928571602169433e+01	 9.981904057502200e+00
0	 8.571521461152161e+00	 3.999996966633627e+01	 9.966607661080101e+00
0	 8.571521461152162e+00	 4.071422381094482e+01	 9.965999297125737e+00
0	 8.571521461152162e+00	 4.142847853884781e+01	 9.977876213239547e+00
0	 8.571521461152162e+00	 4.214273393337329e+01	 1.000003564615029e+01
0	 8.571521461152164e+00	 4.285699007784906e+01	 1.003027482171511e+01
0	 9.285776189055182e+00	 3.571445238150556e+01	 1.036897370450023e+01
0	 9.285776189055184e+00	 3.642870477623359e+01	 1.024478571448678e+01
0	 9.285776189055184e+00	 3.714295725428858e+01	 1.014318443353935e+01
0	 9.285776189055184e+00	 3.785720989899840e+01	 1.006303500930229e+01
0	 9.285776189055182e+00	 3.857146279369099e+01	 1.000320257687364e+01
0	 9.285776189055186e+00	 3.928571602169433e+01	 9.962552258805189e+00
0	 9.285776189055181e+00	 3.999996966633628e+01	 9.939949165102512e+00
0	 9.285776189055181e+00	 4.071422381094482e+01	 9.934258393224979e+00
0	 9.285776189055184e+00	 4.142847853884782e+01	 9.944345028085888e+00
0	 9.285776189055184e+00	 4.214273393337329e+01	 9.969074142052506e+00
0	 9.285776189055184e+00	 4.285699007784908e+01	 1.000731079494621e+01
0	 1.000003033366371e+01	 3.571445238150557e+01	 1.036017314353488e+01
0	 1.000003033366371e+01	 3.642870477623359e+01	 1.024118249978060e+01
0	 1.000003033366371e+01	 3.714295725428858e+01	 1.014103034687178e+01
0	 1.000003033366371e+01	 3.785720989899840e+01	 1.005948519254522e+01
0	 1.000003033366371e+01	 3.857146279369099e+01	 9.996315531380084e+00
0	 1.000003033366371e+01	 3.928571602169432e+01	 9.951289844797904e+00
0	 1.000003033366371e+01	 3.999996966633628e+01	 9.924176601062584e+00
0	 1.000003033366371e+01	 4.071422381094481e+01	 9.914744255280468e+00
0	 1.000003033366371e+01	 4.142847853884783e+01	 9.922761249400462e+00
0	 1.000003033366371e+01	 4.214273393337327e+01	 9.947996012214059e+00
0	 1.000003033366371e+01	 4.285699007784907e+01	 9.990216959355557e+00
0	 1.071428397830567e+01	 3.571445238150556e+01	 1.033351433050083e+01
0	 1.071428397830567e+01	 3.642870477623359e+01	 1.022561427331252e+01
0	 1.071428397830567e+01	 3.714295725428858e+01	 1.013244470949880e+01
0	 1.071428397830567e+01	 3.785720989899841e+01	 1.005451302096734e+01
0	 1.071428397830567e+01	 3.857146279369099e+01	 9.992326576728310e+00
0	 1.071428397830567e+01	 3.928571602169433e+01	 9.946392732894374e+00
0	 1.071428397830567e+01	 3.999996966633628e+01	 9.917218832680698e+00
0	 1.071428397830567e+01	 4.071422381094482e+01	 9.905312206405046e+00
0	 1.071428397830567e+01	 4.142847853884785e+01	 9.911180171487821e+00
0	 1.071428397830567e+01	 4.214273393337328e+01	 9.935330032452203e+00
0	 1.071428397830567e+01	 4.285699007784907e+01	 9.978269080924251e+00
0	 1.142853720630899e+01	 3.571445238150555e+01	 1.029311118247037e+01
0	 1.142853720630899e+01	 3.642870477623361e+01	 1.020048032131016e+01
0	 1.142853720630899e+01	 3.714295725428857e+01	 1.011838569283221e+01
0	 1.142853720630899e+01	 3.785720989899840e+01	 1.004790906697904e+01
0	 1.142853720630899e+01	 3.857146279369100e+01	 9.990132201735843e+00
0	 1.142853720630899e+01	 3.928571602169433e+01	 9.946136843130457e+00
0	 1.142853720630899e+01	 3.999996966633628e+01	 9.917004725233435e+00
0	 1.142853720630899e+01	 4.071422381094479e+01	 9.903817570158093e+00
0	 1.142853720630899e+01	 4.142847853884783e+01	 9.907657088060581e+00
0	 1.142853720630899e+01	 4.214273393337327e+01	 9.929604977139991e+00
0	 1.142853720630899e+01	 4.285699007784908e+01	 9.970742923638436e+00
0	 1.214279010100160e+01	 3.571445238150555e+01	 1.024307761977648e+01
0	 1.214279010100160e+01	 3.642870477623360e+01	 1.016817993414307e+01
0	 1.214279010100160e+01	 3.714295725428856e+01	 1.009981147268739e+01
0	 1.214279010100160e+01	 3.785720989899840e+01	 1.003946390715144e+01
0	 1.214279010100160e+01	 3.857146279369100e+01	 9.988628898748644e+00
0	 1.214279010100160e+01	 3.928571602169431e+01	 9.948798098163886e+00
0	 1.214279010100160e+01	 3.999996966633629e+01	 9.921463145553563e+00
0	 1.214279010100160e+01	 4.071422381094482e+01	 9.908115670545556e+00
0	 1.214279010100160e+01	 4.142847853884783e+01	 9.910247292239411e+00
0	 1.214279010100160e+01	 4.214273393337327e+01	 9.929349619206338e+00
0	 1.214279010100160e+01	 4.285699007784908e+01	 9.966914249489351e+00
0	 1.285704274571142e+01	 3.571445238150555e+01	 1.018752756601279e+01
0	 1.285704274571143e+01	 3.642870477623360e+01	 1.013111240632283e+01
0	 1.285704274571142e+01	 3.714295725428856e+01	 1.007768022928337e+01
0	 1.285704274571142e+01	 3.785720989899839e+01	 1.002896812221636e+01
0	 1.285704274571142e+01	 3.857146279369100e+01	 9.986713163641097e+00
0	 1.285704274571142e+01	 3.928571602169433e+01	 9.952652423274289e+00
0	 1.285704274571142e+01	 3.999996966633628e+01	 9.928522962030048e+00
0	 1.285704274571142e+01	 4.071422381094481e+01	 9.916061832019935e+00
0	 1.285704274571142e+01	 4.142847853884783e+01	 9.917006076553026e+00
0	 1.285704274571142e+01	 4.214273393337328e+01	 9.933092730136000e+00
0	 1.285704274571142e+01	 4.285699007784907e+01	 9.966058818473231e+00
0	 1.357129522376639e+01	 3.571445238150555e+01	 1.013057494803367e+01
0	 1.357129522376639e+01	 3.642870477623359e+01	 1.009167703650303e+01
0	 1.357129522376639e+01	 3.714295725428857e+01	 1.005295014724281e+01
0	 1.357129522376640e+01	 3.785720989899841e+01	 1.001621229706637e+01
0	 1.357129522376639e+01	 3.857146279369101e+01	 9.983281495816048e+00
0	 1.357129522376639e+01	 3.928571602169433e+01	 9.955975746363183e+00
0	 1.357129522376639e+01	 3.999996966633628e+01	 9.936113044608119e+00
0	 1.357129522376639e+01	 4.071422381094480e+01	 9.925511379480277e+00
0	 1.357129522376640e+01	 4.142847853884783e+01	 9.925988732938196e+00
0	 1.357129522376640e+01	 4.214273393337328e+01	 9.939363079969578e+00
0	 1.357129522376640e+01	 4.285699007784908e+01	 9.967452388591404e+00
0	 1.428554761849444e+01	 3.571445238150556e+01	 1.007633369595423e+01
0	 1.428554761849444e+01	 3.642870477623360e+01	 1.005227312747931e+01
0	 1.428554761849444e+01	 3.714295725428857e+01	 1.002657941559207e+01
0	 1.428554761849445e+01	 3.785720989899840e+01	 1.000098702075488e+01
0	 1.428554761849444e+01	 3.857146279369100e+01	 9.977230398204833e+00
0	 1.428554761849444e+01	 3.928571602169433e+01	 9.957043997954001e+00
0	 1.428554761849444e+01	 3.999996966633629e+01	 9.942162264789202e+00
0	 1.428554761849444e+01	 4.071422381094481e+01	 9.934319638272214e+00
0	 1.428554761849444e+01	 4.142847853884783e+01	 9.935250552739735e+00
0	 1.428554761849444e+01	 4.214273393337327e+01	 9.946689437303476e+00
0	 1.428554761849445e+01	 4.285699007784908e+01	 9.970370715850185e+00
0	 7.143009922150927e+00	 4.285699007784908e+01	 1.009671037488887e+01
0	 7.143009922150927e+00	 4.357129694500738e+01	 1.008366305287014e+01
0	 7.143009922150926e+00	 4.428560406221391e+01	 1.006192153262993e+01
0	 7.143009922150925e+00	 4.499991084612201e+01	 1.003582723348754e+01
0	 7.143009922150927e+00	 4.571421671338501e+01	 1.000972160717225e+01
0	 7.143009922150927e+00	 4.642852108065613e+01	 9.987946137823849e+00
0	 7.143009922150925e+00	 4.714282336458874e+01	 9.974842341993762e+00
0	 7.143009922150926e+00	 4.785712298183612e+01	 9.974751768646453e+00
0	 7.143009922150928e+00	 4.857141934905161e+01	 9.992015999161360e+00
0	 7.143009922150927e+00	 4.928571188288848e+01	 1.003097664733513e+01
0	 7.143009922150927e+00	 5.000000000000001e+01	 1.009597535938413e+01
0	 7.857266066626720e+00	 4.285699007784908e+01	 1.005983327168630e+01
0	 7.857266066626719e+00	 4.357129694500738e+01	 1.006951131677559e+01
0	 7.857266066626719e+00	 4.428560406221392e+01	 1.006755517057852e+01
0	 7.857266066626719e+00	 4.499991084612203e+01	 1.005713629878374e+01
0	 7.857266066626721e+00	 4.571421671338501e+01	 1.004142616487353e+01
0	 7.857266066626720e+00	 4.642852108065613e+01	 1.002359623012434e+01
0	 7.857266066626719e+00	 4.714282336458874e+01	 1.000681795360731e+01
0	 7.857266066626720e+00	 4.785712298183614e+01	 9.994262792188879e+00
0	 7.857266066626717e+00	 4.857141934905159e+01	 9.989102200531045e+00
0	 7.857266066626719e+00	 4.928571188288846e+01	 9.994507631092086e+00
0	 7.857266066626719e+00	 5.000000000000001e+01	 1.001365053412677e+01
0	 8.571521461152164e+00	 4.285699007784906e+01	 1.003027482171511e+01
0	 8.571521461152164e+00	 4.357129694500738e+01	 1.005648601160737e+01
0	 8.571521461152162e+00	 4.428560406221392e+01	 1.006944623535182e+01
0	 8.571521461152161e+00	 4.499991084612203e+01	 1.007128685614170e+01
0	 8.571521461152164e+00	 4.571421671338500e+01	 1.006413920911128e+01
0	 8.571521461152164e+00	 4.642852108065613e+01	 1.005013460133635e+01
0	 8.571521461152164e+00	 4.714282336458874e+01	 1.003140431183432e+01
0	 8.571521461152164e+00	 4.785712298183612e+01	 1.001007959156409e+01
0	 8.571521461152164e+00	 4.857141934905161e+01	 9.988291663425315e+00
0	 8.571521461152166e+00	 4.928571188288846e+01	 9.968171722257800e+00
0	 8.571521461152161e+00	 5.000000000000001e+01	 9.951850934839946e+00
0	 9.285776189055184e+00	 4.285699007784908e+01	 1.000731079494621e+01
0	 9.285776189055184e+00	 4.357129694500739e+01	 1.004464118495056e+01
0	 9.285776189055184e+00	 4.428560406221393e+01	 1.006821599634951e+01
0	 9.285776189055181e+00	 4.499991084612202e+01	 1.007925634307930e+01
0	 9.285776189055184e+00	 4.571421671338499e+01	 1.007898329289417e+01
0	 9.285776189055186e+00	 4.642852108065615e+01	 1.006861786736676e+01
0	 9.285776189055184e+00	 4.714282336458876e+01	 1.004938104188800e+01
0	 9.285776189055182e+00	 4.785712298183613e+01	 1.002249374566633e+01
0	 9.285776189055182e+00	 4.857141934905159e+01	 9.989176861726461e+00
0	 9.285776189055181e+00	 4.928571188288846e+01	 9.950651226907473e+00
0	 9.285776189055182e+00	 5.000000000000000e+01	 9.908137631860434e+00
0	 1.000003033366371e+01	 4.285699007784907e+01	 9.990216959355557e+00
0	 1.000003033366371e+01	 4.357129694500738e+01	 1.003403088222681e+01
0	 1.000003033366371e+01	 4.428560406221392e+01	 1.006448572096502e+01
0	 1.000003033366371e+01	 4.499991084612203e+01	 1.008202219550009e+01
0	 1.000003033366371e+01	 4.571421671338500e+01	 1.008708096815235e+01
0	 1.000003033366371e+01	 4.642852108065613e+01	 1.008010264363284e+01
0	 1.000003033366371e+01	 4.714282336458874e+01	 1.006152776904294e+01
0	 1.000003033366371e+01	 4.785712298183614e+01	 1.003179683387347e+01
0	 1.000003033366371e+01	 4.857141934905159e+01	 9.991350270002737e+00
0	 1.000003033366371e+01	 4.928571188288844e+01	 9.940628451694209e+00
0	 1.000003033366371e+01	 5.000000000000000e+01	 9.880071695593244e+00
0	 1.071428397830567e+01	 4.285699007784907e+01	 9.978269080924248e+00
0	 1.071428397830567e+01	 4.357129694500738e+01	 1.002470914669430e+01
0	 1.071428397830567e+01	 4.428560406221392e+01	 1.005887667458542e+01
0	 1.071428397830567e+01	 4.499991084612203e+01	 1.008056184769327e+01
0	 1.071428397830567e+01	 4.571421671338499e+01	 1.008955478573752e+01
0	 1.071428397830567e+01	 4.642852108065615e+01	 1.008564554506219e+01
0	 1.071428397830566e+01	 4.714282336458873e+01	 1.006862411863514e+01
0	 1.071428397830567e+01	 4.785712298183613e+01	 1.003828043604689e+01
0	 1.071428397830567e+01	 4.857141934905161e+01	 9.994404363508533e+00
0	 1.071428397830567e+01	 4.928571188288846e+01	 9.936785703849088e+00
0	 1.071428397830567e+01	 4.999999999999999e+01	 9.865214196511824e+00
0	 1.142853720630899e+01	 4.285699007784908e+01	 9.970742923638436e+00
0	 1.142853720630899e+01	 4.357129694500737e+01	 1.001673001944773e+01
0	 1.142853720630899e+01	 4.428560406221392e+01	 1.005201012059150e+01
0	 1.142853720630899e+01	 4.499991084612203e+01	 1.007585273233365e+01
0	 1.142853720630899e+01	 4.571421671338499e+01	 1.008752729542288e+01
0	 1.142853720630899e+01	 4.642852108065613e+01	 1.008630318609289e+01
0	 1.142853720630899e+01	 4.714282336458874e+01	 1.007144971606191e+01
0	 1.142853720630899e+01	 4.785712298183613e+01	 1.004223613253147e+01
0	 1.142853720630899e+01	 4.857141934905161e+01	 9.997931618184225e+00
0	 1.142853720630899e+01	 4.928571188288846e+01	 9.937805291181160e+00
0	 1.142853720630899e+01	 5.000000000000000e+01	 9.861126205157930e+00
0	 1.214279010100160e+01	 4.285699007784908e+01	 9.966914249489347e+00
0	 1.214279010100160e+01	 4.357129694500738e+01	 1.001014753941829e+01
0	 1.214279010100160e+01	 4.428560406221393e+01	 1.004450732035766e+01
0	 1.214279010100160e+01	 4.499991084612202e+01	 1.006887228048171e+01
0	 1.214279010100159e+01	 4.571421671338499e+01	 1.008212104590313e+01
0	 1.214279010100160e+01	 4.642852108065613e+01	 1.008313218067337e+01
0	 1.214279010100160e+01	 4.714282336458875e+01	 1.007078418678204e+01
0	 1.214279010100160e+01	 4.785712298183612e+01	 1.004395550415581e+01
0	 1.214279010100160e+01	 4.857141934905160e+01	 1.000152451065632e+01
0	 1.214279010100160e+01	 4.928571188288846e+01	 9.942369522077444e+00
0	 1.214279010100160e+01	 5.000000000000000e+01	 9.865368792141801e+00
0	 1.285704274571142e+01	 4.285699007784907e+01	 9.966058818473233e+00
0	 1.285704274571142e+01	 4.357129694500737e+01	 1.000501574337368e+01
0	 1.285704274571143e+01	 4.428560406221393e+01	 1.003698953325198e+01
0	 1.285704274571142e+01	 4.499991084612201e+01	 1.006059792158348e+01
0	 1.285704274571142e+01	 4.571421671338500e+01	 1.007445858479447e+01
0	 1.285704274571143e+01	 4.642852108065614e+01	 1.007718914226242e+01
0	 1.285704274571142e+01	 4.714282336458875e+01	 1.006740715631561e+01
0	 1.285704274571142e+01	 4.785712298183612e+01	 1.004373013223205e+01
0	 1.285704274571142e+01	 4.857141934905160e+01	 1.000477551823744e+01
0	 1.285704274571142e+01	 4.928571188288846e+01	 9.949160705503040e+00
0	 1.285704274571142e+01	 4.999999999999999e+01	 9.875503028141972e+00
0	 1.357129522376640e+01	 4.285699007784908e+01	 9.967452388591404e+00
0	 1.357129522376639e+01	 4.357129694500737e+01	 1.000138866591802e+01
0	 1.357129522376639e+01	 4.428560406221392e+01	 1.003007801663616e+01
0	 1.357129522376639e+01	 4.499991084612203e+01	 1.005200708347067e+01
0	 1.357129522376639e+01	 4.571421671338499e+01	 1.006566245863459e+01
0	 1.357129522376640e+01	 4.642852108065613e+01	 1.006953068382927e+01
0	 1.357129522376640e+01	 4.714282336458874e+01	 1.006209825024418e+01
0	 1.357129522376639e+01	 4.785712298183612e+01	 1.004185159855582e+01
0	 1.357129522376639e+01	 4.857141934905160e+01	 1.000727711892627e+01
0	 1.357129522376639e+01	 4.928571188288845e+01	 9.956861151000876e+00
0	 1.357129522376639e+01	 5.000000000000000e+01	 9.889089983905439e+00
0	 1.428554761849445e+01	 4.285699007784908e+01	 9.970370715850185e+00
0	 1.428554761849444e+01	 4.357129694500737e+01	 9.999320339491955e+00
0	 1.428554761849444e+01	 4.428560406221393e+01	 1.002439402586550e+01
0	 1.428554761849444e+01	 4.499991084612204e+01	 1.004407719236055e+01
0	 1.428554761849444e+01	 4.571421671338500e+01	 1.005685521288267e+01
0	 1.428554761849444e+01	 4.642852108065614e+01	 1.006121341785352e+01
0	 1.428554761849445e+01	 4.714282336458874e+01	 1.005563709421062e+01
0	 1.428554761849444e+01	 4.785712298183613e+01	 1.003861148540657e+01
0	 1.428554761849444e+01	 4.857141934905160e+01	 1.000862179140762e+01
0	 1.428554761849445e+01	 4.928571188288846e+01	 9.964153168692039e+00
0	 1.428554761849444e+01	 5.000000000000000e+01	 9.903690730247407e+00
0	 1.428554761849444e+01	 0.000000000000000e+00	 3.640551548197487e+01
0	 1.428554761849444e+01	 7.142881171115513e-01	 2.667098878611911e+01
0	 1.428554761849444e+01	 1.428580650948410e+00	 1.855343303653328e+01
0	 1.428554761849444e+01	 2.142877018163878e+00	 1.197438285723329e+01
0	 1.428554761849445e+01	 2.857176635411265e+00	 6.855378668145903e+00
0	 1.428554761849444e+01	 3.571478919343873e+00	 3.117966684681695e+00
0	 1.428554761849444e+01	 4.285783286615009e+00	 6.836989173792594e-01
0	 1.428554761849444e+01	 5.000089153877974e+00	-5.258668283797576e-01
0	 1.428554761849444e+01	 5.714395937786081e+00	-5.891669525845088e-01
0	 1.428554761849444e+01	 6.428703054992629e+00	 4.153679392620916e-01
0	 1.428554761849444e+01	 7.143009922150925e+00	 2.409313036071445e+00
0	 1.499984997172426e+01	 0.000000000000000e+00	 3.745571795434694e+01
0	 1.499984997172426e+01	 7.142881171115516e-01	 2.806278379195795e+01
0	 1.499984997172426e+01	 1.428580650948409e+00	 1.999251661094906e+01
0	 1.499984997172426e+01	 2.142877018163878e+00	 1.323045509379065e+01
0	 1.499984997172427e+01	 2.857176635411265e+00	 7.762144639934477e+00
0	 1.499984997172426e+01	 3.571478919343873e+00	 3.573137365320162e+00
0	 1.499984997172426e+01	 4.285783286615008e+00	 6.489921019636014e-01
0	 1.499984997172426e+01	 5.000089153877974e+00	-1.024725602372168e+00
0	 1.499984997172426e+01	 5.714395937786080e+00	-1.462443484423838e+00
0	 1.499984997172426e+01	 6.428703054992627e+00	-6.785825655924882e-01
0	 1.499984997172427e+01	 7.143009922150928e+00	 1.312442847974090e+00
0	 1.571415215828766e+01	 0.000000000000000e+00	 3.594578064005464e+01
0	 1.571415215828766e+01	 7.142881171115513e-01	 2.758190039131115e+01
0	 1.571415215828766e+01	 1.428580650948409e+00	 2.019864658168003e+01
0	 1.571415215828766e+01	 2.142877018163879e+00	 1.383425387787771e+01
0	 1.571415215828766e+01	 2.857176635411264e+00	 8.526963919372367e+00
0	 1.571415215828766e+01	 3.571478919343873e+00	 4.315025317871608e+00
0	 1.571415215828766e+01	 4.285783286615008e+00	 1.236693656895488e+00
0	 1.571415215828766e+01	 5.000089153877976e+00	-6.697685085651008e-01
0	 1.571415215828766e+01	 5.714395937786080e+00	-1.366091652304584e+00
0	 1.571415215828766e+01	 6.428703054992629e+00	-8.139992770734348e-01
0	 1.571415215828766e+01	 7.143009922150927e+00	 1.024792085336416e+00
0	 1.642845401151722e+01	 0.000000000000000e+00	 3.244309172935940e+01
0	 1.642845401151721e+01	 7.142881171115510e-01	 2.562076358520822e+01
0	 1.642845401151721e+01	 1.428580650948410e+00	 1.941241766142380e+01
0	 1.642845401151721e+01	 2.142877018163879e+00	 1.389767578700383e+01
0	 1.642845401151722e+01	 2.857176635411265e+00	 9.156166467532824e+00
0	 1.642845401151721e+01	 3.571478919343872e+00	 5.267524884691007e+00
0	 1.642845401151721e+01	 4.285783286615008e+00	 2.311392895845005e+00
0	 1.642845401151721e+01	 5.000089153877974e+00	 3.674190337203027e-01
0	 1.642845401151721e+01	 5.714395937786080e+00	-4.847414938445066e-01
0	 1.642845401151722e+01	 6.428703054992629e+00	-1.654268040616875e-01
0	 1.642845401151721e+01	 7.143009922150928e+00	 1.405031660723423e+00
0	 1.714275536474550e+01	 0.000000000000000e+00	 2.751504055858339e+01
0	 1.714275536474550e+01	 7.142881171115513e-01	 2.257179904100425e+01
0	 1.714275536474550e+01	 1.428580650948410e+00	 1.787442487269845e+01
0	 1.714275536474550e+01	 2.142877018163879e+00	 1.353261745938653e+01
0	 1.714275536474550e+01	 2.857176635411265e+00	 9.656082148640609e+00
0	 1.714275536474549e+01	 3.571478919343872e+00	 6.354530229446317e+00
0	 1.714275536474550e+01	 4.285783286615008e+00	 3.737678931837617e+00
0	 1.714275536474550e+01	 5.000089153877976e+00	 1.915251426604280e+00
0	 1.714275536474550e+01	 5.714395937786080e+00	 9.969768250722298e-01
0	 1.714275536474550e+01	 6.428703054992629e+00	 1.092590178956633e+00
0	 1.714275536474550e+01	 7.143009922150927e+00	 2.311832480287763e+00
0	 1.785705605130510e+01	 0.000000000000000e+00	 2.172901761011239e+01
0	 1.785705605130510e+01	 7.142881171115514e-01	 1.882743309238165e+01
0	 1.785705605130510e+01	 1.428580650948410e+00	 1.582526354784361e+01
0	 1.785705605130510e+01	 2.142877018163878e+00	 1.285097559395205e+01
0	 1.785705605130510e+01	 2.857176635411265e+00	 1.003304073007201e+01
0	 1.785705605130510e+01	 3.571478919343873e+00	 7.499935337118252e+00
0	 1.785705605130509e+01	 4.285783286615009e+00	 5.380140677253759e+00
0	 1.785705605130509e+01	 5.000089153877974e+00	 3.802142893647924e+00
0	 1.785705605130509e+01	 5.714395937786081e+00	 2.894433010294561e+00
0	 1.785705605130510e+01	 6.428703054992631e+00	 2.785506931889733e+00
0	 1.785705605130510e+01	 7.143009922150926e+00	 3.603865443769315e+00
0	 1.857135590452858e+01	 0.000000000000000e+00	 1.565241451240292e+01
0	 1.857135590452859e+01	 7.142881171115513e-01	 1.478009273935457e+01
0	 1.857135590452859e+01	 1.428580650948409e+00	 1.350552932902255e+01
0	 1.857135590452858e+01	 2.142877018163879e+00	 1.196464695033597e+01
0	 1.857135590452859e+01	 2.857176635411265e+00	 1.029337188235454e+01
0	 1.857135590452858e+01	 3.571478919343873e+00	 8.627634013999355e+00
0	 1.857135590452859e+01	 4.285783286615008e+00	 7.103366843827684e+00
0	 1.857135590452858e+01	 5.000089153877976e+00	 5.856507479852043e+00
0	 1.857135590452859e+01	 5.714395937786082e+00	 5.022996639403558e+00
0	 1.857135590452858e+01	 6.428703054992628e+00	 4.738778649039436e+00
0	 1.857135590452858e+01	 7.143009922150925e+00	 5.139801444494740e+00
0	 1.928565475774854e+01	 0.000000000000000e+00	 9.852624039992836e+00
0	 1.928565475774854e+01	 7.142881171115513e-01	 1.082220564827521e+01
0	 1.928565475774854e+01	 1.428580650948409e+00	 1.115581816822558e+01
0	 1.928565475774854e+01	 2.142877018163878e+00	 1.098552834888414e+01
0	 1.928565475774854e+01	 2.857176635411265e+00	 1.044340517916633e+01
0	 1.928565475774854e+01	 3.571478919343872e+00	 9.661519887692560e+00
0	 1.928565475774854e+01	 4.285783286615009e+00	 8.771945942645660e+00
0	 1.928565475774854e+01	 5.000089153877976e+00	 7.906759051655446e+00
0	 1.928565475774854e+01	 5.714395937786080e+00	 7.198037161711025e+00
0	 1.928565475774854e+01	 6.428703054992630e+00	 6.777860459100293e+00
0	 1.928565475774854e+01	 7.143009922150928e+00	 6.778311369377038e+00
0	 1.999995244429753e+01	 0.000000000000000e+00	 4.897040113516494e+00
0	 1.999995244429753e+01	 7.142881171115514e-01	 7.346200151842886e+00
0	 1.999995244429754e+01	 1.428580650948409e+00	 9.016726327274164e+00
0	 1.999995244429753e+01	 2.142877018163878e+00	 1.002551667065382e+01
0	 1.999995244429753e+01	 2.857176635411265e+00	 1.048947009733508e+01
0	 1.999995244429753e+01	 3.571478919343873e+00	 1.052548640710900e+01
0	 1.999995244429753e+01	 4.285783286615008e+00	 1.025046628414341e+01
0	 1.999995244429754e+01	 5.000089153877976e+00	 9.781311296932532e+00
0	 1.999995244429753e+01	 5.714395937786080e+00	 9.234923898257625e+00
0	 1.999995244429753e+01	 6.428703054992630e+00	 8.728207425158370e+00
0	 1.999995244429753e+01	 7.143009922150927e+00	 8.378066098915054e+00
0	 2.071424879750816e+01	 0.000000000000000e+00	 1.353057799723610e+00
0	 2.071424879750816e+01	 7.142881171115513e-01	 4.744505249115127e+00
0	 2.071424879750816e+01	 1.428580650948410e+00	 7.328850377826569e+00
0	 2.071424879750816e+01	 2.142877018163879e+00	 9.196508857414937e+00
0	 2.071424879750816e+01	 2.857176635411265e+00	 1.043789601683680e+01
0	 2.071424879750816e+01	 3.571478919343873e+00	 1.114342684246528e+01
0	 2.071424879750815e+01	 4.285783286615008e+00	 1.140351597810288e+01
0	 2.071424879750815e+01	 5.000089153877976e+00	 1.130857772499025e+01
0	 2.071424879750815e+01	 5.714395937786080e+00	 1.094902604181059e+01
0	 2.071424879750815e+01	 6.428703054992628e+00	 1.041527454468985e+01
0	 2.071424879750816e+01	 7.143009922150927e+00	 9.797736507192955e+00
0	 2.142854365071296e+01	 0.000000000000000e+00	-2.119266884978082e-01
0	 2.142854365071296e+01	 7.142881171115512e-01	 3.409550605521285e+00
0	 2.142854365071297e+01	 1.428580650948409e+00	 6.332787201384163e+00
0	 2.142854365071296e+01	 2.142877018163878e+00	 8.610401911651685e+00
0	 2.142854365071296e+01	 2.857176635411264e+00	 1.029501222079416e+01
0	 2.142854365071296e+01	 3.571478919343873e+00	 1.143923428528006e+01
0	 2.142854365071296e+01	 4.285783286615009e+00	 1.209568293364833e+01
0	 2.142854365071296e+01	 5.000089153877975e+00	 1.231697166656458e+01
0	 2.142854365071296e+01	 5.714395937786081e+00	 1.215571265686092e+01
0	 2.142854365071296e+01	 6.428703054992630e+00	 1.166451674955945e+01
0	 2.142854365071297e+01	 7.143009922150927e+00	 1.089599346187973e+01
0	 1.428554761849444e+01	 7.143009922150925e+00	 2.409313036071445e+00
0	 1.428554761849444e+01	 7.857266066626719e+00	 4.639615031908113e+00
0	 1.428554761849444e+01	 8.571521461152162e+00	 6.431014287544580e+00
0	 1.428554761849444e+01	 9.285776189055181e+00	 7.821263828683367e+00
0	 1.428554761849444e+01	 1.000003033366371e+01	 8.848116824619538e+00
0	 1.428554761849444e+01	 1.071428397830567e+01	 9.549326588242499e+00
0	 1.428554761849444e+01	 1.142853720630899e+01	 9.962646576037571e+00
0	 1.428554761849444e+01	 1.214279010100160e+01	 1.012583038808732e+01
0	 1.428554761849444e+01	 1.285704274571142e+01	 1.007663176807259e+01
0	 1.428554761849444e+01	 1.357129522376639e+01	 9.852804603273377e+00
0	 1.428554761849444e+01	 1.428554761849444e+01	 9.492102924569329e+00
0	 1.499984997172427e+01	 7.143009922150928e+00	 1.312442847974091e+00
0	 1.499984997172426e+01	 7.857266066626720e+00	 3.689524327616291e+00
0	 1.499984997172426e+01	 8.571521461152161e+00	 5.658236705967437e+00
0	 1.499984997172426e+01	 9.285776189055182e+00	 7.243651891429662e+00
0	 1.499984997172427e+01	 1.000003033366371e+01	 8.470841971422939e+00
0	 1.499984997172426e+01	 1.071428397830567e+01	 9.364879212387285e+00
0	 1.499984997172426e+01	 1.142853720630899e+01	 9.950836059784697e+00
0	 1.499984997172426e+01	 1.214279010100160e+01	 1.025378513810072e+01
0	 1.499984997172426e+01	 1.285704274571142e+01	 1.029879925084576e+01
0	 1.499984997172426e+01	 1.357129522376639e+01	 1.011095138055601e+01
0	 1.499984997172427e+01	 1.428554761849445e+01	 9.715314688794162e+00
0	 1.571415215828766e+01	 7.143009922150927e+00	 1.024792085336416e+00
0	 1.571415215828766e+01	 7.857266066626718e+00	 3.336574622768201e+00
0	 1.571415215828766e+01	 8.571521461152162e+00	 5.291926912454433e+00
0	 1.571415215828766e+01	 9.285776189055182e+00	 6.905043458889204e+00
0	 1.571415215828766e+01	 1.000003033366371e+01	 8.190118957637869e+00
0	 1.571415215828766e+01	 1.071428397830567e+01	 9.161348295339357e+00
0	 1.571415215828766e+01	 1.142853720630899e+01	 9.832926549708230e+00
0	 1.571415215828766e+01	 1.214279010100160e+01	 1.021904898953632e+01
0	 1.571415215828766e+01	 1.285704274571142e+01	 1.033391107469411e+01
0	 1.571415215828766e+01	 1.357129522376639e+01	 1.019170845613171e+01
0	 1.571415215828766e+01	 1.428554761849444e+01	 9.806636975879563e+00
0	 1.642845401151721e+01	 7.143009922150928e+00	 1.405031660723423e+00
0	 1.642845401151721e+01	 7.857266066626720e+00	 3.481371543880053e+00
0	 1.642845401151721e+01	 8.571521461152161e+00	 5.268939696278361e+00
0	 1.642845401151722e+01	 9.285776189055184e+00	 6.772856896575246e+00
0	 1.642845401151722e+01	 1.000003033366371e+01	 7.998244107160116e+00
0	 1.642845401151721e+01	 1.071428397830567e+01	 8.950222474157155e+00
0	 1.642845401151722e+01	 1.142853720630899e+01	 9.633913327427205e+00
0	 1.642845401151721e+01	 1.214279010100160e+01	 1.005443818056941e+01
0	 1.642845401151722e+01	 1.285704274571142e+01	 1.021691873092244e+01
0	 1.642845401151722e+01	 1.357129522376639e+01	 1.012647685956552e+01
0	 1.642845401151721e+01	 1.428554761849444e+01	 9.788234631319014e+00
0	 1.714275536474550e+01	 7.143009922150927e+00	 2.311832480287763e+00
0	 1.714275536474550e+01	 7.857266066626718e+00	 4.024520754000936e+00
0	 1.714275536474550e+01	 8.571521461152161e+00	 5.526129909412040e+00
0	 1.714275536474550e+01	 9.285776189055184e+00	 6.814510644615018e+00
0	 1.714275536474550e+01	 1.000003033366371e+01	 7.887513818685153e+00
0	 1.714275536474550e+01	 1.071428397830567e+01	 8.742990451681088e+00
0	 1.714275536474550e+01	 1.142853720630899e+01	 9.378791724646440e+00
0	 1.714275536474550e+01	 1.214279010100160e+01	 9.792768979611241e+00
0	 1.714275536474550e+01	 1.285704274571143e+01	 9.982773719593016e+00
0	 1.714275536474550e+01	 1.357129522376640e+01	 9.946657608597654e+00
0	 1.714275536474550e+01	 1.428554761849444e+01	 9.682272471619912e+00
0	 1.785705605130510e+01	 7.143009922150926e+00	 3.603865443769315e+00
0	 1.785705605130510e+01	 7.857266066626718e+00	 4.866627952712452e+00
0	 1.785705605130510e+01	 8.571521461152162e+00	 6.000352466528020e+00
0	 1.785705605130510e+01	 9.285776189055186e+00	 6.997423217749505e+00
0	 1.785705605130510e+01	 1.000003033366371e+01	 7.850224565707919e+00
0	 1.785705605130509e+01	 1.071428397830567e+01	 8.551140996533375e+00
0	 1.785705605130510e+01	 1.142853720630899e+01	 9.092557123156386e+00
0	 1.785705605130509e+01	 1.214279010100160e+01	 9.466857685308966e+00
0	 1.785705605130510e+01	 1.285704274571142e+01	 9.666427549525510e+00
0	 1.785705605130510e+01	 1.357129522376639e+01	 9.683651709143417e+00
0	 1.785705605130510e+01	 1.428554761849444e+01	 9.510915284303573e+00
0	 1.857135590452858e+01	 7.143009922150925e+00	 5.139801444494741e+00
0	 1.857135590452858e+01	 7.857266066626718e+00	 5.908298876128484e+00
0	 1.857135590452858e+01	 8.571521461152162e+00	 6.628462344998476e+00
0	 1.857135590452858e+01	 9.285776189055182e+00	 7.289013205333433e+00
0	 1.857135590452859e+01	 1.000003033366371e+01	 7.878672896522859e+00
0	 1.857135590452859e+01	 1.071428397830567e+01	 8.386162943118078e+00
0	 1.857135590452859e+01	 1.142853720630899e+01	 8.800204954833156e+00
0	 1.857135590452859e+01	 1.214279010100160e+01	 9.109520626545581e+00
0	 1.857135590452858e+01	 1.285704274571142e+01	 9.302831738296904e+00
0	 1.857135590452858e+01	 1.357129522376639e+01	 9.368860155293126e+00
0	 1.857135590452859e+01	 1.428554761849444e+01	 9.296327827905014e+00
0	 1.928565475774854e+01	 7.143009922150928e+00	 6.778311369377040e+00
0	 1.928565475774854e+01	 7.857266066626719e+00	 7.050139296895097e+00
0	 1.928565475774854e+01	 8.571521461152164e+00	 7.347314584895361e+00
0	 1.928565475774854e+01	 9.285776189055184e+00	 7.656699271335554e+00
0	 1.928565475774854e+01	 1.000003033366371e+01	 7.965155434224266e+00
0	 1.928565475774854e+01	 1.071428397830567e+01	 8.259545191621429e+00
0	 1.928565475774854e+01	 1.142853720630899e+01	 8.526730701638751e+00
0	 1.928565475774854e+01	 1.214279010100160e+01	 8.753574162440039e+00
0	 1.928565475774854e+01	 1.285704274571142e+01	 8.926937812241489e+00
0	 1.928565475774854e+01	 1.357129522376639e+01	 9.033683929311881e+00
0	 1.928565475774854e+01	 1.428554761849444e+01	 9.060674831972729e+00
0	 1.999995244429753e+01	 7.143009922150927e+00	 8.378066098915054e+00
0	 1.999995244429753e+01	 7.857266066626718e+00	 8.192755024190578e+00
0	 1.999995244429754e+01	 8.571521461152161e+00	 8.093764288990734e+00
0	 1.999995244429753e+01	 9.285776189055181e+00	 8.067900154339123e+00
0	 1.999995244429754e+01	 1.000003033366371e+01	 8.101968876706811e+00
0	 1.999995244429753e+01	 1.071428397830567e+01	 8.182776708012295e+00
0	 1.999995244429754e+01	 1.142853720630899e+01	 8.297129895621438e+00
0	 1.999995244429753e+01	 1.214279010100159e+01	 8.431834682347457e+00
0	 1.999995244429753e+01	 1.285704274571142e+01	 8.573697306450867e+00
0	 1.999995244429753e+01	 1.357129522376639e+01	 8.709524001639473e+00
0	 1.999995244429753e+01	 1.428554761849444e+01	 8.826120997068344e+00
0	 2.071424879750816e+01	 7.143009922150927e+00	 9.797736507192955e+00
0	 2.071424879750815e+01	 7.857266066626718e+00	 9.236751903725553e+00
0	 2.071424879750816e+01	 8.571521461152162e+00	 8.804666622757363e+00
0	 2.071424879750816e+01	 9.285776189055184e+00	 8.490034667542742e+00
0	 2.071424879750815e+01	 1.000003033366371e+01	 8.281409996666419e+00
0	 2.071424879750816e+01	 1.071428397830566e+01	 8.167346524042959e+00
0	 2.071424879750815e+01	 1.142853720630899e+01	 8.136398118916318e+00
0	 2.071424879750815e+01	 1.214279010100160e+01	 8.177118605859448e+00
0	 2.071424879750816e+01	 1.285704274571142e+01	 8.278061764773993e+00
0	 2.071424879750816e+01	 1.357129522376640e+01	 8.427781330890078e+00
0	 2.071424879750816e+01	 1.428554761849445e+01	 8.614830994766129e+00
0	 2.142854365071297e+01	 7.143009922150927e+00	 1.089599346187973e+01
0	 2.142854365071296e+01	 7.857266066626718e+00	 1.008273581774328e+01
0	 2.142854365071296e+01	 8.571521461152164e+00	 9.416876814369481e+00
0	 2.142854365071296e+01	 9.285776189055184e+00	 8.890521698761370e+00
0	 2.142854365071297e+01	 1.000003033366371e+01	 8.495775641601321e+00
0	 2.142854365071296e+01	 1.071428397830567e+01	 8.224743737250090e+00
0	 2.142854365071296e+01	 1.142853720630899e+01	 8.069531003746045e+00
0	 2.142854365071297e+01	 1.214279010100160e+01	 8.022242382804507e+00
0	 2.142854365071296e+01	 1.285704274571142e+01	 8.074982739817226e+00
0	 2.142854365071296e+01	 1.357129522376639e+01	 8.219856863852014e+00
0	 2.142854365071296e+01	 1.428554761849444e+01	 8.448969467652455e+00
0	 1.428554761849444e+01	 1.428554761849444e+01	 9.492102924569329e+00
0	 1.428554761849444e+01	 1.499984997172426e+01	 9.140906778746800e+00
0	 1.428554761849444e+01	 1.571415215828766e+01	 8.910386092656868e+00
0	 1.428554761849444e+01	 1.642845401151721e+01	 8.785392375486609e+00
0	 1.428554761849444e+01	 1.714275536474550e+01	 8.750777178118007e+00
0	 1.428554761849445e+01	 1.785705605130510e+01	 8.791392093128023e+00
0	 1.428554761849444e+01	 1.857135590452859e+01	 8.892088754788885e+00
0	 1.428554761849444e+01	 1.928565475774854e+01	 9.037718839068447e+00
0	 1.428554761849444e+01	 1.999995244429753e+01	 9.213134063630806e+00
0	 1.428554761849444e+01	 2.071424879750816e+01	 9.403186187836932e+00
0	 1.428554761849444e+01	 2.142854365071296e+01	 9.592727012745492e+00
0	 1.499984997172427e+01	 1.428554761849445e+01	 9.715314688794162e+00
0	 1.499984997172426e+01	 1.499984997172426e+01	 9.285550143299844e+00
0	 1.499984997172426e+01	 1.571415215828766e+01	 8.971519992513580e+00
0	 1.499984997172426e+01	 1.642845401151721e+01	 8.762496357840474e+00
0	 1.499984997172426e+01	 1.714275536474550e+01	 8.647751435458131e+00
0	 1.499984997172426e+01	 1.785705605130509e+01	 8.616557496316783e+00
0	 1.499984997172426e+01	 1.857135590452858e+01	 8.658186886139722e+00
0	 1.499984997172426e+01	 1.928565475774854e+01	 8.761912025423955e+00
0	 1.499984997172426e+01	 1.999995244429753e+01	 8.917005409441126e+00
0	 1.499984997172426e+01	 2.071424879750815e+01	 9.112739608238739e+00
0	 1.499984997172426e+01	 2.142854365071296e+01	 9.338387266641563e+00
0	 1.571415215828766e+01	 1.428554761849444e+01	 9.806636975879563e+00
0	 1.571415215828766e+01	 1.499984997172426e+01	 9.358952067991662e+00
0	 1.571415215828766e+01	 1.571415215828766e+01	 9.014940655799567e+00
0	 1.571415215828766e+01	 1.642845401151721e+01	 8.767740650303768e+00
0	 1.571415215828766e+01	 1.714275536474550e+01	 8.610490055217250e+00
0	 1.571415215828766e+01	 1.785705605130510e+01	 8.536326966965689e+00
0	 1.571415215828766e+01	 1.857135590452858e+01	 8.538389574687944e+00
0	 1.571415215828766e+01	 1.928565475774854e+01	 8.609816160236855e+00
0	 1.571415215828766e+01	 1.999995244429754e+01	 8.743745098180415e+00
0	 1.571415215828766e+01	 2.071424879750815e+01	 8.933314855803241e+00
0	 1.571415215828766e+01	 2.142854365071296e+01	 9.171663993108318e+00
0	 1.642845401151721e+01	 1.428554761849444e+01	 9.788234631319016e+00
0	 1.642845401151721e+01	 1.499984997172426e+01	 9.372052421364563e+00
0	 1.642845401151721e+01	 1.571415215828766e+01	 9.042072801790123e+00
0	 1.642845401151721e+01	 1.642845401151721e+01	 8.794744647827157e+00
0	 1.642845401151722e+01	 1.714275536474550e+01	 8.626516932615754e+00
0	 1.642845401151722e+01	 1.785705605130510e+01	 8.533838727204886e+00
0	 1.642845401151720e+01	 1.857135590452858e+01	 8.513159200552870e+00
0	 1.642845401151721e+01	 1.928565475774854e+01	 8.560927619528279e+00
0	 1.642845401151722e+01	 1.999995244429753e+01	 8.673593348911158e+00
0	 1.642845401151721e+01	 2.071424879750816e+01	 8.847605851394563e+00
0	 1.642845401151721e+01	 2.142854365071296e+01	 9.079414687586482e+00
0	 1.714275536474550e+01	 1.428554761849444e+01	 9.682272471619912e+00
0	 1.714275536474550e+01	 1.499984997172426e+01	 9.335791031208661e+00
0	 1.714275536474550e+01	 1.571415215828766e+01	 9.054341102412266e+00
0	 1.714275536474550e+01	 1.642845401151722e+01	 8.837127695810214e+00
0	 1.714275536474550e+01	 1.714275536474549e+01	 8.683355914736630e+00
0	 1.714275536474550e+01	 1.785705605130510e+01	 8.592230955280506e+00
0	 1.714275536474549e+01	 1.857135590452858e+01	 8.562958106286199e+00
0	 1.714275536474550e+01	 1.928565475774855e+01	 8.594742749354284e+00
0	 1.714275536474549e+01	 1.999995244429753e+01	 8.686790358842721e+00
0	 1.714275536474550e+01	 2.071424879750815e+01	 8.838306501868347e+00
0	 1.714275536474550e+01	 2.142854365071296e+01	 9.048496838308688e+00
0	 1.785705605130510e+01	 1.428554761849444e+01	 9.510915284303575e+00
0	 1.785705605130509e+01	 1.499984997172426e+01	 9.261107684561857e+00
0	 1.785705605130509e+01	 1.571415215828766e+01	 9.053170182244719e+00
0	 1.785705605130509e+01	 1.642845401151721e+01	 8.888509090101412e+00
0	 1.785705605130509e+01	 1.714275536474550e+01	 8.768530800525429e+00
0	 1.785705605130510e+01	 1.785705605130510e+01	 8.694641785554683e+00
0	 1.785705605130510e+01	 1.857135590452859e+01	 8.668248596871983e+00
0	 1.785705605130510e+01	 1.928565475774854e+01	 8.690757865805802e+00
0	 1.785705605130510e+01	 1.999995244429754e+01	 8.763576303331289e+00
0	 1.785705605130510e+01	 2.071424879750816e+01	 8.888110700071591e+00
0	 1.785705605130510e+01	 2.142854365071297e+01	 9.065767926299442e+00
0	 1.857135590452859e+01	 1.428554761849444e+01	 9.296327827905012e+00
0	 1.857135590452859e+01	 1.499984997172426e+01	 9.158942127709626e+00
0	 1.857135590452858e+01	 1.571415215828766e+01	 9.039984618517678e+00
0	 1.857135590452858e+01	 1.642845401151721e+01	 8.942508076997891e+00
0	 1.857135590452858e+01	 1.714275536474549e+01	 8.869565340790063e+00
0	 1.857135590452858e+01	 1.785705605130510e+01	 8.824209308505310e+00
0	 1.857135590452859e+01	 1.857135590452859e+01	 8.809492939726415e+00
0	 1.857135590452858e+01	 1.928565475774854e+01	 8.828469255008478e+00
0	 1.857135590452858e+01	 1.999995244429753e+01	 8.884191335879734e+00
0	 1.857135590452858e+01	 2.071424879750815e+01	 8.979712324842618e+00
0	 1.857135590452858e+01	 2.142854365071296e+01	 9.118085425374989e+00
0	 1.928565475774854e+01	 1.428554761849444e+01	 9.060674831972729e+00
0	 1.928565475774854e+01	 1.499984997172426e+01	 9.040234066184686e+00
0	 1.928565475774854e+01	 1.571415215828766e+01	 9.016208941112467e+00
0	 1.928565475774854e+01	 1.642845401151721e+01	 8.992743853245058e+00
0	 1.928565475774854e+01	 1.714275536474550e+01	 8.973983238200432e+00
0	 1.928565475774854e+01	 1.785705605130509e+01	 8.964071570725725e+00
0	 1.928565475774854e+01	 1.857135590452859e+01	 8.967153364697532e+00
0	 1.928565475774854e+01	 1.928565475774854e+01	 8.987373173122414e+00
0	 1.928565475774854e+01	 1.999995244429753e+01	 9.028875588137428e+00
0	 1.928565475774854e+01	 2.071424879750815e+01	 9.095805241010890e+00
0	 1.928565475774854e+01	 2.142854365071297e+01	 9.192306802143243e+00
0	 1.999995244429753e+01	 1.428554761849444e+01	 8.826120997068344e+00
0	 1.999995244429753e+01	 1.499984997172426e+01	 8.915923164766552e+00
0	 1.999995244429753e+01	 1.571415215828766e+01	 8.983267632560976e+00
0	 1.999995244429754e+01	 1.642845401151721e+01	 9.032835566036068e+00
0	 1.999995244429753e+01	 1.714275536474550e+01	 9.069308147287860e+00
0	 1.999995244429753e+01	 1.785705605130510e+01	 9.097366574924164e+00
0	 1.999995244429753e+01	 1.857135590452857e+01	 9.121692064064788e+00
0	 1.999995244429754e+01	 1.928565475774854e+01	 9.146965846341804e+00
0	 1.999995244429754e+01	 1.999995244429754e+01	 9.177869169899898e+00
0	 1.999995244429753e+01	 2.071424879750816e+01	 9.219083299396788e+00
0	 1.999995244429754e+01	 2.142854365071297e+01	 9.275289516003657e+00
0	 2.071424879750816e+01	 1.428554761849445e+01	 8.614830994766125e+00
0	 2.071424879750814e+01	 1.499984997172426e+01	 8.796949047480885e+00
0	 2.071424879750816e+01	 1.571415215828766e+01	 8.942585128044980e+00
0	 2.071424879750815e+01	 1.642845401151721e+01	 9.056402313011045e+00
0	 2.071424879750816e+01	 1.714275536474550e+01	 9.143063674444393e+00
0	 2.071424879750816e+01	 1.785705605130510e+01	 9.207232279923153e+00
0	 2.071424879750816e+01	 1.857135590452858e+01	 9.253571192538439e+00
0	 2.071424879750815e+01	 1.928565475774854e+01	 9.286743470894438e+00
0	 2.071424879750816e+01	 1.999995244429753e+01	 9.311412169108529e+00
0	 2.071424879750816e+01	 2.071424879750816e+01	 9.332240336811383e+00
0	 2.071424879750816e+01	 2.142854365071296e+01	 9.353891019147024e+00
0	 2.142854365071296e+01	 1.428554761849444e+01	 8.448969467652454e+00
0	 2.142854365071297e+01	 1.499984997172426e+01	 8.694251297598770e+00
0	 2.142854365071296e+01	 1.571415215828766e+01	 8.895585815395256e+00
0	 2.142854365071296e+01	 1.642845401151721e+01	 9.057063142256226e+00
0	 2.142854365071296e+01	 1.714275536474550e+01	 9.182773377921919e+00
0	 2.142854365071296e+01	 1.785705605130510e+01	 9.276806600658656e+00
0	 2.142854365071296e+01	 1.857135590452858e+01	 9.343252867258874e+00
0	 2.142854365071297e+01	 1.928565475774854e+01	 9.386202213041152e+00
0	 2.142854365071297e+01	 1.999995244429754e+01	 9.409744651850080e+00
0	 2.142854365071296e+01	 2.071424879750816e+01	 9.417970176056111e+00
0	 2.142854365071296e+01	 2.142854365071296e+01	 9.414968756555318e+00
0	 1.428554761849444e+01	 2.142854365071296e+01	 9.592727012745492e+00
0	 1.428554761849444e+01	 2.214283692057823e+01	 9.751483857951300e+00
0	 1.428554761849445e+01	 2.285712885710494e+01	 9.863879350249452e+00
0	 1.428554761849444e+01	 2.357141979362770e+01	 9.936808299179443e+00
0	 1.428554761849445e+01	 2.428571006348118e+01	 9.977165536156999e+00
0	 1.428554761849444e+01	 2.500000000000000e+01	 9.991845914475103e+00
0	 1.428554761849444e+01	 2.571428993651883e+01	 9.987744309304897e+00
0	 1.428554761849444e+01	 2.642858020637231e+01	 9.971755617696436e+00
0	 1.428554761849444e+01	 2.714287114289507e+01	 9.950774758579270e+00
0	 1.428554761849444e+01	 2.785716307942177e+01	 9.931696672762870e+00
0	 1.428554761849444e+01	 2.857145634928703e+01	 9.921416322936924e+00
0	 1.499984997172426e+01	 2.142854365071296e+01	 9.338387266641563e+00
0	 1.499984997172426e+01	 2.214283692057824e+01	 9.549784299301832e+00
0	 1.499984997172426e+01	 2.285712885710494e+01	 9.713519488387346e+00
0	 1.499984997172426e+01	 2.357141979362770e+01	 9.834994875639222e+00
0	 1.499984997172426e+01	 2.428571006348118e+01	 9.919612555545585e+00
0	 1.499984997172426e+01	 2.500000000000001e+01	 9.972774675343285e+00
0	 1.499984997172426e+01	 2.571428993651884e+01	 9.999883435019330e+00
0	 1.499984997172426e+01	 2.642858020637230e+01	 1.000634108731186e+01
0	 1.499984997172426e+01	 2.714287114289509e+01	 9.997549937710886e+00
0	 1.499984997172426e+01	 2.785716307942178e+01	 9.978912344458481e+00
0	 1.499984997172426e+01	 2.857145634928704e+01	 9.955830718548754e+00
0	 1.571415215828766e+01	 2.142854365071296e+01	 9.171663993108318e+00
0	 1.571415215828766e+01	 2.214283692057824e+01	 9.407895502814959e+00
0	 1.571415215828766e+01	 2.285712885710493e+01	 9.598397226768050e+00
0	 1.571415215828766e+01	 2.357141979362770e+01	 9.747235121720022e+00
0	 1.571415215828766e+01	 2.428571006348118e+01	 9.858475215786784e+00
0	 1.571415215828766e+01	 2.500000000000001e+01	 9.936183608449833e+00
0	 1.571415215828766e+01	 2.571428993651883e+01	 9.984426470557969e+00
0	 1.571415215828766e+01	 2.642858020637231e+01	 1.000727004432849e+01
0	 1.571415215828766e+01	 2.714287114289508e+01	 1.000878064334787e+01
0	 1.571415215828766e+01	 2.785716307942177e+01	 9.993024652571938e+00
0	 1.571415215828766e+01	 2.857145634928703e+01	 9.964068528325559e+00
0	 1.642845401151721e+01	 2.142854365071296e+01	 9.079414687586482e+00
0	 1.642845401151721e+01	 2.214283692057823e+01	 9.317369003405297e+00
0	 1.642845401151721e+01	 2.285712885710494e+01	 9.514109178942014e+00
0	 1.642845401151721e+01	 2.357141979362769e+01	 9.672521759156369e+00
0	 1.642845401151721e+01	 2.428571006348117e+01	 9.795493368550714e+00
0	 1.642845401151721e+01	 2.500000000000001e+01	 9.885910711172412e+00
0	 1.642845401151721e+01	 2.571428993651883e+01	 9.946660570615636e+00
0	 1.642845401151721e+01	 2.642858020637231e+01	 9.980629810022574e+00
0	 1.642845401151722e+01	 2.714287114289507e+01	 9.990705372084161e+00
0	 1.642845401151722e+01	 2.785716307942178e+01	 9.979774279040186e+00
0	 1.642845401151722e+01	 2.857145634928704e+01	 9.950723632678887e+00
0	 1.714275536474550e+01	 2.142854365071296e+01	 9.048496838308688e+00
0	 1.714275536474550e+01	 2.214283692057824e+01	 9.269756333924878e+00
0	 1.714275536474550e+01	 2.285712885710494e+01	 9.456251959941033e+00
0	 1.714275536474550e+01	 2.357141979362770e+01	 9.609847513325612e+00
0	 1.714275536474550e+01	 2.428571006348117e+01	 9.732406870148735e+00
0	 1.714275536474550e+01	 2.500000000000000e+01	 9.825793985584543e+00
0	 1.714275536474550e+01	 2.571428993651883e+01	 9.891872893912945e+00
0	 1.714275536474550e+01	 2.642858020637232e+01	 9.932507708520838e+00
0	 1.714275536474550e+01	 2.714287114289508e+01	 9.949562621902782e+00
0	 1.714275536474550e+01	 2.785716307942177e+01	 9.944901905661123e+00
0	 1.714275536474550e+01	 2.857145634928703e+01	 9.920389910505527e+00
0	 1.785705605130510e+01	 2.142854365071297e+01	 9.065767926299442e+00
0	 1.785705605130509e+01	 2.214283692057824e+01	 9.256609025163156e+00
0	 1.785705605130509e+01	 2.285712885710494e+01	 9.420422186278188e+00
0	 1.785705605130509e+01	 2.357141979362770e+01	 9.558205113247954e+00
0	 1.785705605130510e+01	 2.428571006348117e+01	 9.670955581533461e+00
0	 1.785705605130511e+01	 2.500000000000001e+01	 9.759671438455523e+00
0	 1.785705605130509e+01	 2.571428993651883e+01	 9.825350603196304e+00
0	 1.785705605130510e+01	 2.642858020637231e+01	 9.868991066800486e+00
0	 1.785705605130510e+01	 2.714287114289508e+01	 9.891590892175893e+00
0	 1.785705605130510e+01	 2.785716307942177e+01	 9.894148214093622e+00
0	 1.785705605130510e+01	 2.857145634928704e+01	 9.877661239187630e+00
0	 1.857135590452858e+01	 2.142854365071296e+01	 9.118085425374989e+00
0	 1.857135590452859e+01	 2.214283692057824e+01	 9.269478605846926e+00
0	 1.857135590452859e+01	 2.285712885710494e+01	 9.402216475947839e+00
0	 1.857135590452858e+01	 2.357141979362770e+01	 9.516587291586379e+00
0	 1.857135590452859e+01	 2.428571006348117e+01	 9.612879368298747e+00
0	 1.857135590452858e+01	 2.500000000000001e+01	 9.691381081250494e+00
0	 1.857135590452858e+01	 2.571428993651883e+01	 9.752380865237958e+00
0	 1.857135590452859e+01	 2.642858020637231e+01	 9.796167214689241e+00
0	 1.857135590452858e+01	 2.714287114289507e+01	 9.823028683664786e+00
0	 1.857135590452859e+01	 2.785716307942177e+01	 9.833253885857534e+00
0	 1.857135590452859e+01	 2.857145634928704e+01	 9.827131494592646e+00
0	 1.928565475774854e+01	 2.142854365071297e+01	 9.192306802143243e+00
0	 1.928565475774854e+01	 2.214283692057824e+01	 9.299916602640224e+00
0	 1.928565475774853e+01	 2.285712885710494e+01	 9.397231448425547e+00
0	 1.928565475774854e+01	 2.357141979362769e+01	 9.483986784646691e+00
0	 1.928565475774854e+01	 2.428571006348117e+01	 9.559918100679651e+00
0	 1.928565475774854e+01	 2.500000000000000e+01	 9.624760930130385e+00
0	 1.928565475774854e+01	 2.571428993651884e+01	 9.678250850835960e+00
0	 1.928565475774854e+01	 2.642858020637232e+01	 9.720123484865335e+00
0	 1.928565475774854e+01	 2.714287114289507e+01	 9.750114498519915e+00
0	 1.928565475774854e+01	 2.785716307942177e+01	 9.767959602333743e+00
0	 1.928565475774854e+01	 2.857145634928704e+01	 9.773394551073373e+00
0	 1.999995244429754e+01	 2.142854365071297e+01	 9.275289516003657e+00
0	 1.999995244429753e+01	 2.214283692057824e+01	 9.339474540144295e+00
0	 1.999995244429753e+01	 2.285712885710494e+01	 9.401063724668068e+00
0	 1.999995244429754e+01	 2.357141979362770e+01	 9.459396332377436e+00
0	 1.999995244429754e+01	 2.428571006348117e+01	 9.513811653552498e+00
0	 1.999995244429753e+01	 2.500000000000000e+01	 9.563649005952016e+00
0	 1.999995244429753e+01	 2.571428993651883e+01	 9.608247734814235e+00
0	 1.999995244429754e+01	 2.642858020637231e+01	 9.646947212857544e+00
0	 1.999995244429753e+01	 2.714287114289507e+01	 9.679086840280922e+00
0	 1.999995244429754e+01	 2.785716307942177e+01	 9.704006044764157e+00
0	 1.999995244429754e+01	 2.857145634928704e+01	 9.721044281467989e+00
0	 2.071424879750816e+01	 2.142854365071296e+01	 9.353891019147024e+00
0	 2.071424879750815e+01	 2.214283692057824e+01	 9.379703940897457e+00
0	 2.071424879750816e+01	 2.285712885710494e+01	 9.409309927113290e+00
0	 2.071424879750816e+01	 2.357141979362770e+01	 9.441808678369963e+00
0	 2.071424879750816e+01	 2.428571006348117e+01	 9.476299906434898e+00
0	 2.071424879750815e+01	 2.500000000000000e+01	 9.511883334268081e+00
0	 2.071424879750815e+01	 2.571428993651884e+01	 9.547658696022634e+00
0	 2.071424879750816e+01	 2.642858020637231e+01	 9.582725737045262e+00
0	 2.071424879750816e+01	 2.714287114289508e+01	 9.616184213876640e+00
0	 2.071424879750815e+01	 2.785716307942177e+01	 9.647133894251724e+00
0	 2.071424879750816e+01	 2.857145634928704e+01	 9.674674557099991e+00
0	 2.142854365071296e+01	 2.142854365071296e+01	 9.414968756555318e+00
0	 2.142854365071296e+01	 2.214283692057824e+01	 9.412156325375088e+00
0	 2.142854365071296e+01	 2.285712885710494e+01	 9.417566679680258e+00
0	 2.142854365071296e+01	 2.357141979362770e+01	 9.430216569858436e+00
0	 2.142854365071296e+01	 2.428571006348117e+01	 9.449122743485777e+00
0	 2.142854365071296e+01	 2.500000000000001e+01	 9.473301945327247e+00
0	 2.142854365071296e+01	 2.571428993651884e+01	 9.501770917336982e+00
0	 2.142854365071296e+01	 2.642858020637231e+01	 9.533546398658519e+00
0	 2.142854365071296e+01	 2.714287114289507e+01	 9.567645125625194e+00
0	 2.142854365071296e+01	 2.785716307942177e+01	 9.603083831760458e+00
0	 2.142854365071296e+01	 2.857145634928703e+01	 9.638879247778268e+00
0	 1.428554761849444e+01	 2.857145634928703e+01	 9.921416322936924e+00
0	 1.428554761849444e+01	 2.928575120249186e+01	 9.924891683076659e+00
0	 1.428554761849444e+01	 3.000004755570247e+01	 9.940194744781182e+00
0	 1.428554761849444e+01	 3.071434524225147e+01	 9.963891504928267e+00
0	 1.428554761849444e+01	 3.142864409547143e+01	 9.992547948851922e+00
0	 1.428554761849444e+01	 3.214294394869491e+01	 1.002273005034267e+01
0	 1.428554761849444e+01	 3.285724463525450e+01	 1.005100377164782e+01
0	 1.428554761849444e+01	 3.357154598848280e+01	 1.007393506347161e+01
0	 1.428554761849444e+01	 3.428584784171235e+01	 1.008808986497537e+01
0	 1.428554761849444e+01	 3.500015002827575e+01	 1.009003410377764e+01
0	 1.428554761849444e+01	 3.571445238150556e+01	 1.007633369595423e+01
0	 1.499984997172426e+01	 2.857145634928704e+01	 9.955830718548754e+00
0	 1.499984997172426e+01	 2.928575120249186e+01	 9.939818320616034e+00
0	 1.499984997172426e+01	 3.000004755570248e+01	 9.936830364274996e+00
0	 1.499984997172426e+01	 3.071434524225147e+01	 9.943932225522580e+00
0	 1.499984997172426e+01	 3.142864409547142e+01	 9.958189274980461e+00
0	 1.499984997172426e+01	 3.214294394869491e+01	 9.976666877895235e+00
0	 1.499984997172426e+01	 3.285724463525451e+01	 9.996430394138551e+00
0	 1.499984997172426e+01	 3.357154598848280e+01	 1.001454517820713e+01
0	 1.499984997172426e+01	 3.428584784171235e+01	 1.002807657922294e+01
0	 1.499984997172426e+01	 3.500015002827575e+01	 1.003408994093317e+01
0	 1.499984997172427e+01	 3.571445238150557e+01	 1.002965060171033e+01
0	 1.571415215828766e+01	 2.857145634928703e+01	 9.964068528325559e+00
0	 1.571415215828766e+01	 2.928575120249185e+01	 9.937262415423218e+00
0	 1.571415215828766e+01	 3.000004755570248e+01	 9.923602517098459e+00
0	 1.571415215828766e+01	 3.071434524225147e+01	 9.920624430049159e+00
0	 1.571415215828766e+01	 3.142864409547143e+01	 9.925863749930535e+00
0	 1.571415215828766e+01	 3.214294394869493e+01	 9.936856071355191e+00
0	 1.571415215828766e+01	 3.285724463525451e+01	 9.951136987893213e+00
0	 1.571415215828766e+01	 3.357154598848280e+01	 9.966242092072120e+00
0	 1.571415215828766e+01	 3.428584784171235e+01	 9.979706975376949e+00
0	 1.571415215828766e+01	 3.500015002827575e+01	 9.989067228250276e+00
0	 1.571415215828766e+01	 3.571445238150557e+01	 9.991858440092194e+00
0	 1.642845401151722e+01	 2.857145634928704e+01	 9.950723632678887e+00
0	 1.642845401151721e+01	 2.928575120249185e+01	 9.920436067793702e+00
0	 1.642845401151721e+01	 3.000004755570248e+01	 9.902520548941091e+00
0	 1.642845401151721e+01	 3.071434524225147e+01	 9.894953733493061e+00
0	 1.642845401151721e+01	 3.142864409547142e+01	 9.895712280526270e+00
0	 1.642845401151721e+01	 3.214294394869491e+01	 9.902772850822029e+00
0	 1.642845401151721e+01	 3.285724463525450e+01	 9.914112106866277e+00
0	 1.642845401151721e+01	 3.357154598848280e+01	 9.927706712849606e+00
0	 1.642845401151721e+01	 3.428584784171235e+01	 9.941533334667190e+00
0	 1.642845401151722e+01	 3.500015002827575e+01	 9.953568639918890e+00
0	 1.642845401151721e+01	 3.571445238150555e+01	 9.961789297909201e+00
0	 1.714275536474550e+01	 2.857145634928703e+01	 9.920389910505527e+00
0	 1.714275536474550e+01	 2.928575120249186e+01	 9.892551375461000e+00
0	 1.714275536474550e+01	 3.000004755570248e+01	 9.875593802214080e+00
0	 1.714275536474549e+01	 3.071434524225146e+01	 9.867905747134714e+00
0	 1.714275536474549e+01	 3.142864409547142e+01	 9.867875769710157e+00
0	 1.714275536474550e+01	 3.214294394869490e+01	 9.873892432544952e+00
0	 1.714275536474550e+01	 3.285724463525451e+01	 9.884344301360851e+00
0	 1.714275536474550e+01	 3.357154598848279e+01	 9.897619944996887e+00
0	 1.714275536474549e+01	 3.428584784171235e+01	 9.912107935409232e+00
0	 1.714275536474550e+01	 3.500015002827575e+01	 9.926196847671335e+00
0	 1.714275536474550e+01	 3.571445238150555e+01	 9.938275259973866e+00
0	 1.785705605130510e+01	 2.857145634928704e+01	 9.877661239187630e+00
0	 1.785705605130509e+01	 2.928575120249185e+01	 9.856820433596669e+00
0	 1.785705605130510e+01	 3.000004755570248e+01	 9.844831616050312e+00
0	 1.785705605130510e+01	 3.071434524225147e+01	 9.840466078549976e+00
0	 1.785705605130510e+01	 3.142864409547143e+01	 9.842495116543066e+00
0	 1.785705605130510e+01	 3.214294394869492e+01	 9.849690028922897e+00
0	 1.785705605130510e+01	 3.285724463525451e+01	 9.860822118028700e+00
0	 1.785705605130510e+01	 3.357154598848280e+01	 9.874662689645564e+00
0	 1.785705605130510e+01	 3.428584784171234e+01	 9.889983053004471e+00
0	 1.785705605130509e+01	 3.500015002827575e+01	 9.905554520782296e+00
0	 1.785705605130510e+01	 3.571445238150556e+01	 9.920148409101825e+00
0	 1.857135590452859e+01	 2.857145634928704e+01	 9.827131494592646e+00
0	 1.857135590452859e+01	 2.928575120249186e+01	 9.816455334810327e+00
0	 1.857135590452858e+01	 3.000004755570248e+01	 9.812243326304387e+00
0	 1.857135590452858e+01	 3.071434524225147e+01	 9.813620331610153e+00
0	 1.857135590452858e+01	 3.142864409547142e+01	 9.819711216204269e+00
0	 1.857135590452858e+01	 3.214294394869491e+01	 9.829640848504585e+00
0	 1.857135590452858e+01	 3.285724463525451e+01	 9.842534099870210e+00
0	 1.857135590452858e+01	 3.357154598848279e+01	 9.857515844601501e+00
0	 1.857135590452858e+01	 3.428584784171235e+01	 9.873710959940082e+00
0	 1.857135590452858e+01	 3.500015002827575e+01	 9.890244326068794e+00
0	 1.857135590452859e+01	 3.571445238150556e+01	 9.906240826111830e+00
0	 1.928565475774854e+01	 2.857145634928704e+01	 9.773394551073373e+00
0	 1.928565475774854e+01	 2.928575120249186e+01	 9.774668169149685e+00
0	 1.928565475774854e+01	 3.000004755570248e+01	 9.779838265552627e+00
0	 1.928565475774853e+01	 3.071434524225146e+01	 9.788354106481988e+00
0	 1.928565475774854e+01	 3.142864409547142e+01	 9.799664959991404e+00
0	 1.928565475774854e+01	 3.214294394869491e+01	 9.813220095988409e+00
0	 1.928565475774854e+01	 3.285724463525451e+01	 9.828468786234451e+00
0	 1.928565475774854e+01	 3.357154598848280e+01	 9.844860304344879e+00
0	 1.928565475774854e+01	 3.428584784171235e+01	 9.861843925789023e+00
0	 1.928565475774854e+01	 3.500015002827575e+01	 9.878868927890196e+00
0	 1.928565475774854e+01	 3.571445238150557e+01	 9.895384589825749e+00
0	 1.999995244429754e+01	 2.857145634928704e+01	 9.721044281467989e+00
0	 1.999995244429754e+01	 2.928575120249187e+01	 9.734671024100519e+00
0	 1.999995244429753e+01	 3.000004755570248e+01	 9.749625763093082e+00
0	 1.999995244429753e+01	 3.071434524225148e+01	 9.765652999627626e+00
0	 1.999995244429753e+01	 3.142864409547143e+01	 9.782497235320497e+00
0	 1.999995244429754e+01	 3.214294394869491e+01	 9.799902972222545e+00
0	 1.999995244429753e+01	 3.285724463525451e+01	 9.817614712819090e+00
0	 1.999995244429753e+01	 3.357154598848280e+01	 9.835376960030073e+00
0	 1.999995244429754e+01	 3.428584784171235e+01	 9.852934217210027e+00
0	 1.999995244429753e+01	 3.500015002827574e+01	 9.870030988148180e+00
0	 1.999995244429753e+01	 3.571445238150556e+01	 9.886411777068492e+00
0	 2.071424879750816e+01	 2.857145634928704e+01	 9.674674557099991e+00
0	 2.071424879750815e+01	 2.928575120249186e+01	 9.699675984586682e+00
0	 2.071424879750816e+01	 3.000004755570249e+01	 9.723615144945482e+00
0	 2.071424879750816e+01	 3.071434524225147e+01	 9.746502603804629e+00
0	 2.071424879750815e+01	 3.142864409547143e+01	 9.768348925725924e+00
0	 2.071424879750816e+01	 3.214294394869491e+01	 9.789164674204788e+00
0	 2.071424879750816e+01	 3.285724463525452e+01	 9.808960411670398e+00
0	 2.071424879750816e+01	 3.357154598848280e+01	 9.827746699485687e+00
0	 2.071424879750814e+01	 3.428584784171235e+01	 9.845534097947512e+00
0	 2.071424879750815e+01	 3.500015002827574e+01	 9.862333166286694e+00
0	 2.071424879750816e+01	 3.571445238150557e+01	 9.878154462668045e+00
0	 2.142854365071296e+01	 2.857145634928703e+01	 9.638879247778268e+00
0	 2.142854365071296e+01	 2.928575120249186e+01	 9.672895132970092e+00
0	 2.142854365071296e+01	 3.000004755570248e+01	 9.703815733851229e+00
0	 2.142854365071297e+01	 3.071434524225148e+01	 9.731888508065920e+00
0	 2.142854365071296e+01	 3.142864409547142e+01	 9.757360910860321e+00
0	 2.142854365071296e+01	 3.214294394869491e+01	 9.780480395082609e+00
0	 2.142854365071296e+01	 3.285724463525451e+01	 9.801494411183128e+00
0	 2.142854365071296e+01	 3.357154598848279e+01	 9.820650407214467e+00
0	 2.142854365071296e+01	 3.428584784171235e+01	 9.838195828831591e+00
0	 2.142854365071296e+01	 3.500015002827575e+01	 9.854378119291916e+00
0	 2.142854365071297e+01	 3.571445238150556e+01	 9.869444719455382e+00
0	 1.428554761849444e+01	 3.571445238150556e+01	 1.007633369595423e+01
0	 1.428554761849444e+01	 3.642870477623360e+01	 1.005227312747931e+01
0	 1.428554761849444e+01	 3.714295725428857e+01	 1.002657941559207e+01
0	 1.428554761849445e+01	 3.785720989899840e+01	 1.000098702075487e+01
0	 1.428554761849444e+01	 3.857146279369100e+01	 9.977230398204833e+00
0	 1.428554761849444e+01	 3.928571602169433e+01	 9.957043997953999e+00
0	 1.428554761849444e+01	 3.999996966633629e+01	 9.942162264789202e+00
0	 1.428554761849444e+01	 4.071422381094481e+01	 9.934319638272214e+00
0	 1.428554761849444e+01	 4.142847853884783e+01	 9.935250552739735e+00
0	 1.428554761849444e+01	 4.214273393337327e+01	 9.946689437303474e+00
0	 1.428554761849445e+01	 4.285699007784908e+01	 9.970370715850182e+00
0	 1.499984997172427e+01	 3.571445238150557e+01	 1.002965060171033e+01
0	 1.499984997172426e+01	 3.642870477623358e+01	 1.001715287097654e+01
0	 1.499984997172426e+01	 3.714295725428857e+01	 1.000199107810848e+01
0	 1.499984997172427e+01	 3.785720989899841e+01	 9.985732819765788e+00
0	 1.499984997172426e+01	 3.857146279369100e+01	 9.969945688887545e+00
0	 1.499984997172426e+01	 3.928571602169432e+01	 9.956197274692205e+00
0	 1.499984997172427e+01	 3.999996966633630e+01	 9.946055162677691e+00
0	 1.499984997172426e+01	 4.071422381094480e+01	 9.941086934621405e+00
0	 1.499984997172426e+01	 4.142847853884783e+01	 9.942860168580236e+00
0	 1.499984997172426e+01	 4.214273393337327e+01	 9.952942438890638e+00
0	 1.499984997172427e+01	 4.285699007784908e+01	 9.972901316168620e+00
0	 1.571415215828766e+01	 3.571445238150557e+01	 9.991858440092194e+00
0	 1.571415215828765e+01	 3.642870477623359e+01	 9.988397021964289e+00
0	 1.571415215828766e+01	 3.714295725428857e+01	 9.981574560790619e+00
0	 1.571415215828766e+01	 3.785720989899840e+01	 9.972789683229129e+00
0	 1.571415215828766e+01	 3.857146279369102e+01	 9.963441013468213e+00
0	 1.571415215828766e+01	 3.928571602169433e+01	 9.954927173226739e+00
0	 1.571415215828766e+01	 3.999996966633628e+01	 9.948646781754043e+00
0	 1.571415215828766e+01	 4.071422381094482e+01	 9.945998455829939e+00
0	 1.571415215828766e+01	 4.142847853884783e+01	 9.948380809764780e+00
0	 1.571415215828766e+01	 4.214273393337327e+01	 9.957192455399500e+00
0	 1.571415215828766e+01	 4.285699007784908e+01	 9.973832002105597e+00
0	 1.642845401151721e+01	 3.571445238150555e+01	 9.961789297909201e+00
0	 1.642845401151722e+01	 3.642870477623360e+01	 9.965139626065620e+00
0	 1.642845401151721e+01	 3.714295725428857e+01	 9.964731985087257e+00
0	 1.642845401151721e+01	 3.785720989899838e+01	 9.961793925234870e+00
0	 1.642845401151721e+01	 3.857146279369101e+01	 9.957552995320825e+00
0	 1.642845401151721e+01	 3.928571602169433e+01	 9.953236742709155e+00
0	 1.642845401151722e+01	 3.999996966633629e+01	 9.950072713315615e+00
0	 1.642845401151721e+01	 4.071422381094481e+01	 9.949288451607618e+00
0	 1.642845401151722e+01	 4.142847853884783e+01	 9.952111500604335e+00
0	 1.642845401151721e+01	 4.214273393337327e+01	 9.959769401876637e+00
0	 1.642845401151721e+01	 4.285699007784907e+01	 9.973489695547212e+00
0	 1.714275536474550e+01	 3.571445238150555e+01	 9.938275259973866e+00
0	 1.714275536474550e+01	 3.642870477623359e+01	 9.946514727337098e+00
0	 1.714275536474550e+01	 3.714295725428856e+01	 9.950865471271554e+00
0	 1.714275536474550e+01	 3.785720989899840e+01	 9.952381859045706e+00
0	 1.714275536474550e+01	 3.857146279369100e+01	 9.952118257294828e+00
0	 1.714275536474550e+01	 3.928571602169432e+01	 9.951129032020896e+00
0	 1.714275536474550e+01	 3.999996966633629e+01	 9.950468548592728e+00
0	 1.714275536474551e+01	 4.071422381094482e+01	 9.951191171745915e+00
0	 1.714275536474550e+01	 4.142847853884782e+01	 9.954351265582854e+00
0	 1.714275536474550e+01	 4.214273393337329e+01	 9.961003193572768e+00
0	 1.714275536474550e+01	 4.285699007784908e+01	 9.972201318551743e+00
0	 1.785705605130510e+01	 3.571445238150556e+01	 9.920148409101824e+00
0	 1.785705605130510e+01	 3.642870477623360e+01	 9.931656368268877e+00
0	 1.785705605130510e+01	 3.714295725428857e+01	 9.939377138440999e+00
0	 1.785705605130510e+01	 3.785720989899841e+01	 9.944189797097000e+00
0	 1.785705605130509e+01	 3.857146279369100e+01	 9.946973421715164e+00
0	 1.785705605130510e+01	 3.928571602169432e+01	 9.948607089773285e+00
0	 1.785705605130509e+01	 3.999996966633628e+01	 9.949969878748576e+00
0	 1.785705605130510e+01	 4.071422381094481e+01	 9.951940866117830e+00
0	 1.785705605130510e+01	 4.142847853884783e+01	 9.955399129357287e+00
0	 1.785705605130510e+01	 4.214273393337327e+01	 9.961223745942782e+00
0	 1.785705605130510e+01	 4.285699007784908e+01	 9.970293793349615e+00
0	 1.857135590452859e+01	 3.571445238150556e+01	 9.906240826111826e+00
0	 1.857135590452858e+01	 3.642870477623359e+01	 9.919698589784627e+00
0	 1.857135590452858e+01	 3.714295725428858e+01	 9.929669104517508e+00
0	 1.857135590452859e+01	 3.785720989899841e+01	 9.936854050996796e+00
0	 1.857135590452858e+01	 3.857146279369100e+01	 9.941955110382363e+00
0	 1.857135590452858e+01	 3.928571602169432e+01	 9.945673964307566e+00
0	 1.857135590452858e+01	 3.999996966633628e+01	 9.948712294879293e+00
0	 1.857135590452859e+01	 4.071422381094482e+01	 9.951771784677998e+00
0	 1.857135590452858e+01	 4.142847853884783e+01	 9.955554116757646e+00
0	 1.857135590452859e+01	 4.214273393337328e+01	 9.960760974645760e+00
0	 1.857135590452858e+01	 4.285699007784907e+01	 9.968094042343447e+00
0	 1.928565475774854e+01	 3.571445238150557e+01	 9.895384589825747e+00
0	 1.928565475774853e+01	 3.642870477623359e+01	 9.909775431241540e+00
0	 1.928565475774854e+01	 3.714295725428857e+01	 9.921143486247313e+00
0	 1.928565475774854e+01	 3.785720989899841e+01	 9.930010931525809e+00
0	 1.928565475774854e+01	 3.857146279369100e+01	 9.936899944572357e+00
0	 1.928565475774854e+01	 3.928571602169433e+01	 9.942332703694888e+00
0	 1.928565475774854e+01	 3.999996966633628e+01	 9.946831388013949e+00
0	 1.928565475774854e+01	 4.071422381094481e+01	 9.950918177462690e+00
0	 1.928565475774854e+01	 4.142847853884783e+01	 9.955115252786902e+00
0	 1.928565475774854e+01	 4.214273393337326e+01	 9.959944795545006e+00
0	 1.928565475774854e+01	 4.285699007784908e+01	 9.965928988108056e+00
0	 1.999995244429753e+01	 3.571445238150556e+01	 9.886411777068490e+00
0	 1.999995244429753e+01	 3.642870477623359e+01	 9.901020930430269e+00
0	 1.999995244429754e+01	 3.714295725428858e+01	 9.913202399200992e+00
0	 1.999995244429754e+01	 3.785720989899840e+01	 9.923296748637393e+00
0	 1.999995244429754e+01	 3.857146279369100e+01	 9.931644545036630e+00
0	 1.999995244429753e+01	 3.928571602169433e+01	 9.938586355736312e+00
0	 1.999995244429753e+01	 3.999996966633629e+01	 9.944462749114518e+00
0	 1.999995244429754e+01	 4.071422381094481e+01	 9.949614294589793e+00
0	 1.999995244429753e+01	 4.142847853884784e+01	 9.954381562621137e+00
0	 1.999995244429753e+01	 4.214273393337328e+01	 9.959105124708040e+00
0	 1.999995244429753e+01	 4.285699007784908e+01	 9.964125553390481e+00
0	 2.071424879750816e+01	 3.571445238150557e+01	 9.878154462668041e+00
0	 2.071424879750816e+01	 3.642870477623360e+01	 9.892569123574974e+00
0	 2.071424879750816e+01	 3.714295725428858e+01	 9.905247957773465e+00
0	 2.071424879750815e+01	 3.785720989899840e+01	 9.916347811457573e+00
0	 2.071424879750815e+01	 3.857146279369100e+01	 9.926025532002141e+00
0	 2.071424879750816e+01	 3.928571602169432e+01	 9.934437967962797e+00
0	 2.071424879750816e+01	 3.999996966633629e+01	 9.941741969075945e+00
0	 2.071424879750816e+01	 4.071422381094482e+01	 9.948094386258829e+00
0	 2.071424879750816e+01	 4.142847853884783e+01	 9.953652071609449e+00
0	 2.071424879750816e+01	 4.214273393337326e+01	 9.958571878406635e+00
0	 2.071424879750816e+01	 4.285699007784908e+01	 9.963010661110001e+00
0	 2.142854365071297e+01	 3.571445238150556e+01	 9.869444719455382e+00
0	 2.142854365071297e+01	 3.642870477623361e+01	 9.883554045333245e+00
0	 2.142854365071296e+01	 3.714295725428858e+01	 9.896682275183910e+00
0	 2.142854365071296e+01	 3.785720989899840e+01	 9.908800428284961e+00
0	 2.142854365071296e+01	 3.857146279369100e+01	 9.919879525171314e+00
0	 2.142854365071296e+01	 3.928571602169432e+01	 9.929890587635192e+00
0	 2.142854365071296e+01	 3.999996966633628e+01	 9.938804638726133e+00
0	 2.142854365071296e+01	 4.071422381094482e+01	 9.946592702751007e+00
0	 2.142854365071296e+01	 4.142847853884783e+01	 9.953225805274053e+00
0	 2.142854365071296e+01	 4.214273393337329e+01	 9.958674973116810e+00
0	 2.142854365071296e+01	 4.285699007784907e+01	 9.962911234358176e+00
0	 1.428554761849445e+01	 4.285699007784908e+01	 9.970370715850184e+00
0	 1.428554761849444e+01	 4.357129694500737e+01	 9.999320339491954e+00
0	 1.428554761849444e+01	 4.428560406221393e+01	 1.002439402586550e+01
0	 1.428554761849444e+01	 4.499991084612204e+01	 1.004407719236054e+01
0	 1.428554761849444e+01	 4.571421671338500e+01	 1.005685521288267e+01
0	 1.428554761849444e+01	 4.642852108065614e+01	 1.006121341785352e+01
0	 1.428554761849445e+01	 4.714282336458874e+01	 1.005563709421062e+01
0	 1.428554761849444e+01	 4.785712298183613e+01	 1.003861148540657e+01
0	 1.428554761849444e+01	 4.857141934905160e+01	 1.000862179140762e+01
0	 1.428554761849445e+01	 4.928571188288846e+01	 9.964153168692039e+00
0	 1.428554761849444e+01	 5.000000000000000e+01	 9.903690730247407e+00
0	 1.499984997172427e+01	 4.285699007784908e+01	 9.972901316168626e+00
0	 1.499984997172426e+01	 4.357129694500736e+01	 9.997389319258573e+00
0	 1.499984997172426e+01	 4.428560406221391e+01	 1.001904897781482e+01
0	 1.499984997172426e+01	 4.499991084612203e+01	 1.003643818666115e+01
0	 1.499984997172426e+01	 4.571421671338501e+01	 1.004811480379326e+01
0	 1.499984997172426e+01	 4.642852108065613e+01	 1.005263665037894e+01
0	 1.499984997172426e+01	 4.714282336458875e+01	 1.004856151075791e+01
0	 1.499984997172426e+01	 4.785712298183612e+01	 1.003444713244130e+01
0	 1.499984997172426e+01	 4.857141934905160e+01	 1.000885122611041e+01
0	 1.499984997172426e+01	 4.928571188288846e+01	 9.970331465615411e+00
0	 1.499984997172426e+01	 5.000000000000000e+01	 9.917445487973161e+00
0	 1.571415215828766e+01	 4.285699007784908e+01	 9.973832002105596e+00
0	 1.571415215828766e+01	 4.357129694500737e+01	 9.994342620789531e+00
0	 1.571415215828766e+01	 4.428560406221393e+01	 1.001293075149095e+01
0	 1.571415215828766e+01	 4.499991084612203e+01	 1.002824429674560e+01
0	 1.571415215828766e+01	 4.571421671338501e+01	 1.003893112836819e+01
0	 1.571415215828766e+01	 4.642852108065615e+01	 1.004363908745274e+01
0	 1.571415215828766e+01	 4.714282336458876e+01	 1.004101598437233e+01
0	 1.571415215828766e+01	 4.785712298183612e+01	 1.002970959877880e+01
0	 1.571415215828766e+01	 4.857141934905160e+01	 1.000836767960187e+01
0	 1.571415215828766e+01	 4.928571188288846e+01	 9.975637945047870e+00
0	 1.571415215828766e+01	 5.000000000000001e+01	 9.930168082598186e+00
0	 1.642845401151721e+01	 4.285699007784907e+01	 9.973489695547215e+00
0	 1.642845401151722e+01	 4.357129694500738e+01	 9.990486698663634e+00
0	 1.642845401151721e+01	 4.428560406221392e+01	 1.000632427258888e+01
0	 1.642845401151722e+01	 4.499991084612203e+01	 1.001975785787695e+01
0	 1.642845401151721e+01	 4.571421671338500e+01	 1.002954286991389e+01
0	 1.642845401151721e+01	 4.642852108065613e+01	 1.003443469891796e+01
0	 1.642845401151722e+01	 4.714282336458874e+01	 1.003318870993971e+01
0	 1.642845401151721e+01	 4.785712298183612e+01	 1.002456024286165e+01
0	 1.642845401151722e+01	 4.857141934905160e+01	 1.000730461239749e+01
0	 1.642845401151721e+01	 4.928571188288846e+01	 9.980177108091544e+00
0	 1.642845401151722e+01	 5.000000000000000e+01	 9.941932994316970e+00
0	 1.714275536474550e+01	 4.285699007784908e+01	 9.972201318551742e+00
0	 1.714275536474550e+01	 4.357129694500738e+01	 9.986128007538298e+00
0	 1.714275536474550e+01	 4.428560406221391e+01	 9.999514466747000e+00
0	 1.714275536474550e+01	 4.499991084612203e+01	 1.001124120510951e+01
0	 1.714275536474550e+01	 4.571421671338501e+01	 1.002018871138318e+01
0	 1.714275536474550e+01	 4.642852108065615e+01	 1.002523745415138e+01
0	 1.714275536474550e+01	 4.714282336458875e+01	 1.002526788182347e+01
0	 1.714275536474550e+01	 4.785712298183613e+01	 1.001916042263474e+01
0	 1.714275536474550e+01	 4.857141934905160e+01	 1.000579548464589e+01
0	 1.714275536474550e+01	 4.928571188288845e+01	 9.984053455742339e+00
0	 1.714275536474550e+01	 4.999999999999999e+01	 9.952814703633347e+00
0	 1.785705605130510e+01	 4.285699007784908e+01	 9.970293793349615e+00
0	 1.785705605130510e+01	 4.357129694500737e+01	 9.981573002149531e+00
0	 1.785705605130510e+01	 4.428560406221392e+01	 9.992786259547167e+00
0	 1.785705605130510e+01	 4.499991084612202e+01	 1.000295667328873e+01
0	 1.785705605130510e+01	 4.571421671338501e+01	 1.001110733537539e+01
0	 1.785705605130510e+01	 4.642852108065613e+01	 1.001626132206347e+01
0	 1.785705605130510e+01	 4.714282336458876e+01	 1.001744169386461e+01
0	 1.785705605130509e+01	 4.785712298183613e+01	 1.001367149554573e+01
0	 1.785705605130510e+01	 4.857141934905161e+01	 1.000397375612879e+01
0	 1.785705605130510e+01	 4.928571188288846e+01	 9.987371488890220e+00
0	 1.785705605130510e+01	 5.000000000000000e+01	 9.962887691360439e+00
0	 1.857135590452858e+01	 4.285699007784907e+01	 9.968094042343445e+00
0	 1.857135590452858e+01	 4.357129694500737e+01	 9.977128137311922e+00
0	 1.857135590452859e+01	 4.428560406221392e+01	 9.986424576514608e+00
0	 1.857135590452858e+01	 4.499991084612203e+01	 9.995166597051343e+00
0	 1.857135590452859e+01	 4.571421671338500e+01	 1.000253742413630e+01
0	 1.857135590452858e+01	 4.642852108065613e+01	 1.000772027109845e+01
0	 1.857135590452858e+01	 4.714282336458874e+01	 1.000989833938165e+01
0	 1.857135590452858e+01	 4.785712298183611e+01	 1.000825481854463e+01
0	 1.857135590452858e+01	 4.857141934905161e+01	 1.000197288626107e+01
0	 1.857135590452858e+01	 4.928571188288845e+01	 9.990235708319030e+00
0	 1.857135590452858e+01	 5.000000000000000e+01	 9.972226438620874e+00
0	 1.928565475774854e+01	 4.285699007784908e+01	 9.965928988108054e+00
0	 1.928565475774854e+01	 4.357129694500738e+01	 9.973099867918766e+00
0	 1.928565475774854e+01	 4.428560406221393e+01	 9.980714343118111e+00
0	 1.928565475774854e+01	 4.499991084612203e+01	 9.988133310825210e+00
0	 1.928565475774853e+01	 4.571421671338499e+01	 9.994717659558139e+00
0	 1.928565475774853e+01	 4.642852108065613e+01	 9.999828269234332e+00
0	 1.928565475774854e+01	 4.714282336458874e+01	 1.000282601117075e+01
0	 1.928565475774854e+01	 4.785712298183613e+01	 1.000307174808408e+01
0	 1.928565475774854e+01	 4.857141934905160e+01	 9.999926334090684e+00
0	 1.928565475774854e+01	 4.928571188288846e+01	 9.992750614706438e+00
0	 1.928565475774854e+01	 5.000000000000000e+01	 9.980905426846784e+00
0	 1.999995244429753e+01	 4.285699007784908e+01	 9.964125553390481e+00
0	 1.999995244429754e+01	 4.357129694500737e+01	 9.969794648941939e+00
0	 1.999995244429753e+01	 4.428560406221391e+01	 9.975940484769879e+00
0	 1.999995244429754e+01	 4.499991084612203e+01	 9.982119148829543e+00
0	 1.999995244429754e+01	 4.571421671338501e+01	 9.987886723179701e+00
0	 1.999995244429754e+01	 4.642852108065614e+01	 9.992799283982878e+00
0	 1.999995244429753e+01	 4.714282336458875e+01	 9.996412901505742e+00
0	 1.999995244429754e+01	 4.785712298183613e+01	 9.998283640119283e+00
0	 1.999995244429754e+01	 4.857141934905161e+01	 9.997967558298829e+00
0	 1.999995244429753e+01	 4.928571188288845e+01	 9.995020708624168e+00
0	 1.999995244429753e+01	 5.000000000000000e+01	 9.988999137779695e+00
0	 2.071424879750816e+01	 4.285699007784908e+01	 9.963010661109999e+00
0	 2.071424879750815e+01	 4.357129694500737e+01	 9.967518935432022e+00
0	 2.071424879750816e+01	 4.428560406221393e+01	 9.972387926825629e+00
0	 2.071424879750816e+01	 4.499991084612203e+01	 9.977386445074789e+00
0	 2.071424879750816e+01	 4.571421671338500e+01	 9.982283296186207e+00
0	 2.071424879750815e+01	 4.642852108065613e+01	 9.986847282389608e+00
0	 2.071424879750816e+01	 4.714282336458874e+01	 9.990847202137981e+00
0	 2.071424879750816e+01	 4.785712298183612e+01	 9.994051850107931e+00
0	 2.071424879750815e+01	 4.857141934905159e+01	 9.996230017199810e+00
0	 2.071424879750815e+01	 4.928571188288845e+01	 9.997150490537937e+00
0	 2.071424879750816e+01	 5.000000000000000e+01	 9.996582053470661e+00
0	 2.142854365071296e+01	 4.285699007784907e+01	 9.962911234358172e+00
0	 2.142854365071296e+01	 4.357129694500738e+01	 9.966579182518313e+00
0	 2.142854365071296e+01	 4.428560406221393e+01	 9.970341594584568e+00
0	 2.142854365071296e+01	 4.499991084612203e+01	 9.974197533362625e+00
0	 2.142854365071296e+01	 4.571421671338500e+01	 9.978146059409474e+00
0	 2.142854365071296e+01	 4.642852108065613e+01	 9.982186231033838e+00
0	 2.142854365071296e+01	 4.714282336458874e+01	 9.986317104296464e+00
0	 2.142854365071296e+01	 4.785712298183613e+01	 9.990537733010358e+00
0	 2.142854365071296e+01	 4.857141934905160e+01	 9.994847168741195e+00
0	 2.142854365071296e+01	 4.928571188288846e+01	 9.999244460807377e+00
0	 2.142854365071296e+01	 5.000000000000001e+01	 1.000372865628041e+01
0	 2.142854365071296e+01	 0.000000000000000e+00	-2.119266884978082e-01
0	 2.142854365071296e+01	 7.142881171115512e-01	 3.409550605521285e+00
0	 2.142854365071297e+01	 1.428580650948409e+00	 6.332787201384163e+00
0	 2.142854365071296e+01	 2.142877018163878e+00	 8.610401911651685e+00
0	 2.142854365071296e+01	 2.857176635411264e+00	 1.029501222079416e+01
0	 2.142854365071296e+01	 3.571478919343873e+00	 1.143923428528006e+01
0	 2.142854365071296e+01	 4.285783286615009e+00	 1.209568293364833e+01
0	 2.142854365071296e+01	 5.000089153877975e+00	 1.231697166656458e+01
0	 2.142854365071296e+01	 5.714395937786081e+00	 1.215571265686092e+01
0	 2.142854365071296e+01	 6.428703054992630e+00	 1.166451674955945e+01
0	 2.142854365071297e+01	 7.143009922150927e+00	 1.089599346187973e+01
0	 2.214283692057824e+01	 0.000000000000000e+00	-6.624406374853553e-02
0	 2.214283692057823e+01	 7.142881171115514e-01	 3.227241591054197e+00
0	 2.214283692057824e+01	 1.428580650948409e+00	 6.014259747947566e+00
0	 2.214283692057824e+01	 2.142877018163879e+00	 8.307417652775190e+00
0	 2.214283692057824e+01	 2.857176635411265e+00	 1.011932056595148e+01
0	 2.214283692057824e+01	 3.571478919343871e+00	 1.146257176259816e+01
0	 2.214283692057824e+01	 4.285783286615008e+00	 1.234977253265659e+01
0	 2.214283692057824e+01	 5.000089153877977e+00	 1.279352218097567e+01
0	 2.214283692057824e+01	 5.714395937786080e+00	 1.280641802737551e+01
0	 2.214283692057824e+01	 6.428703054992628e+00	 1.240105540668671e+01
0	 2.214283692057824e+01	 7.143009922150926e+00	 1.159002766876540e+01
0	 2.285712885710494e+01	 0.000000000000000e+00	 9.899174008145333e-01
0	 2.285712885710494e+01	 7.142881171115515e-01	 3.716849534344462e+00
0	 2.285712885710494e+01	 1.428580650948409e+00	 6.135676606070305e+00
0	 2.285712885710493e+01	 2.142877018163878e+00	 8.225880238196508e+00
0	 2.285712885710494e+01	 2.857176635411264e+00	 9.966939717505834e+00
0	 2.285712885710494e+01	 3.571478919343873e+00	 1.133833199552181e+01
0	 2.285712885710494e+01	 4.285783286615009e+00	 1.231953168864243e+01
0	 2.285712885710493e+01	 5.000089153877974e+00	 1.289001107824532e+01
0	 2.285712885710493e+01	 5.714395937786078e+00	 1.302924011076427e+01
0	 2.285712885710494e+01	 6.428703054992631e+00	 1.271668639773722e+01
0	 2.285712885710494e+01	 7.143009922150927e+00	 1.193181521582554e+01
0	 2.357141979362770e+01	 0.000000000000000e+00	 2.726169669256800e+00
0	 2.357141979362770e+01	 7.142881171115514e-01	 4.720854281442661e+00
0	 2.357141979362770e+01	 1.428580650948409e+00	 6.602663718694629e+00
0	 2.357141979362770e+01	 2.142877018163878e+00	 8.324840325907847e+00
0	 2.357141979362770e+01	 2.857176635411264e+00	 9.840624022270827e+00
0	 2.357141979362770e+01	 3.571478919343873e+00	 1.110325230143481e+01
0	 2.357141979362771e+01	 4.285783286615009e+00	 1.206596023165346e+01
0	 2.357141979362770e+01	 5.000089153877974e+00	 1.268198045589290e+01
0	 2.357141979362770e+01	 5.714395937786081e+00	 1.290454319191186e+01
0	 2.357141979362770e+01	 6.428703054992629e+00	 1.268687623231237e+01
0	 2.357141979362770e+01	 7.143009922150926e+00	 1.198220494456051e+01
0	 2.428571006348117e+01	 0.000000000000000e+00	 4.912126348868505e+00
0	 2.428571006348117e+01	 7.142881171115510e-01	 6.081736668923216e+00
0	 2.428571006348117e+01	 1.428580650948409e+00	 7.320847523739922e+00
0	 2.428571006348118e+01	 2.142877018163878e+00	 8.563348711200216e+00
0	 2.428571006348117e+01	 2.857176635411265e+00	 9.743127725262406e+00
0	 2.428571006348118e+01	 3.571478919343873e+00	 1.079406975612265e+01
0	 2.428571006348117e+01	 4.285783286615008e+00	 1.165005769034788e+01
0	 2.428571006348118e+01	 5.000089153877976e+00	 1.224497211098052e+01
0	 2.428571006348117e+01	 5.714395937786081e+00	 1.251269129761496e+01
0	 2.428571006348117e+01	 6.428703054992627e+00	 1.238709122644576e+01
0	 2.428571006348117e+01	 7.143009922150927e+00	 1.180204557028775e+01
0	 2.500000000000001e+01	 0.000000000000000e+00	 7.317402690199282e+00
0	 2.500000000000001e+01	 7.142881171115514e-01	 7.641978523905368e+00
0	 2.500000000000001e+01	 1.428580650948409e+00	 8.195854954113583e+00
0	 2.500000000000000e+01	 2.142877018163878e+00	 8.900456326666758e+00
0	 2.500000000000001e+01	 2.857176635411265e+00	 9.677204969697256e+00
0	 2.500000000000001e+01	 3.571478919343873e+00	 1.044752119376795e+01
0	 2.500000000000001e+01	 4.285783286615009e+00	 1.113282329198858e+01
0	 2.500000000000001e+01	 5.000089153877975e+00	 1.165452754010723e+01
0	 2.500000000000001e+01	 5.714395937786082e+00	 1.193404819657727e+01
0	 2.500000000000000e+01	 6.428703054992628e+00	 1.189279750259941e+01
0	 2.500000000000000e+01	 7.143009922150926e+00	 1.145218568213924e+01
0	 2.571428993651884e+01	 0.000000000000000e+00	 9.711615587081170e+00
0	 2.571428993651883e+01	 7.142881171115512e-01	 9.244062664067357e+00
0	 2.571428993651884e+01	 1.428580650948409e+00	 9.133313437718334e+00
0	 2.571428993651884e+01	 2.142877018163879e+00	 9.295214242205217e+00
0	 2.571428993651883e+01	 2.857176635411264e+00	 9.645609796991971e+00
0	 2.571428993651884e+01	 3.571478919343873e+00	 1.010034320694775e+01
0	 2.571428993651883e+01	 4.285783286615008e+00	 1.057525596243957e+01
0	 2.571428993651885e+01	 5.000089153877976e+00	 1.098618793940520e+01
0	 2.571428993651883e+01	 5.714395937786081e+00	 1.124897739940624e+01
0	 2.571428993651884e+01	 6.428703054992630e+00	 1.127946098966136e+01
0	 2.571428993651883e+01	 7.143009922150926e+00	 1.099347374305994e+01
0	 2.642858020637231e+01	 0.000000000000000e+00	 1.186438357664017e+01
0	 2.642858020637231e+01	 7.142881171115515e-01	 1.073047289765360e+01
0	 2.642858020637231e+01	 1.428580650948409e+00	 1.003885089745610e+01
0	 2.642858020637231e+01	 2.142877018163878e+00	 9.706673665019428e+00
0	 2.642858020637231e+01	 2.857176635411265e+00	 9.651096146762892e+00
0	 2.642858020637231e+01	 3.571478919343873e+00	 9.789272146632200e+00
0	 2.642858020637232e+01	 4.285783286615009e+00	 1.003835432616428e+01
0	 2.642858020637231e+01	 5.000089153877977e+00	 1.031549420453813e+01
0	 2.642858020637231e+01	 5.714395937786080e+00	 1.053784215861166e+01
0	 2.642858020637232e+01	 6.428703054992629e+00	 1.062254742294455e+01
0	 2.642858020637231e+01	 7.143009922150926e+00	 1.048675808980711e+01
0	 2.714287114289507e+01	 0.000000000000000e+00	 1.354532683929630e+01
0	 2.714287114289507e+01	 7.142881171115513e-01	 1.194369402347496e+01
0	 2.714287114289507e+01	 1.428580650948409e+00	 1.081809575122849e+01
0	 2.714287114289507e+01	 2.142877018163879e+00	 1.009388593961981e+01
0	 2.714287114289508e+01	 2.857176635411265e+00	 9.696417856826661e+00
0	 2.714287114289507e+01	 3.571478919343872e+00	 9.551044122185282e+00
0	 2.714287114289507e+01	 4.285783286615009e+00	 9.583116706226143e+00
0	 2.714287114289507e+01	 5.000089153877976e+00	 9.717986930701642e+00
0	 2.714287114289508e+01	 5.714395937786081e+00	 9.881005468606011e+00
0	 2.714287114289507e+01	 6.428703054992627e+00	 9.997522344187109e+00
0	 2.714287114289508e+01	 7.143009922150927e+00	 9.992886932950380e+00
0	 2.785716307942177e+01	 0.000000000000000e+00	 1.452406719875203e+01
0	 2.785716307942177e+01	 7.142881171115513e-01	 1.272621183090204e+01
0	 2.785716307942177e+01	 1.428580650948409e+00	 1.137667691193369e+01
0	 2.785716307942177e+01	 2.142877018163878e+00	 1.041590254782295e+01
0	 2.785716307942178e+01	 2.857176635411265e+00	 9.784328663201499e+00
0	 2.785716307942177e+01	 3.571478919343873e+00	 9.422395001366983e+00
0	 2.785716307942177e+01	 4.285783286615009e+00	 9.270541124291189e+00
0	 2.785716307942177e+01	 5.000089153877974e+00	 9.269206412625909e+00
0	 2.785716307942177e+01	 5.714395937786081e+00	 9.358830065706627e+00
0	 2.785716307942178e+01	 6.428703054992629e+00	 9.479851101553969e+00
0	 2.785716307942178e+01	 7.143009922150927e+00	 9.572708356872937e+00
0	 2.857145634928704e+01	 0.000000000000000e+00	 1.457022812196942e+01
0	 2.857145634928703e+01	 7.142881171115513e-01	 1.292051309985163e+01
0	 2.857145634928704e+01	 1.428580650948409e+00	 1.162022378745994e+01
0	 2.857145634928704e+01	 2.142877018163878e+00	 1.063177510875017e+01
0	 2.857145634928703e+01	 2.857176635411264e+00	 9.917582200109178e+00
0	 2.857145634928704e+01	 3.571478919343873e+00	 9.440060410337223e+00
0	 2.857145634928704e+01	 4.285783286615009e+00	 9.161625300632821e+00
0	 2.857145634928704e+01	 5.000089153877975e+00	 9.044692644580255e+00
0	 2.857145634928703e+01	 5.714395937786080e+00	 9.051678428139692e+00
0	 2.857145634928704e+01	 6.428703054992629e+00	 9.144998849639846e+00
0	 2.857145634928703e+01	 7.143009922150926e+00	 9.287070319773354e+00
0	 2.142854365071297e+01	 7.143009922150927e+00	 1.089599346187973e+01
0	 2.142854365071296e+01	 7.857266066626718e+00	 1.008273581774328e+01
0	 2.142854365071296e+01	 8.571521461152164e+00	 9.416876814369481e+00
0	 2.142854365071296e+01	 9.285776189055184e+00	 8.890521698761370e+00
0	 2.142854365071297e+01	 1.000003033366371e+01	 8.495775641601321e+00
0	 2.142854365071296e+01	 1.071428397830567e+01	 8.224743737250090e+00
0	 2.142854365071296e+01	 1.142853720630899e+01	 8.069531003746045e+00
0	 2.142854365071297e+01	 1.214279010100160e+01	 8.022242382804507e+00
0	 2.142854365071296e+01	 1.285704274571142e+01	 8.074982739817226e+00
0	 2.142854365071296e+01	 1.357129522376639e+01	 8.219856863852014e+00
0	 2.142854365071296e+01	 1.428554761849444e+01	 8.448969467652455e+00
0	 2.214283692057824e+01	 7.143009922150926e+00	 1.159002766876540e+01
0	 2.214283692057824e+01	 7.857266066626720e+00	 1.065473085534228e+01
0	 2.214283692057824e+01	 8.571521461152162e+00	 9.865507086793613e+00
0	 2.214283692057824e+01	 9.285776189055181e+00	 9.218579294848263e+00
0	 2.214283692057823e+01	 1.000003033366371e+01	 8.710170314763323e+00
0	 2.214283692057824e+01	 1.071428397830567e+01	 8.336502885322961e+00
0	 2.214283692057823e+01	 1.142853720630899e+01	 8.093799648837383e+00
0	 2.214283692057823e+01	 1.214279010100160e+01	 7.978283151142048e+00
0	 2.214283692057824e+01	 1.285704274571142e+01	 7.986175841596999e+00
0	 2.214283692057824e+01	 1.357129522376640e+01	 8.113700073086338e+00
0	 2.214283692057824e+01	 1.428554761849444e+01	 8.357078102017967e+00
0	 2.285712885710494e+01	 7.143009922150927e+00	 1.193181521582554e+01
0	 2.285712885710494e+01	 7.857266066626718e+00	 1.097141281924231e+01
0	 2.285712885710493e+01	 8.571521461152161e+00	 1.014559260482038e+01
0	 2.285712885710493e+01	 9.285776189055182e+00	 9.454024582106001e+00
0	 2.285712885710494e+01	 1.000003033366371e+01	 8.896378654773340e+00
0	 2.285712885710495e+01	 1.071428397830567e+01	 8.472324620623104e+00
0	 2.285712885710494e+01	 1.142853720630899e+01	 8.181532171581521e+00
0	 2.285712885710493e+01	 1.214279010100160e+01	 8.023670893699393e+00
0	 2.285712885710494e+01	 1.285704274571142e+01	 7.998410267151361e+00
0	 2.285712885710494e+01	 1.357129522376640e+01	 8.105419666235392e+00
0	 2.285712885710494e+01	 1.428554761849444e+01	 8.344368359372414e+00
0	 2.357141979362770e+01	 7.143009922150926e+00	 1.198220494456051e+01
0	 2.357141979362770e+01	 7.857266066626717e+00	 1.107536513574767e+01
0	 2.357141979362770e+01	 8.571521461152166e+00	 1.028387303257476e+01
0	 2.357141979362770e+01	 9.285776189055182e+00	 9.610175120134926e+00
0	 2.357141979362770e+01	 1.000003033366371e+01	 9.056717777304504e+00
0	 2.357141979362770e+01	 1.071428397830567e+01	 8.625947276741725e+00
0	 2.357141979362770e+01	 1.142853720630899e+01	 8.320309784885623e+00
0	 2.357141979362770e+01	 1.214279010100160e+01	 8.142251361955132e+00
0	 2.357141979362770e+01	 1.285704274571142e+01	 8.094217961948337e+00
0	 2.357141979362770e+01	 1.357129522376639e+01	 8.178655432641937e+00
0	 2.357141979362770e+01	 1.428554761849444e+01	 8.398009515590891e+00
0	 2.428571006348117e+01	 7.143009922150927e+00	 1.180204557028775e+01
0	 2.428571006348117e+01	 7.857266066626718e+00	 1.100917115946699e+01
0	 2.428571006348117e+01	 8.571521461152159e+00	 1.030708800243159e+01
0	 2.428571006348117e+01	 9.285776189055184e+00	 9.700348464066312e+00
0	 2.428571006348118e+01	 1.000003033366371e+01	 9.193504810055085e+00
0	 2.428571006348118e+01	 1.071428397830567e+01	 8.791109206879781e+00
0	 2.428571006348118e+01	 1.142853720630899e+01	 8.497713721819219e+00
0	 2.428571006348117e+01	 1.214279010100160e+01	 8.317870322948263e+00
0	 2.428571006348117e+01	 1.285704274571142e+01	 8.256130879137194e+00
0	 2.428571006348117e+01	 1.357129522376639e+01	 8.317047160051155e+00
0	 2.428571006348118e+01	 1.428554761849444e+01	 8.505170836149833e+00
0	 2.500000000000000e+01	 7.143009922150926e+00	 1.145218568213924e+01
0	 2.500000000000000e+01	 7.857266066626717e+00	 1.081541417331185e+01
0	 2.500000000000000e+01	 8.571521461152161e+00	 1.024197711501486e+01
0	 2.500000000000001e+01	 9.285776189055186e+00	 9.737862164562191e+00
0	 2.500000000000000e+01	 1.000003033366371e+01	 9.309056892748515e+00
0	 2.500000000000001e+01	 1.071428397830567e+01	 8.961548783848187e+00
0	 2.500000000000000e+01	 1.142853720630899e+01	 8.701325235614348e+00
0	 2.500000000000001e+01	 1.214279010100160e+01	 8.534373559278187e+00
0	 2.500000000000001e+01	 1.285704274571142e+01	 8.466680979548300e+00
0	 2.500000000000000e+01	 1.357129522376639e+01	 8.504234634610276e+00
0	 2.500000000000000e+01	 1.428554761849444e+01	 8.653021576126386e+00
0	 2.571428993651883e+01	 7.143009922150926e+00	 1.099347374305994e+01
0	 2.571428993651883e+01	 7.857266066626718e+00	 1.053667738849584e+01
0	 2.571428993651883e+01	 8.571521461152162e+00	 1.011527993919727e+01
0	 2.571428993651884e+01	 9.285776189055184e+00	 9.736033767815174e+00
0	 2.571428993651883e+01	 1.000003033366371e+01	 9.405691177133411e+00
0	 2.571428993651884e+01	 1.071428397830567e+01	 9.131004400067848e+00
0	 2.571428993651884e+01	 1.142853720630899e+01	 8.918725599665636e+00
0	 2.571428993651884e+01	 1.214279010100160e+01	 8.775606869104623e+00
0	 2.571428993651883e+01	 1.285704274571143e+01	 8.708400231692833e+00
0	 2.571428993651883e+01	 1.357129522376639e+01	 8.723857640868122e+00
0	 2.571428993651884e+01	 1.428554761849445e+01	 8.828730980197898e+00
0	 2.642858020637231e+01	 7.143009922150926e+00	 1.048675808980711e+01
0	 2.642858020637231e+01	 7.857266066626718e+00	 1.021554394453411e+01
0	 2.642858020637231e+01	 8.571521461152164e+00	 9.953736012099975e+00
0	 2.642858020637231e+01	 9.285776189055182e+00	 9.708180815548365e+00
0	 2.642858020637231e+01	 1.000003033366371e+01	 9.485724826983517e+00
0	 2.642858020637232e+01	 1.071428397830567e+01	 9.293214467569570e+00
0	 2.642858020637231e+01	 1.142853720630899e+01	 9.137496107530044e+00
0	 2.642858020637231e+01	 1.214279010100160e+01	 9.025416066147367e+00
0	 2.642858020637231e+01	 1.285704274571142e+01	 8.963820611762515e+00
0	 2.642858020637231e+01	 1.357129522376640e+01	 8.959555961774754e+00
0	 2.642858020637231e+01	 1.428554761849444e+01	 9.019468282641428e+00
0	 2.714287114289508e+01	 7.143009922150927e+00	 9.992886932950382e+00
0	 2.714287114289507e+01	 7.857266066626718e+00	 9.894596909243479e+00
0	 2.714287114289508e+01	 8.571521461152164e+00	 9.784084839092614e+00
0	 2.714287114289507e+01	 9.285776189055186e+00	 9.667620845015236e+00
0	 2.714287114289507e+01	 1.000003033366371e+01	 9.551475018097506e+00
0	 2.714287114289507e+01	 1.071428397830567e+01	 9.441917417993855e+00
0	 2.714287114289507e+01	 1.142853720630899e+01	 9.345218072926667e+00
0	 2.714287114289509e+01	 1.214279010100160e+01	 9.267646979685972e+00
0	 2.714287114289507e+01	 1.285704274571142e+01	 9.215474103629214e+00
0	 2.714287114289508e+01	 1.357129522376640e+01	 9.194969378681083e+00
0	 2.714287114289507e+01	 1.428554761849444e+01	 9.212402707333373e+00
0	 2.785716307942178e+01	 7.143009922150927e+00	 9.572708356872937e+00
0	 2.785716307942177e+01	 7.857266066626719e+00	 9.616419278742978e+00
0	 2.785716307942177e+01	 8.571521461152162e+00	 9.633065893793471e+00
0	 2.785716307942177e+01	 9.285776189055184e+00	 9.627671388999580e+00
0	 2.785716307942177e+01	 1.000003033366371e+01	 9.605258938298753e+00
0	 2.785716307942177e+01	 1.071428397830567e+01	 9.570851702590502e+00
0	 2.785716307942177e+01	 1.142853720630899e+01	 9.529472829736282e+00
0	 2.785716307942177e+01	 1.214279010100160e+01	 9.486145454559326e+00
0	 2.785716307942178e+01	 1.285704274571143e+01	 9.445892698844558e+00
0	 2.785716307942177e+01	 1.357129522376639e+01	 9.413737671338476e+00
0	 2.785716307942178e+01	 1.428554761849445e+01	 9.394703467749112e+00
0	 2.857145634928703e+01	 7.143009922150926e+00	 9.287070319773354e+00
0	 2.857145634928704e+01	 7.857266066626718e+00	 9.423593977454960e+00
0	 2.857145634928704e+01	 8.571521461152164e+00	 9.527418618069948e+00
0	 2.857145634928704e+01	 9.285776189055182e+00	 9.601649975815493e+00
0	 2.857145634928704e+01	 1.000003033366371e+01	 9.649393787434994e+00
0	 2.857145634928704e+01	 1.071428397830567e+01	 9.673755792218131e+00
0	 2.857145634928704e+01	 1.142853720630899e+01	 9.677841732000784e+00
0	 2.857145634928704e+01	 1.214279010100160e+01	 9.664757351165097e+00
0	 2.857145634928703e+01	 1.285704274571142e+01	 9.637608396639445e+00
0	 2.857145634928704e+01	 1.357129522376639e+01	 9.599500617898425e+00
0	 2.857145634928703e+01	 1.428554761849444e+01	 9.553539766962812e+00
0	 2.142854365071296e+01	 1.428554761849444e+01	 8.448969467652454e+00
0	 2.142854365071297e+01	 1.499984997172426e+01	 8.694251297598770e+00
0	 2.142854365071296e+01	 1.571415215828766e+01	 8.895585815395256e+00
0	 2.142854365071296e+01	 1.642845401151721e+01	 9.057063142256226e+00
0	 2.142854365071296e+01	 1.714275536474550e+01	 9.182773377921919e+00
0	 2.142854365071296e+01	 1.785705605130510e+01	 9.276806600658656e+00
0	 2.142854365071296e+01	 1.857135590452858e+01	 9.343252867258874e+00
0	 2.142854365071297e+01	 1.928565475774854e+01	 9.386202213041152e+00
0	 2.142854365071297e+01	 1.999995244429754e+01	 9.409744651850080e+00
0	 2.142854365071296e+01	 2.071424879750816e+01	 9.417970176056111e+00
0	 2.142854365071296e+01	 2.142854365071296e+01	 9.414968756555318e+00
0	 2.214283692057824e+01	 1.428554761849444e+01	 8.357078102017967e+00
0	 2.214283692057823e+01	 1.499984997172426e+01	 8.633172545029277e+00
0	 2.214283692057824e+01	 1.571415215828766e+01	 8.863510983289373e+00
0	 2.214283692057824e+01	 1.642845401151721e+01	 9.051376035936142e+00
0	 2.214283692057825e+01	 1.714275536474550e+01	 9.200050289509573e+00
0	 2.214283692057824e+01	 1.785705605130510e+01	 9.312816297951798e+00
0	 2.214283692057824e+01	 1.857135590452858e+01	 9.392956582607138e+00
0	 2.214283692057824e+01	 1.928565475774854e+01	 9.443753632222020e+00
0	 2.214283692057824e+01	 1.999995244429753e+01	 9.468489902944672e+00
0	 2.214283692057824e+01	 2.071424879750816e+01	 9.470447818324876e+00
0	 2.214283692057824e+01	 2.142854365071296e+01	 9.452909769313450e+00
0	 2.285712885710494e+01	 1.428554761849444e+01	 8.344368359372414e+00
0	 2.285712885710494e+01	 1.499984997172426e+01	 8.626163159817956e+00
0	 2.285712885710493e+01	 1.571415215828766e+01	 8.863596030748834e+00
0	 2.285712885710494e+01	 1.642845401151721e+01	 9.059227870319845e+00
0	 2.285712885710494e+01	 1.714275536474550e+01	 9.215619538505397e+00
0	 2.285712885710494e+01	 1.785705605130510e+01	 9.335331857099565e+00
0	 2.285712885710494e+01	 1.857135590452858e+01	 9.420925609716122e+00
0	 2.285712885710494e+01	 1.928565475774854e+01	 9.474961541788311e+00
0	 2.285712885710494e+01	 1.999995244429754e+01	 9.500000360568583e+00
0	 2.285712885710493e+01	 2.071424879750816e+01	 9.498602735128154e+00
0	 2.285712885710494e+01	 2.142854365071296e+01	 9.473329296356425e+00
0	 2.357141979362770e+01	 1.428554761849444e+01	 8.398009515590894e+00
0	 2.357141979362770e+01	 1.499984997172426e+01	 8.664824291976208e+00
0	 2.357141979362770e+01	 1.571415215828766e+01	 8.891256459195686e+00
0	 2.357141979362770e+01	 1.642845401151721e+01	 9.079230978966768e+00
0	 2.357141979362770e+01	 1.714275536474550e+01	 9.230672773920908e+00
0	 2.357141979362770e+01	 1.785705605130509e+01	 9.347506727603690e+00
0	 2.357141979362770e+01	 1.857135590452859e+01	 9.431657684474777e+00
0	 2.357141979362769e+01	 1.928565475774853e+01	 9.485050449907694e+00
0	 2.357141979362770e+01	 1.999995244429754e+01	 9.509609790189529e+00
0	 2.357141979362770e+01	 2.071424879750816e+01	 9.507260432520484e+00
0	 2.357141979362770e+01	 2.142854365071297e+01	 9.479927065013227e+00
0	 2.428571006348118e+01	 1.428554761849444e+01	 8.505170836149833e+00
0	 2.428571006348118e+01	 1.499984997172427e+01	 8.740757074317488e+00
0	 2.428571006348118e+01	 1.571415215828766e+01	 8.941907748170083e+00
0	 2.428571006348118e+01	 1.642845401151721e+01	 9.109997670745582e+00
0	 2.428571006348117e+01	 1.714275536474550e+01	 9.246401618902865e+00
0	 2.428571006348117e+01	 1.785705605130509e+01	 9.352494333321742e+00
0	 2.428571006348117e+01	 1.857135590452859e+01	 9.429650518502958e+00
0	 2.428571006348117e+01	 1.928565475774854e+01	 9.479244842767981e+00
0	 2.428571006348117e+01	 1.999995244429754e+01	 9.502651938258659e+00
0	 2.428571006348117e+01	 2.071424879750816e+01	 9.501246400936868e+00
0	 2.428571006348117e+01	 2.142854365071296e+01	 9.476402790583851e+00
0	 2.500000000000000e+01	 1.428554761849444e+01	 8.653021576126388e+00
0	 2.500000000000001e+01	 1.499984997172427e+01	 8.845562622456598e+00
0	 2.500000000000000e+01	 1.571415215828766e+01	 9.010965355329450e+00
0	 2.500000000000001e+01	 1.642845401151721e+01	 9.150140229833347e+00
0	 2.500000000000000e+01	 1.714275536474550e+01	 9.263997670732365e+00
0	 2.500000000000001e+01	 1.785705605130510e+01	 9.353448072466307e+00
0	 2.500000000000001e+01	 1.857135590452858e+01	 9.419401799150663e+00
0	 2.500000000000000e+01	 1.928565475774854e+01	 9.462769184576443e+00
0	 2.500000000000000e+01	 1.999995244429753e+01	 9.484460532209905e+00
0	 2.500000000000001e+01	 2.071424879750815e+01	 9.485386115192217e+00
0	 2.500000000000001e+01	 2.142854365071296e+01	 9.466456176338930e+00
0	 2.571428993651884e+01	 1.428554761849445e+01	 8.828730980197900e+00
0	 2.571428993651883e+01	 1.499984997172426e+01	 8.970842034809031e+00
0	 2.571428993651883e+01	 1.571415215828766e+01	 9.093844716447824e+00
0	 2.571428993651883e+01	 1.642845401151721e+01	 9.198270915714753e+00
0	 2.571428993651884e+01	 1.714275536474551e+01	 9.284652500824148e+00
0	 2.571428993651883e+01	 1.785705605130509e+01	 9.353521317604301e+00
0	 2.571428993651883e+01	 1.857135590452858e+01	 9.405409189497371e+00
0	 2.571428993651884e+01	 1.928565475774854e+01	 9.440847917559278e+00
0	 2.571428993651884e+01	 1.999995244429754e+01	 9.460369280459558e+00
0	 2.571428993651883e+01	 2.071424879750815e+01	 9.464505034481009e+00
0	 2.571428993651884e+01	 2.142854365071296e+01	 9.453786913519421e+00
0	 2.642858020637231e+01	 1.428554761849444e+01	 9.019468282641432e+00
0	 2.642858020637231e+01	 1.499984997172426e+01	 9.108196392590466e+00
0	 2.642858020637231e+01	 1.571415215828766e+01	 9.185961245415296e+00
0	 2.642858020637231e+01	 1.642845401151721e+01	 9.253001963181614e+00
0	 2.642858020637231e+01	 1.714275536474550e+01	 9.309557654726103e+00
0	 2.642858020637232e+01	 1.785705605130510e+01	 9.355867415656514e+00
0	 2.642858020637231e+01	 1.857135590452858e+01	 9.392170328351634e+00
0	 2.642858020637232e+01	 1.928565475774854e+01	 9.418705461961238e+00
0	 2.642858020637231e+01	 1.999995244429754e+01	 9.435711872405927e+00
0	 2.642858020637231e+01	 2.071424879750815e+01	 9.443428602377031e+00
0	 2.642858020637232e+01	 2.142854365071296e+01	 9.442094681336361e+00
0	 2.714287114289507e+01	 1.428554761849444e+01	 9.212402707333370e+00
0	 2.714287114289507e+01	 1.499984997172426e+01	 9.249226759816366e+00
0	 2.714287114289508e+01	 1.571415215828766e+01	 9.282730334237652e+00
0	 2.714287114289507e+01	 1.642845401151721e+01	 9.312945582332526e+00
0	 2.714287114289508e+01	 1.714275536474550e+01	 9.339904652118893e+00
0	 2.714287114289507e+01	 1.785705605130510e+01	 9.363639687897283e+00
0	 2.714287114289507e+01	 1.857135590452858e+01	 9.384182830250847e+00
0	 2.714287114289507e+01	 1.928565475774854e+01	 9.401566216045342e+00
0	 2.714287114289507e+01	 1.999995244429753e+01	 9.415821978429143e+00
0	 2.714287114289508e+01	 2.071424879750816e+01	 9.426982246833148e+00
0	 2.714287114289507e+01	 2.142854365071296e+01	 9.435079146970784e+00
0	 2.785716307942178e+01	 1.428554761849445e+01	 9.394703467749112e+00
0	 2.785716307942177e+01	 1.499984997172426e+01	 9.385534183301727e+00
0	 2.785716307942177e+01	 1.571415215828766e+01	 9.379567353036107e+00
0	 2.785716307942178e+01	 1.642845401151722e+01	 9.376713958572648e+00
0	 2.785716307942177e+01	 1.714275536474550e+01	 9.376884986815865e+00
0	 2.785716307942177e+01	 1.785705605130510e+01	 9.379991429954401e+00
0	 2.785716307942177e+01	 1.857135590452858e+01	 9.385944285461072e+00
0	 2.785716307942178e+01	 1.928565475774854e+01	 9.394654556092878e+00
0	 2.785716307942177e+01	 1.999995244429754e+01	 9.406033249891085e+00
0	 2.785716307942177e+01	 2.071424879750815e+01	 9.419991380181303e+00
0	 2.785716307942178e+01	 2.142854365071296e+01	 9.436439965573598e+00
0	 2.857145634928703e+01	 1.428554761849444e+01	 9.553539766962814e+00
0	 2.857145634928704e+01	 1.499984997172426e+01	 9.508719692660900e+00
0	 2.857145634928703e+01	 1.571415215828766e+01	 9.471887650047282e+00
0	 2.857145634928704e+01	 1.642845401151721e+01	 9.442919252613702e+00
0	 2.857145634928704e+01	 1.714275536474550e+01	 9.421690126763018e+00
0	 2.857145634928704e+01	 1.785705605130510e+01	 9.408075911809149e+00
0	 2.857145634928704e+01	 1.857135590452858e+01	 9.401952259977175e+00
0	 2.857145634928703e+01	 1.928565475774853e+01	 9.403194836403404e+00
0	 2.857145634928703e+01	 1.999995244429753e+01	 9.411679319135464e+00
0	 2.857145634928704e+01	 2.071424879750816e+01	 9.427281399132573e+00
0	 2.857145634928704e+01	 2.142854365071296e+01	 9.449876780265667e+00
0	 2.142854365071296e+01	 2.142854365071296e+01	 9.414968756555318e+00
0	 2.142854365071296e+01	 2.214283692057824e+01	 9.412156325375088e+00
0	 2.142854365071296e+01	 2.285712885710494e+01	 9.417566679680258e+00
0	 2.142854365071296e+01	 2.357141979362770e+01	 9.430216569858436e+00
0	 2.142854365071296e+01	 2.428571006348117e+01	 9.449122743485777e+00
0	 2.142854365071296e+01	 2.500000000000001e+01	 9.473301945327247e+00
0	 2.142854365071296e+01	 2.571428993651884e+01	 9.501770917336982e+00
0	 2.142854365071296e+01	 2.642858020637231e+01	 9.533546398658519e+00
0	 2.142854365071296e+01	 2.714287114289507e+01	 9.567645125625194e+00
0	 2.142854365071296e+01	 2.785716307942177e+01	 9.603083831760458e+00
0	 2.142854365071296e+01	 2.857145634928703e+01	 9.638879247778268e+00
0	 2.214283692057824e+01	 2.142854365071296e+01	 9.452909769313450e+00
0	 2.214283692057824e+01	 2.214283692057824e+01	 9.432430465386892e+00
0	 2.214283692057824e+01	 2.285712885710494e+01	 9.422725288328968e+00
0	 2.214283692057824e+01	 2.357141979362770e+01	 9.422817603275208e+00
0	 2.214283692057824e+01	 2.428571006348118e+01	 9.431730762258876e+00
0	 2.214283692057824e+01	 2.500000000000000e+01	 9.448488104211041e+00
0	 2.214283692057824e+01	 2.571428993651884e+01	 9.472112954960604e+00
0	 2.214283692057824e+01	 2.642858020637232e+01	 9.501628627234583e+00
0	 2.214283692057824e+01	 2.714287114289507e+01	 9.536058420658321e+00
0	 2.214283692057824e+01	 2.785716307942177e+01	 9.574425621755948e+00
0	 2.214283692057824e+01	 2.857145634928704e+01	 9.615753503950804e+00
0	 2.285712885710494e+01	 2.142854365071296e+01	 9.473329296356425e+00
0	 2.285712885710494e+01	 2.214283692057824e+01	 9.443327528159557e+00
0	 2.285712885710493e+01	 2.285712885710493e+01	 9.425406192670323e+00
0	 2.285712885710494e+01	 2.357141979362770e+01	 9.418617794633537e+00
0	 2.285712885710494e+01	 2.428571006348118e+01	 9.422014818996789e+00
0	 2.285712885710494e+01	 2.500000000000000e+01	 9.434649730910271e+00
0	 2.285712885710494e+01	 2.571428993651883e+01	 9.455574975726769e+00
0	 2.285712885710494e+01	 2.642858020637232e+01	 9.483842979001812e+00
0	 2.285712885710494e+01	 2.714287114289507e+01	 9.518506146493884e+00
0	 2.285712885710494e+01	 2.785716307942177e+01	 9.558616864164859e+00
0	 2.285712885710494e+01	 2.857145634928704e+01	 9.603227498180559e+00
0	 2.357141979362770e+01	 2.142854365071297e+01	 9.479927065013227e+00
0	 2.357141979362770e+01	 2.214283692057824e+01	 9.447202619405088e+00
0	 2.357141979362770e+01	 2.285712885710493e+01	 9.426799714466794e+00
0	 2.357141979362770e+01	 2.357141979362770e+01	 9.417822521995383e+00
0	 2.357141979362770e+01	 2.428571006348117e+01	 9.419375190387981e+00
0	 2.357141979362770e+01	 2.500000000000001e+01	 9.430561844641495e+00
0	 2.357141979362770e+01	 2.571428993651884e+01	 9.450486586352612e+00
0	 2.357141979362770e+01	 2.642858020637231e+01	 9.478253493717812e+00
0	 2.357141979362770e+01	 2.714287114289508e+01	 9.512966621533639e+00
0	 2.357141979362770e+01	 2.785716307942177e+01	 9.553730001197083e+00
0	 2.357141979362770e+01	 2.857145634928704e+01	 9.599647640706186e+00
0	 2.428571006348117e+01	 2.142854365071296e+01	 9.476402790583851e+00
0	 2.428571006348117e+01	 2.214283692057824e+01	 9.446410836379929e+00
0	 2.428571006348118e+01	 2.285712885710494e+01	 9.428096170488978e+00
0	 2.428571006348118e+01	 2.357141979362770e+01	 9.420637161721606e+00
0	 2.428571006348118e+01	 2.428571006348118e+01	 9.423212154474598e+00
0	 2.428571006348117e+01	 2.500000000000000e+01	 9.434999468730584e+00
0	 2.428571006348117e+01	 2.571428993651883e+01	 9.455177400057938e+00
0	 2.428571006348117e+01	 2.642858020637231e+01	 9.482924219610842e+00
0	 2.428571006348118e+01	 2.714287114289508e+01	 9.517418174129491e+00
0	 2.428571006348117e+01	 2.785716307942176e+01	 9.557837485940524e+00
0	 2.428571006348117e+01	 2.857145634928703e+01	 9.603360352957582e+00
0	 2.500000000000001e+01	 2.142854365071296e+01	 9.466456176338930e+00
0	 2.500000000000001e+01	 2.214283692057824e+01	 9.443307267884746e+00
0	 2.500000000000000e+01	 2.285712885710494e+01	 9.430485872515399e+00
0	 2.500000000000000e+01	 2.357141979362770e+01	 9.427267088471817e+00
0	 2.500000000000000e+01	 2.428571006348117e+01	 9.432925990652382e+00
0	 2.500000000000001e+01	 2.500000000000000e+01	 9.446737630612651e+00
0	 2.500000000000000e+01	 2.571428993651883e+01	 9.467977036565228e+00
0	 2.500000000000001e+01	 2.642858020637231e+01	 9.495919213379858e+00
0	 2.500000000000000e+01	 2.714287114289507e+01	 9.529839142583615e+00
0	 2.500000000000001e+01	 2.785716307942178e+01	 9.569011782361301e+00
0	 2.500000000000001e+01	 2.857145634928704e+01	 9.612712067555977e+00
0	 2.571428993651884e+01	 2.142854365071296e+01	 9.453786913519421e+00
0	 2.571428993651884e+01	 2.214283692057824e+01	 9.440246994264106e+00
0	 2.571428993651883e+01	 2.285712885710494e+01	 9.435159127332334e+00
0	 2.571428993651883e+01	 2.357141979362770e+01	 9.437917675204293e+00
0	 2.571428993651883e+01	 2.428571006348117e+01	 9.447916979670600e+00
0	 2.571428993651883e+01	 2.500000000000000e+01	 9.464551361832070e+00
0	 2.571428993651883e+01	 2.571428993651883e+01	 9.487215122099686e+00
0	 2.571428993651883e+01	 2.642858020637231e+01	 9.515302540194643e+00
0	 2.571428993651884e+01	 2.714287114289507e+01	 9.548207875148526e+00
0	 2.571428993651883e+01	 2.785716307942177e+01	 9.585325365303772e+00
0	 2.571428993651884e+01	 2.857145634928704e+01	 9.626049228314084e+00
0	 2.642858020637232e+01	 2.142854365071296e+01	 9.442094681336361e+00
0	 2.642858020637232e+01	 2.214283692057824e+01	 9.439585087406321e+00
0	 2.642858020637231e+01	 2.285712885710493e+01	 9.443306236733676e+00
0	 2.642858020637231e+01	 2.357141979362770e+01	 9.452794293175874e+00
0	 2.642858020637232e+01	 2.428571006348118e+01	 9.467585403631963e+00
0	 2.642858020637231e+01	 2.500000000000000e+01	 9.487215698042432e+00
0	 2.642858020637232e+01	 2.571428993651884e+01	 9.511221289389180e+00
0	 2.642858020637231e+01	 2.642858020637230e+01	 9.539138273695656e+00
0	 2.642858020637231e+01	 2.714287114289508e+01	 9.570502730027037e+00
0	 2.642858020637231e+01	 2.785716307942177e+01	 9.604850720490552e+00
0	 2.642858020637231e+01	 2.857145634928704e+01	 9.641718290235993e+00
0	 2.714287114289507e+01	 2.142854365071296e+01	 9.435079146970784e+00
0	 2.714287114289508e+01	 2.214283692057824e+01	 9.443676610743371e+00
0	 2.714287114289506e+01	 2.285712885710494e+01	 9.456117497520822e+00
0	 2.714287114289507e+01	 2.357141979362770e+01	 9.472102311941835e+00
0	 2.714287114289507e+01	 2.428571006348117e+01	 9.491331545992566e+00
0	 2.714287114289507e+01	 2.500000000000001e+01	 9.513505679006405e+00
0	 2.714287114289508e+01	 2.571428993651884e+01	 9.538325177664154e+00
0	 2.714287114289508e+01	 2.642858020637231e+01	 9.565490495994080e+00
0	 2.714287114289508e+01	 2.714287114289508e+01	 9.594702075372172e+00
0	 2.714287114289508e+01	 2.785716307942177e+01	 9.625660344522416e+00
0	 2.714287114289507e+01	 2.857145634928703e+01	 9.658065719517190e+00
0	 2.785716307942178e+01	 2.142854365071296e+01	 9.436439965573598e+00
0	 2.785716307942178e+01	 2.214283692057824e+01	 9.454876619250808e+00
0	 2.785716307942177e+01	 2.285712885710494e+01	 9.474783201502589e+00
0	 2.785716307942177e+01	 2.357141979362770e+01	 9.496047099355849e+00
0	 2.785716307942177e+01	 2.428571006348117e+01	 9.518555691561732e+00
0	 2.785716307942178e+01	 2.500000000000000e+01	 9.542196348595672e+00
0	 2.785716307942177e+01	 2.571428993651883e+01	 9.566856432657495e+00
0	 2.785716307942177e+01	 2.642858020637231e+01	 9.592423297671582e+00
0	 2.785716307942177e+01	 2.714287114289508e+01	 9.618784289287062e+00
0	 2.785716307942177e+01	 2.785716307942177e+01	 9.645826744878125e+00
0	 2.785716307942177e+01	 2.857145634928704e+01	 9.673437993544315e+00
0	 2.857145634928704e+01	 2.142854365071296e+01	 9.449876780265667e+00
0	 2.857145634928704e+01	 2.214283692057824e+01	 9.475540159447732e+00
0	 2.857145634928704e+01	 2.285712885710494e+01	 9.500493635495234e+00
0	 2.857145634928704e+01	 2.357141979362770e+01	 9.524834021569855e+00
0	 2.857145634928703e+01	 2.428571006348117e+01	 9.548658126501968e+00
0	 2.857145634928704e+01	 2.500000000000001e+01	 9.572062754790759e+00
0	 2.857145634928704e+01	 2.571428993651884e+01	 9.595144706604376e+00
0	 2.857145634928704e+01	 2.642858020637232e+01	 9.618000777780107e+00
0	 2.857145634928704e+01	 2.714287114289508e+01	 9.640727759824628e+00
0	 2.857145634928704e+01	 2.785716307942177e+01	 9.663422439914189e+00
0	 2.857145634928703e+01	 2.857145634928703e+01	 9.686181600894942e+00
0	 2.142854365071296e+01	 2.857145634928703e+01	 9.638879247778268e+00
0	 2.142854365071296e+01	 2.928575120249186e+01	 9.672895132970092e+00
0	 2.142854365071296e+01	 3.000004755570248e+01	 9.703815733851229e+00
0	 2.142854365071297e+01	 3.071434524225148e+01	 9.731888508065920e+00
0	 2.142854365071296e+01	 3.142864409547142e+01	 9.757360910860321e+00
0	 2.142854365071296e+01	 3.214294394869491e+01	 9.780480395082609e+00
0	 2.142854365071296e+01	 3.285724463525451e+01	 9.801494411183128e+00
0	 2.142854365071296e+01	 3.357154598848279e+01	 9.820650407214467e+00
0	 2.142854365071296e+01	 3.428584784171235e+01	 9.838195828831591e+00
0	 2.142854365071296e+01	 3.500015002827575e+01	 9.854378119291916e+00
0	 2.142854365071297e+01	 3.571445238150556e+01	 9.869444719455382e+00
0	 2.214283692057824e+01	 2.857145634928704e+01	 9.615753503950804e+00
0	 2.214283692057824e+01	 2.928575120249186e+01	 9.655763416573823e+00
0	 2.214283692057824e+01	 3.000004755570248e+01	 9.691126270990017e+00
0	 2.214283692057824e+01	 3.071434524225147e+01	 9.722289671328637e+00
0	 2.214283692057825e+01	 3.142864409547143e+01	 9.749701218359043e+00
0	 2.214283692057824e+01	 3.214294394869491e+01	 9.773808509490898e+00
0	 2.214283692057824e+01	 3.285724463525450e+01	 9.795059138774254e+00
0	 2.214283692057823e+01	 3.357154598848279e+01	 9.813900696899731e+00
0	 2.214283692057823e+01	 3.428584784171235e+01	 9.830780771198587e+00
0	 2.214283692057824e+01	 3.500015002827574e+01	 9.846146945642850e+00
0	 2.214283692057824e+01	 3.571445238150555e+01	 9.860446800845379e+00
0	 2.285712885710494e+01	 2.857145634928704e+01	 9.603227498180559e+00
0	 2.285712885710493e+01	 2.928575120249186e+01	 9.646702800954413e+00
0	 2.285712885710494e+01	 3.000004755570248e+01	 9.684441581462266e+00
0	 2.285712885710494e+01	 3.071434524225146e+01	 9.717047272903194e+00
0	 2.285712885710494e+01	 3.142864409547142e+01	 9.745123304525009e+00
0	 2.285712885710493e+01	 3.214294394869492e+01	 9.769273101624393e+00
0	 2.285712885710494e+01	 3.285724463525452e+01	 9.790100085547019e+00
0	 2.285712885710495e+01	 3.357154598848280e+01	 9.808207673687759e+00
0	 2.285712885710494e+01	 3.428584784171235e+01	 9.824199279490749e+00
0	 2.285712885710493e+01	 3.500015002827574e+01	 9.838678312449499e+00
0	 2.285712885710494e+01	 3.571445238150555e+01	 9.852248178107029e+00
0	 2.357141979362770e+01	 2.857145634928704e+01	 9.599647640706186e+00
0	 2.357141979362770e+01	 2.928575120249186e+01	 9.644405902045648e+00
0	 2.357141979362770e+01	 3.000004755570247e+01	 9.682765118909414e+00
0	 2.357141979362770e+01	 3.071434524225147e+01	 9.715440236144000e+00
0	 2.357141979362770e+01	 3.142864409547143e+01	 9.743146194374075e+00
0	 2.357141979362770e+01	 3.214294394869493e+01	 9.766597930002591e+00
0	 2.357141979362770e+01	 3.285724463525450e+01	 9.786510375210961e+00
0	 2.357141979362770e+01	 3.357154598848280e+01	 9.803598457959179e+00
0	 2.357141979362770e+01	 3.428584784171235e+01	 9.818577101985975e+00
0	 2.357141979362770e+01	 3.500015002827573e+01	 9.832161226808900e+00
0	 2.357141979362770e+01	 3.571445238150556e+01	 9.845065747724400e+00
0	 2.428571006348117e+01	 2.857145634928703e+01	 9.603360352957582e+00
0	 2.428571006348117e+01	 2.928575120249185e+01	 9.647565346639071e+00
0	 2.428571006348117e+01	 3.000004755570247e+01	 9.685100346943418e+00
0	 2.428571006348117e+01	 3.071434524225147e+01	 9.716747493059017e+00
0	 2.428571006348117e+01	 3.142864409547142e+01	 9.743288919953086e+00
0	 2.428571006348117e+01	 3.214294394869491e+01	 9.765506758371920e+00
0	 2.428571006348118e+01	 3.285724463525452e+01	 9.784183134840987e+00
0	 2.428571006348118e+01	 3.357154598848279e+01	 9.800100171665067e+00
0	 2.428571006348118e+01	 3.428584784171235e+01	 9.814039986928410e+00
0	 2.428571006348118e+01	 3.500015002827575e+01	 9.826784694494823e+00
0	 2.428571006348117e+01	 3.571445238150555e+01	 9.839116404007775e+00
0	 2.500000000000001e+01	 2.857145634928704e+01	 9.612712067555977e+00
0	 2.500000000000000e+01	 2.928575120249186e+01	 9.654873772384059e+00
0	 2.500000000000001e+01	 3.000004755570248e+01	 9.690450739146856e+00
0	 2.500000000000001e+01	 3.071434524225147e+01	 9.720247984309868e+00
0	 2.500000000000000e+01	 3.142864409547142e+01	 9.745070520340025e+00
0	 2.500000000000001e+01	 3.214294394869491e+01	 9.765723355705818e+00
0	 2.500000000000000e+01	 3.285724463525450e+01	 9.783011494877444e+00
0	 2.500000000000001e+01	 3.357154598848280e+01	 9.797739938326981e+00
0	 2.500000000000000e+01	 3.428584784171235e+01	 9.810713682528432e+00
0	 2.500000000000000e+01	 3.500015002827574e+01	 9.822737719957910e+00
0	 2.500000000000000e+01	 3.571445238150555e+01	 9.834617039093661e+00
0	 2.571428993651884e+01	 2.857145634928704e+01	 9.626049228314084e+00
0	 2.571428993651884e+01	 2.928575120249186e+01	 9.665023827788017e+00
0	 2.571428993651884e+01	 3.000004755570248e+01	 9.697819779072985e+00
0	 2.571428993651884e+01	 3.071434524225148e+01	 9.725220659211914e+00
0	 2.571428993651883e+01	 3.142864409547142e+01	 9.748010041643974e+00
0	 2.571428993651884e+01	 3.214294394869492e+01	 9.766971496204686e+00
0	 2.571428993651883e+01	 3.285724463525451e+01	 9.782888589126111e+00
0	 2.571428993651883e+01	 3.357154598848280e+01	 9.796544883036940e+00
0	 2.571428993651883e+01	 3.428584784171235e+01	 9.808723936962631e+00
0	 2.571428993651884e+01	 3.500015002827574e+01	 9.820209306325477e+00
0	 2.571428993651884e+01	 3.571445238150556e+01	 9.831784542944687e+00
0	 2.642858020637231e+01	 2.857145634928704e+01	 9.641718290235993e+00
0	 2.642858020637231e+01	 2.928575120249186e+01	 9.676708172216239e+00
0	 2.642858020637231e+01	 3.000004755570248e+01	 9.706210960245762e+00
0	 2.642858020637231e+01	 3.071434524225146e+01	 9.730944475734235e+00
0	 2.642858020637231e+01	 3.142864409547142e+01	 9.751626537005158e+00
0	 2.642858020637231e+01	 3.214294394869491e+01	 9.768974959295955e+00
0	 2.642858020637232e+01	 3.285724463525452e+01	 9.783707554758154e+00
0	 2.642858020637231e+01	 3.357154598848280e+01	 9.796542132457429e+00
0	 2.642858020637231e+01	 3.428584784171235e+01	 9.808196498373796e+00
0	 2.642858020637231e+01	 3.500015002827576e+01	 9.819388455401583e+00
0	 2.642858020637231e+01	 3.571445238150556e+01	 9.830835803349627e+00
0	 2.714287114289507e+01	 2.857145634928703e+01	 9.658065719517190e+00
0	 2.714287114289508e+01	 2.928575120249186e+01	 9.688619475891924e+00
0	 2.714287114289507e+01	 3.000004755570247e+01	 9.714627786159745e+00
0	 2.714287114289507e+01	 3.071434524225147e+01	 9.736698400499554e+00
0	 2.714287114289509e+01	 3.142864409547143e+01	 9.755439066594855e+00
0	 2.714287114289507e+01	 3.214294394869491e+01	 9.771457529633988e+00
0	 2.714287114289507e+01	 3.285724463525450e+01	 9.785361532310112e+00
0	 2.714287114289508e+01	 3.357154598848279e+01	 9.797758814821339e+00
0	 2.714287114289508e+01	 3.428584784171235e+01	 9.809257114870881e+00
0	 2.714287114289507e+01	 3.500015002827575e+01	 9.820464167667046e+00
0	 2.714287114289507e+01	 3.571445238150555e+01	 9.831987705923382e+00
0	 2.785716307942177e+01	 2.857145634928704e+01	 9.673437993544315e+00
0	 2.785716307942177e+01	 2.928575120249185e+01	 9.699450419895989e+00
0	 2.785716307942177e+01	 3.000004755570247e+01	 9.722073770279966e+00
0	 2.785716307942177e+01	 3.071434524225147e+01	 9.741761408784079e+00
0	 2.785716307942177e+01	 3.142864409547143e+01	 9.758966697615321e+00
0	 2.785716307942177e+01	 3.214294394869491e+01	 9.774142997100014e+00
0	 2.785716307942177e+01	 3.285724463525450e+01	 9.787743665683827e+00
0	 2.785716307942178e+01	 3.357154598848280e+01	 9.800222059931921e+00
0	 2.785716307942177e+01	 3.428584784171235e+01	 9.812031534528986e+00
0	 2.785716307942178e+01	 3.500015002827575e+01	 9.823625442279340e+00
0	 2.785716307942177e+01	 3.571445238150555e+01	 9.835457134106978e+00
0	 2.857145634928703e+01	 2.857145634928703e+01	 9.686181600894942e+00
0	 2.857145634928704e+01	 2.928575120249186e+01	 9.707893696166785e+00
0	 2.857145634928703e+01	 3.000004755570248e+01	 9.727552436041691e+00
0	 2.857145634928704e+01	 3.071434524225148e+01	 9.745412484517384e+00
0	 2.857145634928703e+01	 3.142864409547142e+01	 9.761728504299588e+00
0	 2.857145634928704e+01	 3.214294394869491e+01	 9.776755156801981e+00
0	 2.857145634928704e+01	 3.285724463525451e+01	 9.790747102146375e+00
0	 2.857145634928703e+01	 3.357154598848279e+01	 9.803958999162761e+00
0	 2.857145634928704e+01	 3.428584784171235e+01	 9.816645505389353e+00
0	 2.857145634928704e+01	 3.500015002827575e+01	 9.829061277072681e+00
0	 2.857145634928704e+01	 3.571445238150556e+01	 9.841460969167624e+00
0	 2.142854365071297e+01	 3.571445238150556e+01	 9.869444719455382e+00
0	 2.142854365071297e+01	 3.642870477623361e+01	 9.883554045333245e+00
0	 2.142854365071296e+01	 3.714295725428858e+01	 9.896682275183910e+00
0	 2.142854365071296e+01	 3.785720989899840e+01	 9.908800428284961e+00
0	 2.142854365071296e+01	 3.857146279369100e+01	 9.919879525171314e+00
0	 2.142854365071296e+01	 3.928571602169432e+01	 9.929890587635192e+00
0	 2.142854365071296e+01	 3.999996966633628e+01	 9.938804638726133e+00
0	 2.142854365071296e+01	 4.071422381094482e+01	 9.946592702751007e+00
0	 2.142854365071296e+01	 4.142847853884783e+01	 9.953225805274053e+00
0	 2.142854365071296e+01	 4.214273393337329e+01	 9.958674973116810e+00
0	 2.142854365071296e+01	 4.285699007784907e+01	 9.962911234358176e+00
0	 2.214283692057824e+01	 3.571445238150555e+01	 9.860446800845379e+00
0	 2.214283692057823e+01	 3.642870477623359e+01	 9.874296955700339e+00
0	 2.214283692057824e+01	 3.714295725428858e+01	 9.887885485695042e+00
0	 2.214283692057823e+01	 3.785720989899838e+01	 9.901014232502718e+00
0	 2.214283692057824e+01	 3.857146279369099e+01	 9.913485039087242e+00
0	 2.214283692057824e+01	 3.928571602169433e+01	 9.925099749703179e+00
0	 2.214283692057824e+01	 3.999996966633629e+01	 9.935660209895781e+00
0	 2.214283692057824e+01	 4.071422381094481e+01	 9.944968266500981e+00
0	 2.214283692057823e+01	 4.142847853884784e+01	 9.952825767645411e+00
0	 2.214283692057824e+01	 4.214273393337328e+01	 9.959034562746400e+00
0	 2.214283692057824e+01	 4.285699007784908e+01	 9.963396502511943e+00
0	 2.285712885710494e+01	 3.571445238150555e+01	 9.852248178107029e+00
0	 2.285712885710494e+01	 3.642870477623360e+01	 9.865845379279252e+00
0	 2.285712885710494e+01	 3.714295725428858e+01	 9.879784728002388e+00
0	 2.285712885710494e+01	 3.785720989899840e+01	 9.893734295262398e+00
0	 2.285712885710494e+01	 3.857146279369100e+01	 9.907362153334342e+00
0	 2.285712885710494e+01	 3.928571602169432e+01	 9.920336375782350e+00
0	 2.285712885710494e+01	 3.999996966633628e+01	 9.932325037459684e+00
0	 2.285712885710494e+01	 4.071422381094481e+01	 9.942996214508703e+00
0	 2.285712885710494e+01	 4.142847853884783e+01	 9.952017984360854e+00
0	 2.285712885710493e+01	 4.214273393337326e+01	 9.959058425736714e+00
0	 2.285712885710493e+01	 4.285699007784907e+01	 9.963785618645970e+00
0	 2.357141979362770e+01	 3.571445238150556e+01	 9.845065747724400e+00
0	 2.357141979362770e+01	 3.642870477623360e+01	 9.858422744590232e+00
0	 2.357141979362770e+01	 3.714295725428858e+01	 9.872602619322684e+00
0	 2.357141979362770e+01	 3.785720989899838e+01	 9.887175079502494e+00
0	 2.357141979362770e+01	 3.857146279369101e+01	 9.901709833968116e+00
0	 2.357141979362770e+01	 3.928571602169432e+01	 9.915776592815689e+00
0	 2.357141979362770e+01	 3.999996966633628e+01	 9.928945067399107e+00
0	 2.357141979362770e+01	 4.071422381094482e+01	 9.940784970329934e+00
0	 2.357141979362770e+01	 4.142847853884783e+01	 9.950866015477512e+00
0	 2.357141979362771e+01	 4.214273393337327e+01	 9.958757917968871e+00
0	 2.357141979362770e+01	 4.285699007784907e+01	 9.964030394188788e+00
0	 2.428571006348117e+01	 3.571445238150555e+01	 9.839116404007774e+00
0	 2.428571006348117e+01	 3.642870477623359e+01	 9.852252477654954e+00
0	 2.428571006348118e+01	 3.714295725428857e+01	 9.866561774513009e+00
0	 2.428571006348117e+01	 3.785720989899839e+01	 9.881551046305272e+00
0	 2.428571006348117e+01	 3.857146279369100e+01	 9.896727045956737e+00
0	 2.428571006348117e+01	 3.928571602169433e+01	 9.911596527594032e+00
0	 2.428571006348118e+01	 3.999996966633628e+01	 9.925666246545459e+00
0	 2.428571006348117e+01	 4.071422381094479e+01	 9.938442959341018e+00
0	 2.428571006348118e+01	 4.142847853884783e+01	 9.949433423712380e+00
0	 2.428571006348118e+01	 4.214273393337328e+01	 9.958144398592873e+00
0	 2.428571006348117e+01	 4.285699007784908e+01	 9.964082644117521e+00
0	 2.500000000000000e+01	 3.571445238150555e+01	 9.834617039093661e+00
0	 2.500000000000000e+01	 3.642870477623359e+01	 9.847558001996390e+00
0	 2.500000000000001e+01	 3.714295725428857e+01	 9.861884806070602e+00
0	 2.500000000000001e+01	 3.785720989899841e+01	 9.877076654896642e+00
0	 2.500000000000000e+01	 3.857146279369099e+01	 9.892612753180929e+00
0	 2.499999999999999e+01	 3.928571602169431e+01	 9.907972306755976e+00
0	 2.500000000000000e+01	 3.999996966633628e+01	 9.922634522580404e+00
0	 2.500000000000001e+01	 4.071422381094482e+01	 9.936078608738933e+00
0	 2.500000000000001e+01	 4.142847853884783e+01	 9.947783774442376e+00
0	 2.500000000000000e+01	 4.214273393337328e+01	 9.957229230027682e+00
0	 2.500000000000001e+01	 4.285699007784908e+01	 9.963894186957873e+00
0	 2.571428993651884e+01	 3.571445238150556e+01	 9.831784542944687e+00
0	 2.571428993651884e+01	 3.642870477623360e+01	 9.844562738638871e+00
0	 2.571428993651884e+01	 3.714295725428857e+01	 9.858794324132941e+00
0	 2.571428993651884e+01	 3.785720989899838e+01	 9.873966362646199e+00
0	 2.571428993651883e+01	 3.857146279369100e+01	 9.889565918434034e+00
0	 2.571428993651883e+01	 3.928571602169433e+01	 9.905080056788002e+00
0	 2.571428993651884e+01	 3.999996966633630e+01	 9.919995844035803e+00
0	 2.571428993651884e+01	 4.071422381094480e+01	 9.933800347541260e+00
0	 2.571428993651884e+01	 4.142847853884785e+01	 9.945980635704366e+00
0	 2.571428993651883e+01	 4.214273393337327e+01	 9.956023777961272e+00
0	 2.571428993651883e+01	 4.285699007784908e+01	 9.963416844784259e+00
0	 2.642858020637231e+01	 3.571445238150556e+01	 9.830835803349625e+00
0	 2.642858020637232e+01	 3.642870477623360e+01	 9.843490106107975e+00
0	 2.642858020637231e+01	 3.714295725428858e+01	 9.857512936477663e+00
0	 2.642858020637231e+01	 3.785720989899839e+01	 9.872434625067186e+00
0	 2.642858020637231e+01	 3.857146279369100e+01	 9.887785503421982e+00
0	 2.642858020637232e+01	 3.928571602169432e+01	 9.903095904024418e+00
0	 2.642858020637230e+01	 3.999996966633628e+01	 9.917896160293781e+00
0	 2.642858020637231e+01	 4.071422381094481e+01	 9.931716606586319e+00
0	 2.642858020637231e+01	 4.142847853884783e+01	 9.944087578195253e+00
0	 2.642858020637231e+01	 4.214273393337328e+01	 9.954539411350714e+00
0	 2.642858020637231e+01	 4.285699007784907e+01	 9.962602443219804e+00
0	 2.714287114289507e+01	 3.571445238150555e+01	 9.831987705923378e+00
0	 2.714287114289507e+01	 3.642870477623360e+01	 9.844563520430583e+00
0	 2.714287114289507e+01	 3.714295725428858e+01	 9.858263248522576e+00
0	 2.714287114289508e+01	 3.785720989899840e+01	 9.872695895816541e+00
0	 2.714287114289507e+01	 3.857146279369100e+01	 9.887470468763324e+00
0	 2.714287114289508e+01	 3.928571602169433e+01	 9.902195974647352e+00
0	 2.714287114289508e+01	 3.999996966633629e+01	 9.916481421586706e+00
0	 2.714287114289508e+01	 4.071422381094482e+01	 9.929935818533112e+00
0	 2.714287114289507e+01	 4.142847853884783e+01	 9.942168175271920e+00
0	 2.714287114289507e+01	 4.214273393337327e+01	 9.952787502422128e+00
0	 2.714287114289507e+01	 4.285699007784906e+01	 9.961402811436407e+00
0	 2.785716307942177e+01	 3.571445238150555e+01	 9.835457134106978e+00
0	 2.785716307942177e+01	 3.642870477623359e+01	 9.848006395134897e+00
0	 2.785716307942177e+01	 3.714295725428857e+01	 9.861267863325716e+00
0	 2.785716307942178e+01	 3.785720989899840e+01	 9.874964626694878e+00
0	 2.785716307942177e+01	 3.857146279369100e+01	 9.888819773989201e+00
0	 2.785716307942177e+01	 3.928571602169432e+01	 9.902556394686822e+00
0	 2.785716307942178e+01	 3.999996966633628e+01	 9.915897578997239e+00
0	 2.785716307942177e+01	 4.071422381094481e+01	 9.928566417861322e+00
0	 2.785716307942177e+01	 4.142847853884783e+01	 9.940286002951293e+00
0	 2.785716307942179e+01	 4.214273393337329e+01	 9.950779426670753e+00
0	 2.785716307942177e+01	 4.285699007784907e+01	 9.959769782154686e+00
0	 2.857145634928704e+01	 3.571445238150556e+01	 9.841460969167626e+00
0	 2.857145634928704e+01	 3.642870477623359e+01	 9.854042141250448e+00
0	 2.857145634928703e+01	 3.714295725428856e+01	 9.866749381585363e+00
0	 2.857145634928704e+01	 3.785720989899840e+01	 9.879455267646545e+00
0	 2.857145634928704e+01	 3.857146279369101e+01	 9.892032377543451e+00
0	 2.857145634928704e+01	 3.928571602169432e+01	 9.904353290020719e+00
0	 2.857145634928703e+01	 3.999996966633628e+01	 9.916290584458290e+00
0	 2.857145634928704e+01	 4.071422381094482e+01	 9.927716840871327e+00
0	 2.857145634928704e+01	 4.142847853884783e+01	 9.938504639910278e+00
0	 2.857145634928703e+01	 4.214273393337326e+01	 9.948526562860827e+00
0	 2.857145634928704e+01	 4.285699007784908e+01	 9.957655191643971e+00
0	 2.142854365071296e+01	 4.285699007784907e+01	 9.962911234358172e+00
0	 2.142854365071296e+01	 4.357129694500738e+01	 9.966579182518313e+00
0	 2.142854365071296e+01	 4.428560406221393e+01	 9.970341594584568e+00
0	 2.142854365071296e+01	 4.499991084612203e+01	 9.974197533362625e+00
0	 2.142854365071296e+01	 4.571421671338500e+01	 9.978146059409474e+00
0	 2.142854365071296e+01	 4.642852108065613e+01	 9.982186231033838e+00
0	 2.142854365071296e+01	 4.714282336458874e+01	 9.986317104296464e+00
0	 2.142854365071296e+01	 4.785712298183613e+01	 9.990537733010358e+00
0	 2.142854365071296e+01	 4.857141934905160e+01	 9.994847168741195e+00
0	 2.142854365071296e+01	 4.928571188288846e+01	 9.999244460807377e+00
0	 2.142854365071296e+01	 5.000000000000001e+01	 1.000372865628041e+01
0	 2.214283692057824e+01	 4.285699007784908e+01	 9.963396502511946e+00
0	 2.214283692057824e+01	 4.357129694500737e+01	 9.966571826280273e+00
0	 2.214283692057824e+01	 4.428560406221392e+01	 9.969496898296608e+00
0	 2.214283692057824e+01	 4.499991084612204e+01	 9.972388464873324e+00
0	 2.214283692057824e+01	 4.571421671338499e+01	 9.975463271020740e+00
0	 2.214283692057823e+01	 4.642852108065612e+01	 9.978938060447396e+00
0	 2.214283692057824e+01	 4.714282336458876e+01	 9.983029575560428e+00
0	 2.214283692057824e+01	 4.785712298183613e+01	 9.987954557465855e+00
0	 2.214283692057824e+01	 4.857141934905160e+01	 9.993929745968957e+00
0	 2.214283692057823e+01	 4.928571188288845e+01	 1.000117187957447e+01
0	 2.214283692057824e+01	 5.000000000000000e+01	 1.000989769548691e+01
0	 2.285712885710493e+01	 4.285699007784907e+01	 9.963785618645970e+00
0	 2.285712885710494e+01	 4.357129694500738e+01	 9.966819917947650e+00
0	 2.285712885710494e+01	 4.428560406221392e+01	 9.969263646556316e+00
0	 2.285712885710494e+01	 4.499991084612204e+01	 9.971508563496823e+00
0	 2.285712885710494e+01	 4.571421671338500e+01	 9.973946426919014e+00
0	 2.285712885710494e+01	 4.642852108065613e+01	 9.976968994098240e+00
0	 2.285712885710494e+01	 4.714282336458876e+01	 9.980968021435535e+00
0	 2.285712885710493e+01	 4.785712298183613e+01	 9.986335264458027e+00
0	 2.285712885710494e+01	 4.857141934905161e+01	 9.993462477819243e+00
0	 2.285712885710494e+01	 4.928571188288846e+01	 1.000274141529941e+01
0	 2.285712885710494e+01	 5.000000000000000e+01	 1.001456382980575e+01
0	 2.357141979362770e+01	 4.285699007784907e+01	 9.964030394188788e+00
0	 2.357141979362770e+01	 4.357129694500738e+01	 9.967219838011044e+00
0	 2.357141979362770e+01	 4.428560406221391e+01	 9.969498364398527e+00
0	 2.357141979362771e+01	 4.499991084612203e+01	 9.971390073745168e+00
0	 2.357141979362770e+01	 4.571421671338499e+01	 9.973419065554088e+00
0	 2.357141979362770e+01	 4.642852108065613e+01	 9.976109438437826e+00
0	 2.357141979362770e+01	 4.714282336458876e+01	 9.979985290118812e+00
0	 2.357141979362770e+01	 4.785712298183613e+01	 9.985570717429523e+00
0	 2.357141979362769e+01	 4.857141934905160e+01	 9.993389816313034e+00
0	 2.357141979362770e+01	 4.928571188288846e+01	 1.000396668182307e+01
0	 2.357141979362770e+01	 5.000000000000000e+01	 1.001782540812437e+01
0	 2.428571006348117e+01	 4.285699007784908e+01	 9.964082644117525e+00
0	 2.428571006348118e+01	 4.357129694500737e+01	 9.967667970397127e+00
0	 2.428571006348118e+01	 4.428560406221393e+01	 9.970057579872474e+00
0	 2.428571006348117e+01	 4.499991084612201e+01	 9.971865242533752e+00
0	 2.428571006348118e+01	 4.571421671338501e+01	 9.973704727097573e+00
0	 2.428571006348117e+01	 4.642852108065613e+01	 9.976189801007413e+00
0	 2.428571006348118e+01	 4.714282336458876e+01	 9.979934230433811e+00
0	 2.428571006348118e+01	 4.785712298183613e+01	 9.985551780274720e+00
0	 2.428571006348118e+01	 4.857141934905160e+01	 9.993656214155852e+00
0	 2.428571006348117e+01	 4.928571188288846e+01	 1.000486129443086e+01
0	 2.428571006348117e+01	 5.000000000000000e+01	 1.001978078218166e+01
0	 2.500000000000001e+01	 4.285699007784908e+01	 9.963894186957873e+00
0	 2.500000000000000e+01	 4.357129694500736e+01	 9.968060702468730e+00
0	 2.500000000000000e+01	 4.428560406221392e+01	 9.970797824042020e+00
0	 2.500000000000000e+01	 4.499991084612201e+01	 9.972766319181249e+00
0	 2.500000000000000e+01	 4.571421671338501e+01	 9.974626953443213e+00
0	 2.500000000000001e+01	 4.642852108065613e+01	 9.977040490438311e+00
0	 2.500000000000001e+01	 4.714282336458875e+01	 9.980667691830977e+00
0	 2.500000000000001e+01	 4.785712298183613e+01	 9.986169317339783e+00
0	 2.500000000000001e+01	 4.857141934905160e+01	 9.994206124737879e+00
0	 2.500000000000001e+01	 4.928571188288846e+01	 1.000543886985301e+01
0	 2.500000000000001e+01	 5.000000000000001e+01	 1.002052830656793e+01
0	 2.571428993651883e+01	 4.285699007784908e+01	 9.963416844784259e+00
0	 2.571428993651884e+01	 4.357129694500737e+01	 9.968294425024880e+00
0	 2.571428993651883e+01	 4.428560406221392e+01	 9.971575630985654e+00
0	 2.571428993651884e+01	 4.499991084612203e+01	 9.973925555409821e+00
0	 2.571428993651883e+01	 4.571421671338499e+01	 9.976009288206658e+00
0	 2.571428993651884e+01	 4.642852108065614e+01	 9.978491916451770e+00
0	 2.571428993651883e+01	 4.714282336458874e+01	 9.982038524387415e+00
0	 2.571428993651883e+01	 4.785712298183613e+01	 9.987314193422716e+00
0	 2.571428993651884e+01	 4.857141934905160e+01	 9.994984002133892e+00
0	 2.571428993651884e+01	 4.928571188288846e+01	 1.000571302626443e+01
0	 2.571428993651884e+01	 5.000000000000001e+01	 1.002016633872518e+01
0	 2.642858020637231e+01	 4.285699007784907e+01	 9.962602443219804e+00
0	 2.642858020637232e+01	 4.357129694500738e+01	 9.968265532300880e+00
0	 2.642858020637231e+01	 4.428560406221391e+01	 9.972247537796521e+00
0	 2.642858020637231e+01	 4.499991084612202e+01	 9.975175205345046e+00
0	 2.642858020637231e+01	 4.571421671338499e+01	 9.977675276725764e+00
0	 2.642858020637230e+01	 4.642852108065612e+01	 9.980374489859127e+00
0	 2.642858020637231e+01	 4.714282336458874e+01	 9.983899578807119e+00
0	 2.642858020637231e+01	 4.785712298183613e+01	 9.988877273773410e+00
0	 2.642858020637231e+01	 4.857141934905160e+01	 9.995934301103528e+00
0	 2.642858020637231e+01	 4.928571188288846e+01	 1.000569738328490e+01
0	 2.642858020637231e+01	 4.999999999999999e+01	 1.001879323894714e+01
0	 2.714287114289507e+01	 4.285699007784906e+01	 9.961402811436407e+00
0	 2.714287114289508e+01	 4.357129694500738e+01	 9.967870421968358e+00
0	 2.714287114289508e+01	 4.428560406221392e+01	 9.972670084582514e+00
0	 2.714287114289507e+01	 4.499991084612203e+01	 9.976347525516070e+00
0	 2.714287114289507e+01	 4.571421671338499e+01	 9.979448466060486e+00
0	 2.714287114289507e+01	 4.642852108065613e+01	 9.982518622561841e+00
0	 2.714287114289508e+01	 4.714282336458874e+01	 9.986103706420984e+00
0	 2.714287114289508e+01	 4.785712298183613e+01	 9.990749424093773e+00
0	 2.714287114289507e+01	 4.857141934905161e+01	 9.997001477091157e+00
0	 2.714287114289508e+01	 4.928571188288846e+01	 1.000540556197919e+01
0	 2.714287114289507e+01	 5.000000000000000e+01	 1.001650737037912e+01
0	 2.785716307942177e+01	 4.285699007784907e+01	 9.959769782154687e+00
0	 2.785716307942178e+01	 4.357129694500738e+01	 9.967005495135176e+00
0	 2.785716307942178e+01	 4.428560406221393e+01	 9.972699814466255e+00
0	 2.785716307942177e+01	 4.499991084612203e+01	 9.977274774855498e+00
0	 2.785716307942177e+01	 4.571421671338499e+01	 9.981152404992988e+00
0	 2.785716307942177e+01	 4.642852108065613e+01	 9.984754727551490e+00
0	 2.785716307942177e+01	 4.714282336458874e+01	 9.988503759186790e+00
0	 2.785716307942177e+01	 4.785712298183613e+01	 9.992821510537659e+00
0	 2.785716307942177e+01	 4.857141934905159e+01	 9.998129986226001e+00
0	 2.785716307942177e+01	 4.928571188288845e+01	 1.000485118485689e+01
0	 2.785716307942177e+01	 4.999999999999999e+01	 1.001340709901838e+01
0	 2.857145634928704e+01	 4.285699007784908e+01	 9.957655191643971e+00
0	 2.857145634928704e+01	 4.357129694500738e+01	 9.965567156345495e+00
0	 2.857145634928704e+01	 4.428560406221392e+01	 9.972193273585040e+00
0	 2.857145634928704e+01	 4.499991084612204e+01	 9.977789214699492e+00
0	 2.857145634928704e+01	 4.571421671338500e+01	 9.982610644027536e+00
0	 2.857145634928704e+01	 4.642852108065615e+01	 9.986913218909852e+00
0	 2.857145634928703e+01	 4.714282336458874e+01	 9.990952589689275e+00
0	 2.857145634928704e+01	 4.785712298183613e+01	 9.994984399710942e+00
0	 2.857145634928704e+01	 4.857141934905160e+01	 9.999264285322207e+00
0	 2.857145634928704e+01	 4.928571188288845e+01	 1.000404787587265e+01
0	 2.857145634928704e+01	 5.000000000000000e+01	 1.000959079371394e+01
0	 2.857145634928704e+01	 0.000000000000000e+00	 1.457022812196942e+01
0	 2.857145634928703e+01	 7.142881171115513e-01	 1.292051309985163e+01
0	 2.857145634928704e+01	 1.428580650948409e+00	 1.162022378745994e+01
0	 2.857145634928704e+01	 2.142877018163878e+00	 1.063177510875017e+01
0	 2.857145634928703e+01	 2.857176635411264e+00	 9.917582200109178e+00
0	 2.857145634928704e+01	 3.571478919343873e+00	 9.440060410337223e+00
0	 2.857145634928704e+01	 4.285783286615009e+00	 9.161625300632821e+00
0	 2.857145634928704e+01	 5.000089153877975e+00	 9.044692644580255e+00
0	 2.857145634928703e+01	 5.714395937786080e+00	 9.051678428139692e+00
0	 2.857145634928704e+01	 6.428703054992629e+00	 9.144998849639846e+00
0	 2.857145634928703e+01	 7.143009922150926e+00	 9.287070319773354e+00
0	 2.928575120249186e+01	 0.000000000000000e+00	 1.396031234910072e+01
0	 2.928575120249186e+01	 7.142881171115513e-01	 1.267647159468418e+01
0	 2.928575120249186e+01	 1.428580650948409e+00	 1.160873404836158e+01
0	 2.928575120249186e+01	 2.142877018163879e+00	 1.074293654465496e+01
0	 2.928575120249185e+01	 2.857176635411264e+00	 1.006491641330958e+01
0	 2.928575120249186e+01	 3.571478919343873e+00	 9.560511479256082e+00
0	 2.928575120249186e+01	 4.285783286615009e+00	 9.215560062578861e+00
0	 2.928575120249186e+01	 5.000089153877974e+00	 9.015900978490343e+00
0	 2.928575120249186e+01	 5.714395937786080e+00	 8.947373537311421e+00
0	 2.928575120249186e+01	 6.428703054992629e+00	 8.995817544457964e+00
0	 2.928575120249185e+01	 7.143009922150927e+00	 9.147073300433309e+00
0	 3.000004755570248e+01	 0.000000000000000e+00	 1.317235835190217e+01
0	 3.000004755570248e+01	 7.142881171115514e-01	 1.228177064750911e+01
0	 3.000004755570248e+01	 1.428580650948409e+00	 1.148479423435145e+01
0	 3.000004755570248e+01	 2.142877018163878e+00	 1.078669320489962e+01
0	 3.000004755570248e+01	 2.857176635411266e+00	 1.019273232312274e+01
0	 3.000004755570248e+01	 3.571478919343873e+00	 9.708177024438429e+00
0	 3.000004755570247e+01	 4.285783286615006e+00	 9.338293415670744e+00
0	 3.000004755570248e+01	 5.000089153877976e+00	 9.088348275016477e+00
0	 3.000004755570248e+01	 5.714395937786081e+00	 8.963609052019539e+00
0	 3.000004755570248e+01	 6.428703054992631e+00	 8.969343867553718e+00
0	 3.000004755570246e+01	 7.143009922150926e+00	 9.110821513813494e+00
0	 3.071434524225148e+01	 0.000000000000000e+00	 1.227829476959425e+01
0	 3.071434524225148e+01	 7.142881171115513e-01	 1.178561233447801e+01
0	 3.071434524225147e+01	 1.428580650948409e+00	 1.127791752348801e+01
0	 3.071434524225147e+01	 2.142877018163877e+00	 1.077590697092412e+01
0	 3.071434524225148e+01	 2.857176635411265e+00	 1.030027806723149e+01
0	 3.071434524225148e+01	 3.571478919343873e+00	 9.871728958944484e+00
0	 3.071434524225148e+01	 4.285783286615009e+00	 9.510958548639774e+00
0	 3.071434524225147e+01	 5.000089153877974e+00	 9.238666494898869e+00
0	 3.071434524225147e+01	 5.714395937786081e+00	 9.075553212279708e+00
0	 3.071434524225148e+01	 6.428703054992629e+00	 9.042319871297689e+00
0	 3.071434524225147e+01	 7.143009922150926e+00	 9.159668398415837e+00
0	 3.142864409547142e+01	 0.000000000000000e+00	 1.135005069795817e+01
0	 3.142864409547143e+01	 7.142881171115514e-01	 1.123719900068826e+01
0	 3.142864409547143e+01	 1.428580650948410e+00	 1.101761722075446e+01
0	 3.142864409547142e+01	 2.142877018163878e+00	 1.072343974907237e+01
0	 3.142864409547142e+01	 2.857176635411265e+00	 1.038680174060827e+01
0	 3.142864409547143e+01	 3.571478919343873e+00	 1.003983911432271e+01
0	 3.142864409547142e+01	 4.285783286615009e+00	 9.714688553123340e+00
0	 3.142864409547142e+01	 5.000089153877974e+00	 9.443487503827210e+00
0	 3.142864409547143e+01	 5.714395937786081e+00	 9.258374177132357e+00
0	 3.142864409547143e+01	 6.428703054992628e+00	 9.191487547598745e+00
0	 3.142864409547142e+01	 7.143009922150926e+00	 9.274967353638656e+00
0	 3.214294394869492e+01	 0.000000000000000e+00	 1.045955568932585e+01
0	 3.214294394869492e+01	 7.142881171115515e-01	 1.068573326017710e+01
0	 3.214294394869490e+01	 1.428580650948409e+00	 1.073340675805595e+01
0	 3.214294394869491e+01	 2.142877018163878e+00	 1.064215347059164e+01
0	 3.214294394869492e+01	 2.857176635411265e+00	 1.045155139551612e+01
0	 3.214294394869491e+01	 3.571478919343872e+00	 1.020117924061165e+01
0	 3.214294394869491e+01	 4.285783286615008e+00	 9.930616423667081e+00
0	 3.214294394869492e+01	 5.000089153877976e+00	 9.679443072442808e+00
0	 3.214294394869491e+01	 5.714395937786081e+00	 9.487240024644487e+00
0	 3.214294394869491e+01	 6.428703054992630e+00	 9.393588827905392e+00
0	 3.214294394869491e+01	 7.143009922150928e+00	 9.438071739777495e+00
0	 3.285724463525451e+01	 0.000000000000000e+00	 9.678739752571495e+00
0	 3.285724463525450e+01	 7.142881171115512e-01	 1.018041799591678e+01
0	 3.285724463525450e+01	 1.428580650948409e+00	 1.045479969421733e+01
0	 3.285724463525450e+01	 2.142877018163878e+00	 1.054491009163220e+01
0	 3.285724463525451e+01	 2.857176635411265e+00	 1.049377504150952e+01
0	 3.285724463525452e+01	 3.571478919343873e+00	 1.034442100634145e+01
0	 3.285724463525450e+01	 4.285783286615007e+00	 1.013987505772667e+01
0	 3.285724463525451e+01	 5.000089153877974e+00	 9.923164876340284e+00
0	 3.285724463525451e+01	 5.714395937786081e+00	 9.737318751911173e+00
0	 3.285724463525452e+01	 6.428703054992631e+00	 9.625365583206888e+00
0	 3.285724463525451e+01	 7.143009922150926e+00	 9.630334878025879e+00
0	 3.357154598848280e+01	 0.000000000000000e+00	 9.079533353104802e+00
0	 3.357154598848280e+01	 7.142881171115514e-01	 9.770456359810511e+00
0	 3.357154598848279e+01	 1.428580650948409e+00	 1.021130971498124e+01
0	 3.357154598848279e+01	 2.142877018163878e+00	 1.044457159324693e+01
0	 3.357154598848280e+01	 2.857176635411265e+00	 1.051272064543501e+01
0	 3.357154598848280e+01	 3.571478919343873e+00	 1.045823599853507e+01
0	 3.357154598848279e+01	 4.285783286615009e+00	 1.032359725566934e+01
0	 3.357154598848280e+01	 5.000089153877975e+00	 1.015128449606911e+01
0	 3.357154598848279e+01	 5.714395937786080e+00	 9.983778275056821e+00
0	 3.357154598848281e+01	 6.428703054992630e+00	 9.863559624034169e+00
0	 3.357154598848280e+01	 7.143009922150926e+00	 9.833110050475897e+00
0	 3.428584784171235e+01	 0.000000000000000e+00	 8.733867412865745e+00
0	 3.428584784171235e+01	 7.142881171115514e-01	 9.505051772689381e+00
0	 3.428584784171235e+01	 1.428580650948410e+00	 1.003245063300665e+01
0	 3.428584784171235e+01	 2.142877018163879e+00	 1.035399998139105e+01
0	 3.428584784171235e+01	 2.857176635411264e+00	 1.050763613143178e+01
0	 3.428584784171235e+01	 3.571478919343873e+00	 1.053129572270932e+01
0	 3.428584784171237e+01	 4.285783286615009e+00	 1.046291572077502e+01
0	 3.428584784171236e+01	 5.000089153877976e+00	 1.034043341713468e+01
0	 3.428584784171235e+01	 5.714395937786081e+00	 1.020178642923608e+01
0	 3.428584784171235e+01	 6.428703054992630e+00	 1.008491270046058e+01
0	 3.428584784171235e+01	 7.143009922150926e+00	 1.002775050011866e+01
0	 3.500015002827575e+01	 0.000000000000000e+00	 8.713673310320967e+00
0	 3.500015002827576e+01	 7.142881171115514e-01	 9.433407924310302e+00
0	 3.500015002827575e+01	 1.428580650948410e+00	 9.947736387867959e+00
0	 3.500015002827575e+01	 2.142877018163878e+00	 1.028605728692201e+01
0	 3.500015002827575e+01	 2.857176635411264e+00	 1.047776938093198e+01
0	 3.500015002827575e+01	 3.571478919343872e+00	 1.055227160287550e+01
0	 3.500015002827575e+01	 4.285783286615009e+00	 1.053896305923711e+01
0	 3.500015002827576e+01	 5.000089153877975e+00	 1.046724302999911e+01
0	 3.500015002827575e+01	 5.714395937786082e+00	 1.036651096863454e+01
0	 3.500015002827575e+01	 6.428703054992629e+00	 1.026616650210235e+01
0	 3.500015002827575e+01	 7.143009922150927e+00	 1.019560943084466e+01
0	 3.571445238150555e+01	 0.000000000000000e+00	 9.090882880461763e+00
0	 3.571445238150555e+01	 7.142881171115513e-01	 9.604728773354809e+00
0	 3.571445238150556e+01	 1.428580650948409e+00	 9.986681046054448e+00
0	 3.571445238150555e+01	 2.142877018163878e+00	 1.025360556559940e+01
0	 3.571445238150556e+01	 2.857176635411264e+00	 1.042236823266098e+01
0	 3.571445238150555e+01	 3.571478919343873e+00	 1.050983498153979e+01
0	 3.571445238150556e+01	 4.285783286615009e+00	 1.053287178016297e+01
0	 3.571445238150555e+01	 5.000089153877976e+00	 1.050834463008167e+01
0	 3.571445238150555e+01	 5.714395937786081e+00	 1.045311956646909e+01
0	 3.571445238150555e+01	 6.428703054992629e+00	 1.038406265811888e+01
0	 3.571445238150555e+01	 7.143009922150927e+00	 1.031804000744390e+01
0	 2.857145634928703e+01	 7.143009922150926e+00	 9.287070319773354e+00
0	 2.857145634928704e+01	 7.857266066626718e+00	 9.423593977454960e+00
0	 2.857145634928704e+01	 8.571521461152164e+00	 9.527418618069948e+00
0	 2.857145634928704e+01	 9.285776189055182e+00	 9.601649975815493e+00
0	 2.857145634928704e+01	 1.000003033366371e+01	 9.649393787434994e+00
0	 2.857145634928704e+01	 1.071428397830567e+01	 9.673755792218131e+00
0	 2.857145634928704e+01	 1.142853720630899e+01	 9.677841732000784e+00
0	 2.857145634928704e+01	 1.214279010100160e+01	 9.664757351165097e+00
0	 2.857145634928703e+01	 1.285704274571142e+01	 9.637608396639445e+00
0	 2.857145634928704e+01	 1.357129522376639e+01	 9.599500617898425e+00
0	 2.857145634928703e+01	 1.428554761849444e+01	 9.553539766962812e+00
0	 2.928575120249185e+01	 7.143009922150927e+00	 9.147073300433313e+00
0	 2.928575120249185e+01	 7.857266066626719e+00	 9.328983046877445e+00
0	 2.928575120249185e+01	 8.571521461152164e+00	 9.479544828340718e+00
0	 2.928575120249187e+01	 9.285776189055184e+00	 9.599791464545721e+00
0	 2.928575120249185e+01	 1.000003033366371e+01	 9.690755789211888e+00
0	 2.928575120249185e+01	 1.071428397830567e+01	 9.753470650055698e+00
0	 2.928575120249186e+01	 1.142853720630899e+01	 9.788968908790768e+00
0	 2.928575120249185e+01	 1.214279010100160e+01	 9.798283441127932e+00
0	 2.928575120249185e+01	 1.285704274571142e+01	 9.782447136775328e+00
0	 2.928575120249186e+01	 1.357129522376640e+01	 9.742492899438446e+00
0	 2.928575120249185e+01	 1.428554761849444e+01	 9.679453646820097e+00
0	 3.000004755570246e+01	 7.143009922150926e+00	 9.110821513813493e+00
0	 3.000004755570248e+01	 7.857266066626720e+00	 9.308461692086228e+00
0	 3.000004755570248e+01	 8.571521461152161e+00	 9.478747104075197e+00
0	 3.000004755570247e+01	 9.285776189055184e+00	 9.620997230927580e+00
0	 3.000004755570248e+01	 1.000003033366371e+01	 9.734531575266262e+00
0	 3.000004755570247e+01	 1.071428397830567e+01	 9.818669661190073e+00
0	 3.000004755570247e+01	 1.142853720630899e+01	 9.872731034273988e+00
0	 3.000004755570247e+01	 1.214279010100160e+01	 9.896035261569258e+00
0	 3.000004755570247e+01	 1.285704274571142e+01	 9.887901931603549e+00
0	 3.000004755570247e+01	 1.357129522376639e+01	 9.847650654381036e+00
0	 3.000004755570248e+01	 1.428554761849444e+01	 9.774601061382398e+00
0	 3.071434524225147e+01	 7.143009922150926e+00	 9.159668398415841e+00
0	 3.071434524225148e+01	 7.857266066626721e+00	 9.349132512988749e+00
0	 3.071434524225148e+01	 8.571521461152164e+00	 9.517116001828599e+00
0	 3.071434524225147e+01	 9.285776189055184e+00	 9.661584576057400e+00
0	 3.071434524225146e+01	 1.000003033366371e+01	 9.780503972312776e+00
0	 3.071434524225146e+01	 1.071428397830566e+01	 9.871839952748171e+00
0	 3.071434524225146e+01	 1.142853720630899e+01	 9.933558305033165e+00
0	 3.071434524225147e+01	 1.214279010100160e+01	 9.963624842353589e+00
0	 3.071434524225148e+01	 1.285704274571142e+01	 9.960005403411721e+00
0	 3.071434524225147e+01	 1.357129522376639e+01	 9.920665852426357e+00
0	 3.071434524225146e+01	 1.428554761849444e+01	 9.843572079132894e+00
0	 3.142864409547142e+01	 7.143009922150926e+00	 9.274967353638655e+00
0	 3.142864409547143e+01	 7.857266066626719e+00	 9.438098088012930e+00
0	 3.142864409547143e+01	 8.571521461152162e+00	 9.586742070055649e+00
0	 3.142864409547142e+01	 9.285776189055182e+00	 9.717870802568370e+00
0	 3.142864409547142e+01	 1.000003033366371e+01	 9.828455815001972e+00
0	 3.142864409547143e+01	 1.071428397830567e+01	 9.915468663456940e+00
0	 3.142864409547143e+01	 1.142853720630899e+01	 9.975880930683642e+00
0	 3.142864409547143e+01	 1.214279010100160e+01	 1.000666422608248e+01
0	 3.142864409547144e+01	 1.285704274571143e+01	 1.000479018570408e+01
0	 3.142864409547143e+01	 1.357129522376640e+01	 9.967230472249405e+00
0	 3.142864409547142e+01	 1.428554761849444e+01	 9.890956775069764e+00
0	 3.214294394869491e+01	 7.143009922150928e+00	 9.438071739777497e+00
0	 3.214294394869491e+01	 7.857266066626718e+00	 9.562460974107605e+00
0	 3.214294394869492e+01	 8.571521461152166e+00	 9.679715849110750e+00
0	 3.214294394869491e+01	 9.285776189055181e+00	 9.786173214630479e+00
0	 3.214294394869491e+01	 1.000003033366371e+01	 9.878169945920138e+00
0	 3.214294394869491e+01	 1.071428397830567e+01	 9.952042943643102e+00
0	 3.214294394869492e+01	 1.142853720630899e+01	 1.000412913387307e+01
0	 3.214294394869492e+01	 1.214279010100160e+01	 1.003076546809419e+01
0	 3.214294394869491e+01	 1.285704274571142e+01	 1.002828892320126e+01
0	 3.214294394869492e+01	 1.357129522376639e+01	 9.993036501499777e+00
0	 3.214294394869491e+01	 1.428554761849444e+01	 9.921345230706049e+00
0	 3.285724463525451e+01	 7.143009922150926e+00	 9.630334878025879e+00
0	 3.285724463525451e+01	 7.857266066626719e+00	 9.709323706742982e+00
0	 3.285724463525451e+01	 8.571521461152162e+00	 9.788127871248138e+00
0	 3.285724463525451e+01	 9.285776189055182e+00	 9.862809117950535e+00
0	 3.285724463525452e+01	 1.000003033366371e+01	 9.929429215589124e+00
0	 3.285724463525450e+01	 1.071428397830567e+01	 9.984049955232932e+00
0	 3.285724463525451e+01	 1.142853720630899e+01	 1.002273315028117e+01
0	 3.285724463525451e+01	 1.214279010100160e+01	 1.004154063646347e+01
0	 3.285724463525450e+01	 1.285704274571142e+01	 1.003653427184000e+01
0	 3.285724463525451e+01	 1.357129522376639e+01	 1.000377593680154e+01
0	 3.285724463525450e+01	 1.428554761849444e+01	 9.939327534069463e+00
0	 3.357154598848280e+01	 7.143009922150926e+00	 9.833110050475897e+00
0	 3.357154598848280e+01	 7.857266066626720e+00	 9.865788799910918e+00
0	 3.357154598848280e+01	 8.571521461152161e+00	 9.904068660622002e+00
0	 3.357154598848280e+01	 9.285776189055182e+00	 9.944095819772073e+00
0	 3.357154598848280e+01	 1.000003033366371e+01	 9.982016482466250e+00
0	 3.357154598848279e+01	 1.071428397830567e+01	 1.001397687175204e+01
0	 3.357154598848280e+01	 1.142853720630899e+01	 1.003612322861949e+01
0	 3.357154598848280e+01	 1.214279010100160e+01	 1.004460181200134e+01
0	 3.357154598848280e+01	 1.285704274571142e+01	 1.003555889877306e+01
0	 3.357154598848280e+01	 1.357129522376640e+01	 1.000514078375299e+01
0	 3.357154598848280e+01	 1.428554761849444e+01	 9.949493779702291e+00
0	 3.428584784171235e+01	 7.143009922150926e+00	 1.002775050011866e+01
0	 3.428584784171235e+01	 7.857266066626718e+00	 1.001895874612522e+01
0	 3.428584784171237e+01	 8.571521461152164e+00	 1.001962873328659e+01
0	 3.428584784171235e+01	 9.285776189055184e+00	 1.002635062887541e+01
0	 3.428584784171235e+01	 1.000003033366371e+01	 1.003571461294415e+01
0	 3.428584784171235e+01	 1.071428397830567e+01	 1.004431087832528e+01
0	 3.428584784171234e+01	 1.142853720630899e+01	 1.004872963063131e+01
0	 3.428584784171235e+01	 1.214279010100160e+01	 1.004556108825489e+01
0	 3.428584784171235e+01	 1.285704274571143e+01	 1.003139548236894e+01
0	 3.428584784171235e+01	 1.357129522376639e+01	 1.000282305692659e+01
0	 3.428584784171235e+01	 1.428554761849444e+01	 9.956434068661268e+00
0	 3.500015002827575e+01	 7.143009922150927e+00	 1.019560943084466e+01
0	 3.500015002827575e+01	 7.857266066626719e+00	 1.015593601642179e+01
0	 3.500015002827575e+01	 8.571521461152161e+00	 1.012689859719625e+01
0	 3.500015002827573e+01	 9.285776189055184e+00	 1.010589085557756e+01
0	 3.500015002827575e+01	 1.000003033366371e+01	 1.009030648135079e+01
0	 3.500015002827575e+01	 1.071428397830566e+01	 1.007753917167662e+01
0	 3.500015002827574e+01	 1.142853720630899e+01	 1.006498263109142e+01
0	 3.500015002827575e+01	 1.214279010100160e+01	 1.005003057150723e+01
0	 3.500015002827575e+01	 1.285704274571142e+01	 1.003007671221185e+01
0	 3.500015002827573e+01	 1.357129522376639e+01	 1.000251477986885e+01
0	 3.500015002827575e+01	 1.428554761849444e+01	 9.964738508517513e+00
0	 3.571445238150555e+01	 7.143009922150927e+00	 1.031804000744390e+01
0	 3.571445238150555e+01	 7.857266066626719e+00	 1.026382306035873e+01
0	 3.571445238150555e+01	 8.571521461152161e+00	 1.021796875220550e+01
0	 3.571445238150557e+01	 9.285776189055184e+00	 1.017903381173229e+01
0	 3.571445238150557e+01	 1.000003033366371e+01	 1.014557496994933e+01
0	 3.571445238150555e+01	 1.071428397830567e+01	 1.011614896012907e+01
0	 3.571445238150555e+01	 1.142853720630899e+01	 1.008931251780612e+01
0	 3.571445238150555e+01	 1.214279010100160e+01	 1.006362238077732e+01
0	 3.571445238150557e+01	 1.285704274571143e+01	 1.003763528910163e+01
0	 3.571445238150556e+01	 1.357129522376639e+01	 1.000990798510025e+01
0	 3.571445238150556e+01	 1.428554761849444e+01	 9.978997213356477e+00
0	 2.857145634928703e+01	 1.428554761849444e+01	 9.553539766962814e+00
0	 2.857145634928704e+01	 1.499984997172426e+01	 9.508719692660900e+00
0	 2.857145634928703e+01	 1.571415215828766e+01	 9.471887650047282e+00
0	 2.857145634928704e+01	 1.642845401151721e+01	 9.442919252613702e+00
0	 2.857145634928704e+01	 1.714275536474550e+01	 9.421690126763018e+00
0	 2.857145634928704e+01	 1.785705605130510e+01	 9.408075911809149e+00
0	 2.857145634928704e+01	 1.857135590452858e+01	 9.401952259977175e+00
0	 2.857145634928703e+01	 1.928565475774853e+01	 9.403194836403404e+00
0	 2.857145634928703e+01	 1.999995244429753e+01	 9.411679319135464e+00
0	 2.857145634928704e+01	 2.071424879750816e+01	 9.427281399132573e+00
0	 2.857145634928704e+01	 2.142854365071296e+01	 9.449876780265667e+00
0	 2.928575120249185e+01	 1.428554761849444e+01	 9.679453646820098e+00
0	 2.928575120249185e+01	 1.499984997172426e+01	 9.610765118453283e+00
0	 2.928575120249185e+01	 1.571415215828766e+01	 9.553106109251340e+00
0	 2.928575120249185e+01	 1.642845401151721e+01	 9.506358553704663e+00
0	 2.928575120249186e+01	 1.714275536474550e+01	 9.470404404787910e+00
0	 2.928575120249185e+01	 1.785705605130509e+01	 9.445125633959972e+00
0	 2.928575120249186e+01	 1.857135590452858e+01	 9.430404231164070e+00
0	 2.928575120249185e+01	 1.928565475774854e+01	 9.426122204827822e+00
0	 2.928575120249186e+01	 1.999995244429754e+01	 9.432161581863463e+00
0	 2.928575120249186e+01	 2.071424879750816e+01	 9.448404407668090e+00
0	 2.928575120249186e+01	 2.142854365071297e+01	 9.474732746123994e+00
0	 3.000004755570248e+01	 1.428554761849444e+01	 9.774601061382398e+00
0	 3.000004755570248e+01	 1.499984997172426e+01	 9.691382032631189e+00
0	 3.000004755570248e+01	 1.571415215828766e+01	 9.621012447438970e+00
0	 3.000004755570248e+01	 1.642845401151721e+01	 9.563378136070925e+00
0	 3.000004755570249e+01	 1.714275536474550e+01	 9.518364950857499e+00
0	 3.000004755570247e+01	 1.785705605130510e+01	 9.485858766194463e+00
0	 3.000004755570247e+01	 1.857135590452858e+01	 9.465745478542935e+00
0	 3.000004755570248e+01	 1.928565475774855e+01	 9.457911006429521e+00
0	 3.000004755570247e+01	 1.999995244429754e+01	 9.462241290446560e+00
0	 3.000004755570248e+01	 2.071424879750816e+01	 9.478622293252393e+00
0	 3.000004755570248e+01	 2.142854365071296e+01	 9.506939999571763e+00
0	 3.071434524225146e+01	 1.428554761849444e+01	 9.843572079132890e+00
0	 3.071434524225147e+01	 1.499984997172426e+01	 9.753766067189799e+00
0	 3.071434524225147e+01	 1.571415215828766e+01	 9.677584247358233e+00
0	 3.071434524225147e+01	 1.642845401151721e+01	 9.614913919804025e+00
0	 3.071434524225147e+01	 1.714275536474550e+01	 9.565642408594147e+00
0	 3.071434524225148e+01	 1.785705605130510e+01	 9.529657061696755e+00
0	 3.071434524225148e+01	 1.857135590452858e+01	 9.506845250981247e+00
0	 3.071434524225146e+01	 1.928565475774853e+01	 9.497094372218406e+00
0	 3.071434524225148e+01	 1.999995244429754e+01	 9.500291845080634e+00
0	 3.071434524225147e+01	 2.071424879750816e+01	 9.516325113142285e+00
0	 3.071434524225148e+01	 2.142854365071297e+01	 9.545081643880053e+00
0	 3.142864409547142e+01	 1.428554761849444e+01	 9.890956775069764e+00
0	 3.142864409547143e+01	 1.499984997172426e+01	 9.801112858380229e+00
0	 3.142864409547143e+01	 1.571415215828766e+01	 9.724799094035985e+00
0	 3.142864409547143e+01	 1.642845401151722e+01	 9.661901825575747e+00
0	 3.142864409547142e+01	 1.714275536474550e+01	 9.612307420777043e+00
0	 3.142864409547143e+01	 1.785705605130510e+01	 9.575902271656203e+00
0	 3.142864409547142e+01	 1.857135590452858e+01	 9.552572794468466e+00
0	 3.142864409547142e+01	 1.928565475774854e+01	 9.542205429708069e+00
0	 3.142864409547143e+01	 1.999995244429754e+01	 9.544686642108550e+00
0	 3.142864409547143e+01	 2.071424879750816e+01	 9.559902920643017e+00
0	 3.142864409547142e+01	 2.142854365071296e+01	 9.587740778524585e+00
0	 3.214294394869491e+01	 1.428554761849444e+01	 9.921345230706049e+00
0	 3.214294394869492e+01	 1.499984997172426e+01	 9.836618046709349e+00
0	 3.214294394869492e+01	 1.571415215828766e+01	 9.764634574777748e+00
0	 3.214294394869491e+01	 1.642845401151722e+01	 9.705277774638034e+00
0	 3.214294394869491e+01	 1.714275536474550e+01	 9.658430629342213e+00
0	 3.214294394869492e+01	 1.785705605130510e+01	 9.623976145267424e+00
0	 3.214294394869491e+01	 1.857135590452858e+01	 9.601797352116051e+00
0	 3.214294394869491e+01	 1.928565475774854e+01	 9.591777302915858e+00
0	 3.214294394869491e+01	 1.999995244429753e+01	 9.593799074020183e+00
0	 3.214294394869491e+01	 2.071424879750816e+01	 9.607745765108284e+00
0	 3.214294394869491e+01	 2.142854365071296e+01	 9.633500499185722e+00
0	 3.285724463525450e+01	 1.428554761849444e+01	 9.939327534069463e+00
0	 3.285724463525450e+01	 1.499984997172426e+01	 9.863477276939737e+00
0	 3.285724463525451e+01	 1.571415215828766e+01	 9.799068279167670e+00
0	 3.285724463525451e+01	 1.642845401151721e+01	 9.745977688822959e+00
0	 3.285724463525451e+01	 1.714275536474550e+01	 9.704082675382471e+00
0	 3.285724463525450e+01	 1.785705605130510e+01	 9.673260429730236e+00
0	 3.285724463525451e+01	 1.857135590452859e+01	 9.653388164157505e+00
0	 3.285724463525450e+01	 1.928565475774854e+01	 9.644343112362874e+00
0	 3.285724463525452e+01	 1.999995244429754e+01	 9.646002529452490e+00
0	 3.285724463525450e+01	 2.071424879750815e+01	 9.658243691940330e+00
0	 3.285724463525451e+01	 2.142854365071296e+01	 9.680943897748543e+00
0	 3.357154598848280e+01	 1.428554761849444e+01	 9.949493779702294e+00
0	 3.357154598848279e+01	 1.499984997172426e+01	 9.884886198089504e+00
0	 3.357154598848280e+01	 1.571415215828766e+01	 9.830077799068462e+00
0	 3.357154598848280e+01	 1.642845401151721e+01	 9.784937490542674e+00
0	 3.357154598848280e+01	 1.714275536474550e+01	 9.749334199147411e+00
0	 3.357154598848279e+01	 1.785705605130509e+01	 9.723136870249704e+00
0	 3.357154598848280e+01	 1.857135590452859e+01	 9.706214467948334e+00
0	 3.357154598848280e+01	 1.928565475774854e+01	 9.698435975074013e+00
0	 3.357154598848280e+01	 1.999995244429753e+01	 9.699670393189500e+00
0	 3.357154598848280e+01	 2.071424879750816e+01	 9.709786742589877e+00
0	 3.357154598848279e+01	 2.142854365071296e+01	 9.728654062302837e+00
0	 3.428584784171235e+01	 1.428554761849444e+01	 9.956434068661270e+00
0	 3.428584784171235e+01	 1.499984997172426e+01	 9.904040463432276e+00
0	 3.428584784171235e+01	 1.571415215828766e+01	 9.859640728621297e+00
0	 3.428584784171235e+01	 1.642845401151721e+01	 9.823093102789372e+00
0	 3.428584784171235e+01	 1.714275536474550e+01	 9.794255840043380e+00
0	 3.428584784171235e+01	 1.785705605130510e+01	 9.772987210036085e+00
0	 3.428584784171235e+01	 1.857135590452859e+01	 9.759145497966079e+00
0	 3.428584784171235e+01	 1.928565475774854e+01	 9.752589004577935e+00
0	 3.428584784171235e+01	 1.999995244429753e+01	 9.753176046162327e+00
0	 3.428584784171234e+01	 2.071424879750815e+01	 9.760764954556223e+00
0	 3.428584784171235e+01	 2.142854365071296e+01	 9.775214077143120e+00
0	 3.500015002827575e+01	 1.428554761849444e+01	 9.964738508517515e+00
0	 3.500015002827575e+01	 1.499984997172426e+01	 9.924135730497111e+00
0	 3.500015002827573e+01	 1.571415215828766e+01	 9.889734664245811e+00
0	 3.500015002827575e+01	 1.642845401151721e+01	 9.861380449135247e+00
0	 3.500015002827574e+01	 1.714275536474550e+01	 9.838918236633445e+00
0	 3.500015002827575e+01	 1.785705605130510e+01	 9.822193190304843e+00
0	 3.500015002827575e+01	 1.857135590452858e+01	 9.811050485810281e+00
0	 3.500015002827575e+01	 1.928565475774854e+01	 9.805335310907084e+00
0	 3.500015002827575e+01	 1.999995244429754e+01	 9.804892865449165e+00
0	 3.500015002827575e+01	 2.071424879750816e+01	 9.809568361387157e+00
0	 3.500015002827575e+01	 2.142854365071296e+01	 9.819207022768623e+00
0	 3.571445238150556e+01	 1.428554761849444e+01	 9.978997213356479e+00
0	 3.571445238150555e+01	 1.499984997172426e+01	 9.948367661068419e+00
0	 3.571445238150556e+01	 1.571415215828766e+01	 9.922337204640012e+00
0	 3.571445238150557e+01	 1.642845401151722e+01	 9.900735453732455e+00
0	 3.571445238150556e+01	 1.714275536474550e+01	 9.883392026637344e+00
0	 3.571445238150555e+01	 1.785705605130510e+01	 9.870136550276587e+00
0	 3.571445238150555e+01	 1.857135590452859e+01	 9.860798660202466e+00
0	 3.571445238150556e+01	 1.928565475774854e+01	 9.855208000597642e+00
0	 3.571445238150557e+01	 1.999995244429754e+01	 9.853194224275267e+00
0	 3.571445238150557e+01	 2.071424879750816e+01	 9.854586992679009e+00
0	 3.571445238150556e+01	 2.142854365071296e+01	 9.859215975883263e+00
0	 2.857145634928704e+01	 2.142854365071296e+01	 9.449876780265667e+00
0	 2.857145634928704e+01	 2.214283692057824e+01	 9.475540159447732e+00
0	 2.857145634928704e+01	 2.285712885710494e+01	 9.500493635495234e+00
0	 2.857145634928704e+01	 2.357141979362770e+01	 9.524834021569855e+00
0	 2.857145634928703e+01	 2.428571006348117e+01	 9.548658126501968e+00
0	 2.857145634928704e+01	 2.500000000000001e+01	 9.572062754790759e+00
0	 2.857145634928704e+01	 2.571428993651884e+01	 9.595144706604376e+00
0	 2.857145634928704e+01	 2.642858020637232e+01	 9.618000777780107e+00
0	 2.857145634928704e+01	 2.714287114289508e+01	 9.640727759824628e+00
0	 2.857145634928704e+01	 2.785716307942177e+01	 9.663422439914189e+00
0	 2.857145634928703e+01	 2.857145634928703e+01	 9.686181600894942e+00
0	 2.928575120249186e+01	 2.142854365071297e+01	 9.474732746123994e+00
0	 2.928575120249186e+01	 2.214283692057824e+01	 9.504715038329220e+00
0	 2.928575120249184e+01	 2.285712885710493e+01	 9.532197303286406e+00
0	 2.928575120249186e+01	 2.357141979362770e+01	 9.557477984679799e+00
0	 2.928575120249185e+01	 2.428571006348117e+01	 9.580855524968459e+00
0	 2.928575120249187e+01	 2.500000000000001e+01	 9.602628365386492e+00
0	 2.928575120249185e+01	 2.571428993651883e+01	 9.623094945943167e+00
0	 2.928575120249186e+01	 2.642858020637231e+01	 9.642553705423147e+00
0	 2.928575120249186e+01	 2.714287114289508e+01	 9.661303081386722e+00
0	 2.928575120249186e+01	 2.785716307942178e+01	 9.679641510169969e+00
0	 2.928575120249185e+01	 2.857145634928703e+01	 9.697867426885022e+00
0	 3.000004755570248e+01	 2.142854365071296e+01	 9.506939999571763e+00
0	 3.000004755570248e+01	 2.214283692057824e+01	 9.539112120335684e+00
0	 3.000004755570248e+01	 2.285712885710494e+01	 9.567440323630152e+00
0	 3.000004755570248e+01	 2.357141979362770e+01	 9.592386547232840e+00
0	 3.000004755570247e+01	 2.428571006348117e+01	 9.614412729948851e+00
0	 3.000004755570248e+01	 2.500000000000001e+01	 9.633980811610925e+00
0	 3.000004755570248e+01	 2.571428993651884e+01	 9.651552733079656e+00
0	 3.000004755570248e+01	 2.642858020637231e+01	 9.667590436243692e+00
0	 3.000004755570247e+01	 2.714287114289507e+01	 9.682555864019927e+00
0	 3.000004755570247e+01	 2.785716307942177e+01	 9.696910960353675e+00
0	 3.000004755570248e+01	 2.857145634928704e+01	 9.711117670218883e+00
0	 3.071434524225148e+01	 2.142854365071297e+01	 9.545081643880053e+00
0	 3.071434524225148e+01	 2.214283692057824e+01	 9.577581029264769e+00
0	 3.071434524225148e+01	 2.285712885710494e+01	 9.605309399948544e+00
0	 3.071434524225146e+01	 2.357141979362770e+01	 9.628854051238543e+00
0	 3.071434524225147e+01	 2.428571006348117e+01	 9.648802280950862e+00
0	 3.071434524225148e+01	 2.500000000000001e+01	 9.665741389410734e+00
0	 3.071434524225147e+01	 2.571428993651883e+01	 9.680258679452768e+00
0	 3.071434524225147e+01	 2.642858020637231e+01	 9.692941456421098e+00
0	 3.071434524225147e+01	 2.714287114289507e+01	 9.704377028169652e+00
0	 3.071434524225147e+01	 2.785716307942177e+01	 9.715152705062211e+00
0	 3.071434524225148e+01	 2.857145634928704e+01	 9.725855799972624e+00
0	 3.142864409547142e+01	 2.142854365071296e+01	 9.587740778524585e+00
0	 3.142864409547143e+01	 2.214283692057824e+01	 9.618971385518000e+00
0	 3.142864409547142e+01	 2.285712885710494e+01	 9.644891232864691e+00
0	 3.142864409547143e+01	 2.357141979362770e+01	 9.666174836649210e+00
0	 3.142864409547143e+01	 2.428571006348117e+01	 9.683496716257872e+00
0	 3.142864409547143e+01	 2.500000000000001e+01	 9.697531394378878e+00
0	 3.142864409547142e+01	 2.571428993651883e+01	 9.708953397002670e+00
0	 3.142864409547143e+01	 2.642858020637232e+01	 9.718437253421992e+00
0	 3.142864409547143e+01	 2.714287114289508e+01	 9.726657496232132e+00
0	 3.142864409547143e+01	 2.785716307942177e+01	 9.734288661330996e+00
0	 3.142864409547142e+01	 2.857145634928703e+01	 9.742005287919287e+00
0	 3.214294394869491e+01	 2.142854365071296e+01	 9.633500499185722e+00
0	 3.214294394869491e+01	 2.214283692057824e+01	 9.662132806100747e+00
0	 3.214294394869491e+01	 2.285712885710493e+01	 9.685272520202730e+00
0	 3.214294394869491e+01	 2.357141979362770e+01	 9.703643241359915e+00
0	 3.214294394869491e+01	 2.428571006348117e+01	 9.717968572928847e+00
0	 3.214294394869491e+01	 2.500000000000000e+01	 9.728972121754580e+00
0	 3.214294394869491e+01	 2.571428993651883e+01	 9.737377498170837e+00
0	 3.214294394869491e+01	 2.642858020637231e+01	 9.743908316000221e+00
0	 3.214294394869492e+01	 2.714287114289507e+01	 9.749288192554332e+00
0	 3.214294394869491e+01	 2.785716307942177e+01	 9.754240748633894e+00
0	 3.214294394869491e+01	 2.857145634928704e+01	 9.759489608528849e+00
0	 3.285724463525451e+01	 2.142854365071296e+01	 9.680943897748543e+00
0	 3.285724463525451e+01	 2.214283692057825e+01	 9.705914904622308e+00
0	 3.285724463525452e+01	 2.285712885710494e+01	 9.725539956987857e+00
0	 3.285724463525451e+01	 2.357141979362770e+01	 9.740553601208459e+00
0	 3.285724463525451e+01	 2.428571006348117e+01	 9.751690386798424e+00
0	 3.285724463525451e+01	 2.500000000000000e+01	 9.759684866423280e+00
0	 3.285724463525451e+01	 2.571428993651883e+01	 9.765271595899915e+00
0	 3.285724463525452e+01	 2.642858020637231e+01	 9.769185134196764e+00
0	 3.285724463525451e+01	 2.714287114289507e+01	 9.772160043433894e+00
0	 3.285724463525451e+01	 2.785716307942177e+01	 9.774930888883127e+00
0	 3.285724463525450e+01	 2.857145634928703e+01	 9.778232238968092e+00
0	 3.357154598848279e+01	 2.142854365071296e+01	 9.728654062302837e+00
0	 3.357154598848280e+01	 2.214283692057824e+01	 9.749167291295892e+00
0	 3.357154598848279e+01	 2.285712885710494e+01	 9.764780235446329e+00
0	 3.357154598848278e+01	 2.357141979362770e+01	 9.776200249975426e+00
0	 3.357154598848280e+01	 2.428571006348118e+01	 9.784134692476812e+00
0	 3.357154598848280e+01	 2.500000000000001e+01	 9.789290922916647e+00
0	 3.357154598848281e+01	 2.571428993651884e+01	 9.792376303633766e+00
0	 3.357154598848280e+01	 2.642858020637231e+01	 9.794098199339755e+00
0	 3.357154598848280e+01	 2.714287114289508e+01	 9.795163977119090e+00
0	 3.357154598848279e+01	 2.785716307942177e+01	 9.796281006429213e+00
0	 3.357154598848279e+01	 2.857145634928703e+01	 9.798156659100584e+00
0	 3.428584784171235e+01	 2.142854365071296e+01	 9.775214077143120e+00
0	 3.428584784171235e+01	 2.214283692057824e+01	 9.790739572938614e+00
0	 3.428584784171235e+01	 2.285712885710494e+01	 9.802080045005471e+00
0	 3.428584784171236e+01	 2.357141979362770e+01	 9.809877519384132e+00
0	 3.428584784171235e+01	 2.428571006348118e+01	 9.814774023349797e+00
0	 3.428584784171235e+01	 2.500000000000001e+01	 9.817411585412531e+00
0	 3.428584784171235e+01	 2.571428993651883e+01	 9.818432235317360e+00
0	 3.428584784171235e+01	 2.642858020637231e+01	 9.818478004044367e+00
0	 3.428584784171236e+01	 2.714287114289508e+01	 9.818190923808757e+00
0	 3.428584784171235e+01	 2.785716307942178e+01	 9.818213028060944e+00
0	 3.428584784171235e+01	 2.857145634928704e+01	 9.819186351486589e+00
0	 3.500015002827575e+01	 2.142854365071296e+01	 9.819207022768623e+00
0	 3.500015002827575e+01	 2.214283692057824e+01	 9.829481352971506e+00
0	 3.500015002827574e+01	 2.285712885710494e+01	 9.836526072293623e+00
0	 3.500015002827575e+01	 2.357141979362770e+01	 9.840879739100624e+00
0	 3.500015002827575e+01	 2.428571006348118e+01	 9.843080911578744e+00
0	 3.500015002827575e+01	 2.500000000000000e+01	 9.843668147734924e+00
0	 3.500015002827574e+01	 2.571428993651883e+01	 9.843180005396801e+00
0	 3.500015002827574e+01	 2.642858020637231e+01	 9.842155042212822e+00
0	 3.500015002827574e+01	 2.714287114289507e+01	 9.841131815652256e+00
0	 3.500015002827575e+01	 2.785716307942177e+01	 9.840648883005285e+00
0	 3.500015002827575e+01	 2.857145634928704e+01	 9.841244801383050e+00
0	 3.571445238150556e+01	 2.142854365071296e+01	 9.859215975883263e+00
0	 3.571445238150555e+01	 2.214283692057824e+01	 9.864242231419485e+00
0	 3.571445238150556e+01	 2.285712885710494e+01	 9.867205001140174e+00
0	 3.571445238150555e+01	 2.357141979362770e+01	 9.868501236733634e+00
0	 3.571445238150556e+01	 2.428571006348118e+01	 9.868527888100543e+00
0	 3.571445238150555e+01	 2.500000000000000e+01	 9.867681903353930e+00
0	 3.571445238150556e+01	 2.571428993651884e+01	 9.866360228819246e+00
0	 3.571445238150556e+01	 2.642858020637231e+01	 9.864959809034321e+00
0	 3.571445238150555e+01	 2.714287114289507e+01	 9.863877586749444e+00
0	 3.571445238150556e+01	 2.785716307942177e+01	 9.863510502927401e+00
0	 3.571445238150555e+01	 2.857145634928703e+01	 9.864255496743517e+00
0	 2.857145634928703e+01	 2.857145634928703e+01	 9.686181600894942e+00
0	 2.857145634928704e+01	 2.928575120249186e+01	 9.707893696166785e+00
0	 2.857145634928703e+01	 3.000004755570248e+01	 9.727552436041691e+00
0	 2.857145634928704e+01	 3.071434524225148e+01	 9.745412484517384e+00
0	 2.857145634928703e+01	 3.142864409547142e+01	 9.761728504299588e+00
0	 2.857145634928704e+01	 3.214294394869491e+01	 9.776755156801981e+00
0	 2.857145634928704e+01	 3.285724463525451e+01	 9.790747102146375e+00
0	 2.857145634928703e+01	 3.357154598848279e+01	 9.803958999162761e+00
0	 2.857145634928704e+01	 3.428584784171235e+01	 9.816645505389353e+00
0	 2.857145634928704e+01	 3.500015002827575e+01	 9.829061277072681e+00
0	 2.857145634928704e+01	 3.571445238150556e+01	 9.841460969167624e+00
0	 2.928575120249185e+01	 2.857145634928703e+01	 9.697867426885022e+00
0	 2.928575120249186e+01	 2.928575120249186e+01	 9.715744560265593e+00
0	 2.928575120249186e+01	 3.000004755570248e+01	 9.732872067949062e+00
0	 2.928575120249185e+01	 3.071434524225147e+01	 9.749301526907521e+00
0	 2.928575120249186e+01	 3.142864409547142e+01	 9.765084513342972e+00
0	 2.928575120249186e+01	 3.214294394869491e+01	 9.780272602687369e+00
0	 2.928575120249185e+01	 3.285724463525450e+01	 9.794917369602707e+00
0	 2.928575120249186e+01	 3.357154598848280e+01	 9.809070387981059e+00
0	 2.928575120249186e+01	 3.428584784171236e+01	 9.822783230944651e+00
0	 2.928575120249187e+01	 3.500015002827575e+01	 9.836107470845885e+00
0	 2.928575120249186e+01	 3.571445238150555e+01	 9.849094679267427e+00
0	 3.000004755570248e+01	 2.857145634928704e+01	 9.711117670218883e+00
0	 3.000004755570248e+01	 2.928575120249186e+01	 9.725610384983991e+00
0	 3.000004755570247e+01	 3.000004755570247e+01	 9.740438218470814e+00
0	 3.000004755570247e+01	 3.071434524225147e+01	 9.755485199863553e+00
0	 3.000004755570248e+01	 3.142864409547142e+01	 9.770635358024515e+00
0	 3.000004755570247e+01	 3.214294394869491e+01	 9.785772721494194e+00
0	 3.000004755570247e+01	 3.285724463525450e+01	 9.800781318491374e+00
0	 3.000004755570248e+01	 3.357154598848280e+01	 9.815545176913087e+00
0	 3.000004755570248e+01	 3.428584784171235e+01	 9.829948324334723e+00
0	 3.000004755570248e+01	 3.500015002827575e+01	 9.843874788010064e+00
0	 3.000004755570247e+01	 3.571445238150556e+01	 9.857208594871313e+00
0	 3.071434524225148e+01	 2.857145634928704e+01	 9.725855799972624e+00
0	 3.071434524225146e+01	 2.928575120249185e+01	 9.737402048266345e+00
0	 3.071434524225148e+01	 3.000004755570248e+01	 9.750150322304336e+00
0	 3.071434524225146e+01	 3.071434524225147e+01	 9.763852642376996e+00
0	 3.071434524225148e+01	 3.142864409547143e+01	 9.778261028829020e+00
0	 3.071434524225146e+01	 3.214294394869491e+01	 9.793127502059416e+00
0	 3.071434524225147e+01	 3.285724463525450e+01	 9.808204082521529e+00
0	 3.071434524225148e+01	 3.357154598848279e+01	 9.823242790723135e+00
0	 3.071434524225146e+01	 3.428584784171235e+01	 9.837995647226421e+00
0	 3.071434524225148e+01	 3.500015002827574e+01	 9.852214672648056e+00
0	 3.071434524225148e+01	 3.571445238150555e+01	 9.865651887659240e+00
0	 3.142864409547142e+01	 2.857145634928703e+01	 9.742005287919287e+00
0	 3.142864409547143e+01	 2.928575120249186e+01	 9.751030430747054e+00
0	 3.142864409547142e+01	 3.000004755570248e+01	 9.761907816597152e+00
0	 3.142864409547143e+01	 3.071434524225149e+01	 9.774292995466572e+00
0	 3.142864409547143e+01	 3.142864409547143e+01	 9.787841517712213e+00
0	 3.142864409547143e+01	 3.214294394869491e+01	 9.802208934050917e+00
0	 3.142864409547143e+01	 3.285724463525452e+01	 9.817050795559497e+00
0	 3.142864409547142e+01	 3.357154598848279e+01	 9.832022653674779e+00
0	 3.142864409547143e+01	 3.428584784171236e+01	 9.846780060193606e+00
0	 3.142864409547142e+01	 3.500015002827574e+01	 9.860978567272912e+00
0	 3.142864409547142e+01	 3.571445238150555e+01	 9.874273727429733e+00
0	 3.214294394869491e+01	 2.857145634928704e+01	 9.759489608528849e+00
0	 3.214294394869491e+01	 2.928575120249186e+01	 9.766406415750446e+00
0	 3.214294394869491e+01	 3.000004755570247e+01	 9.775610140946933e+00
0	 3.214294394869491e+01	 3.071434524225147e+01	 9.786695402178145e+00
0	 3.214294394869491e+01	 3.142864409547142e+01	 9.799256818100620e+00
0	 3.214294394869491e+01	 3.214294394869491e+01	 9.812889007967524e+00
0	 3.214294394869492e+01	 3.285724463525452e+01	 9.827186591628722e+00
0	 3.214294394869491e+01	 3.357154598848279e+01	 9.841744189530850e+00
0	 3.214294394869491e+01	 3.428584784171235e+01	 9.856156422717206e+00
0	 3.214294394869491e+01	 3.500015002827575e+01	 9.870017912827917e+00
0	 3.214294394869491e+01	 3.571445238150556e+01	 9.882923282099895e+00
0	 3.285724463525450e+01	 2.857145634928703e+01	 9.778232238968092e+00
0	 3.285724463525451e+01	 2.928575120249185e+01	 9.783440889290727e+00
0	 3.285724463525451e+01	 3.000004755570248e+01	 9.791156737401352e+00
0	 3.285724463525451e+01	 3.071434524225148e+01	 9.800949007584697e+00
0	 3.285724463525452e+01	 3.142864409547143e+01	 9.812386924891575e+00
0	 3.285724463525451e+01	 3.214294394869491e+01	 9.825039715138930e+00
0	 3.285724463525450e+01	 3.285724463525450e+01	 9.838476604909813e+00
0	 3.285724463525451e+01	 3.357154598848280e+01	 9.852266821553442e+00
0	 3.285724463525451e+01	 3.428584784171235e+01	 9.865979593185187e+00
0	 3.285724463525450e+01	 3.500015002827573e+01	 9.879184148686599e+00
0	 3.285724463525451e+01	 3.571445238150555e+01	 9.891449717705447e+00
0	 3.357154598848279e+01	 2.857145634928703e+01	 9.798156659100584e+00
0	 3.357154598848280e+01	 2.928575120249186e+01	 9.802044740071898e+00
0	 3.357154598848280e+01	 3.000004755570248e+01	 9.808447050458092e+00
0	 3.357154598848280e+01	 3.071434524225148e+01	 9.816942958786216e+00
0	 3.357154598848278e+01	 3.142864409547141e+01	 9.827111834453152e+00
0	 3.357154598848280e+01	 3.214294394869491e+01	 9.838533047725688e+00
0	 3.357154598848280e+01	 3.285724463525452e+01	 9.850785969740430e+00
0	 3.357154598848280e+01	 3.357154598848280e+01	 9.863449972503918e+00
0	 3.357154598848280e+01	 3.428584784171235e+01	 9.876104428892571e+00
0	 3.357154598848280e+01	 3.500015002827575e+01	 9.888328712652749e+00
0	 3.357154598848280e+01	 3.571445238150556e+01	 9.899702198400735e+00
0	 3.428584784171235e+01	 2.857145634928704e+01	 9.819186351486589e+00
0	 3.428584784171235e+01	 2.928575120249185e+01	 9.822128859487703e+00
0	 3.428584784171235e+01	 3.000004755570248e+01	 9.827380527064745e+00
0	 3.428584784171235e+01	 3.071434524225147e+01	 9.834566404909715e+00
0	 3.428584784171235e+01	 3.142864409547142e+01	 9.843311544624161e+00
0	 3.428584784171235e+01	 3.214294394869491e+01	 9.853240998719173e+00
0	 3.428584784171235e+01	 3.285724463525450e+01	 9.863979820615345e+00
0	 3.428584784171235e+01	 3.357154598848280e+01	 9.875153064642850e+00
0	 3.428584784171235e+01	 3.428584784171235e+01	 9.886385786041446e+00
0	 3.428584784171235e+01	 3.500015002827573e+01	 9.897303040960429e+00
0	 3.428584784171235e+01	 3.571445238150555e+01	 9.907529886458738e+00
0	 3.500015002827575e+01	 2.857145634928704e+01	 9.841244801383050e+00
0	 3.500015002827575e+01	 2.928575120249186e+01	 9.843604141621611e+00
0	 3.500015002827575e+01	 3.000004755570248e+01	 9.847856616618788e+00
0	 3.500015002827575e+01	 3.071434524225147e+01	 9.853708497109178e+00
0	 3.500015002827575e+01	 3.142864409547143e+01	 9.860866054714084e+00
0	 3.500015002827575e+01	 3.214294394869491e+01	 9.869035561941551e+00
0	 3.500015002827574e+01	 3.285724463525450e+01	 9.877923292186368e+00
0	 3.500015002827575e+01	 3.357154598848280e+01	 9.887235519730067e+00
0	 3.500015002827576e+01	 3.428584784171235e+01	 9.896678519740908e+00
0	 3.500015002827575e+01	 3.500015002827575e+01	 9.905958568273977e+00
0	 3.500015002827575e+01	 3.571445238150555e+01	 9.914781942271077e+00
0	 3.571445238150555e+01	 2.857145634928703e+01	 9.864255496743517e+00
0	 3.571445238150555e+01	 2.928575120249185e+01	 9.866381483246741e+00
0	 3.571445238150555e+01	 3.000004755570247e+01	 9.869774770967579e+00
0	 3.571445238150556e+01	 3.071434524225148e+01	 9.874258388565512e+00
0	 3.571445238150556e+01	 3.142864409547142e+01	 9.879655365503053e+00
0	 3.571445238150556e+01	 3.214294394869491e+01	 9.885788732045812e+00
0	 3.571445238150555e+01	 3.285724463525451e+01	 9.892481519262416e+00
0	 3.571445238150555e+01	 3.357154598848280e+01	 9.899556759024600e+00
0	 3.571445238150555e+01	 3.428584784171235e+01	 9.906837484007148e+00
0	 3.571445238150556e+01	 3.500015002827574e+01	 9.914146727687964e+00
0	 3.571445238150555e+01	 3.571445238150556e+01	 9.921307524348016e+00
0	 2.857145634928704e+01	 3.571445238150556e+01	 9.841460969167626e+00
0	 2.857145634928704e+01	 3.642870477623359e+01	 9.854042141250448e+00
0	 2.857145634928703e+01	 3.714295725428856e+01	 9.866749381585363e+00
0	 2.857145634928704e+01	 3.785720989899840e+01	 9.879455267646545e+00
0	 2.857145634928704e+01	 3.857146279369101e+01	 9.892032377543451e+00
0	 2.857145634928704e+01	 3.928571602169432e+01	 9.904353290020719e+00
0	 2.857145634928703e+01	 3.999996966633628e+01	 9.916290584458290e+00
0	 2.857145634928704e+01	 4.071422381094482e+01	 9.927716840871327e+00
0	 2.857145634928704e+01	 4.142847853884783e+01	 9.938504639910278e+00
0	 2.857145634928703e+01	 4.214273393337326e+01	 9.948526562860827e+00
0	 2.857145634928704e+01	 4.285699007784908e+01	 9.957655191643971e+00
0	 2.928575120249186e+01	 3.571445238150555e+01	 9.849094679267427e+00
0	 2.928575120249186e+01	 3.642870477623359e+01	 9.861673772452216e+00
0	 2.928575120249186e+01	 3.714295725428858e+01	 9.873758565347263e+00
0	 2.928575120249186e+01	 3.785720989899841e+01	 9.885375281944597e+00
0	 2.928575120249186e+01	 3.857146279369100e+01	 9.896550146785589e+00
0	 2.928575120249185e+01	 3.928571602169433e+01	 9.907309384961001e+00
0	 2.928575120249185e+01	 3.999996966633629e+01	 9.917679222110978e+00
0	 2.928575120249186e+01	 4.071422381094482e+01	 9.927685884425028e+00
0	 2.928575120249185e+01	 4.142847853884783e+01	 9.937355598642087e+00
0	 2.928575120249185e+01	 4.214273393337328e+01	 9.946714592050458e+00
0	 2.928575120249185e+01	 4.285699007784907e+01	 9.955789092487866e+00
0	 3.000004755570247e+01	 3.571445238150556e+01	 9.857208594871311e+00
0	 3.000004755570247e+01	 3.642870477623359e+01	 9.869654303755210e+00
0	 3.000004755570248e+01	 3.714295725428858e+01	 9.881097460613603e+00
0	 3.000004755570248e+01	 3.785720989899839e+01	 9.891690843467567e+00
0	 3.000004755570247e+01	 3.857146279369102e+01	 9.901587230811682e+00
0	 3.000004755570247e+01	 3.928571602169432e+01	 9.910939401614014e+00
0	 3.000004755570247e+01	 3.999996966633628e+01	 9.919900135316144e+00
0	 3.000004755570248e+01	 4.071422381094482e+01	 9.928622211833163e+00
0	 3.000004755570248e+01	 4.142847853884784e+01	 9.937258411553687e+00
0	 3.000004755570248e+01	 4.214273393337328e+01	 9.945961515339858e+00
0	 3.000004755570247e+01	 4.285699007784908e+01	 9.954884304527337e+00
0	 3.071434524225148e+01	 3.571445238150555e+01	 9.865651887659240e+00
0	 3.071434524225147e+01	 3.642870477623359e+01	 9.877832144830418e+00
0	 3.071434524225148e+01	 3.714295725428858e+01	 9.888615590802072e+00
0	 3.071434524225147e+01	 3.785720989899839e+01	 9.898254465383994e+00
0	 3.071434524225147e+01	 3.857146279369101e+01	 9.907001008792248e+00
0	 3.071434524225148e+01	 3.928571602169432e+01	 9.915107461649267e+00
0	 3.071434524225147e+01	 3.999996966633629e+01	 9.922826064983724e+00
0	 3.071434524225147e+01	 4.071422381094480e+01	 9.930409060230691e+00
0	 3.071434524225148e+01	 4.142847853884784e+01	 9.938108689231505e+00
0	 3.071434524225147e+01	 4.214273393337327e+01	 9.946177194233867e+00
0	 3.071434524225147e+01	 4.285699007784906e+01	 9.954866817891821e+00
0	 3.142864409547142e+01	 3.571445238150555e+01	 9.874273727429735e+00
0	 3.142864409547143e+01	 3.642870477623360e+01	 9.886055703356043e+00
0	 3.142864409547143e+01	 3.714295725428858e+01	 9.896162477403205e+00
0	 3.142864409547143e+01	 3.785720989899840e+01	 9.904918659139849e+00
0	 3.142864409547142e+01	 3.857146279369100e+01	 9.912648858481056e+00
0	 3.142864409547143e+01	 3.928571602169433e+01	 9.919677685688397e+00
0	 3.142864409547143e+01	 3.999996966633628e+01	 9.926329751369959e+00
0	 3.142864409547143e+01	 4.071422381094481e+01	 9.932929666480312e+00
0	 3.142864409547142e+01	 4.142847853884781e+01	 9.939802042320554e+00
0	 3.142864409547143e+01	 4.214273393337328e+01	 9.947271490538247e+00
0	 3.142864409547142e+01	 4.285699007784908e+01	 9.955662623127523e+00
0	 3.214294394869491e+01	 3.571445238150556e+01	 9.882923282099894e+00
0	 3.214294394869492e+01	 3.642870477623360e+01	 9.894173385017515e+00
0	 3.214294394869491e+01	 3.714295725428858e+01	 9.903587639980385e+00
0	 3.214294394869491e+01	 3.785720989899838e+01	 9.911535934458611e+00
0	 3.214294394869492e+01	 3.857146279369100e+01	 9.918388156215034e+00
0	 3.214294394869491e+01	 3.928571602169432e+01	 9.924514193305178e+00
0	 3.214294394869491e+01	 3.999996966633629e+01	 9.930283934077346e+00
0	 3.214294394869491e+01	 4.071422381094480e+01	 9.936067267172533e+00
0	 3.214294394869491e+01	 4.142847853884783e+01	 9.942234081524459e+00
0	 3.214294394869491e+01	 4.214273393337326e+01	 9.949154266359649e+00
0	 3.214294394869491e+01	 4.285699007784907e+01	 9.957197711197320e+00
0	 3.285724463525451e+01	 3.571445238150555e+01	 9.891449717705447e+00
0	 3.285724463525450e+01	 3.642870477623359e+01	 9.902033593507543e+00
0	 3.285724463525452e+01	 3.714295725428858e+01	 9.910740596169855e+00
0	 3.285724463525450e+01	 3.785720989899840e+01	 9.917958799341291e+00
0	 3.285724463525450e+01	 3.857146279369100e+01	 9.924076276914441e+00
0	 3.285724463525451e+01	 3.928571602169433e+01	 9.929481103025594e+00
0	 3.285724463525451e+01	 3.999996966633628e+01	 9.934561352054732e+00
0	 3.285724463525451e+01	 4.071422381094482e+01	 9.939705098625549e+00
0	 3.285724463525451e+01	 4.142847853884782e+01	 9.945300417605459e+00
0	 3.285724463525451e+01	 4.214273393337327e+01	 9.951735384105589e+00
0	 3.285724463525451e+01	 4.285699007784908e+01	 9.959398073480788e+00
0	 3.357154598848280e+01	 3.571445238150556e+01	 9.899702198400735e+00
0	 3.357154598848280e+01	 3.642870477623360e+01	 9.909484730526138e+00
0	 3.357154598848280e+01	 3.714295725428857e+01	 9.917470861680815e+00
0	 3.357154598848279e+01	 3.785720989899838e+01	 9.924039760066446e+00
0	 3.357154598848279e+01	 3.857146279369100e+01	 9.929570594082799e+00
0	 3.357154598848280e+01	 3.928571602169433e+01	 9.934442532327749e+00
0	 3.357154598848280e+01	 3.999996966633629e+01	 9.939034743597263e+00
0	 3.357154598848280e+01	 4.071422381094481e+01	 9.943726396885403e+00
0	 3.357154598848280e+01	 4.142847853884785e+01	 9.948896661384374e+00
0	 3.357154598848280e+01	 4.214273393337328e+01	 9.954924706484483e+00
0	 3.357154598848280e+01	 4.285699007784907e+01	 9.962189701774156e+00
0	 3.428584784171235e+01	 3.571445238150555e+01	 9.907529886458738e+00
0	 3.428584784171235e+01	 3.642870477623359e+01	 9.916375195780583e+00
0	 3.428584784171235e+01	 3.714295725428857e+01	 9.923627950295321e+00
0	 3.428584784171235e+01	 3.785720989899839e+01	 9.929631321190161e+00
0	 3.428584784171235e+01	 3.857146279369100e+01	 9.934728479806893e+00
0	 3.428584784171235e+01	 3.928571602169433e+01	 9.939262597641964e+00
0	 3.428584784171235e+01	 3.999996966633628e+01	 9.943576846346394e+00
0	 3.428584784171235e+01	 4.071422381094480e+01	 9.948014397725844e+00
0	 3.428584784171235e+01	 4.142847853884783e+01	 9.952918423740607e+00
0	 3.428584784171234e+01	 4.214273393337328e+01	 9.958632096505603e+00
0	 3.428584784171236e+01	 4.285699007784908e+01	 9.965498588290409e+00
0	 3.500015002827575e+01	 3.571445238150555e+01	 9.914781942271077e+00
0	 3.500015002827575e+01	 3.642870477623359e+01	 9.922553386985495e+00
0	 3.500015002827575e+01	 3.714295725428857e+01	 9.929061373868400e+00
0	 3.500015002827574e+01	 3.785720989899839e+01	 9.934585985546107e+00
0	 3.500015002827575e+01	 3.857146279369101e+01	 9.939407304756839e+00
0	 3.500015002827575e+01	 3.928571602169433e+01	 9.943805414350754e+00
0	 3.500015002827575e+01	 3.999996966633629e+01	 9.948060397289927e+00
0	 3.500015002827575e+01	 4.071422381094481e+01	 9.952452336648411e+00
0	 3.500015002827575e+01	 4.142847853884783e+01	 9.957261315612168e+00
0	 3.500015002827575e+01	 4.214273393337328e+01	 9.962767417479126e+00
0	 3.500015002827575e+01	 4.285699007784908e+01	 9.969250725659149e+00
0	 3.571445238150555e+01	 3.571445238150556e+01	 9.921307524348014e+00
0	 3.571445238150556e+01	 3.642870477623360e+01	 9.927867699862801e+00
0	 3.571445238150556e+01	 3.714295725428856e+01	 9.933620642327995e+00
0	 3.571445238150555e+01	 3.785720989899839e+01	 9.938756254245520e+00
0	 3.571445238150557e+01	 3.857146279369101e+01	 9.943464438185991e+00
0	 3.571445238150555e+01	 3.928571602169433e+01	 9.947935096788768e+00
0	 3.571445238150555e+01	 3.999996966633629e+01	 9.952358132761972e+00
0	 3.571445238150555e+01	 4.071422381094481e+01	 9.956923448882403e+00
0	 3.571445238150555e+01	 4.142847853884783e+01	 9.961820947995658e+00
0	 3.571445238150555e+01	 4.214273393337327e+01	 9.967240533016062e+00
0	 3.571445238150556e+01	 4.285699007784908e+01	 9.973372106926695e+00
0	 2.857145634928704e+01	 4.285699007784908e+01	 9.957655191643971e+00
0	 2.857145634928704e+01	 4.357129694500738e+01	 9.965567156345495e+00
0	 2.857145634928704e+01	 4.428560406221392e+01	 9.972193273585040e+00
0	 2.857145634928704e+01	 4.499991084612204e+01	 9.977789214699492e+00
0	 2.857145634928704e+01	 4.571421671338500e+01	 9.982610644027536e+00
0	 2.857145634928704e+01	 4.642852108065615e+01	 9.986913218909852e+00
0	 2.857145634928703e+01	 4.714282336458874e+01	 9.990952589689275e+00
0	 2.857145634928704e+01	 4.785712298183613e+01	 9.994984399710942e+00
0	 2.857145634928704e+01	 4.857141934905160e+01	 9.999264285322207e+00
0	 2.857145634928704e+01	 4.928571188288845e+01	 1.000404787587265e+01
0	 2.857145634928704e+01	 5.000000000000000e+01	 1.000959079371394e+01
0	 2.928575120249185e+01	 4.285699007784907e+01	 9.955789092487862e+00
0	 2.928575120249186e+01	 4.357129694500737e+01	 9.964209419909277e+00
0	 2.928575120249186e+01	 4.428560406221393e+01	 9.971642533342738e+00
0	 2.928575120249186e+01	 4.499991084612202e+01	 9.978171491482213e+00
0	 2.928575120249186e+01	 4.571421671338500e+01	 9.983879345197185e+00
0	 2.928575120249186e+01	 4.642852108065615e+01	 9.988849137532904e+00
0	 2.928575120249185e+01	 4.714282336458874e+01	 9.993163903710521e+00
0	 2.928575120249186e+01	 4.785712298183613e+01	 9.996906671127148e+00
0	 2.928575120249186e+01	 4.857141934905161e+01	 1.000016045935577e+01
0	 2.928575120249186e+01	 4.928571188288846e+01	 1.000300828014517e+01
0	 2.928575120249186e+01	 5.000000000000000e+01	 1.000553313741973e+01
0	 3.000004755570247e+01	 4.285699007784908e+01	 9.954884304527333e+00
0	 3.000004755570248e+01	 4.357129694500736e+01	 9.963617311389683e+00
0	 3.000004755570247e+01	 4.428560406221392e+01	 9.971608358831332e+00
0	 3.000004755570247e+01	 4.499991084612203e+01	 9.978798065768469e+00
0	 3.000004755570248e+01	 4.571421671338500e+01	 9.985127042632641e+00
0	 3.000004755570247e+01	 4.642852108065615e+01	 9.990535891371071e+00
0	 3.000004755570247e+01	 4.714282336458875e+01	 9.994965205446604e+00
0	 3.000004755570248e+01	 4.785712298183612e+01	 9.998355569837976e+00
0	 3.000004755570248e+01	 4.857141934905160e+01	 1.000064756103946e+01
0	 3.000004755570247e+01	 4.928571188288844e+01	 1.000178174706085e+01
0	 3.000004755570248e+01	 4.999999999999999e+01	 1.000169868742720e+01
0	 3.071434524225147e+01	 4.285699007784906e+01	 9.954866817891821e+00
0	 3.071434524225148e+01	 4.357129694500737e+01	 9.963733755073966e+00
0	 3.071434524225148e+01	 4.428560406221393e+01	 9.972050339149305e+00
0	 3.071434524225148e+01	 4.499991084612203e+01	 9.979644921882960e+00
0	 3.071434524225148e+01	 4.571421671338500e+01	 9.986345846060066e+00
0	 3.071434524225148e+01	 4.642852108065614e+01	 9.991981445486017e+00
0	 3.071434524225147e+01	 4.714282336458874e+01	 9.996380044986529e+00
0	 3.071434524225148e+01	 4.785712298183613e+01	 9.999369960407613e+00
0	 3.071434524225148e+01	 4.857141934905160e+01	 1.000077949861553e+01
0	 3.071434524225148e+01	 4.928571188288846e+01	 1.000043695749649e+01
0	 3.071434524225148e+01	 5.000000000000000e+01	 9.998170625956380e+00
0	 3.142864409547142e+01	 4.285699007784908e+01	 9.955662623127523e+00
0	 3.142864409547142e+01	 4.357129694500738e+01	 9.964501675630807e+00
0	 3.142864409547143e+01	 4.428560406221393e+01	 9.972928063619147e+00
0	 3.142864409547142e+01	 4.499991084612203e+01	 9.980688044137041e+00
0	 3.142864409547142e+01	 4.571421671338500e+01	 9.987527864917183e+00
0	 3.142864409547143e+01	 4.642852108065613e+01	 9.993193764380536e+00
0	 3.142864409547143e+01	 4.714282336458875e+01	 9.997431971636473e+00
0	 3.142864409547142e+01	 4.785712298183613e+01	 9.999988706482728e+00
0	 3.142864409547142e+01	 4.857141934905159e+01	 1.000061017940530e+01
0	 3.142864409547142e+01	 4.928571188288846e+01	 9.999042591578029e+00
0	 3.142864409547142e+01	 4.999999999999999e+01	 9.995032134862388e+00
0	 3.214294394869491e+01	 4.285699007784907e+01	 9.957197711197324e+00
0	 3.214294394869491e+01	 4.357129694500737e+01	 9.965863998110411e+00
0	 3.214294394869491e+01	 4.428560406221393e+01	 9.974201121787384e+00
0	 3.214294394869491e+01	 4.499991084612203e+01	 9.981903416828715e+00
0	 3.214294394869491e+01	 4.571421671338501e+01	 9.988665208353233e+00
0	 3.214294394869492e+01	 4.642852108065613e+01	 9.994180811998312e+00
0	 3.214294394869491e+01	 4.714282336458875e+01	 9.998144533919890e+00
0	 3.214294394869491e+01	 4.785712298183613e+01	 1.000025067079252e+01
0	 3.214294394869491e+01	 4.857141934905160e+01	 1.000019350980897e+01
0	 3.214294394869491e+01	 4.928571188288846e+01	 9.997667328680258e+00
0	 3.214294394869492e+01	 5.000000000000000e+01	 9.992366395635045e+00
0	 3.285724463525451e+01	 4.285699007784908e+01	 9.959398073480784e+00
0	 3.285724463525451e+01	 4.357129694500737e+01	 9.967763647944361e+00
0	 3.285724463525450e+01	 4.428560406221391e+01	 9.975829103424569e+00
0	 3.285724463525450e+01	 4.499991084612203e+01	 9.983267024242604e+00
0	 3.285724463525451e+01	 4.571421671338500e+01	 9.989749985229061e+00
0	 3.285724463525451e+01	 4.642852108065614e+01	 9.994950551724120e+00
0	 3.285724463525451e+01	 4.714282336458874e+01	 9.998541279577534e+00
0	 3.285724463525450e+01	 4.785712298183613e+01	 1.000019471514857e+01
0	 3.285724463525450e+01	 4.857141934905159e+01	 9.999583395306001e+00
0	 3.285724463525451e+01	 4.928571188288845e+01	 9.996379847427324e+00
0	 3.285724463525451e+01	 4.999999999999999e+01	 9.990256589398935e+00
0	 3.357154598848280e+01	 4.285699007784907e+01	 9.962189701774157e+00
0	 3.357154598848280e+01	 4.357129694500738e+01	 9.970143550945732e+00
0	 3.357154598848280e+01	 4.428560406221391e+01	 9.977771598525271e+00
0	 3.357154598848280e+01	 4.499991084612202e+01	 9.984754850650008e+00
0	 3.357154598848280e+01	 4.571421671338501e+01	 9.990774304117078e+00
0	 3.357154598848279e+01	 4.642852108065612e+01	 9.995510946383748e+00
0	 3.357154598848280e+01	 4.714282336458875e+01	 9.998645755567365e+00
0	 3.357154598848278e+01	 4.785712298183611e+01	 9.999859700445306e+00
0	 3.357154598848280e+01	 4.857141934905160e+01	 9.998833740454714e+00
0	 3.357154598848280e+01	 4.928571188288846e+01	 9.995248825692283e+00
0	 3.357154598848280e+01	 5.000000000000000e+01	 9.988785896913756e+00
0	 3.428584784171236e+01	 4.285699007784908e+01	 9.965498588290409e+00
0	 3.428584784171235e+01	 4.357129694500737e+01	 9.972946633309054e+00
0	 3.428584784171234e+01	 4.428560406221391e+01	 9.979988197308089e+00
0	 3.428584784171235e+01	 4.499991084612203e+01	 9.986342880308838e+00
0	 3.428584784171235e+01	 4.571421671338499e+01	 9.991730273301240e+00
0	 3.428584784171235e+01	 4.642852108065614e+01	 9.995869958244052e+00
0	 3.428584784171235e+01	 4.714282336458875e+01	 9.998481508064721e+00
0	 3.428584784171235e+01	 4.785712298183614e+01	 9.999284486659406e+00
0	 3.428584784171235e+01	 4.857141934905160e+01	 9.997998448892718e+00
0	 3.428584784171235e+01	 4.928571188288846e+01	 9.994342940597388e+00
0	 3.428584784171235e+01	 4.999999999999999e+01	 9.988037498573977e+00
0	 3.500015002827575e+01	 4.285699007784908e+01	 9.969250725659151e+00
0	 3.500015002827575e+01	 4.357129694500737e+01	 9.976115821610275e+00
0	 3.500015002827575e+01	 4.428560406221392e+01	 9.982438490215616e+00
0	 3.500015002827575e+01	 4.499991084612203e+01	 9.988007097463704e+00
0	 3.500015002827575e+01	 4.571421671338499e+01	 9.992610000777178e+00
0	 3.500015002827575e+01	 4.642852108065614e+01	 9.996035549012950e+00
0	 3.500015002827575e+01	 4.714282336458875e+01	 9.998072082462203e+00
0	 3.500015002827575e+01	 4.785712298183614e+01	 9.998507932850270e+00
0	 3.500015002827574e+01	 4.857141934905159e+01	 9.997131423336524e+00
0	 3.500015002827575e+01	 4.928571188288846e+01	 9.993730868513987e+00
0	 3.500015002827575e+01	 5.000000000000001e+01	 9.988094574408931e+00
0	 3.571445238150556e+01	 4.285699007784908e+01	 9.973372106926695e+00
0	 3.571445238150555e+01	 4.357129694500737e+01	 9.979594042806740e+00
0	 3.571445238150556e+01	 4.428560406221391e+01	 9.985082067914488e+00
0	 3.571445238150556e+01	 4.499991084612203e+01	 9.989723486345866e+00
0	 3.571445238150556e+01	 4.571421671338500e+01	 9.993405594252028e+00
0	 3.571445238150556e+01	 4.642852108065614e+01	 9.996015679839394e+00
0	 3.571445238150556e+01	 4.714282336458874e+01	 9.997441023369692e+00
0	 3.571445238150555e+01	 4.785712298183612e+01	 9.997568897159930e+00
0	 3.571445238150555e+01	 4.857141934905161e+01	 9.996286565581986e+00
0	 3.571445238150555e+01	 4.928571188288847e+01	 9.993481285062579e+00
0	 3.571445238150555e+01	 5.000000000000000e+01	 9.989040304082859e+00
0	 3.571445238150555e+01	 0.000000000000000e+00	 9.090882880461759e+00
0	 3.571445238150555e+01	 7.142881171115513e-01	 9.604728773354811e+00
0	 3.571445238150556e+01	 1.428580650948409e+00	 9.986681046054446e+00
0	 3.571445238150555e+01	 2.142877018163878e+00	 1.025360556559940e+01
0	 3.571445238150556e+01	 2.857176635411264e+00	 1.042236823266098e+01
0	 3.571445238150555e+01	 3.571478919343873e+00	 1.050983498153979e+01
0	 3.571445238150556e+01	 4.285783286615009e+00	 1.053287178016297e+01
0	 3.571445238150555e+01	 5.000089153877976e+00	 1.050834463008167e+01
0	 3.571445238150555e+01	 5.714395937786081e+00	 1.045311956646909e+01
0	 3.571445238150555e+01	 6.428703054992629e+00	 1.038406265811888e+01
0	 3.571445238150555e+01	 7.143009922150927e+00	 1.031804000744390e+01
0	 3.642870477623359e+01	 0.000000000000000e+00	 9.660393247880064e+00
0	 3.642870477623360e+01	 7.142881171115514e-01	 9.903844771558319e+00
0	 3.642870477623360e+01	 1.428580650948409e+00	 1.010011441247529e+01
0	 3.642870477623360e+01	 2.142877018163879e+00	 1.025278704136597e+01
0	 3.642870477623360e+01	 2.857176635411264e+00	 1.036544744744991e+01
0	 3.642870477623360e+01	 3.571478919343873e+00	 1.044168033843613e+01
0	 3.642870477623360e+01	 4.285783286615009e+00	 1.048507034052732e+01
0	 3.642870477623359e+01	 5.000089153877975e+00	 1.049920199842283e+01
0	 3.642870477623360e+01	 5.714395937786082e+00	 1.048765977532070e+01
0	 3.642870477623360e+01	 6.428703054992630e+00	 1.045402805291882e+01
0	 3.642870477623362e+01	 7.143009922150928e+00	 1.040189113141488e+01
0	 3.714295725428858e+01	 0.000000000000000e+00	 1.016304844898960e+01
0	 3.714295725428858e+01	 7.142881171115513e-01	 1.017836192017632e+01
0	 3.714295725428857e+01	 1.428580650948410e+00	 1.021625556758874e+01
0	 3.714295725428856e+01	 2.142877018163878e+00	 1.026953007482424e+01
0	 3.714295725428856e+01	 2.857176635411264e+00	 1.033098595479768e+01
0	 3.714295725428858e+01	 3.571478919343872e+00	 1.039342354975294e+01
0	 3.714295725428859e+01	 4.285783286615009e+00	 1.044964303127225e+01
0	 3.714295725428856e+01	 5.000089153877974e+00	 1.049244440028352e+01
0	 3.714295725428858e+01	 5.714395937786080e+00	 1.051462748706553e+01
0	 3.714295725428857e+01	 6.428703054992629e+00	 1.050899195125108e+01
0	 3.714295725428855e+01	 7.143009922150926e+00	 1.046833728182799e+01
0	 3.785720989899839e+01	 0.000000000000000e+00	 1.058957516019856e+01
0	 3.785720989899838e+01	 7.142881171115513e-01	 1.042158283412936e+01
0	 3.785720989899839e+01	 1.428580650948409e+00	 1.033067938737586e+01
0	 3.785720989899841e+01	 2.142877018163878e+00	 1.030137813885530e+01
0	 3.785720989899840e+01	 2.857176635411264e+00	 1.031819217212846e+01
0	 3.785720989899839e+01	 3.571478919343872e+00	 1.036563433541573e+01
0	 3.785720989899840e+01	 4.285783286615009e+00	 1.042821724161046e+01
0	 3.785720989899841e+01	 5.000089153877976e+00	 1.049045326828916e+01
0	 3.785720989899841e+01	 5.714395937786081e+00	 1.053685455771913e+01
0	 3.785720989899841e+01	 6.428703054992631e+00	 1.055193301686298e+01
0	 3.785720989899840e+01	 7.143009922150927e+00	 1.052020031738034e+01
0	 3.857146279369101e+01	 0.000000000000000e+00	 1.093070019847448e+01
0	 3.857146279369100e+01	 7.142881171115515e-01	 1.062681021091118e+01
0	 3.857146279369100e+01	 1.428580650948409e+00	 1.043896078658037e+01
0	 3.857146279369101e+01	 2.142877018163878e+00	 1.034587471372032e+01
0	 3.857146279369100e+01	 2.857176635411265e+00	 1.032627450354373e+01
0	 3.857146279369100e+01	 3.571478919343873e+00	 1.035888239025683e+01
0	 3.857146279369101e+01	 4.285783286615009e+00	 1.042242033107514e+01
0	 3.857146279369100e+01	 5.000089153877975e+00	 1.049561000623573e+01
0	 3.857146279369100e+01	 5.714395937786080e+00	 1.055717281900618e+01
0	 3.857146279369101e+01	 6.428703054992628e+00	 1.058582989569016e+01
0	 3.857146279369101e+01	 7.143009922150927e+00	 1.056030208562952e+01
0	 3.928571602169433e+01	 0.000000000000000e+00	 1.117715052134412e+01
0	 3.928571602169432e+01	 7.142881171115514e-01	 1.078734683058861e+01
0	 3.928571602169433e+01	 1.428580650948409e+00	 1.053667471870866e+01
0	 3.928571602169432e+01	 2.142877018163878e+00	 1.040056328706049e+01
0	 3.928571602169433e+01	 2.857176635411265e+00	 1.035444133982239e+01
0	 3.928571602169433e+01	 3.571478919343872e+00	 1.037373738401537e+01
0	 3.928571602169433e+01	 4.285783286615009e+00	 1.043387962952002e+01
0	 3.928571602169433e+01	 5.000089153877975e+00	 1.051029598908977e+01
0	 3.928571602169433e+01	 5.714395937786081e+00	 1.057841407836053e+01
0	 3.928571602169432e+01	 6.428703054992627e+00	 1.061366121585672e+01
0	 3.928571602169433e+01	 7.143009922150926e+00	 1.059146442299353e+01
0	 3.999996966633629e+01	 0.000000000000000e+00	 1.131965322689311e+01
0	 3.999996966633629e+01	 7.142881171115515e-01	 1.089649555580138e+01
0	 3.999996966633628e+01	 1.428580650948410e+00	 1.061939617602972e+01
0	 3.999996966633628e+01	 2.142877018163878e+00	 1.046298735389703e+01
0	 3.999996966633628e+01	 2.857176635411265e+00	 1.040190105842076e+01
0	 3.999996966633629e+01	 3.571478919343873e+00	 1.041076896133739e+01
0	 3.999996966633629e+01	 4.285783286615008e+00	 1.046422243711939e+01
0	 3.999996966633629e+01	 5.000089153877975e+00	 1.053689256298849e+01
0	 3.999996966633628e+01	 5.714395937786079e+00	 1.060341011892527e+01
0	 3.999996966633628e+01	 6.428703054992628e+00	 1.063840558767519e+01
0	 3.999996966633630e+01	 7.143009922150927e+00	 1.061650915475091e+01
0	 4.071422381094481e+01	 0.000000000000000e+00	 1.134893555376530e+01
0	 4.071422381094481e+01	 7.142881171115513e-01	 1.094755933176176e+01
0	 4.071422381094482e+01	 1.428580650948409e+00	 1.068270018957491e+01
0	 4.071422381094482e+01	 2.142877018163878e+00	 1.053069041663121e+01
0	 4.071422381094481e+01	 2.857176635411264e+00	 1.046786202347267e+01
0	 4.071422381094479e+01	 3.571478919343872e+00	 1.047054674177595e+01
0	 4.071422381094481e+01	 4.285783286615009e+00	 1.051507602436830e+01
0	 4.071422381094481e+01	 5.000089153877975e+00	 1.057778104523989e+01
0	 4.071422381094481e+01	 5.714395937786081e+00	 1.063499269955281e+01
0	 4.071422381094481e+01	 6.428703054992629e+00	 1.066304160364667e+01
0	 4.071422381094480e+01	 7.143009922150926e+00	 1.063825809504071e+01
0	 4.142847853884783e+01	 0.000000000000000e+00	 1.125572488116196e+01
0	 4.142847853884783e+01	 7.142881171115512e-01	 1.093384118625405e+01
0	 4.142847853884783e+01	 1.428580650948409e+00	 1.072216182913777e+01
0	 4.142847853884784e+01	 2.142877018163879e+00	 1.060121598504424e+01
0	 4.142847853884783e+01	 2.857176635411265e+00	 1.055153258578952e+01
0	 4.142847853884784e+01	 3.571478919343873e+00	 1.055364031979131e+01
0	 4.142847853884783e+01	 4.285783286615008e+00	 1.058806763208271e+01
0	 4.142847853884784e+01	 5.000089153877975e+00	 1.063534272432293e+01
0	 4.142847853884783e+01	 5.714395937786081e+00	 1.067599355480507e+01
0	 4.142847853884783e+01	 6.428703054992631e+00	 1.069054783846088e+01
0	 4.142847853884784e+01	 7.143009922150928e+00	 1.065953304686259e+01
0	 4.214273393337328e+01	 0.000000000000000e+00	 1.103074872884064e+01
0	 4.214273393337328e+01	 7.142881171115515e-01	 1.084864422963394e+01
0	 4.214273393337328e+01	 1.428580650948410e+00	 1.073335620327376e+01
0	 4.214273393337327e+01	 2.142877018163878e+00	 1.067210757629726e+01
0	 4.214273393337327e+01	 2.857176635411264e+00	 1.065212108286042e+01
0	 4.214273393337327e+01	 3.571478919343873e+00	 1.066061926475110e+01
0	 4.214273393337329e+01	 4.285783286615009e+00	 1.068482447139975e+01
0	 4.214273393337327e+01	 5.000089153877975e+00	 1.071195885988780e+01
0	 4.214273393337329e+01	 5.714395937786081e+00	 1.072924439495364e+01
0	 4.214273393337328e+01	 6.428703054992631e+00	 1.072390284899634e+01
0	 4.214273393337328e+01	 7.143009922150927e+00	 1.068315580207686e+01
0	 4.285699007784908e+01	 0.000000000000000e+00	 1.066473475711379e+01
0	 4.285699007784909e+01	 7.142881171115515e-01	 1.068527165482775e+01
0	 4.285699007784908e+01	 1.428580650948409e+00	 1.071185845929982e+01
0	 4.285699007784908e+01	 2.142877018163878e+00	 1.074090871493127e+01
0	 4.285699007784908e+01	 2.857176635411264e+00	 1.076883583885234e+01
0	 4.285699007784908e+01	 3.571478919343873e+00	 1.079205312093061e+01
0	 4.285699007784908e+01	 4.285783286615009e+00	 1.080697372377801e+01
0	 4.285699007784908e+01	 5.000089153877975e+00	 1.081001068275615e+01
0	 4.285699007784908e+01	 5.714395937786081e+00	 1.079757690598007e+01
0	 4.285699007784907e+01	 6.428703054992629e+00	 1.076608517432053e+01
0	 4.285699007784908e+01	 7.143009922150927e+00	 1.071194814140470e+01
0	 3.571445238150555e+01	 7.143009922150927e+00	 1.031804000744390e+01
0	 3.571445238150555e+01	 7.857266066626719e+00	 1.026382306035873e+01
0	 3.571445238150555e+01	 8.571521461152161e+00	 1.021796875220550e+01
0	 3.571445238150557e+01	 9.285776189055184e+00	 1.017903381173229e+01
0	 3.571445238150557e+01	 1.000003033366371e+01	 1.014557496994934e+01
0	 3.571445238150555e+01	 1.071428397830567e+01	 1.011614896012907e+01
0	 3.571445238150555e+01	 1.142853720630899e+01	 1.008931251780612e+01
0	 3.571445238150555e+01	 1.214279010100160e+01	 1.006362238077732e+01
0	 3.571445238150557e+01	 1.285704274571143e+01	 1.003763528910163e+01
0	 3.571445238150556e+01	 1.357129522376639e+01	 1.000990798510025e+01
0	 3.571445238150556e+01	 1.428554761849444e+01	 9.978997213356479e+00
0	 3.642870477623362e+01	 7.143009922150928e+00	 1.040189113141488e+01
0	 3.642870477623359e+01	 7.857266066626718e+00	 1.034403149408657e+01
0	 3.642870477623359e+01	 8.571521461152159e+00	 1.029068601180269e+01
0	 3.642870477623360e+01	 9.285776189055186e+00	 1.024163314408462e+01
0	 3.642870477623359e+01	 1.000003033366371e+01	 1.019665134833723e+01
0	 3.642870477623360e+01	 1.071428397830567e+01	 1.015551907984877e+01
0	 3.642870477623360e+01	 1.142853720630899e+01	 1.011801479179087e+01
0	 3.642870477623360e+01	 1.214279010100160e+01	 1.008391693521850e+01
0	 3.642870477623361e+01	 1.285704274571143e+01	 1.005300395906995e+01
0	 3.642870477623361e+01	 1.357129522376640e+01	 1.002505431016674e+01
0	 3.642870477623360e+01	 1.428554761849444e+01	 9.999846433213651e+00
0	 3.714295725428855e+01	 7.143009922150926e+00	 1.046833728182799e+01
0	 3.714295725428858e+01	 7.857266066626718e+00	 1.040826095053930e+01
0	 3.714295725428856e+01	 8.571521461152166e+00	 1.034965785784484e+01
0	 3.714295725428858e+01	 9.285776189055184e+00	 1.029328622184709e+01
0	 3.714295725428858e+01	 1.000003033366371e+01	 1.023990425497346e+01
0	 3.714295725428858e+01	 1.071428397830567e+01	 1.019027016397612e+01
0	 3.714295725428857e+01	 1.142853720630899e+01	 1.014514214993203e+01
0	 3.714295725428856e+01	 1.214279010100160e+01	 1.010527840824278e+01
0	 3.714295725428857e+01	 1.285704274571142e+01	 1.007143712863461e+01
0	 3.714295725428858e+01	 1.357129522376639e+01	 1.004437649515829e+01
0	 3.714295725428857e+01	 1.428554761849445e+01	 1.002485468618913e+01
0	 3.785720989899840e+01	 7.143009922150927e+00	 1.052020031738034e+01
0	 3.785720989899840e+01	 7.857266066626719e+00	 1.045902718546261e+01
0	 3.785720989899839e+01	 8.571521461152159e+00	 1.039709891566497e+01
0	 3.785720989899839e+01	 9.285776189055184e+00	 1.033591151238310e+01
0	 3.785720989899840e+01	 1.000003033366371e+01	 1.027696097159570e+01
0	 3.785720989899840e+01	 1.071428397830567e+01	 1.022174328086438e+01
0	 3.785720989899840e+01	 1.142853720630899e+01	 1.017175441933354e+01
0	 3.785720989899840e+01	 1.214279010100160e+01	 1.012849035773029e+01
0	 3.785720989899839e+01	 1.285704274571142e+01	 1.009344705836438e+01
0	 3.785720989899841e+01	 1.357129522376639e+01	 1.006812047512814e+01
0	 3.785720989899840e+01	 1.428554761849444e+01	 1.005400655349643e+01
0	 3.857146279369101e+01	 7.143009922150927e+00	 1.056030208562952e+01
0	 3.857146279369099e+01	 7.857266066626718e+00	 1.049884594889883e+01
0	 3.857146279369100e+01	 8.571521461152164e+00	 1.043522380894346e+01
0	 3.857146279369099e+01	 9.285776189055182e+00	 1.037142748423805e+01
0	 3.857146279369098e+01	 1.000003033366371e+01	 1.030944878291162e+01
0	 3.857146279369100e+01	 1.071428397830567e+01	 1.025127950274733e+01
0	 3.857146279369100e+01	 1.142853720630899e+01	 1.019891143118245e+01
0	 3.857146279369101e+01	 1.214279010100160e+01	 1.015433634530825e+01
0	 3.857146279369100e+01	 1.285704274571142e+01	 1.011954601186986e+01
0	 3.857146279369102e+01	 1.357129522376639e+01	 1.009653218726627e+01
0	 3.857146279369101e+01	 1.428554761849444e+01	 1.008728661755022e+01
0	 3.928571602169433e+01	 7.143009922150926e+00	 1.059146442299353e+01
0	 3.928571602169433e+01	 7.857266066626721e+00	 1.053023298518694e+01
0	 3.928571602169433e+01	 8.571521461152164e+00	 1.046624715970809e+01
0	 3.928571602169433e+01	 9.285776189055184e+00	 1.040175260713943e+01
0	 3.928571602169432e+01	 1.000003033366371e+01	 1.033899497659878e+01
0	 3.928571602169433e+01	 1.071428397830567e+01	 1.028021990573922e+01
0	 3.928571602169433e+01	 1.142853720630899e+01	 1.022767302074888e+01
0	 3.928571602169432e+01	 1.214279010100160e+01	 1.018359993635094e+01
0	 3.928571602169432e+01	 1.285704274571142e+01	 1.015024625580347e+01
0	 3.928571602169432e+01	 1.357129522376640e+01	 1.012985757089938e+01
0	 3.928571602169433e+01	 1.428554761849444e+01	 1.012467946196636e+01
0	 3.999996966633630e+01	 7.143009922150927e+00	 1.061650915475091e+01
0	 3.999996966633629e+01	 7.857266066626719e+00	 1.055570403296260e+01
0	 3.999996966633629e+01	 8.571521461152164e+00	 1.049238358833404e+01
0	 3.999996966633628e+01	 9.285776189055181e+00	 1.042880535199669e+01
0	 3.999996966633628e+01	 1.000003033366371e+01	 1.036722684330473e+01
0	 3.999996966633630e+01	 1.071428397830567e+01	 1.030990556983483e+01
0	 3.999996966633628e+01	 1.142853720630899e+01	 1.025909902738606e+01
0	 3.999996966633628e+01	 1.214279010100160e+01	 1.021706469997976e+01
0	 3.999996966633629e+01	 1.285704274571143e+01	 1.018606005985950e+01
0	 3.999996966633629e+01	 1.357129522376639e+01	 1.016834256749093e+01
0	 3.999996966633630e+01	 1.428554761849444e+01	 1.016616967156177e+01
0	 4.071422381094480e+01	 7.143009922150926e+00	 1.063825809504072e+01
0	 4.071422381094481e+01	 7.857266066626719e+00	 1.057777482515818e+01
0	 4.071422381094482e+01	 8.571521461152162e+00	 1.051584771354386e+01
0	 4.071422381094481e+01	 9.285776189055181e+00	 1.045450419090132e+01
0	 4.071422381094481e+01	 1.000003033366371e+01	 1.039577167664688e+01
0	 4.071422381094482e+01	 1.071428397830567e+01	 1.034167757890940e+01
0	 4.071422381094480e+01	 1.142853720630899e+01	 1.029424929453025e+01
0	 4.071422381094482e+01	 1.214279010100160e+01	 1.025551420906313e+01
0	 4.071422381094482e+01	 1.285704274571142e+01	 1.022749969677399e+01
0	 4.071422381094481e+01	 1.357129522376640e+01	 1.021223312064103e+01
0	 4.071422381094482e+01	 1.428554761849444e+01	 1.021174183235459e+01
0	 4.142847853884784e+01	 7.143009922150928e+00	 1.065953304686259e+01
0	 4.142847853884783e+01	 7.857266066626719e+00	 1.059896108900275e+01
0	 4.142847853884783e+01	 8.571521461152161e+00	 1.053885415240755e+01
0	 4.142847853884783e+01	 9.285776189055182e+00	 1.048076759712683e+01
0	 4.142847853884783e+01	 1.000003033366371e+01	 1.042625677321257e+01
0	 4.142847853884783e+01	 1.071428397830567e+01	 1.037687702071864e+01
0	 4.142847853884782e+01	 1.142853720630899e+01	 1.033418366970078e+01
0	 4.142847853884783e+01	 1.214279010100160e+01	 1.029973204021645e+01
0	 4.142847853884783e+01	 1.285704274571143e+01	 1.027507744232480e+01
0	 4.142847853884784e+01	 1.357129522376640e+01	 1.026177517608655e+01
0	 4.142847853884783e+01	 1.428554761849444e+01	 1.026138053156400e+01
0	 4.214273393337328e+01	 7.143009922150927e+00	 1.068315580207687e+01
0	 4.214273393337326e+01	 7.857266066626718e+00	 1.062177854602219e+01
0	 4.214273393337329e+01	 8.571521461152162e+00	 1.056361752034248e+01
0	 4.214273393337328e+01	 9.285776189055184e+00	 1.050951404512869e+01
0	 4.214273393337328e+01	 1.000003033366371e+01	 1.046030943255898e+01
0	 4.214273393337328e+01	 1.071428397830567e+01	 1.041684498689862e+01
0	 4.214273393337328e+01	 1.142853720630899e+01	 1.037996200449993e+01
0	 4.214273393337326e+01	 1.214279010100160e+01	 1.035050177380219e+01
0	 4.214273393337328e+01	 1.285704274571142e+01	 1.032930557533154e+01
0	 4.214273393337327e+01	 1.357129522376640e+01	 1.031721468170099e+01
0	 4.214273393337328e+01	 1.428554761849444e+01	 1.031507035761033e+01
0	 4.285699007784908e+01	 7.143009922150927e+00	 1.071194814140470e+01
0	 4.285699007784908e+01	 7.857266066626719e+00	 1.064874291203916e+01
0	 4.285699007784907e+01	 8.571521461152162e+00	 1.059235243111351e+01
0	 4.285699007784908e+01	 9.285776189055184e+00	 1.054266201054438e+01
0	 4.285699007784908e+01	 1.000003033366371e+01	 1.049955695721316e+01
0	 4.285699007784908e+01	 1.071428397830567e+01	 1.046292257296584e+01
0	 4.285699007784908e+01	 1.142853720630899e+01	 1.043264415461299e+01
0	 4.285699007784908e+01	 1.214279010100160e+01	 1.040860699392970e+01
0	 4.285699007784907e+01	 1.285704274571142e+01	 1.039069637765554e+01
0	 4.285699007784908e+01	 1.357129522376640e+01	 1.037879758749450e+01
0	 4.285699007784908e+01	 1.428554761849444e+01	 1.037279590011498e+01
0	 3.571445238150556e+01	 1.428554761849444e+01	 9.978997213356479e+00
0	 3.571445238150555e+01	 1.499984997172426e+01	 9.948367661068419e+00
0	 3.571445238150556e+01	 1.571415215828766e+01	 9.922337204640012e+00
0	 3.571445238150557e+01	 1.642845401151722e+01	 9.900735453732455e+00
0	 3.571445238150556e+01	 1.714275536474550e+01	 9.883392026637344e+00
0	 3.571445238150555e+01	 1.785705605130510e+01	 9.870136550276587e+00
0	 3.571445238150555e+01	 1.857135590452859e+01	 9.860798660202464e+00
0	 3.571445238150556e+01	 1.928565475774854e+01	 9.855208000597642e+00
0	 3.571445238150557e+01	 1.999995244429754e+01	 9.853194224275267e+00
0	 3.571445238150557e+01	 2.071424879750816e+01	 9.854586992679012e+00
0	 3.571445238150556e+01	 2.142854365071296e+01	 9.859215975883261e+00
0	 3.642870477623360e+01	 1.428554761849444e+01	 9.999846433213655e+00
0	 3.642870477623359e+01	 1.499984997172426e+01	 9.977567595596366e+00
0	 3.642870477623359e+01	 1.571415215828766e+01	 9.958434637934783e+00
0	 3.642870477623360e+01	 1.642845401151722e+01	 9.942265345692803e+00
0	 3.642870477623359e+01	 1.714275536474550e+01	 9.928877509698962e+00
0	 3.642870477623360e+01	 1.785705605130510e+01	 9.918088926146364e+00
0	 3.642870477623359e+01	 1.857135590452859e+01	 9.909717396592708e+00
0	 3.642870477623360e+01	 1.928565475774854e+01	 9.903580727960275e+00
0	 3.642870477623360e+01	 1.999995244429754e+01	 9.899496732535997e+00
0	 3.642870477623359e+01	 2.071424879750814e+01	 9.897283227971467e+00
0	 3.642870477623360e+01	 2.142854365071297e+01	 9.896758037283021e+00
0	 3.714295725428857e+01	 1.428554761849445e+01	 1.002485468618913e+01
0	 3.714295725428856e+01	 1.499984997172426e+01	 1.001027295041937e+01
0	 3.714295725428857e+01	 1.571415215828766e+01	 9.997406456571133e+00
0	 3.714295725428857e+01	 1.642845401151722e+01	 9.986071005510048e+00
0	 3.714295725428858e+01	 1.714275536474550e+01	 9.976082400496217e+00
0	 3.714295725428858e+01	 1.785705605130510e+01	 9.967256447184239e+00
0	 3.714295725428858e+01	 1.857135590452858e+01	 9.959408953623139e+00
0	 3.714295725428857e+01	 1.928565475774854e+01	 9.952355730256443e+00
0	 3.714295725428858e+01	 1.999995244429754e+01	 9.945912589922067e+00
0	 3.714295725428858e+01	 2.071424879750816e+01	 9.939895347852403e+00
0	 3.714295725428858e+01	 2.142854365071296e+01	 9.934119821674322e+00
0	 3.785720989899840e+01	 1.428554761849444e+01	 1.005400655349643e+01
0	 3.785720989899840e+01	 1.499984997172426e+01	 1.004623275799031e+01
0	 3.785720989899840e+01	 1.571415215828766e+01	 1.003881281895773e+01
0	 3.785720989899839e+01	 1.642845401151722e+01	 1.003157039217728e+01
0	 3.785720989899841e+01	 1.714275536474550e+01	 1.002432913321301e+01
0	 3.785720989899840e+01	 1.785705605130510e+01	 1.001691269741428e+01
0	 3.785720989899840e+01	 1.857135590452858e+01	 1.000914473991578e+01
0	 3.785720989899840e+01	 1.928565475774854e+01	 1.000084891563749e+01
0	 3.785720989899840e+01	 1.999995244429753e+01	 9.991848879284673e+00
0	 3.785720989899840e+01	 2.071424879750816e+01	 9.981968285347779e+00
0	 3.785720989899839e+01	 2.142854365071296e+01	 9.971030788102462e+00
0	 3.857146279369101e+01	 1.428554761849444e+01	 1.008728661755022e+01
0	 3.857146279369100e+01	 1.499984997172426e+01	 1.008519605113716e+01
0	 3.857146279369101e+01	 1.571415215828766e+01	 1.008221388318413e+01
0	 3.857146279369101e+01	 1.642845401151721e+01	 1.007818146379955e+01
0	 3.857146279369100e+01	 1.714275536474550e+01	 1.007294014069444e+01
0	 3.857146279369100e+01	 1.785705605130510e+01	 1.006633125918240e+01
0	 3.857146279369101e+01	 1.857135590452858e+01	 1.005819616217952e+01
0	 3.857146279369099e+01	 1.928565475774854e+01	 1.004837619020439e+01
0	 3.857146279369100e+01	 1.999995244429754e+01	 1.003671268137798e+01
0	 3.857146279369100e+01	 2.071424879750815e+01	 1.002304697142362e+01
0	 3.857146279369100e+01	 2.142854365071296e+01	 1.000722039366693e+01
0	 3.928571602169433e+01	 1.428554761849444e+01	 1.012467946196636e+01
0	 3.928571602169431e+01	 1.499984997172426e+01	 1.012691186306286e+01
0	 3.928571602169433e+01	 1.571415215828766e+01	 1.012716980702084e+01
0	 3.928571602169433e+01	 1.642845401151722e+01	 1.012532217759382e+01
0	 3.928571602169431e+01	 1.714275536474550e+01	 1.012123785444683e+01
0	 3.928571602169432e+01	 1.785705605130509e+01	 1.011478571315634e+01
0	 3.928571602169432e+01	 1.857135590452858e+01	 1.010583462521021e+01
0	 3.928571602169433e+01	 1.928565475774854e+01	 1.009425345800764e+01
0	 3.928571602169433e+01	 1.999995244429753e+01	 1.007991107485906e+01
0	 3.928571602169433e+01	 2.071424879750816e+01	 1.006267633498609e+01
0	 3.928571602169432e+01	 2.142854365071296e+01	 1.004241809352137e+01
0	 3.999996966633630e+01	 1.428554761849444e+01	 1.016616967156178e+01
0	 3.999996966633629e+01	 1.499984997172427e+01	 1.017112922734536e+01
0	 3.999996966633628e+01	 1.571415215828766e+01	 1.017324074791921e+01
0	 3.999996966633630e+01	 1.642845401151722e+01	 1.017241048988897e+01
0	 3.999996966633629e+01	 1.714275536474550e+01	 1.016854470463766e+01
0	 3.999996966633628e+01	 1.785705605130510e+01	 1.016154963832564e+01
0	 3.999996966633628e+01	 1.857135590452858e+01	 1.015133153189058e+01
0	 3.999996966633628e+01	 1.928565475774854e+01	 1.013779662104736e+01
0	 3.999996966633628e+01	 1.999995244429753e+01	 1.012085113628796e+01
0	 3.999996966633629e+01	 2.071424879750816e+01	 1.010040130288143e+01
0	 3.999996966633628e+01	 2.142854365071296e+01	 1.007635334087362e+01
0	 4.071422381094482e+01	 1.428554761849444e+01	 1.021174183235459e+01
0	 4.071422381094480e+01	 1.499984997172426e+01	 1.021759717793764e+01
0	 4.071422381094482e+01	 1.571415215828767e+01	 1.021998686301157e+01
0	 4.071422381094481e+01	 1.642845401151721e+01	 1.021886435612586e+01
0	 4.071422381094481e+01	 1.714275536474550e+01	 1.021418312009564e+01
0	 4.071422381094482e+01	 1.785705605130510e+01	 1.020589661200168e+01
0	 4.071422381094482e+01	 1.857135590452859e+01	 1.019395828319028e+01
0	 4.071422381094481e+01	 1.928565475774854e+01	 1.017832157927322e+01
0	 4.071422381094482e+01	 1.999995244429754e+01	 1.015893994012766e+01
0	 4.071422381094482e+01	 2.071424879750816e+01	 1.013576679989598e+01
0	 4.071422381094481e+01	 2.142854365071296e+01	 1.010875558698568e+01
0	 4.142847853884783e+01	 1.428554761849444e+01	 1.026138053156400e+01
0	 4.142847853884783e+01	 1.499984997172426e+01	 1.026606474916766e+01
0	 4.142847853884783e+01	 1.571415215828766e+01	 1.026696830911108e+01
0	 4.142847853884783e+01	 1.642845401151722e+01	 1.026410173085722e+01
0	 4.142847853884783e+01	 1.714275536474550e+01	 1.025747552831067e+01
0	 4.142847853884784e+01	 1.785705605130509e+01	 1.024710020981766e+01
0	 4.142847853884784e+01	 1.857135590452858e+01	 1.023298627816589e+01
0	 4.142847853884783e+01	 1.928565475774854e+01	 1.021514423058452e+01
0	 4.142847853884784e+01	 1.999995244429754e+01	 1.019358455874405e+01
0	 4.142847853884783e+01	 2.071424879750816e+01	 1.016831774875619e+01
0	 4.142847853884782e+01	 2.142854365071296e+01	 1.013935428117374e+01
0	 4.214273393337328e+01	 1.428554761849444e+01	 1.031507035761033e+01
0	 4.214273393337327e+01	 1.499984997172426e+01	 1.031628097573840e+01
0	 4.214273393337328e+01	 1.571415215828766e+01	 1.031374524271184e+01
0	 4.214273393337328e+01	 1.642845401151721e+01	 1.030754056774775e+01
0	 4.214273393337329e+01	 1.714275536474550e+01	 1.029774435543388e+01
0	 4.214273393337327e+01	 1.785705605130510e+01	 1.028443400572862e+01
0	 4.214273393337327e+01	 1.857135590452858e+01	 1.026768691396090e+01
0	 4.214273393337328e+01	 1.928565475774854e+01	 1.024758047083010e+01
0	 4.214273393337328e+01	 1.999995244429753e+01	 1.022419206240601e+01
0	 4.214273393337327e+01	 2.071424879750816e+01	 1.019759907012865e+01
0	 4.214273393337327e+01	 2.142854365071296e+01	 1.016787887080819e+01
0	 4.285699007784908e+01	 1.428554761849444e+01	 1.037279590011498e+01
0	 4.285699007784907e+01	 1.499984997172426e+01	 1.036799489272779e+01
0	 4.285699007784906e+01	 1.571415215828766e+01	 1.035987781998883e+01
0	 4.285699007784907e+01	 1.642845401151721e+01	 1.034859881957405e+01
0	 4.285699007784908e+01	 1.714275536474550e+01	 1.033431202627755e+01
0	 4.285699007784907e+01	 1.785705605130510e+01	 1.031717157201143e+01
0	 4.285699007784908e+01	 1.857135590452858e+01	 1.029733158580574e+01
0	 4.285699007784908e+01	 1.928565475774854e+01	 1.027494619380846e+01
0	 4.285699007784908e+01	 1.999995244429753e+01	 1.025016951928538e+01
0	 4.285699007784907e+01	 2.071424879750816e+01	 1.022315568262005e+01
0	 4.285699007784908e+01	 2.142854365071297e+01	 1.019405880131360e+01
0	 3.571445238150556e+01	 2.142854365071296e+01	 9.859215975883261e+00
0	 3.571445238150555e+01	 2.214283692057824e+01	 9.864242231419485e+00
0	 3.571445238150556e+01	 2.285712885710494e+01	 9.867205001140174e+00
0	 3.571445238150555e+01	 2.357141979362770e+01	 9.868501236733634e+00
0	 3.571445238150556e+01	 2.428571006348118e+01	 9.868527888100543e+00
0	 3.571445238150555e+01	 2.500000000000000e+01	 9.867681903353933e+00
0	 3.571445238150556e+01	 2.571428993651884e+01	 9.866360228819246e+00
0	 3.571445238150556e+01	 2.642858020637231e+01	 9.864959809034321e+00
0	 3.571445238150555e+01	 2.714287114289507e+01	 9.863877586749444e+00
0	 3.571445238150556e+01	 2.785716307942177e+01	 9.863510502927406e+00
0	 3.571445238150555e+01	 2.857145634928703e+01	 9.864255496743514e+00
0	 3.642870477623360e+01	 2.142854365071297e+01	 9.896758037283021e+00
0	 3.642870477623360e+01	 2.214283692057824e+01	 9.896520615770470e+00
0	 3.642870477623360e+01	 2.285712885710494e+01	 9.895456804299211e+00
0	 3.642870477623361e+01	 2.357141979362770e+01	 9.893814005628316e+00
0	 3.642870477623360e+01	 2.428571006348118e+01	 9.891839619011186e+00
0	 3.642870477623360e+01	 2.500000000000000e+01	 9.889781040195444e+00
0	 3.642870477623359e+01	 2.571428993651883e+01	 9.887885661422953e+00
0	 3.642870477623360e+01	 2.642858020637231e+01	 9.886400871429709e+00
0	 3.642870477623360e+01	 2.714287114289507e+01	 9.885574055446032e+00
0	 3.642870477623360e+01	 2.785716307942177e+01	 9.885652595196396e+00
0	 3.642870477623360e+01	 2.857145634928704e+01	 9.886883868899698e+00
0	 3.714295725428858e+01	 2.142854365071296e+01	 9.934119821674322e+00
0	 3.714295725428858e+01	 2.214283692057824e+01	 9.928533559927427e+00
0	 3.714295725428857e+01	 2.285712885710494e+01	 9.923286958140151e+00
0	 3.714295725428858e+01	 2.357141979362769e+01	 9.918500102286554e+00
0	 3.714295725428857e+01	 2.428571006348118e+01	 9.914293073097955e+00
0	 3.714295725428857e+01	 2.500000000000001e+01	 9.910785946062880e+00
0	 3.714295725428857e+01	 2.571428993651883e+01	 9.908098791426941e+00
0	 3.714295725428858e+01	 2.642858020637231e+01	 9.906351674192846e+00
0	 3.714295725428858e+01	 2.714287114289507e+01	 9.905664654120343e+00
0	 3.714295725428858e+01	 2.785716307942177e+01	 9.906157785726313e+00
0	 3.714295725428857e+01	 2.857145634928703e+01	 9.907951118284808e+00
0	 3.785720989899839e+01	 2.142854365071296e+01	 9.971030788102462e+00
0	 3.785720989899839e+01	 2.214283692057824e+01	 9.960201828542690e+00
0	 3.785720989899840e+01	 2.285712885710493e+01	 9.950774415693786e+00
0	 3.785720989899840e+01	 2.357141979362770e+01	 9.942763550538070e+00
0	 3.785720989899839e+01	 2.428571006348117e+01	 9.936184227151919e+00
0	 3.785720989899841e+01	 2.500000000000001e+01	 9.931051432705662e+00
0	 3.785720989899838e+01	 2.571428993651883e+01	 9.927380147463387e+00
0	 3.785720989899840e+01	 2.642858020637231e+01	 9.925185344782976e+00
0	 3.785720989899841e+01	 2.714287114289509e+01	 9.924481991116018e+00
0	 3.785720989899840e+01	 2.785716307942177e+01	 9.925285046007842e+00
0	 3.785720989899839e+01	 2.857145634928704e+01	 9.927609462097632e+00
0	 3.857146279369100e+01	 2.142854365071296e+01	 1.000722039366693e+01
0	 3.857146279369100e+01	 2.214283692057824e+01	 9.991446184505479e+00
0	 3.857146279369100e+01	 2.285712885710494e+01	 9.977998128464874e+00
0	 3.857146279369102e+01	 2.357141979362770e+01	 9.966808372962589e+00
0	 3.857146279369102e+01	 2.428571006348118e+01	 9.957809057013513e+00
0	 3.857146279369100e+01	 2.500000000000000e+01	 9.950932311229700e+00
0	 3.857146279369101e+01	 2.571428993651885e+01	 9.946110257820248e+00
0	 3.857146279369100e+01	 2.642858020637232e+01	 9.943275010591224e+00
0	 3.857146279369101e+01	 2.714287114289507e+01	 9.942358674945579e+00
0	 3.857146279369100e+01	 2.785716307942177e+01	 9.943293347883225e+00
0	 3.857146279369101e+01	 2.857145634928704e+01	 9.946011118001106e+00
0	 3.928571602169432e+01	 2.142854365071296e+01	 1.004241809352137e+01
0	 3.928571602169433e+01	 2.214283692057824e+01	 1.002218738894183e+01
0	 3.928571602169432e+01	 2.285712885710494e+01	 1.000503704643211e+01
0	 3.928571602169432e+01	 2.357141979362771e+01	 9.990838590889821e+00
0	 3.928571602169432e+01	 2.428571006348117e+01	 9.979463537572492e+00
0	 3.928571602169433e+01	 2.500000000000001e+01	 9.970783392097390e+00
0	 3.928571602169432e+01	 2.571428993651883e+01	 9.964669650441323e+00
0	 3.928571602169432e+01	 2.642858020637231e+01	 9.960993798940489e+00
0	 3.928571602169433e+01	 2.714287114289508e+01	 9.959627314290477e+00
0	 3.928571602169433e+01	 2.785716307942177e+01	 9.960441663546250e+00
0	 3.928571602169433e+01	 2.857145634928704e+01	 9.963308304122279e+00
0	 3.999996966633628e+01	 2.142854365071296e+01	 1.007635334087362e+01
0	 3.999996966633629e+01	 2.214283692057824e+01	 1.005234620121459e+01
0	 3.999996966633628e+01	 2.285712885710493e+01	 1.003197011804816e+01
0	 3.999996966633628e+01	 2.357141979362770e+01	 1.001505822439940e+01
0	 3.999996966633629e+01	 2.428571006348117e+01	 1.000144364276793e+01
0	 3.999996966633629e+01	 2.500000000000001e+01	 9.990959485127584e+00
0	 3.999996966633630e+01	 2.571428993651884e+01	 9.983438852926206e+00
0	 3.999996966633628e+01	 2.642858020637231e+01	 9.978714837085505e+00
0	 3.999996966633630e+01	 2.714287114289509e+01	 9.976620518001043e+00
0	 3.999996966633629e+01	 2.785716307942177e+01	 9.976988965542210e+00
0	 3.999996966633628e+01	 2.857145634928704e+01	 9.979653239052311e+00
0	 4.071422381094481e+01	 2.142854365071296e+01	 1.010875558698568e+01
0	 4.071422381094480e+01	 2.214283692057824e+01	 1.008184337892350e+01
0	 4.071422381094482e+01	 2.285712885710494e+01	 1.005887629023962e+01
0	 4.071422381094480e+01	 2.357141979362770e+01	 1.003967129232098e+01
0	 4.071422381094480e+01	 2.428571006348118e+01	 1.002404534558826e+01
0	 4.071422381094480e+01	 2.500000000000001e+01	 1.001181539949559e+01
0	 4.071422381094480e+01	 2.571428993651884e+01	 1.000279839253031e+01
0	 4.071422381094482e+01	 2.642858020637231e+01	 9.996811252212828e+00
0	 4.071422381094482e+01	 2.714287114289507e+01	 9.993670895096573e+00
0	 4.071422381094480e+01	 2.785716307942177e+01	 9.993194226767940e+00
0	 4.071422381094482e+01	 2.857145634928704e+01	 9.995198141846473e+00
0	 4.142847853884782e+01	 2.142854365071296e+01	 1.013935428117374e+01
0	 4.142847853884783e+01	 2.214283692057824e+01	 1.011059967790504e+01
0	 4.142847853884783e+01	 2.285712885710494e+01	 1.008583450840704e+01
0	 4.142847853884783e+01	 2.357141979362770e+01	 1.006488181223415e+01
0	 4.142847853884784e+01	 2.428571006348118e+01	 1.004756461807122e+01
0	 4.142847853884783e+01	 2.500000000000000e+01	 1.003370594373319e+01
0	 4.142847853884784e+01	 2.571428993651885e+01	 1.002312879616488e+01
0	 4.142847853884783e+01	 2.642858020637231e+01	 1.001565617144083e+01
0	 4.142847853884783e+01	 2.714287114289507e+01	 1.001111105476519e+01
0	 4.142847853884783e+01	 2.785716307942177e+01	 1.000931642047178e+01
0	 4.142847853884782e+01	 2.857145634928703e+01	 1.001009523202410e+01
0	 4.214273393337327e+01	 2.142854365071296e+01	 1.016787887080819e+01
0	 4.214273393337328e+01	 2.214283692057824e+01	 1.013853585223262e+01
0	 4.214273393337327e+01	 2.285712885710494e+01	 1.011292371642494e+01
0	 4.214273393337328e+01	 2.357141979362770e+01	 1.009089380046849e+01
0	 4.214273393337328e+01	 2.428571006348118e+01	 1.007229743130387e+01
0	 4.214273393337328e+01	 2.500000000000000e+01	 1.005698592572861e+01
0	 4.214273393337328e+01	 2.571428993651884e+01	 1.004481059039694e+01
0	 4.214273393337329e+01	 2.642858020637231e+01	 1.003562272181965e+01
0	 4.214273393337327e+01	 2.714287114289507e+01	 1.002927360636397e+01
0	 4.214273393337329e+01	 2.785716307942178e+01	 1.002561452025358e+01
0	 4.214273393337328e+01	 2.857145634928704e+01	 1.002449672956867e+01
0	 4.285699007784908e+01	 2.142854365071297e+01	 1.019405880131360e+01
0	 4.285699007784907e+01	 2.214283692057824e+01	 1.016557265421646e+01
0	 4.285699007784908e+01	 2.285712885710493e+01	 1.014022285664180e+01
0	 4.285699007784908e+01	 2.357141979362770e+01	 1.011791127210356e+01
0	 4.285699007784908e+01	 2.428571006348117e+01	 1.009853975542262e+01
0	 4.285699007784908e+01	 2.500000000000001e+01	 1.008201015272654e+01
0	 4.285699007784907e+01	 2.571428993651883e+01	 1.006822430144932e+01
0	 4.285699007784907e+01	 2.642858020637231e+01	 1.005708403033124e+01
0	 4.285699007784906e+01	 2.714287114289507e+01	 1.004849115941882e+01
0	 4.285699007784908e+01	 2.785716307942178e+01	 1.004234750006470e+01
0	 4.285699007784907e+01	 2.857145634928704e+01	 1.003855485492770e+01
0	 3.571445238150555e+01	 2.857145634928703e+01	 9.864255496743514e+00
0	 3.571445238150555e+01	 2.928575120249185e+01	 9.866381483246743e+00
0	 3.571445238150555e+01	 3.000004755570247e+01	 9.869774770967579e+00
0	 3.571445238150556e+01	 3.071434524225148e+01	 9.874258388565512e+00
0	 3.571445238150556e+01	 3.142864409547142e+01	 9.879655365503053e+00
0	 3.571445238150556e+01	 3.214294394869491e+01	 9.885788732045812e+00
0	 3.571445238150555e+01	 3.285724463525451e+01	 9.892481519262416e+00
0	 3.571445238150555e+01	 3.357154598848280e+01	 9.899556759024602e+00
0	 3.571445238150555e+01	 3.428584784171235e+01	 9.906837484007148e+00
0	 3.571445238150556e+01	 3.500015002827574e+01	 9.914146727687960e+00
0	 3.571445238150555e+01	 3.571445238150556e+01	 9.921307524348016e+00
0	 3.642870477623360e+01	 2.857145634928704e+01	 9.886883868899698e+00
0	 3.642870477623360e+01	 2.928575120249186e+01	 9.889076173189462e+00
0	 3.642870477623359e+01	 3.000004755570247e+01	 9.891837480183213e+00
0	 3.642870477623360e+01	 3.071434524225148e+01	 9.895114679194286e+00
0	 3.642870477623361e+01	 3.142864409547143e+01	 9.898854660199667e+00
0	 3.642870477623359e+01	 3.214294394869492e+01	 9.903004313839931e+00
0	 3.642870477623359e+01	 3.285724463525450e+01	 9.907510531419302e+00
0	 3.642870477623359e+01	 3.357154598848280e+01	 9.912320204905612e+00
0	 3.642870477623359e+01	 3.428584784171234e+01	 9.917380226930357e+00
0	 3.642870477623359e+01	 3.500015002827574e+01	 9.922637490788665e+00
0	 3.642870477623360e+01	 3.571445238150555e+01	 9.928038890439343e+00
0	 3.714295725428857e+01	 2.857145634928703e+01	 9.907951118284808e+00
0	 3.714295725428858e+01	 2.928575120249186e+01	 9.910390814446730e+00
0	 3.714295725428857e+01	 3.000004755570248e+01	 9.912775963867425e+00
0	 3.714295725428858e+01	 3.071434524225148e+01	 9.915156002761044e+00
0	 3.714295725428857e+01	 3.142864409547142e+01	 9.917580367829235e+00
0	 3.714295725428857e+01	 3.214294394869491e+01	 9.920098496261135e+00
0	 3.714295725428858e+01	 3.285724463525452e+01	 9.922759825733330e+00
0	 3.714295725428858e+01	 3.357154598848280e+01	 9.925613794409898e+00
0	 3.714295725428856e+01	 3.428584784171234e+01	 9.928709840942425e+00
0	 3.714295725428857e+01	 3.500015002827574e+01	 9.932097404469966e+00
0	 3.714295725428857e+01	 3.571445238150556e+01	 9.935825924619145e+00
0	 3.785720989899839e+01	 2.857145634928704e+01	 9.927609462097632e+00
0	 3.785720989899840e+01	 2.928575120249186e+01	 9.930362363814318e+00
0	 3.785720989899839e+01	 3.000004755570248e+01	 9.932528023246542e+00
0	 3.785720989899840e+01	 3.071434524225147e+01	 9.934237109566336e+00
0	 3.785720989899841e+01	 3.142864409547143e+01	 9.935620292242882e+00
0	 3.785720989899840e+01	 3.214294394869492e+01	 9.936808241042517e+00
0	 3.785720989899840e+01	 3.285724463525450e+01	 9.937931626028760e+00
0	 3.785720989899840e+01	 3.357154598848280e+01	 9.939121117562280e+00
0	 3.785720989899840e+01	 3.428584784171235e+01	 9.940507386300959e+00
0	 3.785720989899840e+01	 3.500015002827575e+01	 9.942221103199842e+00
0	 3.785720989899840e+01	 3.571445238150555e+01	 9.944392939511198e+00
0	 3.857146279369101e+01	 2.857145634928704e+01	 9.946011118001106e+00
0	 3.857146279369100e+01	 2.928575120249186e+01	 9.949027778584155e+00
0	 3.857146279369101e+01	 3.000004755570248e+01	 9.951031460004479e+00
0	 3.857146279369100e+01	 3.071434524225147e+01	 9.952212750273951e+00
0	 3.857146279369100e+01	 3.142864409547142e+01	 9.952762237519691e+00
0	 3.857146279369099e+01	 3.214294394869491e+01	 9.952870509984034e+00
0	 3.857146279369100e+01	 3.285724463525451e+01	 9.952728156024561e+00
0	 3.857146279369100e+01	 3.357154598848278e+01	 9.952525764114101e+00
0	 3.857146279369099e+01	 3.428584784171234e+01	 9.952453922840732e+00
0	 3.857146279369100e+01	 3.500015002827574e+01	 9.952703220907805e+00
0	 3.857146279369101e+01	 3.571445238150555e+01	 9.953464247133919e+00
0	 3.928571602169433e+01	 2.857145634928704e+01	 9.963308304122279e+00
0	 3.928571602169432e+01	 2.928575120249186e+01	 9.966424016544405e+00
0	 3.928571602169433e+01	 3.000004755570248e+01	 9.968224076282711e+00
0	 3.928571602169433e+01	 3.071434524225148e+01	 9.968937675910860e+00
0	 3.928571602169432e+01	 3.142864409547142e+01	 9.968794007966748e+00
0	 3.928571602169433e+01	 3.214294394869492e+01	 9.968022264952490e+00
0	 3.928571602169433e+01	 3.285724463525451e+01	 9.966851639334433e+00
0	 3.928571602169432e+01	 3.357154598848279e+01	 9.965511323543204e+00
0	 3.928571602169434e+01	 3.428584784171237e+01	 9.964230509973641e+00
0	 3.928571602169431e+01	 3.500015002827575e+01	 9.963238390984873e+00
0	 3.928571602169433e+01	 3.571445238150556e+01	 9.962764158900303e+00
0	 3.999996966633628e+01	 2.857145634928704e+01	 9.979653239052311e+00
0	 3.999996966633628e+01	 2.928575120249185e+01	 9.982588035979365e+00
0	 3.999996966633629e+01	 3.000004755570247e+01	 9.984043674680278e+00
0	 3.999996966633628e+01	 3.071434524225147e+01	 9.984266637867234e+00
0	 3.999996966633628e+01	 3.142864409547142e+01	 9.983503408119125e+00
0	 3.999996966633628e+01	 3.214294394869491e+01	 9.982000467881550e+00
0	 3.999996966633629e+01	 3.285724463525451e+01	 9.980004299466811e+00
0	 3.999996966633629e+01	 3.357154598848280e+01	 9.977761385053958e+00
0	 3.999996966633628e+01	 3.428584784171234e+01	 9.975518206688735e+00
0	 3.999996966633631e+01	 3.500015002827576e+01	 9.973521246283635e+00
0	 3.999996966633630e+01	 3.571445238150556e+01	 9.972016985617921e+00
0	 4.071422381094482e+01	 2.857145634928704e+01	 9.995198141846473e+00
0	 4.071422381094482e+01	 2.928575120249186e+01	 9.997556795669526e+00
0	 4.071422381094481e+01	 3.000004755570248e+01	 9.998428058253776e+00
0	 4.071422381094482e+01	 3.071434524225147e+01	 9.998054387896413e+00
0	 4.071422381094481e+01	 3.142864409547142e+01	 9.996678242739859e+00
0	 4.071422381094481e+01	 3.214294394869491e+01	 9.994542080771728e+00
0	 4.071422381094482e+01	 3.285724463525451e+01	 9.991888359824829e+00
0	 4.071422381094481e+01	 3.357154598848280e+01	 9.988959537577228e+00
0	 4.071422381094482e+01	 3.428584784171235e+01	 9.985998071552192e+00
0	 4.071422381094480e+01	 3.500015002827575e+01	 9.983246419118185e+00
0	 4.071422381094482e+01	 3.571445238150556e+01	 9.980947037488960e+00
0	 4.142847853884782e+01	 2.857145634928703e+01	 1.001009523202410e+01
0	 4.142847853884783e+01	 2.928575120249184e+01	 1.001136725489153e+01
0	 4.142847853884783e+01	 3.000004755570248e+01	 1.001131503051735e+01
0	 4.142847853884783e+01	 3.071434524225148e+01	 1.001015567811494e+01
0	 4.142847853884783e+01	 3.142864409547142e+01	 1.000810631681997e+01
0	 4.142847853884783e+01	 3.214294394869491e+01	 1.000538406569037e+01
0	 4.142847853884783e+01	 3.285724463525451e+01	 1.000220604370636e+01
0	 4.142847853884784e+01	 3.357154598848280e+01	 9.998789369770424e+00
0	 4.142847853884784e+01	 3.428584784171235e+01	 9.995351162707333e+00
0	 4.142847853884783e+01	 3.500015002827574e+01	 9.992108541264148e+00
0	 4.142847853884783e+01	 3.571445238150555e+01	 9.989278624110199e+00
0	 4.214273393337328e+01	 2.857145634928704e+01	 1.002449672956867e+01
0	 4.214273393337327e+01	 2.928575120249186e+01	 1.002405637341819e+01
0	 4.214273393337328e+01	 3.000004755570248e+01	 1.002264239544271e+01
0	 4.214273393337327e+01	 3.071434524225148e+01	 1.002042526100253e+01
0	 4.214273393337327e+01	 3.142864409547142e+01	 1.001757543557845e+01
0	 4.214273393337326e+01	 3.214294394869491e+01	 1.001426338477170e+01
0	 4.214273393337327e+01	 3.285724463525452e+01	 1.001065957430398e+01
0	 4.214273393337327e+01	 3.357154598848280e+01	 1.000693447001743e+01
0	 4.214273393337329e+01	 3.428584784171234e+01	 1.000325853787464e+01
0	 4.214273393337328e+01	 3.500015002827575e+01	 9.999802243958666e+00
0	 4.214273393337327e+01	 3.571445238150555e+01	 9.996736054473001e+00
0	 4.285699007784907e+01	 2.857145634928704e+01	 1.003855485492770e+01
0	 4.285699007784908e+01	 2.928575120249185e+01	 1.003566111151845e+01
0	 4.285699007784908e+01	 3.000004755570248e+01	 1.003234795745906e+01
0	 4.285699007784908e+01	 3.071434524225148e+01	 1.002871788940206e+01
0	 4.285699007784907e+01	 3.142864409547143e+01	 1.002487340446224e+01
0	 4.285699007784908e+01	 3.214294394869492e+01	 1.002091700021673e+01
0	 4.285699007784908e+01	 3.285724463525452e+01	 1.001695117470496e+01
0	 4.285699007784908e+01	 3.357154598848280e+01	 1.001307842642863e+01
0	 4.285699007784908e+01	 3.428584784171235e+01	 1.000940125435171e+01
0	 4.285699007784908e+01	 3.500015002827575e+01	 1.000602215790044e+01
0	 4.285699007784907e+01	 3.571445238150555e+01	 1.000304363696334e+01
0	 3.571445238150555e+01	 3.571445238150556e+01	 9.921307524348016e+00
0	 3.571445238150556e+01	 3.642870477623360e+01	 9.927867699862801e+00
0	 3.571445238150556e+01	 3.714295725428856e+01	 9.933620642327993e+00
0	 3.571445238150555e+01	 3.785720989899839e+01	 9.938756254245520e+00
0	 3.571445238150557e+01	 3.857146279369101e+01	 9.943464438185991e+00
0	 3.571445238150555e+01	 3.928571602169433e+01	 9.947935096788768e+00
0	 3.571445238150555e+01	 3.999996966633629e+01	 9.952358132761972e+00
0	 3.571445238150555e+01	 4.071422381094481e+01	 9.956923448882403e+00
0	 3.571445238150555e+01	 4.142847853884783e+01	 9.961820947995658e+00
0	 3.571445238150555e+01	 4.214273393337327e+01	 9.967240533016062e+00
0	 3.571445238150556e+01	 4.285699007784908e+01	 9.973372106926695e+00
0	 3.642870477623360e+01	 3.571445238150555e+01	 9.928038890439343e+00
0	 3.642870477623361e+01	 3.642870477623361e+01	 9.933301250499889e+00
0	 3.642870477623360e+01	 3.714295725428857e+01	 9.938240498427721e+00
0	 3.642870477623360e+01	 3.785720989899840e+01	 9.942951037269589e+00
0	 3.642870477623360e+01	 3.857146279369100e+01	 9.947527270096360e+00
0	 3.642870477623360e+01	 3.928571602169432e+01	 9.952063600003125e+00
0	 3.642870477623360e+01	 3.999996966633628e+01	 9.956654430109118e+00
0	 3.642870477623359e+01	 4.071422381094481e+01	 9.961394163557806e+00
0	 3.642870477623359e+01	 4.142847853884784e+01	 9.966377203516817e+00
0	 3.642870477623359e+01	 4.214273393337328e+01	 9.971697953177973e+00
0	 3.642870477623362e+01	 4.285699007784908e+01	 9.977450815757290e+00
0	 3.714295725428857e+01	 3.571445238150556e+01	 9.935825924619143e+00
0	 3.714295725428858e+01	 3.642870477623360e+01	 9.939779541829390e+00
0	 3.714295725428858e+01	 3.714295725428858e+01	 9.943820212720825e+00
0	 3.714295725428856e+01	 3.785720989899840e+01	 9.947963279307096e+00
0	 3.714295725428858e+01	 3.857146279369101e+01	 9.952224083581157e+00
0	 3.714295725428857e+01	 3.928571602169432e+01	 9.956617967515285e+00
0	 3.714295725428858e+01	 3.999996966633629e+01	 9.961160273061052e+00
0	 3.714295725428858e+01	 4.071422381094482e+01	 9.965866342149384e+00
0	 3.714295725428855e+01	 4.142847853884783e+01	 9.970751516690489e+00
0	 3.714295725428857e+01	 4.214273393337327e+01	 9.975831138573950e+00
0	 3.714295725428856e+01	 4.285699007784907e+01	 9.981120549668642e+00
0	 3.785720989899840e+01	 3.571445238150555e+01	 9.944392939511198e+00
0	 3.785720989899839e+01	 3.642870477623359e+01	 9.947063533220938e+00
0	 3.785720989899840e+01	 3.714295725428857e+01	 9.950155229854168e+00
0	 3.785720989899838e+01	 3.785720989899838e+01	 9.953620748821709e+00
0	 3.785720989899841e+01	 3.857146279369100e+01	 9.957412809469986e+00
0	 3.785720989899841e+01	 3.928571602169433e+01	 9.961484131081084e+00
0	 3.785720989899840e+01	 3.999996966633629e+01	 9.965787432872757e+00
0	 3.785720989899839e+01	 4.071422381094482e+01	 9.970275433998374e+00
0	 3.785720989899838e+01	 4.142847853884782e+01	 9.974900853546966e+00
0	 3.785720989899838e+01	 4.214273393337328e+01	 9.979616410543260e+00
0	 3.785720989899840e+01	 4.285699007784908e+01	 9.984374823947578e+00
0	 3.857146279369101e+01	 3.571445238150555e+01	 9.953464247133923e+00
0	 3.857146279369101e+01	 3.642870477623359e+01	 9.954914183431002e+00
0	 3.857146279369100e+01	 3.714295725428857e+01	 9.957040993905842e+00
0	 3.857146279369100e+01	 3.785720989899841e+01	 9.959751213793208e+00
0	 3.857146279369099e+01	 3.857146279369099e+01	 9.962951378222549e+00
0	 3.857146279369099e+01	 3.928571602169433e+01	 9.966548022218031e+00
0	 3.857146279369099e+01	 3.999996966633628e+01	 9.970447680698472e+00
0	 3.857146279369100e+01	 4.071422381094481e+01	 9.974556888477423e+00
0	 3.857146279369100e+01	 4.142847853884783e+01	 9.978782180263098e+00
0	 3.857146279369100e+01	 4.214273393337327e+01	 9.983030090658406e+00
0	 3.857146279369101e+01	 4.285699007784907e+01	 9.987207154161009e+00
0	 3.928571602169433e+01	 3.571445238150556e+01	 9.962764158900303e+00
0	 3.928571602169433e+01	 3.642870477623360e+01	 9.963092450602918e+00
0	 3.928571602169431e+01	 3.714295725428856e+01	 9.964272948385082e+00
0	 3.928571602169434e+01	 3.785720989899840e+01	 9.966182441717446e+00
0	 3.928571602169433e+01	 3.857146279369100e+01	 9.968697719928631e+00
0	 3.928571602169433e+01	 3.928571602169433e+01	 9.971695572205203e+00
0	 3.928571602169433e+01	 3.999996966633629e+01	 9.975052787591682e+00
0	 3.928571602169432e+01	 4.071422381094481e+01	 9.978646154990551e+00
0	 3.928571602169432e+01	 4.142847853884783e+01	 9.982352463162282e+00
0	 3.928571602169432e+01	 4.214273393337328e+01	 9.986048500725270e+00
0	 3.928571602169431e+01	 4.285699007784905e+01	 9.989611056155907e+00
0	 3.999996966633630e+01	 3.571445238150556e+01	 9.972016985617921e+00
0	 3.999996966633628e+01	 3.642870477623360e+01	 9.971359292266861e+00
0	 3.999996966633630e+01	 3.714295725428858e+01	 9.971646536232345e+00
0	 3.999996966633629e+01	 3.785720989899839e+01	 9.972742199606413e+00
0	 3.999996966633628e+01	 3.857146279369100e+01	 9.974509764308106e+00
0	 3.999996966633629e+01	 3.928571602169434e+01	 9.976812712083351e+00
0	 3.999996966633628e+01	 3.999996966633628e+01	 9.979514524505074e+00
0	 3.999996966633630e+01	 4.071422381094482e+01	 9.982478682973190e+00
0	 3.999996966633629e+01	 4.142847853884783e+01	 9.985568668714553e+00
0	 3.999996966633628e+01	 4.214273393337327e+01	 9.988647962782974e+00
0	 3.999996966633630e+01	 4.285699007784908e+01	 9.991580046059255e+00
0	 4.071422381094482e+01	 3.571445238150556e+01	 9.980947037488960e+00
0	 4.071422381094482e+01	 3.642870477623361e+01	 9.979475665339848e+00
0	 4.071422381094482e+01	 3.714295725428857e+01	 9.978957199819256e+00
0	 4.071422381094482e+01	 3.785720989899840e+01	 9.979258253988199e+00
0	 4.071422381094482e+01	 3.857146279369100e+01	 9.980245440710922e+00
0	 4.071422381094482e+01	 3.928571602169432e+01	 9.981785372654830e+00
0	 4.071422381094482e+01	 3.999996966633629e+01	 9.983744662290611e+00
0	 4.071422381094481e+01	 4.071422381094480e+01	 9.985989921892124e+00
0	 4.071422381094481e+01	 4.142847853884782e+01	 9.988387763536466e+00
0	 4.071422381094482e+01	 4.214273393337328e+01	 9.990804799103952e+00
0	 4.071422381094481e+01	 4.285699007784907e+01	 9.993107640278138e+00
0	 4.142847853884783e+01	 3.571445238150555e+01	 9.989278624110202e+00
0	 4.142847853884783e+01	 3.642870477623360e+01	 9.987202526125767e+00
0	 4.142847853884783e+01	 3.714295725428857e+01	 9.986000380948665e+00
0	 4.142847853884783e+01	 3.785720989899841e+01	 9.985558370906995e+00
0	 4.142847853884782e+01	 3.857146279369100e+01	 9.985762678117137e+00
0	 4.142847853884783e+01	 3.928571602169433e+01	 9.986499484483684e+00
0	 4.142847853884784e+01	 3.999996966633629e+01	 9.987654971699449e+00
0	 4.142847853884783e+01	 4.071422381094482e+01	 9.989115321245508e+00
0	 4.142847853884782e+01	 4.142847853884782e+01	 9.990766714391162e+00
0	 4.142847853884783e+01	 4.214273393337326e+01	 9.992495332193950e+00
0	 4.142847853884783e+01	 4.285699007784908e+01	 9.994187355499681e+00
0	 4.214273393337327e+01	 3.571445238150555e+01	 9.996736054473001e+00
0	 4.214273393337328e+01	 3.642870477623360e+01	 9.994300830315368e+00
0	 4.214273393337327e+01	 3.714295725428857e+01	 9.992571520854563e+00
0	 4.214273393337327e+01	 3.785720989899839e+01	 9.991470315923081e+00
0	 4.214273393337329e+01	 3.857146279369100e+01	 9.990919405136886e+00
0	 4.214273393337328e+01	 3.928571602169432e+01	 9.990840977895507e+00
0	 4.214273393337328e+01	 3.999996966633628e+01	 9.991157223381988e+00
0	 4.214273393337328e+01	 4.071422381094482e+01	 9.991790330562903e+00
0	 4.214273393337329e+01	 4.142847853884783e+01	 9.992662488188358e+00
0	 4.214273393337328e+01	 4.214273393337328e+01	 9.993695884792016e+00
0	 4.214273393337329e+01	 4.285699007784908e+01	 9.994812708691047e+00
0	 4.285699007784907e+01	 3.571445238150555e+01	 1.000304363696334e+01
0	 4.285699007784907e+01	 3.642870477623359e+01	 1.000053153298622e+01
0	 4.285699007784907e+01	 3.714295725428857e+01	 9.998466060202201e+00
0	 4.285699007784908e+01	 3.785720989899839e+01	 9.996821854112870e+00
0	 4.285699007784907e+01	 3.857146279369100e+01	 9.995573550010398e+00
0	 4.285699007784906e+01	 3.928571602169431e+01	 9.994695782977594e+00
0	 4.285699007784908e+01	 3.999996966633628e+01	 9.994163187887862e+00
0	 4.285699007784908e+01	 4.071422381094481e+01	 9.993950399405248e+00
0	 4.285699007784908e+01	 4.142847853884783e+01	 9.994032051984362e+00
0	 4.285699007784908e+01	 4.214273393337328e+01	 9.994382779870486e+00
0	 4.285699007784907e+01	 4.285699007784908e+01	 9.994977217099462e+00
0	 3.571445238150556e+01	 4.285699007784908e+01	 9.973372106926695e+00
0	 3.571445238150555e+01	 4.357129694500737e+01	 9.979594042806740e+00
0	 3.571445238150556e+01	 4.428560406221391e+01	 9.985082067914488e+00
0	 3.571445238150556e+01	 4.499991084612203e+01	 9.989723486345866e+00
0	 3.571445238150556e+01	 4.571421671338500e+01	 9.993405594252028e+00
0	 3.571445238150556e+01	 4.642852108065614e+01	 9.996015679839395e+00
0	 3.571445238150556e+01	 4.714282336458874e+01	 9.997441023369692e+00
0	 3.571445238150555e+01	 4.785712298183612e+01	 9.997568897159928e+00
0	 3.571445238150555e+01	 4.857141934905161e+01	 9.996286565581986e+00
0	 3.571445238150555e+01	 4.928571188288847e+01	 9.993481285062579e+00
0	 3.571445238150555e+01	 5.000000000000000e+01	 9.989040304082859e+00
0	 3.642870477623362e+01	 4.285699007784908e+01	 9.977450815757292e+00
0	 3.642870477623359e+01	 4.357129694500737e+01	 9.982998502332311e+00
0	 3.642870477623360e+01	 4.428560406221392e+01	 9.987634336998619e+00
0	 3.642870477623359e+01	 4.499991084612202e+01	 9.991349897279514e+00
0	 3.642870477623359e+01	 4.571421671338500e+01	 9.994136753522090e+00
0	 3.642870477623359e+01	 4.642852108065613e+01	 9.995986468897391e+00
0	 3.642870477623360e+01	 4.714282336458875e+01	 9.996890599400414e+00
0	 3.642870477623360e+01	 4.785712298183613e+01	 9.996840693849935e+00
0	 3.642870477623361e+01	 4.857141934905160e+01	 9.995828293888493e+00
0	 3.642870477623359e+01	 4.928571188288846e+01	 9.993844933982016e+00
0	 3.642870477623359e+01	 4.999999999999998e+01	 9.990882141419434e+00
0	 3.714295725428856e+01	 4.285699007784907e+01	 9.981120549668638e+00
0	 3.714295725428857e+01	 4.357129694500737e+01	 9.985988621755611e+00
0	 3.714295725428858e+01	 4.428560406221394e+01	 9.989844156130266e+00
0	 3.714295725428856e+01	 4.499991084612201e+01	 9.992763518131799e+00
0	 3.714295725428857e+01	 4.571421671338500e+01	 9.994823066805534e+00
0	 3.714295725428858e+01	 4.642852108065614e+01	 9.996099154902947e+00
0	 3.714295725428858e+01	 4.714282336458875e+01	 9.996668128881709e+00
0	 3.714295725428856e+01	 4.785712298183613e+01	 9.996606328905628e+00
0	 3.714295725428856e+01	 4.857141934905160e+01	 9.995990088844536e+00
0	 3.714295725428858e+01	 4.928571188288846e+01	 9.994895736273909e+00
0	 3.714295725428858e+01	 5.000000000000000e+01	 9.993399592474804e+00
0	 3.785720989899840e+01	 4.285699007784908e+01	 9.984374823947579e+00
0	 3.785720989899841e+01	 4.357129694500737e+01	 9.988569893867389e+00
0	 3.785720989899839e+01	 4.428560406221393e+01	 9.991720721821245e+00
0	 3.785720989899841e+01	 4.499991084612204e+01	 9.993968975341033e+00
0	 3.785720989899839e+01	 4.571421671338500e+01	 9.995456316620116e+00
0	 3.785720989899841e+01	 4.642852108065614e+01	 9.996324402513348e+00
0	 3.785720989899841e+01	 4.714282336458876e+01	 9.996714884537147e+00
0	 3.785720989899840e+01	 4.785712298183613e+01	 9.996769408869461e+00
0	 3.785720989899838e+01	 4.857141934905158e+01	 9.996629616349519e+00
0	 3.785720989899840e+01	 4.928571188288847e+01	 9.996437142477882e+00
0	 3.785720989899839e+01	 5.000000000000001e+01	 9.996333617415935e+00
0	 3.857146279369101e+01	 4.285699007784907e+01	 9.987207154161009e+00
0	 3.857146279369100e+01	 4.357129694500736e+01	 9.990747811737933e+00
0	 3.857146279369100e+01	 4.428560406221391e+01	 9.993273230824569e+00
0	 3.857146279369100e+01	 4.499991084612203e+01	 9.994970895524109e+00
0	 3.857146279369100e+01	 4.571421671338499e+01	 9.996028285589059e+00
0	 3.857146279369102e+01	 4.642852108065615e+01	 9.996632876421327e+00
0	 3.857146279369101e+01	 4.714282336458875e+01	 9.996972139072296e+00
0	 3.857146279369100e+01	 4.785712298183613e+01	 9.997233540242798e+00
0	 3.857146279369100e+01	 4.857141934905160e+01	 9.997604542282891e+00
0	 3.857146279369101e+01	 4.928571188288846e+01	 9.998272603191925e+00
0	 3.857146279369101e+01	 5.000000000000001e+01	 9.999425176618205e+00
0	 3.928571602169431e+01	 4.285699007784905e+01	 9.989611056155907e+00
0	 3.928571602169431e+01	 4.357129694500736e+01	 9.992527868717046e+00
0	 3.928571602169433e+01	 4.428560406221393e+01	 9.994510880134401e+00
0	 3.928571602169432e+01	 4.499991084612203e+01	 9.995773905476455e+00
0	 3.928571602169433e+01	 4.571421671338499e+01	 9.996530756440944e+00
0	 3.928571602169433e+01	 4.642852108065613e+01	 9.996995241354870e+00
0	 3.928571602169433e+01	 4.714282336458874e+01	 9.997381165174652e+00
0	 3.928571602169434e+01	 4.785712298183613e+01	 9.997902329486042e+00
0	 3.928571602169433e+01	 4.857141934905160e+01	 9.998772532504013e+00
0	 3.928571602169432e+01	 4.928571188288845e+01	 1.000020556907276e+01
0	 3.928571602169433e+01	 5.000000000000000e+01	 1.000241523066560e+01
0	 3.999996966633630e+01	 4.285699007784908e+01	 9.991580046059255e+00
0	 3.999996966633629e+01	 4.357129694500738e+01	 9.993915558434058e+00
0	 3.999996966633628e+01	 4.428560406221393e+01	 9.995442866986011e+00
0	 3.999996966633630e+01	 4.499991084612203e+01	 9.996382632172061e+00
0	 3.999996966633628e+01	 4.571421671338500e+01	 9.996955512009754e+00
0	 3.999996966633629e+01	 4.642852108065614e+01	 9.997382162077331e+00
0	 3.999996966633628e+01	 4.714282336458874e+01	 9.997883235513683e+00
0	 3.999996966633629e+01	 4.785712298183614e+01	 9.998679383018526e+00
0	 3.999996966633628e+01	 4.857141934905158e+01	 9.999991252852150e+00
0	 3.999996966633628e+01	 4.928571188288846e+01	 1.000203949083559e+01
0	 3.999996966633629e+01	 5.000000000000000e+01	 1.000504474035042e+01
0	 4.071422381094481e+01	 4.285699007784907e+01	 9.993107640278136e+00
0	 4.071422381094481e+01	 4.357129694500738e+01	 9.994916374797818e+00
0	 4.071422381094482e+01	 4.428560406221392e+01	 9.996078388855841e+00
0	 4.071422381094482e+01	 4.499991084612203e+01	 9.996801702763502e+00
0	 4.071422381094481e+01	 4.571421671338499e+01	 9.997294335234963e+00
0	 4.071422381094482e+01	 4.642852108065613e+01	 9.997764303387367e+00
0	 4.071422381094482e+01	 4.714282336458875e+01	 9.998419622740851e+00
0	 4.071422381094481e+01	 4.785712298183613e+01	 9.999468307218530e+00
0	 4.071422381094481e+01	 4.857141934905158e+01	 1.000111836914657e+01
0	 4.071422381094481e+01	 4.928571188288846e+01	 1.000357781925417e+01
0	 4.071422381094481e+01	 5.000000000000001e+01	 1.000705466667341e+01
0	 4.142847853884783e+01	 4.285699007784908e+01	 9.994187355499680e+00
0	 4.142847853884783e+01	 4.357129694500738e+01	 9.995535811996714e+00
0	 4.142847853884783e+01	 4.428560406221393e+01	 9.996426643461479e+00
0	 4.142847853884784e+01	 4.499991084612204e+01	 9.997035744581888e+00
0	 4.142847853884783e+01	 4.571421671338500e+01	 9.997539009161388e+00
0	 4.142847853884784e+01	 4.642852108065613e+01	 9.998112330119039e+00
0	 4.142847853884783e+01	 4.714282336458875e+01	 9.998931599489552e+00
0	 4.142847853884783e+01	 4.785712298183613e+01	 1.000017270842333e+01
0	 4.142847853884784e+01	 4.857141934905161e+01	 1.000201154718648e+01
0	 4.142847853884784e+01	 4.928571188288846e+01	 1.000462400516081e+01
0	 4.142847853884783e+01	 4.999999999999999e+01	 1.000818597084388e+01
0	 4.214273393337329e+01	 4.285699007784908e+01	 9.994812708691047e+00
0	 4.214273393337328e+01	 4.357129694500738e+01	 9.995779364498620e+00
0	 4.214273393337328e+01	 4.428560406221392e+01	 9.996496828761638e+00
0	 4.214273393337327e+01	 4.499991084612203e+01	 9.997089385136899e+00
0	 4.214273393337327e+01	 4.571421671338499e+01	 9.997681316939262e+00
0	 4.214273393337327e+01	 4.642852108065613e+01	 9.998396907141682e+00
0	 4.214273393337327e+01	 4.714282336458876e+01	 9.999360438375220e+00
0	 4.214273393337327e+01	 4.785712298183612e+01	 1.000069619292917e+01
0	 4.214273393337328e+01	 4.857141934905160e+01	 1.000252845275098e+01
0	 4.214273393337327e+01	 4.928571188288846e+01	 1.000498149944642e+01
0	 4.214273393337328e+01	 5.000000000000000e+01	 1.000817961427949e+01
0	 4.285699007784907e+01	 4.285699007784908e+01	 9.994977217099462e+00
0	 4.285699007784908e+01	 4.357129694500737e+01	 9.995652527050957e+00
0	 4.285699007784906e+01	 4.428560406221393e+01	 9.996298142956181e+00
0	 4.285699007784908e+01	 4.499991084612203e+01	 9.996967252116786e+00
0	 4.285699007784908e+01	 4.571421671338501e+01	 9.997713041824262e+00
0	 4.285699007784907e+01	 4.642852108065613e+01	 9.998588699359974e+00
0	 4.285699007784908e+01	 4.714282336458876e+01	 9.999647411995207e+00
0	 4.285699007784908e+01	 4.785712298183613e+01	 1.000094236699120e+01
0	 4.285699007784908e+01	 4.857141934905160e+01	 1.000252675159916e+01
0	 4.285699007784908e+01	 4.928571188288846e+01	 1.000445375306044e+01
0	 4.285699007784908e+01	 5.000000000000001e+01	 1.000677655860634e+01
0	 4.285699007784908e+01	 0.000000000000000e+00	 1.066473475711379e+01
0	 4.285699007784909e+01	 7.142881171115515e-01	 1.068527165482775e+01
0	 4.285699007784908e+01	 1.428580650948409e+00	 1.071185845929982e+01
0	 4.285699007784908e+01	 2.142877018163878e+00	 1.074090871493127e+01
0	 4.285699007784908e+01	 2.857176635411264e+00	 1.076883583885234e+01
0	 4.285699007784908e+01	 3.571478919343873e+00	 1.079205312093061e+01
0	 4.285699007784908e+01	 4.285783286615009e+00	 1.080697372377801e+01
0	 4.285699007784908e+01	 5.000089153877975e+00	 1.081001068275615e+01
0	 4.285699007784908e+01	 5.714395937786081e+00	 1.079757690598007e+01
0	 4.285699007784907e+01	 6.428703054992629e+00	 1.076608517432053e+01
0	 4.285699007784908e+01	 7.143009922150927e+00	 1.071194814140470e+01
0	 4.357129694500737e+01	 0.000000000000000e+00	 1.033903572764745e+01
0	 4.357129694500739e+01	 7.142881171115514e-01	 1.054635806627030e+01
0	 4.357129694500737e+01	 1.428580650948410e+00	 1.070164258340485e+01
0	 4.357129694500737e+01	 2.142877018163878e+00	 1.081042279625621e+01
0	 4.357129694500737e+01	 2.857176635411265e+00	 1.087823217111703e+01
0	 4.357129694500735e+01	 3.571478919343872e+00	 1.091060412337051e+01
0	 4.357129694500737e+01	 4.285783286615008e+00	 1.091307201749290e+01
0	 4.357129694500738e+01	 5.000089153877975e+00	 1.089116916705537e+01
0	 4.357129694500737e+01	 5.714395937786082e+00	 1.085042883472519e+01
0	 4.357129694500738e+01	 6.428703054992631e+00	 1.079638423226630e+01
0	 4.357129694500738e+01	 7.143009922150927e+00	 1.073456852053938e+01
0	 4.428560406221392e+01	 0.000000000000000e+00	 1.021647296705982e+01
0	 4.428560406221393e+01	 7.142881171115514e-01	 1.052325409448515e+01
0	 4.428560406221393e+01	 1.428580650948409e+00	 1.074155723416600e+01
0	 4.428560406221393e+01	 2.142877018163880e+00	 1.088339631619829e+01
0	 4.428560406221392e+01	 2.857176635411264e+00	 1.096078529915196e+01
0	 4.428560406221393e+01	 3.571478919343873e+00	 1.098573817006859e+01
0	 4.428560406221392e+01	 4.285783286615009e+00	 1.097026894445925e+01
0	 4.428560406221392e+01	 5.000089153877976e+00	 1.092639166630265e+01
0	 4.428560406221392e+01	 5.714395937786083e+00	 1.086612040804368e+01
0	 4.428560406221391e+01	 6.428703054992628e+00	 1.080146927059239e+01
0	 4.428560406221393e+01	 7.143009922150928e+00	 1.074445238332315e+01
0	 4.499991084612202e+01	 0.000000000000000e+00	 1.025988546043862e+01
0	 4.499991084612204e+01	 7.142881171115514e-01	 1.059229443680123e+01
0	 4.499991084612203e+01	 1.428580650948409e+00	 1.081948150086705e+01
0	 4.499991084612202e+01	 2.142877018163878e+00	 1.095730151321356e+01
0	 4.499991084612204e+01	 2.857176635411265e+00	 1.102160943574517e+01
0	 4.499991084612203e+01	 3.571478919343873e+00	 1.102826033168548e+01
0	 4.499991084612203e+01	 4.285783286615008e+00	 1.099310936557099e+01
0	 4.499991084612203e+01	 5.000089153877975e+00	 1.093201180324592e+01
0	 4.499991084612203e+01	 5.714395937786082e+00	 1.086082301185829e+01
0	 4.499991084612203e+01	 6.428703054992630e+00	 1.079539845985730e+01
0	 4.499991084612203e+01	 7.143009922150927e+00	 1.075159371699191e+01
0	 4.571421671338500e+01	 0.000000000000000e+00	 1.043211312287794e+01
0	 4.571421671338500e+01	 7.142881171115513e-01	 1.072981431180294e+01
0	 4.571421671338499e+01	 1.428580650948409e+00	 1.092329468834014e+01
0	 4.571421671338500e+01	 2.142877018163878e+00	 1.102961062571001e+01
0	 4.571421671338499e+01	 2.857176635411264e+00	 1.106581865521694e+01
0	 4.571421671338499e+01	 3.571478919343873e+00	 1.104897546623755e+01
0	 4.571421671338499e+01	 4.285783286615009e+00	 1.099613790621105e+01
0	 4.571421671338500e+01	 5.000089153877975e+00	 1.092436298063147e+01
0	 4.571421671338498e+01	 5.714395937786080e+00	 1.085070785304185e+01
0	 4.571421671338499e+01	 6.428703054992630e+00	 1.079222984503035e+01
0	 4.571421671338501e+01	 7.143009922150926e+00	 1.076598643622834e+01
0	 4.642852108065614e+01	 0.000000000000000e+00	 1.069599679948000e+01
0	 4.642852108065613e+01	 7.142881171115514e-01	 1.091214945933078e+01
0	 4.642852108065613e+01	 1.428580650948409e+00	 1.104087631696594e+01
0	 4.642852108065614e+01	 2.142877018163878e+00	 1.109779589204711e+01
0	 4.642852108065614e+01	 2.857176635411264e+00	 1.109852689341913e+01
0	 4.642852108065613e+01	 3.571478919343873e+00	 1.105868821909627e+01
0	 4.642852108065614e+01	 4.285783286615009e+00	 1.099389895625070e+01
0	 4.642852108065615e+01	 5.000089153877976e+00	 1.091977838120332e+01
0	 4.642852108065614e+01	 5.714395937786081e+00	 1.085194595941685e+01
0	 4.642852108065613e+01	 6.428703054992630e+00	 1.080602134549132e+01
0	 4.642852108065613e+01	 7.143009922150926e+00	 1.079762438316181e+01
0	 4.714282336458874e+01	 0.000000000000000e+00	 1.101437826536820e+01
0	 4.714282336458874e+01	 7.142881171115513e-01	 1.111563614048854e+01
0	 4.714282336458874e+01	 1.428580650948409e+00	 1.116010612267633e+01
0	 4.714282336458874e+01	 2.142877018163879e+00	 1.115932955053546e+01
0	 4.714282336458874e+01	 2.857176635411265e+00	 1.112484794773281e+01
0	 4.714282336458873e+01	 3.571478919343873e+00	 1.106820302298475e+01
0	 4.714282336458875e+01	 4.285783286615009e+00	 1.100093667004588e+01
0	 4.714282336458874e+01	 5.000089153877975e+00	 1.093459096769988e+01
0	 4.714282336458874e+01	 5.714395937786080e+00	 1.088070817975285e+01
0	 4.714282336458874e+01	 6.428703054992628e+00	 1.085083075502878e+01
0	 4.714282336458874e+01	 7.143009922150926e+00	 1.085650132736729e+01
0	 4.785712298183613e+01	 0.000000000000000e+00	 1.135010022571158e+01
0	 4.785712298183613e+01	 7.142881171115514e-01	 1.131661113765677e+01
0	 4.785712298183613e+01	 1.428580650948409e+00	 1.126886405695970e+01
0	 4.785712298183613e+01	 2.142877018163878e+00	 1.121168383943638e+01
0	 4.785712298183612e+01	 2.857176635411265e+00	 1.114989547706422e+01
0	 4.785712298183613e+01	 3.571478919343872e+00	 1.108832409797187e+01
0	 4.785712298183613e+01	 4.285783286615009e+00	 1.103179496643071e+01
0	 4.785712298183613e+01	 5.000089153877973e+00	 1.098513348284797e+01
0	 4.785712298183614e+01	 5.714395937786080e+00	 1.095316518376157e+01
0	 4.785712298183614e+01	 6.428703054992630e+00	 1.094071574183662e+01
0	 4.785712298183613e+01	 7.143009922150927e+00	 1.095261096586358e+01
0	 4.857141934905160e+01	 0.000000000000000e+00	 1.166600631576071e+01
0	 4.857141934905161e+01	 7.142881171115514e-01	 1.149141175451275e+01
0	 4.857141934905160e+01	 1.428580650948409e+00	 1.135503028686896e+01
0	 4.857141934905160e+01	 2.142877018163879e+00	 1.125233099696151e+01
0	 4.857141934905161e+01	 2.857176635411265e+00	 1.117878300183904e+01
0	 4.857141934905160e+01	 3.571478919343873e+00	 1.112985545146363e+01
0	 4.857141934905159e+01	 4.285783286615009e+00	 1.110101752870815e+01
0	 4.857141934905162e+01	 5.000089153877976e+00	 1.108773844935413e+01
0	 4.857141934905160e+01	 5.714395937786081e+00	 1.108548746208991e+01
0	 4.857141934905160e+01	 6.428703054992631e+00	 1.108973384850930e+01
0	 4.857141934905160e+01	 7.143009922150926e+00	 1.109594692311051e+01
0	 4.928571188288846e+01	 0.000000000000000e+00	 1.192494110089500e+01
0	 4.928571188288846e+01	 7.142881171115513e-01	 1.161637581605670e+01
0	 4.928571188288845e+01	 1.428580650948409e+00	 1.140648519503211e+01
0	 4.928571188288845e+01	 2.142877018163878e+00	 1.127874326127238e+01
0	 4.928571188288846e+01	 2.857176635411265e+00	 1.121662390399494e+01
0	 4.928571188288846e+01	 3.571478919343873e+00	 1.120360087819202e+01
0	 4.928571188288846e+01	 4.285783286615008e+00	 1.122314780463772e+01
0	 4.928571188288846e+01	 5.000089153877976e+00	 1.125873816989325e+01
0	 4.928571188288846e+01	 5.714395937786080e+00	 1.129384532631078e+01
0	 4.928571188288846e+01	 6.428703054992630e+00	 1.131194249203532e+01
0	 4.928571188288846e+01	 7.143009922150927e+00	 1.129650275100525e+01
0	 5.000000000000000e+01	 0.000000000000000e+00	 1.208975007668129e+01
0	 5.000000000000001e+01	 7.142881171115513e-01	 1.166784166864447e+01
0	 4.999999999999999e+01	 1.428580650948409e+00	 1.141110937966555e+01
0	 4.999999999999999e+01	 2.142877018163878e+00	 1.128839287048006e+01
0	 5.000000000000000e+01	 2.857176635411265e+00	 1.126853142697239e+01
0	 5.000000000000000e+01	 3.571478919343873e+00	 1.132036396020124e+01
0	 5.000000000000000e+01	 4.285783286615008e+00	 1.141272900642027e+01
0	 5.000000000000000e+01	 5.000089153877976e+00	 1.151446472709445e+01
0	 4.999999999999999e+01	 5.714395937786080e+00	 1.159440890891158e+01
0	 5.000000000000000e+01	 6.428703054992629e+00	 1.162139896378935e+01
0	 5.000000000000001e+01	 7.143009922150927e+00	 1.156427192887779e+01
0	 4.285699007784908e+01	 7.143009922150927e+00	 1.071194814140470e+01
0	 4.285699007784908e+01	 7.857266066626719e+00	 1.064874291203916e+01
0	 4.285699007784907e+01	 8.571521461152162e+00	 1.059235243111351e+01
0	 4.285699007784908e+01	 9.285776189055184e+00	 1.054266201054438e+01
0	 4.285699007784908e+01	 1.000003033366371e+01	 1.049955695721316e+01
0	 4.285699007784908e+01	 1.071428397830567e+01	 1.046292257296584e+01
0	 4.285699007784908e+01	 1.142853720630899e+01	 1.043264415461299e+01
0	 4.285699007784908e+01	 1.214279010100160e+01	 1.040860699392970e+01
0	 4.285699007784907e+01	 1.285704274571142e+01	 1.039069637765554e+01
0	 4.285699007784908e+01	 1.357129522376640e+01	 1.037879758749450e+01
0	 4.285699007784908e+01	 1.428554761849444e+01	 1.037279590011498e+01
0	 4.357129694500738e+01	 7.143009922150927e+00	 1.073456852053938e+01
0	 4.357129694500737e+01	 7.857266066626718e+00	 1.067565677101169e+01
0	 4.357129694500738e+01	 8.571521461152164e+00	 1.062593773322731e+01
0	 4.357129694500738e+01	 9.285776189055184e+00	 1.058437845557356e+01
0	 4.357129694500738e+01	 1.000003033366371e+01	 1.054994598498460e+01
0	 4.357129694500736e+01	 1.071428397830567e+01	 1.052160736694136e+01
0	 4.357129694500737e+01	 1.142853720630899e+01	 1.049832964547158e+01
0	 4.357129694500738e+01	 1.214279010100160e+01	 1.047907986314971e+01
0	 4.357129694500738e+01	 1.285704274571142e+01	 1.046282506109691e+01
0	 4.357129694500738e+01	 1.357129522376640e+01	 1.044853227898107e+01
0	 4.357129694500737e+01	 1.428554761849444e+01	 1.043516855501673e+01
0	 4.428560406221393e+01	 7.143009922150928e+00	 1.074445238332315e+01
0	 4.428560406221391e+01	 7.857266066626718e+00	 1.070018759314709e+01
0	 4.428560406221393e+01	 8.571521461152159e+00	 1.066468735344354e+01
0	 4.428560406221392e+01	 9.285776189055182e+00	 1.063631805719550e+01
0	 4.428560406221391e+01	 1.000003033366371e+01	 1.061344609979350e+01
0	 4.428560406221393e+01	 1.071428397830567e+01	 1.059443787903552e+01
0	 4.428560406221391e+01	 1.142853720630899e+01	 1.057765979512702e+01
0	 4.428560406221392e+01	 1.214279010100159e+01	 1.056147825068098e+01
0	 4.428560406221392e+01	 1.285704274571142e+01	 1.054425965071786e+01
0	 4.428560406221392e+01	 1.357129522376639e+01	 1.052437040266560e+01
0	 4.428560406221391e+01	 1.428554761849444e+01	 1.050017691635967e+01
0	 4.499991084612203e+01	 7.143009922150927e+00	 1.075159371699191e+01
0	 4.499991084612204e+01	 7.857266066626720e+00	 1.072765467087304e+01
0	 4.499991084612203e+01	 8.571521461152162e+00	 1.070997512823366e+01
0	 4.499991084612202e+01	 9.285776189055184e+00	 1.069663843691182e+01
0	 4.499991084612203e+01	 1.000003033366371e+01	 1.068572795078175e+01
0	 4.499991084612203e+01	 1.071428397830567e+01	 1.067532702975394e+01
0	 4.499991084612203e+01	 1.142853720630899e+01	 1.066351903977518e+01
0	 4.499991084612203e+01	 1.214279010100160e+01	 1.064838735282858e+01
0	 4.499991084612203e+01	 1.285704274571142e+01	 1.062801534693356e+01
0	 4.499991084612203e+01	 1.357129522376640e+01	 1.060048640614595e+01
0	 4.499991084612203e+01	 1.428554761849445e+01	 1.056388392055792e+01
0	 4.571421671338501e+01	 7.143009922150926e+00	 1.076598643622834e+01
0	 4.571421671338501e+01	 7.857266066626719e+00	 1.076337726615418e+01
0	 4.571421671338500e+01	 8.571521461152164e+00	 1.076317489389618e+01
0	 4.571421671338499e+01	 9.285776189055182e+00	 1.076349723609730e+01
0	 4.571421671338499e+01	 1.000003033366371e+01	 1.076246221832296e+01
0	 4.571421671338500e+01	 1.071428397830567e+01	 1.075818777506129e+01
0	 4.571421671338498e+01	 1.142853720630899e+01	 1.074879184972315e+01
0	 4.571421671338499e+01	 1.214279010100160e+01	 1.073239239464212e+01
0	 4.571421671338499e+01	 1.285704274571142e+01	 1.070710737107465e+01
0	 4.571421671338500e+01	 1.357129522376639e+01	 1.067105474920001e+01
0	 4.571421671338500e+01	 1.428554761849444e+01	 1.062235250812033e+01
0	 4.642852108065613e+01	 7.143009922150926e+00	 1.079762438316181e+01
0	 4.642852108065613e+01	 7.857266066626718e+00	 1.081267461049209e+01
0	 4.642852108065613e+01	 8.571521461152161e+00	 1.082566048655670e+01
0	 4.642852108065613e+01	 9.285776189055182e+00	 1.083505211600002e+01
0	 4.642852108065613e+01	 1.000003033366371e+01	 1.083931961402261e+01
0	 4.642852108065614e+01	 1.071428397830567e+01	 1.083693310638128e+01
0	 4.642852108065614e+01	 1.142853720630899e+01	 1.082636272938913e+01
0	 4.642852108065613e+01	 1.214279010100160e+01	 1.080607862991572e+01
0	 4.642852108065614e+01	 1.285704274571143e+01	 1.077455096538703e+01
0	 4.642852108065613e+01	 1.357129522376639e+01	 1.073024990378552e+01
0	 4.642852108065614e+01	 1.428554761849444e+01	 1.067164562365017e+01
0	 4.714282336458874e+01	 7.143009922150926e+00	 1.085650132736729e+01
0	 4.714282336458874e+01	 7.857266066626722e+00	 1.088086590492501e+01
0	 4.714282336458874e+01	 8.571521461152161e+00	 1.089880574216792e+01
0	 4.714282336458874e+01	 9.285776189055184e+00	 1.090946075774168e+01
0	 4.714282336458874e+01	 1.000003033366371e+01	 1.091197088071848e+01
0	 4.714282336458874e+01	 1.071428397830567e+01	 1.090547605059706e+01
0	 4.714282336458874e+01	 1.142853720630899e+01	 1.088911621730289e+01
0	 4.714282336458874e+01	 1.214279010100160e+01	 1.086203134118818e+01
0	 4.714282336458875e+01	 1.285704274571142e+01	 1.082336139303191e+01
0	 4.714282336458874e+01	 1.357129522376639e+01	 1.077224635403992e+01
0	 4.714282336458874e+01	 1.428554761849444e+01	 1.070782621584487e+01
0	 4.785712298183613e+01	 7.143009922150927e+00	 1.095261096586358e+01
0	 4.785712298183613e+01	 7.857266066626720e+00	 1.097327032002699e+01
0	 4.785712298183613e+01	 8.571521461152164e+00	 1.098398449650979e+01
0	 4.785712298183613e+01	 9.285776189055182e+00	 1.098488086231814e+01
0	 4.785712298183613e+01	 1.000003033366371e+01	 1.097608679248141e+01
0	 4.785712298183614e+01	 1.071428397830567e+01	 1.095772967005224e+01
0	 4.785712298183612e+01	 1.142853720630899e+01	 1.092993688610655e+01
0	 4.785712298183613e+01	 1.214279010100160e+01	 1.089283583974367e+01
0	 4.785712298183613e+01	 1.285704274571142e+01	 1.084655393808628e+01
0	 4.785712298183613e+01	 1.357129522376639e+01	 1.079121859628051e+01
0	 4.785712298183613e+01	 1.428554761849445e+01	 1.072695723749587e+01
0	 4.857141934905160e+01	 7.143009922150926e+00	 1.109594692311051e+01
0	 4.857141934905159e+01	 7.857266066626718e+00	 1.109520699590689e+01
0	 4.857141934905160e+01	 8.571521461152162e+00	 1.108257058518953e+01
0	 4.857141934905160e+01	 9.285776189055184e+00	 1.105947015060026e+01
0	 4.857141934905161e+01	 1.000003033366371e+01	 1.102733815461667e+01
0	 4.857141934905160e+01	 1.071428397830567e+01	 1.098760706255214e+01
0	 4.857141934905161e+01	 1.142853720630899e+01	 1.094170934255581e+01
0	 4.857141934905160e+01	 1.214279010100160e+01	 1.089107746561264e+01
0	 4.857141934905160e+01	 1.285704274571142e+01	 1.083714390554340e+01
0	 4.857141934905160e+01	 1.357129522376639e+01	 1.078134113900458e+01
0	 4.857141934905161e+01	 1.428554761849444e+01	 1.072510164548851e+01
0	 4.928571188288846e+01	 7.143009922150927e+00	 1.129650275100525e+01
0	 4.928571188288846e+01	 7.857266066626719e+00	 1.125199504220680e+01
0	 4.928571188288846e+01	 8.571521461152164e+00	 1.119593784364173e+01
0	 4.928571188288846e+01	 9.285776189055184e+00	 1.113138636333502e+01
0	 4.928571188288846e+01	 1.000003033366371e+01	 1.106139580366547e+01
0	 4.928571188288846e+01	 1.071428397830567e+01	 1.098902136136560e+01
0	 4.928571188288846e+01	 1.142853720630899e+01	 1.091731822752159e+01
0	 4.928571188288846e+01	 1.214279010100160e+01	 1.084934158757321e+01
0	 4.928571188288846e+01	 1.285704274571142e+01	 1.078814662131370e+01
0	 4.928571188288846e+01	 1.357129522376639e+01	 1.073678850288988e+01
0	 4.928571188288846e+01	 1.428554761849444e+01	 1.069832240080195e+01
0	 5.000000000000001e+01	 7.143009922150927e+00	 1.156427192887779e+01
0	 5.000000000000001e+01	 7.857266066626719e+00	 1.144895353810027e+01
0	 5.000000000000001e+01	 8.571521461152161e+00	 1.132546010712836e+01
0	 5.000000000000000e+01	 9.285776189055182e+00	 1.119878726114672e+01
0	 5.000000000000000e+01	 1.000003033366371e+01	 1.107393060740693e+01
0	 4.999999999999999e+01	 1.071428397830567e+01	 1.095588573522719e+01
0	 5.000000000000000e+01	 1.142853720630899e+01	 1.084964821599213e+01
0	 5.000000000000000e+01	 1.214279010100160e+01	 1.076021360315268e+01
0	 4.999999999999999e+01	 1.285704274571142e+01	 1.069257743222592e+01
0	 5.000000000000000e+01	 1.357129522376639e+01	 1.065173522079503e+01
0	 5.000000000000000e+01	 1.428554761849444e+01	 1.064268246850909e+01
0	 4.285699007784908e+01	 1.428554761849444e+01	 1.037279590011498e+01
0	 4.285699007784907e+01	 1.499984997172426e+01	 1.036799489272779e+01
0	 4.285699007784906e+01	 1.571415215828766e+01	 1.035987781998883e+01
0	 4.285699007784907e+01	 1.642845401151721e+01	 1.034859881957405e+01
0	 4.285699007784908e+01	 1.714275536474550e+01	 1.033431202627755e+01
0	 4.285699007784907e+01	 1.785705605130510e+01	 1.031717157201143e+01
0	 4.285699007784908e+01	 1.857135590452858e+01	 1.029733158580574e+01
0	 4.285699007784908e+01	 1.928565475774854e+01	 1.027494619380846e+01
0	 4.285699007784908e+01	 1.999995244429753e+01	 1.025016951928538e+01
0	 4.285699007784907e+01	 2.071424879750816e+01	 1.022315568262005e+01
0	 4.285699007784908e+01	 2.142854365071297e+01	 1.019405880131360e+01
0	 4.357129694500737e+01	 1.428554761849444e+01	 1.043516855501673e+01
0	 4.357129694500738e+01	 1.499984997172426e+01	 1.042074739707336e+01
0	 4.357129694500738e+01	 1.571415215828766e+01	 1.040411282534158e+01
0	 4.357129694500737e+01	 1.642845401151722e+01	 1.038547486389511e+01
0	 4.357129694500737e+01	 1.714275536474550e+01	 1.036504353646738e+01
0	 4.357129694500736e+01	 1.785705605130510e+01	 1.034302886645157e+01
0	 4.357129694500738e+01	 1.857135590452858e+01	 1.031964087690045e+01
0	 4.357129694500738e+01	 1.928565475774854e+01	 1.029508959052641e+01
0	 4.357129694500737e+01	 1.999995244429754e+01	 1.026958502970138e+01
0	 4.357129694500738e+01	 2.071424879750815e+01	 1.024333721645675e+01
0	 4.357129694500737e+01	 2.142854365071296e+01	 1.021655617248334e+01
0	 4.428560406221391e+01	 1.428554761849444e+01	 1.050017691635967e+01
0	 4.428560406221393e+01	 1.499984997172426e+01	 1.047300423365716e+01
0	 4.428560406221393e+01	 1.571415215828766e+01	 1.044541313683087e+01
0	 4.428560406221391e+01	 1.642845401151721e+01	 1.041761800289392e+01
0	 4.428560406221392e+01	 1.714275536474550e+01	 1.038983321147180e+01
0	 4.428560406221392e+01	 1.785705605130509e+01	 1.036227314480233e+01
0	 4.428560406221392e+01	 1.857135590452858e+01	 1.033515218773559e+01
0	 4.428560406221391e+01	 1.928565475774854e+01	 1.030868472773391e+01
0	 4.428560406221392e+01	 1.999995244429753e+01	 1.028308515487184e+01
0	 4.428560406221393e+01	 2.071424879750816e+01	 1.025856786183613e+01
0	 4.428560406221392e+01	 2.142854365071295e+01	 1.023534724392573e+01
0	 4.499991084612203e+01	 1.428554761849445e+01	 1.056388392055792e+01
0	 4.499991084612202e+01	 1.499984997172426e+01	 1.052291270835321e+01
0	 4.499991084612203e+01	 1.571415215828766e+01	 1.048367263602380e+01
0	 4.499991084612203e+01	 1.642845401151722e+01	 1.044633090093346e+01
0	 4.499991084612203e+01	 1.714275536474550e+01	 1.041105470594906e+01
0	 4.499991084612203e+01	 1.785705605130509e+01	 1.037801125944045e+01
0	 4.499991084612203e+01	 1.857135590452858e+01	 1.034736777528047e+01
0	 4.499991084612202e+01	 1.928565475774854e+01	 1.031929147284486e+01
0	 4.499991084612203e+01	 1.999995244429754e+01	 1.029394957701240e+01
0	 4.499991084612202e+01	 2.071424879750816e+01	 1.027150931816480e+01
0	 4.499991084612203e+01	 2.142854365071297e+01	 1.025213793218684e+01
0	 4.571421671338500e+01	 1.428554761849444e+01	 1.062235250812034e+01
0	 4.571421671338501e+01	 1.499984997172427e+01	 1.056862012494939e+01
0	 4.571421671338501e+01	 1.571415215828766e+01	 1.051878519817452e+01
0	 4.571421671338500e+01	 1.642845401151722e+01	 1.047291621353851e+01
0	 4.571421671338501e+01	 1.714275536474550e+01	 1.043108166464310e+01
0	 4.571421671338499e+01	 1.785705605130509e+01	 1.039335005294881e+01
0	 4.571421671338500e+01	 1.857135590452858e+01	 1.035978988777502e+01
0	 4.571421671338501e+01	 1.928565475774853e+01	 1.033046968629991e+01
0	 4.571421671338501e+01	 1.999995244429753e+01	 1.030545797356056e+01
0	 4.571421671338501e+01	 2.071424879750816e+01	 1.028482328245291e+01
0	 4.571421671338499e+01	 2.142854365071296e+01	 1.026863415373190e+01
0	 4.642852108065614e+01	 1.428554761849444e+01	 1.067164562365017e+01
0	 4.642852108065613e+01	 1.499984997172426e+01	 1.060827378514704e+01
0	 4.642852108065614e+01	 1.571415215828766e+01	 1.055064469222388e+01
0	 4.642852108065613e+01	 1.642845401151721e+01	 1.049867658739541e+01
0	 4.642852108065613e+01	 1.714275536474550e+01	 1.045228772238330e+01
0	 4.642852108065613e+01	 1.785705605130510e+01	 1.041139635811619e+01
0	 4.642852108065612e+01	 1.857135590452858e+01	 1.037592076472968e+01
0	 4.642852108065613e+01	 1.928565475774854e+01	 1.034577922156629e+01
0	 4.642852108065614e+01	 1.999995244429753e+01	 1.032089001717551e+01
0	 4.642852108065613e+01	 2.071424879750815e+01	 1.030117144931391e+01
0	 4.642852108065614e+01	 2.142854365071297e+01	 1.028654182494520e+01
0	 4.714282336458874e+01	 1.428554761849444e+01	 1.070782621584487e+01
0	 4.714282336458874e+01	 1.499984997172426e+01	 1.064002098856071e+01
0	 4.714282336458875e+01	 1.571415215828767e+01	 1.057914498079911e+01
0	 4.714282336458874e+01	 1.642845401151722e+01	 1.052491466035157e+01
0	 4.714282336458874e+01	 1.714275536474550e+01	 1.047704650408404e+01
0	 4.714282336458875e+01	 1.785705605130510e+01	 1.043525699793691e+01
0	 4.714282336458874e+01	 1.857135590452858e+01	 1.039926263692499e+01
0	 4.714282336458874e+01	 1.928565475774854e+01	 1.036877992513746e+01
0	 4.714282336458876e+01	 1.999995244429754e+01	 1.034352537573792e+01
0	 4.714282336458875e+01	 2.071424879750815e+01	 1.032321551096452e+01
0	 4.714282336458875e+01	 2.142854365071297e+01	 1.030756686212998e+01
0	 4.785712298183613e+01	 1.428554761849445e+01	 1.072695723749587e+01
0	 4.785712298183613e+01	 1.499984997172426e+01	 1.066200903271775e+01
0	 4.785712298183613e+01	 1.571415215828766e+01	 1.060417992021322e+01
0	 4.785712298183613e+01	 1.642845401151721e+01	 1.055293306141499e+01
0	 4.785712298183612e+01	 1.714275536474550e+01	 1.050773162474420e+01
0	 4.785712298183613e+01	 1.785705605130510e+01	 1.046803878561032e+01
0	 4.785712298183612e+01	 1.857135590452858e+01	 1.043331772641114e+01
0	 4.785712298183613e+01	 1.928565475774854e+01	 1.040303163653279e+01
0	 4.785712298183613e+01	 1.999995244429753e+01	 1.037664371234963e+01
0	 4.785712298183613e+01	 2.071424879750816e+01	 1.035361715722443e+01
0	 4.785712298183611e+01	 2.142854365071296e+01	 1.033341518150830e+01
0	 4.857141934905161e+01	 1.428554761849444e+01	 1.072510164548852e+01
0	 4.857141934905160e+01	 1.499984997172426e+01	 1.067238521305797e+01
0	 4.857141934905160e+01	 1.571415215828766e+01	 1.062564336046456e+01
0	 4.857141934905160e+01	 1.642845401151722e+01	 1.058403441075363e+01
0	 4.857141934905161e+01	 1.714275536474550e+01	 1.054671668944643e+01
0	 4.857141934905160e+01	 1.785705605130510e+01	 1.051284852454006e+01
0	 4.857141934905161e+01	 1.857135590452859e+01	 1.048158824650741e+01
0	 4.857141934905159e+01	 1.928565475774854e+01	 1.045209418829708e+01
0	 4.857141934905160e+01	 1.999995244429754e+01	 1.042352468533334e+01
0	 4.857141934905160e+01	 2.071424879750816e+01	 1.039503807551612e+01
0	 4.857141934905160e+01	 2.142854365071296e+01	 1.036579269922095e+01
0	 4.928571188288846e+01	 1.428554761849444e+01	 1.069832240080195e+01
0	 4.928571188288846e+01	 1.499984997172426e+01	 1.066929682293316e+01
0	 4.928571188288846e+01	 1.571415215828766e+01	 1.064342914523612e+01
0	 4.928571188288846e+01	 1.642845401151722e+01	 1.061952131969460e+01
0	 4.928571188288846e+01	 1.714275536474550e+01	 1.059637529335644e+01
0	 4.928571188288846e+01	 1.785705605130510e+01	 1.057279300833350e+01
0	 4.928571188288846e+01	 1.857135590452858e+01	 1.054757640180151e+01
0	 4.928571188288846e+01	 1.928565475774854e+01	 1.051952740600001e+01
0	 4.928571188288846e+01	 1.999995244429753e+01	 1.048744794823216e+01
0	 4.928571188288846e+01	 2.071424879750816e+01	 1.045013995086461e+01
0	 4.928571188288846e+01	 2.142854365071296e+01	 1.040640533132733e+01
0	 5.000000000000000e+01	 1.428554761849444e+01	 1.064268246850909e+01
0	 5.000000000000000e+01	 1.499984997172426e+01	 1.065089115360673e+01
0	 5.000000000000001e+01	 1.571415215828766e+01	 1.065743111189486e+01
0	 5.000000000000000e+01	 1.642845401151722e+01	 1.066069639072335e+01
0	 4.999999999999999e+01	 1.714275536474550e+01	 1.065908102172202e+01
0	 5.000000000000000e+01	 1.785705605130510e+01	 1.065097902080067e+01
0	 5.000000000000000e+01	 1.857135590452858e+01	 1.063478438814881e+01
0	 5.000000000000000e+01	 1.928565475774854e+01	 1.060889110823552e+01
0	 5.000000000000000e+01	 1.999995244429753e+01	 1.057169314980918e+01
0	 5.000000000000000e+01	 2.071424879750816e+01	 1.052158446589714e+01
0	 5.000000000000001e+01	 2.142854365071296e+01	 1.045695899380531e+01
0	 4.285699007784908e+01	 2.142854365071297e+01	 1.019405880131360e+01
0	 4.285699007784907e+01	 2.214283692057824e+01	 1.016557265421646e+01
0	 4.285699007784908e+01	 2.285712885710493e+01	 1.014022285664180e+01
0	 4.285699007784908e+01	 2.357141979362770e+01	 1.011791127210356e+01
0	 4.285699007784908e+01	 2.428571006348117e+01	 1.009853975542262e+01
0	 4.285699007784908e+01	 2.500000000000001e+01	 1.008201015272654e+01
0	 4.285699007784907e+01	 2.571428993651883e+01	 1.006822430144931e+01
0	 4.285699007784907e+01	 2.642858020637231e+01	 1.005708403033124e+01
0	 4.285699007784906e+01	 2.714287114289507e+01	 1.004849115941882e+01
0	 4.285699007784908e+01	 2.785716307942178e+01	 1.004234750006470e+01
0	 4.285699007784907e+01	 2.857145634928704e+01	 1.003855485492770e+01
0	 4.357129694500737e+01	 2.142854365071296e+01	 1.021655617248334e+01
0	 4.357129694500738e+01	 2.214283692057823e+01	 1.019069665633986e+01
0	 4.357129694500736e+01	 2.285712885710494e+01	 1.016704994784376e+01
0	 4.357129694500738e+01	 2.357141979362770e+01	 1.014558084542983e+01
0	 4.357129694500736e+01	 2.428571006348117e+01	 1.012625414101443e+01
0	 4.357129694500736e+01	 2.500000000000000e+01	 1.010903461999520e+01
0	 4.357129694500737e+01	 2.571428993651884e+01	 1.009388706125089e+01
0	 4.357129694500738e+01	 2.642858020637232e+01	 1.008077623714122e+01
0	 4.357129694500738e+01	 2.714287114289508e+01	 1.006966691350675e+01
0	 4.357129694500737e+01	 2.785716307942177e+01	 1.006052384966883e+01
0	 4.357129694500737e+01	 2.857145634928704e+01	 1.005331179842960e+01
0	 4.428560406221392e+01	 2.142854365071295e+01	 1.023534724392573e+01
0	 4.428560406221392e+01	 2.214283692057824e+01	 1.021338493014173e+01
0	 4.428560406221392e+01	 2.285712885710494e+01	 1.019251982968433e+01
0	 4.428560406221391e+01	 2.357141979362770e+01	 1.017278225712480e+01
0	 4.428560406221393e+01	 2.428571006348117e+01	 1.015420252305358e+01
0	 4.428560406221393e+01	 2.500000000000000e+01	 1.013681093407999e+01
0	 4.428560406221393e+01	 2.571428993651883e+01	 1.012063779283213e+01
0	 4.428560406221391e+01	 2.642858020637231e+01	 1.010571339795671e+01
0	 4.428560406221393e+01	 2.714287114289509e+01	 1.009206804411897e+01
0	 4.428560406221392e+01	 2.785716307942177e+01	 1.007973202200258e+01
0	 4.428560406221392e+01	 2.857145634928704e+01	 1.006873561830951e+01
0	 4.499991084612203e+01	 2.142854365071297e+01	 1.025213793218684e+01
0	 4.499991084612205e+01	 2.214283692057824e+01	 1.023429955468956e+01
0	 4.499991084612203e+01	 2.285712885710494e+01	 1.021641243811687e+01
0	 4.499991084612202e+01	 2.357141979362770e+01	 1.019857499658043e+01
0	 4.499991084612203e+01	 2.428571006348118e+01	 1.018088564265889e+01
0	 4.499991084612203e+01	 2.500000000000001e+01	 1.016344278739763e+01
0	 4.499991084612203e+01	 2.571428993651883e+01	 1.014634484030875e+01
0	 4.499991084612202e+01	 2.642858020637232e+01	 1.012969020937084e+01
0	 4.499991084612203e+01	 2.714287114289507e+01	 1.011357730102891e+01
0	 4.499991084612203e+01	 2.785716307942177e+01	 1.009810452019427e+01
0	 4.499991084612203e+01	 2.857145634928704e+01	 1.008337027024441e+01
0	 4.571421671338499e+01	 2.142854365071296e+01	 1.026863415373190e+01
0	 4.571421671338499e+01	 2.214283692057824e+01	 1.025410261101141e+01
0	 4.571421671338501e+01	 2.285712885710495e+01	 1.023850771279087e+01
0	 4.571421671338499e+01	 2.357141979362770e+01	 1.022201855832717e+01
0	 4.571421671338500e+01	 2.428571006348117e+01	 1.020480424724951e+01
0	 4.571421671338499e+01	 2.500000000000000e+01	 1.018703387955920e+01
0	 4.571421671338499e+01	 2.571428993651883e+01	 1.016887655562965e+01
0	 4.571421671338498e+01	 2.642858020637231e+01	 1.015050137620613e+01
0	 4.571421671338500e+01	 2.714287114289507e+01	 1.013207744240574e+01
0	 4.571421671338499e+01	 2.785716307942177e+01	 1.011377385571721e+01
0	 4.571421671338499e+01	 2.857145634928703e+01	 1.009575971800079e+01
0	 4.642852108065614e+01	 2.142854365071297e+01	 1.028654182494520e+01
0	 4.642852108065613e+01	 2.214283692057824e+01	 1.027345618209580e+01
0	 4.642852108065615e+01	 2.285712885710494e+01	 1.025858559705182e+01
0	 4.642852108065614e+01	 2.357141979362770e+01	 1.024217244203385e+01
0	 4.642852108065613e+01	 2.428571006348117e+01	 1.022445909054484e+01
0	 4.642852108065612e+01	 2.500000000000001e+01	 1.020568791737001e+01
0	 4.642852108065613e+01	 2.571428993651884e+01	 1.018610129857674e+01
0	 4.642852108065613e+01	 2.642858020637231e+01	 1.016594161151442e+01
0	 4.642852108065613e+01	 2.714287114289507e+01	 1.014545123481433e+01
0	 4.642852108065613e+01	 2.785716307942177e+01	 1.012487254838950e+01
0	 4.642852108065615e+01	 2.857145634928704e+01	 1.010444793343456e+01
0	 4.714282336458875e+01	 2.142854365071297e+01	 1.030756686212998e+01
0	 4.714282336458875e+01	 2.214283692057824e+01	 1.029302235289159e+01
0	 4.714282336458875e+01	 2.285712885710494e+01	 1.027642603794116e+01
0	 4.714282336458875e+01	 2.357141979362770e+01	 1.025809615250766e+01
0	 4.714282336458876e+01	 2.428571006348117e+01	 1.023835093256453e+01
0	 4.714282336458874e+01	 2.500000000000000e+01	 1.021750861482962e+01
0	 4.714282336458874e+01	 2.571428993651883e+01	 1.019588743676498e+01
0	 4.714282336458874e+01	 2.642858020637231e+01	 1.017380563657680e+01
0	 4.714282336458874e+01	 2.714287114289508e+01	 1.015158145321518e+01
0	 4.714282336458874e+01	 2.785716307942177e+01	 1.012953312637405e+01
0	 4.714282336458875e+01	 2.857145634928704e+01	 1.010797889649096e+01
0	 4.785712298183611e+01	 2.142854365071296e+01	 1.033341518150830e+01
0	 4.785712298183613e+01	 2.214283692057824e+01	 1.031346321030802e+01
0	 4.785712298183612e+01	 2.285712885710493e+01	 1.029180898619632e+01
0	 4.785712298183613e+01	 2.357141979362770e+01	 1.026884919969420e+01
0	 4.785712298183613e+01	 2.428571006348118e+01	 1.024498053962851e+01
0	 4.785712298183613e+01	 2.500000000000000e+01	 1.022059969313187e+01
0	 4.785712298183613e+01	 2.571428993651884e+01	 1.019610334564246e+01
0	 4.785712298183613e+01	 2.642858020637231e+01	 1.017188818090375e+01
0	 4.785712298183613e+01	 2.714287114289508e+01	 1.014835088096453e+01
0	 4.785712298183613e+01	 2.785716307942177e+01	 1.012588812617857e+01
0	 4.785712298183612e+01	 2.857145634928704e+01	 1.010489659520464e+01
0	 4.857141934905160e+01	 2.142854365071296e+01	 1.036579269922095e+01
0	 4.857141934905160e+01	 2.214283692057824e+01	 1.033544084321459e+01
0	 4.857141934905160e+01	 2.285712885710494e+01	 1.030451439625072e+01
0	 4.857141934905161e+01	 2.357141979362770e+01	 1.027349109867755e+01
0	 4.857141934905159e+01	 2.428571006348117e+01	 1.024284868435715e+01
0	 4.857141934905160e+01	 2.500000000000001e+01	 1.021306488066514e+01
0	 4.857141934905160e+01	 2.571428993651883e+01	 1.018461740849053e+01
0	 4.857141934905160e+01	 2.642858020637231e+01	 1.015798398223533e+01
0	 4.857141934905160e+01	 2.714287114289507e+01	 1.013364230981452e+01
0	 4.857141934905159e+01	 2.785716307942177e+01	 1.011207009265588e+01
0	 4.857141934905160e+01	 2.857145634928703e+01	 1.009374502569987e+01
0	 4.928571188288846e+01	 2.142854365071296e+01	 1.040640533132733e+01
0	 4.928571188288846e+01	 2.214283692057824e+01	 1.035961734244116e+01
0	 4.928571188288846e+01	 2.285712885710494e+01	 1.031432222623392e+01
0	 4.928571188288846e+01	 2.357141979362770e+01	 1.027108136968051e+01
0	 4.928571188288846e+01	 2.428571006348118e+01	 1.023045614567148e+01
0	 4.928571188288845e+01	 2.500000000000000e+01	 1.019300791301251e+01
0	 4.928571188288846e+01	 2.571428993651884e+01	 1.015929801642415e+01
0	 4.928571188288845e+01	 2.642858020637231e+01	 1.012988778654139e+01
0	 4.928571188288846e+01	 2.714287114289507e+01	 1.010533853991349e+01
0	 4.928571188288845e+01	 2.785716307942177e+01	 1.008621157900404e+01
0	 4.928571188288845e+01	 2.857145634928704e+01	 1.007306819219074e+01
0	 5.000000000000001e+01	 2.142854365071296e+01	 1.045695899380531e+01
0	 5.000000000000000e+01	 2.214283692057824e+01	 1.038665480077787e+01
0	 5.000000000000000e+01	 2.285712885710494e+01	 1.032101243797170e+01
0	 5.000000000000000e+01	 2.357141979362770e+01	 1.026067953806473e+01
0	 5.000000000000000e+01	 2.428571006348117e+01	 1.020630370879347e+01
0	 5.000000000000001e+01	 2.500000000000001e+01	 1.015853253295216e+01
0	 5.000000000000001e+01	 2.571428993651884e+01	 1.011801356839225e+01
0	 4.999999999999999e+01	 2.642858020637231e+01	 1.008539434802203e+01
0	 5.000000000000000e+01	 2.714287114289507e+01	 1.006132237980640e+01
0	 4.999999999999999e+01	 2.785716307942177e+01	 1.004644514676682e+01
0	 5.000000000000000e+01	 2.857145634928704e+01	 1.004141010698150e+01
0	 4.285699007784907e+01	 2.857145634928704e+01	 1.003855485492770e+01
0	 4.285699007784908e+01	 2.928575120249185e+01	 1.003566111151845e+01
0	 4.285699007784908e+01	 3.000004755570248e+01	 1.003234795745906e+01
0	 4.285699007784908e+01	 3.071434524225148e+01	 1.002871788940206e+01
0	 4.285699007784907e+01	 3.142864409547143e+01	 1.002487340446224e+01
0	 4.285699007784908e+01	 3.214294394869492e+01	 1.002091700021673e+01
0	 4.285699007784908e+01	 3.285724463525452e+01	 1.001695117470496e+01
0	 4.285699007784908e+01	 3.357154598848280e+01	 1.001307842642863e+01
0	 4.285699007784908e+01	 3.428584784171235e+01	 1.000940125435171e+01
0	 4.285699007784908e+01	 3.500015002827575e+01	 1.000602215790044e+01
0	 4.285699007784907e+01	 3.571445238150555e+01	 1.000304363696334e+01
0	 4.357129694500737e+01	 2.857145634928704e+01	 1.005331179842960e+01
0	 4.357129694500737e+01	 2.928575120249186e+01	 1.004718185155675e+01
0	 4.357129694500736e+01	 3.000004755570248e+01	 1.004132717543693e+01
0	 4.357129694500738e+01	 3.071434524225148e+01	 1.003577563062526e+01
0	 4.357129694500738e+01	 3.142864409547142e+01	 1.003055507862882e+01
0	 4.357129694500737e+01	 3.214294394869492e+01	 1.002569338190660e+01
0	 4.357129694500736e+01	 3.285724463525452e+01	 1.002121840386950e+01
0	 4.357129694500738e+01	 3.357154598848280e+01	 1.001715800888029e+01
0	 4.357129694500738e+01	 3.428584784171235e+01	 1.001354006225361e+01
0	 4.357129694500737e+01	 3.500015002827575e+01	 1.001039243025593e+01
0	 4.357129694500737e+01	 3.571445238150555e+01	 1.000774298010558e+01
0	 4.428560406221392e+01	 2.857145634928704e+01	 1.006873561830951e+01
0	 4.428560406221392e+01	 2.928575120249186e+01	 1.005892925092475e+01
0	 4.428560406221392e+01	 3.000004755570248e+01	 1.005011729176266e+01
0	 4.428560406221393e+01	 3.071434524225148e+01	 1.004226095672276e+01
0	 4.428560406221393e+01	 3.142864409547143e+01	 1.003532146322403e+01
0	 4.428560406221393e+01	 3.214294394869492e+01	 1.002926003020491e+01
0	 4.428560406221393e+01	 3.285724463525452e+01	 1.002403787812318e+01
0	 4.428560406221391e+01	 3.357154598848280e+01	 1.001961622895597e+01
0	 4.428560406221391e+01	 3.428584784171233e+01	 1.001595630619980e+01
0	 4.428560406221391e+01	 3.500015002827573e+01	 1.001301933487045e+01
0	 4.428560406221392e+01	 3.571445238150557e+01	 1.001076654150298e+01
0	 4.499991084612203e+01	 2.857145634928704e+01	 1.008337027024441e+01
0	 4.499991084612202e+01	 2.928575120249186e+01	 1.006990801437797e+01
0	 4.499991084612203e+01	 3.000004755570247e+01	 1.005812065538900e+01
0	 4.499991084612202e+01	 3.071434524225147e+01	 1.004791075645514e+01
0	 4.499991084612203e+01	 3.142864409547143e+01	 1.003918088283055e+01
0	 4.499991084612203e+01	 3.214294394869492e+01	 1.003183360184584e+01
0	 4.499991084612202e+01	 3.285724463525451e+01	 1.002577148290807e+01
0	 4.499991084612203e+01	 3.357154598848279e+01	 1.002089709750063e+01
0	 4.499991084612203e+01	 3.428584784171236e+01	 1.001711301918325e+01
0	 4.499991084612203e+01	 3.500015002827575e+01	 1.001432182359197e+01
0	 4.499991084612202e+01	 3.571445238150555e+01	 1.001242608843913e+01
0	 4.571421671338499e+01	 2.857145634928703e+01	 1.009575971800079e+01
0	 4.571421671338500e+01	 2.928575120249186e+01	 1.007912285431855e+01
0	 4.571421671338499e+01	 3.000004755570248e+01	 1.006473962231963e+01
0	 4.571421671338501e+01	 3.071434524225148e+01	 1.005246192492466e+01
0	 4.571421671338500e+01	 3.142864409547143e+01	 1.004214166758896e+01
0	 4.571421671338500e+01	 3.214294394869492e+01	 1.003363075830259e+01
0	 4.571421671338500e+01	 3.285724463525451e+01	 1.002678110759021e+01
0	 4.571421671338500e+01	 3.357154598848280e+01	 1.002144462851107e+01
0	 4.571421671338501e+01	 3.428584784171235e+01	 1.001747323665892e+01
0	 4.571421671338499e+01	 3.500015002827575e+01	 1.001471885016204e+01
0	 4.571421671338501e+01	 3.571445238150556e+01	 1.001303338968319e+01
0	 4.642852108065615e+01	 2.857145634928704e+01	 1.010444793343456e+01
0	 4.642852108065613e+01	 2.928575120249186e+01	 1.008557849079510e+01
0	 4.642852108065615e+01	 3.000004755570247e+01	 1.006937655560907e+01
0	 4.642852108065613e+01	 3.071434524225148e+01	 1.005565136357515e+01
0	 4.642852108065613e+01	 3.142864409547142e+01	 1.004421215319779e+01
0	 4.642852108065613e+01	 3.214294394869492e+01	 1.003486816578725e+01
0	 4.642852108065615e+01	 3.285724463525451e+01	 1.002742864545944e+01
0	 4.642852108065613e+01	 3.357154598848279e+01	 1.002170283913590e+01
0	 4.642852108065613e+01	 3.428584784171234e+01	 1.001749999654374e+01
0	 4.642852108065613e+01	 3.500015002827575e+01	 1.001462937021565e+01
0	 4.642852108065613e+01	 3.571445238150556e+01	 1.001290021548977e+01
0	 4.714282336458875e+01	 2.857145634928704e+01	 1.010797889649096e+01
0	 4.714282336458874e+01	 2.928575120249186e+01	 1.008827965150267e+01
0	 4.714282336458875e+01	 3.000004755570247e+01	 1.007143382536258e+01
0	 4.714282336458874e+01	 3.071434524225147e+01	 1.005721598019193e+01
0	 4.714282336458874e+01	 3.142864409547143e+01	 1.004540068091335e+01
0	 4.714282336458875e+01	 3.214294394869491e+01	 1.003576249525078e+01
0	 4.714282336458875e+01	 3.285724463525452e+01	 1.002807599372938e+01
0	 4.714282336458874e+01	 3.357154598848280e+01	 1.002211574967548e+01
0	 4.714282336458875e+01	 3.428584784171235e+01	 1.001765633921659e+01
0	 4.714282336458875e+01	 3.500015002827575e+01	 1.001447234128126e+01
0	 4.714282336458874e+01	 3.571445238150555e+01	 1.001233833759910e+01
0	 4.785712298183612e+01	 2.857145634928704e+01	 1.010489659520464e+01
0	 4.785712298183613e+01	 2.928575120249186e+01	 1.008623107178280e+01
0	 4.785712298183612e+01	 3.000004755570247e+01	 1.007031380873623e+01
0	 4.785712298183613e+01	 3.071434524225147e+01	 1.005689268890191e+01
0	 4.785712298183613e+01	 3.142864409547143e+01	 1.004571559754983e+01
0	 4.785712298183613e+01	 3.214294394869492e+01	 1.003653042238303e+01
0	 4.785712298183613e+01	 3.285724463525451e+01	 1.002908505353747e+01
0	 4.785712298183613e+01	 3.357154598848280e+01	 1.002312738358198e+01
0	 4.785712298183613e+01	 3.428584784171235e+01	 1.001840530751827e+01
0	 4.785712298183613e+01	 3.500015002827575e+01	 1.001466672278081e+01
0	 4.785712298183613e+01	 3.571445238150555e+01	 1.001165952923687e+01
0	 4.857141934905160e+01	 2.857145634928703e+01	 1.009374502569987e+01
0	 4.857141934905160e+01	 2.928575120249186e+01	 1.007843749462365e+01
0	 4.857141934905160e+01	 3.000004755570247e+01	 1.006541888993707e+01
0	 4.857141934905160e+01	 3.071434524225148e+01	 1.005441841017363e+01
0	 4.857141934905161e+01	 3.142864409547143e+01	 1.004516525547936e+01
0	 4.857141934905160e+01	 3.214294394869491e+01	 1.003738862761284e+01
0	 4.857141934905160e+01	 3.285724463525450e+01	 1.003081772994505e+01
0	 4.857141934905161e+01	 3.357154598848280e+01	 1.002518176745936e+01
0	 4.857141934905160e+01	 3.428584784171235e+01	 1.002020994675156e+01
0	 4.857141934905160e+01	 3.500015002827575e+01	 1.001563147602974e+01
0	 4.857141934905160e+01	 3.571445238150555e+01	 1.001117556511431e+01
0	 4.928571188288845e+01	 2.857145634928704e+01	 1.007306819219074e+01
0	 4.928571188288846e+01	 2.928575120249186e+01	 1.006390367066029e+01
0	 4.928571188288846e+01	 3.000004755570248e+01	 1.005615146022328e+01
0	 4.928571188288846e+01	 3.071434524225147e+01	 1.004953007081750e+01
0	 4.928571188288846e+01	 3.142864409547142e+01	 1.004375801263221e+01
0	 4.928571188288846e+01	 3.214294394869491e+01	 1.003855379610814e+01
0	 4.928571188288845e+01	 3.285724463525451e+01	 1.003363593193741e+01
0	 4.928571188288846e+01	 3.357154598848280e+01	 1.002872293106351e+01
0	 4.928571188288846e+01	 3.428584784171235e+01	 1.002353330468132e+01
0	 4.928571188288846e+01	 3.500015002827575e+01	 1.001778556423706e+01
0	 4.928571188288846e+01	 3.571445238150555e+01	 1.001119822142829e+01
0	 5.000000000000000e+01	 2.857145634928704e+01	 1.004141010698150e+01
0	 5.000000000000000e+01	 2.928575120249186e+01	 1.004163435817500e+01
0	 4.999999999999999e+01	 3.000004755570248e+01	 1.004191391790451e+01
0	 5.000000000000000e+01	 3.071434524225148e+01	 1.004196460398605e+01
0	 4.999999999999999e+01	 3.142864409547142e+01	 1.004150223249696e+01
0	 5.000000000000000e+01	 3.214294394869492e+01	 1.004024261777617e+01
0	 4.999999999999999e+01	 3.285724463525451e+01	 1.003790157242402e+01
0	 5.000000000000000e+01	 3.357154598848280e+01	 1.003419490730236e+01
0	 4.999999999999999e+01	 3.428584784171235e+01	 1.002883843153454e+01
0	 5.000000000000001e+01	 3.500015002827575e+01	 1.002154795250541e+01
0	 5.000000000000000e+01	 3.571445238150555e+01	 1.001203927586129e+01
0	 4.285699007784907e+01	 3.571445238150555e+01	 1.000304363696334e+01
0	 4.285699007784907e+01	 3.642870477623359e+01	 1.000053153298622e+01
0	 4.285699007784907e+01	 3.714295725428857e+01	 9.998466060202201e+00
0	 4.285699007784908e+01	 3.785720989899839e+01	 9.996821854112870e+00
0	 4.285699007784907e+01	 3.857146279369100e+01	 9.995573550010397e+00
0	 4.285699007784906e+01	 3.928571602169431e+01	 9.994695782977594e+00
0	 4.285699007784908e+01	 3.999996966633628e+01	 9.994163187887862e+00
0	 4.285699007784908e+01	 4.071422381094481e+01	 9.993950399405248e+00
0	 4.285699007784908e+01	 4.142847853884783e+01	 9.994032051984362e+00
0	 4.285699007784908e+01	 4.214273393337328e+01	 9.994382779870485e+00
0	 4.285699007784907e+01	 4.285699007784908e+01	 9.994977217099462e+00
0	 4.357129694500737e+01	 3.571445238150555e+01	 1.000774298010558e+01
0	 4.357129694500738e+01	 3.642870477623360e+01	 1.000541706111677e+01
0	 4.357129694500738e+01	 3.714295725428858e+01	 1.000324205370664e+01
0	 4.357129694500737e+01	 3.785720989899841e+01	 1.000124937443292e+01
0	 4.357129694500735e+01	 3.857146279369100e+01	 9.999470439662046e+00
0	 4.357129694500737e+01	 3.928571602169432e+01	 9.997936665569117e+00
0	 4.357129694500738e+01	 3.999996966633629e+01	 9.996679468137918e+00
0	 4.357129694500738e+01	 4.071422381094482e+01	 9.995730263160945e+00
0	 4.357129694500736e+01	 4.142847853884783e+01	 9.995120466239367e+00
0	 4.357129694500737e+01	 4.214273393337327e+01	 9.994881492783035e+00
0	 4.357129694500737e+01	 4.285699007784908e+01	 9.995044758010485e+00
0	 4.428560406221392e+01	 3.571445238150557e+01	 1.001076654150298e+01
0	 4.428560406221392e+01	 3.642870477623360e+01	 1.000875965547849e+01
0	 4.428560406221393e+01	 3.714295725428858e+01	 1.000663959977988e+01
0	 4.428560406221393e+01	 3.785720989899841e+01	 1.000448679630910e+01
0	 4.428560406221391e+01	 3.857146279369100e+01	 1.000238166679582e+01
0	 4.428560406221392e+01	 3.928571602169433e+01	 1.000040463279737e+01
0	 4.428560406221393e+01	 3.999996966633628e+01	 9.998636115698782e+00
0	 4.428560406221392e+01	 4.071422381094482e+01	 9.997156536712801e+00
0	 4.428560406221393e+01	 4.142847853884784e+01	 9.996046316879854e+00
0	 4.428560406221391e+01	 4.214273393337326e+01	 9.995385877068047e+00
0	 4.428560406221392e+01	 4.285699007784908e+01	 9.995255637973194e+00
0	 4.499991084612202e+01	 3.571445238150555e+01	 1.001242608843913e+01
0	 4.499991084612204e+01	 3.642870477623361e+01	 1.001074119300331e+01
0	 4.499991084612202e+01	 3.714295725428855e+01	 1.000872835765824e+01
0	 4.499991084612204e+01	 3.785720989899841e+01	 1.000650923408685e+01
0	 4.499991084612203e+01	 3.857146279369100e+01	 1.000420547380735e+01
0	 4.499991084612202e+01	 3.928571602169433e+01	 1.000193872817323e+01
0	 4.499991084612203e+01	 3.999996966633629e+01	 9.999830648373194e+00
0	 4.499991084612203e+01	 4.071422381094482e+01	 9.998002885431251e+00
0	 4.499991084612203e+01	 4.142847853884783e+01	 9.996577090206644e+00
0	 4.499991084612203e+01	 4.214273393337327e+01	 9.995674913393868e+00
0	 4.499991084612203e+01	 4.285699007784908e+01	 9.995418005522742e+00
0	 4.571421671338501e+01	 3.571445238150556e+01	 1.001303338968319e+01
0	 4.571421671338500e+01	 3.642870477623360e+01	 1.001154355188755e+01
0	 4.571421671338499e+01	 3.714295725428857e+01	 1.000957798778281e+01
0	 4.571421671338501e+01	 3.785720989899840e+01	 1.000729180338023e+01
0	 4.571421671338499e+01	 3.857146279369100e+01	 1.000484010451015e+01
0	 4.571421671338500e+01	 3.928571602169433e+01	 1.000237799682188e+01
0	 4.571421671338499e+01	 3.999996966633628e+01	 1.000006058578381e+01
0	 4.571421671338499e+01	 4.071422381094482e+01	 9.998042976683282e+00
0	 4.571421671338499e+01	 4.142847853884783e+01	 9.996480274626718e+00
0	 4.571421671338499e+01	 4.214273393337327e+01	 9.995527584539538e+00
0	 4.571421671338501e+01	 4.285699007784908e+01	 9.995340011166160e+00
0	 4.642852108065613e+01	 3.571445238150556e+01	 1.001290021548977e+01
0	 4.642852108065615e+01	 3.642870477623359e+01	 1.001134861159191e+01
0	 4.642852108065614e+01	 3.714295725428858e+01	 1.000925815179946e+01
0	 4.642852108065614e+01	 3.785720989899841e+01	 1.000680962107196e+01
0	 4.642852108065615e+01	 3.857146279369100e+01	 1.000418380413550e+01
0	 4.642852108065613e+01	 3.928571602169432e+01	 1.000156148548281e+01
0	 4.642852108065615e+01	 3.999996966633629e+01	 9.999123449373172e+00
0	 4.642852108065613e+01	 4.071422381094482e+01	 9.997050479832513e+00
0	 4.642852108065613e+01	 4.142847853884783e+01	 9.995523360653321e+00
0	 4.642852108065613e+01	 4.214273393337327e+01	 9.994722875394707e+00
0	 4.642852108065613e+01	 4.285699007784907e+01	 9.994829807382409e+00
0	 4.714282336458874e+01	 3.571445238150555e+01	 1.001233833759911e+01
0	 4.714282336458876e+01	 3.642870477623361e+01	 1.001033825284144e+01
0	 4.714282336458874e+01	 3.714295725428858e+01	 1.000783851255887e+01
0	 4.714282336458875e+01	 3.785720989899841e+01	 1.000503780531339e+01
0	 4.714282336458874e+01	 3.857146279369099e+01	 1.000213481933261e+01
0	 4.714282336458874e+01	 3.928571602169432e+01	 9.999328242509787e+00
0	 4.714282336458874e+01	 3.999996966633628e+01	 9.996816762403785e+00
0	 4.714282336458876e+01	 4.071422381094482e+01	 9.994799066239072e+00
0	 4.714282336458874e+01	 4.142847853884784e+01	 9.993473840905828e+00
0	 4.714282336458874e+01	 4.214273393337327e+01	 9.993039772959772e+00
0	 4.714282336458875e+01	 4.285699007784908e+01	 9.993695548622325e+00
0	 4.785712298183613e+01	 3.571445238150555e+01	 1.001165952923686e+01
0	 4.785712298183611e+01	 3.642870477623359e+01	 1.000869435762561e+01
0	 4.785712298183613e+01	 3.714295725428857e+01	 1.000538873411648e+01
0	 4.785712298183612e+01	 3.785720989899840e+01	 1.000195147552453e+01
0	 4.785712298183613e+01	 3.857146279369100e+01	 9.998591398168507e+00
0	 4.785712298183613e+01	 3.928571602169433e+01	 9.995517317870920e+00
0	 4.785712298183613e+01	 3.999996966633628e+01	 9.992938049958029e+00
0	 4.785712298183613e+01	 4.071422381094481e+01	 9.991062409259781e+00
0	 4.785712298183612e+01	 4.142847853884783e+01	 9.990099210109893e+00
0	 4.785712298183613e+01	 4.214273393337328e+01	 9.990257266345790e+00
0	 4.785712298183613e+01	 4.285699007784907e+01	 9.991745391308699e+00
0	 4.857141934905160e+01	 3.571445238150555e+01	 1.001117556511430e+01
0	 4.857141934905159e+01	 3.642870477623359e+01	 1.000659880919827e+01
0	 4.857141934905160e+01	 3.714295725428857e+01	 1.000197848173255e+01
0	 4.857141934905160e+01	 3.785720989899839e+01	 9.997525752394028e+00
0	 4.857141934905159e+01	 3.857146279369100e+01	 9.993451790128113e+00
0	 4.857141934905158e+01	 3.928571602169432e+01	 9.989967763148712e+00
0	 4.857141934905160e+01	 3.999996966633628e+01	 9.987284838938367e+00
0	 4.857141934905160e+01	 4.071422381094482e+01	 9.985614184248073e+00
0	 4.857141934905160e+01	 4.142847853884783e+01	 9.985166965097442e+00
0	 4.857141934905161e+01	 4.214273393337328e+01	 9.986154346774619e+00
0	 4.857141934905160e+01	 4.285699007784908e+01	 9.988787493836320e+00
0	 4.928571188288846e+01	 3.571445238150555e+01	 1.001119822142829e+01
0	 4.928571188288846e+01	 3.642870477623359e+01	 1.000423349207773e+01
0	 4.928571188288846e+01	 3.714295725428857e+01	 9.997677421872238e+00
0	 4.928571188288846e+01	 3.785720989899840e+01	 9.991735757879370e+00
0	 4.928571188288846e+01	 3.857146279369100e+01	 9.986614246114339e+00
0	 4.928571188288846e+01	 3.928571602169433e+01	 9.982518631540099e+00
0	 4.928571188288846e+01	 3.999996966633628e+01	 9.979654658067265e+00
0	 4.928571188288846e+01	 4.071422381094481e+01	 9.978228068554159e+00
0	 4.928571188288846e+01	 4.142847853884783e+01	 9.978444604806814e+00
0	 4.928571188288846e+01	 4.214273393337328e+01	 9.980510007578967e+00
0	 4.928571188288846e+01	 4.285699007784908e+01	 9.984630016572059e+00
0	 5.000000000000000e+01	 3.571445238150555e+01	 1.001203927586129e+01
0	 4.999999999999998e+01	 3.642870477623359e+01	 1.000178029204682e+01
0	 5.000000000000000e+01	 3.714295725428858e+01	 9.992555222205588e+00
0	 5.000000000000001e+01	 3.785720989899839e+01	 9.984556615206731e+00
0	 5.000000000000001e+01	 3.857146279369101e+01	 9.977977018448135e+00
0	 5.000000000000000e+01	 3.928571602169433e+01	 9.973008977856525e+00
0	 5.000000000000000e+01	 3.999996966633629e+01	 9.969845037887401e+00
0	 5.000000000000001e+01	 4.071422381094481e+01	 9.968677741525132e+00
0	 4.999999999999999e+01	 4.142847853884783e+01	 9.969699630282840e+00
0	 5.000000000000000e+01	 4.214273393337328e+01	 9.973103244202505e+00
0	 5.000000000000001e+01	 4.285699007784908e+01	 9.979081121854957e+00
0	 4.285699007784907e+01	 4.285699007784908e+01	 9.994977217099462e+00
0	 4.285699007784908e+01	 4.357129694500737e+01	 9.995652527050957e+00
0	 4.285699007784906e+01	 4.428560406221393e+01	 9.996298142956181e+00
0	 4.285699007784908e+01	 4.499991084612203e+01	 9.996967252116786e+00
0	 4.285699007784908e+01	 4.571421671338501e+01	 9.997713041824262e+00
0	 4.285699007784907e+01	 4.642852108065613e+01	 9.998588699359974e+00
0	 4.285699007784908e+01	 4.714282336458876e+01	 9.999647411995207e+00
0	 4.285699007784908e+01	 4.785712298183613e+01	 1.000094236699120e+01
0	 4.285699007784908e+01	 4.857141934905160e+01	 1.000252675159916e+01
0	 4.285699007784908e+01	 4.928571188288846e+01	 1.000445375306044e+01
0	 4.285699007784908e+01	 5.000000000000001e+01	 1.000677655860635e+01
0	 4.357129694500737e+01	 4.285699007784908e+01	 9.995044758010485e+00
0	 4.357129694500738e+01	 4.357129694500737e+01	 9.995504577586393e+00
0	 4.357129694500736e+01	 4.428560406221393e+01	 9.996119744303151e+00
0	 4.357129694500738e+01	 4.499991084612203e+01	 9.996868467712794e+00
0	 4.357129694500736e+01	 4.571421671338500e+01	 9.997728957449567e+00
0	 4.357129694500736e+01	 4.642852108065613e+01	 9.998679423229992e+00
0	 4.357129694500738e+01	 4.714282336458875e+01	 9.999698074852814e+00
0	 4.357129694500737e+01	 4.785712298183613e+01	 1.000076312219908e+01
0	 4.357129694500737e+01	 4.857141934905162e+01	 1.000185277523228e+01
0	 4.357129694500738e+01	 4.928571188288846e+01	 1.000294524399809e+01
0	 4.357129694500737e+01	 4.999999999999999e+01	 1.000401873862484e+01
0	 4.428560406221392e+01	 4.285699007784908e+01	 9.995255637973193e+00
0	 4.428560406221392e+01	 4.357129694500737e+01	 9.995580683316021e+00
0	 4.428560406221393e+01	 4.428560406221393e+01	 9.996175770854855e+00
0	 4.428560406221391e+01	 4.499991084612203e+01	 9.996955866130111e+00
0	 4.428560406221392e+01	 4.571421671338499e+01	 9.997835934635866e+00
0	 4.428560406221393e+01	 4.642852108065613e+01	 9.998730941820078e+00
0	 4.428560406221392e+01	 4.714282336458875e+01	 9.999555853084459e+00
0	 4.428560406221393e+01	 4.785712298183614e+01	 1.000022563378460e+01
0	 4.428560406221393e+01	 4.857141934905160e+01	 1.000065524922989e+01
0	 4.428560406221391e+01	 4.928571188288846e+01	 1.000075966468361e+01
0	 4.428560406221392e+01	 5.000000000000001e+01	 1.000045384536294e+01
0	 4.499991084612203e+01	 4.285699007784908e+01	 9.995418005522742e+00
0	 4.499991084612203e+01	 4.357129694500738e+01	 9.995730109219934e+00
0	 4.499991084612203e+01	 4.428560406221393e+01	 9.996362822298197e+00
0	 4.499991084612203e+01	 4.499991084612203e+01	 9.997179599988311e+00
0	 4.499991084612203e+01	 4.571421671338501e+01	 9.998043897156014e+00
0	 4.499991084612203e+01	 4.642852108065615e+01	 9.998819168302083e+00
0	 4.499991084612203e+01	 4.714282336458874e+01	 9.999368867562257e+00
0	 4.499991084612203e+01	 4.785712298183613e+01	 9.999556448707320e+00
0	 4.499991084612203e+01	 4.857141934905160e+01	 9.999245365143022e+00
0	 4.499991084612202e+01	 4.928571188288844e+01	 9.998299069910125e+00
0	 4.499991084612202e+01	 5.000000000000000e+01	 9.996581015684363e+00
0	 4.571421671338501e+01	 4.285699007784908e+01	 9.995340011166160e+00
0	 4.571421671338499e+01	 4.357129694500737e+01	 9.995802121945918e+00
0	 4.571421671338499e+01	 4.428560406221391e+01	 9.996577499559578e+00
0	 4.571421671338499e+01	 4.499991084612203e+01	 9.997489822652067e+00
0	 4.571421671338499e+01	 4.571421671338497e+01	 9.998362769024641e+00
0	 4.571421671338500e+01	 4.642852108065614e+01	 9.999020015634853e+00
0	 4.571421671338501e+01	 4.714282336458874e+01	 9.999285238596652e+00
0	 4.571421671338499e+01	 4.785712298183611e+01	 9.998982113180222e+00
0	 4.571421671338501e+01	 4.857141934905160e+01	 9.997934313812014e+00
0	 4.571421671338501e+01	 4.928571188288847e+01	 9.995965514074772e+00
0	 4.571421671338500e+01	 4.999999999999999e+01	 9.992899386707379e+00
0	 4.642852108065613e+01	 4.285699007784907e+01	 9.994829807382411e+00
0	 4.642852108065613e+01	 4.357129694500737e+01	 9.995645989809464e+00
0	 4.642852108065613e+01	 4.428560406221392e+01	 9.996716404805083e+00
0	 4.642852108065614e+01	 4.499991084612203e+01	 9.997836688231228e+00
0	 4.642852108065614e+01	 4.571421671338501e+01	 9.998802474498135e+00
0	 4.642852108065614e+01	 4.642852108065614e+01	 9.999409396564296e+00
0	 4.642852108065613e+01	 4.714282336458874e+01	 9.999453085936418e+00
0	 4.642852108065613e+01	 4.785712298183613e+01	 9.998729172669430e+00
0	 4.642852108065614e+01	 4.857141934905159e+01	 9.997033285366397e+00
0	 4.642852108065613e+01	 4.928571188288846e+01	 9.994161051178372e+00
0	 4.642852108065614e+01	 5.000000000000001e+01	 9.989908095804505e+00
0	 4.714282336458875e+01	 4.285699007784908e+01	 9.993695548622325e+00
0	 4.714282336458875e+01	 4.357129694500738e+01	 9.995110982793733e+00
0	 4.714282336458875e+01	 4.428560406221391e+01	 9.996676141440357e+00
0	 4.714282336458875e+01	 4.499991084612203e+01	 9.998170351580754e+00
0	 4.714282336458874e+01	 4.571421671338501e+01	 9.999372938074696e+00
0	 4.714282336458875e+01	 4.642852108065614e+01	 1.000006322362328e+01
0	 4.714282336458874e+01	 4.714282336458875e+01	 1.000002052876872e+01
0	 4.714282336458874e+01	 4.785712298183613e+01	 9.999024171894458e+00
0	 4.714282336458874e+01	 4.857141934905159e+01	 9.996853469224966e+00
0	 4.714282336458875e+01	 4.928571188288847e+01	 9.993287734825767e+00
0	 4.714282336458874e+01	 4.999999999999999e+01	 9.988106280603013e+00
0	 4.785712298183613e+01	 4.285699007784907e+01	 9.991745391308701e+00
0	 4.785712298183613e+01	 4.357129694500738e+01	 9.994046372549620e+00
0	 4.785712298183613e+01	 4.428560406221392e+01	 9.996353314110708e+00
0	 4.785712298183613e+01	 4.499991084612203e+01	 9.998440968300766e+00
0	 4.785712298183613e+01	 4.571421671338499e+01	 1.000008408449431e+01
0	 4.785712298183612e+01	 4.642852108065613e+01	 1.000105740913173e+01
0	 4.785712298183613e+01	 4.714282336458874e+01	 1.000113568571903e+01
0	 4.785712298183613e+01	 4.785712298183613e+01	 1.000009365482802e+01
0	 4.785712298183613e+01	 4.857141934905160e+01	 9.997706054095909e+00
0	 4.785712298183613e+01	 4.928571188288846e+01	 9.993747618225447e+00
0	 4.785712298183613e+01	 5.000000000000000e+01	 9.987993078984490e+00
0	 4.857141934905160e+01	 4.285699007784908e+01	 9.988787493836323e+00
0	 4.857141934905160e+01	 4.357129694500738e+01	 9.992301432395799e+00
0	 4.857141934905159e+01	 4.428560406221392e+01	 9.995644528701117e+00
0	 4.857141934905160e+01	 4.499991084612203e+01	 9.998598694736561e+00
0	 4.857141934905160e+01	 4.571421671338500e+01	 1.000094583873876e+01
0	 4.857141934905160e+01	 4.642852108065614e+01	 1.000246786519659e+01
0	 4.857141934905160e+01	 4.714282336458874e+01	 1.000294667485124e+01
0	 4.857141934905160e+01	 4.785712298183613e+01	 1.000216416469609e+01
0	 4.857141934905160e+01	 4.857141934905160e+01	 9.999902227976563e+00
0	 4.857141934905161e+01	 4.928571188288846e+01	 9.995942754189947e+00
0	 4.857141934905160e+01	 5.000000000000000e+01	 9.990067629085216e+00
0	 4.928571188288846e+01	 4.285699007784908e+01	 9.984630016572059e+00
0	 4.928571188288846e+01	 4.357129694500737e+01	 9.989725437318800e+00
0	 4.928571188288845e+01	 4.428560406221392e+01	 9.994446392336275e+00
0	 4.928571188288846e+01	 4.499991084612203e+01	 9.998593687978699e+00
0	 4.928571188288845e+01	 4.571421671338499e+01	 1.000196812603162e+01
0	 4.928571188288846e+01	 4.642852108065613e+01	 1.000437050371183e+01
0	 4.928571188288846e+01	 4.714282336458875e+01	 1.000560161366749e+01
0	 4.928571188288846e+01	 4.785712298183613e+01	 1.000546224397791e+01
0	 4.928571188288846e+01	 4.857141934905161e+01	 1.000375317815351e+01
0	 4.928571188288846e+01	 4.928571188288846e+01	 1.000027519513546e+01
0	 4.928571188288846e+01	 5.000000000000000e+01	 9.994829069295756e+00
0	 5.000000000000001e+01	 4.285699007784908e+01	 9.979081121854957e+00
0	 4.999999999999999e+01	 4.357129694500737e+01	 9.986167663973090e+00
0	 5.000000000000001e+01	 4.428560406221392e+01	 9.992655513380699e+00
0	 5.000000000000000e+01	 4.499991084612202e+01	 9.998376105862919e+00
0	 4.999999999999999e+01	 4.571421671338500e+01	 1.000316087183829e+01
0	 5.000000000000001e+01	 4.642852108065614e+01	 1.000684123635841e+01
0	 4.999999999999999e+01	 4.714282336458874e+01	 1.000924861910821e+01
0	 5.000000000000000e+01	 4.785712298183613e+01	 1.001021443440586e+01
0	 5.000000000000000e+01	 4.857141934905160e+01	 1.000957009120256e+01
0	 5.000000000000000e+01	 4.928571188288846e+01	 1.000714699308221e+01
0	 5.000000000000000e+01	 5.000000000000000e+01	 1.000277653826149e+01
1	 1.000000000000000e+00	 0.000000000000000e+00	-1.452641538461538e+02
1	 9.998426119581704e-01	 1.774123198744521e-02	-1.358301197982111e+02
1	 9.993659466402713e-01	 3.560484089073321e-02	-1.146901492225936e+02
1	 9.985633751090949e-01	 5.358344789747921e-02	-8.537241489717584e+01
1	 9.974284469032259e-01	 7.166933308134273e-02	-5.157690356472750e+01
1	 9.959549086084808e-01	 8.985443791194039e-02	-1.716935284633976e+01
1	 9.941367226520526e-01	 1.081303688402291e-01	 1.382592673583929e+01
1	 9.919680862544972e-01	 1.264884019976692e-01	 3.723436670529000e+01
1	 9.894434504702301e-01	 1.449194890435835e-01	 4.874060741446664e+01
1	 9.865575392429453e-01	 1.634142641907508e-01	 4.389912366766528e+01
1	 9.833053683983746e-01	 1.819630524344169e-01	 1.814600770785312e+01
1	 1.012500000000000e+00	 0.000000000000000e+00	 1.153774961086740e+02
1	 1.012340644607676e+00	 1.796299738536411e-02	 7.942578317805818e+01
1	 1.011858020973390e+00	 3.604990139831822e-02	 5.288441389691494e+01
1	 1.011045417298220e+00	 5.425324099133014e-02	 3.281567253600234e+01
1	 1.009896302489983e+00	 7.256519973898737e-02	 1.613894747620971e+01
1	 1.008404344966822e+00	 9.097761837928382e-02	-3.641885670399319e-01
1	 1.006563431686269e+00	 1.094819984438203e-01	-2.004396755160452e+01
1	 1.004367687334138e+00	 1.280695070157070e-01	-4.637546601415165e+01
1	 1.001811493603026e+00	 1.467309826500149e-01	-8.295068357005802e+01
1	 9.988895084859243e-01	 1.654569424871888e-01	-1.334696542806119e+02
1	 9.955966855063876e-01	 1.842375905849211e-01	-2.017305922492749e+02
1	 1.025000000000000e+00	 0.000000000000000e+00	 3.317448018098811e+02
1	 1.024838677257182e+00	 1.818476278346252e-02	 2.585880916655665e+02
1	 1.024350095306508e+00	 3.649496190623553e-02	 1.926329283308052e+02
1	 1.023527459487344e+00	 5.492303408563875e-02	 1.315212858159877e+02
1	 1.022364158076741e+00	 7.346106639718697e-02	 7.278063460650652e+01
1	 1.020853781325163e+00	 9.210079884725078e-02	 1.382805266711026e+01
1	 1.018990140720485e+00	 1.108336280480742e-01	-4.802491404936848e+01
1	 1.016767288413778e+00	 1.296506120344168e-01	-1.155666269325016e+02
1	 1.014179536735822e+00	 1.485424762570972e-01	-1.916789560954128e+02
1	 1.011221477728904e+00	 1.674996207842254e-01	-2.793301033248164e+02
1	 1.007888002614400e+00	 1.865121287359399e-01	-3.815666478375545e+02
1	 1.037500000000000e+00	 0.000000000000000e+00	 5.054380407415742e+02
1	 1.037336709906687e+00	 1.840652818174046e-02	 4.029613934037837e+02
1	 1.036842169639627e+00	 3.694002241448514e-02	 3.055611548667571e+02
1	 1.036009501676469e+00	 5.559282718040499e-02	 2.114486107512653e+02
1	 1.034832013663499e+00	 7.435693305594146e-02	 1.187484288093886e+02
1	 1.033303217683504e+00	 9.322397931584123e-02	 2.550181385786073e+01
1	 1.031416849754700e+00	 1.121852576529908e-01	-7.032976629147390e+01
1	 1.029166889493419e+00	 1.312317170537988e-01	-1.708602728620506e+02
1	 1.026547579868618e+00	 1.503539698648304e-01	-2.782741987826947e+02
1	 1.023553446971883e+00	 1.695422990818606e-01	-3.948210787315846e+02
1	 1.020179319722413e+00	 1.887866668874734e-01	-5.228094076575826e+02
1	 1.050000000000000e+00	 0.000000000000000e+00	 6.379812867013833e+02
1	 1.049834742556193e+00	 1.862829358019793e-02	 5.137881529087521e+02
1	 1.049334243972746e+00	 3.738508292306705e-02	 3.926269609230565e+02
1	 1.048491543865594e+00	 5.626262027562888e-02	 2.732683004935758e+02
1	 1.047299869250256e+00	 7.525279971525092e-02	 1.544235405454053e+02
1	 1.045752654041845e+00	 9.434715978505519e-02	 3.474704072121565e+01
1	 1.043843558788917e+00	 1.135368872585703e-01	-8.716124192941851e+01
1	 1.041566490573060e+00	 1.328128220738529e-01	-2.127527436239964e+02
1	 1.038915623001414e+00	 1.521654634732144e-01	-3.435268769850261e+02
1	 1.035885416214862e+00	 1.715849773800943e-01	-4.810272045636187e+02
1	 1.032470636830427e+00	 1.910612050395216e-01	-6.268372037085259e+02
1	 1.062500000000000e+00	 0.000000000000000e+00	 7.308268923700673e+02
1	 1.062332775205699e+00	 1.885005897883492e-02	 5.922523657802147e+02
1	 1.061826318305864e+00	 3.783014343198125e-02	 4.547431378055305e+02
1	 1.060973586054718e+00	 5.693241337131042e-02	 3.176194480470895e+02
1	 1.059767724837014e+00	 7.614866637511535e-02	 1.801692409596292e+02
1	 1.058202090400185e+00	 9.547034025489266e-02	 4.164944623364879e+01
1	 1.056270267823133e+00	 1.148885168648125e-01	-9.871251896056081e+01
1	 1.053966091652700e+00	 1.343939270945790e-01	-2.417170218714475e+02
1	 1.051283666134210e+00	 1.539769570822494e-01	-3.881902576856882e+02
1	 1.048217385457841e+00	 1.736276556789267e-01	-5.389820637505499e+02
1	 1.044761953938439e+00	 1.933357431920845e-01	-6.949635053059324e+02
1	 1.075000000000000e+00	 0.000000000000000e+00	 7.853596591437158e+02
1	 1.074830807855204e+00	 1.907182437765143e-02	 6.394829580570962e+02
1	 1.074318392638983e+00	 3.827520394122774e-02	 4.927800214116870e+02
1	 1.073455628243843e+00	 5.760220646744962e-02	 3.451114211606643e+02
1	 1.072235580423771e+00	 7.704453303553466e-02	 1.963319048650959e+02
1	 1.070651526758527e+00	 9.659352072535370e-02	 4.629075672161049e+01
1	 1.068696976857348e+00	 1.162401464717175e-01	-1.051677903591688e+02
1	 1.066365692732341e+00	 1.359750321159773e-01	-2.582040910643166e+02
1	 1.063651709267006e+00	 1.557884506919352e-01	-4.129825721940567e+02
1	 1.060549354700821e+00	 1.756703339783577e-01	-5.696711655967187e+02
1	 1.057053271046452e+00	 1.956102813451620e-01	-7.284406901680647e+02
1	 1.087500000000000e+00	 0.000000000000000e+00	 8.029007193913293e+02
1	 1.087328840504711e+00	 1.929358977664748e-02	 6.565569511346765e+02
1	 1.086810466972101e+00	 3.872026445080654e-02	 5.075679321966373e+02
1	 1.085937670432968e+00	 5.827199956404649e-02	 3.563255706758129e+02
1	 1.084703436010529e+00	 7.794039969650891e-02	 2.032419817963515e+02
1	 1.083100963116868e+00	 9.771670119643823e-02	 4.874894097934105e+01
1	 1.081123685891564e+00	 1.175917760792853e-01	-1.067027804570571e+02
1	 1.078765293811981e+00	 1.375561371380476e-01	-2.626441997907689e+02
1	 1.076019752399802e+00	 1.575999443022719e-01	-4.185890296900967e+02
1	 1.072881323943800e+00	 1.777130122783873e-01	-5.740347086332356e+02
1	 1.069344588154466e+00	 1.978848194987542e-01	-7.284635554273061e+02
1	 1.100000000000000e+00	 0.000000000000000e+00	 7.847111540130295e+02
1	 1.099826873154216e+00	 1.951535517582304e-02	 6.445024108919702e+02
1	 1.099302541305220e+00	 3.916532496071764e-02	 4.998994487777108e+02
1	 1.098419712622092e+00	 5.894179266110097e-02	 3.518168223964005e+02
1	 1.097171291597287e+00	 7.883626635803816e-02	 2.012149008548072e+02
1	 1.095550399475209e+00	 9.883988166814628e-02	 4.909842376501771e+01
1	 1.093550394925780e+00	 1.189434056875159e-01	-1.034852261164503e+02
1	 1.091164894891622e+00	 1.391372421607900e-01	-2.554480398849370e+02
1	 1.088387795532598e+00	 1.594114379132595e-01	-4.056636934817266e+02
1	 1.085213293186779e+00	 1.797556905790154e-01	-5.529701550937718e+02
1	 1.081635905262479e+00	 2.001593576528611e-01	-6.961725892544214e+02
1	 1.112500000000000e+00	 0.000000000000000e+00	 7.319953661179516e+02
1	 1.112324905803722e+00	 1.973712057517813e-02	 6.043011980015333e+02
1	 1.111794615638338e+00	 3.961038547096103e-02	 4.705315282623624e+02
1	 1.110901754811217e+00	 5.961158575861313e-02	 3.321151616412901e+02
1	 1.109639147184044e+00	 7.973213302012230e-02	 1.905519145532830e+02
1	 1.107999835833550e+00	 9.996306214047786e-02	 4.741028490390113e+01
1	 1.105977103959996e+00	 1.202950352964092e-01	-9.567532546422827e+01
1	 1.103564495971262e+00	 1.407183471842045e-01	-2.370078451209690e+02
1	 1.100755838665393e+00	 1.612229315248979e-01	-3.748312307729256e+02
1	 1.097545262429758e+00	 1.817983688802421e-01	-5.073346318301754e+02
1	 1.093927222370492e+00	 2.024338958074826e-01	-6.326570219238772e+02
1	 1.125000000000000e+00	 0.000000000000000e+00	 6.459042297902836e+02
1	 1.124822938453228e+00	 1.995888597471274e-02	 5.368915348852923e+02
1	 1.124286689971457e+00	 4.005544598153672e-02	 4.201874852208846e+02
1	 1.123383797000342e+00	 6.028137885658293e-02	 2.977270188268100e+02
1	 1.122107002770802e+00	 8.062799968276138e-02	 1.715408864042503e+02
1	 1.120449272191891e+00	 1.010862426134330e-01	 4.375244511794151e+01
1	 1.118403812994212e+00	 1.216466649059652e-01	-8.342615671055273e+01
1	 1.115964097050903e+00	 1.422994522082910e-01	-2.076984166608071e+02
1	 1.113123881798189e+00	 1.630344251371873e-01	-3.266885457806295e+02
1	 1.109877231672737e+00	 1.838410471820675e-01	-4.379471711670459e+02
1	 1.106218539478505e+00	 2.047084339626188e-01	-5.389576734747988e+02
1	 9.833053683983746e-01	 1.819630524344169e-01	 1.814600770785312e+01
1	 9.796822644935034e-01	 2.005558790047255e-01	-2.309803746684965e+01
1	 9.756838834365029e-01	 2.191824800562895e-01	-6.968272574766559e+01
1	 9.713062287906588e-01	 2.378323146029681e-01	-1.190926727961419e+02
1	 9.665456696731551e-01	 2.564945776994924e-01	-1.687300233653517e+02
1	 9.613989581557346e-01	 2.751582148638952e-01	-2.159220444208252e+02
1	 9.558632460744549e-01	 2.938119377279353e-01	-2.579294019813103e+02
1	 9.499361011546518e-01	 3.124442408950446e-01	-2.919550991193536e+02
1	 9.436155223571460e-01	 3.310434199775670e-01	-3.151540461496093e+02
1	 9.368999543523497e-01	 3.495975907771368e-01	-3.246432275628648e+02
1	 9.297883010302649e-01	 3.680947095640363e-01	-3.175124238100436e+02
1	 9.955966855063876e-01	 1.842375905849211e-01	-2.017305922492749e+02
1	 9.919282928033321e-01	 2.030628274885299e-01	-2.107362225781254e+02
1	 9.878799319837496e-01	 2.219222610543536e-01	-2.242069731097328e+02
1	 9.834475566554662e-01	 2.408052185339226e-01	-2.400550722766021e+02
1	 9.786274905496307e-01	 2.597007599201509e-01	-2.561240620450631e+02
1	 9.734164451388825e-01	 2.785976925500452e-01	-2.701951207650944e+02
1	 9.678115366572296e-01	 2.974845869507597e-01	-2.799939562274265e+02
1	 9.618103024265737e-01	 3.163497939082676e-01	-2.831982501386709e+02
1	 9.554107163947458e-01	 3.351814627300659e-01	-2.774456298747430e+02
1	 9.486112037905381e-01	 3.539675606653077e-01	-2.603421379738900e+02
1	 9.414106548025766e-01	 3.726958934376526e-01	-2.294711644446891e+02
1	 1.007888002614400e+00	 1.865121287359399e-01	-3.815666478375545e+02
1	 1.004174321113151e+00	 2.055697759727489e-01	-3.633334376801783e+02
1	 1.000075980530958e+00	 2.246620420527318e-01	-3.487134085342491e+02
1	 9.955888845201883e-01	 2.437781224650910e-01	-3.360382911523673e+02
1	 9.907093114259543e-01	 2.629069421409228e-01	-3.235846661281202e+02
1	 9.854339321217915e-01	 2.820371702362078e-01	-3.095790363817774e+02
1	 9.797598272396584e-01	 3.011572361734960e-01	-2.922033581276087e+02
1	 9.736845036980223e-01	 3.202553469213019e-01	-2.696010152511488e+02
1	 9.672059104317243e-01	 3.393195054822754e-01	-2.398832177201477e+02
1	 9.603224532279363e-01	 3.583375305530889e-01	-2.011358003089332e+02
1	 9.530330085739085e-01	 3.772970773107793e-01	-1.514263935820516e+02
1	 1.020179319722413e+00	 1.887866668874734e-01	-5.228094076575826e+02
1	 1.016420349422961e+00	 2.080767244573826e-01	-4.821562238648206e+02
1	 1.012272029078130e+00	 2.274018230514244e-01	-4.442870131807707e+02
1	 1.007730212384825e+00	 2.467510263964731e-01	-4.079451913761763e+02
1	 1.002791132302125e+00	 2.661131243618078e-01	-3.718323212035326e+02
1	 9.974514191044608e-01	 2.854766479223831e-01	-3.346119537060987e+02
1	 9.917081178217403e-01	 3.048298853961441e-01	-2.949138180051899e+02
1	 9.855587049689970e-01	 3.241608999341473e-01	-2.513383481603887e+02
1	 9.790011044680813e-01	 3.434575482341956e-01	-2.024615324234568e+02
1	 9.720337026645446e-01	 3.627075004404805e-01	-1.468400669023479e+02
1	 9.646553623442610e-01	 3.818982611834161e-01	-8.301679235456386e+01
1	 1.032470636830427e+00	 1.910612050395216e-01	-6.268372037085259e+02
1	 1.028666377732762e+00	 2.105836729424308e-01	-5.684108107421368e+02
1	 1.024468077625263e+00	 2.301416040504314e-01	-5.119611024384125e+02
1	 1.019871540249377e+00	 2.497239303280692e-01	-4.566356414737220e+02
1	 1.014872953178144e+00	 2.693193065828061e-01	-4.015532040222072e+02
1	 1.009468906086891e+00	 2.889161256085709e-01	-3.458064083902964e+02
1	 1.003656408403476e+00	 3.085025346187041e-01	-2.884645837869472e+02
1	 9.974329062394982e-01	 3.280664529468040e-01	-2.285768714411601e+02
1	 9.907962985038169e-01	 3.475955909858267e-01	-1.651755480205191e+02
1	 9.837449521003627e-01	 3.670774703274826e-01	-9.727955902500734e+01
1	 9.762777161136343e-01	 3.864994450555633e-01	-2.389824755509281e+01
1	 1.044761953938439e+00	 1.933357431920845e-01	-6.949635053059324e+02
1	 1.040912406042553e+00	 2.130906214278937e-01	-6.232466641747703e+02
1	 1.036664126172359e+00	 2.328813850497527e-01	-5.527203650888711e+02
1	 1.032012868113843e+00	 2.526968342598790e-01	-4.829290455688146e+02
1	 1.026954774054010e+00	 2.725254888039177e-01	-4.134012006639284e+02
1	 1.021486393069082e+00	 2.923556032947711e-01	-3.436508167614671e+02
1	 1.015604698984865e+00	 3.121751838411760e-01	-2.731789387911484e+02
1	 1.009307107509526e+00	 3.319720059592721e-01	-2.014753666058101e+02
1	 1.002591492538931e+00	 3.517336337371683e-01	-1.280204750631422e+02
1	 9.954562015353910e-01	 3.714474402140948e-01	-5.228715106449915e+01
1	 9.879000698820278e-01	 3.911006289272207e-01	 2.625716046074348e+01
1	 1.057053271046452e+00	 1.956102813451620e-01	-7.284406901680647e+02
1	 1.053158434352335e+00	 2.155975699137711e-01	-6.477597864958614e+02
1	 1.048860174719417e+00	 2.356211660493882e-01	-5.675036904348127e+02
1	 1.044154195978224e+00	 2.556697381919028e-01	-4.876066959649243e+02
1	 1.039036594929724e+00	 2.757316710251425e-01	-4.079997839019859e+02
1	 1.033503880051033e+00	 2.957950809809841e-01	-3.286108781079306e+02
1	 1.027552989565909e+00	 3.158478330635599e-01	-2.493651299024722e+02
1	 1.021181308779080e+00	 3.358775589715513e-01	-1.701852299799913e+02
1	 1.014386686573424e+00	 3.558716764882207e-01	-9.099174686816875e+01
1	 1.007167450969629e+00	 3.758174101003176e-01	-1.170349069275778e+01
1	 9.995224236494423e-01	 3.957018127983884e-01	 6.776209926078018e+01
1	 1.069344588154466e+00	 1.978848194987542e-01	-7.284635554273061e+02
1	 1.065404462662107e+00	 2.181045184000633e-01	-6.429957891257425e+02
1	 1.061056223266437e+00	 2.383609470493381e-01	-5.572068004538859e+02
1	 1.056295523842520e+00	 2.586426421241405e-01	-4.714139634797194e+02
1	 1.051118415805285e+00	 2.789378532464805e-01	-3.859437610943777e+02
1	 1.045521367032745e+00	 2.992345586672095e-01	-3.011308802561873e+02
1	 1.039501280146605e+00	 3.195204822858554e-01	-2.173172317348726e+02
1	 1.033055510048160e+00	 3.397831119836419e-01	-1.348508971386804e+02
1	 1.026181880607295e+00	 3.600097192389838e-01	-5.408500671488714e+01
1	 1.018878700403077e+00	 3.801873799861507e-01	 2.462344787441879e+01
1	 1.011144777415877e+00	 4.003029966690664e-01	 1.009148608924352e+02
1	 1.081635905262479e+00	 2.001593576528611e-01	-6.961725892544214e+02
1	 1.077650490971870e+00	 2.206114668867699e-01	-6.099527556920355e+02
1	 1.073252271813420e+00	 2.411007280496023e-01	-5.226847024876870e+02
1	 1.068436851706730e+00	 2.616155460565918e-01	-4.350623384386112e+02
1	 1.063200236680694e+00	 2.821440354679318e-01	-3.478009029006131e+02
1	 1.057538854014219e+00	 3.026740363534475e-01	-2.616349161312655e+02
1	 1.051449570726956e+00	 3.231931315080629e-01	-1.773159518742403e+02
1	 1.044929711316766e+00	 3.436886649955435e-01	-9.561023840338271e+01
1	 1.037977074640545e+00	 3.641477619894577e-01	-1.729609591534740e+01
1	 1.030589949835735e+00	 3.845573498715942e-01	 5.683878015827178e+01
1	 1.022767131181332e+00	 4.049041805392548e-01	 1.260001786736453e+02
1	 1.093927222370492e+00	 2.024338958074826e-01	-6.326570219238772e+02
1	 1.089896519281624e+00	 2.231184153738912e-01	-5.495839121304155e+02
1	 1.085448320360364e+00	 2.438405090501808e-01	-4.647539765809005e+02
1	 1.080578179570856e+00	 2.645884499892571e-01	-3.792313340732249e+02
1	 1.075282057555951e+00	 2.853502176894963e-01	-2.941134621973795e+02
1	 1.069556340995452e+00	 3.061135140396980e-01	-2.105280183017632e+02
1	 1.063397861306960e+00	 3.268657807301824e-01	-1.296293818350450e+02
1	 1.056803912584899e+00	 3.475942180072564e-01	-5.259492767659795e+01
1	 1.049772268673173e+00	 3.682858047396423e-01	 1.937895731107618e+01
1	 1.042301199267603e+00	 3.889273197566481e-01	 8.508109963410554e+01
1	 1.034389484945809e+00	 4.095053644089534e-01	 1.432899889192435e+02
1	 1.106218539478505e+00	 2.047084339626188e-01	-5.389576734747988e+02
1	 1.102142547591368e+00	 2.256253638614272e-01	-4.628001187786528e+02
1	 1.097644368907272e+00	 2.465802900510737e-01	-3.841949103311675e+02
1	 1.092719507434896e+00	 2.675613539221362e-01	-3.045702630266378e+02
1	 1.087363878431055e+00	 2.885563999111739e-01	-2.253995917331650e+02
1	 1.081573827976446e+00	 3.095529917259612e-01	-1.481972178885525e+02
1	 1.075346151886618e+00	 3.305384299522137e-01	-7.451369795319989e+01
1	 1.068678113852559e+00	 3.514997710187806e-01	-5.930786687324847e+00
1	 1.061567462705179e+00	 3.724238474895377e-01	 5.594394822142363e+01
1	 1.054012448698681e+00	 3.932972896413123e-01	 1.094828400671740e+02
1	 1.046011838709305e+00	 4.141065482781622e-01	 1.530441418855789e+02
1	 9.297883010302649e-01	 3.680947095640363e-01	-3.175124238100436e+02
1	 9.222799379563009e-01	 3.865225944039564e-01	-3.026108671209281e+02
1	 9.143747236862125e-01	 4.048689474701951e-01	-2.913706471883698e+02
1	 9.060730098564396e-01	 4.231213782743761e-01	-2.847453930359235e+02
1	 8.973756499704220e-01	 4.412674277413337e-01	-2.836899727322233e+02
1	 8.882840068073012e-01	 4.592945930433334e-01	-2.891564908884410e+02
1	 8.787999583847406e-01	 4.771903531042267e-01	-3.020901951663237e+02
1	 8.689259024143142e-01	 4.949421946770166e-01	-3.234253164260908e+02
1	 8.586647591951593e-01	 5.125376388923134e-01	-3.540808684695605e+02
1	 8.480199728994641e-01	 5.299642681697645e-01	-3.949564344403334e+02
1	 8.369955112118155e-01	 5.472097533798151e-01	-4.469279678081170e+02
1	 9.414106548025766e-01	 3.726958934376526e-01	-2.294711644446891e+02
1	 9.338084371907733e-01	 3.913541268386016e-01	-2.268779555209965e+02
1	 9.258044077427657e-01	 4.099298093186076e-01	-2.273627816306065e+02
1	 9.173989224904455e-01	 4.284103955081879e-01	-2.317118215114562e+02
1	 9.085928456060454e-01	 4.467832705937361e-01	-2.407120392477311e+02
1	 8.993875569034437e-01	 4.650357754621704e-01	-2.551478667374325e+02
1	 8.897849578755234e-01	 4.831552325238889e-01	-2.757978118208357e+02
1	 8.797874762052527e-01	 5.011289721163065e-01	-3.034310125341293e+02
1	 8.693980686955066e-01	 5.189443593841651e-01	-3.388037590450713e+02
1	 8.586202225706245e-01	 5.365888215273571e-01	-3.826560057372549e+02
1	 8.474579551112504e-01	 5.540498753022077e-01	-4.357078966186123e+02
1	 9.530330085739085e-01	 3.772970773107793e-01	-1.514263935820516e+02
1	 9.453369364240809e-01	 3.961856592726618e-01	-1.594681291438085e+02
1	 9.372340917979960e-01	 4.149906711663489e-01	-1.700196973972608e+02
1	 9.287248351230007e-01	 4.336994127412525e-01	-1.837030320967002e+02
1	 9.198100412401194e-01	 4.522991134453253e-01	-2.011404091774278e+02
1	 9.104911069979682e-01	 4.707769578801373e-01	-2.229518032043851e+02
1	 9.007699573646499e-01	 4.891201119426346e-01	-2.497521858630893e+02
1	 8.906490499945261e-01	 5.073157495546431e-01	-2.821487828545467e+02
1	 8.801313781942111e-01	 5.253510798750376e-01	-3.207383064183155e+02
1	 8.692204722401954e-01	 5.432133748839548e-01	-3.661041814239367e+02
1	 8.579203990091799e-01	 5.608899972236004e-01	-4.188137835261501e+02
1	 9.646553623442610e-01	 3.818982611834161e-01	-8.301679235456386e+01
1	 9.568654356562231e-01	 4.010171917061370e-01	-1.000805535789314e+02
1	 9.486637758519040e-01	 4.200515330134196e-01	-1.191004987740506e+02
1	 9.400507477541058e-01	 4.389884299735700e-01	-1.405374061582800e+02
1	 9.310272368726441e-01	 4.578149562961006e-01	-1.648519631186223e+02
1	 9.215946570908742e-01	 4.765181402972340e-01	-1.925027860485432e+02
1	 9.117549568521194e-01	 4.950849913604636e-01	-2.239443983503701e+02
1	 9.015106237821341e-01	 5.135025269920270e-01	-2.596251789213768e+02
1	 8.908646876912724e-01	 5.317578003649310e-01	-2.999852940786107e+02
1	 8.798207219081765e-01	 5.498379282395579e-01	-3.454546264025986e+02
1	 8.683828429056041e-01	 5.677301191439930e-01	-3.964507143839212e+02
1	 9.762777161136343e-01	 3.864994450555633e-01	-2.389824755509281e+01
1	 9.683939348872000e-01	 4.058487241390272e-01	-4.842871986410688e+01
1	 9.600934599044899e-01	 4.251123948598194e-01	-7.437576127122315e+01
1	 9.513766603837601e-01	 4.442774472051405e-01	-1.020419735692044e+02
1	 9.422444325036197e-01	 4.633307991460626e-01	-1.317294444973436e+02
1	 9.326982071821625e-01	 4.822593227134609e-01	-1.637384207549131e+02
1	 9.227399563379315e-01	 5.010498707773759e-01	-1.983659550515203e+02
1	 9.123721975680773e-01	 5.196893044284582e-01	-2.359045355289293e+02
1	 9.015979971866909e-01	 5.381645208538457e-01	-2.766407063014686e+02
1	 8.904209715745676e-01	 5.564624815941661e-01	-3.208536881991176e+02
1	 8.788452868005231e-01	 5.745702410633855e-01	-3.688140090520202e+02
1	 9.879000698820278e-01	 3.911006289272207e-01	 2.625716046074348e+01
1	 9.799224341170119e-01	 4.106802565713322e-01	-4.239601811814310e+00
1	 9.715231439557533e-01	 4.301732567055483e-01	-3.562685684563721e+01
1	 9.627025730119644e-01	 4.495664644359640e-01	-6.805190397318441e+01
1	 9.534616281330460e-01	 4.688466419952109e-01	-1.016611146960594e+02
1	 9.438017572718324e-01	 4.880005051288175e-01	-1.365992490209821e+02
1	 9.337249558220870e-01	 5.070147501933717e-01	-1.730087614639118e+02
1	 9.232337713523547e-01	 5.258760818639360e-01	-2.110291011282422e+02
1	 9.123313066804664e-01	 5.445712413417811e-01	-2.507960104552936e+02
1	 9.010212212393695e-01	 5.630870349477797e-01	-2.924408273969244e+02
1	 8.893077306939365e-01	 5.814103629817780e-01	-3.360897958676388e+02
1	 9.995224236494423e-01	 3.957018127983884e-01	 6.776209926078018e+01
1	 9.914509333456585e-01	 4.155117890030526e-01	 3.274712787297730e+01
1	 9.829528280056942e-01	 4.352341185506064e-01	-2.645326200376559e+00
1	 9.740284856387178e-01	 4.548554816660403e-01	-3.841003354215707e+01
1	 9.646788237609235e-01	 4.743624848435458e-01	-7.454043224225725e+01
1	 9.549053073598841e-01	 4.937416875433039e-01	-1.110285780466892e+02
1	 9.447099553045856e-01	 5.129796296084510e-01	-1.478650995734121e+02
1	 9.340953451349669e-01	 5.320628592984610e-01	-1.850391591261094e+02
1	 9.230646161725991e-01	 5.509779618287377e-01	-2.225384196122604e+02
1	 9.116214709025816e-01	 5.697115883003986e-01	-2.603490180406414e+02
1	 8.997701745858451e-01	 5.882504848991706e-01	-2.984555460359328e+02
1	 1.011144777415877e+00	 4.003029966690664e-01	 1.009148608924352e+02
1	 1.002979432573140e+00	 4.203433214341877e-01	 6.277982741422185e+01
1	 9.943825120543131e-01	 4.402949803949937e-01	 2.476770562595429e+01
1	 9.853543982640206e-01	 4.601444988953695e-01	-1.296642437121063e+01
1	 9.758960193872512e-01	 4.798783276910670e-01	-5.026575412194499e+01
1	 9.660088574463180e-01	 4.994828699569205e-01	-8.697232159750239e+01
1	 9.556949547854272e-01	 5.189445090226136e-01	-1.229276062171146e+02
1	 9.449569189159139e-01	 5.382496367320331e-01	-1.579731408186584e+02
1	 9.337979256630885e-01	 5.573846823147149e-01	-1.919511370480980e+02
1	 9.222217205642039e-01	 5.763361416520226e-01	-2.247051204256714e+02
1	 9.102326184762480e-01	 5.950906068155633e-01	-2.560805711663526e+02
1	 1.022767131181332e+00	 4.049041805392548e-01	 1.260001786736453e+02
1	 1.014507931799456e+00	 4.251748538647378e-01	 8.609556602565422e+01
1	 1.005812196101609e+00	 4.453558422387101e-01	 4.680207382374977e+01
1	 9.966803108878730e-01	 4.654335161239517e-01	 8.422046085232092e+00
1	 9.871132150120300e-01	 4.853941705377748e-01	-2.874005745814541e+01
1	 9.771124075311334e-01	 5.052240523696667e-01	-6.437885190410425e+01
1	 9.666799542646118e-01	 5.249093884358594e-01	-9.818925292133635e+01
1	 9.558184926951958e-01	 5.444364141646523e-01	-1.298677306249125e+02
1	 9.445312351519353e-01	 5.637914027997134e-01	-1.591135840714368e+02
1	 9.328219702242366e-01	 5.829606950026520e-01	-1.856302284703147e+02
1	 9.206950623651458e-01	 6.019307287309560e-01	-2.091264868860384e+02
1	 1.034389484945809e+00	 4.095053644089534e-01	 1.432899889192435e+02
1	 1.026036431024607e+00	 4.300063862947030e-01	 1.029207581248505e+02
1	 1.017241880147583e+00	 4.504167040817556e-01	 6.363908166470890e+01
1	 1.008006223510275e+00	 4.707225333517867e-01	 2.589206789877077e+01
1	 9.983304106352595e-01	 4.909100133836690e-01	-9.870679952634807e+00
1	 9.882159576143311e-01	 5.109652347815431e-01	-4.319886154636825e+01
1	 9.776649537421397e-01	 5.308742678481889e-01	-7.364332709885359e+01
1	 9.666800664728121e-01	 5.506231915963183e-01	-1.007579642259536e+02
1	 9.552645446391390e-01	 5.701981232837328e-01	-1.241016124938693e+02
1	 9.434222198826796e-01	 5.895852483522865e-01	-1.432399936695409e+02
1	 9.311575062525380e-01	 6.087708506453484e-01	-1.577476451983810e+02
1	 1.046011838709305e+00	 4.141065482781622e-01	 1.530441418855789e+02
1	 1.037564930248593e+00	 4.348379187240830e-01	 1.134717552663494e+02
1	 1.028671564192235e+00	 4.554775659241303e-01	 7.545197449731886e+01
1	 1.019332136131226e+00	 4.760115505788748e-01	 3.957425602669338e+01
1	 1.009547606256940e+00	 4.964258562287497e-01	 6.430922368431929e+00
1	 9.993195076959104e-01	 5.167064171925492e-01	-2.338523454506952e+01
1	 9.886499532180107e-01	 5.368391472596017e-01	-4.928341449965366e+01
1	 9.775416402487633e-01	 5.568099690270316e-01	-7.067732016147455e+01
1	 9.659978541247000e-01	 5.766048437667730e-01	-8.698770293534383e+01
1	 9.540224695395332e-01	 5.962098017009265e-01	-9.764492745184191e+01
1	 9.416199501384250e-01	 6.156109725587411e-01	-1.020915380176759e+02
1	 8.369955112118155e-01	 5.472097533798151e-01	-4.469279678081170e+02
1	 8.255958632931958e-01	 5.642618811384013e-01	-5.047816361502063e+02
1	 8.138260360506314e-01	 5.811085811170719e-01	-5.624718682706559e+02
1	 8.016915487021741e-01	 5.977379532449607e-01	-6.196061829183409e+02
1	 7.891984256370140e-01	 6.141382946773878e-01	-6.757925775282989e+02
1	 7.763531875817183e-01	 6.302981264093361e-01	-7.306411455066550e+02
1	 7.631628410930560e-01	 6.462062194093811e-01	-7.837656979287480e+02
1	 7.496348664083717e-01	 6.618516201518141e-01	-8.347853788859533e+02
1	 7.357772036946522e-01	 6.772236754270479e-01	-8.833262636493680e+02
1	 7.215982377473873e-01	 6.923120563137026e-01	-9.290229288613543e+02
1	 7.071067811999999e-01	 7.071067811999999e-01	-9.715199841194229e+02
1	 8.474579551112504e-01	 5.540498753022077e-01	-4.357078966186123e+02
1	 8.359158115929692e-01	 5.713151546574315e-01	-4.832817262954484e+02
1	 8.239988615092374e-01	 5.883724383855524e-01	-5.307684973376620e+02
1	 8.117126930683318e-01	 6.052096776648181e-01	-5.778402532304922e+02
1	 7.990634059643095e-01	 6.218150233649912e-01	-6.241693390115388e+02
1	 7.860576024328196e-01	 6.381768529934919e-01	-6.694297534501893e+02
1	 7.727023766125910e-01	 6.542837971560034e-01	-7.132985053557638e+02
1	 7.590053022439359e-01	 6.701247654077456e-01	-7.554569650129031e+02
1	 7.449744187459286e-01	 6.856889713740123e-01	-7.955922016830258e+02
1	 7.306182157240029e-01	 7.009659570219055e-01	-8.333982981431519e+02
1	 7.159456159695000e-01	 7.159456159695000e-01	-8.685776333583683e+02
1	 8.579203990091799e-01	 5.608899972236004e-01	-4.188137835261501e+02
1	 8.462357598913327e-01	 5.783684281754621e-01	-4.567038580940718e+02
1	 8.341716869665182e-01	 5.956362956530330e-01	-4.945789439065787e+02
1	 8.217338374332409e-01	 6.126814020836755e-01	-5.321744554458760e+02
1	 8.089283862904220e-01	 6.294917520515947e-01	-5.692259364009095e+02
1	 7.957620172827934e-01	 6.460555795766478e-01	-6.054701508822894e+02
1	 7.822419121310444e-01	 6.623613749016258e-01	-6.406461784812345e+02
1	 7.683757380784541e-01	 6.783979106626776e-01	-6.744965059080512e+02
1	 7.541716337961848e-01	 6.941542673199765e-01	-7.067681078934204e+02
1	 7.396381936996136e-01	 7.096198577291084e-01	-7.372135100580476e+02
1	 7.247844507379998e-01	 7.247844507379999e-01	-7.655918265532774e+02
1	 8.683828429056041e-01	 5.677301191439930e-01	-3.964507143839212e+02
1	 8.565557081882860e-01	 5.854217016924925e-01	-4.252315722103183e+02
1	 8.443445124224748e-01	 6.029001529195133e-01	-4.540653591529631e+02
1	 8.317549817969009e-01	 6.201531265015331e-01	-4.827497486530508e+02
1	 8.187933666153511e-01	 6.371684807371980e-01	-5.110823756280239e+02
1	 8.054664321316400e-01	 6.539343061588038e-01	-5.388616707132805e+02
1	 7.917814476484165e-01	 6.704389526462485e-01	-5.658876980630812e+02
1	 7.777461739119264e-01	 6.866710559166093e-01	-5.919629911578909e+02
1	 7.633688488454204e-01	 7.026195632649410e-01	-6.168933810207149e+02
1	 7.486581716742190e-01	 7.182737584353109e-01	-6.404888112572039e+02
1	 7.336232855055000e-01	 7.336232855055000e-01	-6.625641344036653e+02
1	 8.788452868005231e-01	 5.745702410633855e-01	-3.688140090520202e+02
1	 8.668756564838288e-01	 5.924749752085229e-01	-3.890396692767304e+02
1	 8.545173378771065e-01	 6.101640101849937e-01	-4.093821727677634e+02
1	 8.417761261593122e-01	 6.276248509183908e-01	-4.297003796029738e+02
1	 8.286583469390975e-01	 6.448452094218015e-01	-4.498529480562690e+02
1	 8.151708469793590e-01	 6.618130327399596e-01	-4.696989157148699e+02
1	 8.013209831647067e-01	 6.785165303898708e-01	-4.890982838707437e+02
1	 7.871166097443530e-01	 6.949442011695413e-01	-5.079126013209781e+02
1	 7.725660638936355e-01	 7.110848592089053e-01	-5.260055436745937e+02
1	 7.576781496478195e-01	 7.269276591405139e-01	-5.432434842655334e+02
1	 7.424621202719999e-01	 7.424621202720001e-01	-5.594960528138315e+02
1	 8.893077306939365e-01	 5.814103629817780e-01	-3.360897958676388e+02
1	 8.771956047779617e-01	 5.995282487235530e-01	-3.482947240136650e+02
1	 8.646901633304135e-01	 6.174278674494742e-01	-3.606765471622978e+02
1	 8.517972705204740e-01	 6.350965753342479e-01	-3.731542775523963e+02
1	 8.385233272616601e-01	 6.525219381054047e-01	-3.856465666319119e+02
1	 8.248752618259512e-01	 6.696917593201157e-01	-3.980720367636075e+02
1	 8.108605186799150e-01	 6.865941081324930e-01	-4.103496159197800e+02
1	 7.964870455757337e-01	 7.032173464214730e-01	-4.223988731648667e+02
1	 7.817632789408300e-01	 7.195501551518694e-01	-4.341403526948639e+02
1	 7.666981276204146e-01	 7.355815598447166e-01	-4.454959041950117e+02
1	 7.513009550375001e-01	 7.513009550375001e-01	-4.563890072925826e+02
1	 8.997701745858451e-01	 5.882504848991706e-01	-2.984555460359328e+02
1	 8.875155530706845e-01	 6.065815222375835e-01	-3.031555634800058e+02
1	 8.748629887823961e-01	 6.246917247129546e-01	-3.080887999845164e+02
1	 8.618184148803874e-01	 6.425682997491056e-01	-3.132334215600428e+02
1	 8.483883075830400e-01	 6.601986667880082e-01	-3.185670785827505e+02
1	 8.345796766714155e-01	 6.775704858992714e-01	-3.240669916719875e+02
1	 8.204000541940423e-01	 6.946716858741154e-01	-3.297100402715226e+02
1	 8.058574814060682e-01	 7.114904916724046e-01	-3.354728533748874e+02
1	 7.909604939870044e-01	 7.280154510938338e-01	-3.413319018125012e+02
1	 7.757181055920049e-01	 7.442354605479196e-01	-3.472635915012408e+02
1	 7.601397898020000e-01	 7.601397898019999e-01	-3.532443570459859e+02
1	 9.102326184762480e-01	 5.950906068155633e-01	-2.560805711663526e+02
1	 8.978355013619972e-01	 6.136347957506137e-01	-2.537737123410679e+02
1	 8.850358142330540e-01	 6.319555819754350e-01	-2.517527974962109e+02
1	 8.718395592390517e-01	 6.500400241629630e-01	-2.500541824520103e+02
1	 8.582532879032364e-01	 6.678753954696115e-01	-2.487135565513673e+02
1	 8.442840915157530e-01	 6.854492124774274e-01	-2.477657861691510e+02
1	 8.299395897070877e-01	 7.027492636147378e-01	-2.472447606396423e+02
1	 8.152279172353567e-01	 7.197636369223365e-01	-2.471832416623245e+02
1	 8.001577090321583e-01	 7.364807470347983e-01	-2.476127172306136e+02
1	 7.847380835625897e-01	 7.528893612501224e-01	-2.485632611016292e+02
1	 7.689786245654999e-01	 7.689786245654999e-01	-2.500633987878770e+02
1	 9.206950623651458e-01	 6.019307287309560e-01	-2.091264868860384e+02
1	 9.081554496518998e-01	 6.206880692626442e-01	-2.002938077773266e+02
1	 8.952086396823874e-01	 6.392194392369155e-01	-1.917963211290463e+02
1	 8.818607035964670e-01	 6.575117485758205e-01	-1.837276414713591e+02
1	 8.681182682222500e-01	 6.755521241502151e-01	-1.761805698783826e+02
1	 8.539885063589624e-01	 6.933279390545832e-01	-1.692466984510779e+02
1	 8.394791252190520e-01	 7.108268413543603e-01	-1.630160169326281e+02
1	 8.245983530635995e-01	 7.280367821712683e-01	-1.575765241152124e+02
1	 8.093549240762918e-01	 7.449460429747625e-01	-1.530138466885283e+02
1	 7.937580615321697e-01	 7.615432619513252e-01	-1.494108681446156e+02
1	 7.778174593279999e-01	 7.778174593279999e-01	-1.468473702905541e+02
1	 9.311575062525380e-01	 6.087708506453484e-01	-1.577476451983810e+02
1	 9.184753979403921e-01	 6.277413427736747e-01	-1.428539864217696e+02
1	 9.053814651303959e-01	 6.464832964973959e-01	-1.283414093289544e+02
1	 8.918818479526330e-01	 6.649834729876779e-01	-1.143598874456968e+02
1	 8.779832485400803e-01	 6.832288528298185e-01	-1.010584375969477e+02
1	 8.636929212010450e-01	 7.012066656307392e-01	-8.858448859255954e+01
1	 8.490186607299344e-01	 7.189044190929826e-01	-7.708325175969810e+01
1	 8.339687888907961e-01	 7.363099274192001e-01	-6.669709755919526e+01
1	 8.185521391194046e-01	 7.534113389137267e-01	-5.756494252155225e+01
1	 8.027780395007446e-01	 7.701971626515282e-01	-4.982165069331079e+01
1	 7.866562940895000e-01	 7.866562940895000e-01	-4.359745369609927e+01
1	 9.416199501384250e-01	 6.156109725587411e-01	-1.020915380176759e+02
1	 9.287953462274744e-01	 6.347946162837050e-01	-8.158624550142829e+01
1	 9.155542905770797e-01	 6.537471537568762e-01	-6.150467661089794e+01
1	 9.019029923075504e-01	 6.724551973985354e-01	-4.205229414359559e+01
1	 8.878482288567273e-01	 6.909055815084219e-01	-2.343346456093748e+01
1	 8.733973360420002e-01	 7.090853922058951e-01	-5.850593998379523e+00
1	 8.585581962397351e-01	 7.269819968306050e-01	 1.049673416368477e+01
1	 8.433392247169470e-01	 7.445830726661317e-01	 2.541261437234273e+01
1	 8.277493541614975e-01	 7.618766348516912e-01	 3.870566081658003e+01
1	 8.117980174683143e-01	 7.788510633507310e-01	 5.018983043642464e+01
1	 7.954951288500001e-01	 7.954951288500001e-01	 5.968522139305414e+01
1	 7.071067811999999e-01	 7.071067811999999e-01	-9.715199841194229e+02
1	 6.923120563137025e-01	 7.215982377473872e-01	-1.009578601453266e+03
1	 6.772236754270478e-01	 7.357772036946522e-01	-1.042082496004104e+03
1	 6.618516201518141e-01	 7.496348664083716e-01	-1.068884132710115e+03
1	 6.462062194093813e-01	 7.631628410930559e-01	-1.089857224080968e+03
1	 6.302981264093362e-01	 7.763531875817182e-01	-1.104897159635849e+03
1	 6.141382946773881e-01	 7.891984256370137e-01	-1.113921318988688e+03
1	 5.977379532449610e-01	 8.016915487021739e-01	-1.116869267258615e+03
1	 5.811085811170723e-01	 8.138260360506312e-01	-1.113702832470379e+03
1	 5.642618811384018e-01	 8.255958632931955e-01	-1.104406065589600e+03
1	 5.472097533798151e-01	 8.369955112118155e-01	-1.088985084799544e+03
1	 7.159456159695000e-01	 7.159456159695000e-01	-8.685776333583683e+02
1	 7.009659570219053e-01	 7.306182157240030e-01	-9.014821460871030e+02
1	 6.856889713740122e-01	 7.449744187459286e-01	-9.298328562002122e+02
1	 6.701247654077458e-01	 7.590053022439357e-01	-9.534944684443775e+02
1	 6.542837971560036e-01	 7.727023766125908e-01	-9.723493081289097e+02
1	 6.381768529934920e-01	 7.860576024328195e-01	-9.862977304235394e+02
1	 6.218150233649915e-01	 7.990634059643091e-01	-9.952584325183118e+02
1	 6.052096776648186e-01	 8.117126930683318e-01	-9.991686672063199e+02
1	 5.883724383855530e-01	 8.239988615092370e-01	-9.979843572791618e+02
1	 5.713151546574324e-01	 8.359158115929688e-01	-9.916801109527612e+02
1	 5.540498753022077e-01	 8.474579551112504e-01	-9.802491393560590e+02
1	 7.247844507379998e-01	 7.247844507379999e-01	-7.655918265532774e+02
1	 7.096198577291083e-01	 7.396381936996136e-01	-7.934802830261858e+02
1	 6.941542673199766e-01	 7.541716337961849e-01	-8.177927288698020e+02
1	 6.783979106626776e-01	 7.683757380784542e-01	-8.384059093928096e+02
1	 6.623613749016261e-01	 7.822419121310443e-01	-8.552106237657040e+02
1	 6.460555795766482e-01	 7.957620172827933e-01	-8.681121144853540e+02
1	 6.294917520515949e-01	 8.089283862904216e-01	-8.770303786241104e+02
1	 6.126814020836757e-01	 8.217338374332406e-01	-8.819003993082327e+02
1	 5.956362956530332e-01	 8.341716869665180e-01	-8.826722965450277e+02
1	 5.783684281754625e-01	 8.462357598913323e-01	-8.793113971949080e+02
1	 5.608899972236003e-01	 8.579203990091798e-01	-8.717982245552896e+02
1	 7.336232855055000e-01	 7.336232855055000e-01	-6.625641344036653e+02
1	 7.182737584353108e-01	 7.486581716742190e-01	-6.855695932704650e+02
1	 7.026195632649409e-01	 7.633688488454202e-01	-7.059545412716183e+02
1	 6.866710559166094e-01	 7.777461739119265e-01	-7.236075722329732e+02
1	 6.704389526462485e-01	 7.917814476484162e-01	-7.384278252696226e+02
1	 6.539343061588040e-01	 8.054664321316398e-01	-7.503253547131756e+02
1	 6.371684807371982e-01	 8.187933666153508e-01	-7.592214404639699e+02
1	 6.201531265015334e-01	 8.317549817969007e-01	-7.650488370987765e+02
1	 6.029001529195136e-01	 8.443445124224743e-01	-7.677519605864710e+02
1	 5.854217016924929e-01	 8.565557081882855e-01	-7.672870119926334e+02
1	 5.677301191439930e-01	 8.683828429056042e-01	-7.636220380822515e+02
1	 7.424621202719999e-01	 7.424621202720001e-01	-5.594960528138315e+02
1	 7.269276591405137e-01	 7.576781496478194e-01	-5.777468206294237e+02
1	 7.110848592089053e-01	 7.725660638936355e-01	-5.943110812711301e+02
1	 6.949442011695413e-01	 7.871166097443529e-01	-6.090890918958753e+02
1	 6.785165303898705e-01	 8.013209831647063e-01	-6.219882024295082e+02
1	 6.618130327399598e-01	 8.151708469793592e-01	-6.329232062421269e+02
1	 6.448452094218017e-01	 8.286583469390970e-01	-6.418166496168392e+02
1	 6.276248509183910e-01	 8.417761261593117e-01	-6.485990982297824e+02
1	 6.101640101849942e-01	 8.545173378771063e-01	-6.532093592306418e+02
1	 5.924749752085233e-01	 8.668756564838282e-01	-6.555946578950889e+02
1	 5.745702410633855e-01	 8.788452868005230e-01	-6.557107682083838e+02
1	 7.513009550375001e-01	 7.513009550375001e-01	-4.563890072925826e+02
1	 7.355815598447167e-01	 7.666981276204147e-01	-4.700088621450369e+02
1	 7.195501551518695e-01	 7.817632789408299e-01	-4.828554761283672e+02
1	 7.032173464214733e-01	 7.964870455757336e-01	-4.948405910804753e+02
1	 6.865941081324931e-01	 8.108605186799150e-01	-5.058796431617890e+02
1	 6.696917593201157e-01	 8.248752618259508e-01	-5.158920945539195e+02
1	 6.525219381054053e-01	 8.385233272616602e-01	-5.248017420579572e+02
1	 6.350965753342483e-01	 8.517972705204742e-01	-5.325370006988871e+02
1	 6.174278674494746e-01	 8.646901633304133e-01	-5.390311606657629e+02
1	 5.995282487235538e-01	 8.771956047779614e-01	-5.442226161549955e+02
1	 5.814103629817781e-01	 8.893077306939365e-01	-5.480550649335393e+02
1	 7.601397898020000e-01	 7.601397898019999e-01	-3.532443570459859e+02
1	 7.442354605479196e-01	 7.757181055920047e-01	-3.623527591829110e+02
1	 7.280154510938339e-01	 7.909604939870044e-01	-3.715811727656899e+02
1	 7.114904916724047e-01	 8.058574814060682e-01	-3.808526518950895e+02
1	 6.946716858741158e-01	 8.204000541940424e-01	-3.900905987356178e+02
1	 6.775704858992717e-01	 8.345796766714155e-01	-3.992190765032161e+02
1	 6.601986667880085e-01	 8.483883075830395e-01	-4.081631172055771e+02
1	 6.425682997491058e-01	 8.618184148803871e-01	-4.168490221317460e+02
1	 6.246917247129552e-01	 8.748629887823960e-01	-4.252046531643358e+02
1	 6.065815222375840e-01	 8.875155530706840e-01	-4.331597130830916e+02
1	 5.882504848991708e-01	 8.997701745858451e-01	-4.406460131412937e+02
1	 7.689786245654999e-01	 7.689786245654999e-01	-2.500633987878770e+02
1	 7.528893612501225e-01	 7.847380835625901e-01	-2.547756891378173e+02
1	 7.364807470347983e-01	 8.001577090321584e-01	-2.604819193963839e+02
1	 7.197636369223366e-01	 8.152279172353567e-01	-2.671162894545470e+02
1	 7.027492636147382e-01	 8.299395897070879e-01	-2.746100513962828e+02
1	 6.854492124774276e-01	 8.442840915157526e-01	-2.828918040318186e+02
1	 6.678753954696118e-01	 8.582532879032362e-01	-2.918877997920611e+02
1	 6.500400241629634e-01	 8.718395592390513e-01	-3.015222618723797e+02
1	 6.319555819754356e-01	 8.850358142330536e-01	-3.117177094461026e+02
1	 6.136347957506144e-01	 8.978355013619969e-01	-3.223952887229576e+02
1	 5.950906068155634e-01	 9.102326184762480e-01	-3.334751076056421e+02
1	 7.778174593279999e-01	 7.778174593279999e-01	-1.468473702905541e+02
1	 7.615432619513252e-01	 7.937580615321698e-01	-1.472749577047663e+02
1	 7.449460429747624e-01	 8.093549240762917e-01	-1.495517484058601e+02
1	 7.280367821712684e-01	 8.245983530635994e-01	-1.536229272775528e+02
1	 7.108268413543607e-01	 8.394791252190520e-01	-1.594274841961068e+02
1	 6.933279390545833e-01	 8.539885063589621e-01	-1.668984903569069e+02
1	 6.755521241502154e-01	 8.681182682222498e-01	-1.759634043346640e+02
1	 6.575117485758207e-01	 8.818607035964664e-01	-1.865444056582669e+02
1	 6.392194392369160e-01	 8.952086396823867e-01	-1.985587534708254e+02
1	 6.206880692626449e-01	 9.081554496518994e-01	-2.119191676616527e+02
1	 6.019307287309560e-01	 9.206950623651458e-01	-2.265342297017631e+02
1	 7.866562940895000e-01	 7.866562940895000e-01	-4.359745369609927e+01
1	 7.701971626515279e-01	 8.027780395007448e-01	-3.984799167112887e+01
1	 7.534113389137267e-01	 8.185521391194046e-01	-3.878496038692611e+01
1	 7.363099274192003e-01	 8.339687888907965e-01	-4.036437434264423e+01
1	 7.189044190929827e-01	 8.490186607299340e-01	-4.453285285921994e+01
1	 7.012066656307393e-01	 8.636929212010448e-01	-5.122787843871249e+01
1	 6.832288528298186e-01	 8.779832485400799e-01	-6.037810200155872e+01
1	 6.649834729876783e-01	 8.918818479526329e-01	-7.190369267689188e+01
1	 6.464832964973964e-01	 9.053814651303955e-01	-8.571672946973968e+01
1	 6.277413427736752e-01	 9.184753979403918e-01	-1.017216318081694e+02
1	 6.087708506453484e-01	 9.311575062525379e-01	-1.198156256868530e+02
1	 7.954951288500001e-01	 7.954951288500001e-01	 5.968522139305414e+01
1	 7.788510633507308e-01	 8.117980174683144e-01	 6.750766781071979e+01
1	 7.618766348516911e-01	 8.277493541614976e-01	 7.182389076062236e+01
1	 7.445830726661320e-01	 8.433392247169471e-01	 7.266719632624040e+01
1	 7.269819968306053e-01	 8.585581962397351e-01	 7.008344047798464e+01
1	 7.090853922058953e-01	 8.733973360420000e-01	 6.413078844965256e+01
1	 6.909055815084221e-01	 8.878482288567272e-01	 5.487941031322305e+01
1	 6.724551973985359e-01	 9.019029923075501e-01	 4.241111518148141e+01
1	 6.537471537568769e-01	 9.155542905770793e-01	 2.681892695841515e+01
1	 6.347946162837055e-01	 9.287953462274742e-01	 8.206605013340607e+00
1	 6.156109725587411e-01	 9.416199501384250e-01	-1.331188642890247e+01
1	 5.472097533798151e-01	 8.369955112118155e-01	-1.088985084799544e+03
1	 5.299642681697644e-01	 8.480199728994640e-01	-1.070926589748094e+03
1	 5.125376388923134e-01	 8.586647591951594e-01	-1.053006419546564e+03
1	 4.949421946770166e-01	 8.689259024143141e-01	-1.034190297704434e+03
1	 4.771903531042269e-01	 8.787999583847403e-01	-1.013459942658052e+03
1	 4.592945930433337e-01	 8.882840068073012e-01	-9.898170983693739e+02
1	 4.412674277413340e-01	 8.973756499704219e-01	-9.622873820127222e+02
1	 4.231213782743766e-01	 9.060730098564395e-01	-9.299239276987402e+02
1	 4.048689474701956e-01	 9.143747236862123e-01	-8.918108073981831e+02
1	 3.865225944039570e-01	 9.222799379563006e-01	-8.470662125614975e+02
1	 3.680947095640363e-01	 9.297883010302649e-01	-7.948453823510482e+02
1	 5.540498753022077e-01	 8.474579551112504e-01	-9.802491393560590e+02
1	 5.365888215273570e-01	 8.586202225706244e-01	-9.567943584846847e+02
1	 5.189443593841651e-01	 8.693980686955066e-01	-9.327123878587104e+02
1	 5.011289721163066e-01	 8.797874762052528e-01	-9.071428708978088e+02
1	 4.831552325238891e-01	 8.897849578755235e-01	-8.792414818789425e+02
1	 4.650357754621707e-01	 8.993875569034435e-01	-8.481832335897409e+02
1	 4.467832705937365e-01	 9.085928456060449e-01	-8.131656196743427e+02
1	 4.284103955081883e-01	 9.173989224904452e-01	-7.734115748222309e+02
1	 4.099298093186080e-01	 9.258044077427652e-01	-7.281722378761922e+02
1	 3.913541268386022e-01	 9.338084371907733e-01	-6.767295049513215e+02
1	 3.726958934376526e-01	 9.414106548025766e-01	-6.183983617350498e+02
1	 5.608899972236003e-01	 8.579203990091798e-01	-8.717982245552896e+02
1	 5.432133748839548e-01	 8.692204722401957e-01	-8.446564486463623e+02
1	 5.253510798750377e-01	 8.801313781942111e-01	-8.161393803820687e+02
1	 5.073157495546432e-01	 8.906490499945261e-01	-7.855572139366525e+02
1	 4.891201119426348e-01	 9.007699573646497e-01	-7.522362145642719e+02
1	 4.707769578801375e-01	 9.104911069979682e-01	-7.155213149575715e+02
1	 4.522991134453255e-01	 9.198100412401192e-01	-6.747785636107345e+02
1	 4.336994127412528e-01	 9.287248351230004e-01	-6.293974124758596e+02
1	 4.149906711663495e-01	 9.372340917979960e-01	-5.787928328441146e+02
1	 3.961856592726625e-01	 9.453369364240807e-01	-5.224072500856879e+02
1	 3.772970773107793e-01	 9.530330085739084e-01	-4.597122896231847e+02
1	 5.677301191439930e-01	 8.683828429056042e-01	-7.636220380822515e+02
1	 5.498379282395577e-01	 8.798207219081762e-01	-7.344407763241286e+02
1	 5.317578003649310e-01	 8.908646876912723e-01	-7.031529022640962e+02
1	 5.135025269920271e-01	 9.015106237821341e-01	-6.692359134520061e+02
1	 4.950849913604638e-01	 9.117549568521192e-01	-6.321834228773206e+02
1	 4.765181402972344e-01	 9.215946570908742e-01	-5.915070552623556e+02
1	 4.578149562961010e-01	 9.310272368726438e-01	-5.467382123900306e+02
1	 4.389884299735704e-01	 9.400507477541058e-01	-4.974296988329115e+02
1	 4.200515330134201e-01	 9.486637758519038e-01	-4.431572008137277e+02
1	 4.010171917061375e-01	 9.568654356562227e-01	-3.835206123219875e+02
1	 3.818982611834161e-01	 9.646553623442610e-01	-3.181452040191759e+02
1	 5.745702410633855e-01	 8.788452868005230e-01	-6.557107682083838e+02
1	 5.564624815941662e-01	 8.904209715745679e-01	-6.260786901761032e+02
1	 5.381645208538457e-01	 9.015979971866910e-01	-5.936248631690672e+02
1	 5.196893044284583e-01	 9.123721975680770e-01	-5.579909567115687e+02
1	 5.010498707773762e-01	 9.227399563379314e-01	-5.188348041165177e+02
1	 4.822593227134611e-01	 9.326982071821623e-01	-4.758316095417541e+02
1	 4.633307991460628e-01	 9.422444325036196e-01	-4.286750408390938e+02
1	 4.442774472051409e-01	 9.513766603837600e-01	-3.770782035823040e+02
1	 4.251123948598199e-01	 9.600934599044898e-01	-3.207744927487051e+02
1	 4.058487241390278e-01	 9.683939348871998e-01	-2.595183196197486e+02
1	 3.864994450555633e-01	 9.762777161136343e-01	-1.930857125457528e+02
1	 5.814103629817781e-01	 8.893077306939365e-01	-5.480550649335393e+02
1	 5.630870349477796e-01	 9.010212212393696e-01	-5.195047695118126e+02
1	 5.445712413417813e-01	 9.123313066804662e-01	-4.874332005417957e+02
1	 5.258760818639362e-01	 9.232337713523550e-01	-4.516431786410756e+02
1	 5.070147501933719e-01	 9.337249558220868e-01	-4.119537404133407e+02
1	 4.880005051288177e-01	 9.438017572718324e-01	-3.682006667140630e+02
1	 4.688466419952113e-01	 9.534616281330459e-01	-3.202369132047607e+02
1	 4.495664644359644e-01	 9.627025730119640e-01	-2.679329425453067e+02
1	 4.301732567055489e-01	 9.715231439557529e-01	-2.111769583909838e+02
1	 4.106802565713329e-01	 9.799224341170115e-01	-1.498750421522558e+02
1	 3.911006289272207e-01	 9.879000698820278e-01	-8.395119423174211e+01
1	 5.882504848991708e-01	 8.997701745858451e-01	-4.406460131412937e+02
1	 5.697115883003985e-01	 9.116214709025819e-01	-4.146566364636144e+02
1	 5.509779618287376e-01	 9.230646161725989e-01	-3.844615291552825e+02
1	 5.320628592984612e-01	 9.340953451349671e-01	-3.500217474255659e+02
1	 5.129796296084511e-01	 9.447099553045852e-01	-3.113146193815769e+02
1	 4.937416875433043e-01	 9.549053073598841e-01	-2.683336045851423e+02
1	 4.743624848435461e-01	 9.646788237609232e-01	-2.210880721410333e+02
1	 4.548554816660406e-01	 9.740284856387172e-01	-1.696030005748111e+02
1	 4.352341185506070e-01	 9.829528280056942e-01	-1.139186033085184e+02
1	 4.155117890030531e-01	 9.914509333456581e-01	-5.408988403831330e+01
1	 3.957018127983884e-01	 9.995224236494423e-01	 9.813873244091894e+00
1	 5.950906068155634e-01	 9.102326184762480e-01	-3.334751076056421e+02
1	 5.763361416520227e-01	 9.222217205642042e-01	-3.114747811118233e+02
1	 5.573846823147151e-01	 9.337979256630887e-01	-2.845988148274768e+02
1	 5.382496367320332e-01	 9.449569189159140e-01	-2.529636855864404e+02
1	 5.189445090226138e-01	 9.556949547854271e-01	-2.167022016183238e+02
1	 4.994828699569208e-01	 9.660088574463179e-01	-1.759627031307456e+02
1	 4.798783276910674e-01	 9.758960193872510e-01	-1.309081974213225e+02
1	 4.601444988953700e-01	 9.853543982640203e-01	-8.171543563398072e+01
1	 4.402949803949942e-01	 9.943825120543127e-01	-2.857393856046230e+01
1	 4.203433214341882e-01	 1.002979432573140e+00	 2.831502090750996e+01
1	 4.003029966690664e-01	 1.011144777415877e+00	 8.873947094673750e+01
1	 6.019307287309560e-01	 9.206950623651458e-01	-2.265342297017631e+02
1	 5.829606950026519e-01	 9.328219702242370e-01	-2.099023985331224e+02
1	 5.637914027997134e-01	 9.445312351519353e-01	-1.877390703846274e+02
1	 5.444364141646524e-01	 9.558184926951957e-01	-1.603134237123423e+02
1	 5.249093884358597e-01	 9.666799542646118e-01	-1.279110313299443e+02
1	 5.052240523696671e-01	 9.771124075311334e-01	-9.083241141867954e+01
1	 4.853941705377752e-01	 9.871132150120299e-01	-4.939152882938667e+01
1	 4.654335161239521e-01	 9.966803108878728e-01	-3.914257596793050e+00
1	 4.453558422387106e-01	 1.005812196101609e+00	 4.526318438757123e+01
1	 4.251748538647384e-01	 1.014507931799456e+00	 9.779581768032322e+01
1	 4.049041805392548e-01	 1.022767131181332e+00	 1.533314898926768e+02
1	 6.087708506453484e-01	 9.311575062525379e-01	-1.198156256868530e+02
1	 5.895852483522863e-01	 9.434222198826796e-01	-1.098852368344747e+02
1	 5.701981232837326e-01	 9.552645446391391e-01	-9.378107212149514e+01
1	 5.506231915963185e-01	 9.666800664728121e-01	-7.192238427560173e+01
1	 5.308742678481890e-01	 9.776649537421396e-01	-4.474488669108884e+01
1	 5.109652347815433e-01	 9.882159576143307e-01	-1.269866395194376e+01
1	 4.909100133836695e-01	 9.983304106352595e-01	 2.375395181878431e+01
1	 4.707225333517872e-01	 1.008006223510275e+00	 6.414052410649882e+01
1	 4.504167040817562e-01	 1.017241880147583e+00	 1.079806602031957e+02
1	 4.300063862947036e-01	 1.026036431024607e+00	 1.547881503765093e+02
1	 4.095053644089534e-01	 1.034389484945808e+00	 2.040730844234062e+02
1	 6.156109725587411e-01	 9.416199501384250e-01	-1.331188642890247e+01
1	 5.962098017009264e-01	 9.540224695395332e-01	-1.137145531810317e+01
1	 5.766048437667730e-01	 9.659978541247000e-01	-2.628095164209569e+00
1	 5.568099690270316e-01	 9.775416402487633e-01	 1.235140680574482e+01
1	 5.368391472596018e-01	 9.886499532180105e-01	 3.298373315354215e+01
1	 5.167064171925495e-01	 9.993195076959103e-01	 5.867175741100227e+01
1	 4.964258562287501e-01	 1.009547606256940e+00	 8.880728412120561e+01
1	 4.760115505788752e-01	 1.019332136131226e+00	 1.227737893536101e+02
1	 4.554775659241308e-01	 1.028671564192235e+00	 1.599491437909693e+02
1	 4.348379187240837e-01	 1.037564930248593e+00	 1.997083011325465e+02
1	 4.141065482781622e-01	 1.046011838709305e+00	 2.414259353540500e+02
1	 3.680947095640363e-01	 9.297883010302649e-01	-7.948453823510482e+02
1	 3.495975907771368e-01	 9.368999543523497e-01	-7.279268189017381e+02
1	 3.310434199775671e-01	 9.436155223571460e-01	-6.410016722076358e+02
1	 3.124442408950447e-01	 9.499361011546517e-01	-5.361332977784249e+02
1	 2.938119377279355e-01	 9.558632460744549e-01	-4.153912196132944e+02
1	 2.751582148638955e-01	 9.613989581557346e-01	-2.808428335760535e+02
1	 2.564945776994927e-01	 9.665456696731550e-01	-1.345454051341187e+02
1	 2.378323146029685e-01	 9.713062287906586e-01	 2.146160038418118e+01
1	 2.191824800562900e-01	 9.756838834365028e-01	 1.851638210957088e+02
1	 2.005558790047262e-01	 9.796822644935033e-01	 3.545789058596355e+02
1	 1.819630524344169e-01	 9.833053683983746e-01	 5.277630003937488e+02
1	 3.726958934376526e-01	 9.414106548025766e-01	-6.183983617350498e+02
1	 3.539675606653077e-01	 9.486112037905382e-01	-5.727310907807146e+02
1	 3.351814627300657e-01	 9.554107163947457e-01	-5.099173069260282e+02
1	 3.163497939082678e-01	 9.618103024265738e-01	-4.316700121485871e+02
1	 2.974845869507599e-01	 9.678115366572296e-01	-3.397093771319111e+02
1	 2.785976925500455e-01	 9.734164451388825e-01	-2.357557714109416e+02
1	 2.597007599201513e-01	 9.786274905496308e-01	-1.215230310782232e+02
1	 2.408052185339230e-01	 9.834475566554659e-01	 1.288003431767038e+00
1	 2.219222610543540e-01	 9.878799319837492e-01	 1.309956504715994e+02
1	 2.030628274885305e-01	 9.919282928033322e-01	 2.659432258231527e+02
1	 1.842375905849211e-01	 9.955966855063876e-01	 4.045045351149619e+02
1	 3.772970773107793e-01	 9.530330085739084e-01	-4.597122896231847e+02
1	 3.583375305530888e-01	 9.603224532279364e-01	-4.319994187097665e+02
1	 3.393195054822754e-01	 9.672059104317243e-01	-3.899527236515461e+02
1	 3.202553469213020e-01	 9.736845036980224e-01	-3.349413886279724e+02
1	 3.011572361734961e-01	 9.797598272396583e-01	-2.683427297562316e+02
1	 2.820371702362082e-01	 9.854339321217914e-01	-1.915365313319785e+02
1	 2.629069421409231e-01	 9.907093114259542e-01	-1.058995637400375e+02
1	 2.437781224650914e-01	 9.955888845201885e-01	-1.280030999709049e+01
1	 2.246620420527323e-01	 1.000075980530958e+00	 8.640607490426811e+01
1	 2.055697759727496e-01	 1.004174321113151e+00	 1.903825505626501e+02
1	 1.865121287359399e-01	 1.007888002614400e+00	 2.978147052927333e+02
1	 3.818982611834161e-01	 9.646553623442610e-01	-3.181452040191759e+02
1	 3.627075004404804e-01	 9.720337026645445e-01	-3.052090054794585e+02
1	 3.434575482341956e-01	 9.790011044680814e-01	-2.807060025495531e+02
1	 3.241608999341474e-01	 9.855587049689971e-01	-2.456678611133060e+02
1	 3.048298853961442e-01	 9.917081178217401e-01	-2.011353065763297e+02
1	 2.854766479223834e-01	 9.974514191044608e-01	-1.481537462740466e+02
1	 2.661131243618082e-01	 1.002791132302125e+00	-8.776901853861041e+01
1	 2.467510263964736e-01	 1.007730212384825e+00	-2.102328990962818e+01
1	 2.274018230514250e-01	 1.012272029078129e+00	 5.104888011290919e+01
1	 2.080767244573832e-01	 1.016420349422961e+00	 1.274242895410470e+02
1	 1.887866668874734e-01	 1.020179319722413e+00	 2.070946445808671e+02
1	 3.864994450555633e-01	 9.762777161136343e-01	-1.930857125457528e+02
1	 3.670774703274824e-01	 9.837449521003626e-01	-1.918619489857228e+02
1	 3.475955909858267e-01	 9.907962985038169e-01	-1.817943628253125e+02
1	 3.280664529468041e-01	 9.974329062394982e-01	-1.635831761730400e+02
1	 3.085025346187044e-01	 1.003656408403476e+00	-1.379385638685542e+02
1	 2.889161256085711e-01	 1.009468906086891e+00	-1.055775428418190e+02
1	 2.693193065828065e-01	 1.014872953178144e+00	-6.722093396820446e+01
1	 2.497239303280696e-01	 1.019871540249376e+00	-2.359041250303775e+01
1	 2.301416040504319e-01	 1.024468077625263e+00	 2.459433821133663e+01
1	 2.105836729424314e-01	 1.028666377732761e+00	 7.661835653298726e+01
1	 1.910612050395216e-01	 1.032470636830427e+00	 1.317740040788065e+02
1	 3.911006289272207e-01	 9.879000698820278e-01	-8.395119423174211e+01
1	 3.714474402140946e-01	 9.954562015353907e-01	-9.148377781189456e+01
1	 3.517336337371683e-01	 1.002591492538931e+00	-9.285303689811309e+01
1	 3.319720059592722e-01	 1.009307107509526e+00	-8.843360994900090e+01
1	 3.121751838411762e-01	 1.015604698984865e+00	-7.861094820221669e+01
1	 2.923556032947714e-01	 1.021486393069082e+00	-6.377945344682509e+01
1	 2.725254888039181e-01	 1.026954774054010e+00	-4.434063494681865e+01
1	 2.526968342598795e-01	 1.032012868113843e+00	-2.070129627094877e+01
1	 2.328813850497531e-01	 1.036664126172358e+00	 6.728237920053971e+00
1	 2.130906214278943e-01	 1.040912406042553e+00	 3.753584584176832e+01
1	 1.933357431920845e-01	 1.044761953938439e+00	 7.130927483478905e+01
1	 3.957018127983884e-01	 9.995224236494423e-01	 9.813873244091894e+00
1	 3.758174101003174e-01	 1.007167450969629e+00	-3.622088979426962e+00
1	 3.558716764882207e-01	 1.014386686573424e+00	-1.353422312136452e+01
1	 3.358775589715515e-01	 1.021181308779080e+00	-1.997723969281822e+01
1	 3.158478330635600e-01	 1.027552989565908e+00	-2.301749002720359e+01
1	 2.957950809809843e-01	 1.033503880051033e+00	-2.273233457449590e+01
1	 2.757316710251428e-01	 1.039036594929724e+00	-1.920947779155365e+01
1	 2.556697381919033e-01	 1.044154195978224e+00	-1.254627512573956e+01
1	 2.356211660493888e-01	 1.048860174719417e+00	-2.849017562059885e+00
1	 2.155975699137717e-01	 1.053158434352334e+00	 9.767800873239423e+00
1	 1.956102813451620e-01	 1.057053271046452e+00	 2.518222738369019e+01
1	 4.003029966690664e-01	 1.011144777415877e+00	 8.873947094673750e+01
1	 3.801873799861506e-01	 1.018878700403077e+00	 7.215472035315568e+01
1	 3.600097192389839e-01	 1.026181880607295e+00	 5.649388927108812e+01
1	 3.397831119836419e-01	 1.033055510048160e+00	 4.201673445878584e+01
1	 3.195204822858556e-01	 1.039501280146605e+00	 2.897057470996763e+01
1	 2.992345586672098e-01	 1.045521367032745e+00	 1.758970931203980e+01
1	 2.789378532464808e-01	 1.051118415805285e+00	 8.094921700871581e+00
1	 2.586426421241408e-01	 1.056295523842520e+00	 6.930680048324405e-01
1	 2.383609470493386e-01	 1.061056223266437e+00	-4.423250470316930e+00
1	 2.181045184000638e-01	 1.065404462662107e+00	-7.075932364371994e+00
1	 1.978848194987542e-01	 1.069344588154466e+00	-7.101541097075426e+00
1	 4.049041805392548e-01	 1.022767131181332e+00	 1.533314898926768e+02
1	 3.845573498715942e-01	 1.030589949835736e+00	 1.362586347162332e+02
1	 3.641477619894577e-01	 1.037977074640545e+00	 1.175480287377259e+02
1	 3.436886649955436e-01	 1.044929711316767e+00	 9.776862146610726e+01
1	 3.231931315080631e-01	 1.051449570726956e+00	 7.747615715119113e+01
1	 3.026740363534478e-01	 1.057538854014218e+00	 5.721139667978069e+01
1	 2.821440354679321e-01	 1.063200236680694e+00	 3.749847572454948e+01
1	 2.616155460565923e-01	 1.068436851706730e+00	 1.884340396258479e+01
1	 2.411007280496028e-01	 1.073252271813419e+00	 1.732708879983392e+00
1	 2.206114668867706e-01	 1.077650490971870e+00	-1.336777359015625e+01
1	 2.001593576528611e-01	 1.081635905262479e+00	-2.601396057408252e+01
1	 4.095053644089534e-01	 1.034389484945808e+00	 2.040730844234062e+02
1	 3.889273197566479e-01	 1.042301199267603e+00	 1.890831224814052e+02
1	 3.682858047396424e-01	 1.049772268673173e+00	 1.699306887500200e+02
1	 3.475942180072565e-01	 1.056803912584900e+00	 1.474888287630412e+02
1	 3.268657807301825e-01	 1.063397861306960e+00	 1.226166443420312e+02
1	 3.061135140396982e-01	 1.069556340995452e+00	 9.615633505337266e+01
1	 2.853502176894966e-01	 1.075282057555951e+00	 6.893042626265152e+01
1	 2.645884499892575e-01	 1.080578179570855e+00	 4.173919366398376e+01
1	 2.438405090501814e-01	 1.085448320360364e+00	 1.535829221039455e+01
1	 2.231184153738919e-01	 1.089896519281624e+00	-9.463404557996739e+00
1	 2.024338958074826e-01	 1.093927222370491e+00	-3.200575067792420e+01
1	 4.141065482781622e-01	 1.046011838709305e+00	 2.414259353540500e+02
1	 3.932972896413123e-01	 1.054012448698682e+00	 2.310041645369862e+02
1	 3.724238474895377e-01	 1.061567462705179e+00	 2.139309186250477e+02
1	 3.514997710187807e-01	 1.068678113852559e+00	 1.913784123418855e+02
1	 3.305384299522138e-01	 1.075346151886617e+00	 1.645042061259676e+02
1	 3.095529917259615e-01	 1.081573827976446e+00	 1.344470827341310e+02
1	 2.885563999111744e-01	 1.087363878431055e+00	 1.023231600991425e+02
1	 2.675613539221366e-01	 1.092719507434895e+00	 6.922225531821488e+01
1	 2.465802900510743e-01	 1.097644368907271e+00	 3.620451205504132e+01
1	 2.256253638614278e-01	 1.102142547591368e+00	 4.297301056458650e+00
1	 2.047084339626188e-01	 1.106218539478505e+00	-2.550759905522966e+01
1	 1.819630524344169e-01	 9.833053683983746e-01	 5.277630003937488e+02
1	 1.634142641907509e-01	 9.865575392429453e-01	 7.293474111582684e+02
1	 1.449194890435836e-01	 9.894434504702300e-01	 9.859135452270723e+02
1	 1.264884019976694e-01	 9.919680862544974e-01	 1.298299264885152e+03
1	 1.081303688402294e-01	 9.941367226520524e-01	 1.667112798614657e+03
1	 8.985443791194073e-02	 9.959549086084808e-01	 2.092739669347312e+03
1	 7.166933308134309e-02	 9.974284469032259e-01	 2.575350358178611e+03
1	 5.358344789747966e-02	 9.985633751090948e-01	 3.114908619980828e+03
1	 3.560484089073371e-02	 9.993659466402712e-01	 3.711180367485541e+03
1	 1.774123198744578e-02	 9.998426119581703e-01	 4.363743041270352e+03
1	 0.000000000000000e+00	 1.000000000000000e+00	 5.071995384615384e+03
1	 1.842375905849211e-01	 9.955966855063876e-01	 4.045045351149619e+02
1	 1.654569424871889e-01	 9.988895084859244e-01	 6.091464281873504e+02
1	 1.467309826500151e-01	 1.001811493603026e+00	 8.590176120057924e+02
1	 1.280695070157072e-01	 1.004367687334138e+00	 1.154814192868072e+03
1	 1.094819984438205e-01	 1.006563431686268e+00	 1.497040915707996e+03
1	 9.097761837928414e-02	 1.008404344966822e+00	 1.886016950354770e+03
1	 7.256519973898776e-02	 1.009896302489984e+00	 2.321882291848718e+03
1	 5.425324099133060e-02	 1.011045417298220e+00	 2.804604704957937e+03
1	 3.604990139831873e-02	 1.011858020973390e+00	 3.333987143155804e+03
1	 1.796299738536468e-02	 1.012340644607676e+00	 3.909675573045015e+03
1	 0.000000000000000e+00	 1.012500000000000e+00	 4.531167136497667e+03
1	 1.865121287359399e-01	 1.007888002614400e+00	 2.978147052927333e+02
1	 1.674996207842255e-01	 1.011221477728904e+00	 5.012001031646719e+02
1	 1.485424762570973e-01	 1.014179536735822e+00	 7.403338798864604e+02
1	 1.296506120344171e-01	 1.016767288413778e+00	 1.015771997378502e+03
1	 1.108336280480745e-01	 1.018990140720485e+00	 1.327916669970969e+03
1	 9.210079884725111e-02	 1.020853781325163e+00	 1.677021029235633e+03
1	 7.346106639718736e-02	 1.022364158076741e+00	 2.063194283275705e+03
1	 5.492303408563919e-02	 1.023527459487344e+00	 2.486407314113957e+03
1	 3.649496190623605e-02	 1.024350095306508e+00	 2.946498656917724e+03
1	 1.818476278346310e-02	 1.024838677257182e+00	 3.443180805388973e+03
1	 0.000000000000000e+00	 1.025000000000000e+00	 3.976046788688881e+03
1	 1.887866668874734e-01	 1.020179319722413e+00	 2.070946445808671e+02
1	 1.695422990818606e-01	 1.023553446971883e+00	 4.050654966425100e+02
1	 1.503539698648305e-01	 1.026547579868618e+00	 6.295655223194025e+02
1	 1.312317170537990e-01	 1.029166889493419e+00	 8.810120925135445e+02
1	 1.121852576529911e-01	 1.031416849754700e+00	 1.159705809452600e+03
1	 9.322397931584156e-02	 1.033303217683504e+00	 1.465834069916229e+03
1	 7.435693305594188e-02	 1.034832013663499e+00	 1.799475005063909e+03
1	 5.559282718040544e-02	 1.036009501676469e+00	 2.160601753796338e+03
1	 3.694002241448566e-02	 1.036842169639627e+00	 2.549087026663790e+03
1	 1.840652818174105e-02	 1.037336709906688e+00	 2.964707917792206e+03
1	 0.000000000000000e+00	 1.037500000000000e+00	 3.407150923099110e+03
1	 1.910612050395216e-01	 1.032470636830427e+00	 1.317740040788065e+02
1	 1.715849773800944e-01	 1.035885416214862e+00	 3.203207615280943e+02
1	 1.521654634732146e-01	 1.038915623001414e+00	 5.264298473526543e+02
1	 1.328128220738531e-01	 1.041566490573059e+00	 7.503815393180967e+02
1	 1.135368872585706e-01	 1.043843558788917e+00	 9.923757132472164e+02
1	 9.434715978505553e-02	 1.045752654041845e+00	 1.252534323754976e+03
1	 7.525279971525133e-02	 1.047299869250256e+00	 1.530904145408113e+03
1	 5.626262027562935e-02	 1.048491543865594e+00	 1.827459744336306e+03
1	 3.738508292306758e-02	 1.049334243972746e+00	 2.142106650387408e+03
1	 1.862829358019852e-02	 1.049834742556193e+00	 2.474684700245984e+03
1	 0.000000000000000e+00	 1.050000000000000e+00	 2.824971522500935e+03
1	 1.933357431920845e-01	 1.044761953938439e+00	 7.130927483478905e+01
1	 1.736276556789268e-01	 1.048217385457841e+00	 2.465639023568278e+02
1	 1.539769570822495e-01	 1.051283666134210e+00	 4.306574661850328e+02
1	 1.343939270945792e-01	 1.053966091652700e+00	 6.237345959643523e+02
1	 1.148885168648128e-01	 1.056270267823132e+00	 8.258952955505615e+02
1	 9.547034025489304e-02	 1.058202090400186e+00	 1.037196359693477e+03
1	 7.614866637511571e-02	 1.059767724837014e+00	 1.257652936588167e+03
1	 5.693241337131089e-02	 1.060973586054718e+00	 1.487240219226293e+03
1	 3.783014343198180e-02	 1.061826318305864e+00	 1.725895248529841e+03
1	 1.885005897883552e-02	 1.062332775205699e+00	 1.973518811448563e+03
1	 0.000000000000000e+00	 1.062500000000000e+00	 2.229977417537415e+03
1	 1.956102813451620e-01	 1.057053271046452e+00	 2.518222738369019e+01
1	 1.756703339783578e-01	 1.060549354700821e+00	 1.834116211278357e+02
1	 1.557884506919354e-01	 1.063651709267005e+00	 3.419915197271371e+02
1	 1.359750321159775e-01	 1.066365692732341e+00	 5.009322993141787e+02
1	 1.162401464717178e-01	 1.068696976857348e+00	 6.602349164097499e+02
1	 9.659352072535407e-02	 1.070651526758527e+00	 8.198912783505116e+02
1	 7.704453303553507e-02	 1.072235580423771e+00	 9.798846465919944e+02
1	 5.760220646745011e-02	 1.073455628243843e+00	 1.140190068540743e+03
1	 3.827520394122830e-02	 1.074318392638983e+00	 1.300774833605312e+03
1	 1.907182437765204e-02	 1.074830807855205e+00	 1.461598949229207e+03
1	 0.000000000000000e+00	 1.075000000000000e+00	 1.622615632776097e+03
1	 1.978848194987542e-01	 1.069344588154466e+00	-7.101541097075426e+00
1	 1.777130122783873e-01	 1.072881323943800e+00	 1.304982427370759e+02
1	 1.575999443022721e-01	 1.076019752399801e+00	 2.601869585029543e+02
1	 1.375561371380478e-01	 1.078765293811981e+00	 3.818420753392591e+02
1	 1.175917760792856e-01	 1.081123685891564e+00	 4.953662986283322e+02
1	 9.771670119643860e-02	 1.083100963116868e+00	 6.006869113509221e+02
1	 7.794039969650934e-02	 1.084703436010529e+00	 6.977550368334811e+02
1	 5.827199956404695e-02	 1.085937670432968e+00	 7.865448310865780e+02
1	 3.872026445080710e-02	 1.086810466972101e+00	 8.670526129554113e+02
1	 1.929358977664810e-02	 1.087328840504710e+00	 9.392959402532346e+02
1	 0.000000000000000e+00	 1.087500000000000e+00	 1.003312639931702e+03
1	 2.001593576528611e-01	 1.081635905262479e+00	-2.601396057408252e+01
1	 1.797556905790155e-01	 1.085213293186779e+00	 8.747471367636641e+01
1	 1.594114379132596e-01	 1.088387795532598e+00	 1.850098716491031e+02
1	 1.391372421607902e-01	 1.091164894891622e+00	 2.663373761034717e+02
1	 1.189434056875161e-01	 1.093550394925780e+00	 3.312624503369652e+02
1	 9.883988166814665e-02	 1.095550399475209e+00	 3.796480070639149e+02
1	 7.883626635803856e-02	 1.097171291597286e+00	 4.114127886623654e+02
1	 5.894179266110147e-02	 1.098419712622093e+00	 4.265293393615623e+02
1	 3.916532496071819e-02	 1.099302541305220e+00	 4.250218299520591e+02
1	 1.951535517582367e-02	 1.099826873154216e+00	 4.069637554290391e+02
1	 0.000000000000000e+00	 1.100000000000000e+00	 3.724755256417865e+02
1	 2.024338958074826e-01	 1.093927222370491e+00	-3.200575067792420e+01
1	 1.817983688802422e-01	 1.097545262429758e+00	 5.400766823585303e+01
1	 1.612229315248981e-01	 1.100755838665393e+00	 1.162368611500684e+02
1	 1.407183471842047e-01	 1.103564495971262e+00	 1.542973412183996e+02
1	 1.202950352964094e-01	 1.105977103959997e+00	 1.678975927840279e+02
1	 9.996306214047822e-02	 1.107999835833549e+00	 1.568364038196591e+02
1	 7.973213302012272e-02	 1.109639147184044e+00	 1.209999011206452e+02
1	 5.961158575861362e-02	 1.110901754811217e+00	 6.035832103232218e+01
1	 3.961038547096159e-02	 1.111794615638339e+00	-2.503745150983818e+01
1	 1.973712057517876e-02	 1.112324905803722e+00	-1.350595431393125e+02
1	 0.000000000000000e+00	 1.112500000000000e+00	-2.695069194840078e+02
1	 2.047084339626188e-01	 1.106218539478505e+00	-2.550759905522966e+01
1	 1.838410471820675e-01	 1.109877231672737e+00	 2.977855695964780e+01
1	 1.630344251371875e-01	 1.113123881798189e+00	 5.365445779109665e+01
1	 1.422994522082913e-01	 1.115964097050903e+00	 4.560648186844669e+01
1	 1.216466649059655e-01	 1.118403812994212e+00	 5.247092940184999e+00
1	 1.010862426134333e-01	 1.120449272191891e+00	-6.768880842187544e+01
1	 8.062799968276181e-02	 1.122107002770802e+00	-1.733479378181118e+02
1	 6.028137885658343e-02	 1.123383797000342e+00	-3.117630396861479e+02
1	 4.005544598153728e-02	 1.124286689971457e+00	-4.828576148192407e+02
1	 1.995888597471339e-02	 1.124822938453228e+00	-6.864509183296468e+02
1	 0.000000000000000e+00	 1.125000000000000e+00	-9.222631844180044e+02
1	 1.125000000000000e+00	 0.000000000000000e+00	 6.459042297902836e+02
1	 1.124822938453228e+00	 1.995888597471274e-02	 5.368915348852923e+02
1	 1.124286689971457e+00	 4.005544598153672e-02	 4.201874852208846e+02
1	 1.123383797000342e+00	 6.028137885658293e-02	 2.977270188268100e+02
1	 1.122107002770802e+00	 8.062799968276138e-02	 1.715408864042503e+02
1	 1.120449272191891e+00	 1.010862426134330e-01	 4.375244511794151e+01
1	 1.118403812994212e+00	 1.216466649059652e-01	-8.342615671055273e+01
1	 1.115964097050903e+00	 1.422994522082910e-01	-2.076984166608071e+02
1	 1.113123881798189e+00	 1.630344251371873e-01	-3.266885457806295e+02
1	 1.109877231672737e+00	 1.838410471820675e-01	-4.379471711670459e+02
1	 1.106218539478505e+00	 2.047084339626188e-01	-5.389576734747988e+02
1	 1.137500000000000e+00	 0.000000000000000e+00	 5.167273962769835e+02
1	 1.137320971102731e+00	 2.018065137442460e-02	 4.280884105401573e+02
1	 1.136778764304567e+00	 4.050050649243549e-02	 3.329291844693613e+02
1	 1.135865839189446e+00	 6.095117195498952e-02	 2.329511265696087e+02
1	 1.134574858357522e+00	 8.152386634591800e-02	 1.299392614911254e+02
1	 1.132898708550173e+00	 1.022094230869528e-01	 2.575937938422267e+01
1	 1.130830522028343e+00	 1.229982945160989e-01	-7.764534912299179e+01
1	 1.128363698130427e+00	 1.438805572329329e-01	-1.782583031981784e+02
1	 1.125491924930832e+00	 1.648459187499742e-01	-2.739938947731014e+02
1	 1.122209200915521e+00	 1.858837254842960e-01	-3.627026079061917e+02
1	 1.118509856586275e+00	 2.069829721180270e-01	-4.421765941996497e+02
1	 1.150000000000000e+00	 0.000000000000000e+00	 4.049096781430109e+02
1	 1.149819003752230e+00	 2.040241677431140e-02	 3.336727173850822e+02
1	 1.149270838637657e+00	 4.094556700364810e-02	 2.570507427225794e+02
1	 1.148347881378508e+00	 6.162096505381197e-02	 1.765154569216521e+02
1	 1.147042713944167e+00	 8.241973300955485e-02	 9.361018024826181e+01
1	 1.145348144908337e+00	 1.033326035609785e-01	 9.947350969488681e+00
1	 1.143257231062303e+00	 1.243499241267248e-01	-7.279443484501128e+01
1	 1.140763299209717e+00	 1.454616622580135e-01	-1.528738533445866e+02
1	 1.137859968063168e+00	 1.666574123631049e-01	-2.284907588925973e+02
1	 1.134541170157914e+00	 1.879264037867323e-01	-2.977905689436961e+02
1	 1.130801173693560e+00	 2.092575102734646e-01	-3.588691272178284e+02
1	 1.162500000000000e+00	 0.000000000000000e+00	 3.098911039270119e+02
1	 1.162317036401724e+00	 2.062418217437315e-02	 2.531803447382163e+02
1	 1.161762912970730e+00	 4.139062751517460e-02	 1.921850677556686e+02
1	 1.160829923567528e+00	 6.229075815305031e-02	 1.281509704446108e+02
1	 1.159510569530738e+00	 8.331559967367190e-02	 6.238356062225242e+01
1	 1.157797581266385e+00	 1.044557840355102e-01	-3.753996168341203e+00
1	 1.155683940096093e+00	 1.257015537378430e-01	-6.884341731759892e+01
1	 1.153162900288774e+00	 1.470427672835326e-01	-1.314142392407117e+02
1	 1.150228011195196e+00	 1.684689059765797e-01	-1.899471537787854e+02
1	 1.146873139399917e+00	 1.899690820893765e-01	-2.428777470422543e+02
1	 1.143092490800359e+00	 2.115320484289315e-01	-2.886006398723765e+02
1	 1.175000000000000e+00	 0.000000000000000e+00	 2.311355307395512e+02
1	 1.174815069051214e+00	 2.084594757460985e-02	 1.861669313078182e+02
1	 1.174254987303784e+00	 4.183568802701497e-02	 1.379806882891299e+02
1	 1.173311965756507e+00	 6.296055125270457e-02	 8.760007618670433e+01
1	 1.171978425117234e+00	 8.421146633826908e-02	 3.609655809381195e+01
1	 1.170247017624314e+00	 1.055789645105478e-01	-1.541202419722428e+01
1	 1.168110649129713e+00	 1.270531833494537e-01	-6.576357643106495e+01
1	 1.165562501367597e+00	 1.486238723094903e-01	-1.137542001702514e+02
1	 1.162596054326918e+00	 1.702803995903985e-01	-1.581409667464329e+02
1	 1.159205108641529e+00	 1.920117603922284e-01	-1.976450182516241e+02
1	 1.155383807906674e+00	 2.138065865844276e-01	-2.309549945136228e+02
1	 1.187500000000000e+00	 0.000000000000000e+00	 1.681293901277932e+02
1	 1.187313101700699e+00	 2.106771297502151e-02	 1.322068257507012e+02
1	 1.186747061636820e+00	 4.228074853916918e-02	 9.410093183383377e+01
1	 1.185794007945443e+00	 6.363034435277468e-02	 5.461602913078979e+01
1	 1.184446280703655e+00	 8.510733300334646e-02	 1.459318475493157e+01
1	 1.182696453982126e+00	 1.067021449860912e-01	-2.509125898331384e+01
1	 1.180537358163162e+00	 1.284048129615565e-01	-6.352740134350658e+01
1	 1.177962102446187e+00	 1.502049773358866e-01	-9.977374955239009e+01
1	 1.174964097458333e+00	 1.720918932045612e-01	-1.328594372235452e+02
1	 1.171537077882749e+00	 1.940544386952882e-01	-1.617866954198141e+02
1	 1.167675125012503e+00	 2.160811247399532e-01	-1.855335750777133e+02
1	 1.200000000000000e+00	 0.000000000000000e+00	 1.203805123236401e+02
1	 1.199811134350180e+00	 2.128947837560811e-02	 9.089211219577820e+01
1	 1.199239135969837e+00	 4.272580905163728e-02	 6.022315392070824e+01
1	 1.198276050134338e+00	 6.430013745326070e-02	 2.896236530194103e+01
1	 1.196914136290001e+00	 8.600319966890399e-02	-2.276047806288844e+00
1	 1.195145890339820e+00	 1.078253254621407e-01	-3.285353781501181e+01
1	 1.192964067196440e+00	 1.297564425741518e-01	-6.210852749810261e+01
1	 1.190361703524544e+00	 1.517860823627215e-01	-8.935790024723903e+01
1	 1.187332140589441e+00	 1.739033868190680e-01	-1.138986696621275e+02
1	 1.183869047123579e+00	 1.960971169985557e-01	-1.350098283598236e+02
1	 1.179966442117847e+00	 2.183556628955082e-01	-1.519543745039879e+02
1	 1.212500000000000e+00	 0.000000000000000e+00	 8.741702321878684e+01
1	 1.212309166999656e+00	 2.151124377636965e-02	 6.183169604449351e+01
1	 1.211731210302836e+00	 4.317086956441923e-02	 3.603801500693746e+01
1	 1.210758092323192e+00	 6.496993055416259e-02	 1.041237181682676e+01
1	 1.209381991876273e+00	 8.689906633494171e-02	-1.465446353121047e+01
1	 1.207595326697396e+00	 1.089485059386960e-01	-3.875814798945104e+01
1	 1.205390776229548e+00	 1.311080721872393e-01	-6.148167753625837e+01
1	 1.202761304602666e+00	 1.533671873899949e-01	-8.239640685269278e+01
1	 1.199700183720242e+00	 1.757148804339188e-01	-1.010631765781756e+02
1	 1.196201016364018e+00	 1.981397953020310e-01	-1.170335473050394e+02
1	 1.192257759222705e+00	 2.206302010510924e-01	-1.298511386007681e+02
1	 1.225000000000000e+00	 0.000000000000000e+00	 6.878630887191113e+01
1	 1.224807199649127e+00	 2.173300917730615e-02	 4.465044574266003e+01
1	 1.224223284635816e+00	 4.361593007751505e-02	 2.124880165320845e+01
1	 1.223240134512003e+00	 6.563972365548039e-02	-1.251410620954601e+00
1	 1.221849847462470e+00	 8.779493300145964e-02	-2.267953640445486e+01
1	 1.220044763054855e+00	 1.100716864157573e-01	-4.286195691409017e+01
1	 1.217817485262486e+00	 1.324597018008191e-01	-6.162260582830626e+01
1	 1.215160905680556e+00	 1.549482924177070e-01	-7.878352377902912e+01
1	 1.212068226850737e+00	 1.775263740491136e-01	-9.416544956881162e+01
1	 1.208532985604066e+00	 2.001824736057143e-01	-1.075884465612407e+02
1	 1.204549076327078e+00	 2.229047392067060e-01	-1.188725623275266e+02
1	 1.237500000000000e+00	 0.000000000000000e+00	 6.405404277300310e+01
1	 1.237305232298594e+00	 2.195477457841760e-02	 3.898838656611880e+01
1	 1.236715358968778e+00	 4.406099059092473e-02	 1.557078884173090e+01
1	 1.235722176700773e+00	 6.630951675721405e-02	-6.237655073742637e+00
1	 1.234317703048592e+00	 8.869079966845773e-02	-2.648318590626302e+01
1	 1.232494199412197e+00	 1.111948668933245e-01	-4.521953432336332e+01
1	 1.230244194295253e+00	 1.338113314148913e-01	-6.250804636598382e+01
1	 1.227560506758211e+00	 1.565293974458576e-01	-7.841777798565528e+01
1	 1.224436269980924e+00	 1.793378676646523e-01	-9.302555632838136e+01
1	 1.220864954843724e+00	 2.022251519096052e-01	-1.064160055130301e+02
1	 1.216840393430966e+00	 2.251792773623488e-01	-1.186815347872292e+02
1	 1.250000000000000e+00	 0.000000000000000e+00	 7.280327147183206e+01
1	 1.249803264948056e+00	 2.217653997970400e-02	 4.449994277926118e+01
1	 1.249207433301722e+00	 4.450605110464827e-02	 1.873064055517354e+01
1	 1.248204218889501e+00	 6.697930985936361e-02	-4.746687681511364e+00
1	 1.246785558634639e+00	 8.958666633593600e-02	-2.619205473771135e+01
1	 1.244943635769421e+00	 1.123180473713976e-01	-4.588326716233128e+01
1	 1.242670903327850e+00	 1.351629610294558e-01	-6.411566378136381e+01
1	 1.239960107835634e+00	 1.581105024744469e-01	-8.120175535364829e+01
1	 1.236804313110804e+00	 1.811493612805350e-01	-9.747076184358629e+01
1	 1.233196924082991e+00	 2.042678302137040e-01	-1.132680443698789e+02
1	 1.229131710534368e+00	 2.274538155180211e-01	-1.289544295191389e+02
1	 1.106218539478505e+00	 2.047084339626188e-01	-5.389576734747988e+02
1	 1.102142547591368e+00	 2.256253638614272e-01	-4.628001187786528e+02
1	 1.097644368907272e+00	 2.465802900510737e-01	-3.841949103311675e+02
1	 1.092719507434896e+00	 2.675613539221362e-01	-3.045702630266378e+02
1	 1.087363878431055e+00	 2.885563999111739e-01	-2.253995917331650e+02
1	 1.081573827976446e+00	 3.095529917259612e-01	-1.481972178885525e+02
1	 1.075346151886618e+00	 3.305384299522137e-01	-7.451369795319989e+01
1	 1.068678113852559e+00	 3.514997710187806e-01	-5.930786687324847e+00
1	 1.061567462705179e+00	 3.724238474895377e-01	 5.594394822142363e+01
1	 1.054012448698681e+00	 3.932972896413123e-01	 1.094828400671740e+02
1	 1.046011838709305e+00	 4.141065482781622e-01	 1.530441418855789e+02
1	 1.118509856586275e+00	 2.069829721180270e-01	-4.421765941996497e+02
1	 1.114388575900822e+00	 2.281323123490921e-01	-3.811505446123477e+02
1	 1.109840417453845e+00	 2.493200710519664e-01	-3.179439003542823e+02
1	 1.104860835298564e+00	 2.705342578549000e-01	-2.538048913651809e+02
1	 1.099445699305754e+00	 2.917625821326358e-01	-1.900214053787620e+02
1	 1.093591314957006e+00	 3.129924694119225e-01	-1.279172341224944e+02
1	 1.087294442465818e+00	 3.342110791738725e-01	-6.884798803826470e+01
1	 1.080552315119742e+00	 3.554053240298770e-01	-1.419669083740238e+01
1	 1.073362656736697e+00	 3.765618902389651e-01	 3.463093167825998e+01
1	 1.065723698129263e+00	 3.976672595254847e-01	 7.621145095442550e+01
1	 1.057634192472302e+00	 4.187077321468711e-01	 1.091090024744831e+02
1	 1.130801173693560e+00	 2.092575102734646e-01	-3.588691272178284e+02
1	 1.126634604209704e+00	 2.306392608366003e-01	-3.110999581738543e+02
1	 1.122036465999790e+00	 2.520598520525441e-01	-2.614095794227925e+02
1	 1.117002163161574e+00	 2.735071617872195e-01	-2.108692949118238e+02
1	 1.111527520179795e+00	 2.949687643535529e-01	-1.605846148953479e+02
1	 1.105608801936938e+00	 3.164319470972682e-01	-1.116920341467710e+02
1	 1.099242733044450e+00	 3.378837283948746e-01	-6.535552469153626e+01
1	 1.092426516386447e+00	 3.593108770403062e-01	-2.276275274191430e+01
1	 1.085157850767857e+00	 3.806999329877463e-01	 1.487896780234225e+01
1	 1.077434947559639e+00	 4.020372294090629e-01	 4.634697021774178e+01
1	 1.069256546235278e+00	 4.233089160150696e-01	 7.040776041880304e+01
1	 1.143092490800359e+00	 2.115320484289315e-01	-2.886006398723765e+02
1	 1.138880632518016e+00	 2.331462093239517e-01	-2.522741985673029e+02
1	 1.134232514545106e+00	 2.547996330528071e-01	-2.142785059537975e+02
1	 1.129143491023926e+00	 2.764800657190944e-01	-1.755109002723512e+02
1	 1.123609341053178e+00	 2.981749465739247e-01	-1.368975623513694e+02
1	 1.117626288916241e+00	 3.198714247819978e-01	-9.939081848404683e+01
1	 1.111191023622513e+00	 3.415563776152200e-01	-6.396620318466118e+01
1	 1.104300717652674e+00	 3.632164300500684e-01	-3.161928989211500e+01
1	 1.096953044798661e+00	 3.848379757358811e-01	-3.362299943236810e+00
1	 1.089146196989810e+00	 4.064071992920468e-01	 1.977949758783616e+01
1	 1.080878899998233e+00	 4.279100998827580e-01	 3.677158032094464e+01
1	 1.155383807906674e+00	 2.138065865844276e-01	-2.309549945136228e+02
1	 1.151126660825756e+00	 2.356531578111465e-01	-2.043150266375221e+02
1	 1.146428563089792e+00	 2.575394140527553e-01	-1.762505763044101e+02
1	 1.141284818885619e+00	 2.794529696505251e-01	-1.474878818567659e+02
1	 1.135691161925902e+00	 3.013811287937518e-01	-1.187767454720602e+02
1	 1.129643775894916e+00	 3.233109024661115e-01	-9.088835359225776e+01
1	 1.123139314200007e+00	 3.452290268349085e-01	-6.461290196924016e+01
1	 1.116174918918422e+00	 3.671219830591637e-01	-4.075703180090895e+01
1	 1.108748238829107e+00	 3.889760184833697e-01	-2.014108526402231e+01
1	 1.100857446419777e+00	 4.107771691744366e-01	-3.596190597375148e+00
1	 1.092501253761168e+00	 4.325112837499361e-01	 8.038811268295881e+00
1	 1.167675125012503e+00	 2.160811247399532e-01	-1.855335750777133e+02
1	 1.163372689132924e+00	 2.381601062981845e-01	-1.668792869836617e+02
1	 1.158624611633849e+00	 2.602791950523886e-01	-1.470383227748979e+02
1	 1.153426146746654e+00	 2.824258735815113e-01	-1.265685962053719e+02
1	 1.147772982797968e+00	 3.045873110130340e-01	-1.060463883943415e+02
1	 1.141661262872963e+00	 3.267503801496095e-01	-8.606467892064552e+01
1	 1.135087604776933e+00	 3.489016760539403e-01	-6.723132566735553e+01
1	 1.128049120183692e+00	 3.710275360675916e-01	-5.016709831750163e+01
1	 1.120543432859196e+00	 3.931140612302118e-01	-3.550357181479516e+01
1	 1.112568695849540e+00	 4.151471390562321e-01	-2.388088752999770e+01
1	 1.104123607524082e+00	 4.371124676166038e-01	-1.594539129756036e+01
1	 1.179966442117847e+00	 2.183556628955082e-01	-1.519543745039879e+02
1	 1.175618717439522e+00	 2.406670547850658e-01	-1.396381223469676e+02
1	 1.170820660177278e+00	 2.630189760517072e-01	-1.263662554866279e+02
1	 1.165567474607031e+00	 2.853987775120529e-01	-1.125310516694770e+02
1	 1.159854803669377e+00	 3.077934932317711e-01	-9.853803924953998e+01
1	 1.153678749850381e+00	 3.301898578324914e-01	-8.480483227478987e+01
1	 1.147035895353290e+00	 3.525743252723154e-01	-7.175985787519168e+01
1	 1.139923321448485e+00	 3.749330890753527e-01	-5.984097929738392e+01
1	 1.132338626888928e+00	 3.972521039764076e-01	-4.949401893138425e+01
1	 1.124279945279097e+00	 4.195171089374333e-01	-4.117118668580220e+01
1	 1.115745961286976e+00	 4.417136514827613e-01	-3.532942007845956e+01
1	 1.192257759222705e+00	 2.206302010510924e-01	-1.298511386007681e+02
1	 1.187864745745548e+00	 2.431740032717905e-01	-1.222762365931278e+02
1	 1.183016708720077e+00	 2.657587570507109e-01	-1.139702449685942e+02
1	 1.177708802466750e+00	 2.883716814421504e-01	-1.051624108953532e+02
1	 1.171936624540126e+00	 3.109996754499633e-01	-9.609019263789756e+01
1	 1.165696236827171e+00	 3.336293355147576e-01	-8.699859216937338e+01
1	 1.158984185929078e+00	 3.562469744900338e-01	-7.813942307158416e+01
1	 1.151797522712798e+00	 3.788386420824467e-01	-6.977051552984211e+01
1	 1.144133820918304e+00	 4.013901467219569e-01	-6.215486082236289e+01
1	 1.135991194708451e+00	 4.238870788180404e-01	-5.555969830444659e+01
1	 1.127368315049849e+00	 4.463148353484084e-01	-5.025554848958102e+01
1	 1.204549076327078e+00	 2.229047392067060e-01	-1.188725623275266e+02
1	 1.200110774051002e+00	 2.456809517583584e-01	-1.144912028181488e+02
1	 1.195212757262247e+00	 2.684985380493998e-01	-1.095969425447701e+02
1	 1.189850130325810e+00	 2.913445853718033e-01	-1.042585237683619e+02
1	 1.184018445410218e+00	 3.142058576676106e-01	-9.854793521688683e+01
1	 1.177713723803332e+00	 3.370688131964078e-01	-9.254023595526395e+01
1	 1.170932476504299e+00	 3.599196237070955e-01	-8.631335698114955e+01
1	 1.163671723976633e+00	 3.827441950888736e-01	-7.994788083317292e+01
1	 1.155929014947322e+00	 4.055281894668601e-01	-7.352679968778884e+01
1	 1.147702444137599e+00	 4.282570486980532e-01	-6.713525261581015e+01
1	 1.138990668812702e+00	 4.509160192135453e-01	-6.086024286795050e+01
1	 1.216840393430966e+00	 2.251792773623488e-01	-1.186815347872292e+02
1	 1.212356802355885e+00	 2.481879002447696e-01	-1.159928133872121e+02
1	 1.207408805803788e+00	 2.712383190477738e-01	-1.130032358495019e+02
1	 1.201991458184212e+00	 2.943174893010117e-01	-1.096234886634971e+02
1	 1.196100266279652e+00	 3.174120398847128e-01	-1.057626127690225e+02
1	 1.189731210778864e+00	 3.405082908774421e-01	-1.013283126055643e+02
1	 1.182880767078950e+00	 3.635922729235002e-01	-9.622728479419419e+01
1	 1.175545925239990e+00	 3.866497480946335e-01	-9.036556523503589e+01
1	 1.167724208975982e+00	 4.096662322111168e-01	-8.364889319438062e+01
1	 1.159413693566543e+00	 4.326270185774718e-01	-7.598309074957635e+01
1	 1.150613022575534e+00	 4.555172030781720e-01	-6.727445575921487e+01
1	 1.229131710534368e+00	 2.274538155180211e-01	-1.289544295191389e+02
1	 1.224602830660197e+00	 2.506948487310240e-01	-1.265024689711984e+02
1	 1.219604854344699e+00	 2.739781000458331e-01	-1.239557370119780e+02
1	 1.214132786041956e+00	 2.972903932297759e-01	-1.210692400208961e+02
1	 1.208182087148427e+00	 3.206182221012702e-01	-1.175915172456051e+02
1	 1.201748697753769e+00	 3.439477685578606e-01	-1.132654291344973e+02
1	 1.194829057653032e+00	 3.672649221392482e-01	-1.078290066934288e+02
1	 1.187420126502869e+00	 3.905553010997262e-01	-1.010163591619862e+02
1	 1.179519403004286e+00	 4.138042749547273e-01	-9.255863670218511e+01
1	 1.171124942995283e+00	 4.369969884562962e-01	-8.218504419024413e+01
1	 1.162235376338345e+00	 4.601183869422883e-01	-6.962390160720997e+01
1	 1.046011838709305e+00	 4.141065482781622e-01	 1.530441418855789e+02
1	 1.037564930248593e+00	 4.348379187240830e-01	 1.134717552663494e+02
1	 1.028671564192235e+00	 4.554775659241303e-01	 7.545197449731886e+01
1	 1.019332136131226e+00	 4.760115505788748e-01	 3.957425602669338e+01
1	 1.009547606256940e+00	 4.964258562287497e-01	 6.430922368431929e+00
1	 9.993195076959104e-01	 5.167064171925492e-01	-2.338523454506952e+01
1	 9.886499532180107e-01	 5.368391472596017e-01	-4.928341449965366e+01
1	 9.775416402487633e-01	 5.568099690270316e-01	-7.067732016147455e+01
1	 9.659978541247000e-01	 5.766048437667730e-01	-8.698770293534383e+01
1	 9.540224695395332e-01	 5.962098017009265e-01	-9.764492745184191e+01
1	 9.416199501384250e-01	 6.156109725587411e-01	-1.020915380176759e+02
1	 1.057634192472302e+00	 4.187077321468711e-01	 1.091090024744831e+02
1	 1.049093429472079e+00	 4.396694511529656e-01	 7.727325965067965e+01
1	 1.040101248236386e+00	 4.605384277660148e-01	 4.678567006486664e+01
1	 1.030658048751678e+00	 4.813005678054846e-01	 1.815503061283307e+01
1	 1.020764801878120e+00	 5.019416990733694e-01	-8.107421829477758e+00
1	 1.010423057776990e+00	 5.224475996031163e-01	-3.149008291207161e+01
1	 9.996349526933814e-01	 5.428040266706026e-01	-5.148310892864330e+01
1	 9.884032140242147e-01	 5.629967464573652e-01	-6.758058802847360e+01
1	 9.767311636097610e-01	 5.830115642494709e-01	-7.928274125762584e+01
1	 9.646227191958864e-01	 6.028343550492662e-01	-8.609813952698782e+01
1	 9.520823940238123e-01	 6.224510944718811e-01	-8.754592208864587e+01
1	 1.069256546235278e+00	 4.233089160150696e-01	 7.040776041880304e+01
1	 1.060621928695730e+00	 4.445009835814379e-01	 4.558762578884424e+01
1	 1.051530932280860e+00	 4.655992896075891e-01	 2.191663617007275e+01
1	 1.041983961372580e+00	 4.865895850318852e-01	-1.757003078691284e-01
1	 1.031981997499850e+00	 5.074575419178803e-01	-2.025785459025380e+01
1	 1.021526607858687e+00	 5.281887820136757e-01	-3.789802971655008e+01
1	 1.010619952169409e+00	 5.487689060816964e-01	-5.266596069965593e+01
1	 9.992647878003310e-01	 5.691835238878922e-01	-6.413475066792181e+01
1	 9.874644730954648e-01	 5.894182847324629e-01	-7.188273204165286e+01
1	 9.752229688528294e-01	 6.094589083980005e-01	-7.549534097759992e+01
1	 9.625448379097046e-01	 6.292912163855157e-01	-7.456699287971617e+01
1	 1.080878899998233e+00	 4.279100998827580e-01	 3.677158032094464e+01
1	 1.072150427919546e+00	 4.493325160095001e-01	 1.826927749592327e+01
1	 1.062960616325657e+00	 4.706601514488539e-01	 7.223802154228665e-01
1	 1.053309873993932e+00	 4.918786022580766e-01	-1.551756558971665e+01
1	 1.043199193122128e+00	 5.129733847622828e-01	-3.009740531489715e+01
1	 1.032630157941003e+00	 5.339299644242272e-01	-4.266381371847825e+01
1	 1.021604951646094e+00	 5.547337854928831e-01	-5.286477118871555e+01
1	 1.010126361577113e+00	 5.753703013186130e-01	-6.035106953878963e+01
1	 9.981977825818115e-01	 5.958250052157493e-01	-6.477783811131162e+01
1	 9.858232185103620e-01	 6.160834617471294e-01	-6.580608053363156e+01
1	 9.730072817961023e-01	 6.361313382996451e-01	-6.310421210978851e+01
1	 1.092501253761168e+00	 4.325112837499361e-01	 8.038811268295881e+00
1	 1.083678927143527e+00	 4.541640484371521e-01	-4.821166681756726e+00
1	 1.074390300370775e+00	 4.757210132898089e-01	-1.691437794567017e+01
1	 1.064635786615735e+00	 4.971676194840585e-01	-2.796595456132940e+01
1	 1.054416388744956e+00	 5.184892276065766e-01	-3.769982555758904e+01
1	 1.043733708023937e+00	 5.396711468347709e-01	-4.583984436892065e+01
1	 1.032589951123436e+00	 5.606986649041628e-01	-5.211094596862981e+01
1	 1.020987935354560e+00	 5.815570787495272e-01	-5.624032688903552e+01
1	 1.008931092068801e+00	 6.022317256993295e-01	-5.795864089371933e+01
1	 9.964234681684848e-01	 6.227080150966529e-01	-5.700120272373313e+01
1	 9.834697256830054e-01	 6.429714602142690e-01	-5.310919206286428e+01
1	 1.104123607524082e+00	 4.371124676166038e-01	-1.594539129756036e+01
1	 1.095207426367674e+00	 4.589955808643940e-01	-2.381721950510734e+01
1	 1.085819984416216e+00	 4.807818751304540e-01	-3.110598034838549e+01
1	 1.075961699237989e+00	 5.024566367098313e-01	-3.761224015857307e+01
1	 1.065633584368334e+00	 5.240050704507618e-01	-4.313576154394227e+01
1	 1.054837258107488e+00	 5.454123292453066e-01	-4.747632440523792e+01
1	 1.043574950601434e+00	 5.666635443155353e-01	-5.043456827231666e+01
1	 1.031849509132672e+00	 5.877438561806352e-01	-5.181285097723737e+01
1	 1.019664401556434e+00	 6.086384461832040e-01	-5.141611838747616e+01
1	 1.007023717827197e+00	 6.293325684465709e-01	-4.905277967532223e+01
1	 9.939321695704136e-01	 6.498115821293877e-01	-4.453558240041033e+01
1	 1.115745961286976e+00	 4.417136514827613e-01	-3.532942007845956e+01
1	 1.106735925591986e+00	 4.638271132912256e-01	-3.884683070335893e+01
1	 1.097249668461980e+00	 4.858427369707892e-01	-4.196008810979633e+01
1	 1.087287611860693e+00	 5.077456539353947e-01	-4.454398811167918e+01
1	 1.076850779992260e+00	 5.295209132948384e-01	-4.647291590686188e+01
1	 1.065940808191658e+00	 5.511535116558346e-01	-4.762136478409063e+01
1	 1.054559950080090e+00	 5.726284237270007e-01	-4.786446786467276e+01
1	 1.042711082911450e+00	 5.939306336119368e-01	-4.707853971787260e+01
1	 1.030397711044709e+00	 6.150451666673727e-01	-4.514162450789990e+01
1	 1.017623967486499e+00	 6.359571217968834e-01	-4.193404717714922e+01
1	 1.004394613458327e+00	 6.566517040450012e-01	-3.733896404795222e+01
1	 1.127368315049849e+00	 4.463148353484084e-01	-5.025554848958102e+01
1	 1.118264424816463e+00	 4.686586457176470e-01	-5.003267372826976e+01
1	 1.108679352508066e+00	 4.909035988108147e-01	-4.957992271330720e+01
1	 1.098613524483847e+00	 5.130346711607490e-01	-4.884515319295834e+01
1	 1.088067975616736e+00	 5.350367561388065e-01	-4.777619941812779e+01
1	 1.077044358276446e+00	 5.568946940663547e-01	-4.632109250518546e+01
1	 1.065544949559402e+00	 5.785933031385589e-01	-4.442828565432616e+01
1	 1.053572656690893e+00	 6.001174110434317e-01	-4.204688286400321e+01
1	 1.041131020533627e+00	 6.214518871518355e-01	-3.912686970987634e+01
1	 1.028224217146390e+00	 6.425816751475903e-01	-3.561934469675558e+01
1	 1.014857057346746e+00	 6.634918259611092e-01	-3.147674964538260e+01
1	 1.138990668812702e+00	 4.509160192135453e-01	-6.086024286795050e+01
1	 1.129792924041105e+00	 4.734901781436583e-01	-5.749241495195540e+01
1	 1.120109036554474e+00	 4.959644606505302e-01	-5.406449252057378e+01
1	 1.109939437107452e+00	 5.183236883858939e-01	-5.059626344934490e+01
1	 1.099285171241760e+00	 5.405525989826659e-01	-4.710787343028741e+01
1	 1.088147908361853e+00	 5.626358764768669e-01	-4.361975183356793e+01
1	 1.076529949039371e+00	 5.845581825502102e-01	-4.015253434956750e+01
1	 1.064434230471001e+00	 6.063041884751205e-01	-3.672698283183739e+01
1	 1.051864330023189e+00	 6.278586076365928e-01	-3.336390279706540e+01
1	 1.038824466806871e+00	 6.492062284986921e-01	-3.008405907033271e+01
1	 1.025319501235670e+00	 6.703319478777121e-01	-2.690809009214840e+01
1	 1.150613022575534e+00	 4.555172030781720e-01	-6.727445575921487e+01
1	 1.141321423265912e+00	 4.783217105692595e-01	-6.133896654969679e+01
1	 1.131538720601204e+00	 5.010253224899361e-01	-5.550880555542926e+01
1	 1.121265349731507e+00	 5.236127056108295e-01	-4.987459326933387e+01
1	 1.110502366867334e+00	 5.460684418264167e-01	-4.452768368570625e+01
1	 1.099251458447877e+00	 5.683770588873712e-01	-3.955979938723044e+01
1	 1.087514948519997e+00	 5.905230619619543e-01	-3.506265543816435e+01
1	 1.075295804251774e+00	 6.124909659070027e-01	-3.112757426319713e+01
1	 1.062597639513394e+00	 6.342653281216439e-01	-2.784509383357930e+01
1	 1.049424716467942e+00	 6.558307818501883e-01	-2.530457160531643e+01
1	 1.035781945125100e+00	 6.771720697948095e-01	-2.359378675636762e+01
1	 1.162235376338345e+00	 4.601183869422883e-01	-6.962390160720997e+01
1	 1.152849922490885e+00	 4.831532429944503e-01	-6.168072420978254e+01
1	 1.142968404648257e+00	 5.060861843290319e-01	-5.400406952077388e+01
1	 1.132591262356013e+00	 5.289017228355558e-01	-4.675432606590240e+01
1	 1.121719562493458e+00	 5.515842846700590e-01	-4.009298609707604e+01
1	 1.110355008534519e+00	 5.741182412978676e-01	-3.418199351946391e+01
1	 1.098499948001281e+00	 5.964879413737912e-01	-2.918307274838652e+01
1	 1.086157378033213e+00	 6.186777433390787e-01	-2.525704241423664e+01
1	 1.073330949004241e+00	 6.406720486069893e-01	-2.256311808096079e+01
1	 1.060024966129602e+00	 6.624553352020790e-01	-2.125820835682545e+01
1	 1.046244389015035e+00	 6.840121917124017e-01	-2.149620895139598e+01
1	 9.416199501384250e-01	 6.156109725587411e-01	-1.020915380176759e+02
1	 9.287953462274744e-01	 6.347946162837050e-01	-8.158624550142829e+01
1	 9.155542905770797e-01	 6.537471537568762e-01	-6.150467661089794e+01
1	 9.019029923075504e-01	 6.724551973985354e-01	-4.205229414359559e+01
1	 8.878482288567273e-01	 6.909055815084219e-01	-2.343346456093748e+01
1	 8.733973360420002e-01	 7.090853922058951e-01	-5.850593998379523e+00
1	 8.585581962397351e-01	 7.269819968306050e-01	 1.049673416368477e+01
1	 8.433392247169470e-01	 7.445830726661317e-01	 2.541261437234273e+01
1	 8.277493541614975e-01	 7.618766348516912e-01	 3.870566081658003e+01
1	 8.117980174683143e-01	 7.788510633507310e-01	 5.018983043642464e+01
1	 7.954951288500001e-01	 7.954951288500001e-01	 5.968522139305414e+01
1	 9.520823940238123e-01	 6.224510944718811e-01	-8.754592208864587e+01
1	 9.391152945140595e-01	 6.418478897935279e-01	-7.005634243049924e+01
1	 9.257271160232740e-01	 6.610110110161846e-01	-5.294501624826793e+01
1	 9.119241366619902e-01	 6.799269218092460e-01	-3.638983343995068e+01
1	 8.977132091729143e-01	 6.985823101868938e-01	-2.056767128099779e+01
1	 8.831017508825175e-01	 7.169641187809249e-01	-5.653645475615789e+00
1	 8.680977317491259e-01	 7.350595745680968e-01	 8.179637088193857e+00
1	 8.527096605427205e-01	 7.528562179129182e-01	 2.076281885261744e+01
1	 8.369465692032501e-01	 7.703419307894854e-01	 3.193052034409818e+01
1	 8.208179954355866e-01	 7.875049640497287e-01	 4.152205218844964e+01
1	 8.043339636102501e-01	 8.043339636102501e-01	 4.938210550941611e+01
1	 9.625448379097046e-01	 6.292912163855157e-01	-7.456699287971617e+01
1	 9.494352428010591e-01	 6.489011633039358e-01	-5.985711025389770e+01
1	 9.358999414698121e-01	 6.682748682761483e-01	-4.548162828308819e+01
1	 9.219452810167237e-01	 6.873986462206629e-01	-3.159132047060643e+01
1	 9.075781894893646e-01	 7.062590388661032e-01	-1.833602973939580e+01
1	 8.928061657232872e-01	 7.248428453567026e-01	-5.864032887313812e+00
1	 8.776372672587778e-01	 7.431371523063274e-01	 5.678593111868103e+00
1	 8.620800963687846e-01	 7.611293631604144e-01	 1.614859869287100e+01
1	 8.461437842453429e-01	 7.788072267279392e-01	 2.540617890182600e+01
1	 8.298379734032688e-01	 7.961588647493163e-01	 3.331557599657945e+01
1	 8.131727983709998e-01	 8.131727983709998e-01	 3.974566331281702e+01
1	 9.730072817961023e-01	 6.361313382996451e-01	-6.310421210978851e+01
1	 9.597551910884740e-01	 6.559544368149283e-01	-5.094562410418019e+01
1	 9.460727669166951e-01	 6.755387255367674e-01	-3.907914908968321e+01
1	 9.319664253717509e-01	 6.948703706327861e-01	-2.762888595380753e+01
1	 9.174431698060769e-01	 7.139357675460493e-01	-1.671808342840230e+01
1	 9.025105805643084e-01	 7.327215719332285e-01	-6.468616364557661e+00
1	 8.871768027686909e-01	 7.512147300452967e-01	 2.999536005768434e+00
1	 8.714505321951391e-01	 7.694025084086192e-01	 1.156880630090455e+01
1	 8.553409992877762e-01	 7.872725226670531e-01	 1.912454619850562e+01
1	 8.388579513713611e-01	 8.048127654494942e-01	 2.555552114933555e+01
1	 8.220116331322499e-01	 8.220116331322499e-01	 3.075438920042369e+01
1	 9.834697256830054e-01	 6.429714602142690e-01	-5.310919206286428e+01
1	 9.700751393763041e-01	 6.630077103265059e-01	-4.328078570397005e+01
1	 9.562455923639225e-01	 6.828025827980423e-01	-3.370371987748854e+01
1	 9.419875697270718e-01	 7.023420950456155e-01	-2.447584653466900e+01
1	 9.273081501230523e-01	 7.216124962267327e-01	-1.569424632997458e+01
1	 9.122149954055820e-01	 7.406002985105027e-01	-7.454815181791020e+00
1	 8.967163382788652e-01	 7.592923077850046e-01	 1.481470400596834e-01
1	 8.808209680217846e-01	 7.776756536575339e-01	 7.022342918230258e+00
1	 8.645382143305497e-01	 7.957378186068262e-01	 1.307787621059649e+01
1	 8.478779293398637e-01	 8.134666661502616e-01	 1.822764015701813e+01
1	 8.308504678940001e-01	 8.308504678940001e-01	 2.238769270146113e+01
1	 9.939321695704136e-01	 6.498115821293877e-01	-4.453558240041033e+01
1	 9.803950876645493e-01	 6.700609838386684e-01	-3.682322722964070e+01
1	 9.664184178114943e-01	 6.900664400599723e-01	-2.932290748920598e+01
1	 9.520087140826864e-01	 7.098138194591513e-01	-2.210664236797394e+01
1	 9.371731304402908e-01	 7.292892249081534e-01	-1.524575710050881e+01
1	 9.219194102471076e-01	 7.484790250885244e-01	-8.810578328216657e+00
1	 9.062558737893012e-01	 7.673698855254514e-01	-2.870131726470625e+00
1	 8.901914038487204e-01	 7.859487989071573e-01	 2.508156049876092e+00
1	 8.737354293736630e-01	 8.042031145472591e-01	 7.258749062922369e+00
1	 8.568979073087760e-01	 8.221205668516193e-01	 1.131828542424095e+01
1	 8.396893026562502e-01	 8.396893026562502e-01	 1.462585031236590e+01
1	 1.004394613458327e+00	 6.566517040450012e-01	-3.733896404795222e+01
1	 9.907150359532092e-01	 6.771142573514157e-01	-3.153522118351761e+01
1	 9.765912432594107e-01	 6.973302973225582e-01	-2.590563014907107e+01
1	 9.620298584385946e-01	 7.172855438733935e-01	-2.049677860204517e+01
1	 9.470381107577920e-01	 7.369659535903109e-01	-1.535463611904770e+01
1	 9.316238250888850e-01	 7.563577516672941e-01	-1.052435691848709e+01
1	 9.157954092999983e-01	 7.754474632666368e-01	-6.050084987485150e+00
1	 8.995618396759473e-01	 7.942219441574904e-01	-1.974762945172117e+00
1	 8.829326444171172e-01	 8.126684104883521e-01	 1.660054041777109e+00
1	 8.659178852780987e-01	 8.307744675535668e-01	 4.814378005437710e+00
1	 8.485281374190000e-01	 8.485281374190000e-01	 7.449960342243301e+00
1	 1.014857057346746e+00	 6.634918259611092e-01	-3.147674964538260e+01
1	 1.001034984242285e+00	 6.841675308647481e-01	-2.738059584099609e+01
1	 9.867640687076716e-01	 7.045941545857993e-01	-2.342208780401190e+01
1	 9.720510027947967e-01	 7.247572682883416e-01	-1.962277048217253e+01
1	 9.569030910755562e-01	 7.446426822732061e-01	-1.600364519229833e+01
1	 9.413282399309146e-01	 7.642364782468121e-01	-1.258507830994979e+01
1	 9.253349448109566e-01	 7.835250410085610e-01	-9.386712500826377e+00
1	 9.089322755034644e-01	 8.024950894085326e-01	-6.427381114484675e+00
1	 8.921298594609115e-01	 8.211337064301045e-01	-3.725026341233303e+00
1	 8.749378632478313e-01	 8.394283682561041e-01	-1.296621706987075e+00
1	 8.573669721822499e-01	 8.573669721822500e-01	 8.419005513876670e-01
1	 1.025319501235670e+00	 6.703319478777121e-01	-2.690809009214840e+01
1	 1.011354932531775e+00	 6.912208043786654e-01	-2.432465587436544e+01
1	 9.969368941562768e-01	 7.118580118496960e-01	-2.184369672963626e+01
1	 9.820721471512923e-01	 7.322289927039963e-01	-1.946209181505192e+01
1	 9.667680713935828e-01	 7.523194109568380e-01	-1.717624972669012e+01
1	 9.510326547731961e-01	 7.721152048270781e-01	-1.498212180454936e+01
1	 9.348744803221760e-01	 7.916026187512237e-01	-1.287521811585492e+01
1	 9.183027113312726e-01	 8.107682346602844e-01	-1.085062603430226e+01
1	 9.013270745050462e-01	 8.295990023725169e-01	-8.903031309667334e+00
1	 8.839578412179739e-01	 8.480822689592314e-01	-7.026741499900453e+00
1	 8.662058069460000e-01	 8.662058069460000e-01	-5.215711616635431e+00
1	 1.035781945125100e+00	 6.771720697948095e-01	-2.359378675636762e+01
1	 1.021674880821681e+00	 6.982740778931678e-01	-2.233410778731082e+01
1	 1.007109719605227e+00	 7.191218691142480e-01	-2.114302809949040e+01
1	 9.920932915080820e-01	 7.397007171203575e-01	-1.999312655659558e+01
1	 9.766330517118729e-01	 7.599961396412075e-01	-1.885658319303577e+01
1	 9.607370696157297e-01	 7.799939314080919e-01	-1.770529582334467e+01
1	 9.444140158336568e-01	 7.996801964946254e-01	-1.651099946579531e+01
1	 9.276731471593713e-01	 8.190413799127453e-01	-1.524538780303647e+01
1	 9.105242895495208e-01	 8.380642983155886e-01	-1.388023587602653e+01
1	 8.929778191885266e-01	 8.567361696629487e-01	-1.238752318897406e+01
1	 8.750446417102501e-01	 8.750446417102501e-01	-1.073955639273152e+01
1	 1.046244389015035e+00	 6.840121917124017e-01	-2.149620895139598e+01
1	 1.031994829112001e+00	 7.053273514082546e-01	-2.137698982334492e+01
1	 1.017282545054521e+00	 7.263857263794559e-01	-2.129375024016215e+01
1	 1.002114435865165e+00	 7.471724415374245e-01	-2.119512330447054e+01
1	 9.864980320304253e-01	 7.676728683263137e-01	-2.102941372331241e+01
1	 9.704414844585151e-01	 7.878726579898537e-01	-2.074481645055096e+01
1	 9.539535513453987e-01	 8.077577742387658e-01	-2.028963827854492e+01
1	 9.370435829877606e-01	 8.273145251659155e-01	-1.961252091516336e+01
1	 9.197215045943361e-01	 8.465295942593203e-01	-1.866266405230859e+01
1	 9.019977971594894e-01	 8.653900703672559e-01	-1.739004691724413e+01
1	 8.838834764750000e-01	 8.838834764750000e-01	-1.574564679855466e+01
1	 7.954951288500001e-01	 7.954951288500001e-01	 5.968522139305414e+01
1	 7.788510633507308e-01	 8.117980174683144e-01	 6.750766781071979e+01
1	 7.618766348516911e-01	 8.277493541614976e-01	 7.182389076062236e+01
1	 7.445830726661320e-01	 8.433392247169471e-01	 7.266719632624040e+01
1	 7.269819968306053e-01	 8.585581962397351e-01	 7.008344047798464e+01
1	 7.090853922058953e-01	 8.733973360420000e-01	 6.413078844965256e+01
1	 6.909055815084221e-01	 8.878482288567272e-01	 5.487941031322305e+01
1	 6.724551973985359e-01	 9.019029923075501e-01	 4.241111518148141e+01
1	 6.537471537568769e-01	 9.155542905770793e-01	 2.681892695841515e+01
1	 6.347946162837055e-01	 9.287953462274742e-01	 8.206605013340607e+00
1	 6.156109725587411e-01	 9.416199501384250e-01	-1.331188642890247e+01
1	 8.043339636102501e-01	 8.043339636102501e-01	 4.938210550941611e+01
1	 7.875049640497286e-01	 8.208179954355866e-01	 5.737277566909774e+01
1	 7.703419307894857e-01	 8.369465692032504e-01	 6.232205562110951e+01
1	 7.528562179129183e-01	 8.527096605427203e-01	 6.424759359991167e+01
1	 7.350595745680969e-01	 8.680977317491256e-01	 6.317802511380140e+01
1	 7.169641187809250e-01	 8.831017508825173e-01	 5.915280980809951e+01
1	 6.985823101868941e-01	 8.977132091729141e-01	 5.222201196861494e+01
1	 6.799269218092464e-01	 9.119241366619899e-01	 4.244602648357930e+01
1	 6.610110110161852e-01	 9.257271160232733e-01	 2.989525252085016e+01
1	 6.418478897935284e-01	 9.391152945140590e-01	 1.464971758858627e+01
1	 6.224510944718810e-01	 9.520823940238121e-01	-3.201344972938678e+00
1	 8.131727983709998e-01	 8.131727983709998e-01	 3.974566331281702e+01
1	 7.961588647493163e-01	 8.298379734032689e-01	 4.778657760671947e+01
1	 7.788072267279395e-01	 8.461437842453429e-01	 5.324133528163663e+01
1	 7.611293631604142e-01	 8.620800963687844e-01	 5.611218192190171e+01
1	 7.431371523063276e-01	 8.776372672587778e-01	 5.641081126147557e+01
1	 7.248428453567030e-01	 8.928061657232867e-01	 5.415827846760364e+01
1	 7.062590388661033e-01	 9.075781894893641e-01	 4.938486440366853e+01
1	 6.873986462206633e-01	 9.219452810167234e-01	 4.212989208608109e+01
1	 6.682748682761487e-01	 9.358999414698115e-01	 3.244149693750479e+01
1	 6.489011633039364e-01	 9.494352428010588e-01	 2.037635280609081e+01
1	 6.292912163855158e-01	 9.625448379097047e-01	 5.999356063465633e+00
1	 8.220116331322499e-01	 8.220116331322499e-01	 3.075438920042369e+01
1	 8.048127654494940e-01	 8.388579513713611e-01	 3.873137381456852e+01
1	 7.872725226670528e-01	 8.553409992877761e-01	 4.456814539383399e+01
1	 7.694025084086196e-01	 8.714505321951391e-01	 4.825179383908646e+01
1	 7.512147300452968e-01	 8.871768027686908e-01	 4.977734080779844e+01
1	 7.327215719332288e-01	 9.025105805643083e-01	 4.914772838629701e+01
1	 7.139357675460497e-01	 9.174431698060764e-01	 4.637376598044492e+01
1	 6.948703706327866e-01	 9.319664253717506e-01	 4.147403604392755e+01
1	 6.755387255367677e-01	 9.460727669166946e-01	 3.447475960027785e+01
1	 6.559544368149288e-01	 9.597551910884736e-01	 2.540962283875034e+01
1	 6.361313382996451e-01	 9.730072817961023e-01	 1.431956637127568e+01
1	 8.308504678940001e-01	 8.308504678940001e-01	 2.238769270146113e+01
1	 8.134666661502615e-01	 8.478779293398638e-01	 3.019021766700568e+01
1	 7.957378186068262e-01	 8.645382143305497e-01	 3.628947966671626e+01
1	 7.776756536575337e-01	 8.808209680217844e-01	 4.065765200273508e+01
1	 7.592923077850048e-01	 8.967163382788653e-01	 4.327334534650821e+01
1	 7.406002985105028e-01	 9.122149954055819e-01	 4.412167080068770e+01
1	 7.216124962267330e-01	 9.273081501230521e-01	 4.319426832219574e+01
1	 7.023420950456158e-01	 9.419875697270713e-01	 4.048930053738667e+01
1	 6.828025827980426e-01	 9.562455923639220e-01	 3.601141226738238e+01
1	 6.630077103265065e-01	 9.700751393763041e-01	 2.977165636276189e+01
1	 6.429714602142689e-01	 9.834697256830051e-01	 2.178738671846796e+01
1	 8.396893026562502e-01	 8.396893026562502e-01	 1.462585031236590e+01
1	 8.221205668516191e-01	 8.568979073087760e-01	 2.214687608053767e+01
1	 8.042031145472591e-01	 8.737354293736630e-01	 2.839287944261126e+01
1	 7.859487989071573e-01	 8.901914038487202e-01	 3.332134863669700e+01
1	 7.673698855254515e-01	 9.062558737893011e-01	 3.689473619371167e+01
1	 7.484790250885247e-01	 9.219194102471072e-01	 3.908059542153703e+01
1	 7.292892249081535e-01	 9.371731304402904e-01	 3.985168929961556e+01
1	 7.098138194591518e-01	 9.520087140826861e-01	 3.918607123387734e+01
1	 6.900664400599729e-01	 9.664184178114940e-01	 3.706713735985294e+01
1	 6.700609838386691e-01	 9.803950876645489e-01	 3.348365032060646e+01
1	 6.498115821293877e-01	 9.939321695704137e-01	 2.842973468281794e+01
1	 8.485281374190000e-01	 8.485281374190000e-01	 7.449960342243301e+00
1	 8.307744675535665e-01	 8.659178852780989e-01	 1.458579235016311e+01
1	 8.126684104883521e-01	 8.829326444171173e-01	 2.086640517459050e+01
1	 7.942219441574904e-01	 8.995618396759469e-01	 2.623482628883246e+01
1	 7.754474632666368e-01	 9.157954092999980e-01	 3.063759502734574e+01
1	 7.563577516672944e-01	 9.316238250888849e-01	 3.402497155499130e+01
1	 7.369659535903115e-01	 9.470381107577917e-01	 3.635112520545486e+01
1	 7.172855438733938e-01	 9.620298584385945e-01	 3.757430106468051e+01
1	 6.973302973225586e-01	 9.765912432594104e-01	 3.765696386452474e+01
1	 6.771142573514164e-01	 9.907150359532090e-01	 3.656591844884548e+01
1	 6.566517040450012e-01	 1.004394613458327e+00	 3.427240627638709e+01
1	 8.573669721822499e-01	 8.573669721822500e-01	 8.419005513876670e-01
1	 8.394283682561042e-01	 8.749378632478314e-01	 7.492051284501514e+00
1	 8.211337064301045e-01	 8.921298594609115e-01	 1.369860966818332e+01
1	 8.024950894085328e-01	 9.089322755034644e-01	 1.939035977307175e+01
1	 7.835250410085610e-01	 9.253349448109562e-01	 2.449816510563949e+01
1	 7.642364782468123e-01	 9.413282399309145e-01	 2.895524915436533e+01
1	 7.446426822732063e-01	 9.569030910755558e-01	 3.269746217606283e+01
1	 7.247572682883421e-01	 9.720510027947962e-01	 3.566353253092595e+01
1	 7.045941545857998e-01	 9.867640687076713e-01	 3.779530101620720e+01
1	 6.841675308647487e-01	 1.001034984242284e+00	 3.903793680419876e+01
1	 6.634918259611091e-01	 1.014857057346746e+00	 3.934013375818854e+01
1	 8.662058069460000e-01	 8.662058069460000e-01	-5.215711616635431e+00
1	 8.480822689592312e-01	 8.839578412179739e-01	 8.513464755048759e-01
1	 8.295990023725168e-01	 9.013270745050461e-01	 6.878512961352762e+00
1	 8.107682346602842e-01	 9.183027113312724e-01	 1.278053921706482e+01
1	 7.916026187512240e-01	 9.348744803221758e-01	 1.847284302322144e+01
1	 7.721152048270784e-01	 9.510326547731961e-01	 2.387185980753325e+01
1	 7.523194109568384e-01	 9.667680713935827e-01	 2.889538691365361e+01
1	 7.322289927039969e-01	 9.820721471512921e-01	 3.346291864390379e+01
1	 7.118580118496967e-01	 9.969368941562767e-01	 3.749596991768589e+01
1	 6.912208043786661e-01	 1.011354932531775e+00	 4.091838650231053e+01
1	 6.703319478777120e-01	 1.025319501235670e+00	 4.365663990729928e+01
1	 8.750446417102501e-01	 8.750446417102501e-01	-1.073955639273152e+01
1	 8.567361696629487e-01	 8.929778191885266e-01	-5.350050448174279e+00
1	 8.380642983155886e-01	 9.105242895495208e-01	 3.955787268979094e-01
1	 8.190413799127454e-01	 9.276731471593713e-01	 6.398254137247712e+00
1	 7.996801964946257e-01	 9.444140158336568e-01	 1.255817096685632e+01
1	 7.799939314080920e-01	 9.607370696157294e-01	 1.877521766447473e+01
1	 7.599961396412075e-01	 9.766330517118722e-01	 2.494939675873562e+01
1	 7.397007171203579e-01	 9.920932915080817e-01	 3.098124259627130e+01
1	 7.191218691142488e-01	 1.007109719605227e+00	 3.677223324335870e+01
1	 6.982740778931683e-01	 1.021674880821680e+00	 4.222519386628866e+01
1	 6.771720697948095e-01	 1.035781945125100e+00	 4.724468900669502e+01
1	 8.838834764750000e-01	 8.838834764750000e-01	-1.574564679855466e+01
1	 8.653900703672558e-01	 9.019977971594894e-01	-1.112531872302022e+01
1	 8.465295942593203e-01	 9.197215045943362e-01	-5.760307909288009e+00
1	 8.273145251659157e-01	 9.370435829877607e-01	 2.366784693996991e-01
1	 8.077577742387659e-01	 9.539535513453987e-01	 6.750829435839876e+00
1	 7.878726579898540e-01	 9.704414844585149e-01	 1.366572030917106e+01
1	 7.676728683263140e-01	 9.864980320304252e-01	 2.086380915819868e+01
1	 7.471724415374250e-01	 1.002114435865165e+00	 2.822693625298225e+01
1	 7.263857263794565e-01	 1.017282545054521e+00	 3.563682316065530e+01
1	 7.053273514082554e-01	 1.031994829112000e+00	 4.297556816632959e+01
1	 6.840121917124017e-01	 1.046244389015035e+00	 5.012613476805331e+01
1	 6.156109725587411e-01	 9.416199501384250e-01	-1.331188642890247e+01
1	 5.962098017009264e-01	 9.540224695395332e-01	-1.137145531810317e+01
1	 5.766048437667730e-01	 9.659978541247000e-01	-2.628095164209569e+00
1	 5.568099690270316e-01	 9.775416402487633e-01	 1.235140680574482e+01
1	 5.368391472596018e-01	 9.886499532180105e-01	 3.298373315354215e+01
1	 5.167064171925495e-01	 9.993195076959103e-01	 5.867175741100227e+01
1	 4.964258562287501e-01	 1.009547606256940e+00	 8.880728412120561e+01
1	 4.760115505788752e-01	 1.019332136131226e+00	 1.227737893536101e+02
1	 4.554775659241308e-01	 1.028671564192235e+00	 1.599491437909693e+02
1	 4.348379187240837e-01	 1.037564930248593e+00	 1.997083011325465e+02
1	 4.141065482781622e-01	 1.046011838709305e+00	 2.414259353540500e+02
1	 6.224510944718810e-01	 9.520823940238121e-01	-3.201344972938678e+00
1	 6.028343550492661e-01	 9.646227191958865e-01	-2.738714745848831e+00
1	 5.830115642494710e-01	 9.767311636097610e-01	 3.554777574282163e+00
1	 5.629967464573653e-01	 9.884032140242146e-01	 1.518745341760045e+01
1	 5.428040266706029e-01	 9.996349526933817e-01	 3.165320708171235e+01
1	 5.224475996031166e-01	 1.010423057776989e+00	 5.243387307536878e+01
1	 5.019416990733697e-01	 1.020764801878120e+00	 7.700161040900295e+01
1	 4.813005678054852e-01	 1.030658048751678e+00	 1.048212878046327e+02
1	 4.605384277660153e-01	 1.040101248236386e+00	 1.353528542148032e+02
1	 4.396694511529662e-01	 1.049093429472078e+00	 1.680536795994280e+02
1	 4.187077321468711e-01	 1.057634192472302e+00	 2.023808515990661e+02
1	 6.292912163855158e-01	 9.625448379097047e-01	 5.999356063465633e+00
1	 6.094589083980003e-01	 9.752229688528293e-01	 5.591038497810445e+00
1	 5.894182847324629e-01	 9.874644730954647e-01	 1.006090437012056e+01
1	 5.691835238878924e-01	 9.992647878003311e-01	 1.899106685181265e+01
1	 5.487689060816965e-01	 1.010619952169409e+00	 3.195128513532950e+01
1	 5.281887820136760e-01	 1.021526607858687e+00	 4.850098308602029e+01
1	 5.074575419178806e-01	 1.031981997499849e+00	 6.819128294766990e+01
1	 4.865895850318857e-01	 1.041983961372579e+00	 9.056704040083962e+01
1	 4.655992896075897e-01	 1.051530932280860e+00	 1.151688676244137e+02
1	 4.445009835814387e-01	 1.060621928695729e+00	 1.415351314837048e+02
1	 4.233089160150698e-01	 1.069256546235278e+00	 1.692039145533486e+02
1	 6.361313382996451e-01	 9.730072817961023e-01	 1.431956637127568e+01
1	 6.160834617471291e-01	 9.858232185103623e-01	 1.362757819767887e+01
1	 5.958250052157492e-01	 9.981977825818114e-01	 1.687985767308311e+01
1	 5.753703013186131e-01	 1.010126361577113e+00	 2.373103527542811e+01
1	 5.547337854928833e-01	 1.021604951646094e+00	 3.382543169749660e+01
1	 5.339299644242276e-01	 1.032630157941003e+00	 4.679873278672610e+01
1	 5.129733847622833e-01	 1.043199193122128e+00	 6.227967766477610e+01
1	 4.918786022580771e-01	 1.053309873993932e+00	 7.989174862171305e+01
1	 4.706601514488546e-01	 1.062960616325656e+00	 9.925485166588174e+01
1	 4.493325160095007e-01	 1.072150427919546e+00	 1.199869769984094e+02
1	 4.279100998827580e-01	 1.080878899998233e+00	 1.417058291627530e+02
1	 6.429714602142689e-01	 9.834697256830051e-01	 2.178738671846796e+01
1	 6.227080150966526e-01	 9.964234681684844e-01	 2.138026223283304e+01
1	 6.022317256993296e-01	 1.008931092068801e+00	 2.400165365848052e+01
1	 5.815570787495273e-01	 1.020987935354560e+00	 2.937747501857801e+01
1	 5.606986649041629e-01	 1.032589951123436e+00	 3.722534670945254e+01
1	 5.396711468347712e-01	 1.043733708023936e+00	 4.725593154914410e+01
1	 5.184892276065770e-01	 1.054416388744956e+00	 5.917428215050908e+01
1	 4.971676194840591e-01	 1.064635786615735e+00	 7.268119047948544e+01
1	 4.757210132898095e-01	 1.074390300370775e+00	 8.747453068116600e+01
1	 4.541640484371527e-01	 1.083678927143527e+00	 1.032505865602439e+02
1	 4.325112837499361e-01	 1.092501253761168e+00	 1.197053554817973e+02
1	 6.498115821293877e-01	 9.939321695704137e-01	 2.842973468281794e+01
1	 6.293325684465706e-01	 1.007023717827196e+00	 2.885805446639740e+01
1	 6.086384461832042e-01	 1.019664401556434e+00	 3.141672887318101e+01
1	 5.877438561806352e-01	 1.031849509132672e+00	 3.590176067115632e+01
1	 5.666635443155355e-01	 1.043574950601434e+00	 4.210284800961846e+01
1	 5.454123292453070e-01	 1.054837258107488e+00	 4.980438624503920e+01
1	 5.240050704507622e-01	 1.065633584368333e+00	 5.878647925438125e+01
1	 5.024566367098319e-01	 1.075961699237989e+00	 6.882595333320737e+01
1	 4.807818751304545e-01	 1.085819984416216e+00	 7.969736693463526e+01
1	 4.589955808643948e-01	 1.095207426367674e+00	 9.117400972623166e+01
1	 4.371124676166038e-01	 1.104123607524082e+00	 1.030288847205755e+02
1	 6.566517040450012e-01	 1.004394613458327e+00	 3.427240627638709e+01
1	 6.359571217968834e-01	 1.017623967486498e+00	 3.606954526720712e+01
1	 6.150451666673726e-01	 1.030397711044709e+00	 3.911591834125957e+01
1	 5.939306336119369e-01	 1.042711082911450e+00	 4.327645954845964e+01
1	 5.726284237270008e-01	 1.054559950080089e+00	 4.841176102645382e+01
1	 5.511535116558349e-01	 1.065940808191658e+00	 5.437874512648730e+01
1	 5.295209132948389e-01	 1.076850779992260e+00	 6.103134420714192e+01
1	 5.077456539353953e-01	 1.087287611860692e+00	 6.822118340193592e+01
1	 4.858427369707898e-01	 1.097249668461979e+00	 7.579826176294591e+01
1	 4.638271132912263e-01	 1.106735925591985e+00	 8.361162732182733e+01
1	 4.417136514827614e-01	 1.115745961286976e+00	 9.151004178874030e+01
1	 6.634918259611091e-01	 1.014857057346746e+00	 3.934013375818854e+01
1	 6.425816751475903e-01	 1.028224217146390e+00	 4.302297076209102e+01
1	 6.214518871518357e-01	 1.041131020533627e+00	 4.709043502393592e+01
1	 6.001174110434320e-01	 1.053572656690893e+00	 5.147527021049659e+01
1	 5.785933031385591e-01	 1.065544949559402e+00	 5.610781529443636e+01
1	 5.568946940663551e-01	 1.077044358276446e+00	 6.091635136297502e+01
1	 5.350367561388070e-01	 1.088067975616736e+00	 6.582745429184843e+01
1	 5.130346711607495e-01	 1.098613524483847e+00	 7.076635077195198e+01
1	 4.909035988108152e-01	 1.108679352508065e+00	 7.565727521049288e+01
1	 4.686586457176479e-01	 1.118264424816463e+00	 8.042382508687453e+01
1	 4.463148353484084e-01	 1.127368315049849e+00	 8.498931242439161e+01
1	 6.703319478777120e-01	 1.025319501235670e+00	 4.365663990729928e+01
1	 6.492062284986920e-01	 1.038824466806871e+00	 4.972623090944327e+01
1	 6.278586076365926e-01	 1.051864330023189e+00	 5.533185053706714e+01
1	 6.063041884751207e-01	 1.064434230471001e+00	 6.047296474542234e+01
1	 5.845581825502105e-01	 1.076529949039371e+00	 6.514854730579633e+01
1	 5.626358764768672e-01	 1.088147908361853e+00	 6.935710554561490e+01
1	 5.405525989826665e-01	 1.099285171241760e+00	 7.309671016773126e+01
1	 5.183236883858944e-01	 1.109939437107452e+00	 7.636502879129252e+01
1	 4.959644606505308e-01	 1.120109036554474e+00	 7.915936283003586e+01
1	 4.734901781436591e-01	 1.129792924041105e+00	 8.147668730242445e+01
1	 4.509160192135453e-01	 1.138990668812702e+00	 8.331369315181152e+01
1	 6.771720697948095e-01	 1.035781945125100e+00	 4.724468900669502e+01
1	 6.558307818501883e-01	 1.049424716467942e+00	 5.618690647742613e+01
1	 6.342653281216438e-01	 1.062597639513393e+00	 6.383207703727746e+01
1	 6.124909659070029e-01	 1.075295804251774e+00	 7.024533455094542e+01
1	 5.905230619619546e-01	 1.087514948519997e+00	 7.549320925002462e+01
1	 5.683770588873716e-01	 1.099251458447877e+00	 7.964333652443730e+01
1	 5.460684418264172e-01	 1.110502366867334e+00	 8.276416802291155e+01
1	 5.236127056108301e-01	 1.121265349731507e+00	 8.492468683430798e+01
1	 5.010253224899366e-01	 1.131538720601204e+00	 8.619412843480291e+01
1	 4.783217105692602e-01	 1.141321423265912e+00	 8.664170898562577e+01
1	 4.555172030781719e-01	 1.150613022575534e+00	 8.633636245387760e+01
1	 6.840121917124017e-01	 1.046244389015035e+00	 5.012613476805331e+01
1	 6.624553352020789e-01	 1.060024966129602e+00	 6.241227500348202e+01
1	 6.406720486069893e-01	 1.073330949004241e+00	 7.258335019492091e+01
1	 6.186777433390788e-01	 1.086157378033213e+00	 8.076913936885150e+01
1	 5.964879413737916e-01	 1.098499948001280e+00	 8.710268322901213e+01
1	 5.741182412978680e-01	 1.110355008534519e+00	 9.171967999544681e+01
1	 5.515842846700593e-01	 1.121719562493458e+00	 9.475788179796041e+01
1	 5.289017228355563e-01	 1.132591262356013e+00	 9.635649550035015e+01
1	 5.060861843290325e-01	 1.142968404648257e+00	 9.665559168547075e+01
1	 4.831532429944511e-01	 1.152849922490885e+00	 9.579552535291984e+01
1	 4.601183869422882e-01	 1.162235376338345e+00	 9.391637167413764e+01
1	 4.141065482781622e-01	 1.046011838709305e+00	 2.414259353540500e+02
1	 3.932972896413123e-01	 1.054012448698682e+00	 2.310041645369862e+02
1	 3.724238474895377e-01	 1.061567462705179e+00	 2.139309186250477e+02
1	 3.514997710187807e-01	 1.068678113852559e+00	 1.913784123418855e+02
1	 3.305384299522138e-01	 1.075346151886617e+00	 1.645042061259676e+02
1	 3.095529917259615e-01	 1.081573827976446e+00	 1.344470827341310e+02
1	 2.885563999111744e-01	 1.087363878431055e+00	 1.023231600991425e+02
1	 2.675613539221366e-01	 1.092719507434895e+00	 6.922225531821488e+01
1	 2.465802900510743e-01	 1.097644368907271e+00	 3.620451205504132e+01
1	 2.256253638614278e-01	 1.102142547591368e+00	 4.297301056458650e+00
1	 2.047084339626188e-01	 1.106218539478505e+00	-2.550759905522966e+01
1	 4.187077321468711e-01	 1.057634192472302e+00	 2.023808515990661e+02
1	 3.976672595254846e-01	 1.065723698129262e+00	 1.991986277612176e+02
1	 3.765618902389651e-01	 1.073362656736697e+00	 1.896764696496632e+02
1	 3.554053240298771e-01	 1.080552315119742e+00	 1.748452250104674e+02
1	 3.342110791738727e-01	 1.087294442465818e+00	 1.557244154248219e+02
1	 3.129924694119229e-01	 1.093591314957006e+00	 1.333185542101171e+02
1	 2.917625821326362e-01	 1.099445699305754e+00	 1.086136667787826e+02
1	 2.705342578549005e-01	 1.104860835298564e+00	 8.257402712551620e+01
1	 2.493200710519669e-01	 1.109840417453845e+00	 5.613912184175367e+01
1	 2.281323123490928e-01	 1.114388575900822e+00	 3.022085078980911e+01
1	 2.069829721180270e-01	 1.118509856586275e+00	 5.700971333243501e+00
1	 4.233089160150698e-01	 1.069256546235278e+00	 1.692039145533486e+02
1	 4.020372294090627e-01	 1.077434947559639e+00	 1.719122545448578e+02
1	 3.806999329877463e-01	 1.085157850767857e+00	 1.685934378509491e+02
1	 3.593108770403063e-01	 1.092426516386447e+00	 1.601393130494123e+02
1	 3.378837283948748e-01	 1.099242733044450e+00	 1.474336731193520e+02
1	 3.164319470972685e-01	 1.105608801936938e+00	 1.313490084575323e+02
1	 2.949687643535532e-01	 1.111527520179795e+00	 1.127434290374377e+02
1	 2.735071617872199e-01	 1.117002163161573e+00	 9.245776819077922e+01
1	 2.520598520525447e-01	 1.122036465999790e+00	 7.131287853770706e+01
1	 2.306392608366009e-01	 1.126634604209704e+00	 5.010712863637363e+01
1	 2.092575102734646e-01	 1.130801173693560e+00	 2.961410698681492e+01
1	 4.279100998827580e-01	 1.080878899998233e+00	 1.417058291627530e+02
1	 4.064071992920467e-01	 1.089146196989810e+00	 1.489992654192544e+02
1	 3.848379757358810e-01	 1.096953044798660e+00	 1.505795194499173e+02
1	 3.632164300500685e-01	 1.104300717652674e+00	 1.472017320926640e+02
1	 3.415563776152200e-01	 1.111191023622512e+00	 1.396162034553849e+02
1	 3.198714247819980e-01	 1.117626288916241e+00	 1.285655750647221e+02
1	 2.981749465739252e-01	 1.123609341053177e+00	 1.147821483082110e+02
1	 2.764800657190950e-01	 1.129143491023926e+00	 9.898535047350275e+01
1	 2.547996330528077e-01	 1.134232514545106e+00	 8.187935804913533e+01
1	 2.331462093239524e-01	 1.138880632518015e+00	 6.415088530237637e+01
1	 2.115320484289314e-01	 1.143092490800359e+00	 4.646714451028417e+01
1	 4.325112837499361e-01	 1.092501253761168e+00	 1.197053554817973e+02
1	 4.107771691744364e-01	 1.100857446419777e+00	 1.303200842973960e+02
1	 3.889760184833697e-01	 1.108748238829107e+00	 1.355367640198836e+02
1	 3.671219830591637e-01	 1.116174918918422e+00	 1.359760460450763e+02
1	 3.452290268349087e-01	 1.123139314200007e+00	 1.322569019874406e+02
1	 3.233109024661119e-01	 1.129643775894916e+00	 1.249942291694519e+02
1	 3.013811287937522e-01	 1.135691161925902e+00	 1.147965600057293e+02
1	 2.794529696505255e-01	 1.141284818885619e+00	 1.022638854241777e+02
1	 2.575394140527559e-01	 1.146428563089792e+00	 8.798560113717301e+01
1	 2.356531578111472e-01	 1.151126660825756e+00	 7.253858422971354e+01
1	 2.138065865844276e-01	 1.155383807906674e+00	 5.648540618451428e+01
1	 4.371124676166038e-01	 1.104123607524082e+00	 1.030288847205755e+02
1	 4.151471390562320e-01	 1.112568695849540e+00	 1.157410119801402e+02
1	 3.931140612302117e-01	 1.120543432859196e+00	 1.233713453626661e+02
1	 3.710275360675918e-01	 1.128049120183693e+00	 1.264081950681505e+02
1	 3.489016760539405e-01	 1.135087604776933e+00	 1.253413002466968e+02
1	 3.267503801496099e-01	 1.141661262872963e+00	 1.206598522194620e+02
1	 3.045873110130343e-01	 1.147772982797968e+00	 1.128505896323837e+02
1	 2.824258735815118e-01	 1.153426146746654e+00	 1.023959745373986e+02
1	 2.602791950523892e-01	 1.158624611633849e+00	 8.977245737286627e+01
1	 2.381601062981852e-01	 1.163372689132924e+00	 7.544883776777367e+01
1	 2.160811247399532e-01	 1.167675125012503e+00	 5.988472703612871e+01
1	 4.417136514827614e-01	 1.115745961286976e+00	 9.151004178874030e+01
1	 4.195171089374332e-01	 1.124279945279097e+00	 1.051339200683067e+02
1	 3.972521039764076e-01	 1.132338626888928e+00	 1.139933467050143e+02
1	 3.749330890753527e-01	 1.139923321448485e+00	 1.184463718166709e+02
1	 3.525743252723156e-01	 1.147035895353290e+00	 1.188555326172032e+02
1	 3.301898578324918e-01	 1.153678749850381e+00	 1.155862889354925e+02
1	 3.077934932317715e-01	 1.159854803669376e+00	 1.090054991279246e+02
1	 2.853987775120535e-01	 1.165567474607031e+00	 9.947994424540411e+01
1	 2.630189760517078e-01	 1.170820660177278e+00	 8.737490759499887e+01
1	 2.406670547850666e-01	 1.175618717439521e+00	 7.305281608451433e+01
1	 2.183556628955082e-01	 1.179966442117847e+00	 5.687194896535291e+01
1	 4.463148353484084e-01	 1.127368315049849e+00	 8.498931242439161e+01
1	 4.238870788180403e-01	 1.135991194708451e+00	 9.837596380803829e+01
1	 4.013901467219571e-01	 1.144133820918303e+00	 1.073165591818595e+02
1	 3.788386420824468e-01	 1.151797522712798e+00	 1.120409053308014e+02
1	 3.562469744900341e-01	 1.158984185929079e+00	 1.127863052609918e+02
1	 3.336293355147580e-01	 1.165696236827171e+00	 1.097964007508190e+02
1	 3.109996754499638e-01	 1.171936624540127e+00	 1.033200241665071e+02
1	 2.883716814421509e-01	 1.177708802466749e+00	 9.361006628211913e+01
1	 2.657587570507115e-01	 1.183016708720077e+00	 8.092236642207028e+01
1	 2.431740032717912e-01	 1.187864745745547e+00	 6.551463078407464e+01
1	 2.206302010510924e-01	 1.192257759222705e+00	 4.764538430924610e+01
1	 4.509160192135453e-01	 1.138990668812702e+00	 8.331369315181152e+01
1	 4.282570486980531e-01	 1.147702444137599e+00	 9.534931251706087e+01
1	 4.055281894668601e-01	 1.155929014947321e+00	 1.032582926573271e+02
1	 3.827441950888737e-01	 1.163671723976633e+00	 1.071441520368313e+02
1	 3.599196237070956e-01	 1.170932476504298e+00	 1.071208669457296e+02
1	 3.370688131964081e-01	 1.177713723803332e+00	 1.033121159789809e+02
1	 3.142058576676110e-01	 1.184018445410219e+00	 9.585050304779659e+01
1	 2.913445853718038e-01	 1.189850130325810e+00	 8.487676455552266e+01
1	 2.684985380494003e-01	 1.195212757262246e+00	 7.053896624313407e+01
1	 2.456809517583592e-01	 1.200110774051002e+00	 5.299169503759060e+01
1	 2.229047392067060e-01	 1.204549076327078e+00	 3.239525102350773e+01
1	 4.555172030781719e-01	 1.150613022575534e+00	 8.633636245387760e+01
1	 4.326270185774718e-01	 1.159413693566544e+00	 9.594089634874439e+01
1	 4.096662322111168e-01	 1.167724208975982e+00	 1.017391980111399e+02
1	 3.866497480946336e-01	 1.175545925239990e+00	 1.037103933539364e+02
1	 3.635922729235004e-01	 1.182880767078950e+00	 1.018469816403941e+02
1	 3.405082908774424e-01	 1.189731210778864e+00	 9.615447694104145e+01
1	 3.174120398847132e-01	 1.196100266279651e+00	 8.665099777648877e+01
1	 2.943174893010123e-01	 1.201991458184212e+00	 7.336680948229525e+01
1	 2.712383190477745e-01	 1.207408805803788e+00	 5.634382399706831e+01
1	 2.481879002447703e-01	 1.212356802355885e+00	 3.563506188790194e+01
1	 2.251792773623489e-01	 1.216840393430966e+00	 1.130408148962989e+01
1	 4.601183869422882e-01	 1.162235376338345e+00	 9.391637167413764e+01
1	 4.369969884562961e-01	 1.171124942995283e+00	 1.000421682503222e+02
1	 4.138042749547273e-01	 1.179519403004286e+00	 1.026831000878364e+02
1	 3.905553010997264e-01	 1.187420126502869e+00	 1.016957394445337e+02
1	 3.672649221392484e-01	 1.194829057653032e+00	 9.695290275520824e+01
1	 3.439477685578608e-01	 1.201748697753768e+00	 8.834368426521249e+01
1	 3.206182221012706e-01	 1.208182087148427e+00	 7.577340787705971e+01
1	 2.972903932297764e-01	 1.214132786041956e+00	 5.916350066238660e+01
1	 2.739781000458337e-01	 1.219604854344699e+00	 3.845129194508982e+01
1	 2.506948487310247e-01	 1.224602830660197e+00	 1.358974225597467e+01
1	 2.274538155180211e-01	 1.229131710534368e+00	-1.545289320637865e+01
1	 2.047084339626188e-01	 1.106218539478505e+00	-2.550759905522966e+01
1	 1.838410471820675e-01	 1.109877231672737e+00	 2.977855695964780e+01
1	 1.630344251371875e-01	 1.113123881798189e+00	 5.365445779109665e+01
1	 1.422994522082913e-01	 1.115964097050903e+00	 4.560648186844669e+01
1	 1.216466649059655e-01	 1.118403812994212e+00	 5.247092940184999e+00
1	 1.010862426134333e-01	 1.120449272191891e+00	-6.768880842187544e+01
1	 8.062799968276181e-02	 1.122107002770802e+00	-1.733479378181118e+02
1	 6.028137885658343e-02	 1.123383797000342e+00	-3.117630396861479e+02
1	 4.005544598153728e-02	 1.124286689971457e+00	-4.828576148192407e+02
1	 1.995888597471339e-02	 1.124822938453228e+00	-6.864509183296468e+02
1	 0.000000000000000e+00	 1.125000000000000e+00	-9.222631844180044e+02
1	 2.069829721180270e-01	 1.118509856586275e+00	 5.700971333243501e+00
1	 1.858837254842960e-01	 1.122209200915521e+00	 4.656119558223769e+01
1	 1.648459187499743e-01	 1.125491924930832e+00	 5.977504194489381e+01
1	 1.438805572329332e-01	 1.128363698130427e+00	 4.489441257631091e+01
1	 1.229982945160992e-01	 1.130830522028343e+00	 1.582452878093939e+00
1	 1.022094230869531e-01	 1.132898708550173e+00	-7.038968705624707e+01
1	 8.152386634591845e-02	 1.134574858357522e+00	-1.711464472731341e+02
1	 6.095117195499002e-02	 1.135865839189446e+00	-3.007117694203836e+02
1	 4.050050649243606e-02	 1.136778764304567e+00	-4.590132852130604e+02
1	 2.018065137442525e-02	 1.137320971102731e+00	-6.458867426486788e+02
1	 0.000000000000000e+00	 1.137500000000000e+00	-8.610806314058193e+02
1	 2.092575102734646e-01	 1.130801173693560e+00	 2.961410698681492e+01
1	 1.879264037867324e-01	 1.134541170157915e+00	 5.758951748627213e+01
1	 1.666574123631051e-01	 1.137859968063168e+00	 6.158995943834177e+01
1	 1.454616622580137e-01	 1.140763299209717e+00	 4.123219348024600e+01
1	 1.243499241267251e-01	 1.143257231062304e+00	-3.770390710230243e+00
1	 1.033326035609789e-01	 1.145348144908337e+00	-7.361060980590459e+01
1	 8.241973300955530e-02	 1.147042713944167e+00	-1.683906309171583e+02
1	 6.162096505381248e-02	 1.148347881378508e+00	-2.881253898372802e+02
1	 4.094556700364869e-02	 1.149270838637658e+00	-4.327462489398191e+02
1	 2.040241677431206e-02	 1.149819003752230e+00	-6.021048605547653e+02
1	 0.000000000000000e+00	 1.150000000000000e+00	-7.959772022606385e+02
1	 2.115320484289314e-01	 1.143092490800359e+00	 4.646714451028417e+01
1	 1.899690820893766e-01	 1.146873139399917e+00	 6.304914579202956e+01
1	 1.684689059765799e-01	 1.150228011195196e+00	 5.923810274469621e+01
1	 1.470427672835328e-01	 1.153162900288774e+00	 3.471499070342220e+01
1	 1.257015537378434e-01	 1.155683940096093e+00	-1.075697964586475e+01
1	 1.044557840355105e-01	 1.157797581266385e+00	-7.733480105334863e+01
1	 8.331559967367232e-02	 1.159510569530738e+00	-1.650983702268794e+02
1	 6.229075815305083e-02	 1.160829923567528e+00	-2.740534205910220e+02
1	 4.139062751517519e-02	 1.161762912970730e+00	-4.041346578262564e+02
1	 2.062418217437382e-02	 1.162317036401724e+00	-5.552090690279128e+02
1	 0.000000000000000e+00	 1.162500000000000e+00	-7.270793768570711e+02
1	 2.138065865844276e-01	 1.155383807906674e+00	 5.648540618451428e+01
1	 1.920117603922285e-01	 1.159205108641528e+00	 6.311780476340103e+01
1	 1.702803995903987e-01	 1.162596054326918e+00	 5.285245401908682e+01
1	 1.486238723094905e-01	 1.165562501367597e+00	 2.543392074669840e+01
1	 1.270531833494540e-01	 1.168110649129712e+00	-1.932517311921596e+01
1	 1.055789645105481e-01	 1.170247017624314e+00	-8.154619903714250e+01
1	 8.421146633826952e-02	 1.171978425117234e+00	-1.612867857650947e+02
1	 6.296055125270505e-02	 1.173311965756507e+00	-2.585432741165015e+02
1	 4.183568802701556e-02	 1.174254987303784e+00	-3.732533380895520e+02
1	 2.084594757461052e-02	 1.174815069051214e+00	-5.052987481555000e+02
1	 0.000000000000000e+00	 1.175000000000000e+00	-6.545082529476099e+02
1	 2.160811247399532e-01	 1.167675125012503e+00	 5.988472703612871e+01
1	 1.940544386952883e-01	 1.171537077882749e+00	 5.796573553718439e+01
1	 1.720918932045614e-01	 1.174964097458333e+00	 4.256039616790232e+01
1	 1.502049773358868e-01	 1.177962102446187e+00	 1.347626362664010e+01
1	 1.284048129615569e-01	 1.180537358163162e+00	-2.942502572320943e+01
1	 1.067021449860916e-01	 1.182696453982126e+00	-8.622941828053774e+01
1	 8.510733300334690e-02	 1.184446280703655e+00	-1.569722772288082e+02
1	 6.363034435277519e-02	 1.185794007945443e+00	-2.416403665355929e+02
1	 4.228074853916980e-02	 1.186747061636820e+00	-3.401739653693865e+02
1	 2.106771297502218e-02	 1.187313101700699e+00	-4.524690936003012e+02
1	 0.000000000000000e+00	 1.187500000000000e+00	-5.783798294321997e+02
1	 2.183556628955082e-01	 1.179966442117847e+00	 5.687194896535291e+01
1	 1.960971169985559e-01	 1.183869047123579e+00	 4.775608586929649e+01
1	 1.739033868190682e-01	 1.187332140589441e+00	 2.848400447633109e+01
1	 1.517860823627217e-01	 1.190361703524544e+00	-1.074337307587012e+00
1	 1.297564425741521e-01	 1.192964067196440e+00	-4.100867310941007e+01
1	 1.078253254621411e-01	 1.195145890339820e+00	-9.136971436831817e+01
1	 8.600319966890443e-02	 1.196914136290001e+00	-1.521705609943206e+02
1	 6.430013745326123e-02	 1.198276050134339e+00	-2.233882216317918e+02
1	 4.272580905163788e-02	 1.199239135969837e+00	-3.049652288205282e+02
1	 2.128947837560878e-02	 1.199811134350180e+00	-3.968113345392586e+02
1	 0.000000000000000e+00	 1.200000000000000e+00	-4.988052719234673e+02
1	 2.206302010510924e-01	 1.192257759222705e+00	 4.764538430924610e+01
1	 1.981397953020312e-01	 1.196201016364018e+00	 3.264527577297253e+01
1	 1.757148804339190e-01	 1.199700183720243e+00	 1.074032019708971e+01
1	 1.533671873899952e-01	 1.202761304602666e+00	-1.813768791713315e+01
1	 1.311080721872396e-01	 1.205390776229548e+00	-5.403022471695688e+01
1	 1.089485059386964e-01	 1.207595326697396e+00	-9.695295090238872e+01
1	 8.689906633494215e-02	 1.209381991876273e+00	-1.468967053399459e+02
1	 6.496993055416314e-02	 1.210758092323192e+00	-2.038285683934262e+02
1	 4.317086956441985e-02	 1.211731210302836e+00	-2.676929850553414e+02
1	 2.151124377637034e-02	 1.212309166999656e+00	-3.384129381215180e+02
1	 0.000000000000000e+00	 1.212500000000000e+00	-4.158911618852373e+02
1	 2.229047392067060e-01	 1.204549076327078e+00	 3.239525102350773e+01
1	 2.001824736057144e-01	 1.208532985604066e+00	 1.278334077095240e+01
1	 1.775263740491137e-01	 1.212068226850737e+00	-1.055839261118114e+01
1	 1.549482924177072e-01	 1.215160905680556e+00	-3.763686729334366e+01
1	 1.324597018008195e-01	 1.217817485262486e+00	-6.844566306911491e+01
1	 1.100716864157577e-01	 1.220044763054856e+00	-1.029655684804924e+02
1	 8.779493300146010e-02	 1.221849847462470e+00	-1.411651635122363e+02
1	 6.563972365548093e-02	 1.223240134512003e+00	-1.830014325848346e+02
1	 4.361593007751567e-02	 1.224223284635816e+00	-2.284204026612591e+02
1	 2.173300917730685e-02	 1.224807199649127e+00	-2.773578014086011e+02
1	 0.000000000000000e+00	 1.225000000000000e+00	-3.297397305176605e+02
1	 2.251792773623489e-01	 1.216840393430966e+00	 1.130408148962989e+01
1	 2.022251519096053e-01	 1.220864954843724e+00	-1.168574565549625e+01
1	 1.793378676646525e-01	 1.224436269980924e+00	-3.530440581148511e+01
1	 1.565293974458579e-01	 1.227560506758212e+00	-5.949806244310124e+01
1	 1.338113314148917e-01	 1.230244194295253e+00	-8.421274917306552e+01
1	 1.111948668933249e-01	 1.232494199412197e+00	-1.093945555550080e+02
1	 8.869079966845822e-02	 1.234317703048592e+00	-1.349898047881920e+02
1	 6.630951675721461e-02	 1.235722176700773e+00	-1.609452227677854e+02
1	 4.406099059092536e-02	 1.236715358968778e+00	-1.872080979596115e+02
1	 2.195477457841831e-02	 1.237305232298594e+00	-2.137264316818745e+02
1	 0.000000000000000e+00	 1.237500000000000e+00	-2.404490784674973e+02
1	 2.274538155180211e-01	 1.229131710534368e+00	-1.545289320637865e+01
1	 2.042678302137041e-01	 1.233196924082991e+00	-4.062376896449786e+01
1	 1.811493612805352e-01	 1.236804313110804e+00	-6.339430039238232e+01
1	 1.581105024744471e-01	 1.239960107835634e+00	-8.365041289304619e+01
1	 1.351629610294562e-01	 1.242670903327850e+00	-1.012909335957117e+02
1	 1.123180473713980e-01	 1.244943635769421e+00	-1.162274210402205e+02
1	 8.958666633593650e-02	 1.246785558634639e+00	-1.283839436737371e+02
1	 6.697930985936418e-02	 1.248204218889501e+00	-1.376968111615959e+02
1	 4.450605110464890e-02	 1.249207433301722e+00	-1.441142626189282e+02
1	 2.217653997970472e-02	 1.249803264948056e+00	-1.475961159315367e+02
1	 0.000000000000000e+00	 1.250000000000000e+00	-1.481133823557775e+02
1	 1.250000000000000e+00	 0.000000000000000e+00	 7.280327147183206e+01
1	 1.249803264948056e+00	 2.217653997970400e-02	 4.449994277926118e+01
1	 1.249207433301722e+00	 4.450605110464827e-02	 1.873064055517354e+01
1	 1.248204218889501e+00	 6.697930985936361e-02	-4.746687681511364e+00
1	 1.246785558634639e+00	 8.958666633593600e-02	-2.619205473771135e+01
1	 1.244943635769421e+00	 1.123180473713976e-01	-4.588326716233128e+01
1	 1.242670903327850e+00	 1.351629610294558e-01	-6.411566378136381e+01
1	 1.239960107835634e+00	 1.581105024744469e-01	-8.120175535364829e+01
1	 1.236804313110804e+00	 1.811493612805350e-01	-9.747076184358629e+01
1	 1.233196924082991e+00	 2.042678302137040e-01	-1.132680443698789e+02
1	 1.229131710534368e+00	 2.274538155180211e-01	-1.289544295191389e+02
1	 1.262500000000000e+00	 0.000000000000000e+00	 8.829600003718426e+01
1	 1.262301297597516e+00	 2.239830538099040e-02	 5.850509315085564e+01
1	 1.261699507634656e+00	 4.495111161837182e-02	 3.093429708879532e+01
1	 1.260686261078208e+00	 6.764910296151318e-02	 5.372856866912054e+00
1	 1.259253414220649e+00	 9.048253300341427e-02	-1.840578403137289e+01
1	 1.257393072126586e+00	 1.134412278494708e-01	-4.064384301963442e+01
1	 1.255097612360361e+00	 1.365145906440204e-01	-6.159897439370627e+01
1	 1.252359708912939e+00	 1.596916075030361e-01	-8.154395838713752e+01
1	 1.249172356240532e+00	 1.829608548964178e-01	-1.007663001793198e+02
1	 1.245528893322062e+00	 2.063105085178028e-01	-1.195677362319980e+02
1	 1.241423027637528e+00	 2.297283536736933e-01	-1.382636458823208e+02
1	 1.275000000000000e+00	 0.000000000000000e+00	 1.014357627536386e+02
1	 1.274799330246976e+00	 2.262007078210185e-02	 7.055432215961628e+01
1	 1.274191581967590e+00	 4.539617213178149e-02	 4.158690035079027e+01
1	 1.273168303266915e+00	 6.831889606324687e-02	 1.435358972357925e+01
1	 1.271721269806660e+00	 9.137839967041235e-02	-1.133919130786063e+01
1	 1.269842508483751e+00	 1.145644083270380e-01	-3.569858340908957e+01
1	 1.267524321392873e+00	 1.378662202580925e-01	-5.894509940194075e+01
1	 1.264759309990245e+00	 1.612727125311867e-01	-8.131236221137787e+01
1	 1.261540399370259e+00	 1.847723485119565e-01	-1.030467649460559e+02
1	 1.257860862561133e+00	 2.083531868216938e-01	-1.244070508004848e+02
1	 1.253714344740687e+00	 2.320028918293363e-01	-1.456638109427033e+02
1	 1.287500000000000e+00	 0.000000000000000e+00	 1.122910926080034e+02
1	 1.287297362896436e+00	 2.284183618303835e-02	 8.070459838958911e+01
1	 1.286683656300524e+00	 4.584123264487731e-02	 5.073362665048226e+01
1	 1.285650345455622e+00	 6.898868916456465e-02	 2.222868016132782e+01
1	 1.284189125392670e+00	 9.227426633693030e-02	-4.971315072397320e+00
1	 1.282291944840916e+00	 1.156875888040993e-01	-3.103892043164781e+01
1	 1.279951030425384e+00	 1.392178498716724e-01	-5.615803450324035e+01
1	 1.277158911067551e+00	 1.628538175588988e-01	-8.052367942462475e+01
1	 1.273908442499985e+00	 1.865838421271512e-01	-1.043417213932076e+02
1	 1.270192831800205e+00	 2.103958651253769e-01	-1.278285233359967e+02
1	 1.266005661843847e+00	 2.342774299849499e-01	-1.512105281357639e+02
1	 1.300000000000000e+00	 0.000000000000000e+00	 1.209278867028482e+02
1	 1.299795395545896e+00	 2.306360158379989e-02	 8.901069932534642e+01
1	 1.299175730633459e+00	 4.628629315765927e-02	 5.841791474678365e+01
1	 1.298132387644330e+00	 6.965848226546656e-02	 2.903002171170554e+01
1	 1.296656980978680e+00	 9.317013300296803e-02	 7.179999584465842e-01
1	 1.294741381198081e+00	 1.168107692806546e-01	-2.665661572283987e+01
1	 1.292377739457895e+00	 1.405694794847599e-01	-5.324162171411923e+01
1	 1.289558512144857e+00	 1.644349225861723e-01	-7.919397983290449e+01
1	 1.286276485629712e+00	 1.883953357420020e-01	-1.046795976452423e+02
1	 1.282524801039276e+00	 2.124385434288523e-01	-1.298730531276882e+02
1	 1.278296978947007e+00	 2.365519681405341e-01	-1.549572623034070e+02
1	 1.312500000000000e+00	 0.000000000000000e+00	 1.274095317748078e+02
1	 1.312293428195356e+00	 2.328536698438650e-02	 9.552531569006064e+01
1	 1.311667804966393e+00	 4.673135367012735e-02	 6.468154858869305e+01
1	 1.310614429833036e+00	 7.032827536595254e-02	 3.478829291455720e+01
1	 1.309124836564690e+00	 9.406599966852559e-02	 5.748141247771372e+00
1	 1.307190817555246e+00	 1.179339497567040e-01	-2.254374476065294e+01
1	 1.304804448490407e+00	 1.419211090973551e-01	-5.019955668855872e+01
1	 1.301958113222162e+00	 1.660160276130072e-01	-7.733872105916718e+01
1	 1.298644528759440e+00	 1.902068293565088e-01	-1.040877388504862e+02
1	 1.294856770278347e+00	 2.144812217321199e-01	-1.305799813966127e+02
1	 1.290588296050166e+00	 2.388265062960890e-01	-1.569554415317499e+02
1	 1.325000000000000e+00	 0.000000000000000e+00	 1.317970226080749e+02
1	 1.324791460844817e+00	 2.350713238479816e-02	 1.002991498776495e+02
1	 1.324159879299327e+00	 4.717641418228159e-02	 6.956473537236974e+01
1	 1.323096472021744e+00	 7.099806846602269e-02	 3.953301462895444e+01
1	 1.321592692150699e+00	 9.496186633360294e-02	 1.013776465628795e+01
1	 1.319640253912411e+00	 1.190571302322476e-01	-1.869268206164115e+01
1	 1.317231157522919e+00	 1.432727387094580e-01	-4.703539562190026e+01
1	 1.314357714299468e+00	 1.675971326394035e-01	-7.497277741984682e+01
1	 1.311012571889166e+00	 1.920183229706716e-01	-1.025924582649035e+02
1	 1.307188739517419e+00	 2.165239000351796e-01	-1.299871647894979e+02
1	 1.302879613153326e+00	 2.411010444516146e-01	-1.572545532245029e+02
1	 1.337500000000000e+00	 0.000000000000000e+00	 1.341490738078842e+02
1	 1.337289493494276e+00	 2.372889778503485e-02	 1.033810088653623e+02
1	 1.336651953632262e+00	 4.762147469412194e-02	 7.310617922117459e+01
1	 1.335578514210450e+00	 7.166786156567692e-02	 4.329260413043016e+01
1	 1.334060547736709e+00	 9.585773299820013e-02	 1.390482862934592e+01
1	 1.332089690269576e+00	 1.201803107072851e-01	-1.509608720716093e+01
1	 1.329657866555430e+00	 1.446243683210686e-01	-4.375256176760465e+01
1	 1.326757315376773e+00	 1.691782376653612e-01	-7.211046718217466e+01
1	 1.323380615018894e+00	 1.938298165844904e-01	-1.002190854713647e+02
1	 1.319520708756490e+00	 2.185665783380315e-01	-1.281310447513759e+02
1	 1.315170930256486e+00	 2.433755826071108e-01	-1.559022347890607e+02
1	 1.350000000000000e+00	 0.000000000000000e+00	 1.345222253643581e+02
1	 1.349787526143736e+00	 2.395066318509660e-02	 1.048178919645542e+02
1	 1.349144027965196e+00	 4.806653520564843e-02	 7.534315077237576e+01
1	 1.348060556399157e+00	 7.233765466491528e-02	 4.609442620280922e+01
1	 1.346528403322719e+00	 9.675359966231714e-02	 1.706662648468199e+01
1	 1.344539126626741e+00	 1.213034911818168e-01	-1.174689164592615e+01
1	 1.342084575587941e+00	 1.459759979321868e-01	-4.035435159196826e+01
1	 1.339156916454079e+00	 1.707593426908803e-01	-6.876557830719669e+01
1	 1.335748658148621e+00	 1.956413101979651e-01	-9.699201192006608e+01
1	 1.331852677995562e+00	 2.206092566406757e-01	-1.250467130441777e+02
1	 1.327462247359646e+00	 2.456501207625777e-01	-1.529443592844748e+02
1	 1.362500000000000e+00	 0.000000000000000e+00	 1.329709424054984e+02
1	 1.362285558793196e+00	 2.417242858498341e-02	 1.046550737411438e+02
1	 1.361636102298130e+00	 4.851159571686106e-02	 7.631155293339381e+01
1	 1.360542598587865e+00	 7.300744776373773e-02	 4.796484141764612e+01
1	 1.358996258908729e+00	 9.764946632595396e-02	 1.963981692286115e+01
1	 1.356988562983906e+00	 1.224266716558425e-01	-8.638286223028647e+00
1	 1.354511284620453e+00	 1.473276275428128e-01	-3.684394059004833e+01
1	 1.351556517531384e+00	 1.723404477159608e-01	-6.495139277574597e+01
1	 1.348116701278348e+00	 1.974528038110959e-01	-9.293473396213714e+01
1	 1.344184647234633e+00	 2.226519349431120e-01	-1.207679736587994e+02
1	 1.339753564462805e+00	 2.479246589180152e-01	-1.484251163548607e+02
1	 1.375000000000000e+00	 0.000000000000000e+00	 1.295477095091051e+02
1	 1.374783591442656e+00	 2.439419398469526e-02	 1.029361824131358e+02
1	 1.374128176631064e+00	 4.895665622775984e-02	 7.604598305134148e+01
1	 1.373024640776572e+00	 7.367724086214431e-02	 4.892925178023792e+01
1	 1.371464114494739e+00	 9.854533298911061e-02	 2.164045287351256e+01
1	 1.369437999341071e+00	 1.235498521293624e-01	-5.763709389193839e+00
1	 1.366937993652964e+00	 1.486792571529464e-01	-3.322438878435521e+01
1	 1.363956118608690e+00	 1.739215527406027e-01	-6.068070958754222e+01
1	 1.360484744408075e+00	 1.992642974238827e-01	-8.806989353596158e+01
1	 1.356516616473704e+00	 2.246946132453406e-01	-1.153274013501479e+02
1	 1.352044881565965e+00	 2.501991970734234e-01	-1.423870887482553e+02
1	 1.229131710534368e+00	 2.274538155180211e-01	-1.289544295191389e+02
1	 1.224602830660197e+00	 2.506948487310240e-01	-1.265024689711984e+02
1	 1.219604854344699e+00	 2.739781000458331e-01	-1.239557370119780e+02
1	 1.214132786041956e+00	 2.972903932297759e-01	-1.210692400208961e+02
1	 1.208182087148427e+00	 3.206182221012702e-01	-1.175915172456051e+02
1	 1.201748697753769e+00	 3.439477685578606e-01	-1.132654291344973e+02
1	 1.194829057653032e+00	 3.672649221392482e-01	-1.078290066934288e+02
1	 1.187420126502869e+00	 3.905553010997262e-01	-1.010163591619862e+02
1	 1.179519403004286e+00	 4.138042749547273e-01	-9.255863670218511e+01
1	 1.171124942995283e+00	 4.369969884562962e-01	-8.218504419024413e+01
1	 1.162235376338345e+00	 4.601183869422883e-01	-6.962390160720997e+01
1	 1.241423027637528e+00	 2.297283536736933e-01	-1.382636458823208e+02
1	 1.236848858964224e+00	 2.532017972172809e-01	-1.333390883581190e+02
1	 1.231800902885296e+00	 2.767178810439017e-01	-1.283000170029661e+02
1	 1.226274113899371e+00	 3.002632971585613e-01	-1.229366759010507e+02
1	 1.220263908016873e+00	 3.238244043178657e-01	-1.170338493059923e+02
1	 1.213766184728358e+00	 3.473872462383388e-01	-1.103715418301717e+02
1	 1.206777348226831e+00	 3.709375713550829e-01	-1.027257107871042e+02
1	 1.199294327765508e+00	 3.944608541049375e-01	-9.386904833111173e+01
1	 1.191314597032411e+00	 4.179423176984929e-01	-8.357181052138927e+01
1	 1.182836192423920e+00	 4.413669583353181e-01	-7.160268992087805e+01
1	 1.173857730101146e+00	 4.647195708066494e-01	-5.772972783038065e+01
1	 1.253714344740687e+00	 2.320028918293363e-01	-1.456638109427033e+02
1	 1.249094887268250e+00	 2.557087457036991e-01	-1.385903933255267e+02
1	 1.243996951425893e+00	 2.794576620423040e-01	-1.313836649065842e+02
1	 1.238415441756786e+00	 3.032362010878337e-01	-1.238685733945591e+02
1	 1.232345728885320e+00	 3.270305865350823e-01	-1.158655990692861e+02
1	 1.225783671702949e+00	 3.508267239195527e-01	-1.071913281804424e+02
1	 1.218725638800629e+00	 3.746102205717475e-01	-9.765906974060908e+01
1	 1.211168529028148e+00	 3.983664071110527e-01	-8.707951370195460e+01
1	 1.203109791060537e+00	 4.220803604432159e-01	-7.526142807288036e+01
1	 1.194547441852557e+00	 4.457369282153292e-01	-6.201239209884343e+01
1	 1.185480083863948e+00	 4.693207546720106e-01	-4.713956220545013e+01
1	 1.266005661843847e+00	 2.342774299849499e-01	-1.512105281357639e+02
1	 1.261340915572276e+00	 2.582156941902787e-01	-1.423025580794566e+02
1	 1.256192999966490e+00	 2.821974430410401e-01	-1.332433981620520e+02
1	 1.250556769614201e+00	 3.062091050175934e-01	-1.238921811921861e+02
1	 1.244427549753766e+00	 3.302367687529200e-01	-1.141045504858584e+02
1	 1.237801158677538e+00	 3.542662016015020e-01	-1.037331277876229e+02
1	 1.230673929374427e+00	 3.782828697892420e-01	-9.262801593670710e+01
1	 1.223042730290788e+00	 4.022719601180717e-01	-8.063733460847742e+01
1	 1.214904985088662e+00	 4.262184031888958e-01	-6.760778711202792e+01
1	 1.206258691281194e+00	 4.501068980963296e-01	-5.338525587610415e+01
1	 1.197102437626749e+00	 4.739219385383718e-01	-3.781542391233222e+01
1	 1.278296978947007e+00	 2.365519681405341e-01	-1.549572623034070e+02
1	 1.273586943876303e+00	 2.607226426770197e-01	-1.445199808950173e+02
1	 1.268389048507087e+00	 2.849372240401096e-01	-1.339145219994406e+02
1	 1.262698097471615e+00	 3.091820089478399e-01	-1.230336999581624e+02
1	 1.256509370622212e+00	 3.334429509713790e-01	-1.117678035080087e+02
1	 1.249818645652128e+00	 3.577056792841868e-01	-1.000049595000990e+02
1	 1.242622219948226e+00	 3.819555190075664e-01	-8.763152282036228e+01
1	 1.234916931553427e+00	 4.061775131259946e-01	-7.453249117948525e+01
1	 1.226700179116788e+00	 4.303564459355328e-01	-6.059194317283467e+01
1	 1.217969940709831e+00	 4.544768679783192e-01	-4.569349774492913e+01
1	 1.208724791389550e+00	 4.785231224057330e-01	-2.972079293171505e+01
1	 1.290588296050166e+00	 2.388265062960890e-01	-1.569554415317499e+02
1	 1.285832972180329e+00	 2.632295911639221e-01	-1.452853686845254e+02
1	 1.280585097047684e+00	 2.876770050395130e-01	-1.334309966877245e+02
1	 1.274839425329030e+00	 3.121549128785735e-01	-1.213183322362084e+02
1	 1.268591191490658e+00	 3.366491331904589e-01	-1.088718066612995e+02
1	 1.261836132626718e+00	 3.611451569676073e-01	-9.601453668632439e+01
1	 1.254570510522024e+00	 3.856281682267207e-01	-8.266860294339639e+01
1	 1.246791132816067e+00	 4.100830661348213e-01	-6.875534525315709e+01
1	 1.238495373144913e+00	 4.344944886831269e-01	-5.419567348324010e+01
1	 1.229681190138469e+00	 4.588468378612980e-01	-3.891039261692578e+01
1	 1.220347145152352e+00	 4.831243062740942e-01	-2.282054048311898e+01
1	 1.302879613153326e+00	 2.411010444516146e-01	-1.572545532245029e+02
1	 1.298079000484355e+00	 2.657365396509859e-01	-1.446398167787679e+02
1	 1.292781145588281e+00	 2.904167860392501e-01	-1.318255009763415e+02
1	 1.286980753186445e+00	 3.151278168097941e-01	-1.187703295306884e+02
1	 1.280673012359105e+00	 3.398553154101601e-01	-1.054323877722324e+02
1	 1.273853619601308e+00	 3.645846346517633e-01	-9.176928164425196e+01
1	 1.266518801095822e+00	 3.893008174467049e-01	-7.773830611982631e+01
1	 1.258665334078706e+00	 4.139886191445518e-01	-6.329662237188708e+01
1	 1.250290567173038e+00	 4.386325314316781e-01	-4.840144292295448e+01
1	 1.241392439567106e+00	 4.632168077452660e-01	-3.301022389759976e+01
1	 1.231969498915152e+00	 4.877254901434555e-01	-1.708086340042350e+01
1	 1.315170930256486e+00	 2.433755826071108e-01	-1.559022347890607e+02
1	 1.310325028788382e+00	 2.682434881382111e-01	-1.426228842345449e+02
1	 1.304977194128878e+00	 2.931565670393207e-01	-1.291294919792793e+02
1	 1.299122081043860e+00	 3.181007207415019e-01	-1.154130367477013e+02
1	 1.292754833227551e+00	 3.430614976304824e-01	-1.014647829728760e+02
1	 1.285871106575899e+00	 3.680241123366550e-01	-8.727633920275795e+01
1	 1.278467091669621e+00	 3.929734666675191e-01	-7.283971768463931e+01
1	 1.270539535341346e+00	 4.178941721551863e-01	-5.814739478676037e+01
1	 1.262085761201164e+00	 4.427705741811864e-01	-4.319237189019790e+01
1	 1.253103688995743e+00	 4.675867776302233e-01	-2.796823636047145e+01
1	 1.243591852677954e+00	 4.923266740138165e-01	-1.246922218727084e+01
1	 1.327462247359646e+00	 2.456501207625777e-01	-1.529443592844748e+02
1	 1.322571057092408e+00	 2.707504366255978e-01	-1.392726649584646e+02
1	 1.317173242669475e+00	 2.958963480397251e-01	-1.253732617322720e+02
1	 1.311263408901274e+00	 3.210736246736966e-01	-1.112689341672211e+02
1	 1.304836654095997e+00	 3.462676798514259e-01	-9.698366409412549e+01
1	 1.297888593550488e+00	 3.714635900222821e-01	-8.254258956743280e+01
1	 1.290415382243419e+00	 3.966461158891632e-01	-6.797195684930416e+01
1	 1.282413736603985e+00	 4.217997251667246e-01	-5.329906540622552e+01
1	 1.273880955229289e+00	 4.469086169316517e-01	-3.855220595362214e+01
1	 1.264814938424380e+00	 4.719567475161698e-01	-2.376059163929853e+01
1	 1.255214206440755e+00	 4.969278578851778e-01	-8.954282513836080e+00
1	 1.339753564462805e+00	 2.479246589180152e-01	-1.484251163548607e+02
1	 1.334817085396434e+00	 2.732573851131458e-01	-1.346258549156635e+02
1	 1.329369291210072e+00	 2.986361290404630e-01	-1.205859906367535e+02
1	 1.323404736758689e+00	 3.240465286063783e-01	-1.063596771048438e+02
1	 1.316918474964443e+00	 3.494738620729904e-01	-9.200316455107802e+01
1	 1.309906080525078e+00	 3.749030677086448e-01	-7.757466045926334e+01
1	 1.302363672817217e+00	 4.003187651116372e-01	-6.313417514780409e+01
1	 1.294287937866625e+00	 4.257052781791670e-01	-4.874335262832504e+01
1	 1.285676149257414e+00	 4.510466596830741e-01	-3.446528717476757e+01
1	 1.276526187853017e+00	 4.763267174031054e-01	-2.036432617026638e+01
1	 1.266836560203556e+00	 5.015290417575390e-01	-6.505859933958845e+00
1	 1.352044881565965e+00	 2.501991970734234e-01	-1.423870887482553e+02
1	 1.347063113700461e+00	 2.757643336008552e-01	-1.287178156725989e+02
1	 1.341565339750669e+00	 3.013759100415347e-01	-1.147957979886887e+02
1	 1.335546064616104e+00	 3.270194325395472e-01	-1.007061334101682e+02
1	 1.329000295832889e+00	 3.526800442951761e-01	-8.653690381647675e+01
1	 1.321923567499668e+00	 3.783425453957430e-01	-7.237893859120602e+01
1	 1.314311963391016e+00	 4.039914143349411e-01	-5.832555496743127e+01
1	 1.306162139129264e+00	 4.296108311925129e-01	-4.447227600026027e+01
1	 1.297471343285539e+00	 4.551847024354536e-01	-3.091652699475053e+01
1	 1.288237437281654e+00	 4.806966872910303e-01	-1.775731142824181e+01
1	 1.278458913966357e+00	 5.061302256309002e-01	-5.094867617703841e+00
1	 1.162235376338345e+00	 4.601183869422883e-01	-6.962390160720997e+01
1	 1.152849922490885e+00	 4.831532429944503e-01	-6.168072420978254e+01
1	 1.142968404648257e+00	 5.060861843290319e-01	-5.400406952077388e+01
1	 1.132591262356013e+00	 5.289017228355558e-01	-4.675432606590240e+01
1	 1.121719562493458e+00	 5.515842846700590e-01	-4.009298609707604e+01
1	 1.110355008534519e+00	 5.741182412978676e-01	-3.418199351946391e+01
1	 1.098499948001281e+00	 5.964879413737912e-01	-2.918307274838652e+01
1	 1.086157378033213e+00	 6.186777433390787e-01	-2.525704241423664e+01
1	 1.073330949004241e+00	 6.406720486069893e-01	-2.256311808096079e+01
1	 1.060024966129602e+00	 6.624553352020790e-01	-2.125820835682545e+01
1	 1.046244389015035e+00	 6.840121917124017e-01	-2.149620895139598e+01
1	 1.173857730101146e+00	 4.647195708066494e-01	-5.772972783038065e+01
1	 1.164378421715943e+00	 4.879847754199314e-01	-5.174453731559078e+01
1	 1.154398088695481e+00	 5.111470461684536e-01	-4.597261774886075e+01
1	 1.143917174980766e+00	 5.341907400606339e-01	-4.055158859187941e+01
1	 1.132936758119894e+00	 5.571001275140689e-01	-3.562003143120189e+01
1	 1.121458558621532e+00	 5.798594237087382e-01	-3.131692920360210e+01
1	 1.109484947482980e+00	 6.024528207859984e-01	-2.778108897331249e+01
1	 1.097018951815104e+00	 6.248645207715108e-01	-2.515055163351309e+01
1	 1.084064258495567e+00	 6.470787690926668e-01	-2.356199211759047e+01
1	 1.070625215791757e+00	 6.690798885542671e-01	-2.315011388944392e+01
1	 1.056706832905469e+00	 6.908523136302467e-01	-2.404704163319231e+01
1	 1.185480083863948e+00	 4.693207546720106e-01	-4.713956220545013e+01
1	 1.175906920941005e+00	 4.928163078464028e-01	-4.292884650087432e+01
1	 1.165827772742723e+00	 5.162079080088365e-01	-3.887939056049281e+01
1	 1.155243087605563e+00	 5.394797572866247e-01	-3.510639225372136e+01
1	 1.144153953746409e+00	 5.626159703589233e-01	-3.172587210341192e+01
1	 1.132562108708666e+00	 5.856006061203647e-01	-2.885420263589810e+01
1	 1.120469946964856e+00	 6.084177001988529e-01	-2.660762387153230e+01
1	 1.107880525597237e+00	 6.310512982044613e-01	-2.510174778878390e+01
1	 1.094797567987208e+00	 6.534854895787139e-01	-2.445105477436868e+01
1	 1.081225465454313e+00	 6.757044419066560e-01	-2.476838522658170e+01
1	 1.067169276796399e+00	 6.976924355481020e-01	-2.616442960621086e+01
1	 1.197102437626749e+00	 4.739219385383718e-01	-3.781542391233222e+01
1	 1.187435420166073e+00	 4.976478402738645e-01	-3.520101595736023e+01
1	 1.177257456789986e+00	 5.212687698501810e-01	-3.269706102592040e+01
1	 1.166569000230403e+00	 5.447687745135282e-01	-3.039667274637721e+01
1	 1.155371149373001e+00	 5.681318132046219e-01	-2.839364999695526e+01
1	 1.143665658795923e+00	 5.913417885327469e-01	-2.678209524107571e+01
1	 1.131454946446909e+00	 6.143825796123552e-01	-2.565602155929646e+01
1	 1.118742099379610e+00	 6.372380756379310e-01	-2.510895067799600e+01
1	 1.105530877479165e+00	 6.598922100651305e-01	-2.523350444099593e+01
1	 1.091825715117267e+00	 6.823289952592448e-01	-2.612099229628474e+01
1	 1.077631720687823e+00	 7.045325574659680e-01	-2.786099747366321e+01
1	 1.208724791389550e+00	 4.785231224057330e-01	-2.972079293171505e+01
1	 1.198963919391144e+00	 5.024793727023167e-01	-2.852966510017706e+01
1	 1.188687140837268e+00	 5.263296316924868e-01	-2.739935325116432e+01
1	 1.177894912855287e+00	 5.500577917413444e-01	-2.640121439192534e+01
1	 1.166588344999672e+00	 5.736476560511649e-01	-2.560715538419856e+01
1	 1.154769208883302e+00	 5.970829709458854e-01	-2.508933915830331e+01
1	 1.142439945929137e+00	 6.203474590265043e-01	-2.491988214839118e+01
1	 1.129603673162223e+00	 6.434248530719191e-01	-2.517054472225540e+01
1	 1.116264186971437e+00	 6.662989305519170e-01	-2.591241649217853e+01
1	 1.102425964780622e+00	 6.889535486120343e-01	-2.721559849089248e+01
1	 1.088094164579742e+00	 7.113726793838446e-01	-2.914888427707732e+01
1	 1.220347145152352e+00	 4.831243062740942e-01	-2.282054048311898e+01
1	 1.210492418616221e+00	 5.073109051317592e-01	-2.288460879531200e+01
1	 1.200116824884569e+00	 5.313904935357540e-01	-2.296099232869160e+01
1	 1.189220825480215e+00	 5.553468089700732e-01	-2.309960972875706e+01
1	 1.177805540626420e+00	 5.791634988985520e-01	-2.335079605095390e+01
1	 1.165872758970802e+00	 6.028241533597791e-01	-2.376509577860001e+01
1	 1.153424945411542e+00	 6.263123384413013e-01	-2.439304955587457e+01
1	 1.140465246945077e+00	 6.496116305064259e-01	-2.528497588853144e+01
1	 1.126997496464023e+00	 6.727056510390734e-01	-2.649074914548771e+01
1	 1.113026214444376e+00	 6.955781019650239e-01	-2.805957526397618e+01
1	 1.098556608472156e+00	 7.182128013017320e-01	-3.003976661828301e+01
1	 1.231969498915152e+00	 4.877254901434555e-01	-1.708086340042350e+01
1	 1.222020917841303e+00	 5.121424375621921e-01	-1.823680097041918e+01
1	 1.211546508931890e+00	 5.364513553799823e-01	-1.935765712107447e+01
1	 1.200546738105186e+00	 5.606358261997149e-01	-2.047222138816507e+01
1	 1.189022736253246e+00	 5.846793417467834e-01	-2.160956816848460e+01
1	 1.176976309058426e+00	 6.085653357744293e-01	-2.279893549710653e+01
1	 1.164409944894123e+00	 6.322772178567456e-01	-2.406960000382784e+01
1	 1.151326820728172e+00	 6.557984079414517e-01	-2.545074878655235e+01
1	 1.137730805956926e+00	 6.791123715265995e-01	-2.697134898763885e+01
1	 1.123626464108531e+00	 7.022026553182141e-01	-2.866001590103703e+01
1	 1.109019052365064e+00	 7.250529232196299e-01	-3.054488047260680e+01
1	 1.243591852677954e+00	 4.923266740138165e-01	-1.246922218727084e+01
1	 1.233549417066389e+00	 5.169739699936152e-01	-1.455828138763841e+01
1	 1.222976192979229e+00	 5.415122172251722e-01	-1.656593569229275e+01
1	 1.211872650730201e+00	 5.659248434302693e-01	-1.850014610869388e+01
1	 1.200239931880150e+00	 5.901951845958592e-01	-2.036902879885801e+01
1	 1.188079859146171e+00	 6.143065181898351e-01	-2.218081860074277e+01
1	 1.175394944376881e+00	 6.382420972728371e-01	-2.394383116397981e+01
1	 1.162188394511508e+00	 6.619851853769962e-01	-2.566642392848718e+01
1	 1.148464115450142e+00	 6.855190920144951e-01	-2.735695619088662e+01
1	 1.134226713773085e+00	 7.088272086716045e-01	-2.902374851801449e+01
1	 1.119481496258467e+00	 7.318930451375384e-01	-3.067504177889546e+01
1	 1.255214206440755e+00	 4.969278578851778e-01	-8.954282513836080e+00
1	 1.245077916291481e+00	 5.218055024260289e-01	-1.182212537348005e+01
1	 1.234405877026588e+00	 5.465730790713230e-01	-1.456328321507548e+01
1	 1.223198563355260e+00	 5.712138606617362e-01	-1.716518074969173e+01
1	 1.211457127507132e+00	 5.957110274457791e-01	-1.961526992777863e+01
1	 1.199183409234037e+00	 6.200477006059969e-01	-2.190107721766220e+01
1	 1.186379943859815e+00	 6.442069766895762e-01	-2.401025190540819e+01
1	 1.173049968295084e+00	 6.681719628130592e-01	-2.593061514087169e+01
1	 1.159197424943675e+00	 6.919258125027606e-01	-2.765020943962115e+01
1	 1.144826963438039e+00	 7.154517620251954e-01	-2.915734833765479e+01
1	 1.129943940152365e+00	 7.387331670554576e-01	-3.044066588565094e+01
1	 1.266836560203556e+00	 5.015290417575390e-01	-6.505859933958845e+00
1	 1.256606415516577e+00	 5.266370348594331e-01	-1.000239631587204e+01
1	 1.245835561073966e+00	 5.516339409184358e-01	-1.332798219527076e+01
1	 1.234524475980362e+00	 5.765028778941159e-01	-1.644979017567752e+01
1	 1.222674323134192e+00	 6.012268702965434e-01	-1.933489392680512e+01
1	 1.210286959322027e+00	 6.257888830229146e-01	-2.195039826031378e+01
1	 1.197364943342925e+00	 6.501718561069625e-01	-2.426357260658753e+01
1	 1.183911542078901e+00	 6.743587402496409e-01	-2.624198711899316e+01
1	 1.169930734437522e+00	 6.983325329913959e-01	-2.785365058577458e+01
1	 1.155427213103392e+00	 7.220763153789866e-01	-2.906714929011730e+01
1	 1.140406384046757e+00	 7.455732889733871e-01	-2.985178592673502e+01
1	 1.278458913966357e+00	 5.061302256309002e-01	-5.094867617703841e+00
1	 1.268134914741677e+00	 5.314685672938273e-01	-9.074100752276877e+00
1	 1.257265245121364e+00	 5.566948027665093e-01	-1.283910486579359e+01
1	 1.245850388605507e+00	 5.817918951274083e-01	-1.633707689246901e+01
1	 1.233891518761329e+00	 6.067427131481519e-01	-1.951499035399359e+01
1	 1.221390509410137e+00	 6.315300654405880e-01	-2.231980729888303e+01
1	 1.208349942826211e+00	 6.561367355249965e-01	-2.469869599587118e+01
1	 1.194773115862958e+00	 6.805455176867415e-01	-2.659925311467612e+01
1	 1.180664043931685e+00	 7.047392534804008e-01	-2.796972905029626e+01
1	 1.166027462769146e+00	 7.287008687329783e-01	-2.875925498081875e+01
1	 1.150868827941644e+00	 7.524134108913275e-01	-2.891807019476219e+01
1	 1.046244389015035e+00	 6.840121917124017e-01	-2.149620895139598e+01
1	 1.031994829112001e+00	 7.053273514082546e-01	-2.137698982334492e+01
1	 1.017282545054521e+00	 7.263857263794559e-01	-2.129375024016215e+01
1	 1.002114435865165e+00	 7.471724415374245e-01	-2.119512330447054e+01
1	 9.864980320304253e-01	 7.676728683263137e-01	-2.102941372331241e+01
1	 9.704414844585151e-01	 7.878726579898537e-01	-2.074481645055096e+01
1	 9.539535513453987e-01	 8.077577742387658e-01	-2.028963827854492e+01
1	 9.370435829877606e-01	 8.273145251659155e-01	-1.961252091516336e+01
1	 9.197215045943361e-01	 8.465295942593203e-01	-1.866266405230859e+01
1	 9.019977971594894e-01	 8.653900703672559e-01	-1.739004691724413e+01
1	 8.838834764750000e-01	 8.838834764750000e-01	-1.574564679855466e+01
1	 1.056706832905469e+00	 6.908523136302467e-01	-2.404704163319231e+01
1	 1.042314777402819e+00	 7.123806249235496e-01	-2.307609011104159e+01
1	 1.027455370504306e+00	 7.336495836448358e-01	-2.213091137591239e+01
1	 1.012135580222726e+00	 7.546441659546386e-01	-2.117133104459337e+01
1	 9.963630123494379e-01	 7.753495970115514e-01	-2.015692580639727e+01
1	 9.801458993017382e-01	 7.957513845717418e-01	-1.904719568036593e+01
1	 9.634930868575512e-01	 8.158353519830368e-01	-1.780173855226266e+01
1	 9.464140188165280e-01	 8.355876704192311e-01	-1.638042583511145e+01
1	 9.289187196394912e-01	 8.549948902032221e-01	-1.474357807380967e+01
1	 9.110177751307498e-01	 8.740439710717682e-01	-1.285213930296904e+01
1	 8.927223112400001e-01	 8.927223112400001e-01	-1.066784896796807e+01
1	 1.067169276796399e+00	 6.976924355481020e-01	-2.616442960621086e+01
1	 1.052634725694217e+00	 7.194338984386744e-01	-2.442782211907158e+01
1	 1.037628195954726e+00	 7.409134409099047e-01	-2.270683048081878e+01
1	 1.022156724580948e+00	 7.621158903714401e-01	-2.097230858973465e+01
1	 1.006227992669108e+00	 7.830263256963153e-01	-1.919493986780491e+01
1	 9.898503141455847e-01	 8.036301111531332e-01	-1.734536371234209e+01
1	 9.730326223702622e-01	 8.239129297268302e-01	-1.539430356601372e+01
1	 9.557844546457592e-01	 8.438608156721282e-01	-1.331269575311844e+01
1	 9.381159346849866e-01	 8.634601861468045e-01	-1.107181821329183e+01
1	 9.200377531021950e-01	 8.826978717761008e-01	-8.643418255937419e+00
1	 9.015611460049998e-01	 9.015611460049998e-01	-5.999838459767666e+00
1	 1.077631720687823e+00	 7.045325574659680e-01	-2.786099747366321e+01
1	 1.062954673986195e+00	 7.264871719536292e-01	-2.544230337015465e+01
1	 1.047801021405781e+00	 7.481772981746628e-01	-2.302911654605728e+01
1	 1.032177868939832e+00	 7.695876147878290e-01	-2.060315973195230e+01
1	 1.016092972989436e+00	 7.907030543806040e-01	-1.814606264599557e+01
1	 9.995547289900544e-01	 8.115088377340292e-01	-1.563944320269426e+01
1	 9.825721578835327e-01	 8.319905074701464e-01	-1.306498968657234e+01
1	 9.651548904754556e-01	 8.521339609246066e-01	-1.040454333914206e+01
1	 9.473131497308213e-01	 8.719254820900676e-01	-7.640180797440632e+00
1	 9.290577310738252e-01	 8.913517724802531e-01	-4.754295817934683e+00
1	 9.103999807700000e-01	 9.103999807700000e-01	-1.729679720960277e+00
1	 1.088094164579742e+00	 7.113726793838446e-01	-2.914888427707732e+01
1	 1.073274622278753e+00	 7.335404454684142e-01	-2.612926225150763e+01
1	 1.057973846857473e+00	 7.554411554391099e-01	-2.310508590929020e+01
1	 1.042199013299377e+00	 7.770593392038053e-01	-2.006879196360684e+01
1	 1.025957953310421e+00	 7.983797830644190e-01	-1.701280062025721e+01
1	 1.009259143835148e+00	 8.193875643144291e-01	-1.392955209009108e+01
1	 9.921116933973619e-01	 8.400680852129850e-01	-1.081154342045095e+01
1	 9.745253263056164e-01	 8.604071061766666e-01	-7.651365391214370e+00
1	 9.565103647769959e-01	 8.803907780330110e-01	-4.441739217289044e+00
1	 9.380777090456406e-01	 9.000056731842258e-01	-1.175552798352307e+00
1	 9.192388155350000e-01	 9.192388155350000e-01	 2.154103741743143e+00
1	 1.098556608472156e+00	 7.182128013017320e-01	-3.003976661828301e+01
1	 1.083594570571891e+00	 7.405937189830295e-01	-2.649805654510748e+01
1	 1.068146672309800e+00	 7.627050127032456e-01	-2.294177619054751e+01
1	 1.052220157659584e+00	 7.845310636193691e-01	-1.937392582496549e+01
1	 1.035822933632064e+00	 8.060565117477595e-01	-1.579756478495217e+01
1	 1.018963558680864e+00	 8.272662908943328e-01	-1.221580382029960e+01
1	 1.001651228911751e+00	 8.481456629553464e-01	-8.631797121531715e+00
1	 9.838957621362415e-01	 8.686802514283076e-01	-5.048734067437763e+00
1	 9.657075798235105e-01	 8.888560739756349e-01	-1.469830734678915e+00
1	 9.470976870176407e-01	 9.086595738880187e-01	 2.101678786173022e+00
1	 9.280776503000001e-01	 9.280776503000001e-01	 5.662551221910768e+00
1	 1.109019052365064e+00	 7.250529232196299e-01	-3.054488047260680e+01
1	 1.093914518865609e+00	 7.476469924974751e-01	-2.655769090907063e+01
1	 1.078319497762762e+00	 7.699688699670706e-01	-2.254595943928562e+01
1	 1.062241302020453e+00	 7.920027880345202e-01	-1.852310372269853e+01
1	 1.045687913954364e+00	 8.137332404306257e-01	-1.450267515352292e+01
1	 1.028667973527204e+00	 8.351450174737410e-01	-1.049830755811437e+01
1	 1.011190764426698e+00	 8.562232406972299e-01	-6.523664941662020e+00
1	 9.932661979673315e-01	 8.769533966795300e-01	-2.592388614283625e+00
1	 9.749047948703654e-01	 8.973213699179398e-01	 1.281955964475415e+00
1	 9.561176649898260e-01	 9.173134745916315e-01	 5.085932278138017e+00
1	 9.369164850650002e-01	 9.369164850650001e-01	 8.806285436019213e+00
1	 1.119481496258467e+00	 7.318930451375384e-01	-3.067504177889546e+01
1	 1.104234467159906e+00	 7.547002660117507e-01	-2.631683337876859e+01
1	 1.088492323216361e+00	 7.772327272305846e-01	-2.192415454422737e+01
1	 1.072262446381982e+00	 7.994745124492590e-01	-1.752069825387876e+01
1	 1.055552894277321e+00	 8.214099691130178e-01	-1.313036500993752e+01
1	 1.038372388374167e+00	 8.430237440526529e-01	-8.777168387402888e+00
1	 1.020730299942205e+00	 8.643008184386362e-01	-4.485139008319486e+00
1	 1.002636633798886e+00	 8.852265419303337e-01	-2.782275587252983e-01
1	 9.841020099175596e-01	 9.057866658599246e-01	 3.819792518975859e+00
1	 9.651376429621962e-01	 9.259673752950645e-01	 7.785422016596193e+00
1	 9.457553198299999e-01	 9.457553198299999e-01	 1.159553198966981e+01
1	 1.129943940152365e+00	 7.387331670554576e-01	-3.044066588565094e+01
1	 1.114554415454784e+00	 7.617535395258563e-01	-2.578383095121536e+01
1	 1.098665148670595e+00	 7.844965844937873e-01	-2.108263895376679e+01
1	 1.082283590744174e+00	 8.069462368635849e-01	-1.637092006753612e+01
1	 1.065417874600936e+00	 8.290866977949353e-01	-1.168278492394194e+01
1	 1.048076803221754e+00	 8.509024706310688e-01	-7.052487500038133e+00
1	 1.030269835458270e+00	 8.723783961795647e-01	-2.514285814630949e+00
1	 1.012007069630905e+00	 8.934996871807190e-01	 1.897698665859281e+00
1	 9.932992249650937e-01	 9.142519618015905e-01	 6.149621988416243e+00
1	 9.741576209347511e-01	 9.346212759983175e-01	 1.020805810583490e+01
1	 9.545941545949999e-01	 9.545941545949999e-01	 1.404013776235155e+01
1	 1.140406384046757e+00	 7.455732889733871e-01	-2.985178592673502e+01
1	 1.124874363750242e+00	 7.688068130397925e-01	-2.496672431159707e+01
1	 1.108837974125464e+00	 7.917604417566795e-01	-2.002745975121372e+01
1	 1.092304735107027e+00	 8.144179612774985e-01	-1.507782529346882e+01
1	 1.075282854925209e+00	 8.367634264763789e-01	-1.016200654529166e+01
1	 1.057781218069964e+00	 8.587811972089886e-01	-5.324362374429580e+00
1	 1.039809370974894e+00	 8.804559739200161e-01	-6.092428081011754e-01
1	 1.021377505463388e+00	 9.017728324306855e-01	 3.939194687871591e+00
1	 1.002496440012967e+00	 9.227172577429366e-01	 8.277169338469104e+00
1	 9.831775989074915e-01	 9.432751767013908e-01	 1.236146037109792e+01
1	 9.634329893600002e-01	 9.634329893600002e-01	 1.614958828019688e+01
1	 1.150868827941644e+00	 7.524134108913275e-01	-2.891807019476219e+01
1	 1.135194312046280e+00	 7.758600865535584e-01	-2.387326175653830e+01
1	 1.119010799580969e+00	 7.990242990192602e-01	-1.876444412593431e+01
1	 1.102325879470541e+00	 8.218896856909992e-01	-1.364532256584359e+01
1	 1.085147835250138e+00	 8.444401551573477e-01	-8.570026191023279e+00
1	 1.067485632918797e+00	 8.666599237864125e-01	-3.592886944316742e+00
1	 1.049348906492078e+00	 8.885335516599897e-01	 1.231784834583248e+00
1	 1.030747941296336e+00	 9.100459776802332e-01	 5.849926785592061e+00
1	 1.011693655061181e+00	 9.311825536839639e-01	 1.020795135424335e+01
1	 9.921975768804164e-01	 9.519290774042841e-01	 1.425297155308688e+01
1	 9.722718241249999e-01	 9.722718241249999e-01	 1.793302414113350e+01
1	 8.838834764750000e-01	 8.838834764750000e-01	-1.574564679855466e+01
1	 8.653900703672558e-01	 9.019977971594894e-01	-1.112531872302022e+01
1	 8.465295942593203e-01	 9.197215045943362e-01	-5.760307909288009e+00
1	 8.273145251659157e-01	 9.370435829877607e-01	 2.366784693996991e-01
1	 8.077577742387659e-01	 9.539535513453987e-01	 6.750829435839876e+00
1	 7.878726579898540e-01	 9.704414844585149e-01	 1.366572030917106e+01
1	 7.676728683263140e-01	 9.864980320304252e-01	 2.086380915819868e+01
1	 7.471724415374250e-01	 1.002114435865165e+00	 2.822693625298225e+01
1	 7.263857263794565e-01	 1.017282545054521e+00	 3.563682316065530e+01
1	 7.053273514082554e-01	 1.031994829112000e+00	 4.297556816632959e+01
1	 6.840121917124017e-01	 1.046244389015035e+00	 5.012613476805331e+01
1	 8.927223112400001e-01	 8.927223112400001e-01	-1.066784896796807e+01
1	 8.740439710717682e-01	 9.110177751307497e-01	-6.723613951310895e+00
1	 8.549948902032222e-01	 9.289187196394916e-01	-2.152818368811580e+00
1	 8.355876704192313e-01	 9.464140188165279e-01	 2.944392660971182e+00
1	 8.158353519830368e-01	 9.634930868575508e-01	 8.466105500831475e+00
1	 7.957513845717418e-01	 9.801458993017379e-01	 1.430907305870500e+01
1	 7.753495970115517e-01	 9.963630123494376e-01	 2.036915499767804e+01
1	 7.546441659546392e-01	 1.012135580222726e+00	 2.654176011944753e+01
1	 7.336495836448365e-01	 1.027455370504305e+00	 3.272228795303936e+01
1	 7.123806249235501e-01	 1.042314777402819e+00	 3.880656661533491e+01
1	 6.908523136302465e-01	 1.056706832905469e+00	 4.469128407405958e+01
1	 9.015611460049998e-01	 9.015611460049998e-01	-5.999838459767666e+00
1	 8.826978717761006e-01	 9.200377531021950e-01	-2.634860418796343e+00
1	 8.634601861468045e-01	 9.381159346849864e-01	 1.240585187590078e+00
1	 8.438608156721283e-01	 9.557844546457592e-01	 5.538722748743027e+00
1	 8.239129297268304e-01	 9.730326223702622e-01	 1.017033908845305e+01
1	 8.036301111531335e-01	 9.898503141455844e-01	 1.504516420725888e+01
1	 7.830263256963154e-01	 1.006227992669108e+00	 2.007225597838744e+01
1	 7.621158903714405e-01	 1.022156724580948e+00	 2.516038620189884e+01
1	 7.409134409099053e-01	 1.037628195954725e+00	 3.021842542997920e+01
1	 7.194338984386750e-01	 1.052634725694217e+00	 3.515572401094587e+01
1	 6.976924355481020e-01	 1.067169276796399e+00	 3.988248685965757e+01
1	 9.103999807700000e-01	 9.103999807700000e-01	-1.729679720960277e+00
1	 8.913517724802530e-01	 9.290577310738252e-01	 1.150056959115595e+00
1	 8.719254820900674e-01	 9.473131497308210e-01	 4.426138274008309e+00
1	 8.521339609246068e-01	 9.651548904754556e-01	 8.022971182360784e+00
1	 8.319905074701465e-01	 9.825721578835326e-01	 1.186385182429751e+01
1	 8.115088377340296e-01	 9.995547289900545e-01	 1.587129263645872e+01
1	 7.907030543806044e-01	 1.016092972989435e+00	 1.996735224187931e+01
1	 7.695876147878296e-01	 1.032177868939832e+00	 2.407396589211311e+01
1	 7.481772981746633e-01	 1.047801021405781e+00	 2.811327425111703e+01
1	 7.264871719536298e-01	 1.062954673986194e+00	 3.200794834492216e+01
1	 7.045325574659680e-01	 1.077631720687823e+00	 3.568150855732321e+01
1	 9.192388155350000e-01	 9.192388155350000e-01	 2.154103741743143e+00
1	 9.000056731842259e-01	 9.380777090456406e-01	 4.639902686856409e+00
1	 8.803907780330109e-01	 9.565103647769959e-01	 7.409836577077868e+00
1	 8.604071061766667e-01	 9.745253263056164e-01	 1.040031339417970e+01
1	 8.400680852129850e-01	 9.921116933973620e-01	 1.354695296374340e+01
1	 8.193875643144292e-01	 1.009259143835148e+00	 1.678486111709753e+01
1	 7.983797830644193e-01	 1.025957953310421e+00	 2.004890546272343e+01
1	 7.770593392038057e-01	 1.042199013299377e+00	 2.327399091295840e+01
1	 7.554411554391103e-01	 1.057973846857472e+00	 2.639533312765965e+01
1	 7.335404454684151e-01	 1.073274622278753e+00	 2.934872807089927e+01
1	 7.113726793838446e-01	 1.088094164579742e+00	 3.207081592908435e+01
1	 9.280776503000001e-01	 9.280776503000001e-01	 5.662551221910768e+00
1	 9.086595738880183e-01	 9.470976870176407e-01	 7.843107382989906e+00
1	 8.888560739756349e-01	 9.657075798235105e-01	 1.019744737633127e+01
1	 8.686802514283077e-01	 9.838957621362414e-01	 1.267380384770586e+01
1	 8.481456629553463e-01	 1.001651228911750e+00	 1.521993998101139e+01
1	 8.272662908943332e-01	 1.018963558680864e+00	 1.778337136203323e+01
1	 8.060565117477597e-01	 1.035822933632063e+00	 2.031158829931754e+01
1	 7.845310636193695e-01	 1.052220157659584e+00	 2.275227711215001e+01
1	 7.627050127032463e-01	 1.068146672309799e+00	 2.505353891515824e+01
1	 7.405937189830302e-01	 1.083594570571890e+00	 2.716410446334596e+01
1	 7.182128013017320e-01	 1.098556608472156e+00	 2.903354366987316e+01
1	 9.369164850650002e-01	 9.369164850650001e-01	 8.806285436019213e+00
1	 9.173134745916314e-01	 9.561176649898259e-01	 1.076778352954474e+01
1	 8.973213699179396e-01	 9.749047948703653e-01	 1.279452031811990e+01
1	 8.769533966795300e-01	 9.932661979673313e-01	 1.484638174367514e+01
1	 8.562232406972300e-01	 1.011190764426698e+00	 1.688309912488022e+01
1	 8.351450174737411e-01	 1.028667973527204e+00	 1.886441935910964e+01
1	 8.137332404306261e-01	 1.045687913954363e+00	 2.075027444181789e+01
1	 7.920027880345210e-01	 1.062241302020452e+00	 2.250094917334339e+01
1	 7.699688699670710e-01	 1.078319497762762e+00	 2.407724594632451e+01
1	 7.476469924974758e-01	 1.093914518865608e+00	 2.544064554110857e+01
1	 7.250529232196300e-01	 1.109019052365064e+00	 2.655346290125730e+01
1	 9.457553198299999e-01	 9.457553198299999e-01	 1.159553198966981e+01
1	 9.259673752950643e-01	 9.651376429621963e-01	 1.342174033820707e+01
1	 9.057866658599246e-01	 9.841020099175595e-01	 1.520639758538630e+01
1	 8.852265419303337e-01	 1.002636633798885e+00	 1.692087640616281e+01
1	 8.643008184386362e-01	 1.020730299942204e+00	 1.853670594324005e+01
1	 8.430237440526532e-01	 1.038372388374167e+00	 2.002569096578327e+01
1	 8.214099691130180e-01	 1.055552894277321e+00	 2.136002921813306e+01
1	 7.994745124492595e-01	 1.072262446381982e+00	 2.251242618454782e+01
1	 7.772327272305850e-01	 1.088492323216360e+00	 2.345620652274971e+01
1	 7.547002660117512e-01	 1.104234467159906e+00	 2.416542145318734e+01
1	 7.318930451375383e-01	 1.119481496258467e+00	 2.461495143187486e+01
1	 9.545941545949999e-01	 9.545941545949999e-01	 1.404013776235155e+01
1	 9.346212759983176e-01	 9.741576209347513e-01	 1.581249779061382e+01
1	 9.142519618015904e-01	 9.932992249650935e-01	 1.743822350245368e+01
1	 8.934996871807190e-01	 1.012007069630904e+00	 1.890001236946607e+01
1	 8.723783961795650e-01	 1.030269835458270e+00	 2.018102577850406e+01
1	 8.509024706310692e-01	 1.048076803221754e+00	 2.126495774849316e+01
1	 8.290866977949357e-01	 1.065417874600936e+00	 2.213610072180597e+01
1	 8.069462368635854e-01	 1.082283590744173e+00	 2.277940800829370e+01
1	 7.844965844937880e-01	 1.098665148670594e+00	 2.318055249042003e+01
1	 7.617535395258571e-01	 1.114554415454784e+00	 2.332598123196853e+01
1	 7.387331670554576e-01	 1.129943940152365e+00	 2.320296567006878e+01
1	 9.634329893600002e-01	 9.634329893600002e-01	 1.614958828019688e+01
1	 9.432751767013909e-01	 9.831775989074915e-01	 1.794729990578483e+01
1	 9.227172577429366e-01	 1.002496440012967e+00	 1.949495361110655e+01
1	 9.017728324306855e-01	 1.021377505463388e+00	 2.078641418497543e+01
1	 8.804559739200162e-01	 1.039809370974894e+00	 2.181631423574851e+01
1	 8.587811972089889e-01	 1.057781218069964e+00	 2.258007305105655e+01
1	 8.367634264763789e-01	 1.075282854925208e+00	 2.307391142826786e+01
1	 8.144179612774990e-01	 1.092304735107027e+00	 2.329486240206909e+01
1	 7.917604417566800e-01	 1.108837974125464e+00	 2.324077782942243e+01
1	 7.688068130397931e-01	 1.124874363750241e+00	 2.291033082609754e+01
1	 7.455732889733871e-01	 1.140406384046757e+00	 2.230301408261588e+01
1	 9.722718241249999e-01	 9.722718241249999e-01	 1.793302414113350e+01
1	 9.519290774042841e-01	 9.921975768804165e-01	 1.983312728387837e+01
1	 9.311825536839636e-01	 1.011693655061181e+00	 2.138136325161759e+01
1	 9.100459776802337e-01	 1.030747941296336e+00	 2.258261096585035e+01
1	 8.885335516599900e-01	 1.049348906492078e+00	 2.344281762532050e+01
1	 8.666599237864129e-01	 1.067485632918797e+00	 2.396896827751542e+01
1	 8.444401551573482e-01	 1.085147835250138e+00	 2.416905026838973e+01
1	 8.218896856909996e-01	 1.102325879470541e+00	 2.405201284127542e+01
1	 7.990242990192610e-01	 1.119010799580969e+00	 2.362772219330346e+01
1	 7.758600865535591e-01	 1.135194312046279e+00	 2.290691233155480e+01
1	 7.524134108913274e-01	 1.150868827941644e+00	 2.190113210115969e+01
1	 6.840121917124017e-01	 1.046244389015035e+00	 5.012613476805331e+01
1	 6.624553352020789e-01	 1.060024966129602e+00	 6.241227500348202e+01
1	 6.406720486069893e-01	 1.073330949004241e+00	 7.258335019492091e+01
1	 6.186777433390788e-01	 1.086157378033213e+00	 8.076913936885150e+01
1	 5.964879413737916e-01	 1.098499948001280e+00	 8.710268322901213e+01
1	 5.741182412978680e-01	 1.110355008534519e+00	 9.171967999544681e+01
1	 5.515842846700593e-01	 1.121719562493458e+00	 9.475788179796041e+01
1	 5.289017228355563e-01	 1.132591262356013e+00	 9.635649550035015e+01
1	 5.060861843290325e-01	 1.142968404648257e+00	 9.665559168547075e+01
1	 4.831532429944511e-01	 1.152849922490885e+00	 9.579552535291984e+01
1	 4.601183869422882e-01	 1.162235376338345e+00	 9.391637167413764e+01
1	 6.908523136302465e-01	 1.056706832905469e+00	 4.469128407405958e+01
1	 6.690798885542670e-01	 1.070625215791757e+00	 5.751409779648169e+01
1	 6.470787690926667e-01	 1.084064258495567e+00	 6.839461683744386e+01
1	 6.248645207715108e-01	 1.097018951815105e+00	 7.744587467328586e+01
1	 6.024528207859987e-01	 1.109484947482980e+00	 8.478387893084223e+01
1	 5.798594237087384e-01	 1.121458558621532e+00	 9.052708190508923e+01
1	 5.571001275140695e-01	 1.132936758119894e+00	 9.479585120787856e+01
1	 5.341907400606344e-01	 1.143917174980766e+00	 9.771194395211445e+01
1	 5.111470461684543e-01	 1.154398088695481e+00	 9.939798774934189e+01
1	 4.879847754199321e-01	 1.164378421715942e+00	 9.997697164423587e+01
1	 4.647195708066494e-01	 1.173857730101146e+00	 9.957174992969178e+01
1	 6.976924355481020e-01	 1.067169276796399e+00	 3.988248685965757e+01
1	 6.757044419066557e-01	 1.081225465454312e+00	 5.311753507848442e+01
1	 6.534854895787137e-01	 1.094797567987208e+00	 6.458026995896471e+01
1	 6.310512982044615e-01	 1.107880525597236e+00	 7.436723861839025e+01
1	 6.084177001988532e-01	 1.120469946964856e+00	 8.257767810825580e+01
1	 5.856006061203651e-01	 1.132562108708666e+00	 8.931305964603516e+01
1	 5.626159703589236e-01	 1.144153953746409e+00	 9.467663256176576e+01
1	 5.394797572866252e-01	 1.155243087605563e+00	 9.877297089745734e+01
1	 5.162079080088372e-01	 1.165827772742723e+00	 1.017075254906605e+02
1	 4.928163078464036e-01	 1.175906920941005e+00	 1.035861842425253e+02
1	 4.693207546720107e-01	 1.185480083863948e+00	 1.045148431177821e+02
1	 7.045325574659680e-01	 1.077631720687823e+00	 3.568150855732321e+01
1	 6.823289952592447e-01	 1.091825715117267e+00	 4.920797671861348e+01
1	 6.598922100651304e-01	 1.105530877479165e+00	 6.112940509883231e+01
1	 6.372380756379310e-01	 1.118742099379610e+00	 7.152610609806207e+01
1	 6.143825796123554e-01	 1.131454946446909e+00	 8.048080104834074e+01
1	 5.913417885327474e-01	 1.143665658795923e+00	 8.807823722319800e+01
1	 5.681318132046224e-01	 1.155371149373001e+00	 9.440480415254171e+01
1	 5.447687745135287e-01	 1.166569000230403e+00	 9.954815172010879e+01
1	 5.212687698501816e-01	 1.177257456789986e+00	 1.035968124334487e+02
1	 4.976478402738654e-01	 1.187435420166072e+00	 1.066398301486305e+02
1	 4.739219385383718e-01	 1.197102437626749e+00	 1.087663974055027e+02
1	 7.113726793838446e-01	 1.088094164579742e+00	 3.207081592908435e+01
1	 6.889535486120340e-01	 1.102425964780622e+00	 4.577137451412575e+01
1	 6.662989305519171e-01	 1.116264186971437e+00	 5.803153719874470e+01
1	 6.434248530719193e-01	 1.129603673162223e+00	 6.891562604874986e+01
1	 6.203474590265048e-01	 1.142439945929137e+00	 7.849009418099325e+01
1	 5.970829709458856e-01	 1.154769208883302e+00	 8.682321464130096e+01
1	 5.736476560511651e-01	 1.166588344999672e+00	 9.398476818493458e+01
1	 5.500577917413448e-01	 1.177894912855286e+00	 1.000457319813435e+02
1	 5.263296316924875e-01	 1.188687140837267e+00	 1.050779711969551e+02
1	 5.024793727023174e-01	 1.198963919391144e+00	 1.091539353248972e+02
1	 4.785231224057330e-01	 1.208724791389550e+00	 1.123463610304428e+02
1	 7.182128013017320e-01	 1.098556608472156e+00	 2.903354366987316e+01
1	 6.955781019650238e-01	 1.113026214444376e+00	 4.279421543192765e+01
1	 6.727056510390736e-01	 1.126997496464024e+00	 5.527658063120602e+01
1	 6.496116305064261e-01	 1.140465246945077e+00	 6.652920839980780e+01
1	 6.263123384413014e-01	 1.153424945411542e+00	 7.660252407211625e+01
1	 6.028241533597797e-01	 1.165872758970803e+00	 8.554856904774438e+01
1	 5.791634988985525e-01	 1.177805540626420e+00	 9.342075916063190e+01
1	 5.553468089700738e-01	 1.189220825480215e+00	 1.002736431258114e+02
1	 5.313904935357544e-01	 1.200116824884568e+00	 1.061626625863553e+02
1	 5.073109051317600e-01	 1.210492418616221e+00	 1.111439152208167e+02
1	 4.831243062740943e-01	 1.220347145152352e+00	 1.152739222973302e+02
1	 7.250529232196300e-01	 1.109019052365064e+00	 2.655346290125730e+01
1	 7.022026553182140e-01	 1.123626464108531e+00	 4.026349636472347e+01
1	 6.791123715265995e-01	 1.137730805956926e+00	 5.285483035845102e+01
1	 6.557984079414519e-01	 1.151326820728172e+00	 6.436051176250868e+01
1	 6.322772178567455e-01	 1.164409944894123e+00	 7.481517175682689e+01
1	 6.085653357744295e-01	 1.176976309058425e+00	 8.425485581078095e+01
1	 5.846793417467839e-01	 1.189022736253246e+00	 9.271685178880152e+01
1	 5.606358261997154e-01	 1.200546738105186e+00	 1.002395172983604e+02
1	 5.364513553799830e-01	 1.211546508931889e+00	 1.068621073764375e+02
1	 5.121424375621928e-01	 1.222020917841302e+00	 1.126246035708017e+02
1	 4.877254901434555e-01	 1.231969498915153e+00	 1.175675454239217e+02
1	 7.318930451375383e-01	 1.119481496258467e+00	 2.461495143187486e+01
1	 7.088272086716046e-01	 1.134226713773085e+00	 3.816670030270549e+01
1	 6.855190920144951e-01	 1.148464115450143e+00	 5.075694414787723e+01
1	 6.619851853769962e-01	 1.162188394511507e+00	 6.240343180939364e+01
1	 6.382420972728374e-01	 1.175394944376881e+00	 7.312522739042809e+01
1	 6.143065181898355e-01	 1.188079859146170e+00	 8.294260953723256e+01
1	 5.901951845958594e-01	 1.200239931880150e+00	 9.187696845303276e+01
1	 5.659248434302697e-01	 1.211872650730201e+00	 9.995070133000829e+01
1	 5.415122172251726e-01	 1.222976192979229e+00	 1.071871068737711e+02
1	 5.169739699936161e-01	 1.233549417066389e+00	 1.136102795771353e+02
1	 4.923266740138165e-01	 1.243591852677954e+00	 1.192450043768415e+02
1	 7.387331670554576e-01	 1.129943940152365e+00	 2.320296567006878e+01
1	 7.154517620251952e-01	 1.144826963438039e+00	 3.649177382904050e+01
1	 6.919258125027606e-01	 1.159197424943675e+00	 4.897392577550981e+01
1	 6.681719628130595e-01	 1.173049968295084e+00	 6.065209029921282e+01
1	 6.442069766895764e-01	 1.186379943859815e+00	 7.152998519654767e+01
1	 6.200477006059973e-01	 1.199183409234037e+00	 8.161234503366795e+01
1	 5.957110274457796e-01	 1.211457127507132e+00	 9.090488626344535e+01
1	 5.712138606617366e-01	 1.223198563355260e+00	 9.941426994691690e+01
1	 5.465730790713239e-01	 1.234405877026588e+00	 1.071480623365277e+02
1	 5.218055024260299e-01	 1.245077916291480e+00	 1.141146935827529e+02
1	 4.969278578851778e-01	 1.255214206440755e+00	 1.203234148276534e+02
1	 7.455732889733871e-01	 1.140406384046757e+00	 2.230301408261588e+01
1	 7.220763153789865e-01	 1.155427213103392e+00	 3.522710585413466e+01
1	 6.983325329913959e-01	 1.169930734437522e+00	 4.749710915404386e+01
1	 6.743587402496412e-01	 1.183911542078901e+00	 5.910082470599804e+01
1	 6.501718561069627e-01	 1.197364943342925e+00	 7.002683869336101e+01
1	 6.257888830229149e-01	 1.210286959322026e+00	 8.026455821467188e+01
1	 6.012268702965438e-01	 1.222674323134191e+00	 8.980424372061135e+01
1	 5.765028778941165e-01	 1.234524475980362e+00	 9.863703825226553e+01
1	 5.516339409184363e-01	 1.245835561073966e+00	 1.067549933253295e+02
1	 5.266370348594338e-01	 1.256606415516577e+00	 1.141510913308475e+02
1	 5.015290417575390e-01	 1.266836560203556e+00	 1.208192643498815e+02
1	 7.524134108913274e-01	 1.150868827941644e+00	 2.190113210115969e+01
1	 7.287008687329781e-01	 1.166027462769146e+00	 3.436150750985150e+01
1	 7.047392534804007e-01	 1.180664043931685e+00	 4.631814332663352e+01
1	 6.805455176867415e-01	 1.194773115862958e+00	 5.774417841382326e+01
1	 6.561367355249966e-01	 1.208349942826211e+00	 6.861327618020435e+01
1	 6.315300654405884e-01	 1.221390509410137e+00	 7.889972696157045e+01
1	 6.067427131481523e-01	 1.233891518761329e+00	 8.857854701598889e+01
1	 5.817918951274087e-01	 1.245850388605507e+00	 9.762557352729769e+01
1	 5.566948027665101e-01	 1.257265245121364e+00	 1.060175550531361e+02
1	 5.314685672938282e-01	 1.268134914741677e+00	 1.137322369012202e+02
1	 5.061302256309000e-01	 1.278458913966357e+00	 1.207484409689219e+02
1	 4.601183869422882e-01	 1.162235376338345e+00	 9.391637167413764e+01
1	 4.369969884562961e-01	 1.171124942995283e+00	 1.000421682503222e+02
1	 4.138042749547273e-01	 1.179519403004286e+00	 1.026831000878364e+02
1	 3.905553010997264e-01	 1.187420126502869e+00	 1.016957394445337e+02
1	 3.672649221392484e-01	 1.194829057653032e+00	 9.695290275520824e+01
1	 3.439477685578608e-01	 1.201748697753768e+00	 8.834368426521249e+01
1	 3.206182221012706e-01	 1.208182087148427e+00	 7.577340787705971e+01
1	 2.972903932297764e-01	 1.214132786041956e+00	 5.916350066238660e+01
1	 2.739781000458337e-01	 1.219604854344699e+00	 3.845129194508982e+01
1	 2.506948487310247e-01	 1.224602830660197e+00	 1.358974225597467e+01
1	 2.274538155180211e-01	 1.229131710534368e+00	-1.545289320637865e+01
1	 4.647195708066494e-01	 1.173857730101146e+00	 9.957174992969178e+01
1	 4.413669583353180e-01	 1.182836192423920e+00	 1.045315413805905e+02
1	 4.179423176984929e-01	 1.191314597032411e+00	 1.059615455319873e+02
1	 3.944608541049377e-01	 1.199294327765508e+00	 1.037405258543214e+02
1	 3.709375713550830e-01	 1.206777348226831e+00	 9.776304729640532e+01
1	 3.473872462383391e-01	 1.213766184728358e+00	 8.793943653811618e+01
1	 3.238244043178661e-01	 1.220263908016873e+00	 7.419566546194702e+01
1	 3.002632971585618e-01	 1.226274113899371e+00	 5.647316152904645e+01
1	 2.767178810439023e-01	 1.231800902885296e+00	 3.472854914825646e+01
1	 2.532017972172816e-01	 1.236848858964223e+00	 8.933326471384550e+00
1	 2.297283536736934e-01	 1.241423027637528e+00	-2.092651766621782e+01
1	 4.693207546720107e-01	 1.185480083863948e+00	 1.045148431177821e+02
1	 4.457369282153291e-01	 1.194547441852557e+00	 1.085001016374263e+02
1	 4.220803604432159e-01	 1.203109791060537e+00	 1.089104115554108e+02
1	 3.983664071110528e-01	 1.211168529028148e+00	 1.056463924111324e+02
1	 3.746102205717478e-01	 1.218725638800630e+00	 9.862403082290913e+01
1	 3.508267239195530e-01	 1.225783671702948e+00	 8.777456823026938e+01
1	 3.270305865350828e-01	 1.232345728885319e+00	 7.304431679234101e+01
1	 3.032362010878344e-01	 1.238415441756786e+00	 5.439440735909244e+01
1	 2.794576620423047e-01	 1.243996951425893e+00	 3.180047378510879e+01
1	 2.557087457036998e-01	 1.249094887268250e+00	 5.252278151107234e+00
1	 2.320028918293363e-01	 1.253714344740687e+00	-2.524671830372156e+01
1	 4.739219385383718e-01	 1.197102437626749e+00	 1.087663974055027e+02
1	 4.501068980963295e-01	 1.206258691281194e+00	 1.119630183278678e+02
1	 4.262184031888958e-01	 1.214904985088661e+00	 1.115392975587352e+02
1	 4.022719601180718e-01	 1.223042730290787e+00	 1.074173853242926e+02
1	 3.782828697892422e-01	 1.230673929374427e+00	 9.953437258759780e+01
1	 3.542662016015024e-01	 1.237801158677538e+00	 8.784210712562202e+01
1	 3.302367687529205e-01	 1.244427549753766e+00	 7.230694263301717e+01
1	 3.062091050175939e-01	 1.250556769614200e+00	 5.290942499838427e+01
1	 2.821974430410407e-01	 1.256192999966490e+00	 2.964392020243733e+01
1	 2.582156941902795e-01	 1.261340915572276e+00	 2.518188534323837e+00
1	 2.342774299849499e-01	 1.266005661843847e+00	-2.844708998713433e+01
1	 4.785231224057330e-01	 1.208724791389550e+00	 1.123463610304428e+02
1	 4.544768679783190e-01	 1.217969940709831e+00	 1.149348773240719e+02
1	 4.303564459355328e-01	 1.226700179116788e+00	 1.138574337348748e+02
1	 4.061775131259946e-01	 1.234916931553427e+00	 1.090573951796954e+02
1	 3.819555190075666e-01	 1.242622219948226e+00	 1.004926487951606e+02
1	 3.577056792841872e-01	 1.249818645652129e+00	 8.813534917027427e+01
1	 3.334429509713793e-01	 1.256509370622212e+00	 7.197160141163108e+01
1	 3.091820089478404e-01	 1.262698097471615e+00	 5.200108641407282e+01
1	 2.849372240401104e-01	 1.268389048507087e+00	 2.823663296443100e+01
1	 2.607226426770205e-01	 1.273586943876302e+00	 7.037415048163602e-01
1	 2.365519681405341e-01	 1.278296978947007e+00	-3.055993547444397e+01
1	 4.831243062740943e-01	 1.220347145152352e+00	 1.152739222973302e+02
1	 4.588468378612978e-01	 1.229681190138469e+00	 1.174297088459226e+02
1	 4.344944886831269e-01	 1.238495373144913e+00	 1.158736986503510e+02
1	 4.100830661348214e-01	 1.246791132816067e+00	 1.105701643504391e+02
1	 3.856281682267209e-01	 1.254570510522024e+00	 1.014974898901073e+02
1	 3.611451569676077e-01	 1.261836132626718e+00	 8.864784570284904e+01
1	 3.366491331904594e-01	 1.268591191490658e+00	 7.202680647286805e+01
1	 3.121549128785740e-01	 1.274839425329030e+00	 5.165291606977765e+01
1	 2.876770050395138e-01	 1.280585097047684e+00	 2.755720446137378e+01
1	 2.632295911639229e-01	 1.285832972180329e+00	-2.173384397246672e-01
1	 2.388265062960890e-01	 1.290588296050166e+00	-3.161632694243811e+01
1	 4.877254901434555e-01	 1.231969498915153e+00	 1.175675454239217e+02
1	 4.632168077452659e-01	 1.241392439567105e+00	 1.194610136710465e+02
1	 4.386325314316782e-01	 1.250290567173038e+00	 1.175966358314408e+02
1	 4.139886191445520e-01	 1.258665334078706e+00	 1.119592939879976e+02
1	 3.893008174467052e-01	 1.266518801095822e+00	 1.025475779982860e+02
1	 3.645846346517638e-01	 1.273853619601308e+00	 8.937339140767696e+01
1	 3.398553154101606e-01	 1.280673012359104e+00	 7.246150462009207e+01
1	 3.151278168097947e-01	 1.286980753186445e+00	 5.184906014745330e+01
1	 2.904167860392506e-01	 1.292781145588281e+00	 2.758503491784908e+01
1	 2.657365396509867e-01	 1.298079000484355e+00	-2.703352732608941e-01
1	 2.411010444516146e-01	 1.302879613153326e+00	-3.164616403298533e+01
1	 4.923266740138165e-01	 1.243591852677954e+00	 1.192450043768415e+02
1	 4.675867776302232e-01	 1.253103688995743e+00	 1.210417878751053e+02
1	 4.427705741811864e-01	 1.262085761201164e+00	 1.190344694202648e+02
1	 4.178941721551864e-01	 1.270539535341346e+00	 1.132282506213628e+02
1	 3.929734666675194e-01	 1.278467091669621e+00	 1.036416445118676e+02
1	 3.680241123366553e-01	 1.285871106575899e+00	 9.030601294350100e+01
1	 3.430614976304829e-01	 1.292754833227551e+00	 7.326505586027000e+01
1	 3.181007207415024e-01	 1.299122081043860e+00	 5.257425749513007e+01
1	 2.931565670393215e-01	 1.304977194128878e+00	 2.830029464347567e+01
1	 2.682434881382119e-01	 1.310325028788381e+00	 5.204122254967771e-01
1	 2.433755826071108e-01	 1.315170930256486e+00	-3.067822864438372e+01
1	 4.969278578851778e-01	 1.255214206440755e+00	 1.203234148276534e+02
1	 4.719567475161696e-01	 1.264814938424380e+00	 1.221845461976263e+02
1	 4.469086169316517e-01	 1.273880955229289e+00	 1.201951189610894e+02
1	 4.217997251667246e-01	 1.282413736603985e+00	 1.143803723895631e+02
1	 3.966461158891635e-01	 1.290415382243419e+00	 1.047784678084970e+02
1	 3.714635900222824e-01	 1.297888593550488e+00	 9.143995820392057e+01
1	 3.462676798514263e-01	 1.304836654095997e+00	 7.442721427417331e+01
1	 3.210736246736973e-01	 1.311263408901275e+00	 5.381381218867178e+01
1	 2.958963480397257e-01	 1.317173242669475e+00	 2.968388838082244e+01
1	 2.707504366255986e-01	 1.322571057092408e+00	 2.131466714048351e+00
1	 2.456501207625777e-01	 1.327462247359646e+00	-2.874023667874582e+01
1	 5.015290417575390e-01	 1.266836560203556e+00	 1.208192643498815e+02
1	 4.763267174031054e-01	 1.276526187853017e+00	 1.229013441216415e+02
1	 4.510466596830741e-01	 1.285676149257414e+00	 1.210862133727048e+02
1	 4.257052781791671e-01	 1.294287937866625e+00	 1.154188749311154e+02
1	 4.003187651116374e-01	 1.302363672817217e+00	 1.059568710959967e+02
1	 3.749030677086451e-01	 1.309906080525078e+00	 9.276968616900426e+01
1	 3.494738620729909e-01	 1.316918474964443e+00	 7.593810993960027e+01
1	 3.240465286063789e-01	 1.323404736758689e+00	 5.555356760389449e+01
1	 2.986361290404637e-01	 1.329369291210072e+00	 3.171742161582549e+01
1	 2.732573851131466e-01	 1.334817085396434e+00	 4.540250935824048e+00
1	 2.479246589180153e-01	 1.339753564462806e+00	-2.585888694090441e+01
1	 5.061302256309000e-01	 1.278458913966357e+00	 1.207484409689219e+02
1	 4.806966872910303e-01	 1.288237437281654e+00	 1.232037987489844e+02
1	 4.551847024354536e-01	 1.297471343285539e+00	 1.217151041586760e+02
1	 4.296108311925131e-01	 1.306162139129264e+00	 1.163468569522281e+02
1	 4.039914143349413e-01	 1.314311963391015e+00	 1.071757203746316e+02
1	 3.783425453957433e-01	 1.321923567499668e+00	 9.428985731044989e+01
1	 3.526800442951766e-01	 1.329000295832889e+00	 7.778823184060107e+01
1	 3.270194325395477e-01	 1.335546064616104e+00	 5.777988190293216e+01
1	 3.013759100415353e-01	 1.341565339750669e+00	 3.438316872581899e+01
1	 2.757643336008559e-01	 1.347063113700460e+00	 7.725008625369011e+00
1	 2.501991970734234e-01	 1.352044881565965e+00	-2.205990737010452e+01
1	 2.274538155180211e-01	 1.229131710534368e+00	-1.545289320637865e+01
1	 2.042678302137041e-01	 1.233196924082991e+00	-4.062376896449786e+01
1	 1.811493612805352e-01	 1.236804313110804e+00	-6.339430039238232e+01
1	 1.581105024744471e-01	 1.239960107835634e+00	-8.365041289304619e+01
1	 1.351629610294562e-01	 1.242670903327850e+00	-1.012909335957117e+02
1	 1.123180473713980e-01	 1.244943635769421e+00	-1.162274210402205e+02
1	 8.958666633593650e-02	 1.246785558634639e+00	-1.283839436737371e+02
1	 6.697930985936418e-02	 1.248204218889501e+00	-1.376968111615959e+02
1	 4.450605110464890e-02	 1.249207433301722e+00	-1.441142626189282e+02
1	 2.217653997970472e-02	 1.249803264948056e+00	-1.475961159315367e+02
1	 0.000000000000000e+00	 1.250000000000000e+00	-1.481133823557775e+02
1	 2.297283536736934e-01	 1.241423027637528e+00	-2.092651766621782e+01
1	 2.063105085178029e-01	 1.245528893322062e+00	-4.464571888724892e+01
1	 1.829608548964180e-01	 1.249172356240531e+00	-6.603381286915331e+01
1	 1.596916075030363e-01	 1.252359708912939e+00	-8.499645615301041e+01
1	 1.365145906440207e-01	 1.255097612360361e+00	-1.014512224667265e+02
1	 1.134412278494712e-01	 1.257393072126586e+00	-1.153274024379040e+02
1	 9.048253300341476e-02	 1.259253414220649e+00	-1.265657582054230e+02
1	 6.764910296151375e-02	 1.260686261078208e+00	-1.351182367546247e+02
1	 4.495111161837246e-02	 1.261699507634656e+00	-1.409476458733329e+02
1	 2.239830538099112e-02	 1.262301297597516e+00	-1.440272966594262e+02
1	 0.000000000000000e+00	 1.262500000000000e+00	-1.443406165074627e+02
1	 2.320028918293363e-01	 1.253714344740687e+00	-2.524671830372156e+01
1	 2.083531868216939e-01	 1.257860862561134e+00	-4.771989390521438e+01
1	 1.847723485119567e-01	 1.261540399370259e+00	-6.792824060130290e+01
1	 1.612727125311870e-01	 1.264759309990245e+00	-8.579687192623567e+01
1	 1.378662202580929e-01	 1.267524321392872e+00	-1.012618490742153e+02
1	 1.145644083270384e-01	 1.269842508483751e+00	-1.142699509144954e+02
1	 9.137839967041286e-02	 1.271721269806659e+00	-1.247784049156405e+02
1	 6.831889606324743e-02	 1.273168303266915e+00	-1.327545826294660e+02
1	 4.539617213178213e-02	 1.274191581967590e+00	-1.381756634256278e+02
1	 2.262007078210258e-02	 1.274799330246976e+00	-1.410282701730963e+02
1	 0.000000000000000e+00	 1.275000000000000e+00	-1.413080805373840e+02
1	 2.342774299849499e-01	 1.266005661843847e+00	-2.844708998713433e+01
1	 2.103958651253771e-01	 1.270192831800205e+00	-4.987389911246161e+01
1	 1.865838421271515e-01	 1.273908442499986e+00	-6.909928508609696e+01
1	 1.628538175588991e-01	 1.277158911067550e+00	-8.606755227536632e+01
1	 1.392178498716727e-01	 1.279951030425384e+00	-1.007329977559194e+02
1	 1.156875888040997e-01	 1.282291944840916e+00	-1.130596518948779e+02
1	 9.227426633693080e-02	 1.284189125392670e+00	-1.230209857797692e+02
1	 6.898868916456520e-02	 1.285650345455622e+00	-1.305995889720638e+02
1	 4.584123264487796e-02	 1.286683656300524e+00	-1.357868210729035e+02
1	 2.284183618303908e-02	 1.287297362896436e+00	-1.385824405660591e+02
1	 0.000000000000000e+00	 1.287500000000000e+00	-1.389942143518384e+02
1	 2.365519681405341e-01	 1.278296978947007e+00	-3.055993547444397e+01
1	 2.124385434288524e-01	 1.282524801039276e+00	-5.113427786870992e+01
1	 1.883953357420022e-01	 1.286276485629713e+00	-6.956781314785385e+01
1	 1.644349225861726e-01	 1.289558512144856e+00	-8.582377802987722e+01
1	 1.405694794847602e-01	 1.292377739457896e+00	-9.987446114428890e+01
1	 1.168107692806550e-01	 1.294741381198081e+00	-1.117009144414363e+02
1	 9.317013300296850e-02	 1.296656980978679e+00	-1.212926373125964e+02
1	 6.965848226546710e-02	 1.298132387644329e+00	-1.286472367304481e+02
1	 4.628629315765993e-02	 1.299175730633459e+00	-1.337700666969952e+02
1	 2.306360158380064e-02	 1.299795395545896e+00	-1.366738502359499e+02
1	 0.000000000000000e+00	 1.300000000000000e+00	-1.373782870915375e+02
1	 2.388265062960890e-01	 1.290588296050166e+00	-3.161632694243811e+01
1	 2.144812217321199e-01	 1.294856770278347e+00	-5.152656235810784e+01
1	 1.902068293565090e-01	 1.298644528759439e+00	-6.935389668427119e+01
1	 1.660160276130074e-01	 1.301958113222162e+00	-8.508024789241739e+01
1	 1.419211090973555e-01	 1.304804448490407e+00	-9.869565881910967e+01
1	 1.179339497567045e-01	 1.307190817555246e+00	-1.101979796522727e+02
1	 9.406599966852608e-02	 1.309124836564689e+00	-1.195925289235852e+02
1	 7.032827536595314e-02	 1.310614429833036e+00	-1.268917361498690e+02
1	 4.673135367012803e-02	 1.311667804966393e+00	-1.321147692128185e+02
1	 2.328536698438725e-02	 1.312293428195356e+00	-1.352871494890877e+02
1	 0.000000000000000e+00	 1.312500000000000e+00	-1.364403576442525e+02
1	 2.411010444516146e-01	 1.302879613153326e+00	-3.164616403298533e+01
1	 2.165239000351797e-01	 1.307188739517419e+00	-5.107532128619134e+01
1	 1.920183229706717e-01	 1.311012571889167e+00	-6.847685016296658e+01
1	 1.675971326394038e-01	 1.314357714299468e+00	-8.385110589762020e+01
1	 1.432727387094584e-01	 1.317231157522919e+00	-9.720565490433049e+01
1	 1.190571302322480e-01	 1.319640253912411e+00	-1.085549285840532e+02
1	 9.496186633360344e-02	 1.321592692150699e+00	-1.179198613652380e+02
1	 7.099806846602327e-02	 1.323096472021744e+00	-1.253275159568952e+02
1	 4.717641418228224e-02	 1.324159879299327e+00	-1.308106987083279e+02
1	 2.350713238479890e-02	 1.324791460844816e+00	-1.344075678655400e+02
1	 0.000000000000000e+00	 1.325000000000000e+00	-1.361612373925921e+02
1	 2.433755826071108e-01	 1.315170930256486e+00	-3.067822864438372e+01
1	 2.185665783380317e-01	 1.319520708756490e+00	-4.980420490224804e+01
1	 1.938298165844906e-01	 1.323380615018894e+00	-6.695526601540303e+01
1	 1.691782376653614e-01	 1.326757315376773e+00	-8.214996733117020e+01
1	 1.446243683210689e-01	 1.329657866555430e+00	-9.541317467814767e+01
1	 1.201803107072856e-01	 1.332089690269576e+00	-1.067756897305769e+02
1	 9.585773299820063e-02	 1.334060547736709e+00	-1.162738652684688e+02
1	 7.166786156567753e-02	 1.335578514210451e+00	-1.239492131500023e+02
1	 4.762147469412262e-02	 1.336651953632262e+00	-1.298480076981051e+02
1	 2.372889778503561e-02	 1.337289493494276e+00	-1.340208870721212e+02
1	 0.000000000000000e+00	 1.337500000000000e+00	-1.365224550506904e+02
1	 2.456501207625777e-01	 1.327462247359646e+00	-2.874023667874582e+01
1	 2.206092566406758e-01	 1.331852677995562e+00	-4.773598752043783e+01
1	 1.956413101979653e-01	 1.335748658148621e+00	-6.480704806448935e+01
1	 1.707593426908806e-01	 1.339156916454079e+00	-7.998994320892049e+01
1	 1.459759979321872e-01	 1.342084575587941e+00	-9.332662026030788e+01
1	 1.213034911818173e-01	 1.344539126626741e+00	-1.048640460858724e+02
1	 9.675359966231767e-02	 1.346528403322719e+00	-1.146537997593425e+02
1	 7.233765466491589e-02	 1.348060556399157e+00	-1.227516633573547e+02
1	 4.806653520564912e-02	 1.349144027965196e+00	-1.292172134184253e+02
1	 2.395066318509738e-02	 1.349787526143736e+00	-1.341134154191174e+02
1	 0.000000000000000e+00	 1.350000000000000e+00	-1.375062234544130e+02
1	 2.479246589180153e-01	 1.339753564462806e+00	-2.585888694090441e+01
1	 2.226519349431121e-01	 1.344184647234633e+00	-4.489260770030199e+01
1	 1.974528038110961e-01	 1.348116701278348e+00	-6.204944311212785e+01
1	 1.723404477159611e-01	 1.351556517531384e+00	-7.738366340853557e+01
1	 1.473276275428132e-01	 1.354511284620453e+00	-9.095408543589096e+01
1	 1.224266716558430e-01	 1.356988562983906e+00	-1.028236418184982e+02
1	 9.764946632595450e-02	 1.358996258908729e+00	-1.130589511519599e+02
1	 7.300744776373835e-02	 1.360542598587865e+00	-1.217298917253557e+02
1	 4.851159571686176e-02	 1.361636102298130e+00	-1.289091810969042e+02
1	 2.417242858498419e-02	 1.362285558793196e+00	-1.346719636641643e+02
1	 0.000000000000000e+00	 1.362500000000000e+00	-1.390954081796247e+02
1	 2.501991970734234e-01	 1.352044881565965e+00	-2.205990737010452e+01
1	 2.246946132453406e-01	 1.356516616473704e+00	-4.129520623560884e+01
1	 1.992642974238829e-01	 1.360484744408075e+00	-5.869907080380335e+01
1	 1.739215527406030e-01	 1.363956118608690e+00	-7.434329853940889e+01
1	 1.486792571529468e-01	 1.366937993652964e+00	-8.830336967052153e+01
1	 1.235498521293628e-01	 1.369437999341071e+00	-1.006579885817935e+02
1	 9.854533298911115e-02	 1.371464114494739e+00	-1.114886317126358e+02
1	 7.367724086214492e-02	 1.373024640776572e+00	-1.208791043041773e+02
1	 4.895665622776053e-02	 1.374128176631064e+00	-1.289151081347067e+02
1	 2.439419398469604e-02	 1.374783591442656e+00	-1.356838221737244e+02
1	 0.000000000000000e+00	 1.375000000000000e+00	-1.412734978721878e+02
1	 1.375000000000000e+00	 0.000000000000000e+00	 1.295477095091051e+02
1	 1.374783591442656e+00	 2.439419398469526e-02	 1.029361824131358e+02
1	 1.374128176631064e+00	 4.895665622775984e-02	 7.604598305134148e+01
1	 1.373024640776572e+00	 7.367724086214431e-02	 4.892925178023792e+01
1	 1.371464114494739e+00	 9.854533298911061e-02	 2.164045287351256e+01
1	 1.369437999341071e+00	 1.235498521293624e-01	-5.763709389193839e+00
1	 1.366937993652964e+00	 1.486792571529464e-01	-3.322438878435521e+01
1	 1.363956118608690e+00	 1.739215527406027e-01	-6.068070958754222e+01
1	 1.360484744408075e+00	 1.992642974238827e-01	-8.806989353596158e+01
1	 1.356516616473704e+00	 2.246946132453406e-01	-1.153274013501479e+02
1	 1.352044881565965e+00	 2.501991970734234e-01	-1.423870887482553e+02
1	 1.387500000000000e+00	 0.000000000000000e+00	 1.283021689251796e+02
1	 1.387281624092118e+00	 2.461595938431963e-02	 1.020266585232674e+02
1	 1.386620250964008e+00	 4.940171673850166e-02	 7.551523962464296e+01
1	 1.385506682965300e+00	 7.434703396034295e-02	 4.881610292047012e+01
1	 1.383931970080787e+00	 9.944119965202716e-02	 2.197946706452617e+01
1	 1.381887435698295e+00	 1.246730326026292e-01	-4.942503463625281e+00
1	 1.379364702685561e+00	 1.500308867628339e-01	-3.189579315702836e+01
1	 1.376355719686112e+00	 1.755026577650253e-01	-5.882464310286323e+01
1	 1.372852787537955e+00	 2.010757910364976e-01	-8.567167150457261e+01
1	 1.368848585712971e+00	 2.267372915474652e-01	-1.123780070914141e+02
1	 1.364336198669367e+00	 2.524737352288170e-01	-1.388834353056102e+02
1	 1.400000000000000e+00	 0.000000000000000e+00	 1.270714940870754e+02
1	 1.399779656741585e+00	 2.483772478394402e-02	 1.010866444921693e+02
1	 1.399112325296970e+00	 4.984677724924350e-02	 7.490762081418393e+01
1	 1.397988725154069e+00	 7.501682705854158e-02	 4.857871277557731e+01
1	 1.396399825666909e+00	 1.003370663149437e-01	 2.214594589104621e+01
1	 1.394336872055636e+00	 1.257962130758961e-01	-4.342998902737763e+00
1	 1.391791411718328e+00	 1.513825163727214e-01	-3.083887680624024e+01
1	 1.388755320763768e+00	 1.770837627894480e-01	-5.729098199887924e+01
1	 1.385220830668143e+00	 2.028872846491123e-01	-8.364726178053670e+01
1	 1.381180554952629e+00	 2.287799698495898e-01	-1.098544419474467e+02
1	 1.376627515773255e+00	 2.547482733842105e-01	-1.358581632498805e+02
1	 1.412500000000000e+00	 0.000000000000000e+00	 1.258552903289746e+02
1	 1.412277689391056e+00	 2.505949018356840e-02	 1.001169497926167e+02
1	 1.411604399629950e+00	 5.029183775998533e-02	 7.422516755935514e+01
1	 1.410470767342881e+00	 7.568662015674019e-02	 4.822037978675685e+01
1	 1.408867681253106e+00	 1.012329329778603e-01	 2.214446993797226e+01
1	 1.406786308413095e+00	 1.269193935491629e-01	-3.959309829587383e+00
1	 1.404218120751266e+00	 1.527341459826088e-01	-3.004642700782324e+01
1	 1.401154921841658e+00	 1.786648678138706e-01	-5.607116684068388e+01
1	 1.397588873798637e+00	 2.046987782617271e-01	-8.198674014327192e+01
1	 1.393512524192677e+00	 2.308226481517144e-01	-1.077454007204607e+02
1	 1.388918832877628e+00	 2.570228115396040e-01	-1.332985721901958e+02
1	 1.425000000000000e+00	 0.000000000000000e+00	 1.246531768329831e+02
1	 1.424775722040532e+00	 2.528125558319277e-02	 9.911835549483158e+01
1	 1.424096473962949e+00	 5.073689827072717e-02	 7.346984918763870e+01
1	 1.422952809531734e+00	 7.635641325493886e-02	 4.774428666042739e+01
1	 1.421335536839377e+00	 1.021287996407769e-01	 2.197945906792655e+01
1	 1.419235744770672e+00	 1.280425740224298e-01	-3.785756889228385e+00
1	 1.416644829784374e+00	 1.540857755924963e-01	-2.951148411565118e+01
1	 1.413554522919780e+00	 1.802459728382932e-01	-5.515693852442110e+01
1	 1.409956916929438e+00	 2.065102718743419e-01	-8.068053059046390e+01
1	 1.405844493433116e+00	 2.328653264538391e-01	-1.060399748862789e+02
1	 1.401210149982486e+00	 2.592973496949976e-01	-1.311924073634381e+02
1	 1.437500000000000e+00	 0.000000000000000e+00	 1.234647860270459e+02
1	 1.437273754690013e+00	 2.550302098281715e-02	 9.809161550137567e+01
1	 1.436588548295966e+00	 5.118195878146901e-02	 7.264356652816983e+01
1	 1.435434851720629e+00	 7.702620635313746e-02	 4.715350540017563e+01
1	 1.433803392425724e+00	 1.030246663036934e-01	 2.165517940917941e+01
1	 1.431685181128366e+00	 1.291657544956966e-01	-3.816858269496140e+00
1	 1.429071538817652e+00	 1.554374052023837e-01	-2.922733055824618e+01
1	 1.425954123998137e+00	 1.818270778627159e-01	-5.454032521941309e+01
1	 1.422324960060546e+00	 2.083217654869567e-01	-7.971939019814057e+01
1	 1.418176462673946e+00	 2.349080047559637e-01	-1.047276353476543e+02
1	 1.413501467087830e+00	 2.615718878503911e-01	-1.295278402591217e+02
1	 1.450000000000000e+00	 0.000000000000000e+00	 1.222897630140072e+02
1	 1.449771787339498e+00	 2.572478638244153e-02	 9.703745771817078e+01
1	 1.449080622629002e+00	 5.162701929221086e-02	 7.174815486425132e+01
1	 1.447916893909566e+00	 7.769599945133610e-02	 4.645100207842985e+01
1	 1.446271248012145e+00	 1.039205329666100e-01	 2.117574998212942e+01
1	 1.444134617486178e+00	 1.302889349689635e-01	-4.047321186231796e+00
1	 1.441498247851101e+00	 1.567890348122712e-01	-2.918748040452660e+01
1	 1.438353725076727e+00	 1.834081828871385e-01	-5.421362998569568e+01
1	 1.434693003191961e+00	 2.101332590995715e-01	-7.909439476384753e+01
1	 1.430508431915167e+00	 2.369506830580883e-01	-1.037982160796601e+02
1	 1.425792784193659e+00	 2.638464260057847e-01	-1.282934502464355e+02
1	 1.462500000000000e+00	 0.000000000000000e+00	 1.211277650299466e+02
1	 1.462269819988988e+00	 2.594655178206591e-02	 9.595658516546639e+01
1	 1.461572696962056e+00	 5.207207980295267e-02	 7.078538673445769e+01
1	 1.460398936098544e+00	 7.836579254953473e-02	 4.563964136343303e+01
1	 1.458739103598641e+00	 1.048163996295265e-01	 2.054514898596508e+01
1	 1.456584053844107e+00	 1.314121154422303e-01	-4.472033805162493e+00
1	 1.453924956884720e+00	 1.581406644221587e-01	-2.938566946464478e+01
1	 1.450753326155549e+00	 1.849892879115611e-01	-5.416941902655222e+01
1	 1.447061046323683e+00	 2.119447527121864e-01	-7.879692518606987e+01
1	 1.442840401156778e+00	 2.389933613602129e-01	-1.032418986137789e+02
1	 1.438084101299973e+00	 2.661209641611783e-01	-1.274782071434872e+02
1	 1.475000000000000e+00	 0.000000000000000e+00	 1.199784609300601e+02
1	 1.474767852638482e+00	 2.616831718169029e-02	 9.484967703231682e+01
1	 1.474064771295128e+00	 5.251714031369450e-02	 6.975697459131024e+01
1	 1.472880978287565e+00	 7.903558564773337e-02	 4.472219081603004e+01
1	 1.471206959185211e+00	 1.057122662924431e-01	 1.976721976566501e+01
1	 1.469033490202154e+00	 1.325352959154971e-01	-5.086057574533234e+00
1	 1.466351665918510e+00	 1.594922940320462e-01	-2.981584589417194e+01
1	 1.463152927234607e+00	 1.865703929359837e-01	-5.440051053837567e+01
1	 1.459429089455712e+00	 2.137562463248012e-01	-7.881865453622648e+01
1	 1.455172370398780e+00	 2.410360396623376e-01	-1.030491973109358e+02
1	 1.450375418406773e+00	 2.683955023165718e-01	-1.270714546728569e+02
1	 1.487500000000000e+00	 0.000000000000000e+00	 1.188415307004613e+02
1	 1.487265885287981e+00	 2.639008258131467e-02	 9.371738967789244e+01
1	 1.486556845628220e+00	 5.296220082443635e-02	 6.866457332590093e+01
1	 1.485363020476627e+00	 7.970537874593198e-02	 4.370132496981031e+01
1	 1.483674814771857e+00	 1.066081329553596e-01	 1.884567647814114e+01
1	 1.481482926560319e+00	 1.336584763887640e-01	-5.884619944328893e+00
1	 1.478778374952471e+00	 1.608439236419336e-01	-3.047216127202179e+01
1	 1.475552528313897e+00	 1.881514979604064e-01	-5.489996412272276e+01
1	 1.471797132588047e+00	 2.155677399374159e-01	-7.915153578249603e+01
1	 1.467504339641173e+00	 2.430787179644622e-01	-1.032109453770686e+02
1	 1.462666735514058e+00	 2.706700404719652e-01	-1.270628947513264e+02
1	 1.500000000000000e+00	 0.000000000000000e+00	 1.177166649943934e+02
1	 1.499763917937484e+00	 2.661184798093904e-02	 9.256035758272459e+01
1	 1.499048919961329e+00	 5.340726133517817e-02	 6.750978266628533e+01
1	 1.497845062665731e+00	 8.037517184413061e-02	 4.257962920724387e+01
1	 1.496142670358577e+00	 1.075039996182762e-01	 1.778410947507518e+01
1	 1.493932362918601e+00	 1.347816568620308e-01	-6.863107449535168e+00
1	 1.491205083986601e+00	 1.621955532518211e-01	-3.134896212447799e+01
1	 1.487952129393420e+00	 1.897326029848289e-01	-5.566107072776582e+01
1	 1.484165175720690e+00	 2.173792335500308e-01	-7.978779012745245e+01
1	 1.479836308883957e+00	 2.451213962665869e-01	-1.037182815779182e+02
1	 1.474958052621828e+00	 2.729445786273588e-01	-1.274425725651194e+02
1	 1.352044881565965e+00	 2.501991970734234e-01	-1.423870887482553e+02
1	 1.347063113700461e+00	 2.757643336008552e-01	-1.287178156725989e+02
1	 1.341565339750669e+00	 3.013759100415347e-01	-1.147957979886887e+02
1	 1.335546064616104e+00	 3.270194325395472e-01	-1.007061334101682e+02
1	 1.329000295832889e+00	 3.526800442951761e-01	-8.653690381647675e+01
1	 1.321923567499668e+00	 3.783425453957430e-01	-7.237893859120602e+01
1	 1.314311963391016e+00	 4.039914143349411e-01	-5.832555496743127e+01
1	 1.306162139129264e+00	 4.296108311925129e-01	-4.447227600026027e+01
1	 1.297471343285539e+00	 4.551847024354536e-01	-3.091652699475053e+01
1	 1.288237437281654e+00	 4.806966872910303e-01	-1.775731142824181e+01
1	 1.278458913966357e+00	 5.061302256309002e-01	-5.094867617703841e+00
1	 1.364336198669367e+00	 2.524737352288170e-01	-1.388834353056102e+02
1	 1.359309142004773e+00	 2.782712820886430e-01	-1.256903533394344e+02
1	 1.353761388291581e+00	 3.041156910427638e-01	-1.122783108370299e+02
1	 1.347687392473848e+00	 3.299923364729382e-01	-9.872539071411923e+01
1	 1.341082116701665e+00	 3.558862265176344e-01	-8.511235958153252e+01
1	 1.333941054474572e+00	 3.817820230831492e-01	-7.152244941303761e+01
1	 1.326260253965098e+00	 4.076640635585734e-01	-5.804111837121788e+01
1	 1.318036340392143e+00	 4.335163842061925e-01	-4.475579137736277e+01
1	 1.309266537313843e+00	 4.593227451881562e-01	-3.175558120064831e+01
1	 1.299948686710394e+00	 4.850666571792523e-01	-1.913099103373170e+01
1	 1.290081267729169e+00	 5.107314095045163e-01	-6.973599714095437e+00
1	 1.376627515773255e+00	 2.547482733842105e-01	-1.358581632498805e+02
1	 1.371555170309656e+00	 2.807782305764259e-01	-1.230770124960803e+02
1	 1.365957436833121e+00	 3.068554720439740e-01	-1.101099904695006e+02
1	 1.359828720332250e+00	 3.329652404062867e-01	-9.702826353555022e+01
1	 1.353163937571098e+00	 3.590924087400163e-01	-8.390538525987618e+01
1	 1.345958541450105e+00	 3.852215007704358e-01	-7.081709619255956e+01
1	 1.338208544539750e+00	 4.113367127820325e-01	-5.784110493631488e+01
1	 1.329910541655500e+00	 4.374219372196355e-01	-4.505685105071696e+01
1	 1.321061731342504e+00	 4.634607879405481e-01	-3.254525051542434e+01
1	 1.311659936139337e+00	 4.894366270670794e-01	-2.038842464835583e+01
1	 1.301703621492001e+00	 5.153325933776431e-01	-8.669413547877319e+00
1	 1.388918832877628e+00	 2.570228115396040e-01	-1.332985721901958e+02
1	 1.383801198615110e+00	 2.832851790642043e-01	-1.208667987666385e+02
1	 1.378153485375291e+00	 3.095952530451653e-01	-1.082815669714268e+02
1	 1.371970048191311e+00	 3.359381443395925e-01	-9.560722225891945e+01
1	 1.365245758441190e+00	 3.622985909623221e-01	-8.291020465910738e+01
1	 1.357976028426266e+00	 3.886609784576026e-01	-7.025886647073008e+01
1	 1.350156835114969e+00	 4.150093620053185e-01	-5.772327333989236e+01
1	 1.341784742919335e+00	 4.413274902328413e-01	-4.537498924260794e+01
1	 1.332856925371522e+00	 4.675988306926294e-01	-3.328684604246658e+01
1	 1.323371185568486e+00	 4.938065969545113e-01	-2.153269844896495e+01
1	 1.313325975254853e+00	 5.199337772502799e-01	-1.018716535622435e+01
1	 1.401210149982486e+00	 2.592973496949976e-01	-1.311924073634381e+02
1	 1.396047226921136e+00	 2.857921275519781e-01	-1.190491035427887e+02
1	 1.390349533918090e+00	 3.123350340463378e-01	-1.067840956883015e+02
1	 1.384111376051029e+00	 3.389110482728556e-01	-9.445500146572392e+01
1	 1.377327579311940e+00	 3.655047731845517e-01	-8.212124426024516e+01
1	 1.369993515403056e+00	 3.921004561446497e-01	-6.984388857654537e+01
1	 1.362105125690758e+00	 4.186820112284312e-01	-5.768546090202800e+01
1	 1.353658944183649e+00	 4.452330432458106e-01	-4.570975651839832e+01
1	 1.344652119400897e+00	 4.717368734443999e-01	-3.398163288153494e+01
1	 1.335082434997839e+00	 4.981765668415484e-01	-2.256679032550176e+01
1	 1.324948329017727e+00	 5.245349611224271e-01	-1.153154098202402e+01
1	 1.413501467087830e+00	 2.615718878503911e-01	-1.295278402591217e+02
1	 1.408293255227734e+00	 2.882990760397471e-01	-1.176136872112852e+02
1	 1.402545582461518e+00	 3.150748150474914e-01	-1.056089430840376e+02
1	 1.396252703911406e+00	 3.418839522060762e-01	-9.356458844767153e+01
1	 1.389409400183348e+00	 3.687109554067051e-01	-8.153312440584020e+01
1	 1.382011002380474e+00	 3.955399338315773e-01	-6.956842550582013e+01
1	 1.374053416267115e+00	 4.223546604513709e-01	-5.772558016644915e+01
1	 1.365533145448441e+00	 4.491385962585428e-01	-4.606071907596026e+01
1	 1.356447313430629e+00	 4.758749161958595e-01	-3.463083212891891e+01
1	 1.346793684427397e+00	 5.025465367281904e-01	-2.349357458912790e+01
1	 1.336570682780620e+00	 5.291361449940847e-01	-1.270706328232322e+01
1	 1.425792784193659e+00	 2.638464260057847e-01	-1.282934502464355e+02
1	 1.420539283534902e+00	 2.908060245275114e-01	-1.165506632489969e+02
1	 1.414741631005576e+00	 3.178145960486264e-01	-1.047477733306911e+02
1	 1.408394031772441e+00	 3.448568561392540e-01	-9.292921231399943e+01
1	 1.401491221055414e+00	 3.719171376287824e-01	-8.114065094387409e+01
1	 1.394028489358520e+00	 3.989794115183852e-01	-6.942886911658360e+01
1	 1.386001706844041e+00	 4.260273096741372e-01	-5.784161565813483e+01
1	 1.377407346713711e+00	 4.530441492710384e-01	-4.642745807185992e+01
1	 1.368242507460718e+00	 4.800129589470085e-01	-3.523562277413934e+01
1	 1.358504933857160e+00	 5.069165066144373e-01	-2.431582643682641e+01
1	 1.348193036543535e+00	 5.337373288652523e-01	-1.371809915358024e+01
1	 1.438084101299973e+00	 2.661209641611783e-01	-1.274782071434872e+02
1	 1.432785311842642e+00	 2.933129730152711e-01	-1.158504831335853e+02
1	 1.426937679550262e+00	 3.205543770497423e-01	-1.041925355858911e+02
1	 1.420535359634135e+00	 3.478297600723892e-01	-9.254233365739178e+01
1	 1.413573041928139e+00	 3.751233198507835e-01	-8.093880730017651e+01
1	 1.406045976337195e+00	 4.024188892050735e-01	-6.942173462214711e+01
1	 1.397949997421535e+00	 4.296999588967306e-01	-5.803162080719353e+01
1	 1.389281547979460e+00	 4.569497022832971e-01	-4.680956898209733e+01
1	 1.380037701491165e+00	 4.841510016978469e-01	-3.579714349938241e+01
1	 1.370216183287127e+00	 5.112864765002894e-01	-2.503622618705029e+01
1	 1.359815390306469e+00	 5.383385127359304e-01	-1.456886619664727e+01
1	 1.450375418406773e+00	 2.683955023165718e-01	-1.270714546728569e+02
1	 1.445031340150954e+00	 2.958199215030261e-01	-1.155039220214379e+02
1	 1.439133728095578e+00	 3.232941580508395e-01	-1.039354519171796e+02
1	 1.432676687496486e+00	 3.508026640054819e-01	-9.239763474535872e+01
1	 1.425654862801522e+00	 3.783295020727082e-01	-8.092274695394060e+01
1	 1.418063463316499e+00	 4.058583668916420e-01	-6.954365536418547e+01
1	 1.409898287999598e+00	 4.333726081191508e-01	-5.829371502915422e+01
1	 1.401155749245687e+00	 4.608552552953189e-01	-4.720666099535057e+01
1	 1.391832895521968e+00	 4.882890444483744e-01	-3.631649438743824e+01
1	 1.381927432717298e+00	 5.156564463857464e-01	-2.565736329999945e+01
1	 1.371437744069425e+00	 5.429396966061187e-01	-1.526343904285536e+01
1	 1.462666735514058e+00	 2.706700404719652e-01	-1.270628947513264e+02
1	 1.457277368459836e+00	 2.983268699907763e-01	-1.155020651477206e+02
1	 1.451329776641522e+00	 3.260339390519178e-01	-1.039690058352085e+02
1	 1.444818015359496e+00	 3.537755679385318e-01	-9.248901020616819e+01
1	 1.437736683675562e+00	 3.815356842945568e-01	-8.108778629262304e+01
1	 1.430080950296430e+00	 4.092978445780909e-01	-6.979137784936000e+01
1	 1.421846578578230e+00	 4.370452573413978e-01	-5.862608095247001e+01
1	 1.413029950512391e+00	 4.647608083071040e-01	-4.761835643681273e+01
1	 1.403628089553128e+00	 4.924270871985911e-01	-3.679473854352358e+01
1	 1.393638682147674e+00	 5.200264162708083e-01	-2.618174019519409e+01
1	 1.383060097832401e+00	 5.475408804758173e-01	-1.580575536113729e+01
1	 1.474958052621828e+00	 2.729445786273588e-01	-1.274425725651194e+02
1	 1.469523396769290e+00	 3.008338184785218e-01	-1.158362949064294e+02
1	 1.463525825188096e+00	 3.287737200529772e-01	-1.042859314002761e+02
1	 1.456959343223164e+00	 3.567484718715391e-01	-9.281055818048048e+01
1	 1.449818504550261e+00	 3.847418665163292e-01	-8.142939782410014e+01
1	 1.442098437276991e+00	 4.127373222644202e-01	-7.016175703411101e+01
1	 1.433794869157430e+00	 4.407179065634715e-01	-5.902696178464596e+01
1	 1.424904151779575e+00	 4.686663613186522e-01	-4.804429022083729e+01
1	 1.415423283584646e+00	 4.965651299484973e-01	-3.723290363601451e+01
1	 1.405349931578255e+00	 5.243963861554752e-01	-2.661177587817008e+01
1	 1.394682451595397e+00	 5.521420643450261e-01	-1.619962156479398e+01
1	 1.278458913966357e+00	 5.061302256309002e-01	-5.094867617703841e+00
1	 1.268134914741677e+00	 5.314685672938273e-01	-9.074100752276877e+00
1	 1.257265245121364e+00	 5.566948027665093e-01	-1.283910486579359e+01
1	 1.245850388605507e+00	 5.817918951274083e-01	-1.633707689246901e+01
1	 1.233891518761329e+00	 6.067427131481519e-01	-1.951499035399359e+01
1	 1.221390509410137e+00	 6.315300654405880e-01	-2.231980729888303e+01
1	 1.208349942826211e+00	 6.561367355249965e-01	-2.469869599587118e+01
1	 1.194773115862958e+00	 6.805455176867415e-01	-2.659925311467612e+01
1	 1.180664043931685e+00	 7.047392534804008e-01	-2.796972905029626e+01
1	 1.166027462769146e+00	 7.287008687329783e-01	-2.875925498081875e+01
1	 1.150868827941644e+00	 7.524134108913275e-01	-2.891807019476219e+01
1	 1.290081267729169e+00	 5.107314095045163e-01	-6.973599714095437e+00
1	 1.279663413966696e+00	 5.363000997284292e-01	-1.046550819823451e+01
1	 1.268694929168601e+00	 5.617556646147478e-01	-1.375565136234460e+01
1	 1.257176301230428e+00	 5.870809123608272e-01	-1.679561515536476e+01
1	 1.245108714388191e+00	 6.122585559998535e-01	-1.953678387329862e+01
1	 1.232494059497939e+00	 6.372712478583265e-01	-2.193053455977615e+01
1	 1.219334942309169e+00	 6.621016149430717e-01	-2.392843668533265e+01
1	 1.205634689646682e+00	 6.867322951238657e-01	-2.548245594384945e+01
1	 1.191397353425526e+00	 7.111459739694163e-01	-2.654516093375827e+01
1	 1.176627712434604e+00	 7.353254220869723e-01	-2.706993143084557e+01
1	 1.161331271836279e+00	 7.592535328092679e-01	-2.701116690992626e+01
1	 1.301703621492001e+00	 5.153325933776431e-01	-8.669413547877319e+00
1	 1.291191913191545e+00	 5.411316321624557e-01	-1.170661951312100e+01
1	 1.280124613215495e+00	 5.668165264623538e-01	-1.455428038188223e+01
1	 1.268502213854855e+00	 5.923699295935861e-01	-1.716830912639352e+01
1	 1.256325910014428e+00	 6.177743988508976e-01	-1.950443850077728e+01
1	 1.243597609585001e+00	 6.430124302754390e-01	-2.151839811318538e+01
1	 1.230319941791294e+00	 6.680664943605835e-01	-2.316609630705683e+01
1	 1.216496263429501e+00	 6.929190725605179e-01	-2.440380579387496e+01
1	 1.202130662918409e+00	 7.175526944580828e-01	-2.518835191521693e+01
1	 1.187227962099074e+00	 7.419499754407718e-01	-2.547730235647238e+01
1	 1.171793715729913e+00	 7.660936547271976e-01	-2.522915708938054e+01
1	 1.313325975254853e+00	 5.199337772502799e-01	-1.018716535622435e+01
1	 1.302720412416223e+00	 5.459631645959069e-01	-1.280142485979639e+01
1	 1.291554297262048e+00	 5.718773883093278e-01	-1.523812247696128e+01
1	 1.279828126478787e+00	 5.976589468256857e-01	-1.745743785760350e+01
1	 1.267543105640037e+00	 6.232902417012837e-01	-1.941939155218213e+01
1	 1.254701159671323e+00	 6.487536126919254e-01	-2.108400496022637e+01
1	 1.241304941272585e+00	 6.740313737775310e-01	-2.241146462392996e+01
1	 1.227357837211414e+00	 6.991058499966986e-01	-2.336228991200749e+01
1	 1.212863972410334e+00	 7.239594149464007e-01	-2.389750308058264e+01
1	 1.197828211762553e+00	 7.485745287943757e-01	-2.397880064773832e+01
1	 1.182256159622547e+00	 7.729337766451166e-01	-2.356872497743908e+01
1	 1.324948329017727e+00	 5.245349611224271e-01	-1.153154098202402e+01
1	 1.314248911640731e+00	 5.507946970287825e-01	-1.375377439540639e+01
1	 1.302983981308260e+00	 5.769382501556699e-01	-1.581019835618780e+01
1	 1.291154039102225e+00	 6.029479640571251e-01	-1.766520043430567e+01
1	 1.278760301265018e+00	 6.288060845510121e-01	-1.928302991113464e+01
1	 1.265804709756905e+00	 6.544947951077862e-01	-2.062794080373051e+01
1	 1.252289940753044e+00	 6.799962531939144e-01	-2.166433877557874e+01
1	 1.238219410992422e+00	 7.052926274324078e-01	-2.235693108068548e+01
1	 1.223597281901301e+00	 7.303661354343699e-01	-2.267087863555603e+01
1	 1.208428461425044e+00	 7.551990821477844e-01	-2.257194926871308e+01
1	 1.192718603514182e+00	 7.797738985630251e-01	-2.202667116071574e+01
1	 1.336570682780620e+00	 5.291361449940847e-01	-1.270706328232322e+01
1	 1.325777410865070e+00	 5.556262294610830e-01	-1.456738435858739e+01
1	 1.314413665354130e+00	 5.819991120013793e-01	-1.627342366004293e+01
1	 1.302479951725169e+00	 6.082369812879048e-01	-1.779371945188760e+01
1	 1.289977496889373e+00	 6.343219274000825e-01	-1.909669222182742e+01
1	 1.276908259841745e+00	 6.602359775230207e-01	-2.015077097425706e+01
1	 1.263274940232669e+00	 6.859611326097342e-01	-2.092452295764281e+01
1	 1.249080984772522e+00	 7.114794048676448e-01	-2.138678607252156e+01
1	 1.234330591391309e+00	 7.367728559219902e-01	-2.150680316128984e+01
1	 1.219028711086545e+00	 7.618236355009983e-01	-2.125435734123420e+01
1	 1.203181047404816e+00	 7.866140204809229e-01	-2.059990750976386e+01
1	 1.348193036543535e+00	 5.337373288652523e-01	-1.371809915358024e+01
1	 1.337305910089237e+00	 5.604577618928078e-01	-1.524584284181592e+01
1	 1.325843349399657e+00	 5.870599738464568e-01	-1.663061348968164e+01
1	 1.313805864347619e+00	 6.135259985180249e-01	-1.784504431279332e+01
1	 1.301194692513100e+00	 6.398377702484953e-01	-1.886167096830852e+01
1	 1.288011809925847e+00	 6.659771599376293e-01	-1.965304130820866e+01
1	 1.274259939711461e+00	 6.919260120249896e-01	-2.019182811763635e+01
1	 1.259942558551717e+00	 7.176661823024106e-01	-2.045094418521074e+01
1	 1.245063900880360e+00	 7.431795764092617e-01	-2.040365901199880e+01
1	 1.229628960747055e+00	 7.684481888540168e-01	-2.002371643121126e+01
1	 1.213643491294451e+00	 7.934541423988104e-01	-1.928545238235516e+01
1	 1.359815390306469e+00	 5.383385127359304e-01	-1.456886619664727e+01
1	 1.348834409313236e+00	 5.652892943239575e-01	-1.579261526774044e+01
1	 1.337273033444844e+00	 5.921208356909020e-01	-1.688448670348481e+01
1	 1.325131776969575e+00	 6.188150157474851e-01	-1.782115435442708e+01
1	 1.312411888136201e+00	 6.453536130962503e-01	-1.857921444713796e+01
1	 1.299115360009208e+00	 6.717183423516120e-01	-1.913527898091448e+01
1	 1.285244939189419e+00	 6.978908914396811e-01	-1.946607166640588e+01
1	 1.270804132330007e+00	 7.238529597367049e-01	-1.954852585156798e+01
1	 1.255797210368453e+00	 7.495862968961844e-01	-1.935988384602490e+01
1	 1.240229210406577e+00	 7.750727422068403e-01	-1.887779702537431e+01
1	 1.224105935183085e+00	 8.002942643166867e-01	-1.808042607274386e+01
1	 1.371437744069425e+00	 5.429396966061187e-01	-1.526343904285536e+01
1	 1.360362908537064e+00	 5.701208267545316e-01	-1.621104958705526e+01
1	 1.348702717489688e+00	 5.971816975347151e-01	-1.703766999514310e+01
1	 1.336457689591036e+00	 6.241040329762855e-01	-1.772396181801041e+01
1	 1.323629083758674e+00	 6.508694559433473e-01	-1.825052863973927e+01
1	 1.310218910091828e+00	 6.774595247649685e-01	-1.859799329735424e+01
1	 1.296229938666545e+00	 7.038557708538085e-01	-1.874707720426088e+01
1	 1.281665706107390e+00	 7.300397371705269e-01	-1.867868132024443e+01
1	 1.266530519855588e+00	 7.559930173827586e-01	-1.837396828244272e+01
1	 1.250829460065109e+00	 7.816972955594688e-01	-1.781444518717216e+01
1	 1.234568379070720e+00	 8.071343862345530e-01	-1.698204649232406e+01
1	 1.383060097832401e+00	 5.475408804758173e-01	-1.580575536113729e+01
1	 1.371891407760723e+00	 5.749523591845306e-01	-1.650438121429693e+01
1	 1.360132401534192e+00	 6.022425593778959e-01	-1.709270176612267e+01
1	 1.347783602212004e+00	 6.293930502044260e-01	-1.755531466774979e+01
1	 1.334846279380521e+00	 6.563852987897866e-01	-1.787677899034544e+01
1	 1.321322460173709e+00	 6.832007071776993e-01	-1.804167644301261e+01
1	 1.307214938142837e+00	 7.098206502673718e-01	-1.803467426091201e+01
1	 1.292527279883867e+00	 7.362265146038777e-01	-1.784058940296115e+01
1	 1.277263829341764e+00	 7.623997378689840e-01	-1.744445367581876e+01
1	 1.261429709722652e+00	 7.883218489119022e-01	-1.683157938127964e+01
1	 1.245030822957354e+00	 8.139745081524086e-01	-1.598762506807016e+01
1	 1.394682451595397e+00	 5.521420643450261e-01	-1.619962156479398e+01
1	 1.383419906984210e+00	 5.797838916139538e-01	-1.667573771685085e+01
1	 1.371562085578352e+00	 6.073034212204445e-01	-1.705203580450810e+01
1	 1.359109514832477e+00	 6.346820674319068e-01	-1.731699926904538e+01
1	 1.346063475001740e+00	 6.619011416355681e-01	-1.745909209504909e+01
1	 1.332426010254849e+00	 6.889418895898038e-01	-1.746680419719197e+01
1	 1.318199937618296e+00	 7.157855296803712e-01	-1.732869804841244e+01
1	 1.303388853659439e+00	 7.424132920367565e-01	-1.703345628438069e+01
1	 1.287997138826982e+00	 7.688064583548604e-01	-1.656993000223224e+01
1	 1.272029959379205e+00	 7.949464022641402e-01	-1.592718745687937e+01
1	 1.255493266842989e+00	 8.208146300702533e-01	-1.509456284605380e+01
1	 1.150868827941644e+00	 7.524134108913275e-01	-2.891807019476219e+01
1	 1.135194312046280e+00	 7.758600865535584e-01	-2.387326175653830e+01
1	 1.119010799580969e+00	 7.990242990192602e-01	-1.876444412593431e+01
1	 1.102325879470541e+00	 8.218896856909992e-01	-1.364532256584359e+01
1	 1.085147835250138e+00	 8.444401551573477e-01	-8.570026191023279e+00
1	 1.067485632918797e+00	 8.666599237864125e-01	-3.592886944316742e+00
1	 1.049348906492078e+00	 8.885335516599897e-01	 1.231784834583248e+00
1	 1.030747941296336e+00	 9.100459776802332e-01	 5.849926785592061e+00
1	 1.011693655061181e+00	 9.311825536839639e-01	 1.020795135424335e+01
1	 9.921975768804164e-01	 9.519290774042841e-01	 1.425297155308688e+01
1	 9.722718241249999e-01	 9.722718241249999e-01	 1.793302414113350e+01
1	 1.161331271836279e+00	 7.592535328092679e-01	-2.701116690992626e+01
1	 1.145514260342112e+00	 7.829133600673248e-01	-2.241010779882241e+01
1	 1.129183625036312e+00	 8.062881562818414e-01	-1.772762861801556e+01
1	 1.112347023833931e+00	 8.293614101044999e-01	-1.301223538008245e+01
1	 1.095012815574977e+00	 8.521168838383165e-01	-8.312895567771159e+00
1	 1.077190047767566e+00	 8.745386503638365e-01	-3.678839073580072e+00
1	 1.058888442009220e+00	 8.966111293999636e-01	 8.406443427020989e-01
1	 1.040118377129261e+00	 9.183191229297812e-01	 5.196409763764514e+00
1	 1.020890870109385e+00	 9.396478496249905e-01	 9.339662643601180e+00
1	 1.001217554853339e+00	 9.605829781071776e-01	 1.322216378704166e+01
1	 9.811106588900002e-01	 9.811106588899999e-01	 1.679643240533921e+01
1	 1.171793715729913e+00	 7.660936547271976e-01	-2.522915708938054e+01
1	 1.155834208636955e+00	 7.899666335812606e-01	-2.103450504367805e+01
1	 1.139356450490695e+00	 8.135520135447331e-01	-1.674131819278210e+01
1	 1.122368168196411e+00	 8.368331345184133e-01	-1.239297566887905e+01
1	 1.104877795898975e+00	 8.597936125197603e-01	-8.033355325850186e+00
1	 1.086894462615585e+00	 8.824173769417563e-01	-3.706656382072868e+00
1	 1.068427977525723e+00	 9.046887071404149e-01	 5.427814930667161e-01
1	 1.049488812961676e+00	 9.265922681797479e-01	 4.670661480086817e+00
1	 1.030088085157229e+00	 9.481131455663370e-01	 8.632914095273971e+00
1	 1.010237532826072e+00	 9.692368788102509e-01	 1.238588163732185e+01
1	 9.899494936549997e-01	 9.899494936549997e-01	 1.588650136119064e+01
1	 1.182256159622547e+00	 7.729337766451166e-01	-2.356872497743908e+01
1	 1.166154156930807e+00	 7.970199070953664e-01	-1.974412912287881e+01
1	 1.149529275944117e+00	 8.208158708079358e-01	-1.580417200730168e+01
1	 1.132389312557980e+00	 8.443048589327393e-01	-1.178717633110423e+01
1	 1.114742776222132e+00	 8.674703412016775e-01	-7.732000410854898e+00
1	 1.096598877462853e+00	 8.902961035201722e-01	-3.677882272089235e+00
1	 1.077967513041584e+00	 9.127662848813437e-01	 3.357198881111323e-01
1	 1.058859248793580e+00	 9.348654134301332e-01	 4.269289844166313e+00
1	 1.039285300204712e+00	 9.565784415080028e-01	 8.083417032368764e+00
1	 1.019257510798614e+00	 9.778907795135040e-01	 1.173896070699676e+01
1	 9.987883284199998e-01	 9.987883284199998e-01	 1.519721346814594e+01
1	 1.192718603514182e+00	 7.797738985630251e-01	-2.202667116071574e+01
1	 1.176474105223669e+00	 8.040731806096418e-01	-1.853673722497576e+01
1	 1.159702101396579e+00	 8.280797280714499e-01	-1.491489626576182e+01
1	 1.142410456918639e+00	 8.517765833474782e-01	-1.119448314637044e+01
1	 1.124607756544448e+00	 8.751470698840697e-01	-7.409404893096026e+00
1	 1.106303292309371e+00	 8.981748300990842e-01	-3.594005991456271e+00
1	 1.087507048556805e+00	 9.208438626227500e-01	 2.170700214142265e-01
1	 1.068229684624973e+00	 9.431385586809372e-01	 3.989021786329317e+00
1	 1.048482515251834e+00	 9.650437374499877e-01	 7.687033257890052e+00
1	 1.028277488770966e+00	 9.865446802169371e-01	 1.127641780605588e+01
1	 1.007627163185000e+00	 1.007627163185000e+00	 1.472276232745014e+01
1	 1.203181047404816e+00	 7.866140204809229e-01	-2.059990750976386e+01
1	 1.186794053515542e+00	 8.111264541240873e-01	-1.741016454935094e+01
1	 1.169874926848081e+00	 8.353435853352749e-01	-1.407224217394277e+01
1	 1.152431601278387e+00	 8.592483077626292e-01	-1.061455421499914e+01
1	 1.134472736865924e+00	 8.828237985669359e-01	-7.066122875221208e+00
1	 1.116007707155137e+00	 9.060535566784921e-01	-3.456464988076062e+00
1	 1.097046584071386e+00	 9.289214403646335e-01	 1.845254998227706e-01
1	 1.077600120455857e+00	 9.514117039321597e-01	 3.826698082808100e+00
1	 1.057679730298597e+00	 9.735090333922922e-01	 7.439768512135297e+00
1	 1.037297466743129e+00	 9.951985809205499e-01	 1.099344307284605e+01
1	 1.016465997950000e+00	 1.016465997950000e+00	 1.445754350205703e+01
1	 1.213643491294451e+00	 7.934541423988104e-01	-1.928545238235516e+01
1	 1.197114001806424e+00	 8.181797276387025e-01	-1.636232094368102e+01
1	 1.180047752298623e+00	 8.426074425994110e-01	-1.327500399949355e+01
1	 1.162452745637224e+00	 8.667200321781930e-01	-1.004705942695559e+01
1	 1.144337717186559e+00	 8.905005272502764e-01	-6.702689352890243e+00
1	 1.125712122000154e+00	 9.139322832583960e-01	-3.266647142681116e+00
1	 1.106586119585325e+00	 9.369990181069947e-01	 2.358594609847131e-01
1	 1.086970556286230e+00	 9.596848491838008e-01	 3.779268448589152e+00
1	 1.066876945345000e+00	 9.819743293349166e-01	 7.337766268501403e+00
1	 1.046317444715101e+00	 1.003852481624343e+00	 1.088539250302161e+01
1	 1.025304832715000e+00	 1.025304832715000e+00	 1.439614581138282e+01
1	 1.224105935183085e+00	 8.002942643166867e-01	-1.808042607274386e+01
1	 1.207433950096316e+00	 8.252330011534879e-01	-1.539118771384015e+01
1	 1.190220577748204e+00	 8.498712998638577e-01	-1.252201723168138e+01
1	 1.172473889995152e+00	 8.741917565941695e-01	-9.491679958018674e+00
1	 1.154202697506354e+00	 8.981772559340911e-01	-6.319621031313058e+00
1	 1.135416536844419e+00	 9.218110098387959e-01	-3.025892887088816e+00
1	 1.116125655098625e+00	 9.450765958498334e-01	 3.689211745959913e-01
1	 1.096340992116092e+00	 9.679579944358603e-01	 3.843786881910578e+00
1	 1.076074160391042e+00	 9.904396252778599e-01	 7.377301847454182e+00
1	 1.055337422686883e+00	 1.012506382328315e+00	 1.094778086162432e+01
1	 1.034143667480000e+00	 1.034143667480000e+00	 1.453334307248165e+01
1	 1.234568379070720e+00	 8.071343862345530e-01	-1.698204649232406e+01
1	 1.217753898385218e+00	 8.322862746684426e-01	-1.449481459601009e+01
1	 1.200393403196825e+00	 8.571351571286158e-01	-1.181215683471264e+01
1	 1.182495034352168e+00	 8.816634810105580e-01	-8.948107791567102e+00
1	 1.164067677825308e+00	 9.058539846183804e-01	-5.917417100268345e+00
1	 1.145120951687934e+00	 9.296897364196918e-01	-2.735497214749826e+00
1	 1.125665190611283e+00	 9.531541735931494e-01	 5.816328164653815e-01
1	 1.105711427945443e+00	 9.762311396883390e-01	 4.017407245480277e+00
1	 1.085271375436723e+00	 9.989049212211228e-01	 7.554776829788057e+00
1	 1.064357400658475e+00	 1.021160283032468e+00	 1.117627495556740e+01
1	 1.042982502245000e+00	 1.042982502245000e+00	 1.486408626116298e+01
1	 1.245030822957354e+00	 8.139745081524086e-01	-1.598762506807016e+01
1	 1.228073846673131e+00	 8.393395481835675e-01	-1.367131688145644e+01
1	 1.210566228644485e+00	 8.643990143936846e-01	-1.114433558912273e+01
1	 1.192516178708275e+00	 8.891352054273600e-01	-8.416045264480056e+00
1	 1.173932658143422e+00	 9.135307133031441e-01	-5.496559970046537e+00
1	 1.154825366530698e+00	 9.375684630010837e-01	-2.396711589922419e+00
1	 1.135204726123301e+00	 9.612317513369427e-01	 8.719864052342352e-01
1	 1.115081863774285e+00	 9.845042849412358e-01	 4.297379070490067e+00
1	 1.094468590482045e+00	 1.007370217164705e+00	 7.866713751570355e+00
1	 1.073377378629877e+00	 1.029814183736800e+00	 1.156668724532037e+01
1	 1.051821337010000e+00	 1.051821337010000e+00	 1.538349606834538e+01
1	 1.255493266842989e+00	 8.208146300702533e-01	-1.509456284605380e+01
1	 1.238393794960052e+00	 8.463928216988620e-01	-1.291887268506794e+01
1	 1.220739054091186e+00	 8.716628716590645e-01	-1.051750251609482e+01
1	 1.202537323063470e+00	 8.966069298445739e-01	-7.895204635740415e+00
1	 1.183797638460694e+00	 9.212074419883817e-01	-5.057515970595363e+00
1	 1.164529781372711e+00	 9.454471895829715e-01	-2.010745761389060e+00
1	 1.144744261634678e+00	 9.693093290812137e-01	 1.238040892256572e+00
1	 1.124452299602615e+00	 9.927774301945512e-01	 4.681043570427966e+00
1	 1.103665805527006e+00	 1.015835513108607e+00	 8.309751064337263e+00
1	 1.082397356601088e+00	 1.038468084441313e+00	 1.211496977601124e+01
1	 1.060660171775000e+00	 1.060660171775000e+00	 1.608685582859360e+01
1	 9.722718241249999e-01	 9.722718241249999e-01	 1.793302414113350e+01
1	 9.519290774042841e-01	 9.921975768804165e-01	 1.983312728387837e+01
1	 9.311825536839636e-01	 1.011693655061181e+00	 2.138136325161759e+01
1	 9.100459776802337e-01	 1.030747941296336e+00	 2.258261096585035e+01
1	 8.885335516599900e-01	 1.049348906492078e+00	 2.344281762532050e+01
1	 8.666599237864129e-01	 1.067485632918797e+00	 2.396896827751542e+01
1	 8.444401551573482e-01	 1.085147835250138e+00	 2.416905026838973e+01
1	 8.218896856909996e-01	 1.102325879470541e+00	 2.405201284127542e+01
1	 7.990242990192610e-01	 1.119010799580969e+00	 2.362772219330346e+01
1	 7.758600865535591e-01	 1.135194312046279e+00	 2.290691233155480e+01
1	 7.524134108913274e-01	 1.150868827941644e+00	 2.190113210115969e+01
1	 9.811106588900002e-01	 9.811106588899999e-01	 1.679643240533921e+01
1	 9.605829781071776e-01	 1.001217554853339e+00	 1.896376258950106e+01
1	 9.396478496249905e-01	 1.020890870109385e+00	 2.078396460237411e+01
1	 9.183191229297815e-01	 1.040118377129261e+00	 2.225735744218758e+01
1	 8.966111293999636e-01	 1.058888442009220e+00	 2.338536225869719e+01
1	 8.745386503638366e-01	 1.077190047767566e+00	 2.417049074220688e+01
1	 8.521168838383170e-01	 1.095012815574976e+00	 2.461632800053471e+01
1	 8.293614101045006e-01	 1.112347023833931e+00	 2.472751007457522e+01
1	 8.062881562818418e-01	 1.129183625036312e+00	 2.450969628573793e+01
1	 7.829133600673254e-01	 1.145514260342112e+00	 2.396953664880211e+01
1	 7.592535328092677e-01	 1.161331271836278e+00	 2.311463462114066e+01
1	 9.899494936549997e-01	 9.899494936549997e-01	 1.588650136119064e+01
1	 9.692368788102508e-01	 1.010237532826071e+00	 1.829034083627232e+01
1	 9.481131455663370e-01	 1.030088085157229e+00	 2.035186138796463e+01
1	 9.265922681797482e-01	 1.049488812961676e+00	 2.206688110525979e+01
1	 9.046887071404153e-01	 1.068427977525723e+00	 2.343235365310731e+01
1	 8.824173769417565e-01	 1.086894462615585e+00	 2.444637527168077e+01
1	 8.597936125197605e-01	 1.104877795898974e+00	 2.510818587738565e+01
1	 8.368331345184140e-01	 1.122368168196410e+00	 2.541816429719315e+01
1	 8.135520135447336e-01	 1.139356450490694e+00	 2.537781771573950e+01
1	 7.899666335812616e-01	 1.155834208636955e+00	 2.498976546118260e+01
1	 7.660936547271977e-01	 1.171793715729913e+00	 2.425771730056100e+01
1	 9.987883284199998e-01	 9.987883284199998e-01	 1.519721346814594e+01
1	 9.778907795135039e-01	 1.019257510798614e+00	 1.780765999916629e+01
1	 9.565784415080025e-01	 1.039285300204712e+00	 2.008066523398718e+01
1	 9.348654134301334e-01	 1.058859248793580e+00	 2.200760379965475e+01
1	 9.127662848813437e-01	 1.077967513041584e+00	 2.358101888569025e+01
1	 8.902961035201726e-01	 1.096598877462853e+00	 2.479464765183537e+01
1	 8.674703412016779e-01	 1.114742776222131e+00	 2.564344035528941e+01
1	 8.443048589327401e-01	 1.132389312557980e+00	 2.612357311119640e+01
1	 8.208158708079366e-01	 1.149529275944116e+00	 2.623245425312008e+01
1	 7.970199070953669e-01	 1.166154156930806e+00	 2.596872431308228e+01
1	 7.729337766451166e-01	 1.182256159622547e+00	 2.533224969271373e+01
1	 1.007627163185000e+00	 1.007627163185000e+00	 1.472276232745014e+01
1	 9.865446802169368e-01	 1.028277488770966e+00	 1.751070058036051e+01
1	 9.650437374499879e-01	 1.048482515251834e+00	 1.996614174409734e+01
1	 9.431385586809371e-01	 1.068229684624974e+00	 2.207607291927717e+01
1	 9.208438626227501e-01	 1.087507048556805e+00	 2.382868232912679e+01
1	 8.981748300990846e-01	 1.106303292309370e+00	 2.521340293923851e+01
1	 8.751470698840700e-01	 1.124607756544448e+00	 2.622094941844085e+01
1	 8.517765833474784e-01	 1.142410456918638e+00	 2.684334823787758e+01
1	 8.280797280714506e-01	 1.159702101396579e+00	 2.707396076348859e+01
1	 8.040731806096427e-01	 1.176474105223669e+00	 2.690749925610299e+01
1	 7.797738985630250e-01	 1.192718603514182e+00	 2.634003575253280e+01
1	 1.016465997950000e+00	 1.016465997950000e+00	 1.445754350205703e+01
1	 9.951985809205498e-01	 1.037297466743129e+00	 1.739461767327096e+01
1	 9.735090333922922e-01	 1.057679730298597e+00	 2.000420380530690e+01
1	 9.514117039321597e-01	 1.077600120455857e+00	 2.226895594868306e+01
1	 9.289214403646335e-01	 1.097046584071385e+00	 2.417276142139777e+01
1	 9.060535566784923e-01	 1.116007707155137e+00	 2.570080244936139e+01
1	 8.828237985669360e-01	 1.134472736865924e+00	 2.683961077332286e+01
1	 8.592483077626301e-01	 1.152431601278386e+00	 2.757711490387559e+01
1	 8.353435853352754e-01	 1.169874926848081e+00	 2.790267976930077e+01
1	 8.111264541240881e-01	 1.186794053515541e+00	 2.780713856614031e+01
1	 7.866140204809230e-01	 1.203181047404816e+00	 2.728281668869602e+01
1	 1.025304832715000e+00	 1.025304832715000e+00	 1.439614581138282e+01
1	 1.003852481624343e+00	 1.046317444715101e+00	 1.745473343706643e+01
1	 9.819743293349165e-01	 1.066876945345000e+00	 2.019090523956541e+01
1	 9.596848491838006e-01	 1.086970556286229e+00	 2.258303528675741e+01
1	 9.369990181069949e-01	 1.106586119585325e+00	 2.461076265434866e+01
1	 9.139322832583963e-01	 1.125712122000153e+00	 2.625507090059159e+01
1	 8.905005272502765e-01	 1.144337717186559e+00	 2.749836013654068e+01
1	 8.667200321781937e-01	 1.162452745637224e+00	 2.832451125904903e+01
1	 8.426074425994116e-01	 1.180047752298622e+00	 2.871894198189492e+01
1	 8.181797276387035e-01	 1.197114001806424e+00	 2.866865437164478e+01
1	 7.934541423988104e-01	 1.213643491294451e+00	 2.816227366820547e+01
1	 1.034143667480000e+00	 1.034143667480000e+00	 1.453334307248165e+01
1	 1.012506382328315e+00	 1.055337422686883e+00	 1.768652995710667e+01
1	 9.904396252778600e-01	 1.076074160391042e+00	 2.052243478089795e+01
1	 9.679579944358603e-01	 1.096340992116092e+00	 2.301520333584649e+01
1	 9.450765958498334e-01	 1.116125655098624e+00	 2.514027776796945e+01
1	 9.218110098387960e-01	 1.135416536844419e+00	 2.687449370470527e+01
1	 8.981772559340918e-01	 1.154202697506354e+00	 2.819616961045609e+01
1	 8.741917565941700e-01	 1.172473889995151e+00	 2.908518782420071e+01
1	 8.498712998638585e-01	 1.190220577748203e+00	 2.952306680623840e+01
1	 8.252330011534884e-01	 1.207433950096316e+00	 2.949302419838750e+01
1	 8.002942643166867e-01	 1.224105935183085e+00	 2.898003038227009e+01
1	 1.042982502245000e+00	 1.042982502245000e+00	 1.486408626116298e+01
1	 1.021160283032468e+00	 1.064357400658475e+00	 1.808564246840860e+01
1	 9.989049212211227e-01	 1.085271375436723e+00	 2.099511035879189e+01
1	 9.762311396883389e-01	 1.105711427945443e+00	 2.356245784059272e+01
1	 9.531541735931496e-01	 1.125665190611283e+00	 2.575898013818455e+01
1	 9.296897364196920e-01	 1.145120951687934e+00	 2.755741439511383e+01
1	 9.058539846183808e-01	 1.164067677825307e+00	 2.893204614141940e+01
1	 8.816634810105588e-01	 1.182495034352168e+00	 2.985880696688605e+01
1	 8.571351571286164e-01	 1.200393403196824e+00	 3.031536282001165e+01
1	 8.322862746684434e-01	 1.217753898385218e+00	 3.028119243567203e+01
1	 8.071343862345530e-01	 1.234568379070720e+00	 2.973765548172103e+01
1	 1.051821337010000e+00	 1.051821337010000e+00	 1.538349606834538e+01
1	 1.029814183736800e+00	 1.073377378629877e+00	 1.864785292078571e+01
1	 1.007370217164705e+00	 1.094468590482045e+00	 2.160537366981625e+01
1	 9.845042849412359e-01	 1.115081863774285e+00	 2.422189746178923e+01
1	 9.612317513369429e-01	 1.135204726123301e+00	 2.646462134677076e+01
1	 9.375684630010840e-01	 1.154825366530698e+00	 2.830223218477895e+01
1	 9.135307133031443e-01	 1.173932658143421e+00	 2.970503005573467e+01
1	 8.891352054273607e-01	 1.192516178708274e+00	 3.064504240365020e+01
1	 8.643990143936855e-01	 1.210566228644485e+00	 3.109612822853656e+01
1	 8.393395481835683e-01	 1.228073846673130e+00	 3.103407172862616e+01
1	 8.139745081524083e-01	 1.245030822957354e+00	 3.043666488963247e+01
1	 1.060660171775000e+00	 1.060660171775000e+00	 1.608685582859360e+01
1	 1.038468084441312e+00	 1.082397356601088e+00	 1.936908386573203e+01
1	 1.015835513108607e+00	 1.103665805527006e+00	 2.234978502065949e+01
1	 9.927774301945514e-01	 1.124452299602615e+00	 2.499071757153781e+01
1	 9.693093290812139e-01	 1.144744261634678e+00	 2.725502792278133e+01
1	 9.454471895829717e-01	 1.164529781372711e+00	 2.910739964623158e+01
1	 9.212074419883821e-01	 1.183797638460694e+00	 3.051419366883027e+01
1	 8.966069298445744e-01	 1.202537323063470e+00	 3.144357872715374e+01
1	 8.716628716590653e-01	 1.220739054091185e+00	 3.186565129695769e+01
1	 8.463928216988629e-01	 1.238393794960052e+00	 3.175254430087281e+01
1	 8.208146300702533e-01	 1.255493266842989e+00	 3.107852399831135e+01
1	 7.524134108913274e-01	 1.150868827941644e+00	 2.190113210115969e+01
1	 7.287008687329781e-01	 1.166027462769146e+00	 3.436150750985150e+01
1	 7.047392534804007e-01	 1.180664043931685e+00	 4.631814332663352e+01
1	 6.805455176867415e-01	 1.194773115862958e+00	 5.774417841382326e+01
1	 6.561367355249966e-01	 1.208349942826211e+00	 6.861327618020435e+01
1	 6.315300654405884e-01	 1.221390509410137e+00	 7.889972696157045e+01
1	 6.067427131481523e-01	 1.233891518761329e+00	 8.857854701598889e+01
1	 5.817918951274087e-01	 1.245850388605507e+00	 9.762557352729769e+01
1	 5.566948027665101e-01	 1.257265245121364e+00	 1.060175550531361e+02
1	 5.314685672938282e-01	 1.268134914741677e+00	 1.137322369012202e+02
1	 5.061302256309000e-01	 1.278458913966357e+00	 1.207484409689219e+02
1	 7.592535328092677e-01	 1.161331271836278e+00	 2.311463462114066e+01
1	 7.353254220869722e-01	 1.176627712434605e+00	 3.545655287883866e+01
1	 7.111459739694163e-01	 1.191397353425526e+00	 4.719107068457359e+01
1	 6.867322951238658e-01	 1.205634689646682e+00	 5.829850402625321e+01
1	 6.621016149430722e-01	 1.219334942309169e+00	 6.875994612976501e+01
1	 6.372712478583268e-01	 1.232494059497939e+00	 7.855733481242540e+01
1	 6.122585559998541e-01	 1.245108714388192e+00	 8.767351601959334e+01
1	 5.870809123608277e-01	 1.257176301230428e+00	 9.609230317913199e+01
1	 5.617556646147485e-01	 1.268694929168600e+00	 1.037985320463059e+02
1	 5.363000997284300e-01	 1.279663413966696e+00	 1.107781107520237e+02
1	 5.107314095045163e-01	 1.290081267729169e+00	 1.170180648095765e+02
1	 7.660936547271977e-01	 1.171793715729913e+00	 2.425771730056100e+01
1	 7.419499754407716e-01	 1.187227962099074e+00	 3.652578887261760e+01
1	 7.175526944580827e-01	 1.202130662918409e+00	 4.808450219947660e+01
1	 6.929190725605181e-01	 1.216496263429501e+00	 5.892125104639233e+01
1	 6.680664943605837e-01	 1.230319941791294e+00	 6.902445624673406e+01
1	 6.430124302754393e-01	 1.243597609585001e+00	 7.838359842784170e+01
1	 6.177743988508980e-01	 1.256325910014428e+00	 8.698924649255687e+01
1	 5.923699295935869e-01	 1.268502213854855e+00	 9.483308172974239e+01
1	 5.668165264623545e-01	 1.280124613215495e+00	 1.019079174601497e+02
1	 5.411316321624565e-01	 1.291191913191544e+00	 1.082077141573311e+02
1	 5.153325933776431e-01	 1.301703621492001e+00	 1.137275900165062e+02
1	 7.729337766451166e-01	 1.182256159622547e+00	 2.533224969271373e+01
1	 7.485745287943755e-01	 1.197828211762553e+00	 3.756990069584817e+01
1	 7.239594149464007e-01	 1.212863972410334e+00	 4.899789351320840e+01
1	 6.991058499966988e-01	 1.227357837211414e+00	 5.961060297671607e+01
1	 6.740313737775313e-01	 1.241304941272586e+00	 6.940367803112703e+01
1	 6.487536126919259e-01	 1.254701159671323e+00	 7.837404022119128e+01
1	 6.232902417012843e-01	 1.267543105640036e+00	 8.651987751095874e+01
1	 5.976589468256861e-01	 1.279828126478787e+00	 9.384063354468873e+01
1	 5.718773883093287e-01	 1.291554297262048e+00	 1.003369924870683e+02
1	 5.459631645959077e-01	 1.302720412416223e+00	 1.060108596068543e+02
1	 5.199337772502799e-01	 1.313325975254853e+00	 1.108653377923536e+02
1	 7.797738985630250e-01	 1.192718603514182e+00	 2.634003575253280e+01
1	 7.551990821477842e-01	 1.208428461425044e+00	 3.858954951092267e+01
1	 7.303661354343698e-01	 1.223597281901301e+00	 4.993071936792158e+01
1	 7.052926274324078e-01	 1.238219410992421e+00	 6.036480705645413e+01
1	 6.799962531939148e-01	 1.252289940753043e+00	 6.989459275488601e+01
1	 6.544947951077865e-01	 1.265804709756905e+00	 7.852433971414547e+01
1	 6.288060845510125e-01	 1.278760301265018e+00	 8.625975379732719e+01
1	 6.029479640571257e-01	 1.291154039102225e+00	 9.310793827494686e+01
1	 5.769382501556705e-01	 1.302983981308259e+00	 9.907734424253448e+01
1	 5.507946970287833e-01	 1.314248911640731e+00	 1.041777170468064e+02
1	 5.245349611224271e-01	 1.324948329017727e+00	 1.084200391221267e+02
1	 7.866140204809230e-01	 1.203181047404816e+00	 2.728281668869602e+01
1	 7.618236355009980e-01	 1.219028711086544e+00	 3.958537348328016e+01
1	 7.367728559219902e-01	 1.234330591391309e+00	 5.088247277560517e+01
1	 7.114794048676450e-01	 1.249080984772522e+00	 6.118217149042658e+01
1	 6.859611326097343e-01	 1.263274940232669e+00	 7.049428668918672e+01
1	 6.602359775230212e-01	 1.276908259841746e+00	 7.883032670587932e+01
1	 6.343219274000830e-01	 1.289977496889372e+00	 8.620341677949156e+01
1	 6.082369812879054e-01	 1.302479951725169e+00	 9.262821975754207e+01
1	 5.819991120013801e-01	 1.314413665354129e+00	 9.812085246408868e+01
1	 5.556262294610839e-01	 1.325777410865069e+00	 1.026987983383151e+02
1	 5.291361449940846e-01	 1.336570682780620e+00	 1.063808169565749e+02
1	 7.934541423988104e-01	 1.213643491294451e+00	 2.816227366820547e+01
1	 7.684481888540168e-01	 1.229628960747055e+00	 4.055798877265743e+01
1	 7.431795764092617e-01	 1.245063900880360e+00	 5.185266423059252e+01
1	 7.176661823024110e-01	 1.259942558551717e+00	 6.206106282121596e+01
1	 6.919260120249895e-01	 1.274259939711460e+00	 7.119994657861018e+01
1	 6.659771599376296e-01	 1.288011809925846e+00	 7.928797479559417e+01
1	 6.398377702484958e-01	 1.301194692513100e+00	 8.634559611190384e+01
1	 6.135259985180255e-01	 1.313805864347619e+00	 9.239493549029096e+01
1	 5.870599738464576e-01	 1.325843349399657e+00	 9.745967689832139e+01
1	 5.604577618928086e-01	 1.337305910089237e+00	 1.015649425197101e+02
1	 5.337373288652524e-01	 1.348193036543535e+00	 1.047371693171132e+02
1	 8.002942643166867e-01	 1.224105935183085e+00	 2.898003038227009e+01
1	 7.750727422068404e-01	 1.240229210406577e+00	 4.150799047350051e+01
1	 7.495862968961846e-01	 1.255797210368453e+00	 5.284082096245433e+01
1	 7.238529597367048e-01	 1.270804132330007e+00	 6.299990343610177e+01
1	 6.978908914396812e-01	 1.285244939189419e+00	 7.200885534740806e+01
1	 6.717183423516123e-01	 1.299115360009208e+00	 7.989339523721547e+01
1	 6.453536130962506e-01	 1.312411888136201e+00	 8.668120163176808e+01
1	 6.188150157474855e-01	 1.325131776969574e+00	 9.240176664629419e+01
1	 5.921208356909027e-01	 1.337273033444843e+00	 9.708624533467224e+01
1	 5.652892943239584e-01	 1.348834409313236e+00	 1.007673018245911e+02
1	 5.383385127359304e-01	 1.359815390306469e+00	 1.034789532671611e+02
1	 8.071343862345530e-01	 1.234568379070720e+00	 2.973765548172103e+01
1	 7.816972955594687e-01	 1.250829460065110e+00	 4.243595350756403e+01
1	 7.559930173827586e-01	 1.266530519855587e+00	 5.384648622687572e+01
1	 7.300397371705273e-01	 1.281665706107390e+00	 6.399716920075925e+01
1	 7.038557708538088e-01	 1.296229938666545e+00	 7.291838802409187e+01
1	 6.774595247649688e-01	 1.310218910091828e+00	 8.064283110656817e+01
1	 6.508694559433478e-01	 1.323629083758674e+00	 8.720531572417627e+01
1	 6.241040329762860e-01	 1.336457689591036e+00	 9.264260859617349e+01
1	 5.971816975347158e-01	 1.348702717489688e+00	 9.699324224768310e+01
1	 5.701208267545327e-01	 1.360362908537064e+00	 1.002973284108436e+02
1	 5.429396966061187e-01	 1.371437744069425e+00	 1.025963696984983e+02
1	 8.139745081524083e-01	 1.245030822957354e+00	 3.043666488963247e+01
1	 7.883218489119019e-01	 1.261429709722652e+00	 4.334243347150107e+01
1	 7.623997378689837e-01	 1.277263829341764e+00	 5.486921863229177e+01
1	 7.362265146038778e-01	 1.292527279883868e+00	 6.505138721226749e+01
1	 7.098206502673721e-01	 1.307214938142837e+00	 7.392600787150714e+01
1	 6.832007071776995e-01	 1.321322460173709e+00	 8.153265176263923e+01
1	 6.563852987897871e-01	 1.334846279380521e+00	 8.791318607219759e+01
1	 6.293930502044267e-01	 1.347783602212004e+00	 9.311156190817320e+01
1	 6.022425593778966e-01	 1.360132401534191e+00	 9.717359801190995e+01
1	 5.749523591845315e-01	 1.371891407760722e+00	 1.001467617587755e+02
1	 5.475408804758173e-01	 1.383060097832401e+00	 1.020799488846951e+02
1	 8.208146300702533e-01	 1.255493266842989e+00	 3.107852399831135e+01
1	 7.949464022641402e-01	 1.272029959379205e+00	 4.422796744207826e+01
1	 7.688064583548604e-01	 1.287997138826982e+00	 5.590859150018942e+01
1	 7.424132920367567e-01	 1.303388853659439e+00	 6.616113366446919e+01
1	 7.157855296803717e-01	 1.318199937618296e+00	 7.502926271040171e+01
1	 6.889418895898042e-01	 1.332426010254849e+00	 8.255934758578061e+01
1	 6.619011416355685e-01	 1.346063475001740e+00	 8.880021876946424e+01
1	 6.346820674319077e-01	 1.359109514832477e+00	 9.380292379826227e+01
1	 6.073034212204453e-01	 1.371562085578352e+00	 9.762047865608986e+01
1	 5.797838916139548e-01	 1.383419906984210e+00	 1.003076166993520e+02
1	 5.521420643450261e-01	 1.394682451595397e+00	 1.019205367568717e+02
1	 5.061302256309000e-01	 1.278458913966357e+00	 1.207484409689219e+02
1	 4.806966872910303e-01	 1.288237437281654e+00	 1.232037987489844e+02
1	 4.551847024354536e-01	 1.297471343285539e+00	 1.217151041586760e+02
1	 4.296108311925131e-01	 1.306162139129264e+00	 1.163468569522281e+02
1	 4.039914143349413e-01	 1.314311963391015e+00	 1.071757203746316e+02
1	 3.783425453957433e-01	 1.321923567499668e+00	 9.428985731044989e+01
1	 3.526800442951766e-01	 1.329000295832889e+00	 7.778823184060107e+01
1	 3.270194325395477e-01	 1.335546064616104e+00	 5.777988190293216e+01
1	 3.013759100415353e-01	 1.341565339750669e+00	 3.438316872581899e+01
1	 2.757643336008559e-01	 1.347063113700460e+00	 7.725008625369011e+00
1	 2.501991970734234e-01	 1.352044881565965e+00	-2.205990737010452e+01
1	 5.107314095045163e-01	 1.290081267729169e+00	 1.170180648095765e+02
1	 4.850666571792522e-01	 1.299948686710393e+00	 1.189166765341043e+02
1	 4.593227451881562e-01	 1.309266537313843e+00	 1.171198329497779e+02
1	 4.335163842061927e-01	 1.318036340392143e+00	 1.116786853881606e+02
1	 4.076640635585735e-01	 1.326260253965098e+00	 1.026561580074754e+02
1	 3.817820230831497e-01	 1.333941054474572e+00	 9.012634925601864e+01
1	 3.558862265176348e-01	 1.341082116701665e+00	 7.417389805640997e+01
1	 3.299923364729388e-01	 1.347687392473848e+00	 5.489332003458379e+01
1	 3.041156910427644e-01	 1.353761388291580e+00	 3.238831911542501e+01
1	 2.782712820886437e-01	 1.359309142004772e+00	 6.771079754977430e+00
1	 2.524737352288170e-01	 1.364336198669367e+00	-2.183845501951046e+01
1	 5.153325933776431e-01	 1.301703621492001e+00	 1.137275900165062e+02
1	 4.894366270670793e-01	 1.311659936139338e+00	 1.149936385157282e+02
1	 4.634607879405481e-01	 1.321061731342504e+00	 1.128090241190743e+02
1	 4.374219372196355e-01	 1.329910541655500e+00	 1.072117403716140e+02
1	 4.113367127820329e-01	 1.338208544539750e+00	 9.825116771502448e+01
1	 3.852215007704361e-01	 1.345958541450105e+00	 8.598753949034584e+01
1	 3.590924087400167e-01	 1.353163937571098e+00	 7.049137198123158e+01
1	 3.329652404062873e-01	 1.359828720332250e+00	 5.184286345389883e+01
1	 3.068554720439746e-01	 1.365957436833121e+00	 3.013126717233889e+01
1	 2.807782305764268e-01	 1.371555170309656e+00	 5.454243341731367e+00
1	 2.547482733842105e-01	 1.376627515773255e+00	-2.208280513768403e+01
1	 5.199337772502799e-01	 1.313325975254853e+00	 1.108653377923536e+02
1	 4.938065969545112e-01	 1.323371185568486e+00	 1.114250187416930e+02
1	 4.675988306926293e-01	 1.332856925371522e+00	 1.087751255679787e+02
1	 4.413274902328415e-01	 1.341784742919335e+00	 1.029406796048159e+02
1	 4.150093620053187e-01	 1.350156835114969e+00	 9.395770776073867e+01
1	 3.886609784576029e-01	 1.357976028426266e+00	 8.187277230662035e+01
1	 3.622985909623225e-01	 1.365245758441190e+00	 6.674246402985693e+01
1	 3.359381443395930e-01	 1.371970048191310e+00	 4.863286334793384e+01
1	 3.095952530451660e-01	 1.378153485375291e+00	 2.761897402045586e+01
1	 2.832851790642052e-01	 1.383801198615110e+00	 3.784134099187555e+00
1	 2.570228115396040e-01	 1.388918832877628e+00	-2.278059128736725e+01
1	 5.245349611224271e-01	 1.324948329017727e+00	 1.084200391221267e+02
1	 4.981765668415482e-01	 1.335082434997839e+00	 1.082014904160559e+02
1	 4.717368734443999e-01	 1.344652119400897e+00	 1.050108501838207e+02
1	 4.452330432458106e-01	 1.353658944183649e+00	 9.886034823904075e+01
1	 4.186820112284315e-01	 1.362105125690758e+00	 8.977284313567760e+01
1	 3.921004561446502e-01	 1.369993515403056e+00	 7.778141500528812e+01
1	 3.655047731845522e-01	 1.377327579311940e+00	 6.292892109375094e+01
1	 3.389110482728562e-01	 1.384111376051029e+00	 4.526751823051370e+01
1	 3.123350340463384e-01	 1.390349533918090e+00	 2.485815653370761e+01
1	 2.857921275519789e-01	 1.396047226921136e+00	 1.770048680775317e+00
1	 2.592973496949976e-01	 1.401210149982486e+00	-2.391988094138400e+01
1	 5.291361449940846e-01	 1.336570682780620e+00	 1.063808169565749e+02
1	 5.025465367281904e-01	 1.346793684427397e+00	 1.053140511531694e+02
1	 4.758749161958596e-01	 1.356447313430629e+00	 1.015091643187219e+02
1	 4.491385962585430e-01	 1.365533145448441e+00	 9.496577072464919e+01
1	 4.223546604513710e-01	 1.374053416267115e+00	 8.569374091816934e+01
1	 3.955399338315778e-01	 1.382011002380474e+00	 7.371285689373637e+01
1	 3.687109554067056e-01	 1.389409400183348e+00	 5.905242930293582e+01
1	 3.418839522060768e-01	 1.396252703911406e+00	 4.175088058019863e+01
1	 3.150748150474922e-01	 1.402545582461518e+00	 2.185529795562692e+01
1	 2.882990760397479e-01	 1.408293255227734e+00	-5.790396219365261e-01
1	 2.615718878503911e-01	 1.413501467087830e+00	-2.548915661698380e+01
1	 5.337373288652524e-01	 1.348193036543535e+00	 1.047371693171132e+02
1	 5.069165066144372e-01	 1.358504933857160e+00	 1.027540089944791e+02
1	 4.800129589470085e-01	 1.368242507460719e+00	 9.826327686438651e+01
1	 4.530441492710384e-01	 1.377407346713711e+00	 9.125214308268222e+01
1	 4.260273096741375e-01	 1.386001706844041e+00	 8.171766587349704e+01
1	 3.989794115183856e-01	 1.394028489358520e+00	 6.966650833771854e+01
1	 3.719171376287828e-01	 1.401491221055414e+00	 5.511461664501849e+01
1	 3.448568561392546e-01	 1.408394031772441e+00	 3.808686313490811e+01
1	 3.178145960486270e-01	 1.414741631005575e+00	 1.861665796962268e+01
1	 2.908060245275123e-01	 1.420539283534902e+00	-3.254466941228498e+00
1	 2.638464260057847e-01	 1.425792784193659e+00	-2.747729798599599e+01
1	 5.383385127359304e-01	 1.359815390306469e+00	 1.034789532671611e+02
1	 5.112864765002892e-01	 1.370216183287127e+00	 1.005129691424087e+02
1	 4.841510016978469e-01	 1.380037701491165e+00	 9.526662888716322e+01
1	 4.569497022832972e-01	 1.389281547979459e+00	 8.771482557277827e+01
1	 4.296999588967309e-01	 1.397949997421536e+00	 7.784197627924254e+01
1	 4.024188892050738e-01	 1.406045976337196e+00	 6.564179986142369e+01
1	 3.751233198507839e-01	 1.413573041928139e+00	 5.111705544990922e+01
1	 3.478297600723899e-01	 1.420535359634134e+00	 3.427924486374230e+01
1	 3.205543770497430e-01	 1.426937679550262e+00	 1.514828225283209e+01
1	 2.933129730152719e-01	 1.432785311842642e+00	-6.247865609988753e+00
1	 2.661209641611783e-01	 1.438084101299974e+00	-2.987356490241197e+01
1	 5.429396966061187e-01	 1.371437744069425e+00	 1.025963696984983e+02
1	 5.156564463857463e-01	 1.381927432717298e+00	 9.858282136879328e+01
1	 4.882890444483744e-01	 1.391832895521968e+00	 9.251288379013596e+01
1	 4.608552552953190e-01	 1.401155749245686e+00	 8.434933573391075e+01
1	 4.333726081191510e-01	 1.409898287999599e+00	 7.406411996290058e+01
1	 4.058583668916424e-01	 1.418063463316499e+00	 6.163818129330609e+01
1	 3.783295020727088e-01	 1.425654862801521e+00	 4.706126474819946e+01
1	 3.508026640054825e-01	 1.432676687496486e+00	 3.033167663515331e+01
1	 3.232941580508401e-01	 1.439133728095577e+00	 1.145601154418249e+01
1	 2.958199215030269e-01	 1.445031340150954e+00	-9.551151610840039e+00
1	 2.683955023165718e-01	 1.450375418406773e+00	-3.266758129297070e+01
1	 5.475408804758173e-01	 1.383060097832401e+00	 1.020799488846951e+02
1	 5.200264162708083e-01	 1.393638682147674e+00	 9.695572805818082e+01
1	 4.924270871985911e-01	 1.403628089553128e+00	 8.999591797124570e+01
1	 4.647608083071041e-01	 1.413029950512392e+00	 8.115134177601405e+01
1	 4.370452573413979e-01	 1.421846578578230e+00	 7.038163053927846e+01
1	 4.092978445780913e-01	 1.430080950296430e+00	 5.765512095498122e+01
1	 3.815356842945573e-01	 1.437736683675562e+00	 4.294871251062831e+01
1	 3.537755679385325e-01	 1.444818015359496e+00	 2.624768659932430e+01
1	 3.260339390519186e-01	 1.451329776641522e+00	 7.545490255240967e+00
1	 2.983268699907771e-01	 1.457277368459836e+00	-1.315651265808355e+01
1	 2.706700404719653e-01	 1.462666735514058e+00	-3.584931985998541e+01
1	 5.521420643450261e-01	 1.394682451595397e+00	 1.019205367568717e+02
1	 5.243963861554752e-01	 1.405349931578255e+00	 9.562411284896967e+01
1	 4.965651299484972e-01	 1.415423283584646e+00	 8.770981194850246e+01
1	 4.686663613186524e-01	 1.424904151779574e+00	 7.811665630202563e+01
1	 4.407179065634718e-01	 1.433794869157430e+00	 6.679212383602325e+01
1	 4.127373222644204e-01	 1.442098437276991e+00	 5.369210489067773e+01
1	 3.847418665163297e-01	 1.449818504550261e+00	 3.878081777557565e+01
1	 3.567484718715399e-01	 1.456959343223164e+00	 2.203068530143187e+01
1	 3.287737200529779e-01	 1.463525825188096e+00	 3.422174650520889e+00
1	 3.008338184785227e-01	 1.469523396769290e+00	-1.705639687554537e+01
1	 2.729445786273588e-01	 1.474958052621828e+00	-3.940908754902673e+01
1	 2.501991970734234e-01	 1.352044881565965e+00	-2.205990737010452e+01
1	 2.246946132453406e-01	 1.356516616473704e+00	-4.129520623560884e+01
1	 1.992642974238829e-01	 1.360484744408075e+00	-5.869907080380335e+01
1	 1.739215527406030e-01	 1.363956118608690e+00	-7.434329853940889e+01
1	 1.486792571529468e-01	 1.366937993652964e+00	-8.830336967052153e+01
1	 1.235498521293628e-01	 1.369437999341071e+00	-1.006579885817935e+02
1	 9.854533298911115e-02	 1.371464114494739e+00	-1.114886317126358e+02
1	 7.367724086214492e-02	 1.373024640776572e+00	-1.208791043041773e+02
1	 4.895665622776053e-02	 1.374128176631064e+00	-1.289151081347067e+02
1	 2.439419398469604e-02	 1.374783591442656e+00	-1.356838221737244e+02
1	 0.000000000000000e+00	 1.375000000000000e+00	-1.412734978721878e+02
1	 2.524737352288170e-01	 1.364336198669367e+00	-2.183845501951046e+01
1	 2.267372915474652e-01	 1.368848585712971e+00	-4.079911861518655e+01
1	 2.010757910364978e-01	 1.372852787537955e+00	-5.803313452391291e+01
1	 1.755026577650256e-01	 1.376355719686112e+00	-7.360112804214580e+01
1	 1.500308867628343e-01	 1.379364702685561e+00	-8.756755753840301e+01
1	 1.246730326026296e-01	 1.381887435698295e+00	-1.000002901398230e+02
1	 9.944119965202770e-02	 1.383931970080786e+00	-1.109701814483701e+02
1	 7.434703396034356e-02	 1.385506682965300e+00	-1.205506615762117e+02
1	 4.940171673850238e-02	 1.386620250964008e+00	-1.288173296072275e+02
1	 2.461595938432043e-02	 1.387281624092119e+00	-1.358475584023698e+02
1	 0.000000000000000e+00	 1.387500000000000e+00	-1.417201114730900e+02
1	 2.547482733842105e-01	 1.376627515773255e+00	-2.208280513768403e+01
1	 2.287799698495900e-01	 1.381180554952629e+00	-4.068616859347300e+01
1	 2.028872846491126e-01	 1.385220830668143e+00	-5.766659530137736e+01
1	 1.770837627894483e-01	 1.388755320763768e+00	-7.307369334900869e+01
1	 1.513825163727218e-01	 1.391791411718328e+00	-8.696105188730682e+01
1	 1.257962130758965e-01	 1.394336872055636e+00	-9.938585071593147e+01
1	 1.003370663149443e-01	 1.396399825666909e+00	-1.104084714511763e+02
1	 7.501682705854221e-02	 1.397988725154069e+00	-1.200921125123138e+02
1	 4.984677724924420e-02	 1.399112325296969e+00	-1.285024100009696e+02
1	 2.483772478394482e-02	 1.399779656741585e+00	-1.357070663789496e+02
1	 0.000000000000000e+00	 1.400000000000000e+00	-1.417754886753481e+02
1	 2.570228115396040e-01	 1.388918832877628e+00	-2.278059128736725e+01
1	 2.308226481517145e-01	 1.393512524192677e+00	-4.094618437579442e+01
1	 2.046987782617274e-01	 1.397588873798637e+00	-5.759150454174844e+01
1	 1.786648678138709e-01	 1.401154921841657e+00	-7.275529350944782e+01
1	 1.527341459826092e-01	 1.404218120751266e+00	-8.648041980181327e+01
1	 1.269193935491633e-01	 1.406786308413095e+00	-9.881352184062146e+01
1	 1.012329329778609e-01	 1.408867681253106e+00	-1.098046502095466e+02
1	 7.568662015674081e-02	 1.410470767342880e+00	-1.195069112629987e+02
1	 5.029183775998605e-02	 1.411604399629950e+00	-1.279761141233315e+02
1	 2.505949018356920e-02	 1.412277689391056e+00	-1.352704229597082e+02
1	 0.000000000000000e+00	 1.412500000000000e+00	-1.414500162859941e+02
1	 2.592973496949976e-01	 1.401210149982486e+00	-2.391988094138400e+01
1	 2.328653264538391e-01	 1.405844493433116e+00	-4.156935107255514e+01
1	 2.065102718743421e-01	 1.409956916929438e+00	-5.780019254862958e+01
1	 1.802459728382935e-01	 1.413554522919780e+00	-7.264042760626610e+01
1	 1.540857755924967e-01	 1.416644829784374e+00	-8.612234881967696e+01
1	 1.280425740224302e-01	 1.419235744770672e+00	-9.828219534156941e+01
1	 1.021287996407774e-01	 1.421335536839377e+00	-1.091598259141288e+02
1	 7.635641325493947e-02	 1.422952809531733e+00	-1.187983907805167e+02
1	 5.073689827072789e-02	 1.424096473962949e+00	-1.272440045077703e+02
1	 2.528125558319359e-02	 1.424775722040532e+00	-1.345454216024223e+02
1	 0.000000000000000e+00	 1.425000000000000e+00	-1.407537166626908e+02
1	 2.615718878503911e-01	 1.413501467087830e+00	-2.548915661698380e+01
1	 2.349080047559638e-01	 1.418176462673946e+00	-4.254619518162544e+01
1	 2.083217654869569e-01	 1.422324960060546e+00	-5.828525639767319e+01
1	 1.818270778627161e-01	 1.425954123998136e+00	-7.272378605851794e+01
1	 1.554374052023842e-01	 1.429071538817652e+00	-8.588364169472919e+01
1	 1.291657544956971e-01	 1.431685181128366e+00	-9.779080159157483e+01
1	 1.030246663036940e-01	 1.433803392425723e+00	-1.084750682098117e+02
1	 7.702620635313809e-02	 1.435434851720629e+00	-1.179697680883455e+02
1	 5.118195878146975e-02	 1.436588548295966e+00	-1.263114502083164e+02
1	 2.550302098281797e-02	 1.437273754690013e+00	-1.335395846880795e+02
1	 0.000000000000000e+00	 1.437500000000000e+00	-1.396962635593561e+02
1	 2.638464260057847e-01	 1.425792784193659e+00	-2.747729798599599e+01
1	 2.369506830580884e-01	 1.430508431915166e+00	-4.386756987336420e+01
1	 2.101332590995718e-01	 1.434693003191961e+00	-5.903954843778651e+01
1	 1.834081828871388e-01	 1.438353725076726e+00	-7.300024237425596e+01
1	 1.567890348122716e-01	 1.441498247851101e+00	-8.576121143067085e+01
1	 1.302889349689639e-01	 1.444134617486177e+00	-9.733830784713581e+01
1	 1.039205329666105e-01	 1.446271248012144e+00	-1.077514098571756e+02
1	 7.769599945133675e-02	 1.447916893909566e+00	-1.170241492781168e+02
1	 5.162701929221158e-02	 1.449080622629002e+00	-1.251836351392079e+02
1	 2.572478638244236e-02	 1.449771787339498e+00	-1.322601752052178e+02
1	 0.000000000000000e+00	 1.450000000000000e+00	-1.382869971521868e+02
1	 2.661209641611783e-01	 1.438084101299974e+00	-2.987356490241197e+01
1	 2.389933613602131e-01	 1.442840401156778e+00	-4.552464103025600e+01
1	 2.119447527121866e-01	 1.447061046323683e+00	-6.005616538201677e+01
1	 1.849892879115614e-01	 1.450753326155550e+00	-7.346484532621515e+01
1	 1.581406644221591e-01	 1.453924956884721e+00	-8.575207656953688e+01
1	 1.314121154422308e-01	 1.456584053844107e+00	-9.692371667221968e+01
1	 1.048163996295271e-01	 1.458739103598640e+00	-1.069898483087472e+02
1	 7.836579254953538e-02	 1.460398936098545e+00	-1.159645342502975e+02
1	 5.207207980295342e-02	 1.461572696962056e+00	-1.238655659868441e+02
1	 2.594655178206674e-02	 1.462269819988988e+00	-1.307142078350764e+02
1	 0.000000000000000e+00	 1.462500000000000e+00	-1.365349382951179e+02
1	 2.683955023165718e-01	 1.450375418406773e+00	-3.266758129297070e+01
1	 2.410360396623377e-01	 1.455172370398780e+00	-4.750887399639743e+01
1	 2.137562463248014e-01	 1.459429089455712e+00	-6.132843795313978e+01
1	 1.865703929359840e-01	 1.463152927234606e+00	-7.411281152534367e+01
1	 1.594922940320465e-01	 1.466351665918511e+00	-8.585335671973490e+01
1	 1.325352959154976e-01	 1.469033490202154e+00	-9.654606444218514e+01
1	 1.057122662924437e-01	 1.471206959185211e+00	-1.061913472051034e+02
1	 7.903558564773400e-02	 1.472880978287564e+00	-1.147938212138113e+02
1	 5.251714031369526e-02	 1.474064771295128e+00	-1.223620797194434e+02
1	 2.616831718169113e-02	 1.474767852638482e+00	-1.289084594730879e+02
1	 0.000000000000000e+00	 1.475000000000000e+00	-1.344488020504251e+02
1	 2.706700404719653e-01	 1.462666735514058e+00	-3.584931985998541e+01
1	 2.430787179644623e-01	 1.467504339641174e+00	-4.981202099507679e+01
1	 2.155677399374162e-01	 1.471797132588047e+00	-6.284992105131811e+01
1	 1.881514979604067e-01	 1.475552528313897e+00	-7.493951836877666e+01
1	 1.608439236419340e-01	 1.478778374952471e+00	-8.606226830955731e+01
1	 1.336584763887645e-01	 1.481482926560319e+00	-9.620441992313410e+01
1	 1.066081329553602e-01	 1.483674814771857e+00	-1.053568377955417e+02
1	 7.970537874593264e-02	 1.485363020476627e+00	-1.135148109587961e+02
1	 5.296220082443710e-02	 1.486556845628219e+00	-1.206778507180560e+02
1	 2.639008258131552e-02	 1.487265885287981e+00	-1.268494792198840e+02
1	 0.000000000000000e+00	 1.487500000000000e+00	-1.320370105371147e+02
1	 2.729445786273588e-01	 1.474958052621828e+00	-3.940908754902673e+01
1	 2.451213962665869e-01	 1.479836308883957e+00	-5.242610917547356e+01
1	 2.173792335500309e-01	 1.484165175720690e+00	-6.461438441337522e+01
1	 1.897326029848293e-01	 1.487952129393421e+00	-7.594049734041093e+01
1	 1.621955532518215e-01	 1.491205083986602e+00	-8.637612055302114e+01
1	 1.347816568620313e-01	 1.493932362918601e+00	-9.589788292230091e+01
1	 1.075039996182768e-01	 1.496142670358577e+00	-1.044872202877149e+02
1	 8.037517184413129e-02	 1.497845062665731e+00	-1.121302109157181e+02
1	 5.340726133517893e-02	 1.499048919961328e+00	-1.188173975510299e+02
1	 2.661184798093990e-02	 1.499763917937484e+00	-1.245435978727376e+02
1	 0.000000000000000e+00	 1.500000000000000e+00	-1.293077051368934e+02
1	 1.500000000000000e+00	 0.000000000000000e+00	 1.177166649943934e+02
1	 1.499763917937484e+00	 2.661184798093904e-02	 9.256035758272459e+01
1	 1.499048919961329e+00	 5.340726133517817e-02	 6.750978266628533e+01
1	 1.497845062665731e+00	 8.037517184413061e-02	 4.257962920724387e+01
1	 1.496142670358577e+00	 1.075039996182762e-01	 1.778410947507518e+01
1	 1.493932362918601e+00	 1.347816568620308e-01	-6.863107449535168e+00
1	 1.491205083986601e+00	 1.621955532518211e-01	-3.134896212447799e+01
1	 1.487952129393420e+00	 1.897326029848289e-01	-5.566107072776582e+01
1	 1.484165175720690e+00	 2.173792335500308e-01	-7.978779012745245e+01
1	 1.479836308883957e+00	 2.451213962665869e-01	-1.037182815779182e+02
1	 1.474958052621828e+00	 2.729445786273588e-01	-1.274425725651194e+02
1	 1.512500000000000e+00	 0.000000000000000e+00	 1.200420129125067e+02
1	 1.512261950586988e+00	 2.683361338056342e-02	 9.473699002614606e+01
1	 1.511540994294438e+00	 5.385232184592000e-02	 6.963745277397052e+01
1	 1.510327104854835e+00	 8.104496494232924e-02	 4.473863612520131e+01
1	 1.508610525945297e+00	 1.083998662811928e-01	 2.003423977322347e+01
1	 1.506381799276883e+00	 1.359048373352977e-01	-4.483609451761861e+00
1	 1.503631793020732e+00	 1.635471828617086e-01	-2.882438866049358e+01
1	 1.500351730472945e+00	 1.913137080092516e-01	-5.299920288551296e+01
1	 1.496533218853332e+00	 2.191907271626456e-01	-7.702080139604720e+01
1	 1.492168278126741e+00	 2.471640745687115e-01	-1.009035858028948e+02
1	 1.487249369729599e+00	 2.752191167827523e-01	-1.246636094413963e+02
1	 1.525000000000000e+00	 0.000000000000000e+00	 1.235159839884901e+02
1	 1.524759983236486e+00	 2.705537878018779e-02	 9.788224511483261e+01
1	 1.524033068627529e+00	 5.429738235666183e-02	 7.255143140314394e+01
1	 1.522809147043897e+00	 8.171475804052787e-02	 4.749955263805197e+01
1	 1.521078381531942e+00	 1.092957329441093e-01	 2.270003695299769e+01
1	 1.518831235635048e+00	 1.370280178085645e-01	-1.876278098570154e+00
1	 1.516058502054693e+00	 1.648988124715960e-01	-2.626114156257570e+01
1	 1.512751331552235e+00	 1.928948130336742e-01	-5.048887144334645e+01
1	 1.508901261985667e+00	 2.210022207752603e-01	-7.459632270892376e+01
1	 1.504500247369134e+00	 2.492067528708361e-01	-9.862284031761777e+01
1	 1.499540686836884e+00	 2.774936549381459e-01	-1.226101967199479e+02
1	 1.537500000000000e+00	 0.000000000000000e+00	 1.281105630234007e+02
1	 1.537258015885981e+00	 2.727714417981218e-02	 1.019724979062390e+02
1	 1.536525142960601e+00	 5.474244286740368e-02	 7.623254029720519e+01
1	 1.535291189232917e+00	 8.238455113872650e-02	 5.084769802399306e+01
1	 1.533546237118513e+00	 1.101915996070258e-01	 2.577136279780361e+01
1	 1.531280671993095e+00	 1.381511982818314e-01	 9.533296989715225e-01
1	 1.528485211088482e+00	 1.662504420814835e-01	-2.366016409003903e+01
1	 1.525150932631292e+00	 1.944759180580968e-01	-4.812638039144910e+01
1	 1.521269305117696e+00	 2.228137143878751e-01	-7.250600016249652e+01
1	 1.516832216611136e+00	 2.512494311729607e-01	-9.686302194421714e+01
1	 1.511832003943683e+00	 2.797681930935394e-01	-1.212646380494281e+02
1	 1.550000000000000e+00	 0.000000000000000e+00	 1.337986385343900e+02
1	 1.549756048535470e+00	 2.749890957943656e-02	 1.069848855527403e+02
1	 1.549017217293655e+00	 5.518750337814550e-02	 8.066221985299124e+01
1	 1.547773231421895e+00	 8.305434423692513e-02	 5.476886513289248e+01
1	 1.546014092705009e+00	 1.110874662699424e-01	 2.923840613029160e+01
1	 1.543730108351024e+00	 1.392743787550982e-01	 3.999836284990597e+00
1	 1.540911920122102e+00	 1.676020716913709e-01	-2.102236907447856e+01
1	 1.537550533710115e+00	 1.960570230825194e-01	-4.590815294612676e+01
1	 1.533637348249418e+00	 2.246252080004899e-01	-7.074174933393991e+01
1	 1.529164185852748e+00	 2.532921094750853e-01	-9.561152760733378e+01
1	 1.524123321049998e+00	 2.820427312489329e-01	-1.206098079285321e+02
1	 1.562500000000000e+00	 0.000000000000000e+00	 1.405539666060595e+02
1	 1.562254081184955e+00	 2.772067497906093e-02	 1.128972768178349e+02
1	 1.561509291626691e+00	 5.563256388888735e-02	 8.582250437464040e+01
1	 1.560255273610832e+00	 8.372413733512374e-02	 5.924930144342198e+01
1	 1.558481948291430e+00	 1.119833329328590e-01	 3.309166973078663e+01
1	 1.556179544708835e+00	 1.403975592283651e-01	 7.258036088602314e+00
1	 1.553338629155550e+00	 1.689537013012584e-01	-1.834864013687828e+01
1	 1.549950134788705e+00	 1.976381281069421e-01	-4.383072678076304e+01
1	 1.546005391380833e+00	 2.264367016131047e-01	-6.929574450195820e+01
1	 1.541496155093968e+00	 2.553347877772099e-01	-9.485615753001893e+01
1	 1.536414638155826e+00	 2.843172694043264e-01	-1.206291288719952e+02
1	 1.575000000000000e+00	 0.000000000000000e+00	 1.483511364631813e+02
1	 1.574752113834436e+00	 2.794244037868531e-02	 1.196882430439572e+02
1	 1.574001365959708e+00	 5.607762439962918e-02	 9.169599850584135e+01
1	 1.572737315799726e+00	 8.439393043332238e-02	 6.427569102223190e+01
1	 1.570949803877776e+00	 1.128791995957756e-01	 3.732195787865098e+01
1	 1.568628981066530e+00	 1.415207397016319e-01	 1.072288879513998e+01
1	 1.565765338188829e+00	 1.703053309111458e-01	-1.563983284676247e+01
1	 1.562349735867061e+00	 1.992192331313647e-01	-4.189074948387231e+01
1	 1.558373434511941e+00	 2.282481952257195e-01	-6.816040838085186e+01
1	 1.553828124334798e+00	 2.573774660793345e-01	-9.458509922982896e+01
1	 1.548705955261170e+00	 2.865918075597200e-01	-1.213065496639236e+02
1	 1.587500000000000e+00	 0.000000000000000e+00	 1.571655376699040e+02
1	 1.587250146483912e+00	 2.816420577830969e-02	 1.273370304918894e+02
1	 1.586493440292707e+00	 5.652268491037100e-02	 9.826585477552055e+01
1	 1.585219357988580e+00	 8.506372353152102e-02	 6.983513733544734e+01
1	 1.583417659464048e+00	 1.137750662586921e-01	 4.192036448224305e+01
1	 1.581078417424106e+00	 1.426439201748988e-01	 1.438951284000524e+01
1	 1.578192047221937e+00	 1.716569605210333e-01	-1.289677582658362e+01
1	 1.574749336945184e+00	 2.008003381557873e-01	-4.008497423173188e+01
1	 1.570741477642742e+00	 2.300596888383343e-01	-6.732840233958837e+01
1	 1.566160093575237e+00	 2.594201443814592e-01	-9.478691227100995e+01
1	 1.560997272366028e+00	 2.888663457151135e-01	-1.226265246385288e+02
1	 1.600000000000000e+00	 0.000000000000000e+00	 1.669733288664955e+02
1	 1.599748179133383e+00	 2.838597117793407e-02	 1.358235339767639e+02
1	 1.598985514625687e+00	 5.696774542111284e-02	 1.055157521960755e+02
1	 1.597701400177391e+00	 8.573351662971965e-02	 7.591514686587713e+01
1	 1.595885515050245e+00	 1.146709329216086e-01	 4.687826176528490e+01
1	 1.593527853781565e+00	 1.437671006481656e-01	 1.825317920749305e+01
1	 1.590618756254874e+00	 1.730085901309208e-01	-1.012027180434276e+01
1	 1.587148938023073e+00	 2.023814431802099e-01	-3.841025566386018e+01
1	 1.583109520773236e+00	 2.318711824509491e-01	-6.679261707935454e+01
1	 1.578492062815286e+00	 2.614628226835838e-01	-9.545051373142488e+01
1	 1.573288589470401e+00	 2.911408838705071e-01	-1.245739939320768e+02
1	 1.612500000000000e+00	 0.000000000000000e+00	 1.777514079601917e+02
1	 1.612246211782850e+00	 2.860773657755843e-02	 1.451282717302973e+02
1	 1.611477588958649e+00	 5.741280593185468e-02	 1.134298758570371e+02
1	 1.610183442366161e+00	 8.640330972791826e-02	 8.250361349221134e+01
1	 1.608353370636367e+00	 1.155667995845252e-01	 5.218728947944461e+01
1	 1.605977290138907e+00	 1.448902811214324e-01	 2.230930551804442e+01
1	 1.603045465287642e+00	 1.743602197408082e-01	-7.311098617250252e+00
1	 1.599548539100729e+00	 2.039625482046325e-01	-3.686354595033329e+01
1	 1.595477563903424e+00	 2.336826760635639e-01	-6.654616374471074e+01
1	 1.590824032054943e+00	 2.635055009857084e-01	-9.656516434543543e+01
1	 1.585579906574289e+00	 2.934154220259006e-01	-1.271343646533504e+02
1	 1.625000000000000e+00	 0.000000000000000e+00	 1.894773836918516e+02
1	 1.624744244432312e+00	 2.882950197718282e-02	 1.552323614232305e+02
1	 1.623969663291593e+00	 5.785786644259652e-02	 1.219928974605676e+02
1	 1.622665484554890e+00	 8.707310282611692e-02	 8.958880358918054e+01
1	 1.620821226222414e+00	 1.164626662474418e-01	 5.783934461480089e+01
1	 1.618426726496131e+00	 1.460134615946994e-01	 2.655345038839393e+01
1	 1.615472174320238e+00	 1.757118493506957e-01	-4.470010169063585e+00
1	 1.611948140178151e+00	 2.055436532290552e-01	-3.544189104060907e+01
1	 1.607845607033305e+00	 2.354941696761788e-01	-6.658236544499940e+01
1	 1.603156001294210e+00	 2.655481792878331e-01	-9.812045528634570e+01
1	 1.597871223677692e+00	 2.956899601812942e-01	-1.302934929231686e+02
1	 1.474958052621828e+00	 2.729445786273588e-01	-1.274425725651194e+02
1	 1.469523396769290e+00	 3.008338184785218e-01	-1.158362949064294e+02
1	 1.463525825188096e+00	 3.287737200529772e-01	-1.042859314002761e+02
1	 1.456959343223164e+00	 3.567484718715391e-01	-9.281055818048048e+01
1	 1.449818504550261e+00	 3.847418665163292e-01	-8.142939782410014e+01
1	 1.442098437276991e+00	 4.127373222644202e-01	-7.016175703411101e+01
1	 1.433794869157430e+00	 4.407179065634715e-01	-5.902696178464596e+01
1	 1.424904151779575e+00	 4.686663613186522e-01	-4.804429022083729e+01
1	 1.415423283584646e+00	 4.965651299484973e-01	-3.723290363601451e+01
1	 1.405349931578255e+00	 5.243963861554752e-01	-2.661177587817008e+01
1	 1.394682451595397e+00	 5.521420643450261e-01	-1.619962156479398e+01
1	 1.487249369729599e+00	 2.752191167827523e-01	-1.246636094413963e+02
1	 1.481769425078744e+00	 3.033407669662652e-01	-1.130515407339870e+02
1	 1.475721873734670e+00	 3.315135010540273e-01	-1.015616800767487e+02
1	 1.469100671086833e+00	 3.597213758045253e-01	-9.020112416626552e+01
1	 1.461900325424960e+00	 3.879480487380636e-01	-7.897656640728673e+01
1	 1.454115924257551e+00	 4.161767999506894e-01	-6.789426556113031e+01
1	 1.445743159736630e+00	 4.443905557854587e-01	-5.696001572948525e+01
1	 1.436778353046758e+00	 4.725719143300821e-01	-4.617911791591048e+01
1	 1.427218477616163e+00	 5.007031726982478e-01	-3.555635340494240e+01
1	 1.417061181008836e+00	 5.287663560399447e-01	-2.509595919383320e+01
1	 1.406304805358394e+00	 5.567432482139901e-01	-1.480160570447429e+01
1	 1.499540686836884e+00	 2.774936549381459e-01	-1.226101967199479e+02
1	 1.494015453387626e+00	 3.058477154540085e-01	-1.108956318152043e+02
1	 1.487917922280615e+00	 3.342532820550773e-01	-9.936838400780356e+01
1	 1.481241998949843e+00	 3.626942797375113e-01	-8.802371627900074e+01
1	 1.473982146299001e+00	 3.911542309597980e-01	-7.685594484594981e+01
1	 1.466133411237483e+00	 4.196162776369589e-01	-6.585843847032694e+01
1	 1.457691450315262e+00	 4.480632050074460e-01	-5.502362293662035e+01
1	 1.448652554313463e+00	 4.764774673415118e-01	-4.434299089304139e+01
1	 1.439013671647323e+00	 5.048412154479985e-01	-3.380711721284414e+01
1	 1.428772430439212e+00	 5.331363259244142e-01	-2.340567999522264e+01
1	 1.417927159121370e+00	 5.613444320829541e-01	-1.312748728315335e+01
1	 1.511832003943683e+00	 2.797681930935394e-01	-1.212646380494281e+02
1	 1.506261481695937e+00	 3.083546639417515e-01	-1.093532304609271e+02
1	 1.500113970825930e+00	 3.369930630561272e-01	-9.769309306525874e+01
1	 1.493383326812194e+00	 3.656671836704973e-01	-8.626779729606662e+01
1	 1.486063967172383e+00	 3.943604131815324e-01	-7.505943046068003e+01
1	 1.478150898216786e+00	 4.230557553232283e-01	-6.404862541090726e+01
1	 1.469639740893325e+00	 4.517358542294331e-01	-5.321459918012891e+01
1	 1.460526755579689e+00	 4.803830203529415e-01	-4.253520073069944e+01
1	 1.450808865678127e+00	 5.089792581977491e-01	-3.198696788801800e+01
1	 1.440483679869384e+00	 5.375062958088838e-01	-2.154519346559515e+01
1	 1.429549512884325e+00	 5.659456159519182e-01	-1.118400050962501e+01
1	 1.524123321049998e+00	 2.820427312489329e-01	-1.206098079285321e+02
1	 1.518507510003678e+00	 3.108616124294948e-01	-1.084094937461660e+02
1	 1.512310019370616e+00	 3.397328440571772e-01	-9.652327486700213e+01
1	 1.505524654673888e+00	 3.686400876034834e-01	-8.492316990525069e+01
1	 1.498145788045108e+00	 3.975665954032666e-01	-7.357918194882360e+01
1	 1.490168385195461e+00	 4.264952330094976e-01	-6.245935830145866e+01
1	 1.481588031470819e+00	 4.554085034514203e-01	-5.152986295105444e+01
1	 1.472400956845438e+00	 4.842885733643713e-01	-4.075506185966174e+01
1	 1.462604059708573e+00	 5.131173009474997e-01	-3.009762107075208e+01
1	 1.452194929299351e+00	 5.418762656933532e-01	-1.951861752422970e+01
1	 1.441171866647260e+00	 5.705467998208821e-01	-8.977662360137515e+00
1	 1.536414638155826e+00	 2.843172694043264e-01	-1.206291288719952e+02
1	 1.530753538310847e+00	 3.133685609172381e-01	-1.080500537195298e+02
1	 1.524506067914674e+00	 3.424726250582273e-01	-9.584679806714841e+01
1	 1.517665982534923e+00	 3.716129915364694e-01	-8.397996310833105e+01
1	 1.510227608917174e+00	 4.007727776250010e-01	-7.240760892941165e+01
1	 1.502185872173508e+00	 4.299347106957671e-01	-6.108534403917430e+01
1	 1.493536322047746e+00	 4.590811526734075e-01	-4.996643134872745e+01
1	 1.484275158110709e+00	 4.881941263758013e-01	-3.900191064892076e+01
1	 1.474399253738662e+00	 5.172553436972505e-01	-2.814073750084467e+01
1	 1.463906178729113e+00	 5.462462355778226e-01	-1.732993831698644e+01
1	 1.452794220410174e+00	 5.751479836898462e-01	-6.514781267695557e+00
1	 1.548705955261170e+00	 2.865918075597200e-01	-1.213065496639236e+02
1	 1.542999566617443e+00	 3.158755094049813e-01	-1.082609985550671e+02
1	 1.536702116458102e+00	 3.452124060592773e-01	-9.565191644190321e+01
1	 1.529807310395300e+00	 3.745858954694554e-01	-8.342861927210845e+01
1	 1.522309429788582e+00	 4.039789598467353e-01	-7.153736198595098e+01
1	 1.514203359150925e+00	 4.333741883820365e-01	-5.992145755625744e+01
1	 1.505484612624103e+00	 4.627538018953948e-01	-4.852141616773844e+01
1	 1.496149359375500e+00	 4.920996793872311e-01	-3.727510453512009e+01
1	 1.486194447768395e+00	 5.213933864470012e-01	-2.611792519619512e+01
1	 1.475617428158671e+00	 5.506162054622920e-01	-1.498301544541077e+01
1	 1.464416574173068e+00	 5.797491675588102e-01	-3.801465397586010e+00
1	 1.560997272366028e+00	 2.888663457151135e-01	-1.226265246385288e+02
1	 1.555245594923469e+00	 3.183824578927246e-01	-1.090288545945715e+02
1	 1.548898165000901e+00	 3.479521870603273e-01	-9.592725372727577e+01
1	 1.541948638255018e+00	 3.775587994024414e-01	-8.325988179120085e+01
1	 1.534391250659332e+00	 4.071851420684697e-01	-7.096132317963335e+01
1	 1.526220846127715e+00	 4.368136660683060e-01	-5.896273520437018e+01
1	 1.517432903199891e+00	 4.664264511173821e-01	-4.719202016977784e+01
1	 1.508023560639813e+00	 4.960052323986609e-01	-3.557402119311936e+01
1	 1.497989641797769e+00	 5.255314291967518e-01	-2.403074152846912e+01
1	 1.487328677588024e+00	 5.549861753467614e-01	-1.248158694879309e+01
1	 1.476038927935941e+00	 5.843503514277741e-01	-8.436305319339041e-01
1	 1.573288589470401e+00	 2.911408838705071e-01	-1.245739939320768e+02
1	 1.567491623228924e+00	 3.208894063804678e-01	-1.103405692316547e+02
1	 1.561094213543070e+00	 3.506919680613774e-01	-9.666178916752463e+01
1	 1.554089966114079e+00	 3.805317033354274e-01	-8.346478332914425e+01
1	 1.546473071529424e+00	 4.103913242902040e-01	-7.067259700723855e+01
1	 1.538238333103876e+00	 4.402531437545753e-01	-5.820436844918546e+01
1	 1.529381193775111e+00	 4.700991003393692e-01	-4.597553353023358e+01
1	 1.519897761903649e+00	 4.999107854100907e-01	-3.389805774543917e+01
1	 1.509784835826787e+00	 5.296694719465024e-01	-2.188069520146745e+01
1	 1.499039927017173e+00	 5.593561452312309e-01	-9.829274052694315e+00
1	 1.487661281698794e+00	 5.889515352967382e-01	 2.352992415330399e+00
1	 1.585579906574289e+00	 2.934154220259006e-01	-1.271343646533504e+02
1	 1.579737651533808e+00	 3.233963548682111e-01	-1.121834945919077e+02
1	 1.573290262084611e+00	 3.534317490624274e-01	-9.784484373576771e+01
1	 1.566231293972480e+00	 3.835046072684134e-01	-8.403463460641908e+01
1	 1.558554892398857e+00	 4.135975065119385e-01	-7.066450177959989e+01
1	 1.550255820079409e+00	 4.436926214408446e-01	-5.764169785821632e+01
1	 1.541329484349762e+00	 4.737717495613564e-01	-4.486933045006356e+01
1	 1.531771963167006e+00	 5.038163384215205e-01	-3.224663000847551e+01
1	 1.521580029855448e+00	 5.338075146962531e-01	-1.966924813747713e+01
1	 1.510751176446117e+00	 5.637261151157004e-01	-7.029585696610064e+00
1	 1.499283635461626e+00	 5.935527191657022e-01	 5.782850233036872e+00
1	 1.597871223677692e+00	 2.956899601812942e-01	-1.302934929231686e+02
1	 1.591983679838119e+00	 3.259033033559543e-01	-1.145453719662875e+02
1	 1.585486310625523e+00	 3.561715300634776e-01	-9.946606699056500e+01
1	 1.578372621830225e+00	 3.864775112013996e-01	-8.496101370595230e+01
1	 1.570636713267633e+00	 4.168036887336729e-01	-7.093056139798682e+01
1	 1.562273307054313e+00	 4.471320991271141e-01	-5.727020736612968e+01
1	 1.553277774923845e+00	 4.774443987833438e-01	-4.387086592404258e+01
1	 1.543646164429884e+00	 5.077218914329503e-01	-3.061917177350438e+01
1	 1.533375223883753e+00	 5.379455574460040e-01	-1.739781727656047e+01
1	 1.522462425874856e+00	 5.680960850001699e-01	-4.085922852665236e+00
1	 1.510905989224438e+00	 5.981539030346663e-01	 9.440560578054507e+00
1	 1.394682451595397e+00	 5.521420643450261e-01	-1.619962156479398e+01
1	 1.383419906984210e+00	 5.797838916139538e-01	-1.667573771685085e+01
1	 1.371562085578352e+00	 6.073034212204445e-01	-1.705203580450810e+01
1	 1.359109514832477e+00	 6.346820674319068e-01	-1.731699926904538e+01
1	 1.346063475001740e+00	 6.619011416355681e-01	-1.745909209504909e+01
1	 1.332426010254849e+00	 6.889418895898038e-01	-1.746680419719197e+01
1	 1.318199937618296e+00	 7.157855296803712e-01	-1.732869804841244e+01
1	 1.303388853659439e+00	 7.424132920367565e-01	-1.703345628438069e+01
1	 1.287997138826982e+00	 7.688064583548604e-01	-1.656993000223224e+01
1	 1.272029959379205e+00	 7.949464022641402e-01	-1.592718745687937e+01
1	 1.255493266842989e+00	 8.208146300702533e-01	-1.509456284605380e+01
1	 1.406304805358394e+00	 5.567432482139901e-01	-1.480160570447429e+01
1	 1.394948406207697e+00	 5.846154240430896e-01	-1.528741775076772e+01
1	 1.382991769622504e+00	 6.123642830626772e-01	-1.563470235755170e+01
1	 1.370435427452928e+00	 6.399710846590581e-01	-1.583802193389560e+01
1	 1.357280670622920e+00	 6.674169844810206e-01	-1.589215731393334e+01
1	 1.343529560335928e+00	 6.946830720015954e-01	-1.579213227499980e+01
1	 1.329184937093667e+00	 7.217504090930887e-01	-1.553323761135634e+01
1	 1.314250427434890e+00	 7.486000694693998e-01	-1.511105459946629e+01
1	 1.298730448312043e+00	 7.752131788405625e-01	-1.452147769016857e+01
1	 1.282630209035559e+00	 8.015709556162806e-01	-1.376073626408998e+01
1	 1.265955710728375e+00	 8.276547519880928e-01	-1.282541528926783e+01
1	 1.417927159121370e+00	 5.613444320829541e-01	-1.312748728315335e+01
1	 1.406476905431348e+00	 5.894469564722256e-01	-1.366707819362601e+01
1	 1.394421453666978e+00	 6.174251449049096e-01	-1.403005119671274e+01
1	 1.381761340073830e+00	 6.452601018862087e-01	-1.421697310800359e+01
1	 1.368497866244649e+00	 6.729328273264731e-01	-1.422886438612159e+01
1	 1.354633110417626e+00	 7.004242544133872e-01	-1.406720299454025e+01
1	 1.340169936569694e+00	 7.277152885058061e-01	-1.373392615000616e+01
1	 1.325112001211006e+00	 7.547868469020427e-01	-1.323142989364337e+01
1	 1.309463757797747e+00	 7.816198993262644e-01	-1.256256643635213e+01
1	 1.293230458692502e+00	 8.081955089684213e-01	-1.173063924660548e+01
1	 1.276418154614268e+00	 8.344948739059324e-01	-1.073939586604133e+01
1	 1.429549512884325e+00	 5.659456159519182e-01	-1.118400050962501e+01
1	 1.418005404655163e+00	 5.942784889013609e-01	-1.182037805984433e+01
1	 1.405851137711774e+00	 6.224860067471424e-01	-1.224265104673048e+01
1	 1.393087252695183e+00	 6.505491191133597e-01	-1.245731794969329e+01
1	 1.379715061866928e+00	 6.784486701719254e-01	-1.247156351032623e+01
1	 1.365736660499942e+00	 7.061654368251790e-01	-1.229324214504857e+01
1	 1.351154936046379e+00	 7.336801679185235e-01	-1.193085759178736e+01
1	 1.335973574987789e+00	 7.609736243346858e-01	-1.139353882595680e+01
1	 1.320197067284093e+00	 7.880266198119669e-01	-1.069101231252616e+01
1	 1.303830708350034e+00	 8.148200623205618e-01	-9.833570692822317e+00
1	 1.286880598500666e+00	 8.413349958237717e-01	-8.832038036518421e+00
1	 1.441171866647260e+00	 5.705467998208821e-01	-8.977662360137515e+00
1	 1.429533903879145e+00	 5.991100213304970e-01	-9.752793814986340e+00
1	 1.417280821756893e+00	 6.275468685893746e-01	-1.027692325412467e+01
1	 1.404413165316985e+00	 6.558381363405106e-01	-1.056240983798701e+01
1	 1.390932257489756e+00	 6.839645130173780e-01	-1.062252907239729e+01
1	 1.376840210582875e+00	 7.119066192369704e-01	-1.047143597417125e+01
1	 1.362139935523721e+00	 7.396450473312408e-01	-1.012412283420903e+01
1	 1.346835148765235e+00	 7.671604017673291e-01	-9.596371711611196e+00
1	 1.330930376771083e+00	 7.944333402976689e-01	-8.904701839732070e+00
1	 1.314430958008157e+00	 8.214446156727025e-01	-8.066312172155445e+00
1	 1.297343042387568e+00	 8.481751177416111e-01	-7.099019342772927e+00
1	 1.452794220410174e+00	 5.751479836898462e-01	-6.514781267695557e+00
1	 1.441062403103291e+00	 6.039415537596327e-01	-7.469626677714691e+00
1	 1.428710505802334e+00	 6.326077304316072e-01	-8.137147682324544e+00
1	 1.415739077939239e+00	 6.611271535676618e-01	-8.535494843776535e+00
1	 1.402149453113134e+00	 6.894803558628307e-01	-8.683962677836917e+00
1	 1.387943760666427e+00	 7.176478016487620e-01	-8.602932769629989e+00
1	 1.373124935001719e+00	 7.456099267439583e-01	-8.313809866059474e+00
1	 1.357696722543348e+00	 7.733471791999721e-01	-7.838951175724827e+00
1	 1.341663686258716e+00	 8.008400607833710e-01	-7.201589170337867e+00
1	 1.325031207666869e+00	 8.280691690248431e-01	-6.425748243797844e+00
1	 1.307805486274977e+00	 8.550152396594507e-01	-5.536155645530608e+00
1	 1.464416574173068e+00	 5.797491675588102e-01	-3.801465397586010e+00
1	 1.452590902327603e+00	 6.087730861887682e-01	-4.976009574033730e+00
1	 1.440140189848097e+00	 6.376685922738400e-01	-5.827468326077187e+00
1	 1.427064990561943e+00	 6.664161707948125e-01	-6.379715988083266e+00
1	 1.413366648737060e+00	 6.949961987082831e-01	-6.657996039908340e+00
1	 1.399047310750597e+00	 7.233889840605537e-01	-6.688844365567649e+00
1	 1.384109934480375e+00	 7.515748061566756e-01	-6.500003882832265e+00
1	 1.368558296322125e+00	 7.795339566326149e-01	-6.120330871189926e+00
1	 1.352396995746991e+00	 8.072467812690729e-01	-5.579693404255064e+00
1	 1.335631457326171e+00	 8.346937223769836e-01	-4.908862369824667e+00
1	 1.318267930162891e+00	 8.618553615772905e-01	-4.139395635334140e+00
1	 1.476038927935941e+00	 5.843503514277741e-01	-8.436305319339041e-01
1	 1.464119401552080e+00	 6.136046186179041e-01	-2.276913762984345e+00
1	 1.451569873894183e+00	 6.427294541160723e-01	-3.351898660608037e+00
1	 1.438390903185097e+00	 6.717051880219633e-01	-4.098117299139214e+00
1	 1.424583844361535e+00	 7.005120415537357e-01	-4.546693731299107e+00
1	 1.410150860835385e+00	 7.291301664723454e-01	-4.730247577728635e+00
1	 1.395094933959687e+00	 7.575396855693931e-01	-4.682787396698685e+00
1	 1.379419870101568e+00	 7.857207340652584e-01	-4.439594257106728e+00
1	 1.363130305235910e+00	 8.136535017547750e-01	-4.037096031949281e+00
1	 1.346231706986062e+00	 8.413182757291240e-01	-3.512733021379252e+00
1	 1.328730374051309e+00	 8.686954834951300e-01	-2.904815603022709e+00
1	 1.487661281698794e+00	 5.889515352967382e-01	 2.352992415330399e+00
1	 1.475647900776722e+00	 6.184361510470401e-01	 6.228448482400655e-01
1	 1.462999557940591e+00	 6.477903159583051e-01	-7.143267400404998e-01
1	 1.449716815808702e+00	 6.769942052491146e-01	-1.693647679292985e+00
1	 1.435801039986560e+00	 7.060278843991882e-01	-2.352055806799509e+00
1	 1.421254410920791e+00	 7.348713488841370e-01	-2.728185571365341e+00
1	 1.406079933439656e+00	 7.635045649821103e-01	-2.862240341323966e+00
1	 1.390281443881676e+00	 7.919075114979012e-01	-2.795853434478683e+00
1	 1.373863614725471e+00	 8.200602222404771e-01	-2.571938497308739e+00
1	 1.356831956646543e+00	 8.479428290812646e-01	-2.234529967380490e+00
1	 1.339192817940233e+00	 8.755356054129694e-01	-1.828614455345383e+00
1	 1.499283635461626e+00	 5.935527191657022e-01	 5.782850233036872e+00
1	 1.487176400001530e+00	 6.232676834761757e-01	 3.718599682903790e+00
1	 1.474429241987322e+00	 6.528511778005376e-01	 2.081479941322003e+00
1	 1.461042728432757e+00	 6.822832224762654e-01	 8.308354079402651e-01
1	 1.447018235612134e+00	 7.115437272446408e-01	-7.602030399665338e-02
1	 1.432357961006815e+00	 7.406125312959287e-01	-6.836691655203033e-01
1	 1.417064932920283e+00	 7.694694443948278e-01	-1.038440171810619e+00
1	 1.401143017662449e+00	 7.980942889305445e-01	-1.188248036061227e+00
1	 1.384596924215675e+00	 8.264669427261790e-01	-1.182419873868398e+00
1	 1.367432206307614e+00	 8.545673824334052e-01	-1.071510735850329e+00
1	 1.349655261829663e+00	 8.823757273308089e-01	-9.071089624067312e-01
1	 1.510905989224438e+00	 5.981539030346663e-01	 9.440560578054507e+00
1	 1.498704899226502e+00	 6.280992159053116e-01	 7.005827751250046e+00
1	 1.485858926034374e+00	 6.579120396427700e-01	 5.031869812078934e+00
1	 1.472368641057263e+00	 6.875722397034166e-01	 3.472562421000935e+00
1	 1.458235431238258e+00	 7.170595700900936e-01	 2.279534371448998e+00
1	 1.443461511093458e+00	 7.463537137077204e-01	 1.402321922888490e+00
1	 1.428049932401566e+00	 7.754343238075454e-01	 7.885380399729485e-01
1	 1.412004591443889e+00	 8.042810663631879e-01	 3.840558325520504e-01
1	 1.395330233706523e+00	 8.328736632118814e-01	 1.332053517151799e-01
1	 1.378032455969274e+00	 8.611919357855460e-01	-2.101723856376925e-02
1	 1.360117705719598e+00	 8.892158492486488e-01	-1.367292244608338e-01
1	 1.255493266842989e+00	 8.208146300702533e-01	-1.509456284605380e+01
1	 1.238393794960052e+00	 8.463928216988620e-01	-1.291887268506794e+01
1	 1.220739054091186e+00	 8.716628716590645e-01	-1.051750251609482e+01
1	 1.202537323063470e+00	 8.966069298445739e-01	-7.895204635740415e+00
1	 1.183797638460694e+00	 9.212074419883817e-01	-5.057515970595363e+00
1	 1.164529781372711e+00	 9.454471895829715e-01	-2.010745761389060e+00
1	 1.144744261634678e+00	 9.693093290812137e-01	 1.238040892256572e+00
1	 1.124452299602615e+00	 9.927774301945512e-01	 4.681043570427966e+00
1	 1.103665805527006e+00	 1.015835513108607e+00	 8.309751064337263e+00
1	 1.082397356601088e+00	 1.038468084441313e+00	 1.211496977601124e+01
1	 1.060660171775000e+00	 1.060660171775000e+00	 1.608685582859360e+01
1	 1.265955710728375e+00	 8.276547519880928e-01	-1.282541528926783e+01
1	 1.248713743246684e+00	 8.534460952142418e-01	-1.061761421758103e+01
1	 1.230911879537568e+00	 8.789267289246001e-01	-8.199864165574578e+00
1	 1.212558467418335e+00	 9.040786542619943e-01	-5.573268823985144e+00
1	 1.193662618777638e+00	 9.288841706738568e-01	-2.739652906620714e+00
1	 1.174234196214413e+00	 9.533259161651070e-01	 2.984348418654150e-01
1	 1.154283797145776e+00	 9.773869068257236e-01	 3.537722364487934e+00
1	 1.133822735430714e+00	 1.001050575448077e+00	 6.974218782407708e+00
1	 1.112863020571797e+00	 1.024300809052669e+00	 1.060322267235410e+01
1	 1.091417334572207e+00	 1.047121985145915e+00	 1.441933411470226e+01
1	 1.069499006540000e+00	 1.069499006540000e+00	 1.841647046447037e+01
1	 1.276418154614268e+00	 8.344948739059324e-01	-1.073939586604133e+01
1	 1.259033691533726e+00	 8.604993687296211e-01	-8.475355391816008e+00
1	 1.241084704984276e+00	 8.861905861901355e-01	-6.016919282985225e+00
1	 1.222579611773449e+00	 9.115503786794145e-01	-3.361588083477749e+00
1	 1.203527599094765e+00	 9.365608993593316e-01	-5.075204547231937e-01
1	 1.183938611056242e+00	 9.612046427472428e-01	 2.546448650954702e+00
1	 1.163823332656955e+00	 9.854644845702333e-01	 5.800793134375231e+00
1	 1.143193171258858e+00	 1.009323720701601e+00	 9.255284357387495e+00
1	 1.122060235616609e+00	 1.032766104996730e+00	 1.290898333409399e+01
1	 1.100437312543332e+00	 1.055775885850517e+00	 1.676023659633684e+01
1	 1.078337841305000e+00	 1.078337841305000e+00	 2.080667579457590e+01
1	 1.286880598500666e+00	 8.413349958237717e-01	-8.832038036518421e+00
1	 1.269353639821178e+00	 8.675526422450008e-01	-6.488218167725313e+00
1	 1.251257530431308e+00	 8.934544434556709e-01	-3.965382661791657e+00
1	 1.232600756128812e+00	 9.190221030968349e-01	-1.257473266141858e+00
1	 1.213392579412076e+00	 9.442376280448065e-01	 1.640972375630297e+00
1	 1.193643025898199e+00	 9.690833693293788e-01	 4.734787538901702e+00
1	 1.173362868168216e+00	 9.935420623147427e-01	 8.028146145873109e+00
1	 1.152563607087049e+00	 1.017596865955126e+00	 1.152453565236416e+01
1	 1.131257450661441e+00	 1.041231400940791e+00	 1.522673331653860e+01
1	 1.109457290514461e+00	 1.064429786555119e+00	 1.913678604669954e+01
1	 1.087176676070000e+00	 1.087176676070000e+00	 2.325599399710635e+01
1	 1.297343042387568e+00	 8.481751177416111e-01	-7.099019342772927e+00
1	 1.279673588109040e+00	 8.746059157603802e-01	-4.652449603326459e+00
1	 1.261430355878664e+00	 9.007183007212065e-01	-2.042075069862031e+00
1	 1.242621900484424e+00	 9.264938275142550e-01	 7.416780293867813e-01
1	 1.223257559729569e+00	 9.519143567302811e-01	 3.707849123666283e+00
1	 1.203347440740282e+00	 9.769620959115145e-01	 6.864895253792734e+00
1	 1.182902403679558e+00	 1.001619640059252e+00	 1.022064553829258e+01
1	 1.161934042915285e+00	 1.025870011208651e+00	 1.378225849668908e+01
1	 1.140454665706294e+00	 1.049696696884853e+00	 1.755618255547628e+01
1	 1.118477268485596e+00	 1.073083687259721e+00	 2.154812003912955e+01
1	 1.096015510835000e+00	 1.096015510835000e+00	 2.576299492192809e+01
1	 1.307805486274977e+00	 8.550152396594507e-01	-5.536155645530608e+00
1	 1.289993536397313e+00	 8.816591892757599e-01	-2.964416850778933e+00
1	 1.271603181326345e+00	 9.079821579867418e-01	-2.439190104918785e-01
1	 1.252643044840285e+00	 9.339655519316756e-01	 2.638384927630004e+00
1	 1.233122540047246e+00	 9.595910854157564e-01	 5.695068575356386e+00
1	 1.213051855582494e+00	 9.848408224936503e-01	 8.938169343776710e+00
1	 1.192441939190983e+00	 1.009697217803762e+00	 1.237912779848677e+01
1	 1.171304478743568e+00	 1.034143156462176e+00	 1.602872957317491e+01
1	 1.149651880751167e+00	 1.058161992828914e+00	 1.989705026875066e+01
1	 1.127497246456736e+00	 1.081737587964323e+00	 2.399340374461978e+01
1	 1.104854345600000e+00	 1.104854345600000e+00	 2.832629418371199e+01
1	 1.318267930162891e+00	 8.618553615772905e-01	-4.139395635334140e+00
1	 1.300313484685995e+00	 8.887124627911391e-01	-1.420602390743790e+00
1	 1.281776006774351e+00	 9.152460152522772e-01	 1.432065314716305e+00
1	 1.262664189196394e+00	 9.414372763490958e-01	 4.435086580903127e+00
1	 1.242987520365106e+00	 9.672678141012309e-01	 7.604527332991276e+00
1	 1.222756270424832e+00	 9.927195490757862e-01	 1.095596299039443e+01
1	 1.201981474702488e+00	 1.017774795548272e+00	 1.450440285817169e+01
1	 1.180674914571895e+00	 1.042416301715701e+00	 1.826421678105273e+01
1	 1.158849095796060e+00	 1.066627288772976e+00	 2.224906458792385e+01
1	 1.136517224427881e+00	 1.090391488668925e+00	 2.647182883667074e+01
1	 1.113693180365000e+00	 1.113693180365000e+00	 3.094455134586921e+01
1	 1.328730374051309e+00	 8.686954834951300e-01	-2.904815603022709e+00
1	 1.310633432975088e+00	 8.957657363065190e-01	-1.759949189187449e-02
1	 1.291948832222681e+00	 9.225098725178128e-01	 2.988763852242895e+00
1	 1.272685333552753e+00	 9.489090007665163e-01	 6.134145317827544e+00
1	 1.252852500683149e+00	 9.749445427867061e-01	 9.438062263356603e+00
1	 1.232460685267298e+00	 1.000598275657922e+00	 1.291958675529613e+01
1	 1.211521010214075e+00	 1.025852373292782e+00	 1.659725513940190e+01
1	 1.190045350400269e+00	 1.050689446969226e+00	 2.048897958178281e+01
1	 1.168046310840973e+00	 1.075092584717037e+00	 2.461196220734377e+01
1	 1.145537202399030e+00	 1.099045389373528e+00	 2.898261244788461e+01
1	 1.122532015130000e+00	 1.122532015130000e+00	 3.361646819028600e+01
1	 1.339192817940233e+00	 8.755356054129694e-01	-1.828614455345383e+00
1	 1.320953381264590e+00	 9.028190098218986e-01	 1.247892116753148e+00
1	 1.302121657671336e+00	 9.297737297833478e-01	 4.428972362741514e+00
1	 1.282706477909361e+00	 9.563807251839367e-01	 7.737849644255519e+00
1	 1.262717481001375e+00	 9.826212714721810e-01	 1.119745283115178e+01
1	 1.242165100109891e+00	 1.008477002240058e+00	 1.483031024508099e+01
1	 1.221060545725744e+00	 1.033929951037291e+00	 1.865844455104375e+01
1	 1.199415786228689e+00	 1.058962592222751e+00	 2.270326932865494e+01
1	 1.177243525885908e+00	 1.083557880661099e+00	 2.698548804965990e+01
1	 1.154557180370186e+00	 1.107699290078130e+00	 3.152499617547055e+01
1	 1.131370849895000e+00	 1.131370849895000e+00	 3.634078706816442e+01
1	 1.349655261829663e+00	 8.823757273308089e-01	-9.071089624067312e-01
1	 1.331273329554503e+00	 9.098722833372782e-01	 2.379070372184806e+00
1	 1.312294483120316e+00	 9.370375870488835e-01	 5.755399916614170e+00
1	 1.292727622266217e+00	 9.638524496013569e-01	 9.248417104618571e+00
1	 1.272582461319784e+00	 9.902980001576561e-01	 1.288442332387678e+01
1	 1.251869514952611e+00	 1.016355728822194e+00	 1.668936369870164e+01
1	 1.230600081237495e+00	 1.042007528781801e+00	 2.068870743889812e+01
1	 1.208786222057155e+00	 1.067235737476276e+00	 2.490732958105775e+01
1	 1.186440740930863e+00	 1.092023176605160e+00	 2.936939494689706e+01
1	 1.163577158341345e+00	 1.116353190782732e+00	 3.409824513300301e+01
1	 1.140209684660000e+00	 1.140209684660000e+00	 3.911628932756866e+01
1	 1.360117705719598e+00	 8.892158492486488e-01	-1.367292244608338e-01
1	 1.341593277844827e+00	 9.169255568526578e-01	 3.379034813336738e+00
1	 1.322467308569620e+00	 9.443014443144191e-01	 6.970672228250831e+00
1	 1.302748766623323e+00	 9.713241740187775e-01	 1.066799701121235e+01
1	 1.282447441638377e+00	 9.979747288431313e-01	 1.450064497403206e+01
1	 1.261573929795459e+00	 1.024234455404330e+00	 1.849793950160523e+01
1	 1.240139616749326e+00	 1.050085106526311e+00	 2.268875749197188e+01
1	 1.218156657885667e+00	 1.075508882729801e+00	 2.710139640424608e+01
1	 1.195637955975838e+00	 1.100488472549222e+00	 3.176344333624791e+01
1	 1.172597136312511e+00	 1.125007091487334e+00	 3.670164704594615e+01
1	 1.149048519425000e+00	 1.149048519425000e+00	 4.194179381354472e+01
1	 1.060660171775000e+00	 1.060660171775000e+00	 1.608685582859360e+01
1	 1.038468084441312e+00	 1.082397356601088e+00	 1.936908386573203e+01
1	 1.015835513108607e+00	 1.103665805527006e+00	 2.234978502065949e+01
1	 9.927774301945514e-01	 1.124452299602615e+00	 2.499071757153781e+01
1	 9.693093290812139e-01	 1.144744261634678e+00	 2.725502792278133e+01
1	 9.454471895829717e-01	 1.164529781372711e+00	 2.910739964623158e+01
1	 9.212074419883821e-01	 1.183797638460694e+00	 3.051419366883027e+01
1	 8.966069298445744e-01	 1.202537323063470e+00	 3.144357872715374e+01
1	 8.716628716590653e-01	 1.220739054091185e+00	 3.186565129695769e+01
1	 8.463928216988629e-01	 1.238393794960052e+00	 3.175254430087281e+01
1	 8.208146300702533e-01	 1.255493266842989e+00	 3.107852399831135e+01
1	 1.069499006540000e+00	 1.069499006540000e+00	 1.841647046447037e+01
1	 1.047121985145914e+00	 1.091417334572208e+00	 2.153138033263131e+01
1	 1.024300809052668e+00	 1.112863020571797e+00	 2.434777456947772e+01
1	 1.001050575448077e+00	 1.133822735430714e+00	 2.682787791296338e+01
1	 9.773869068257237e-01	 1.154283797145776e+00	 2.893530428961303e+01
1	 9.533259161651076e-01	 1.174234196214413e+00	 3.063520404572717e+01
1	 9.288841706738570e-01	 1.193662618777638e+00	 3.189440231989220e+01
1	 9.040786542619949e-01	 1.212558467418335e+00	 3.268152768905615e+01
1	 8.789267289246008e-01	 1.230911879537568e+00	 3.296713030815569e+01
1	 8.534460952142426e-01	 1.248713743246684e+00	 3.272378885804636e+01
1	 8.276547519880928e-01	 1.265955710728375e+00	 3.192620571711375e+01
1	 1.078337841305000e+00	 1.078337841305000e+00	 2.080667579457590e+01
1	 1.055775885850517e+00	 1.100437312543332e+00	 2.375851315932023e+01
1	 1.032766104996730e+00	 1.122060235616609e+00	 2.641484944118293e+01
1	 1.009323720701601e+00	 1.143193171258858e+00	 2.873836764365459e+01
1	 9.854644845702336e-01	 1.163823332656955e+00	 3.069314105005768e+01
1	 9.612046427472433e-01	 1.183938611056242e+00	 3.224477867379017e+01
1	 9.365608993593318e-01	 1.203527599094765e+00	 3.336056184426778e+01
1	 9.115503786794150e-01	 1.222579611773449e+00	 3.400957107255903e+01
1	 8.861905861901361e-01	 1.241084704984275e+00	 3.416280242834902e+01
1	 8.604993687296220e-01	 1.259033691533725e+00	 3.379327275445409e+01
1	 8.344948739059326e-01	 1.276418154614268e+00	 3.287611314540290e+01
1	 1.087176676070000e+00	 1.087176676070000e+00	 2.325599399710635e+01
1	 1.064429786555119e+00	 1.109457290514461e+00	 2.604890097117481e+01
1	 1.041231400940791e+00	 1.131257450661441e+00	 2.854932462790448e+01
1	 1.017596865955126e+00	 1.152563607087049e+00	 3.072039824192501e+01
1	 9.935420623147430e-01	 1.173362868168216e+00	 3.252664648719919e+01
1	 9.690833693293790e-01	 1.193643025898198e+00	 3.393412913460186e+01
1	 9.442376280448070e-01	 1.213392579412075e+00	 3.491057587919190e+01
1	 9.190221030968353e-01	 1.232600756128811e+00	 3.542551145274015e+01
1	 8.934544434556715e-01	 1.251257530431307e+00	 3.545037026462855e+01
1	 8.675526422450017e-01	 1.269353639821178e+00	 3.495859990864138e+01
1	 8.413349958237718e-01	 1.286880598500666e+00	 3.392575297317658e+01
1	 1.096015510835000e+00	 1.096015510835000e+00	 2.576299492192809e+01
1	 1.073083687259721e+00	 1.118477268485596e+00	 2.840101340565563e+01
1	 1.049696696884853e+00	 1.140454665706294e+00	 3.074956947686307e+01
1	 1.025870011208651e+00	 1.161934042915285e+00	 3.277223888033536e+01
1	 1.001619640059253e+00	 1.182902403679558e+00	 3.443398990724827e+01
1	 9.769620959115149e-01	 1.203347440740282e+00	 3.570132536769125e+01
1	 9.519143567302818e-01	 1.223257559729569e+00	 3.654241568650214e+01
1	 9.264938275142555e-01	 1.242621900484423e+00	 3.692722228935246e+01
1	 9.007183007212070e-01	 1.261430355878663e+00	 3.682761053353210e+01
1	 8.746059157603812e-01	 1.279673588109040e+00	 3.621745153210174e+01
1	 8.481751177416113e-01	 1.297343042387569e+00	 3.507271231978791e+01
1	 1.104854345600000e+00	 1.104854345600000e+00	 2.832629418371199e+01
1	 1.081737587964323e+00	 1.127497246456736e+00	 3.081336907182450e+01
1	 1.058161992828914e+00	 1.149651880751166e+00	 3.301400551616860e+01
1	 1.034143156462176e+00	 1.171304478743567e+00	 3.489221411792483e+01
1	 1.009697217803762e+00	 1.192441939190982e+00	 3.641339919861444e+01
1	 9.848408224936508e-01	 1.213051855582493e+00	 3.754449907452239e+01
1	 9.595910854157568e-01	 1.233122540047245e+00	 3.825411744765864e+01
1	 9.339655519316761e-01	 1.252643044840284e+00	 3.851264509143537e+01
1	 9.079821579867426e-01	 1.271603181326344e+00	 3.829237109666786e+01
1	 8.816591892757606e-01	 1.289993536397312e+00	 3.756758303756055e+01
1	 8.550152396594509e-01	 1.307805486274977e+00	 3.631465551676836e+01
1	 1.113693180365000e+00	 1.113693180365000e+00	 3.094455134586921e+01
1	 1.090391488668925e+00	 1.136517224427881e+00	 3.328453360702640e+01
1	 1.066627288772976e+00	 1.158849095796060e+00	 3.534110438414949e+01
1	 1.042416301715701e+00	 1.180674914571895e+00	 3.707870170233331e+01
1	 1.017774795548272e+00	 1.201981474702488e+00	 3.846315850721972e+01
1	 9.927195490757867e-01	 1.222756270424832e+00	 3.946184126762359e+01
1	 9.672678141012316e-01	 1.242987520365105e+00	 4.004377968756511e+01
1	 9.414372763490964e-01	 1.262664189196394e+00	 4.017978671694711e+01
1	 9.152460152522779e-01	 1.281776006774350e+00	 3.984256813749744e+01
1	 8.887124627911401e-01	 1.300313484685995e+00	 3.900682109448141e+01
1	 8.618553615772904e-01	 1.318267930162891e+00	 3.764932104385530e+01
1	 1.122532015130000e+00	 1.122532015130000e+00	 3.361646819028600e+01
1	 1.099045389373527e+00	 1.145537202399030e+00	 3.581311782538269e+01
1	 1.075092584717037e+00	 1.168046310840974e+00	 3.772938585650864e+01
1	 1.050689446969226e+00	 1.190045350400269e+00	 3.933013047576353e+01
1	 1.025852373292782e+00	 1.211521010214075e+00	 4.058160602163225e+01
1	 1.000598275657922e+00	 1.232460685267297e+00	 4.145159993550550e+01
1	 9.749445427867065e-01	 1.252852500683148e+00	 4.190956082010472e+01
1	 9.489090007665166e-01	 1.272685333552752e+00	 4.192671679997325e+01
1	 9.225098725178134e-01	 1.291948832222681e+00	 4.147618347149763e+01
1	 8.957657363065197e-01	 1.310633432975087e+00	 4.053306082368331e+01
1	 8.686954834951300e-01	 1.328730374051309e+00	 3.907451860976917e+01
1	 1.131370849895000e+00	 1.131370849895000e+00	 3.634078706816442e+01
1	 1.107699290078130e+00	 1.154557180370186e+00	 3.839777595307363e+01
1	 1.083557880661099e+00	 1.177243525885908e+00	 4.017741596595888e+01
1	 1.058962592222751e+00	 1.199415786228689e+00	 4.164497837909830e+01
1	 1.033929951037292e+00	 1.221060545725744e+00	 4.276713186202843e+01
1	 1.008477002240058e+00	 1.242165100109890e+00	 4.351207781703765e+01
1	 9.826212714721815e-01	 1.262717481001375e+00	 4.384967680872683e+01
1	 9.563807251839371e-01	 1.282706477909361e+00	 4.375156529853291e+01
1	 9.297737297833488e-01	 1.302121657671336e+00	 4.319126198241253e+01
1	 9.028190098218994e-01	 1.320953381264590e+00	 4.214426312345746e+01
1	 8.755356054129694e-01	 1.339192817940233e+00	 4.058812636983253e+01
1	 1.140209684660000e+00	 1.140209684660000e+00	 3.911628932756866e+01
1	 1.116353190782732e+00	 1.163577158341346e+00	 4.103720394569934e+01
1	 1.092023176605160e+00	 1.186440740930862e+00	 4.268380520931392e+01
1	 1.067235737476276e+00	 1.208786222057155e+00	 4.402177054885243e+01
1	 1.042007528781801e+00	 1.230600081237494e+00	 4.501817606733673e+01
1	 1.016355728822194e+00	 1.251869514952611e+00	 4.564163027934157e+01
1	 9.902980001576563e-01	 1.272582461319784e+00	 4.586239893584275e+01
1	 9.638524496013575e-01	 1.292727622266217e+00	 4.565252015644256e+01
1	 9.370375870488843e-01	 1.312294483120315e+00	 4.498590917774447e+01
1	 9.098722833372790e-01	 1.331273329554503e+00	 4.383845212005561e+01
1	 8.823757273308089e-01	 1.349655261829663e+00	 4.218808827300044e+01
1	 1.149048519425000e+00	 1.149048519425000e+00	 4.194179381354472e+01
1	 1.125007091487334e+00	 1.172597136312511e+00	 4.373013788330353e+01
1	 1.100488472549222e+00	 1.195637955975838e+00	 4.524720683733224e+01
1	 1.075508882729801e+00	 1.218156657885667e+00	 4.645907750195521e+01
1	 1.050085106526311e+00	 1.240139616749326e+00	 4.733322667528886e+01
1	 1.024234455404330e+00	 1.261573929795459e+00	 4.783866329362674e+01
1	 9.979747288431317e-01	 1.282447441638376e+00	 4.794605167517288e+01
1	 9.713241740187781e-01	 1.302748766623323e+00	 4.762782507309380e+01
1	 9.443014443144199e-01	 1.322467308569620e+00	 4.685828885707220e+01
1	 9.169255568526588e-01	 1.341593277844826e+00	 4.561371273584420e+01
1	 8.892158492486486e-01	 1.360117705719598e+00	 4.387241153133684e+01
1	 8.208146300702533e-01	 1.255493266842989e+00	 3.107852399831135e+01
1	 7.949464022641402e-01	 1.272029959379205e+00	 4.422796744207826e+01
1	 7.688064583548604e-01	 1.287997138826982e+00	 5.590859150018942e+01
1	 7.424132920367567e-01	 1.303388853659439e+00	 6.616113366446919e+01
1	 7.157855296803717e-01	 1.318199937618296e+00	 7.502926271040171e+01
1	 6.889418895898042e-01	 1.332426010254849e+00	 8.255934758578061e+01
1	 6.619011416355685e-01	 1.346063475001740e+00	 8.880021876946424e+01
1	 6.346820674319077e-01	 1.359109514832477e+00	 9.380292379826227e+01
1	 6.073034212204453e-01	 1.371562085578352e+00	 9.762047865608986e+01
1	 5.797838916139548e-01	 1.383419906984210e+00	 1.003076166993520e+02
1	 5.521420643450261e-01	 1.394682451595397e+00	 1.019205367568717e+02
1	 8.276547519880928e-01	 1.265955710728375e+00	 3.192620571711375e+01
1	 8.015709556162803e-01	 1.282630209035559e+00	 4.534157517773848e+01
1	 7.752131788405626e-01	 1.298730448312043e+00	 5.729176210875083e+01
1	 7.486000694693997e-01	 1.314250427434890e+00	 6.780978903129099e+01
1	 7.217504090930887e-01	 1.329184937093667e+00	 7.693174932504536e+01
1	 6.946830720015958e-01	 1.343529560335928e+00	 8.469660494831859e+01
1	 6.674169844810209e-01	 1.357280670622919e+00	 9.114597516898286e+01
1	 6.399710846590586e-01	 1.370435427452928e+00	 9.632391786031727e+01
1	 6.123642830626780e-01	 1.382991769622504e+00	 1.002767049287170e+02
1	 5.846154240430909e-01	 1.394948406207696e+00	 1.030525934376583e+02
1	 5.567432482139901e-01	 1.406304805358394e+00	 1.047015939747468e+02
1	 8.344948739059326e-01	 1.276418154614268e+00	 3.287611314540290e+01
1	 8.081955089684212e-01	 1.293230458692502e+00	 4.650604894170034e+01
1	 7.816198993262644e-01	 1.309463757797747e+00	 5.867450167425454e+01
1	 7.547868469020430e-01	 1.325112001211007e+00	 6.940687477137843e+01
1	 7.277152885058064e-01	 1.340169936569694e+00	 7.873178057088339e+01
1	 7.004242544133874e-01	 1.354633110417626e+00	 8.668086656627619e+01
1	 6.729328273264735e-01	 1.368497866244649e+00	 9.328863121888293e+01
1	 6.452601018862094e-01	 1.381761340073830e+00	 9.859223074736789e+01
1	 6.174251449049104e-01	 1.394421453666977e+00	 1.026312783357583e+02
1	 5.894469564722263e-01	 1.406476905431347e+00	 1.054476372159193e+02
1	 5.613444320829541e-01	 1.417927159121370e+00	 1.070852090807899e+02
1	 8.413349958237718e-01	 1.286880598500666e+00	 3.392575297317658e+01
1	 8.148200623205618e-01	 1.303830708350034e+00	 4.772014809911531e+01
1	 7.880266198119669e-01	 1.320197067284093e+00	 6.005682070993747e+01
1	 7.609736243346860e-01	 1.335973574987789e+00	 7.095364868050194e+01
1	 7.336801679185236e-01	 1.351154936046379e+00	 8.043185535935143e+01
1	 7.061654368251792e-01	 1.365736660499941e+00	 8.851586404318284e+01
1	 6.784486701719261e-01	 1.379715061866928e+00	 9.523314058623137e+01
1	 6.505491191133607e-01	 1.393087252695183e+00	 1.006140254149020e+02
1	 6.224860067471428e-01	 1.405851137711774e+00	 1.046915562641702e+02
1	 5.942784889013624e-01	 1.418005404655163e+00	 1.075012829843570e+02
1	 5.659456159519182e-01	 1.429549512884325e+00	 1.090810757849993e+02
1	 8.481751177416113e-01	 1.297343042387569e+00	 3.507271231978791e+01
1	 8.214446156727022e-01	 1.314430958008157e+00	 4.898267203561348e+01
1	 7.944333402976689e-01	 1.330930376771083e+00	 6.143872938990024e+01
1	 7.671604017673291e-01	 1.346835148765235e+00	 7.245132798037513e+01
1	 7.396450473312413e-01	 1.362139935523721e+00	 8.203439199183755e+01
1	 7.119066192369707e-01	 1.376840210582875e+00	 9.020520860826068e+01
1	 6.839645130173785e-01	 1.390932257489756e+00	 9.698429714238270e+01
1	 6.558381363405112e-01	 1.404413165316985e+00	 1.023952660133894e+02
1	 6.275468685893755e-01	 1.417280821756893e+00	 1.064646587658436e+02
1	 5.991100213304978e-01	 1.429533903879145e+00	 1.092217903722127e+02
1	 5.705467998208821e-01	 1.441171866647260e+00	 1.106985750970456e+02
1	 8.550152396594509e-01	 1.307805486274977e+00	 3.631465551676836e+01
1	 8.280691690248427e-01	 1.325031207666869e+00	 5.029245855648436e+01
1	 8.008400607833710e-01	 1.341663686258716e+00	 6.282023756267186e+01
1	 7.733471791999721e-01	 1.357696722543348e+00	 7.390109094161581e+01
1	 7.456099267439583e-01	 1.373124935001719e+00	 8.354173138408515e+01
1	 7.176478016487626e-01	 1.387943760666427e+00	 9.175239593139496e+01
1	 6.894803558628312e-01	 1.402149453113133e+00	 9.854674135480624e+01
1	 6.611271535676622e-01	 1.415739077939239e+00	 1.039417258404823e+02
1	 6.326077304316081e-01	 1.428710505802333e+00	 1.079574780510038e+02
1	 6.039415537596337e-01	 1.441062403103291e+00	 1.106171547005884e+02
1	 5.751479836898462e-01	 1.452794220410174e+00	 1.119467878342848e+02
1	 8.618553615772904e-01	 1.318267930162891e+00	 3.764932104385530e+01
1	 8.346937223769834e-01	 1.335631457326171e+00	 5.164838236208803e+01
1	 8.072467812690728e-01	 1.352396995746991e+00	 6.420135476413034e+01
1	 7.795339566326152e-01	 1.368558296322125e+00	 7.530407842942654e+01
1	 7.515748061566757e-01	 1.384109934480375e+00	 8.495614013705261e+01
1	 7.233889840605542e-01	 1.399047310750597e+00	 9.316081070882360e+01
1	 6.949961987082838e-01	 1.413366648737060e+00	 9.992496637454261e+01
1	 6.664161707948132e-01	 1.427064990561942e+00	 1.052589949145409e+02
1	 6.376685922738407e-01	 1.440140189848097e+00	 1.091766875295508e+02
1	 6.087730861887695e-01	 1.452590902327603e+00	 1.116951174708645e+02
1	 5.797491675588102e-01	 1.464416574173068e+00	 1.128345065341508e+02
1	 8.686954834951300e-01	 1.328730374051309e+00	 3.907451860976917e+01
1	 8.413182757291239e-01	 1.346231706986062e+00	 5.304935359529154e+01
1	 8.136535017547751e-01	 1.363130305235910e+00	 6.558209022981075e+01
1	 7.857207340652586e-01	 1.379419870101568e+00	 7.666139537624731e+01
1	 7.575396855693932e-01	 1.395094933959687e+00	 8.627981346269118e+01
1	 7.291301664723457e-01	 1.410150860835385e+00	 9.443373103217833e+01
1	 7.005120415537363e-01	 1.424583844361535e+00	 1.011233238360619e+02
1	 6.717051880219642e-01	 1.438390903185097e+00	 1.063524871903519e+02
1	 6.427294541160733e-01	 1.451569873894183e+00	 1.101287504252414e+02
1	 6.136046186179049e-01	 1.464119401552080e+00	 1.124631763576032e+02
1	 5.843503514277741e-01	 1.476038927935941e+00	 1.133702468037613e+02
1	 8.755356054129694e-01	 1.339192817940233e+00	 4.058812636983253e+01
1	 8.479428290812644e-01	 1.356831956646543e+00	 5.449431645699818e+01
1	 8.200602222404771e-01	 1.373863614725471e+00	 6.696245290663700e+01
1	 7.919075114979014e-01	 1.390281443881676e+00	 7.797411218537874e+01
1	 7.635045649821107e-01	 1.406079933439657e+00	 8.751487797257738e+01
1	 7.348713488841375e-01	 1.421254410920791e+00	 9.557433255272549e+01
1	 7.060278843991887e-01	 1.435801039986560e+00	 1.021460293852574e+02
1	 6.769942052491154e-01	 1.449716815808702e+00	 1.072274474366141e+02
1	 6.477903159583056e-01	 1.462999557940591e+00	 1.108199279860881e+02
1	 6.184361510470409e-01	 1.475647900776722e+00	 1.129285947330317e+02
1	 5.889515352967382e-01	 1.487661281698794e+00	 1.135622581375059e+02
1	 8.823757273308089e-01	 1.349655261829663e+00	 4.218808827300044e+01
1	 8.545673824334050e-01	 1.367432206307614e+00	 5.598224788606731e+01
1	 8.264669427261790e-01	 1.384596924215675e+00	 6.834245146411021e+01
1	 7.980942889305445e-01	 1.401143017662449e+00	 7.924326606932144e+01
1	 7.694694443948279e-01	 1.417064932920282e+00	 8.866339433684446e+01
1	 7.406125312959290e-01	 1.432357961006815e+00	 9.658569245192527e+01
1	 7.115437272446413e-01	 1.447018235612134e+00	 1.029971679503180e+02
1	 6.822832224762662e-01	 1.461042728432757e+00	 1.078889577935371e+02
1	 6.528511778005384e-01	 1.474429241987322e+00	 1.112562873128755e+02
1	 6.232676834761766e-01	 1.487176400001529e+00	 1.130984107485306e+02
1	 5.935527191657022e-01	 1.499283635461626e+00	 1.134185342314960e+02
1	 8.892158492486486e-01	 1.360117705719598e+00	 4.387241153133684e+01
1	 8.611919357855461e-01	 1.378032455969275e+00	 5.751215630016206e+01
1	 8.328736632118816e-01	 1.395330233706523e+00	 6.972209430497693e+01
1	 8.042810663631879e-01	 1.412004591443889e+00	 8.046986232634669e+01
1	 7.754343238075456e-01	 1.428049932401566e+00	 8.972735982039080e+01
1	 7.463537137077207e-01	 1.443461511093458e+00	 9.747079322873040e+01
1	 7.170595700900940e-01	 1.458235431238257e+00	 1.036806987693330e+02
1	 6.875722397034173e-01	 1.472368641057263e+00	 1.083419440277831e+02
1	 6.579120396427711e-01	 1.485858926034374e+00	 1.114437088263615e+02
1	 6.280992159053126e-01	 1.498704899226502e+00	 1.129794459969728e+02
1	 5.981539030346663e-01	 1.510905989224438e+00	 1.129468228219565e+02
1	 5.521420643450261e-01	 1.394682451595397e+00	 1.019205367568717e+02
1	 5.243963861554752e-01	 1.405349931578255e+00	 9.562411284896967e+01
1	 4.965651299484972e-01	 1.415423283584646e+00	 8.770981194850246e+01
1	 4.686663613186524e-01	 1.424904151779574e+00	 7.811665630202563e+01
1	 4.407179065634718e-01	 1.433794869157430e+00	 6.679212383602325e+01
1	 4.127373222644204e-01	 1.442098437276991e+00	 5.369210489067773e+01
1	 3.847418665163297e-01	 1.449818504550261e+00	 3.878081777557565e+01
1	 3.567484718715399e-01	 1.456959343223164e+00	 2.203068530143187e+01
1	 3.287737200529779e-01	 1.463525825188096e+00	 3.422174650520889e+00
1	 3.008338184785227e-01	 1.469523396769290e+00	-1.705639687554537e+01
1	 2.729445786273588e-01	 1.474958052621828e+00	-3.940908754902673e+01
1	 5.567432482139901e-01	 1.406304805358394e+00	 1.047015939747468e+02
1	 5.287663560399445e-01	 1.417061181008836e+00	 9.747002031761323e+01
1	 5.007031726982477e-01	 1.427218477616163e+00	 8.859776438030499e+01
1	 4.725719143300822e-01	 1.436778353046758e+00	 7.803834588539357e+01
1	 4.443905557854591e-01	 1.445743159736631e+00	 6.575341701997351e+01
1	 4.161767999506898e-01	 1.454115924257551e+00	 5.171267273753483e+01
1	 3.879480487380641e-01	 1.461900325424960e+00	 3.589372326496166e+01
1	 3.597213758045257e-01	 1.469100671086833e+00	 1.828193110580938e+01
1	 3.315135010540280e-01	 1.475721873734670e+00	-1.129784993489423e+00
1	 3.033407669662659e-01	 1.481769425078743e+00	-2.234117650432389e+01
1	 2.752191167827523e-01	 1.487249369729599e+00	-4.534491928179136e+01
1	 5.613444320829541e-01	 1.417927159121370e+00	 1.070852090807899e+02
1	 5.331363259244141e-01	 1.428772430439212e+00	 9.901961923665878e+01
1	 5.048412154479984e-01	 1.439013671647323e+00	 8.929031771672101e+01
1	 4.764774673415119e-01	 1.448652554313463e+00	 7.786514615638562e+01
1	 4.480632050074462e-01	 1.457691450315262e+00	 6.471976002528082e+01
1	 4.196162776369592e-01	 1.466133411237483e+00	 4.983749294619423e+01
1	 3.911542309597985e-01	 1.473982146299001e+00	 3.320918656558806e+01
1	 3.626942797375119e-01	 1.481241998949842e+00	 1.483298840283186e+01
1	 3.342532820550780e-01	 1.487917922280614e+00	-5.285879751927515e+00
1	 3.058477154540093e-01	 1.494015453387626e+00	-2.713538020999065e+01
1	 2.774936549381459e-01	 1.499540686836884e+00	-5.069694176475073e+01
1	 5.659456159519182e-01	 1.429549512884325e+00	 1.090810757849993e+02
1	 5.375062958088834e-01	 1.440483679869384e+00	 1.002801366438456e+02
1	 5.089792581977491e-01	 1.450808865678127e+00	 8.979223778928721e+01
1	 4.803830203529417e-01	 1.460526755579689e+00	 7.759937148842346e+01
1	 4.517358542294334e-01	 1.469639740893325e+00	 6.369102968552862e+01
1	 4.230557553232287e-01	 1.478150898216786e+00	 4.806402277609513e+01
1	 3.943604131815328e-01	 1.486063967172383e+00	 3.072226724301709e+01
1	 3.656671836704979e-01	 1.493383326812194e+00	 1.167654471706268e+01
1	 3.369930630561280e-01	 1.500113970825930e+00	-9.055764865904369e+00
1	 3.083546639417524e-01	 1.506261481695937e+00	-3.145097325896177e+01
1	 2.797681930935394e-01	 1.511832003943683e+00	-5.547939424790781e+01
1	 5.705467998208821e-01	 1.441171866647260e+00	 1.106985750970456e+02
1	 5.418762656933529e-01	 1.452194929299350e+00	 1.012585664466589e+02
1	 5.131173009474997e-01	 1.462604059708573e+00	 9.010813669303801e+01
1	 4.842885733643716e-01	 1.472400956845438e+00	 7.724326159771897e+01
1	 4.554085034514207e-01	 1.481588031470819e+00	 6.266710680741041e+01
1	 4.264952330094980e-01	 1.490168385195461e+00	 4.638980151056529e+01
1	 3.975665954032672e-01	 1.498145788045108e+00	 2.842818423166494e+01
1	 3.686400876034840e-01	 1.505524654673887e+00	 8.805523459369891e+00
1	 3.397328440571781e-01	 1.512310019370616e+00	-1.244878411714094e+01
1	 3.108616124294957e-01	 1.518507510003677e+00	-3.529953494131932e+01
1	 2.820427312489330e-01	 1.524123321049998e+00	-5.970605665062149e+01
1	 5.751479836898462e-01	 1.452794220410174e+00	 1.119467878342848e+02
1	 5.462462355778224e-01	 1.463906178729113e+00	 1.019616787475429e+02
1	 5.172553436972506e-01	 1.474399253738663e+00	 9.024247893596558e+01
1	 4.881941263758014e-01	 1.484275158110708e+00	 7.679898452956598e+01
1	 4.590811526734078e-01	 1.493536322047745e+00	 6.164787601180575e+01
1	 4.299347106957674e-01	 1.502185872173508e+00	 4.481244717586656e+01
1	 4.007727776250016e-01	 1.510227608917174e+00	 2.632230946004596e+01
1	 3.716129915364700e-01	 1.517665982534923e+00	 6.213074491473444e+00
1	 3.424726250582280e-01	 1.524506067914673e+00	-1.547398228634349e+01
1	 3.133685609172390e-01	 1.530753538310846e+00	-3.869227400986329e+01
1	 2.843172694043264e-01	 1.536414638155826e+00	-6.339026793483292e+01
1	 5.797491675588102e-01	 1.464416574173068e+00	 1.128345065341508e+02
1	 5.506162054622918e-01	 1.475617428158671e+00	 1.023960287250501e+02
1	 5.213933864470012e-01	 1.486194447768394e+00	 9.019958729564732e+01
1	 4.920996793872311e-01	 1.496149359375500e+00	 7.626863950242222e+01
1	 4.627538018953951e-01	 1.505484612624103e+00	 6.063322558242345e+01
1	 4.333741883820368e-01	 1.514203359150925e+00	 4.332965341647495e+01
1	 4.039789598467358e-01	 1.522309429788582e+00	 2.440016177957928e+01
1	 3.745858954694560e-01	 1.529807310395299e+00	 3.892565139800432e+00
1	 3.452124060592781e-01	 1.536702116458102e+00	-1.814011701832381e+01
1	 3.158755094049823e-01	 1.542999566617443e+00	-4.164004338397289e+01
1	 2.865918075597200e-01	 1.548705955261170e+00	-6.654494360337557e+01
1	 5.843503514277741e-01	 1.476038927935941e+00	 1.133702468037613e+02
1	 5.549861753467613e-01	 1.487328677588024e+00	 1.025679650954141e+02
1	 5.255314291967518e-01	 1.497989641797769e+00	 8.998364839918503e+01
1	 4.960052323986610e-01	 1.508023560639814e+00	 7.565425961762918e+01
1	 4.664264511173823e-01	 1.517432903199891e+00	 5.962304732159570e+01
1	 4.368136660683061e-01	 1.526220846127715e+00	 4.193918651798546e+01
1	 4.071851420684702e-01	 1.534391250659332e+00	 2.265740118022210e+01
1	 3.775587994024420e-01	 1.541948638255018e+00	 1.837571633882536e+00
1	 3.479521870603281e-01	 1.548898165000901e+00	-2.045567012656105e+01
1	 3.183824578927254e-01	 1.555245594923469e+00	-4.415335415879567e+01
1	 2.888663457151135e-01	 1.560997272366028e+00	-6.918259237159396e+01
1	 5.889515352967382e-01	 1.487661281698794e+00	 1.135622581375059e+02
1	 5.593561452312308e-01	 1.499039927017173e+00	 1.024836381774841e+02
1	 5.296694719465024e-01	 1.509784835826787e+00	 8.959871804158196e+01
1	 4.999107854100908e-01	 1.519897761903649e+00	 7.495781444211019e+01
1	 4.700991003393695e-01	 1.529381193775111e+00	 5.861723641283173e+01
1	 4.402531437545756e-01	 1.538238333103876e+00	 4.063888256956838e+01
1	 4.103913242902046e-01	 1.546473071529423e+00	 2.108982327724551e+01
1	 3.805317033354282e-01	 1.554089966114078e+00	 4.187094607857755e-02
1	 3.506919680613781e-01	 1.561094213543070e+00	-2.242885836786404e+01
1	 3.208894063804688e-01	 1.567491623228924e+00	-4.624238895775650e+01
1	 2.911408838705071e-01	 1.573288589470401e+00	-7.131533205747867e+01
1	 5.935527191657022e-01	 1.499283635461626e+00	 1.134185342314960e+02
1	 5.637261151157001e-01	 1.510751176446117e+00	 1.021490075825450e+02
1	 5.338075146962531e-01	 1.521580029855448e+00	 8.904872625675378e+01
1	 5.038163384215206e-01	 1.531771963167005e+00	 7.418121247094541e+01
1	 4.737717495613566e-01	 1.541329484349762e+00	 5.761569128976431e+01
1	 4.436926214408450e-01	 1.550255820079409e+00	 3.942664475840463e+01
1	 4.135975065119389e-01	 1.558554892398857e+00	 1.969335405443948e+01
1	 3.835046072684140e-01	 1.566231293972480e+00	-1.500566989155666e+00
1	 3.534317490624282e-01	 1.573290262084611e+00	-2.406764371588486e+01
1	 3.233963548682120e-01	 1.579737651533807e+00	-4.791701466402071e+01
1	 2.934154220259006e-01	 1.585579906574289e+00	-7.295490473272817e+01
1	 5.981539030346663e-01	 1.510905989224438e+00	 1.129468228219565e+02
1	 5.680960850001699e-01	 1.522462425874857e+00	 1.015698495492249e+02
1	 5.379455574460040e-01	 1.533375223883753e+00	 8.833748215449648e+01
1	 5.077218914329504e-01	 1.543646164429884e+00	 7.332630347628997e+01
1	 4.774443987833440e-01	 1.553277774923845e+00	 5.661831351114576e+01
1	 4.471320991271144e-01	 1.562273307054313e+00	 3.830044078899279e+01
1	 4.168036887336734e-01	 1.570636713267633e+00	 1.846404484993925e+01
1	 3.864775112014002e-01	 1.578372621830225e+00	-2.795586696885837e+00
1	 3.561715300634782e-01	 1.585486310625523e+00	-2.537974316047163e+01
1	 3.259033033559552e-01	 1.591983679838119e+00	-4.918679456434857e+01
1	 2.956899601812942e-01	 1.597871223677692e+00	-7.411269117452797e+01
1	 2.729445786273588e-01	 1.474958052621828e+00	-3.940908754902673e+01
1	 2.451213962665869e-01	 1.479836308883957e+00	-5.242610917547356e+01
1	 2.173792335500309e-01	 1.484165175720690e+00	-6.461438441337522e+01
1	 1.897326029848293e-01	 1.487952129393421e+00	-7.594049734041093e+01
1	 1.621955532518215e-01	 1.491205083986602e+00	-8.637612055302114e+01
1	 1.347816568620313e-01	 1.493932362918601e+00	-9.589788292230091e+01
1	 1.075039996182768e-01	 1.496142670358577e+00	-1.044872202877149e+02
1	 8.037517184413129e-02	 1.497845062665731e+00	-1.121302109157181e+02
1	 5.340726133517893e-02	 1.499048919961328e+00	-1.188173975510299e+02
1	 2.661184798093990e-02	 1.499763917937484e+00	-1.245435978727376e+02
1	 0.000000000000000e+00	 1.500000000000000e+00	-1.293077051368934e+02
1	 2.752191167827523e-01	 1.487249369729599e+00	-4.534491928179136e+01
1	 2.471640745687116e-01	 1.492168278126741e+00	-5.814389952456212e+01
1	 2.191907271626458e-01	 1.496533218853332e+00	-6.965813727928837e+01
1	 1.913137080092519e-01	 1.500351730472944e+00	-7.987383391732210e+01
1	 1.635471828617090e-01	 1.503631793020732e+00	-8.878306475788750e+01
1	 1.359048373352982e-01	 1.506381799276883e+00	-9.638353860580824e+01
1	 1.083998662811933e-01	 1.508610525945297e+00	-1.026783420234650e+02
1	 8.104496494232989e-02	 1.510327104854834e+00	-1.076756706943623e+02
1	 5.385232184592077e-02	 1.511540994294438e+00	-1.113885501885703e+02
1	 2.683361338056428e-02	 1.512261950586988e+00	-1.138345483757926e+02
1	 0.000000000000000e+00	 1.512500000000000e+00	-1.150354816517890e+02
1	 2.774936549381459e-01	 1.499540686836884e+00	-5.069694176475073e+01
1	 2.492067528708362e-01	 1.504500247369135e+00	-6.335980607691239e+01
1	 2.210022207752605e-01	 1.508901261985668e+00	-7.428860032632102e+01
1	 1.928948130336745e-01	 1.512751331552235e+00	-8.348887888828408e+01
1	 1.648988124715964e-01	 1.516058502054692e+00	-9.097284861735301e+01
1	 1.370280178085651e-01	 1.518831235635048e+00	-9.675902126161584e+01
1	 1.092957329441099e-01	 1.521078381531942e+00	-1.008718523853090e+02
1	 8.171475804052857e-02	 1.522809147043897e+00	-1.033413696826747e+02
1	 5.429738235666262e-02	 1.524033068627529e+00	-1.042027934715438e+02
1	 2.705537878018867e-02	 1.524759983236486e+00	-1.034961520421151e+02
1	 0.000000000000000e+00	 1.525000000000000e+00	-1.012658944073580e+02
1	 2.797681930935394e-01	 1.511832003943683e+00	-5.547939424790781e+01
1	 2.512494311729608e-01	 1.516832216611136e+00	-6.808606990074868e+01
1	 2.228137143878753e-01	 1.521269305117696e+00	-7.851585379397238e+01
1	 1.944759180580971e-01	 1.525150932631291e+00	-8.679339546321296e+01
1	 1.662504420814838e-01	 1.528485211088482e+00	-9.295076872522182e+01
1	 1.381511982818319e-01	 1.531280671993094e+00	-9.702701803675237e+01
1	 1.101915996070264e-01	 1.533546237118513e+00	-9.906769311408212e+01
1	 8.238455113872716e-02	 1.535291189232917e+00	-9.912437521701185e+01
1	 5.474244286740446e-02	 1.536525142960601e+00	-9.725419835982538e+01
1	 2.727714417981305e-02	 1.537258015885981e+00	-9.351936855065712e+01
1	 0.000000000000000e+00	 1.537500000000000e+00	-8.798668398310976e+01
1	 2.820427312489330e-01	 1.524123321049998e+00	-5.970605665062149e+01
1	 2.532921094750855e-01	 1.529164185852748e+00	-7.233453719112912e+01
1	 2.246252080004902e-01	 1.533637348249418e+00	-8.234965275272590e+01
1	 1.960570230825197e-01	 1.537550533710115e+00	-8.979489642589797e+01
1	 1.676020716913713e-01	 1.540911920122102e+00	-9.472195081743338e+01
1	 1.392743787550988e-01	 1.543730108351024e+00	-9.719012939608446e+01
1	 1.110874662699430e-01	 1.546014092705009e+00	-9.726580782994930e+01
1	 8.305434423692580e-02	 1.547773231421895e+00	-9.502184923578447e+01
1	 5.518750337814630e-02	 1.549017217293655e+00	-9.053702707264694e+01
1	 2.749890957943743e-02	 1.549756048535470e+00	-8.389544920363235e+01
1	 0.000000000000000e+00	 1.550000000000000e+00	-7.518598642372989e+01
1	 2.843172694043264e-01	 1.536414638155826e+00	-6.339026793483292e+01
1	 2.553347877772101e-01	 1.541496155093969e+00	-7.611667506487055e+01
1	 2.264367016131050e-01	 1.546005391380833e+00	-8.579944011081088e+01
1	 1.976381281069424e-01	 1.549950134788705e+00	-9.250065415104804e+01
1	 1.689537013012588e-01	 1.553338629155550e+00	-9.629135660637664e+01
1	 1.403975592283656e-01	 1.556179544708835e+00	-9.725087258960315e+01
1	 1.119833329328596e-01	 1.558481948291430e+00	-9.546614195722890e+01
1	 8.372413733512445e-02	 1.560255273610832e+00	-9.103104449537287e+01
1	 5.563256388888813e-02	 1.561509291626691e+00	-8.404572543822762e+01
1	 2.772067497906182e-02	 1.562254081184955e+00	-7.461592526158263e+01
1	 0.000000000000000e+00	 1.562500000000000e+00	-6.285231742047311e+01
1	 2.865918075597200e-01	 1.548705955261170e+00	-6.654494360337557e+01
1	 2.573774660793346e-01	 1.553828124334798e+00	-7.944358660333614e+01
1	 2.282481952257197e-01	 1.558373434511941e+00	-8.887435900159201e+01
1	 1.992192331313650e-01	 1.562349735867061e+00	-9.491771014433434e+01
1	 1.703053309111463e-01	 1.565765338188829e+00	-9.766379028976263e+01
1	 1.415207397016324e-01	 1.568628981066530e+00	-9.721168495460049e+01
1	 1.128791995957761e-01	 1.570949803877776e+00	-9.366864265280157e+01
1	 8.439393043332308e-02	 1.572737315799727e+00	-8.714930096624092e+01
1	 5.607762439962997e-02	 1.574001365959708e+00	-7.777491560769772e+01
1	 2.794244037868620e-02	 1.574752113834436e+00	-6.567259683392057e+01
1	 0.000000000000000e+00	 1.575000000000000e+00	-5.097455724582446e+01
1	 2.888663457151135e-01	 1.560997272366028e+00	-6.918259237159396e+01
1	 2.594201443814593e-01	 1.566160093575237e+00	-8.232602518454038e+01
1	 2.300596888383345e-01	 1.570741477642742e+00	-9.158326458573157e+01
1	 2.008003381557876e-01	 1.574749336945183e+00	-9.705288413172268e+01
1	 1.716569605210337e-01	 1.578192047221936e+00	-9.884390475198929e+01
1	 1.426439201748993e-01	 1.581078417424107e+00	-9.707492706184068e+01
1	 1.137750662586927e-01	 1.583417659464048e+00	-9.187325873789788e+01
1	 8.506372353152170e-02	 1.585219357988580e+00	-8.337404239931124e+01
1	 5.652268491037181e-02	 1.586493440292707e+00	-7.171938911325552e+01
1	 2.816420577831059e-02	 1.587250146483912e+00	-5.705752229432900e+01
1	 0.000000000000000e+00	 1.587500000000000e+00	-3.954193639990669e+01
1	 2.911408838705071e-01	 1.573288589470401e+00	-7.131533205747867e+01
1	 2.614628226835839e-01	 1.578492062815286e+00	-8.477440814343598e+01
1	 2.318711824509493e-01	 1.583109520773236e+00	-9.393473530012000e+01
1	 2.023814431802102e-01	 1.587148938023073e+00	-9.891278272274218e+01
1	 1.730085901309212e-01	 1.590618756254874e+00	-9.983620747481501e+01
1	 1.437671006481662e-01	 1.593527853781566e+00	-9.684288571425319e+01
1	 1.146709329216093e-01	 1.595885515050245e+00	-9.007994063308448e+01
1	 8.573351662972034e-02	 1.597701400177391e+00	-7.970277305328838e+01
1	 5.696774542111365e-02	 1.598985514625687e+00	-6.587410025171792e+01
1	 2.838597117793497e-02	 1.599748179133383e+00	-4.876300819231471e+01
1	 0.000000000000000e+00	 1.600000000000000e+00	-2.854402192971317e+01
1	 2.934154220259006e-01	 1.585579906574289e+00	-7.295490473272817e+01
1	 2.635055009857086e-01	 1.590824032054943e+00	-8.679882979683806e+01
1	 2.336826760635642e-01	 1.595477563903424e+00	-9.593708358360718e+01
1	 2.039625482046329e-01	 1.599548539100729e+00	-1.005038076708127e+02
1	 1.743602197408086e-01	 1.603045465287642e+00	-1.006450661731250e+02
1	 1.448902811214330e-01	 1.605977290138907e+00	-9.651777680614516e+01
1	 1.155667995845258e-01	 1.608353370636367e+00	-8.828864029627513e+01
1	 8.640330972791899e-02	 1.610183442366161e+00	-7.613307457420473e+01
1	 5.741280593185549e-02	 1.611477588958649e+00	-6.023415977581427e+01
1	 2.860773657755936e-02	 1.612246211782850e+00	-4.078159963398633e+01
1	 0.000000000000000e+00	 1.612500000000000e+00	-1.797070438465617e+01
1	 2.956899601812942e-01	 1.597871223677692e+00	-7.411269117452797e+01
1	 2.655481792878332e-01	 1.603156001294210e+00	-8.840907386719968e+01
1	 2.354941696761790e-01	 1.607845607033304e+00	-9.759836610769250e+01
1	 2.055436532290555e-01	 1.611948140178152e+00	-1.018321637523266e+02
1	 1.757118493506961e-01	 1.615472174320239e+00	-1.012747141705763e+02
1	 1.460134615946999e-01	 1.618426726496131e+00	-9.610174805046476e+01
1	 1.164626662474424e-01	 1.620821226222415e+00	-8.649931116360217e+01
1	 8.707310282611763e-02	 1.622665484554889e+00	-7.266260301898396e+01
1	 5.785786644259734e-02	 1.623969663291593e+00	-5.479482887664994e+01
1	 2.882950197718375e-02	 1.624744244432313e+00	-3.310607110680373e+01
1	 0.000000000000000e+00	 1.625000000000000e+00	-7.812185374164883e+00
1	 1.625000000000000e+00	 0.000000000000000e+00	 1.894773836918516e+02
1	 1.624744244432312e+00	 2.882950197718282e-02	 1.552323614232305e+02
1	 1.623969663291593e+00	 5.785786644259652e-02	 1.219928974605676e+02
1	 1.622665484554890e+00	 8.707310282611692e-02	 8.958880358918054e+01
1	 1.620821226222414e+00	 1.164626662474418e-01	 5.783934461480089e+01
1	 1.618426726496131e+00	 1.460134615946994e-01	 2.655345038839393e+01
1	 1.615472174320238e+00	 1.757118493506957e-01	-4.470010169063585e+00
1	 1.611948140178151e+00	 2.055436532290552e-01	-3.544189104060907e+01
1	 1.607845607033305e+00	 2.354941696761788e-01	-6.658236544499940e+01
1	 1.603156001294210e+00	 2.655481792878331e-01	-9.812045528634570e+01
1	 1.597871223677692e+00	 2.956899601812942e-01	-1.302934929231686e+02
1	 1.637500000000000e+00	 0.000000000000000e+00	 1.778378597820221e+02
1	 1.637242277081775e+00	 2.905126737680721e-02	 1.467714238414893e+02
1	 1.636461737624536e+00	 5.830292695333835e-02	 1.158783856795719e+02
1	 1.635147526743617e+00	 8.774289592431556e-02	 8.504442658956266e+01
1	 1.633289081808462e+00	 1.173585329103583e-01	 5.414950850233689e+01
1	 1.630876162853355e+00	 1.471366420679662e-01	 2.306807777399364e+01
1	 1.627898883352835e+00	 1.770634789605832e-01	-8.330692564866062e+00
1	 1.624347741255574e+00	 2.071247582534779e-01	-4.018262128500250e+01
1	 1.620213650163185e+00	 2.373056632887935e-01	-7.262819759542698e+01
1	 1.615487970533477e+00	 2.675908575899578e-01	-1.058122196495906e+02
1	 1.610162540781094e+00	 2.979644983366877e-01	-1.398833929234967e+02
1	 1.650000000000000e+00	 0.000000000000000e+00	 1.615566368081190e+02
1	 1.649740309731242e+00	 2.927303277643158e-02	 1.342525473317515e+02
1	 1.648953811957498e+00	 5.874798746408018e-02	 1.063044457259013e+02
1	 1.647629568932387e+00	 8.841268902251417e-02	 7.765328617779625e+01
1	 1.645756937394584e+00	 1.182543995732749e-01	 4.823908004159222e+01
1	 1.643325599210696e+00	 1.482598225412330e-01	 1.800109130377183e+01
1	 1.640325592385603e+00	 1.784151085704706e-01	-1.312195281301138e+01
1	 1.636747342333229e+00	 2.087058632779004e-01	-4.519163647118766e+01
1	 1.632581693293372e+00	 2.391171569014083e-01	-7.826961556720261e+01
1	 1.627819939773135e+00	 2.696335358920823e-01	-1.124173644551896e+02
1	 1.622453857884982e+00	 3.002390364920812e-01	-1.476959098411623e+02
1	 1.662500000000000e+00	 0.000000000000000e+00	 1.407384147489281e+02
1	 1.662238342380713e+00	 2.949479817605596e-02	 1.177672643509775e+02
1	 1.661445886290478e+00	 5.919304797482201e-02	 9.334910981396732e+01
1	 1.660111611121198e+00	 8.908248212071281e-02	 6.747959506247609e+01
1	 1.658224792980781e+00	 1.191502662361914e-01	 4.015814778188880e+01
1	 1.655775035568156e+00	 1.493830030144999e-01	 1.138816647840864e+01
1	 1.652752301418540e+00	 1.797667381803581e-01	-1.882280043540061e+01
1	 1.649146943411119e+00	 2.102869683023231e-01	-5.046288505885622e+01
1	 1.644949736423866e+00	 2.409286505140231e-01	-8.351574148436463e+01
1	 1.640151909013183e+00	 2.716762141942070e-01	-1.179603999184345e+02
1	 1.634745174989355e+00	 3.025135746474747e-01	-1.537711350236260e+02
1	 1.675000000000000e+00	 0.000000000000000e+00	 1.154847682107376e+02
1	 1.674736375030189e+00	 2.971656357568033e-02	 9.740437504398166e+01
1	 1.673937960623477e+00	 5.963810848556386e-02	 7.708808083834914e+01
1	 1.672593653310052e+00	 8.975227521891144e-02	 5.458564915492538e+01
1	 1.670692648567052e+00	 1.200461328991080e-01	 2.995530509197059e+01
1	 1.668224471925732e+00	 1.505061834877667e-01	 3.263913858263990e+00
1	 1.665179010451648e+00	 1.811183677902456e-01	-2.541287153537212e+01
1	 1.661546544489242e+00	 2.118680733267457e-01	-5.599049615069459e+01
1	 1.657317779554668e+00	 2.427401441266379e-01	-8.837542516873992e+01
1	 1.652483878253622e+00	 2.737188924963316e-01	-1.224651046063958e+02
1	 1.647036492094213e+00	 3.047881128028683e-01	-1.581479630617009e+02
1	 1.687500000000000e+00	 0.000000000000000e+00	 8.589426218187397e+01
1	 1.687234407679670e+00	 2.993832897530471e-02	 7.325004844017892e+01
1	 1.686430034956494e+00	 6.008316899630568e-02	 5.759481864489871e+01
1	 1.685075695498947e+00	 9.042206831711005e-02	 3.903189856168670e+01
1	 1.683160504153399e+00	 1.209419995620246e-01	 1.767770553706234e+01
1	 1.680673908283426e+00	 1.516293639610336e-01	-6.338081494388369e+00
1	 1.677605719484926e+00	 1.824699974001330e-01	-3.287240559098139e+01
1	 1.673946145567598e+00	 2.134491783511683e-01	-6.176877280190278e+01
1	 1.669685822685775e+00	 2.445516377392527e-01	-9.285725422521173e+01
1	 1.664815847494452e+00	 2.757615707984562e-01	-1.259545525360050e+02
1	 1.659327809199556e+00	 3.070626509582619e-01	-1.608641361138721e+02
1	 1.700000000000000e+00	 0.000000000000000e+00	 5.206256268042179e+01
1	 1.699732440329154e+00	 3.016009437492909e-02	 4.538791918576636e+01
1	 1.698922109289530e+00	 6.052822950704752e-02	 3.494062249576734e+01
1	 1.697557737687883e+00	 9.109186141530867e-02	 2.087701544499332e+01
1	 1.695628359739820e+00	 1.218378662249411e-01	 3.371115812822417e+00
1	 1.693123344641237e+00	 1.527525444343004e-01	-1.738522231322538e+01
1	 1.690032428518375e+00	 1.838216270100204e-01	-4.118222327210710e+01
1	 1.686345746646188e+00	 2.150302833755909e-01	-6.779218562488127e+01
1	 1.682053865817190e+00	 2.463631313518675e-01	-9.696956368204734e+01
1	 1.677147816735672e+00	 2.778042491005809e-01	-1.284511390766333e+02
1	 1.671619126305386e+00	 3.093371891136554e-01	-1.619562862751332e+02
1	 1.712500000000000e+00	 0.000000000000000e+00	 1.408254255605729e+01
1	 1.712230472978644e+00	 3.038185977455347e-02	 1.389918003946468e+01
1	 1.711414183622584e+00	 6.097329001778935e-02	 9.194709922825311e+00
1	 1.710039779876862e+00	 9.176165451350732e-02	 1.779589112457245e-01
1	 1.708096215326316e+00	 1.227337328878577e-01	-1.292003363897938e+01
1	 1.705572780999167e+00	 1.538757249075673e-01	-2.984586307692658e+01
1	 1.702459137551995e+00	 1.851732566199080e-01	-5.032370522907038e+01
1	 1.698745347725011e+00	 2.166113884000136e-01	-7.405536667400492e+01
1	 1.694421908948913e+00	 2.481746249644823e-01	-1.007204452090246e+02
1	 1.689479785977284e+00	 2.798469274027054e-01	-1.299766057182512e+02
1	 1.683910443411700e+00	 3.116117272690490e-01	-1.614599760902527e+02
1	 1.725000000000000e+00	 0.000000000000000e+00	-2.795561730819836e+01
1	 1.724728505628139e+00	 3.060362517417785e-02	-2.113732965330158e+01
1	 1.723906257955657e+00	 6.141835052853120e-02	-1.957570784732836e+01
1	 1.722521822065882e+00	 9.243144761170595e-02	-2.300996292174614e+01
1	 1.720564070912886e+00	 1.236295995507742e-01	-3.115260021546596e+01
1	 1.718022217357214e+00	 1.549989053808341e-01	-4.368927552566118e+01
1	 1.714885846585785e+00	 1.865248862297954e-01	-6.027877180348848e+01
1	 1.711144948804068e+00	 2.181924934244362e-01	-8.055310359627514e+01
1	 1.706789952080941e+00	 2.499861185770972e-01	-1.041177559347666e+02
1	 1.701811755219286e+00	 2.818896057048301e-01	-1.305520637627109e+02
1	 1.696201760518499e+00	 3.138862654244425e-01	-1.594097373055934e+02
1	 1.737499999999999e+00	 0.000000000000000e+00	-7.396433116264569e+01
1	 1.737226538277637e+00	 3.082539057380222e-02	-5.964503930524782e+01
1	 1.736398332288748e+00	 6.186341103927302e-02	-5.130535372411153e+01
1	 1.735003864254944e+00	 9.310124070990457e-02	-4.863303353668506e+01
1	 1.733031926499532e+00	 1.245254662136908e-01	-5.128468282751292e+01
1	 1.730471653715378e+00	 1.561220858541010e-01	-5.888561566606889e+01
1	 1.727312555619745e+00	 1.878765158396829e-01	-7.102986361491924e+01
1	 1.723544549883358e+00	 2.197735984488587e-01	-8.728033403446453e+01
1	 1.719157995213276e+00	 2.517976121897119e-01	-1.071691268834754e+02
1	 1.714143724461679e+00	 2.839322840069546e-01	-1.301980169923840e+02
1	 1.708493077625785e+00	 3.161608035798360e-01	-1.558391079481923e+02
1	 1.750000000000000e+00	 0.000000000000000e+00	-1.238585157075762e+02
1	 1.749724570927141e+00	 3.104715597342660e-02	-1.015495660601542e+02
1	 1.748890406621857e+00	 6.230847155001488e-02	-8.593081567667275e+01
1	 1.747485906444049e+00	 9.377103380810323e-02	-7.663907117391339e+01
1	 1.745499782086252e+00	 1.254213328766073e-01	-7.327557755997206e+01
1	 1.742921090073661e+00	 1.572452663273678e-01	-7.540589219031567e+01
1	 1.739739264653876e+00	 1.892281454495704e-01	-8.255992297950519e+01
1	 1.735944150962882e+00	 2.213547034732815e-01	-9.423214027012361e+01
1	 1.731526038345919e+00	 2.536091058023268e-01	-1.098819710500888e+02
1	 1.726475693704463e+00	 2.859749623090794e-01	-1.289343833672854e+02
1	 1.720784394733555e+00	 3.184353417352296e-01	-1.507806678157368e+02
1	 1.597871223677692e+00	 2.956899601812942e-01	-1.302934929231686e+02
1	 1.591983679838119e+00	 3.259033033559543e-01	-1.145453719662875e+02
1	 1.585486310625523e+00	 3.561715300634776e-01	-9.946606699056500e+01
1	 1.578372621830225e+00	 3.864775112013996e-01	-8.496101370595230e+01
1	 1.570636713267633e+00	 4.168036887336729e-01	-7.093056139798682e+01
1	 1.562273307054313e+00	 4.471320991271141e-01	-5.727020736612968e+01
1	 1.553277774923845e+00	 4.774443987833438e-01	-4.387086592404258e+01
1	 1.543646164429884e+00	 5.077218914329503e-01	-3.061917177350438e+01
1	 1.533375223883753e+00	 5.379455574460040e-01	-1.739781727656047e+01
1	 1.522462425874856e+00	 5.680960850001699e-01	-4.085922852665236e+00
1	 1.510905989224438e+00	 5.981539030346663e-01	 9.440560578054507e+00
1	 1.610162540781094e+00	 2.979644983366877e-01	-1.398833929234967e+02
1	 1.604229708142434e+00	 3.284102518436999e-01	-1.238914060806749e+02
1	 1.597682359166444e+00	 3.589113110645371e-01	-1.083702826861266e+02
1	 1.590513949687990e+00	 3.894504151344069e-01	-9.325621005430524e+01
1	 1.582718534136446e+00	 4.200098709554452e-01	-7.848177673183197e+01
1	 1.574290794029277e+00	 4.505715768134433e-01	-6.397612990469995e+01
1	 1.565226065498014e+00	 4.811170480054174e-01	-4.966515714987951e+01
1	 1.555520365692882e+00	 5.116274444444987e-01	-3.547169244496645e+01
1	 1.545170417912212e+00	 5.420836001959101e-01	-2.131574614843613e+01
1	 1.534173675303793e+00	 5.724660548848370e-01	-7.114758454009630e+00
1	 1.522528342987494e+00	 6.027550869038752e-01	 7.216124392349138e+00
1	 1.622453857884982e+00	 3.002390364920812e-01	-1.476959098411623e+02
1	 1.616475736447324e+00	 3.309172003314502e-01	-1.316956579095995e+02
1	 1.609878407708013e+00	 3.616510920656152e-01	-1.159715375883192e+02
1	 1.602655277546456e+00	 3.924233190674569e-01	-1.004901378914116e+02
1	 1.594800355005993e+00	 4.232160531772940e-01	-8.521592079294524e+01
1	 1.586308281004989e+00	 4.540110544998922e-01	-7.011130231085535e+01
1	 1.577174356072925e+00	 4.847896972276646e-01	-5.513674781351332e+01
1	 1.567394566956594e+00	 5.155329974562836e-01	-4.025088156385817e+01
1	 1.556965611941338e+00	 5.462216429461266e-01	-2.541061040015746e+01
1	 1.545884924733330e+00	 5.768360247698988e-01	-1.057126133140656e+01
1	 1.534150696751060e+00	 6.073562707735738e-01	 4.313267299773713e+00
1	 1.634745174989355e+00	 3.025135746474747e-01	-1.537711350236260e+02
1	 1.628721764752790e+00	 3.334241488192052e-01	-1.379929044968897e+02
1	 1.622074456250230e+00	 3.643908730667124e-01	-1.222992217900711e+02
1	 1.614796605405623e+00	 3.953962230005494e-01	-1.066867356046273e+02
1	 1.606882175876277e+00	 4.264222353992188e-01	-9.115142376032802e+01
1	 1.598325767981450e+00	 4.574505321864608e-01	-7.568859864768010e+01
1	 1.589122646648578e+00	 4.884623464500846e-01	-6.029291687497056e+01
1	 1.579268768221021e+00	 5.194385504683054e-01	-4.495839322535963e+01
1	 1.568760805971133e+00	 5.503596856966543e-01	-2.967841900816592e+01
1	 1.557596174163466e+00	 5.812059946553559e-01	-1.444578485466116e+01
1	 1.545773050515137e+00	 6.119574546437619e-01	 7.472920274049482e-01
1	 1.647036492094213e+00	 3.047881128028683e-01	-1.581479630617009e+02
1	 1.640967793058833e+00	 3.359310973069648e-01	-1.428168847656592e+02
1	 1.634270504793095e+00	 3.671306540678284e-01	-1.273818480681043e+02
1	 1.626937933265491e+00	 3.983691269336848e-01	-1.118692270025844e+02
1	 1.618963996747293e+00	 4.296284176212197e-01	-9.630616565838915e+01
1	 1.610343254958658e+00	 4.608900098731490e-01	-8.072050867787244e+01
1	 1.601070937224973e+00	 4.921349956726779e-01	-6.514072601189243e+01
1	 1.591142969486164e+00	 5.233441034805641e-01	-4.959583214867637e+01
1	 1.580556000001596e+00	 5.544977284474926e-01	-3.411530008393151e+01
1	 1.569307423594202e+00	 5.855759645412079e-01	-1.872897035268001e+01
1	 1.557395404279724e+00	 6.165586385144400e-01	-3.466955495487261e+00
1	 1.659327809199556e+00	 3.070626509582619e-01	-1.608641361138721e+02
1	 1.653213821365451e+00	 3.384380457947292e-01	-1.462003379672230e+02
1	 1.646466553336608e+00	 3.698704350689632e-01	-1.312470843761272e+02
1	 1.639079261126060e+00	 4.013420308668626e-01	-1.160601477810694e+02
1	 1.631045817619043e+00	 4.328345998432970e-01	-1.006974967330408e+02
1	 1.622360741936615e+00	 4.643294875599568e-01	-8.521915209709243e+01
1	 1.613019227802109e+00	 4.958076448954443e-01	-6.968702766703052e+01
1	 1.603017170752021e+00	 5.272496564930599e-01	-5.416475550577928e+01
1	 1.592351194032726e+00	 5.586357711986414e-01	-3.871749646154446e+01
1	 1.581018673025537e+00	 5.899459344274548e-01	-2.341173644831967e+01
1	 1.569017758044822e+00	 6.211598223856076e-01	-8.315069219003245e+00
1	 1.671619126305386e+00	 3.093371891136554e-01	-1.619562862751332e+02
1	 1.665459849672645e+00	 3.409449942824981e-01	-1.481750404337368e+02
1	 1.658662601880769e+00	 3.726102160701169e-01	-1.339217849045040e+02
1	 1.651220588987329e+00	 4.043149348000832e-01	-1.192813708212897e+02
1	 1.643127638491529e+00	 4.360407820654503e-01	-1.043422569288488e+02
1	 1.634378228915319e+00	 4.677689652468843e-01	-8.919629213936713e+01
1	 1.624967518379987e+00	 4.994802941183839e-01	-7.393847274070588e+01
1	 1.614891372018594e+00	 5.311552095057921e-01	-5.866667466946447e+01
1	 1.604146388064525e+00	 5.627738139501012e-01	-4.348136147997181e+01
1	 1.592729922457472e+00	 5.943159043140966e-01	-2.848526886375625e+01
1	 1.580640111810430e+00	 6.257610062572652e-01	-1.378306680057866e+01
1	 1.683910443411700e+00	 3.116117272690490e-01	-1.614599760902527e+02
1	 1.677705877980416e+00	 3.434519427702719e-01	-1.487718407212322e+02
1	 1.670858650425578e+00	 3.753499970712894e-01	-1.354320197796475e+02
1	 1.663361916849300e+00	 4.072878387333462e-01	-1.215541303801865e+02
1	 1.655209459364748e+00	 4.392469642876800e-01	-1.072567945131693e+02
1	 1.646395715894772e+00	 4.712084429339317e-01	-9.266334858663963e+01
1	 1.636915808958608e+00	 5.031529433414967e-01	-7.790151794637197e+01
1	 1.626765573285881e+00	 5.350607625187611e-01	-6.310305688485633e+01
1	 1.615941582096990e+00	 5.669118567018717e-01	-4.840335495003315e+01
1	 1.604441171890006e+00	 5.986858742011337e-01	-3.394101067233575e+01
1	 1.592262465576548e+00	 6.303621901294124e-01	-1.985737414121306e+01
1	 1.696201760518499e+00	 3.138862654244425e-01	-1.594097373055934e+02
1	 1.689951906288762e+00	 3.459588912580502e-01	-1.480206932246941e+02
1	 1.683054698971034e+00	 3.780897780724807e-01	-1.358031034721330e+02
1	 1.675503244711972e+00	 4.102607426666521e-01	-1.228990452289949e+02
1	 1.667291280238703e+00	 4.424531465099858e-01	-1.094569838905406e+02
1	 1.658413202874972e+00	 4.746479206210985e-01	-9.563141021268446e+01
1	 1.648864099537969e+00	 5.068255925647827e-01	-8.158243284637072e+01
1	 1.638639774553884e+00	 5.389663155319671e-01	-6.747532686823557e+01
1	 1.627736776130124e+00	 5.710498994539528e-01	-5.348003929672433e+01
1	 1.616152421323140e+00	 6.030558440885657e-01	-3.977065297425605e+01
1	 1.603884819343176e+00	 6.349633740020493e-01	-2.652481059403781e+01
1	 1.708493077625785e+00	 3.161608035798360e-01	-1.558391079481923e+02
1	 1.702197934597685e+00	 3.484658397458333e-01	-1.459506903421268e+02
1	 1.695250747517139e+00	 3.808295590736910e-01	-1.350596219785621e+02
1	 1.687644572575343e+00	 4.132336466000003e-01	-1.233361407930179e+02
1	 1.679373101113391e+00	 4.456593287323678e-01	-1.109582426481071e+02
1	 1.670430689855921e+00	 4.780873983083849e-01	-9.811124668987620e+01
1	 1.660812390118072e+00	 5.104982417882418e-01	-8.498730658398662e+01
1	 1.650513975822603e+00	 5.428718685454100e-01	-7.178486833685440e+01
1	 1.639531970163926e+00	 5.751879422063448e-01	-5.870807586806038e+01
1	 1.627863670756874e+00	 6.074258139763927e-01	-4.596612597473862e+01
1	 1.615507173110314e+00	 6.395645578751757e-01	-3.377257481136139e+01
1	 1.720784394733555e+00	 3.184353417352296e-01	-1.507806678157368e+02
1	 1.714443962907183e+00	 3.509727882336210e-01	-1.425900932601607e+02
1	 1.707446796063893e+00	 3.835693400749201e-01	-1.332254588384914e+02
1	 1.699785900439417e+00	 4.162065505333916e-01	-1.228848703425521e+02
1	 1.691454921988814e+00	 4.488655109548259e-01	-1.117755478705276e+02
1	 1.682448176837619e+00	 4.815268759957912e-01	-1.001133199856687e+02
1	 1.672760680698918e+00	 5.141708910118742e-01	-8.812205432698471e+01
1	 1.662388177092036e+00	 5.467774215590895e-01	-7.603302547318717e+01
1	 1.651327164198396e+00	 5.793259849590476e-01	-6.408422140211142e+01
1	 1.639574920191208e+00	 6.117957838646149e-01	-5.251959044456314e+01
1	 1.627129526877964e+00	 6.441657417487923e-01	-4.158823119827137e+01
1	 1.510905989224438e+00	 5.981539030346663e-01	 9.440560578054507e+00
1	 1.498704899226502e+00	 6.280992159053116e-01	 7.005827751250046e+00
1	 1.485858926034374e+00	 6.579120396427700e-01	 5.031869812078934e+00
1	 1.472368641057263e+00	 6.875722397034166e-01	 3.472562421000935e+00
1	 1.458235431238258e+00	 7.170595700900936e-01	 2.279534371448998e+00
1	 1.443461511093458e+00	 7.463537137077204e-01	 1.402321922888490e+00
1	 1.428049932401566e+00	 7.754343238075454e-01	 7.885380399729485e-01
1	 1.412004591443889e+00	 8.042810663631879e-01	 3.840558325520504e-01
1	 1.395330233706523e+00	 8.328736632118814e-01	 1.332053517151799e-01
1	 1.378032455969274e+00	 8.611919357855460e-01	-2.101723856376925e-02
1	 1.360117705719598e+00	 8.892158492486488e-01	-1.367292244608338e-01
1	 1.522528342987494e+00	 6.027550869038752e-01	 7.216124392349138e+00
1	 1.510233398451768e+00	 6.329307483347351e-01	 4.490813628709022e+00
1	 1.497288610081763e+00	 6.629729014853188e-01	 2.153539601232669e+00
1	 1.483694553682143e+00	 6.928612569308974e-01	 1.774541538944634e-01
1	 1.469452626864788e+00	 7.225754129358748e-01	-1.465955491726942e+00
1	 1.454565061180536e+00	 7.520948961198251e-01	-2.806781577519466e+00
1	 1.439034931883308e+00	 7.813992032205446e-01	-3.876600258953967e+00
1	 1.422866165225804e+00	 8.104678437960667e-01	-4.708366011412624e+00
1	 1.406063543197860e+00	 8.392803836977581e-01	-5.336296433781008e+00
1	 1.388632705631432e+00	 8.678164891377840e-01	-5.795747982841341e+00
1	 1.370580149610033e+00	 8.960559711664935e-01	-6.123083261908324e+00
1	 1.534150696751060e+00	 6.073562707735738e-01	 4.313267299773713e+00
1	 1.521761897677453e+00	 6.377622807647338e-01	 1.423412871709434e+00
1	 1.508718294129500e+00	 6.680337633284998e-01	-1.149943626654135e+00
1	 1.495020466307320e+00	 6.981502741590380e-01	-3.414592879047984e+00
1	 1.480669822491582e+00	 7.280912557823142e-01	-5.379414224623761e+00
1	 1.465668611267865e+00	 7.578360785325557e-01	-7.054359022846531e+00
1	 1.450019931365309e+00	 7.873640826341082e-01	-8.450428099928477e+00
1	 1.433727739008006e+00	 8.166546212294172e-01	-9.579643269014243e+00
1	 1.416796852689532e+00	 8.456871041839829e-01	-1.045501296492578e+01
1	 1.399232955293995e+00	 8.744410424902175e-01	-1.109049208401750e+01
1	 1.381042593500962e+00	 9.028960930843489e-01	-1.150093617001255e+01
1	 1.545773050515137e+00	 6.119574546437619e-01	 7.472920274049482e-01
1	 1.533290396903557e+00	 6.425938131953080e-01	-2.183914670972962e+00
1	 1.520147978177585e+00	 6.730946251723129e-01	-4.868989954001700e+00
1	 1.506346378932792e+00	 7.034392913878383e-01	-7.296880811003589e+00
1	 1.491887018118640e+00	 7.336070986294112e-01	-9.457053055801484e+00
1	 1.476772161355447e+00	 7.635772609459125e-01	-1.133954257979236e+01
1	 1.461004930847569e+00	 7.933289620482357e-01	-1.293500511737548e+01
1	 1.444589312790497e+00	 8.228413986632396e-01	-1.423476416403663e+01
1	 1.427530162181541e+00	 8.520938246705574e-01	-1.523085669109754e+01
1	 1.409833204956963e+00	 8.810655958428456e-01	-1.591607630851455e+01
1	 1.391505037392386e+00	 9.097362150022149e-01	-1.628401353819962e+01
1	 1.557395404279724e+00	 6.165586385144400e-01	-3.466955495487261e+00
1	 1.544818896130082e+00	 6.474253456264577e-01	-6.319081086336872e+00
1	 1.531577662226018e+00	 6.781554870167580e-01	-8.994295729421641e+00
1	 1.517672291558561e+00	 7.087283086172986e-01	-1.146291171147107e+01
1	 1.503104213745963e+00	 7.391229414771657e-01	-1.369519631147510e+01
1	 1.487875711443280e+00	 7.693184433598950e-01	-1.566149032052842e+01
1	 1.471989930330090e+00	 7.992938414629270e-01	-1.733232946409386e+01
1	 1.455450886573275e+00	 8.290281760975334e-01	-1.867856801805681e+01
1	 1.438263471673887e+00	 8.585005451574800e-01	-1.967150386914681e+01
1	 1.420433454620336e+00	 8.876901491956692e-01	-2.028300423568162e+01
1	 1.401967481284305e+00	 9.165763369200914e-01	-2.048563123678433e+01
1	 1.569017758044822e+00	 6.211598223856076e-01	-8.315069219003245e+00
1	 1.556347395357026e+00	 6.522568780581823e-01	-1.097035662175672e+01
1	 1.543007346274800e+00	 6.832163488618352e-01	-1.351683296526555e+01
1	 1.528998204184627e+00	 7.140173258474188e-01	-1.590638018122164e+01
1	 1.514321409373551e+00	 7.446387843255788e-01	-1.809027722671267e+01
1	 1.498979261531365e+00	 7.750596257745035e-01	-2.001938526323619e+01
1	 1.482974929812870e+00	 8.052587208781824e-01	-2.164434008835410e+01
1	 1.466312460356341e+00	 8.352149535322990e-01	-2.291575076534161e+01
1	 1.448996781166568e+00	 8.649072656447517e-01	-2.378440331126784e+01
1	 1.431033704284114e+00	 8.943147025486877e-01	-2.420146822768681e+01
1	 1.412429925176719e+00	 9.234164588379790e-01	-2.411871059175331e+01
1	 1.580640111810430e+00	 6.257610062572652e-01	-1.378306680057866e+01
1	 1.567875894584390e+00	 6.570884104904827e-01	-1.612635651732216e+01
1	 1.554437030323932e+00	 6.882772107075451e-01	-1.842783920292891e+01
1	 1.540324116810989e+00	 7.193063430781983e-01	-2.062116627394347e+01
1	 1.525538605001402e+00	 7.501546271746492e-01	-2.263883394143319e+01
1	 1.510082811619702e+00	 7.808008081897383e-01	-2.441243445497443e+01
1	 1.493959929295910e+00	 8.112236002940020e-01	-2.587291891053524e+01
1	 1.477174034139694e+00	 8.414017309675366e-01	-2.695087022443991e+01
1	 1.459730090659585e+00	 8.713139861323719e-01	-2.757678474693496e+01
1	 1.441633953948298e+00	 9.009392559019015e-01	-2.768136087132619e+01
1	 1.422892369069628e+00	 9.302565807558768e-01	-2.719579289007171e+01
1	 1.592262465576548e+00	 6.303621901294124e-01	-1.985737414121306e+01
1	 1.579404393812174e+00	 6.619199429233585e-01	-2.177602841486331e+01
1	 1.565866714373410e+00	 6.933380725538867e-01	-2.371880782201035e+01
1	 1.551650029437647e+00	 7.245953603096378e-01	-2.560132872788710e+01
1	 1.536755800629518e+00	 7.556704700243774e-01	-2.733750567176256e+01
1	 1.521186361708292e+00	 7.865419906055987e-01	-2.883986809471279e+01
1	 1.504944928779209e+00	 8.171884797103856e-01	-3.001989290443466e+01
1	 1.488035607923336e+00	 8.475885084032455e-01	-3.078835113890301e+01
1	 1.470463400152938e+00	 8.777207066203410e-01	-3.105566681862237e+01
1	 1.452234203612885e+00	 9.075638092553103e-01	-3.073228591873116e+01
1	 1.433354812963030e+00	 9.370967026737852e-01	-2.972905324972129e+01
1	 1.603884819343176e+00	 6.349633740020493e-01	-2.652481059403781e+01
1	 1.590932893040378e+00	 6.667514753568098e-01	-2.790864031441001e+01
1	 1.577296398423238e+00	 6.983989344008606e-01	-2.938147877081131e+01
1	 1.562975942064603e+00	 7.298843775417372e-01	-3.084109849178731e+01
1	 1.547972996257898e+00	 7.611863128747637e-01	-3.218302904785205e+01
1	 1.532289911797133e+00	 7.922831730220851e-01	-3.330093869449468e+01
1	 1.515929928262769e+00	 8.231533591273329e-01	-3.408703608808676e+01
1	 1.498897181707264e+00	 8.537752858394262e-01	-3.443248999884193e+01
1	 1.481196709646628e+00	 8.841274271086590e-01	-3.422786472988431e+01
1	 1.462834453277879e+00	 9.141883626089145e-01	-3.336356875239277e+01
1	 1.443817256856928e+00	 9.439368245917042e-01	-3.173031388669346e+01
1	 1.615507173110314e+00	 6.395645578751757e-01	-3.377257481136139e+01
1	 1.602461392269001e+00	 6.715830077908362e-01	-3.451376905051548e+01
1	 1.588726082473415e+00	 7.034597962484670e-01	-3.540782969695912e+01
1	 1.574301854691855e+00	 7.351733947744963e-01	-3.633487253024094e+01
1	 1.559190191886543e+00	 7.667021557258078e-01	-3.717223460977684e+01
1	 1.543393461886226e+00	 7.980243554391976e-01	-3.779492027680806e+01
1	 1.526914927746587e+00	 8.291182385448446e-01	-3.807607142864607e+01
1	 1.509758755491481e+00	 8.599620632760784e-01	-3.788745965436124e+01
1	 1.491930019140653e+00	 8.905341475973255e-01	-3.709999756330213e+01
1	 1.473434702943277e+00	 9.208129159627136e-01	-3.558426639845894e+01
1	 1.454279700751320e+00	 9.507769465096340e-01	-3.321105680930610e+01
1	 1.627129526877964e+00	 6.441657417487923e-01	-4.158823119827137e+01
1	 1.613989891498045e+00	 6.764145402254381e-01	-4.158128926245263e+01
1	 1.600155766523939e+00	 7.085206580967053e-01	-4.179006745814475e+01
1	 1.585627767319404e+00	 7.404624120079153e-01	-4.207720789457001e+01
1	 1.570407387515452e+00	 7.722179985775097e-01	-4.230204345361012e+01
1	 1.554497011975571e+00	 8.037655378569363e-01	-4.232110760635640e+01
1	 1.537899927230667e+00	 8.350831179629202e-01	-4.198867266563346e+01
1	 1.520620329275986e+00	 8.661488407132029e-01	-4.115731373127341e+01
1	 1.502663328635016e+00	 8.969408680863412e-01	-3.967849528480504e+01
1	 1.484034952609081e+00	 9.274374693167079e-01	-3.740317711089000e+01
1	 1.464742144646208e+00	 9.576170684275745e-01	-3.418243596847833e+01
1	 1.360117705719598e+00	 8.892158492486488e-01	-1.367292244608338e-01
1	 1.341593277844827e+00	 9.169255568526578e-01	 3.379034813336738e+00
1	 1.322467308569620e+00	 9.443014443144191e-01	 6.970672228250831e+00
1	 1.302748766623323e+00	 9.713241740187775e-01	 1.066799701121235e+01
1	 1.282447441638377e+00	 9.979747288431313e-01	 1.450064497403206e+01
1	 1.261573929795459e+00	 1.024234455404330e+00	 1.849793950160523e+01
1	 1.240139616749326e+00	 1.050085106526311e+00	 2.268875749197188e+01
1	 1.218156657885667e+00	 1.075508882729801e+00	 2.710139640424608e+01
1	 1.195637955975838e+00	 1.100488472549222e+00	 3.176344333624791e+01
1	 1.172597136312511e+00	 1.125007091487334e+00	 3.670164704594615e+01
1	 1.149048519425000e+00	 1.149048519425000e+00	 4.194179381354472e+01
1	 1.370580149610033e+00	 8.960559711664935e-01	-6.123083261908324e+00
1	 1.351913226135645e+00	 9.239788303679526e-01	-2.290517838649679e+00
1	 1.332640134019405e+00	 9.515653015797990e-01	 1.641695197180843e+00
1	 1.312769910980884e+00	 9.787958984359916e-01	 5.692809659418897e+00
1	 1.292312421957389e+00	 1.005651457528369e+00	 9.881816307346144e+00
1	 1.271278344638683e+00	 1.032113181986217e+00	 1.422735316651107e+01
1	 1.249679152261479e+00	 1.058162684270582e+00	 1.874761668399096e+01
1	 1.227527093714434e+00	 1.083782027983117e+00	 2.346027434025994e+01
1	 1.204835171020993e+00	 1.108953768493124e+00	 2.838237933534993e+01
1	 1.181617114283771e+00	 1.133660992191846e+00	 3.353028795604221e+01
1	 1.157887354190000e+00	 1.157887354190000e+00	 3.891958021344551e+01
1	 1.381042593500962e+00	 9.028960930843489e-01	-1.150093617001255e+01
1	 1.362233174427042e+00	 9.310321038830772e-01	-7.415266783486672e+00
1	 1.342812959469824e+00	 9.588291588448681e-01	-3.206152559980595e+00
1	 1.322791055339106e+00	 9.862676228527927e-01	 1.135221882314699e+00
1	 1.302177402277060e+00	 1.013328186213132e+00	 5.617324595559423e+00
1	 1.280982759482529e+00	 1.039991908567609e+00	 1.024823076114490e+01
1	 1.259218687774190e+00	 1.066240262014375e+00	 1.503557862433166e+01
1	 1.236897529543666e+00	 1.092055173236013e+00	 1.998652723163859e+01
1	 1.214032386066488e+00	 1.117419064436706e+00	 2.510771628727729e+01
1	 1.190637092255217e+00	 1.142314892896179e+00	 3.040522843075237e+01
1	 1.166726188955000e+00	 1.166726188955000e+00	 3.588455422027708e+01
1	 1.391505037392386e+00	 9.097362150022149e-01	-1.628401353819962e+01
1	 1.372553122719020e+00	 9.380853773980324e-01	-1.200750082663136e+01
1	 1.352985784920880e+00	 9.660930161096258e-01	-7.583723583269351e+00
1	 1.332812199697990e+00	 9.937393472691818e-01	-3.014185859394238e+00
1	 1.312042382597387e+00	 1.021004914897422e+00	 1.699177275767878e+00
1	 1.290687174326999e+00	 1.047870635148505e+00	 6.553997911142761e+00
1	 1.268758223287460e+00	 1.074317839757692e+00	 1.154747558181803e+01
1	 1.246267965373361e+00	 1.100328318488492e+00	 1.667637970343416e+01
1	 1.223229601112323e+00	 1.125884360379969e+00	 2.193705417051649e+01
1	 1.199657070226847e+00	 1.150968793600331e+00	 2.732542411896783e+01
1	 1.175565023720000e+00	 1.175565023720000e+00	 3.283700483535336e+01
1	 1.401967481284305e+00	 9.165763369200914e-01	-2.048563123678433e+01
1	 1.382873071011578e+00	 9.451386509128173e-01	-1.607914194351007e+01
1	 1.363158610372572e+00	 9.733568733740730e-01	-1.150154645629195e+01
1	 1.342833344057535e+00	 1.001211071685158e+00	-6.764551924719926e+00
1	 1.321907362918373e+00	 1.028681643581236e+00	-1.880379630962933e+00
1	 1.300391589172092e+00	 1.055749361728905e+00	 3.138276492119441e+00
1	 1.278297758801289e+00	 1.082395417500530e+00	 8.278294085902463e+00
1	 1.255638401203523e+00	 1.108601463740551e+00	 1.352616907845399e+01
1	 1.232426816158497e+00	 1.134349656322913e+00	 1.886806460598397e+01
1	 1.208677048198662e+00	 1.159622694304304e+00	 2.428986184423659e+01
1	 1.184403858485000e+00	 1.184403858485000e+00	 2.977721243308366e+01
1	 1.412429925176719e+00	 9.234164588379790e-01	-2.411871059175331e+01
1	 1.393193019304716e+00	 9.521919244274326e-01	-1.964175886581697e+01
1	 1.373331435824899e+00	 9.806207306382088e-01	-1.496983780461228e+01
1	 1.352854488417742e+00	 1.008682796100722e+00	-1.012474390647575e+01
1	 1.331772343240015e+00	 1.036358372264577e+00	-5.128870356042887e+00
1	 1.310096004017809e+00	 1.063628088308809e+00	-5.122638847582905e-03
1	 1.287837294315678e+00	 1.090472995242892e+00	 5.223169213310255e+00
1	 1.265008837034148e+00	 1.116874608992193e+00	 1.053234120327075e+01
1	 1.241624031205012e+00	 1.142814952265537e+00	 1.589848820360306e+01
1	 1.217697026170662e+00	 1.168276595008097e+00	 2.129755845014969e+01
1	 1.193242693250000e+00	 1.193242693250000e+00	 2.670544908048858e+01
1	 1.422892369069628e+00	 9.302565807558768e-01	-2.719579289007171e+01
1	 1.403512967598433e+00	 9.592451979418776e-01	-2.270658006841671e+01
1	 1.383504261277862e+00	 9.878845879020337e-01	-1.799851376479743e+01
1	 1.362875632778610e+00	 1.016154520515873e+00	-1.310336858591709e+01
1	 1.341637323562315e+00	 1.044035100947443e+00	-8.053597829956241e+00
1	 1.319800418864149e+00	 1.071506814888217e+00	-2.882206591067284e+00
1	 1.297376829830625e+00	 1.098550572984775e+00	 2.377379126742555e+00
1	 1.274379272865238e+00	 1.125147754243415e+00	 7.691446458378080e+00
1	 1.250821246251867e+00	 1.151280248207841e+00	 1.302613202594305e+01
1	 1.226717004142848e+00	 1.176930495711709e+00	 1.834755969665981e+01
1	 1.202081528015000e+00	 1.202081528015000e+00	 2.362197884261759e+01
1	 1.433354812963030e+00	 9.370967026737852e-01	-2.972905324972129e+01
1	 1.413832915892732e+00	 9.662984714561537e-01	-2.528450618747726e+01
1	 1.393677086731460e+00	 9.951484451655477e-01	-2.059720095116989e+01
1	 1.372896777140140e+00	 1.023626244930612e+00	-1.570878145141127e+01
1	 1.351502303885272e+00	 1.051711829629835e+00	-1.066165175893892e+01
1	 1.329504833711112e+00	 1.079385541467129e+00	-5.498807083797075e+00
1	 1.306916365346132e+00	 1.106628150726181e+00	-2.636601472399640e-01
1	 1.283749708696792e+00	 1.133420899494219e+00	 5.000135943083704e+00
1	 1.260018461299061e+00	 1.159745544149826e+00	 1.024886716294047e+01
1	 1.235736982115218e+00	 1.185584396415142e+00	 1.543893920474192e+01
1	 1.210920362780000e+00	 1.210920362780000e+00	 2.052705807459213e+01
1	 1.443817256856928e+00	 9.439368245917042e-01	-3.173031388669346e+01
1	 1.424152864187609e+00	 9.733517449702592e-01	-2.738612189868391e+01
1	 1.403849912185693e+00	 1.002412302428751e+00	-2.277524694574435e+01
1	 1.382917921502332e+00	 1.031097969344938e+00	-1.794909580325245e+01
1	 1.361367284208887e+00	 1.059388558311753e+00	-1.295991635049361e+01
1	 1.339209248558698e+00	 1.087264268045545e+00	-7.860586800954469e+00
1	 1.316455900862197e+00	 1.114705728467110e+00	-2.704399713283621e+00
1	 1.293120144528811e+00	 1.141694044744604e+00	 2.455157826277787e+00
1	 1.269215676346595e+00	 1.168210840091492e+00	 7.564626412067462e+00
1	 1.244756960087773e+00	 1.194238297118396e+00	 1.257079744693552e+01
1	 1.219759197545000e+00	 1.219759197545000e+00	 1.742093570095137e+01
1	 1.454279700751320e+00	 9.507769465096340e-01	-3.321105680930610e+01
1	 1.434472812483067e+00	 9.804050184841950e-01	-2.902170728272516e+01
1	 1.414022737640563e+00	 1.009676159691643e+00	-2.454173033536110e+01
1	 1.392939065865185e+00	 1.038569693758851e+00	-1.983219146546330e+01
1	 1.371232264533160e+00	 1.067065286993196e+00	-1.495507770543147e+01
1	 1.348913663406908e+00	 1.095142994623464e+00	-9.973045471525683e+00
1	 1.325995436378822e+00	 1.122783306207561e+00	-4.949162586695010e+00
1	 1.302490580361295e+00	 1.149967189994570e+00	 5.335385472086429e-02
1	 1.278412891394469e+00	 1.176676136032838e+00	 4.971402058635707e+00
1	 1.253776938060513e+00	 1.202892197821469e+00	 9.742260781460740e+00
1	 1.228598032310000e+00	 1.228598032310000e+00	 1.430385348293878e+01
1	 1.464742144646208e+00	 9.576170684275745e-01	-3.418243596847833e+01
1	 1.444792760779105e+00	 9.874582919979614e-01	-3.020124870368559e+01
1	 1.424195563096069e+00	 1.016940016954224e+00	-2.590547031865719e+01
1	 1.402960210228699e+00	 1.046041418172352e+00	-2.136572312423292e+01
1	 1.381097244858090e+00	 1.074742015674165e+00	-1.665363089311088e+01
1	 1.358618078255741e+00	 1.103021721200889e+00	-1.184152568938389e+01
1	 1.335534971896006e+00	 1.130860883947535e+00	-7.002148268060221e+00
1	 1.311861016194242e+00	 1.158240335244118e+00	-2.208343989022595e+00
1	 1.287610106442683e+00	 1.185141431973866e+00	 2.467243751231155e+00
1	 1.262796916033438e+00	 1.211546098524362e+00	 6.952480527729763e+00
1	 1.237436867075000e+00	 1.237436867075000e+00	 1.117604627433396e+01
1	 1.149048519425000e+00	 1.149048519425000e+00	 4.194179381354472e+01
1	 1.125007091487334e+00	 1.172597136312511e+00	 4.373013788330353e+01
1	 1.100488472549222e+00	 1.195637955975838e+00	 4.524720683733224e+01
1	 1.075508882729801e+00	 1.218156657885667e+00	 4.645907750195521e+01
1	 1.050085106526311e+00	 1.240139616749326e+00	 4.733322667528886e+01
1	 1.024234455404330e+00	 1.261573929795459e+00	 4.783866329362674e+01
1	 9.979747288431317e-01	 1.282447441638376e+00	 4.794605167517288e+01
1	 9.713241740187781e-01	 1.302748766623323e+00	 4.762782507309380e+01
1	 9.443014443144199e-01	 1.322467308569620e+00	 4.685828885707220e+01
1	 9.169255568526588e-01	 1.341593277844826e+00	 4.561371273584420e+01
1	 8.892158492486486e-01	 1.360117705719598e+00	 4.387241153133684e+01
1	 1.157887354190000e+00	 1.157887354190000e+00	 3.891958021344551e+01
1	 1.133660992191846e+00	 1.181617114283772e+00	 4.052421761634722e+01
1	 1.108953768493124e+00	 1.204835171020993e+00	 4.193907640922181e+01
1	 1.083782027983116e+00	 1.227527093714434e+00	 4.313030922411411e+01
1	 1.058162684270582e+00	 1.249679152261479e+00	 4.406516637145157e+01
1	 1.032113181986218e+00	 1.271278344638683e+00	 4.471213005871144e+01
1	 1.005651457528369e+00	 1.292312421957389e+00	 4.504104126651988e+01
1	 9.787958984359921e-01	 1.312769910980883e+00	 4.502321848015500e+01
1	 9.515653015798000e-01	 1.332640134019404e+00	 4.463156754906143e+01
1	 9.239788303679534e-01	 1.351913226135644e+00	 4.384068202826960e+01
1	 8.960559711664935e-01	 1.370580149610033e+00	 4.262693344250820e+01
1	 1.166726188955000e+00	 1.166726188955000e+00	 3.588455422027708e+01
1	 1.142314892896179e+00	 1.190637092255217e+00	 3.730870590694848e+01
1	 1.117419064436706e+00	 1.214032386066488e+00	 3.862337546366673e+01
1	 1.092055173236014e+00	 1.236897529543666e+00	 3.979478858906386e+01
1	 1.066240262014376e+00	 1.259218687774190e+00	 4.078996946118385e+01
1	 1.039991908567610e+00	 1.280982759482529e+00	 4.157687699751609e+01
1	 1.013328186213133e+00	 1.302177402277059e+00	 4.212453533778063e+01
1	 9.862676228527935e-01	 1.322791055339106e+00	 4.240315771368735e+01
1	 9.588291588448689e-01	 1.342812959469824e+00	 4.238426293205254e+01
1	 9.310321038830781e-01	 1.362233174427042e+00	 4.204078376706887e+01
1	 9.028960930843491e-01	 1.381042593500963e+00	 4.134716663323952e+01
1	 1.175565023720000e+00	 1.175565023720000e+00	 3.283700483535336e+01
1	 1.150968793600331e+00	 1.199657070226847e+00	 3.408381910341382e+01
1	 1.125884360379969e+00	 1.223229601112323e+00	 3.530027476420737e+01
1	 1.100328318488492e+00	 1.246267965373361e+00	 3.645266790560752e+01
1	 1.074317839757692e+00	 1.268758223287460e+00	 3.750779692056518e+01
1	 1.047870635148505e+00	 1.290687174326999e+00	 3.843310079784526e+01
1	 1.021004914897422e+00	 1.312042382597387e+00	 3.919679318639305e+01
1	 9.937393472691824e-01	 1.332812199697989e+00	 3.976799136405983e+01
1	 9.660930161096266e-01	 1.352985784920880e+00	 4.011683929119912e+01
1	 9.380853773980332e-01	 1.372553122719020e+00	 4.021462398727543e+01
1	 9.097362150022150e-01	 1.391505037392387e+00	 4.003388453330773e+01
1	 1.184403858485000e+00	 1.184403858485000e+00	 2.977721243308366e+01
1	 1.159622694304304e+00	 1.208677048198662e+00	 3.084976709589077e+01
1	 1.134349656322913e+00	 1.232426816158497e+00	 3.196993997696537e+01
1	 1.108601463740551e+00	 1.255638401203522e+00	 3.310409493601588e+01
1	 1.082395417500531e+00	 1.278297758801290e+00	 3.421880492041930e+01
1	 1.055749361728906e+00	 1.300391589172092e+00	 3.528099227622494e+01
1	 1.028681643581237e+00	 1.321907362918372e+00	 3.625806636957099e+01
1	 1.001211071685159e+00	 1.342833344057535e+00	 3.711805761595974e+01
1	 9.733568733740733e-01	 1.363158610372571e+00	 3.782974705239542e+01
1	 9.451386509128182e-01	 1.382873071011578e+00	 3.836279063332328e+01
1	 9.165763369200917e-01	 1.401967481284305e+00	 3.868783748503265e+01
1	 1.193242693250000e+00	 1.193242693250000e+00	 2.670544908048858e+01
1	 1.168276595008097e+00	 1.217697026170663e+00	 2.760675355556105e+01
1	 1.142814952265537e+00	 1.241624031205012e+00	 2.863253185943640e+01
1	 1.116874608992193e+00	 1.265008837034148e+00	 2.974921306441955e+01
1	 1.090472995242892e+00	 1.287837294315678e+00	 3.092314500428496e+01
1	 1.063628088308809e+00	 1.310096004017808e+00	 3.212073659535891e+01
1	 1.036358372264577e+00	 1.331772343240015e+00	 3.330859899098198e+01
1	 1.008682796100723e+00	 1.352854488417742e+00	 3.445368463378540e+01
1	 9.806207306382095e-01	 1.373331435824898e+00	 3.552342329558308e+01
1	 9.521919244274334e-01	 1.393193019304715e+00	 3.648585422906945e+01
1	 9.234164588379790e-01	 1.412429925176719e+00	 3.730975359836693e+01
1	 1.202081528015000e+00	 1.202081528015000e+00	 2.362197884261759e+01
1	 1.176930495711710e+00	 1.226717004142848e+00	 2.435497616327707e+01
1	 1.151280248207841e+00	 1.250821246251867e+00	 2.528820644095548e+01
1	 1.125147754243415e+00	 1.274379272865238e+00	 2.638816145776798e+01
1	 1.098550572984775e+00	 1.297376829830625e+00	 2.762096425853989e+01
1	 1.071506814888217e+00	 1.319800418864148e+00	 2.895251347198869e+01
1	 1.044035100947444e+00	 1.341637323562315e+00	 3.034862797477412e+01
1	 1.016154520515874e+00	 1.362875632778610e+00	 3.177519093004241e+01
1	 9.878845879020346e-01	 1.383504261277861e+00	 3.319829224541067e+01
1	 9.592451979418788e-01	 1.403512967598433e+00	 3.458436851825726e+01
1	 9.302565807558767e-01	 1.422892369069627e+00	 3.590033956826440e+01
1	 1.210920362780000e+00	 1.210920362780000e+00	 2.052705807459213e+01
1	 1.185584396415142e+00	 1.235736982115218e+00	 2.109462682818793e+01
1	 1.159745544149826e+00	 1.260018461299061e+00	 2.193711519525560e+01
1	 1.133420899494219e+00	 1.283749708696792e+00	 2.302107521974271e+01
1	 1.106628150726181e+00	 1.306916365346132e+00	 2.431240547506803e+01
1	 1.079385541467129e+00	 1.329504833711111e+00	 2.577649737565153e+01
1	 1.051711829629836e+00	 1.351502303885272e+00	 2.737838332760147e+01
1	 1.023626244930612e+00	 1.372896777140139e+00	 2.908288571759993e+01
1	 9.951484451655483e-01	 1.393677086731459e+00	 3.085476574040537e+01
1	 9.662984714561544e-01	 1.413832915892731e+00	 3.265887107692954e+01
1	 9.370967026737852e-01	 1.433354812963030e+00	 3.446028145624771e+01
1	 1.219759197545000e+00	 1.219759197545000e+00	 1.742093570095137e+01
1	 1.194238297118396e+00	 1.244756960087773e+00	 1.782589189685940e+01
1	 1.168210840091492e+00	 1.269215676346595e+00	 1.857940520552820e+01
1	 1.141694044744604e+00	 1.293120144528811e+00	 1.964808553797648e+01
1	 1.114705728467110e+00	 1.316455900862197e+00	 2.099760730685871e+01
1	 1.087264268045545e+00	 1.339209248558698e+00	 2.259285771879744e+01
1	 1.059388558311753e+00	 1.361367284208887e+00	 2.439808838925912e+01
1	 1.031097969344938e+00	 1.382917921502331e+00	 2.637706924663578e+01
1	 1.002412302428751e+00	 1.403849912185693e+00	 2.849324368174595e+01
1	 9.733517449702599e-01	 1.424152864187609e+00	 3.070988389921203e+01
1	 9.439368245917042e-01	 1.443817256856928e+00	 3.299024543799734e+01
1	 1.228598032310000e+00	 1.228598032310000e+00	 1.430385348293878e+01
1	 1.202892197821469e+00	 1.253776938060513e+00	 1.454895235336605e+01
1	 1.176676136032838e+00	 1.278412891394469e+00	 1.521521932235404e+01
1	 1.149967189994570e+00	 1.302490580361294e+00	 1.626931982491866e+01
1	 1.122783306207561e+00	 1.325995436378822e+00	 1.767670441688649e+01
1	 1.095142994623465e+00	 1.348913663406907e+00	 1.940175903869756e+01
1	 1.067065286993196e+00	 1.371232264533159e+00	 2.140796007249753e+01
1	 1.038569693758852e+00	 1.392939065865184e+00	 2.365803312703438e+01
1	 1.009676159691643e+00	 1.414022737640563e+00	 2.611411446266197e+01
1	 9.804050184841961e-01	 1.434472812483067e+00	 2.873791395781799e+01
1	 9.507769465096340e-01	 1.454279700751320e+00	 3.149087851866948e+01
1	 1.237436867075000e+00	 1.237436867075000e+00	 1.117604627433396e+01
1	 1.211546098524362e+00	 1.262796916033438e+00	 1.126398401080948e+01
1	 1.185141431973866e+00	 1.287610106442683e+00	 1.184469631487007e+01
1	 1.158240335244119e+00	 1.311861016194243e+00	 1.288490185266282e+01
1	 1.130860883947535e+00	 1.335534971896005e+00	 1.434982762061316e+01
1	 1.103021721200889e+00	 1.358618078255741e+00	 1.620336117155781e+01
1	 1.074742015674166e+00	 1.381097244858090e+00	 1.840820909255943e+01
1	 1.046041418172353e+00	 1.402960210228699e+00	 2.092606063696930e+01
1	 1.016940016954224e+00	 1.424195563096068e+00	 2.371775537943451e+01
1	 9.874582919979624e-01	 1.444792760779105e+00	 2.674345374052494e+01
1	 9.576170684275745e-01	 1.464742144646208e+00	 2.996280921755790e+01
1	 8.892158492486486e-01	 1.360117705719598e+00	 4.387241153133684e+01
1	 8.611919357855461e-01	 1.378032455969275e+00	 5.751215630016206e+01
1	 8.328736632118816e-01	 1.395330233706523e+00	 6.972209430497693e+01
1	 8.042810663631879e-01	 1.412004591443889e+00	 8.046986232634669e+01
1	 7.754343238075456e-01	 1.428049932401566e+00	 8.972735982039080e+01
1	 7.463537137077207e-01	 1.443461511093458e+00	 9.747079322873040e+01
1	 7.170595700900940e-01	 1.458235431238257e+00	 1.036806987693330e+02
1	 6.875722397034173e-01	 1.472368641057263e+00	 1.083419440277831e+02
1	 6.579120396427711e-01	 1.485858926034374e+00	 1.114437088263615e+02
1	 6.280992159053126e-01	 1.498704899226502e+00	 1.129794459969728e+02
1	 5.981539030346663e-01	 1.510905989224438e+00	 1.129468228219565e+02
1	 8.960559711664935e-01	 1.370580149610033e+00	 4.262693344250820e+01
1	 8.678164891377838e-01	 1.388632705631433e+00	 5.658111078647487e+01
1	 8.392803836977581e-01	 1.406063543197860e+00	 6.868035579487707e+01
1	 8.104678437960666e-01	 1.422866165225804e+00	 7.891640886182967e+01
1	 7.813992032205448e-01	 1.439034931883307e+00	 8.728647149722508e+01
1	 7.520948961198254e-01	 1.454565061180535e+00	 9.379312419410131e+01
1	 7.225754129358753e-01	 1.469452626864787e+00	 9.844421968449244e+01
1	 6.928612569308982e-01	 1.483694553682143e+00	 1.012527528235877e+02
1	 6.629729014853196e-01	 1.497288610081763e+00	 1.022367084929983e+02
1	 6.329307483347361e-01	 1.510233398451768e+00	 1.014188890468302e+02
1	 6.027550869038751e-01	 1.522528342987494e+00	 9.882672293816745e+01
1	 9.028960930843491e-01	 1.381042593500963e+00	 4.134716663323952e+01
1	 8.744410424902173e-01	 1.399232955293995e+00	 5.573805627203645e+01
1	 8.456871041839830e-01	 1.416796852689532e+00	 6.785510259063528e+01
1	 8.166546212294176e-01	 1.433727739008007e+00	 7.771386313787684e+01
1	 7.873640826341083e-01	 1.450019931365309e+00	 8.533654349294237e+01
1	 7.578360785325561e-01	 1.465668611267865e+00	 9.075178990339690e+01
1	 7.280912557823146e-01	 1.480669822491582e+00	 9.399445424494201e+01
1	 6.981502741590386e-01	 1.495020466307319e+00	 9.510533345489684e+01
1	 6.680337633285006e-01	 1.508718294129499e+00	 9.413088573554109e+01
1	 6.377622807647348e-01	 1.521761897677452e+00	 9.112292594077340e+01
1	 6.073562707735738e-01	 1.534150696751061e+00	 8.613830264959503e+01
1	 9.097362150022150e-01	 1.391505037392387e+00	 4.003388453330773e+01
1	 8.810655958428457e-01	 1.409833204956963e+00	 5.498100799746751e+01
1	 8.520938246705574e-01	 1.427530162181541e+00	 6.724145156505237e+01
1	 8.228413986632397e-01	 1.444589312790497e+00	 7.685430994228588e+01
1	 7.933289620482358e-01	 1.461004930847569e+00	 8.386650151461474e+01
1	 7.635772609459127e-01	 1.476772161355446e+00	 8.833243694130492e+01
1	 7.336070986294119e-01	 1.491887018118641e+00	 9.031365703006455e+01
1	 7.034392913878393e-01	 1.506346378932792e+00	 8.987844294792600e+01
1	 6.730946251723136e-01	 1.520147978177585e+00	 8.710140196200075e+01
1	 6.425938131953089e-01	 1.533290396903557e+00	 8.206303200558528e+01
1	 6.119574546437619e-01	 1.545773050515137e+00	 7.484926843150780e+01
1	 9.165763369200917e-01	 1.401967481284305e+00	 3.868783748503265e+01
1	 8.876901491956691e-01	 1.420433454620336e+00	 5.430804044994157e+01
1	 8.585005451574801e-01	 1.438263471673887e+00	 6.683466535592599e+01
1	 8.290281760975334e-01	 1.455450886573275e+00	 7.633007033785336e+01
1	 7.992938414629273e-01	 1.471989930330090e+00	 8.286560184522672e+01
1	 7.693184433598954e-01	 1.487875711443280e+00	 8.652114035267607e+01
1	 7.391229414771665e-01	 1.503104213745964e+00	 8.738461233329251e+01
1	 7.087283086172992e-01	 1.517672291558560e+00	 8.555147244750535e+01
1	 6.781554870167587e-01	 1.531577662226018e+00	 8.112416003088305e+01
1	 6.474253456264587e-01	 1.544818896130081e+00	 7.421153405080875e+01
1	 6.165586385144400e-01	 1.557395404279724e+00	 6.492829074495356e+01
1	 9.234164588379790e-01	 1.412429925176719e+00	 3.730975359836693e+01
1	 8.943147025486875e-01	 1.431033704284114e+00	 5.371728516886611e+01
1	 8.649072656447517e-01	 1.448996781166568e+00	 6.663014696734746e+01
1	 8.352149535322991e-01	 1.466312460356341e+00	 7.613369291144642e+01
1	 8.052587208781826e-01	 1.482974929812870e+00	 8.232341910012612e+01
1	 7.750596257745040e-01	 1.498979261531365e+00	 8.530438777362906e+01
1	 7.446387843255793e-01	 1.514321409373550e+00	 8.519061454306735e+01
1	 7.140173258474193e-01	 1.528998204184626e+00	 8.210442373120499e+01
1	 6.832163488618361e-01	 1.543007346274800e+00	 7.617577679005858e+01
1	 6.522568780581836e-01	 1.556347395357025e+00	 6.754157883234831e+01
1	 6.211598223856076e-01	 1.569017758044822e+00	 5.634496833358341e+01
1	 9.302565807558767e-01	 1.422892369069627e+00	 3.590033956826440e+01
1	 9.009392559019015e-01	 1.441633953948297e+00	 5.320692864837538e+01
1	 8.713139861323717e-01	 1.459730090659585e+00	 6.662343460917484e+01
1	 8.414017309675366e-01	 1.477174034139694e+00	 7.625794540915024e+01
1	 8.112236002940023e-01	 1.493959929295910e+00	 8.222983452362757e+01
1	 7.808008081897385e-01	 1.510082811619702e+00	 8.466906426275398e+01
1	 7.501546271746498e-01	 1.525538605001402e+00	 8.371544938934831e+01
1	 7.193063430781990e-01	 1.540324116810988e+00	 7.951788675960441e+01
1	 6.882772107075457e-01	 1.554437030323931e+00	 7.223355682715444e+01
1	 6.570884104904839e-01	 1.567875894584390e+00	 6.202710290738467e+01
1	 6.257610062572652e-01	 1.580640111810430e+00	 4.906979409561464e+01
1	 9.370967026737852e-01	 1.433354812963030e+00	 3.446028145624771e+01
1	 9.075638092553103e-01	 1.452234203612885e+00	 5.277521033168100e+01
1	 8.777207066203410e-01	 1.470463400152938e+00	 6.681019676251628e+01
1	 8.475885084032457e-01	 1.488035607923335e+00	 7.669580673775262e+01
1	 8.171884797103856e-01	 1.504944928779209e+00	 8.257502479817293e+01
1	 7.865419906055990e-01	 1.521186361708291e+00	 8.460243779664189e+01
1	 7.556704700243780e-01	 1.536755800629518e+00	 8.294337601143840e+01
1	 7.245953603096386e-01	 1.551650029437648e+00	 7.777301820975613e+01
1	 6.933380725538877e-01	 1.565866714373410e+00	 6.927546736956403e+01
1	 6.619199429233596e-01	 1.579404393812174e+00	 5.764280380951217e+01
1	 6.303621901294124e-01	 1.592262465576548e+00	 4.307412245045478e+01
1	 9.439368245917042e-01	 1.443817256856928e+00	 3.299024543799734e+01
1	 9.141883626089141e-01	 1.462834453277879e+00	 5.242042069262987e+01
1	 8.841274271086591e-01	 1.481196709646628e+00	 6.718622745975664e+01
1	 8.537752858394263e-01	 1.498897181707264e+00	 7.744045931399664e+01
1	 8.231533591273332e-01	 1.515929928262769e+00	 8.334945134005208e+01
1	 7.922831730220854e-01	 1.532289911797133e+00	 8.509214539604463e+01
1	 7.611863128747642e-01	 1.547972996257898e+00	 8.285910980547395e+01
1	 7.298843775417380e-01	 1.562975942064603e+00	 7.685152094198368e+01
1	 6.983989344008616e-01	 1.577296398423238e+00	 6.728011427575970e+01
1	 6.667514753568107e-01	 1.590932893040377e+00	 5.436411247712845e+01
1	 6.349633740020493e-01	 1.603884819343176e+00	 3.833013812416695e+01
1	 9.507769465096340e-01	 1.454279700751320e+00	 3.149087851866948e+01
1	 9.208129159627132e-01	 1.473434702943277e+00	 5.214089940006845e+01
1	 8.905341475973253e-01	 1.491930019140653e+00	 6.774744176832465e+01
1	 8.599620632760784e-01	 1.509758755491480e+00	 7.848528174407610e+01
1	 8.291182385448447e-01	 1.526914927746587e+00	 8.454385005717754e+01
1	 7.980243554391980e-01	 1.543393461886226e+00	 8.612617985090415e+01
1	 7.667021557258082e-01	 1.559190191886543e+00	 8.344780601230636e+01
1	 7.351733947744968e-01	 1.574301854691855e+00	 7.673562435299895e+01
1	 7.034597962484678e-01	 1.588726082473414e+00	 6.622671906295238e+01
1	 6.715830077908371e-01	 1.602461392269001e+00	 5.216716687196919e+01
1	 6.395645578751757e-01	 1.615507173110314e+00	 3.481082628232427e+01
1	 9.576170684275745e-01	 1.464742144646208e+00	 2.996280921755790e+01
1	 9.274374693167079e-01	 1.484034952609081e+00	 5.193503356087713e+01
1	 8.969408680863412e-01	 1.502663328635016e+00	 6.848987146801325e+01
1	 8.661488407132029e-01	 1.520620329275986e+00	 7.982384181687134e+01
1	 8.350831179629206e-01	 1.537899927230666e+00	 8.614922154581315e+01
1	 8.037655378569366e-01	 1.554497011975572e+00	 8.769287701431122e+01
1	 7.722179985775102e-01	 1.570407387515452e+00	 8.469504400876328e+01
1	 7.404624120079161e-01	 1.585627767319404e+00	 7.740806557103221e+01
1	 7.085206580967063e-01	 1.600155766523939e+00	 6.609509691927974e+01
1	 6.764145402254393e-01	 1.613989891498045e+00	 5.102878672827427e+01
1	 6.441657417487923e-01	 1.627129526877964e+00	 3.248994394288530e+01
1	 5.981539030346663e-01	 1.510905989224438e+00	 1.129468228219565e+02
1	 5.680960850001699e-01	 1.522462425874857e+00	 1.015698495492249e+02
1	 5.379455574460040e-01	 1.533375223883753e+00	 8.833748215449648e+01
1	 5.077218914329504e-01	 1.543646164429884e+00	 7.332630347628997e+01
1	 4.774443987833440e-01	 1.553277774923845e+00	 5.661831351114576e+01
1	 4.471320991271144e-01	 1.562273307054313e+00	 3.830044078899279e+01
1	 4.168036887336734e-01	 1.570636713267633e+00	 1.846404484993925e+01
1	 3.864775112014002e-01	 1.578372621830225e+00	-2.795586696885837e+00
1	 3.561715300634782e-01	 1.585486310625523e+00	-2.537974316047163e+01
1	 3.259033033559552e-01	 1.591983679838119e+00	-4.918679456434857e+01
1	 2.956899601812942e-01	 1.597871223677692e+00	-7.411269117452797e+01
1	 6.027550869038751e-01	 1.522528342987494e+00	 9.882672293816745e+01
1	 5.724660548848367e-01	 1.534173675303793e+00	 8.550515986704781e+01
1	 5.420836001959101e-01	 1.545170417912212e+00	 7.149025740098500e+01
1	 5.116274444444988e-01	 1.555520365692882e+00	 5.679352293639720e+01
1	 4.811170480054178e-01	 1.565226065498014e+00	 4.142977544179991e+01
1	 4.505715768134437e-01	 1.574290794029277e+00	 2.541698703599185e+01
1	 4.200098709554459e-01	 1.582718534136446e+00	 8.776113128801176e+00
1	 3.894504151344075e-01	 1.590513949687990e+00	-8.469087336475814e+00
1	 3.589113110645378e-01	 1.597682359166444e+00	-2.629223998833791e+01
1	 3.284102518437008e-01	 1.604229708142433e+00	-4.466454993340803e+01
1	 2.979644983366877e-01	 1.610162540781094e+00	-6.355500193569294e+01
1	 6.073562707735738e-01	 1.534150696751061e+00	 8.613830264959503e+01
1	 5.768360247698988e-01	 1.545884924733330e+00	 7.055759297217622e+01
1	 5.462216429461266e-01	 1.556965611941338e+00	 5.543041062554711e+01
1	 5.155329974562838e-01	 1.567394566956594e+00	 4.070396962157584e+01
1	 4.847896972276649e-01	 1.577174356072925e+00	 2.632670837124013e+01
1	 4.540110544998927e-01	 1.586308281004989e+00	 1.224845831509076e+01
1	 4.232160531772945e-01	 1.594800355005994e+00	-1.579401391297878e+00
1	 3.924233190674576e-01	 1.602655277546456e+00	-1.520380352221407e+01
1	 3.616510920656160e-01	 1.609878407708013e+00	-2.866986701185917e+01
1	 3.309172003314512e-01	 1.616475736447324e+00	-4.202078589820695e+01
1	 3.002390364920813e-01	 1.622453857884982e+00	-5.529773298864593e+01
1	 6.119574546437619e-01	 1.545773050515137e+00	 7.484926843150780e+01
1	 5.812059946553556e-01	 1.557596174163466e+00	 5.670195060625061e+01
1	 5.503596856966543e-01	 1.568760805971133e+00	 4.014018142268269e+01
1	 5.194385504683057e-01	 1.579268768221021e+00	 2.504764592527727e+01
1	 4.884623464500848e-01	 1.589122646648578e+00	 1.130718438224141e+01
1	 4.574505321864613e-01	 1.598325767981450e+00	-1.198715111229617e+00
1	 4.264222353992193e-01	 1.606882175876276e+00	-1.258744045168324e+01
1	 3.953962230005502e-01	 1.614796605405623e+00	-2.297579806127734e+01
1	 3.643908730667133e-01	 1.622074456250230e+00	-3.247957618145850e+01
1	 3.334241488192061e-01	 1.628721764752790e+00	-4.121313071594162e+01
1	 3.025135746474747e-01	 1.634745174989355e+00	-4.928899515384846e+01
1	 6.165586385144400e-01	 1.557395404279724e+00	 6.492829074495356e+01
1	 5.855759645412076e-01	 1.569307423594202e+00	 4.391378669770600e+01
1	 5.544977284474925e-01	 1.580556000001596e+00	 2.560233954823531e+01
1	 5.233441034805644e-01	 1.591142969486163e+00	 9.814852676962985e+00
1	 4.921349956726781e-01	 1.601070937224973e+00	-3.630666892654396e+00
1	 4.608900098731494e-01	 1.610343254958658e+00	-1.491829492861964e+01
1	 4.296284176212204e-01	 1.618963996747293e+00	-2.423339529393551e+01
1	 3.983691269336854e-01	 1.626937933265491e+00	-3.176184830390836e+01
1	 3.671306540678292e-01	 1.634270504793095e+00	-3.768930595650112e+01
1	 3.359310973069657e-01	 1.640967793058833e+00	-4.220047747195593e+01
1	 3.047881128028683e-01	 1.647036492094213e+00	-4.547844818250390e+01
1	 6.211598223856076e-01	 1.569017758044822e+00	 5.634496833358341e+01
1	 5.899459344274547e-01	 1.581018673025537e+00	 3.216937950300155e+01
1	 5.586357711986415e-01	 1.592351194032726e+00	 1.180016528378838e+01
1	 5.272496564930597e-01	 1.603017170752021e+00	-5.003821911080628e+00
1	 4.958076448954447e-01	 1.613019227802109e+00	-1.848866040261110e+01
1	 4.643294875599572e-01	 1.622360741936614e+00	-2.890422766167133e+01
1	 4.328345998432976e-01	 1.631045817619043e+00	-3.650309001173328e+01
1	 4.013420308668634e-01	 1.639079261126060e+00	-4.153941967885837e+01
1	 3.698704350689641e-01	 1.646466553336608e+00	-4.426794476792558e+01
1	 3.384380457947301e-01	 1.653213821365451e+00	-4.494293723425345e+01
1	 3.070626509582619e-01	 1.659327809199556e+00	-4.381724338875273e+01
1	 6.257610062572652e-01	 1.580640111810430e+00	 4.906979409561464e+01
1	 5.943159043140965e-01	 1.592729922457472e+00	 2.144570497691466e+01
1	 5.627738139501012e-01	 1.604146388064524e+00	-1.282569332662590e+00
1	 5.311552095057922e-01	 1.614891372018594e+00	-1.941751280928694e+01
1	 4.994802941183842e-01	 1.624967518379987e+00	-3.326855771593605e+01
1	 4.677689652468848e-01	 1.634378228915318e+00	-4.315063787836862e+01
1	 4.360407820654509e-01	 1.643127638491529e+00	-4.938276563717281e+01
1	 4.043149348000838e-01	 1.651220588987329e+00	-5.228664039638311e+01
1	 3.726102160701177e-01	 1.658662601880768e+00	-5.218529609281958e+01
1	 3.409449942824992e-01	 1.665459849672645e+00	-4.940179427472363e+01
1	 3.093371891136554e-01	 1.671619126305386e+00	-4.425796881279857e+01
1	 6.303621901294124e-01	 1.592262465576548e+00	 4.307412245045478e+01
1	 5.986858742011336e-01	 1.604441171890006e+00	 1.172041130909984e+01
1	 5.669118567018716e-01	 1.615941582096991e+00	-1.366161845402503e+01
1	 5.350607625187613e-01	 1.626765573285882e+00	-3.343508827363014e+01
1	 5.031529433414970e-01	 1.636915808958607e+00	-4.797206896828528e+01
1	 4.712084429339320e-01	 1.646395715894772e+00	-5.765182169215407e+01
1	 4.392469642876805e-01	 1.655209459364748e+00	-6.285906492403788e+01
1	 4.072878387333470e-01	 1.663361916849300e+00	-6.398227725913742e+01
1	 3.753499970712901e-01	 1.670858650425577e+00	-6.141204505857371e+01
1	 3.434519427702728e-01	 1.677705877980415e+00	-5.553946325148148e+01
1	 3.116117272690490e-01	 1.683910443411700e+00	-4.675459678565051e+01
1	 6.349633740020493e-01	 1.603884819343176e+00	 3.833013812416695e+01
1	 6.030558440885656e-01	 1.616152421323141e+00	 2.971794567752966e+00
1	 5.710498994539527e-01	 1.627736776130124e+00	-2.535227959110411e+01
1	 5.389663155319673e-01	 1.638639774553884e+00	-4.706515950919145e+01
1	 5.068255925647830e-01	 1.648864099537968e+00	-6.260085472616758e+01
1	 4.746479206210989e-01	 1.658413202874972e+00	-7.240224054651281e+01
1	 4.424531465099864e-01	 1.667291280238702e+00	-7.691901779266598e+01
1	 4.102607426666527e-01	 1.675503244711971e+00	-7.660571252476834e+01
1	 3.780897780724816e-01	 1.683054698971034e+00	-7.191972649903083e+01
1	 3.459588912580512e-01	 1.689951906288762e+00	-6.331944825284438e+01
1	 3.138862654244425e-01	 1.696201760518499e+00	-5.126243377365900e+01
1	 6.395645578751757e-01	 1.615507173110314e+00	 3.481082628232427e+01
1	 6.074258139763925e-01	 1.627863670756874e+00	-4.821224605371327e+00
1	 5.751879422063448e-01	 1.639531970163926e+00	-3.636941003857748e+01
1	 5.428718685454100e-01	 1.650513975822602e+00	-6.031608991659406e+01
1	 5.104982417882420e-01	 1.660812390118072e+00	-7.715652777000427e+01
1	 4.780873983083853e-01	 1.670430689855921e+00	-8.739651526785019e+01
1	 4.456593287323683e-01	 1.679373101113391e+00	-9.155002740309484e+01
1	 4.132336466000011e-01	 1.687644572575344e+00	-9.013692176724767e+01
1	 3.808295590736919e-01	 1.695250747517139e+00	-8.368069438950555e+01
1	 3.484658397458342e-01	 1.702197934597684e+00	-7.270630360919591e+01
1	 3.161608035798359e-01	 1.708493077625785e+00	-5.773807238803537e+01
1	 6.441657417487923e-01	 1.627129526877964e+00	 3.248994394288530e+01
1	 6.117957838646149e-01	 1.639574920191208e+00	-1.167912330115777e+01
1	 5.793259849590476e-01	 1.651327164198396e+00	-4.672744259700088e+01
1	 5.467774215590897e-01	 1.662388177092036e+00	-7.319600394216394e+01
1	 5.141708910118744e-01	 1.672760680698918e+00	-9.164065480077815e+01
1	 4.815268759957917e-01	 1.682448176837619e+00	-1.026294203732438e+02
1	 4.488655109548267e-01	 1.691454921988814e+00	-1.067398568250719e+02
1	 4.162065505333923e-01	 1.699785900439417e+00	-1.045564526870034e+02
1	 3.835693400749210e-01	 1.707446796063892e+00	-9.666809259173199e+01
1	 3.509727882336220e-01	 1.714443962907183e+00	-8.366559638434045e+01
1	 3.184353417352296e-01	 1.720784394733555e+00	-6.613934545110691e+01
1	 2.956899601812942e-01	 1.597871223677692e+00	-7.411269117452797e+01
1	 2.655481792878332e-01	 1.603156001294210e+00	-8.840907386719968e+01
1	 2.354941696761790e-01	 1.607845607033304e+00	-9.759836610769250e+01
1	 2.055436532290555e-01	 1.611948140178152e+00	-1.018321637523266e+02
1	 1.757118493506961e-01	 1.615472174320239e+00	-1.012747141705763e+02
1	 1.460134615946999e-01	 1.618426726496131e+00	-9.610174805046476e+01
1	 1.164626662474424e-01	 1.620821226222415e+00	-8.649931116360217e+01
1	 8.707310282611763e-02	 1.622665484554889e+00	-7.266260301898396e+01
1	 5.785786644259734e-02	 1.623969663291593e+00	-5.479482887664994e+01
1	 2.882950197718375e-02	 1.624744244432313e+00	-3.310607110680373e+01
1	 0.000000000000000e+00	 1.625000000000000e+00	-7.812185374164883e+00
1	 2.979644983366877e-01	 1.610162540781094e+00	-6.355500193569294e+01
1	 2.675908575899578e-01	 1.615487970533476e+00	-7.354473924363290e+01
1	 2.373056632887938e-01	 1.620213650163185e+00	-8.136169275670294e+01
1	 2.071247582534782e-01	 1.624347741255574e+00	-8.705429259224155e+01
1	 1.770634789605836e-01	 1.627898883352835e+00	-9.067794101605068e+01
1	 1.471366420679667e-01	 1.630876162853355e+00	-9.229448146739628e+01
1	 1.173585329103589e-01	 1.633289081808462e+00	-9.197166164968112e+01
1	 8.774289592431626e-02	 1.635147526743617e+00	-8.978259423150742e+01
1	 5.830292695333918e-02	 1.636461737624537e+00	-8.580521850982943e+01
1	 2.905126737680813e-02	 1.637242277081775e+00	-8.012176617665492e+01
1	 0.000000000000000e+00	 1.637500000000000e+00	-7.281823410674394e+01
1	 3.002390364920813e-01	 1.622453857884982e+00	-5.529773298864593e+01
1	 2.696335358920826e-01	 1.627819939773135e+00	-6.065026064654335e+01
1	 2.391171569014086e-01	 1.632581693293372e+00	-6.672368342844277e+01
1	 2.087058632779007e-01	 1.636747342333230e+00	-7.346460325400844e+01
1	 1.784151085704711e-01	 1.640325592385602e+00	-8.082096517598750e+01
1	 1.482598225412336e-01	 1.643325599210697e+00	-8.874215748428135e+01
1	 1.182543995732755e-01	 1.645756937394584e+00	-9.717910005779011e+01
1	 8.841268902251494e-02	 1.647629568932387e+00	-1.060843211537704e+02
1	 5.874798746408103e-02	 1.648953811957498e+00	-1.154120228940142e+02
1	 2.927303277643252e-02	 1.649740309731242e+00	-1.251181357696994e+02
1	 0.000000000000000e+00	 1.650000000000000e+00	-1.351603625421084e+02
1	 3.025135746474747e-01	 1.634745174989355e+00	-4.928899515384846e+01
1	 2.716762141942071e-01	 1.640151909013182e+00	-4.968120523324544e+01
1	 2.409286505140234e-01	 1.644949736423866e+00	-5.364827803222146e+01
1	 2.102869683023234e-01	 1.649146943411119e+00	-6.103629464396543e+01
1	 1.797667381803585e-01	 1.652752301418539e+00	-7.168709949298875e+01
1	 1.493830030145004e-01	 1.655775035568155e+00	-8.543902551622405e+01
1	 1.191502662361921e-01	 1.658224792980780e+00	-1.021276018483843e+02
1	 8.908248212071354e-02	 1.660111611121198e+00	-1.215862408750547e+02
1	 5.919304797482287e-02	 1.661445886290479e+00	-1.436469018468506e+02
1	 2.949479817605690e-02	 1.662238342380713e+00	-1.681407285808716e+02
1	 0.000000000000000e+00	 1.662500000000000e+00	-1.948986591079557e+02
1	 3.047881128028683e-01	 1.647036492094213e+00	-4.547844818250390e+01
1	 2.737188924963317e-01	 1.652483878253622e+00	-4.059446651457345e+01
1	 2.427401441266382e-01	 1.657317779554668e+00	-4.210049289796933e+01
1	 2.118680733267460e-01	 1.661546544489241e+00	-4.974336570110066e+01
1	 1.811183677902460e-01	 1.665179010451648e+00	-6.326015493375812e+01
1	 1.505061834877673e-01	 1.668224471925732e+00	-8.237950663757920e+01
1	 1.200461328991086e-01	 1.670692648567053e+00	-1.068229641099656e+02
1	 8.975227521891216e-02	 1.672593653310051e+00	-1.363062595267547e+02
1	 5.963810848556471e-02	 1.673937960623477e+00	-1.705405701168014e+02
1	 2.971656357568129e-02	 1.674736375030189e+00	-2.092337336425724e+02
1	 0.000000000000000e+00	 1.675000000000000e+00	-2.520914185475760e+02
1	 3.070626509582619e-01	 1.659327809199556e+00	-4.381724338875273e+01
1	 2.757615707984564e-01	 1.664815847494451e+00	-3.334821523067659e+01
1	 2.445516377392530e-01	 1.669685822685776e+00	-3.204638090880838e+01
1	 2.134491783511686e-01	 1.673946145567598e+00	-3.956058576621147e+01
1	 1.824699974001335e-01	 1.677605719484926e+00	-5.552442214006088e+01
1	 1.516293639610341e-01	 1.680673908283426e+00	-7.955818722420184e+01
1	 1.209419995620252e-01	 1.683160504153399e+00	-1.112708121654501e+02
1	 9.042206831711082e-02	 1.685075695498947e+00	-1.502617526882189e+02
1	 6.008316899630655e-02	 1.686430034956494e+00	-1.961228323857083e+02
1	 2.993832897530567e-02	 1.687234407679669e+00	-2.484400306825399e+02
1	 0.000000000000000e+00	 1.687500000000000e+00	-3.067952083526088e+02
1	 3.093371891136554e-01	 1.671619126305386e+00	-4.425796881279857e+01
1	 2.778042491005809e-01	 1.677147816735672e+00	-2.790185239405864e+01
1	 2.463631313518678e-01	 1.682053865817191e+00	-2.345299339247831e+01
1	 2.150302833755913e-01	 1.686345746646188e+00	-3.046346625831038e+01
1	 1.838216270100210e-01	 1.690032428518376e+00	-4.846465379361209e+01
1	 1.527525444343010e-01	 1.693123344641238e+00	-7.696981287618780e+01
1	 1.218378662249418e-01	 1.695628359739820e+00	-1.154766058870793e+02
1	 9.109186141530945e-02	 1.697557737687884e+00	-1.634695848923475e+02
1	 6.052822950704838e-02	 1.698922109289530e+00	-2.204226167271235e+02
1	 3.016009437493006e-02	 1.699732440329154e+00	-2.858012382600508e+02
1	 0.000000000000000e+00	 1.700000000000000e+00	-3.590649322649405e+02
1	 3.116117272690490e-01	 1.683910443411700e+00	-4.675459678565051e+01
1	 2.798469274027056e-01	 1.689479785977283e+00	-2.421596438912709e+01
1	 2.481746249644826e-01	 1.694421908948912e+00	-1.628834368175251e+01
1	 2.166113884000138e-01	 1.698745347725011e+00	-2.242823359147634e+01
1	 1.851732566199084e-01	 1.702459137551994e+00	-4.206604775330378e+01
1	 1.538757249075678e-01	 1.705572780999167e+00	-7.460928260676781e+01
1	 1.227337328878583e-01	 1.708096215326316e+00	-1.194456457347678e+02
1	 9.176165451350807e-02	 1.710039779876861e+00	-1.759461282769195e+02
1	 6.097329001779021e-02	 1.711414183622584e+00	-2.434680065993164e+02
1	 3.038185977455445e-02	 1.712230472978645e+00	-3.213577597939634e+02
1	 0.000000000000000e+00	 1.712500000000000e+00	-4.089538909974993e+02
1	 3.138862654244425e-01	 1.696201760518499e+00	-5.126243377365900e+01
1	 2.818896057048302e-01	 1.701811755219286e+00	-2.225228002393546e+01
1	 2.499861185770973e-01	 1.706789952080941e+00	-1.052137225918213e+01
1	 2.181924934244365e-01	 1.711144948804068e+00	-1.543180326923789e+01
1	 1.865248862297958e-01	 1.714885846585784e+00	-3.631423092559631e+01
1	 1.549989053808347e-01	 1.718022217357214e+00	-7.247164328386376e+01
1	 1.236295995507749e-01	 1.720564070912886e+00	-1.231830785319091e+02
1	 9.243144761170670e-02	 1.722521822065882e+00	-1.877072804249942e+02
1	 6.141835052853206e-02	 1.723906257955657e+00	-2.652862714472701e+02
1	 3.060362517417883e-02	 1.724728505628139e+00	-3.551488275895501e+02
1	 0.000000000000000e+00	 1.725000000000000e+00	-4.565138403150139e+02
1	 3.161608035798359e-01	 1.708493077625785e+00	-5.773807238803537e+01
1	 2.839322840069549e-01	 1.714143724461679e+00	-2.197362943580709e+01
1	 2.517976121897121e-01	 1.719157995213276e+00	-6.121913406385271e+00
1	 2.197735984488592e-01	 1.723544549883358e+00	-9.451755097181334e+00
1	 1.878765158396833e-01	 1.727312555619745e+00	-3.119524383115439e+01
1	 1.561220858541015e-01	 1.730471653715379e+00	-7.055208431156973e+01
1	 1.245254662136915e-01	 1.733031926499532e+00	-1.266939029918719e+02
1	 9.310124070990533e-02	 1.735003864254944e+00	-1.987684814352272e+02
1	 6.186341103927389e-02	 1.736398332288747e+00	-2.859038959837383e+02
1	 3.082539057380321e-02	 1.737226538277638e+00	-3.872125449648790e+02
1	 0.000000000000000e+00	 1.737499999999999e+00	-5.017950466076894e+02
1	 3.184353417352296e-01	 1.720784394733555e+00	-6.613934545110691e+01
1	 2.859749623090795e-01	 1.726475693704463e+00	-2.334390475814707e+01
1	 2.536091058023270e-01	 1.731526038345919e+00	-3.060663282651308e+00
1	 2.213547034732818e-01	 1.735944150962882e+00	-4.466309457878985e+00
1	 1.892281454495708e-01	 1.739739264653876e+00	-2.669552583291009e+01
1	 1.572452663273684e-01	 1.742921090073661e+00	-6.884593253957945e+01
1	 1.254213328766080e-01	 1.745499782086253e+00	-1.299829750076438e+02
1	 9.377103380810400e-02	 1.747485906444048e+00	-2.091447302605987e+02
1	 6.230847155001576e-02	 1.748890406621857e+00	-3.053466082153998e+02
1	 3.104715597342760e-02	 1.749724570927141e+00	-4.175859265717905e+02
1	 0.000000000000000e+00	 1.750000000000000e+00	-5.448463400831570e+02
1	 1.750000000000000e+00	 0.000000000000000e+00	-1.238585157075762e+02
1	 1.749724570927141e+00	 3.104715597342660e-02	-1.015495660601542e+02
1	 1.748890406621857e+00	 6.230847155001488e-02	-8.593081567667275e+01
1	 1.747485906444049e+00	 9.377103380810323e-02	-7.663907117391339e+01
1	 1.745499782086252e+00	 1.254213328766073e-01	-7.327557755997206e+01
1	 1.742921090073661e+00	 1.572452663273678e-01	-7.540589219031567e+01
1	 1.739739264653876e+00	 1.892281454495704e-01	-8.255992297950519e+01
1	 1.735944150962882e+00	 2.213547034732815e-01	-9.423214027012361e+01
1	 1.731526038345919e+00	 2.536091058023268e-01	-1.098819710500888e+02
1	 1.726475693704463e+00	 2.859749623090794e-01	-1.289343833672854e+02
1	 1.720784394733555e+00	 3.184353417352296e-01	-1.507806678157368e+02
1	 1.762500000000000e+00	 0.000000000000000e+00	-8.219635868212269e+01
1	 1.762222603576645e+00	 3.126892137305098e-02	-6.888324887963756e+01
1	 1.761382480954966e+00	 6.275353206075669e-02	-6.048037735491967e+01
1	 1.759967948633153e+00	 9.444082690630186e-02	-5.667440083714629e+01
1	 1.757967637672972e+00	 1.263171995395239e-01	-5.712414627839187e+01
1	 1.755370526431943e+00	 1.583684468006347e-01	-6.146062039275587e+01
1	 1.752165973688007e+00	 1.905797750594578e-01	-6.928715286263831e+01
1	 1.748343752042406e+00	 2.229358084977041e-01	-8.017968018621561e+01
1	 1.743894081478562e+00	 2.554205994149417e-01	-9.368717652359678e+01
1	 1.738807662947248e+00	 2.880176406112040e-01	-1.093322371792164e+02
1	 1.733075711841326e+00	 3.207098798906232e-01	-1.266118195349450e+02
1	 1.775000000000000e+00	 0.000000000000000e+00	-3.408462975246065e+01
1	 1.774720636226143e+00	 3.149068677267536e-02	-3.043579692774871e+01
1	 1.773874555288057e+00	 6.319859257149853e-02	-2.994483927653436e+01
1	 1.772449990822214e+00	 9.511062000450050e-02	-3.234779535839866e+01
1	 1.770435493259618e+00	 1.272130662024405e-01	-3.736053030318461e+01
1	 1.767819962790108e+00	 1.594916272739015e-01	-4.467887951121963e+01
1	 1.764592682721967e+00	 1.919314046693453e-01	-5.397889569238215e+01
1	 1.760743353121696e+00	 2.245169135221267e-01	-6.491720381161346e+01
1	 1.756262124610897e+00	 2.572320930275563e-01	-7.713146798500949e+01
1	 1.751139632189640e+00	 2.900603189133286e-01	-9.024097377205798e+01
1	 1.745367028948611e+00	 3.229844180460166e-01	-1.038473286369593e+02
1	 1.787500000000000e+00	 0.000000000000000e+00	 2.034136537724901e+01
1	 1.787218668875638e+00	 3.171245217229974e-02	 1.367150724796187e+01
1	 1.786366629621130e+00	 6.364365308224038e-02	 5.569118144115912e+00
1	 1.784932033011234e+00	 9.578041310269911e-02	-3.750763866387043e+00
1	 1.782903348846188e+00	 1.281089328653570e-01	-1.406050973263153e+01
1	 1.780269399148155e+00	 1.606148077471684e-01	-2.512017588987644e+01
1	 1.777019391755757e+00	 1.932830342792328e-01	-3.667785399401039e+01
1	 1.773142954200753e+00	 2.260980185465493e-01	-4.847009610306804e+01
1	 1.768630167742926e+00	 2.590435866401711e-01	-6.022241705649207e+01
1	 1.763471601431642e+00	 2.921029972154534e-01	-7.164987532470673e+01
1	 1.757658346055410e+00	 3.252589562014102e-01	-8.245773307821908e+01
1	 1.800000000000000e+00	 0.000000000000000e+00	 8.095007949462492e+01
1	 1.799716701525128e+00	 3.193421757192412e-02	 6.332075005959609e+01
1	 1.798858703954184e+00	 6.408871359298220e-02	 4.595777783750461e+01
1	 1.797414075200213e+00	 9.645020620089774e-02	 2.902772643041369e+01
1	 1.795371204432684e+00	 1.290047995282736e-01	 1.270224033771375e+01
1	 1.792718835506084e+00	 1.617379882204352e-01	-2.842362918892858e+00
1	 1.789446100789376e+00	 1.946346638891202e-01	-1.742554411154116e+01
1	 1.785542555279577e+00	 2.276791235709719e-01	-3.086303687964464e+01
1	 1.780998210874648e+00	 2.608550802527859e-01	-4.296738503737240e+01
1	 1.775803570673254e+00	 2.941456755175779e-01	-5.354852173331129e+01
1	 1.769949663161724e+00	 3.275334943568037e-01	-6.241438920525906e+01
1	 1.812500000000000e+00	 0.000000000000000e+00	 1.476135942758998e+02
1	 1.812214734174612e+00	 3.215598297154849e-02	 1.183972707078848e+02
1	 1.811350778287220e+00	 6.453377410372405e-02	 9.112028389464217e+01
1	 1.809896117389150e+00	 9.711999929909636e-02	 6.590116259134560e+01
1	 1.807839060019105e+00	 1.299006661911902e-01	 4.285607722872481e+01
1	 1.805168271863896e+00	 1.628611686937021e-01	 2.209830196715339e+01
1	 1.801872809822825e+00	 1.959862934990077e-01	 3.737662889461468e+00
1	 1.797942156358166e+00	 2.292602285953945e-01	-1.212002513781505e+01
1	 1.793366254006062e+00	 2.626665738654007e-01	-2.537353015665257e+01
1	 1.788135539914474e+00	 2.961883538197025e-01	-3.592678034515986e+01
1	 1.782240980267553e+00	 3.298080325121973e-01	-4.368944353436079e+01
1	 1.825000000000000e+00	 0.000000000000000e+00	 2.202074960089132e+02
1	 1.824712766824093e+00	 3.237774837117288e-02	 1.787895497853169e+02
1	 1.823842852620237e+00	 6.497883461446587e-02	 1.409585435821252e+02
1	 1.822378159578045e+00	 9.778979239729499e-02	 1.067854018933011e+02
1	 1.820306915605452e+00	 1.307965328541067e-01	 7.633132107440008e+01
1	 1.817617708221590e+00	 1.639843491669689e-01	 4.964710263325981e+01
1	 1.814299518856104e+00	 1.973379231088951e-01	 2.677250200002189e+01
1	 1.810341757436523e+00	 2.308413336198172e-01	 7.735597632699900e+00
1	 1.805734297137171e+00	 2.644780674780155e-01	-7.447814527472598e+00
1	 1.800467509155304e+00	 2.982310321218272e-01	-1.877479611446295e+01
1	 1.794532297372897e+00	 3.320825706675907e-01	-2.625580569094547e+01
1	 1.837500000000000e+00	 0.000000000000000e+00	 2.986107563886351e+02
1	 1.837210799473569e+00	 3.259951377079726e-02	 2.443891024260802e+02
1	 1.836334926953235e+00	 6.542389512520771e-02	 1.953771333565730e+02
1	 1.834860201766898e+00	 9.845958549549363e-02	 1.515985912110786e+02
1	 1.832774771191723e+00	 1.316923995170233e-01	 1.130601880595116e+02
1	 1.830067144579166e+00	 1.651075296402358e-01	 7.975081181884362e+01
1	 1.826726227889211e+00	 1.986895527187826e-01	 5.164077664678116e+01
1	 1.822741358514645e+00	 2.324224386442398e-01	 2.868112508475563e+01
1	 1.818102340267972e+00	 2.662895610906304e-01	 1.080298918228324e+01
1	 1.812799478395743e+00	 3.002737104239518e-01	-2.082982159941896e+00
1	 1.806823614477755e+00	 3.343571088229843e-01	-1.008712245348062e+01
1	 1.850000000000000e+00	 0.000000000000000e+00	 3.827056181453042e+02
1	 1.849708832123041e+00	 3.282127917042164e-02	 3.150903757877618e+02
1	 1.848827001286216e+00	 6.586895563594955e-02	 2.542832086892892e+02
1	 1.847342243955709e+00	 9.912937859369225e-02	 2.002610896661021e+02
1	 1.845242626777920e+00	 1.325882661799398e-01	 1.529767263638358e+02
1	 1.842516580936625e+00	 1.662307101135026e-01	 1.123576408379312e+02
1	 1.839152936922149e+00	 2.000411823286701e-01	 7.830532259619909e+01
1	 1.835140959592534e+00	 2.340035436686624e-01	 5.069446455626391e+01
1	 1.830470383398466e+00	 2.681010547032451e-01	 2.937229134980731e+01
1	 1.825131447635792e+00	 3.023163887260764e-01	 1.415798929478408e+01
1	 1.819114931582128e+00	 3.366316469783779e-01	 4.842247150339448e+00
1	 1.862500000000000e+00	 0.000000000000000e+00	 4.723774852781427e+02
1	 1.862206864772507e+00	 3.304304457004600e-02	 3.907906506612978e+02
1	 1.861319075619178e+00	 6.631401614669137e-02	 3.175864175221449e+02
1	 1.859824286144479e+00	 9.979917169189090e-02	 2.526953943899556e+02
1	 1.857710482364042e+00	 1.334841328428564e-01	 1.960167546858109e+02
1	 1.854966017293967e+00	 1.673538905867695e-01	 1.474171913048411e+02
1	 1.851579645954916e+00	 2.013928119385575e-01	 1.067299733122789e+02
1	 1.847540560670190e+00	 2.355846486930850e-01	 7.375411647673474e+01
1	 1.842838426528654e+00	 2.699125483158599e-01	 4.825367925491766e+01
1	 1.837463416875449e+00	 3.043590670282010e-01	 2.995719561599197e+01
1	 1.831406248686016e+00	 3.389061851337714e-01	 1.855725574457225e+01
1	 1.875000000000000e+00	 0.000000000000000e+00	 5.675148176797279e+02
1	 1.874704897421970e+00	 3.326480996967039e-02	 4.713899470165350e+02
1	 1.873811149952121e+00	 6.675907665743323e-02	 3.851988171852280e+02
1	 1.872306328333207e+00	 1.004689647900895e-01	 3.088260692573840e+02
1	 1.870178337950090e+00	 1.343799995057729e-01	 2.421178032252498e+02
1	 1.867415453651191e+00	 1.684770710600364e-01	 1.848804087908429e+02
1	 1.864006354987513e+00	 2.027444415484450e-01	 1.368795266999821e+02
1	 1.859940161747613e+00	 2.371657537175077e-01	 9.783915459755821e+01
1	 1.855206469658534e+00	 2.717240419284748e-01	 6.744091118330363e+01
1	 1.849795386114716e+00	 3.064017453303257e-01	 4.532347210685973e+01
1	 1.843697565789419e+00	 3.411807232891650e-01	 3.108219054997195e+01
1	 1.720784394733555e+00	 3.184353417352296e-01	-1.507806678157368e+02
1	 1.714443962907183e+00	 3.509727882336210e-01	-1.425900932601607e+02
1	 1.707446796063893e+00	 3.835693400749201e-01	-1.332254588384914e+02
1	 1.699785900439417e+00	 4.162065505333916e-01	-1.228848703425521e+02
1	 1.691454921988814e+00	 4.488655109548259e-01	-1.117755478705276e+02
1	 1.682448176837619e+00	 4.815268759957912e-01	-1.001133199856687e+02
1	 1.672760680698918e+00	 5.141708910118742e-01	-8.812205432698471e+01
1	 1.662388177092036e+00	 5.467774215590895e-01	-7.603302547318717e+01
1	 1.651327164198396e+00	 5.793259849590476e-01	-6.408422140211142e+01
1	 1.639574920191208e+00	 6.117957838646149e-01	-5.251959044456314e+01
1	 1.627129526877964e+00	 6.441657417487923e-01	-4.158823119827137e+01
1	 1.733075711841326e+00	 3.207098798906232e-01	-1.266118195349450e+02
1	 1.726689991216679e+00	 3.534797367214088e-01	-1.187875363955201e+02
1	 1.719642844610636e+00	 3.863091210761491e-01	-1.100461995286703e+02
1	 1.711927228303469e+00	 4.191794544667827e-01	-1.005560456897740e+02
1	 1.703536742864199e+00	 4.520716931772842e-01	-9.049272584112308e+01
1	 1.694465663819255e+00	 4.849663536831973e-01	-8.003886502199508e+01
1	 1.684708971279676e+00	 5.178435402355064e-01	-6.938356956400114e+01
1	 1.674262378361351e+00	 5.506829745727694e-01	-5.872188245183490e+01
1	 1.663122358232710e+00	 5.834640277117502e-01	-4.825418808332012e+01
1	 1.651286169625344e+00	 6.161657537528370e-01	-3.818556814836005e+01
1	 1.638751880645368e+00	 6.487669256224087e-01	-2.872511081917456e+01
1	 1.745367028948611e+00	 3.229844180460166e-01	-1.038473286369593e+02
1	 1.738936019525595e+00	 3.559866852091919e-01	-9.616716197004197e+01
1	 1.731838893156713e+00	 3.890489020773594e-01	-8.782292507895041e+01
1	 1.724068556166777e+00	 4.221523584001311e-01	-7.895330056054208e+01
1	 1.715618563738773e+00	 4.552778753996662e-01	-6.970270211905687e+01
1	 1.706483150800026e+00	 4.884058313704840e-01	-6.022089958766274e+01
1	 1.696657261859521e+00	 5.215161894589655e-01	-5.066260209278081e+01
1	 1.686136579629713e+00	 5.545885275862120e-01	-4.118700016000236e+01
1	 1.674917552266045e+00	 5.876020704641420e-01	-3.195726792770708e+01
1	 1.662997419058485e+00	 6.205357236406640e-01	-2.314002700994261e+01
1	 1.650374234411771e+00	 6.533681094955353e-01	-1.490477392973892e+01
1	 1.757658346055410e+00	 3.252589562014102e-01	-8.245773307821908e+01
1	 1.751182047833929e+00	 3.584936336969702e-01	-7.470416895302482e+01
1	 1.744034941702122e+00	 3.917886830785507e-01	-6.653557986243412e+01
1	 1.736209884029342e+00	 4.251252623334367e-01	-5.806140251687933e+01
1	 1.727700384612536e+00	 4.584840576219720e-01	-4.939513827791865e+01
1	 1.718500637779927e+00	 4.918453090576508e-01	-4.065404278310751e+01
1	 1.708605552438449e+00	 5.251888386822515e-01	-3.195878441737941e+01
1	 1.698010780897124e+00	 5.584940805994180e-01	-2.343307242826089e+01
1	 1.686712746298402e+00	 5.917401132162234e-01	-1.520325576377502e+01
1	 1.674708668490632e+00	 6.249056935280959e-01	-7.397893997825222e+00
1	 1.661996588177176e+00	 6.579692933681721e-01	-1.473019950537697e-01
1	 1.769949663161724e+00	 3.275334943568037e-01	-6.241438920525906e+01
1	 1.763428076141683e+00	 3.610005821847440e-01	-5.437444523128559e+01
1	 1.756230990246865e+00	 3.945284640797232e-01	-4.616466535297180e+01
1	 1.748351211891164e+00	 4.280981662666999e-01	-3.786554224408756e+01
1	 1.739782205485490e+00	 4.616902398442015e-01	-2.955998306981120e+01
1	 1.730518124758961e+00	 4.952847867446978e-01	-2.133306317819911e+01
1	 1.720553843016463e+00	 5.288614879053642e-01	-1.327175925007366e+01
1	 1.709884982163583e+00	 5.623996336123871e-01	-5.464662702996914e+00
1	 1.698507940329780e+00	 5.958781559679937e-01	 1.998325658548441e+00
1	 1.686419917921784e+00	 6.292756634151330e-01	 9.026318557502092e+00
1	 1.673618941941580e+00	 6.625704772403191e-01	 1.552778133828205e+01
1	 1.782240980267553e+00	 3.298080325121973e-01	-4.368944353436079e+01
1	 1.775674104448857e+00	 3.635075306725129e-01	-3.515454385338265e+01
1	 1.768427038790941e+00	 3.972682450808769e-01	-2.669122091479082e+01
1	 1.760492539752241e+00	 4.310710701999204e-01	-1.835131896028940e+01
1	 1.751864026357632e+00	 4.648964220663550e-01	-1.018746252264331e+01
1	 1.742535611737127e+00	 4.987242644316255e-01	-2.252873658122569e+00
1	 1.732502133593562e+00	 5.325341371283038e-01	 5.398820840646679e+00
1	 1.721759183429090e+00	 5.663051866251195e-01	 1.271379145758130e+01
1	 1.710303134360180e+00	 6.000161987194534e-01	 1.963821628589077e+01
1	 1.698131167351941e+00	 6.336456333017750e-01	 2.611849866571049e+01
1	 1.685241295704983e+00	 6.671716611119766e-01	 3.210149100703901e+01
1	 1.794532297372897e+00	 3.320825706675907e-01	-2.625580569094547e+01
1	 1.787920132755449e+00	 3.660144791602774e-01	-1.702166025010451e+01
1	 1.780623087334351e+00	 4.000080260820117e-01	-8.096805381592572e+00
1	 1.772633867612575e+00	 4.340439741330983e-01	 4.952735744214696e-01
1	 1.763945847228964e+00	 4.681026042884321e-01	 8.731929555616798e+00
1	 1.754553098714425e+00	 5.021637421184332e-01	 1.659147351892672e+01
1	 1.744450424169746e+00	 5.362067863510702e-01	 2.405329376762015e+01
1	 1.733633384693645e+00	 5.702107396376150e-01	 3.109797407220496e+01
1	 1.722098328389602e+00	 6.041542414706025e-01	 3.770740976497691e+01
1	 1.709842416781103e+00	 6.380156031880218e-01	 4.386492096635236e+01
1	 1.696863649467388e+00	 6.717728449831445e-01	 4.955536208672069e+01
1	 1.806823614477755e+00	 3.343571088229843e-01	-1.008712245348062e+01
1	 1.800166161061462e+00	 3.685214276480370e-01	 4.638961526532093e-02
1	 1.792819135877093e+00	 4.027478070831276e-01	 9.636520612478325e+00
1	 1.784775195472166e+00	 4.370168780662335e-01	 1.868786047777592e+01
1	 1.776027668099485e+00	 4.713087865104332e-01	 2.720744068510718e+01
1	 1.766570585690856e+00	 5.056032198051217e-01	 3.520479146232253e+01
1	 1.756398714745015e+00	 5.398794355736636e-01	 4.269198824877824e+01
1	 1.745507585957248e+00	 5.741162926498736e-01	 4.968368660127457e+01
1	 1.733893522418045e+00	 6.082922842214408e-01	 5.619714481337468e+01
1	 1.721553666209272e+00	 6.423855730738739e-01	 6.225223357818459e+01
1	 1.708486003228792e+00	 6.763740288538224e-01	 6.787143209976884e+01
1	 1.819114931582128e+00	 3.366316469783779e-01	 4.842247150339448e+00
1	 1.812412189366892e+00	 3.710283761357918e-01	 1.607119021088590e+01
1	 1.805015184419169e+00	 4.054875880842249e-01	 2.652621158554975e+01
1	 1.796916523331014e+00	 4.399897819993261e-01	 3.623969862107759e+01
1	 1.788109488969196e+00	 4.745149687323580e-01	 4.524806845298781e+01
1	 1.778588072666419e+00	 5.090426974916901e-01	 5.359176319739962e+01
1	 1.768347005319369e+00	 5.435520847960839e-01	 6.131522411778349e+01
1	 1.757381787219899e+00	 5.780218456618955e-01	 6.846684397923512e+01
1	 1.745688716445509e+00	 6.124303269719682e-01	 7.509889694007305e+01
1	 1.733264915636445e+00	 6.467555429593308e-01	 8.126744548162816e+01
1	 1.720108356989195e+00	 6.809752127240108e-01	 8.703222404100589e+01
1	 1.831406248686016e+00	 3.389061851337714e-01	 1.855725574457225e+01
1	 1.824658217671743e+00	 3.735353246235422e-01	 3.107374655610596e+01
1	 1.817211232960577e+00	 4.082273690853030e-01	 4.258925347808209e+01
1	 1.809057851189117e+00	 4.429626859323761e-01	 5.316368898646695e+01
1	 1.800191309838096e+00	 4.777211509542068e-01	 6.286256890045209e+01
1	 1.790605559641113e+00	 5.124821751781390e-01	 7.175694603069066e+01
1	 1.780295295892808e+00	 5.472247340183306e-01	 7.992331262215984e+01
1	 1.769255988481599e+00	 5.819273986736807e-01	 8.744347080672316e+01
1	 1.757483910471995e+00	 6.165683697221850e-01	 9.440437049946209e+01
1	 1.744976165062624e+00	 6.511255128443929e-01	 1.008979144093157e+02
1	 1.731730710748600e+00	 6.855763965937093e-01	 1.070207300866129e+02
1	 1.843697565789419e+00	 3.411807232891650e-01	 3.108219054997195e+01
1	 1.836904245976013e+00	 3.760422731112877e-01	 4.507450353642786e+01
1	 1.829407281501320e+00	 4.109671500863628e-01	 5.784217927212340e+01
1	 1.821199179046478e+00	 4.459355898653836e-01	 6.947238852989277e+01
1	 1.812273130706186e+00	 4.809273331759791e-01	 8.005946457426145e+01
1	 1.802623046614941e+00	 5.159216528644683e-01	 8.970477574055342e+01
1	 1.792243586465333e+00	 5.508973832404047e-01	 9.851655670949833e+01
1	 1.781130189742346e+00	 5.858329516852289e-01	 1.066096976950280e+02
1	 1.769279104497502e+00	 6.207064124720912e-01	 1.141054910631537e+02
1	 1.756687414487809e+00	 6.554954827290598e-01	 1.211313352210175e+02
1	 1.743353064507004e+00	 6.901775804629183e-01	 1.278203959547533e+02
1	 1.627129526877964e+00	 6.441657417487923e-01	-4.158823119827137e+01
1	 1.613989891498045e+00	 6.764145402254381e-01	-4.158128926245263e+01
1	 1.600155766523939e+00	 7.085206580967053e-01	-4.179006745814475e+01
1	 1.585627767319404e+00	 7.404624120079153e-01	-4.207720789457001e+01
1	 1.570407387515452e+00	 7.722179985775097e-01	-4.230204345361012e+01
1	 1.554497011975571e+00	 8.037655378569363e-01	-4.232110760635640e+01
1	 1.537899927230667e+00	 8.350831179629202e-01	-4.198867266563346e+01
1	 1.520620329275986e+00	 8.661488407132029e-01	-4.115731373127341e+01
1	 1.502663328635016e+00	 8.969408680863412e-01	-3.967849528480504e+01
1	 1.484034952609081e+00	 9.274374693167079e-01	-3.740317711089000e+01
1	 1.464742144646208e+00	 9.576170684275745e-01	-3.418243596847833e+01
1	 1.638751880645368e+00	 6.487669256224087e-01	-2.872511081917456e+01
1	 1.625518390726798e+00	 6.812460726600401e-01	-2.807522140396959e+01
1	 1.611585450574138e+00	 7.135815199449438e-01	-2.753168257530794e+01
1	 1.596953679946601e+00	 7.457514292413342e-01	-2.699339771245413e+01
1	 1.581624583143993e+00	 7.777338414292114e-01	-2.635699233073331e+01
1	 1.565600562064543e+00	 8.095067202746747e-01	-2.551719301234994e+01
1	 1.548884926714374e+00	 8.410479973809957e-01	-2.436722656581167e+01
1	 1.531481903060134e+00	 8.723356181503270e-01	-2.279923735411075e+01
1	 1.513396638129045e+00	 9.033475885753565e-01	-2.070472051560749e+01
1	 1.494635202274586e+00	 9.340620226707022e-01	-1.797496860115917e+01
1	 1.475204588540842e+00	 9.644571903455147e-01	-1.450152896950539e+01
1	 1.650374234411771e+00	 6.533681094955353e-01	-1.490477392973892e+01
1	 1.637046889954552e+00	 6.860776050940667e-01	-1.383187189926364e+01
1	 1.623015134623337e+00	 7.186423817925500e-01	-1.275784234309088e+01
1	 1.608279592572798e+00	 7.510404464740931e-01	-1.161746629336510e+01
1	 1.592841778771534e+00	 7.832496842802550e-01	-1.034426779982236e+01
1	 1.576704112152514e+00	 8.152479026917873e-01	-8.870763124986901e+00
1	 1.559869926197083e+00	 8.470128767985073e-01	-7.128722033085975e+00
1	 1.542343476843282e+00	 8.785223955869790e-01	-5.049439790640365e+00
1	 1.524129947622075e+00	 9.097543090640229e-01	-2.564018363675803e+00
1	 1.505235451939092e+00	 9.406865760245012e-01	 3.963448256172075e-01
1	 1.485667032434476e+00	 9.712973122634445e-01	 3.900062329270778e+00
1	 1.661996588177176e+00	 6.579692933681721e-01	-1.473019950537697e-01
1	 1.648575389181304e+00	 6.909091375275175e-01	 1.133291804688203e+00
1	 1.634444818671535e+00	 7.237032436395238e-01	 2.520639490034280e+00
1	 1.619605505197995e+00	 7.563294637061926e-01	 4.044457945210331e+00
1	 1.604058974398076e+00	 7.887655271306413e-01	 5.734710417290657e+00
1	 1.587807662239485e+00	 8.209890851082737e-01	 7.621485930643782e+00
1	 1.570854925678792e+00	 8.529777562154547e-01	 9.734874671582681e+00
1	 1.553205050625430e+00	 8.847091730231600e-01	 1.210484005291794e+01
1	 1.534863257114104e+00	 9.161610295523409e-01	 1.476108821860731e+01
1	 1.515835701602599e+00	 9.473111293781052e-01	 1.773293579317917e+01
1	 1.496129476327111e+00	 9.781374341813636e-01	 2.104917671831372e+01
1	 1.673618941941580e+00	 6.625704772403191e-01	 1.552778133828205e+01
1	 1.660103888407058e+00	 6.957406699603933e-01	 1.680523191222247e+01
1	 1.645874502718734e+00	 7.287641054858656e-01	 1.829324955750105e+01
1	 1.630931417822192e+00	 7.616184809376318e-01	 1.998641681960525e+01
1	 1.615276170023616e+00	 7.942813699803695e-01	 2.187856203549136e+01
1	 1.598911212325456e+00	 8.267302675241344e-01	 2.396276625515120e+01
1	 1.581839925159500e+00	 8.589426356318381e-01	 2.623137412782020e+01
1	 1.564066624406578e+00	 8.908959504588688e-01	 2.867600879552707e+01
1	 1.545596566605134e+00	 9.225677500403102e-01	 3.128759080533137e+01
1	 1.526435951265105e+00	 9.539356827315140e-01	 3.405636101907761e+01
1	 1.506591920218745e+00	 9.849775560992717e-01	 3.697190746616665e+01
1	 1.685241295704983e+00	 6.671716611119766e-01	 3.210149100703901e+01
1	 1.671632387631811e+00	 7.005722023926938e-01	 3.316932546342630e+01
1	 1.657304186764933e+00	 7.338249673315752e-01	 3.454976451665180e+01
1	 1.642257330445389e+00	 7.669074981684119e-01	 3.620261650984064e+01
1	 1.626493365648157e+00	 7.997972128294403e-01	 3.808594484649559e+01
1	 1.610014762410427e+00	 8.324714499393688e-01	 4.015620133947338e+01
1	 1.592824924639209e+00	 8.649075150476579e-01	 4.236837145099103e+01
1	 1.574928198186726e+00	 8.970827278941063e-01	 4.467613080460147e+01
1	 1.556329876095164e+00	 9.289744705279305e-01	 4.703201223752389e+01
1	 1.537036200926610e+00	 9.605602360847276e-01	 4.938758255281861e+01
1	 1.517054364109380e+00	 9.918176780171698e-01	 5.169362802710313e+01
1	 1.696863649467388e+00	 6.717728449831445e-01	 4.955536208672069e+01
1	 1.683160886855564e+00	 7.054037348244186e-01	 5.021135012743306e+01
1	 1.668733870810132e+00	 7.388858291766527e-01	 5.128024111641089e+01
1	 1.653583243067586e+00	 7.721965153985318e-01	 5.268742193073159e+01
1	 1.637710561271698e+00	 8.053130556778525e-01	 5.435555341484915e+01
1	 1.621118312494399e+00	 8.382126323539776e-01	 5.620482909945544e+01
1	 1.603809924117917e+00	 8.708723944629133e-01	 5.815325367111214e+01
1	 1.585789771965874e+00	 9.032695053288717e-01	 6.011693991695074e+01
1	 1.567063185584193e+00	 9.353811910152019e-01	 6.201042267565207e+01
1	 1.547636450587117e+00	 9.671847894377464e-01	 6.374698814120585e+01
1	 1.527516807999014e+00	 9.986577999350574e-01	 6.523901669229997e+01
1	 1.708486003228792e+00	 6.763740288538224e-01	 6.787143209976884e+01
1	 1.694689386078318e+00	 7.102352672555683e-01	 6.791747057558413e+01
1	 1.680163554854331e+00	 7.439466910210980e-01	 6.847500667036209e+01
1	 1.664909155688782e+00	 7.774855326279917e-01	 6.943535133274554e+01
1	 1.648927756894240e+00	 8.108288985256076e-01	 7.068611782715024e+01
1	 1.632221862577370e+00	 8.439538147679603e-01	 7.211160478656699e+01
1	 1.614794923595626e+00	 8.768372738776048e-01	 7.359320681058313e+01
1	 1.596651345744023e+00	 9.094562827631659e-01	 7.500985068131706e+01
1	 1.577796495072223e+00	 9.417879115021248e-01	 7.623845499691987e+01
1	 1.558236700246622e+00	 9.738093427905699e-01	 7.715441076244447e+01
1	 1.537979251887649e+00	 1.005497921852934e+00	 7.763208023483908e+01
1	 1.720108356989195e+00	 6.809752127240108e-01	 8.703222404100589e+01
1	 1.706217885300071e+00	 7.150667996861424e-01	 8.627422540703027e+01
1	 1.691593238897530e+00	 7.490075528649108e-01	 8.612464991604796e+01
1	 1.676235068308979e+00	 7.827745498567924e-01	 8.644107112174291e+01
1	 1.660144952515781e+00	 8.163447413727047e-01	 8.707640249198121e+01
1	 1.643325412659340e+00	 8.496949971813165e-01	 8.787940378061641e+01
1	 1.625779923072334e+00	 8.828021532917318e-01	 8.869522267498823e+01
1	 1.607512919521170e+00	 9.156430601969879e-01	 8.936596914513265e+01
1	 1.588529804559253e+00	 9.481946319886988e-01	 8.973131956835091e+01
1	 1.568836949905128e+00	 9.804338961431981e-01	 8.962914736832545e+01
1	 1.548441695775283e+00	 1.012338043770800e+00	 8.889617659612847e+01
1	 1.731730710748600e+00	 6.855763965937093e-01	 1.070207300866129e+02
1	 1.717746384520824e+00	 7.198983321161414e-01	 1.052685146008161e+02
1	 1.703022922939729e+00	 7.540684147080918e-01	 1.042200122423561e+02
1	 1.687560980928176e+00	 7.880635670849330e-01	 1.036993908873193e+02
1	 1.671362148136322e+00	 8.218605842191440e-01	 1.035252049881639e+02
1	 1.654428962740312e+00	 8.554361795940472e-01	 1.035110242700093e+02
1	 1.636764922548042e+00	 8.887670327052954e-01	 1.034661053704346e+02
1	 1.618374493297319e+00	 9.218298376303385e-01	 1.031961032069145e+02
1	 1.599263114045282e+00	 9.546013524749239e-01	 1.025038184249830e+02
1	 1.579437199562634e+00	 9.870584494956315e-01	 1.011899768716858e+02
1	 1.558904139661917e+00	 1.019178165688655e+00	 9.905403665877658e+01
1	 1.743353064507004e+00	 6.901775804629183e-01	 1.278203959547533e+02
1	 1.729274883740578e+00	 7.247298645455649e-01	 1.248875874698875e+02
1	 1.714452606980928e+00	 7.591292765506406e-01	 1.227521792678068e+02
1	 1.698886893546374e+00	 7.933525843124138e-01	 1.212052586300172e+02
1	 1.682579343755863e+00	 8.273764270649256e-01	 1.200313549590845e+02
1	 1.665532512820283e+00	 8.611773620061519e-01	 1.190091898247961e+02
1	 1.647749922022751e+00	 8.947319121182951e-01	 1.179124775602049e+02
1	 1.629236067072467e+00	 9.280166150632179e-01	 1.165107725545596e+02
1	 1.609996423530313e+00	 9.610080729608007e-01	 1.145703588809321e+02
1	 1.590037449219140e+00	 9.936830028478698e-01	 1.118551774143738e+02
1	 1.569366583547552e+00	 1.026018287606500e+00	 1.081277851485516e+02
1	 1.464742144646208e+00	 9.576170684275745e-01	-3.418243596847833e+01
1	 1.444792760779105e+00	 9.874582919979614e-01	-3.020124870368559e+01
1	 1.424195563096069e+00	 1.016940016954224e+00	-2.590547031865719e+01
1	 1.402960210228699e+00	 1.046041418172352e+00	-2.136572312423292e+01
1	 1.381097244858090e+00	 1.074742015674165e+00	-1.665363089311088e+01
1	 1.358618078255741e+00	 1.103021721200889e+00	-1.184152568938389e+01
1	 1.335534971896006e+00	 1.130860883947535e+00	-7.002148268060221e+00
1	 1.311861016194242e+00	 1.158240335244118e+00	-2.208343989022595e+00
1	 1.287610106442683e+00	 1.185141431973866e+00	 2.467243751231155e+00
1	 1.262796916033438e+00	 1.211546098524362e+00	 6.952480527729763e+00
1	 1.237436867075000e+00	 1.237436867075000e+00	 1.117604627433396e+01
1	 1.475204588540842e+00	 9.644571903455147e-01	-1.450152896950539e+01
1	 1.455112709074938e+00	 9.945115655117275e-01	-1.138127979232592e+01
1	 1.434368388551411e+00	 1.024203874216805e+00	-7.874509312344944e+00
1	 1.412981354592089e+00	 1.053513142585853e+00	-4.030491154826368e+00
1	 1.390962225182928e+00	 1.082418744355134e+00	 1.001861222365754e-01
1	 1.368322493104510e+00	 1.110900447778312e+00	 4.465818831667576e+00
1	 1.345074507413148e+00	 1.138938461687509e+00	 9.013795686061142e+00
1	 1.321231452027168e+00	 1.166513480493667e+00	 1.369081174564003e+01
1	 1.296807321490887e+00	 1.193606727914892e+00	 1.844308741050558e+01
1	 1.271816894006361e+00	 1.220199999227256e+00	 2.321659102807452e+01
1	 1.246275701840000e+00	 1.246275701840000e+00	 2.795726364592457e+01
1	 1.485667032434476e+00	 9.712973122634445e-01	 3.900062329270778e+00
1	 1.465432657369780e+00	 1.001564839025664e+00	 6.276958260810385e+00
1	 1.444541214005794e+00	 1.031467731479696e+00	 9.110475796269082e+00
1	 1.423002498954569e+00	 1.060984866999766e+00	 1.237245894763015e+01
1	 1.400827205506926e+00	 1.090095473036578e+00	 1.603312675999151e+01
1	 1.378026907952530e+00	 1.118779174356233e+00	 2.006118059183048e+01
1	 1.354614042929651e+00	 1.147016039427960e+00	 2.442392040417306e+01
1	 1.330601887859582e+00	 1.174786625743633e+00	 2.908736938473638e+01
1	 1.306004536538730e+00	 1.202072023856238e+00	 3.401640615607680e+01
1	 1.280836871979093e+00	 1.228853899930329e+00	 3.917490374649401e+01
1	 1.255114536605000e+00	 1.255114536605000e+00	 4.452587443987629e+01
1	 1.496129476327111e+00	 9.781374341813636e-01	 2.104917671831372e+01
1	 1.475752605663633e+00	 1.008618112539770e+00	 2.279783743141208e+01
1	 1.454714039459216e+00	 1.038731588742899e+00	 2.507142855720687e+01
1	 1.433023643316138e+00	 1.068456591414092e+00	 2.786268554376806e+01
1	 1.410692185830083e+00	 1.097772201718495e+00	 3.116241220274047e+01
1	 1.387731322799798e+00	 1.126657900934648e+00	 3.495949629226608e+01
1	 1.364153578445512e+00	 1.155093617168889e+00	 3.924093538065632e+01
1	 1.339972323691486e+00	 1.183059770994018e+00	 4.399187294420673e+01
1	 1.315201751586213e+00	 1.210537319797904e+00	 4.919564456653173e+01
1	 1.289856849951636e+00	 1.237507800633582e+00	 5.483383402107872e+01
1	 1.263953371370000e+00	 1.263953371370000e+00	 6.088633893408534e+01
1	 1.506591920218745e+00	 9.849775560992717e-01	 3.697190746616665e+01
1	 1.486072553956495e+00	 1.015671386054045e+00	 3.820505269586748e+01
1	 1.464886864911678e+00	 1.045995446006413e+00	 4.002968297744788e+01
1	 1.443044787676797e+00	 1.075928315828831e+00	 4.245920370642830e+01
1	 1.420557166152399e+00	 1.105448930400887e+00	 4.550478526688559e+01
1	 1.397435737646315e+00	 1.134536627513560e+00	 4.917528772576213e+01
1	 1.373693113960733e+00	 1.163171194910295e+00	 5.347719706837035e+01
1	 1.349342759522880e+00	 1.191332916244822e+00	 5.841457355064692e+01
1	 1.324398966633336e+00	 1.219002615739889e+00	 6.398901264881638e+01
1	 1.298876827923988e+00	 1.246161701337016e+00	 7.019961898606969e+01
1	 1.272792206135000e+00	 1.272792206135000e+00	 7.704299350982966e+01
1	 1.517054364109380e+00	 9.918176780171698e-01	 5.169362802710313e+01
1	 1.496392502248367e+00	 1.022724659568490e+00	 5.252164537606741e+01
1	 1.475059690363180e+00	 1.053259303270238e+00	 5.400598453965462e+01
1	 1.453065932036545e+00	 1.083400040243982e+00	 5.618050395472352e+01
1	 1.430422146473876e+00	 1.113125659083753e+00	 5.907652689802925e+01
1	 1.407140152492082e+00	 1.142415354092968e+00	 6.272267608391996e+01
1	 1.383232649475314e+00	 1.171248772652179e+00	 6.714472105249919e+01
1	 1.358713195353763e+00	 1.199606061496045e+00	 7.236543954094157e+01
1	 1.333596181680099e+00	 1.227467911682194e+00	 7.840449392691407e+01
1	 1.307896805896150e+00	 1.254815602040628e+00	 8.527832371682278e+01
1	 1.281631040900000e+00	 1.281631040900000e+00	 9.300005492406657e+01
1	 1.527516807999014e+00	 9.986577999350574e-01	 6.523901669229997e+01
1	 1.506712450539249e+00	 1.029777933083105e+00	 6.577002552483204e+01
1	 1.485232515813721e+00	 1.060523160534374e+00	 6.702051035711381e+01
1	 1.463087076395382e+00	 1.090871764659546e+00	 6.904457021820525e+01
1	 1.440287126794510e+00	 1.120802387767094e+00	 7.189347198846886e+01
1	 1.416844567337098e+00	 1.150294080672872e+00	 7.561539567637243e+01
1	 1.392772184989253e+00	 1.179326350394540e+00	 8.025519372410348e+01
1	 1.368083631184136e+00	 1.207879206747686e+00	 8.585416614684335e+01
1	 1.342793396726501e+00	 1.235933207624818e+00	 9.244985319811184e+01
1	 1.316916783868122e+00	 1.263469502744421e+00	 1.000758471222326e+02
1	 1.290469875665000e+00	 1.290469875665000e+00	 1.087616244061568e+02
1	 1.537979251887649e+00	 1.005497921852934e+00	 7.763208023483908e+01
1	 1.517032398829141e+00	 1.036831206597890e+00	 7.797199339764717e+01
1	 1.495405341263303e+00	 1.067787017798821e+00	 7.909288850602805e+01
1	 1.473108220753309e+00	 1.098343489075522e+00	 8.106889706780352e+01
1	 1.450152107114305e+00	 1.128479116450908e+00	 8.397102454907518e+01
1	 1.426548982181364e+00	 1.158172807253272e+00	 8.786680709003440e+01
1	 1.402311720502552e+00	 1.187403928137378e+00	 9.281998347719650e+01
1	 1.377454067013998e+00	 1.216152351999745e+00	 9.889018478426375e+01
1	 1.351990611772543e+00	 1.244398503567761e+00	 1.061326439726836e+02
1	 1.325936761839904e+00	 1.272123403448393e+00	 1.145979275966556e+02
1	 1.299308710430000e+00	 1.299308710430000e+00	 1.243316915873731e+02
1	 1.548441695775283e+00	 1.012338043770800e+00	 8.889617659612847e+01
1	 1.527352347118043e+00	 1.043884480112846e+00	 8.914876005392523e+01
1	 1.505578166711924e+00	 1.075050875063579e+00	 9.024221657406630e+01
1	 1.483129365110326e+00	 1.105815213491911e+00	 9.227050624821032e+01
1	 1.460017087433259e+00	 1.136155845135198e+00	 9.532417226610126e+01
1	 1.436253397024878e+00	 1.166051533834168e+00	 9.948990981487211e+01
1	 1.411851256015211e+00	 1.195481505880694e+00	 1.048501514518924e+02
1	 1.386824502843350e+00	 1.224425497252223e+00	 1.114826719659713e+02
1	 1.361187826818225e+00	 1.252863799511024e+00	 1.194602156119664e+02
1	 1.334956739811496e+00	 1.280777304152546e+00	 1.288501484426988e+02
1	 1.308147545195000e+00	 1.308147545195000e+00	 1.397141382711085e+02
1	 1.558904139661917e+00	 1.019178165688655e+00	 9.905403665877658e+01
1	 1.537672295405955e+00	 1.050937753627970e+00	 9.932096712868477e+01
1	 1.515750992159585e+00	 1.082314732328648e+00	 1.004870794619908e+02
1	 1.493150509466432e+00	 1.113286937908712e+00	 1.026659625445330e+02
1	 1.469882067751373e+00	 1.143832573819961e+00	 1.059675004718041e+02
1	 1.445957811867642e+00	 1.173930260415559e+00	 1.104973543612484e+02
1	 1.421390791527228e+00	 1.203559083624488e+00	 1.163564618449369e+02
1	 1.396194938672191e+00	 1.232698642505121e+00	 1.236405578553872e+02
1	 1.370385041863546e+00	 1.261329095454607e+00	 1.324397201789952e+02
1	 1.343976717782898e+00	 1.289431204856878e+00	 1.428379430756411e+02
1	 1.316986379960000e+00	 1.316986379960000e+00	 1.549127420512604e+02
1	 1.569366583547552e+00	 1.026018287606500e+00	 1.081277851485516e+02
1	 1.547992243692877e+00	 1.057991027143265e+00	 1.085087058133631e+02
1	 1.525923817606285e+00	 1.089578589594028e+00	 1.098455664732205e+02
1	 1.503171653821628e+00	 1.120758662325927e+00	 1.122713890142803e+02
1	 1.479747048068645e+00	 1.151509302505199e+00	 1.159152055562463e+02
1	 1.455662226709656e+00	 1.181808986997448e+00	 1.209014538925786e+02
1	 1.430930327038606e+00	 1.211636661368759e+00	 1.273493918078208e+02
1	 1.405565374500522e+00	 1.240971787758436e+00	 1.353725344782325e+02
1	 1.379582256908508e+00	 1.269794391398509e+00	 1.450781190151137e+02
1	 1.352996695754110e+00	 1.298085105561391e+00	 1.565666000196786e+02
1	 1.325825214725000e+00	 1.325825214725000e+00	 1.699311797858824e+02
1	 1.237436867075000e+00	 1.237436867075000e+00	 1.117604627433396e+01
1	 1.211546098524362e+00	 1.262796916033438e+00	 1.126398401080948e+01
1	 1.185141431973866e+00	 1.287610106442683e+00	 1.184469631487007e+01
1	 1.158240335244119e+00	 1.311861016194243e+00	 1.288490185266282e+01
1	 1.130860883947535e+00	 1.335534971896005e+00	 1.434982762061316e+01
1	 1.103021721200889e+00	 1.358618078255741e+00	 1.620336117155781e+01
1	 1.074742015674166e+00	 1.381097244858090e+00	 1.840820909255943e+01
1	 1.046041418172353e+00	 1.402960210228699e+00	 2.092606063696930e+01
1	 1.016940016954224e+00	 1.424195563096068e+00	 2.371775537943451e+01
1	 9.874582919979624e-01	 1.444792760779105e+00	 2.674345374052494e+01
1	 9.576170684275745e-01	 1.464742144646208e+00	 2.996280921755790e+01
1	 1.246275701840000e+00	 1.246275701840000e+00	 2.795726364592457e+01
1	 1.220199999227256e+00	 1.271816894006361e+00	 2.864912651697394e+01
1	 1.193606727914892e+00	 1.296807321490887e+00	 2.939593683920442e+01
1	 1.166513480493667e+00	 1.321231452027167e+00	 3.017934143851619e+01
1	 1.138938461687509e+00	 1.345074507413148e+00	 3.098105749383141e+01
1	 1.110900447778313e+00	 1.368322493104510e+00	 3.178294909228246e+01
1	 1.082418744355135e+00	 1.390962225182927e+00	 3.256710247940610e+01
1	 1.053513142585854e+00	 1.412981354592089e+00	 3.331589951105978e+01
1	 1.024203874216806e+00	 1.434368388551411e+00	 3.401208883316234e+01
1	 9.945115655117286e-01	 1.455112709074937e+00	 3.463885433934393e+01
1	 9.644571903455147e-01	 1.475204588540842e+00	 3.517988048486218e+01
1	 1.255114536605000e+00	 1.255114536605000e+00	 4.452587443987629e+01
1	 1.228853899930329e+00	 1.280836871979093e+00	 4.589678195537158e+01
1	 1.202072023856238e+00	 1.306004536538730e+00	 4.689075424703620e+01
1	 1.174786625743633e+00	 1.330601887859582e+00	 4.750420429659169e+01
1	 1.147016039427960e+00	 1.354614042929651e+00	 4.773516293455668e+01
1	 1.118779174356233e+00	 1.378026907952529e+00	 4.758328039880907e+01
1	 1.090095473036578e+00	 1.400827205506926e+00	 4.704981909504663e+01
1	 1.060984866999767e+00	 1.423002498954568e+00	 4.613763766502046e+01
1	 1.031467731479697e+00	 1.444541214005793e+00	 4.485116654059991e+01
1	 1.001564839025664e+00	 1.465432657369779e+00	 4.319637523139232e+01
1	 9.712973122634446e-01	 1.485667032434477e+00	 4.118073165992468e+01
1	 1.263953371370000e+00	 1.263953371370000e+00	 6.088633893408534e+01
1	 1.237507800633582e+00	 1.289856849951636e+00	 6.300983467014685e+01
1	 1.210537319797904e+00	 1.315201751586213e+00	 6.433033224018048e+01
1	 1.183059770994018e+00	 1.339972323691486e+00	 6.485885217648683e+01
1	 1.155093617168889e+00	 1.364153578445512e+00	 6.460956613373295e+01
1	 1.126657900934648e+00	 1.387731322799797e+00	 6.359972411105849e+01
1	 1.097772201718496e+00	 1.410692185830083e+00	 6.184956544521093e+01
1	 1.068456591414093e+00	 1.433023643316137e+00	 5.938221427484454e+01
1	 1.038731588742900e+00	 1.454714039459216e+00	 5.622356030068979e+01
1	 1.008618112539770e+00	 1.475752605663632e+00	 5.240212578126031e+01
1	 9.781374341813637e-01	 1.496129476327111e+00	 4.794891980779298e+01
1	 1.272792206135000e+00	 1.272792206135000e+00	 7.704299350982966e+01
1	 1.246161701337015e+00	 1.298876827923988e+00	 7.999108888476758e+01
1	 1.219002615739890e+00	 1.324398966633336e+00	 8.171582163984357e+01
1	 1.191332916244822e+00	 1.349342759522880e+00	 8.224266455697698e+01
1	 1.163171194910296e+00	 1.373693113960733e+00	 8.160176088811374e+01
1	 1.134536627513560e+00	 1.397435737646315e+00	 7.982777788728848e+01
1	 1.105448930400887e+00	 1.420557166152399e+00	 7.695973674380092e+01
1	 1.075928315828831e+00	 1.443044787676796e+00	 7.304082020607883e+01
1	 1.045995446006414e+00	 1.464886864911678e+00	 6.811815936239651e+01
1	 1.015671386054046e+00	 1.486072553956495e+00	 6.224260120450595e+01
1	 9.849775560992720e-01	 1.506591920218745e+00	 5.546845874168635e+01
1	 1.281631040900000e+00	 1.281631040900000e+00	 9.300005492406657e+01
1	 1.254815602040628e+00	 1.307896805896150e+00	 9.684327146480881e+01
1	 1.227467911682194e+00	 1.333596181680099e+00	 9.904834152043892e+01
1	 1.199606061496045e+00	 1.358713195353763e+00	 9.965503803466653e+01
1	 1.171248772652179e+00	 1.383232649475313e+00	 9.870931013109448e+01
1	 1.142415354092968e+00	 1.407140152492081e+00	 9.626306358829089e+01
1	 1.113125659083754e+00	 1.430422146473875e+00	 9.237391040571715e+01
1	 1.083400040243983e+00	 1.453065932036545e+00	 8.710488933487207e+01
1	 1.053259303270239e+00	 1.475059690363180e+00	 8.052415947815476e+01
1	 1.022724659568491e+00	 1.496392502248366e+00	 7.270466926245280e+01
1	 9.918176780171699e-01	 1.517054364109380e+00	 6.372380327305714e+01
1	 1.290469875665000e+00	 1.290469875665000e+00	 1.087616244061568e+02
1	 1.263469502744421e+00	 1.316916783868122e+00	 1.135690345671935e+02
1	 1.235933207624818e+00	 1.342793396726501e+00	 1.163289802968056e+02
1	 1.207879206747686e+00	 1.368083631184136e+00	 1.170953857377591e+02
1	 1.179326350394540e+00	 1.392772184989253e+00	 1.159298435650233e+02
1	 1.150294080672872e+00	 1.416844567337098e+00	 1.129013230238785e+02
1	 1.120802387767094e+00	 1.440287126794510e+00	 1.080858398070953e+02
1	 1.090871764659547e+00	 1.463087076395382e+00	 1.015660902256971e+02
1	 1.060523160534375e+00	 1.485232515813721e+00	 9.343105240717500e+01
1	 1.029777933083107e+00	 1.506712450539249e+00	 8.377555750377154e+01
1	 9.986577999350573e-01	 1.527516807999014e+00	 7.269983410891504e+01
1	 1.299308710430000e+00	 1.299308710430000e+00	 1.243316915873731e+02
1	 1.272123403448393e+00	 1.325936761839904e+00	 1.301709581813043e+02
1	 1.244398503567761e+00	 1.351990611772543e+00	 1.335587967670491e+02
1	 1.216152351999746e+00	 1.377454067013998e+00	 1.345631367637599e+02
1	 1.187403928137379e+00	 1.402311720502552e+00	 1.332610553901424e+02
1	 1.158172807253272e+00	 1.426548982181363e+00	 1.297384138729861e+02
1	 1.128479116450909e+00	 1.450152107114305e+00	 1.240894483002313e+02
1	 1.098343489075523e+00	 1.473108220753309e+00	 1.164163181487526e+02
1	 1.067787017798822e+00	 1.495405341263302e+00	 1.068286158471861e+02
1	 1.036831206597892e+00	 1.517032398829141e+00	 9.544284102681917e+01
1	 1.005497921852934e+00	 1.537979251887649e+00	 8.238184336558177e+01
1	 1.308147545195000e+00	 1.308147545195000e+00	 1.397141382711085e+02
1	 1.280777304152546e+00	 1.334956739811497e+00	 1.466515525670777e+02
1	 1.252863799511024e+00	 1.361187826818225e+00	 1.507388211131105e+02
1	 1.224425497252224e+00	 1.386824502843349e+00	 1.520577356399727e+02
1	 1.195481505880695e+00	 1.411851256015210e+00	 1.507007021256116e+02
1	 1.166051533834168e+00	 1.436253397024877e+00	 1.467703057691751e+02
1	 1.136155845135198e+00	 1.460017087433259e+00	 1.403788234711445e+02
1	 1.105815213491912e+00	 1.483129365110326e+00	 1.316476874209873e+02
1	 1.075050875063580e+00	 1.505578166711923e+00	 1.207069037743516e+02
1	 1.043884480112846e+00	 1.527352347118043e+00	 1.076944307380899e+02
1	 1.012338043770800e+00	 1.548441695775283e+00	 9.275552066973026e+01
1	 1.316986379960000e+00	 1.316986379960000e+00	 1.549127420512604e+02
1	 1.289431204856878e+00	 1.343976717782898e+00	 1.630132605949155e+02
1	 1.261329095454607e+00	 1.370385041863546e+00	 1.678700558610361e+02
1	 1.232698642505121e+00	 1.396194938672191e+00	 1.695786418057192e+02
1	 1.203559083624488e+00	 1.421390791527228e+00	 1.682466005182623e+02
1	 1.173930260415560e+00	 1.445957811867642e+00	 1.639930765437648e+02
1	 1.143832573819962e+00	 1.469882067751372e+00	 1.569482116283777e+02
1	 1.113286937908713e+00	 1.493150509466432e+00	 1.472525240555365e+02
1	 1.082314732328649e+00	 1.515750992159584e+00	 1.350562371721796e+02
1	 1.050937753627971e+00	 1.537672295405955e+00	 1.205185620834923e+02
1	 1.019178165688655e+00	 1.558904139661917e+00	 1.038069398191104e+02
1	 1.325825214725000e+00	 1.325825214725000e+00	 1.699311797858824e+02
1	 1.298085105561391e+00	 1.352996695754110e+00	 1.792584599920071e+02
1	 1.269794391398509e+00	 1.379582256908508e+00	 1.849534768028469e+02
1	 1.240971787758436e+00	 1.405565374500522e+00	 1.871253291152753e+02
1	 1.211636661368759e+00	 1.430930327038606e+00	 1.858966255350149e+02
1	 1.181808986997448e+00	 1.455662226709656e+00	 1.814029086192412e+02
1	 1.151509302505200e+00	 1.479747048068645e+00	 1.737920125122454e+02
1	 1.120758662325928e+00	 1.503171653821628e+00	 1.632233587051845e+02
1	 1.089578589594029e+00	 1.525923817606285e+00	 1.498671951312798e+02
1	 1.057991027143266e+00	 1.547992243692877e+00	 1.339037842303667e+02
1	 1.026018287606500e+00	 1.569366583547552e+00	 1.155225459768501e+02
1	 9.576170684275745e-01	 1.464742144646208e+00	 2.996280921755790e+01
1	 9.274374693167079e-01	 1.484034952609081e+00	 5.193503356087713e+01
1	 8.969408680863412e-01	 1.502663328635016e+00	 6.848987146801325e+01
1	 8.661488407132029e-01	 1.520620329275986e+00	 7.982384181687134e+01
1	 8.350831179629206e-01	 1.537899927230666e+00	 8.614922154581315e+01
1	 8.037655378569366e-01	 1.554497011975572e+00	 8.769287701431122e+01
1	 7.722179985775102e-01	 1.570407387515452e+00	 8.469504400876328e+01
1	 7.404624120079161e-01	 1.585627767319404e+00	 7.740806557103221e+01
1	 7.085206580967063e-01	 1.600155766523939e+00	 6.609509691927974e+01
1	 6.764145402254393e-01	 1.613989891498045e+00	 5.102878672827427e+01
1	 6.441657417487923e-01	 1.627129526877964e+00	 3.248994394288530e+01
1	 9.644571903455147e-01	 1.475204588540842e+00	 3.517988048486218e+01
1	 9.340620226707020e-01	 1.494635202274587e+00	 5.574269044524436e+01
1	 9.033475885753567e-01	 1.513396638129045e+00	 7.211554580796252e+01
1	 8.723356181503269e-01	 1.531481903060134e+00	 8.439414993808319e+01
1	 8.410479973809958e-01	 1.548884926714374e+00	 9.268727154214120e+01
1	 8.095067202746751e-01	 1.565600562064542e+00	 9.711605423614526e+01
1	 7.777338414292119e-01	 1.581624583143993e+00	 9.781327665263247e+01
1	 7.457514292413349e-01	 1.596953679946601e+00	 9.492256908250221e+01
1	 7.135815199449446e-01	 1.611585450574138e+00	 8.859759283516175e+01
1	 6.812460726600413e-01	 1.625518390726798e+00	 7.900118862150040e+01
1	 6.487669256224087e-01	 1.638751880645368e+00	 6.630450031930815e+01
1	 9.712973122634446e-01	 1.485667032434477e+00	 4.118073165992468e+01
1	 9.406865760245010e-01	 1.505235451939093e+00	 5.982502761068719e+01
1	 9.097543090640229e-01	 1.524129947622075e+00	 7.549095447810237e+01
1	 8.785223955869794e-01	 1.542343476843282e+00	 8.817450106815743e+01
1	 8.470128767985073e-01	 1.559869926197083e+00	 9.788205291651514e+01
1	 8.152479026917877e-01	 1.576704112152514e+00	 1.046301757790506e+02
1	 7.832496842802557e-01	 1.592841778771534e+00	 1.084453515425135e+02
1	 7.510404464740938e-01	 1.608279592572798e+00	 1.093636693957381e+02
1	 7.186423817925509e-01	 1.623015134623336e+00	 1.074304753846077e+02
1	 6.860776050940676e-01	 1.637046889954551e+00	 1.026999837173459e+02
1	 6.533681094955354e-01	 1.650374234411771e+00	 9.523485338913409e+01
1	 9.781374341813637e-01	 1.496129476327111e+00	 4.794891980779298e+01
1	 9.473111293781052e-01	 1.515835701602599e+00	 6.417628253399964e+01
1	 9.161610295523410e-01	 1.534863257114104e+00	 7.862134780730733e+01
1	 8.847091730231601e-01	 1.553205050625430e+00	 9.118146773146944e+01
1	 8.529777562154551e-01	 1.570854925678792e+00	 1.017617461295706e+02
1	 8.209890851082741e-01	 1.587807662239485e+00	 1.102752917621614e+02
1	 7.887655271306419e-01	 1.604058974398075e+00	 1.166434258340665e+02
1	 7.563294637061935e-01	 1.619605505197995e+00	 1.207958435009175e+02
1	 7.237032436395248e-01	 1.634444818671535e+00	 1.226707294634903e+02
1	 6.909091375275186e-01	 1.648575389181304e+00	 1.222148281026616e+02
1	 6.579692933681720e-01	 1.661996588177175e+00	 1.193834689563663e+02
1	 9.849775560992720e-01	 1.506591920218745e+00	 5.546845874168635e+01
1	 9.539356827315137e-01	 1.526435951265105e+00	 6.879085276205868e+01
1	 9.225677500403102e-01	 1.545596566605134e+00	 8.151183028198889e+01
1	 8.908959504588690e-01	 1.564066624406578e+00	 9.343116210450980e+01
1	 8.589426356318386e-01	 1.581839925159500e+00	 1.043537488513843e+02
1	 8.267302675241348e-01	 1.598911212325456e+00	 1.140903398013155e+02
1	 7.942813699803704e-01	 1.615276170023616e+00	 1.224582078730791e+02
1	 7.616184809376328e-01	 1.630931417822191e+00	 1.292817773607075e+02
1	 7.287641054858667e-01	 1.645874502718734e+00	 1.343932014983272e+02
1	 6.957406699603945e-01	 1.660103888407058e+00	 1.376328874173922e+02
1	 6.625704772403191e-01	 1.673618941941579e+00	 1.388499665525950e+02
1	 9.918176780171699e-01	 1.517054364109380e+00	 6.372380327305714e+01
1	 9.605602360847276e-01	 1.537036200926611e+00	 7.366329039216481e+01
1	 9.289744705279306e-01	 1.556329876095164e+00	 8.416736557514605e+01
1	 8.970827278941061e-01	 1.574928198186726e+00	 9.493925188994481e+01
1	 8.649075150476579e-01	 1.592824924639208e+00	 1.056847029542531e+02
1	 8.324714499393694e-01	 1.610014762410427e+00	 1.161131833712383e+02
1	 7.997972128294406e-01	 1.626493365648157e+00	 1.259390071544268e+02
1	 7.669074981684126e-01	 1.642257330445388e+00	 1.348824276698331e+02
1	 7.338249673315762e-01	 1.657304186764933e+00	 1.426706731866056e+02
1	 7.005722023926947e-01	 1.671632387631810e+00	 1.490389227320572e+02
1	 6.671716611119766e-01	 1.685241295704983e+00	 1.537312175843245e+02
1	 9.986577999350573e-01	 1.527516807999014e+00	 7.269983410891504e+01
1	 9.671847894377462e-01	 1.547636450587116e+00	 7.878829677922187e+01
1	 9.353811910152018e-01	 1.567063185584193e+00	 8.659278136874008e+01
1	 9.032695053288720e-01	 1.585789771965874e+00	 9.572097553832646e+01
1	 8.708723944629133e-01	 1.603809924117917e+00	 1.057805203961799e+02
1	 8.382126323539778e-01	 1.621118312494398e+00	 1.163806485911952e+02
1	 8.053130556778535e-01	 1.637710561271698e+00	 1.271337822279262e+02
1	 7.721965153985323e-01	 1.653583243067585e+00	 1.376570810765838e+02
1	 7.388858291766537e-01	 1.668733870810132e+00	 1.475739322066801e+02
1	 7.054037348244198e-01	 1.683160886855564e+00	 1.565153728960219e+02
1	 6.717728449831446e-01	 1.696863649467388e+00	 1.641214394468491e+02
1	 1.005497921852934e+00	 1.537979251887649e+00	 8.238184336558177e+01
1	 9.738093427905699e-01	 1.558236700246622e+00	 8.416071745894453e+01
1	 9.417879115021248e-01	 1.577796495072223e+00	 8.879277397924315e+01
1	 9.094562827631661e-01	 1.596651345744022e+00	 9.579115684850207e+01
1	 8.768372738776050e-01	 1.614794923595625e+00	 1.046664080478882e+02
1	 8.439538147679604e-01	 1.632221862577369e+00	 1.149285595091930e+02
1	 8.108288985256082e-01	 1.648927756894240e+00	 1.260891866488471e+02
1	 7.774855326279926e-01	 1.664909155688782e+00	 1.376634109871121e+02
1	 7.439466910210989e-01	 1.680163554854331e+00	 1.491718400415559e+02
1	 7.102352672555692e-01	 1.694689386078317e+00	 1.601424335246112e+02
1	 6.763740288538225e-01	 1.708486003228792e+00	 1.701122857967459e+02
1	 1.012338043770800e+00	 1.548441695775283e+00	 9.275552066973026e+01
1	 9.804338961431978e-01	 1.568836949905128e+00	 8.977553727688945e+01
1	 9.481946319886988e-01	 1.588529804559253e+00	 9.077191279565702e+01
1	 9.156430601969882e-01	 1.607512919521170e+00	 9.516421897611747e+01
1	 8.828021532917325e-01	 1.625779923072334e+00	 1.023668915133385e+02
1	 8.496949971813170e-01	 1.643325412659341e+00	 1.117917719557339e+02
1	 8.163447413727055e-01	 1.660144952515780e+00	 1.228506130655661e+02
1	 7.827745498567932e-01	 1.676235068308980e+00	 1.349575320668605e+02
1	 7.490075528649117e-01	 1.691593238897529e+00	 1.475313970530526e+02
1	 7.150667996861435e-01	 1.706217885300070e+00	 1.599981327840470e+02
1	 6.809752127240106e-01	 1.720108356989195e+00	 1.717929331646702e+02
1	 1.019178165688655e+00	 1.558904139661917e+00	 1.038069398191104e+02
1	 9.870584494956313e-01	 1.579437199562634e+00	 9.562787571362567e+01
1	 9.546013524749237e-01	 1.599263114045282e+00	 9.253464453882860e+01
1	 9.218298376303387e-01	 1.618374493297318e+00	 9.385419787801868e+01
1	 8.887670327052957e-01	 1.636764922548042e+00	 9.890583799102849e+01
1	 8.554361795940475e-01	 1.654428962740311e+00	 1.070042060343408e+02
1	 8.218605842191447e-01	 1.671362148136321e+00	 1.174622355318764e+02
1	 7.880635670849336e-01	 1.687560980928176e+00	 1.295940525472937e+02
1	 7.540684147080928e-01	 1.703022922939728e+00	 1.427178049355412e+02
1	 7.198983321161423e-01	 1.717746384520824e+00	 1.561584041246380e+02
1	 6.855763965937093e-01	 1.731730710748600e+00	 1.692501640803915e+02
1	 1.026018287606500e+00	 1.569366583547552e+00	 1.155225459768501e+02
1	 9.936830028478698e-01	 1.590037449219140e+00	 1.017129823969010e+02
1	 9.610080729608007e-01	 1.609996423530313e+00	 9.408529735038559e+01
1	 9.280166150632180e-01	 1.629236067072467e+00	 9.187475521888111e+01
1	 8.947319121182953e-01	 1.647749922022751e+00	 9.430647822084306e+01
1	 8.611773620061525e-01	 1.665532512820283e+00	 1.005988773124522e+02
1	 8.273764270649263e-01	 1.682579343755863e+00	 1.099670501268105e+02
1	 7.933525843124147e-01	 1.698886893546373e+00	 1.216261244403648e+02
1	 7.591292765506416e-01	 1.714452606980927e+00	 1.347945266715218e+02
1	 7.247298645455660e-01	 1.729274883740578e+00	 1.486971561046460e+02
1	 6.901775804629183e-01	 1.743353064507004e+00	 1.625684468728212e+02
1	 6.441657417487923e-01	 1.627129526877964e+00	 3.248994394288530e+01
1	 6.117957838646149e-01	 1.639574920191208e+00	-1.167912330115777e+01
1	 5.793259849590476e-01	 1.651327164198396e+00	-4.672744259700088e+01
1	 5.467774215590897e-01	 1.662388177092036e+00	-7.319600394216394e+01
1	 5.141708910118744e-01	 1.672760680698918e+00	-9.164065480077815e+01
1	 4.815268759957917e-01	 1.682448176837619e+00	-1.026294203732438e+02
1	 4.488655109548267e-01	 1.691454921988814e+00	-1.067398568250719e+02
1	 4.162065505333923e-01	 1.699785900439417e+00	-1.045564526870034e+02
1	 3.835693400749210e-01	 1.707446796063892e+00	-9.666809259173199e+01
1	 3.509727882336220e-01	 1.714443962907183e+00	-8.366559638434045e+01
1	 3.184353417352296e-01	 1.720784394733555e+00	-6.613934545110691e+01
1	 6.487669256224087e-01	 1.638751880645368e+00	 6.630450031930815e+01
1	 6.161657537528369e-01	 1.651286169625344e+00	 2.388421206942898e+01
1	 5.834640277117503e-01	 1.663122358232710e+00	-1.151610956724868e+01
1	 5.506829745727695e-01	 1.674262378361350e+00	-4.021904147287519e+01
1	 5.178435402355067e-01	 1.684708971279677e+00	-6.256143963751287e+01
1	 4.849663536831978e-01	 1.694465663819255e+00	-7.889264566198247e+01
1	 4.520716931772849e-01	 1.703536742864199e+00	-8.957269413167401e+01
1	 4.191794544667834e-01	 1.711927228303469e+00	-9.497053201166095e+01
1	 3.863091210761500e-01	 1.719642844610636e+00	-9.546226062478237e+01
1	 3.534797367214098e-01	 1.726689991216679e+00	-9.142941011554221e+01
1	 3.207098798906232e-01	 1.733075711841326e+00	-8.325725558494676e+01
1	 6.533681094955354e-01	 1.650374234411771e+00	 9.523485338913409e+01
1	 6.205357236406640e-01	 1.662997419058485e+00	 5.571456462924270e+01
1	 5.876020704641420e-01	 1.674917552266045e+00	 2.113500368848497e+01
1	 5.545885275862121e-01	 1.686136579629713e+00	-8.610349620063799e+00
1	 5.215161894589658e-01	 1.696657261859521e+00	-3.364171359781030e+01
1	 4.884058313704844e-01	 1.706483150800025e+00	-5.409208962537909e+01
1	 4.552778753996668e-01	 1.715618563738773e+00	-7.010631620262602e+01
1	 4.221523584001318e-01	 1.724068556166777e+00	-8.184009918525339e+01
1	 3.890489020773603e-01	 1.731838893156712e+00	-8.945902520503171e+01
1	 3.559866852091929e-01	 1.738936019525595e+00	-9.313756506731345e+01
1	 3.229844180460166e-01	 1.745367028948611e+00	-9.305807367265713e+01
1	 6.579692933681720e-01	 1.661996588177175e+00	 1.193834689563663e+02
1	 6.249056935280957e-01	 1.674708668490631e+00	 8.389024870338324e+01
1	 5.917401132162232e-01	 1.686712746298402e+00	 5.127960807495701e+01
1	 5.584940805994181e-01	 1.698010780897124e+00	 2.165877659463593e+01
1	 5.251888386822519e-01	 1.708605552438449e+00	-4.878130755625229e+00
1	 4.918453090576513e-01	 1.718500637779927e+00	-2.825006935383448e+01
1	 4.584840576219726e-01	 1.727700384612536e+00	-4.838895832229922e+01
1	 4.251252623334376e-01	 1.736209884029342e+00	-6.523951460233037e+01
1	 3.917886830785516e-01	 1.744034941702122e+00	-7.875903116001683e+01
1	 3.584936336969712e-01	 1.751182047833929e+00	-8.891710303219486e+01
1	 3.252589562014102e-01	 1.757658346055410e+00	-9.569530514188580e+01
1	 6.625704772403191e-01	 1.673618941941579e+00	 1.388499665525950e+02
1	 6.292756634151327e-01	 1.686419917921784e+00	 1.084874032189774e+02
1	 5.958781559679939e-01	 1.698507940329780e+00	 7.896992252731629e+01
1	 5.623996336123873e-01	 1.709884982163583e+00	 5.061624478906676e+01
1	 5.288614879053646e-01	 1.720553843016463e+00	 2.373256187269603e+01
1	 4.952847867446983e-01	 1.730518124758960e+00	-1.388282018564555e+00
1	 4.616902398442022e-01	 1.739782205485489e+00	-2.446751590604523e+01
1	 4.280981662667007e-01	 1.748351211891163e+00	-4.524107309091759e+01
1	 3.945284640797241e-01	 1.756230990246865e+00	-6.346012762761831e+01
1	 3.610005821847450e-01	 1.763428076141683e+00	-7.889153686405223e+01
1	 3.275334943568037e-01	 1.769949663161724e+00	-9.131819138064363e+01
1	 6.671716611119766e-01	 1.685241295704983e+00	 1.537312175843245e+02
1	 6.336456333017748e-01	 1.698131167351941e+00	 1.295800667189060e+02
1	 6.000161987194534e-01	 1.710303134360181e+00	 1.042567254583334e+02
1	 5.663051866251195e-01	 1.721759183429090e+00	 7.828919271573767e+01
1	 5.325341371283041e-01	 1.732502133593562e+00	 5.219352753332592e+01
1	 4.987242644316259e-01	 1.742535611737127e+00	 2.647217375187491e+01
1	 4.648964220663556e-01	 1.751864026357632e+00	 1.612409297424186e+00
1	 4.310710701999212e-01	 1.760492539752242e+00	-2.191507513894916e+01
1	 3.972682450808779e-01	 1.768427038790942e+00	-4.365746445915153e+01
1	 3.635075306725140e-01	 1.775674104448856e+00	-6.318097216561645e+01
1	 3.298080325121973e-01	 1.782240980267553e+00	-8.007185677315293e+01
1	 6.717728449831446e-01	 1.696863649467388e+00	 1.641214394468491e+02
1	 6.380156031880218e-01	 1.709842416781104e+00	 1.472402492927701e+02
1	 6.041542414706024e-01	 1.722098328389602e+00	 1.271894040913598e+02
1	 5.702107396376153e-01	 1.733633384693645e+00	 1.047040146270771e+02
1	 5.362067863510706e-01	 1.744450424169746e+00	 8.050784280815711e+01
1	 5.021637421184337e-01	 1.754553098714425e+00	 5.531077737355240e+01
1	 4.681026042884328e-01	 1.763945847228964e+00	 2.980646490238447e+01
1	 4.340439741330990e-01	 1.772633867612575e+00	 4.670104806413689e+00
1	 4.000080260820126e-01	 1.780623087334350e+00	-1.944358466068748e+01
1	 3.660144791602783e-01	 1.787920132755449e+00	-4.190222397516619e+01
1	 3.320825706675907e-01	 1.794532297372897e+00	-6.209744969312813e+01
1	 6.763740288538225e-01	 1.708486003228792e+00	 1.701122857967459e+02
1	 6.423855730738738e-01	 1.721553666209272e+00	 1.615380015719055e+02
1	 6.082922842214408e-01	 1.733893522418045e+00	 1.478160017796957e+02
1	 5.741162926498737e-01	 1.745507585957248e+00	 1.298863865645510e+02
1	 5.398794355736638e-01	 1.756398714745015e+00	 1.086785005625666e+02
1	 5.056032198051220e-01	 1.766570585690856e+00	 8.510756664577787e+01
1	 4.713087865104338e-01	 1.776027668099485e+00	 6.007150539075867e+01
1	 4.370168780662343e-01	 1.784775195472166e+00	 3.444795282719192e+01
1	 4.027478070831286e-01	 1.792819135877093e+00	 9.091486938741005e+00
1	 3.685214276480380e-01	 1.800166161061461e+00	-1.516892869048826e+01
1	 3.343571088229843e-01	 1.806823614477755e+00	-3.753227774222712e+01
1	 6.809752127240106e-01	 1.720108356989195e+00	 1.717929331646702e+02
1	 6.467555429593308e-01	 1.733264915636446e+00	 1.725414809272957e+02
1	 6.124303269719683e-01	 1.745688716445509e+00	 1.661832634076087e+02
1	 5.780218456618959e-01	 1.757381787219899e+00	 1.538612906225458e+02
1	 5.435520847960841e-01	 1.768347005319369e+00	 1.367084127736779e+02
1	 5.090426974916905e-01	 1.778588072666419e+00	 1.158431188868044e+02
1	 4.745149687323587e-01	 1.788109488969196e+00	 9.236555133956061e+01
1	 4.399897819993270e-01	 1.796916523331014e+00	 6.735375267887179e+01
1	 4.054875880842257e-01	 1.805015184419168e+00	 4.186015861359100e+01
1	 3.710283761357929e-01	 1.812412189366892e+00	 1.690834854461870e+01
1	 3.366316469783779e-01	 1.819114931582128e+00	-6.509937505863458e+00
1	 6.855763965937093e-01	 1.731730710748600e+00	 1.692501640803915e+02
1	 6.511255128443928e-01	 1.744976165062624e+00	 1.803170150018020e+02
1	 6.165683697221850e-01	 1.757483910471994e+00	 1.823366789631177e+02
1	 5.819273986736807e-01	 1.769255988481598e+00	 1.766530382351864e+02
1	 5.472247340183309e-01	 1.780295295892808e+00	 1.646004132447295e+02
1	 5.124821751781393e-01	 1.790605559641113e+00	 1.474985328291656e+02
1	 4.777211509542074e-01	 1.800191309838096e+00	 1.266477502901877e+02
1	 4.429626859323769e-01	 1.809057851189117e+00	 1.033245254657933e+02
1	 4.082273690853040e-01	 1.817211232960577e+00	 7.877719009404179e+01
1	 3.735353246235432e-01	 1.824658217671742e+00	 5.422201077813122e+01
1	 3.389061851337714e-01	 1.831406248686016e+00	 3.083956091604749e+01
1	 6.901775804629183e-01	 1.743353064507004e+00	 1.625684468728212e+02
1	 6.554954827290597e-01	 1.756687414487810e+00	 1.849291627011014e+02
1	 6.207064124720911e-01	 1.769279104497503e+00	 1.963205253678717e+02
1	 5.858329516852290e-01	 1.781130189742346e+00	 1.982852925316767e+02
1	 5.508973832404049e-01	 1.792243586465333e+00	 1.923572602108746e+02
1	 5.159216528644688e-01	 1.802623046614941e+00	 1.800554112392007e+02
1	 4.809273331759799e-01	 1.812273130706186e+00	 1.628783391829419e+02
1	 4.459355898653843e-01	 1.821199179046478e+00	 1.422989717295213e+02
1	 4.109671500863636e-01	 1.829407281501319e+00	 1.197596141841373e+02
1	 3.760422731112888e-01	 1.836904245976013e+00	 9.666733031007558e+01
1	 3.411807232891650e-01	 1.843697565789419e+00	 7.438967435957419e+01
1	 3.184353417352296e-01	 1.720784394733555e+00	-6.613934545110691e+01
1	 2.859749623090795e-01	 1.726475693704463e+00	-2.334390475814707e+01
1	 2.536091058023270e-01	 1.731526038345919e+00	-3.060663282651308e+00
1	 2.213547034732818e-01	 1.735944150962882e+00	-4.466309457878985e+00
1	 1.892281454495708e-01	 1.739739264653876e+00	-2.669552583291009e+01
1	 1.572452663273684e-01	 1.742921090073661e+00	-6.884593253957945e+01
1	 1.254213328766080e-01	 1.745499782086253e+00	-1.299829750076438e+02
1	 9.377103380810400e-02	 1.747485906444048e+00	-2.091447302605987e+02
1	 6.230847155001576e-02	 1.748890406621857e+00	-3.053466082153998e+02
1	 3.104715597342760e-02	 1.749724570927141e+00	-4.175859265717905e+02
1	 0.000000000000000e+00	 1.750000000000000e+00	-5.448463400831570e+02
1	 3.207098798906232e-01	 1.733075711841326e+00	-8.325725558494676e+01
1	 2.880176406112042e-01	 1.738807662947247e+00	-4.314050464129681e+01
1	 2.554205994149419e-01	 1.743894081478562e+00	-2.128376899832234e+01
1	 2.229358084977045e-01	 1.748343752042406e+00	-1.713619090350961e+01
1	 1.905797750594583e-01	 1.752165973688006e+00	-3.010789880518258e+01
1	 1.583684468006353e-01	 1.755370526431943e+00	-5.957380741600873e+01
1	 1.263171995395246e-01	 1.757967637672972e+00	-1.048774063234360e+02
1	 9.444082690630262e-02	 1.759967948633152e+00	-1.653345155761357e+02
1	 6.275353206075759e-02	 1.761382480954967e+00	-2.402369881771049e+02
1	 3.126892137305198e-02	 1.762222603576644e+00	-3.288563409947699e+02
1	 0.000000000000000e+00	 1.762500000000000e+00	-4.304472972409116e+02
1	 3.229844180460166e-01	 1.745367028948611e+00	-9.305807367265713e+01
1	 2.900603189133288e-01	 1.751139632189640e+00	-5.690279441409031e+01
1	 2.572320930275566e-01	 1.756262124610897e+00	-3.480316577154717e+01
1	 2.245169135221270e-01	 1.760743353121696e+00	-2.647776403277019e+01
1	 1.919314046693457e-01	 1.764592682721967e+00	-3.160912864881428e+01
1	 1.594916272739021e-01	 1.767819962790108e+00	-4.984642892646212e+01
1	 1.272130662024412e-01	 1.770435493259618e+00	-8.080816315946019e+01
1	 9.511062000450128e-02	 1.772449990822214e+00	-1.240848726917966e+02
1	 6.319859257149944e-02	 1.773874555288057e+00	-1.792418543234473e+02
1	 3.149068677267637e-02	 1.774720636226143e+00	-2.458218554727227e+02
1	 0.000000000000000e+00	 1.775000000000000e+00	-3.233477375827556e+02
1	 3.252589562014102e-01	 1.757658346055410e+00	-9.569530514188580e+01
1	 2.921029972154534e-01	 1.763471601431642e+00	-6.475736799511196e+01
1	 2.590435866401714e-01	 1.768630167742926e+00	-4.371753281113338e+01
1	 2.260980185465497e-01	 1.773142954200753e+00	-3.256085349588732e+01
1	 1.932830342792332e-01	 1.777019391755757e+00	-3.123930927581162e+01
1	 1.606148077471690e-01	 1.780269399148155e+00	-3.967334784104190e+01
1	 1.281089328653577e-01	 1.782903348846188e+00	-5.775350442103642e+01
1	 9.578041310269989e-02	 1.784932033011234e+00	-8.534208331818400e+01
1	 6.364365308224128e-02	 1.786366629621130e+00	-1.222748887625375e+02
1	 3.171245217230076e-02	 1.787218668875638e+00	-1.683629923822173e+02
1	 0.000000000000000e+00	 1.787500000000000e+00	-2.233945250979754e+02
1	 3.275334943568037e-01	 1.769949663161724e+00	-9.131819138064363e+01
1	 2.941456755175780e-01	 1.775803570673254e+00	-6.682730280522082e+01
1	 2.608550802527862e-01	 1.780998210874648e+00	-4.812280823676316e+01
1	 2.276791235709723e-01	 1.785542555279576e+00	-3.545334436947462e+01
1	 1.946346638891207e-01	 1.789446100789376e+00	-2.903742087840536e+01
1	 1.617379882204359e-01	 1.792718835506084e+00	-2.906384963067989e+01
1	 1.290047995282743e-01	 1.795371204432684e+00	-3.569229293277843e+01
1	 9.645020620089854e-02	 1.797414075200213e+00	-4.905392134060417e+01
1	 6.408871359298313e-02	 1.798858703954184e+00	-6.925217132170326e+01
1	 3.193421757192514e-02	 1.799716701525127e+00	-9.636359292269536e+01
1	 0.000000000000000e+00	 1.800000000000000e+00	-1.304387775539280e+02
1	 3.298080325121973e-01	 1.782240980267553e+00	-8.007185677315293e+01
1	 2.961883538197027e-01	 1.788135539914474e+00	-6.323228102609223e+01
1	 2.626665738654010e-01	 1.793366254006063e+00	-4.811228359930769e+01
1	 2.292602285953949e-01	 1.797942156358166e+00	-3.522124903838135e+01
1	 1.959862934990082e-01	 1.801872809822824e+00	-2.504136833317986e+01
1	 1.628611686937026e-01	 1.805168271863896e+00	-1.802696361538647e+01
1	 1.299006661911908e-01	 1.807839060019105e+00	-1.460397461379407e+01
1	 9.711999929909716e-02	 1.809896117389149e+00	-1.516960136476786e+01
1	 6.453377410372496e-02	 1.811350778287220e+00	-2.009209686751676e+01
1	 3.215598297154953e-02	 1.812214734174612e+00	-2.971070267430025e+01
1	 0.000000000000000e+00	 1.812500000000000e+00	-4.433571981403831e+01
1	 3.320825706675907e-01	 1.794532297372897e+00	-6.209744969312813e+01
1	 2.982310321218273e-01	 1.800467509155304e+00	-5.408870587553241e+01
1	 2.644780674780159e-01	 1.805734297137171e+00	-4.377669451674517e+01
1	 2.308413336198176e-01	 1.810341757436522e+00	-3.192877132897180e+01
1	 1.973379231088956e-01	 1.814299518856103e+00	-1.928801802695236e+01
1	 1.639843491669695e-01	 1.817617708221590e+00	-6.571471736541769e+00
1	 1.307965328541074e-01	 1.820306915605452e+00	 5.531441491305824e+00
1	 9.778979239729581e-02	 1.822378159578045e+00	 1.636027062294965e+01
1	 6.497883461446680e-02	 1.823842852620236e+00	 2.528470397637059e+01
1	 3.237774837117391e-02	 1.824712766824093e+00	 3.170553814118821e+01
1	 0.000000000000000e+00	 1.825000000000000e+00	 3.505545681617329e+01
1	 3.343571088229843e-01	 1.806823614477755e+00	-3.753227774222712e+01
1	 3.002737104239519e-01	 1.812799478395743e+00	-3.950981313686088e+01
1	 2.662895610906306e-01	 1.818102340267972e+00	-3.520430761065332e+01
1	 2.324224386442401e-01	 1.822741358514645e+00	-2.563836802472011e+01
1	 1.986895527187831e-01	 1.826726227889211e+00	-1.181323317955336e+01
1	 1.651075296402364e-01	 1.830067144579166e+00	 5.294083028865060e+00
1	 1.316923995170240e-01	 1.832774771191723e+00	 2.473340236633544e+01
1	 9.845958549549444e-02	 1.834860201766898e+00	 4.558374458138165e+01
1	 6.542389512520864e-02	 1.836334926953235e+00	 6.695544087538808e+01
1	 3.259951377079830e-02	 1.837210799473569e+00	 8.799199992027067e+01
1	 0.000000000000000e+00	 1.837500000000000e+00	 1.078717295020886e+02
1	 3.366316469783779e-01	 1.819114931582128e+00	-6.509937505863458e+00
1	 3.023163887260765e-01	 1.825131447635791e+00	-1.960577816683237e+01
1	 2.681010547032454e-01	 1.830470383398466e+00	-2.248100391824978e+01
1	 2.340035436686628e-01	 1.835140959592535e+00	-1.641080788792919e+01
1	 2.000411823286705e-01	 1.839152936922148e+00	-2.651907734603620e+00
1	 1.662307101135032e-01	 1.842516580936626e+00	 1.756138859511436e+01
1	 1.325882661799405e-01	 1.845242626777920e+00	 4.302082940095299e+01
1	 9.912937859369306e-02	 1.847342243955709e+00	 7.254757182182666e+01
1	 6.586895563595048e-02	 1.848827001286216e+00	 1.049952367472525e+02
1	 3.282127917042268e-02	 1.849708832123040e+00	 1.392526646703562e+02
1	 0.000000000000000e+00	 1.850000000000000e+00	 1.742463733235417e+02
1	 3.389061851337714e-01	 1.831406248686016e+00	 3.083956091604749e+01
1	 3.043590670282013e-01	 1.837463416875449e+00	 5.516181405486047e+00
1	 2.699125483158602e-01	 1.842838426528653e+00	-5.690358945558453e+00
1	 2.355846486930855e-01	 1.847540560670190e+00	-4.305228304736141e+00
1	 2.013928119385580e-01	 1.851579645954916e+00	 8.162001114439233e+00
1	 1.673538905867701e-01	 1.854966017293967e+00	 3.022235601972721e+01
1	 1.334841328428570e-01	 1.857710482364042e+00	 6.041213602804685e+01
1	 9.979917169189172e-02	 1.859824286144479e+00	 9.729724858682445e+01
1	 6.631401614669230e-02	 1.861319075619177e+00	 1.394771977870581e+02
1	 3.304304457004707e-02	 1.862206864772507e+00	 1.855887229355699e+02
1	 0.000000000000000e+00	 1.862500000000000e+00	 2.343090855058778e+02
1	 3.411807232891650e-01	 1.843697565789419e+00	 7.438967435957419e+01
1	 3.064017453303258e-01	 1.849795386114716e+00	 3.575170708779282e+01
1	 2.717240419284751e-01	 1.855206469658534e+00	 1.508628048155210e+01
1	 2.371657537175081e-01	 1.859940161747613e+00	 1.062081033568217e+01
1	 2.027444415484455e-01	 1.864006354987513e+00	 2.059544169927526e+01
1	 1.684770710600370e-01	 1.867415453651191e+00	 4.326911206535769e+01
1	 1.343799995057737e-01	 1.870178337950090e+00	 7.692524465563062e+01
1	 1.004689647900904e-01	 1.872306328333207e+00	 1.198770578857822e+02
1	 6.675907665743416e-02	 1.873811149952121e+00	 1.704724806913674e+02
1	 3.326480996967145e-02	 1.874704897421970e+00	 2.270986668455294e+02
1	 0.000000000000000e+00	 1.875000000000000e+00	 2.881861046817708e+02
1	 1.875000000000000e+00	 0.000000000000000e+00	 5.675148176797279e+02
1	 1.874704897421970e+00	 3.326480996967039e-02	 4.713899470165350e+02
1	 1.873811149952121e+00	 6.675907665743323e-02	 3.851988171852280e+02
1	 1.872306328333207e+00	 1.004689647900895e-01	 3.088260692573840e+02
1	 1.870178337950090e+00	 1.343799995057729e-01	 2.421178032252498e+02
1	 1.867415453651191e+00	 1.684770710600364e-01	 1.848804087908429e+02
1	 1.864006354987513e+00	 2.027444415484450e-01	 1.368795266999821e+02
1	 1.859940161747613e+00	 2.371657537175077e-01	 9.783915459755821e+01
1	 1.855206469658534e+00	 2.717240419284748e-01	 6.744091118330363e+01
1	 1.849795386114716e+00	 3.064017453303257e-01	 4.532347210685973e+01
1	 1.843697565789419e+00	 3.411807232891650e-01	 3.108219054997195e+01
1	 1.887500000000000e+00	 0.000000000000000e+00	 4.816363582026033e+02
1	 1.887202930071432e+00	 3.348657536938452e-02	 4.046169058282698e+02
1	 1.886303224285065e+00	 6.720413716834120e-02	 3.346302886347792e+02
1	 1.884788370521935e+00	 1.011387578885170e-01	 2.716138149896269e+02
1	 1.882646193536138e+00	 1.352758661689670e-01	 2.154778888867660e+02
1	 1.879864890008415e+00	 1.696002515336150e-01	 1.661051274924823e+02
1	 1.876433064020110e+00	 2.040960711586639e-01	 1.233495670131836e+02
1	 1.872339762825035e+00	 2.387468587422663e-01	 8.703596690630383e+01
1	 1.867574512788415e+00	 2.735355355414151e-01	 5.695922235375563e+01
1	 1.862127355353983e+00	 3.084444236327496e-01	 3.288389471515514e+01
1	 1.855988882892821e+00	 3.434552614448158e-01	 1.454386936996563e+01
1	 1.900000000000000e+00	 0.000000000000000e+00	 3.873380457372671e+02
1	 1.899700962720899e+00	 3.370834076927819e-02	 3.302420706329332e+02
1	 1.898795298618027e+00	 6.764919767958150e-02	 2.773196439376954e+02
1	 1.897270412710705e+00	 1.018085509874021e-01	 2.285603256123518e+02
1	 1.895114049122259e+00	 1.361717328327159e-01	 1.839383031270809e+02
1	 1.892314326365756e+00	 1.707234320078171e-01	 1.434117930535366e+02
1	 1.888859773052877e+00	 2.054477007695455e-01	 1.069224890844622e+02
1	 1.884739363902691e+00	 2.403279637676972e-01	 7.439506257865233e+01
1	 1.879942555918602e+00	 2.753470291550062e-01	 4.573672172200990e+01
1	 1.874459324593640e+00	 3.104871019357721e-01	 2.083683533053804e+01
1	 1.868280199996709e+00	 3.457297996009814e-01	-4.333728053287444e-01
1	 1.912500000000000e+00	 0.000000000000000e+00	 2.847849754401419e+02
1	 1.912198995370370e+00	 3.393010616935138e-02	 2.484144962145256e+02
1	 1.911287372951007e+00	 6.809425819115406e-02	 2.133990814492476e+02
1	 1.909752454899517e+00	 1.024783440867449e-01	 1.797801351468054e+02
1	 1.907581904708456e+00	 1.370675994970198e-01	 1.475951179344632e+02
1	 1.904763762723215e+00	 1.718466124826427e-01	 1.168772300451919e+02
1	 1.901286482085814e+00	 2.067993303810899e-01	 8.765509915387165e+01
1	 1.897138964980580e+00	 2.419090687937999e-01	 5.995247527437208e+01
1	 1.892310599049096e+00	 2.771585227692481e-01	 3.378793501009600e+01
1	 1.886791293833689e+00	 3.125297802393932e-01	 9.174597522055516e+00
1	 1.880571517101082e+00	 3.480043377576615e-01	-1.388014536753603e+01
1	 1.925000000000000e+00	 0.000000000000000e+00	 1.741379542820463e+02
1	 1.924697028019846e+00	 3.415187156960411e-02	 1.592793658044277e+02
1	 1.923779447284006e+00	 6.853931870305893e-02	 1.429973658013552e+02
1	 1.922234497088370e+00	 1.031481371865453e-01	 1.253848027046992e+02
1	 1.920049760294728e+00	 1.379634661618787e-01	 1.065419099209274e+02
1	 1.917213199080792e+00	 1.729697929580919e-01	 8.657626759525836e+01
1	 1.913713191118923e+00	 2.081509599932970e-01	 6.560272797471919e+01
1	 1.909538566058704e+00	 2.434901738205749e-01	 4.374330271401058e+01
1	 1.904678642179897e+00	 2.789700163841410e-01	 2.112701064855769e+01
1	 1.899123263074128e+00	 3.145724585436129e-01	-2.110315233944561e+00
1	 1.892862834205940e+00	 3.502788759148565e-01	-2.582626265911797e+01
1	 1.937500000000000e+00	 0.000000000000000e+00	 5.555363937675317e+01
1	 1.937195060669326e+00	 3.437363697003634e-02	 6.297811597019034e+01
1	 1.936271521617023e+00	 6.898437921529610e-02	 6.623993866784205e+01
1	 1.934716539277264e+00	 1.038179302868033e-01	 6.548300845302924e+01
1	 1.932517615881075e+00	 1.388593328272925e-01	 6.086984081824001e+01
1	 1.929662635438486e+00	 1.740929734341646e-01	 5.258180375731024e+01
1	 1.926139900152201e+00	 2.095025896061670e-01	 4.081927840991119e+01
1	 1.921938167137059e+00	 2.450712788480219e-01	 2.580173687048432e+01
1	 1.917046685311006e+00	 2.807815099996848e-01	 7.767731947144320e+00
1	 1.911455232314958e+00	 3.166151368484312e-01	-1.302520600243326e+01
1	 1.905154151311284e+00	 3.525534140725660e-01	-3.630076962012176e+01
1	 1.950000000000000e+00	 0.000000000000000e+00	-7.081532901077935e+01
1	 1.949693093318812e+00	 3.459540237064810e-02	-4.035144329909240e+01
1	 1.948763595950059e+00	 6.942943972786557e-02	-1.675097473049675e+01
1	 1.947198581466201e+00	 1.044877233875190e-01	 1.806458879407415e-01
1	 1.944985471467495e+00	 1.397551994932612e-01	 1.066773487792492e+01
1	 1.942112071796298e+00	 1.752161539108608e-01	 1.496486740408978e+01
1	 1.938566609185650e+00	 2.108542192196997e-01	 1.335727119767209e+01
1	 1.934337768215650e+00	 2.466523838761410e-01	 6.161092999451247e+00
1	 1.929414728442420e+00	 2.825930036158795e-01	-6.276471202598650e+00
1	 1.923787201556179e+00	 3.186578151538481e-01	-2.357719059030113e+01
1	 1.917445468417113e+00	 3.548279522307903e-01	-4.533196644851448e+01
1	 1.962499999999999e+00	 0.000000000000000e+00	-2.048201995392953e+02
1	 1.962191125968301e+00	 3.481716777143939e-02	-1.505750130966629e+02
1	 1.961255670283113e+00	 6.987450024076731e-02	-1.058562631910927e+02
1	 1.959680623655179e+00	 1.051575164886924e-01	-7.041908941779522e+01
1	 1.957453327053991e+00	 1.406510661597848e-01	-4.397784668669054e+01
1	 1.954561508154227e+00	 1.763393343881805e-01	-2.620532224444213e+01
1	 1.950993318219269e+00	 2.122058488338951e-01	-1.673211103174797e+01
1	 1.946737369294472e+00	 2.482334889049322e-01	-1.514616243975779e+01
1	 1.941782771574142e+00	 2.844044972327250e-01	-2.099251107197339e+01
1	 1.936119170797790e+00	 3.207004934598635e-01	-3.377320350999052e+01
1	 1.929736785523427e+00	 3.571024903895291e-01	-5.294743231808562e+01
1	 1.975000000000000e+00	 0.000000000000000e+00	-3.463159867240421e+02
1	 1.974689158617796e+00	 3.503893317241022e-02	-2.675616944878982e+02
1	 1.973747744616185e+00	 7.031956075400138e-02	-2.009598309847233e+02
1	 1.972162665844200e+00	 1.058273095903234e-01	-1.462156144374611e+02
1	 1.969921182640562e+00	 1.415469328268634e-01	-1.029825340853485e+02
1	 1.967010944512274e+00	 1.774625148661237e-01	-7.086129835361197e+01
1	 1.963420027253059e+00	 2.135574784487534e-01	-4.939898141088195e+01
1	 1.959136970373529e+00	 2.498145939343955e-01	-3.808838492349503e+01
1	 1.954150814706171e+00	 2.862159908502214e-01	-3.636763126719038e+01
1	 1.948451140039792e+00	 3.227431717664775e-01	-4.362000371666264e+01
1	 1.942028102630227e+00	 3.593770285487826e-01	-5.917404819566624e+01
1	 1.987500000000000e+00	 0.000000000000000e+00	-4.951613525136179e+02
1	 1.987187191267294e+00	 3.526069857356055e-02	-3.911838815929675e+02
1	 1.986239818949276e+00	 7.076462126756775e-02	-3.019485030293155e+02
1	 1.984644708033262e+00	 1.064971026924121e-01	-2.271108765348641e+02
1	 1.982389038227208e+00	 1.424427994944970e-01	-1.662640800381839e+02
1	 1.979460380870438e+00	 1.785856953446905e-01	-1.189372913675819e+02
1	 1.975846736287019e+00	 2.149091080642744e-01	-8.459470808779047e+01
1	 1.971536571452820e+00	 2.513956989645308e-01	-6.263472601676198e+01
1	 1.966518857838506e+00	 2.880274844683688e-01	-5.238939631003166e+01
1	 1.960783109282185e+00	 3.247858500736903e-01	-5.312418012886619e+01
1	 1.954319419737511e+00	 3.616515667085508e-01	-6.403801879732774e+01
1	 2.000000000000000e+00	 0.000000000000000e+00	-6.512184923076923e+02
1	 1.999685223916798e+00	 3.548246397489042e-02	-5.213171586788646e+02
1	 1.998731893282386e+00	 7.120968178146642e-02	-4.087119336197270e+02
1	 1.997126750222366e+00	 1.071668957949584e-01	-3.130092743896286e+02
1	 1.994856893813928e+00	 1.433386661626855e-01	-2.337422934472768e+02
1	 1.991909817228721e+00	 1.797088758238808e-01	-1.703691759693862e+02
1	 1.988273445321150e+00	 2.162607376804582e-01	-1.222718750068274e+02
1	 1.983936172532344e+00	 2.529768039953384e-01	-8.875510849544030e+01
1	 1.978886900971149e+00	 2.898389780871670e-01	-6.904568160924283e+01
1	 1.973115078524969e+00	 3.268285283815016e-01	-6.229215694218297e+01
1	 1.966610736845282e+00	 3.639261048688338e-01	-6.756489372121399e+01
1	 1.843697565789419e+00	 3.411807232891650e-01	 3.108219054997195e+01
1	 1.836904245976013e+00	 3.760422731112877e-01	 4.507450353642786e+01
1	 1.829407281501320e+00	 4.109671500863628e-01	 5.784217927212340e+01
1	 1.821199179046478e+00	 4.459355898653836e-01	 6.947238852989277e+01
1	 1.812273130706186e+00	 4.809273331759791e-01	 8.005946457426145e+01
1	 1.802623046614941e+00	 5.159216528644683e-01	 8.970477574055342e+01
1	 1.792243586465333e+00	 5.508973832404047e-01	 9.851655670949833e+01
1	 1.781130189742346e+00	 5.858329516852289e-01	 1.066096976950280e+02
1	 1.769279104497502e+00	 6.207064124720912e-01	 1.141054910631537e+02
1	 1.756687414487809e+00	 6.554954827290598e-01	 1.211313352210175e+02
1	 1.743353064507004e+00	 6.901775804629183e-01	 1.278203959547533e+02
1	 1.855988882892821e+00	 3.434552614448158e-01	 1.454386936996563e+01
1	 1.849150274280280e+00	 3.785492215992383e-01	 2.735368890773670e+01
1	 1.841603330042052e+00	 4.137069310875700e-01	 3.936023142937503e+01
1	 1.833340506903817e+00	 4.489084937984764e-01	 5.061231110676973e+01
1	 1.824354951574237e+00	 4.841335153977702e-01	 6.116336595422703e+01
1	 1.814640533588709e+00	 5.193611305507440e-01	 7.107140439591360e+01
1	 1.804191877037770e+00	 5.545700324623478e-01	 8.039892599992680e+01
1	 1.793004391002975e+00	 5.897385046965644e-01	 8.921281571849798e+01
1	 1.781074298522854e+00	 6.248444552216972e-01	 9.758421115512758e+01
1	 1.768398663912796e+00	 6.598654526133346e-01	 1.055883425752595e+02
1	 1.754975418265163e+00	 6.947787643316375e-01	 1.133043455860085e+02
1	 1.868280199996709e+00	 3.457297996009814e-01	-4.333728053287444e-01
1	 1.861396302585124e+00	 3.810561700876036e-01	 1.092091158821142e+01
1	 1.853799378583433e+00	 4.164467120890913e-01	 2.188709076915649e+01
1	 1.845481834761856e+00	 4.518813977317833e-01	 3.247599021950718e+01
1	 1.836436772443023e+00	 4.873396976196745e-01	 4.270054400608289e+01
1	 1.826658020563224e+00	 5.228006082370322e-01	 5.257581478412038e+01
1	 1.816140167610950e+00	 5.582426816842028e-01	 6.211900331405230e+01
1	 1.804878592264319e+00	 5.936440577077110e-01	 7.134944695152811e+01
1	 1.792869492548874e+00	 6.289824979710139e-01	 8.028860663397174e+01
1	 1.780109913338382e+00	 6.642354224972196e-01	 8.896004195838142e+01
1	 1.766597772023832e+00	 6.993799481998669e-01	 9.738937402431712e+01
1	 1.880571517101082e+00	 3.480043377576615e-01	-1.388014536753603e+01
1	 1.873642330890543e+00	 3.835631185763834e-01	-4.249084055205763e+00
1	 1.865995427125461e+00	 4.191864930909272e-01	 5.402976758782607e+00
1	 1.857623162620597e+00	 4.548543016653039e-01	 1.504923456365261e+01
1	 1.848518593312543e+00	 4.905458798416917e-01	 2.466250310886230e+01
1	 1.838675507538488e+00	 5.262400859233329e-01	 3.421530530250221e+01
1	 1.828088458184871e+00	 5.619153309059697e-01	 4.367997084730598e+01
1	 1.816752793526378e+00	 5.975496107186689e-01	 5.302873819362672e+01
1	 1.804664686575561e+00	 6.331205407200413e-01	 6.223386033479969e+01
1	 1.791821162764569e+00	 6.686053923807149e-01	 7.126771391825045e+01
1	 1.778220125783012e+00	 7.039811320676065e-01	 8.010291109623341e+01
1	 1.892862834205940e+00	 3.502788759148565e-01	-2.582626265911797e+01
1	 1.885888359196539e+00	 3.860700670655777e-01	-1.818089766508147e+01
1	 1.878191475668137e+00	 4.219262740930773e-01	-1.011137735434446e+01
1	 1.869764490480039e+00	 4.578272055990384e-01	-1.681778559923405e+00
1	 1.860600414182798e+00	 4.937520620638225e-01	 7.040968307084308e+00
1	 1.850692994514499e+00	 5.296795636096463e-01	 1.598724451988766e+01
1	 1.840036748759534e+00	 5.655879801276484e-01	 2.508492814068948e+01
1	 1.828626994789152e+00	 6.014551637294382e-01	 3.425959866508657e+01
1	 1.816459880602917e+00	 6.372585834687796e-01	 4.343476073336281e+01
1	 1.803532412191354e+00	 6.729753622638208e-01	 5.253208626121767e+01
1	 1.789842479542702e+00	 7.085823159348567e-01	 6.147167416527299e+01
1	 1.905154151311284e+00	 3.525534140725660e-01	-3.630076962012176e+01
1	 1.898134387503110e+00	 3.885770155551868e-01	-3.089849405447257e+01
1	 1.890387524211462e+00	 4.246660550955419e-01	-2.467474111628684e+01
1	 1.881905818340181e+00	 4.608001095329867e-01	-1.773051513552300e+01
1	 1.872682235053787e+00	 4.969582442860664e-01	-1.017212180748693e+01
1	 1.862710481491260e+00	 5.331190412959723e-01	-2.110931086991357e+00
1	 1.851985039334939e+00	 5.692606293492392e-01	 6.336894747047040e+00
1	 1.840501196052641e+00	 6.053607167400185e-01	 1.505070767083346e+01
1	 1.828255074630939e+00	 6.413966262172286e-01	 2.390571466731988e+01
1	 1.815243661618739e+00	 6.773453321465369e-01	 3.277335188249500e+01
1	 1.801464833302902e+00	 7.131834998016169e-01	 4.152169111459305e+01
1	 1.917445468417113e+00	 3.548279522307903e-01	-4.533196644851448e+01
1	 1.910380415810258e+00	 3.910839640452103e-01	-4.242522355402888e+01
1	 1.902583572755435e+00	 4.274058360983207e-01	-3.830540280267782e+01
1	 1.894047146201024e+00	 4.637730134671488e-01	-3.311009586578736e+01
1	 1.884764055925510e+00	 5.001644265084235e-01	-2.698462194030557e+01
1	 1.874727968468767e+00	 5.365585189823108e-01	-2.008171931003537e+01
1	 1.863933329911085e+00	 5.729332785707417e-01	-1.256118720521056e+01
1	 1.852375397316846e+00	 6.092662697504101e-01	-4.589478030492749e+00
1	 1.840050268659630e+00	 6.455346689653881e-01	 3.660759568228247e+00
1	 1.826954911046724e+00	 6.817153020288634e-01	 1.201118591073960e+01
1	 1.813087187063613e+00	 7.177846836678874e-01	 2.027832244572054e+01
1	 1.929736785523427e+00	 3.571024903895291e-01	-5.294743231808562e+01
1	 1.922626444117981e+00	 3.935909125356485e-01	-5.278384158149552e+01
1	 1.914779621300055e+00	 4.301456171014137e-01	-5.102118474580678e+01
1	 1.906188474062569e+00	 4.667459174015250e-01	-4.783330716792977e+01
1	 1.896845876797968e+00	 5.033706087308940e-01	-4.340418667693542e+01
1	 1.886745455447024e+00	 5.399979966686618e-01	-3.792755430313263e+01
1	 1.875881620487973e+00	 5.766059277921560e-01	-3.160645054636032e+01
1	 1.864249598581766e+00	 6.131718227606131e-01	-2.465271713907619e+01
1	 1.851845462688989e+00	 6.496727117132586e-01	-1.728642477393076e+01
1	 1.838666160475309e+00	 6.860852719108005e-01	-9.735237802563354e+00
1	 1.824709540824834e+00	 7.223858675336682e-01	-2.233717467254358e+00
1	 1.942028102630227e+00	 3.593770285487826e-01	-5.917404819566624e+01
1	 1.934872472426280e+00	 3.960978610265014e-01	-6.199652746807222e+01
1	 1.926975669845323e+00	 4.328853981048212e-01	-6.283945807966141e+01
1	 1.918329801924813e+00	 4.697188213361148e-01	-6.191261175238695e+01
1	 1.908927697671160e+00	 5.065767909534776e-01	-5.943827681595808e+01
1	 1.898762942426027e+00	 5.434374743550253e-01	-5.565080859602097e+01
1	 1.887829911065603e+00	 5.802785770134823e-01	-5.079610069325698e+01
1	 1.876123799847400e+00	 6.170773757706272e-01	-4.513097699560760e+01
1	 1.863640656719016e+00	 6.538107544608398e-01	-3.892250489298011e+01
1	 1.850377409904492e+00	 6.904552417923476e-01	-3.244723081989942e+01
1	 1.836331894586565e+00	 7.269870513989594e-01	-2.599033993060775e+01
1	 1.954319419737511e+00	 3.616515667085508e-01	-6.403801879732774e+01
1	 1.947118500735156e+00	 3.986048095177688e-01	-7.008490257434339e+01
1	 1.939171718391239e+00	 4.356251791085429e-01	-7.377715692855600e+01
1	 1.930471129787760e+00	 4.726917252709185e-01	-7.536015880228064e+01
1	 1.921009518545086e+00	 5.097829731761744e-01	-7.509416546290296e+01
1	 1.910780429405780e+00	 5.468769520414016e-01	-7.325379503215299e+01
1	 1.899778201643975e+00	 5.839512262347204e-01	-7.012741336673388e+01
1	 1.887998001113750e+00	 6.209829287804526e-01	-6.601642702026234e+01
1	 1.875435850749710e+00	 6.579487972081314e-01	-6.123448275586136e+01
1	 1.862088659334276e+00	 6.948252116735054e-01	-5.610657485313363e+01
1	 1.847954248348806e+00	 7.315882352637606e-01	-5.096806225549781e+01
1	 1.966610736845282e+00	 3.639261048688338e-01	-6.756489372121399e+01
1	 1.959364529044608e+00	 4.011117580094511e-01	-7.707004772685980e+01
1	 1.951367766937805e+00	 4.383649601125791e-01	-8.385079206368070e+01
1	 1.942612457651407e+00	 4.756646292059362e-01	-8.818779377114387e+01
1	 1.933091339419748e+00	 5.129891553989847e-01	-9.037894389565648e+01
1	 1.922797916386281e+00	 5.503164297277904e-01	-9.073876863389481e+01
1	 1.911726492223089e+00	 5.876238754558706e-01	-8.959773239460894e+01
1	 1.899872202380815e+00	 6.248884817900893e-01	-8.730143239771633e+01
1	 1.887231044781072e+00	 6.620868399551341e-01	-8.420968528034980e+01
1	 1.873799908764660e+00	 6.991951815542736e-01	-8.069550707134384e+01
1	 1.859576602111558e+00	 7.361894191280726e-01	-7.714398882031394e+01
1	 1.743353064507004e+00	 6.901775804629183e-01	 1.278203959547533e+02
1	 1.729274883740578e+00	 7.247298645455649e-01	 1.248875874698875e+02
1	 1.714452606980928e+00	 7.591292765506406e-01	 1.227521792678068e+02
1	 1.698886893546374e+00	 7.933525843124138e-01	 1.212052586300172e+02
1	 1.682579343755863e+00	 8.273764270649256e-01	 1.200313549590845e+02
1	 1.665532512820283e+00	 8.611773620061519e-01	 1.190091898247961e+02
1	 1.647749922022751e+00	 8.947319121182951e-01	 1.179124775602049e+02
1	 1.629236067072467e+00	 9.280166150632179e-01	 1.165107725545596e+02
1	 1.609996423530313e+00	 9.610080729608007e-01	 1.145703588809321e+02
1	 1.590037449219140e+00	 9.936830028478698e-01	 1.118551774143738e+02
1	 1.569366583547552e+00	 1.026018287606500e+00	 1.081277851485516e+02
1	 1.754975418265163e+00	 6.947787643316375e-01	 1.133043455860085e+02
1	 1.740803382960041e+00	 7.295613969744104e-01	 1.096207596210399e+02
1	 1.725882291021801e+00	 7.641901383925472e-01	 1.066197926623893e+02
1	 1.710212806164218e+00	 7.986416015392133e-01	 1.041492167708470e+02
1	 1.693796539375036e+00	 8.328922699100104e-01	 1.020516404632542e+02
1	 1.676636062899880e+00	 8.669185444175695e-01	 1.001650491736520e+02
1	 1.658734921497089e+00	 9.006967915306421e-01	 9.832338447128987e+01
1	 1.640097640847259e+00	 9.342033924955047e-01	 9.635715930868194e+01
1	 1.620729733015010e+00	 9.674147934461709e-01	 9.409410618764704e+01
1	 1.600637698875349e+00	 1.000307556199713e+00	 9.135985476472156e+01
1	 1.579829027432933e+00	 1.032858409524087e+00	 8.797863507459087e+01
1	 1.766597772023832e+00	 6.993799481998669e-01	 9.738937402431712e+01
1	 1.752331882179924e+00	 7.343929294026761e-01	 9.327402768425388e+01
1	 1.737311975063022e+00	 7.692510002338026e-01	 8.972852569855480e+01
1	 1.721538718782361e+00	 8.039306187653088e-01	 8.665676130871621e+01
1	 1.705013734994474e+00	 8.384081127543593e-01	 8.395884507289406e+01
1	 1.687739612979730e+00	 8.726597268282392e-01	 8.153143746621234e+01
1	 1.669719920971688e+00	 9.066616709422494e-01	 7.926810854298263e+01
1	 1.650959214622339e+00	 9.403901699270792e-01	 7.705972305162129e+01
1	 1.631463042500044e+00	 9.738215139308771e-01	 7.479484913078353e+01
1	 1.611237948531963e+00	 1.006932109550961e+00	 7.236018846317887e+01
1	 1.590291471318810e+00	 1.039698531441169e+00	 6.964102552515411e+01
1	 1.778220125783012e+00	 7.039811320676065e-01	 8.010291109623341e+01
1	 1.763860381400227e+00	 7.392244618303614e-01	 7.586856624887177e+01
1	 1.748741659104592e+00	 7.743118620744064e-01	 7.209325838287558e+01
1	 1.732864631400799e+00	 8.092196359907015e-01	 6.873644937281485e+01
1	 1.716230930614176e+00	 8.439239555979724e-01	 6.575518606035146e+01
1	 1.698843163059831e+00	 8.784009092381607e-01	 6.310422668406893e+01
1	 1.680704920446545e+00	 9.126265503531157e-01	 6.073618277241723e+01
1	 1.661820788397706e+00	 9.465769473579415e-01	 5.860167599974775e+01
1	 1.642196351985415e+00	 9.802282344149192e-01	 5.664950936515852e+01
1	 1.621838198188981e+00	 1.013556662901614e+00	 5.482685191545769e+01
1	 1.600753915205181e+00	 1.046538653357745e+00	 5.307943609868877e+01
1	 1.789842479542702e+00	 7.085823159348567e-01	 6.147167416527299e+01
1	 1.775388880620949e+00	 7.440559942574663e-01	 5.742499991489624e+01
1	 1.760171343146511e+00	 7.793727239143585e-01	 5.372848422824295e+01
1	 1.744190544019534e+00	 8.145086532153905e-01	 5.039661582923557e+01
1	 1.727448126234142e+00	 8.494397984408504e-01	 4.744282310648454e+01
1	 1.709946713140184e+00	 8.841420916473343e-01	 4.487939603007023e+01
1	 1.691689919921663e+00	 9.185914297632422e-01	 4.271741202693200e+01
1	 1.672682362173361e+00	 9.527637247880916e-01	 4.096666641575639e+01
1	 1.652929661471120e+00	 9.866349548982979e-01	 3.963560798312272e+01
1	 1.632438447846405e+00	 1.020181216251673e+00	 3.873128025698770e+01
1	 1.611216359092047e+00	 1.053378775273816e+00	 3.825926900146915e+01
1	 1.801464833302902e+00	 7.131834998016169e-01	 4.152169111459305e+01
1	 1.786917379842092e+00	 7.488875266839913e-01	 3.796342103458220e+01
1	 1.771601027188778e+00	 7.844335857536594e-01	 3.464832272140620e+01
1	 1.755516456638565e+00	 8.197976704393758e-01	 3.164538045075151e+01
1	 1.738665321854372e+00	 8.549556412829922e-01	 2.902386015845048e+01
1	 1.721050263220789e+00	 8.898832740557597e-01	 2.685302846957192e+01
1	 1.702674919397040e+00	 9.245563091726281e-01	 2.520186427406160e+01
1	 1.683543935949303e+00	 9.589505022175293e-01	 2.413876454265866e+01
1	 1.663662970957163e+00	 9.930416753810126e-01	 2.373124617786724e+01
1	 1.643038697504234e+00	 1.026805769601136e+00	 2.404564578098968e+01
1	 1.621678802979408e+00	 1.060218897189382e+00	 2.514681928605279e+01
1	 1.813087187063613e+00	 7.177846836678874e-01	 2.027832244572054e+01
1	 1.798445879063653e+00	 7.537190591099358e-01	 1.750340677165880e+01
1	 1.783030711231393e+00	 7.894944475923085e-01	 1.486653131098971e+01
1	 1.766842369257893e+00	 8.250866876626581e-01	 1.249065481083262e+01
1	 1.749882517474867e+00	 8.604714841243986e-01	 1.050034721604420e+01
1	 1.732153813301645e+00	 8.956244564634370e-01	 9.021307404715969e+00
1	 1.713659918872676e+00	 9.305211885812739e-01	 8.179862148840620e+00
1	 1.694405509725534e+00	 9.651372796462546e-01	 8.102449078772572e+00
1	 1.674396280443541e+00	 9.994483958630631e-01	 8.915086650447016e+00
1	 1.653638947162468e+00	 1.033430322950004e+00	 1.074283431162289e+01
1	 1.632141246867263e+00	 1.067059019104442e+00	 1.370924623441340e+01
1	 1.824709540824834e+00	 7.223858675336682e-01	-2.233717467254358e+00
1	 1.809974378285636e+00	 7.585505915353004e-01	-3.935964491392362e+00
1	 1.794460395274358e+00	 7.945553094303062e-01	-5.603483062630403e+00
1	 1.778168281877518e+00	 8.303757048852366e-01	-7.059851085803203e+00
1	 1.761099713095627e+00	 8.659873269650693e-01	-8.125717950233764e+00
1	 1.743257363382755e+00	 9.013656388703668e-01	-8.619486524194130e+00
1	 1.724644918348573e+00	 9.364860679891791e-01	-8.358025156628230e+00
1	 1.705267083502052e+00	 9.713240570742675e-01	-7.157405830408933e+00
1	 1.685129589930255e+00	 1.005855116344450e+00	-4.833664272633868e+00
1	 1.664239196821106e+00	 1.040054876298278e+00	-1.203577519929127e+00
1	 1.642603690755613e+00	 1.073899141018997e+00	 3.914545834710992e+00
1	 1.836331894586565e+00	 7.269870513989594e-01	-2.599033993060775e+01
1	 1.821502877508037e+00	 7.633821239600846e-01	-2.633609736911926e+01
1	 1.805890079317670e+00	 7.996161712676525e-01	-2.674865287529273e+01
1	 1.789494194497439e+00	 8.356647221071117e-01	-2.699862242443139e+01
1	 1.772316908716650e+00	 8.715031698050042e-01	-2.685238814635197e+01
1	 1.754360913464116e+00	 9.071068212765480e-01	-2.607297851584971e+01
1	 1.735629917824729e+00	 9.424509473963442e-01	-2.442098969561215e+01
1	 1.716128657278858e+00	 9.775108345015684e-01	-2.165554310636814e+01
1	 1.695862899417306e+00	 1.012261836825173e+00	-1.753527384276100e+01
1	 1.674839446480150e+00	 1.046679429645957e+00	-1.181934413644106e+01
1	 1.653066134644457e+00	 1.080739262933047e+00	-4.268475696751878e+00
1	 1.847954248348806e+00	 7.315882352637606e-01	-5.096806225549781e+01
1	 1.833031376730859e+00	 7.682136563842887e-01	-4.967886428451538e+01
1	 1.817319763361331e+00	 8.046770331043469e-01	-4.855623934558443e+01
1	 1.800820107117657e+00	 8.409537393282837e-01	-4.731833344227230e+01
1	 1.783534104337938e+00	 8.770190126442036e-01	-4.567776516429137e+01
1	 1.765464463545728e+00	 9.128480036819814e-01	-4.334270256897450e+01
1	 1.746614917301145e+00	 9.484158268027688e-01	-4.001799227475550e+01
1	 1.726990231055951e+00	 9.836976119281569e-01	-3.540633477948251e+01
1	 1.706596208904692e+00	 1.018668557305231e+00	-2.920949944336178e+01
1	 1.685439696139599e+00	 1.053303982993040e+00	-2.112957205068398e+01
1	 1.663528578533797e+00	 1.087579384846591e+00	-1.087022739440263e+01
1	 1.859576602111558e+00	 7.361894191280726e-01	-7.714398882031394e+01
1	 1.844559875954101e+00	 7.730451888079128e-01	-7.394659085000470e+01
1	 1.828749447405340e+00	 8.097378949403902e-01	-7.101382216163368e+01
1	 1.812146019738172e+00	 8.462427565487523e-01	-6.801184152061694e+01
1	 1.794751299959490e+00	 8.825348554826673e-01	-6.459999825123555e+01
1	 1.776568013627593e+00	 9.185891860866668e-01	-6.043210433232494e+01
1	 1.757599916777820e+00	 9.543807062084535e-01	-5.515776968053706e+01
1	 1.737851804833333e+00	 9.898843893540332e-01	-4.842379357937133e+01
1	 1.717329518392415e+00	 1.025075277784627e+00	-3.987560452328137e+01
1	 1.696039945799453e+00	 1.059928536339529e+00	-2.915874011261351e+01
1	 1.673991022423631e+00	 1.094419506759630e+00	-1.592035806681284e+01
1	 1.569366583547552e+00	 1.026018287606500e+00	 1.081277851485516e+02
1	 1.547992243692877e+00	 1.057991027143265e+00	 1.085087058133631e+02
1	 1.525923817606285e+00	 1.089578589594028e+00	 1.098455664732205e+02
1	 1.503171653821628e+00	 1.120758662325927e+00	 1.122713890142803e+02
1	 1.479747048068645e+00	 1.151509302505199e+00	 1.159152055562463e+02
1	 1.455662226709656e+00	 1.181808986997448e+00	 1.209014538925786e+02
1	 1.430930327038606e+00	 1.211636661368759e+00	 1.273493918078208e+02
1	 1.405565374500522e+00	 1.240971787758436e+00	 1.353725344782325e+02
1	 1.379582256908508e+00	 1.269794391398509e+00	 1.450781190151137e+02
1	 1.352996695754110e+00	 1.298085105561391e+00	 1.565666000196786e+02
1	 1.325825214725000e+00	 1.325825214725000e+00	 1.699311797858824e+02
1	 1.579829027432933e+00	 1.032858409524087e+00	 8.797863507459087e+01
1	 1.558312191979597e+00	 1.065044300658442e+00	 9.040760231614861e+01
1	 1.536096643052833e+00	 1.096842446859411e+00	 9.339961959924986e+01
1	 1.513192798176722e+00	 1.128230386743245e+00	 9.705248457001883e+01
1	 1.489612028385866e+00	 1.159186031190622e+00	 1.014615230872453e+02
1	 1.465366641551668e+00	 1.189687713579582e+00	 1.067191447393970e+02
1	 1.440469862550032e+00	 1.219714239113318e+00	 1.129144098335295e+02
1	 1.414935810328952e+00	 1.249244933012061e+00	 1.201326109433058e+02
1	 1.388779471953618e+00	 1.278259687342719e+00	 1.284548720154499e+02
1	 1.362016673725522e+00	 1.306739006266193e+00	 1.379577679139337e+02
1	 1.334664049490250e+00	 1.334664049490250e+00	 1.487129671301839e+02
1	 1.590291471318810e+00	 1.039698531441169e+00	 6.964102552515411e+01
1	 1.568632140266901e+00	 1.072097574173214e+00	 7.394196477647677e+01
1	 1.546269468500037e+00	 1.104106304124489e+00	 7.841934333542451e+01
1	 1.523213942532522e+00	 1.135702111160359e+00	 8.313609307577192e+01
1	 1.499477008703824e+00	 1.166862759875942e+00	 8.815417791792557e+01
1	 1.475071056394428e+00	 1.197566440161714e+00	 9.353430806277832e+01
1	 1.450009398062197e+00	 1.227791816857975e+00	 9.933565835286757e+01
1	 1.424306246158092e+00	 1.257518078265884e+00	 1.056155927379603e+02
1	 1.397976686999389e+00	 1.286724983287230e+00	 1.124293967927074e+02
1	 1.371036651697523e+00	 1.315392906971395e+00	 1.198300201839861e+02
1	 1.343502884256000e+00	 1.343502884256000e+00	 1.278678309153190e+02
1	 1.600753915205181e+00	 1.046538653357745e+00	 5.307943609868877e+01
1	 1.578952088554790e+00	 1.079150847687581e+00	 5.907972523514385e+01
1	 1.556442293947896e+00	 1.111370161389263e+00	 6.487599904295213e+01
1	 1.533235086889028e+00	 1.143173835577269e+00	 7.049667506243968e+01
1	 1.509341989022520e+00	 1.174539488561158e+00	 7.597069284673987e+01
1	 1.484775471237937e+00	 1.205445166743843e+00	 8.132738557918502e+01
1	 1.459548933575101e+00	 1.235869394602729e+00	 8.659634853286580e+01
1	 1.433676681987940e+00	 1.265791223519906e+00	 9.180730524806447e+01
1	 1.407173902045819e+00	 1.295190279232040e+00	 9.698997233177683e+01
1	 1.380056629670115e+00	 1.324046807676997e+00	 1.021739238029512e+02
1	 1.352341719022250e+00	 1.352341719022250e+00	 1.073884559170294e+02
1	 1.611216359092047e+00	 1.053378775273816e+00	 3.825926900146915e+01
1	 1.589272036843264e+00	 1.086204121201542e+00	 4.578964866694493e+01
1	 1.566615119396410e+00	 1.118634018653731e+00	 5.274159454118133e+01
1	 1.543256231246241e+00	 1.150645559993975e+00	 5.910935442374519e+01
1	 1.519206969341953e+00	 1.182216217246272e+00	 6.488917449554432e+01
1	 1.494479886082193e+00	 1.213323893325969e+00	 7.007932701243173e+01
1	 1.469088469088744e+00	 1.243946972347583e+00	 7.468012761412621e+01
1	 1.443047117818499e+00	 1.274064368774127e+00	 7.869394203127223e+01
1	 1.416371117092909e+00	 1.303655575177150e+00	 8.212518205949105e+01
1	 1.389076607643296e+00	 1.332700708382998e+00	 8.498029075761576e+01
1	 1.361180553789000e+00	 1.361180553789000e+00	 8.726771691687281e+01
1	 1.621678802979408e+00	 1.060218897189382e+00	 2.514681928605279e+01
1	 1.599591985132323e+00	 1.093257394715098e+00	 3.404130611183353e+01
1	 1.576787944845580e+00	 1.125897875917895e+00	 4.198886002830768e+01
1	 1.553277375604159e+00	 1.158117284410476e+00	 4.894989701743452e+01
1	 1.529071949662122e+00	 1.189892945931280e+00	 5.488829447658967e+01
1	 1.504184300927196e+00	 1.221202619908093e+00	 5.977157370635294e+01
1	 1.478628004603125e+00	 1.252024550092534e+00	 6.357106484393378e+01
1	 1.452417553649766e+00	 1.282337514028546e+00	 6.626205294051269e+01
1	 1.425568332140659e+00	 1.312120871122559e+00	 6.782390402391241e+01
1	 1.398096585617068e+00	 1.341354609089400e+00	 6.824017014477964e+01
1	 1.370019388556250e+00	 1.370019388556250e+00	 6.749867257300465e+01
1	 1.632141246867263e+00	 1.067059019104442e+00	 1.370924623441340e+01
1	 1.609911933421967e+00	 1.100310668228250e+00	 2.380504883950051e+01
1	 1.586960770295406e+00	 1.133161733181755e+00	 3.259122492820455e+01
1	 1.563298519962784e+00	 1.165589008826773e+00	 3.999469008950626e+01
1	 1.538936929983029e+00	 1.197569674616187e+00	 4.594727128385212e+01
1	 1.513888715772949e+00	 1.229081346490214e+00	 5.038604286775067e+01
1	 1.488167540118244e+00	 1.260102127837583e+00	 5.325363795040263e+01
1	 1.461787989481743e+00	 1.290610659283165e+00	 5.449853270427021e+01
1	 1.434765547189069e+00	 1.320586167068268e+00	 5.407530145134956e+01
1	 1.407116563591429e+00	 1.350008509796201e+00	 5.194484057157001e+01
1	 1.378858223324000e+00	 1.378858223324000e+00	 4.807455952669627e+01
1	 1.642603690755613e+00	 1.073899141018997e+00	 3.914545834710992e+00
1	 1.620231881712195e+00	 1.107363941740996e+00	 1.505198350129344e+01
1	 1.597133595745887e+00	 1.140425590445309e+00	 2.452279562209031e+01
1	 1.573319664322116e+00	 1.173060733242866e+00	 3.222072248477770e+01
1	 1.548801910304673e+00	 1.205246403300989e+00	 3.804585287641819e+01
1	 1.523593130619449e+00	 1.236960073072333e+00	 4.190511241152253e+01
1	 1.497707075634103e+00	 1.268179705582731e+00	 4.371272013352998e+01
1	 1.471158425314429e+00	 1.298883804537982e+00	 4.339060994328581e+01
1	 1.443962762238138e+00	 1.329051463014275e+00	 4.086881366424755e+01
1	 1.416136541566381e+00	 1.358662410503402e+00	 3.608580284619752e+01
1	 1.387697058092250e+00	 1.387697058092250e+00	 2.898878673408451e+01
1	 1.653066134644457e+00	 1.080739262933047e+00	-4.268475696751878e+00
1	 1.630551830003009e+00	 1.114417215253336e+00	 7.753948225734192e+00
1	 1.607306421197023e+00	 1.147689447708559e+00	 1.775833402582847e+01
1	 1.583340808682154e+00	 1.180532457658756e+00	 2.560556560894810e+01
1	 1.558666890627054e+00	 1.212923131985688e+00	 3.116429992326330e+01
1	 1.533297545466696e+00	 1.244838799654449e+00	 3.431160638129436e+01
1	 1.507246611150701e+00	 1.276257283327976e+00	 3.493356755026499e+01
1	 1.480528861147824e+00	 1.307156949792999e+00	 3.292583660434899e+01
1	 1.453159977287867e+00	 1.337516758960583e+00	 2.819414734396553e+01
1	 1.425156519541922e+00	 1.367316311211003e+00	 2.065477294627767e+01
1	 1.396535892861000e+00	 1.396535892861000e+00	 1.023493001316803e+01
1	 1.663528578533797e+00	 1.087579384846591e+00	-1.087022739440263e+01
1	 1.640871778294408e+00	 1.121470488765272e+00	 1.883489616092675e+00
1	 1.617479246648815e+00	 1.154953304971504e+00	 1.227323697562973e+01
1	 1.593361953042898e+00	 1.188004182074440e+00	 2.012735510907372e+01
1	 1.568531870950172e+00	 1.220599860670283e+00	 2.528336968029602e+01
1	 1.543001960314693e+00	 1.252717526236562e+00	 2.758878092021192e+01
1	 1.516786146668037e+00	 1.284334861073320e+00	 2.690180727183858e+01
1	 1.489899296981929e+00	 1.315430095048214e+00	 2.309207779281115e+01
1	 1.462357192338255e+00	 1.345982054907189e+00	 1.604126812326810e+01
1	 1.434176497518053e+00	 1.375970211919004e+00	 5.643675252497061e+00
1	 1.405374727630250e+00	 1.405374727630250e+00	-8.193273203419523e+00
1	 1.673991022423631e+00	 1.094419506759630e+00	-1.592035806681284e+01
1	 1.651191726586392e+00	 1.128523762276803e+00	-2.586159389450529e+00
1	 1.627652072101263e+00	 1.162217162234144e+00	 8.043516386791794e+00
1	 1.603383097404348e+00	 1.195475906489921e+00	 1.576477324102527e+01
1	 1.578396851274028e+00	 1.228276589354776e+00	 2.038430047201895e+01
1	 1.552706375163437e+00	 1.260596252818672e+00	 2.172031076783394e+01
1	 1.526325682186112e+00	 1.292412438818762e+00	 1.960342569269082e+01
1	 1.499269732816743e+00	 1.323703240303628e+00	 1.387750198637978e+01
1	 1.471554407389304e+00	 1.354447350854096e+00	 4.400392494090823e+00
1	 1.443196475494775e+00	 1.384624112627405e+00	-8.955363963983700e+00
1	 1.414213562400000e+00	 1.414213562400000e+00	-2.630192891886735e+01
1	 1.325825214725000e+00	 1.325825214725000e+00	 1.699311797858824e+02
1	 1.298085105561391e+00	 1.352996695754110e+00	 1.792584599920071e+02
1	 1.269794391398509e+00	 1.379582256908508e+00	 1.849534768028469e+02
1	 1.240971787758436e+00	 1.405565374500522e+00	 1.871253291152753e+02
1	 1.211636661368759e+00	 1.430930327038606e+00	 1.858966255350149e+02
1	 1.181808986997448e+00	 1.455662226709656e+00	 1.814029086192412e+02
1	 1.151509302505200e+00	 1.479747048068645e+00	 1.737920125122454e+02
1	 1.120758662325928e+00	 1.503171653821628e+00	 1.632233587051845e+02
1	 1.089578589594029e+00	 1.525923817606285e+00	 1.498671951312798e+02
1	 1.057991027143266e+00	 1.547992243692877e+00	 1.339037842303667e+02
1	 1.026018287606500e+00	 1.569366583547552e+00	 1.155225459768501e+02
1	 1.334664049490250e+00	 1.334664049490250e+00	 1.487129671301839e+02
1	 1.306739006266193e+00	 1.362016673725522e+00	 1.558226762284173e+02
1	 1.278259687342720e+00	 1.388779471953618e+00	 1.606071073355540e+02
1	 1.249244933012061e+00	 1.414935810328952e+00	 1.631621807856437e+02
1	 1.219714239113318e+00	 1.440469862550032e+00	 1.635924996433302e+02
1	 1.189687713579582e+00	 1.465366641551668e+00	 1.620108673889659e+02
1	 1.159186031190623e+00	 1.489612028385866e+00	 1.585377637037168e+02
1	 1.128230386743246e+00	 1.513192798176721e+00	 1.533007821434712e+02
1	 1.096842446859412e+00	 1.536096643052833e+00	 1.464340337801606e+02
1	 1.065044300658443e+00	 1.558312191979596e+00	 1.380775211344469e+02
1	 1.032858409524087e+00	 1.579829027432933e+00	 1.283764869221253e+02
1	 1.343502884256000e+00	 1.343502884256000e+00	 1.278678309153190e+02
1	 1.315392906971395e+00	 1.371036651697524e+00	 1.327092196212288e+02
1	 1.286724983287230e+00	 1.397976686999389e+00	 1.365155419181480e+02
1	 1.257518078265884e+00	 1.424306246158092e+00	 1.393696859164668e+02
1	 1.227791816857975e+00	 1.450009398062197e+00	 1.413584378896734e+02
1	 1.197566440161714e+00	 1.475071056394428e+00	 1.425720925971762e+02
1	 1.166862759875943e+00	 1.499477008703824e+00	 1.431040462177274e+02
1	 1.135702111160360e+00	 1.523213942532522e+00	 1.430503747474777e+02
1	 1.104106304124490e+00	 1.546269468500036e+00	 1.425094008173890e+02
1	 1.072097574173215e+00	 1.568632140266900e+00	 1.415812519542532e+02
1	 1.039698531441169e+00	 1.590291471318810e+00	 1.403674133474005e+02
1	 1.352341719022250e+00	 1.352341719022250e+00	 1.073884559170294e+02
1	 1.324046807676997e+00	 1.380056629670115e+00	 1.099117700301666e+02
1	 1.295190279232041e+00	 1.407173902045819e+00	 1.126737843927818e+02
1	 1.265791223519906e+00	 1.433676681987940e+00	 1.157444983613855e+02
1	 1.235869394602730e+00	 1.459548933575101e+00	 1.191930664672530e+02
1	 1.205445166743843e+00	 1.484775471237936e+00	 1.230875005879506e+02
1	 1.174539488561159e+00	 1.509341989022520e+00	 1.274943790475772e+02
1	 1.143173835577269e+00	 1.533235086889027e+00	 1.324785645722840e+02
1	 1.111370161389264e+00	 1.556442293947895e+00	 1.381029329406153e+02
1	 1.079150847687582e+00	 1.578952088554790e+00	 1.444281140632437e+02
1	 1.046538653357745e+00	 1.600753915205181e+00	 1.515122471051340e+02
1	 1.361180553789000e+00	 1.361180553789000e+00	 8.726771691687281e+01
1	 1.332700708382998e+00	 1.389076607643297e+00	 8.742417147443430e+01
1	 1.303655575177150e+00	 1.416371117092909e+00	 8.907696837193851e+01
1	 1.274064368774127e+00	 1.443047117818499e+00	 9.228335888692789e+01
1	 1.243946972347583e+00	 1.469088469088743e+00	 9.709504725256869e+01
1	 1.213323893325970e+00	 1.494479886082192e+00	 1.035579839042228e+02
1	 1.182216217246271e+00	 1.519206969341952e+00	 1.117121897841445e+02
1	 1.150645559993975e+00	 1.543256231246240e+00	 1.215916127105034e+02
1	 1.118634018653732e+00	 1.566615119396410e+00	 1.332240165436589e+02
1	 1.086204121201543e+00	 1.589272036843264e+00	 1.466309036043990e+02
1	 1.053378775273816e+00	 1.611216359092047e+00	 1.618274705191530e+02
1	 1.370019388556250e+00	 1.370019388556250e+00	 6.749867257300465e+01
1	 1.341354609089400e+00	 1.398096585617068e+00	 6.524042683725139e+01
1	 1.312120871122559e+00	 1.425568332140659e+00	 6.572035305228930e+01
1	 1.282337514028547e+00	 1.452417553649766e+00	 6.898309236887212e+01
1	 1.252024550092534e+00	 1.478628004603124e+00	 7.506307665433751e+01
1	 1.221202619908093e+00	 1.504184300927196e+00	 8.398441205556088e+01
1	 1.189892945931281e+00	 1.529071949662122e+00	 9.576081756435165e+01
1	 1.158117284410477e+00	 1.553277375604159e+00	 1.103956186781680e+02
1	 1.125897875917896e+00	 1.576787944845579e+00	 1.278817957908216e+02
1	 1.093257394715099e+00	 1.599591985132322e+00	 1.482020864976581e+02
1	 1.060218897189382e+00	 1.621678802979408e+00	 1.713291405629938e+02
1	 1.378858223324000e+00	 1.378858223324000e+00	 4.807455952669627e+01
1	 1.350008509796201e+00	 1.407116563591429e+00	 4.335469277405588e+01
1	 1.320586167068267e+00	 1.434765547189069e+00	 4.259931918956173e+01
1	 1.290610659283165e+00	 1.461787989481743e+00	 4.584060509643469e+01
1	 1.260102127837583e+00	 1.488167540118244e+00	 5.309588450669531e+01
1	 1.229081346490215e+00	 1.513888715772948e+00	 6.436763225641755e+01
1	 1.197569674616187e+00	 1.538936929983029e+00	 7.964351590622613e+01
1	 1.165589008826774e+00	 1.563298519962784e+00	 9.889652559346658e+01
1	 1.133161733181756e+00	 1.586960770295405e+00	 1.220851803806616e+02
1	 1.100310668228251e+00	 1.609911933421966e+00	 1.491538090239905e+02
1	 1.067059019104442e+00	 1.632141246867263e+00	 1.800329024929260e+02
1	 1.387697058092250e+00	 1.387697058092250e+00	 2.898878673408451e+01
1	 1.358662410503402e+00	 1.416136541566380e+00	 2.176127481530037e+01
1	 1.329051463014275e+00	 1.443962762238138e+00	 1.970936522723141e+01
1	 1.298883804537982e+00	 1.471158425314429e+00	 2.285288217948673e+01
1	 1.268179705582731e+00	 1.497707075634103e+00	 3.119223300468919e+01
1	 1.236960073072333e+00	 1.523593130619448e+00	 4.470847013616229e+01
1	 1.205246403300989e+00	 1.548801910304673e+00	 6.336345543561941e+01
1	 1.173060733242868e+00	 1.573319664322116e+00	 8.710012515756516e+01
1	 1.140425590445310e+00	 1.597133595745886e+00	 1.158428530130451e+02
1	 1.107363941740996e+00	 1.620231881712195e+00	 1.494979080049824e+02
1	 1.073899141018997e+00	 1.642603690755613e+00	 1.879540029599668e+02
1	 1.396535892861000e+00	 1.396535892861000e+00	 1.023493001316803e+01
1	 1.367316311211003e+00	 1.425156519541922e+00	 4.546226552190049e-01
1	 1.337516758960583e+00	 1.453159977287867e+00	-2.953896427774119e+00
1	 1.307156949792999e+00	 1.480528861147824e+00	 1.698505422951513e-02
1	 1.276257283327977e+00	 1.507246611150701e+00	 9.350915680200259e+00
1	 1.244838799654449e+00	 1.533297545466696e+00	 2.500773042215813e+01
1	 1.212923131985688e+00	 1.558666890627054e+00	 4.692372650937450e+01
1	 1.180532457658757e+00	 1.583340808682153e+00	 7.501206244628675e+01
1	 1.147689447708560e+00	 1.607306421197023e+00	 1.091632765726598e+02
1	 1.114417215253337e+00	 1.630551830003009e+00	 1.492459205958503e+02
1	 1.080739262933047e+00	 1.653066134644457e+00	 1.951073026239713e+02
1	 1.405374727630250e+00	 1.405374727630250e+00	-8.193273203419523e+00
1	 1.375970211919004e+00	 1.434176497518053e+00	-2.057067438162674e+01
1	 1.345982054907189e+00	 1.462357192338255e+00	-2.539474298883075e+01
1	 1.315430095048214e+00	 1.489899296981929e+00	-2.266995091700474e+01
1	 1.284334861073321e+00	 1.516786146668037e+00	-1.242924358349183e+01
1	 1.252717526236562e+00	 1.543001960314692e+00	 5.266197597053036e+00
1	 1.220599860670284e+00	 1.568531870950172e+00	 3.032734173950987e+01
1	 1.188004182074441e+00	 1.593361953042897e+00	 6.263784052097001e+01
1	 1.154953304971505e+00	 1.617479246648815e+00	 1.020547010414322e+02
1	 1.121470488765273e+00	 1.640871778294407e+00	 1.484090937089172e+02
1	 1.087579384846591e+00	 1.663528578533797e+00	 2.015072882917155e+02
1	 1.414213562400000e+00	 1.414213562400000e+00	-2.630192891886735e+01
1	 1.384624112627405e+00	 1.443196475494774e+00	-4.131989170379529e+01
1	 1.354447350854096e+00	 1.471554407389304e+00	-4.761734473898447e+01
1	 1.323703240303628e+00	 1.499269732816743e+00	-4.521071875594518e+01
1	 1.292412438818763e+00	 1.526325682186112e+00	-3.414939150019124e+01
1	 1.260596252818672e+00	 1.552706375163436e+00	-1.451536346857058e+01
1	 1.228276589354776e+00	 1.578396851274027e+00	 1.357723842274471e+01
1	 1.195475906489922e+00	 1.603383097404348e+00	 4.998282486642188e+01
1	 1.162217162234145e+00	 1.627652072101262e+00	 9.452517015174550e+01
1	 1.128523762276804e+00	 1.651191726586391e+00	 1.469983930836993e+02
1	 1.094419506759630e+00	 1.673991022423631e+00	 2.071680845998141e+02
1	 1.026018287606500e+00	 1.569366583547552e+00	 1.155225459768501e+02
1	 9.936830028478698e-01	 1.590037449219140e+00	 1.017129823969010e+02
1	 9.610080729608007e-01	 1.609996423530313e+00	 9.408529735038559e+01
1	 9.280166150632180e-01	 1.629236067072467e+00	 9.187475521888111e+01
1	 8.947319121182953e-01	 1.647749922022751e+00	 9.430647822084306e+01
1	 8.611773620061525e-01	 1.665532512820283e+00	 1.005988773124522e+02
1	 8.273764270649263e-01	 1.682579343755863e+00	 1.099670501268105e+02
1	 7.933525843124147e-01	 1.698886893546373e+00	 1.216261244403648e+02
1	 7.591292765506416e-01	 1.714452606980927e+00	 1.347945266715218e+02
1	 7.247298645455660e-01	 1.729274883740578e+00	 1.486971561046460e+02
1	 6.901775804629183e-01	 1.743353064507004e+00	 1.625684468728212e+02
1	 1.032858409524087e+00	 1.579829027432933e+00	 1.283764869221253e+02
1	 1.000307556199713e+00	 1.600637698875349e+00	 1.181822992581359e+02
1	 9.674147934461709e-01	 1.620729733015011e+00	 1.115307445192427e+02
1	 9.342033924955050e-01	 1.640097640847259e+00	 1.078189949036411e+02
1	 9.006967915306425e-01	 1.658734921497089e+00	 1.064409885318998e+02
1	 8.669185444175702e-01	 1.676636062899880e+00	 1.067900359735043e+02
1	 8.328922699100108e-01	 1.693796539375036e+00	 1.082613786879858e+02
1	 7.986416015392142e-01	 1.710212806164218e+00	 1.102546837122971e+02
1	 7.641901383925483e-01	 1.725882291021801e+00	 1.121764598609104e+02
1	 7.295613969744115e-01	 1.740803382960041e+00	 1.134423817573997e+02
1	 6.947787643316375e-01	 1.754975418265163e+00	 1.134795091696640e+02
1	 1.039698531441169e+00	 1.590291471318810e+00	 1.403674133474005e+02
1	 1.006932109550961e+00	 1.611237948531963e+00	 1.345356812447138e+02
1	 9.738215139308771e-01	 1.631463042500044e+00	 1.296400743716004e+02
1	 9.403901699270795e-01	 1.650959214622338e+00	 1.252379704235232e+02
1	 9.066616709422495e-01	 1.669719920971687e+00	 1.208903631427696e+02
1	 8.726597268282396e-01	 1.687739612979729e+00	 1.161636514833564e+02
1	 8.384081127543602e-01	 1.705013734994474e+00	 1.106313656744424e+02
1	 8.039306187653098e-01	 1.721538718782360e+00	 1.038758203108862e+02
1	 7.692510002338034e-01	 1.737311975063022e+00	 9.548968545372215e+01
1	 7.343929294026771e-01	 1.752331882179924e+00	 8.507746764092008e+01
1	 6.993799481998668e-01	 1.766597772023833e+00	 7.225689367680907e+01
1	 1.046538653357745e+00	 1.600753915205181e+00	 1.515122471051340e+02
1	 1.013556662901614e+00	 1.621838198188981e+00	 1.507754015887751e+02
1	 9.802282344149195e-01	 1.642196351985414e+00	 1.484002695994533e+02
1	 9.465769473579416e-01	 1.661820788397706e+00	 1.441027653893432e+02
1	 9.126265503531162e-01	 1.680704920446545e+00	 1.376092125573418e+02
1	 8.784009092381612e-01	 1.698843163059831e+00	 1.286573227274870e+02
1	 8.439239555979734e-01	 1.716230930614175e+00	 1.169970962154158e+02
1	 8.092196359907021e-01	 1.732864631400798e+00	 1.023916405634788e+02
1	 7.743118620744075e-01	 1.748741659104592e+00	 8.461790359935149e+01
1	 7.392244618303623e-01	 1.763860381400226e+00	 6.346731845693847e+01
1	 7.039811320676067e-01	 1.778220125783012e+00	 3.874635878248100e+01
1	 1.053378775273816e+00	 1.611216359092047e+00	 1.618274705191530e+02
1	 1.020181216251672e+00	 1.632438447846405e+00	 1.669036744774700e+02
1	 9.866349548982980e-01	 1.652929661471120e+00	 1.677986510066906e+02
1	 9.527637247880920e-01	 1.672682362173361e+00	 1.643852144869592e+02
1	 9.185914297632424e-01	 1.691689919921662e+00	 1.565533262274516e+02
1	 8.841420916473348e-01	 1.709946713140184e+00	 1.442102693995440e+02
1	 8.494397984408509e-01	 1.727448126234142e+00	 1.272807311510768e+02
1	 8.145086532153912e-01	 1.744190544019534e+00	 1.057067934902346e+02
1	 7.793727239143596e-01	 1.760171343146511e+00	 7.944783522256165e+01
1	 7.440559942574673e-01	 1.775388880620949e+00	 4.848034787601328e+01
1	 7.085823159348565e-01	 1.789842479542702e+00	 1.279766915059699e+01
1	 1.060218897189382e+00	 1.621678802979408e+00	 1.713291405629938e+02
1	 1.026805769601136e+00	 1.643038697504233e+00	 1.829226569576358e+02
1	 9.930416753810124e-01	 1.663662970957163e+00	 1.878228666022635e+02
1	 9.589505022175296e-01	 1.683543935949304e+00	 1.860578792490422e+02
1	 9.245563091726284e-01	 1.702674919397039e+00	 1.776796345223036e+02
1	 8.898832740557604e-01	 1.721050263220789e+00	 1.627632797172128e+02
1	 8.549556412829928e-01	 1.738665321854372e+00	 1.414064400741138e+02
1	 8.197976704393767e-01	 1.755516456638565e+00	 1.137283887817714e+02
1	 7.844335857536603e-01	 1.771601027188778e+00	 7.986912457911247e+01
1	 7.488875266839924e-01	 1.786917379842091e+00	 3.998836534498361e+01
1	 7.131834998016169e-01	 1.801464833302902e+00	-5.735533513934513e+00
1	 1.067059019104442e+00	 1.632141246867263e+00	 1.800329024929260e+02
1	 1.033430322950004e+00	 1.653638947162467e+00	 1.988344507672163e+02
1	 9.994483958630631e-01	 1.674396280443540e+00	 2.084608811128380e+02
1	 9.651372796462548e-01	 1.694405509725534e+00	 2.090940247587075e+02
1	 9.305211885812740e-01	 1.713659918872676e+00	 2.009461721606126e+02
1	 8.956244564634376e-01	 1.732153813301645e+00	 1.842586601490075e+02
1	 8.604714841243993e-01	 1.749882517474867e+00	 1.593003369466403e+02
1	 8.250866876626589e-01	 1.766842369257893e+00	 1.263659179315292e+02
1	 7.894944475923095e-01	 1.783030711231393e+00	 8.577424555925646e+01
1	 7.537190591099371e-01	 1.798445879063653e+00	 3.786646724799135e+01
1	 7.177846836678873e-01	 1.813087187063613e+00	-1.699585472935334e+01
1	 1.073899141018997e+00	 1.642603690755613e+00	 1.879540029599668e+02
1	 1.040054876298278e+00	 1.664239196821106e+00	 2.146411040966935e+02
1	 1.005855116344450e+00	 1.685129589930255e+00	 2.297009658962482e+02
1	 9.713240570742678e-01	 1.705267083502052e+00	 2.334675972434431e+02
1	 9.364860679891795e-01	 1.724644918348573e+00	 2.263120430402282e+02
1	 9.013656388703671e-01	 1.743257363382755e+00	 2.086401870623364e+02
1	 8.659873269650699e-01	 1.761099713095627e+00	 1.808904181775986e+02
1	 8.303757048852374e-01	 1.778168281877517e+00	 1.435311783821680e+02
1	 7.945553094303071e-01	 1.794460395274357e+00	 9.705841157198815e+01
1	 7.585505915353016e-01	 1.809974378285635e+00	 4.199293222694227e+01
1	 7.223858675336681e-01	 1.824709540824833e+00	-2.112226675223272e+01
1	 1.080739262933047e+00	 1.653066134644457e+00	 1.951073026239713e+02
1	 1.046679429645956e+00	 1.674839446480151e+00	 2.303446132836223e+02
1	 1.012261836825172e+00	 1.695862899417306e+00	 2.515316892379726e+02
1	 9.775108345015685e-01	 1.716128657278857e+00	 2.591532025199195e+02
1	 9.424509473963443e-01	 1.735629917824729e+00	 2.537373864033626e+02
1	 9.071068212765485e-01	 1.754360913464115e+00	 2.358530602077080e+02
1	 8.715031698050051e-01	 1.772316908716650e+00	 2.061065030516615e+02
1	 8.356647221071125e-01	 1.789494194497438e+00	 1.651382005525004e+02
1	 7.996161712676533e-01	 1.805890079317670e+00	 1.136194888514157e+02
1	 7.633821239600858e-01	 1.821502877508038e+00	 5.224912047714596e+01
1	 7.269870513989594e-01	 1.836331894586565e+00	-1.825022355411670e+01
1	 1.087579384846591e+00	 1.663528578533797e+00	 2.015072882917155e+02
1	 1.053303982993040e+00	 1.685439696139599e+00	 2.459469244432354e+02
1	 1.018668557305232e+00	 1.706596208904692e+00	 2.739419070137993e+02
1	 9.836976119281569e-01	 1.726990231055951e+00	 2.861260852521768e+02
1	 9.484158268027693e-01	 1.746614917301144e+00	 2.831833442785802e+02
1	 9.128480036819818e-01	 1.765464463545728e+00	 2.658438579582635e+02
1	 8.770190126442042e-01	 1.783534104337938e+00	 2.348801764060931e+02
1	 8.409537393282845e-01	 1.800820107117657e+00	 1.911031776181072e+02
1	 8.046770331043480e-01	 1.817319763361330e+00	 1.353579130345804e+02
1	 7.682136563842901e-01	 1.833031376730859e+00	 6.851937684312261e+01
1	 7.315882352637607e-01	 1.847954248348806e+00	-8.511771459416337e+00
1	 1.094419506759630e+00	 1.673991022423631e+00	 2.071680845998141e+02
1	 1.059928536339529e+00	 1.696039945799453e+00	 2.614499350378799e+02
1	 1.025075277784627e+00	 1.717329518392415e+00	 2.969207537026147e+02
1	 9.898843893540332e-01	 1.737851804833332e+00	 3.143621089876573e+02
1	 9.543807062084537e-01	 1.757599916777820e+00	 3.146120301437341e+02
1	 9.185891860866674e-01	 1.776568013627593e+00	 2.985604942278207e+02
1	 8.825348554826680e-01	 1.794751299959490e+00	 2.671447334572291e+02
1	 8.462427565487531e-01	 1.812146019738171e+00	 2.213443979251887e+02
1	 8.097378949403913e-01	 1.828749447405340e+00	 1.621766088676221e+02
1	 7.730451888079141e-01	 1.844559875954101e+00	 9.069093754831283e+01
1	 7.361894191280726e-01	 1.859576602111558e+00	 7.964344365616952e+00
1	 6.901775804629183e-01	 1.743353064507004e+00	 1.625684468728212e+02
1	 6.554954827290597e-01	 1.756687414487810e+00	 1.849291627011014e+02
1	 6.207064124720911e-01	 1.769279104497503e+00	 1.963205253678717e+02
1	 5.858329516852290e-01	 1.781130189742346e+00	 1.982852925316767e+02
1	 5.508973832404049e-01	 1.792243586465333e+00	 1.923572602108746e+02
1	 5.159216528644688e-01	 1.802623046614941e+00	 1.800554112392007e+02
1	 4.809273331759799e-01	 1.812273130706186e+00	 1.628783391829419e+02
1	 4.459355898653843e-01	 1.821199179046478e+00	 1.422989717295213e+02
1	 4.109671500863636e-01	 1.829407281501319e+00	 1.197596141841373e+02
1	 3.760422731112888e-01	 1.836904245976013e+00	 9.666733031007558e+01
1	 3.411807232891650e-01	 1.843697565789419e+00	 7.438967435957419e+01
1	 6.947787643316375e-01	 1.754975418265163e+00	 1.134795091696640e+02
1	 6.598654526133345e-01	 1.768398663912796e+00	 1.338974725310659e+02
1	 6.248444552216971e-01	 1.781074298522854e+00	 1.465402843849891e+02
1	 5.897385046965644e-01	 1.793004391002975e+00	 1.525796622698186e+02
1	 5.545700324623483e-01	 1.804191877037771e+00	 1.531786141886652e+02
1	 5.193611305507445e-01	 1.814640533588709e+00	 1.494870520423246e+02
1	 4.841335153977708e-01	 1.824354951574237e+00	 1.426376215409354e+02
1	 4.489084937984773e-01	 1.833340506903816e+00	 1.337417661541645e+02
1	 4.137069310875708e-01	 1.841603330042052e+00	 1.238860400759613e+02
1	 3.785492215992395e-01	 1.849150274280280e+00	 1.141286825826431e+02
1	 3.434552614448158e-01	 1.855988882892821e+00	 1.054964635824294e+02
1	 6.993799481998668e-01	 1.766597772023833e+00	 7.225689367680907e+01
1	 6.642354224972193e-01	 1.780109913338382e+00	 8.885165232894826e+01
1	 6.289824979710141e-01	 1.792869492548873e+00	 1.008361883670455e+02
1	 5.936440577077111e-01	 1.804878592264319e+00	 1.090149403964333e+02
1	 5.582426816842031e-01	 1.816140167610950e+00	 1.141838731204184e+02
1	 5.228006082370326e-01	 1.826658020563224e+00	 1.171275437098829e+02
1	 4.873396976196750e-01	 1.836436772443023e+00	 1.186163261774402e+02
1	 4.518813977317842e-01	 1.845481834761856e+00	 1.194038049143511e+02
1	 4.164467120890923e-01	 1.853799378583433e+00	 1.202243467478842e+02
1	 3.810561700876046e-01	 1.861396302585124e+00	 1.217908590770183e+02
1	 3.457297996009814e-01	 1.868280199996709e+00	 1.247927398655901e+02
1	 7.039811320676067e-01	 1.778220125783012e+00	 3.874635878248100e+01
1	 6.686053923807149e-01	 1.791821162764569e+00	 4.967433209523702e+01
1	 6.331205407200413e-01	 1.804664686575561e+00	 5.912831290265161e+01
1	 5.975496107186692e-01	 1.816752793526378e+00	 6.754914831532750e+01
1	 5.619153309059700e-01	 1.828088458184871e+00	 7.536943102638068e+01
1	 5.262400859233336e-01	 1.838675507538488e+00	 8.301200681305151e+01
1	 4.905458798416924e-01	 1.848518593312543e+00	 9.088858206748220e+01
1	 4.548543016653047e-01	 1.857623162620597e+00	 9.939843616067991e+01
1	 4.191864930909281e-01	 1.865995427125461e+00	 1.089272424204218e+02
1	 3.835631185763844e-01	 1.873642330890543e+00	 1.198460004954028e+02
1	 3.480043377576615e-01	 1.880571517101082e+00	 1.325100818948816e+02
1	 7.085823159348565e-01	 1.789842479542702e+00	 1.279766915059699e+01
1	 6.729753622638208e-01	 1.803532412191355e+00	 1.625119040189507e+01
1	 6.372585834687796e-01	 1.816459880602917e+00	 2.133880953920446e+01
1	 6.014551637294383e-01	 1.828626994789152e+00	 2.814139778348108e+01
1	 5.655879801276489e-01	 1.840036748759533e+00	 3.673177558861005e+01
1	 5.296795636096469e-01	 1.850692994514499e+00	 4.717464970035160e+01
1	 4.937520620638231e-01	 1.860600414182798e+00	 5.952659275810391e+01
1	 4.578272055990393e-01	 1.869764490480038e+00	 7.383606393584346e+01
1	 4.219262740930783e-01	 1.878191475668138e+00	 9.014346886666482e+01
1	 3.860700670655788e-01	 1.885888359196539e+00	 1.084812568722272e+02
1	 3.502788759148565e-01	 1.892862834205940e+00	 1.288740533251043e+02
1	 7.131834998016169e-01	 1.801464833302902e+00	-5.735533513934513e+00
1	 6.773453321465368e-01	 1.815243661618740e+00	-1.152914394865901e+01
1	 6.413966262172285e-01	 1.828255074630939e+00	-1.260816118353063e+01
1	 6.053607167400187e-01	 1.840501196052642e+00	-9.248144261634387e+00
1	 5.692606293492394e-01	 1.851985039334938e+00	-1.732514870368163e+00
1	 5.331190412959727e-01	 1.862710481491259e+00	 9.648797924188063e+00
1	 4.969582442860671e-01	 1.872682235053787e+00	 2.460069847894633e+01
1	 4.608001095329875e-01	 1.881905818340180e+00	 4.282424314585401e+01
1	 4.246660550955427e-01	 1.890387524211462e+00	 6.401792936220086e+01
1	 3.885770155551879e-01	 1.898134387503110e+00	 8.787894856344107e+01
1	 3.525534140725660e-01	 1.905154151311284e+00	 1.141043968132992e+02
1	 7.177846836678873e-01	 1.813087187063613e+00	-1.699585472935334e+01
1	 6.817153020288633e-01	 1.826954911046724e+00	-3.377518648222308e+01
1	 6.455346689653881e-01	 1.840050268659631e+00	-4.278649412420305e+01
1	 6.092662697504103e-01	 1.852375397316846e+00	-4.465828952194593e+01
1	 5.729332785707419e-01	 1.863933329911085e+00	-4.002677429270695e+01
1	 5.365585189823112e-01	 1.874727968468767e+00	-2.953307746440324e+01
1	 5.001644265084243e-01	 1.884764055925510e+00	-1.382056413603725e+01
1	 4.637730134671497e-01	 1.894047146201024e+00	 6.467770878530615e+00
1	 4.274058360983216e-01	 1.902583572755435e+00	 3.069181171388423e+01
1	 3.910839640452114e-01	 1.910380415810258e+00	 5.821672104390373e+01
1	 3.548279522307902e-01	 1.917445468417113e+00	 8.841522058919733e+01
1	 7.223858675336681e-01	 1.824709540824833e+00	-2.112226675223272e+01
1	 6.860852719108003e-01	 1.838666160475309e+00	-5.059268799777136e+01
1	 6.496727117132584e-01	 1.851845462688989e+00	-6.926820146986377e+01
1	 6.131718227606133e-01	 1.864249598581766e+00	-7.812686086618558e+01
1	 5.766059277921564e-01	 1.875881620487973e+00	-7.815425167935568e+01
1	 5.399979966686622e-01	 1.886745455447023e+00	-7.033933270233469e+01
1	 5.033706087308947e-01	 1.896845876797968e+00	-5.567040460922671e+01
1	 4.667459174015257e-01	 1.906188474062568e+00	-3.513122576789439e+01
1	 4.301456171014146e-01	 1.914779621300055e+00	-9.697293413129088e+00
1	 3.935909125356498e-01	 1.922626444117981e+00	 1.966769378895599e+01
1	 3.571024903895291e-01	 1.929736785523427e+00	 5.201517789558335e+01
1	 7.269870513989594e-01	 1.836331894586565e+00	-1.825022355411670e+01
1	 6.904552417923476e-01	 1.850377409904493e+00	-6.208472205881174e+01
1	 6.538107544608396e-01	 1.863640656719015e+00	-9.212347231418204e+01
1	 6.170773757706274e-01	 1.876123799847400e+00	-1.096907236220826e+02
1	 5.802785770134827e-01	 1.887829911065603e+00	-1.161181137780724e+02
1	 5.434374743550259e-01	 1.898762942426027e+00	-1.127391251344686e+02
1	 5.065767909534783e-01	 1.908927697671160e+00	-1.008837233612230e+02
1	 4.697188213361155e-01	 1.918329801924813e+00	-8.187320519143159e+01
1	 4.328853981048221e-01	 1.926975669845323e+00	-5.701527866178214e+01
1	 3.960978610265026e-01	 1.934872472426280e+00	-2.759939649774603e+01
1	 3.593770285487826e-01	 1.942028102630226e+00	 5.107639614476000e+00
1	 7.315882352637607e-01	 1.847954248348806e+00	-8.511771459416337e+00
1	 6.948252116735053e-01	 1.862088659334276e+00	-6.835176918318381e+01
1	 6.579487972081315e-01	 1.875435850749710e+00	-1.114207299874276e+02
1	 6.209829287804527e-01	 1.887998001113750e+00	-1.393858156877157e+02
1	 5.839512262347207e-01	 1.899778201643975e+00	-1.539214476700034e+02
1	 5.468769520414020e-01	 1.910780429405780e+00	-1.567023880215403e+02
1	 5.097829731761752e-01	 1.921009518545087e+00	-1.493970585379422e+02
1	 4.726917252709194e-01	 1.930471129787759e+00	-1.336611299814118e+02
1	 4.356251791085438e-01	 1.939171718391240e+00	-1.111314104451189e+02
1	 3.986048095177700e-01	 1.947118500735156e+00	-8.342005806121324e+01
1	 3.616515667085508e-01	 1.954319419737511e+00	-5.210913962089750e+01
1	 7.361894191280726e-01	 1.859576602111558e+00	 7.964344365616952e+00
1	 6.991951815542736e-01	 1.873799908764660e+00	-6.949179787573480e+01
1	 6.620868399551343e-01	 1.887231044781072e+00	-1.272266872365772e+02
1	 6.248884817900895e-01	 1.899872202380815e+00	-1.672471765136915e+02
1	 5.876238754558710e-01	 1.911726492223089e+00	-1.915672632592678e+02
1	 5.503164297277909e-01	 1.922797916386281e+00	-2.021998062927910e+02
1	 5.129891553989854e-01	 1.933091339419748e+00	-2.011485348317053e+02
1	 4.756646292059370e-01	 1.942612457651407e+00	-1.904003886625228e+02
1	 4.383649601125800e-01	 1.951367766937804e+00	-1.719182235159694e+02
1	 4.011117580094523e-01	 1.959364529044608e+00	-1.476339114404775e+02
1	 3.639261048688338e-01	 1.966610736845282e+00	-1.194418615433214e+02
1	 3.411807232891650e-01	 1.843697565789419e+00	 7.438967435957419e+01
1	 3.064017453303258e-01	 1.849795386114716e+00	 3.575170708779282e+01
1	 2.717240419284751e-01	 1.855206469658534e+00	 1.508628048155210e+01
1	 2.371657537175081e-01	 1.859940161747613e+00	 1.062081033568217e+01
1	 2.027444415484455e-01	 1.864006354987513e+00	 2.059544169927526e+01
1	 1.684770710600370e-01	 1.867415453651191e+00	 4.326911206535769e+01
1	 1.343799995057737e-01	 1.870178337950090e+00	 7.692524465563062e+01
1	 1.004689647900904e-01	 1.872306328333207e+00	 1.198770578857822e+02
1	 6.675907665743416e-02	 1.873811149952121e+00	 1.704724806913674e+02
1	 3.326480996967145e-02	 1.874704897421970e+00	 2.270986668455294e+02
1	 0.000000000000000e+00	 1.875000000000000e+00	 2.881861046817708e+02
1	 3.434552614448158e-01	 1.855988882892821e+00	 1.054964635824294e+02
1	 3.084444236327498e-01	 1.862127355353983e+00	 6.324866508687208e+01
1	 2.735355355414154e-01	 1.867574512788415e+00	 3.513694353087355e+01
1	 2.387468587422667e-01	 1.872339762825035e+00	 1.980694695903924e+01
1	 2.040960711586644e-01	 1.876433064020110e+00	 1.591273498969123e+01
1	 1.696002515336156e-01	 1.879864890008415e+00	 2.212148163238025e+01
1	 1.352758661689677e-01	 1.882646193536137e+00	 3.711789766296816e+01
1	 1.011387578885178e-01	 1.884788370521935e+00	 5.960836137804516e+01
1	 6.720413716834214e-02	 1.886303224285065e+00	 8.832474931852747e+01
1	 3.348657536938560e-02	 1.887202930071432e+00	 1.220279612141354e+02
1	 0.000000000000000e+00	 1.887500000000000e+00	 1.595111359355819e+02
1	 3.457297996009814e-01	 1.868280199996709e+00	 1.247927398655901e+02
1	 3.104871019357723e-01	 1.874459324593641e+00	 8.113351292967042e+01
1	 2.753470291550064e-01	 1.879942555918602e+00	 4.780504582187814e+01
1	 2.403279637676975e-01	 1.884739363902691e+00	 2.386704762468586e+01
1	 2.054477007695459e-01	 1.888859773052877e+00	 8.383378774905776e+00
1	 1.707234320078177e-01	 1.892314326365756e+00	 4.254043208324814e-01
1	 1.361717328327167e-01	 1.895114049122259e+00	-9.248445493164894e-01
1	 1.018085509874029e-01	 1.897270412710705e+00	 3.428290832377343e+00
1	 6.764919767958245e-02	 1.898795298618027e+00	 1.259685125269785e+01
1	 3.370834076927928e-02	 1.899700962720899e+00	 2.571180292231321e+01
1	 0.000000000000000e+00	 1.900000000000000e+00	 4.192536660710417e+01
1	 3.480043377576615e-01	 1.880571517101082e+00	 1.325100818948816e+02
1	 3.125297802393933e-01	 1.886791293833689e+00	 8.959472336463880e+01
1	 2.771585227692485e-01	 1.892310599049096e+00	 5.323534344776083e+01
1	 2.419090687938004e-01	 1.897138964980581e+00	 2.290162284118178e+01
1	 2.067993303810904e-01	 1.901286482085814e+00	-1.936810288738769e+00
1	 1.718466124826434e-01	 1.904763762723215e+00	-2.180836600963483e+01
1	 1.370675994970205e-01	 1.907581904708456e+00	-3.723758207564123e+01
1	 1.024783440867457e-01	 1.909752454899516e+00	-4.874332288827330e+01
1	 6.809425819115501e-02	 1.911287372951007e+00	-5.683709259086343e+01
1	 3.393010616935248e-02	 1.912198995370370e+00	-6.202146582086242e+01
1	 0.000000000000000e+00	 1.912500000000000e+00	-6.478863858591330e+01
1	 3.502788759148565e-01	 1.892862834205940e+00	 1.288740533251043e+02
1	 3.145724585436130e-01	 1.899123263074128e+00	 8.881587374403374e+01
1	 2.789700163841413e-01	 1.904678642179897e+00	 5.156883260313433e+01
1	 2.434901738205753e-01	 1.909538566058704e+00	 1.700857245451301e+01
1	 2.081509599932976e-01	 1.913713191118922e+00	-1.499346532817422e+01
1	 1.729697929580925e-01	 1.917213199080792e+00	-4.456935482039729e+01
1	 1.379634661618794e-01	 1.920049760294728e+00	-7.185401630669637e+01
1	 1.031481371865461e-01	 1.922234497088370e+00	-9.698456660578427e+01
1	 6.853931870305990e-02	 1.923779447284006e+00	-1.200996917104297e+02
1	 3.415187156960520e-02	 1.924697028019846e+00	-1.413390441626405e+02
1	 0.000000000000000e+00	 1.925000000000000e+00	-1.608426672564168e+02
1	 3.525534140725660e-01	 1.905154151311284e+00	 1.141043968132992e+02
1	 3.166151368484313e-01	 1.911455232314958e+00	 7.897580393993083e+01
1	 2.807815099996850e-01	 1.917046685311005e+00	 4.294287087107928e+01
1	 2.450712788480224e-01	 1.921938167137059e+00	 6.283269863015192e+00
1	 2.095025896061675e-01	 1.926139900152201e+00	-3.073362248640328e+01
1	 1.740929734341652e-01	 1.929662635438486e+00	-6.784735788350019e+01
1	 1.388593328272932e-01	 1.932517615881074e+00	-1.048069789198856e+02
1	 1.038179302868042e-01	 1.934716539277265e+00	-1.413715119983140e+02
1	 6.898437921529707e-02	 1.936271521617023e+00	-1.773103914883326e+02
1	 3.437363697003744e-02	 1.937195060669326e+00	-2.124038164338046e+02
1	 0.000000000000000e+00	 1.937500000000000e+00	-2.464430415309175e+02
1	 3.548279522307902e-01	 1.917445468417113e+00	 8.841522058919733e+01
1	 3.186578151538482e-01	 1.923787201556179e+00	 6.024876818653824e+01
1	 2.825930036158798e-01	 1.929414728442421e+00	 2.749129384531246e+01
1	 2.466523838761414e-01	 1.934337768215650e+00	-9.181357006742331e+00
1	 2.108542192197002e-01	 1.938566609185649e+00	-4.910567595403875e+01
1	 1.752161539108614e-01	 1.942112071796298e+00	-9.163243261785419e+01
1	 1.397551994932619e-01	 1.944985471467495e+00	-1.361284597547535e+02
1	 1.044877233875199e-01	 1.947198581466201e+00	-1.819782801882412e+02
1	 6.942943972786655e-02	 1.948763595950059e+00	-2.285855746049313e+02
1	 3.459540237064921e-02	 1.949693093318812e+00	-2.753744904440630e+02
1	 0.000000000000000e+00	 1.950000000000000e+00	-3.217907932253275e+02
1	 3.571024903895291e-01	 1.929736785523427e+00	 5.201517789558335e+01
1	 3.207004934598637e-01	 1.936119170797790e+00	 3.280458111962803e+01
1	 2.844044972327253e-01	 1.941782771574142e+00	 5.344527295454469e+00
1	 2.482334889049326e-01	 1.946737369294472e+00	-2.929474781868662e+01
1	 2.122058488338956e-01	 1.950993318219269e+00	-7.005933471937497e+01
1	 1.763393343881811e-01	 1.954561508154227e+00	-1.159148897565371e+02
1	 1.406510661597856e-01	 1.957453327053991e+00	-1.658496336231047e+02
1	 1.051575164886933e-01	 1.959680623655180e+00	-2.188771038617712e+02
1	 6.987450024076833e-02	 1.961255670283113e+00	-2.740386585768886e+02
1	 3.481716777144051e-02	 1.962191125968301e+00	-3.304057304922678e+02
1	 0.000000000000000e+00	 1.962499999999999e+00	-3.870818323261784e+02
1	 3.593770285487826e-01	 1.942028102630226e+00	 5.107639614476000e+00
1	 3.227431717664778e-01	 1.948451140039792e+00	-3.191241729845217e+00
1	 2.862159908502217e-01	 1.954150814706171e+00	-2.337030492714267e+01
1	 2.498145939343959e-01	 1.959136970373530e+00	-5.396863490349227e+01
1	 2.135574784487539e-01	 1.963420027253059e+00	-9.354558096087169e+01
1	 1.774625148661244e-01	 1.967010944512274e+00	-1.406852853305155e+02
1	 1.415469328268642e-01	 1.969921182640562e+00	-1.940008861010223e+02
1	 1.058273095903243e-01	 1.972162665844200e+00	-2.521383870295716e+02
1	 7.031956075400238e-02	 1.973747744616185e+00	-3.137801895914534e+02
1	 3.503893317241133e-02	 1.974689158617795e+00	-3.776482853256108e+02
1	 0.000000000000000e+00	 1.975000000000000e+00	-4.425071090738192e+02
1	 3.616515667085508e-01	 1.954319419737511e+00	-5.210913962089750e+01
1	 3.247858500736904e-01	 1.960783109282185e+00	-4.757734874375956e+01
1	 2.880274844683691e-01	 1.966518857838506e+00	-5.852927705548725e+01
1	 2.513956989645312e-01	 1.971536571452820e+00	-8.311697116214245e+01
1	 2.149091080642749e-01	 1.975846736287019e+00	-1.195166300097246e+02
1	 1.785856953446911e-01	 1.979460380870439e+00	-1.659344129548822e+02
1	 1.424427994944977e-01	 1.982389038227207e+00	-2.206118383476010e+02
1	 1.064971026924130e-01	 1.984644708033262e+00	-2.818307625322947e+02
1	 7.076462126756874e-02	 1.986239818949276e+00	-3.479179327998468e+02
1	 3.526069857356168e-02	 1.987187191267294e+00	-4.172491112701762e+02
1	 0.000000000000000e+00	 1.987500000000000e+00	-4.882527699292680e+02
1	 3.639261048688338e-01	 1.966610736845282e+00	-1.194418615433214e+02
1	 3.268285283815017e-01	 1.973115078524969e+00	-1.001964220945502e+02
1	 2.898389780871672e-01	 1.978886900971149e+00	-1.000115614668084e+02
1	 2.529768039953388e-01	 1.983936172532344e+00	-1.166558606731086e+02
1	 2.162607376804587e-01	 1.988273445321150e+00	-1.479258918138441e+02
1	 1.797088758238815e-01	 1.991909817228721e+00	-1.916532964043479e+02
1	 1.433386661626862e-01	 1.994856893813928e+00	-2.457113709929750e+02
1	 1.071668957949593e-01	 1.997126750222366e+00	-3.080211473896316e+02
1	 7.120968178146743e-02	 1.998731893282386e+00	-3.765569592246237e+02
1	 3.548246397489156e-02	 1.999685223916798e+00	-4.493514907440882e+02
1	 0.000000000000000e+00	 2.000000000000000e+00	-5.245003076923076e+02
