patch_n	x	y	stress_yy
0	 0.000000000000000e+000	 0.000000000000000e+000	 2.588823044078372e-001
0	 0.000000000000000e+000	 6.666714722864756e-002	 6.619141646067636e-002
0	 0.000000000000000e+000	 1.333351778131789e-001	-6.891549260079712e-002
0	 0.000000000000000e+000	 2.000039750814772e-001	-1.513167790999730e-001
0	 0.000000000000000e+000	 2.666734223614256e-001	-1.858903542820202e-001
0	 0.000000000000000e+000	 3.333434029809069e-001	-1.775136843710279e-001
0	 0.000000000000000e+000	 4.000138002678044e-001	-1.310637906154629e-001
0	 0.000000000000000e+000	 4.666844975500011e-001	-5.141724932194329e-002
0	 0.000000000000000e+000	 5.333553781553803e-001	 5.654980812266801e-002
0	 0.000000000000000e+000	 6.000263254118248e-001	 1.879616952408495e-001
0	 0.000000000000000e+000	 6.666972226472175e-001	 3.379431704656856e-001
0	 6.666714722864756e-002	 0.000000000000000e+000	 2.776312736083968e-001
0	 6.666714722864756e-002	 6.666714722864756e-002	 1.022007441872992e-001
0	 6.666714722864754e-002	 1.333351778131789e-001	-2.376032332919433e-002
0	 6.666714722864754e-002	 2.000039750814772e-001	-1.040973443802176e-001
0	 6.666714722864757e-002	 2.666734223614254e-001	-1.426553431605959e-001
0	 6.666714722864760e-002	 3.333434029809069e-001	-1.432789526711836e-001
0	 6.666714722864757e-002	 4.000138002678046e-001	-1.098124147589314e-001
0	 6.666714722864756e-002	 4.666844975500011e-001	-4.609958014668243e-002
0	 6.666714722864754e-002	 5.333553781553803e-001	 4.401609154729747e-002
0	 6.666714722864757e-002	 6.000263254118247e-001	 1.566915318000584e-001
0	 6.666714722864757e-002	 6.666972226472178e-001	 2.880840631849701e-001
0	 1.333351778131789e-001	 0.000000000000000e+000	 2.578274092160779e-001
0	 1.333351778131789e-001	 6.666714722864753e-002	 1.100616312227925e-001
0	 1.333351778131789e-001	 1.333351778131789e-001	 2.212447195550461e-003
0	 1.333351778131789e-001	 2.000039750814772e-001	-6.863949159781942e-002
0	 1.333351778131789e-001	 2.666734223614256e-001	-1.054132144748920e-001
0	 1.333351778131790e-001	 3.333434029809069e-001	-1.110274313797546e-001
0	 1.333351778131789e-001	 4.000138002678044e-001	-8.840053291573038e-002
0	 1.333351778131790e-001	 4.666844975500011e-001	-4.045059036971763e-002
0	 1.333351778131789e-001	 5.333553781553803e-001	 2.990464427185393e-002
0	 1.333351778131789e-001	 6.000263254118246e-001	 1.197477383154484e-001
0	 1.333351778131790e-001	 6.666972226472178e-001	 2.261615783612306e-001
0	 2.000039750814772e-001	 0.000000000000000e+000	 2.090576514328112e-001
0	 2.000039750814772e-001	 6.666714722864756e-002	 9.612169874787579e-002
0	 2.000039750814772e-001	 1.333351778131789e-001	 1.273877224633570e-002
0	 2.000039750814772e-001	 2.000039750814772e-001	-4.319131245602456e-002
0	 2.000039750814772e-001	 2.666734223614255e-001	-7.376850356242359e-002
0	 2.000039750814773e-001	 3.333434029809069e-001	-8.109251312542028e-002
0	 2.000039750814773e-001	 4.000138002678044e-001	-6.726281707105049e-002
0	 2.000039750814772e-001	 4.666844975500011e-001	-3.437865521676411e-002
0	 2.000039750814772e-001	 5.333553781553803e-001	 1.546096871683596e-002
0	 2.000039750814773e-001	 6.000263254118247e-001	 8.015728710045306e-002
0	 2.000039750814773e-001	 6.666972226472178e-001	 1.576117683967529e-001
0	 2.666734223614256e-001	 0.000000000000000e+000	 1.409088309744691e-001
0	 2.666734223614255e-001	 6.666714722864758e-002	 6.672847300246620e-002
0	 2.666734223614256e-001	 1.333351778131790e-001	 1.155452759086436e-002
0	 2.666734223614256e-001	 2.000039750814772e-001	-2.600095696087899e-002
0	 2.666734223614255e-001	 2.666734223614256e-001	-4.732578421788485e-002
0	 2.666734223614256e-001	 3.333434029809070e-001	-5.380760962875763e-002
0	 2.666734223614255e-001	 4.000138002678043e-001	-4.683394054060081e-002
0	 2.666734223614256e-001	 4.666844975500010e-001	-2.779213621014407e-002
0	 2.666734223614256e-001	 5.333553781553803e-001	 1.930592189016818e-003
0	 2.666734223614256e-001	 6.000263254118247e-001	 4.094718156306813e-002
0	 2.666734223614255e-001	 6.666972226472174e-001	 8.787071689851259e-002
0	 3.333434029809069e-001	 0.000000000000000e+000	 6.296766908507417e-002
0	 3.333434029809069e-001	 6.666714722864757e-002	 2.822938529815342e-002
0	 3.333434029809069e-001	 1.333351778131790e-001	 2.395511501857022e-003
0	 3.333434029809069e-001	 2.000039750814773e-001	-1.531663341361368e-002
0	 3.333434029809070e-001	 2.666734223614256e-001	-2.568966868827502e-002
0	 3.333434029809070e-001	 3.333434029809070e-001	-2.950615170005514e-002
0	 3.333434029809069e-001	 4.000138002678044e-001	-2.754857797086409e-002
0	 3.333434029809069e-001	 4.666844975500011e-001	-2.059938117104008e-002
0	 3.333434029809070e-001	 5.333553781553805e-001	-9.440933122171672e-003
0	 3.333434029809069e-001	 6.000263254118248e-001	 5.144456201703264e-003
0	 3.333434029809069e-001	 6.666972226472177e-001	 2.237453867452233e-002
0	 4.000138002678044e-001	 0.000000000000000e+000	-1.517922245186883e-002
0	 4.000138002678045e-001	 6.666714722864756e-002	-1.302822797181674e-002
0	 4.000138002678044e-001	 1.333351778131789e-001	-1.100255523476917e-002
0	 4.000138002678044e-001	 2.000039750814773e-001	-9.386608404560966e-003
0	 4.000138002678042e-001	 2.666734223614255e-001	-8.464807669034440e-003
0	 4.000138002678042e-001	 3.333434029809068e-001	-8.521589237628155e-003
0	 4.000138002678044e-001	 4.000138002678044e-001	-9.841405339386327e-003
0	 4.000138002678044e-001	 4.666844975500011e-001	-1.270872422138895e-002
0	 4.000138002678043e-001	 5.333553781553800e-001	-1.740803014760218e-002
0	 4.000138002678045e-001	 6.000263254118249e-001	-2.422382339814954e-002
0	 4.000138002678044e-001	 6.666972226472177e-001	-3.344062026900317e-002
0	 4.666844975500011e-001	 0.000000000000000e+000	-8.394534130491402e-002
0	 4.666844975500011e-001	 6.666714722864756e-002	-5.069712532505085e-002
0	 4.666844975500012e-001	 1.333351778131790e-001	-2.490402931375673e-002
0	 4.666844975500012e-001	 2.000039750814773e-001	-6.459206808600929e-003
0	 4.666844975500011e-001	 2.666734223614255e-001	 4.744109698810505e-003
0	 4.666844975500011e-001	 3.333434029809069e-001	 8.812608773364631e-003
0	 4.666844975500011e-001	 4.000138002678044e-001	 5.852900044898535e-003
0	 4.666844975500012e-001	 4.666844975500012e-001	-4.028485785416233e-003
0	 4.666844975500011e-001	 5.333553781553804e-001	-2.072509694076125e-002
0	 4.666844975500012e-001	 6.000263254118249e-001	-4.413056056643071e-002
0	 4.666844975500012e-001	 6.666972226472175e-001	-7.413858272966252e-002
0	 5.333553781553803e-001	 0.000000000000000e+000	-1.337442945890888e-001
0	 5.333553781553805e-001	 6.666714722864757e-002	-7.843016018500881e-002
0	 5.333553781553803e-001	 1.333351778131789e-001	-3.557334490639712e-002
0	 5.333553781553804e-001	 2.000039750814772e-001	-4.782811782137690e-003
0	 5.333553781553800e-001	 2.666734223614255e-001	 1.433235583049287e-002
0	 5.333553781553805e-001	 3.333434029809070e-001	 2.216295426160364e-002
0	 5.333553781553801e-001	 4.000138002678044e-001	 1.909965954130899e-002
0	 5.333553781553804e-001	 4.666844975500011e-001	 5.533027409189212e-003
0	 5.333553781553803e-001	 5.333553781553803e-001	-1.814650667940606e-002
0	 5.333553781553803e-001	 6.000263254118248e-001	-5.154862755021274e-002
0	 5.333553781553801e-001	 6.666972226472177e-001	-9.428314031006400e-002
0	 6.000263254118248e-001	 0.000000000000000e+000	-1.549897988631815e-001
0	 6.000263254118247e-001	 6.666714722864756e-002	-8.988028087849553e-002
0	 6.000263254118247e-001	 1.333351778131789e-001	-3.927501365845507e-002
0	 6.000263254118248e-001	 2.000039750814773e-001	-2.605864761606242e-003
0	 6.000263254118248e-001	 2.666734223614256e-001	 2.069516469834146e-002
0	 6.000263254118247e-001	 3.333434029809070e-001	 3.119594006978995e-002
0	 6.000263254118248e-001	 4.000138002678045e-001	 2.946419317702125e-002
0	 6.000263254118248e-001	 4.666844975500011e-001	 1.606752233046008e-002
0	 6.000263254118247e-001	 5.333553781553800e-001	-8.426607666567804e-003
0	 6.000263254118247e-001	 6.000263254118247e-001	-4.345086551458301e-002
0	 6.000263254118247e-001	 6.666972226472175e-001	-8.843805341820327e-002
0	 6.666972226472175e-001	 0.000000000000000e+000	-1.380956801299018e-001
0	 6.666972226472178e-001	 6.666714722864757e-002	-7.870053063564365e-002
0	 6.666972226472178e-001	 1.333351778131789e-001	-3.227362469012522e-002
0	 6.666972226472178e-001	 2.000039750814772e-001	 1.823134536491496e-003
0	 6.666972226472178e-001	 2.666734223614256e-001	 2.422773183160808e-002
0	 6.666972226472177e-001	 3.333434029809069e-001	 3.557803995432563e-002
0	 6.666972226472179e-001	 4.000138002678045e-001	 3.651181964663996e-002
0	 6.666972226472175e-001	 4.666844975500010e-001	 2.766671964169523e-002
0	 6.666972226472177e-001	 5.333553781553801e-001	 9.680276669097605e-003
0	 6.666972226472178e-001	 6.000263254118248e-001	-1.681008454271136e-002
0	 6.666972226472177e-001	 6.666972226472177e-001	-5.116705126702191e-002
0	 0.000000000000000e+000	 6.666972226472175e-001	 3.379431704656856e-001
0	 0.000000000000000e+000	 7.333579753122049e-001	 4.012616339037590e-001
0	 0.000000000000000e+000	 8.000185779984417e-001	 3.043239263628820e-001
0	 0.000000000000000e+000	 8.666790473703454e-001	 8.964356182450063e-002
0	 0.000000000000000e+000	 9.333394000923322e-001	-2.002656845987669e-001
0	 0.000000000000000e+000	 9.999996528288191e-001	-5.228897766586576e-001
0	 0.000000000000000e+000	 1.066659822244222e+000	-8.357144169677642e-001
0	 0.000000000000000e+000	 1.133319925002959e+000	-1.096225046997025e+000
0	 0.000000000000000e+000	 1.199979977769445e+000	-1.261906847074179e+000
0	 0.000000000000000e+000	 1.266639997208098e+000	-1.290244736383218e+000
0	 0.000000000000000e+000	 1.333299999983334e+000	-1.138723372964796e+000
0	 6.666714722864757e-002	 6.666972226472178e-001	 2.880840631849701e-001
0	 6.666714722864757e-002	 7.333579753122048e-001	 3.411361112883545e-001
0	 6.666714722864754e-002	 8.000185779984415e-001	 2.462276743589846e-001
0	 6.666714722864754e-002	 8.666790473703453e-001	 4.061015198808166e-002
0	 6.666714722864754e-002	 9.333394000923321e-001	-2.384648119821415e-001
0	 6.666714722864757e-002	 9.999996528288190e-001	-5.537453294543208e-001
0	 6.666714722864756e-002	 1.066659822244222e+000	-8.679792680726938e-001
0	 6.666714722864756e-002	 1.133319925002959e+000	-1.143914251220773e+000
0	 6.666714722864757e-002	 1.199979977769445e+000	-1.344297658019930e+000
0	 6.666714722864756e-002	 1.266639997208098e+000	-1.431876623328902e+000
0	 6.666714722864757e-002	 1.333299999983334e+000	-1.369398037744209e+000
0	 1.333351778131790e-001	 6.666972226472178e-001	 2.261615783612306e-001
0	 1.333351778131790e-001	 7.333579753122046e-001	 2.656353163713867e-001
0	 1.333351778131790e-001	 8.000185779984417e-001	 1.781660342617150e-001
0	 1.333351778131790e-001	 8.666790473703454e-001	-3.952261234669344e-003
0	 1.333351778131789e-001	 9.333394000923321e-001	-2.484253496697062e-001
0	 1.333351778131789e-001	 9.999996528288191e-001	-5.229587968767712e-001
0	 1.333351778131789e-001	 1.066659822244222e+000	-7.952579549678536e-001
0	 1.333351778131790e-001	 1.133319925002959e+000	-1.033027962331547e+000
0	 1.333351778131790e-001	 1.199979977769445e+000	-1.203973743631819e+000
0	 1.333351778131789e-001	 1.266639997208097e+000	-1.275800009807614e+000
0	 1.333351778131789e-001	 1.333299999983334e+000	-1.216211258073227e+000
0	 2.000039750814773e-001	 6.666972226472178e-001	 1.576117683967529e-001
0	 2.000039750814772e-001	 7.333579753122048e-001	 1.820024977913365e-001
0	 2.000039750814773e-001	 8.000185779984419e-001	 1.073588405778942e-001
0	 2.000039750814772e-001	 8.666790473703453e-001	-3.867791682642726e-002
0	 2.000039750814772e-001	 9.333394000923322e-001	-2.284663157356894e-001
0	 2.000039750814773e-001	 9.999996528288189e-001	-4.343647251922655e-001
0	 2.000039750814772e-001	 1.066659822244222e+000	-6.287313419645791e-001
0	 2.000039750814772e-001	 1.133319925002958e+000	-7.839241905455051e-001
0	 2.000039750814772e-001	 1.199979977769445e+000	-8.723011231513961e-001
0	 2.000039750814772e-001	 1.266639997208098e+000	-8.662198197217756e-001
0	 2.000039750814772e-001	 1.333299999983334e+000	-7.380377879196560e-001
0	 2.666734223614255e-001	 6.666972226472174e-001	 8.787071689851257e-002
0	 2.666734223614256e-001	 7.333579753122047e-001	 9.748092900201298e-002
0	 2.666734223614255e-001	 8.000185779984416e-001	 4.102594222109803e-002
0	 2.666734223614256e-001	 8.666790473703452e-001	-5.820105059055042e-002
0	 2.666734223614257e-001	 9.333394000923323e-001	-1.769067339209645e-001
0	 2.666734223614255e-001	 9.999996528288188e-001	-2.917976695978422e-001
0	 2.666734223614256e-001	 1.066659822244222e+000	-3.795802967869532e-001
0	 2.666734223614256e-001	 1.133319925002959e+000	-4.169609319910125e-001
0	 2.666734223614256e-001	 1.199979977769445e+000	-3.806457690490143e-001
0	 2.666734223614255e-001	 1.266639997208098e+000	-2.473408791360101e-001
0	 2.666734223614254e-001	 1.333299999983334e+000	 6.247789236642075e-003
0	 3.333434029809069e-001	 6.666972226472177e-001	 2.237453867452233e-002
0	 3.333434029809069e-001	 7.333579753122046e-001	 1.931390827045341e-002
0	 3.333434029809069e-001	 8.000185779984415e-001	-1.361279748843621e-002
0	 3.333434029809068e-001	 8.666790473703451e-001	-5.715589514948495e-002
0	 3.333434029809070e-001	 9.333394000923321e-001	-9.206563363084325e-002
0	 3.333434029809069e-001	 9.999996528288191e-001	-9.909219422035638e-002
0	 3.333434029809068e-001	 1.066659822244222e+000	-5.898569057470473e-002
0	 3.333434029809069e-001	 1.133319925002959e+000	 4.750383128121474e-002
0	 3.333434029809069e-001	 1.199979977769445e+000	 2.396263929546303e-001
0	 3.333434029809068e-001	 1.266639997208097e+000	 5.366320836850124e-001
0	 3.333434029809069e-001	 1.333299999983334e+000	 9.577710603439098e-001
0	 4.000138002678044e-001	 6.666972226472177e-001	-3.344062026900317e-002
0	 4.000138002678044e-001	 7.333579753122048e-001	-4.525524132452570e-002
0	 4.000138002678044e-001	 8.000185779984415e-001	-4.933750082352674e-002
0	 4.000138002678044e-001	 8.666790473703453e-001	-3.017667994308518e-002
0	 4.000138002678043e-001	 9.333394000923319e-001	 2.773795006697636e-002
0	 4.000138002678044e-001	 9.999996528288191e-001	 1.399171278842403e-001
0	 4.000138002678044e-001	 1.066659822244222e+000	 3.218716021138033e-001
0	 4.000138002678044e-001	 1.133319925002958e+000	 5.891121312883532e-001
0	 4.000138002678044e-001	 1.199979977769445e+000	 9.571494838682010e-001
0	 4.000138002678043e-001	 1.266639997208098e+000	 1.441494438241279e+000
0	 4.000138002678044e-001	 1.333299999983334e+000	 2.057657782723119e+000
0	 4.666844975500012e-001	 6.666972226472175e-001	-7.413858272966253e-002
0	 4.666844975500011e-001	 7.333579753122047e-001	-8.898317189312539e-002
0	 4.666844975500012e-001	 8.000185779984417e-001	-5.892827564938497e-002
0	 4.666844975500010e-001	 8.666790473703451e-001	 2.810236877315073e-002
0	 4.666844975500011e-001	 9.333394000923321e-001	 1.841849764443215e-001
0	 4.666844975500012e-001	 9.999996528288191e-001	 4.213957147314069e-001
0	 4.666844975500012e-001	 1.066659822244222e+000	 7.518107032985009e-001
0	 4.666844975500012e-001	 1.133319925002959e+000	 1.187506014106057e+000
0	 4.666844975500012e-001	 1.199979977769445e+000	 1.740557671410622e+000
0	 4.666844975500011e-001	 1.266639997208098e+000	 2.423041651764741e+000
0	 4.666844975500012e-001	 1.333299999983334e+000	 3.247033884017056e+000
0	 5.333553781553801e-001	 6.666972226472177e-001	-9.428314031006400e-002
0	 5.333553781553801e-001	 7.333579753122047e-001	-1.046265107347110e-001
0	 5.333553781553803e-001	 8.000185779984418e-001	-3.516521542257541e-002
0	 5.333553781553803e-001	 8.666790473703456e-001	 1.230470279299263e-001
0	 5.333553781553803e-001	 9.333394000923324e-001	 3.789563991142979e-001
0	 5.333553781553803e-001	 9.999996528288188e-001	 7.415089754082623e-001
0	 5.333553781553801e-001	 1.066659822244222e+000	 1.219650731574443e+000
0	 5.333553781553804e-001	 1.133319925002959e+000	 1.822327539859434e+000
0	 5.333553781553803e-001	 1.199979977769445e+000	 2.558485169993246e+000
0	 5.333553781553803e-001	 1.266639997208098e+000	 3.437069289189147e+000
0	 5.333553781553803e-001	 1.333299999983334e+000	 4.467025462143893e+000
0	 6.000263254118247e-001	 6.666972226472175e-001	-8.843805341820327e-002
0	 6.000263254118247e-001	 7.333579753122048e-001	-8.494186033730712e-002
0	 6.000263254118247e-001	 8.000185779984417e-001	 2.917160081040210e-002
0	 6.000263254118247e-001	 8.666790473703451e-001	 2.600230776460777e-001
0	 6.000263254118247e-001	 9.333394000923321e-001	 6.137331660329051e-001
0	 6.000263254118246e-001	 9.999996528288189e-001	 1.096422310073615e+000
0	 6.000263254118248e-001	 1.066659822244222e+000	 1.714210802108563e+000
0	 6.000263254118249e-001	 1.133319925002959e+000	 2.473218782714387e+000
0	 6.000263254118246e-001	 1.199979977769445e+000	 3.379566240703219e+000
0	 6.000263254118248e-001	 1.266639997208098e+000	 4.439373013122482e+000
0	 6.000263254118247e-001	 1.333299999983334e+000	 5.658758785255254e+000
0	 6.666972226472177e-001	 6.666972226472177e-001	-5.116705126702191e-002
0	 6.666972226472175e-001	 7.333579753122045e-001	-2.268579837644026e-002
0	 6.666972226472177e-001	 8.000185779984415e-001	 1.413021084149095e-001
0	 6.666972226472177e-001	 8.666790473703451e-001	 4.443963012305874e-001
0	 6.666972226472177e-001	 9.333394000923322e-001	 8.901962195004927e-001
0	 6.666972226472177e-001	 9.999996528288189e-001	 1.482301109957751e+000
0	 6.666972226472174e-001	 1.066659822244222e+000	 2.224310026636318e+000
0	 6.666972226472178e-001	 1.133319925002959e+000	 3.119821830869316e+000
0	 6.666972226472177e-001	 1.199979977769445e+000	 4.172435191288081e+000
0	 6.666972226472175e-001	 1.266639997208098e+000	 5.385748583821933e+000
0	 6.666972226472175e-001	 1.333299999983334e+000	 6.763360291698692e+000
0	 0.000000000000000e+000	 1.333299999983334e+000	-1.138723372964796e+000
0	 0.000000000000000e+000	 1.399969999982150e+000	-7.348493817277555e-001
0	 0.000000000000000e+000	 1.466639999981866e+000	-5.954794276753819e-002
0	 0.000000000000000e+000	 1.533309999982383e+000	 8.496836907316920e-001
0	 0.000000000000000e+000	 1.599979999983599e+000	 1.955348265585006e+000
0	 0.000000000000000e+000	 1.666649999985416e+000	 3.219948528606658e+000
0	 0.000000000000000e+000	 1.733319999987733e+000	 4.605987226610139e+000
0	 0.000000000000000e+000	 1.799989999990450e+000	 6.075967106408116e+000
0	 0.000000000000000e+000	 1.866659999993466e+000	 7.592390914812516e+000
0	 0.000000000000000e+000	 1.933329999996683e+000	 9.117761398634416e+000
0	 0.000000000000000e+000	 2.000000000000000e+000	 1.061458130468417e+001
0	 6.666714722864757e-002	 1.333299999983334e+000	-1.369398037744209e+000
0	 6.666714722864754e-002	 1.399969999982149e+000	-1.015136543264028e+000
0	 6.666714722864754e-002	 1.466639999981867e+000	-2.750797415001666e-001
0	 6.666714722864756e-002	 1.533309999982382e+000	 8.165236937805405e-001
0	 6.666714722864754e-002	 1.599979999983599e+000	 2.225425088811892e+000
0	 6.666714722864756e-002	 1.666649999985416e+000	 3.917375769828294e+000
0	 6.666714722864756e-002	 1.733319999987733e+000	 5.858127063064781e+000
0	 6.666714722864756e-002	 1.799989999990450e+000	 8.013430294757056e+000
0	 6.666714722864756e-002	 1.866659999993467e+000	 1.034903679114136e+001
0	 6.666714722864756e-002	 1.933329999996682e+000	 1.283069787845469e+001
0	 6.666714722864756e-002	 2.000000000000000e+000	 1.542416488293455e+001
0	 1.333351778131789e-001	 1.333299999983334e+000	-1.216211258073227e+000
0	 1.333351778131790e-001	 1.399969999982150e+000	-8.421751939521891e-001
0	 1.333351778131789e-001	 1.466639999981867e+000	-1.295596630942225e-002
0	 1.333351778131790e-001	 1.533309999982383e+000	 1.240358656712943e+000
0	 1.333351778131789e-001	 1.599979999983599e+000	 2.886680906974421e+000
0	 1.333351778131790e-001	 1.666649999985416e+000	 4.894923016336115e+000
0	 1.333351778131789e-001	 1.733319999987733e+000	 7.233997216660738e+000
0	 1.333351778131789e-001	 1.799989999990450e+000	 9.872815739812689e+000
0	 1.333351778131789e-001	 1.866659999993466e+000	 1.278029081765788e+001
0	 1.333351778131789e-001	 1.933329999996683e+000	 1.592533468206396e+001
0	 1.333351778131789e-001	 2.000000000000000e+000	 1.927685956490013e+001
0	 2.000039750814772e-001	 1.333299999983334e+000	-7.380377879196566e-001
0	 2.000039750814773e-001	 1.399969999982150e+000	-2.874300506466060e-001
0	 2.000039750814773e-001	 1.466639999981867e+000	 6.487640705901657e-001
0	 2.000039750814773e-001	 1.533309999982383e+000	 2.042530059330144e+000
0	 2.000039750814772e-001	 1.599979999983599e+000	 3.865853399115077e+000
0	 2.000039750814773e-001	 1.666649999985417e+000	 6.090719573488928e+000
0	 2.000039750814772e-001	 1.733319999987733e+000	 8.689114065997895e+000
0	 2.000039750814772e-001	 1.799989999990449e+000	 1.163302236019043e+001
0	 2.000039750814772e-001	 1.866659999993466e+000	 1.489442993961721e+001
0	 2.000039750814773e-001	 1.933329999996683e+000	 1.844532228783120e+001
0	 2.000039750814773e-001	 2.000000000000000e+000	 2.225768488838758e+001
0	 2.666734223614254e-001	 1.333299999983334e+000	 6.247789236641491e-003
0	 2.666734223614255e-001	 1.399969999982150e+000	 5.776344370498008e-001
0	 2.666734223614255e-001	 1.466639999981867e+000	 1.632021444869089e+000
0	 2.666734223614256e-001	 1.533309999982383e+000	 3.144379912900717e+000
0	 2.666734223614256e-001	 1.599979999983599e+000	 5.089680941353474e+000
0	 2.666734223614256e-001	 1.666649999985416e+000	 7.442895630438678e+000
0	 2.666734223614254e-001	 1.733319999987733e+000	 1.017899508037017e+001
0	 2.666734223614255e-001	 1.799989999990449e+000	 1.327295039136434e+001
0	 2.666734223614256e-001	 1.866659999993467e+000	 1.669973266364014e+001
0	 2.666734223614256e-001	 1.933329999996683e+000	 2.043431299741906e+001
0	 2.666734223614255e-001	 2.000000000000000e+000	 2.445166249292515e+001
0	 3.333434029809069e-001	 1.333299999983334e+000	 9.577710603439100e-001
0	 3.333434029809069e-001	 1.399969999982150e+000	 1.681554086697453e+000
0	 3.333434029809069e-001	 1.466639999981866e+000	 2.858757619960366e+000
0	 3.333434029809068e-001	 1.533309999982383e+000	 4.467250759998051e+000
0	 3.333434029809069e-001	 1.599979999983599e+000	 6.484902606678520e+000
0	 3.333434029809069e-001	 1.666649999985416e+000	 8.889582259872311e+000
0	 3.333434029809069e-001	 1.733319999987733e+000	 1.165915881945262e+001
0	 3.333434029809069e-001	 1.799989999990450e+000	 1.477150138529515e+001
0	 3.333434029809069e-001	 1.866659999993467e+000	 1.820447905727823e+001
0	 3.333434029809068e-001	 1.933329999996683e+000	 2.193596093528279e+001
0	 3.333434029809069e-001	 2.000000000000000e+000	 2.594381611919231e+001
0	 4.000138002678044e-001	 1.333299999983334e+000	 2.057657782723119e+000
0	 4.000138002678045e-001	 1.399969999982150e+000	 2.952864982938995e+000
0	 4.000138002678044e-001	 1.466639999981866e+000	 4.250914446947283e+000
0	 4.000138002678043e-001	 1.533309999982383e+000	 5.932485674351792e+000
0	 4.000138002678044e-001	 1.599979999983599e+000	 7.978258164758760e+000
0	 4.000138002678043e-001	 1.666649999985415e+000	 1.036891141777680e+001
0	 4.000138002678042e-001	 1.733319999987733e+000	 1.308512493301699e+001
0	 4.000138002678044e-001	 1.799989999990450e+000	 1.610757821009277e+001
0	 4.000138002678043e-001	 1.866659999993466e+000	 1.941695074862002e+001
0	 4.000138002678044e-001	 1.933329999996683e+000	 2.299392204821703e+001
0	 4.000138002678044e-001	 2.000000000000000e+000	 2.681917160850453e+001
0	 4.666844975500012e-001	 1.333299999983334e+000	 3.247033884017056e+000
0	 4.666844975500012e-001	 1.399969999982150e+000	 4.320103477425199e+000
0	 4.666844975500011e-001	 1.466639999981866e+000	 5.730434164461261e+000
0	 4.666844975500012e-001	 1.533309999982383e+000	 7.461428260713236e+000
0	 4.666844975500011e-001	 1.599979999983599e+000	 9.496488081771224e+000
0	 4.666844975500012e-001	 1.666649999985416e+000	 1.181901594322738e+001
0	 4.666844975500011e-001	 1.733319999987733e+000	 1.441241416067600e+001
0	 4.666844975500011e-001	 1.799989999990450e+000	 1.726008504971341e+001
0	 4.666844975500012e-001	 1.866659999993466e+000	 2.034543092593804e+001
0	 4.666844975500010e-001	 1.933329999996683e+000	 2.365185410495046e+001
0	 4.666844975500011e-001	 2.000000000000000e+000	 2.716275690235328e+001
0	 5.333553781553803e-001	 1.333299999983334e+000	 4.467025462143893e+000
0	 5.333553781553803e-001	 1.399969999982150e+000	 5.711806188747903e+000
0	 5.333553781553801e-001	 1.466639999981867e+000	 7.219259398589943e+000
0	 5.333553781553803e-001	 1.533309999982383e+000	 8.975422654734665e+000
0	 5.333553781553803e-001	 1.599979999983599e+000	 1.096633352024837e+001
0	 5.333553781553801e-001	 1.666649999985417e+000	 1.317802955819902e+001
0	 5.333553781553803e-001	 1.733319999987733e+000	 1.559654833165622e+001
0	 5.333553781553803e-001	 1.799989999990450e+000	 1.820792740369125e+001
0	 5.333553781553803e-001	 1.866659999993466e+000	 2.099820433737710e+001
0	 5.333553781553800e-001	 1.933329999996683e+000	 2.395341669578830e+001
0	 5.333553781553803e-001	 2.000000000000000e+000	 2.705960204200122e+001
0	 6.000263254118247e-001	 1.333299999983334e+000	 5.658758785255254e+000
0	 6.000263254118247e-001	 1.399969999982150e+000	 7.056510002379907e+000
0	 6.000263254118249e-001	 1.466639999981866e+000	 8.639333162795451e+000
0	 6.000263254118246e-001	 1.533309999982383e+000	 1.039581352286263e+001
0	 6.000263254118247e-001	 1.599979999983600e+000	 1.231453633894341e+001
0	 6.000263254118249e-001	 1.666649999985417e+000	 1.438408686740092e+001
0	 6.000263254118248e-001	 1.733319999987733e+000	 1.659305036459951e+001
0	 6.000263254118246e-001	 1.799989999990450e+000	 1.893001208690463e+001
0	 6.000263254118247e-001	 1.866659999993466e+000	 2.138355729068303e+001
0	 6.000263254118247e-001	 1.933329999996683e+000	 2.394227123230261e+001
0	 6.000263254118247e-001	 2.000000000000000e+000	 2.659473916813240e+001
0	 6.666972226472175e-001	 1.333299999983334e+000	 6.763360291698692e+000
0	 6.666972226472177e-001	 1.399969999982150e+000	 8.282752070621976e+000
0	 6.666972226472177e-001	 1.466639999981867e+000	 9.912598857842783e+000
0	 6.666972226472178e-001	 1.533309999982383e+000	 1.164394606224516e+001
0	 6.666972226472177e-001	 1.599979999983600e+000	 1.346783909271390e+001
0	 6.666972226472177e-001	 1.666649999985416e+000	 1.537532335813448e+001
0	 6.666972226472177e-001	 1.733319999987733e+000	 1.735744426739313e+001
0	 6.666972226472177e-001	 1.799989999990450e+000	 1.940524722937677e+001
0	 6.666972226472178e-001	 1.866659999993466e+000	 2.150977765297304e+001
0	 6.666972226472175e-001	 1.933329999996683e+000	 2.366208094707033e+001
0	 6.666972226472177e-001	 2.000000000000000e+000	 2.585320252055774e+001
0	 0.000000000000000e+000	 2.000000000000000e+000	 1.061458130468417e+001
0	 0.000000000000000e+000	 2.066670000003316e+000	 1.310380673409855e+001
0	 0.000000000000000e+000	 2.133340000006534e+000	 1.758607000759136e+001
0	 0.000000000000000e+000	 2.200010000009550e+000	 2.399338820135184e+001
0	 0.000000000000000e+000	 2.266680000012268e+000	 3.225777839158751e+001
0	 0.000000000000000e+000	 2.333350000014584e+000	 4.231125765452428e+001
0	 0.000000000000000e+000	 2.400020000016401e+000	 5.408584306640638e+001
0	 0.000000000000000e+000	 2.466690000017617e+000	 6.751355170349642e+001
0	 0.000000000000000e+000	 2.533360000018134e+000	 8.252640064207529e+001
0	 0.000000000000000e+000	 2.600030000017850e+000	 9.905640695844251e+001
0	 0.000000000000000e+000	 2.666700000016666e+000	 1.170355877289154e+002
0	 6.666714722864756e-002	 2.000000000000000e+000	 1.542416488293455e+001
0	 6.666714722864756e-002	 2.066670000003317e+000	 1.879009173747297e+001
0	 6.666714722864754e-002	 2.133340000006534e+000	 2.357291628384098e+001
0	 6.666714722864757e-002	 2.200010000009551e+000	 2.971406571160530e+001
0	 6.666714722864756e-002	 2.266680000012268e+000	 3.715496721034577e+001
0	 6.666714722864756e-002	 2.333350000014584e+000	 4.583704796965545e+001
0	 6.666714722864756e-002	 2.400020000016402e+000	 5.570173517914068e+001
0	 6.666714722864757e-002	 2.466690000017617e+000	 6.669045602842088e+001
0	 6.666714722864754e-002	 2.533360000018134e+000	 7.874463770712876e+001
0	 6.666714722864757e-002	 2.600030000017850e+000	 9.180570740491027e+001
0	 6.666714722864756e-002	 2.666700000016667e+000	 1.058150923114245e+002
0	 1.333351778131789e-001	 2.000000000000000e+000	 1.927685956490013e+001
0	 1.333351778131789e-001	 2.066670000003317e+000	 2.321062701348108e+001
0	 1.333351778131789e-001	 2.133340000006535e+000	 2.808999007901569e+001
0	 1.333351778131789e-001	 2.200010000009550e+000	 3.386524824922223e+001
0	 1.333351778131790e-001	 2.266680000012268e+000	 4.048670101182811e+001
0	 1.333351778131790e-001	 2.333350000014585e+000	 4.790464785456970e+001
0	 1.333351778131790e-001	 2.400020000016402e+000	 5.606938826519225e+001
0	 1.333351778131789e-001	 2.466690000017618e+000	 6.493122173145017e+001
0	 1.333351778131790e-001	 2.533360000018134e+000	 7.444044774110672e+001
0	 1.333351778131790e-001	 2.600030000017851e+000	 8.454736578193443e+001
0	 1.333351778131789e-001	 2.666700000016666e+000	 9.520227534171438e+001
0	 2.000039750814773e-001	 2.000000000000000e+000	 2.225768488838758e+001
0	 2.000039750814773e-001	 2.066670000003318e+000	 2.648955605706697e+001
0	 2.000039750814773e-001	 2.133340000006534e+000	 3.129007314540304e+001
0	 2.000039750814773e-001	 2.200010000009550e+000	 3.661787019058622e+001
0	 2.000039750814773e-001	 2.266680000012268e+000	 4.243158122981263e+001
0	 2.000039750814773e-001	 2.333350000014585e+000	 4.868984030028395e+001
0	 2.000039750814772e-001	 2.400020000016401e+000	 5.535128143920757e+001
0	 2.000039750814773e-001	 2.466690000017618e+000	 6.237453868379645e+001
0	 2.000039750814772e-001	 2.533360000018133e+000	 6.971824607126914e+001
0	 2.000039750814772e-001	 2.600030000017851e+000	 7.734103763885001e+001
0	 2.000039750814772e-001	 2.666700000016666e+000	 8.520154742376879e+001
0	 2.666734223614255e-001	 2.000000000000000e+000	 2.445166249292515e+001
0	 2.666734223614255e-001	 2.066670000003317e+000	 2.875102475811462e+001
0	 2.666734223614256e-001	 2.133340000006534e+000	 3.332594993337813e+001
0	 2.666734223614256e-001	 2.200010000009550e+000	 3.814286891759541e+001
0	 2.666734223614256e-001	 2.266680000012267e+000	 4.316821260964929e+001
0	 2.666734223614256e-001	 2.333350000014583e+000	 4.836841190842551e+001
0	 2.666734223614256e-001	 2.400020000016402e+000	 5.370989771281287e+001
0	 2.666734223614255e-001	 2.466690000017618e+000	 5.915910092170316e+001
0	 2.666734223614255e-001	 2.533360000018133e+000	 6.468245243399119e+001
0	 2.666734223614255e-001	 2.600030000017850e+000	 7.024638314857477e+001
0	 2.666734223614256e-001	 2.666700000016667e+000	 7.581732396435469e+001
0	 3.333434029809069e-001	 2.000000000000000e+000	 2.594381611919231e+001
0	 3.333434029809069e-001	 2.066670000003317e+000	 3.011918140080580e+001
0	 3.333434029809069e-001	 2.133340000006534e+000	 3.435040759068812e+001
0	 3.333434029809069e-001	 2.200010000009550e+000	 3.861118481687427e+001
0	 3.333434029809069e-001	 2.266680000012267e+000	 4.287520320740032e+001
0	 3.333434029809069e-001	 2.333350000014584e+000	 4.711615289030323e+001
0	 3.333434029809068e-001	 2.400020000016401e+000	 5.130772399362117e+001
0	 3.333434029809068e-001	 2.466690000017617e+000	 5.542360664539318e+001
0	 3.333434029809069e-001	 2.533360000018134e+000	 5.943749097365949e+001
0	 3.333434029809070e-001	 2.600030000017851e+000	 6.332306710646127e+001
0	 3.333434029809069e-001	 2.666700000016666e+000	 6.705402517184074e+001
0	 4.000138002678044e-001	 2.000000000000000e+000	 2.681917160850453e+001
0	 4.000138002678045e-001	 2.066670000003317e+000	 3.071817666304084e+001
0	 4.000138002678044e-001	 2.133340000006534e+000	 3.451623596180819e+001
0	 4.000138002678044e-001	 2.200010000009551e+000	 3.819376127906449e+001
0	 4.000138002678043e-001	 2.266680000012267e+000	 4.173116438906742e+001
0	 4.000138002678044e-001	 2.333350000014584e+000	 4.510885706607419e+001
0	 4.000138002678044e-001	 2.400020000016401e+000	 4.830725108434158e+001
0	 4.000138002678044e-001	 2.466690000017617e+000	 5.130675821812607e+001
0	 4.000138002678044e-001	 2.533360000018134e+000	 5.408779024168376e+001
0	 4.000138002678045e-001	 2.600030000017851e+000	 5.663075892927039e+001
0	 4.000138002678044e-001	 2.666700000016665e+000	 5.891607605514118e+001
0	 4.666844975500011e-001	 2.000000000000000e+000	 2.716275690235328e+001
0	 4.666844975500009e-001	 2.066670000003316e+000	 3.067216361592229e+001
0	 4.666844975500012e-001	 2.133340000006534e+000	 3.397622758736776e+001
0	 4.666844975500011e-001	 2.200010000009550e+000	 3.706154469819454e+001
0	 4.666844975500011e-001	 2.266680000012267e+000	 3.991471082990613e+001
0	 4.666844975500012e-001	 2.333350000014585e+000	 4.252232186400472e+001
0	 4.666844975500011e-001	 2.400020000016400e+000	 4.487097368199118e+001
0	 4.666844975500012e-001	 2.466690000017617e+000	 4.694726216536498e+001
0	 4.666844975500011e-001	 2.533360000018134e+000	 4.873778319562435e+001
0	 4.666844975500012e-001	 2.600030000017851e+000	 5.022913265426613e+001
0	 4.666844975500012e-001	 2.666700000016666e+000	 5.140790642278586e+001
0	 5.333553781553803e-001	 2.000000000000000e+000	 2.705960204200122e+001
0	 5.333553781553804e-001	 2.066670000003317e+000	 3.010529772330134e+001
0	 5.333553781553803e-001	 2.133340000006534e+000	 3.288317770364807e+001
0	 5.333553781553804e-001	 2.200010000009550e+000	 3.538548447112822e+001
0	 5.333553781553801e-001	 2.266680000012267e+000	 3.760446051382670e+001
0	 5.333553781553804e-001	 2.333350000014584e+000	 3.953234831982652e+001
0	 5.333553781553804e-001	 2.400020000016401e+000	 4.116139037720876e+001
0	 5.333553781553801e-001	 2.466690000017616e+000	 4.248382917405257e+001
0	 5.333553781553803e-001	 2.533360000018133e+000	 4.349190719843522e+001
0	 5.333553781553803e-001	 2.600030000017851e+000	 4.417786693843206e+001
0	 5.333553781553803e-001	 2.666700000016666e+000	 4.453395088211652e+001
0	 6.000263254118247e-001	 2.000000000000000e+000	 2.659473916813240e+001
0	 6.000263254118248e-001	 2.066670000003317e+000	 2.914173684138712e+001
0	 6.000263254118247e-001	 2.133340000006534e+000	 3.138988424215003e+001
0	 6.000263254118247e-001	 2.200010000009550e+000	 3.333653299709211e+001
0	 6.000263254118247e-001	 2.266680000012267e+000	 3.497903473288228e+001
0	 6.000263254118246e-001	 2.333350000014584e+000	 3.631474107618715e+001
0	 6.000263254118247e-001	 2.400020000016400e+000	 3.734100365367114e+001
0	 6.000263254118248e-001	 2.466690000017617e+000	 3.805517409199647e+001
0	 6.000263254118247e-001	 2.533360000018134e+000	 3.845460401782306e+001
0	 6.000263254118247e-001	 2.600030000017850e+000	 3.853664505780871e+001
0	 6.000263254118247e-001	 2.666700000016666e+000	 3.829864883860896e+001
0	 6.666972226472177e-001	 2.000000000000000e+000	 2.585320252055774e+001
0	 6.666972226472177e-001	 2.066670000003317e+000	 2.790564121841889e+001
0	 6.666972226472178e-001	 2.133340000006534e+000	 2.964914782923311e+001
0	 6.666972226472177e-001	 2.200010000009550e+000	 3.108564567728166e+001
0	 6.666972226472177e-001	 2.266680000012268e+000	 3.221705808684355e+001
0	 6.666972226472175e-001	 2.333350000014584e+000	 3.304530838219539e+001
0	 6.666972226472175e-001	 2.400020000016400e+000	 3.357231988761142e+001
0	 6.666972226472178e-001	 2.466690000017616e+000	 3.380001592736359e+001
0	 6.666972226472178e-001	 2.533360000018134e+000	 3.373031982572148e+001
0	 6.666972226472177e-001	 2.600030000017850e+000	 3.336515490695231e+001
0	 6.666972226472177e-001	 2.666700000016667e+000	 3.270644449532097e+001
0	 0.000000000000000e+000	 2.666700000016666e+000	 1.170355877289154e+002
0	 0.000000000000000e+000	 2.733360000014533e+000	 1.337909558514167e+002
0	 0.000000000000000e+000	 2.800020000011600e+000	 1.467270327747451e+002
0	 0.000000000000000e+000	 2.866680000008067e+000	 1.558836923237338e+002
0	 0.000000000000000e+000	 2.933340000004133e+000	 1.613008083232737e+002
0	 0.000000000000000e+000	 3.000000000000000e+000	 1.630182545983132e+002
0	 0.000000000000000e+000	 3.066659999995867e+000	 1.610759049738582e+002
0	 0.000000000000000e+000	 3.133319999991933e+000	 1.555136332749725e+002
0	 0.000000000000000e+000	 3.199979999988401e+000	 1.463713133267773e+002
0	 0.000000000000000e+000	 3.266639999985467e+000	 1.336888189544516e+002
0	 0.000000000000000e+000	 3.333299999983334e+000	 1.175060239832318e+002
0	 6.666714722864756e-002	 2.666700000016667e+000	 1.058150923114245e+002
0	 6.666714722864754e-002	 2.733360000014533e+000	 1.187386247221840e+002
0	 6.666714722864756e-002	 2.800020000011599e+000	 1.286100057327318e+002
0	 6.666714722864754e-002	 2.866680000008067e+000	 1.354659572500320e+002
0	 6.666714722864758e-002	 2.933340000004133e+000	 1.393432011810939e+002
0	 6.666714722864757e-002	 3.000000000000000e+000	 1.402784594329722e+002
0	 6.666714722864757e-002	 3.066659999995867e+000	 1.383084539127666e+002
0	 6.666714722864756e-002	 3.133319999991933e+000	 1.334699065276221e+002
0	 6.666714722864756e-002	 3.199979999988400e+000	 1.257995391847287e+002
0	 6.666714722864756e-002	 3.266639999985467e+000	 1.153340737913220e+002
0	 6.666714722864756e-002	 3.333299999983333e+000	 1.021102322546824e+002
0	 1.333351778131789e-001	 2.666700000016666e+000	 9.520227534171437e+001
0	 1.333351778131790e-001	 2.733360000014533e+000	 1.049022257401079e+002
0	 1.333351778131789e-001	 2.800020000011600e+000	 1.122030064793829e+002
0	 1.333351778131789e-001	 2.866680000008067e+000	 1.171381170144624e+002
0	 1.333351778131789e-001	 2.933340000004134e+000	 1.197410568003047e+002
0	 1.333351778131789e-001	 3.000000000000000e+000	 1.200453252919020e+002
0	 1.333351778131789e-001	 3.066659999995868e+000	 1.180844219442820e+002
0	 1.333351778131790e-001	 3.133319999991934e+000	 1.138918462125067e+002
0	 1.333351778131790e-001	 3.199979999988401e+000	 1.075010975516731e+002
0	 1.333351778131789e-001	 3.266639999985468e+000	 9.894567541691299e+001
0	 1.333351778131789e-001	 3.333299999983334e+000	 8.825907926339266e+001
0	 2.000039750814772e-001	 2.666700000016666e+000	 8.520154742376879e+001
0	 2.000039750814772e-001	 2.733360000014533e+000	 9.223082867446814e+001
0	 2.000039750814773e-001	 2.800020000011600e+000	 9.741003913875652e+001
0	 2.000039750814773e-001	 2.866680000008066e+000	 1.007693852710452e+002
0	 2.000039750814773e-001	 2.933340000004133e+000	 1.023390735257716e+002
0	 2.000039750814773e-001	 3.000000000000000e+000	 1.021493103573992e+002
0	 2.000039750814772e-001	 3.066659999995867e+000	 1.002303022204177e+002
0	 2.000039750814772e-001	 3.133319999991933e+000	 9.661225556934289e+001
0	 2.000039750814772e-001	 3.199979999988401e+000	 9.132537685871668e+001
0	 2.000039750814772e-001	 3.266639999985467e+000	 8.439987254310695e+001
0	 2.000039750814772e-001	 3.333299999983334e+000	 7.586594907710804e+001
0	 2.666734223614256e-001	 2.666700000016667e+000	 7.581732396435469e+001
0	 2.666734223614256e-001	 2.733360000014533e+000	 8.067350823641395e+001
0	 2.666734223614255e-001	 2.800020000011599e+000	 8.413511287422227e+001
0	 2.666734223614255e-001	 2.866680000008067e+000	 8.622898076816948e+001
0	 2.666734223614256e-001	 2.933340000004134e+000	 8.698195480866444e+001
0	 2.666734223614255e-001	 2.999999999999999e+000	 8.642087788613512e+001
0	 2.666734223614254e-001	 3.066659999995866e+000	 8.457259289102863e+001
0	 2.666734223614255e-001	 3.133319999991933e+000	 8.146394271381118e+001
0	 2.666734223614256e-001	 3.199979999988401e+000	 7.712177024496793e+001
0	 2.666734223614255e-001	 3.266639999985467e+000	 7.157291837500330e+001
0	 2.666734223614255e-001	 3.333299999983333e+000	 6.484422999444084e+001
0	 3.333434029809069e-001	 2.666700000016666e+000	 6.705402517184075e+001
0	 3.333434029809069e-001	 2.733360000014533e+000	 7.017934407775805e+001
0	 3.333434029809069e-001	 2.800020000011600e+000	 7.228224188724266e+001
0	 3.333434029809069e-001	 2.866680000008067e+000	 7.338612734737404e+001
0	 3.333434029809069e-001	 2.933340000004133e+000	 7.351440920524517e+001
0	 3.333434029809070e-001	 3.000000000000000e+000	 7.269049620796247e+001
0	 3.333434029809069e-001	 3.066659999995867e+000	 7.093779710264583e+001
0	 3.333434029809069e-001	 3.133319999991934e+000	 6.827972063642885e+001
0	 3.333434029809069e-001	 3.199979999988400e+000	 6.473967555645830e+001
0	 3.333434029809069e-001	 3.266639999985467e+000	 6.034107060989470e+001
0	 3.333434029809069e-001	 3.333299999983334e+000	 5.510731454391200e+001
0	 4.000138002678044e-001	 2.666700000016665e+000	 5.891607605514118e+001
0	 4.000138002678044e-001	 2.733360000014533e+000	 6.069742078990117e+001
0	 4.000138002678044e-001	 2.800020000011600e+000	 6.175544541628737e+001
0	 4.000138002678043e-001	 2.866680000008066e+000	 6.211005394226035e+001
0	 4.000138002678044e-001	 2.933340000004134e+000	 6.178115037578976e+001
0	 4.000138002678044e-001	 3.000000000000000e+000	 6.078863872485439e+001
0	 4.000138002678043e-001	 3.066659999995866e+000	 5.915242299744214e+001
0	 4.000138002678044e-001	 3.133319999991934e+000	 5.689240720155018e+001
0	 4.000138002678044e-001	 3.199979999988400e+000	 5.402849534518467e+001
0	 4.000138002678044e-001	 3.266639999985467e+000	 5.058059143636103e+001
0	 4.000138002678044e-001	 3.333299999983334e+000	 4.656859948310377e+001
0	 4.666844975500012e-001	 2.666700000016666e+000	 5.140790642278586e+001
0	 4.666844975500011e-001	 2.733360000014533e+000	 5.217682790288583e+001
0	 4.666844975500012e-001	 2.800020000011600e+000	 5.245874773587969e+001
0	 4.666844975500011e-001	 2.866680000008067e+000	 5.226999457753978e+001
0	 4.666844975500011e-001	 2.933340000004133e+000	 5.162689708364437e+001
0	 4.666844975500010e-001	 3.000000000000000e+000	 5.054578390997744e+001
0	 4.666844975500011e-001	 3.066659999995867e+000	 4.904298371232899e+001
0	 4.666844975500011e-001	 3.133319999991933e+000	 4.713482514649475e+001
0	 4.666844975500012e-001	 3.199979999988400e+000	 4.483763686827640e+001
0	 4.666844975500011e-001	 3.266639999985468e+000	 4.216774753348137e+001
0	 4.666844975500011e-001	 3.333299999983334e+000	 3.914148579792300e+001
0	 5.333553781553803e-001	 2.666700000016666e+000	 4.453395088211652e+001
0	 5.333553781553801e-001	 2.733360000014532e+000	 4.456665988458033e+001
0	 5.333553781553803e-001	 2.800020000011600e+000	 4.429617815577526e+001
0	 5.333553781553803e-001	 2.866680000008067e+000	 4.373518836821464e+001
0	 5.333553781553801e-001	 2.933340000004133e+000	 4.289637319441522e+001
0	 5.333553781553803e-001	 3.000000000000000e+000	 4.179241530689729e+001
0	 5.333553781553803e-001	 3.066659999995867e+000	 4.043599737818437e+001
0	 5.333553781553801e-001	 3.133319999991934e+000	 3.883980208080362e+001
0	 5.333553781553801e-001	 3.199979999988401e+000	 3.701651208728553e+001
0	 5.333553781553801e-001	 3.266639999985467e+000	 3.497881007016402e+001
0	 5.333553781553803e-001	 3.333299999983335e+000	 3.273937870197644e+001
0	 6.000263254118247e-001	 2.666700000016666e+000	 3.829864883860897e+001
0	 6.000263254118247e-001	 2.733360000014532e+000	 3.781601613999169e+001
0	 6.000263254118247e-001	 2.800020000011599e+000	 3.717177102027274e+001
0	 6.000263254118247e-001	 2.866680000008067e+000	 3.637487951889245e+001
0	 6.000263254118248e-001	 2.933340000004133e+000	 3.543430767529284e+001
0	 6.000263254118248e-001	 3.000000000000000e+000	 3.435902152891759e+001
0	 6.000263254118246e-001	 3.066659999995866e+000	 3.315798711921212e+001
0	 6.000263254118249e-001	 3.133319999991934e+000	 3.184017048562357e+001
0	 6.000263254118247e-001	 3.199979999988401e+000	 3.041453766760074e+001
0	 6.000263254118248e-001	 3.266639999985468e+000	 2.889005470459413e+001
0	 6.000263254118246e-001	 3.333299999983333e+000	 2.727568763605598e+001
0	 6.666972226472177e-001	 2.666700000016667e+000	 3.270644449532096e+001
0	 6.666972226472175e-001	 2.733360000014533e+000	 3.187400101070867e+001
0	 6.666972226472178e-001	 2.800020000011599e+000	 3.098956570765698e+001
0	 6.666972226472177e-001	 2.866680000008067e+000	 3.005831732323435e+001
0	 6.666972226472178e-001	 2.933340000004133e+000	 2.908543459450964e+001
0	 6.666972226472175e-001	 3.000000000000000e+000	 2.807609625855223e+001
0	 6.666972226472178e-001	 3.066659999995867e+000	 2.703548105243196e+001
0	 6.666972226472175e-001	 3.133319999991933e+000	 2.596876771321913e+001
0	 6.666972226472178e-001	 3.199979999988400e+000	 2.488113497798455e+001
0	 6.666972226472177e-001	 3.266639999985467e+000	 2.377776158379946e+001
0	 6.666972226472175e-001	 3.333299999983334e+000	 2.266382626773559e+001
0	 0.000000000000000e+000	 3.333299999983334e+000	 1.175060239832318e+002
0	 0.000000000000000e+000	 3.399969999982150e+000	 1.001920345584575e+002
0	 0.000000000000000e+000	 3.466639999981866e+000	 8.414652989399212e+001
0	 0.000000000000000e+000	 3.533309999982383e+000	 6.944717876714844e+001
0	 0.000000000000000e+000	 3.599979999983600e+000	 5.617164995525173e+001
0	 0.000000000000000e+000	 3.666649999985416e+000	 4.439761223564082e+001
0	 0.000000000000000e+000	 3.733319999987733e+000	 3.420273438566722e+001
0	 0.000000000000000e+000	 3.799989999990449e+000	 2.566468518269559e+001
0	 0.000000000000000e+000	 3.866659999993467e+000	 1.886113340410381e+001
0	 0.000000000000000e+000	 3.933329999996684e+000	 1.386974782728258e+001
0	 0.000000000000000e+000	 4.000000000000000e+000	 1.076819722963583e+001
0	 6.666714722864756e-002	 3.333299999983333e+000	 1.021102322546824e+002
0	 6.666714722864756e-002	 3.399969999982149e+000	 8.798097265763035e+001
0	 6.666714722864754e-002	 3.466639999981866e+000	 7.482273795083259e+001
0	 6.666714722864756e-002	 3.533309999982382e+000	 6.270091083169263e+001
0	 6.666714722864754e-002	 3.599979999983600e+000	 5.168087399762336e+001
0	 6.666714722864756e-002	 3.666649999985416e+000	 4.182801014604834e+001
0	 6.666714722864756e-002	 3.733319999987732e+000	 3.320770197440076e+001
0	 6.666714722864754e-002	 3.799989999990449e+000	 2.588533218012389e+001
0	 6.666714722864756e-002	 3.866659999993467e+000	 1.992628346067135e+001
0	 6.666714722864756e-002	 3.933329999996683e+000	 1.539593851350642e+001
0	 6.666714722864757e-002	 4.000000000000001e+000	 1.235968003610272e+001
0	 1.333351778131789e-001	 3.333299999983334e+000	 8.825907926339268e+001
0	 1.333351778131789e-001	 3.399969999982150e+000	 7.686180921373382e+001
0	 1.333351778131789e-001	 3.466639999981866e+000	 6.619161014756574e+001
0	 1.333351778131789e-001	 3.533309999982381e+000	 5.630256466969503e+001
0	 1.333351778131789e-001	 3.599979999983600e+000	 4.724875538493549e+001
0	 1.333351778131790e-001	 3.666649999985417e+000	 3.908426489810879e+001
0	 1.333351778131790e-001	 3.733319999987733e+000	 3.186317581404387e+001
0	 1.333351778131789e-001	 3.799989999990449e+000	 2.563957073757732e+001
0	 1.333351778131789e-001	 3.866659999993466e+000	 2.046753227355349e+001
0	 1.333351778131789e-001	 3.933329999996684e+000	 1.640114302682394e+001
0	 1.333351778131789e-001	 4.000000000000000e+000	 1.349448560224809e+001
0	 2.000039750814772e-001	 3.333299999983334e+000	 7.586594907710804e+001
0	 2.000039750814772e-001	 3.399969999982150e+000	 6.678739546200055e+001
0	 2.000039750814773e-001	 3.466639999981866e+000	 5.823984069751808e+001
0	 2.000039750814772e-001	 3.533309999982382e+000	 5.026705318725293e+001
0	 2.000039750814772e-001	 3.599979999983600e+000	 4.291280133480270e+001
0	 2.000039750814773e-001	 3.666649999985417e+000	 3.622085354377074e+001
0	 2.000039750814773e-001	 3.733319999987733e+000	 3.023497821776571e+001
0	 2.000039750814773e-001	 3.799989999990450e+000	 2.499894376040187e+001
0	 2.000039750814772e-001	 3.866659999993467e+000	 2.055651857529913e+001
0	 2.000039750814773e-001	 3.933329999996684e+000	 1.695147106608274e+001
0	 2.000039750814773e-001	 4.000000000000000e+000	 1.422756963638362e+001
0	 2.666734223614255e-001	 3.333299999983333e+000	 6.484422999444084e+001
0	 2.666734223614255e-001	 3.399969999982149e+000	 5.771058655967460e+001
0	 2.666734223614256e-001	 3.466639999981866e+000	 5.095412738920949e+001
0	 2.666734223614256e-001	 3.533309999982383e+000	 4.460929249123237e+001
0	 2.666734223614256e-001	 3.599979999983600e+000	 3.871052187393385e+001
0	 2.666734223614256e-001	 3.666649999985417e+000	 3.329225554550861e+001
0	 2.666734223614255e-001	 3.733319999987733e+000	 2.838893351415511e+001
0	 2.666734223614256e-001	 3.799989999990450e+000	 2.403499578807578e+001
0	 2.666734223614256e-001	 3.866659999993466e+000	 2.026488237547705e+001
0	 2.666734223614255e-001	 3.933329999996683e+000	 1.711303328456909e+001
0	 2.666734223614255e-001	 4.000000000000001e+000	 1.461388852356611e+001
0	 3.333434029809069e-001	 3.333299999983334e+000	 5.510731454391201e+001
0	 3.333434029809069e-001	 3.399969999982149e+000	 4.958424158512729e+001
0	 3.333434029809069e-001	 3.466639999981867e+000	 4.432117158554963e+001
0	 3.333434029809069e-001	 3.533309999982384e+000	 3.934420188854992e+001
0	 3.333434029809068e-001	 3.599979999983599e+000	 3.467942983750151e+001
0	 3.333434029809069e-001	 3.666649999985416e+000	 3.035295277578051e+001
0	 3.333434029809069e-001	 3.733319999987733e+000	 2.639086804676565e+001
0	 3.333434029809068e-001	 3.799989999990450e+000	 2.281927299383830e+001
0	 3.333434029809069e-001	 3.866659999993467e+000	 1.966426496038254e+001
0	 3.333434029809069e-001	 3.933329999996685e+000	 1.695194128978505e+001
0	 3.333434029809069e-001	 4.000000000000000e+000	 1.470839932543528e+001
0	 4.000138002678044e-001	 3.333299999983334e+000	 4.656859948310376e+001
0	 4.000138002678045e-001	 3.399969999982150e+000	 4.236122353707531e+001
0	 4.000138002678044e-001	 3.466639999981866e+000	 3.832767822312772e+001
0	 4.000138002678043e-001	 3.533309999982383e+000	 3.448670388553816e+001
0	 4.000138002678045e-001	 3.599979999983599e+000	 3.085704086858527e+001
0	 4.000138002678043e-001	 3.666649999985415e+000	 2.745742951654968e+001
0	 4.000138002678043e-001	 3.733319999987732e+000	 2.430661017371360e+001
0	 4.000138002678043e-001	 3.799989999990449e+000	 2.142332318436091e+001
0	 4.000138002678043e-001	 3.866659999993466e+000	 1.882630889277737e+001
0	 4.000138002678043e-001	 3.933329999996683e+000	 1.653430764325029e+001
0	 4.000138002678044e-001	 4.000000000000000e+000	 1.456605978006885e+001
0	 4.666844975500011e-001	 3.333299999983334e+000	 3.914148579792300e+001
0	 4.666844975500011e-001	 3.399969999982150e+000	 3.599439933390250e+001
0	 4.666844975500011e-001	 3.466639999981867e+000	 3.296035581159661e+001
0	 4.666844975500012e-001	 3.533309999982384e+000	 3.005172418739512e+001
0	 4.666844975500011e-001	 3.599979999983599e+000	 2.728087341768862e+001
0	 4.666844975500012e-001	 3.666649999985417e+000	 2.466017245886890e+001
0	 4.666844975500011e-001	 3.733319999987733e+000	 2.220199026732878e+001
0	 4.666844975500011e-001	 3.799989999990451e+000	 1.991869579946199e+001
0	 4.666844975500011e-001	 3.866659999993466e+000	 1.782265801166345e+001
0	 4.666844975500010e-001	 3.933329999996683e+000	 1.592624586032906e+001
0	 4.666844975500010e-001	 3.999999999999999e+000	 1.424182830185576e+001
0	 5.333553781553803e-001	 3.333299999983335e+000	 3.273937870197644e+001
0	 5.333553781553803e-001	 3.399969999982150e+000	 3.043663981308395e+001
0	 5.333553781553801e-001	 3.466639999981867e+000	 2.820591643315043e+001
0	 5.333553781553803e-001	 3.533309999982383e+000	 2.605419169771805e+001
0	 5.333553781553800e-001	 3.599979999983599e+000	 2.398844874232961e+001
0	 5.333553781553803e-001	 3.666649999985416e+000	 2.201567070252838e+001
0	 5.333553781553801e-001	 3.733319999987733e+000	 2.014284071385831e+001
0	 5.333553781553803e-001	 3.799989999990450e+000	 1.837694191186383e+001
0	 5.333553781553803e-001	 3.866659999993466e+000	 1.672495743208999e+001
0	 5.333553781553803e-001	 3.933329999996683e+000	 1.519387041008234e+001
0	 5.333553781553803e-001	 4.000000000000000e+000	 1.379066398138713e+001
0	 6.000263254118246e-001	 3.333299999983333e+000	 2.727568763605598e+001
0	 6.000263254118247e-001	 3.399969999982150e+000	 2.564081973071340e+001
0	 6.000263254118248e-001	 3.466639999981867e+000	 2.405107574209600e+001
0	 6.000263254118246e-001	 3.533309999982382e+000	 2.250903851812085e+001
0	 6.000263254118248e-001	 3.599979999983600e+000	 2.101729090670530e+001
0	 6.000263254118247e-001	 3.666649999985416e+000	 1.957841575576684e+001
0	 6.000263254118249e-001	 3.733319999987733e+000	 1.819499591322338e+001
0	 6.000263254118247e-001	 3.799989999990450e+000	 1.686961422699297e+001
0	 6.000263254118247e-001	 3.866659999993467e+000	 1.560485354499391e+001
0	 6.000263254118247e-001	 3.933329999996683e+000	 1.440329671514489e+001
0	 6.000263254118247e-001	 4.000000000000000e+000	 1.326752658536472e+001
0	 6.666972226472175e-001	 3.333299999983334e+000	 2.266382626773559e+001
0	 6.666972226472177e-001	 3.399969999982150e+000	 2.155981776113318e+001
0	 6.666972226472177e-001	 3.466639999981867e+000	 2.048255296451820e+001
0	 6.666972226472177e-001	 3.533309999982382e+000	 1.943119994793543e+001
0	 6.666972226472177e-001	 3.599979999983599e+000	 1.840492678142963e+001
0	 6.666972226472175e-001	 3.666649999985416e+000	 1.740290153504572e+001
0	 6.666972226472175e-001	 3.733319999987733e+000	 1.642429227882850e+001
0	 6.666972226472175e-001	 3.799989999990450e+000	 1.546826708282302e+001
0	 6.666972226472177e-001	 3.866659999993467e+000	 1.453399401707427e+001
0	 6.666972226472175e-001	 3.933329999996683e+000	 1.362064115162733e+001
0	 6.666972226472175e-001	 4.000000000000001e+000	 1.272737655652739e+001
0	 0.000000000000000e+000	 4.000000000000000e+000	 1.076819722963583e+001
0	 0.000000000000000e+000	 4.066670000003317e+000	 8.890236485564140e+000
0	 0.000000000000000e+000	 4.133340000006535e+000	 7.483393049610263e+000
0	 0.000000000000000e+000	 4.200010000009550e+000	 6.495994569401113e+000
0	 0.000000000000000e+000	 4.266680000012268e+000	 5.876368692563646e+000
0	 0.000000000000000e+000	 4.333350000014584e+000	 5.572843066724855e+000
0	 0.000000000000000e+000	 4.400020000016401e+000	 5.533745339511763e+000
0	 0.000000000000000e+000	 4.466690000017617e+000	 5.707403158551497e+000
0	 0.000000000000000e+000	 4.533360000018134e+000	 6.042144171471176e+000
0	 0.000000000000000e+000	 4.600030000017850e+000	 6.486296025898009e+000
0	 0.000000000000000e+000	 4.666700000016666e+000	 6.988186369459228e+000
0	 6.666714722864757e-002	 4.000000000000001e+000	 1.235968003610272e+001
0	 6.666714722864756e-002	 4.066670000003317e+000	 1.033278139011530e+001
0	 6.666714722864757e-002	 4.133340000006534e+000	 8.757521579426900e+000
0	 6.666714722864756e-002	 4.200010000009550e+000	 7.589791764860389e+000
0	 6.666714722864756e-002	 4.266680000012267e+000	 6.785483107239092e+000
0	 6.666714722864757e-002	 4.333350000014583e+000	 6.300486767386813e+000
0	 6.666714722864754e-002	 4.400020000016402e+000	 6.090693906127833e+000
0	 6.666714722864756e-002	 4.466690000017618e+000	 6.111995684286896e+000
0	 6.666714722864754e-002	 4.533360000018135e+000	 6.320283262689226e+000
0	 6.666714722864756e-002	 4.600030000017849e+000	 6.671447802160533e+000
0	 6.666714722864756e-002	 4.666700000016666e+000	 7.121380463526961e+000
0	 1.333351778131789e-001	 4.000000000000000e+000	 1.349448560224809e+001
0	 1.333351778131789e-001	 4.066670000003315e+000	 1.141014237408614e+001
0	 1.333351778131789e-001	 4.133340000006534e+000	 9.749910415803244e+000
0	 1.333351778131789e-001	 4.200010000009550e+000	 8.476694381072372e+000
0	 1.333351778131790e-001	 4.266680000012268e+000	 7.553398923567172e+000
0	 1.333351778131789e-001	 4.333350000014582e+000	 6.942928696962169e+000
0	 1.333351778131790e-001	 4.400020000016403e+000	 6.608188354932592e+000
0	 1.333351778131789e-001	 4.466690000017618e+000	 6.512082551154502e+000
0	 1.333351778131790e-001	 4.533360000018134e+000	 6.617515939304727e+000
0	 1.333351778131789e-001	 4.600030000017852e+000	 6.887393173060882e+000
0	 1.333351778131790e-001	 4.666700000016667e+000	 7.284618906101345e+000
0	 2.000039750814773e-001	 4.000000000000000e+000	 1.422756963638362e+001
0	 2.000039750814773e-001	 4.066670000003317e+000	 1.216408897335012e+001
0	 2.000039750814772e-001	 4.133340000006534e+000	 1.049070361731840e+001
0	 2.000039750814772e-001	 4.200010000009551e+000	 9.176781751705962e+000
0	 2.000039750814773e-001	 4.266680000012268e+000	 8.191691559931234e+000
0	 2.000039750814773e-001	 4.333350000014583e+000	 7.504801225413672e+000
0	 2.000039750814772e-001	 4.400020000016401e+000	 7.085478931573696e+000
0	 2.000039750814773e-001	 4.466690000017619e+000	 6.903092861832736e+000
0	 2.000039750814773e-001	 4.533360000018134e+000	 6.927011199613210e+000
0	 2.000039750814772e-001	 4.600030000017852e+000	 7.126602128338528e+000
0	 2.000039750814772e-001	 4.666700000016667e+000	 7.471233831433075e+000
0	 2.666734223614255e-001	 4.000000000000001e+000	 1.461388852356611e+001
0	 2.666734223614255e-001	 4.066670000003317e+000	 1.263639117538721e+001
0	 2.666734223614256e-001	 4.133340000006534e+000	 1.101004551848585e+001
0	 2.666734223614255e-001	 4.200010000009550e+000	 9.710133354381707e+000
0	 2.666734223614255e-001	 4.266680000012268e+000	 8.711936484595521e+000
0	 2.666734223614255e-001	 4.333350000014584e+000	 7.990736710649141e+000
0	 2.666734223614256e-001	 4.400020000016402e+000	 7.521815834065530e+000
0	 2.666734223614256e-001	 4.466690000017617e+000	 7.280455656368792e+000
0	 2.666734223614256e-001	 4.533360000018133e+000	 7.241937979084082e+000
0	 2.666734223614256e-001	 4.600030000017850e+000	 7.381544603737734e+000
0	 2.666734223614255e-001	 4.666700000016667e+000	 7.674557331857161e+000
0	 3.333434029809069e-001	 4.000000000000000e+000	 1.470839932543528e+001
0	 3.333434029809069e-001	 4.066670000003318e+000	 1.286881941917102e+001
0	 3.333434029809069e-001	 4.133340000006533e+000	 1.133808072967961e+001
0	 3.333434029809069e-001	 4.200010000009550e+000	 1.009682881062760e+001
0	 3.333434029809069e-001	 4.266680000012268e+000	 9.125709215682640e+000
0	 3.333434029809069e-001	 4.333350000014583e+000	 8.405367498513595e+000
0	 3.333434029809069e-001	 4.400020000016400e+000	 7.916449212790465e+000
0	 3.333434029809069e-001	 4.466690000017617e+000	 7.639599912184411e+000
0	 3.333434029809069e-001	 4.533360000018134e+000	 7.555465150367748e+000
0	 3.333434029809070e-001	 4.600030000017851e+000	 7.644690481013981e+000
0	 3.333434029809069e-001	 4.666700000016667e+000	 7.887921457797747e+000
0	 4.000138002678044e-001	 4.000000000000000e+000	 1.456605978006885e+001
0	 4.000138002678044e-001	 4.066670000003318e+000	 1.290314459506768e+001
0	 4.000138002678045e-001	 4.133340000006535e+000	 1.150495413706753e+001
0	 4.000138002678043e-001	 4.200010000009550e+000	 1.035694788583859e+001
0	 4.000138002678043e-001	 4.266680000012268e+000	 9.444585321152273e+000
0	 4.000138002678044e-001	 4.333350000014584e+000	 8.753325922781109e+000
0	 4.000138002678044e-001	 4.400020000016402e+000	 8.268629170498766e+000
0	 4.000138002678044e-001	 4.466690000017617e+000	 7.975954544080115e+000
0	 4.000138002678044e-001	 4.533360000018134e+000	 7.860761523301124e+000
0	 4.000138002678044e-001	 4.600030000017851e+000	 7.908509587938941e+000
0	 4.000138002678044e-001	 4.666700000016665e+000	 8.104658217771862e+000
0	 4.666844975500010e-001	 3.999999999999999e+000	 1.424182830185576e+001
0	 4.666844975500010e-001	 4.066670000003317e+000	 1.278113804474672e+001
0	 4.666844975500011e-001	 4.133340000006535e+000	 1.154081090255186e+001
0	 4.666844975500011e-001	 4.200010000009551e+000	 1.051057048924007e+001
0	 4.666844975500011e-001	 4.266680000012267e+000	 9.680140418781202e+000
0	 4.666844975500011e-001	 4.333350000014584e+000	 9.039244305146260e+000
0	 4.666844975500011e-001	 4.400020000016402e+000	 8.577605762307334e+000
0	 4.666844975500012e-001	 4.466690000017619e+000	 8.284948404237628e+000
0	 4.666844975500011e-001	 4.533360000018135e+000	 8.150995844911408e+000
0	 4.666844975500011e-001	 4.600030000017849e+000	 8.165471698304078e+000
0	 4.666844975500011e-001	 4.666700000016666e+000	 8.318099578392097e+000
0	 5.333553781553803e-001	 4.000000000000000e+000	 1.379066398138713e+001
0	 5.333553781553803e-001	 4.066670000003318e+000	 1.254457156110354e+001
0	 5.333553781553804e-001	 4.133340000006535e+000	 1.147579646371714e+001
0	 5.333553781553803e-001	 4.200010000009550e+000	 1.057777667385488e+001
0	 5.333553781553801e-001	 4.266680000012268e+000	 9.843950176144670e+000
0	 5.333553781553803e-001	 4.333350000014583e+000	 9.267754955215443e+000
0	 5.333553781553803e-001	 4.400020000016401e+000	 8.842628995697176e+000
0	 5.333553781553804e-001	 4.466690000017618e+000	 8.562010282220825e+000
0	 5.333553781553804e-001	 4.533360000018134e+000	 8.419336799418369e+000
0	 5.333553781553804e-001	 4.600030000017851e+000	 8.408046531922794e+000
0	 5.333553781553803e-001	 4.666700000016666e+000	 8.521577464368106e+000
0	 6.000263254118247e-001	 4.000000000000000e+000	 1.326752658536472e+001
0	 6.000263254118247e-001	 4.066670000003318e+000	 1.223521738819418e+001
0	 6.000263254118248e-001	 4.133340000006535e+000	 1.134005653378518e+001
0	 6.000263254118246e-001	 4.200010000009550e+000	 1.057864663647430e+001
0	 6.000263254118247e-001	 4.266680000012267e+000	 9.947590310599015e+000
0	 6.000263254118248e-001	 4.333350000014584e+000	 9.443490170497681e+000
0	 6.000263254118246e-001	 4.400020000016401e+000	 9.062948830509576e+000
0	 6.000263254118247e-001	 4.466690000017618e+000	 8.802568904974908e+000
0	 6.000263254118248e-001	 4.533360000018133e+000	 8.658953008234773e+000
0	 6.000263254118247e-001	 4.600030000017850e+000	 8.628703754631198e+000
0	 6.000263254118248e-001	 4.666700000016667e+000	 8.708423758507092e+000
0	 6.666972226472175e-001	 4.000000000000001e+000	 1.272737655652739e+001
0	 6.666972226472178e-001	 4.066670000003317e+000	 1.189484822118141e+001
0	 6.666972226472177e-001	 4.133340000006535e+000	 1.116373710157739e+001
0	 6.666972226472177e-001	 4.200010000009550e+000	 1.053326071763276e+001
0	 6.666972226472177e-001	 4.266680000012267e+000	 1.000263658926569e+001
0	 6.666972226472175e-001	 4.333350000014583e+000	 9.571082236395201e+000
0	 6.666972226472175e-001	 4.400020000016400e+000	 9.237815178941109e+000
0	 6.666972226472175e-001	 4.466690000017618e+000	 9.002052936824020e+000
0	 6.666972226472177e-001	 4.533360000018134e+000	 8.863013029965380e+000
0	 6.666972226472177e-001	 4.600030000017851e+000	 8.819912978287402e+000
0	 6.666972226472178e-001	 4.666700000016666e+000	 8.871970301713120e+000
0	 0.000000000000000e+000	 4.666700000016666e+000	 6.988186369459228e+000
0	 0.000000000000000e+000	 4.733360000014534e+000	 7.475087297162649e+000
0	 0.000000000000000e+000	 4.800020000011600e+000	 7.908889785360825e+000
0	 0.000000000000000e+000	 4.866680000008066e+000	 8.289618724291056e+000
0	 0.000000000000000e+000	 4.933340000004134e+000	 8.617299004191624e+000
0	 0.000000000000000e+000	 5.000000000000000e+000	 8.891955515301774e+000
0	 0.000000000000000e+000	 5.066659999995866e+000	 9.113613147861713e+000
0	 0.000000000000000e+000	 5.133319999991934e+000	 9.282296792112600e+000
0	 0.000000000000000e+000	 5.199979999988400e+000	 9.398031338296594e+000
0	 0.000000000000000e+000	 5.266639999985467e+000	 9.460841676656809e+000
0	 0.000000000000000e+000	 5.333299999983334e+000	 9.470752697437305e+000
0	 6.666714722864756e-002	 4.666700000016666e+000	 7.121380463526962e+000
0	 6.666714722864754e-002	 4.733360000014533e+000	 7.581193281963246e+000
0	 6.666714722864757e-002	 4.800020000011601e+000	 7.991451944023603e+000
0	 6.666714722864756e-002	 4.866680000008067e+000	 8.352010022308589e+000
0	 6.666714722864756e-002	 4.933340000004133e+000	 8.662721089419716e+000
0	 6.666714722864756e-002	 5.000000000000001e+000	 8.923438717959368e+000
0	 6.666714722864757e-002	 5.066659999995869e+000	 9.134016480530923e+000
0	 6.666714722864756e-002	 5.133319999991934e+000	 9.294307949738633e+000
0	 6.666714722864756e-002	 5.199979999988400e+000	 9.404166698187716e+000
0	 6.666714722864756e-002	 5.266639999985467e+000	 9.463446298484278e+000
0	 6.666714722864757e-002	 5.333299999983336e+000	 9.472000323235388e+000
0	 1.333351778131790e-001	 4.666700000016667e+000	 7.284618906101345e+000
0	 1.333351778131790e-001	 4.733360000014534e+000	 7.710546491538754e+000
0	 1.333351778131789e-001	 4.800020000011599e+000	 8.091199100295492e+000
0	 1.333351778131790e-001	 4.866680000008067e+000	 8.426284282167133e+000
0	 1.333351778131789e-001	 4.933340000004133e+000	 8.715509586950086e+000
0	 1.333351778131789e-001	 5.000000000000001e+000	 8.958582564441654e+000
0	 1.333351778131789e-001	 5.066659999995866e+000	 9.155210764440009e+000
0	 1.333351778131789e-001	 5.133319999991935e+000	 9.305101736744163e+000
0	 1.333351778131790e-001	 5.199979999988402e+000	 9.407963031154036e+000
0	 1.333351778131789e-001	 5.266639999985468e+000	 9.463502197470415e+000
0	 1.333351778131789e-001	 5.333299999983333e+000	 9.471426785494931e+000
0	 2.000039750814772e-001	 4.666700000016667e+000	 7.471233831433076e+000
0	 2.000039750814772e-001	 4.733360000014534e+000	 7.858029114292135e+000
0	 2.000039750814772e-001	 4.800020000011601e+000	 8.204378616446494e+000
0	 2.000039750814773e-001	 4.866680000008068e+000	 8.509869158012718e+000
0	 2.000039750814772e-001	 4.933340000004133e+000	 8.774087559108171e+000
0	 2.000039750814773e-001	 4.999999999999999e+000	 8.996620639851049e+000
0	 2.000039750814772e-001	 5.066659999995867e+000	 9.177055220360309e+000
0	 2.000039750814772e-001	 5.133319999991935e+000	 9.314978120755736e+000
0	 2.000039750814773e-001	 5.199979999988400e+000	 9.409976161157889e+000
0	 2.000039750814772e-001	 5.266639999985467e+000	 9.461636161688151e+000
0	 2.000039750814772e-001	 5.333299999983335e+000	 9.469544942468689e+000
0	 2.666734223614255e-001	 4.666700000016667e+000	 7.674557331857163e+000
0	 2.666734223614256e-001	 4.733360000014533e+000	 8.018523307267296e+000
0	 2.666734223614255e-001	 4.800020000011599e+000	 8.327237831681824e+000
0	 2.666734223614255e-001	 4.866680000008066e+000	 8.600192287224346e+000
0	 2.666734223614256e-001	 4.933340000004134e+000	 8.836878056019144e+000
0	 2.666734223614256e-001	 5.000000000000000e+000	 9.036786520191232e+000
0	 2.666734223614255e-001	 5.066659999995866e+000	 9.199409061866341e+000
0	 2.666734223614255e-001	 5.133319999991935e+000	 9.324237063170935e+000
0	 2.666734223614256e-001	 5.199979999988402e+000	 9.410761906232176e+000
0	 2.666734223614254e-001	 5.266639999985468e+000	 9.458474973177943e+000
0	 2.666734223614254e-001	 5.333299999983333e+000	 9.466867646136839e+000
0	 3.333434029809069e-001	 4.666700000016667e+000	 7.887921457797747e+000
0	 3.333434029809069e-001	 4.733360000014533e+000	 8.186911196152421e+000
0	 3.333434029809068e-001	 4.800020000011599e+000	 8.456024062144312e+000
0	 3.333434029809069e-001	 4.866680000008066e+000	 8.694681290415558e+000
0	 3.333434029809069e-001	 4.933340000004134e+000	 8.902304115608910e+000
0	 3.333434029809070e-001	 5.000000000000000e+000	 9.078313772367775e+000
0	 3.333434029809069e-001	 5.066659999995866e+000	 9.222131495336162e+000
0	 3.333434029809069e-001	 5.133319999991934e+000	 9.333178519158736e+000
0	 3.333434029809069e-001	 5.199979999988400e+000	 9.410876078480778e+000
0	 3.333434029809069e-001	 5.266639999985467e+000	 9.454645407948192e+000
0	 3.333434029809069e-001	 5.333299999983335e+000	 9.463907742207530e+000
0	 4.000138002678044e-001	 4.666700000016665e+000	 8.104658217771862e+000
0	 4.000138002678044e-001	 4.733360000014533e+000	 8.358074875282659e+000
0	 4.000138002678044e-001	 4.800020000011599e+000	 8.586984600916063e+000
0	 4.000138002678045e-001	 4.866680000008067e+000	 8.790763771435458e+000
0	 4.000138002678044e-001	 4.933340000004134e+000	 8.968788763604783e+000
0	 4.000138002678044e-001	 5.000000000000000e+000	 9.120435954188485e+000
0	 4.000138002678044e-001	 5.066659999995868e+000	 9.245081719951621e+000
0	 4.000138002678045e-001	 5.133319999991935e+000	 9.342102437659699e+000
0	 4.000138002678044e-001	 5.199979999988400e+000	 9.410874484078821e+000
0	 4.000138002678044e-001	 5.266639999985467e+000	 9.450774235975601e+000
0	 4.000138002678044e-001	 5.333299999983333e+000	 9.461178070117212e+000
0	 4.666844975500011e-001	 4.666700000016666e+000	 8.318099578392097e+000
0	 4.666844975500011e-001	 4.733360000014533e+000	 8.526896407641905e+000
0	 4.666844975500011e-001	 4.800020000011597e+000	 8.716366718019666e+000
0	 4.666844975500012e-001	 4.866680000008068e+000	 8.885867317369447e+000
0	 4.666844975500011e-001	 4.933340000004134e+000	 9.034755013535781e+000
0	 4.666844975500011e-001	 5.000000000000000e+000	 9.162386614363633e+000
0	 4.666844975500011e-001	 5.066659999995867e+000	 9.268118927698428e+000
0	 4.666844975500012e-001	 5.133319999991935e+000	 9.351308761386020e+000
0	 4.666844975500011e-001	 5.199979999988399e+000	 9.411312923272719e+000
0	 4.666844975500012e-001	 5.266639999985468e+000	 9.447488221205287e+000
0	 4.666844975500012e-001	 5.333299999983334e+000	 9.459191463030905e+000
0	 5.333553781553803e-001	 4.666700000016666e+000	 8.521577464368107e+000
0	 5.333553781553800e-001	 4.733360000014533e+000	 8.688257824863722e+000
0	 5.333553781553804e-001	 4.800020000011601e+000	 8.840417660418666e+000
0	 5.333553781553803e-001	 4.866680000008067e+000	 8.977419498539396e+000
0	 5.333553781553803e-001	 4.933340000004133e+000	 9.098625866732702e+000
0	 5.333553781553803e-001	 5.000000000000000e+000	 9.203399292505740e+000
0	 5.333553781553804e-001	 5.066659999995867e+000	 9.291102303366019e+000
0	 5.333553781553805e-001	 5.133319999991935e+000	 9.361097426821406e+000
0	 5.333553781553803e-001	 5.199979999988401e+000	 9.412747190380118e+000
0	 5.333553781553801e-001	 5.266639999985467e+000	 9.445414121550735e+000
0	 5.333553781553803e-001	 5.333299999983334e+000	 9.458460747842185e+000
0	 6.000263254118248e-001	 4.666700000016667e+000	 8.708423758507093e+000
0	 6.000263254118247e-001	 4.733360000014531e+000	 8.837041127231512e+000
0	 6.000263254118247e-001	 4.800020000011600e+000	 8.955384652017544e+000
0	 6.000263254118248e-001	 4.866680000008066e+000	 9.062847868503452e+000
0	 6.000263254118248e-001	 4.933340000004134e+000	 9.158824312327784e+000
0	 6.000263254118247e-001	 5.000000000000000e+000	 9.242707519129347e+000
0	 6.000263254118246e-001	 5.066659999995867e+000	 9.313891024547225e+000
0	 6.000263254118247e-001	 5.133319999991935e+000	 9.371768364220770e+000
0	 6.000263254118247e-001	 5.199979999988401e+000	 9.415733073789610e+000
0	 6.000263254118247e-001	 5.266639999985467e+000	 9.445178688893662e+000
0	 6.000263254118248e-001	 5.333299999983335e+000	 9.459498745173075e+000
0	 6.666972226472178e-001	 4.666700000016666e+000	 8.871970301713120e+000
0	 6.666972226472177e-001	 4.733360000014533e+000	 8.968128283677842e+000
0	 6.666972226472177e-001	 4.800020000011600e+000	 9.057514893660969e+000
0	 6.666972226472178e-001	 4.866680000008067e+000	 9.139579964055354e+000
0	 6.666972226472175e-001	 4.933340000004133e+000	 9.213773327254074e+000
0	 6.666972226472174e-001	 4.999999999999999e+000	 9.279544815650374e+000
0	 6.666972226472178e-001	 5.066659999995868e+000	 9.336344261637729e+000
0	 6.666972226472177e-001	 5.133319999991935e+000	 9.383621497609790e+000
0	 6.666972226472178e-001	 5.199979999988400e+000	 9.420826355960415e+000
0	 6.666972226472177e-001	 5.266639999985468e+000	 9.447408669083650e+000
0	 6.666972226472175e-001	 5.333299999983334e+000	 9.462818269373765e+000
0	 0.000000000000000e+000	 5.333299999983334e+000	 9.470752697437304e+000
0	 0.000000000000000e+000	 5.399969999982149e+000	 9.456694811013954e+000
0	 0.000000000000000e+000	 5.466639999981866e+000	 9.447515407765957e+000
0	 0.000000000000000e+000	 5.533309999982383e+000	 9.443107408545712e+000
0	 0.000000000000000e+000	 5.599979999983600e+000	 9.443363734205592e+000
0	 0.000000000000000e+000	 5.666649999985417e+000	 9.448177305598067e+000
0	 0.000000000000000e+000	 5.733319999987733e+000	 9.457441043575580e+000
0	 0.000000000000000e+000	 5.799989999990450e+000	 9.471047868990693e+000
0	 0.000000000000000e+000	 5.866659999993467e+000	 9.488890702695915e+000
0	 0.000000000000000e+000	 5.933329999996683e+000	 9.510862465543879e+000
0	 0.000000000000000e+000	 6.000000000000000e+000	 9.536856078387164e+000
0	 6.666714722864757e-002	 5.333299999983336e+000	 9.472000323235388e+000
0	 6.666714722864756e-002	 5.399969999982148e+000	 9.457582259611288e+000
0	 6.666714722864756e-002	 5.466639999981866e+000	 9.447996459929644e+000
0	 6.666714722864756e-002	 5.533309999982381e+000	 9.443165207853246e+000
0	 6.666714722864753e-002	 5.599979999983598e+000	 9.443010787044910e+000
0	 6.666714722864757e-002	 5.666649999985415e+000	 9.447455481167538e+000
0	 6.666714722864756e-002	 5.733319999987733e+000	 9.456421573883993e+000
0	 6.666714722864757e-002	 5.799989999990449e+000	 9.469831348857243e+000
0	 6.666714722864756e-002	 5.866659999993468e+000	 9.487607089750275e+000
0	 6.666714722864757e-002	 5.933329999996683e+000	 9.509671080226104e+000
0	 6.666714722864756e-002	 6.000000000000000e+000	 9.535945603947790e+000
0	 1.333351778131789e-001	 5.333299999983333e+000	 9.471426785494931e+000
0	 1.333351778131789e-001	 5.399969999982151e+000	 9.457772411613506e+000
0	 1.333351778131789e-001	 5.466639999981865e+000	 9.448741219869813e+000
0	 1.333351778131789e-001	 5.533309999982383e+000	 9.444283359750628e+000
0	 1.333351778131790e-001	 5.599979999983600e+000	 9.444348980742735e+000
0	 1.333351778131790e-001	 5.666649999985418e+000	 9.448888232332998e+000
0	 1.333351778131789e-001	 5.733319999987733e+000	 9.457851264008298e+000
0	 1.333351778131789e-001	 5.799989999990448e+000	 9.471188225255533e+000
0	 1.333351778131789e-001	 5.866659999993466e+000	 9.488849265561695e+000
0	 1.333351778131789e-001	 5.933329999996686e+000	 9.510784534413755e+000
0	 1.333351778131789e-001	 6.000000000000000e+000	 9.536944181298768e+000
0	 2.000039750814772e-001	 5.333299999983335e+000	 9.469544942468692e+000
0	 2.000039750814772e-001	 5.399969999982151e+000	 9.457585363540508e+000
0	 2.000039750814772e-001	 5.466639999981867e+000	 9.449904315670086e+000
0	 2.000039750814772e-001	 5.533309999982384e+000	 9.446478317383589e+000
0	 2.000039750814772e-001	 5.599979999983600e+000	 9.447283887207229e+000
0	 2.000039750814772e-001	 5.666649999985415e+000	 9.452297543667237e+000
0	 2.000039750814772e-001	 5.733319999987732e+000	 9.461495805289900e+000
0	 2.000039750814773e-001	 5.799989999990449e+000	 9.474855190601520e+000
0	 2.000039750814772e-001	 5.866659999993465e+000	 9.492352218128453e+000
0	 2.000039750814773e-001	 5.933329999996684e+000	 9.513963406397087e+000
0	 2.000039750814772e-001	 5.999999999999999e+000	 9.539665273933842e+000
0	 2.666734223614254e-001	 5.333299999983333e+000	 9.466867646136835e+000
0	 2.666734223614254e-001	 5.399969999982147e+000	 9.457341205481281e+000
0	 2.666734223614255e-001	 5.466639999981866e+000	 9.451640368937763e+000
0	 2.666734223614256e-001	 5.533309999982383e+000	 9.449766527473448e+000
0	 2.666734223614255e-001	 5.599979999983599e+000	 9.451721072055483e+000
0	 2.666734223614255e-001	 5.666649999985415e+000	 9.457505393651072e+000
0	 2.666734223614255e-001	 5.733319999987732e+000	 9.467120883227468e+000
0	 2.666734223614255e-001	 5.799989999990449e+000	 9.480568931751941e+000
0	 2.666734223614255e-001	 5.866659999993464e+000	 9.497850930191770e+000
0	 2.666734223614255e-001	 5.933329999996683e+000	 9.518968269514316e+000
0	 2.666734223614256e-001	 6.000000000000001e+000	 9.543922340686958e+000
0	 3.333434029809069e-001	 5.333299999983335e+000	 9.463907742207528e+000
0	 3.333434029809069e-001	 5.399969999982149e+000	 9.457360021094463e+000
0	 3.333434029809069e-001	 5.466639999981866e+000	 9.454103994804449e+000
0	 3.333434029809068e-001	 5.533309999982383e+000	 9.454164430317611e+000
0	 3.333434029809069e-001	 5.599979999983598e+000	 9.457566094614057e+000
0	 3.333434029809069e-001	 5.666649999985415e+000	 9.464333754673946e+000
0	 3.333434029809070e-001	 5.733319999987733e+000	 9.474492177477467e+000
0	 3.333434029809068e-001	 5.799989999990449e+000	 9.488066130004828e+000
0	 3.333434029809068e-001	 5.866659999993468e+000	 9.505080379236276e+000
0	 3.333434029809068e-001	 5.933329999996682e+000	 9.525559692152106e+000
0	 3.333434029809069e-001	 6.000000000000000e+000	 9.549528835732607e+000
0	 4.000138002678044e-001	 5.333299999983333e+000	 9.461178070117212e+000
0	 4.000138002678045e-001	 5.399969999982150e+000	 9.457961887608764e+000
0	 4.000138002678044e-001	 5.466639999981865e+000	 9.457449801926492e+000
0	 4.000138002678043e-001	 5.533309999982383e+000	 9.459688459790128e+000
0	 4.000138002678045e-001	 5.599979999983599e+000	 9.464724507919469e+000
0	 4.000138002678043e-001	 5.666649999985415e+000	 9.472604593034319e+000
0	 4.000138002678043e-001	 5.733319999987731e+000	 9.483375361854501e+000
0	 4.000138002678044e-001	 5.799989999990450e+000	 9.497083461099864e+000
0	 4.000138002678043e-001	 5.866659999993467e+000	 9.513775537490306e+000
0	 4.000138002678044e-001	 5.933329999996684e+000	 9.533498237745727e+000
0	 4.000138002678044e-001	 6.000000000000001e+000	 9.556298208586059e+000
0	 4.666844975500012e-001	 5.333299999983334e+000	 9.459191463030903e+000
0	 4.666844975500011e-001	 5.399969999982149e+000	 9.459466875823262e+000
0	 4.666844975500011e-001	 5.466639999981864e+000	 9.461832392485247e+000
0	 4.666844975500012e-001	 5.533309999982383e+000	 9.466355043341936e+000
0	 4.666844975500011e-001	 5.599979999983600e+000	 9.473101858718472e+000
0	 4.666844975500012e-001	 5.666649999985417e+000	 9.482139868939980e+000
0	 4.666844975500012e-001	 5.733319999987733e+000	 9.493536104331618e+000
0	 4.666844975500011e-001	 5.799989999990449e+000	 9.507357595218585e+000
0	 4.666844975500012e-001	 5.866659999993467e+000	 9.523671371926058e+000
0	 4.666844975500012e-001	 5.933329999996683e+000	 9.542544464779279e+000
0	 4.666844975500011e-001	 5.999999999999999e+000	 9.564043904103492e+000
0	 5.333553781553803e-001	 5.333299999983334e+000	 9.458460747842185e+000
0	 5.333553781553804e-001	 5.399969999982151e+000	 9.462195050107413e+000
0	 5.333553781553801e-001	 5.466639999981866e+000	 9.467406362187202e+000
0	 5.333553781553801e-001	 5.533309999982382e+000	 9.474180602000965e+000
0	 5.333553781553801e-001	 5.599979999983598e+000	 9.482603687468103e+000
0	 5.333553781553803e-001	 5.666649999985417e+000	 9.492761536508084e+000
0	 5.333553781553803e-001	 5.733319999987733e+000	 9.504740067040340e+000
0	 5.333553781553803e-001	 5.799989999990449e+000	 9.518625196984351e+000
0	 5.333553781553801e-001	 5.866659999993465e+000	 9.534502844259622e+000
0	 5.333553781553804e-001	 5.933329999996683e+000	 9.552458926785647e+000
0	 5.333553781553801e-001	 5.999999999999998e+000	 9.572579362481964e+000
0	 6.000263254118248e-001	 5.333299999983335e+000	 9.459498745173072e+000
0	 6.000263254118247e-001	 5.399969999982149e+000	 9.466466468401016e+000
0	 6.000263254118247e-001	 5.466639999981865e+000	 9.474326300263936e+000
0	 6.000263254118246e-001	 5.533309999982383e+000	 9.483181550372077e+000
0	 6.000263254118247e-001	 5.599979999983601e+000	 9.493135528335703e+000
0	 6.000263254118247e-001	 5.666649999985416e+000	 9.504291543765111e+000
0	 6.000263254118248e-001	 5.733319999987733e+000	 9.516752906270565e+000
0	 6.000263254118248e-001	 5.799989999990451e+000	 9.530622925462382e+000
0	 6.000263254118247e-001	 5.866659999993466e+000	 9.546004910950892e+000
0	 6.000263254118246e-001	 5.933329999996682e+000	 9.563002172346391e+000
0	 6.000263254118248e-001	 6.000000000000001e+000	 9.581718019259247e+000
0	 6.666972226472175e-001	 5.333299999983334e+000	 9.462818269373763e+000
0	 6.666972226472177e-001	 5.399969999982150e+000	 9.472601182213934e+000
0	 6.666972226472175e-001	 5.466639999981865e+000	 9.482746789471813e+000
0	 6.666972226472177e-001	 5.533309999982382e+000	 9.493374296636882e+000
0	 6.666972226472177e-001	 5.599979999983599e+000	 9.504602909198654e+000
0	 6.666972226472174e-001	 5.666649999985414e+000	 9.516551832646648e+000
0	 6.666972226472177e-001	 5.733319999987732e+000	 9.529340272470400e+000
0	 6.666972226472177e-001	 5.799989999990449e+000	 9.543087434159428e+000
0	 6.666972226472178e-001	 5.866659999993467e+000	 9.557912523203280e+000
0	 6.666972226472177e-001	 5.933329999996684e+000	 9.573934745091510e+000
0	 6.666972226472177e-001	 6.000000000000000e+000	 9.591273305313678e+000
0	 0.000000000000000e+000	 6.000000000000000e+000	 9.536856078387164e+000
0	 0.000000000000000e+000	 6.066670000003317e+000	 9.563639570288197e+000
0	 0.000000000000000e+000	 6.133340000006534e+000	 9.588094041205292e+000
0	 0.000000000000000e+000	 6.200010000009551e+000	 9.610282018335038e+000
0	 0.000000000000000e+000	 6.266680000012268e+000	 9.630266028874001e+000
0	 0.000000000000000e+000	 6.333350000014584e+000	 9.648108600018725e+000
0	 0.000000000000000e+000	 6.400020000016401e+000	 9.663872258965718e+000
0	 0.000000000000000e+000	 6.466690000017618e+000	 9.677619532911487e+000
0	 0.000000000000000e+000	 6.533360000018134e+000	 9.689412949052539e+000
0	 0.000000000000000e+000	 6.600030000017850e+000	 9.699315034585320e+000
0	 0.000000000000000e+000	 6.666700000016666e+000	 9.707388316706291e+000
0	 6.666714722864756e-002	 6.000000000000000e+000	 9.535945603947790e+000
0	 6.666714722864754e-002	 6.066670000003317e+000	 9.563112335974019e+000
0	 6.666714722864756e-002	 6.133340000006531e+000	 9.587938357891988e+000
0	 6.666714722864756e-002	 6.200010000009550e+000	 9.610474063157531e+000
0	 6.666714722864756e-002	 6.266680000012269e+000	 9.630769845226437e+000
0	 6.666714722864756e-002	 6.333350000014582e+000	 9.648876097554513e+000
0	 6.666714722864754e-002	 6.400020000016401e+000	 9.664843213597500e+000
0	 6.666714722864757e-002	 6.466690000017620e+000	 9.678721586811179e+000
0	 6.666714722864756e-002	 6.533360000018132e+000	 9.690561610651240e+000
0	 6.666714722864756e-002	 6.600030000017848e+000	 9.700413678573415e+000
0	 6.666714722864757e-002	 6.666700000016668e+000	 9.708328184033370e+000
0	 1.333351778131789e-001	 6.000000000000000e+000	 9.536944181298768e+000
0	 1.333351778131789e-001	 6.066670000003318e+000	 9.564040795536668e+000
0	 1.333351778131790e-001	 6.133340000006535e+000	 9.588845851892916e+000
0	 1.333351778131789e-001	 6.200010000009550e+000	 9.611397828022788e+000
0	 1.333351778131789e-001	 6.266680000012267e+000	 9.631735201581549e+000
0	 1.333351778131790e-001	 6.333350000014583e+000	 9.649896450224402e+000
0	 1.333351778131789e-001	 6.400020000016401e+000	 9.665920051606557e+000
0	 1.333351778131789e-001	 6.466690000017617e+000	 9.679844483383221e+000
0	 1.333351778131790e-001	 6.533360000018136e+000	 9.691708223209567e+000
0	 1.333351778131790e-001	 6.600030000017853e+000	 9.701549748740733e+000
0	 1.333351778131789e-001	 6.666700000016666e+000	 9.709407537631829e+000
0	 2.000039750814772e-001	 5.999999999999999e+000	 9.539665273933842e+000
0	 2.000039750814773e-001	 6.066670000003318e+000	 9.566300603562961e+000
0	 2.000039750814772e-001	 6.133340000006531e+000	 9.590745685573964e+000
0	 2.000039750814773e-001	 6.200010000009552e+000	 9.613027299691067e+000
0	 2.000039750814772e-001	 6.266680000012267e+000	 9.633172225638555e+000
0	 2.000039750814773e-001	 6.333350000014584e+000	 9.651207243140641e+000
0	 2.000039750814772e-001	 6.400020000016400e+000	 9.667159131921521e+000
0	 2.000039750814773e-001	 6.466690000017618e+000	 9.681054671705402e+000
0	 2.000039750814772e-001	 6.533360000018134e+000	 9.692920642216437e+000
0	 2.000039750814773e-001	 6.600030000017851e+000	 9.702783823178777e+000
0	 2.000039750814772e-001	 6.666700000016666e+000	 9.710670994316548e+000
0	 2.666734223614256e-001	 6.000000000000001e+000	 9.543922340686958e+000
0	 2.666734223614255e-001	 6.066670000003315e+000	 9.569767410246579e+000
0	 2.666734223614256e-001	 6.133340000006533e+000	 9.593567017148152e+000
0	 2.666734223614254e-001	 6.200010000009550e+000	 9.615336460986130e+000
0	 2.666734223614255e-001	 6.266680000012266e+000	 9.635091041354945e+000
0	 2.666734223614256e-001	 6.333350000014583e+000	 9.652846057849013e+000
0	 2.666734223614255e-001	 6.400020000016399e+000	 9.668616810062739e+000
0	 2.666734223614255e-001	 6.466690000017617e+000	 9.682418597590504e+000
0	 2.666734223614256e-001	 6.533360000018133e+000	 9.694266720026645e+000
0	 2.666734223614255e-001	 6.600030000017849e+000	 9.704176476965523e+000
0	 2.666734223614256e-001	 6.666700000016667e+000	 9.712163168001441e+000
0	 3.333434029809069e-001	 6.000000000000000e+000	 9.549528835732607e+000
0	 3.333434029809069e-001	 6.066670000003317e+000	 9.574316861388313e+000
0	 3.333434029809069e-001	 6.133340000006532e+000	 9.597239000676066e+000
0	 3.333434029809069e-001	 6.200010000009552e+000	 9.618299290795617e+000
0	 3.333434029809070e-001	 6.266680000012269e+000	 9.637501768946734e+000
0	 3.333434029809069e-001	 6.333350000014584e+000	 9.654850472329134e+000
0	 3.333434029809069e-001	 6.400020000016399e+000	 9.670349438142535e+000
0	 3.333434029809069e-001	 6.466690000017618e+000	 9.684002703586632e+000
0	 3.333434029809069e-001	 6.533360000018135e+000	 9.695814305861109e+000
0	 3.333434029809070e-001	 6.600030000017851e+000	 9.705788282165614e+000
0	 3.333434029809068e-001	 6.666700000016665e+000	 9.713928669699779e+000
0	 4.000138002678044e-001	 6.000000000000001e+000	 9.556298208586059e+000
0	 4.000138002678044e-001	 6.066670000003316e+000	 9.579824598396334e+000
0	 4.000138002678044e-001	 6.133340000006533e+000	 9.601690786065920e+000
0	 4.000138002678045e-001	 6.200010000009552e+000	 9.621889764071202e+000
0	 4.000138002678044e-001	 6.266680000012268e+000	 9.640414524888625e+000
0	 4.000138002678044e-001	 6.333350000014584e+000	 9.657258060994559e+000
0	 4.000138002678044e-001	 6.400020000016401e+000	 9.672413364865374e+000
0	 4.000138002678044e-001	 6.466690000017616e+000	 9.685873428977441e+000
0	 4.000138002678043e-001	 6.533360000018133e+000	 9.697631245807090e+000
0	 4.000138002678044e-001	 6.600030000017851e+000	 9.707679807830635e+000
0	 4.000138002678044e-001	 6.666700000016665e+000	 9.716012107524392e+000
0	 4.666844975500011e-001	 5.999999999999999e+000	 9.564043904103492e+000
0	 4.666844975500010e-001	 6.066670000003315e+000	 9.586166258286289e+000
0	 4.666844975500012e-001	 6.133340000006535e+000	 9.606851519073711e+000
0	 4.666844975500011e-001	 6.200010000009551e+000	 9.626081851828685e+000
0	 4.666844975500011e-001	 6.266680000012268e+000	 9.643839421914116e+000
0	 4.666844975500012e-001	 6.333350000014587e+000	 9.660106394692914e+000
0	 4.666844975500011e-001	 6.400020000016400e+000	 9.674864935527959e+000
0	 4.666844975500011e-001	 6.466690000017615e+000	 9.688097209782120e+000
0	 4.666844975500011e-001	 6.533360000018134e+000	 9.699785382818238e+000
0	 4.666844975500012e-001	 6.600030000017849e+000	 9.709911619999156e+000
0	 4.666844975500011e-001	 6.666700000016666e+000	 9.718458086687695e+000
0	 5.333553781553801e-001	 5.999999999999998e+000	 9.572579362481964e+000
0	 5.333553781553803e-001	 6.066670000003319e+000	 9.593217473681232e+000
0	 5.333553781553803e-001	 6.133340000006533e+000	 9.612650341303198e+000
0	 5.333553781553804e-001	 6.200010000009550e+000	 9.630849521147921e+000
0	 5.333553781553801e-001	 6.266680000012267e+000	 9.647786569015473e+000
0	 5.333553781553804e-001	 6.333350000014582e+000	 9.663433040705897e+000
0	 5.333553781553801e-001	 6.400020000016399e+000	 9.677760492019226e+000
0	 5.333553781553804e-001	 6.466690000017618e+000	 9.690740478755489e+000
0	 5.333553781553801e-001	 6.533360000018132e+000	 9.702344556714685e+000
0	 5.333553781553801e-001	 6.600030000017849e+000	 9.712544281696804e+000
0	 5.333553781553803e-001	 6.666700000016667e+000	 9.721311209501833e+000
0	 6.000263254118248e-001	 6.000000000000001e+000	 9.581718019259247e+000
0	 6.000263254118247e-001	 6.066670000003315e+000	 9.600853872811532e+000
0	 6.000263254118248e-001	 6.133340000006534e+000	 9.619016390205722e+000
0	 6.000263254118248e-001	 6.200010000009551e+000	 9.636166735172767e+000
0	 6.000263254118248e-001	 6.266680000012269e+000	 9.652266071443597e+000
0	 6.000263254118246e-001	 6.333350000014585e+000	 9.667275562749115e+000
0	 6.000263254118247e-001	 6.400020000016399e+000	 9.681156372820254e+000
0	 6.000263254118248e-001	 6.466690000017618e+000	 9.693869665387897e+000
0	 6.000263254118247e-001	 6.533360000018133e+000	 9.705376604182909e+000
0	 6.000263254118248e-001	 6.600030000017851e+000	 9.715638352936205e+000
0	 6.000263254118246e-001	 6.666700000016665e+000	 9.724616075378595e+000
0	 6.666972226472177e-001	 6.000000000000000e+000	 9.591273305313678e+000
0	 6.666972226472178e-001	 6.066670000003318e+000	 9.608951079514599e+000
0	 6.666972226472178e-001	 6.133340000006534e+000	 9.625878799080004e+000
0	 6.666972226472177e-001	 6.200010000009551e+000	 9.642007453110779e+000
0	 6.666972226472178e-001	 6.266680000012268e+000	 9.657288030707806e+000
0	 6.666972226472175e-001	 6.333350000014583e+000	 9.671671520971959e+000
0	 6.666972226472175e-001	 6.400020000016400e+000	 9.685108913004086e+000
0	 6.666972226472177e-001	 6.466690000017618e+000	 9.697551195905055e+000
0	 6.666972226472174e-001	 6.533360000018134e+000	 9.708949358775689e+000
0	 6.666972226472178e-001	 6.600030000017851e+000	 9.719254390716820e+000
0	 6.666972226472178e-001	 6.666700000016667e+000	 9.728417280829264e+000
0	 0.000000000000000e+000	 6.666700000016666e+000	 9.707388316706291e+000
0	 0.000000000000000e+000	 6.733360000014533e+000	 9.714851438601190e+000
0	 0.000000000000000e+000	 6.800020000011600e+000	 9.722855222516248e+000
0	 0.000000000000000e+000	 6.866680000008066e+000	 9.731357233525035e+000
0	 0.000000000000000e+000	 6.933340000004133e+000	 9.740315036701064e+000
0	 0.000000000000000e+000	 7.000000000000000e+000	 9.749686197117807e+000
0	 0.000000000000000e+000	 7.066659999995865e+000	 9.759428279848819e+000
0	 0.000000000000000e+000	 7.133319999991934e+000	 9.769498849967592e+000
0	 0.000000000000000e+000	 7.199979999988400e+000	 9.779855472547604e+000
0	 0.000000000000000e+000	 7.266639999985467e+000	 9.790455712662396e+000
0	 0.000000000000000e+000	 7.333299999983335e+000	 9.801257135385461e+000
0	 6.666714722864757e-002	 6.666700000016668e+000	 9.708328184033370e+000
0	 6.666714722864754e-002	 6.733360000014533e+000	 9.715575299348418e+000
0	 6.666714722864757e-002	 6.800020000011601e+000	 9.723369483339011e+000
0	 6.666714722864756e-002	 6.866680000008067e+000	 9.731674426237186e+000
0	 6.666714722864757e-002	 6.933340000004135e+000	 9.740453818275045e+000
0	 6.666714722864757e-002	 7.000000000000002e+000	 9.749671349684631e+000
0	 6.666714722864758e-002	 7.066659999995868e+000	 9.759290710698009e+000
0	 6.666714722864756e-002	 7.133319999991934e+000	 9.769275591547251e+000
0	 6.666714722864757e-002	 7.199979999988400e+000	 9.779589682464380e+000
0	 6.666714722864754e-002	 7.266639999985467e+000	 9.790196673681487e+000
0	 6.666714722864756e-002	 7.333299999983333e+000	 9.801060255430583e+000
0	 1.333351778131789e-001	 6.666700000016666e+000	 9.709407537631831e+000
0	 1.333351778131789e-001	 6.733360000014533e+000	 9.716561882483440e+000
0	 1.333351778131789e-001	 6.800020000011598e+000	 9.724249389162454e+000
0	 1.333351778131789e-001	 6.866680000008065e+000	 9.732439909942386e+000
0	 1.333351778131789e-001	 6.933340000004130e+000	 9.741103297096725e+000
0	 1.333351778131789e-001	 7.000000000000000e+000	 9.750209402898975e+000
0	 1.333351778131789e-001	 7.066659999995866e+000	 9.759728079622628e+000
0	 1.333351778131790e-001	 7.133319999991935e+000	 9.769629179541179e+000
0	 1.333351778131790e-001	 7.199979999988401e+000	 9.779882554928093e+000
0	 1.333351778131790e-001	 7.266639999985467e+000	 9.790458058056862e+000
0	 1.333351778131789e-001	 7.333299999983334e+000	 9.801325541200955e+000
0	 2.000039750814772e-001	 6.666700000016666e+000	 9.710670994316548e+000
0	 2.000039750814772e-001	 6.733360000014534e+000	 9.717836818125281e+000
0	 2.000039750814773e-001	 6.800020000011600e+000	 9.725504210427832e+000
0	 2.000039750814773e-001	 6.866680000008068e+000	 9.733649222453014e+000
0	 2.000039750814772e-001	 6.933340000004133e+000	 9.742247905429611e+000
0	 2.000039750814773e-001	 7.000000000000001e+000	 9.751276310586418e+000
0	 2.000039750814772e-001	 7.066659999995867e+000	 9.760710489152221e+000
0	 2.000039750814772e-001	 7.133319999991936e+000	 9.770526492355803e+000
0	 2.000039750814773e-001	 7.199979999988401e+000	 9.780700371425928e+000
0	 2.000039750814773e-001	 7.266639999985467e+000	 9.791208177591390e+000
0	 2.000039750814772e-001	 7.333299999983335e+000	 9.802025962080915e+000
0	 2.666734223614256e-001	 6.666700000016667e+000	 9.712163168001442e+000
0	 2.666734223614254e-001	 6.733360000014532e+000	 9.719425733598678e+000
0	 2.666734223614255e-001	 6.800020000011598e+000	 9.727143214883434e+000
0	 2.666734223614255e-001	 6.866680000008067e+000	 9.735297898985021e+000
0	 2.666734223614256e-001	 6.933340000004135e+000	 9.743872073032760e+000
0	 2.666734223614256e-001	 6.999999999999999e+000	 9.752848024155963e+000
0	 2.666734223614256e-001	 7.066659999995866e+000	 9.762208039483930e+000
0	 2.666734223614255e-001	 7.133319999991935e+000	 9.771934406145967e+000
0	 2.666734223614256e-001	 7.199979999988401e+000	 9.782009411271377e+000
0	 2.666734223614256e-001	 7.266639999985467e+000	 9.792415341989448e+000
0	 2.666734223614256e-001	 7.333299999983333e+000	 9.803134485429473e+000
0	 3.333434029809068e-001	 6.666700000016665e+000	 9.713928669699779e+000
0	 3.333434029809069e-001	 6.733360000014531e+000	 9.721354253434384e+000
0	 3.333434029809069e-001	 6.800020000011599e+000	 9.729175667584899e+000
0	 3.333434029809070e-001	 6.866680000008065e+000	 9.737381472158166e+000
0	 3.333434029809069e-001	 6.933340000004132e+000	 9.745960227161012e+000
0	 3.333434029809070e-001	 7.000000000000001e+000	 9.754900492600243e+000
0	 3.333434029809069e-001	 7.066659999995866e+000	 9.764190828482663e+000
0	 3.333434029809069e-001	 7.133319999991934e+000	 9.773819794815104e+000
0	 3.333434029809069e-001	 7.199979999988399e+000	 9.783775951604348e+000
0	 3.333434029809069e-001	 7.266639999985466e+000	 9.794047858857201e+000
0	 3.333434029809069e-001	 7.333299999983336e+000	 9.804624076580467e+000
0	 4.000138002678044e-001	 6.666700000016665e+000	 9.716012107524392e+000
0	 4.000138002678042e-001	 6.733360000014530e+000	 9.723647999369273e+000
0	 4.000138002678044e-001	 6.800020000011601e+000	 9.731610830895406e+000
0	 4.000138002678043e-001	 6.866680000008066e+000	 9.739895471996226e+000
0	 4.000138002678043e-001	 6.933340000004133e+000	 9.748496792565190e+000
0	 4.000138002678044e-001	 7.000000000000001e+000	 9.757409662495734e+000
0	 4.000138002678044e-001	 7.066659999995867e+000	 9.766628951681311e+000
0	 4.000138002678044e-001	 7.133319999991936e+000	 9.776149530015353e+000
0	 4.000138002678044e-001	 7.199979999988400e+000	 9.785966267391315e+000
0	 4.000138002678045e-001	 7.266639999985468e+000	 9.796074033702611e+000
0	 4.000138002678045e-001	 7.333299999983335e+000	 9.806467698842679e+000
0	 4.666844975500011e-001	 6.666700000016666e+000	 9.718458086687695e+000
0	 4.666844975500012e-001	 6.733360000014534e+000	 9.726332590346557e+000
0	 4.666844975500012e-001	 6.800020000011600e+000	 9.734457964485753e+000
0	 4.666844975500010e-001	 6.866680000008067e+000	 9.742835425927032e+000
0	 4.666844975500011e-001	 6.933340000004133e+000	 9.751466191492142e+000
0	 4.666844975500011e-001	 6.999999999999999e+000	 9.760351478002804e+000
0	 4.666844975500011e-001	 7.066659999995867e+000	 9.769492502280750e+000
0	 4.666844975500011e-001	 7.133319999991935e+000	 9.778890481147712e+000
0	 4.666844975500012e-001	 7.199979999988400e+000	 9.788546631425403e+000
0	 4.666844975500012e-001	 7.266639999985467e+000	 9.798462169935574e+000
0	 4.666844975500011e-001	 7.333299999983333e+000	 9.808638313499907e+000
0	 5.333553781553803e-001	 6.666700000016667e+000	 9.721311209501835e+000
0	 5.333553781553803e-001	 6.733360000014532e+000	 9.729433642515680e+000
0	 5.333553781553803e-001	 6.800020000011601e+000	 9.737726325334400e+000
0	 5.333553781553803e-001	 6.866680000008066e+000	 9.746196858782589e+000
0	 5.333553781553803e-001	 6.933340000004135e+000	 9.754852843684851e+000
0	 5.333553781553803e-001	 7.000000000000000e+000	 9.763701880865771e+000
0	 5.333553781553803e-001	 7.066659999995868e+000	 9.772751571149943e+000
0	 5.333553781553803e-001	 7.133319999991937e+000	 9.782009515361960e+000
0	 5.333553781553803e-001	 7.199979999988400e+000	 9.791483314326390e+000
0	 5.333553781553804e-001	 7.266639999985468e+000	 9.801180568867860e+000
0	 5.333553781553803e-001	 7.333299999983335e+000	 9.811108879810918e+000
0	 6.000263254118246e-001	 6.666700000016665e+000	 9.724616075378593e+000
0	 6.000263254118248e-001	 6.733360000014534e+000	 9.732976769232469e+000
0	 6.000263254118247e-001	 6.800020000011600e+000	 9.741425167727487e+000
0	 6.000263254118248e-001	 6.866680000008067e+000	 9.749975292799016e+000
0	 6.000263254118249e-001	 6.933340000004134e+000	 9.758641166382352e+000
0	 6.000263254118247e-001	 7.000000000000000e+000	 9.767436810412853e+000
0	 6.000263254118249e-001	 7.066659999995869e+000	 9.776376246825853e+000
0	 6.000263254118248e-001	 7.133319999991934e+000	 9.785473497556680e+000
0	 6.000263254118248e-001	 7.199979999988401e+000	 9.794742584540664e+000
0	 6.000263254118248e-001	 7.266639999985467e+000	 9.804197529713127e+000
0	 6.000263254118248e-001	 7.333299999983334e+000	 9.813852355009423e+000
0	 6.666972226472178e-001	 6.666700000016667e+000	 9.728417280829268e+000
0	 6.666972226472175e-001	 6.733360000014532e+000	 9.736987581058859e+000
0	 6.666972226472177e-001	 6.800020000011597e+000	 9.745563743258678e+000
0	 6.666972226472177e-001	 6.866680000008066e+000	 9.754166247616391e+000
0	 6.666972226472177e-001	 6.933340000004131e+000	 9.762815574319635e+000
0	 6.666972226472175e-001	 6.999999999999999e+000	 9.771532203556085e+000
0	 6.666972226472178e-001	 7.066659999995868e+000	 9.780336615513374e+000
0	 6.666972226472177e-001	 7.133319999991935e+000	 9.789249290379138e+000
0	 6.666972226472177e-001	 7.199979999988400e+000	 9.798290708341069e+000
0	 6.666972226472175e-001	 7.266639999985466e+000	 9.807481349586796e+000
0	 6.666972226472177e-001	 7.333299999983333e+000	 9.816841694303971e+000
0	 0.000000000000000e+000	 7.333299999983335e+000	 9.801257135385459e+000
0	 0.000000000000000e+000	 7.399969999982150e+000	 9.811863370341337e+000
0	 0.000000000000000e+000	 7.466639999981865e+000	 9.821919840169894e+000
0	 0.000000000000000e+000	 7.533309999982385e+000	 9.831451699498539e+000
0	 0.000000000000000e+000	 7.599979999983599e+000	 9.840484102954713e+000
0	 0.000000000000000e+000	 7.666649999985417e+000	 9.849042205165866e+000
0	 0.000000000000000e+000	 7.733319999987733e+000	 9.857151160759422e+000
0	 0.000000000000000e+000	 7.799989999990449e+000	 9.864836124362778e+000
0	 0.000000000000000e+000	 7.866659999993465e+000	 9.872122250603404e+000
0	 0.000000000000000e+000	 7.933329999996683e+000	 9.879034694108652e+000
0	 0.000000000000000e+000	 8.000000000000000e+000	 9.885598609505975e+000
0	 6.666714722864756e-002	 7.333299999983333e+000	 9.801060255430581e+000
0	 6.666714722864756e-002	 7.399969999982149e+000	 9.811757983775255e+000
0	 6.666714722864756e-002	 7.466639999981865e+000	 9.821903106097652e+000
0	 6.666714722864757e-002	 7.533309999982386e+000	 9.831517791000108e+000
0	 6.666714722864754e-002	 7.599979999983599e+000	 9.840624207084913e+000
0	 6.666714722864756e-002	 7.666649999985415e+000	 9.849244522954345e+000
0	 6.666714722864756e-002	 7.733319999987732e+000	 9.857400907210710e+000
0	 6.666714722864756e-002	 7.799989999990451e+000	 9.865115528456272e+000
0	 6.666714722864756e-002	 7.866659999993467e+000	 9.872410555293303e+000
0	 6.666714722864756e-002	 7.933329999996682e+000	 9.879308156324100e+000
0	 6.666714722864756e-002	 8.000000000000002e+000	 9.885830500150917e+000
0	 1.333351778131789e-001	 7.333299999983334e+000	 9.801325541200955e+000
0	 1.333351778131789e-001	 7.399969999982150e+000	 9.812050111805796e+000
0	 1.333351778131789e-001	 7.466639999981865e+000	 9.822226440584334e+000
0	 1.333351778131789e-001	 7.533309999982381e+000	 9.831873676747319e+000
0	 1.333351778131789e-001	 7.599979999983598e+000	 9.841010969505524e+000
0	 1.333351778131790e-001	 7.666649999985415e+000	 9.849657468069665e+000
0	 1.333351778131789e-001	 7.733319999987733e+000	 9.857832321650484e+000
0	 1.333351778131789e-001	 7.799989999990448e+000	 9.865554679458759e+000
0	 1.333351778131790e-001	 7.866659999993467e+000	 9.872843690705166e+000
0	 1.333351778131789e-001	 7.933329999996682e+000	 9.879718504600458e+000
0	 1.333351778131789e-001	 7.999999999999999e+000	 9.886198270355360e+000
0	 2.000039750814772e-001	 7.333299999983335e+000	 9.802025962080913e+000
0	 2.000039750814772e-001	 7.399969999982151e+000	 9.812718377687618e+000
0	 2.000039750814772e-001	 7.466639999981868e+000	 9.822873484244642e+000
0	 2.000039750814773e-001	 7.533309999982383e+000	 9.832507378190183e+000
0	 2.000039750814772e-001	 7.599979999983599e+000	 9.841636155962403e+000
0	 2.000039750814773e-001	 7.666649999985417e+000	 9.850275913999523e+000
0	 2.000039750814772e-001	 7.733319999987731e+000	 9.858442748739689e+000
0	 2.000039750814773e-001	 7.799989999990449e+000	 9.866152756621078e+000
0	 2.000039750814772e-001	 7.866659999993469e+000	 9.873422034081861e+000
0	 2.000039750814773e-001	 7.933329999996684e+000	 9.880266677560174e+000
0	 2.000039750814773e-001	 8.000000000000002e+000	 9.886702783494195e+000
0	 2.666734223614256e-001	 7.333299999983333e+000	 9.803134485429471e+000
0	 2.666734223614255e-001	 7.399969999982150e+000	 9.813741402721206e+000
0	 2.666734223614256e-001	 7.466639999981866e+000	 9.823827875808245e+000
0	 2.666734223614256e-001	 7.533309999982385e+000	 9.833406914960191e+000
0	 2.666734223614256e-001	 7.599979999983598e+000	 9.842491530446722e+000
0	 2.666734223614256e-001	 7.666649999985416e+000	 9.851094732537423e+000
0	 2.666734223614254e-001	 7.733319999987733e+000	 9.859229531501965e+000
0	 2.666734223614254e-001	 7.799989999990450e+000	 9.866908937609932e+000
0	 2.666734223614256e-001	 7.866659999993468e+000	 9.874145961130981e+000
0	 2.666734223614256e-001	 7.933329999996682e+000	 9.880953612334666e+000
0	 2.666734223614255e-001	 8.000000000000002e+000	 9.887344901490641e+000
0	 3.333434029809069e-001	 7.333299999983336e+000	 9.804624076580467e+000
0	 3.333434029809069e-001	 7.399969999982151e+000	 9.815097806253140e+000
0	 3.333434029809069e-001	 7.466639999981866e+000	 9.825073252119910e+000
0	 3.333434029809069e-001	 7.533309999982384e+000	 9.834560304870594e+000
0	 3.333434029809068e-001	 7.599979999983598e+000	 9.843568855194945e+000
0	 3.333434029809069e-001	 7.666649999985418e+000	 9.852108793782787e+000
0	 3.333434029809070e-001	 7.733319999987734e+000	 9.860190011323883e+000
0	 3.333434029809068e-001	 7.799989999990449e+000	 9.867822398508018e+000
0	 3.333434029809069e-001	 7.866659999993466e+000	 9.875015846024956e+000
0	 3.333434029809069e-001	 7.933329999996684e+000	 9.881780244564469e+000
0	 3.333434029809069e-001	 7.999999999999999e+000	 9.888125484816316e+000
0	 4.000138002678045e-001	 7.333299999983335e+000	 9.806467698842678e+000
0	 4.000138002678045e-001	 7.399969999982150e+000	 9.816766205676077e+000
0	 4.000138002678043e-001	 7.466639999981865e+000	 9.826593248139602e+000
0	 4.000138002678043e-001	 7.533309999982381e+000	 9.835955563916272e+000
0	 4.000138002678045e-001	 7.599979999983600e+000	 9.844859890689074e+000
0	 4.000138002678044e-001	 7.666649999985416e+000	 9.853312966140983e+000
0	 4.000138002678044e-001	 7.733319999987733e+000	 9.861321527954992e+000
0	 4.000138002678045e-001	 7.799989999990448e+000	 9.868892313814060e+000
0	 4.000138002678043e-001	 7.866659999993465e+000	 9.876032061401158e+000
0	 4.000138002678044e-001	 7.933329999996683e+000	 9.882747508399254e+000
0	 4.000138002678044e-001	 8.000000000000000e+000	 9.889045392491298e+000
0	 4.666844975500011e-001	 7.333299999983333e+000	 9.808638313499907e+000
0	 4.666844975500010e-001	 7.399969999982147e+000	 9.818725216428875e+000
0	 4.666844975500011e-001	 7.466639999981866e+000	 9.828371496942499e+000
0	 4.666844975500012e-001	 7.533309999982382e+000	 9.837580706274007e+000
0	 4.666844975500011e-001	 7.599979999983599e+000	 9.846356395656587e+000
0	 4.666844975500012e-001	 7.666649999985417e+000	 9.854702116323473e+000
0	 4.666844975500011e-001	 7.733319999987733e+000	 9.862621419507857e+000
0	 4.666844975500011e-001	 7.799989999990450e+000	 9.870117856442947e+000
0	 4.666844975500012e-001	 7.866659999993467e+000	 9.877194978361924e+000
0	 4.666844975500010e-001	 7.933329999996682e+000	 9.883856336497974e+000
0	 4.666844975500011e-001	 8.000000000000000e+000	 9.890105482084286e+000
0	 5.333553781553803e-001	 7.333299999983335e+000	 9.811108879810918e+000
0	 5.333553781553803e-001	 7.399969999982151e+000	 9.820953451996600e+000
0	 5.333553781553801e-001	 7.466639999981864e+000	 9.830391629719014e+000
0	 5.333553781553801e-001	 7.533309999982384e+000	 9.839423744302284e+000
0	 5.333553781553800e-001	 7.599979999983598e+000	 9.848050127070490e+000
0	 5.333553781553803e-001	 7.666649999985416e+000	 9.856271109347734e+000
0	 5.333553781553801e-001	 7.733319999987733e+000	 9.864087022458115e+000
0	 5.333553781553804e-001	 7.799989999990451e+000	 9.871498197725691e+000
0	 5.333553781553801e-001	 7.866659999993466e+000	 9.878504966474580e+000
0	 5.333553781553803e-001	 7.933329999996682e+000	 9.885107660028821e+000
0	 5.333553781553804e-001	 8.000000000000000e+000	 9.891306609712492e+000
0	 6.000263254118248e-001	 7.333299999983334e+000	 9.813852355009423e+000
0	 6.000263254118247e-001	 7.399969999982150e+000	 9.823429523910408e+000
0	 6.000263254118246e-001	 7.466639999981863e+000	 9.832637275774745e+000
0	 6.000263254118246e-001	 7.533309999982382e+000	 9.841472688541371e+000
0	 6.000263254118248e-001	 7.599979999983600e+000	 9.849932840149240e+000
0	 6.000263254118248e-001	 7.666649999985419e+000	 9.858014808537257e+000
0	 6.000263254118248e-001	 7.733319999987734e+000	 9.865715671644338e+000
0	 6.000263254118248e-001	 7.799989999990450e+000	 9.873032507409405e+000
0	 6.000263254118247e-001	 7.866659999993466e+000	 9.879962393771379e+000
0	 6.000263254118247e-001	 7.933329999996684e+000	 9.886502408669164e+000
0	 6.000263254118246e-001	 7.999999999999999e+000	 9.892649630041666e+000
0	 6.666972226472177e-001	 7.333299999983333e+000	 9.816841694303969e+000
0	 6.666972226472178e-001	 7.399969999982152e+000	 9.826132041747492e+000
0	 6.666972226472177e-001	 7.466639999981865e+000	 9.835092062530350e+000
0	 6.666972226472175e-001	 7.533309999982382e+000	 9.843715547713192e+000
0	 6.666972226472175e-001	 7.599979999983599e+000	 9.851996288356668e+000
0	 6.666972226472177e-001	 7.666649999985417e+000	 9.859928075521403e+000
0	 6.666972226472175e-001	 7.733319999987731e+000	 9.867504700268041e+000
0	 6.666972226472177e-001	 7.799989999990449e+000	 9.874719953657206e+000
0	 6.666972226472177e-001	 7.866659999993466e+000	 9.881567626749503e+000
0	 6.666972226472177e-001	 7.933329999996682e+000	 9.888041510605580e+000
0	 6.666972226472177e-001	 8.000000000000000e+000	 9.894135396286043e+000
0	 0.000000000000000e+000	 8.000000000000000e+000	 9.885598609505975e+000
0	 0.000000000000000e+000	 8.066670000003317e+000	 9.891958119276758e+000
0	 0.000000000000000e+000	 8.133340000006534e+000	 9.898235458807145e+000
0	 0.000000000000000e+000	 8.200010000009550e+000	 9.904422952081745e+000
0	 0.000000000000000e+000	 8.266680000012267e+000	 9.910512923085161e+000
0	 0.000000000000000e+000	 8.333350000014583e+000	 9.916497695801953e+000
0	 0.000000000000000e+000	 8.400020000016401e+000	 9.922369594216713e+000
0	 0.000000000000000e+000	 8.466690000017616e+000	 9.928120942314020e+000
0	 0.000000000000000e+000	 8.533360000018133e+000	 9.933744064078438e+000
0	 0.000000000000000e+000	 8.600030000017851e+000	 9.939231283494586e+000
0	 0.000000000000000e+000	 8.666700000016666e+000	 9.944574924546970e+000
0	 6.666714722864756e-002	 8.000000000000002e+000	 9.885830500150917e+000
0	 6.666714722864753e-002	 8.066670000003313e+000	 9.892135080677553e+000
0	 6.666714722864754e-002	 8.133340000006532e+000	 9.898360377541900e+000
0	 6.666714722864756e-002	 8.200010000009552e+000	 9.904500037947374e+000
0	 6.666714722864754e-002	 8.266680000012265e+000	 9.910547709097399e+000
0	 6.666714722864756e-002	 8.333350000014582e+000	 9.916497038195393e+000
0	 6.666714722864754e-002	 8.400020000016403e+000	 9.922341672444741e+000
0	 6.666714722864756e-002	 8.466690000017618e+000	 9.928075259048848e+000
0	 6.666714722864754e-002	 8.533360000018135e+000	 9.933691445211116e+000
0	 6.666714722864757e-002	 8.600030000017849e+000	 9.939183878134976e+000
0	 6.666714722864757e-002	 8.666700000016668e+000	 9.944546205023803e+000
0	 1.333351778131789e-001	 7.999999999999999e+000	 9.886198270355360e+000
0	 1.333351778131789e-001	 8.066670000003317e+000	 9.892449648973990e+000
0	 1.333351778131790e-001	 8.133340000006534e+000	 9.898623210683137e+000
0	 1.333351778131789e-001	 8.200010000009552e+000	 9.904713968527473e+000
0	 1.333351778131789e-001	 8.266680000012270e+000	 9.910716935551674e+000
0	 1.333351778131790e-001	 8.333350000014583e+000	 9.916627124800392e+000
0	 1.333351778131789e-001	 8.400020000016401e+000	 9.922439549318307e+000
0	 1.333351778131789e-001	 8.466690000017618e+000	 9.928149222150086e+000
0	 1.333351778131790e-001	 8.533360000018133e+000	 9.933751156340348e+000
0	 1.333351778131789e-001	 8.600030000017851e+000	 9.939240364933804e+000
0	 1.333351778131789e-001	 8.666700000016666e+000	 9.944611860975074e+000
0	 2.000039750814773e-001	 8.000000000000002e+000	 9.886702783494195e+000
0	 2.000039750814773e-001	 8.066670000003317e+000	 9.892902296293203e+000
0	 2.000039750814772e-001	 8.133340000006530e+000	 9.899024043750409e+000
0	 2.000039750814773e-001	 8.200010000009552e+000	 9.905064447379710e+000
0	 2.000039750814772e-001	 8.266680000012267e+000	 9.911019928695101e+000
0	 2.000039750814772e-001	 8.333350000014583e+000	 9.916886909210477e+000
0	 2.000039750814772e-001	 8.400020000016403e+000	 9.922661810439799e+000
0	 2.000039750814772e-001	 8.466690000017618e+000	 9.928341053897009e+000
0	 2.000039750814772e-001	 8.533360000018135e+000	 9.933921061096028e+000
0	 2.000039750814772e-001	 8.600030000017851e+000	 9.939398253550797e+000
0	 2.000039750814772e-001	 8.666700000016666e+000	 9.944769052775252e+000
0	 2.666734223614255e-001	 8.000000000000002e+000	 9.887344901490641e+000
0	 2.666734223614255e-001	 8.066670000003315e+000	 9.893493493344844e+000
0	 2.666734223614256e-001	 8.133340000006532e+000	 9.899562960875022e+000
0	 2.666734223614255e-001	 8.200010000009550e+000	 9.905551176698465e+000
0	 2.666734223614256e-001	 8.266680000012267e+000	 9.911456013432417e+000
0	 2.666734223614256e-001	 8.333350000014582e+000	 9.917275343694175e+000
0	 2.666734223614255e-001	 8.400020000016399e+000	 9.923007040100998e+000
0	 2.666734223614256e-001	 8.466690000017618e+000	 9.928648975270150e+000
0	 2.666734223614255e-001	 8.533360000018133e+000	 9.934199021818904e+000
0	 2.666734223614256e-001	 8.600030000017849e+000	 9.939655052364513e+000
0	 2.666734223614255e-001	 8.666700000016668e+000	 9.945014939524230e+000
0	 3.333434029809069e-001	 7.999999999999999e+000	 9.888125484816316e+000
0	 3.333434029809069e-001	 8.066670000003319e+000	 9.894223709421045e+000
0	 3.333434029809068e-001	 8.133340000006532e+000	 9.900240044800174e+000
0	 3.333434029809069e-001	 8.200010000009549e+000	 9.906173857314814e+000
0	 3.333434029809069e-001	 8.266680000012267e+000	 9.912024513326147e+000
0	 3.333434029809069e-001	 8.333350000014582e+000	 9.917791379195263e+000
0	 3.333434029809069e-001	 8.400020000016399e+000	 9.923473821283315e+000
0	 3.333434029809068e-001	 8.466690000017618e+000	 9.929071205951434e+000
0	 3.333434029809069e-001	 8.533360000018137e+000	 9.934582899560754e+000
0	 3.333434029809070e-001	 8.600030000017853e+000	 9.940008268472397e+000
0	 3.333434029809069e-001	 8.666700000016665e+000	 9.945346679047487e+000
0	 4.000138002678044e-001	 8.000000000000000e+000	 9.889045392491298e+000
0	 4.000138002678044e-001	 8.066670000003317e+000	 9.895093412396662e+000
0	 4.000138002678044e-001	 8.133340000006534e+000	 9.901055376880999e+000
0	 4.000138002678044e-001	 8.200010000009550e+000	 9.906932188696825e+000
0	 4.000138002678043e-001	 8.266680000012268e+000	 9.912724750596579e+000
0	 4.000138002678044e-001	 8.333350000014585e+000	 9.918433965332760e+000
0	 4.000138002678044e-001	 8.400020000016399e+000	 9.924060735657823e+000
0	 4.000138002678044e-001	 8.466690000017620e+000	 9.929605964324225e+000
0	 4.000138002678044e-001	 8.533360000018133e+000	 9.935070554084447e+000
0	 4.000138002678044e-001	 8.600030000017851e+000	 9.940455407690930e+000
0	 4.000138002678044e-001	 8.666700000016668e+000	 9.945761427896157e+000
0	 4.666844975500011e-001	 8.000000000000000e+000	 9.890105482084286e+000
0	 4.666844975500010e-001	 8.066670000003317e+000	 9.896103068729191e+000
0	 4.666844975500012e-001	 8.133340000006536e+000	 9.902009037084664e+000
0	 4.666844975500012e-001	 8.200010000009552e+000	 9.907825868949360e+000
0	 4.666844975500011e-001	 8.266680000012268e+000	 9.913556046121940e+000
0	 4.666844975500012e-001	 8.333350000014585e+000	 9.919202050401031e+000
0	 4.666844975500011e-001	 8.400020000016399e+000	 9.924766363585311e+000
0	 4.666844975500011e-001	 8.466690000017618e+000	 9.930251467473415e+000
0	 4.666844975500011e-001	 8.533360000018133e+000	 9.935659843863972e+000
0	 4.666844975500012e-001	 8.600030000017851e+000	 9.940993974555639e+000
0	 4.666844975500011e-001	 8.666700000016665e+000	 9.946256341347047e+000
0	 5.333553781553804e-001	 8.000000000000000e+000	 9.891306609712492e+000
0	 5.333553781553803e-001	 8.066670000003319e+000	 9.897253143458917e+000
0	 5.333553781553803e-001	 8.133340000006536e+000	 9.903101103990338e+000
0	 5.333553781553803e-001	 8.200010000009550e+000	 9.908854594814283e+000
0	 5.333553781553801e-001	 8.266680000012268e+000	 9.914517719438271e+000
0	 5.333553781553803e-001	 8.333350000014585e+000	 9.920094581369780e+000
0	 5.333553781553801e-001	 8.400020000016399e+000	 9.925589284116303e+000
0	 5.333553781553804e-001	 8.466690000017620e+000	 9.931005931185370e+000
0	 5.333553781553804e-001	 8.533360000018135e+000	 9.936348626084458e+000
0	 5.333553781553803e-001	 8.600030000017849e+000	 9.941621472321049e+000
0	 5.333553781553803e-001	 8.666700000016666e+000	 9.946828573402659e+000
0	 6.000263254118246e-001	 7.999999999999999e+000	 9.892649630041666e+000
0	 6.000263254118246e-001	 8.066670000003315e+000	 9.898544100208730e+000
0	 6.000263254118248e-001	 8.133340000006534e+000	 9.904331654789196e+000
0	 6.000263254118248e-001	 8.200010000009550e+000	 9.910018061670359e+000
0	 6.000263254118248e-001	 8.266680000012267e+000	 9.915609088739529e+000
0	 6.000263254118248e-001	 8.333350000014583e+000	 9.921110503883982e+000
0	 6.000263254118248e-001	 8.400020000016401e+000	 9.926528074991040e+000
0	 6.000263254118249e-001	 8.466690000017620e+000	 9.931867569947993e+000
0	 6.000263254118248e-001	 8.533360000018135e+000	 9.937134756642140e+000
0	 6.000263254118247e-001	 8.600030000017849e+000	 9.942335402960755e+000
0	 6.000263254118247e-001	 8.666700000016668e+000	 9.947475276791147e+000
0	 6.666972226472177e-001	 8.000000000000000e+000	 9.894135396286043e+000
0	 6.666972226472178e-001	 8.066670000003317e+000	 9.899976401184242e+000
0	 6.666972226472177e-001	 8.133340000006532e+000	 9.905700765284369e+000
0	 6.666972226472175e-001	 8.200010000009550e+000	 9.911315963533173e+000
0	 6.666972226472178e-001	 8.266680000012267e+000	 9.916829470877428e+000
0	 6.666972226472177e-001	 8.333350000014583e+000	 9.922248762263909e+000
0	 6.666972226472177e-001	 8.400020000016401e+000	 9.927581312639376e+000
0	 6.666972226472177e-001	 8.466690000017616e+000	 9.932834596950592e+000
0	 6.666972226472173e-001	 8.533360000018133e+000	 9.938016090144309e+000
0	 6.666972226472178e-001	 8.600030000017851e+000	 9.943133267167292e+000
0	 6.666972226472177e-001	 8.666700000016666e+000	 9.948193602966295e+000
0	 0.000000000000000e+000	 8.666700000016666e+000	 9.944574924546968e+000
0	 0.000000000000000e+000	 8.733360002791903e+000	 9.949696592864724e+000
0	 0.000000000000000e+000	 8.800020022230555e+000	 9.954534246690074e+000
0	 0.000000000000000e+000	 8.866680074997042e+000	 9.959102368387818e+000
0	 0.000000000000000e+000	 8.933340177755779e+000	 9.963415441021182e+000
0	 0.000000000000000e+000	 9.000000347171183e+000	 9.967487948351710e+000
0	 0.000000000000000e+000	 9.066660599907667e+000	 9.971334374839403e+000
0	 0.000000000000000e+000	 9.133320952629655e+000	 9.974969205642612e+000
0	 0.000000000000000e+000	 9.199981422001557e+000	 9.978406926618103e+000
0	 0.000000000000000e+000	 9.266642024687796e+000	 9.981662024320936e+000
0	 0.000000000000000e+000	 9.333302777352781e+000	 9.984748986004595e+000
0	 6.666714722864757e-002	 8.666700000016668e+000	 9.944546205023803e+000
0	 6.666714722864754e-002	 8.733360002791905e+000	 9.949692466379803e+000
0	 6.666714722864758e-002	 8.800020022230559e+000	 9.954551833686580e+000
0	 6.666714722864754e-002	 8.866680074997040e+000	 9.959138268448939e+000
0	 6.666714722864758e-002	 8.933340177755779e+000	 9.963465732879147e+000
0	 6.666714722864756e-002	 9.000000347171183e+000	 9.967548189896869e+000
0	 6.666714722864757e-002	 9.066660599907671e+000	 9.971399603129324e+000
0	 6.666714722864756e-002	 9.133320952629656e+000	 9.975033936911043e+000
0	 6.666714722864754e-002	 9.199981422001560e+000	 9.978465156284026e+000
0	 6.666714722864754e-002	 9.266642024687792e+000	 9.981707226997695e+000
0	 6.666714722864757e-002	 9.333302777352785e+000	 9.984774115508776e+000
0	 1.333351778131789e-001	 8.666700000016666e+000	 9.944611860975074e+000
0	 1.333351778131789e-001	 8.733360002791903e+000	 9.949773063363681e+000
0	 1.333351778131789e-001	 8.800020022230553e+000	 9.954645233139964e+000
0	 1.333351778131790e-001	 8.866680074997039e+000	 9.959241757275770e+000
0	 1.333351778131790e-001	 8.933340177755779e+000	 9.963576023458206e+000
0	 1.333351778131789e-001	 9.000000347171183e+000	 9.967661420089479e+000
0	 1.333351778131789e-001	 9.066660599907666e+000	 9.971511336287033e+000
0	 1.333351778131790e-001	 9.133320952629656e+000	 9.975139161883440e+000
0	 1.333351778131790e-001	 9.199981422001562e+000	 9.978558287426466e+000
0	 1.333351778131789e-001	 9.266642024687798e+000	 9.981782104178929e+000
0	 1.333351778131789e-001	 9.333302777352783e+000	 9.984824004118860e+000
0	 2.000039750814772e-001	 8.666700000016666e+000	 9.944769052775252e+000
0	 2.000039750814772e-001	 8.733360002791903e+000	 9.949935246943005e+000
0	 2.000039750814773e-001	 8.800020022230557e+000	 9.954811110210867e+000
0	 2.000039750814772e-001	 8.866680074997040e+000	 9.959409401343832e+000
0	 2.000039750814773e-001	 8.933340177755779e+000	 9.963742879828368e+000
0	 2.000039750814773e-001	 9.000000347171184e+000	 9.967824305872354e+000
0	 2.000039750814772e-001	 9.066660599907669e+000	 9.971666440405169e+000
0	 2.000039750814772e-001	 9.133320952629655e+000	 9.975282045077632e+000
0	 2.000039750814773e-001	 9.199981422001558e+000	 9.978683882261967e+000
0	 2.000039750814773e-001	 9.266642024687794e+000	 9.981884715051830e+000
0	 2.000039750814772e-001	 9.333302777352783e+000	 9.984897307262278e+000
0	 2.666734223614255e-001	 8.666700000016668e+000	 9.945014939524231e+000
0	 2.666734223614254e-001	 8.733360002791899e+000	 9.950175878975561e+000
0	 2.666734223614256e-001	 8.800020022230552e+000	 9.955046128795406e+000
0	 2.666734223614256e-001	 8.866680074997042e+000	 9.959637765866338e+000
0	 2.666734223614254e-001	 8.933340177755778e+000	 9.963962867797109e+000
0	 2.666734223614256e-001	 9.000000347171181e+000	 9.968033512922604e+000
0	 2.666734223614255e-001	 9.066660599907669e+000	 9.971861780303778e+000
0	 2.666734223614256e-001	 9.133320952629655e+000	 9.975459749727735e+000
0	 2.666734223614255e-001	 9.199981422001558e+000	 9.978839501707659e+000
0	 2.666734223614255e-001	 9.266642024687796e+000	 9.982013117482889e+000
0	 2.666734223614256e-001	 9.333302777352781e+000	 9.984992679018729e+000
0	 3.333434029809069e-001	 8.666700000016665e+000	 9.945346679047487e+000
0	 3.333434029809069e-001	 8.733360002791903e+000	 9.950491820050367e+000
0	 3.333434029809068e-001	 8.800020022230553e+000	 9.955346951525122e+000
0	 3.333434029809069e-001	 8.866680074997040e+000	 9.959923414794352e+000
0	 3.333434029809069e-001	 8.933340177755776e+000	 9.964232551909682e+000
0	 3.333434029809069e-001	 9.000000347171179e+000	 9.968285705651809e+000
0	 3.333434029809069e-001	 9.066660599907667e+000	 9.972094219530428e+000
0	 3.333434029809069e-001	 9.133320952629655e+000	 9.975669437784303e+000
0	 3.333434029809070e-001	 9.199981422001560e+000	 9.979022705381222e+000
0	 3.333434029809070e-001	 9.266642024687798e+000	 9.982165368017935e+000
0	 3.333434029809070e-001	 9.333302777352783e+000	 9.985108772120192e+000
0	 4.000138002678044e-001	 8.666700000016668e+000	 9.945761427896157e+000
0	 4.000138002678044e-001	 8.733360002791903e+000	 9.950879929487757e+000
0	 4.000138002678044e-001	 8.800020022230557e+000	 9.955710239767228e+000
0	 4.000138002678045e-001	 8.866680074997040e+000	 9.960262910816844e+000
0	 4.000138002678044e-001	 8.933340177755779e+000	 9.964548495448955e+000
0	 4.000138002678045e-001	 9.000000347171184e+000	 9.968577547205944e+000
0	 4.000138002678045e-001	 9.066660599907666e+000	 9.972360620360284e+000
0	 4.000138002678044e-001	 9.133320952629656e+000	 9.975908269914445e+000
0	 4.000138002678044e-001	 9.199981422001560e+000	 9.979231051600964e+000
0	 4.000138002678044e-001	 9.266642024687798e+000	 9.982339521882325e+000
0	 4.000138002678044e-001	 9.333302777352781e+000	 9.985244237951111e+000
0	 4.666844975500011e-001	 8.666700000016665e+000	 9.946256341347047e+000
0	 4.666844975500012e-001	 8.733360002791903e+000	 9.951337065339402e+000
0	 4.666844975500012e-001	 8.800020022230561e+000	 9.956132653624493e+000
0	 4.666844975500012e-001	 8.866680074997040e+000	 9.960652815360742e+000
0	 4.666844975500011e-001	 8.933340177755778e+000	 9.964907260435631e+000
0	 4.666844975500011e-001	 9.000000347171181e+000	 9.968905699465608e+000
0	 4.666844975500010e-001	 9.066660599907666e+000	 9.972657843796156e+000
0	 4.666844975500012e-001	 9.133320952629656e+000	 9.976173405501749e+000
0	 4.666844975500011e-001	 9.199981422001558e+000	 9.979462097385863e+000
0	 4.666844975500012e-001	 9.266642024687798e+000	 9.982533632980930e+000
0	 4.666844975500012e-001	 9.333302777352783e+000	 9.985397726548312e+000
0	 5.333553781553803e-001	 8.666700000016666e+000	 9.946828573402659e+000
0	 5.333553781553801e-001	 8.733360002791901e+000	 9.951860084388327e+000
0	 5.333553781553801e-001	 8.800020022230555e+000	 9.956610851935325e+000
0	 5.333553781553801e-001	 8.866680074997039e+000	 9.961089688590946e+000
0	 5.333553781553801e-001	 8.933340177755778e+000	 9.965305407628176e+000
0	 5.333553781553800e-001	 9.000000347171181e+000	 9.969266823045821e+000
0	 5.333553781553803e-001	 9.066660599907667e+000	 9.972982749568459e+000
0	 5.333553781553803e-001	 9.133320952629656e+000	 9.976462002646395e+000
0	 5.333553781553803e-001	 9.199981422001560e+000	 9.979713398455669e+000
0	 5.333553781553804e-001	 9.266642024687796e+000	 9.982745753898090e+000
0	 5.333553781553800e-001	 9.333302777352779e+000	 9.985567886601132e+000
0	 6.000263254118247e-001	 8.666700000016668e+000	 9.947475276791147e+000
0	 6.000263254118248e-001	 8.733360002791901e+000	 9.952445842148853e+000
0	 6.000263254118248e-001	 8.800020022230557e+000	 9.957141492273754e+000
0	 6.000263254118247e-001	 8.866680074997042e+000	 9.961570089410227e+000
0	 6.000263254118247e-001	 8.933340177755779e+000	 9.965739496522799e+000
0	 6.000263254118249e-001	 9.000000347171184e+000	 9.969657577296179e+000
0	 6.000263254118247e-001	 9.066660599907667e+000	 9.973332196135253e+000
0	 6.000263254118247e-001	 9.133320952629656e+000	 9.976771218165059e+000
0	 6.000263254118248e-001	 9.199981422001558e+000	 9.979982509230775e+000
0	 6.000263254118248e-001	 9.266642024687798e+000	 9.982973935897711e+000
0	 6.000263254118248e-001	 9.333302777352785e+000	 9.985753365451329e+000
0	 6.666972226472177e-001	 8.666700000016666e+000	 9.948193602966295e+000
0	 6.666972226472175e-001	 8.733360002791901e+000	 9.953091192866589e+000
0	 6.666972226472177e-001	 8.800020022230555e+000	 9.957721230949307e+000
0	 6.666972226472177e-001	 8.866680074997042e+000	 9.962090575459282e+000
0	 6.666972226472178e-001	 8.933340177755779e+000	 9.966206085353404e+000
0	 6.666972226472177e-001	 9.000000347171181e+000	 9.970074620300663e+000
0	 6.666972226472178e-001	 9.066660599907667e+000	 9.973703040682123e+000
0	 6.666972226472175e-001	 9.133320952629656e+000	 9.977098207590895e+000
0	 6.666972226472179e-001	 9.199981422001560e+000	 9.980266982832166e+000
0	 6.666972226472177e-001	 9.266642024687796e+000	 9.983216228923121e+000
0	 6.666972226472177e-001	 9.333302777352785e+000	 9.985952809092996e+000
0	 0.000000000000000e+000	 9.333302777352781e+000	 9.984748986004599e+000
0	 0.000000000000000e+000	 9.399973674588175e+000	 9.987595488491518e+000
0	 0.000000000000000e+000	 9.466644621844621e+000	 9.990125446293646e+000
0	 0.000000000000000e+000	 9.533315502450000e+000	 9.992349052302519e+000
0	 0.000000000000000e+000	 9.599986199732198e+000	 9.994276492701937e+000
0	 0.000000000000000e+000	 9.666656597019093e+000	 9.995917946967413e+000
0	 0.000000000000000e+000	 9.733326577638575e+000	 9.997283587865471e+000
0	 0.000000000000000e+000	 9.799996024918523e+000	 9.998383581452687e+000
0	 0.000000000000000e+000	 9.866664822186824e+000	 9.999228087074529e+000
0	 0.000000000000000e+000	 9.933332852771354e+000	 9.999827257363867e+000
0	 0.000000000000000e+000	 1.000000000000000e+001	 1.000019123823998e+001
0	 6.666714722864757e-002	 9.333302777352785e+000	 9.984774115508778e+000
0	 6.666714722864754e-002	 9.399973674588171e+000	 9.987599243474280e+000
0	 6.666714722864756e-002	 9.466644621844621e+000	 9.990112680090185e+000
0	 6.666714722864756e-002	 9.533315502450000e+000	 9.992324701584803e+000
0	 6.666714722864756e-002	 9.599986199732193e+000	 9.994245577544948e+000
0	 6.666714722864758e-002	 9.666656597019101e+000	 9.995885570915446e+000
0	 6.666714722864757e-002	 9.733326577638577e+000	 9.997254937998276e+000
0	 6.666714722864757e-002	 9.799996024918523e+000	 9.998363928451649e+000
0	 6.666714722864756e-002	 9.866664822186820e+000	 9.999222785289007e+000
0	 6.666714722864757e-002	 9.933332852771352e+000	 9.999841744877491e+000
0	 6.666714722864756e-002	 1.000000000000000e+001	 1.000023103693670e+001
0	 1.333351778131789e-001	 9.333302777352783e+000	 9.984824004118858e+000
0	 1.333351778131789e-001	 9.399973674588175e+000	 9.987623225087603e+000
0	 1.333351778131789e-001	 9.466644621844619e+000	 9.990116133937002e+000
0	 1.333351778131790e-001	 9.533315502450002e+000	 9.992313141840228e+000
0	 1.333351778131789e-001	 9.599986199732193e+000	 9.994224653406533e+000
0	 1.333351778131790e-001	 9.666656597019093e+000	 9.995861066680934e+000
0	 1.333351778131789e-001	 9.733326577638577e+000	 9.997232773143169e+000
0	 1.333351778131789e-001	 9.799996024918523e+000	 9.998350157707014e+000
0	 1.333351778131789e-001	 9.866664822186818e+000	 9.999223598719073e+000
0	 1.333351778131789e-001	 9.933332852771352e+000	 9.999863467957285e+000
0	 1.333351778131789e-001	 9.999999999999998e+000	 1.000028013062998e+001
0	 2.000039750814772e-001	 9.333302777352783e+000	 9.984897307262274e+000
0	 2.000039750814772e-001	 9.399973674588173e+000	 9.987666650638696e+000
0	 2.000039750814773e-001	 9.466644621844623e+000	 9.990135418839296e+000
0	 2.000039750814772e-001	 9.533315502449998e+000	 9.992314209590839e+000
0	 2.000039750814773e-001	 9.599986199732200e+000	 9.994213614143689e+000
0	 2.000039750814773e-001	 9.666656597019092e+000	 9.995844217271062e+000
0	 2.000039750814772e-001	 9.733326577638573e+000	 9.997216597268478e+000
0	 2.000039750814772e-001	 9.799996024918523e+000	 9.998341325952728e+000
0	 2.000039750814772e-001	 9.866664822186822e+000	 9.999228968660693e+000
0	 2.000039750814772e-001	 9.933332852771354e+000	 9.999890084248166e+000
0	 2.000039750814772e-001	 1.000000000000000e+001	 1.000033522508838e+001
0	 2.666734223614256e-001	 9.333302777352781e+000	 9.984992679018728e+000
0	 2.666734223614256e-001	 9.399973674588173e+000	 9.987728736053620e+000
0	 2.666734223614256e-001	 9.466644621844623e+000	 9.990170144381736e+000
0	 2.666734223614256e-001	 9.533315502450003e+000	 9.992327739893685e+000
0	 2.666734223614256e-001	 9.599986199732198e+000	 9.994212352098877e+000
0	 2.666734223614255e-001	 9.666656597019093e+000	 9.995834804124909e+000
0	 2.666734223614254e-001	 9.733326577638573e+000	 9.997205912716847e+000
0	 2.666734223614256e-001	 9.799996024918526e+000	 9.998336488236223e+000
0	 2.666734223614256e-001	 9.866664822186824e+000	 9.999237334660029e+000
0	 2.666734223614256e-001	 9.933332852771352e+000	 9.999919249579419e+000
0	 2.666734223614256e-001	 1.000000000000000e+001	 1.000039302419823e+001
0	 3.333434029809070e-001	 9.333302777352783e+000	 9.985108772120189e+000
0	 3.333434029809068e-001	 9.399973674588173e+000	 9.987808695877387e+000
0	 3.333434029809068e-001	 9.466644621844619e+000	 9.990219918728776e+000
0	 3.333434029809069e-001	 9.533315502450002e+000	 9.992353566340844e+000
0	 3.333434029809069e-001	 9.599986199732195e+000	 9.994220758100271e+000
0	 3.333434029809069e-001	 9.666656597019092e+000	 9.995832607113336e+000
0	 3.333434029809069e-001	 9.733326577638573e+000	 9.997200220205093e+000
0	 3.333434029809068e-001	 9.799996024918523e+000	 9.998334697918550e+000
0	 3.333434029809068e-001	 9.866664822186822e+000	 9.999247134513476e+000
0	 3.333434029809069e-001	 9.933332852771354e+000	 9.999948617965279e+000
0	 3.333434029809069e-001	 1.000000000000000e+001	 1.000045022996347e+001
0	 4.000138002678044e-001	 9.333302777352781e+000	 9.985244237951108e+000
0	 4.000138002678045e-001	 9.399973674588177e+000	 9.987905743274114e+000
0	 4.000138002678044e-001	 9.466644621844621e+000	 9.990284348624625e+000
0	 4.000138002678043e-001	 9.533315502449998e+000	 9.992391521059545e+000
0	 4.000138002678044e-001	 9.599986199732197e+000	 9.994238721461681e+000
0	 4.000138002678044e-001	 9.666656597019092e+000	 9.995837404539140e+000
0	 4.000138002678043e-001	 9.733326577638575e+000	 9.997199018824617e+000
0	 4.000138002678044e-001	 9.799996024918523e+000	 9.998335006674575e+000
0	 4.000138002678044e-001	 9.866664822186820e+000	 9.999256804267839e+000
0	 4.000138002678045e-001	 9.933332852771352e+000	 9.999975841604829e+000
0	 4.000138002678044e-001	 1.000000000000000e+001	 1.000050354250590e+001
0	 4.666844975500012e-001	 9.333302777352783e+000	 9.985397726548310e+000
0	 4.666844975500012e-001	 9.399973674588175e+000	 9.988019090026961e+000
0	 4.666844975500012e-001	 9.466644621844619e+000	 9.990363039393401e+000
0	 4.666844975500011e-001	 9.533315502450000e+000	 9.992441434712292e+000
0	 4.666844975500011e-001	 9.599986199732197e+000	 9.994266129982661e+000
0	 4.666844975500011e-001	 9.666656597019092e+000	 9.995848973137131e+000
0	 4.666844975500012e-001	 9.733326577638575e+000	 9.997201806041302e+000
0	 4.666844975500012e-001	 9.799996024918524e+000	 9.998336464492821e+000
0	 4.666844975500010e-001	 9.866664822186822e+000	 9.999264778220312e+000
0	 4.666844975500012e-001	 9.933332852771352e+000	 9.999998570882074e+000
0	 4.666844975500011e-001	 1.000000000000000e+001	 1.000054966006502e+001
0	 5.333553781553800e-001	 9.333302777352779e+000	 9.985567886601130e+000
0	 5.333553781553801e-001	 9.399973674588175e+000	 9.988147946538266e+000
0	 5.333553781553803e-001	 9.466644621844619e+000	 9.990455594939004e+000
0	 5.333553781553803e-001	 9.533315502450002e+000	 9.992503136496806e+000
0	 5.333553781553804e-001	 9.599986199732197e+000	 9.994302869948584e+000
0	 5.333553781553804e-001	 9.666656597019095e+000	 9.995867088074160e+000
0	 5.333553781553801e-001	 9.733326577638575e+000	 9.997208077695509e+000
0	 5.333553781553801e-001	 9.799996024918524e+000	 9.998338119675843e+000
0	 5.333553781553801e-001	 9.866664822186822e+000	 9.999269488918529e+000
0	 5.333553781553803e-001	 9.933332852771356e+000	 1.000001445436602e+001
0	 5.333553781553803e-001	 1.000000000000000e+001	 1.000058527899837e+001
0	 6.000263254118248e-001	 9.333302777352785e+000	 9.985753365451330e+000
0	 6.000263254118247e-001	 9.399973674588178e+000	 9.988291521829430e+000
0	 6.000263254118248e-001	 9.466644621844621e+000	 9.990561617745208e+000
0	 6.000263254118246e-001	 9.533315502450002e+000	 9.992576454145894e+000
0	 6.000263254118248e-001	 9.599986199732195e+000	 9.994348826130478e+000
0	 6.000263254118249e-001	 9.666656597019095e+000	 9.995891522949027e+000
0	 6.000263254118247e-001	 9.733326577638575e+000	 9.997217328002078e+000
0	 6.000263254118246e-001	 9.799996024918523e+000	 9.998339018839735e+000
0	 6.000263254118247e-001	 9.866664822186820e+000	 9.999269367160601e+000
0	 6.000263254118247e-001	 9.933332852771351e+000	 1.000002113881056e+001
0	 6.000263254118248e-001	 1.000000000000000e+001	 1.000060709378140e+001
0	 6.666972226472177e-001	 9.333302777352785e+000	 9.985952809092995e+000
0	 6.666972226472175e-001	 9.399973674588177e+000	 9.988449023540813e+000
0	 6.666972226472177e-001	 9.466644621844619e+000	 9.990680708875530e+000
0	 6.666972226472178e-001	 9.533315502450000e+000	 9.992661213927669e+000
0	 6.666972226472177e-001	 9.599986199732195e+000	 9.994403881785082e+000
0	 6.666972226472175e-001	 9.666656597019095e+000	 9.995922049792403e+000
0	 6.666972226472178e-001	 9.733326577638577e+000	 9.997229049550295e+000
0	 6.666972226472177e-001	 9.799996024918521e+000	 9.998338206914498e+000
0	 6.666972226472177e-001	 9.866664822186822e+000	 9.999262841994938e+000
0	 6.666972226472177e-001	 9.933332852771352e+000	 1.000001626915434e+001
0	 6.666972226472175e-001	 1.000000000000000e+001	 1.000061179700712e+001
0	 6.666972226472175e-001	 0.000000000000000e+000	-1.380956801299018e-001
0	 6.666972226472178e-001	 6.666714722864757e-002	-7.870053063564365e-002
0	 6.666972226472178e-001	 1.333351778131789e-001	-3.227362469012522e-002
0	 6.666972226472178e-001	 2.000039750814772e-001	 1.823134536491496e-003
0	 6.666972226472178e-001	 2.666734223614256e-001	 2.422773183160808e-002
0	 6.666972226472177e-001	 3.333434029809069e-001	 3.557803995432563e-002
0	 6.666972226472179e-001	 4.000138002678045e-001	 3.651181964663996e-002
0	 6.666972226472175e-001	 4.666844975500010e-001	 2.766671964169523e-002
0	 6.666972226472177e-001	 5.333553781553801e-001	 9.680276669097605e-003
0	 6.666972226472178e-001	 6.000263254118248e-001	-1.681008454271136e-002
0	 6.666972226472177e-001	 6.666972226472177e-001	-5.116705126702191e-002
0	 7.333579753122049e-001	 0.000000000000000e+000	-6.218137358016423e-002
0	 7.333579753122049e-001	 6.666714722864756e-002	-2.607307963627941e-002
0	 7.333579753122048e-001	 1.333351778131790e-001	 1.331702605399868e-003
0	 7.333579753122048e-001	 2.000039750814772e-001	 2.086381565827576e-002
0	 7.333579753122046e-001	 2.666734223614255e-001	 3.335404987577365e-002
0	 7.333579753122047e-001	 3.333434029809069e-001	 3.963314345729455e-002
0	 7.333579753122048e-001	 4.000138002678045e-001	 4.053178245279776e-002
0	 7.333579753122048e-001	 4.666844975500012e-001	 3.688060076601373e-002
0	 7.333579753122046e-001	 5.333553781553801e-001	 2.951018015628920e-002
0	 7.333579753122050e-001	 6.000263254118248e-001	 1.925105023906242e-002
0	 7.333579753122046e-001	 6.666972226472175e-001	 6.933688484970605e-003
0	 8.000185779984418e-001	 0.000000000000000e+000	 4.465892025215534e-002
0	 8.000185779984416e-001	 6.666714722864754e-002	 4.689652845588663e-002
0	 8.000185779984417e-001	 1.333351778131790e-001	 4.544765455584603e-002
0	 8.000185779984420e-001	 2.000039750814773e-001	 4.168867009056463e-002
0	 8.000185779984416e-001	 2.666734223614255e-001	 3.699598453608888e-002
0	 8.000185779984417e-001	 3.333434029809069e-001	 3.274604530016786e-002
0	 8.000185779984419e-001	 4.000138002678044e-001	 3.031533771743636e-002
0	 8.000185779984418e-001	 4.666844975500011e-001	 3.108038504559471e-002
0	 8.000185779984419e-001	 5.333553781553804e-001	 3.641774846258283e-002
0	 8.000185779984420e-001	 6.000263254118249e-001	 4.770402706475134e-002
0	 8.000185779984416e-001	 6.666972226472175e-001	 6.631585786602648e-002
0	 8.666790473703455e-001	 0.000000000000000e+000	 1.185314831937250e-001
0	 8.666790473703454e-001	 6.666714722864754e-002	 8.665900454847852e-002
0	 8.666790473703455e-001	 1.333351778131789e-001	 5.581213662623338e-002
0	 8.666790473703456e-001	 2.000039750814772e-001	 2.826565317978202e-002
0	 8.666790473703454e-001	 2.666734223614256e-001	 6.294475107973969e-003
0	 8.666790473703452e-001	 3.333434029809069e-001	-7.826329563505015e-003
0	 8.666790473703454e-001	 4.000138002678044e-001	-1.182154569749128e-002
0	 8.666790473703455e-001	 4.666844975500011e-001	-3.415811056840044e-003
0	 8.666790473703454e-001	 5.333553781553801e-001	 1.966638368794127e-002
0	 8.666790473703453e-001	 6.000263254118247e-001	 5.970069495491921e-002
0	 8.666790473703452e-001	 6.666972226472177e-001	 1.189629262508226e-001
0	 9.333394000923323e-001	 0.000000000000000e+000	 9.554254204317386e-002
0	 9.333394000923324e-001	 6.666714722864756e-002	 3.966500572160673e-002
0	 9.333394000923321e-001	 1.333351778131789e-001	-1.183699515834284e-002
0	 9.333394000923321e-001	 2.000039750814772e-001	-5.543732212228138e-002
0	 9.333394000923324e-001	 2.666734223614256e-001	-8.760957233414472e-002
0	 9.333394000923324e-001	 3.333434029809070e-001	-1.048270786285372e-001
0	 9.333394000923322e-001	 4.000138002678044e-001	-1.035629095361309e-001
0	 9.333394000923321e-001	 4.666844975500011e-001	-8.028986930212438e-002
0	 9.333394000923324e-001	 5.333553781553803e-001	-3.148049789776595e-002
0	 9.333394000923323e-001	 6.000263254118248e-001	 4.639292897506406e-002
0	 9.333394000923322e-001	 6.666972226472175e-001	 1.568583998862042e-001
0	 9.999996528288190e-001	 0.000000000000000e+000	-8.820173142986197e-002
0	 9.999996528288194e-001	 6.666714722864756e-002	-1.476348647730490e-001
0	 9.999996528288192e-001	 1.333351778131789e-001	-2.017619342135483e-001
0	 9.999996528288191e-001	 2.000039750814772e-001	-2.454523852591798e-001
0	 9.999996528288191e-001	 2.666734223614255e-001	-2.735752849373889e-001
0	 9.999996528288190e-001	 3.333434029809069e-001	-2.809993218384785e-001
0	 9.999996528288192e-001	 4.000138002678044e-001	-2.625928061489016e-001
0	 9.999996528288191e-001	 4.666844975500012e-001	-2.132236696746190e-001
0	 9.999996528288192e-001	 5.333553781553803e-001	-1.277594658545271e-001
0	 9.999996528288190e-001	 6.000263254118247e-001	-1.067369763951114e-003
0	 9.999996528288192e-001	 6.666972226472177e-001	 1.719858218917947e-001
0	 1.066659822244222e+000	 0.000000000000000e+000	-4.965952204854859e-001
0	 1.066659822244222e+000	 6.666714722864757e-002	-5.287900575129594e-001
0	 1.066659822244223e+000	 1.333351778131789e-001	-5.582249233964604e-001
0	 1.066659822244223e+000	 2.000039750814772e-001	-5.778117080703635e-001
0	 1.066659822244222e+000	 2.666734223614254e-001	-5.804618230708573e-001
0	 1.066659822244222e+000	 3.333434029809069e-001	-5.590862015859035e-001
0	 1.066659822244223e+000	 4.000138002678044e-001	-5.065952984926323e-001
0	 1.066659822244223e+000	 4.666844975500011e-001	-4.158990903821871e-001
0	 1.066659822244222e+000	 5.333553781553801e-001	-2.799070755720078e-001
0	 1.066659822244223e+000	 6.000263254118248e-001	-9.152827410556384e-002
0	 1.066659822244223e+000	 6.666972226472177e-001	 1.563287722604700e-001
0	 1.133319925002959e+000	 0.000000000000000e+000	-1.193531863414082e+000
0	 1.133319925002959e+000	 6.666714722864757e-002	-1.157350076905259e+000
0	 1.133319925002959e+000	 1.333351778131790e-001	-1.125488255006032e+000
0	 1.133319925002959e+000	 2.000039750814772e-001	-1.088547504791575e+000
0	 1.133319925002959e+000	 2.666734223614256e-001	-1.037128380325935e+000
0	 1.133319925002959e+000	 3.333434029809069e-001	-9.618308827126170e-001
0	 1.133319925002959e+000	 4.000138002678045e-001	-8.532544601306584e-001
0	 1.133319925002959e+000	 4.666844975500011e-001	-7.019980078561785e-001
0	 1.133319925002959e+000	 5.333553781553804e-001	-4.986598682694200e-001
0	 1.133319925002959e+000	 6.000263254118248e-001	-2.338378308472781e-001
0	 1.133319925002959e+000	 6.666972226472178e-001	 1.018708678586917e-001
0	 1.199979977769445e+000	 0.000000000000000e+000	-2.242905653536651e+000
0	 1.199979977769445e+000	 6.666714722864757e-002	-2.086864481187063e+000
0	 1.199979977769445e+000	 1.333351778131789e-001	-1.947814270783373e+000
0	 1.199979977769445e+000	 2.000039750814772e-001	-1.813692032055082e+000
0	 1.199979977769445e+000	 2.666734223614256e-001	-1.672434183516466e+000
0	 1.199979977769445e+000	 3.333434029809070e-001	-1.511976552509772e+000
0	 1.199979977769445e+000	 4.000138002678043e-001	-1.320254375232875e+000
0	 1.199979977769445e+000	 4.666844975500011e-001	-1.085202296751419e+000
0	 1.199979977769445e+000	 5.333553781553801e-001	-7.947543709954507e-001
0	 1.199979977769445e+000	 6.000263254118248e-001	-4.368440607405237e-001
0	 1.199979977769445e+000	 6.666972226472177e-001	 5.957624267067096e-004
0	 1.266639997208098e+000	 0.000000000000000e+000	-3.708610639204933e+000
0	 1.266639997208098e+000	 6.666714722864756e-002	-3.370882882425573e+000
0	 1.266639997208098e+000	 1.333351778131789e-001	-3.069465361911841e+000
0	 1.266639997208098e+000	 2.000039750814773e-001	-2.789277588889747e+000
0	 1.266639997208098e+000	 2.666734223614256e-001	-2.515238492678815e+000
0	 1.266639997208098e+000	 3.333434029809069e-001	-2.232266420717910e+000
0	 1.266639997208098e+000	 4.000138002678044e-001	-1.925279138575758e+000
0	 1.266639997208098e+000	 4.666844975500012e-001	-1.579193829946212e+000
0	 1.266639997208098e+000	 5.333553781553803e-001	-1.178927096628234e+000
0	 1.266639997208098e+000	 6.000263254118247e-001	-7.093949584906153e-001
0	 1.266639997208098e+000	 6.666972226472177e-001	-1.555128534214058e-001
0	 1.333299999983334e+000	 0.000000000000000e+000	-5.654540923801338e+000
0	 1.333299999983334e+000	 6.666714722864758e-002	-5.062954946517986e+000
0	 1.333299999983334e+000	 1.333351778131789e-001	-4.534703969016951e+000
0	 1.333299999983334e+000	 2.000039750814772e-001	-4.051336516720953e+000
0	 1.333299999983334e+000	 2.666734223614255e-001	-3.594400601071803e+000
0	 1.333299999983334e+000	 3.333434029809069e-001	-3.145443719526910e+000
0	 1.333299999983334e+000	 4.000138002678044e-001	-2.686012855542338e+000
0	 1.333299999983334e+000	 4.666844975500012e-001	-2.197654478542330e+000
0	 1.333299999983334e+000	 5.333553781553803e-001	-1.661914543875386e+000
0	 1.333299999983334e+000	 6.000263254118247e-001	-1.060338492756811e+000
0	 1.333299999983334e+000	 6.666972226472174e-001	-3.744712521977925e-001
0	 6.666972226472177e-001	 6.666972226472177e-001	-5.116705126702191e-002
0	 6.666972226472175e-001	 7.333579753122045e-001	-2.268579837644026e-002
0	 6.666972226472177e-001	 8.000185779984415e-001	 1.413021084149094e-001
0	 6.666972226472177e-001	 8.666790473703451e-001	 4.443963012305875e-001
0	 6.666972226472177e-001	 9.333394000923322e-001	 8.901962195004927e-001
0	 6.666972226472177e-001	 9.999996528288189e-001	 1.482301109957751e+000
0	 6.666972226472174e-001	 1.066659822244222e+000	 2.224310026636318e+000
0	 6.666972226472178e-001	 1.133319925002959e+000	 3.119821830869316e+000
0	 6.666972226472177e-001	 1.199979977769445e+000	 4.172435191288081e+000
0	 6.666972226472175e-001	 1.266639997208098e+000	 5.385748583821933e+000
0	 6.666972226472175e-001	 1.333299999983334e+000	 6.763360291698692e+000
0	 7.333579753122046e-001	 6.666972226472175e-001	 6.933688484970605e-003
0	 7.333579753122049e-001	 7.333579753122049e-001	 7.034159694087488e-002
0	 7.333579753122049e-001	 8.000185779984419e-001	 2.875624349844846e-001
0	 7.333579753122049e-001	 8.666790473703454e-001	 6.598885906594809e-001
0	 7.333579753122048e-001	 9.333394000923321e-001	 1.188612228848076e+000
0	 7.333579753122048e-001	 9.999996528288190e-001	 1.875025291267465e+000
0	 7.333579753122049e-001	 1.066659822244222e+000	 2.720419496467113e+000
0	 7.333579753122050e-001	 1.133319925002959e+000	 3.726086339826885e+000
0	 7.333579753122048e-001	 1.199979977769445e+000	 4.893317093556007e+000
0	 7.333579753122049e-001	 1.266639997208098e+000	 6.223402806692856e+000
0	 7.333579753122049e-001	 1.333299999983334e+000	 7.717634305105613e+000
0	 8.000185779984416e-001	 6.666972226472175e-001	 6.631585786602648e-002
0	 8.000185779984418e-001	 7.333579753122048e-001	 1.725737055599848e-001
0	 8.000185779984416e-001	 8.000185779984416e-001	 4.452923836311529e-001
0	 8.000185779984419e-001	 8.666790473703455e-001	 8.835796686231170e-001
0	 8.000185779984418e-001	 9.333394000923323e-001	 1.486543093697822e+000
0	 8.000185779984416e-001	 9.999996528288186e-001	 2.253289948631783e+000
0	 8.000185779984420e-001	 1.066659822244222e+000	 3.182927279813212e+000
0	 8.000185779984418e-001	 1.133319925002959e+000	 4.274561890240057e+000
0	 8.000185779984420e-001	 1.199979977769445e+000	 5.527300339518940e+000
0	 8.000185779984419e-001	 1.266639997208098e+000	 6.940248943865033e+000
0	 8.000185779984420e-001	 1.333299999983334e+000	 8.512513776102823e+000
0	 8.666790473703452e-001	 6.666972226472177e-001	 1.189629262508227e-001
0	 8.666790473703455e-001	 7.333579753122048e-001	 2.765655118999438e-001
0	 8.666790473703453e-001	 8.000185779984416e-001	 6.081551619144030e-001
0	 8.666790473703455e-001	 8.666790473703453e-001	 1.110777678928098e+000
0	 8.666790473703456e-001	 9.333394000923325e-001	 1.781478611415747e+000
0	 8.666790473703456e-001	 9.999996528288190e-001	 2.617303253689052e+000
0	 8.666790473703455e-001	 1.066659822244222e+000	 3.615296645893778e+000
0	 8.666790473703455e-001	 1.133319925002959e+000	 4.772503574007852e+000
0	 8.666790473703454e-001	 1.199979977769445e+000	 6.085968569840346e+000
0	 8.666790473703454e-001	 1.266639997208098e+000	 7.552735911031438e+000
0	 8.666790473703456e-001	 1.333299999983334e+000	 9.169849621053356e+000
0	 9.333394000923322e-001	 6.666972226472175e-001	 1.568583998862041e-001
0	 9.333394000923324e-001	 7.333579753122048e-001	 3.748720465583358e-001
0	 9.333394000923323e-001	 8.000185779984417e-001	 7.698140311179391e-001
0	 9.333394000923325e-001	 8.666790473703453e-001	 1.336790824706253e+000
0	 9.333394000923324e-001	 9.333394000923323e-001	 2.070908642165435e+000
0	 9.333394000923322e-001	 9.999996528288189e-001	 2.967273442034828e+000
0	 9.333394000923323e-001	 1.066659822244223e+000	 4.020990926548178e+000
0	 9.333394000923323e-001	 1.133319925002959e+000	 5.227166541631831e+000
0	 9.333394000923324e-001	 1.199979977769445e+000	 6.580905476903865e+000
0	 9.333394000923325e-001	 1.266639997208098e+000	 8.077312665674198e+000
0	 9.333394000923323e-001	 1.333299999983334e+000	 9.711492784945673e+000
0	 9.999996528288192e-001	 6.666972226472177e-001	 1.719858218917947e-001
0	 9.999996528288195e-001	 7.333579753122050e-001	 4.600483863120405e-001
0	 9.999996528288193e-001	 8.000185779984418e-001	 9.239323062505703e-001
0	 9.999996528288192e-001	 8.666790473703453e-001	 1.556927368415609e+000
0	 9.999996528288192e-001	 9.333394000923323e-001	 2.352323108909032e+000
0	 9.999996528288191e-001	 9.999996528288190e-001	 3.303408813222895e+000
0	 9.999996528288193e-001	 1.066659822244222e+000	 4.403473516236904e+000
0	 9.999996528288192e-001	 1.133319925002959e+000	 5.645806002216828e+000
0	 9.999996528288191e-001	 1.199979977769445e+000	 7.023694804813842e+000
0	 9.999996528288194e-001	 1.266639997208098e+000	 8.530428207064814e+000
0	 9.999996528288190e-001	 1.333299999983334e+000	 1.015929424139354e+001
0	 1.066659822244223e+000	 6.666972226472177e-001	 1.563287722604700e-001
0	 1.066659822244222e+000	 7.333579753122046e-001	 5.246496541178247e-001
0	 1.066659822244223e+000	 8.000185779984418e-001	 1.064173356046894e+000
0	 1.066659822244223e+000	 8.666790473703454e-001	 1.766495631841138e+000
0	 1.066659822244222e+000	 9.333394000923321e-001	 2.623211997408028e+000
0	 1.066659822244222e+000	 9.999996528288189e-001	 3.625917730765989e+000
0	 1.066659822244223e+000	 1.066659822244222e+000	 4.766207872042243e+000
0	 1.066659822244223e+000	 1.133319925002959e+000	 6.035677223471512e+000
0	 1.066659822244222e+000	 1.199979977769445e+000	 7.425920349395672e+000
0	 1.066659822244223e+000	 1.266639997208098e+000	 8.928531576264211e+000
0	 1.066659822244223e+000	 1.333299999983334e+000	 1.053510499263568e+001
0	 1.133319925002959e+000	 6.666972226472178e-001	 1.018708678586917e-001
0	 1.133319925002959e+000	 7.333579753122049e-001	 5.612310191127654e-001
0	 1.133319925002959e+000	 8.000185779984417e-001	 1.184200602967786e+000
0	 1.133319925002959e+000	 8.666790473703453e-001	 1.960803996095283e+000
0	 1.133319925002959e+000	 9.333394000923322e-001	 2.881065356223787e+000
0	 1.133319925002959e+000	 9.999996528288191e-001	 3.935008622136320e+000
0	 1.133319925002959e+000	 1.066659822244222e+000	 5.112657513668703e+000
0	 1.133319925002959e+000	 1.133319925002959e+000	 6.404035531708694e+000
0	 1.133319925002959e+000	 1.199979977769445e+000	 7.799165958195925e+000
0	 1.133319925002959e+000	 1.266639997208098e+000	 9.288071856122661e+000
0	 1.133319925002959e+000	 1.333299999983334e+000	 1.086077606953543e+001
0	 1.199979977769445e+000	 6.666972226472177e-001	 5.957624267066366e-004
0	 1.199979977769445e+000	 7.333579753122046e-001	 5.623476966144896e-001
0	 1.199979977769445e+000	 8.000185779984419e-001	 1.277677523200680e+000
0	 1.199979977769445e+000	 8.666790473703453e-001	 2.135160901618263e+000
0	 1.199979977769445e+000	 9.333394000923322e-001	 3.123373296717848e+000
0	 1.199979977769445e+000	 9.999996528288190e-001	 4.230889978765825e+000
0	 1.199979977769445e+000	 1.066659822244222e+000	 5.446286023443242e+000
0	 1.199979977769446e+000	 1.133319925002959e+000	 6.758136311845431e+000
0	 1.199979977769445e+000	 1.199979977769445e+000	 8.155015530482329e+000
0	 1.199979977769445e+000	 1.266639997208098e+000	 9.625498171279549e+000
0	 1.199979977769445e+000	 1.333299999983334e+000	 1.115815853158021e+001
0	 1.266639997208098e+000	 6.666972226472177e-001	-1.555128534214058e-001
0	 1.266639997208098e+000	 7.333579753122048e-001	 5.205549481212523e-001
0	 1.266639997208098e+000	 8.000185779984419e-001	 1.338267646659651e+000
0	 1.266639997208098e+000	 8.666790473703452e-001	 2.284874848178151e+000
0	 1.266639997208098e+000	 9.333394000923321e-001	 3.347625993051992e+000
0	 1.266639997208098e+000	 9.999996528288190e-001	 4.513770356046218e+000
0	 1.266639997208098e+000	 1.066659822244222e+000	 5.770557046315211e+000
0	 1.266639997208098e+000	 1.133319925002959e+000	 7.105235007402891e+000
0	 1.266639997208098e+000	 1.199979977769445e+000	 8.505053017243489e+000
0	 1.266639997208098e+000	 1.266639997208098e+000	 9.957259688162930e+000
0	 1.266639997208098e+000	 1.333299999983334e+000	 1.144910346688091e+001
0	 1.333299999983334e+000	 6.666972226472174e-001	-3.744712521977925e-001
0	 1.333299999983334e+000	 7.333579753122047e-001	 4.284080813118384e-001
0	 1.333299999983334e+000	 8.000185779984418e-001	 1.359634556985295e+000
0	 1.333299999983334e+000	 8.666790473703454e-001	 2.405254394870736e+000
0	 1.333299999983334e+000	 9.333394000923321e-001	 3.551313682188070e+000
0	 1.333299999983334e+000	 9.999996528288189e-001	 4.783858373328754e+000
0	 1.333299999983334e+000	 1.066659822244222e+000	 6.088934289856097e+000
0	 1.333299999983334e+000	 1.133319925002959e+000	 7.452587120506045e+000
0	 1.333299999983334e+000	 1.199979977769445e+000	 8.860862421188486e+000
0	 1.333299999983334e+000	 1.266639997208098e+000	 1.029980561498901e+001
0	 1.333299999983334e+000	 1.333299999983334e+000	 1.175546199217126e+001
0	 6.666972226472175e-001	 1.333299999983334e+000	 6.763360291698692e+000
0	 6.666972226472177e-001	 1.399969999982150e+000	 8.282752070621976e+000
0	 6.666972226472177e-001	 1.466639999981867e+000	 9.912598857842783e+000
0	 6.666972226472178e-001	 1.533309999982383e+000	 1.164394606224516e+001
0	 6.666972226472177e-001	 1.599979999983600e+000	 1.346783909271390e+001
0	 6.666972226472177e-001	 1.666649999985416e+000	 1.537532335813448e+001
0	 6.666972226472177e-001	 1.733319999987733e+000	 1.735744426739313e+001
0	 6.666972226472177e-001	 1.799989999990450e+000	 1.940524722937677e+001
0	 6.666972226472178e-001	 1.866659999993466e+000	 2.150977765297303e+001
0	 6.666972226472175e-001	 1.933329999996683e+000	 2.366208094707033e+001
0	 6.666972226472177e-001	 2.000000000000000e+000	 2.585320252055774e+001
0	 7.333579753122049e-001	 1.333299999983334e+000	 7.717634305105615e+000
0	 7.333579753122047e-001	 1.399969999982150e+000	 9.318643504606007e+000
0	 7.333579753122046e-001	 1.466639999981867e+000	 1.096331615266492e+001
0	 7.333579753122048e-001	 1.533309999982383e+000	 1.264503325679760e+001
0	 7.333579753122049e-001	 1.599979999983599e+000	 1.435717582451955e+001
0	 7.333579753122046e-001	 1.666649999985416e+000	 1.609312486334660e+001
0	 7.333579753122048e-001	 1.733319999987733e+000	 1.784626138079490e+001
0	 7.333579753122049e-001	 1.799989999990450e+000	 1.960996638438088e+001
0	 7.333579753122047e-001	 1.866659999993466e+000	 2.137762088162124e+001
0	 7.333579753122046e-001	 1.933329999996684e+000	 2.314260588003305e+001
0	 7.333579753122047e-001	 2.000000000000000e+000	 2.489830238713367e+001
0	 8.000185779984420e-001	 1.333299999983334e+000	 8.512513776102825e+000
0	 8.000185779984420e-001	 1.399969999982150e+000	 1.015845252054409e+001
0	 8.000185779984417e-001	 1.466639999981866e+000	 1.178956056671526e+001
0	 8.000185779984417e-001	 1.533309999982383e+000	 1.340139366826061e+001
0	 8.000185779984418e-001	 1.599979999983600e+000	 1.498950757882436e+001
0	 8.000185779984419e-001	 1.666649999985416e+000	 1.654945805205066e+001
0	 8.000185779984416e-001	 1.733319999987733e+000	 1.807680084158362e+001
0	 8.000185779984418e-001	 1.799989999990449e+000	 1.956709170106722e+001
0	 8.000185779984417e-001	 1.866659999993466e+000	 2.101588638414546e+001
0	 8.000185779984418e-001	 1.933329999996683e+000	 2.241874064446230e+001
0	 8.000185779984419e-001	 2.000000000000000e+000	 2.377121023566156e+001
0	 8.666790473703456e-001	 1.333299999983334e+000	 9.169849621053356e+000
0	 8.666790473703454e-001	 1.399969999982150e+000	 1.082943772761474e+001
0	 8.666790473703453e-001	 1.466639999981866e+000	 1.242347135840709e+001
0	 8.666790473703456e-001	 1.533309999982383e+000	 1.394952015804524e+001
0	 8.666790473703454e-001	 1.599979999983599e+000	 1.540515377114371e+001
0	 8.666790473703456e-001	 1.666649999985416e+000	 1.678794184231660e+001
0	 8.666790473703456e-001	 1.733319999987733e+000	 1.809545401617766e+001
0	 8.666790473703453e-001	 1.799989999990449e+000	 1.932525993734029e+001
0	 8.666790473703452e-001	 1.866659999993466e+000	 2.047492925041746e+001
0	 8.666790473703454e-001	 1.933329999996682e+000	 2.154203160002187e+001
0	 8.666790473703455e-001	 2.000000000000000e+000	 2.252413663076576e+001
0	 9.333394000923323e-001	 1.333299999983334e+000	 9.711492784945675e+000
0	 9.333394000923319e-001	 1.399969999982150e+000	 1.135885774710972e+001
0	 9.333394000923323e-001	 1.466639999981866e+000	 1.289718777857825e+001
0	 9.333394000923321e-001	 1.533309999982383e+000	 1.432590555736318e+001
0	 9.333394000923323e-001	 1.599979999983599e+000	 1.564443376147579e+001
0	 9.333394000923322e-001	 1.666649999985416e+000	 1.685219506892672e+001
0	 9.333394000923320e-001	 1.733319999987733e+000	 1.794861215772597e+001
0	 9.333394000923321e-001	 1.799989999990449e+000	 1.893310770588290e+001
0	 9.333394000923321e-001	 1.866659999993466e+000	 1.980510439140625e+001
0	 9.333394000923323e-001	 1.933329999996683e+000	 2.056402489230415e+001
0	 9.333394000923323e-001	 2.000000000000000e+000	 2.120929188658403e+001
0	 9.999996528288190e-001	 1.333299999983334e+000	 1.015929424139354e+001
0	 9.999996528288189e-001	 1.399969999982150e+000	 1.177397121243329e+001
0	 9.999996528288191e-001	 1.466639999981866e+000	 1.324284907048987e+001
0	 9.999996528288189e-001	 1.533309999982383e+000	 1.456704266722487e+001
0	 9.999996528288189e-001	 1.599979999983600e+000	 1.574766685429904e+001
0	 9.999996528288190e-001	 1.666649999985416e+000	 1.678583648337223e+001
0	 9.999996528288191e-001	 1.733319999987733e+000	 1.768266640610349e+001
0	 9.999996528288191e-001	 1.799989999990450e+000	 1.843927147415094e+001
0	 9.999996528288191e-001	 1.866659999993466e+000	 1.905676653917190e+001
0	 9.999996528288192e-001	 1.933329999996683e+000	 1.953626645282284e+001
0	 9.999996528288191e-001	 2.000000000000000e+000	 1.987888606675933e+001
0	 1.066659822244223e+000	 1.333299999983334e+000	 1.053510499263568e+001
0	 1.066659822244223e+000	 1.399969999982150e+000	 1.210203676910157e+001
0	 1.066659822244222e+000	 1.466639999981866e+000	 1.349259446982512e+001
0	 1.066659822244222e+000	 1.533309999982383e+000	 1.470942425843768e+001
0	 1.066659822244222e+000	 1.599979999983599e+000	 1.575517229856957e+001
0	 1.066659822244222e+000	 1.666649999985416e+000	 1.663248475385007e+001
0	 1.066659822244222e+000	 1.733319999987733e+000	 1.734400778790736e+001
0	 1.066659822244222e+000	 1.799989999990450e+000	 1.789238756436864e+001
0	 1.066659822244222e+000	 1.866659999993466e+000	 1.828027024686006e+001
0	 1.066659822244222e+000	 1.933329999996683e+000	 1.851030199900668e+001
0	 1.066659822244223e+000	 2.000000000000000e+000	 1.858512898443255e+001
0	 1.133319925002959e+000	 1.333299999983334e+000	 1.086077606953543e+001
0	 1.133319925002959e+000	 1.399969999982150e+000	 1.237031307474171e+001
0	 1.133319925002959e+000	 1.466639999981866e+000	 1.367856320468800e+001
0	 1.133319925002959e+000	 1.533309999982383e+000	 1.478954307160420e+001
0	 1.133319925002959e+000	 1.599979999983600e+000	 1.570726928771905e+001
0	 1.133319925002959e+000	 1.666649999985416e+000	 1.643575846526002e+001
0	 1.133319925002959e+000	 1.733319999987733e+000	 1.697902721645346e+001
0	 1.133319925002959e+000	 1.799989999990449e+000	 1.734109215352449e+001
0	 1.133319925002959e+000	 1.866659999993466e+000	 1.752596988869700e+001
0	 1.133319925002959e+000	 1.933329999996683e+000	 1.753767703419375e+001
0	 1.133319925002959e+000	 2.000000000000000e+000	 1.738023020223622e+001
0	 1.199979977769445e+000	 1.333299999983334e+000	 1.115815853158021e+001
0	 1.199979977769445e+000	 1.399969999982150e+000	 1.260605879909114e+001
0	 1.199979977769445e+000	 1.466639999981866e+000	 1.383289449560223e+001
0	 1.199979977769445e+000	 1.533309999982383e+000	 1.484389181712069e+001
0	 1.199979977769445e+000	 1.599979999983599e+000	 1.564427695965251e+001
0	 1.199979977769445e+000	 1.666649999985416e+000	 1.623927611920228e+001
0	 1.199979977769445e+000	 1.733319999987733e+000	 1.663411549177331e+001
0	 1.199979977769445e+000	 1.799989999990450e+000	 1.683402127336752e+001
0	 1.199979977769446e+000	 1.866659999993466e+000	 1.684421965998560e+001
0	 1.199979977769445e+000	 1.933329999996684e+000	 1.666993684762682e+001
0	 1.199979977769445e+000	 2.000000000000000e+000	 1.631639903228919e+001
0	 1.266639997208098e+000	 1.333299999983334e+000	 1.144910346688092e+001
0	 1.266639997208098e+000	 1.399969999982150e+000	 1.283653262399666e+001
0	 1.266639997208098e+000	 1.466639999981867e+000	 1.398772755550999e+001
0	 1.266639997208098e+000	 1.533309999982383e+000	 1.490896317517555e+001
0	 1.266639997208098e+000	 1.599979999983600e+000	 1.560651439674666e+001
0	 1.266639997208098e+000	 1.666649999985416e+000	 1.608665613397514e+001
0	 1.266639997208098e+000	 1.733319999987733e+000	 1.635566330061137e+001
0	 1.266639997208098e+000	 1.799989999990450e+000	 1.641981081040435e+001
0	 1.266639997208098e+000	 1.866659999993466e+000	 1.628537357710164e+001
0	 1.266639997208098e+000	 1.933329999996683e+000	 1.595862651444931e+001
0	 1.266639997208098e+000	 2.000000000000000e+000	 1.544584453619209e+001
0	 1.333299999983334e+000	 1.333299999983334e+000	 1.175546199217126e+001
0	 1.333299999983334e+000	 1.399969999982150e+000	 1.308899324341359e+001
0	 1.333299999983334e+000	 1.466639999981867e+000	 1.417520158977092e+001
0	 1.333299999983334e+000	 1.533309999982383e+000	 1.502124979574802e+001
0	 1.333299999983334e+000	 1.599979999983599e+000	 1.563430062584815e+001
0	 1.333299999983334e+000	 1.666649999985416e+000	 1.602151684457305e+001
0	 1.333299999983334e+000	 1.733319999987733e+000	 1.619006121642296e+001
0	 1.333299999983334e+000	 1.799989999990449e+000	 1.614709650589657e+001
0	 1.333299999983334e+000	 1.866659999993466e+000	 1.589978547749108e+001
0	 1.333299999983334e+000	 1.933329999996683e+000	 1.545529089570216e+001
0	 1.333299999983334e+000	 2.000000000000000e+000	 1.482077552502396e+001
0	 6.666972226472177e-001	 2.000000000000000e+000	 2.585320252055774e+001
0	 6.666972226472177e-001	 2.066670000003317e+000	 2.790564121841889e+001
0	 6.666972226472178e-001	 2.133340000006534e+000	 2.964914782923311e+001
0	 6.666972226472177e-001	 2.200010000009550e+000	 3.108564567728166e+001
0	 6.666972226472177e-001	 2.266680000012268e+000	 3.221705808684355e+001
0	 6.666972226472175e-001	 2.333350000014584e+000	 3.304530838219538e+001
0	 6.666972226472175e-001	 2.400020000016400e+000	 3.357231988761141e+001
0	 6.666972226472178e-001	 2.466690000017616e+000	 3.380001592736359e+001
0	 6.666972226472178e-001	 2.533360000018134e+000	 3.373031982572148e+001
0	 6.666972226472177e-001	 2.600030000017850e+000	 3.336515490695231e+001
0	 6.666972226472177e-001	 2.666700000016667e+000	 3.270644449532097e+001
0	 7.333579753122047e-001	 2.000000000000000e+000	 2.489830238713367e+001
0	 7.333579753122047e-001	 2.066670000003317e+000	 2.649144561426515e+001
0	 7.333579753122048e-001	 2.133340000006534e+000	 2.777715521461894e+001
0	 7.333579753122048e-001	 2.200010000009550e+000	 2.876138885848473e+001
0	 7.333579753122047e-001	 2.266680000012267e+000	 2.945010421614988e+001
0	 7.333579753122047e-001	 2.333350000014584e+000	 2.984925895789941e+001
0	 7.333579753122050e-001	 2.400020000016402e+000	 2.996481075401591e+001
0	 7.333579753122049e-001	 2.466690000017618e+000	 2.980271727477963e+001
0	 7.333579753122047e-001	 2.533360000018133e+000	 2.936893619046841e+001
0	 7.333579753122049e-001	 2.600030000017851e+000	 2.866942517135777e+001
0	 7.333579753122047e-001	 2.666700000016666e+000	 2.771014188772081e+001
0	 8.000185779984419e-001	 2.000000000000000e+000	 2.377121023566156e+001
0	 8.000185779984416e-001	 2.066670000003316e+000	 2.494502927545670e+001
0	 8.000185779984416e-001	 2.133340000006534e+000	 2.582119872931738e+001
0	 8.000185779984418e-001	 2.200010000009550e+000	 2.640917462251981e+001
0	 8.000185779984417e-001	 2.266680000012266e+000	 2.671841298033782e+001
0	 8.000185779984419e-001	 2.333350000014585e+000	 2.675836982804309e+001
0	 8.000185779984418e-001	 2.400020000016401e+000	 2.653850119090476e+001
0	 8.000185779984418e-001	 2.466690000017617e+000	 2.606826309418983e+001
0	 8.000185779984418e-001	 2.533360000018134e+000	 2.535711156316282e+001
0	 8.000185779984420e-001	 2.600030000017851e+000	 2.441450262308602e+001
0	 8.000185779984420e-001	 2.666700000016666e+000	 2.324989229921933e+001
0	 8.666790473703455e-001	 2.000000000000000e+000	 2.252413663076576e+001
0	 8.666790473703454e-001	 2.066670000003316e+000	 2.331831966732474e+001
0	 8.666790473703452e-001	 2.133340000006534e+000	 2.383155519343451e+001
0	 8.666790473703455e-001	 2.200010000009550e+000	 2.407626159229537e+001
0	 8.666790473703454e-001	 2.266680000012267e+000	 2.406485724710548e+001
0	 8.666790473703454e-001	 2.333350000014584e+000	 2.380976054106067e+001
0	 8.666790473703452e-001	 2.400020000016400e+000	 2.332338985735464e+001
0	 8.666790473703456e-001	 2.466690000017618e+000	 2.261816357917886e+001
0	 8.666790473703454e-001	 2.533360000018134e+000	 2.170650008972253e+001
0	 8.666790473703453e-001	 2.600030000017850e+000	 2.060081777217265e+001
0	 8.666790473703455e-001	 2.666700000016666e+000	 1.931353500971401e+001
0	 9.333394000923323e-001	 2.000000000000000e+000	 2.120929188658403e+001
0	 9.333394000923324e-001	 2.066670000003317e+000	 2.166324396738730e+001
0	 9.333394000923322e-001	 2.133340000006534e+000	 2.185850110173540e+001
0	 9.333394000923323e-001	 2.200010000009550e+000	 2.180990802845386e+001
0	 9.333394000923322e-001	 2.266680000012267e+000	 2.153230948636616e+001
0	 9.333394000923324e-001	 2.333350000014584e+000	 2.104055021429366e+001
0	 9.333394000923320e-001	 2.400020000016400e+000	 2.034947495105572e+001
0	 9.333394000923324e-001	 2.466690000017617e+000	 1.947392843546954e+001
0	 9.333394000923321e-001	 2.533360000018133e+000	 1.842875540635036e+001
0	 9.333394000923323e-001	 2.600030000017851e+000	 1.722880060251125e+001
0	 9.333394000923324e-001	 2.666700000016666e+000	 1.588890876276331e+001
0	 9.999996528288191e-001	 2.000000000000000e+000	 1.987888606675933e+001
0	 9.999996528288192e-001	 2.066670000003317e+000	 2.003172906533999e+001
0	 9.999996528288192e-001	 2.133340000006534e+000	 1.995231262363390e+001
0	 9.999996528288193e-001	 2.200010000009550e+000	 1.965737182936025e+001
0	 9.999996528288192e-001	 2.266680000012268e+000	 1.916364177023636e+001
0	 9.999996528288190e-001	 2.333350000014584e+000	 1.848785753397764e+001
0	 9.999996528288191e-001	 2.400020000016401e+000	 1.764675420829768e+001
0	 9.999996528288190e-001	 2.466690000017617e+000	 1.665706688090817e+001
0	 9.999996528288192e-001	 2.533360000018134e+000	 1.553553063951891e+001
0	 9.999996528288190e-001	 2.600030000017850e+000	 1.429888057183783e+001
0	 9.999996528288191e-001	 2.666700000016666e+000	 1.296385176557100e+001
0	 1.066659822244223e+000	 2.000000000000000e+000	 1.858512898443255e+001
0	 1.066659822244222e+000	 2.066670000003317e+000	 1.847570156304796e+001
0	 1.066659822244223e+000	 2.133340000006533e+000	 1.816326560318365e+001
0	 1.066659822244222e+000	 2.200010000009550e+000	 1.766591053109229e+001
0	 1.066659822244222e+000	 2.266680000012267e+000	 1.700172577302493e+001
0	 1.066659822244223e+000	 2.333350000014584e+000	 1.618880075523091e+001
0	 1.066659822244223e+000	 2.400020000016401e+000	 1.524522490395793e+001
0	 1.066659822244223e+000	 2.466690000017617e+000	 1.418908764545205e+001
0	 1.066659822244223e+000	 2.533360000018134e+000	 1.303847840595764e+001
0	 1.066659822244223e+000	 2.600030000017851e+000	 1.181148661171744e+001
0	 1.066659822244223e+000	 2.666700000016667e+000	 1.052620168897249e+001
0	 1.133319925002959e+000	 2.000000000000000e+000	 1.738023020223622e+001
0	 1.133319925002959e+000	 2.066670000003318e+000	 1.704708777453879e+001
0	 1.133319925002959e+000	 2.133340000006534e+000	 1.654163555907031e+001
0	 1.133319925002959e+000	 2.200010000009551e+000	 1.588278130743213e+001
0	 1.133319925002959e+000	 2.266680000012267e+000	 1.508943277122409e+001
0	 1.133319925002959e+000	 2.333350000014585e+000	 1.418049770204471e+001
0	 1.133319925002959e+000	 2.400020000016401e+000	 1.317488385149100e+001
0	 1.133319925002959e+000	 2.466690000017617e+000	 1.209149897115853e+001
0	 1.133319925002959e+000	 2.533360000018134e+000	 1.094925081264149e+001
0	 1.133319925002959e+000	 2.600030000017850e+000	 9.767047127532608e+000
0	 1.133319925002959e+000	 2.666700000016666e+000	 8.563795667423181e+000
0	 1.199979977769445e+000	 2.000000000000000e+000	 1.631639903228919e+001
0	 1.199979977769445e+000	 2.066670000003316e+000	 1.579781372599655e+001
0	 1.199979977769445e+000	 2.133340000006533e+000	 1.513769768460502e+001
0	 1.199979977769445e+000	 2.200010000009551e+000	 1.435524096985896e+001
0	 1.199979977769445e+000	 2.266680000012267e+000	 1.346963364350164e+001
0	 1.199979977769445e+000	 2.333350000014584e+000	 1.250006576727506e+001
0	 1.199979977769445e+000	 2.400020000016401e+000	 1.146572740291998e+001
0	 1.199979977769445e+000	 2.466690000017617e+000	 1.038580861217604e+001
0	 1.199979977769445e+000	 2.533360000018134e+000	 9.279499456781622e+000
0	 1.199979977769445e+000	 2.600030000017850e+000	 8.165989998473894e+000
0	 1.199979977769445e+000	 2.666700000016666e+000	 7.064470298988880e+000
0	 1.266639997208098e+000	 2.000000000000000e+000	 1.544584453619209e+001
0	 1.266639997208098e+000	 2.066670000003317e+000	 1.477980515575690e+001
0	 1.266639997208098e+000	 2.133340000006534e+000	 1.400172684771896e+001
0	 1.266639997208098e+000	 2.200010000009550e+000	 1.313054596754350e+001
0	 1.266639997208098e+000	 2.266680000012267e+000	 1.218519887069480e+001
0	 1.266639997208098e+000	 2.333350000014584e+000	 1.118462191263613e+001
0	 1.266639997208098e+000	 2.400020000016400e+000	 1.014775144882974e+001
0	 1.266639997208098e+000	 2.466690000017617e+000	 9.093523834736951e+000
0	 1.266639997208098e+000	 2.533360000018133e+000	 8.040875425818056e+000
0	 1.266639997208098e+000	 2.600030000017851e+000	 7.008742577532324e+000
0	 1.266639997208098e+000	 2.666700000016666e+000	 6.016061645338111e+000
0	 1.333299999983334e+000	 2.000000000000000e+000	 1.482077552502396e+001
0	 1.333299999983334e+000	 2.066670000003317e+000	 1.404498751430328e+001
0	 1.333299999983334e+000	 2.133340000006534e+000	 1.318399759095938e+001
0	 1.333299999983334e+000	 2.200010000009550e+000	 1.225595238734337e+001
0	 1.333299999983334e+000	 2.266680000012267e+000	 1.127899853580554e+001
0	 1.333299999983334e+000	 2.333350000014584e+000	 1.027128266869541e+001
0	 1.333299999983334e+000	 2.400020000016401e+000	 9.250951418361670e+000
0	 1.333299999983334e+000	 2.466690000017617e+000	 8.236151417152220e+000
0	 1.333299999983334e+000	 2.533360000018134e+000	 7.245029297414177e+000
0	 1.333299999983334e+000	 2.600030000017851e+000	 6.295731691493780e+000
0	 1.333299999983334e+000	 2.666700000016666e+000	 5.406405231736597e+000
0	 6.666972226472177e-001	 2.666700000016667e+000	 3.270644449532096e+001
0	 6.666972226472175e-001	 2.733360000014533e+000	 3.187400101070867e+001
0	 6.666972226472178e-001	 2.800020000011599e+000	 3.098956570765698e+001
0	 6.666972226472177e-001	 2.866680000008067e+000	 3.005831732323435e+001
0	 6.666972226472178e-001	 2.933340000004133e+000	 2.908543459450964e+001
0	 6.666972226472175e-001	 3.000000000000000e+000	 2.807609625855223e+001
0	 6.666972226472178e-001	 3.066659999995867e+000	 2.703548105243196e+001
0	 6.666972226472175e-001	 3.133319999991933e+000	 2.596876771321912e+001
0	 6.666972226472178e-001	 3.199979999988400e+000	 2.488113497798455e+001
0	 6.666972226472177e-001	 3.266639999985467e+000	 2.377776158379946e+001
0	 6.666972226472175e-001	 3.333299999983334e+000	 2.266382626773559e+001
0	 7.333579753122047e-001	 2.666700000016666e+000	 2.771014188772081e+001
0	 7.333579753122049e-001	 2.733360000014534e+000	 2.663981134133990e+001
0	 7.333579753122047e-001	 2.800020000011599e+000	 2.560390267399174e+001
0	 7.333579753122050e-001	 2.866680000008067e+000	 2.460397897406509e+001
0	 7.333579753122048e-001	 2.933340000004133e+000	 2.364160332994821e+001
0	 7.333579753122049e-001	 3.000000000000000e+000	 2.271833883002905e+001
0	 7.333579753122047e-001	 3.066659999995868e+000	 2.183574856269512e+001
0	 7.333579753122048e-001	 3.133319999991934e+000	 2.099539561633342e+001
0	 7.333579753122047e-001	 3.199979999988400e+000	 2.019884307933069e+001
0	 7.333579753122049e-001	 3.266639999985468e+000	 1.944765404007316e+001
0	 7.333579753122049e-001	 3.333299999983334e+000	 1.874339158694664e+001
0	 8.000185779984420e-001	 2.666700000016666e+000	 2.324989229921932e+001
0	 8.000185779984419e-001	 2.733360000014533e+000	 2.202866516880865e+001
0	 8.000185779984418e-001	 2.800020000011599e+000	 2.090842693143399e+001
0	 8.000185779984419e-001	 2.866680000008066e+000	 1.988753787377830e+001
0	 8.000185779984418e-001	 2.933340000004134e+000	 1.896435828252351e+001
0	 8.000185779984419e-001	 3.000000000000000e+000	 1.813724844435057e+001
0	 8.000185779984419e-001	 3.066659999995868e+000	 1.740456864593939e+001
0	 8.000185779984420e-001	 3.133319999991934e+000	 1.676467917396879e+001
0	 8.000185779984418e-001	 3.199979999988400e+000	 1.621594031511679e+001
0	 8.000185779984419e-001	 3.266639999985467e+000	 1.575671235606018e+001
0	 8.000185779984420e-001	 3.333299999983334e+000	 1.538535558347478e+001
0	 8.666790473703455e-001	 2.666700000016666e+000	 1.931353500971401e+001
0	 8.666790473703455e-001	 2.733360000014534e+000	 1.801620139473817e+001
0	 8.666790473703452e-001	 2.800020000011599e+000	 1.686872232638971e+001
0	 8.666790473703454e-001	 2.866680000008067e+000	 1.586666814165365e+001
0	 8.666790473703455e-001	 2.933340000004133e+000	 1.500560917751367e+001
0	 8.666790473703453e-001	 3.000000000000000e+000	 1.428111577095212e+001
0	 8.666790473703453e-001	 3.066659999995866e+000	 1.368875825894986e+001
0	 8.666790473703455e-001	 3.133319999991934e+000	 1.322410697848648e+001
0	 8.666790473703455e-001	 3.199979999988401e+000	 1.288273226654009e+001
0	 8.666790473703454e-001	 3.266639999985467e+000	 1.266020446008756e+001
0	 8.666790473703454e-001	 3.333299999983333e+000	 1.255209389610424e+001
0	 9.333394000923324e-001	 2.666700000016666e+000	 1.588890876276331e+001
0	 9.333394000923323e-001	 2.733360000014533e+000	 1.457805838101244e+001
0	 9.333394000923322e-001	 2.800020000011600e+000	 1.345037216853808e+001
0	 9.333394000923322e-001	 2.866680000008067e+000	 1.249904336904993e+001
0	 9.333394000923324e-001	 2.933340000004133e+000	 1.171726522625621e+001
0	 9.333394000923324e-001	 3.000000000000000e+000	 1.109823098386356e+001
0	 9.333394000923324e-001	 3.066659999995867e+000	 1.063513388557711e+001
0	 9.333394000923321e-001	 3.133319999991933e+000	 1.032116717510049e+001
0	 9.333394000923322e-001	 3.199979999988401e+000	 1.014952409613571e+001
0	 9.333394000923324e-001	 3.266639999985467e+000	 1.011339789238330e+001
0	 9.333394000923324e-001	 3.333299999983334e+000	 1.020598180754225e+001
0	 9.999996528288191e-001	 2.666700000016666e+000	 1.296385176557100e+001
0	 9.999996528288191e-001	 2.733360000014533e+000	 1.168987394976055e+001
0	 9.999996528288192e-001	 2.800020000011600e+000	 1.061895923081600e+001
0	 9.999996528288192e-001	 2.866680000008067e+000	 9.742336619389821e+000
0	 9.999996528288193e-001	 2.933340000004133e+000	 9.051235126132994e+000
0	 9.999996528288189e-001	 2.999999999999999e+000	 8.536883761694908e+000
0	 9.999996528288193e-001	 3.066659999995867e+000	 8.190511536723491e+000
0	 9.999996528288191e-001	 3.133319999991934e+000	 8.003347461865117e+000
0	 9.999996528288192e-001	 3.199979999988401e+000	 7.966620547764596e+000
0	 9.999996528288191e-001	 3.266639999985467e+000	 8.071559805065220e+000
0	 9.999996528288191e-001	 3.333299999983334e+000	 8.309394244408836e+000
0	 1.066659822244223e+000	 2.666700000016667e+000	 1.052620168897249e+001
0	 1.066659822244223e+000	 2.733360000014533e+000	 9.327285383342957e+000
0	 1.066659822244223e+000	 2.800020000011600e+000	 8.340065749404458e+000
0	 1.066659822244222e+000	 2.866680000008066e+000	 7.554220428146595e+000
0	 1.066659822244223e+000	 2.933340000004133e+000	 6.959427060557480e+000
0	 1.066659822244222e+000	 2.999999999999999e+000	 6.545363287623907e+000
0	 1.066659822244222e+000	 3.066659999995865e+000	 6.301706750331219e+000
0	 1.066659822244223e+000	 3.133319999991933e+000	 6.218135089663408e+000
0	 1.066659822244223e+000	 3.199979999988401e+000	 6.284325946602988e+000
0	 1.066659822244222e+000	 3.266639999985466e+000	 6.489956962131215e+000
0	 1.066659822244222e+000	 3.333299999983333e+000	 6.824705777227764e+000
0	 1.133319925002959e+000	 2.666700000016666e+000	 8.563795667423181e+000
0	 1.133319925002959e+000	 2.733360000014532e+000	 7.465929424339824e+000
0	 1.133319925002959e+000	 2.800020000011601e+000	 6.579273423717031e+000
0	 1.133319925002959e+000	 2.866680000008066e+000	 5.892366802832698e+000
0	 1.133319925002959e+000	 2.933340000004133e+000	 5.393748698963623e+000
0	 1.133319925002959e+000	 3.000000000000000e+000	 5.071958249385376e+000
0	 1.133319925002959e+000	 3.066659999995867e+000	 4.915534591372360e+000
0	 1.133319925002959e+000	 3.133319999991934e+000	 4.913016862197734e+000
0	 1.133319925002959e+000	 3.199979999988400e+000	 5.052944199133624e+000
0	 1.133319925002959e+000	 3.266639999985467e+000	 5.323855739450821e+000
0	 1.133319925002959e+000	 3.333299999983334e+000	 5.714290620419025e+000
0	 1.199979977769445e+000	 2.666700000016666e+000	 7.064470298988884e+000
0	 1.199979977769445e+000	 2.733360000014534e+000	 6.081442275541464e+000
0	 1.199979977769445e+000	 2.800020000011600e+000	 5.302163416390257e+000
0	 1.199979977769446e+000	 2.866680000008067e+000	 4.714447222990545e+000
0	 1.199979977769445e+000	 2.933340000004133e+000	 4.306107196796793e+000
0	 1.199979977769445e+000	 3.000000000000000e+000	 4.064956839262528e+000
0	 1.199979977769445e+000	 3.066659999995865e+000	 3.978809651840319e+000
0	 1.199979977769445e+000	 3.133319999991933e+000	 4.035479135981913e+000
0	 1.199979977769445e+000	 3.199979999988401e+000	 4.222778793138048e+000
0	 1.199979977769445e+000	 3.266639999985467e+000	 4.528522124758621e+000
0	 1.199979977769445e+000	 3.333299999983334e+000	 4.940522632292556e+000
0	 1.266639997208098e+000	 2.666700000016666e+000	 6.016061645338111e+000
0	 1.266639997208098e+000	 2.733360000014533e+000	 5.149459599940651e+000
0	 1.266639997208098e+000	 2.800020000011600e+000	 4.474316353276184e+000
0	 1.266639997208098e+000	 2.866680000008066e+000	 3.978132640184985e+000
0	 1.266639997208098e+000	 2.933340000004134e+000	 3.648409195506612e+000
0	 1.266639997208098e+000	 3.000000000000000e+000	 3.472646754080033e+000
0	 1.266639997208098e+000	 3.066659999995867e+000	 3.438346050743583e+000
0	 1.266639997208098e+000	 3.133319999991934e+000	 3.533007820334923e+000
0	 1.266639997208098e+000	 3.199979999988401e+000	 3.744132797691147e+000
0	 1.266639997208098e+000	 3.266639999985467e+000	 4.059221717648625e+000
0	 1.266639997208098e+000	 3.333299999983334e+000	 4.465775315043132e+000
0	 1.333299999983334e+000	 2.666700000016666e+000	 5.406405231736597e+000
0	 1.333299999983334e+000	 2.733360000014532e+000	 4.645616520726994e+000
0	 1.333299999983334e+000	 2.800020000011599e+000	 4.061312323436876e+000
0	 1.333299999983334e+000	 2.866680000008067e+000	 3.641093477998007e+000
0	 1.333299999983334e+000	 2.933340000004133e+000	 3.372560822541736e+000
0	 1.333299999983334e+000	 3.000000000000000e+000	 3.243315195199071e+000
0	 1.333299999983334e+000	 3.066659999995867e+000	 3.240957434100614e+000
0	 1.333299999983334e+000	 3.133319999991934e+000	 3.353088377376530e+000
0	 1.333299999983334e+000	 3.199979999988401e+000	 3.567308863156699e+000
0	 1.333299999983334e+000	 3.266639999985467e+000	 3.871219729570475e+000
0	 1.333299999983334e+000	 3.333299999983334e+000	 4.252421814746947e+000
0	 6.666972226472175e-001	 3.333299999983334e+000	 2.266382626773559e+001
0	 6.666972226472177e-001	 3.399969999982150e+000	 2.155981776113318e+001
0	 6.666972226472177e-001	 3.466639999981867e+000	 2.048255296451820e+001
0	 6.666972226472177e-001	 3.533309999982382e+000	 1.943119994793543e+001
0	 6.666972226472177e-001	 3.599979999983599e+000	 1.840492678142963e+001
0	 6.666972226472175e-001	 3.666649999985416e+000	 1.740290153504572e+001
0	 6.666972226472175e-001	 3.733319999987733e+000	 1.642429227882850e+001
0	 6.666972226472175e-001	 3.799989999990450e+000	 1.546826708282302e+001
0	 6.666972226472177e-001	 3.866659999993467e+000	 1.453399401707427e+001
0	 6.666972226472175e-001	 3.933329999996683e+000	 1.362064115162733e+001
0	 6.666972226472175e-001	 4.000000000000001e+000	 1.272737655652739e+001
0	 7.333579753122049e-001	 3.333299999983334e+000	 1.874339158694665e+001
0	 7.333579753122048e-001	 3.399969999982150e+000	 1.807107932082317e+001
0	 7.333579753122047e-001	 3.466639999981868e+000	 1.741250071967182e+001
0	 7.333579753122048e-001	 3.533309999982382e+000	 1.676405253174953e+001
0	 7.333579753122049e-001	 3.599979999983600e+000	 1.612213150531306e+001
0	 7.333579753122046e-001	 3.666649999985416e+000	 1.548313438861919e+001
0	 7.333579753122047e-001	 3.733319999987733e+000	 1.484345792992460e+001
0	 7.333579753122048e-001	 3.799989999990450e+000	 1.419949887748583e+001
0	 7.333579753122048e-001	 3.866659999993467e+000	 1.354765397955949e+001
0	 7.333579753122047e-001	 3.933329999996684e+000	 1.288431998440194e+001
0	 7.333579753122048e-001	 4.000000000000002e+000	 1.220589364026959e+001
0	 8.000185779984420e-001	 3.333299999983334e+000	 1.538535558347478e+001
0	 8.000185779984421e-001	 3.399969999982151e+000	 1.506244730727790e+001
0	 8.000185779984418e-001	 3.466639999981866e+000	 1.474570702345590e+001
0	 8.000185779984418e-001	 3.533309999982383e+000	 1.442906069753976e+001
0	 8.000185779984419e-001	 3.599979999983600e+000	 1.410643429506046e+001
0	 8.000185779984420e-001	 3.666649999985417e+000	 1.377175378154865e+001
0	 8.000185779984417e-001	 3.733319999987733e+000	 1.341894512253493e+001
0	 8.000185779984418e-001	 3.799989999990451e+000	 1.304193428354964e+001
0	 8.000185779984416e-001	 3.866659999993466e+000	 1.263464723012310e+001
0	 8.000185779984418e-001	 3.933329999996683e+000	 1.219100992778531e+001
0	 8.000185779984418e-001	 4.000000000000001e+000	 1.170494834206626e+001
0	 8.666790473703454e-001	 3.333299999983333e+000	 1.255209389610425e+001
0	 8.666790473703452e-001	 3.399969999982150e+000	 1.250408191293642e+001
0	 8.666790473703453e-001	 3.466639999981866e+000	 1.245932248982549e+001
0	 8.666790473703455e-001	 3.533309999982383e+000	 1.240957135240751e+001
0	 8.666790473703453e-001	 3.599979999983600e+000	 1.234658422631837e+001
0	 8.666790473703453e-001	 3.666649999985416e+000	 1.226211683719373e+001
0	 8.666790473703456e-001	 3.733319999987733e+000	 1.214792491066906e+001
0	 8.666790473703456e-001	 3.799989999990451e+000	 1.199576417237964e+001
0	 8.666790473703452e-001	 3.866659999993467e+000	 1.179739034796055e+001
0	 8.666790473703453e-001	 3.933329999996683e+000	 1.154455916304669e+001
0	 8.666790473703455e-001	 4.000000000000001e+000	 1.122902634327272e+001
0	 9.333394000923324e-001	 3.333299999983334e+000	 1.020598180754225e+001
0	 9.333394000923320e-001	 3.399969999982149e+000	 1.036614300705570e+001
0	 9.333394000923324e-001	 3.466639999981867e+000	 1.053049744283774e+001
0	 9.333394000923322e-001	 3.533309999982383e+000	 1.068893114677851e+001
0	 9.333394000923324e-001	 3.599979999983600e+000	 1.083133015076798e+001
0	 9.333394000923322e-001	 3.666649999985416e+000	 1.094758048669589e+001
0	 9.333394000923323e-001	 3.733319999987733e+000	 1.102756818645178e+001
0	 9.333394000923319e-001	 3.799989999990449e+000	 1.106117928192499e+001
0	 9.333394000923324e-001	 3.866659999993468e+000	 1.103829980500467e+001
0	 9.333394000923323e-001	 3.933329999996683e+000	 1.094881578757978e+001
0	 9.333394000923324e-001	 4.000000000000000e+000	 1.078261326153903e+001
0	 9.999996528288191e-001	 3.333299999983334e+000	 8.309394244408834e+000
0	 9.999996528288189e-001	 3.399969999982150e+000	 8.618790135701248e+000
0	 9.999996528288191e-001	 3.466639999981867e+000	 8.936381916643319e+000
0	 9.999996528288190e-001	 3.533309999982383e+000	 9.250486474395702e+000
0	 9.999996528288191e-001	 3.599979999983600e+000	 9.549420696118810e+000
0	 9.999996528288190e-001	 3.666649999985416e+000	 9.821501468972990e+000
0	 9.999996528288191e-001	 3.733319999987733e+000	 1.005504568011835e+001
0	 9.999996528288192e-001	 3.799989999990450e+000	 1.023837021671484e+001
0	 9.999996528288191e-001	 3.866659999993466e+000	 1.035979196592223e+001
0	 9.999996528288193e-001	 3.933329999996685e+000	 1.040762781490010e+001
0	 9.999996528288191e-001	 4.000000000000000e+000	 1.037019465080792e+001
0	 1.066659822244222e+000	 3.333299999983333e+000	 6.824705777227762e+000
0	 1.066659822244222e+000	 3.399969999982150e+000	 7.232182521738984e+000
0	 1.066659822244222e+000	 3.466639999981866e+000	 7.654125655479207e+000
0	 1.066659822244222e+000	 3.533309999982383e+000	 8.077583472312506e+000
0	 1.066659822244222e+000	 3.599979999983600e+000	 8.489604266102875e+000
0	 1.066659822244222e+000	 3.666649999985416e+000	 8.877236330714224e+000
0	 1.066659822244222e+000	 3.733319999987733e+000	 9.227527960010342e+000
0	 1.066659822244223e+000	 3.799989999990450e+000	 9.527527447854837e+000
0	 1.066659822244222e+000	 3.866659999993466e+000	 9.764283088111228e+000
0	 1.066659822244223e+000	 3.933329999996684e+000	 9.924843174642900e+000
0	 1.066659822244223e+000	 4.000000000000000e+000	 9.996256001313167e+000
0	 1.133319925002959e+000	 3.333299999983334e+000	 5.714290620419022e+000
0	 1.133319925002959e+000	 3.399969999982149e+000	 6.176479064828368e+000
0	 1.133319925002959e+000	 3.466639999981866e+000	 6.660878113662379e+000
0	 1.133319925002959e+000	 3.533309999982382e+000	 7.153568020887420e+000
0	 1.133319925002959e+000	 3.599979999983600e+000	 7.640629040469889e+000
0	 1.133319925002959e+000	 3.666649999985416e+000	 8.108141426376003e+000
0	 1.133319925002959e+000	 3.733319999987733e+000	 8.542185432572078e+000
0	 1.133319925002959e+000	 3.799989999990450e+000	 8.928841313024226e+000
0	 1.133319925002959e+000	 3.866659999993466e+000	 9.254189321698593e+000
0	 1.133319925002959e+000	 3.933329999996684e+000	 9.504309712561231e+000
0	 1.133319925002959e+000	 4.000000000000000e+000	 9.665282739578171e+000
0	 1.199979977769445e+000	 3.333299999983334e+000	 4.940522632292551e+000
0	 1.199979977769446e+000	 3.399969999982150e+000	 5.421838341416573e+000
0	 1.199979977769445e+000	 3.466639999981866e+000	 5.933788455584767e+000
0	 1.199979977769445e+000	 3.533309999982383e+000	 6.461785743779528e+000
0	 1.199979977769445e+000	 3.599979999983599e+000	 6.991242974983281e+000
0	 1.199979977769445e+000	 3.666649999985416e+000	 7.507572918178533e+000
0	 1.199979977769445e+000	 3.733319999987733e+000	 7.996188342347749e+000
0	 1.199979977769445e+000	 3.799989999990450e+000	 8.442502016473441e+000
0	 1.199979977769445e+000	 3.866659999993466e+000	 8.831926709538113e+000
0	 1.199979977769445e+000	 3.933329999996684e+000	 9.149875190524339e+000
0	 1.199979977769445e+000	 4.000000000000000e+000	 9.381760228414633e+000
0	 1.266639997208098e+000	 3.333299999983334e+000	 4.465775315043132e+000
0	 1.266639997208098e+000	 3.399969999982151e+000	 4.938418604734121e+000
0	 1.266639997208098e+000	 3.466639999981867e+000	 5.450005555709173e+000
0	 1.266639997208098e+000	 3.533309999982383e+000	 5.985582007944669e+000
0	 1.266639997208098e+000	 3.599979999983599e+000	 6.530193801417107e+000
0	 1.266639997208098e+000	 3.666649999985415e+000	 7.068886776103019e+000
0	 1.266639997208098e+000	 3.733319999987732e+000	 7.586706771979118e+000
0	 1.266639997208098e+000	 3.799989999990451e+000	 8.068699629022140e+000
0	 1.266639997208098e+000	 3.866659999993466e+000	 8.499911187208898e+000
0	 1.266639997208098e+000	 3.933329999996684e+000	 8.865387286516404e+000
0	 1.266639997208098e+000	 4.000000000000001e+000	 9.150173766921657e+000
0	 1.333299999983334e+000	 3.333299999983334e+000	 4.252421814746949e+000
0	 1.333299999983334e+000	 3.399969999982149e+000	 4.696377784791428e+000
0	 1.333299999983334e+000	 3.466639999981867e+000	 5.186677998566267e+000
0	 1.333299999983334e+000	 3.533309999982383e+000	 5.708301923633075e+000
0	 1.333299999983334e+000	 3.599979999983599e+000	 6.246229027553574e+000
0	 1.333299999983334e+000	 3.666649999985416e+000	 6.785438777889771e+000
0	 1.333299999983334e+000	 3.733319999987733e+000	 7.310910642203722e+000
0	 1.333299999983334e+000	 3.799989999990450e+000	 7.807624088057724e+000
0	 1.333299999983334e+000	 3.866659999993467e+000	 8.260558583014163e+000
0	 1.333299999983334e+000	 3.933329999996683e+000	 8.654693594635676e+000
0	 1.333299999983334e+000	 4.000000000000000e+000	 8.975008590484977e+000
0	 6.666972226472175e-001	 4.000000000000001e+000	 1.272737655652739e+001
0	 6.666972226472178e-001	 4.066670000003317e+000	 1.189484822118141e+001
0	 6.666972226472177e-001	 4.133340000006535e+000	 1.116373710157739e+001
0	 6.666972226472177e-001	 4.200010000009550e+000	 1.053326071763275e+001
0	 6.666972226472177e-001	 4.266680000012267e+000	 1.000263658926569e+001
0	 6.666972226472175e-001	 4.333350000014583e+000	 9.571082236395201e+000
0	 6.666972226472175e-001	 4.400020000016400e+000	 9.237815178941110e+000
0	 6.666972226472175e-001	 4.466690000017618e+000	 9.002052936824020e+000
0	 6.666972226472177e-001	 4.533360000018134e+000	 8.863013029965380e+000
0	 6.666972226472177e-001	 4.600030000017851e+000	 8.819912978287402e+000
0	 6.666972226472178e-001	 4.666700000016666e+000	 8.871970301713120e+000
0	 7.333579753122048e-001	 4.000000000000002e+000	 1.220589364026959e+001
0	 7.333579753122047e-001	 4.066670000003317e+000	 1.155332265143911e+001
0	 7.333579753122047e-001	 4.133340000006533e+000	 1.097091286898264e+001
0	 7.333579753122049e-001	 4.200010000009551e+000	 1.046009826135028e+001
0	 7.333579753122048e-001	 4.266680000012269e+000	 1.002231279699279e+001
0	 7.333579753122047e-001	 4.333350000014584e+000	 9.658990444361690e+000
0	 7.333579753122049e-001	 4.400020000016401e+000	 9.371565171909154e+000
0	 7.333579753122048e-001	 4.466690000017619e+000	 9.161470948088132e+000
0	 7.333579753122048e-001	 4.533360000018134e+000	 9.030141741352251e+000
0	 7.333579753122048e-001	 4.600030000017851e+000	 8.979011520155851e+000
0	 7.333579753122047e-001	 4.666700000016665e+000	 9.009514252953990e+000
0	 8.000185779984418e-001	 4.000000000000001e+000	 1.170494834206626e+001
0	 8.000185779984417e-001	 4.066670000003316e+000	 1.121566986392083e+001
0	 8.000185779984416e-001	 4.133340000006532e+000	 1.076870051958376e+001
0	 8.000185779984419e-001	 4.200010000009551e+000	 1.036744422750498e+001
0	 8.000185779984417e-001	 4.266680000012266e+000	 1.001530490613511e+001
0	 8.000185779984419e-001	 4.333350000014585e+000	 9.715686473925331e+000
0	 8.000185779984417e-001	 4.400020000016400e+000	 9.471992849327505e+000
0	 8.000185779984417e-001	 4.466690000017619e+000	 9.287627950794111e+000
0	 8.000185779984417e-001	 4.533360000018134e+000	 9.165995696778230e+000
0	 8.000185779984419e-001	 4.600030000017849e+000	 9.110500005733615e+000
0	 8.000185779984419e-001	 4.666700000016666e+000	 9.124544796114606e+000
0	 8.666790473703455e-001	 4.000000000000001e+000	 1.122902634327272e+001
0	 8.666790473703453e-001	 4.066670000003318e+000	 1.088657261801451e+001
0	 8.666790473703454e-001	 4.133340000006533e+000	 1.056189314413681e+001
0	 8.666790473703454e-001	 4.200010000009550e+000	 1.026011528850790e+001
0	 8.666790473703454e-001	 4.266680000012267e+000	 9.986366417996687e+000
0	 8.666790473703457e-001	 4.333350000014586e+000	 9.745773899472550e+000
0	 8.666790473703452e-001	 4.400020000016400e+000	 9.543465099805447e+000
0	 8.666790473703454e-001	 4.466690000017617e+000	 9.384567385865916e+000
0	 8.666790473703456e-001	 4.533360000018134e+000	 9.274208124525018e+000
0	 8.666790473703452e-001	 4.600030000017849e+000	 9.217514682654393e+000
0	 8.666790473703454e-001	 4.666700000016665e+000	 9.219614427126219e+000
0	 9.333394000923324e-001	 4.000000000000000e+000	 1.078261326153903e+001
0	 9.333394000923323e-001	 4.066670000003316e+000	 1.057071362604208e+001
0	 9.333394000923321e-001	 4.133340000006535e+000	 1.035528379967325e+001
0	 9.333394000923322e-001	 4.200010000009551e+000	 1.014292809345862e+001
0	 9.333394000923320e-001	 4.266680000012266e+000	 9.940250818424733e+000
0	 9.333394000923321e-001	 4.333350000014583e+000	 9.753856285598637e+000
0	 9.333394000923320e-001	 4.400020000016400e+000	 9.590348806007851e+000
0	 9.333394000923323e-001	 4.466690000017618e+000	 9.456332690680384e+000
0	 9.333394000923325e-001	 4.533360000018133e+000	 9.358412250644760e+000
0	 9.333394000923320e-001	 4.600030000017850e+000	 9.303191796929969e+000
0	 9.333394000923324e-001	 4.666700000016667e+000	 9.297275640565493e+000
0	 9.999996528288191e-001	 4.000000000000000e+000	 1.037019465080792e+001
0	 9.999996528288191e-001	 4.066670000003318e+000	 1.027277555325800e+001
0	 9.999996528288190e-001	 4.133340000006534e+000	 1.015366550949886e+001
0	 9.999996528288192e-001	 4.200010000009551e+000	 1.002069926814442e+001
0	 9.999996528288191e-001	 4.266680000012268e+000	 9.881711577809023e+000
0	 9.999996528288192e-001	 4.333350000014583e+000	 9.744537187107465e+000
0	 9.999996528288192e-001	 4.400020000016402e+000	 9.617010844654926e+000
0	 9.999996528288190e-001	 4.466690000017617e+000	 9.506967299067057e+000
0	 9.999996528288191e-001	 4.533360000018134e+000	 9.422241298959948e+000
0	 9.999996528288189e-001	 4.600030000017849e+000	 9.370667592950108e+000
0	 9.999996528288191e-001	 4.666700000016665e+000	 9.360080929654480e+000
0	 1.066659822244223e+000	 4.000000000000000e+000	 9.996256001313167e+000
0	 1.066659822244223e+000	 4.066670000003318e+000	 9.997441017848054e+000
0	 1.066659822244223e+000	 4.133340000006535e+000	 9.961831263192829e+000
0	 1.066659822244222e+000	 4.200010000009551e+000	 9.898245415039757e+000
0	 1.066659822244222e+000	 4.266680000012267e+000	 9.815502151081509e+000
0	 1.066659822244223e+000	 4.333350000014584e+000	 9.722420149011120e+000
0	 1.066659822244222e+000	 4.400020000016401e+000	 9.627818086522016e+000
0	 1.066659822244223e+000	 4.466690000017619e+000	 9.540514641308011e+000
0	 1.066659822244223e+000	 4.533360000018134e+000	 9.469328491063312e+000
0	 1.066659822244223e+000	 4.600030000017851e+000	 9.423078313482503e+000
0	 1.066659822244223e+000	 4.666700000016665e+000	 9.410582786260550e+000
0	 1.133319925002959e+000	 4.000000000000000e+000	 9.665282739578171e+000
0	 1.133319925002959e+000	 4.066670000003318e+000	 9.749392590928199e+000
0	 1.133319925002959e+000	 4.133340000006535e+000	 9.784574016606891e+000
0	 1.133319925002959e+000	 4.200010000009551e+000	 9.780383113305552e+000
0	 1.133319925002959e+000	 4.266680000012268e+000	 9.746375977715799e+000
0	 1.133319925002959e+000	 4.333350000014584e+000	 9.692108706529632e+000
0	 1.133319925002959e+000	 4.400020000016400e+000	 9.627137396439387e+000
0	 1.133319925002959e+000	 4.466690000017617e+000	 9.561018144137742e+000
0	 1.133319925002959e+000	 4.533360000018133e+000	 9.503307046317714e+000
0	 1.133319925002959e+000	 4.600030000017849e+000	 9.463560199672676e+000
0	 1.133319925002959e+000	 4.666700000016667e+000	 9.451333700896319e+000
0	 1.199979977769445e+000	 4.000000000000000e+000	 9.381760228414635e+000
0	 1.199979977769445e+000	 4.066670000003318e+000	 9.533312796543630e+000
0	 1.199979977769445e+000	 4.133340000006533e+000	 9.626686691864709e+000
0	 1.199979977769445e+000	 4.200010000009551e+000	 9.671928918788733e+000
0	 1.199979977769445e+000	 4.266680000012268e+000	 9.679086481726918e+000
0	 1.199979977769445e+000	 4.333350000014583e+000	 9.658206385090761e+000
0	 1.199979977769445e+000	 4.400020000016402e+000	 9.619335633292105e+000
0	 1.199979977769446e+000	 4.466690000017618e+000	 9.572521230743060e+000
0	 1.199979977769445e+000	 4.533360000018133e+000	 9.527810181856088e+000
0	 1.199979977769445e+000	 4.600030000017851e+000	 9.495249491043920e+000
0	 1.199979977769445e+000	 4.666700000016665e+000	 9.484886162719610e+000
0	 1.266639997208098e+000	 4.000000000000001e+000	 9.150173766921657e+000
0	 1.266639997208098e+000	 4.066670000003318e+000	 9.353884111668046e+000
0	 1.266639997208098e+000	 4.133340000006534e+000	 9.492962177361218e+000
0	 1.266639997208098e+000	 4.200010000009551e+000	 9.577699364021850e+000
0	 1.266639997208098e+000	 4.266680000012267e+000	 9.618387071670938e+000
0	 1.266639997208098e+000	 4.333350000014585e+000	 9.625316700329751e+000
0	 1.266639997208098e+000	 4.400020000016401e+000	 9.608779650019825e+000
0	 1.266639997208098e+000	 4.466690000017618e+000	 9.579067320762986e+000
0	 1.266639997208098e+000	 4.533360000018133e+000	 9.546471112581333e+000
0	 1.266639997208098e+000	 4.600030000017850e+000	 9.521282425497255e+000
0	 1.266639997208098e+000	 4.666700000016666e+000	 9.513792659533401e+000
0	 1.333299999983334e+000	 4.000000000000000e+000	 8.975008590484977e+000
0	 1.333299999983334e+000	 4.066670000003317e+000	 9.215788966203052e+000
0	 1.333299999983334e+000	 4.133340000006535e+000	 9.388193327762235e+000
0	 1.333299999983334e+000	 4.200010000009550e+000	 9.502510958222683e+000
0	 1.333299999983334e+000	 4.266680000012268e+000	 9.569031140644771e+000
0	 1.333299999983334e+000	 4.333350000014584e+000	 9.598043158089153e+000
0	 1.333299999983334e+000	 4.400020000016402e+000	 9.599836293616724e+000
0	 1.333299999983334e+000	 4.466690000017619e+000	 9.584699830288633e+000
0	 1.333299999983334e+000	 4.533360000018134e+000	 9.562923051166285e+000
0	 1.333299999983334e+000	 4.600030000017851e+000	 9.544795239311359e+000
0	 1.333299999983334e+000	 4.666700000016667e+000	 9.540605677785768e+000
0	 6.666972226472178e-001	 4.666700000016666e+000	 8.871970301713120e+000
0	 6.666972226472177e-001	 4.733360000014533e+000	 8.968128283677842e+000
0	 6.666972226472177e-001	 4.800020000011600e+000	 9.057514893660969e+000
0	 6.666972226472178e-001	 4.866680000008067e+000	 9.139579964055354e+000
0	 6.666972226472175e-001	 4.933340000004133e+000	 9.213773327254074e+000
0	 6.666972226472174e-001	 4.999999999999999e+000	 9.279544815650374e+000
0	 6.666972226472178e-001	 5.066659999995868e+000	 9.336344261637729e+000
0	 6.666972226472177e-001	 5.133319999991935e+000	 9.383621497609790e+000
0	 6.666972226472178e-001	 5.199979999988400e+000	 9.420826355960415e+000
0	 6.666972226472177e-001	 5.266639999985468e+000	 9.447408669083650e+000
0	 6.666972226472175e-001	 5.333299999983334e+000	 9.462818269373765e+000
0	 7.333579753122047e-001	 4.666700000016665e+000	 9.009514252953990e+000
0	 7.333579753122049e-001	 4.733360000014534e+000	 9.079432471560677e+000
0	 7.333579753122046e-001	 4.800020000011598e+000	 9.145295384033915e+000
0	 7.333579753122049e-001	 4.866680000008067e+000	 9.206624666071063e+000
0	 7.333579753122049e-001	 4.933340000004135e+000	 9.262941993369585e+000
0	 7.333579753122050e-001	 5.000000000000000e+000	 9.313769041627088e+000
0	 7.333579753122047e-001	 5.066659999995867e+000	 9.358627486541332e+000
0	 7.333579753122048e-001	 5.133319999991935e+000	 9.397039003810212e+000
0	 7.333579753122048e-001	 5.199979999988400e+000	 9.428525269131731e+000
0	 7.333579753122052e-001	 5.266639999985467e+000	 9.452607958204066e+000
0	 7.333579753122048e-001	 5.333299999983334e+000	 9.468808746725495e+000
0	 8.000185779984419e-001	 4.666700000016666e+000	 9.124544796114607e+000
0	 8.000185779984421e-001	 4.733360000014534e+000	 9.173621618458732e+000
0	 8.000185779984419e-001	 4.800020000011602e+000	 9.220700624429181e+000
0	 8.000185779984418e-001	 4.866680000008066e+000	 9.265381157941414e+000
0	 8.000185779984419e-001	 4.933340000004133e+000	 9.307262562910948e+000
0	 8.000185779984418e-001	 5.000000000000000e+000	 9.345944183253421e+000
0	 8.000185779984419e-001	 5.066659999995867e+000	 9.381025362884534e+000
0	 8.000185779984420e-001	 5.133319999991934e+000	 9.412105445720084e+000
0	 8.000185779984418e-001	 5.199979999988401e+000	 9.438783775675937e+000
0	 8.000185779984418e-001	 5.266639999985467e+000	 9.460659696668069e+000
0	 8.000185779984419e-001	 5.333299999983336e+000	 9.477332552612529e+000
0	 8.666790473703454e-001	 4.666700000016665e+000	 9.219614427126219e+000
0	 8.666790473703455e-001	 4.733360000014535e+000	 9.252655557113698e+000
0	 8.666790473703452e-001	 4.800020000011600e+000	 9.285166546365581e+000
0	 8.666790473703454e-001	 4.866680000008067e+000	 9.316830231907947e+000
0	 8.666790473703455e-001	 4.933340000004133e+000	 9.347329450766940e+000
0	 8.666790473703455e-001	 5.000000000000000e+000	 9.376347039968698e+000
0	 8.666790473703454e-001	 5.066659999995865e+000	 9.403565836539457e+000
0	 8.666790473703455e-001	 5.133319999991934e+000	 9.428668677505481e+000
0	 8.666790473703455e-001	 5.199979999988401e+000	 9.451338399893061e+000
0	 8.666790473703455e-001	 5.266639999985467e+000	 9.471257840728558e+000
0	 8.666790473703454e-001	 5.333299999983334e+000	 9.488109837038378e+000
0	 9.333394000923324e-001	 4.666700000016667e+000	 9.297275640565493e+000
0	 9.333394000923324e-001	 4.733360000014534e+000	 9.318494119146395e+000
0	 9.333394000923323e-001	 4.800020000011600e+000	 9.340129080495508e+000
0	 9.333394000923324e-001	 4.866680000008067e+000	 9.361952679612223e+000
0	 9.333394000923324e-001	 4.933340000004133e+000	 9.383737071495915e+000
0	 9.333394000923323e-001	 5.000000000000000e+000	 9.405254411146018e+000
0	 9.333394000923324e-001	 5.066659999995867e+000	 9.426276853561921e+000
0	 9.333394000923325e-001	 5.133319999991934e+000	 9.446576553743105e+000
0	 9.333394000923323e-001	 5.199979999988401e+000	 9.465925666689010e+000
0	 9.333394000923325e-001	 5.266639999985470e+000	 9.484096347399097e+000
0	 9.333394000923324e-001	 5.333299999983335e+000	 9.500860750872871e+000
0	 9.999996528288191e-001	 4.666700000016665e+000	 9.360080929654480e+000
0	 9.999996528288191e-001	 4.733360000014534e+000	 9.373097135056788e+000
0	 9.999996528288190e-001	 4.800020000011599e+000	 9.387024156604955e+000
0	 9.999996528288191e-001	 4.866680000008067e+000	 9.401729292095748e+000
0	 9.999996528288193e-001	 4.933340000004134e+000	 9.417079839325922e+000
0	 9.999996528288190e-001	 4.999999999999999e+000	 9.432943096092252e+000
0	 9.999996528288192e-001	 5.066659999995866e+000	 9.449186360191479e+000
0	 9.999996528288191e-001	 5.133319999991935e+000	 9.465676929420342e+000
0	 9.999996528288192e-001	 5.199979999988400e+000	 9.482282101575585e+000
0	 9.999996528288192e-001	 5.266639999985466e+000	 9.498869174453937e+000
0	 9.999996528288190e-001	 5.333299999983333e+000	 9.515305445852084e+000
0	 1.066659822244223e+000	 4.666700000016665e+000	 9.410582786260553e+000
0	 1.066659822244223e+000	 4.733360000014534e+000	 9.418424434223871e+000
0	 1.066659822244223e+000	 4.800020000011601e+000	 9.427287703613366e+000
0	 1.066659822244222e+000	 4.866680000008065e+000	 9.437140859799964e+000
0	 1.066659822244223e+000	 4.933340000004134e+000	 9.447952168154568e+000
0	 1.066659822244223e+000	 5.000000000000001e+000	 9.459689894048079e+000
0	 1.066659822244223e+000	 5.066659999995867e+000	 9.472322302851342e+000
0	 1.066659822244223e+000	 5.133319999991935e+000	 9.485817659935213e+000
0	 1.066659822244222e+000	 5.199979999988401e+000	 9.500144230670481e+000
0	 1.066659822244223e+000	 5.266639999985467e+000	 9.515270280427957e+000
0	 1.066659822244222e+000	 5.333299999983333e+000	 9.531164074578401e+000
0	 1.133319925002959e+000	 4.666700000016667e+000	 9.451333700896319e+000
0	 1.133319925002959e+000	 4.733360000014533e+000	 9.456435844905661e+000
0	 1.133319925002959e+000	 4.800020000011601e+000	 9.462355649573704e+000
0	 1.133319925002959e+000	 4.866680000008065e+000	 9.469168172566242e+000
0	 1.133319925002959e+000	 4.933340000004135e+000	 9.476948471549056e+000
0	 1.133319925002959e+000	 5.000000000000000e+000	 9.485771604187882e+000
0	 1.133319925002959e+000	 5.066659999995867e+000	 9.495712628148418e+000
0	 1.133319925002959e+000	 5.133319999991935e+000	 9.506846601096324e+000
0	 1.133319925002959e+000	 5.199979999988400e+000	 9.519248580697241e+000
0	 1.133319925002959e+000	 5.266639999985467e+000	 9.532993624616765e+000
0	 1.133319925002959e+000	 5.333299999983335e+000	 9.548156790520448e+000
0	 1.199979977769445e+000	 4.666700000016665e+000	 9.484886162719613e+000
0	 1.199979977769445e+000	 4.733360000014533e+000	 9.489091194239121e+000
0	 1.199979977769445e+000	 4.800020000011599e+000	 9.493663921672322e+000
0	 1.199979977769446e+000	 4.866680000008067e+000	 9.498792019635808e+000
0	 1.199979977769445e+000	 4.933340000004133e+000	 9.504663162746121e+000
0	 1.199979977769445e+000	 4.999999999999999e+000	 9.511465025619788e+000
0	 1.199979977769445e+000	 5.066659999995866e+000	 9.519385282873254e+000
0	 1.199979977769445e+000	 5.133319999991933e+000	 9.528611609122963e+000
0	 1.199979977769445e+000	 5.199979999988399e+000	 9.539331678985288e+000
0	 1.199979977769445e+000	 5.266639999985467e+000	 9.551733167076568e+000
0	 1.199979977769445e+000	 5.333299999983335e+000	 9.566003748013106e+000
0	 1.266639997208098e+000	 4.666700000016666e+000	 9.513792659533401e+000
0	 1.266639997208098e+000	 4.733360000014533e+000	 9.518350308240148e+000
0	 1.266639997208098e+000	 4.800020000011601e+000	 9.522648446229002e+000
0	 1.266639997208098e+000	 4.866680000008067e+000	 9.526993189649730e+000
0	 1.266639997208098e+000	 4.933340000004135e+000	 9.531690654652046e+000
0	 1.266639997208098e+000	 4.999999999999999e+000	 9.537046957385615e+000
0	 1.266639997208098e+000	 5.066659999995866e+000	 9.543368214000063e+000
0	 1.266639997208098e+000	 5.133319999991934e+000	 9.550960540644967e+000
0	 1.266639997208098e+000	 5.199979999988400e+000	 9.560130053469864e+000
0	 1.266639997208098e+000	 5.266639999985467e+000	 9.571182868624247e+000
0	 1.266639997208098e+000	 5.333299999983331e+000	 9.584425102257548e+000
0	 1.333299999983334e+000	 4.666700000016667e+000	 9.540605677785770e+000
0	 1.333299999983334e+000	 4.733360000014533e+000	 9.546173011803523e+000
0	 1.333299999983334e+000	 4.800020000011600e+000	 9.550745148696889e+000
0	 1.333299999983334e+000	 4.866680000008067e+000	 9.554752470648916e+000
0	 1.333299999983334e+000	 4.933340000004134e+000	 9.558625359842594e+000
0	 1.333299999983334e+000	 5.000000000000000e+000	 9.562794198460878e+000
0	 1.333299999983334e+000	 5.066659999995867e+000	 9.567689368686658e+000
0	 1.333299999983334e+000	 5.133319999991934e+000	 9.573741252702787e+000
0	 1.333299999983334e+000	 5.199979999988400e+000	 9.581380232692078e+000
0	 1.333299999983334e+000	 5.266639999985467e+000	 9.591036690837287e+000
0	 1.333299999983334e+000	 5.333299999983335e+000	 9.603141009321130e+000
0	 6.666972226472175e-001	 5.333299999983334e+000	 9.462818269373763e+000
0	 6.666972226472177e-001	 5.399969999982150e+000	 9.472601182213934e+000
0	 6.666972226472175e-001	 5.466639999981865e+000	 9.482746789471813e+000
0	 6.666972226472177e-001	 5.533309999982382e+000	 9.493374296636882e+000
0	 6.666972226472177e-001	 5.599979999983599e+000	 9.504602909198654e+000
0	 6.666972226472174e-001	 5.666649999985414e+000	 9.516551832646648e+000
0	 6.666972226472177e-001	 5.733319999987732e+000	 9.529340272470400e+000
0	 6.666972226472177e-001	 5.799989999990449e+000	 9.543087434159427e+000
0	 6.666972226472178e-001	 5.866659999993467e+000	 9.557912523203278e+000
0	 6.666972226472177e-001	 5.933329999996684e+000	 9.573934745091510e+000
0	 6.666972226472177e-001	 6.000000000000000e+000	 9.591273305313678e+000
0	 7.333579753122048e-001	 5.333299999983334e+000	 9.468808746725497e+000
0	 7.333579753122048e-001	 5.399969999982151e+000	 9.480827861095058e+000
0	 7.333579753122047e-001	 5.466639999981865e+000	 9.492768387608534e+000
0	 7.333579753122048e-001	 5.533309999982381e+000	 9.504761737532601e+000
0	 7.333579753122049e-001	 5.599979999983600e+000	 9.516939322133936e+000
0	 7.333579753122046e-001	 5.666649999985414e+000	 9.529432552679207e+000
0	 7.333579753122048e-001	 5.733319999987733e+000	 9.542372840435130e+000
0	 7.333579753122049e-001	 5.799989999990450e+000	 9.555891596668387e+000
0	 7.333579753122047e-001	 5.866659999993466e+000	 9.570120232645692e+000
0	 7.333579753122047e-001	 5.933329999996683e+000	 9.585190159633735e+000
0	 7.333579753122048e-001	 6.000000000000002e+000	 9.601232788899244e+000
0	 8.000185779984419e-001	 5.333299999983336e+000	 9.477332552612525e+000
0	 8.000185779984421e-001	 5.399969999982150e+000	 9.491015455428835e+000
0	 8.000185779984415e-001	 5.466639999981865e+000	 9.504276264082563e+000
0	 8.000185779984418e-001	 5.533309999982385e+000	 9.517252715683238e+000
0	 8.000185779984419e-001	 5.599979999983599e+000	 9.530082547340385e+000
0	 8.000185779984419e-001	 5.666649999985417e+000	 9.542903496163550e+000
0	 8.000185779984418e-001	 5.733319999987733e+000	 9.555853299262251e+000
0	 8.000185779984419e-001	 5.799989999990450e+000	 9.569069693746062e+000
0	 8.000185779984416e-001	 5.866659999993466e+000	 9.582690416724498e+000
0	 8.000185779984419e-001	 5.933329999996683e+000	 9.596853205307120e+000
0	 8.000185779984420e-001	 6.000000000000001e+000	 9.611695796603467e+000
0	 8.666790473703454e-001	 5.333299999983334e+000	 9.488109837038374e+000
0	 8.666790473703452e-001	 5.399969999982148e+000	 9.502941206135072e+000
0	 8.666790473703453e-001	 5.466639999981866e+000	 9.517097765075167e+000
0	 8.666790473703455e-001	 5.533309999982383e+000	 9.530717696834500e+000
0	 8.666790473703454e-001	 5.599979999983598e+000	 9.543939184388906e+000
0	 8.666790473703456e-001	 5.666649999985415e+000	 9.556900410714222e+000
0	 8.666790473703454e-001	 5.733319999987732e+000	 9.569739558786313e+000
0	 8.666790473703453e-001	 5.799989999990449e+000	 9.582594811581000e+000
0	 8.666790473703452e-001	 5.866659999993465e+000	 9.595604352074128e+000
0	 8.666790473703455e-001	 5.933329999996685e+000	 9.608906363241545e+000
0	 8.666790473703456e-001	 6.000000000000002e+000	 9.622639028059096e+000
0	 9.333394000923324e-001	 5.333299999983335e+000	 9.500860750872869e+000
0	 9.333394000923320e-001	 5.399969999982149e+000	 9.516382355050476e+000
0	 9.333394000923324e-001	 5.466639999981867e+000	 9.531060237686020e+000
0	 9.333394000923321e-001	 5.533309999982382e+000	 9.545027147611670e+000
0	 9.333394000923323e-001	 5.599979999983601e+000	 9.558415833659657e+000
0	 9.333394000923322e-001	 5.666649999985417e+000	 9.571359044662152e+000
0	 9.333394000923321e-001	 5.733319999987733e+000	 9.583989529451364e+000
0	 9.333394000923323e-001	 5.799989999990450e+000	 9.596440036859471e+000
0	 9.333394000923324e-001	 5.866659999993468e+000	 9.608843315718692e+000
0	 9.333394000923324e-001	 5.933329999996683e+000	 9.621332114861191e+000
0	 9.333394000923322e-001	 5.999999999999998e+000	 9.634039183119171e+000
0	 9.999996528288190e-001	 5.333299999983333e+000	 9.515305445852084e+000
0	 9.999996528288190e-001	 5.399969999982149e+000	 9.531116144928616e+000
0	 9.999996528288192e-001	 5.466639999981866e+000	 9.545991029933120e+000
0	 9.999996528288191e-001	 5.533309999982384e+000	 9.560051535519593e+000
0	 9.999996528288190e-001	 5.599979999983600e+000	 9.573419096342041e+000
0	 9.999996528288191e-001	 5.666649999985416e+000	 9.586215147054505e+000
0	 9.999996528288192e-001	 5.733319999987734e+000	 9.598561122310969e+000
0	 9.999996528288192e-001	 5.799989999990449e+000	 9.610578456765458e+000
0	 9.999996528288192e-001	 5.866659999993467e+000	 9.622388585071953e+000
0	 9.999996528288192e-001	 5.933329999996683e+000	 9.634112941884469e+000
0	 9.999996528288192e-001	 6.000000000000000e+000	 9.645872961857002e+000
0	 1.066659822244222e+000	 5.333299999983333e+000	 9.531164074578401e+000
0	 1.066659822244222e+000	 5.399969999982149e+000	 9.546919819439983e+000
0	 1.066659822244222e+000	 5.466639999981865e+000	 9.561717490752891e+000
0	 1.066659822244223e+000	 5.533309999982383e+000	 9.575661328942640e+000
0	 1.066659822244223e+000	 5.599979999983600e+000	 9.588855574434774e+000
0	 1.066659822244222e+000	 5.666649999985417e+000	 9.601404467654792e+000
0	 1.066659822244223e+000	 5.733319999987733e+000	 9.613412249028229e+000
0	 1.066659822244223e+000	 5.799989999990450e+000	 9.624983158980577e+000
0	 1.066659822244222e+000	 5.866659999993467e+000	 9.636221437937351e+000
0	 1.066659822244223e+000	 5.933329999996684e+000	 9.647231326324059e+000
0	 1.066659822244223e+000	 6.000000000000000e+000	 9.658117064566190e+000
0	 1.133319925002959e+000	 5.333299999983335e+000	 9.548156790520450e+000
0	 1.133319925002959e+000	 5.399969999982148e+000	 9.563570623171897e+000
0	 1.133319925002959e+000	 5.466639999981866e+000	 9.578066970000084e+000
0	 1.133319925002959e+000	 5.533309999982384e+000	 9.591726997144786e+000
0	 1.133319925002959e+000	 5.599979999983599e+000	 9.604631870745774e+000
0	 1.133319925002959e+000	 5.666649999985415e+000	 9.616862756942835e+000
0	 1.133319925002959e+000	 5.733319999987733e+000	 9.628500821875713e+000
0	 1.133319925002959e+000	 5.799989999990451e+000	 9.639627231684173e+000
0	 1.133319925002959e+000	 5.866659999993467e+000	 9.650323152507973e+000
0	 1.133319925002959e+000	 5.933329999996683e+000	 9.660669750486855e+000
0	 1.133319925002959e+000	 6.000000000000000e+000	 9.670748191760575e+000
0	 1.199979977769445e+000	 5.333299999983335e+000	 9.566003748013106e+000
0	 1.199979977769445e+000	 5.399969999982148e+000	 9.580845801628588e+000
0	 1.199979977769445e+000	 5.466639999981866e+000	 9.594866818447841e+000
0	 1.199979977769445e+000	 5.533309999982383e+000	 9.608119010269522e+000
0	 1.199979977769445e+000	 5.599979999983600e+000	 9.620654588892263e+000
0	 1.199979977769445e+000	 5.666649999985417e+000	 9.632525766114711e+000
0	 1.199979977769445e+000	 5.733319999987733e+000	 9.643784753735492e+000
0	 1.199979977769445e+000	 5.799989999990449e+000	 9.654483763553222e+000
0	 1.199979977769445e+000	 5.866659999993467e+000	 9.664675007366524e+000
0	 1.199979977769445e+000	 5.933329999996683e+000	 9.674410696974007e+000
0	 1.199979977769445e+000	 6.000000000000000e+000	 9.683743044174280e+000
0	 1.266639997208098e+000	 5.333299999983331e+000	 9.584425102257544e+000
0	 1.266639997208098e+000	 5.399969999982151e+000	 9.598522601231137e+000
0	 1.266639997208098e+000	 5.466639999981866e+000	 9.611944387787649e+000
0	 1.266639997208098e+000	 5.533309999982383e+000	 9.624707839339898e+000
0	 1.266639997208098e+000	 5.599979999983598e+000	 9.636830333300692e+000
0	 1.266639997208098e+000	 5.666649999985416e+000	 9.648329247082838e+000
0	 1.266639997208098e+000	 5.733319999987733e+000	 9.659221958099140e+000
0	 1.266639997208098e+000	 5.799989999990449e+000	 9.669525843762395e+000
0	 1.266639997208098e+000	 5.866659999993467e+000	 9.679258281485373e+000
0	 1.266639997208098e+000	 5.933329999996684e+000	 9.688436648680884e+000
0	 1.266639997208098e+000	 5.999999999999999e+000	 9.697078322761678e+000
0	 1.333299999983334e+000	 5.333299999983335e+000	 9.603141009321128e+000
0	 1.333299999983334e+000	 5.399969999982149e+000	 9.616378269317478e+000
0	 1.333299999983334e+000	 5.466639999981867e+000	 9.629127030629332e+000
0	 1.333299999983334e+000	 5.533309999982383e+000	 9.641363956258489e+000
0	 1.333299999983334e+000	 5.599979999983599e+000	 9.653065709206734e+000
0	 1.333299999983334e+000	 5.666649999985414e+000	 9.664208952475883e+000
0	 1.333299999983334e+000	 5.733319999987733e+000	 9.674770349067710e+000
0	 1.333299999983334e+000	 5.799989999990448e+000	 9.684726561984002e+000
0	 1.333299999983334e+000	 5.866659999993467e+000	 9.694054254226524e+000
0	 1.333299999983334e+000	 5.933329999996684e+000	 9.702730088797059e+000
0	 1.333299999983334e+000	 6.000000000000000e+000	 9.710730728697351e+000
0	 6.666972226472177e-001	 6.000000000000000e+000	 9.591273305313678e+000
0	 6.666972226472178e-001	 6.066670000003318e+000	 9.608951079514599e+000
0	 6.666972226472178e-001	 6.133340000006534e+000	 9.625878799080004e+000
0	 6.666972226472177e-001	 6.200010000009551e+000	 9.642007453110779e+000
0	 6.666972226472178e-001	 6.266680000012268e+000	 9.657288030707806e+000
0	 6.666972226472175e-001	 6.333350000014583e+000	 9.671671520971959e+000
0	 6.666972226472175e-001	 6.400020000016400e+000	 9.685108913004086e+000
0	 6.666972226472177e-001	 6.466690000017618e+000	 9.697551195905055e+000
0	 6.666972226472174e-001	 6.533360000018134e+000	 9.708949358775689e+000
0	 6.666972226472178e-001	 6.600030000017851e+000	 9.719254390716820e+000
0	 6.666972226472178e-001	 6.666700000016667e+000	 9.728417280829264e+000
0	 7.333579753122048e-001	 6.000000000000002e+000	 9.601232788899244e+000
0	 7.333579753122047e-001	 6.066670000003317e+000	 9.617549883376595e+000
0	 7.333579753122047e-001	 6.133340000006530e+000	 9.633317219110587e+000
0	 7.333579753122049e-001	 6.200010000009551e+000	 9.648477227033544e+000
0	 7.333579753122048e-001	 6.266680000012270e+000	 9.662972338077756e+000
0	 7.333579753122047e-001	 6.333350000014585e+000	 9.676744983175533e+000
0	 7.333579753122048e-001	 6.400020000016402e+000	 9.689737593259165e+000
0	 7.333579753122049e-001	 6.466690000017619e+000	 9.701892599260908e+000
0	 7.333579753122047e-001	 6.533360000018132e+000	 9.713152432113056e+000
0	 7.333579753122048e-001	 6.600030000017850e+000	 9.723459522747834e+000
0	 7.333579753122049e-001	 6.666700000016668e+000	 9.732756302097531e+000
0	 8.000185779984420e-001	 6.000000000000001e+000	 9.611695796603467e+000
0	 8.000185779984419e-001	 6.066670000003318e+000	 9.626755236333509e+000
0	 8.000185779984416e-001	 6.133340000006532e+000	 9.641434668998205e+000
0	 8.000185779984418e-001	 6.200010000009551e+000	 9.655670979878678e+000
0	 8.000185779984418e-001	 6.266680000012267e+000	 9.669401054255987e+000
0	 8.000185779984419e-001	 6.333350000014585e+000	 9.682561777411246e+000
0	 8.000185779984418e-001	 6.400020000016401e+000	 9.695090034625496e+000
0	 8.000185779984418e-001	 6.466690000017617e+000	 9.706922711179805e+000
0	 8.000185779984418e-001	 6.533360000018135e+000	 9.717996692355218e+000
0	 8.000185779984420e-001	 6.600030000017851e+000	 9.728248863432798e+000
0	 8.000185779984418e-001	 6.666700000016666e+000	 9.737616109693574e+000
0	 8.666790473703456e-001	 6.000000000000002e+000	 9.622639028059096e+000
0	 8.666790473703456e-001	 6.066670000003319e+000	 9.636535274001927e+000
0	 8.666790473703452e-001	 6.133340000006531e+000	 9.650192141341693e+000
0	 8.666790473703453e-001	 6.200010000009550e+000	 9.663543982248987e+000
0	 8.666790473703455e-001	 6.266680000012268e+000	 9.676525148894388e+000
0	 8.666790473703453e-001	 6.333350000014582e+000	 9.689069993448484e+000
0	 8.666790473703453e-001	 6.400020000016399e+000	 9.701112868081831e+000
0	 8.666790473703456e-001	 6.466690000017619e+000	 9.712588124965000e+000
0	 8.666790473703454e-001	 6.533360000018134e+000	 9.723430116268585e+000
0	 8.666790473703452e-001	 6.600030000017849e+000	 9.733573194163077e+000
0	 8.666790473703456e-001	 6.666700000016668e+000	 9.742951710819058e+000
0	 9.333394000923322e-001	 5.999999999999998e+000	 9.634039183119171e+000
0	 9.333394000923323e-001	 6.066670000003318e+000	 9.646858132172833e+000
0	 9.333394000923321e-001	 6.133340000006531e+000	 9.659550628894031e+000
0	 9.333394000923323e-001	 6.200010000009551e+000	 9.672051504902418e+000
0	 9.333394000923323e-001	 6.266680000012268e+000	 9.684295591817662e+000
0	 9.333394000923324e-001	 6.333350000014584e+000	 9.696217721259382e+000
0	 9.333394000923324e-001	 6.400020000016402e+000	 9.707752724847229e+000
0	 9.333394000923322e-001	 6.466690000017617e+000	 9.718835434200829e+000
0	 9.333394000923323e-001	 6.533360000018134e+000	 9.729400680939811e+000
0	 9.333394000923321e-001	 6.600030000017849e+000	 9.739383296683798e+000
0	 9.333394000923324e-001	 6.666700000016668e+000	 9.748718113052412e+000
0	 9.999996528288192e-001	 6.000000000000000e+000	 9.645872961857002e+000
0	 9.999996528288192e-001	 6.066670000003318e+000	 9.657691946811502e+000
0	 9.999996528288191e-001	 6.133340000006532e+000	 9.669471124562325e+000
0	 9.999996528288191e-001	 6.200010000009550e+000	 9.681148818752101e+000
0	 9.999996528288193e-001	 6.266680000012268e+000	 9.692663353023393e+000
0	 9.999996528288189e-001	 6.333350000014584e+000	 9.703953051018841e+000
0	 9.999996528288189e-001	 6.400020000016401e+000	 9.714956236381021e+000
0	 9.999996528288191e-001	 6.466690000017617e+000	 9.725611232752526e+000
0	 9.999996528288192e-001	 6.533360000018134e+000	 9.735856363775922e+000
0	 9.999996528288191e-001	 6.600030000017850e+000	 9.745629953093829e+000
0	 9.999996528288190e-001	 6.666700000016665e+000	 9.754870324348802e+000
0	 1.066659822244223e+000	 6.000000000000000e+000	 9.658117064566190e+000
0	 1.066659822244223e+000	 6.066670000003317e+000	 9.669004854057556e+000
0	 1.066659822244223e+000	 6.133340000006535e+000	 9.679914621407812e+000
0	 1.066659822244223e+000	 6.200010000009552e+000	 9.690791194866208e+000
0	 1.066659822244222e+000	 6.266680000012267e+000	 9.701579402682020e+000
0	 1.066659822244222e+000	 6.333350000014584e+000	 9.712224073104467e+000
0	 1.066659822244222e+000	 6.400020000016401e+000	 9.722670034382832e+000
0	 1.066659822244223e+000	 6.466690000017617e+000	 9.732862114766343e+000
0	 1.066659822244223e+000	 6.533360000018135e+000	 9.742745142504237e+000
0	 1.066659822244223e+000	 6.600030000017850e+000	 9.752263945845760e+000
0	 1.066659822244222e+000	 6.666700000016665e+000	 9.761363353040137e+000
0	 1.133319925002959e+000	 6.000000000000000e+000	 9.670748191760575e+000
0	 1.133319925002959e+000	 6.066670000003318e+000	 9.680764990224930e+000
0	 1.133319925002959e+000	 6.133340000006534e+000	 9.690842112645816e+000
0	 1.133319925002959e+000	 6.200010000009550e+000	 9.700933904468142e+000
0	 1.133319925002959e+000	 6.266680000012268e+000	 9.710994711136788e+000
0	 1.133319925002959e+000	 6.333350000014582e+000	 9.720978878096648e+000
0	 1.133319925002959e+000	 6.400020000016401e+000	 9.730840750792599e+000
0	 1.133319925002959e+000	 6.466690000017617e+000	 9.740534674669544e+000
0	 1.133319925002959e+000	 6.533360000018135e+000	 9.750014995172355e+000
0	 1.133319925002959e+000	 6.600030000017851e+000	 9.759236057745918e+000
0	 1.133319925002959e+000	 6.666700000016667e+000	 9.768152207835112e+000
0	 1.199979977769445e+000	 6.000000000000000e+000	 9.683743044174280e+000
0	 1.199979977769445e+000	 6.066670000003318e+000	 9.692940491801897e+000
0	 1.199979977769445e+000	 6.133340000006534e+000	 9.702214591645817e+000
0	 1.199979977769445e+000	 6.200010000009551e+000	 9.711532218936361e+000
0	 1.199979977769445e+000	 6.266680000012268e+000	 9.720860248903803e+000
0	 1.199979977769445e+000	 6.333350000014584e+000	 9.730165556778418e+000
0	 1.199979977769445e+000	 6.400020000016401e+000	 9.739415017790510e+000
0	 1.199979977769445e+000	 6.466690000017616e+000	 9.748575507170342e+000
0	 1.199979977769445e+000	 6.533360000018132e+000	 9.757613900148204e+000
0	 1.199979977769445e+000	 6.600030000017849e+000	 9.766497071954390e+000
0	 1.199979977769445e+000	 6.666700000016666e+000	 9.775191897819143e+000
0	 1.266639997208098e+000	 5.999999999999999e+000	 9.697078322761678e+000
0	 1.266639997208098e+000	 6.066670000003318e+000	 9.705499495450995e+000
0	 1.266639997208098e+000	 6.133340000006534e+000	 9.713993051931368e+000
0	 1.266639997208098e+000	 6.200010000009550e+000	 9.722541409804471e+000
0	 1.266639997208098e+000	 6.266680000012267e+000	 9.731126986671997e+000
0	 1.266639997208098e+000	 6.333350000014583e+000	 9.739732200135627e+000
0	 1.266639997208098e+000	 6.400020000016400e+000	 9.748339467797043e+000
0	 1.266639997208098e+000	 6.466690000017618e+000	 9.756931207257951e+000
0	 1.266639997208098e+000	 6.533360000018132e+000	 9.765489836120020e+000
0	 1.266639997208098e+000	 6.600030000017851e+000	 9.773997771984936e+000
0	 1.266639997208098e+000	 6.666700000016667e+000	 9.782437432454389e+000
0	 1.333299999983334e+000	 6.000000000000000e+000	 9.710730728697351e+000
0	 1.333299999983334e+000	 6.066670000003319e+000	 9.718410138009123e+000
0	 1.333299999983334e+000	 6.133340000006530e+000	 9.726138487180107e+000
0	 1.333299999983334e+000	 6.200010000009551e+000	 9.733916748761164e+000
0	 1.333299999983334e+000	 6.266680000012268e+000	 9.741745895303103e+000
0	 1.333299999983334e+000	 6.333350000014583e+000	 9.749626899356752e+000
0	 1.333299999983334e+000	 6.400020000016402e+000	 9.757560733472937e+000
0	 1.333299999983334e+000	 6.466690000017617e+000	 9.765548370202511e+000
0	 1.333299999983334e+000	 6.533360000018134e+000	 9.773590782096294e+000
0	 1.333299999983334e+000	 6.600030000017851e+000	 9.781688941705095e+000
0	 1.333299999983334e+000	 6.666700000016665e+000	 9.789843821579771e+000
0	 6.666972226472178e-001	 6.666700000016667e+000	 9.728417280829268e+000
0	 6.666972226472175e-001	 6.733360000014532e+000	 9.736987581058861e+000
0	 6.666972226472177e-001	 6.800020000011597e+000	 9.745563743258678e+000
0	 6.666972226472177e-001	 6.866680000008066e+000	 9.754166247616391e+000
0	 6.666972226472177e-001	 6.933340000004131e+000	 9.762815574319635e+000
0	 6.666972226472175e-001	 6.999999999999999e+000	 9.771532203556085e+000
0	 6.666972226472178e-001	 7.066659999995868e+000	 9.780336615513374e+000
0	 6.666972226472177e-001	 7.133319999991935e+000	 9.789249290379138e+000
0	 6.666972226472177e-001	 7.199979999988400e+000	 9.798290708341069e+000
0	 6.666972226472175e-001	 7.266639999985466e+000	 9.807481349586796e+000
0	 6.666972226472177e-001	 7.333299999983333e+000	 9.816841694303971e+000
0	 7.333579753122049e-001	 6.666700000016668e+000	 9.732756302097535e+000
0	 7.333579753122050e-001	 6.733360000014534e+000	 9.741484351331874e+000
0	 7.333579753122046e-001	 6.800020000011598e+000	 9.750143729003934e+000
0	 7.333579753122050e-001	 6.866680000008069e+000	 9.758760634723066e+000
0	 7.333579753122049e-001	 6.933340000004136e+000	 9.767361268098554e+000
0	 7.333579753122050e-001	 7.000000000000000e+000	 9.775971828739719e+000
0	 7.333579753122049e-001	 7.066659999995869e+000	 9.784618516255891e+000
0	 7.333579753122048e-001	 7.133319999991936e+000	 9.793327530256377e+000
0	 7.333579753122047e-001	 7.199979999988400e+000	 9.802125070350506e+000
0	 7.333579753122048e-001	 7.266639999985467e+000	 9.811037336147587e+000
0	 7.333579753122048e-001	 7.333299999983334e+000	 9.820090527256955e+000
0	 8.000185779984418e-001	 6.666700000016666e+000	 9.737616109693574e+000
0	 8.000185779984419e-001	 6.733360000014533e+000	 9.746442721471597e+000
0	 8.000185779984419e-001	 6.800020000011601e+000	 9.755138007329506e+000
0	 8.000185779984418e-001	 6.866680000008067e+000	 9.763732373406029e+000
0	 8.000185779984419e-001	 6.933340000004136e+000	 9.772256225839893e+000
0	 8.000185779984420e-001	 7.000000000000001e+000	 9.780739970769799e+000
0	 8.000185779984417e-001	 7.066659999995866e+000	 9.789214014334496e+000
0	 8.000185779984419e-001	 7.133319999991935e+000	 9.797708762672691e+000
0	 8.000185779984420e-001	 7.199979999988401e+000	 9.806254621923117e+000
0	 8.000185779984420e-001	 7.266639999985467e+000	 9.814881998224495e+000
0	 8.000185779984419e-001	 7.333299999983335e+000	 9.823621297715565e+000
0	 8.666790473703456e-001	 6.666700000016668e+000	 9.742951710819060e+000
0	 8.666790473703455e-001	 6.733360000014534e+000	 9.751822438518646e+000
0	 8.666790473703452e-001	 6.800020000011600e+000	 9.760510673443706e+000
0	 8.666790473703453e-001	 6.866680000008065e+000	 9.769049515357317e+000
0	 8.666790473703455e-001	 6.933340000004133e+000	 9.777472064022554e+000
0	 8.666790473703453e-001	 6.999999999999998e+000	 9.785811419202458e+000
0	 8.666790473703452e-001	 7.066659999995864e+000	 9.794100680660135e+000
0	 8.666790473703455e-001	 7.133319999991935e+000	 9.802372948158656e+000
0	 8.666790473703452e-001	 7.199979999988401e+000	 9.810661321461073e+000
0	 8.666790473703453e-001	 7.266639999985466e+000	 9.818998900330495e+000
0	 8.666790473703453e-001	 7.333299999983334e+000	 9.827418784529982e+000
0	 9.333394000923324e-001	 6.666700000016668e+000	 9.748718113052412e+000
0	 9.333394000923325e-001	 6.733360000014534e+000	 9.757583249899584e+000
0	 9.333394000923323e-001	 6.800020000011601e+000	 9.766225822937367e+000
0	 9.333394000923325e-001	 6.866680000008069e+000	 9.774680112637620e+000
0	 9.333394000923325e-001	 6.933340000004134e+000	 9.782980399472162e+000
0	 9.333394000923325e-001	 7.000000000000001e+000	 9.791160963912809e+000
0	 9.333394000923325e-001	 7.066659999995868e+000	 9.799256086431400e+000
0	 9.333394000923326e-001	 7.133319999991935e+000	 9.807300047499783e+000
0	 9.333394000923323e-001	 7.199979999988400e+000	 9.815327127589796e+000
0	 9.333394000923324e-001	 7.266639999985466e+000	 9.823371607173264e+000
0	 9.333394000923324e-001	 7.333299999983335e+000	 9.831467766722028e+000
0	 9.999996528288190e-001	 6.666700000016665e+000	 9.754870324348799e+000
0	 9.999996528288192e-001	 6.733360000014532e+000	 9.763684903426938e+000
0	 9.999996528288191e-001	 6.800020000011600e+000	 9.772247551783883e+000
0	 9.999996528288192e-001	 6.866680000008067e+000	 9.780592217676364e+000
0	 9.999996528288193e-001	 6.933340000004134e+000	 9.788752849361114e+000
0	 9.999996528288190e-001	 7.000000000000000e+000	 9.796763395094878e+000
0	 9.999996528288193e-001	 7.066659999995867e+000	 9.804657803134408e+000
0	 9.999996528288190e-001	 7.133319999991936e+000	 9.812470021736457e+000
0	 9.999996528288192e-001	 7.199979999988400e+000	 9.820233999157781e+000
0	 9.999996528288193e-001	 7.266639999985468e+000	 9.827983683655109e+000
0	 9.999996528288190e-001	 7.333299999983335e+000	 9.835753023485223e+000
0	 1.066659822244222e+000	 6.666700000016665e+000	 9.761363353040135e+000
0	 1.066659822244222e+000	 6.733360000014532e+000	 9.770087147299238e+000
0	 1.066659822244223e+000	 6.800020000011600e+000	 9.778539956339142e+000
0	 1.066659822244222e+000	 6.866680000008065e+000	 9.786753883271635e+000
0	 1.066659822244223e+000	 6.933340000004135e+000	 9.794761031208546e+000
0	 1.066659822244223e+000	 7.000000000000000e+000	 9.802593503261695e+000
0	 1.066659822244222e+000	 7.066659999995867e+000	 9.810283402542883e+000
0	 1.066659822244222e+000	 7.133319999991934e+000	 9.817862832163950e+000
0	 1.066659822244222e+000	 7.199979999988400e+000	 9.825363895236720e+000
0	 1.066659822244222e+000	 7.266639999985466e+000	 9.832818694873007e+000
0	 1.066659822244223e+000	 7.333299999983334e+000	 9.840259334184653e+000
0	 1.133319925002959e+000	 6.666700000016667e+000	 9.768152207835112e+000
0	 1.133319925002959e+000	 6.733360000014532e+000	 9.776749730100955e+000
0	 1.133319925002959e+000	 6.800020000011600e+000	 9.785067133341558e+000
0	 1.133319925002959e+000	 6.866680000008067e+000	 9.793133162590250e+000
0	 1.133319925002959e+000	 6.933340000004134e+000	 9.800976562880356e+000
0	 1.133319925002959e+000	 6.999999999999999e+000	 9.808626079245192e+000
0	 1.133319925002959e+000	 7.066659999995867e+000	 9.816110456718100e+000
0	 1.133319925002959e+000	 7.133319999991935e+000	 9.823458440332406e+000
0	 1.133319925002959e+000	 7.199979999988401e+000	 9.830698775121443e+000
0	 1.133319925002959e+000	 7.266639999985467e+000	 9.837860206118572e+000
0	 1.133319925002959e+000	 7.333299999983335e+000	 9.844971478357120e+000
0	 1.199979977769445e+000	 6.666700000016666e+000	 9.775191897819143e+000
0	 1.199979977769445e+000	 6.733360000014533e+000	 9.783632400802519e+000
0	 1.199979977769445e+000	 6.800020000011598e+000	 9.791793179912087e+000
0	 1.199979977769445e+000	 6.866680000008068e+000	 9.799698109167707e+000
0	 1.199979977769445e+000	 6.933340000004135e+000	 9.807371062589164e+000
0	 1.199979977769445e+000	 7.000000000000000e+000	 9.814835914196285e+000
0	 1.199979977769445e+000	 7.066659999995867e+000	 9.822116538008901e+000
0	 1.199979977769445e+000	 7.133319999991934e+000	 9.829236808046852e+000
0	 1.199979977769445e+000	 7.199979999988400e+000	 9.836220598329957e+000
0	 1.199979977769445e+000	 7.266639999985467e+000	 9.843091782878078e+000
0	 1.199979977769445e+000	 7.333299999983334e+000	 9.849874235711031e+000
0	 1.266639997208098e+000	 6.666700000016667e+000	 9.782437432454389e+000
0	 1.266639997208098e+000	 6.733360000014533e+000	 9.790694908760324e+000
0	 1.266639997208098e+000	 6.800020000011600e+000	 9.798682193554219e+000
0	 1.266639997208098e+000	 6.866680000008067e+000	 9.806416776908190e+000
0	 1.266639997208098e+000	 6.933340000004133e+000	 9.813916148894348e+000
0	 1.266639997208098e+000	 7.000000000000000e+000	 9.821197799584819e+000
0	 1.266639997208098e+000	 7.066659999995868e+000	 9.828279219051723e+000
0	 1.266639997208098e+000	 7.133319999991935e+000	 9.835177897367212e+000
0	 1.266639997208098e+000	 7.199979999988400e+000	 9.841911324603395e+000
0	 1.266639997208098e+000	 7.266639999985467e+000	 9.848496990832414e+000
0	 1.266639997208098e+000	 7.333299999983334e+000	 9.854952386126440e+000
0	 1.333299999983334e+000	 6.666700000016665e+000	 9.789843821579774e+000
0	 1.333299999983334e+000	 6.733360000014534e+000	 9.797897003716743e+000
0	 1.333299999983334e+000	 6.800020000011599e+000	 9.805698272153917e+000
0	 1.333299999983334e+000	 6.866680000008066e+000	 9.813257220084569e+000
0	 1.333299999983334e+000	 6.933340000004134e+000	 9.820583440702023e+000
0	 1.333299999983334e+000	 6.999999999999999e+000	 9.827686527199582e+000
0	 1.333299999983334e+000	 7.066659999995867e+000	 9.834576072770561e+000
0	 1.333299999983334e+000	 7.133319999991935e+000	 9.841261670608251e+000
0	 1.333299999983334e+000	 7.199979999988400e+000	 9.847752913906023e+000
0	 1.333299999983334e+000	 7.266639999985467e+000	 9.854059395857165e+000
0	 1.333299999983334e+000	 7.333299999983336e+000	 9.860190709655020e+000
0	 6.666972226472177e-001	 7.333299999983333e+000	 9.816841694303969e+000
0	 6.666972226472178e-001	 7.399969999982152e+000	 9.826132041747492e+000
0	 6.666972226472177e-001	 7.466639999981865e+000	 9.835092062530350e+000
0	 6.666972226472175e-001	 7.533309999982382e+000	 9.843715547713192e+000
0	 6.666972226472175e-001	 7.599979999983599e+000	 9.851996288356668e+000
0	 6.666972226472177e-001	 7.666649999985417e+000	 9.859928075521403e+000
0	 6.666972226472175e-001	 7.733319999987731e+000	 9.867504700268041e+000
0	 6.666972226472177e-001	 7.799989999990449e+000	 9.874719953657206e+000
0	 6.666972226472177e-001	 7.866659999993466e+000	 9.881567626749503e+000
0	 6.666972226472177e-001	 7.933329999996682e+000	 9.888041510605580e+000
0	 6.666972226472177e-001	 8.000000000000000e+000	 9.894135396286041e+000
0	 7.333579753122048e-001	 7.333299999983334e+000	 9.820090527256953e+000
0	 7.333579753122048e-001	 7.399969999982150e+000	 9.829081433077224e+000
0	 7.333579753122046e-001	 7.466639999981865e+000	 9.837780538489733e+000
0	 7.333579753122047e-001	 7.533309999982383e+000	 9.846178696313006e+000
0	 7.333579753122050e-001	 7.599979999983603e+000	 9.854266759365579e+000
0	 7.333579753122045e-001	 7.666649999985414e+000	 9.862035580465967e+000
0	 7.333579753122047e-001	 7.733319999987733e+000	 9.869476012432681e+000
0	 7.333579753122050e-001	 7.799989999990451e+000	 9.876578908084222e+000
0	 7.333579753122048e-001	 7.866659999993465e+000	 9.883335120239117e+000
0	 7.333579753122046e-001	 7.933329999996684e+000	 9.889735501715855e+000
0	 7.333579753122048e-001	 8.000000000000000e+000	 9.895770905332940e+000
0	 8.000185779984419e-001	 7.333299999983335e+000	 9.823621297715565e+000
0	 8.000185779984419e-001	 7.399969999982151e+000	 9.832303726212611e+000
0	 8.000185779984416e-001	 7.466639999981866e+000	 9.840730006467705e+000
0	 8.000185779984418e-001	 7.533309999982384e+000	 9.848888782848018e+000
0	 8.000185779984419e-001	 7.599979999983601e+000	 9.856768699720670e+000
0	 8.000185779984420e-001	 7.666649999985416e+000	 9.864358401452796e+000
0	 8.000185779984418e-001	 7.733319999987733e+000	 9.871646532411532e+000
0	 8.000185779984419e-001	 7.799989999990449e+000	 9.878621736963993e+000
0	 8.000185779984416e-001	 7.866659999993466e+000	 9.885272659477305e+000
0	 8.000185779984417e-001	 7.933329999996681e+000	 9.891587944318587e+000
0	 8.000185779984418e-001	 8.000000000000000e+000	 9.897556235854959e+000
0	 8.666790473703453e-001	 7.333299999983334e+000	 9.827418784529984e+000
0	 8.666790473703453e-001	 7.399969999982150e+000	 9.835784666686207e+000
0	 8.666790473703454e-001	 7.466639999981866e+000	 9.843927074850431e+000
0	 8.666790473703456e-001	 7.533309999982384e+000	 9.851833174735459e+000
0	 8.666790473703453e-001	 7.599979999983600e+000	 9.859490132054075e+000
0	 8.666790473703455e-001	 7.666649999985417e+000	 9.866885112519055e+000
0	 8.666790473703455e-001	 7.733319999987733e+000	 9.874005281843211e+000
0	 8.666790473703453e-001	 7.799989999990448e+000	 9.880837805739292e+000
0	 8.666790473703453e-001	 7.866659999993467e+000	 9.887369849920098e+000
0	 8.666790473703456e-001	 7.933329999996683e+000	 9.893588580098388e+000
0	 8.666790473703455e-001	 8.000000000000002e+000	 9.899481161986941e+000
0	 9.333394000923324e-001	 7.333299999983335e+000	 9.831467766722028e+000
0	 9.333394000923321e-001	 7.399969999982149e+000	 9.839510000186444e+000
0	 9.333394000923323e-001	 7.466639999981867e+000	 9.847358352170774e+000
0	 9.333394000923322e-001	 7.533309999982382e+000	 9.854999239535722e+000
0	 9.333394000923323e-001	 7.599979999983601e+000	 9.862419079141992e+000
0	 9.333394000923323e-001	 7.666649999985417e+000	 9.869604287850310e+000
0	 9.333394000923321e-001	 7.733319999987733e+000	 9.876541282521339e+000
0	 9.333394000923321e-001	 7.799989999990448e+000	 9.883216480015776e+000
0	 9.333394000923323e-001	 7.866659999993468e+000	 9.889616297194298e+000
0	 9.333394000923323e-001	 7.933329999996683e+000	 9.895727150917599e+000
0	 9.333394000923323e-001	 7.999999999999999e+000	 9.901535458046356e+000
0	 9.999996528288190e-001	 7.333299999983335e+000	 9.835753023485223e+000
0	 9.999996528288190e-001	 7.399969999982150e+000	 9.843465472557559e+000
0	 9.999996528288192e-001	 7.466639999981867e+000	 9.851010447108301e+000
0	 9.999996528288191e-001	 7.533309999982383e+000	 9.858374344952381e+000
0	 9.999996528288192e-001	 7.599979999983600e+000	 9.865543563904819e+000
0	 9.999996528288190e-001	 7.666649999985415e+000	 9.872504501780558e+000
0	 9.999996528288190e-001	 7.733319999987733e+000	 9.879243556394620e+000
0	 9.999996528288191e-001	 7.799989999990450e+000	 9.885747125561951e+000
0	 9.999996528288192e-001	 7.866659999993467e+000	 9.892001607097507e+000
0	 9.999996528288191e-001	 7.933329999996683e+000	 9.897993398816276e+000
0	 9.999996528288192e-001	 8.000000000000000e+000	 9.903708898533211e+000
0	 1.066659822244223e+000	 7.333299999983334e+000	 9.840259334184657e+000
0	 1.066659822244222e+000	 7.399969999982150e+000	 9.847636829799701e+000
0	 1.066659822244222e+000	 7.466639999981867e+000	 9.854869968489327e+000
0	 1.066659822244223e+000	 7.533309999982382e+000	 9.861945858832167e+000
0	 1.066659822244222e+000	 7.599979999983601e+000	 9.868851609406926e+000
0	 1.066659822244222e+000	 7.666649999985417e+000	 9.875574328792235e+000
0	 1.066659822244222e+000	 7.733319999987732e+000	 9.882101125566772e+000
0	 1.066659822244223e+000	 7.799989999990450e+000	 9.888419108309188e+000
0	 1.066659822244222e+000	 7.866659999993468e+000	 9.894515385598114e+000
0	 1.066659822244223e+000	 7.933329999996684e+000	 9.900377066012215e+000
0	 1.066659822244222e+000	 7.999999999999999e+000	 9.905991258130133e+000
0	 1.133319925002959e+000	 7.333299999983335e+000	 9.844971478357120e+000
0	 1.133319925002959e+000	 7.399969999982150e+000	 9.852009818068778e+000
0	 1.133319925002959e+000	 7.466639999981867e+000	 9.858923525286842e+000
0	 1.133319925002959e+000	 7.533309999982384e+000	 9.865701149164977e+000
0	 1.133319925002959e+000	 7.599979999983599e+000	 9.872331238856869e+000
0	 1.133319925002959e+000	 7.666649999985417e+000	 9.878802343516181e+000
0	 1.133319925002959e+000	 7.733319999987733e+000	 9.885103012296582e+000
0	 1.133319925002959e+000	 7.799989999990447e+000	 9.891221794351745e+000
0	 1.133319925002959e+000	 7.866659999993467e+000	 9.897147238835302e+000
0	 1.133319925002959e+000	 7.933329999996683e+000	 9.902867894900940e+000
0	 1.133319925002959e+000	 8.000000000000000e+000	 9.908372311702307e+000
0	 1.199979977769445e+000	 7.333299999983334e+000	 9.849874235711031e+000
0	 1.199979977769445e+000	 7.399969999982150e+000	 9.856570183676601e+000
0	 1.199979977769445e+000	 7.466639999981867e+000	 9.863157726620583e+000
0	 1.199979977769445e+000	 7.533309999982383e+000	 9.869627584083860e+000
0	 1.199979977769445e+000	 7.599979999983599e+000	 9.875970475607282e+000
0	 1.199979977769445e+000	 7.666649999985416e+000	 9.882177120731669e+000
0	 1.199979977769445e+000	 7.733319999987733e+000	 9.888238238997866e+000
0	 1.199979977769446e+000	 7.799989999990450e+000	 9.894144549946708e+000
0	 1.199979977769445e+000	 7.866659999993466e+000	 9.899886773119041e+000
0	 1.199979977769445e+000	 7.933329999996684e+000	 9.905455628055687e+000
0	 1.199979977769445e+000	 8.000000000000000e+000	 9.910841834297473e+000
0	 1.266639997208098e+000	 7.333299999983334e+000	 9.854952386126440e+000
0	 1.266639997208098e+000	 7.399969999982150e+000	 9.861303673090756e+000
0	 1.266639997208098e+000	 7.466639999981867e+000	 9.867559181756972e+000
0	 1.266639997208098e+000	 7.533309999982384e+000	 9.873712531865028e+000
0	 1.266639997208098e+000	 7.599979999983599e+000	 9.879757343154859e+000
0	 1.266639997208098e+000	 7.666649999985416e+000	 9.885687235366360e+000
0	 1.266639997208098e+000	 7.733319999987733e+000	 9.891495828239467e+000
0	 1.266639997208098e+000	 7.799989999990449e+000	 9.897176741514061e+000
0	 1.266639997208098e+000	 7.866659999993467e+000	 9.902723594930084e+000
0	 1.266639997208098e+000	 7.933329999996682e+000	 9.908130008227426e+000
0	 1.266639997208098e+000	 8.000000000000000e+000	 9.913389601146008e+000
0	 1.333299999983334e+000	 7.333299999983336e+000	 9.860190709655020e+000
0	 1.333299999983334e+000	 7.399969999982149e+000	 9.866196032934708e+000
0	 1.333299999983334e+000	 7.466639999981866e+000	 9.872114500109136e+000
0	 1.333299999983334e+000	 7.533309999982384e+000	 9.877943360927857e+000
0	 1.333299999983334e+000	 7.599979999983600e+000	 9.883679865140421e+000
0	 1.333299999983334e+000	 7.666649999985415e+000	 9.889321262496377e+000
0	 1.333299999983334e+000	 7.733319999987733e+000	 9.894864802745257e+000
0	 1.333299999983334e+000	 7.799989999990449e+000	 9.900307735636595e+000
0	 1.333299999983334e+000	 7.866659999993466e+000	 9.905647310919941e+000
0	 1.333299999983334e+000	 7.933329999996683e+000	 9.910880778344838e+000
0	 1.333299999983334e+000	 8.000000000000000e+000	 9.916005387660794e+000
0	 6.666972226472177e-001	 8.000000000000000e+000	 9.894135396286041e+000
0	 6.666972226472178e-001	 8.066670000003317e+000	 9.899976401184242e+000
0	 6.666972226472177e-001	 8.133340000006532e+000	 9.905700765284369e+000
0	 6.666972226472175e-001	 8.200010000009550e+000	 9.911315963533173e+000
0	 6.666972226472178e-001	 8.266680000012267e+000	 9.916829470877428e+000
0	 6.666972226472177e-001	 8.333350000014583e+000	 9.922248762263909e+000
0	 6.666972226472177e-001	 8.400020000016401e+000	 9.927581312639376e+000
0	 6.666972226472177e-001	 8.466690000017616e+000	 9.932834596950592e+000
0	 6.666972226472173e-001	 8.533360000018133e+000	 9.938016090144309e+000
0	 6.666972226472178e-001	 8.600030000017851e+000	 9.943133267167292e+000
0	 6.666972226472177e-001	 8.666700000016666e+000	 9.948193602966295e+000
0	 7.333579753122048e-001	 8.000000000000000e+000	 9.895770905332940e+000
0	 7.333579753122047e-001	 8.066670000003317e+000	 9.901554455931645e+000
0	 7.333579753122047e-001	 8.133340000006532e+000	 9.907211398806433e+000
0	 7.333579753122048e-001	 8.200010000009550e+000	 9.912750767455512e+000
0	 7.333579753122048e-001	 8.266680000012268e+000	 9.918181595377108e+000
0	 7.333579753122047e-001	 8.333350000014583e+000	 9.923512916069431e+000
0	 7.333579753122049e-001	 8.400020000016403e+000	 9.928753763030704e+000
0	 7.333579753122047e-001	 8.466690000017616e+000	 9.933913169759144e+000
0	 7.333579753122047e-001	 8.533360000018133e+000	 9.939000169752960e+000
0	 7.333579753122049e-001	 8.600030000017853e+000	 9.944023796510345e+000
0	 7.333579753122048e-001	 8.666700000016665e+000	 9.948993083529540e+000
0	 8.000185779984418e-001	 8.000000000000000e+000	 9.897556235854959e+000
0	 8.000185779984418e-001	 8.066670000003319e+000	 9.903276016768032e+000
0	 8.000185779984417e-001	 8.133340000006530e+000	 9.908860175404159e+000
0	 8.000185779984418e-001	 8.200010000009552e+000	 9.914318964627457e+000
0	 8.000185779984417e-001	 8.266680000012265e+000	 9.919662637302036e+000
0	 8.000185779984419e-001	 8.333350000014585e+000	 9.924901446292052e+000
0	 8.000185779984417e-001	 8.400020000016399e+000	 9.930045644461565e+000
0	 8.000185779984417e-001	 8.466690000017618e+000	 9.935105484674763e+000
0	 8.000185779984416e-001	 8.533360000018133e+000	 9.940091219795704e+000
0	 8.000185779984417e-001	 8.600030000017847e+000	 9.945013102688536e+000
0	 8.000185779984420e-001	 8.666700000016666e+000	 9.949881386217353e+000
0	 8.666790473703455e-001	 8.000000000000002e+000	 9.899481161986941e+000
0	 8.666790473703453e-001	 8.066670000003317e+000	 9.905130882757307e+000
0	 8.666790473703453e-001	 8.133340000006532e+000	 9.910637007800146e+000
0	 8.666790473703454e-001	 8.200010000009547e+000	 9.916010670156854e+000
0	 8.666790473703455e-001	 8.266680000012265e+000	 9.921263002868836e+000
0	 8.666790473703455e-001	 8.333350000014585e+000	 9.926405138977490e+000
0	 8.666790473703453e-001	 8.400020000016401e+000	 9.931448211524227e+000
0	 8.666790473703455e-001	 8.466690000017618e+000	 9.936403353550434e+000
0	 8.666790473703455e-001	 8.533360000018133e+000	 9.941281698097507e+000
0	 8.666790473703452e-001	 8.600030000017847e+000	 9.946094378206844e+000
0	 8.666790473703455e-001	 8.666700000016665e+000	 9.950852526919830e+000
0	 9.333394000923323e-001	 7.999999999999999e+000	 9.901535458046356e+000
0	 9.333394000923323e-001	 8.066670000003317e+000	 9.907108853147907e+000
0	 9.333394000923321e-001	 8.133340000006534e+000	 9.912531808900758e+000
0	 9.333394000923323e-001	 8.200010000009550e+000	 9.917815999332451e+000
0	 9.333394000923323e-001	 8.266680000012267e+000	 9.922973098470443e+000
0	 9.333394000923323e-001	 8.333350000014587e+000	 9.928014780342224e+000
0	 9.333394000923321e-001	 8.400020000016399e+000	 9.932952718975290e+000
0	 9.333394000923322e-001	 8.466690000017616e+000	 9.937798588397126e+000
0	 9.333394000923323e-001	 8.533360000018131e+000	 9.942564062635212e+000
0	 9.333394000923321e-001	 8.600030000017849e+000	 9.947260815717018e+000
0	 9.333394000923324e-001	 8.666700000016668e+000	 9.951900521670030e+000
0	 9.999996528288192e-001	 8.000000000000000e+000	 9.903708898533211e+000
0	 9.999996528288194e-001	 8.066670000003319e+000	 9.909199727372741e+000
0	 9.999996528288192e-001	 8.133340000006532e+000	 9.914534491796204e+000
0	 9.999996528288192e-001	 8.200010000009552e+000	 9.919725067623904e+000
0	 9.999996528288192e-001	 8.266680000012267e+000	 9.924783330676185e+000
0	 9.999996528288191e-001	 8.333350000014582e+000	 9.929721156773356e+000
0	 9.999996528288192e-001	 8.400020000016401e+000	 9.934550421735759e+000
0	 9.999996528288189e-001	 8.466690000017616e+000	 9.939283001383707e+000
0	 9.999996528288192e-001	 8.533360000018133e+000	 9.943930771537497e+000
0	 9.999996528288189e-001	 8.600030000017846e+000	 9.948505608017472e+000
0	 9.999996528288188e-001	 8.666700000016665e+000	 9.953019386643941e+000
0	 1.066659822244222e+000	 7.999999999999999e+000	 9.905991258130133e+000
0	 1.066659822244222e+000	 8.066670000003319e+000	 9.911393305049339e+000
0	 1.066659822244223e+000	 8.133340000006534e+000	 9.916634969760445e+000
0	 1.066659822244222e+000	 8.200010000009552e+000	 9.921727990681788e+000
0	 1.066659822244222e+000	 8.266680000012267e+000	 9.926684106231768e+000
0	 1.066659822244222e+000	 8.333350000014585e+000	 9.931515054828715e+000
0	 1.066659822244222e+000	 8.400020000016401e+000	 9.936232574890996e+000
0	 1.066659822244222e+000	 8.466690000017618e+000	 9.940848404836968e+000
0	 1.066659822244223e+000	 8.533360000018133e+000	 9.945374283084966e+000
0	 1.066659822244223e+000	 8.600030000017851e+000	 9.949821948053366e+000
0	 1.066659822244223e+000	 8.666700000016663e+000	 9.954203138160480e+000
0	 1.133319925002959e+000	 8.000000000000000e+000	 9.908372311702307e+000
0	 1.133319925002959e+000	 8.066670000003319e+000	 9.913679385979672e+000
0	 1.133319925002959e+000	 8.133340000006532e+000	 9.918823156251250e+000
0	 1.133319925002959e+000	 8.200010000009552e+000	 9.923814884337597e+000
0	 1.133319925002959e+000	 8.266680000012268e+000	 9.928665832059258e+000
0	 1.133319925002959e+000	 8.333350000014585e+000	 9.933387261236801e+000
0	 1.133319925002959e+000	 8.400020000016403e+000	 9.937990433690754e+000
0	 1.133319925002959e+000	 8.466690000017618e+000	 9.942486611241652e+000
0	 1.133319925002959e+000	 8.533360000018137e+000	 9.946887055710057e+000
0	 1.133319925002959e+000	 8.600030000017849e+000	 9.951203028916503e+000
0	 1.133319925002959e+000	 8.666700000016668e+000	 9.955445792681539e+000
0	 1.199979977769445e+000	 8.000000000000000e+000	 9.910841834297473e+000
0	 1.199979977769445e+000	 8.066670000003317e+000	 9.916047770150250e+000
0	 1.199979977769445e+000	 8.133340000006532e+000	 9.921088964910201e+000
0	 1.199979977769445e+000	 8.200010000009550e+000	 9.925975864603696e+000
0	 1.199979977769445e+000	 8.266680000012267e+000	 9.930718915257115e+000
0	 1.199979977769445e+000	 8.333350000014585e+000	 9.935328562896791e+000
0	 1.199979977769445e+000	 8.400020000016399e+000	 9.939815253549114e+000
0	 1.199979977769446e+000	 8.466690000017618e+000	 9.944189433240437e+000
0	 1.199979977769445e+000	 8.533360000018133e+000	 9.948461547997102e+000
0	 1.199979977769445e+000	 8.600030000017851e+000	 9.952642043845472e+000
0	 1.199979977769445e+000	 8.666700000016666e+000	 9.956741366811906e+000
0	 1.266639997208098e+000	 8.000000000000000e+000	 9.913389601146008e+000
0	 1.266639997208098e+000	 8.066670000003319e+000	 9.918488257732127e+000
0	 1.266639997208098e+000	 8.133340000006534e+000	 9.923422309562652e+000
0	 1.266639997208098e+000	 8.200010000009550e+000	 9.928201047673387e+000
0	 1.266639997208098e+000	 8.266680000012268e+000	 9.932833763100110e+000
0	 1.266639997208098e+000	 8.333350000014583e+000	 9.937329746878580e+000
0	 1.266639997208098e+000	 8.400020000016399e+000	 9.941698290044579e+000
0	 1.266639997208098e+000	 8.466690000017618e+000	 9.945948683633889e+000
0	 1.266639997208098e+000	 8.533360000018135e+000	 9.950090218682282e+000
0	 1.266639997208098e+000	 8.600030000017853e+000	 9.954132186225504e+000
0	 1.266639997208098e+000	 8.666700000016668e+000	 9.958083877299337e+000
0	 1.333299999983334e+000	 8.000000000000000e+000	 9.916005387660794e+000
0	 1.333299999983334e+000	 8.066670000003317e+000	 9.920990649080837e+000
0	 1.333299999983334e+000	 8.133340000006532e+000	 9.925813104217765e+000
0	 1.333299999983334e+000	 8.200010000009550e+000	 9.930480549920864e+000
0	 1.333299999983334e+000	 8.266680000012268e+000	 9.935000783039428e+000
0	 1.333299999983334e+000	 8.333350000014587e+000	 9.939381600422713e+000
0	 1.333299999983334e+000	 8.400020000016399e+000	 9.943630798920005e+000
0	 1.333299999983334e+000	 8.466690000017618e+000	 9.947756175380563e+000
0	 1.333299999983334e+000	 8.533360000018135e+000	 9.951765526653650e+000
0	 1.333299999983334e+000	 8.600030000017851e+000	 9.955666649588546e+000
0	 1.333299999983334e+000	 8.666700000016666e+000	 9.959467341034493e+000
0	 6.666972226472177e-001	 8.666700000016666e+000	 9.948193602966295e+000
0	 6.666972226472175e-001	 8.733360002791901e+000	 9.953091192866589e+000
0	 6.666972226472177e-001	 8.800020022230555e+000	 9.957721230949307e+000
0	 6.666972226472177e-001	 8.866680074997042e+000	 9.962090575459282e+000
0	 6.666972226472178e-001	 8.933340177755779e+000	 9.966206085353404e+000
0	 6.666972226472177e-001	 9.000000347171181e+000	 9.970074620300663e+000
0	 6.666972226472178e-001	 9.066660599907667e+000	 9.973703040682123e+000
0	 6.666972226472175e-001	 9.133320952629656e+000	 9.977098207590897e+000
0	 6.666972226472179e-001	 9.199981422001560e+000	 9.980266982832166e+000
0	 6.666972226472177e-001	 9.266642024687796e+000	 9.983216228923121e+000
0	 6.666972226472177e-001	 9.333302777352785e+000	 9.985952809092996e+000
0	 7.333579753122048e-001	 8.666700000016665e+000	 9.948993083529540e+000
0	 7.333579753122047e-001	 8.733360002791901e+000	 9.953805959587042e+000
0	 7.333579753122047e-001	 8.800020022230552e+000	 9.958359750730086e+000
0	 7.333579753122052e-001	 8.866680074997042e+000	 9.962660361692468e+000
0	 7.333579753122048e-001	 8.933340177755776e+000	 9.966713697909379e+000
0	 7.333579753122049e-001	 9.000000347171183e+000	 9.970525665517387e+000
0	 7.333579753122047e-001	 9.066660599907669e+000	 9.974102171354470e+000
0	 7.333579753122048e-001	 9.133320952629655e+000	 9.977449122960001e+000
0	 7.333579753122049e-001	 9.199981422001557e+000	 9.980572428574662e+000
0	 7.333579753122048e-001	 9.266642024687794e+000	 9.983477997140488e+000
0	 7.333579753122046e-001	 9.333302777352783e+000	 9.986171738300897e+000
0	 8.000185779984420e-001	 8.666700000016666e+000	 9.949881386217353e+000
0	 8.000185779984418e-001	 8.733360002791903e+000	 9.954598815196249e+000
0	 8.000185779984419e-001	 8.800020022230555e+000	 9.959066155978082e+000
0	 8.000185779984417e-001	 8.866680074997040e+000	 9.963288514154510e+000
0	 8.000185779984420e-001	 8.933340177755779e+000	 9.967270996005453e+000
0	 8.000185779984418e-001	 9.000000347171183e+000	 9.971018708499074e+000
0	 8.000185779984417e-001	 9.066660599907667e+000	 9.974536759291757e+000
0	 8.000185779984416e-001	 9.133320952629653e+000	 9.977830256728092e+000
0	 8.000185779984418e-001	 9.199981422001558e+000	 9.980904309840868e+000
0	 8.000185779984418e-001	 9.266642024687796e+000	 9.983764028351086e+000
0	 8.000185779984417e-001	 9.333302777352781e+000	 9.986414522667872e+000
0	 8.666790473703455e-001	 8.666700000016665e+000	 9.950852526919828e+000
0	 8.666790473703456e-001	 8.733360002791905e+000	 9.955464584525641e+000
0	 8.666790473703456e-001	 8.800020022230555e+000	 9.959835963136476e+000
0	 8.666790473703454e-001	 8.866680074997042e+000	 9.963971123572019e+000
0	 8.666790473703454e-001	 8.933340177755779e+000	 9.967874527324735e+000
0	 8.666790473703455e-001	 9.000000347171183e+000	 9.971550636559867e+000
0	 8.666790473703454e-001	 9.066660599907667e+000	 9.975003914115467e+000
0	 8.666790473703455e-001	 9.133320952629655e+000	 9.978238823502267e+000
0	 8.666790473703455e-001	 9.199981422001557e+000	 9.981259828903763e+000
0	 8.666790473703454e-001	 9.266642024687794e+000	 9.984071395176249e+000
0	 8.666790473703451e-001	 9.333302777352781e+000	 9.986677987848653e+000
0	 9.333394000923324e-001	 8.666700000016668e+000	 9.951900521670028e+000
0	 9.333394000923324e-001	 8.733360002791905e+000	 9.956398092547570e+000
0	 9.333394000923323e-001	 8.800020022230557e+000	 9.960664688789105e+000
0	 9.333394000923323e-001	 8.866680074997044e+000	 9.964704280813431e+000
0	 9.333394000923321e-001	 8.933340177755776e+000	 9.968520839694484e+000
0	 9.333394000923322e-001	 9.000000347171181e+000	 9.972118337161467e+000
0	 9.333394000923322e-001	 9.066660599907667e+000	 9.975500745598721e+000
0	 9.333394000923325e-001	 9.133320952629655e+000	 9.978672038045799e+000
0	 9.333394000923322e-001	 9.199981422001558e+000	 9.981636188197410e+000
0	 9.333394000923324e-001	 9.266642024687796e+000	 9.984397170403419e+000
0	 9.333394000923323e-001	 9.333302777352783e+000	 9.986958959668820e+000
0	 9.999996528288188e-001	 8.666700000016665e+000	 9.953019386643941e+000
0	 9.999996528288193e-001	 8.733360002791901e+000	 9.957394164375364e+000
0	 9.999996528288191e-001	 8.800020022230557e+000	 9.961547849660477e+000
0	 9.999996528288191e-001	 8.866680074997042e+000	 9.965484076888952e+000
0	 9.999996528288191e-001	 8.933340177755776e+000	 9.969206481086117e+000
0	 9.999996528288189e-001	 9.000000347171181e+000	 9.972718697912979e+000
0	 9.999996528288190e-001	 9.066660599907667e+000	 9.976024363666225e+000
0	 9.999996528288191e-001	 9.133320952629656e+000	 9.979127115278217e+000
0	 9.999996528288193e-001	 9.199981422001560e+000	 9.982030590316962e+000
0	 9.999996528288192e-001	 9.266642024687796e+000	 9.984738426986054e+000
0	 9.999996528288191e-001	 9.333302777352783e+000	 9.987254264124777e+000
0	 1.066659822244223e+000	 8.666700000016663e+000	 9.954203138160477e+000
0	 1.066659822244223e+000	 8.733360002791901e+000	 9.958447625263325e+000
0	 1.066659822244223e+000	 8.800020022230557e+000	 9.962480962615766e+000
0	 1.066659822244222e+000	 8.866680074997042e+000	 9.966306602950626e+000
0	 1.066659822244223e+000	 8.933340177755781e+000	 9.969927999615168e+000
0	 1.066659822244223e+000	 9.000000347171181e+000	 9.973348606571051e+000
0	 1.066659822244222e+000	 9.066660599907667e+000	 9.976571878394273e+000
0	 1.066659822244223e+000	 9.133320952629658e+000	 9.979601270275230e+000
0	 1.066659822244222e+000	 9.199981422001558e+000	 9.982440238018679e+000
0	 1.066659822244222e+000	 9.266642024687794e+000	 9.985092238043729e+000
0	 1.066659822244222e+000	 9.333302777352781e+000	 9.987560727383791e+000
0	 1.133319925002959e+000	 8.666700000016668e+000	 9.955445792681539e+000
0	 1.133319925002959e+000	 8.733360002791903e+000	 9.959553300606745e+000
0	 1.133319925002959e+000	 8.800020022230557e+000	 9.963459544660781e+000
0	 1.133319925002959e+000	 8.866680074997040e+000	 9.967167950292284e+000
0	 1.133319925002959e+000	 8.933340177755778e+000	 9.970681943541424e+000
0	 1.133319925002959e+000	 9.000000347171183e+000	 9.974004951039868e+000
0	 1.133319925002959e+000	 9.066660599907669e+000	 9.977140400010754e+000
0	 1.133319925002959e+000	 9.133320952629656e+000	 9.980091718268740e+000
0	 1.133319925002959e+000	 9.199981422001557e+000	 9.982862334219963e+000
0	 1.133319925002959e+000	 9.266642024687798e+000	 9.985455676862019e+000
0	 1.133319925002959e+000	 9.333302777352781e+000	 9.987875175783946e+000
0	 1.199979977769445e+000	 8.666700000016666e+000	 9.956741366811906e+000
0	 1.199979977769445e+000	 8.733360002791903e+000	 9.960706015941792e+000
0	 1.199979977769445e+000	 8.800020022230557e+000	 9.964479112941987e+000
0	 1.199979977769445e+000	 8.866680074997040e+000	 9.968064210349549e+000
0	 1.199979977769445e+000	 8.933340177755781e+000	 9.971464861268746e+000
0	 1.199979977769446e+000	 9.000000347171183e+000	 9.974684619371068e+000
0	 1.199979977769445e+000	 9.066660599907666e+000	 9.977727038895146e+000
0	 1.199979977769445e+000	 9.133320952629653e+000	 9.980595674646869e+000
0	 1.199979977769445e+000	 9.199981422001560e+000	 9.983294081999286e+000
0	 1.199979977769446e+000	 9.266642024687794e+000	 9.985825816892605e+000
0	 1.199979977769445e+000	 9.333302777352785e+000	 9.988194435834206e+000
0	 1.266639997208098e+000	 8.666700000016668e+000	 9.958083877299337e+000
0	 1.266639997208098e+000	 8.733360002791903e+000	 9.961900596945640e+000
0	 1.266639997208098e+000	 8.800020022230557e+000	 9.965535184746516e+000
0	 1.266639997208098e+000	 8.866680074997042e+000	 9.968991474699854e+000
0	 1.266639997208098e+000	 8.933340177755776e+000	 9.972273301345217e+000
0	 1.266639997208098e+000	 9.000000347171183e+000	 9.975384499763798e+000
0	 1.266639997208098e+000	 9.066660599907666e+000	 9.978328905578517e+000
0	 1.266639997208098e+000	 9.133320952629656e+000	 9.981110354953939e+000
0	 1.266639997208098e+000	 9.199981422001558e+000	 9.983732684596237e+000
0	 1.266639997208098e+000	 9.266642024687796e+000	 9.986199731753215e+000
0	 1.266639997208098e+000	 9.333302777352781e+000	 9.988515334214350e+000
0	 1.333299999983334e+000	 8.666700000016666e+000	 9.959467341034491e+000
0	 1.333299999983334e+000	 8.733360002791903e+000	 9.963131869436431e+000
0	 1.333299999983334e+000	 8.800020022230553e+000	 9.966623277502176e+000
0	 1.333299999983334e+000	 8.866680074997040e+000	 9.969945835062429e+000
0	 1.333299999983334e+000	 8.933340177755781e+000	 9.973103812462979e+000
0	 1.333299999983334e+000	 9.000000347171181e+000	 9.976101480564726e+000
0	 1.333299999983334e+000	 9.066660599907669e+000	 9.978943110743566e+000
0	 1.333299999983334e+000	 9.133320952629656e+000	 9.981632974890475e+000
0	 1.333299999983334e+000	 9.199981422001560e+000	 9.984175345411495e+000
0	 1.333299999983334e+000	 9.266642024687796e+000	 9.986574495227632e+000
0	 1.333299999983334e+000	 9.333302777352785e+000	 9.988834697775010e+000
0	 6.666972226472177e-001	 9.333302777352785e+000	 9.985952809092995e+000
0	 6.666972226472175e-001	 9.399973674588177e+000	 9.988449023540813e+000
0	 6.666972226472177e-001	 9.466644621844619e+000	 9.990680708875530e+000
0	 6.666972226472178e-001	 9.533315502450000e+000	 9.992661213927669e+000
0	 6.666972226472177e-001	 9.599986199732195e+000	 9.994403881785081e+000
0	 6.666972226472175e-001	 9.666656597019095e+000	 9.995922049792403e+000
0	 6.666972226472178e-001	 9.733326577638577e+000	 9.997229049550295e+000
0	 6.666972226472177e-001	 9.799996024918521e+000	 9.998338206914497e+000
0	 6.666972226472177e-001	 9.866664822186822e+000	 9.999262841994939e+000
0	 6.666972226472177e-001	 9.933332852771352e+000	 1.000001626915434e+001
0	 6.666972226472175e-001	 1.000000000000000e+001	 1.000061179700712e+001
0	 7.333579753122046e-001	 9.333302777352783e+000	 9.986171738300895e+000
0	 7.333579753122048e-001	 9.399973674588171e+000	 9.988626505653492e+000
0	 7.333579753122045e-001	 9.466644621844619e+000	 9.990819672449355e+000
0	 7.333579753122048e-001	 9.533315502450000e+000	 9.992765089632723e+000
0	 7.333579753122049e-001	 9.599986199732198e+000	 9.994476602506769e+000
0	 7.333579753122047e-001	 9.666656597019093e+000	 9.995968050732888e+000
0	 7.333579753122049e-001	 9.733326577638579e+000	 9.997253268330026e+000
0	 7.333579753122048e-001	 9.799996024918523e+000	 9.998346083673862e+000
0	 7.333579753122047e-001	 9.866664822186820e+000	 9.999260319495706e+000
0	 7.333579753122048e-001	 9.933332852771354e+000	 1.000000979288129e+001
0	 7.333579753122049e-001	 1.000000000000000e+001	 1.000060831526959e+001
0	 8.000185779984417e-001	 9.333302777352781e+000	 9.986414522667873e+000
0	 8.000185779984417e-001	 9.399973674588173e+000	 9.988828303823372e+000
0	 8.000185779984416e-001	 9.466644621844619e+000	 9.990983187356394e+000
0	 8.000185779984419e-001	 9.533315502450002e+000	 9.992893383323391e+000
0	 8.000185779984417e-001	 9.599986199732195e+000	 9.994573096237476e+000
0	 8.000185779984416e-001	 9.666656597019090e+000	 9.996036525067812e+000
0	 8.000185779984417e-001	 9.733326577638577e+000	 9.997297863238945e+000
0	 8.000185779984419e-001	 9.799996024918524e+000	 9.998371298629959e+000
0	 8.000185779984416e-001	 9.866664822186820e+000	 9.999271013573424e+000
0	 8.000185779984415e-001	 9.933332852771351e+000	 1.000001118485428e+001
0	 8.000185779984418e-001	 1.000000000000000e+001	 1.000060598370849e+001
0	 8.666790473703451e-001	 9.333302777352781e+000	 9.986677987848649e+000
0	 8.666790473703452e-001	 9.399973674588178e+000	 9.989050973412297e+000
0	 8.666790473703455e-001	 9.466644621844619e+000	 9.991167609416516e+000
0	 8.666790473703456e-001	 9.533315502450003e+000	 9.993042322026085e+000
0	 8.666790473703454e-001	 9.599986199732195e+000	 9.994689531957292e+000
0	 8.666790473703454e-001	 9.666656597019093e+000	 9.996123654477382e+000
0	 8.666790473703452e-001	 9.733326577638573e+000	 9.997359099403763e+000
0	 8.666790473703456e-001	 9.799996024918523e+000	 9.998410271103275e+000
0	 8.666790473703454e-001	 9.866664822186824e+000	 9.999291568491120e+000
0	 8.666790473703453e-001	 9.933332852771354e+000	 1.000001738502966e+001
0	 8.666790473703455e-001	 1.000000000000000e+001	 1.000060210872731e+001
0	 9.333394000923323e-001	 9.333302777352783e+000	 9.986958959668824e+000
0	 9.333394000923324e-001	 9.399973674588177e+000	 9.989291069957503e+000
0	 9.333394000923323e-001	 9.466644621844619e+000	 9.991369294629148e+000
0	 9.333394000923323e-001	 9.533315502450003e+000	 9.993208132951068e+000
0	 9.333394000923320e-001	 9.599986199732195e+000	 9.994822078834716e+000
0	 9.333394000923324e-001	 9.666656597019095e+000	 9.996225620835123e+000
0	 9.333394000923323e-001	 9.733326577638575e+000	 9.997433242150185e+000
0	 9.333394000923322e-001	 9.799996024918523e+000	 9.998459420619733e+000
0	 9.333394000923321e-001	 9.866664822186822e+000	 9.999318628724712e+000
0	 9.333394000923324e-001	 9.933332852771354e+000	 1.000002533358589e+001
0	 9.333394000923323e-001	 1.000000000000000e+001	 1.000059399696264e+001
0	 9.999996528288191e-001	 9.333302777352783e+000	 9.987254264124774e+000
0	 9.999996528288192e-001	 9.399973674588178e+000	 9.989545149171484e+000
0	 9.999996528288191e-001	 9.466644621844619e+000	 9.991584599173253e+000
0	 9.999996528288193e-001	 9.533315502450002e+000	 9.993387043492387e+000
0	 9.999996528288191e-001	 9.599986199732198e+000	 9.994966906226503e+000
0	 9.999996528288189e-001	 9.666656597019090e+000	 9.996338606207900e+000
0	 9.999996528288190e-001	 9.733326577638575e+000	 9.997516557002868e+000
0	 9.999996528288193e-001	 9.799996024918523e+000	 9.998515166910833e+000
0	 9.999996528288191e-001	 9.866664822186824e+000	 9.999348838963432e+000
0	 9.999996528288192e-001	 9.933332852771354e+000	 1.000003197092330e+001
0	 9.999996528288190e-001	 1.000000000000000e+001	 1.000057895528297e+001
0	 1.066659822244222e+000	 9.333302777352781e+000	 9.987560727383789e+000
0	 1.066659822244222e+000	 9.399973674588175e+000	 9.989809766942013e+000
0	 1.066659822244222e+000	 9.466644621844619e+000	 9.991809879407345e+000
0	 1.066659822244222e+000	 9.533315502450000e+000	 9.993575281227978e+000
0	 1.066659822244222e+000	 9.599986199732197e+000	 9.995120183677841e+000
0	 1.066659822244222e+000	 9.666656597019092e+000	 9.996458792855878e+000
0	 1.066659822244223e+000	 9.733326577638575e+000	 9.997605309685419e+000
0	 1.066659822244223e+000	 9.799996024918524e+000	 9.998573929913423e+000
0	 1.066659822244222e+000	 9.866664822186822e+000	 9.999378844109442e+000
0	 1.066659822244223e+000	 9.933332852771352e+000	 1.000003423766438e+001
0	 1.066659822244222e+000	 9.999999999999998e+000	 1.000055429078960e+001
0	 1.133319925002959e+000	 9.333302777352781e+000	 9.987875175783946e+000
0	 1.133319925002959e+000	 9.399973674588175e+000	 9.990081479332174e+000
0	 1.133319925002958e+000	 9.466644621844619e+000	 9.992041491869525e+000
0	 1.133319925002959e+000	 9.533315502450000e+000	 9.993769073919664e+000
0	 1.133319925002959e+000	 9.599986199732197e+000	 9.995278080922276e+000
0	 1.133319925002959e+000	 9.666656597019095e+000	 9.996582363232530e+000
0	 1.133319925002959e+000	 9.733326577638579e+000	 9.997695766120442e+000
0	 1.133319925002959e+000	 9.799996024918523e+000	 9.998632129769913e+000
0	 1.133319925002959e+000	 9.866664822186822e+000	 9.999405289278002e+000
0	 1.133319925002959e+000	 9.933332852771356e+000	 1.000002907465351e+001
0	 1.133319925002959e+000	 1.000000000000000e+001	 1.000051731081607e+001
0	 1.199979977769445e+000	 9.333302777352785e+000	 9.988194435834206e+000
0	 1.199979977769445e+000	 9.399973674588178e+000	 9.990356842580360e+000
0	 1.199979977769445e+000	 9.466644621844619e+000	 9.992275793277420e+000
0	 1.199979977769445e+000	 9.533315502450002e+000	 9.993964649512956e+000
0	 1.199979977769446e+000	 9.599986199732195e+000	 9.995436767881623e+000
0	 1.199979977769445e+000	 9.666656597019093e+000	 9.996705499984699e+000
0	 1.199979977769445e+000	 9.733326577638575e+000	 9.997784192429453e+000
0	 1.199979977769445e+000	 9.799996024918523e+000	 9.998686186828195e+000
0	 1.199979977769446e+000	 9.866664822186822e+000	 9.999424819797568e+000
0	 1.199979977769445e+000	 9.933332852771354e+000	 1.000001342295708e+001
0	 1.199979977769445e+000	 1.000000000000000e+001	 1.000046532292839e+001
0	 1.266639997208098e+000	 9.333302777352781e+000	 9.988515334214354e+000
0	 1.266639997208098e+000	 9.399973674588178e+000	 9.990632413100178e+000
0	 1.266639997208098e+000	 9.466644621844617e+000	 9.992509140528240e+000
0	 1.266639997208098e+000	 9.533315502449998e+000	 9.994158236137343e+000
0	 1.266639997208098e+000	 9.599986199732198e+000	 9.995592414666142e+000
0	 1.266639997208098e+000	 9.666656597019095e+000	 9.996824385952507e+000
0	 1.266639997208098e+000	 9.733326577638577e+000	 9.997866854932882e+000
0	 1.266639997208098e+000	 9.799996024918524e+000	 9.998732521641527e+000
0	 1.266639997208098e+000	 9.866664822186822e+000	 9.999434081209497e+000
0	 1.266639997208098e+000	 9.933332852771354e+000	 9.999984223863649e+000
0	 1.266639997208098e+000	 1.000000000000000e+001	 1.000039563492521e+001
0	 1.333299999983334e+000	 9.333302777352785e+000	 9.988834697775012e+000
0	 1.333299999983334e+000	 9.399973674588177e+000	 9.990904747480652e+000
0	 1.333299999983334e+000	 9.466644621844619e+000	 9.992737890698660e+000
0	 1.333299999983334e+000	 9.533315502450002e+000	 9.994346062106004e+000
0	 1.333299999983334e+000	 9.599986199732198e+000	 9.995741191574370e+000
0	 1.333299999983334e+000	 9.666656597019093e+000	 9.996935204169358e+000
0	 1.333299999983334e+000	 9.733326577638575e+000	 9.997940020150246e+000
0	 1.333299999983334e+000	 9.799996024918523e+000	 9.998767554968774e+000
0	 1.333299999983334e+000	 9.866664822186824e+000	 9.999429719268449e+000
0	 1.333299999983334e+000	 9.933332852771356e+000	 9.999938418883430e+000
0	 1.333299999983334e+000	 1.000000000000000e+001	 1.000030555483746e+001
0	 1.333299999983334e+000	 0.000000000000000e+000	-5.654540923801338e+000
0	 1.333299999983334e+000	 6.666714722864758e-002	-5.062954946517986e+000
0	 1.333299999983334e+000	 1.333351778131789e-001	-4.534703969016951e+000
0	 1.333299999983334e+000	 2.000039750814772e-001	-4.051336516720953e+000
0	 1.333299999983334e+000	 2.666734223614255e-001	-3.594400601071803e+000
0	 1.333299999983334e+000	 3.333434029809069e-001	-3.145443719526910e+000
0	 1.333299999983334e+000	 4.000138002678044e-001	-2.686012855542338e+000
0	 1.333299999983334e+000	 4.666844975500012e-001	-2.197654478542330e+000
0	 1.333299999983334e+000	 5.333553781553803e-001	-1.661914543875386e+000
0	 1.333299999983334e+000	 6.000263254118247e-001	-1.060338492756811e+000
0	 1.333299999983334e+000	 6.666972226472174e-001	-3.744712521977927e-001
0	 1.399969999982150e+000	 0.000000000000000e+000	-8.115619242148339e+000
0	 1.399969999982150e+000	 6.666714722864754e-002	-7.212747424540052e+000
0	 1.399969999982150e+000	 1.333351778131789e-001	-6.401409142192922e+000
0	 1.399969999982150e+000	 2.000039750814772e-001	-5.660377041519589e+000
0	 1.399969999982150e+000	 2.666734223614255e-001	-4.968423389678369e+000
0	 1.399969999982150e+000	 3.333434029809069e-001	-4.304320074527237e+000
0	 1.399969999982150e+000	 4.000138002678045e-001	-3.646838604567789e+000
0	 1.399969999982150e+000	 4.666844975500012e-001	-2.974750108879297e+000
0	 1.399969999982150e+000	 5.333553781553803e-001	-2.266825337042769e+000
0	 1.399969999982150e+000	 6.000263254118247e-001	-1.501834659055076e+000
0	 1.399969999982150e+000	 6.666972226472177e-001	-6.585480652331045e-001
0	 1.466639999981866e+000	 0.000000000000000e+000	-1.104228566972939e+001
0	 1.466639999981866e+000	 6.666714722864756e-002	-9.797696739929634e+000
0	 1.466639999981866e+000	 1.333351778131789e-001	-8.666350884004741e+000
0	 1.466639999981866e+000	 2.000039750814773e-001	-7.625789732785443e+000
0	 1.466639999981866e+000	 2.666734223614254e-001	-6.653554735748574e+000
0	 1.466639999981867e+000	 3.333434029809070e-001	-5.727187160915830e+000
0	 1.466639999981866e+000	 4.000138002678044e-001	-4.824228094747870e+000
0	 1.466639999981867e+000	 4.666844975500011e-001	-3.922218442033597e+000
0	 1.466639999981867e+000	 5.333553781553803e-001	-2.998698925774701e+000
0	 1.466639999981866e+000	 6.000263254118248e-001	-2.031210087065423e+000
0	 1.466639999981867e+000	 6.666972226472175e-001	-9.972922849675721e-001
0	 1.533309999982383e+000	 0.000000000000000e+000	-1.437270376497319e+001
0	 1.533309999982383e+000	 6.666714722864754e-002	-1.276386847059473e+001
0	 1.533309999982383e+000	 1.333351778131789e-001	-1.128287147913948e+001
0	 1.533309999982383e+000	 2.000039750814772e-001	-9.907568330702004e+000
0	 1.533309999982383e+000	 2.666734223614256e-001	-8.615814638529047e+000
0	 1.533309999982383e+000	 3.333434029809069e-001	-7.385466088852037e+000
0	 1.533309999982383e+000	 4.000138002678044e-001	-6.194378440721492e+000
0	 1.533309999982383e+000	 4.666844975500011e-001	-5.020407525843304e+000
0	 1.533309999982383e+000	 5.333553781553803e-001	-3.841409248416960e+000
0	 1.533309999982383e+000	 6.000263254118248e-001	-2.635239584975730e+000
0	 1.533309999982383e+000	 6.666972226472177e-001	-1.379754584228648e+000
0	 1.599979999983600e+000	 0.000000000000000e+000	-1.804503708630794e+001
0	 1.599979999983599e+000	 6.666714722864754e-002	-1.605732819444321e+001
0	 1.599979999983600e+000	 1.333351778131790e-001	-1.420431321228447e+001
0	 1.599979999983600e+000	 2.000039750814772e-001	-1.246570657545315e+001
0	 1.599979999983600e+000	 2.666734223614256e-001	-1.082122309726693e+001
0	 1.599979999983600e+000	 3.333434029809069e-001	-9.250577968495762e+000
0	 1.599979999983600e+000	 4.000138002678044e-001	-7.733486757128114e+000
0	 1.599979999983599e+000	 4.666844975500011e-001	-6.249665408146962e+000
0	 1.599979999983600e+000	 5.333553781553801e-001	-4.778830243315742e+000
0	 1.599979999983600e+000	 6.000263254118248e-001	-3.300697960974160e+000
0	 1.599979999983600e+000	 6.666972226472177e-001	-1.794985635843952e+000
0	 1.666649999985417e+000	 0.000000000000000e+000	-2.199744919216137e+001
0	 1.666649999985416e+000	 6.666714722864757e-002	-1.962414148938291e+001
0	 1.666649999985417e+000	 1.333351778131790e-001	-1.738401836812720e+001
0	 1.666649999985416e+000	 2.000039750814773e-001	-1.526019820722323e+001
0	 1.666649999985416e+000	 2.666734223614256e-001	-1.323580011120991e+001
0	 1.666649999985416e+000	 3.333434029809069e-001	-1.129394391000746e+001
0	 1.666649999985416e+000	 4.000138002678043e-001	-9.417750158607726e+000
0	 1.666649999985417e+000	 4.666844975500012e-001	-7.590340136783619e+000
0	 1.666649999985416e+000	 5.333553781553800e-001	-5.794835848817599e+000
0	 1.666649999985416e+000	 6.000263254118247e-001	-4.014360023249150e+000
0	 1.666649999985416e+000	 6.666972226472175e-001	-2.232036112641289e+000
0	 1.733319999987733e+000	 0.000000000000000e+000	-2.616810364096072e+001
0	 1.733319999987733e+000	 6.666714722864756e-002	-2.341037393332157e+001
0	 1.733319999987733e+000	 1.333351778131789e-001	-2.077532923135543e+001
0	 1.733319999987733e+000	 2.000039750814772e-001	-1.825103696619691e+001
0	 1.733319999987734e+000	 2.666734223614256e-001	-1.582556567960616e+001
0	 1.733319999987733e+000	 3.333434029809068e-001	-1.348698502354815e+001
0	 1.733319999987733e+000	 4.000138002678043e-001	-1.122336575980086e+001
0	 1.733319999987733e+000	 4.666844975500011e-001	-9.022779759592773e+000
0	 1.733319999987733e+000	 5.333553781553801e-001	-6.873300003269494e+000
0	 1.733319999987733e+000	 6.000263254118248e-001	-4.763000579989422e+000
0	 1.733319999987733e+000	 6.666972226472177e-001	-2.679956687448610e+000
0	 1.799989999990450e+000	 0.000000000000000e+000	-3.049516399113276e+001
0	 1.799989999990450e+000	 6.666714722864754e-002	-2.736209110416684e+001
0	 1.799989999990450e+000	 1.333351778131789e-001	-2.433158808665710e+001
0	 1.799989999990450e+000	 2.000039750814773e-001	-2.139821659255932e+001
0	 1.799989999990450e+000	 2.666734223614256e-001	-1.855653980170440e+001
0	 1.799989999990450e+000	 3.333434029809069e-001	-1.580112241927941e+001
0	 1.799989999990450e+000	 4.000138002678043e-001	-1.312653067534858e+001
0	 1.799989999990450e+000	 4.666844975500012e-001	-1.052733232441442e+001
0	 1.799989999990450e+000	 5.333553781553804e-001	-7.998096645018757e+000
0	 1.799989999990450e+000	 6.000263254118247e-001	-5.533394439383982e+000
0	 1.799989999990450e+000	 6.666972226472177e-001	-3.127798033094082e+000
0	 1.866659999993467e+000	 0.000000000000000e+000	-3.491679380110379e+001
0	 1.866659999993467e+000	 6.666714722864756e-002	-3.142535857982633e+001
0	 1.866659999993467e+000	 1.333351778131790e-001	-2.800613721872040e+001
0	 1.866659999993467e+000	 2.000039750814772e-001	-2.466173082649600e+001
0	 1.866659999993467e+000	 2.666734223614254e-001	-2.139474247675382e+001
0	 1.866659999993467e+000	 3.333434029809069e-001	-1.820777720736335e+001
0	 1.866659999993466e+000	 4.000138002678043e-001	-1.510344201989251e+001
0	 1.866659999993467e+000	 4.666844975500012e-001	-1.208434587908900e+001
0	 1.866659999993466e+000	 5.333553781553801e-001	-9.153099712413120e+000
0	 1.866659999993467e+000	 6.000263254118247e-001	-6.312316409622100e+000
0	 1.866659999993467e+000	 6.666972226472177e-001	-3.564610822406005e+000
0	 1.933329999996684e+000	 0.000000000000000e+000	-3.937115662929957e+001
0	 1.933329999996684e+000	 6.666714722864757e-002	-3.554624193820754e+001
0	 1.933329999996684e+000	 1.333351778131789e-001	-3.175231891223369e+001
0	 1.933329999996684e+000	 2.000039750814773e-001	-2.800157340819290e+001
0	 1.933329999996684e+000	 2.666734223614255e-001	-2.430619370400422e+001
0	 1.933329999996683e+000	 3.333434029809069e-001	-2.067837049796268e+001
0	 1.933329999996684e+000	 4.000138002678044e-001	-1.713029690807478e+001
0	 1.933329999996684e+000	 4.666844975500011e-001	-1.367416847145749e+001
0	 1.933329999996684e+000	 5.333553781553804e-001	-1.032218314380070e+001
0	 1.933329999996683e+000	 6.000263254118246e-001	-7.086541298893353e+000
0	 1.933329999996683e+000	 6.666972226472177e-001	-3.979445728212882e+000
0	 2.000000000000000e+000	 0.000000000000000e+000	-4.379641603414542e+001
0	 2.000000000000000e+000	 6.666714722864757e-002	-3.967080675721788e+001
0	 2.000000000000000e+000	 1.333351778131789e-001	-3.552347545188554e+001
0	 2.000000000000000e+000	 2.000039750814773e-001	-3.137773807783633e+001
0	 2.000000000000000e+000	 2.666734223614256e-001	-2.725691348270579e+001
0	 2.000000000000000e+000	 3.333434029809069e-001	-2.318432340124061e+001
0	 2.000000000000000e+000	 4.000138002678043e-001	-1.918329245453808e+001
0	 2.000000000000000e+000	 4.666844975500010e-001	-1.527714814936126e+001
0	 2.000000000000000e+000	 5.333553781553803e-001	-1.148922087752997e+001
0	 2.000000000000000e+000	 6.000263254118246e-001	-7.842843915387577e+000
0	 2.000000000000000e+000	 6.666972226472177e-001	-4.361353423343373e+000
0	 1.333299999983334e+000	 6.666972226472174e-001	-3.744712521977927e-001
0	 1.333299999983334e+000	 7.333579753122047e-001	 4.284080813118384e-001
0	 1.333299999983334e+000	 8.000185779984418e-001	 1.359634556985295e+000
0	 1.333299999983334e+000	 8.666790473703454e-001	 2.405254394870736e+000
0	 1.333299999983334e+000	 9.333394000923321e-001	 3.551313682188069e+000
0	 1.333299999983334e+000	 9.999996528288189e-001	 4.783858373328754e+000
0	 1.333299999983334e+000	 1.066659822244222e+000	 6.088934289856097e+000
0	 1.333299999983334e+000	 1.133319925002959e+000	 7.452587120506045e+000
0	 1.333299999983334e+000	 1.199979977769445e+000	 8.860862421188486e+000
0	 1.333299999983334e+000	 1.266639997208098e+000	 1.029980561498901e+001
0	 1.333299999983334e+000	 1.333299999983334e+000	 1.175546199217126e+001
0	 1.399969999982150e+000	 6.666972226472177e-001	-6.585480652331045e-001
0	 1.399969999982150e+000	 7.333579753122047e-001	 2.923050274326235e-001
0	 1.399969999982150e+000	 8.000185779984417e-001	 1.356098754208932e+000
0	 1.399969999982150e+000	 8.666790473703450e-001	 2.517818405207262e+000
0	 1.399969999982150e+000	 9.333394000923321e-001	 3.762449173605129e+000
0	 1.399969999982150e+000	 9.999996528288191e-001	 5.074976155646874e+000
0	 1.399969999982150e+000	 1.066659822244222e+000	 6.440384350644790e+000
0	 1.399969999982150e+000	 1.133319925002959e+000	 7.843658660980610e+000
0	 1.399969999982150e+000	 1.199979977769445e+000	 9.269783892107336e+000
0	 1.399969999982150e+000	 1.266639997208098e+000	 1.070374475255146e+001
0	 1.399969999982150e+000	 1.333299999983334e+000	 1.213052585391553e+001
0	 1.466639999981867e+000	 6.666972226472175e-001	-9.972922849675721e-001
0	 1.466639999981867e+000	 7.333579753122048e-001	 1.296722205285578e-001
0	 1.466639999981866e+000	 8.000185779984416e-001	 1.351041680594763e+000
0	 1.466639999981866e+000	 8.666790473703453e-001	 2.650903041539185e+000
0	 1.466639999981866e+000	 9.333394000923321e-001	 4.013343191460099e+000
0	 1.466639999981866e+000	 9.999996528288190e-001	 5.422448960247776e+000
0	 1.466639999981867e+000	 1.066659822244222e+000	 6.862307119586435e+000
0	 1.466639999981867e+000	 1.133319925002959e+000	 8.317004382956529e+000
0	 1.466639999981866e+000	 1.199979977769445e+000	 9.770627405637141e+000
0	 1.466639999981866e+000	 1.266639997208097e+000	 1.120726278470867e+001
0	 1.466639999981866e+000	 1.333299999983334e+000	 1.261099705905572e+001
0	 1.533309999982383e+000	 6.666972226472177e-001	-1.379754584228648e+000
0	 1.533309999982383e+000	 7.333579753122047e-001	-5.044616074566259e-002
0	 1.533309999982383e+000	 8.000185779984417e-001	 1.351718212841683e+000
0	 1.533309999982383e+000	 8.666790473703455e-001	 2.810089727251988e+000
0	 1.533309999982383e+000	 9.333394000923321e-001	 4.308019556374147e+000
0	 1.533309999982383e+000	 9.999996528288192e-001	 5.828858857270259e+000
0	 1.533309999982383e+000	 1.066659822244222e+000	 7.355958770178574e+000
0	 1.533309999982383e+000	 1.133319925002958e+000	 8.872670418516549e+000
0	 1.533309999982383e+000	 1.199979977769445e+000	 1.036234490888389e+001
0	 1.533309999982383e+000	 1.266639997208098e+000	 1.180833333106577e+001
0	 1.533309999982383e+000	 1.333299999983334e+000	 1.319398675803597e+001
0	 1.599979999983600e+000	 6.666972226472177e-001	-1.794985635843952e+000
0	 1.599979999983600e+000	 7.333579753122049e-001	-2.390059377354009e-001
0	 1.599979999983600e+000	 8.000185779984417e-001	 1.365383227648578e+000
0	 1.599979999983599e+000	 8.666790473703451e-001	 3.000959885731254e+000
0	 1.599979999983600e+000	 9.333394000923322e-001	 4.650502088968599e+000
0	 1.599979999983600e+000	 9.999996528288191e-001	 6.296787916853361e+000
0	 1.599979999983600e+000	 1.066659822244222e+000	 7.922595475919035e+000
0	 1.599979999983599e+000	 1.133319925002958e+000	 9.510702899743734e+000
0	 1.599979999983600e+000	 1.199979977769445e+000	 1.104388834895398e+001
0	 1.599979999983600e+000	 1.266639997208098e+000	 1.250493001122830e+001
0	 1.599979999983600e+000	 1.333299999983334e+000	 1.387660610130091e+001
0	 1.666649999985416e+000	 6.666972226472175e-001	-2.232036112641289e+000
0	 1.666649999985416e+000	 7.333579753122048e-001	-4.269629317861200e-001
0	 1.666649999985417e+000	 8.000185779984420e-001	 1.399291601714338e+000
0	 1.666649999985416e+000	 8.666790473703451e-001	 3.229094940362627e+000
0	 1.666649999985416e+000	 9.333394000923321e-001	 5.044814609864917e+000
0	 1.666649999985417e+000	 9.999996528288191e-001	 6.828818209136308e+000
0	 1.666649999985416e+000	 1.066659822244222e+000	 8.563473410305900e+000
0	 1.666649999985417e+000	 1.133319925002959e+000	 1.023114795872149e+001
0	 1.666649999985416e+000	 1.199979977769445e+000	 1.181420967295411e+001
0	 1.666649999985416e+000	 1.266639997208098e+000	 1.329502644480221e+001
0	 1.666649999985417e+000	 1.333299999983334e+000	 1.465596623929562e+001
0	 1.733319999987733e+000	 6.666972226472177e-001	-2.679956687448610e+000
0	 1.733319999987733e+000	 7.333579753122046e-001	-6.052729642433381e-001
0	 1.733319999987733e+000	 8.000185779984415e-001	 1.460698211737888e+000
0	 1.733319999987733e+000	 8.666790473703454e-001	 3.500076314531865e+000
0	 1.733319999987733e+000	 9.333394000923320e-001	 5.494980939684733e+000
0	 1.733319999987733e+000	 9.999996528288189e-001	 7.427531804258565e+000
0	 1.733319999987733e+000	 1.066659822244222e+000	 9.279848746837516e+000
0	 1.733319999987733e+000	 1.133319925002959e+000	 1.103405172753352e+001
0	 1.733319999987733e+000	 1.199979977769445e+000	 1.267226082799143e+001
0	 1.733319999987733e+000	 1.266639997208098e+000	 1.417659625139390e+001
0	 1.733319999987733e+000	 1.333299999983334e+000	 1.552917832246566e+001
0	 1.799989999990450e+000	 6.666972226472177e-001	-3.127798033094082e+000
0	 1.799989999990450e+000	 7.333579753122047e-001	-7.648918564526572e-001
0	 1.799989999990450e+000	 8.000185779984418e-001	 1.556857934418129e+000
0	 1.799989999990450e+000	 8.666790473703450e-001	 3.819485431624780e+000
0	 1.799989999990450e+000	 9.333394000923322e-001	 6.005024899049824e+000
0	 1.799989999990450e+000	 9.999996528288190e-001	 8.095510772359793e+000
0	 1.799989999990450e+000	 1.066659822244222e+000	 1.007297765901254e+001
0	 1.799989999990450e+000	 1.133319925002959e+000	 1.191946033826386e+001
0	 1.799989999990450e+000	 1.199979977769445e+000	 1.361699376117339e+001
0	 1.799989999990450e+000	 1.266639997208098e+000	 1.514761305061014e+001
0	 1.799989999990450e+000	 1.333299999983334e+000	 1.649335350125703e+001
0	 1.866659999993467e+000	 6.666972226472177e-001	-3.564610822406005e+000
0	 1.866659999993467e+000	 7.333579753122049e-001	-8.967754297597776e-001
0	 1.866659999993467e+000	 8.000185779984415e-001	 1.695025646454011e+000
0	 1.866659999993467e+000	 8.666790473703453e-001	 4.192903715027296e+000
0	 1.866659999993467e+000	 9.333394000923321e-001	 6.578970308582109e+000
0	 1.866659999993467e+000	 9.999996528288186e-001	 8.835337183579869e+000
0	 1.866659999993467e+000	 1.066659822244222e+000	 1.094411632032986e+001
0	 1.866659999993467e+000	 1.133319925002958e+000	 1.288741992299685e+001
0	 1.866659999993467e+000	 1.199979977769445e+000	 1.464736041960788e+001
0	 1.866659999993467e+000	 1.266639997208098e+000	 1.620605046205816e+001
0	 1.866659999993467e+000	 1.333299999983334e+000	 1.754560292611624e+001
0	 1.933329999996683e+000	 6.666972226472177e-001	-3.979445728212882e+000
0	 1.933329999996684e+000	 7.333579753122047e-001	-9.918795055104346e-001
0	 1.933329999996683e+000	 8.000185779984416e-001	 1.882456224544455e+000
0	 1.933329999996683e+000	 8.666790473703453e-001	 4.625912588125405e+000
0	 1.933329999996684e+000	 9.333394000923321e-001	 7.220840988903675e+000
0	 1.933329999996683e+000	 9.999996528288188e-001	 9.649593108058872e+000
0	 1.933329999996683e+000	 1.066659822244222e+000	 1.189452090428863e+001
0	 1.933329999996684e+000	 1.133319925002958e+000	 1.393797661381719e+001
0	 1.933329999996684e+000	 1.199979977769445e+000	 1.576231275040309e+001
0	 1.933329999996684e+000	 1.266639997208098e+000	 1.734988210534558e+001
0	 1.933329999996684e+000	 1.333299999983334e+000	 1.868303774749024e+001
0	 2.000000000000000e+000	 6.666972226472177e-001	-4.361353423343373e+000
0	 2.000000000000000e+000	 7.333579753122048e-001	-1.041159905050483e+000
0	 2.000000000000000e+000	 8.000185779984418e-001	 2.126404545388396e+000
0	 2.000000000000000e+000	 8.666790473703454e-001	 5.124093474305181e+000
0	 2.000000000000000e+000	 9.333394000923323e-001	 7.934660760636765e+000
0	 2.000000000000000e+000	 9.999996528288190e-001	 1.054086061593713e+001
0	 2.000000000000000e+000	 1.066659822244222e+000	 1.292544758438826e+001
0	 2.000000000000000e+000	 1.133319925002958e+000	 1.507117654280986e+001
0	 2.000000000000000e+000	 1.199979977769445e+000	 1.696080270066761e+001
0	 2.000000000000000e+000	 1.266639997208097e+000	 1.857708160008046e+001
0	 2.000000000000000e+000	 1.333299999983334e+000	 1.990276911582643e+001
0	 1.333299999983334e+000	 1.333299999983334e+000	 1.175546199217126e+001
0	 1.333299999983334e+000	 1.399969999982150e+000	 1.308899324341359e+001
0	 1.333299999983334e+000	 1.466639999981867e+000	 1.417520158977092e+001
0	 1.333299999983334e+000	 1.533309999982383e+000	 1.502124979574802e+001
0	 1.333299999983334e+000	 1.599979999983599e+000	 1.563430062584815e+001
0	 1.333299999983334e+000	 1.666649999985416e+000	 1.602151684457305e+001
0	 1.333299999983334e+000	 1.733319999987733e+000	 1.619006121642296e+001
0	 1.333299999983334e+000	 1.799989999990449e+000	 1.614709650589657e+001
0	 1.333299999983334e+000	 1.866659999993466e+000	 1.589978547749108e+001
0	 1.333299999983334e+000	 1.933329999996683e+000	 1.545529089570216e+001
0	 1.333299999983334e+000	 2.000000000000000e+000	 1.482077552502396e+001
0	 1.399969999982150e+000	 1.333299999983334e+000	 1.213052585391553e+001
0	 1.399969999982150e+000	 1.399969999982150e+000	 1.341839235843893e+001
0	 1.399969999982150e+000	 1.466639999981866e+000	 1.445048398908190e+001
0	 1.399969999982150e+000	 1.533309999982383e+000	 1.523473537339130e+001
0	 1.399969999982150e+000	 1.599979999983599e+000	 1.577908113891241e+001
0	 1.399969999982150e+000	 1.666649999985416e+000	 1.609145591318892e+001
0	 1.399969999982150e+000	 1.733319999987733e+000	 1.617979432376289e+001
0	 1.399969999982150e+000	 1.799989999990450e+000	 1.605203099817484e+001
0	 1.399969999982150e+000	 1.866659999993466e+000	 1.571610056396366e+001
0	 1.399969999982150e+000	 1.933329999996683e+000	 1.517993764866668e+001
0	 1.399969999982150e+000	 2.000000000000000e+000	 1.445147687981960e+001
0	 1.466639999981866e+000	 1.333299999983334e+000	 1.261099705905572e+001
0	 1.466639999981866e+000	 1.399969999982150e+000	 1.385892558006309e+001
0	 1.466639999981867e+000	 1.466639999981866e+000	 1.484409482735723e+001
0	 1.466639999981867e+000	 1.533309999982383e+000	 1.557513994138342e+001
0	 1.466639999981866e+000	 1.599979999983599e+000	 1.606069606258530e+001
0	 1.466639999981867e+000	 1.666649999985416e+000	 1.630939833140486e+001
0	 1.466639999981867e+000	 1.733319999987733e+000	 1.632988188828244e+001
0	 1.466639999981867e+000	 1.799989999990450e+000	 1.613078187365671e+001
0	 1.466639999981866e+000	 1.866659999993466e+000	 1.572073342796471e+001
0	 1.466639999981867e+000	 1.933329999996683e+000	 1.510837169164177e+001
0	 1.466639999981866e+000	 2.000000000000000e+000	 1.430233180512166e+001
0	 1.533309999982383e+000	 1.333299999983334e+000	 1.319398675803597e+001
0	 1.533309999982383e+000	 1.399969999982150e+000	 1.440684013154124e+001
0	 1.533309999982383e+000	 1.466639999981866e+000	 1.535129886716401e+001
0	 1.533309999982383e+000	 1.533309999982383e+000	 1.603662726810435e+001
0	 1.533309999982383e+000	 1.599979999983600e+000	 1.647208963756068e+001
0	 1.533309999982383e+000	 1.666649999985416e+000	 1.666695027872962e+001
0	 1.533309999982383e+000	 1.733319999987733e+000	 1.663047349480613e+001
0	 1.533309999982383e+000	 1.799989999990450e+000	 1.637192358898349e+001
0	 1.533309999982383e+000	 1.866659999993466e+000	 1.590056486445323e+001
0	 1.533309999982383e+000	 1.933329999996683e+000	 1.522566162440520e+001
0	 1.533309999982383e+000	 2.000000000000000e+000	 1.435647817202755e+001
0	 1.599979999983600e+000	 1.333299999983334e+000	 1.387660610130091e+001
0	 1.599979999983600e+000	 1.399969999982150e+000	 1.505838323612902e+001
0	 1.599979999983600e+000	 1.466639999981866e+000	 1.596736087106989e+001
0	 1.599979999983600e+000	 1.533309999982383e+000	 1.661336112193475e+001
0	 1.599979999983600e+000	 1.599979999983599e+000	 1.700620610453308e+001
0	 1.599979999983599e+000	 1.666649999985416e+000	 1.715571793467257e+001
0	 1.599979999983600e+000	 1.733319999987733e+000	 1.707171872815923e+001
0	 1.599979999983600e+000	 1.799989999990450e+000	 1.676403060079725e+001
0	 1.599979999983600e+000	 1.866659999993467e+000	 1.624247566838914e+001
0	 1.599979999983600e+000	 1.933329999996683e+000	 1.551687604673561e+001
0	 1.599979999983600e+000	 2.000000000000000e+000	 1.459705385163568e+001
0	 1.666649999985417e+000	 1.333299999983334e+000	 1.465596623929562e+001
0	 1.666649999985416e+000	 1.399969999982150e+000	 1.580980211708262e+001
0	 1.666649999985416e+000	 1.466639999981866e+000	 1.668754560164312e+001
0	 1.666649999985417e+000	 1.533309999982383e+000	 1.729950527125584e+001
0	 1.666649999985416e+000	 1.599979999983599e+000	 1.765598970419772e+001
0	 1.666649999985416e+000	 1.666649999985416e+000	 1.776730747874391e+001
0	 1.666649999985417e+000	 1.733319999987733e+000	 1.764376717316779e+001
0	 1.666649999985416e+000	 1.799989999990449e+000	 1.729567736574094e+001
0	 1.666649999985416e+000	 1.866659999993466e+000	 1.673334663473321e+001
0	 1.666649999985417e+000	 1.933329999996683e+000	 1.596708355841261e+001
0	 1.666649999985416e+000	 2.000000000000000e+000	 1.500719671504537e+001
0	 1.733319999987733e+000	 1.333299999983334e+000	 1.552917832246566e+001
0	 1.733319999987733e+000	 1.399969999982150e+000	 1.665734399765874e+001
0	 1.733319999987733e+000	 1.466639999981866e+000	 1.750711782145249e+001
0	 1.733319999987733e+000	 1.533309999982383e+000	 1.808922348444949e+001
0	 1.733319999987733e+000	 1.599979999983599e+000	 1.841438467725049e+001
0	 1.733319999987733e+000	 1.666649999985416e+000	 1.849332509045449e+001
0	 1.733319999987733e+000	 1.733319999987733e+000	 1.833676841465866e+001
0	 1.733319999987733e+000	 1.799989999990449e+000	 1.795543834045832e+001
0	 1.733319999987733e+000	 1.866659999993466e+000	 1.736005855844707e+001
0	 1.733319999987733e+000	 1.933329999996683e+000	 1.656135275921664e+001
0	 1.733319999987733e+000	 2.000000000000000e+000	 1.557004463335697e+001
0	 1.799989999990450e+000	 1.333299999983334e+000	 1.649335350125703e+001
0	 1.799989999990450e+000	 1.399969999982150e+000	 1.759725610111462e+001
0	 1.799989999990450e+000	 1.466639999981867e+000	 1.842134229306738e+001
0	 1.799989999990450e+000	 1.533309999982383e+000	 1.897667952989817e+001
0	 1.799989999990450e+000	 1.599979999983599e+000	 1.927433526438798e+001
0	 1.799989999990450e+000	 1.666649999985417e+000	 1.932537694931594e+001
0	 1.799989999990450e+000	 1.733319999987733e+000	 1.914087203745944e+001
0	 1.799989999990450e+000	 1.799989999990450e+000	 1.873188798159398e+001
0	 1.799989999990450e+000	 1.866659999993466e+000	 1.810949223449327e+001
0	 1.799989999990450e+000	 1.933329999996683e+000	 1.728475224892915e+001
0	 1.799989999990450e+000	 2.000000000000000e+000	 1.626873547767171e+001
0	 1.866659999993467e+000	 1.333299999983334e+000	 1.754560292611625e+001
0	 1.866659999993467e+000	 1.399969999982150e+000	 1.862578565070795e+001
0	 1.866659999993467e+000	 1.466639999981866e+000	 1.942548377905774e+001
0	 1.866659999993467e+000	 1.533309999982383e+000	 1.995603717598503e+001
0	 1.866659999993466e+000	 1.599979999983599e+000	 2.022878570630739e+001
0	 1.866659999993467e+000	 1.666649999985416e+000	 2.025506923484059e+001
0	 1.866659999993467e+000	 1.733319999987733e+000	 2.004622762639857e+001
0	 1.866659999993467e+000	 1.799989999990449e+000	 1.961360074579332e+001
0	 1.866659999993467e+000	 1.866659999993467e+000	 1.896852845783516e+001
0	 1.866659999993467e+000	 1.933329999996683e+000	 1.812235062733247e+001
0	 1.866659999993466e+000	 2.000000000000000e+000	 1.708640711909181e+001
0	 1.933329999996684e+000	 1.333299999983334e+000	 1.868303774749024e+001
0	 1.933329999996684e+000	 1.399969999982150e+000	 1.973917986969703e+001
0	 1.933329999996684e+000	 1.466639999981866e+000	 2.051480704199406e+001
0	 1.933329999996684e+000	 1.533309999982383e+000	 2.102146019109377e+001
0	 1.933329999996683e+000	 1.599979999983599e+000	 2.127068024370669e+001
0	 1.933329999996683e+000	 1.666649999985416e+000	 2.127400812654152e+001
0	 1.933329999996684e+000	 1.733319999987733e+000	 2.104298476630517e+001
0	 1.933329999996683e+000	 1.799989999990449e+000	 2.058915108970262e+001
0	 1.933329999996684e+000	 1.866659999993466e+000	 1.992404802343707e+001
0	 1.933329999996684e+000	 1.933329999996684e+000	 1.905921649420985e+001
0	 1.933329999996684e+000	 2.000000000000000e+000	 1.800619742872045e+001
0	 2.000000000000000e+000	 1.333299999983334e+000	 1.990276911582643e+001
0	 2.000000000000000e+000	 1.399969999982150e+000	 2.093368598134059e+001
0	 2.000000000000000e+000	 1.466639999981866e+000	 2.168457684444745e+001
0	 2.000000000000000e+000	 1.533309999982383e+000	 2.216711234360875e+001
0	 2.000000000000000e+000	 1.599979999983599e+000	 2.239296311728440e+001
0	 2.000000000000000e+000	 1.666649999985416e+000	 2.237379980393249e+001
0	 2.000000000000000e+000	 1.733319999987733e+000	 2.212129304200920e+001
0	 2.000000000000000e+000	 1.799989999990450e+000	 2.164711346996888e+001
0	 2.000000000000000e+000	 1.866659999993467e+000	 2.096293172626409e+001
0	 2.000000000000000e+000	 1.933329999996683e+000	 2.008041844934543e+001
0	 2.000000000000000e+000	 2.000000000000000e+000	 1.901124427766175e+001
0	 1.333299999983334e+000	 2.000000000000000e+000	 1.482077552502396e+001
0	 1.333299999983334e+000	 2.066670000003317e+000	 1.404498751430328e+001
0	 1.333299999983334e+000	 2.133340000006534e+000	 1.318399759095938e+001
0	 1.333299999983334e+000	 2.200010000009550e+000	 1.225595238734337e+001
0	 1.333299999983334e+000	 2.266680000012267e+000	 1.127899853580554e+001
0	 1.333299999983334e+000	 2.333350000014584e+000	 1.027128266869541e+001
0	 1.333299999983334e+000	 2.400020000016401e+000	 9.250951418361668e+000
0	 1.333299999983334e+000	 2.466690000017617e+000	 8.236151417152216e+000
0	 1.333299999983334e+000	 2.533360000018134e+000	 7.245029297414175e+000
0	 1.333299999983334e+000	 2.600030000017851e+000	 6.295731691493779e+000
0	 1.333299999983334e+000	 2.666700000016666e+000	 5.406405231736596e+000
0	 1.399969999982150e+000	 2.000000000000000e+000	 1.445147687981960e+001
0	 1.399969999982150e+000	 2.066670000003317e+000	 1.359262156777059e+001
0	 1.399969999982150e+000	 2.133340000006534e+000	 1.267137338108256e+001
0	 1.399969999982150e+000	 2.200010000009551e+000	 1.170481448461177e+001
0	 1.399969999982150e+000	 2.266680000012268e+000	 1.071002704321376e+001
0	 1.399969999982150e+000	 2.333350000014584e+000	 9.704093221743490e+000
0	 1.399969999982150e+000	 2.400020000016400e+000	 8.704095185055206e+000
0	 1.399969999982150e+000	 2.466690000017617e+000	 7.727115098002587e+000
0	 1.399969999982150e+000	 2.533360000018133e+000	 6.790235125438609e+000
0	 1.399969999982150e+000	 2.600030000017851e+000	 5.910537432215571e+000
0	 1.399969999982150e+000	 2.666700000016667e+000	 5.105104183185221e+000
0	 1.466639999981866e+000	 2.000000000000000e+000	 1.430233180512166e+001
0	 1.466639999981866e+000	 2.066670000003317e+000	 1.337512228950566e+001
0	 1.466639999981866e+000	 2.133340000006534e+000	 1.240416460071324e+001
0	 1.466639999981866e+000	 2.200010000009550e+000	 1.140546328140350e+001
0	 1.466639999981867e+000	 2.266680000012266e+000	 1.039502287423514e+001
0	 1.466639999981866e+000	 2.333350000014585e+000	 9.388847921866194e+000
0	 1.466639999981866e+000	 2.400020000016400e+000	 8.402942966954313e+000
0	 1.466639999981866e+000	 2.466690000017618e+000	 7.453312552156535e+000
0	 1.466639999981867e+000	 2.533360000018134e+000	 6.555961220129373e+000
0	 1.466639999981866e+000	 2.600030000017850e+000	 5.726893513528856e+000
0	 1.466639999981867e+000	 2.666700000016667e+000	 4.982113975010464e+000
0	 1.533309999982383e+000	 2.000000000000000e+000	 1.435647817202755e+001
0	 1.533309999982383e+000	 2.066670000003316e+000	 1.337388703780656e+001
0	 1.533309999982383e+000	 2.133340000006534e+000	 1.236252706061079e+001
0	 1.533309999982383e+000	 2.200010000009551e+000	 1.133731200620020e+001
0	 1.533309999982383e+000	 2.266680000012267e+000	 1.031315564033422e+001
0	 1.533309999982383e+000	 2.333350000014584e+000	 9.304971728771928e+000
0	 1.533309999982383e+000	 2.400020000016400e+000	 8.327674037271912e+000
0	 1.533309999982383e+000	 2.466690000017617e+000	 7.396176331592390e+000
0	 1.533309999982383e+000	 2.533360000018134e+000	 6.525392377491098e+000
0	 1.533309999982383e+000	 2.600030000017850e+000	 5.730235940725324e+000
0	 1.533309999982383e+000	 2.666700000016667e+000	 5.025620787052024e+000
0	 1.599979999983600e+000	 2.000000000000000e+000	 1.459705385163568e+001
0	 1.599979999983599e+000	 2.066670000003317e+000	 1.357031317097225e+001
0	 1.599979999983600e+000	 2.133340000006534e+000	 1.252661657153571e+001
0	 1.599979999983600e+000	 2.200010000009550e+000	 1.147977388748447e+001
0	 1.599979999983600e+000	 2.266680000012267e+000	 1.044359495297670e+001
0	 1.599979999983600e+000	 2.333350000014584e+000	 9.431889602170116e+000
0	 1.599979999983600e+000	 2.400020000016400e+000	 8.458467669222078e+000
0	 1.599979999983600e+000	 2.466690000017617e+000	 7.537138988289659e+000
0	 1.599979999983600e+000	 2.533360000018133e+000	 6.681713393529474e+000
0	 1.599979999983600e+000	 2.600030000017851e+000	 5.906000719097859e+000
0	 1.599979999983599e+000	 2.666700000016666e+000	 5.223810799150697e+000
0	 1.666649999985416e+000	 2.000000000000000e+000	 1.500719671504537e+001
0	 1.666649999985417e+000	 2.066670000003317e+000	 1.394579804730275e+001
0	 1.666649999985416e+000	 2.133340000006534e+000	 1.287658894424937e+001
0	 1.666649999985416e+000	 2.200010000009550e+000	 1.181226215374002e+001
0	 1.666649999985417e+000	 2.266680000012267e+000	 1.076551042362926e+001
0	 1.666649999985416e+000	 2.333350000014584e+000	 9.749026501771278e+000
0	 1.666649999985417e+000	 2.400020000016401e+000	 8.775503136019955e+000
0	 1.666649999985417e+000	 2.466690000017617e+000	 7.857633074228913e+000
0	 1.666649999985416e+000	 2.533360000018133e+000	 7.008109064251392e+000
0	 1.666649999985416e+000	 2.600030000017850e+000	 6.239623853940315e+000
0	 1.666649999985417e+000	 2.666700000016666e+000	 5.564870191148343e+000
0	 1.733319999987733e+000	 2.000000000000000e+000	 1.557004463335697e+001
0	 1.733319999987734e+000	 2.066670000003317e+000	 1.448173902509905e+001
0	 1.733319999987733e+000	 2.133340000006533e+000	 1.339259998951425e+001
0	 1.733319999987733e+000	 2.200010000009550e+000	 1.231419003345157e+001
0	 1.733319999987733e+000	 2.266680000012267e+000	 1.125807166375969e+001
0	 1.733319999987733e+000	 2.333350000014583e+000	 1.023580738728704e+001
0	 1.733319999987733e+000	 2.400020000016401e+000	 9.258959710881809e+000
0	 1.733319999987733e+000	 2.466690000017618e+000	 8.339091141391839e+000
0	 1.733319999987733e+000	 2.533360000018134e+000	 7.487764185664712e+000
0	 1.733319999987733e+000	 2.600030000017851e+000	 6.716541350547754e+000
0	 1.733319999987733e+000	 2.666700000016666e+000	 6.036985142888004e+000
0	 1.799989999990450e+000	 2.000000000000000e+000	 1.626873547767171e+001
0	 1.799989999990450e+000	 2.066670000003318e+000	 1.515953346266313e+001
0	 1.799989999990450e+000	 2.133340000006533e+000	 1.405480551809387e+001
0	 1.799989999990450e+000	 2.200010000009550e+000	 1.296497075510491e+001
0	 1.799989999990450e+000	 2.266680000012268e+000	 1.190044828483684e+001
0	 1.799989999990450e+000	 2.333350000014584e+000	 1.087165721843015e+001
0	 1.799989999990450e+000	 2.400020000016400e+000	 9.889016667024968e+000
0	 1.799989999990450e+000	 2.466690000017617e+000	 8.962945741761216e+000
0	 1.799989999990450e+000	 2.533360000018134e+000	 8.103863553778535e+000
0	 1.799989999990450e+000	 2.600030000017851e+000	 7.322189214216288e+000
0	 1.799989999990450e+000	 2.666700000016667e+000	 6.628341834213716e+000
0	 1.866659999993466e+000	 2.000000000000000e+000	 1.708640711909181e+001
0	 1.866659999993467e+000	 2.066670000003317e+000	 1.596057871829794e+001
0	 1.866659999993467e+000	 2.133340000006534e+000	 1.484336134075275e+001
0	 1.866659999993467e+000	 2.200010000009550e+000	 1.374401754718686e+001
0	 1.866659999993466e+000	 2.266680000012266e+000	 1.267180989833065e+001
0	 1.866659999993467e+000	 2.333350000014583e+000	 1.163600095491436e+001
0	 1.866659999993467e+000	 2.400020000016401e+000	 1.064585327766787e+001
0	 1.866659999993467e+000	 2.466690000017618e+000	 9.710629427320919e+000
0	 1.866659999993467e+000	 2.533360000018134e+000	 8.839591964602944e+000
0	 1.866659999993467e+000	 2.600030000017850e+000	 8.042003450243174e+000
0	 1.866659999993467e+000	 2.666700000016666e+000	 7.327126444970626e+000
0	 1.933329999996684e+000	 2.000000000000000e+000	 1.800619742872045e+001
0	 1.933329999996684e+000	 2.066670000003317e+000	 1.686627215030748e+001
0	 1.933329999996684e+000	 2.133340000006534e+000	 1.573842326825639e+001
0	 1.933329999996684e+000	 2.200010000009550e+000	 1.463074363818530e+001
0	 1.933329999996684e+000	 2.266680000012268e+000	 1.355132611571212e+001
0	 1.933329999996684e+000	 2.333350000014584e+000	 1.250826355645456e+001
0	 1.933329999996684e+000	 2.400020000016401e+000	 1.150964881603008e+001
0	 1.933329999996684e+000	 2.466690000017617e+000	 1.056357475005598e+001
0	 1.933329999996684e+000	 2.533360000018134e+000	 9.678134214149237e+000
0	 1.933329999996683e+000	 2.600030000017850e+000	 8.861420063926724e+000
0	 1.933329999996684e+000	 2.666700000016667e+000	 8.121525155005012e+000
0	 2.000000000000000e+000	 2.000000000000000e+000	 1.901124427766175e+001
0	 2.000000000000000e+000	 2.066670000003317e+000	 1.785801111699670e+001
0	 2.000000000000000e+000	 2.133340000006534e+000	 1.672014711137137e+001
0	 2.000000000000000e+000	 2.200010000009551e+000	 1.560456225658918e+001
0	 2.000000000000000e+000	 2.266680000012268e+000	 1.451816654845329e+001
0	 2.000000000000000e+000	 2.333350000014584e+000	 1.346786998276670e+001
0	 2.000000000000000e+000	 2.400020000016401e+000	 1.246058255533222e+001
0	 2.000000000000000e+000	 2.466690000017618e+000	 1.150321426195245e+001
0	 2.000000000000000e+000	 2.533360000018133e+000	 1.060267509842974e+001
0	 2.000000000000000e+000	 2.600030000017851e+000	 9.765875060566312e+000
0	 2.000000000000000e+000	 2.666700000016667e+000	 8.999724144164192e+000
0	 1.333299999983334e+000	 2.666700000016666e+000	 5.406405231736596e+000
0	 1.333299999983334e+000	 2.733360000014532e+000	 4.645616520726994e+000
0	 1.333299999983334e+000	 2.800020000011599e+000	 4.061312323436874e+000
0	 1.333299999983334e+000	 2.866680000008067e+000	 3.641093477998005e+000
0	 1.333299999983334e+000	 2.933340000004133e+000	 3.372560822541733e+000
0	 1.333299999983334e+000	 3.000000000000000e+000	 3.243315195199069e+000
0	 1.333299999983334e+000	 3.066659999995867e+000	 3.240957434100614e+000
0	 1.333299999983334e+000	 3.133319999991934e+000	 3.353088377376530e+000
0	 1.333299999983334e+000	 3.199979999988401e+000	 3.567308863156697e+000
0	 1.333299999983334e+000	 3.266639999985467e+000	 3.871219729570473e+000
0	 1.333299999983334e+000	 3.333299999983334e+000	 4.252421814746947e+000
0	 1.399969999982150e+000	 2.666700000016667e+000	 5.105104183185226e+000
0	 1.399969999982150e+000	 2.733360000014533e+000	 4.427832940783131e+000
0	 1.399969999982150e+000	 2.800020000011600e+000	 3.912954381603516e+000
0	 1.399969999982150e+000	 2.866680000008067e+000	 3.548393497714679e+000
0	 1.399969999982150e+000	 2.933340000004134e+000	 3.322075281184828e+000
0	 1.399969999982150e+000	 3.000000000000000e+000	 3.221924724081953e+000
0	 1.399969999982150e+000	 3.066659999995866e+000	 3.235866818473828e+000
0	 1.399969999982150e+000	 3.133319999991934e+000	 3.351826556428026e+000
0	 1.399969999982150e+000	 3.199979999988400e+000	 3.557728930011919e+000
0	 1.399969999982150e+000	 3.266639999985468e+000	 3.841498931292700e+000
0	 1.399969999982150e+000	 3.333299999983334e+000	 4.191061552337301e+000
0	 1.466639999981867e+000	 2.666700000016667e+000	 4.982113975010460e+000
0	 1.466639999981866e+000	 2.733360000014534e+000	 4.364358846742697e+000
0	 1.466639999981866e+000	 2.800020000011599e+000	 3.897675019575219e+000
0	 1.466639999981866e+000	 2.866680000008066e+000	 3.570346778769359e+000
0	 1.466639999981866e+000	 2.933340000004133e+000	 3.370658409586414e+000
0	 1.466639999981866e+000	 2.999999999999999e+000	 3.286894197287563e+000
0	 1.466639999981866e+000	 3.066659999995866e+000	 3.307338427133959e+000
0	 1.466639999981866e+000	 3.133319999991933e+000	 3.420275384386640e+000
0	 1.466639999981866e+000	 3.199979999988400e+000	 3.613989354306602e+000
0	 1.466639999981866e+000	 3.266639999985467e+000	 3.876764622154750e+000
0	 1.466639999981867e+000	 3.333299999983334e+000	 4.196885473191901e+000
0	 1.533309999982383e+000	 2.666700000016667e+000	 5.025620787052024e+000
0	 1.533309999982383e+000	 2.733360000014533e+000	 4.446190016392442e+000
0	 1.533309999982383e+000	 2.800020000011600e+000	 4.008900394475354e+000
0	 1.533309999982383e+000	 2.866680000008067e+000	 3.702430639011413e+000
0	 1.533309999982383e+000	 2.933340000004134e+000	 3.515459467711247e+000
0	 1.533309999982383e+000	 3.000000000000000e+000	 3.436665598285449e+000
0	 1.533309999982383e+000	 3.066659999995867e+000	 3.454727748444678e+000
0	 1.533309999982383e+000	 3.133319999991934e+000	 3.558324635899573e+000
0	 1.533309999982383e+000	 3.199979999988400e+000	 3.736134978360759e+000
0	 1.533309999982383e+000	 3.266639999985467e+000	 3.976837493538890e+000
0	 1.533309999982383e+000	 3.333299999983335e+000	 4.269110899144618e+000
0	 1.599979999983599e+000	 2.666700000016666e+000	 5.223810799150702e+000
0	 1.599979999983600e+000	 2.733360000014533e+000	 4.664322227520255e+000
0	 1.599979999983600e+000	 2.800020000011600e+000	 4.240056663428384e+000
0	 1.599979999983599e+000	 2.866680000008066e+000	 3.940122396291214e+000
0	 1.599979999983600e+000	 2.933340000004134e+000	 3.753627715525027e+000
0	 1.599979999983600e+000	 3.000000000000000e+000	 3.669680910546045e+000
0	 1.599979999983600e+000	 3.066659999995867e+000	 3.677390270770562e+000
0	 1.599979999983599e+000	 3.133319999991933e+000	 3.765864085614868e+000
0	 1.599979999983600e+000	 3.199979999988400e+000	 3.924210644495310e+000
0	 1.599979999983600e+000	 3.266639999985468e+000	 4.141538236828271e+000
0	 1.599979999983600e+000	 3.333299999983334e+000	 4.406955152030138e+000
0	 1.666649999985417e+000	 2.666700000016666e+000	 5.564870191148339e+000
0	 1.666649999985416e+000	 2.733360000014533e+000	 5.009751257915121e+000
0	 1.666649999985417e+000	 2.800020000011601e+000	 4.584569983559726e+000
0	 1.666649999985416e+000	 2.866680000008067e+000	 4.278899368460190e+000
0	 1.666649999985416e+000	 2.933340000004133e+000	 4.082312412994568e+000
0	 1.666649999985416e+000	 3.000000000000000e+000	 3.984382117540850e+000
0	 1.666649999985417e+000	 3.066659999995867e+000	 3.974681482477128e+000
0	 1.666649999985416e+000	 3.133319999991934e+000	 4.042783508181465e+000
0	 1.666649999985417e+000	 3.199979999988400e+000	 4.178261195031975e+000
0	 1.666649999985416e+000	 3.266639999985466e+000	 4.370687543406730e+000
0	 1.666649999985417e+000	 3.333299999983334e+000	 4.609635553683867e+000
0	 1.733319999987733e+000	 2.666700000016666e+000	 6.036985142888009e+000
0	 1.733319999987733e+000	 2.733360000014533e+000	 5.473472885367026e+000
0	 1.733319999987733e+000	 2.800020000011600e+000	 5.035866511995924e+000
0	 1.733319999987733e+000	 2.866680000008067e+000	 4.714238873370793e+000
0	 1.733319999987733e+000	 2.933340000004133e+000	 4.498662820087580e+000
0	 1.733319999987733e+000	 3.000000000000000e+000	 4.379211202742281e+000
0	 1.733319999987733e+000	 3.066659999995867e+000	 4.345956871930865e+000
0	 1.733319999987733e+000	 3.133319999991933e+000	 4.388972678249240e+000
0	 1.733319999987733e+000	 3.199979999988401e+000	 4.498331472293294e+000
0	 1.733319999987733e+000	 3.266639999985467e+000	 4.664106104658909e+000
0	 1.733319999987733e+000	 3.333299999983334e+000	 4.876369425941892e+000
0	 1.799989999990450e+000	 2.666700000016667e+000	 6.628341834213711e+000
0	 1.799989999990450e+000	 2.733360000014534e+000	 6.046482887667126e+000
0	 1.799989999990450e+000	 2.800020000011600e+000	 5.587372405864622e+000
0	 1.799989999990449e+000	 2.866680000008066e+000	 5.241618228876446e+000
0	 1.799989999990450e+000	 2.933340000004133e+000	 4.999828196772783e+000
0	 1.799989999990450e+000	 3.000000000000000e+000	 4.852610149623695e+000
0	 1.799989999990450e+000	 3.066659999995868e+000	 4.790571927499094e+000
0	 1.799989999990450e+000	 3.133319999991933e+000	 4.804321370468842e+000
0	 1.799989999990450e+000	 3.199979999988400e+000	 4.884466318602682e+000
0	 1.799989999990450e+000	 3.266639999985468e+000	 5.021614611970248e+000
0	 1.799989999990450e+000	 3.333299999983335e+000	 5.206374090641126e+000
0	 1.866659999993467e+000	 2.666700000016666e+000	 7.327126444970626e+000
0	 1.866659999993467e+000	 2.733360000014533e+000	 6.719777042607547e+000
0	 1.866659999993467e+000	 2.800020000011600e+000	 6.232513822294350e+000
0	 1.866659999993467e+000	 2.866680000008067e+000	 5.856514752831706e+000
0	 1.866659999993467e+000	 2.933340000004134e+000	 5.582957803019985e+000
0	 1.866659999993467e+000	 2.999999999999999e+000	 5.403020941659442e+000
0	 1.866659999993467e+000	 3.066659999995866e+000	 5.307882137550113e+000
0	 1.866659999993467e+000	 3.133319999991933e+000	 5.288719359491864e+000
0	 1.866659999993466e+000	 3.199979999988400e+000	 5.336710576284331e+000
0	 1.866659999993467e+000	 3.266639999985467e+000	 5.443033756726990e+000
0	 1.866659999993467e+000	 3.333299999983334e+000	 5.598866869619129e+000
0	 1.933329999996684e+000	 2.666700000016667e+000	 8.121525155005012e+000
0	 1.933329999996684e+000	 2.733360000014532e+000	 7.484351127981590e+000
0	 1.933329999996684e+000	 2.800020000011600e+000	 6.964716918414911e+000
0	 1.933329999996683e+000	 2.866680000008066e+000	 6.554405763092062e+000
0	 1.933329999996684e+000	 2.933340000004133e+000	 6.245200898799853e+000
0	 1.933329999996684e+000	 3.000000000000000e+000	 6.028885562324805e+000
0	 1.933329999996684e+000	 3.066659999995866e+000	 5.897242990453163e+000
0	 1.933329999996684e+000	 3.133319999991934e+000	 5.842056419970804e+000
0	 1.933329999996684e+000	 3.199979999988401e+000	 5.855109087663355e+000
0	 1.933329999996684e+000	 3.266639999985467e+000	 5.928184230316164e+000
0	 1.933329999996684e+000	 3.333299999983334e+000	 6.053065084714244e+000
0	 2.000000000000000e+000	 2.666700000016667e+000	 8.999724144164196e+000
0	 2.000000000000000e+000	 2.733360000014533e+000	 8.331200921583577e+000
0	 2.000000000000000e+000	 2.800020000011600e+000	 7.777407851356974e+000
0	 2.000000000000000e+000	 2.866680000008067e+000	 7.330768577514070e+000
0	 2.000000000000000e+000	 2.933340000004133e+000	 6.983706744084153e+000
0	 2.000000000000000e+000	 3.000000000000000e+000	 6.728645995096104e+000
0	 2.000000000000000e+000	 3.066659999995867e+000	 6.558009974578351e+000
0	 2.000000000000000e+000	 3.133319999991934e+000	 6.464222326558966e+000
0	 2.000000000000000e+000	 3.199979999988400e+000	 6.439706695065616e+000
0	 2.000000000000000e+000	 3.266639999985468e+000	 6.476886724125532e+000
0	 2.000000000000000e+000	 3.333299999983334e+000	 6.568186057765540e+000
0	 1.333299999983334e+000	 3.333299999983334e+000	 4.252421814746949e+000
0	 1.333299999983334e+000	 3.399969999982149e+000	 4.696377784791430e+000
0	 1.333299999983334e+000	 3.466639999981867e+000	 5.186677998566266e+000
0	 1.333299999983334e+000	 3.533309999982383e+000	 5.708301923633074e+000
0	 1.333299999983334e+000	 3.599979999983599e+000	 6.246229027553574e+000
0	 1.333299999983334e+000	 3.666649999985416e+000	 6.785438777889770e+000
0	 1.333299999983334e+000	 3.733319999987733e+000	 7.310910642203721e+000
0	 1.333299999983334e+000	 3.799989999990450e+000	 7.807624088057724e+000
0	 1.333299999983334e+000	 3.866659999993467e+000	 8.260558583014163e+000
0	 1.333299999983334e+000	 3.933329999996683e+000	 8.654693594635674e+000
0	 1.333299999983334e+000	 4.000000000000000e+000	 8.975008590484977e+000
0	 1.399969999982150e+000	 3.333299999983334e+000	 4.191061552337301e+000
0	 1.399969999982150e+000	 3.399969999982151e+000	 4.600633018853477e+000
0	 1.399969999982150e+000	 3.466639999981866e+000	 5.062436281373397e+000
0	 1.399969999982150e+000	 3.533309999982383e+000	 5.561576731499659e+000
0	 1.399969999982150e+000	 3.599979999983601e+000	 6.083159760835248e+000
0	 1.399969999982150e+000	 3.666649999985416e+000	 6.612290760983195e+000
0	 1.399969999982150e+000	 3.733319999987733e+000	 7.134075123546822e+000
0	 1.399969999982150e+000	 3.799989999990450e+000	 7.633618240129679e+000
0	 1.399969999982150e+000	 3.866659999993467e+000	 8.096025502335536e+000
0	 1.399969999982150e+000	 3.933329999996683e+000	 8.506402301768391e+000
0	 1.399969999982150e+000	 4.000000000000000e+000	 8.849854030032393e+000
0	 1.466639999981867e+000	 3.333299999983334e+000	 4.196885473191905e+000
0	 1.466639999981866e+000	 3.399969999982150e+000	 4.575027404836208e+000
0	 1.466639999981867e+000	 3.466639999981867e+000	 5.009783131866982e+000
0	 1.466639999981866e+000	 3.533309999982383e+000	 5.486467980890519e+000
0	 1.466639999981866e+000	 3.599979999983600e+000	 5.990397278513303e+000
0	 1.466639999981866e+000	 3.666649999985417e+000	 6.506886351342157e+000
0	 1.466639999981867e+000	 3.733319999987733e+000	 7.021250525984157e+000
0	 1.466639999981866e+000	 3.799989999990451e+000	 7.518805129046614e+000
0	 1.466639999981866e+000	 3.866659999993467e+000	 7.984865487137097e+000
0	 1.466639999981866e+000	 3.933329999996683e+000	 8.404746926863522e+000
0	 1.466639999981867e+000	 4.000000000000002e+000	 8.763764774833994e+000
0	 1.533309999982383e+000	 3.333299999983335e+000	 4.269110899144618e+000
0	 1.533309999982383e+000	 3.399969999982150e+000	 4.618048480942097e+000
0	 1.533309999982383e+000	 3.466639999981866e+000	 5.026602932980096e+000
0	 1.533309999982383e+000	 3.533309999982383e+000	 5.480383527830985e+000
0	 1.533309999982383e+000	 3.599979999983599e+000	 5.964999538067513e+000
0	 1.533309999982383e+000	 3.666649999985415e+000	 6.466060236262687e+000
0	 1.533309999982383e+000	 3.733319999987733e+000	 6.969174894989816e+000
0	 1.533309999982383e+000	 3.799989999990450e+000	 7.459952786822554e+000
0	 1.533309999982383e+000	 3.866659999993466e+000	 7.924003184334841e+000
0	 1.533309999982383e+000	 3.933329999996684e+000	 8.346935360100870e+000
0	 1.533309999982383e+000	 4.000000000000002e+000	 8.714358586695212e+000
0	 1.599979999983600e+000	 3.333299999983334e+000	 4.406955152030140e+000
0	 1.599979999983600e+000	 3.399969999982150e+000	 4.728183785374357e+000
0	 1.599979999983600e+000	 3.466639999981867e+000	 5.110780067646289e+000
0	 1.599979999983599e+000	 3.533309999982383e+000	 5.540731228347044e+000
0	 1.599979999983600e+000	 3.599979999983600e+000	 6.004024496978067e+000
0	 1.599979999983599e+000	 3.666649999985416e+000	 6.486647103041121e+000
0	 1.599979999983600e+000	 3.733319999987733e+000	 6.974586276038286e+000
0	 1.599979999983600e+000	 3.799989999990449e+000	 7.453829245472002e+000
0	 1.599979999983600e+000	 3.866659999993467e+000	 7.910363240845022e+000
0	 1.599979999983600e+000	 3.933329999996683e+000	 8.330175491660434e+000
0	 1.599979999983599e+000	 4.000000000000000e+000	 8.699253227421647e+000
0	 1.666649999985417e+000	 3.333299999983334e+000	 4.609635553683867e+000
0	 1.666649999985416e+000	 3.399969999982150e+000	 4.903920856336832e+000
0	 1.666649999985417e+000	 3.466639999981867e+000	 5.260198918799831e+000
0	 1.666649999985416e+000	 3.533309999982383e+000	 5.664918938465261e+000
0	 1.666649999985417e+000	 3.599979999983600e+000	 6.104530112725761e+000
0	 1.666649999985416e+000	 3.666649999985417e+000	 6.565481638974334e+000
0	 1.666649999985417e+000	 3.733319999987733e+000	 7.034222714604415e+000
0	 1.666649999985416e+000	 3.799989999990450e+000	 7.497202537009707e+000
0	 1.666649999985416e+000	 3.866659999993467e+000	 7.940870303584254e+000
0	 1.666649999985417e+000	 3.933329999996684e+000	 8.351675211722485e+000
0	 1.666649999985417e+000	 4.000000000000000e+000	 8.716066458819158e+000
0	 1.733319999987733e+000	 3.333299999983334e+000	 4.876369425941888e+000
0	 1.733319999987733e+000	 3.399969999982150e+000	 5.143747232034018e+000
0	 1.733319999987733e+000	 3.466639999981866e+000	 5.472743869375618e+000
0	 1.733319999987733e+000	 3.533309999982383e+000	 5.850354514212736e+000
0	 1.733319999987733e+000	 3.599979999983599e+000	 6.263574342791827e+000
0	 1.733319999987733e+000	 3.666649999985417e+000	 6.699398531359708e+000
0	 1.733319999987733e+000	 3.733319999987733e+000	 7.144822256163534e+000
0	 1.733319999987733e+000	 3.799989999990450e+000	 7.586840693450784e+000
0	 1.733319999987733e+000	 3.866659999993466e+000	 8.012449019469379e+000
0	 1.733319999987733e+000	 3.933329999996684e+000	 8.408642410467522e+000
0	 1.733319999987733e+000	 4.000000000000000e+000	 8.762416042693790e+000
0	 1.799989999990450e+000	 3.333299999983335e+000	 5.206374090641130e+000
0	 1.799989999990450e+000	 3.399969999982150e+000	 5.446150450671204e+000
0	 1.799989999990450e+000	 3.466639999981866e+000	 5.746299302309095e+000
0	 1.799989999990450e+000	 3.533309999982383e+000	 6.094445811617149e+000
0	 1.799989999990450e+000	 3.599979999983600e+000	 6.478215144658089e+000
0	 1.799989999990450e+000	 3.666649999985416e+000	 6.885232467494988e+000
0	 1.799989999990450e+000	 3.733319999987733e+000	 7.303122946191280e+000
0	 1.799989999990450e+000	 3.799989999990450e+000	 7.719511746810757e+000
0	 1.799989999990450e+000	 3.866659999993466e+000	 8.122024035417603e+000
0	 1.799989999990450e+000	 3.933329999996684e+000	 8.498284978076326e+000
0	 1.799989999990450e+000	 4.000000000000000e+000	 8.835919740851796e+000
0	 1.866659999993467e+000	 3.333299999983334e+000	 5.598866869619126e+000
0	 1.866659999993466e+000	 3.399969999982150e+000	 5.809618050454211e+000
0	 1.866659999993467e+000	 3.466639999981866e+000	 6.078749600536368e+000
0	 1.866659999993467e+000	 3.533309999982383e+000	 6.394600686706728e+000
0	 1.866659999993466e+000	 3.599979999983599e+000	 6.745510475806786e+000
0	 1.866659999993467e+000	 3.666649999985416e+000	 7.119818134678374e+000
0	 1.866659999993467e+000	 3.733319999987733e+000	 7.505862830163737e+000
0	 1.866659999993466e+000	 3.799989999990449e+000	 7.891983729105423e+000
0	 1.866659999993467e+000	 3.866659999993466e+000	 8.266519998346382e+000
0	 1.866659999993467e+000	 3.933329999996685e+000	 8.617810804729910e+000
0	 1.866659999993467e+000	 4.000000000000000e+000	 8.934195315099656e+000
0	 1.933329999996684e+000	 3.333299999983334e+000	 6.053065084714246e+000
0	 1.933329999996684e+000	 3.399969999982150e+000	 6.232637569589685e+000
0	 1.933329999996684e+000	 3.466639999981867e+000	 6.467979146994239e+000
0	 1.933329999996684e+000	 3.533309999982382e+000	 6.748226995510331e+000
0	 1.933329999996684e+000	 3.599979999983600e+000	 7.062518293720761e+000
0	 1.933329999996684e+000	 3.666649999985416e+000	 7.399990220208599e+000
0	 1.933329999996684e+000	 3.733319999987733e+000	 7.749779953557384e+000
0	 1.933329999996684e+000	 3.799989999990449e+000	 8.101024672350945e+000
0	 1.933329999996684e+000	 3.866659999993467e+000	 8.442861555173469e+000
0	 1.933329999996684e+000	 3.933329999996684e+000	 8.764427780609529e+000
0	 1.933329999996684e+000	 4.000000000000000e+000	 9.054860527244003e+000
0	 2.000000000000000e+000	 3.333299999983334e+000	 6.568186057765538e+000
0	 2.000000000000000e+000	 3.399969999982150e+000	 6.713696546284837e+000
0	 2.000000000000000e+000	 3.466639999981867e+000	 6.911872324620039e+000
0	 2.000000000000000e+000	 3.533309999982383e+000	 7.152732594057326e+000
0	 2.000000000000000e+000	 3.599979999983600e+000	 7.426296555883289e+000
0	 2.000000000000000e+000	 3.666649999985416e+000	 7.722583411384798e+000
0	 2.000000000000000e+000	 3.733319999987733e+000	 8.031612361849117e+000
0	 2.000000000000000e+000	 3.799989999990449e+000	 8.343402608563844e+000
0	 2.000000000000000e+000	 3.866659999993466e+000	 8.647973352816939e+000
0	 2.000000000000000e+000	 3.933329999996683e+000	 8.935343795896687e+000
0	 2.000000000000000e+000	 4.000000000000001e+000	 9.195533139091740e+000
0	 1.333299999983334e+000	 4.000000000000000e+000	 8.975008590484977e+000
0	 1.333299999983334e+000	 4.066670000003317e+000	 9.215788966203052e+000
0	 1.333299999983334e+000	 4.133340000006535e+000	 9.388193327762235e+000
0	 1.333299999983334e+000	 4.200010000009550e+000	 9.502510958222683e+000
0	 1.333299999983334e+000	 4.266680000012268e+000	 9.569031140644771e+000
0	 1.333299999983334e+000	 4.333350000014584e+000	 9.598043158089153e+000
0	 1.333299999983334e+000	 4.400020000016402e+000	 9.599836293616724e+000
0	 1.333299999983334e+000	 4.466690000017619e+000	 9.584699830288631e+000
0	 1.333299999983334e+000	 4.533360000018134e+000	 9.562923051166285e+000
0	 1.333299999983334e+000	 4.600030000017851e+000	 9.544795239311359e+000
0	 1.333299999983334e+000	 4.666700000016667e+000	 9.540605677785768e+000
0	 1.399969999982150e+000	 4.000000000000000e+000	 8.849854030032393e+000
0	 1.399969999982150e+000	 4.066670000003317e+000	 9.116334225608789e+000
0	 1.399969999982150e+000	 4.133340000006534e+000	 9.312489540835021e+000
0	 1.399969999982150e+000	 4.200010000009550e+000	 9.448465038099963e+000
0	 1.399969999982150e+000	 4.266680000012268e+000	 9.534405779792802e+000
0	 1.399969999982150e+000	 4.333350000014584e+000	 9.580456828302928e+000
0	 1.399969999982150e+000	 4.400020000016401e+000	 9.596763246019936e+000
0	 1.399969999982150e+000	 4.466690000017615e+000	 9.593470095333688e+000
0	 1.399969999982150e+000	 4.533360000018132e+000	 9.580722438634261e+000
0	 1.399969999982150e+000	 4.600030000017851e+000	 9.568665338311984e+000
0	 1.399969999982150e+000	 4.666700000016665e+000	 9.567443856757407e+000
0	 1.466639999981867e+000	 4.000000000000002e+000	 8.763764774833998e+000
0	 1.466639999981866e+000	 4.066670000003318e+000	 9.048451437932279e+000
0	 1.466639999981866e+000	 4.133340000006533e+000	 9.261771228372925e+000
0	 1.466639999981866e+000	 4.200010000009550e+000	 9.413687330760654e+000
0	 1.466639999981867e+000	 4.266680000012267e+000	 9.514162929700403e+000
0	 1.466639999981866e+000	 4.333350000014583e+000	 9.573161209797325e+000
0	 1.466639999981866e+000	 4.400020000016402e+000	 9.600645355656795e+000
0	 1.466639999981866e+000	 4.466690000017617e+000	 9.606578551884383e+000
0	 1.466639999981867e+000	 4.533360000018134e+000	 9.600923983085901e+000
0	 1.466639999981866e+000	 4.600030000017851e+000	 9.593644833867343e+000
0	 1.466639999981867e+000	 4.666700000016667e+000	 9.594704288834965e+000
0	 1.533309999982383e+000	 4.000000000000002e+000	 8.714358586695214e+000
0	 1.533309999982383e+000	 4.066670000003317e+000	 9.010207876026676e+000
0	 1.533309999982383e+000	 4.133340000006534e+000	 9.234507824759220e+000
0	 1.533309999982383e+000	 4.200010000009553e+000	 9.397002082600348e+000
0	 1.533309999982383e+000	 4.266680000012266e+000	 9.507434299257842e+000
0	 1.533309999982383e+000	 4.333350000014584e+000	 9.575548124439653e+000
0	 1.533309999982383e+000	 4.400020000016401e+000	 9.611087207853908e+000
0	 1.533309999982383e+000	 4.466690000017617e+000	 9.623795199208967e+000
0	 1.533309999982383e+000	 4.533360000018135e+000	 9.623415748213384e+000
0	 1.533309999982383e+000	 4.600030000017851e+000	 9.619692504575916e+000
0	 1.533309999982383e+000	 4.666700000016666e+000	 9.622369118005498e+000
0	 1.599979999983599e+000	 4.000000000000000e+000	 8.699253227421648e+000
0	 1.599979999983600e+000	 4.066670000003317e+000	 8.999670812745332e+000
0	 1.599979999983600e+000	 4.133340000006533e+000	 9.229168764377251e+000
0	 1.599979999983600e+000	 4.200010000009550e+000	 9.397233540014788e+000
0	 1.599979999983600e+000	 4.266680000012268e+000	 9.513351597355532e+000
0	 1.599979999983599e+000	 4.333350000014583e+000	 9.587009394097272e+000
0	 1.599979999983600e+000	 4.400020000016401e+000	 9.627693387937953e+000
0	 1.599979999983600e+000	 4.466690000017618e+000	 9.644890036575735e+000
0	 1.599979999983600e+000	 4.533360000018133e+000	 9.648085797708960e+000
0	 1.599979999983600e+000	 4.600030000017851e+000	 9.646767129036164e+000
0	 1.599979999983599e+000	 4.666700000016665e+000	 9.650420488256048e+000
0	 1.666649999985417e+000	 4.000000000000000e+000	 8.716066458819158e+000
0	 1.666649999985417e+000	 4.066670000003319e+000	 9.014907520941781e+000
0	 1.666649999985416e+000	 4.133340000006533e+000	 9.244223481610563e+000
0	 1.666649999985416e+000	 4.200010000009550e+000	 9.413205949399801e+000
0	 1.666649999985417e+000	 4.266680000012268e+000	 9.531046532883934e+000
0	 1.666649999985416e+000	 4.333350000014583e+000	 9.606936840637616e+000
0	 1.666649999985417e+000	 4.400020000016402e+000	 9.650068481235646e+000
0	 1.666649999985416e+000	 4.466690000017618e+000	 9.669633063253000e+000
0	 1.666649999985416e+000	 4.533360000018133e+000	 9.674822195264866e+000
0	 1.666649999985416e+000	 4.600030000017851e+000	 9.674827485846581e+000
0	 1.666649999985416e+000	 4.666700000016667e+000	 9.678840543573672e+000
0	 1.733319999987733e+000	 4.000000000000000e+000	 8.762416042693793e+000
0	 1.733319999987733e+000	 4.066670000003318e+000	 9.053985273469685e+000
0	 1.733319999987733e+000	 4.133340000006534e+000	 9.278141410842794e+000
0	 1.733319999987733e+000	 4.200010000009550e+000	 9.443743557151320e+000
0	 1.733319999987733e+000	 4.266680000012268e+000	 9.559650814733610e+000
0	 1.733319999987733e+000	 4.333350000014584e+000	 9.634722285928188e+000
0	 1.733319999987733e+000	 4.400020000016402e+000	 9.677817073073738e+000
0	 1.733319999987733e+000	 4.466690000017617e+000	 9.697794278509129e+000
0	 1.733319999987733e+000	 4.533360000018133e+000	 9.703513004573381e+000
0	 1.733319999987733e+000	 4.600030000017850e+000	 9.703832353605696e+000
0	 1.733319999987733e+000	 4.666700000016665e+000	 9.707611427945448e+000
0	 1.799989999990450e+000	 4.000000000000000e+000	 8.835919740851800e+000
0	 1.799989999990450e+000	 4.066670000003317e+000	 9.114971343182910e+000
0	 1.799989999990450e+000	 4.133340000006535e+000	 9.329391986457750e+000
0	 1.799989999990450e+000	 4.200010000009550e+000	 9.487670609665408e+000
0	 1.799989999990450e+000	 4.266680000012267e+000	 9.598296151795200e+000
0	 1.799989999990450e+000	 4.333350000014583e+000	 9.669757551836556e+000
0	 1.799989999990450e+000	 4.400020000016400e+000	 9.710543748779065e+000
0	 1.799989999990450e+000	 4.466690000017618e+000	 9.729143681612497e+000
0	 1.799989999990450e+000	 4.533360000018134e+000	 9.734046289326791e+000
0	 1.799989999990450e+000	 4.600030000017851e+000	 9.733740510912023e+000
0	 1.799989999990449e+000	 4.666700000016665e+000	 9.736715285358452e+000
0	 1.866659999993467e+000	 4.000000000000000e+000	 8.934195315099652e+000
0	 1.866659999993467e+000	 4.066670000003316e+000	 9.195933002935494e+000
0	 1.866659999993467e+000	 4.133340000006534e+000	 9.396444642839333e+000
0	 1.866659999993467e+000	 4.200010000009551e+000	 9.543811353338235e+000
0	 1.866659999993467e+000	 4.266680000012268e+000	 9.646114252959434e+000
0	 1.866659999993467e+000	 4.333350000014583e+000	 9.711434460230333e+000
0	 1.866659999993467e+000	 4.400020000016400e+000	 9.747853093678474e+000
0	 1.866659999993467e+000	 4.466690000017617e+000	 9.763451271831549e+000
0	 1.866659999993467e+000	 4.533360000018134e+000	 9.766310113217420e+000
0	 1.866659999993466e+000	 4.600030000017848e+000	 9.764510736364105e+000
0	 1.866659999993467e+000	 4.666700000016665e+000	 9.766134259799753e+000
0	 1.933329999996684e+000	 4.000000000000000e+000	 9.054860527244003e+000
0	 1.933329999996684e+000	 4.066670000003317e+000	 9.294937525581627e+000
0	 1.933329999996684e+000	 4.133340000006534e+000	 9.477768814371620e+000
0	 1.933329999996683e+000	 4.200010000009551e+000	 9.610990034566051e+000
0	 1.933329999996684e+000	 4.266680000012267e+000	 9.702236827117133e+000
0	 1.933329999996684e+000	 4.333350000014584e+000	 9.759144832977235e+000
0	 1.933329999996684e+000	 4.400020000016401e+000	 9.789349693098881e+000
0	 1.933329999996684e+000	 4.466690000017616e+000	 9.800487048434732e+000
0	 1.933329999996684e+000	 4.533360000018133e+000	 9.800192539937608e+000
0	 1.933329999996684e+000	 4.600030000017850e+000	 9.796101808560481e+000
0	 1.933329999996684e+000	 4.666700000016666e+000	 9.795850495256467e+000
0	 2.000000000000000e+000	 4.000000000000001e+000	 9.195533139091742e+000
0	 2.000000000000000e+000	 4.066670000003318e+000	 9.410052183975678e+000
0	 2.000000000000000e+000	 4.133340000006533e+000	 9.571833935438818e+000
0	 2.000000000000000e+000	 4.200010000009550e+000	 9.688030899745243e+000
0	 2.000000000000000e+000	 4.266680000012268e+000	 9.765795583159177e+000
0	 2.000000000000000e+000	 4.333350000014584e+000	 9.812280491945002e+000
0	 2.000000000000000e+000	 4.400020000016401e+000	 9.834638132367237e+000
0	 2.000000000000000e+000	 4.466690000017617e+000	 9.840021010690538e+000
0	 2.000000000000000e+000	 4.533360000018134e+000	 9.835581633179729e+000
0	 2.000000000000000e+000	 4.600030000017851e+000	 9.828472506099740e+000
0	 2.000000000000000e+000	 4.666700000016665e+000	 9.825846135715670e+000
0	 1.333299999983334e+000	 4.666700000016667e+000	 9.540605677785770e+000
0	 1.333299999983334e+000	 4.733360000014533e+000	 9.546173011803523e+000
0	 1.333299999983334e+000	 4.800020000011600e+000	 9.550745148696889e+000
0	 1.333299999983334e+000	 4.866680000008067e+000	 9.554752470648916e+000
0	 1.333299999983334e+000	 4.933340000004134e+000	 9.558625359842596e+000
0	 1.333299999983334e+000	 5.000000000000000e+000	 9.562794198460876e+000
0	 1.333299999983334e+000	 5.066659999995867e+000	 9.567689368686658e+000
0	 1.333299999983334e+000	 5.133319999991934e+000	 9.573741252702787e+000
0	 1.333299999983334e+000	 5.199979999988400e+000	 9.581380232692077e+000
0	 1.333299999983334e+000	 5.266639999985467e+000	 9.591036690837287e+000
0	 1.333299999983334e+000	 5.333299999983335e+000	 9.603141009321130e+000
0	 1.399969999982150e+000	 4.666700000016665e+000	 9.567443856757407e+000
0	 1.399969999982150e+000	 4.733360000014534e+000	 9.573992902144127e+000
0	 1.399969999982150e+000	 4.800020000011601e+000	 9.578850080655956e+000
0	 1.399969999982150e+000	 4.866680000008066e+000	 9.582561091762489e+000
0	 1.399969999982150e+000	 4.933340000004133e+000	 9.585671634933236e+000
0	 1.399969999982150e+000	 5.000000000000000e+000	 9.588727409637723e+000
0	 1.399969999982150e+000	 5.066659999995867e+000	 9.592274115345372e+000
0	 1.399969999982150e+000	 5.133319999991936e+000	 9.596857451525588e+000
0	 1.399969999982150e+000	 5.199979999988400e+000	 9.603023117647702e+000
0	 1.399969999982150e+000	 5.266639999985468e+000	 9.611316813181036e+000
0	 1.399969999982150e+000	 5.333299999983333e+000	 9.622284237594817e+000
0	 1.466639999981867e+000	 4.666700000016667e+000	 9.594704288834965e+000
0	 1.466639999981866e+000	 4.733360000014533e+000	 9.601916165643775e+000
0	 1.466639999981866e+000	 4.800020000011600e+000	 9.606879561471555e+000
0	 1.466639999981866e+000	 4.866680000008065e+000	 9.610231732982765e+000
0	 1.466639999981866e+000	 4.933340000004134e+000	 9.612609936841844e+000
0	 1.466639999981866e+000	 4.999999999999997e+000	 9.614651429713167e+000
0	 1.466639999981866e+000	 5.066659999995866e+000	 9.616993468261038e+000
0	 1.466639999981866e+000	 5.133319999991933e+000	 9.620273309149747e+000
0	 1.466639999981866e+000	 5.199979999988401e+000	 9.625128209043545e+000
0	 1.466639999981866e+000	 5.266639999985467e+000	 9.632195424606568e+000
0	 1.466639999981867e+000	 5.333299999983335e+000	 9.642112212502951e+000
0	 1.533309999982383e+000	 4.666700000016666e+000	 9.622369118005500e+000
0	 1.533309999982383e+000	 4.733360000014534e+000	 9.629924002353844e+000
0	 1.533309999982383e+000	 4.800020000011601e+000	 9.634812578035772e+000
0	 1.533309999982383e+000	 4.866680000008068e+000	 9.637739898818973e+000
0	 1.533309999982383e+000	 4.933340000004134e+000	 9.639411018471112e+000
0	 1.533309999982383e+000	 5.000000000000002e+000	 9.640530990759775e+000
0	 1.533309999982383e+000	 5.066659999995866e+000	 9.641804869452505e+000
0	 1.533309999982383e+000	 5.133319999991934e+000	 9.643937708316830e+000
0	 1.533309999982383e+000	 5.199979999988400e+000	 9.647634561120162e+000
0	 1.533309999982383e+000	 5.266639999985467e+000	 9.653600481629907e+000
0	 1.533309999982383e+000	 5.333299999983333e+000	 9.662540523613430e+000
0	 1.599979999983599e+000	 4.666700000016665e+000	 9.650420488256048e+000
0	 1.599979999983600e+000	 4.733360000014534e+000	 9.657997612325694e+000
0	 1.599979999983600e+000	 4.800020000011599e+000	 9.662628117240695e+000
0	 1.599979999983599e+000	 4.866680000008065e+000	 9.665061093780295e+000
0	 1.599979999983599e+000	 4.933340000004134e+000	 9.666045632723728e+000
0	 1.599979999983600e+000	 5.000000000000000e+000	 9.666330824850132e+000
0	 1.599979999983600e+000	 5.066659999995866e+000	 9.666665760938633e+000
0	 1.599979999983599e+000	 5.133319999991934e+000	 9.667799531768303e+000
0	 1.599979999983599e+000	 5.199979999988400e+000	 9.670481228118145e+000
0	 1.599979999983600e+000	 5.266639999985468e+000	 9.675459940767134e+000
0	 1.599979999983600e+000	 5.333299999983335e+000	 9.683484760494171e+000
0	 1.666649999985416e+000	 4.666700000016667e+000	 9.678840543573672e+000
0	 1.666649999985416e+000	 4.733360000014534e+000	 9.686118195610730e+000
0	 1.666649999985416e+000	 4.800020000011599e+000	 9.690305165978424e+000
0	 1.666649999985416e+000	 4.866680000008066e+000	 9.692170822375932e+000
0	 1.666649999985416e+000	 4.933340000004134e+000	 9.692484532502363e+000
0	 1.666649999985417e+000	 4.999999999999999e+000	 9.692015664056795e+000
0	 1.666649999985417e+000	 5.066659999995866e+000	 9.691533584738263e+000
0	 1.666649999985416e+000	 5.133319999991935e+000	 9.691807662245717e+000
0	 1.666649999985417e+000	 5.199979999988400e+000	 9.693607264278093e+000
0	 1.666649999985416e+000	 5.266639999985467e+000	 9.697701758534274e+000
0	 1.666649999985416e+000	 5.333299999983334e+000	 9.704860512713072e+000
0	 1.733319999987733e+000	 4.666700000016665e+000	 9.707611427945448e+000
0	 1.733319999987733e+000	 4.733360000014532e+000	 9.714266952260319e+000
0	 1.733319999987733e+000	 4.800020000011601e+000	 9.717822711141061e+000
0	 1.733319999987733e+000	 4.866680000008066e+000	 9.719044589115063e+000
0	 1.733319999987733e+000	 4.933340000004133e+000	 9.718698470709727e+000
0	 1.733319999987733e+000	 4.999999999999999e+000	 9.717550240452352e+000
0	 1.733319999987733e+000	 5.066659999995868e+000	 9.716365782870234e+000
0	 1.733319999987733e+000	 5.133319999991935e+000	 9.715910982490584e+000
0	 1.733319999987733e+000	 5.199979999988402e+000	 9.716951723840589e+000
0	 1.733319999987733e+000	 5.266639999985469e+000	 9.720253891447388e+000
0	 1.733319999987733e+000	 5.333299999983333e+000	 9.726583369838050e+000
0	 1.799989999990449e+000	 4.666700000016665e+000	 9.736715285358452e+000
0	 1.799989999990450e+000	 4.733360000014533e+000	 9.742425082325859e+000
0	 1.799989999990450e+000	 4.800020000011599e+000	 9.745159739620672e+000
0	 1.799989999990450e+000	 4.866680000008066e+000	 9.745657898506886e+000
0	 1.799989999990450e+000	 4.933340000004132e+000	 9.744658200248479e+000
0	 1.799989999990450e+000	 4.999999999999999e+000	 9.742899286109358e+000
0	 1.799989999990450e+000	 5.066659999995867e+000	 9.741119797353397e+000
0	 1.799989999990450e+000	 5.133319999991935e+000	 9.740058375244420e+000
0	 1.799989999990449e+000	 5.199979999988399e+000	 9.740453661046219e+000
0	 1.799989999990450e+000	 5.266639999985467e+000	 9.743044296022518e+000
0	 1.799989999990450e+000	 5.333299999983334e+000	 9.748568921437022e+000
0	 1.866659999993467e+000	 4.666700000016665e+000	 9.766134259799753e+000
0	 1.866659999993467e+000	 4.733360000014532e+000	 9.770573785858741e+000
0	 1.866659999993467e+000	 4.800020000011599e+000	 9.772295238309370e+000
0	 1.866659999993467e+000	 4.866680000008066e+000	 9.771986255060590e+000
0	 1.866659999993467e+000	 4.933340000004133e+000	 9.770334474021299e+000
0	 1.866659999993467e+000	 5.000000000000000e+000	 9.768027533100359e+000
0	 1.866659999993467e+000	 5.066659999995867e+000	 9.765753070206582e+000
0	 1.866659999993467e+000	 5.133319999991935e+000	 9.764198723248738e+000
0	 1.866659999993467e+000	 5.199979999988400e+000	 9.764052130135557e+000
0	 1.866659999993467e+000	 5.266639999985467e+000	 9.766000928775730e+000
0	 1.866659999993467e+000	 5.333299999983333e+000	 9.770732757077891e+000
0	 1.933329999996684e+000	 4.666700000016666e+000	 9.795850495256467e+000
0	 1.933329999996684e+000	 4.733360000014534e+000	 9.798694262910358e+000
0	 1.933329999996684e+000	 4.800020000011601e+000	 9.799208194099233e+000
0	 1.933329999996683e+000	 4.866680000008066e+000	 9.798005163285344e+000
0	 1.933329999996684e+000	 4.933340000004135e+000	 9.795698044930857e+000
0	 1.933329999996683e+000	 5.000000000000000e+000	 9.792899713497926e+000
0	 1.933329999996683e+000	 5.066659999995865e+000	 9.790223043448632e+000
0	 1.933329999996684e+000	 5.133319999991934e+000	 9.788280909245049e+000
0	 1.933329999996684e+000	 5.199979999988401e+000	 9.787686185349205e+000
0	 1.933329999996684e+000	 5.266639999985469e+000	 9.789051746223063e+000
0	 1.933329999996684e+000	 5.333299999983335e+000	 9.792990466328584e+000
0	 2.000000000000000e+000	 4.666700000016665e+000	 9.825846135715672e+000
0	 2.000000000000000e+000	 4.733360000014533e+000	 9.826767713532094e+000
0	 2.000000000000000e+000	 4.800020000011601e+000	 9.825877593882369e+000
0	 2.000000000000000e+000	 4.866680000008067e+000	 9.823690127690359e+000
0	 2.000000000000000e+000	 4.933340000004134e+000	 9.820719665879839e+000
0	 2.000000000000000e+000	 5.000000000000001e+000	 9.817480559374614e+000
0	 2.000000000000000e+000	 5.066659999995866e+000	 9.814487159098388e+000
0	 2.000000000000000e+000	 5.133319999991934e+000	 9.812253815974875e+000
0	 2.000000000000000e+000	 5.199979999988400e+000	 9.811294880927729e+000
0	 2.000000000000000e+000	 5.266639999985468e+000	 9.812124704880572e+000
0	 2.000000000000000e+000	 5.333299999983333e+000	 9.815257638757007e+000
0	 1.333299999983334e+000	 5.333299999983335e+000	 9.603141009321128e+000
0	 1.333299999983334e+000	 5.399969999982149e+000	 9.616378269317478e+000
0	 1.333299999983334e+000	 5.466639999981867e+000	 9.629127030629332e+000
0	 1.333299999983334e+000	 5.533309999982383e+000	 9.641363956258489e+000
0	 1.333299999983334e+000	 5.599979999983599e+000	 9.653065709206732e+000
0	 1.333299999983334e+000	 5.666649999985414e+000	 9.664208952475883e+000
0	 1.333299999983334e+000	 5.733319999987733e+000	 9.674770349067710e+000
0	 1.333299999983334e+000	 5.799989999990448e+000	 9.684726561984002e+000
0	 1.333299999983334e+000	 5.866659999993467e+000	 9.694054254226524e+000
0	 1.333299999983334e+000	 5.933329999996684e+000	 9.702730088797059e+000
0	 1.333299999983334e+000	 6.000000000000000e+000	 9.710730728697349e+000
0	 1.399969999982150e+000	 5.333299999983333e+000	 9.622284237594817e+000
0	 1.399969999982150e+000	 5.399969999982149e+000	 9.634642991381030e+000
0	 1.399969999982150e+000	 5.466639999981864e+000	 9.646700678378982e+000
0	 1.399969999982150e+000	 5.533309999982382e+000	 9.658393622425677e+000
0	 1.399969999982150e+000	 5.599979999983600e+000	 9.669658147358105e+000
0	 1.399969999982150e+000	 5.666649999985418e+000	 9.680430577013294e+000
0	 1.399969999982150e+000	 5.733319999987733e+000	 9.690647235228211e+000
0	 1.399969999982150e+000	 5.799989999990447e+000	 9.700244445839847e+000
0	 1.399969999982150e+000	 5.866659999993465e+000	 9.709158532685180e+000
0	 1.399969999982150e+000	 5.933329999996682e+000	 9.717325819601193e+000
0	 1.399969999982150e+000	 5.999999999999999e+000	 9.724682630424818e+000
0	 1.466639999981867e+000	 5.333299999983335e+000	 9.642112212502955e+000
0	 1.466639999981867e+000	 5.399969999982150e+000	 9.653626100628518e+000
0	 1.466639999981867e+000	 5.466639999981866e+000	 9.664991398071855e+000
0	 1.466639999981866e+000	 5.533309999982383e+000	 9.676110733103000e+000
0	 1.466639999981866e+000	 5.599979999983599e+000	 9.686886733992015e+000
0	 1.466639999981867e+000	 5.666649999985417e+000	 9.697222029008923e+000
0	 1.466639999981867e+000	 5.733319999987733e+000	 9.707019246423764e+000
0	 1.466639999981866e+000	 5.799989999990450e+000	 9.716181014506555e+000
0	 1.466639999981866e+000	 5.866659999993467e+000	 9.724609961527325e+000
0	 1.466639999981867e+000	 5.933329999996683e+000	 9.732208715756057e+000
0	 1.466639999981867e+000	 6.000000000000001e+000	 9.738879905462783e+000
0	 1.533309999982383e+000	 5.333299999983333e+000	 9.662540523613430e+000
0	 1.533309999982383e+000	 5.399969999982150e+000	 9.673231609342984e+000
0	 1.533309999982383e+000	 5.466639999981866e+000	 9.683894477157164e+000
0	 1.533309999982383e+000	 5.533309999982384e+000	 9.694404703356883e+000
0	 1.533309999982383e+000	 5.599979999983599e+000	 9.704637864243066e+000
0	 1.533309999982383e+000	 5.666649999985416e+000	 9.714469536116624e+000
0	 1.533309999982383e+000	 5.733319999987732e+000	 9.723775295278468e+000
0	 1.533309999982383e+000	 5.799989999990449e+000	 9.732430718029493e+000
0	 1.533309999982383e+000	 5.866659999993467e+000	 9.740311380670576e+000
0	 1.533309999982383e+000	 5.933329999996683e+000	 9.747292859502622e+000
0	 1.533309999982383e+000	 6.000000000000000e+000	 9.753250730826483e+000
0	 1.599979999983600e+000	 5.333299999983335e+000	 9.683484760494171e+000
0	 1.599979999983600e+000	 5.399969999982149e+000	 9.693363529807479e+000
0	 1.599979999983600e+000	 5.466639999981866e+000	 9.703305203084112e+000
0	 1.599979999983600e+000	 5.533309999982384e+000	 9.713164948253693e+000
0	 1.599979999983600e+000	 5.599979999983600e+000	 9.722797933245852e+000
0	 1.599979999983599e+000	 5.666649999985416e+000	 9.732059325990226e+000
0	 1.599979999983600e+000	 5.733319999987732e+000	 9.740804294416400e+000
0	 1.599979999983600e+000	 5.799989999990450e+000	 9.748888006453989e+000
0	 1.599979999983600e+000	 5.866659999993466e+000	 9.756165630032584e+000
0	 1.599979999983600e+000	 5.933329999996685e+000	 9.762492333081799e+000
0	 1.599979999983599e+000	 6.000000000000000e+000	 9.767723283531199e+000
0	 1.666649999985416e+000	 5.333299999983334e+000	 9.704860512713070e+000
0	 1.666649999985416e+000	 5.399969999982150e+000	 9.713925874305060e+000
0	 1.666649999985416e+000	 5.466639999981865e+000	 9.723118863301920e+000
0	 1.666649999985416e+000	 5.533309999982384e+000	 9.732280882859843e+000
0	 1.666649999985416e+000	 5.599979999983598e+000	 9.741253336134994e+000
0	 1.666649999985416e+000	 5.666649999985416e+000	 9.749877626283528e+000
0	 1.666649999985416e+000	 5.733319999987733e+000	 9.757995156461613e+000
0	 1.666649999985416e+000	 5.799989999990448e+000	 9.765447329825385e+000
0	 1.666649999985417e+000	 5.866659999993467e+000	 9.772075549530982e+000
0	 1.666649999985416e+000	 5.933329999996683e+000	 9.777721218734538e+000
0	 1.666649999985416e+000	 6.000000000000000e+000	 9.782225740592194e+000
0	 1.733319999987733e+000	 5.333299999983333e+000	 9.726583369838050e+000
0	 1.733319999987733e+000	 5.399969999982151e+000	 9.734822655118762e+000
0	 1.733319999987733e+000	 5.466639999981866e+000	 9.743230745259812e+000
0	 1.733319999987733e+000	 5.533309999982383e+000	 9.751641922241729e+000
0	 1.733319999987733e+000	 5.599979999983599e+000	 9.759890468045082e+000
0	 1.733319999987733e+000	 5.666649999985415e+000	 9.767810664650401e+000
0	 1.733319999987733e+000	 5.733319999987733e+000	 9.775236794038204e+000
0	 1.733319999987733e+000	 5.799989999990450e+000	 9.782003138189031e+000
0	 1.733319999987733e+000	 5.866659999993468e+000	 9.787943979083389e+000
0	 1.733319999987733e+000	 5.933329999996683e+000	 9.792893598701784e+000
0	 1.733319999987733e+000	 6.000000000000001e+000	 9.796686279024719e+000
0	 1.799989999990450e+000	 5.333299999983334e+000	 9.748568921437020e+000
0	 1.799989999990450e+000	 5.399969999982148e+000	 9.755957884531656e+000
0	 1.799989999990450e+000	 5.466639999981866e+000	 9.763536136406989e+000
0	 1.799989999990450e+000	 5.533309999982383e+000	 9.771137481465759e+000
0	 1.799989999990450e+000	 5.599979999983600e+000	 9.778595724110739e+000
0	 1.799989999990450e+000	 5.666649999985416e+000	 9.785744668744655e+000
0	 1.799989999990450e+000	 5.733319999987733e+000	 9.792418119770256e+000
0	 1.799989999990450e+000	 5.799989999990449e+000	 9.798449881590280e+000
0	 1.799989999990450e+000	 5.866659999993467e+000	 9.803673758607445e+000
0	 1.799989999990450e+000	 5.933329999996685e+000	 9.807923555224454e+000
0	 1.799989999990450e+000	 6.000000000000000e+000	 9.811033075844055e+000
0	 1.866659999993467e+000	 5.333299999983333e+000	 9.770732757077887e+000
0	 1.866659999993466e+000	 5.399969999982148e+000	 9.777235574826788e+000
0	 1.866659999993467e+000	 5.466639999981867e+000	 9.783930324192676e+000
0	 1.866659999993467e+000	 5.533309999982382e+000	 9.790656975598330e+000
0	 1.866659999993466e+000	 5.599979999983599e+000	 9.797255499466562e+000
0	 1.866659999993467e+000	 5.666649999985415e+000	 9.803565866220128e+000
0	 1.866659999993467e+000	 5.733319999987733e+000	 9.809428046281854e+000
0	 1.866659999993466e+000	 5.799989999990448e+000	 9.814682010074467e+000
0	 1.866659999993467e+000	 5.866659999993466e+000	 9.819167728020776e+000
0	 1.866659999993467e+000	 5.933329999996682e+000	 9.822725170543498e+000
0	 1.866659999993466e+000	 5.999999999999998e+000	 9.825194308065433e+000
0	 1.933329999996684e+000	 5.333299999983335e+000	 9.792990466328581e+000
0	 1.933329999996684e+000	 5.399969999982150e+000	 9.798559738287239e+000
0	 1.933329999996684e+000	 5.466639999981866e+000	 9.804308596066107e+000
0	 1.933329999996684e+000	 5.533309999982384e+000	 9.810089819705860e+000
0	 1.933329999996684e+000	 5.599979999983600e+000	 9.815756189247175e+000
0	 1.933329999996684e+000	 5.666649999985418e+000	 9.821160484730674e+000
0	 1.933329999996684e+000	 5.733319999987733e+000	 9.826155486197058e+000
0	 1.933329999996684e+000	 5.799989999990450e+000	 9.830593973686945e+000
0	 1.933329999996684e+000	 5.866659999993466e+000	 9.834328727241005e+000
0	 1.933329999996684e+000	 5.933329999996683e+000	 9.837212526899851e+000
0	 1.933329999996684e+000	 6.000000000000000e+000	 9.839098152704139e+000
0	 2.000000000000000e+000	 5.333299999983333e+000	 9.815257638757007e+000
0	 2.000000000000000e+000	 5.399969999982149e+000	 9.819834387196050e+000
0	 2.000000000000000e+000	 5.466639999981868e+000	 9.824566239476509e+000
0	 2.000000000000000e+000	 5.533309999982383e+000	 9.829325428854752e+000
0	 2.000000000000000e+000	 5.599979999983600e+000	 9.833984188587172e+000
0	 2.000000000000000e+000	 5.666649999985416e+000	 9.838414751930126e+000
0	 2.000000000000000e+000	 5.733319999987732e+000	 9.842489352139964e+000
0	 2.000000000000000e+000	 5.799989999990449e+000	 9.846080222473065e+000
0	 1.999999999999999e+000	 5.866659999993466e+000	 9.849059596185775e+000
0	 2.000000000000000e+000	 5.933329999996682e+000	 9.851299706534446e+000
0	 2.000000000000000e+000	 6.000000000000000e+000	 9.852672786775409e+000
0	 1.333299999983334e+000	 6.000000000000000e+000	 9.710730728697349e+000
0	 1.333299999983334e+000	 6.066670000003319e+000	 9.718410138009123e+000
0	 1.333299999983334e+000	 6.133340000006530e+000	 9.726138487180107e+000
0	 1.333299999983334e+000	 6.200010000009551e+000	 9.733916748761164e+000
0	 1.333299999983334e+000	 6.266680000012268e+000	 9.741745895303103e+000
0	 1.333299999983334e+000	 6.333350000014583e+000	 9.749626899356752e+000
0	 1.333299999983334e+000	 6.400020000016402e+000	 9.757560733472937e+000
0	 1.333299999983334e+000	 6.466690000017617e+000	 9.765548370202511e+000
0	 1.333299999983334e+000	 6.533360000018134e+000	 9.773590782096294e+000
0	 1.333299999983334e+000	 6.600030000017851e+000	 9.781688941705095e+000
0	 1.333299999983334e+000	 6.666700000016665e+000	 9.789843821579771e+000
0	 1.399969999982150e+000	 5.999999999999999e+000	 9.724682630424818e+000
0	 1.399969999982150e+000	 6.066670000003315e+000	 9.731618545009511e+000
0	 1.399969999982150e+000	 6.133340000006533e+000	 9.738578679425716e+000
0	 1.399969999982150e+000	 6.200010000009551e+000	 9.745582661835986e+000
0	 1.399969999982150e+000	 6.266680000012269e+000	 9.752650120402846e+000
0	 1.399969999982150e+000	 6.333350000014585e+000	 9.759800683288857e+000
0	 1.399969999982150e+000	 6.400020000016401e+000	 9.767053978656543e+000
0	 1.399969999982150e+000	 6.466690000017618e+000	 9.774429634668440e+000
0	 1.399969999982150e+000	 6.533360000018132e+000	 9.781947279487122e+000
0	 1.399969999982150e+000	 6.600030000017851e+000	 9.789626541275107e+000
0	 1.399969999982150e+000	 6.666700000016667e+000	 9.797487048194961e+000
0	 1.466639999981867e+000	 6.000000000000001e+000	 9.738879905462783e+000
0	 1.466639999981866e+000	 6.066670000003318e+000	 9.745049895974677e+000
0	 1.466639999981866e+000	 6.133340000006535e+000	 9.751233611445908e+000
0	 1.466639999981866e+000	 6.200010000009550e+000	 9.757466518386913e+000
0	 1.466639999981867e+000	 6.266680000012265e+000	 9.763784083308151e+000
0	 1.466639999981866e+000	 6.333350000014585e+000	 9.770221772720065e+000
0	 1.466639999981866e+000	 6.400020000016399e+000	 9.776815053133102e+000
0	 1.466639999981866e+000	 6.466690000017616e+000	 9.783599391057713e+000
0	 1.466639999981867e+000	 6.533360000018135e+000	 9.790610253004369e+000
0	 1.466639999981867e+000	 6.600030000017850e+000	 9.797883105483514e+000
0	 1.466639999981867e+000	 6.666700000016667e+000	 9.805453415005607e+000
0	 1.533309999982383e+000	 6.000000000000000e+000	 9.753250730826483e+000
0	 1.533309999982383e+000	 6.066670000003318e+000	 9.758646793572918e+000
0	 1.533309999982383e+000	 6.133340000006530e+000	 9.764058120868480e+000
0	 1.533309999982383e+000	 6.200010000009550e+000	 9.769533200307688e+000
0	 1.533309999982383e+000	 6.266680000012267e+000	 9.775120519485100e+000
0	 1.533309999982383e+000	 6.333350000014584e+000	 9.780868565995297e+000
0	 1.533309999982383e+000	 6.400020000016400e+000	 9.786825827432802e+000
0	 1.533309999982383e+000	 6.466690000017615e+000	 9.793040791392203e+000
0	 1.533309999982383e+000	 6.533360000018136e+000	 9.799561945468048e+000
0	 1.533309999982383e+000	 6.600030000017851e+000	 9.806437777254912e+000
0	 1.533309999982383e+000	 6.666700000016665e+000	 9.813716774347356e+000
0	 1.599979999983599e+000	 6.000000000000000e+000	 9.767723283531199e+000
0	 1.599979999983600e+000	 6.066670000003319e+000	 9.772351840472581e+000
0	 1.599979999983600e+000	 6.133340000006534e+000	 9.777007045321243e+000
0	 1.599979999983600e+000	 6.200010000009550e+000	 9.781747589492047e+000
0	 1.599979999983599e+000	 6.266680000012266e+000	 9.786632164399839e+000
0	 1.599979999983600e+000	 6.333350000014583e+000	 9.791719461459485e+000
0	 1.599979999983600e+000	 6.400020000016402e+000	 9.797068172085853e+000
0	 1.599979999983600e+000	 6.466690000017618e+000	 9.802736987693789e+000
0	 1.599979999983599e+000	 6.533360000018133e+000	 9.808784599698177e+000
0	 1.599979999983600e+000	 6.600030000017849e+000	 9.815269699513896e+000
0	 1.599979999983599e+000	 6.666700000016665e+000	 9.822250978555806e+000
0	 1.666649999985416e+000	 6.000000000000000e+000	 9.782225740592194e+000
0	 1.666649999985417e+000	 6.066670000003318e+000	 9.786107639341962e+000
0	 1.666649999985417e+000	 6.133340000006535e+000	 9.790035222432021e+000
0	 1.666649999985416e+000	 6.200010000009550e+000	 9.794074567833748e+000
0	 1.666649999985417e+000	 6.266680000012268e+000	 9.798291753518482e+000
0	 1.666649999985416e+000	 6.333350000014584e+000	 9.802752857457586e+000
0	 1.666649999985416e+000	 6.400020000016402e+000	 9.807523957622427e+000
0	 1.666649999985416e+000	 6.466690000017618e+000	 9.812671131984377e+000
0	 1.666649999985416e+000	 6.533360000018134e+000	 9.818260458514800e+000
0	 1.666649999985417e+000	 6.600030000017852e+000	 9.824358015185087e+000
0	 1.666649999985416e+000	 6.666700000016665e+000	 9.831029879966600e+000
0	 1.733319999987733e+000	 6.000000000000001e+000	 9.796686279024719e+000
0	 1.733319999987733e+000	 6.066670000003316e+000	 9.799856792849376e+000
0	 1.733319999987733e+000	 6.133340000006531e+000	 9.803097489828641e+000
0	 1.733319999987733e+000	 6.200010000009552e+000	 9.806479017226534e+000
0	 1.733319999987733e+000	 6.266680000012268e+000	 9.810072022307157e+000
0	 1.733319999987733e+000	 6.333350000014583e+000	 9.813947152334530e+000
0	 1.733319999987733e+000	 6.400020000016398e+000	 9.818175054572752e+000
0	 1.733319999987733e+000	 6.466690000017615e+000	 9.822826376285848e+000
0	 1.733319999987733e+000	 6.533360000018136e+000	 9.827971764737930e+000
0	 1.733319999987733e+000	 6.600030000017851e+000	 9.833681867193070e+000
0	 1.733319999987733e+000	 6.666700000016665e+000	 9.840027330915335e+000
0	 1.799989999990450e+000	 6.000000000000000e+000	 9.811033075844055e+000
0	 1.799989999990450e+000	 6.066670000003319e+000	 9.813541903663145e+000
0	 1.799989999990450e+000	 6.133340000006533e+000	 9.816148685138876e+000
0	 1.799989999990450e+000	 6.200010000009552e+000	 9.818925819564162e+000
0	 1.799989999990450e+000	 6.266680000012267e+000	 9.821945706231967e+000
0	 1.799989999990450e+000	 6.333350000014584e+000	 9.825280744435256e+000
0	 1.799989999990450e+000	 6.400020000016401e+000	 9.829003333466972e+000
0	 1.799989999990450e+000	 6.466690000017616e+000	 9.833185872620089e+000
0	 1.799989999990450e+000	 6.533360000018134e+000	 9.837900761187607e+000
0	 1.799989999990450e+000	 6.600030000017851e+000	 9.843220398462441e+000
0	 1.799989999990450e+000	 6.666700000016666e+000	 9.849217183737641e+000
0	 1.866659999993466e+000	 5.999999999999998e+000	 9.825194308065433e+000
0	 1.866659999993467e+000	 6.066670000003315e+000	 9.827105574451590e+000
0	 1.866659999993467e+000	 6.133340000006532e+000	 9.829143645990547e+000
0	 1.866659999993467e+000	 6.200010000009551e+000	 9.831379856740359e+000
0	 1.866659999993467e+000	 6.266680000012268e+000	 9.833885540759049e+000
0	 1.866659999993467e+000	 6.333350000014583e+000	 9.836732032104679e+000
0	 1.866659999993467e+000	 6.400020000016403e+000	 9.839990664835305e+000
0	 1.866659999993467e+000	 6.466690000017616e+000	 9.843732773008993e+000
0	 1.866659999993467e+000	 6.533360000018133e+000	 9.848029690683816e+000
0	 1.866659999993466e+000	 6.600030000017850e+000	 9.852952751917831e+000
0	 1.866659999993467e+000	 6.666700000016665e+000	 9.858573290769133e+000
0	 1.933329999996684e+000	 6.000000000000000e+000	 9.839098152704139e+000
0	 1.933329999996684e+000	 6.066670000003315e+000	 9.840490407883026e+000
0	 1.933329999996683e+000	 6.133340000006533e+000	 9.842037210011487e+000
0	 1.933329999996684e+000	 6.200010000009551e+000	 9.843806010648869e+000
0	 1.933329999996683e+000	 6.266680000012266e+000	 9.845864261354508e+000
0	 1.933329999996684e+000	 6.333350000014586e+000	 9.848279413687738e+000
0	 1.933329999996684e+000	 6.400020000016400e+000	 9.851118919207940e+000
0	 1.933329999996684e+000	 6.466690000017617e+000	 9.854450229474432e+000
0	 1.933329999996684e+000	 6.533360000018135e+000	 9.858340796046601e+000
0	 1.933329999996684e+000	 6.600030000017852e+000	 9.862858070483812e+000
0	 1.933329999996684e+000	 6.666700000016668e+000	 9.868069504345430e+000
0	 2.000000000000000e+000	 6.000000000000000e+000	 9.852672786775409e+000
0	 2.000000000000000e+000	 6.066670000003317e+000	 9.853639006625738e+000
0	 2.000000000000000e+000	 6.133340000006534e+000	 9.854784214829470e+000
0	 2.000000000000000e+000	 6.200010000009550e+000	 9.856169163183433e+000
0	 1.999999999999999e+000	 6.266680000012266e+000	 9.857854603484464e+000
0	 2.000000000000000e+000	 6.333350000014585e+000	 9.859901287529382e+000
0	 2.000000000000000e+000	 6.400020000016401e+000	 9.862369967115050e+000
0	 2.000000000000000e+000	 6.466690000017618e+000	 9.865321394038302e+000
0	 2.000000000000000e+000	 6.533360000018136e+000	 9.868816320096004e+000
0	 2.000000000000000e+000	 6.600030000017848e+000	 9.872915497085000e+000
0	 2.000000000000000e+000	 6.666700000016668e+000	 9.877679676802163e+000
0	 1.333299999983334e+000	 6.666700000016665e+000	 9.789843821579774e+000
0	 1.333299999983334e+000	 6.733360000014534e+000	 9.797897003716743e+000
0	 1.333299999983334e+000	 6.800020000011599e+000	 9.805698272153917e+000
0	 1.333299999983334e+000	 6.866680000008066e+000	 9.813257220084569e+000
0	 1.333299999983334e+000	 6.933340000004134e+000	 9.820583440702023e+000
0	 1.333299999983334e+000	 6.999999999999999e+000	 9.827686527199582e+000
0	 1.333299999983334e+000	 7.066659999995867e+000	 9.834576072770561e+000
0	 1.333299999983334e+000	 7.133319999991935e+000	 9.841261670608251e+000
0	 1.333299999983334e+000	 7.199979999988400e+000	 9.847752913906023e+000
0	 1.333299999983334e+000	 7.266639999985467e+000	 9.854059395857165e+000
0	 1.333299999983334e+000	 7.333299999983336e+000	 9.860190709655020e+000
0	 1.399969999982150e+000	 6.666700000016667e+000	 9.797487048194961e+000
0	 1.399969999982150e+000	 6.733360000014532e+000	 9.805326614723450e+000
0	 1.399969999982150e+000	 6.800020000011600e+000	 9.812933383157438e+000
0	 1.399969999982150e+000	 6.866680000008066e+000	 9.820308892616131e+000
0	 1.399969999982150e+000	 6.933340000004133e+000	 9.827454682218729e+000
0	 1.399969999982150e+000	 7.000000000000000e+000	 9.834372291084462e+000
0	 1.399969999982150e+000	 7.066659999995866e+000	 9.841063258332532e+000
0	 1.399969999982150e+000	 7.133319999991933e+000	 9.847529123082174e+000
0	 1.399969999982150e+000	 7.199979999988401e+000	 9.853771424452614e+000
0	 1.399969999982150e+000	 7.266639999985465e+000	 9.859791701563108e+000
0	 1.399969999982150e+000	 7.333299999983334e+000	 9.865591493532877e+000
0	 1.466639999981867e+000	 6.666700000016667e+000	 9.805453415005607e+000
0	 1.466639999981866e+000	 6.733360000014534e+000	 9.813075047443293e+000
0	 1.466639999981867e+000	 6.800020000011599e+000	 9.820477000923496e+000
0	 1.466639999981866e+000	 6.866680000008066e+000	 9.827653961624934e+000
0	 1.466639999981866e+000	 6.933340000004134e+000	 9.834600615726375e+000
0	 1.466639999981866e+000	 6.999999999999999e+000	 9.841311649406547e+000
0	 1.466639999981866e+000	 7.066659999995866e+000	 9.847781748844213e+000
0	 1.466639999981866e+000	 7.133319999991934e+000	 9.854005600218120e+000
0	 1.466639999981866e+000	 7.199979999988401e+000	 9.859977889707039e+000
0	 1.466639999981867e+000	 7.266639999985466e+000	 9.865693303489753e+000
0	 1.466639999981867e+000	 7.333299999983336e+000	 9.871146527745021e+000
0	 1.533309999982383e+000	 6.666700000016665e+000	 9.813716774347357e+000
0	 1.533309999982383e+000	 6.733360000014534e+000	 9.821110383463868e+000
0	 1.533309999982383e+000	 6.800020000011601e+000	 9.828292664751380e+000
0	 1.533309999982383e+000	 6.866680000008064e+000	 9.835252652581792e+000
0	 1.533309999982383e+000	 6.933340000004133e+000	 9.841979381326988e+000
0	 1.533309999982383e+000	 7.000000000000001e+000	 9.848461885358880e+000
0	 1.533309999982383e+000	 7.066659999995868e+000	 9.854689199049396e+000
0	 1.533309999982383e+000	 7.133319999991935e+000	 9.860650356770435e+000
0	 1.533309999982383e+000	 7.199979999988402e+000	 9.866334392893915e+000
0	 1.533309999982383e+000	 7.266639999985466e+000	 9.871730341791775e+000
0	 1.533309999982383e+000	 7.333299999983335e+000	 9.876827237835956e+000
0	 1.599979999983599e+000	 6.666700000016665e+000	 9.822250978555809e+000
0	 1.599979999983600e+000	 6.733360000014532e+000	 9.829400704372754e+000
0	 1.599979999983600e+000	 6.800020000011601e+000	 9.836343913940405e+000
0	 1.599979999983599e+000	 6.866680000008064e+000	 9.843065190957470e+000
0	 1.599979999983600e+000	 6.933340000004133e+000	 9.849549119122617e+000
0	 1.599979999983600e+000	 7.000000000000000e+000	 9.855780282134520e+000
0	 1.599979999983599e+000	 7.066659999995867e+000	 9.861743263691897e+000
0	 1.599979999983599e+000	 7.133319999991931e+000	 9.867422647493441e+000
0	 1.599979999983600e+000	 7.199979999988400e+000	 9.872803017237857e+000
0	 1.599979999983600e+000	 7.266639999985469e+000	 9.877868956623860e+000
0	 1.599979999983600e+000	 7.333299999983336e+000	 9.882605049350188e+000
0	 1.666649999985416e+000	 6.666700000016665e+000	 9.831029879966602e+000
0	 1.666649999985416e+000	 6.733360000014533e+000	 9.837914091757513e+000
0	 1.666649999985416e+000	 6.800020000011599e+000	 9.844594287789874e+000
0	 1.666649999985416e+000	 6.866680000008067e+000	 9.851051802222765e+000
0	 1.666649999985416e+000	 6.933340000004131e+000	 9.857267969215265e+000
0	 1.666649999985417e+000	 6.999999999999999e+000	 9.863224122926484e+000
0	 1.666649999985416e+000	 7.066659999995867e+000	 9.868901597515523e+000
0	 1.666649999985416e+000	 7.133319999991934e+000	 9.874281727141479e+000
0	 1.666649999985417e+000	 7.199979999988401e+000	 9.879345845963497e+000
0	 1.666649999985416e+000	 7.266639999985467e+000	 9.884075288140684e+000
0	 1.666649999985416e+000	 7.333299999983333e+000	 9.888451387832173e+000
0	 1.733319999987733e+000	 6.666700000016665e+000	 9.840027330915335e+000
0	 1.733319999987733e+000	 6.733360000014534e+000	 9.846618627205753e+000
0	 1.733319999987733e+000	 6.800020000011600e+000	 9.853007325599078e+000
0	 1.733319999987733e+000	 6.866680000008067e+000	 9.859172711848455e+000
0	 1.733319999987733e+000	 6.933340000004132e+000	 9.865094071706986e+000
0	 1.733319999987733e+000	 6.999999999999998e+000	 9.870750690927810e+000
0	 1.733319999987733e+000	 7.066659999995868e+000	 9.876121855264065e+000
0	 1.733319999987733e+000	 7.133319999991935e+000	 9.881186850468907e+000
0	 1.733319999987733e+000	 7.199979999988400e+000	 9.885924962295473e+000
0	 1.733319999987733e+000	 7.266639999985467e+000	 9.890315476496921e+000
0	 1.733319999987733e+000	 7.333299999983335e+000	 9.894337678826430e+000
0	 1.799989999990450e+000	 6.666700000016666e+000	 9.849217183737641e+000
0	 1.799989999990450e+000	 6.733360000014534e+000	 9.855482392305030e+000
0	 1.799989999990450e+000	 6.800020000011600e+000	 9.861546566667339e+000
0	 1.799989999990450e+000	 6.866680000008068e+000	 9.867388145305323e+000
0	 1.799989999990450e+000	 6.933340000004134e+000	 9.872985566699803e+000
0	 1.799989999990450e+000	 7.000000000000001e+000	 9.878317269331538e+000
0	 1.799989999990450e+000	 7.066659999995868e+000	 9.883361691681341e+000
0	 1.799989999990450e+000	 7.133319999991935e+000	 9.888097272230031e+000
0	 1.799989999990450e+000	 7.199979999988400e+000	 9.892502449458382e+000
0	 1.799989999990450e+000	 7.266639999985467e+000	 9.896555661847252e+000
0	 1.799989999990450e+000	 7.333299999983335e+000	 9.900235347877441e+000
0	 1.866659999993467e+000	 6.666700000016665e+000	 9.858573290769133e+000
0	 1.866659999993467e+000	 6.733360000014532e+000	 9.864473468642940e+000
0	 1.866659999993467e+000	 6.800020000011601e+000	 9.870175550293936e+000
0	 1.866659999993467e+000	 6.866680000008066e+000	 9.875658328064192e+000
0	 1.866659999993467e+000	 6.933340000004133e+000	 9.880900594295749e+000
0	 1.866659999993467e+000	 6.999999999999998e+000	 9.885881141330719e+000
0	 1.866659999993467e+000	 7.066659999995866e+000	 9.890578761511172e+000
0	 1.866659999993467e+000	 7.133319999991935e+000	 9.894972247179197e+000
0	 1.866659999993467e+000	 7.199979999988400e+000	 9.899040390676875e+000
0	 1.866659999993467e+000	 7.266639999985466e+000	 9.902761984346329e+000
0	 1.866659999993467e+000	 7.333299999983333e+000	 9.906115820529676e+000
0	 1.933329999996684e+000	 6.666700000016668e+000	 9.868069504345433e+000
0	 1.933329999996683e+000	 6.733360000014531e+000	 9.873559937807055e+000
0	 1.933329999996684e+000	 6.800020000011601e+000	 9.878857815778183e+000
0	 1.933329999996684e+000	 6.866680000008067e+000	 9.883943485595786e+000
0	 1.933329999996684e+000	 6.933340000004133e+000	 9.888797294596866e+000
0	 1.933329999996684e+000	 7.000000000000000e+000	 9.893399590118367e+000
0	 1.933329999996683e+000	 7.066659999995864e+000	 9.897730719497332e+000
0	 1.933329999996684e+000	 7.133319999991936e+000	 9.901771030070732e+000
0	 1.933329999996684e+000	 7.199979999988401e+000	 9.905500869175585e+000
0	 1.933329999996684e+000	 7.266639999985467e+000	 9.908900584148876e+000
0	 1.933329999996684e+000	 7.333299999983332e+000	 9.911950522327638e+000
0	 2.000000000000000e+000	 6.666700000016668e+000	 9.877679676802160e+000
0	 2.000000000000000e+000	 6.733360000014532e+000	 9.882709881384962e+000
0	 2.000000000000000e+000	 6.800020000011601e+000	 9.887556902419384e+000
0	 2.000000000000000e+000	 6.866680000008068e+000	 9.892203843370950e+000
0	 2.000000000000000e+000	 6.933340000004133e+000	 9.896633807705165e+000
0	 2.000000000000000e+000	 6.999999999999999e+000	 9.900829898887555e+000
0	 2.000000000000000e+000	 7.066659999995867e+000	 9.904775220383645e+000
0	 2.000000000000000e+000	 7.133319999991933e+000	 9.908452875658977e+000
0	 2.000000000000000e+000	 7.199979999988401e+000	 9.911845968179092e+000
0	 2.000000000000000e+000	 7.266639999985467e+000	 9.914937601409525e+000
0	 2.000000000000000e+000	 7.333299999983335e+000	 9.917710878815825e+000
0	 1.333299999983334e+000	 7.333299999983336e+000	 9.860190709655020e+000
0	 1.333299999983334e+000	 7.399969999982149e+000	 9.866196032934708e+000
0	 1.333299999983334e+000	 7.466639999981866e+000	 9.872114500109136e+000
0	 1.333299999983334e+000	 7.533309999982384e+000	 9.877943360927857e+000
0	 1.333299999983334e+000	 7.599979999983600e+000	 9.883679865140421e+000
0	 1.333299999983334e+000	 7.666649999985415e+000	 9.889321262496377e+000
0	 1.333299999983334e+000	 7.733319999987733e+000	 9.894864802745257e+000
0	 1.333299999983334e+000	 7.799989999990449e+000	 9.900307735636595e+000
0	 1.333299999983334e+000	 7.866659999993466e+000	 9.905647310919941e+000
0	 1.333299999983334e+000	 7.933329999996683e+000	 9.910880778344838e+000
0	 1.333299999983334e+000	 8.000000000000000e+000	 9.916005387660794e+000
0	 1.399969999982150e+000	 7.333299999983334e+000	 9.865591493532877e+000
0	 1.399969999982150e+000	 7.399969999982150e+000	 9.871243054297400e+000
0	 1.399969999982150e+000	 7.466639999981867e+000	 9.876816561105130e+000
0	 1.399969999982150e+000	 7.533309999982385e+000	 9.882312998828930e+000
0	 1.399969999982150e+000	 7.599979999983598e+000	 9.887733352341627e+000
0	 1.399969999982150e+000	 7.666649999985416e+000	 9.893078606516095e+000
0	 1.399969999982150e+000	 7.733319999987733e+000	 9.898349746225158e+000
0	 1.399969999982150e+000	 7.799989999990451e+000	 9.903547756341681e+000
0	 1.399969999982150e+000	 7.866659999993467e+000	 9.908673621738515e+000
0	 1.399969999982150e+000	 7.933329999996682e+000	 9.913728327288478e+000
0	 1.399969999982150e+000	 7.999999999999999e+000	 9.918712857864442e+000
0	 1.466639999981867e+000	 7.333299999983336e+000	 9.871146527745021e+000
0	 1.466639999981866e+000	 7.399969999982151e+000	 9.876433163820700e+000
0	 1.466639999981867e+000	 7.466639999981866e+000	 9.881653558822235e+000
0	 1.466639999981866e+000	 7.533309999982383e+000	 9.886811911965468e+000
0	 1.466639999981866e+000	 7.599979999983600e+000	 9.891912422466213e+000
0	 1.466639999981866e+000	 7.666649999985419e+000	 9.896959289540298e+000
0	 1.466639999981866e+000	 7.733319999987731e+000	 9.901956712403543e+000
0	 1.466639999981867e+000	 7.799989999990449e+000	 9.906908890271767e+000
0	 1.466639999981866e+000	 7.866659999993466e+000	 9.911820022360805e+000
0	 1.466639999981867e+000	 7.933329999996684e+000	 9.916694307886466e+000
0	 1.466639999981866e+000	 8.000000000000000e+000	 9.921535946064550e+000
0	 1.533309999982383e+000	 7.333299999983335e+000	 9.876827237835956e+000
0	 1.533309999982383e+000	 7.399969999982148e+000	 9.881743296967599e+000
0	 1.533309999982383e+000	 7.466639999981864e+000	 9.886607157469562e+000
0	 1.533309999982383e+000	 7.533309999982384e+000	 9.891425712120302e+000
0	 1.533309999982383e+000	 7.599979999983599e+000	 9.896205853698278e+000
0	 1.533309999982383e+000	 7.666649999985414e+000	 9.900954474981971e+000
0	 1.533309999982383e+000	 7.733319999987733e+000	 9.905678468749828e+000
0	 1.533309999982383e+000	 7.799989999990449e+000	 9.910384727780338e+000
0	 1.533309999982383e+000	 7.866659999993468e+000	 9.915080144851949e+000
0	 1.533309999982383e+000	 7.933329999996682e+000	 9.919771612743118e+000
0	 1.533309999982383e+000	 8.000000000000000e+000	 9.924466024232308e+000
0	 1.599979999983600e+000	 7.333299999983336e+000	 9.882605049350186e+000
0	 1.599979999983600e+000	 7.399969999982152e+000	 9.887150389201130e+000
0	 1.599979999983600e+000	 7.466639999981867e+000	 9.891659021256221e+000
0	 1.599979999983600e+000	 7.533309999982383e+000	 9.896140011076216e+000
0	 1.599979999983600e+000	 7.599979999983600e+000	 9.900602424221924e+000
0	 1.599979999983599e+000	 7.666649999985414e+000	 9.905055326254068e+000
0	 1.599979999983600e+000	 7.733319999987733e+000	 9.909507782733455e+000
0	 1.599979999983600e+000	 7.799989999990450e+000	 9.913968859220866e+000
0	 1.599979999983600e+000	 7.866659999993468e+000	 9.918447621277041e+000
0	 1.599979999983600e+000	 7.933329999996683e+000	 9.922953134462771e+000
0	 1.599979999983600e+000	 8.000000000000000e+000	 9.927494464338830e+000
0	 1.666649999985416e+000	 7.333299999983333e+000	 9.888451387832170e+000
0	 1.666649999985416e+000	 7.399969999982151e+000	 9.892631375984291e+000
0	 1.666649999985416e+000	 7.466639999981865e+000	 9.896790814391334e+000
0	 1.666649999985416e+000	 7.533309999982385e+000	 9.900940420616069e+000
0	 1.666649999985417e+000	 7.599979999983598e+000	 9.905090912221224e+000
0	 1.666649999985416e+000	 7.666649999985418e+000	 9.909253006769564e+000
0	 1.666649999985417e+000	 7.733319999987733e+000	 9.913437421823858e+000
0	 1.666649999985416e+000	 7.799989999990450e+000	 9.917654874946818e+000
0	 1.666649999985416e+000	 7.866659999993466e+000	 9.921916083701218e+000
0	 1.666649999985417e+000	 7.933329999996684e+000	 9.926231765649803e+000
0	 1.666649999985416e+000	 8.000000000000000e+000	 9.930612638355305e+000
0	 1.733319999987733e+000	 7.333299999983335e+000	 9.894337678826430e+000
0	 1.733319999987733e+000	 7.399969999982150e+000	 9.898163192780075e+000
0	 1.733319999987733e+000	 7.466639999981866e+000	 9.901984201084007e+000
0	 1.733319999987733e+000	 7.533309999982383e+000	 9.905812552522615e+000
0	 1.733319999987733e+000	 7.599979999983598e+000	 9.909660095880293e+000
0	 1.733319999987733e+000	 7.666649999985417e+000	 9.913538679941443e+000
0	 1.733319999987733e+000	 7.733319999987733e+000	 9.917460153490447e+000
0	 1.733319999987733e+000	 7.799989999990450e+000	 9.921436365311696e+000
0	 1.733319999987733e+000	 7.866659999993465e+000	 9.925479164189589e+000
0	 1.733319999987733e+000	 7.933329999996684e+000	 9.929600398908535e+000
0	 1.733319999987733e+000	 7.999999999999999e+000	 9.933811918252909e+000
0	 1.799989999990450e+000	 7.333299999983335e+000	 9.900235347877437e+000
0	 1.799989999990450e+000	 7.399969999982150e+000	 9.903722775051518e+000
0	 1.799989999990450e+000	 7.466639999981866e+000	 9.907220845543371e+000
0	 1.799989999990450e+000	 7.533309999982384e+000	 9.910742018578709e+000
0	 1.799989999990450e+000	 7.599979999983599e+000	 9.914298753383232e+000
0	 1.799989999990450e+000	 7.666649999985416e+000	 9.917903509182644e+000
0	 1.799989999990450e+000	 7.733319999987732e+000	 9.921568745202652e+000
0	 1.799989999990450e+000	 7.799989999990450e+000	 9.925306920668966e+000
0	 1.799989999990450e+000	 7.866659999993468e+000	 9.929130494807275e+000
0	 1.799989999990450e+000	 7.933329999996683e+000	 9.933051926843302e+000
0	 1.799989999990450e+000	 8.000000000000002e+000	 9.937083676002770e+000
0	 1.866659999993467e+000	 7.333299999983333e+000	 9.906115820529676e+000
0	 1.866659999993467e+000	 7.399969999982151e+000	 9.909287058261599e+000
0	 1.866659999993467e+000	 7.466639999981866e+000	 9.912482411978534e+000
0	 1.866659999993467e+000	 7.533309999982383e+000	 9.915714430567142e+000
0	 1.866659999993466e+000	 7.599979999983599e+000	 9.918995662914112e+000
0	 1.866659999993467e+000	 7.666649999985416e+000	 9.922338657906151e+000
0	 1.866659999993467e+000	 7.733319999987733e+000	 9.925755964429914e+000
0	 1.866659999993466e+000	 7.799989999990448e+000	 9.929260131372104e+000
0	 1.866659999993467e+000	 7.866659999993466e+000	 9.932863707619392e+000
0	 1.866659999993467e+000	 7.933329999996684e+000	 9.936579242058480e+000
0	 1.866659999993467e+000	 7.999999999999998e+000	 9.940419283576055e+000
0	 1.933329999996684e+000	 7.333299999983332e+000	 9.911950522327635e+000
0	 1.933329999996684e+000	 7.399969999982151e+000	 9.914832977873342e+000
0	 1.933329999996684e+000	 7.466639999981867e+000	 9.917750564598601e+000
0	 1.933329999996684e+000	 7.533309999982384e+000	 9.920715400270712e+000
0	 1.933329999996684e+000	 7.599979999983602e+000	 9.923739602657049e+000
0	 1.933329999996684e+000	 7.666649999985416e+000	 9.926835289524918e+000
0	 1.933329999996684e+000	 7.733319999987734e+000	 9.930014578641645e+000
0	 1.933329999996684e+000	 7.799989999990451e+000	 9.933289587774576e+000
0	 1.933329999996684e+000	 7.866659999993467e+000	 9.936672434691054e+000
0	 1.933329999996684e+000	 7.933329999996685e+000	 9.940175237158394e+000
0	 1.933329999996683e+000	 8.000000000000000e+000	 9.943810112943931e+000
0	 2.000000000000000e+000	 7.333299999983335e+000	 9.917710878815823e+000
0	 2.000000000000000e+000	 7.399969999982151e+000	 9.920337469349754e+000
0	 2.000000000000000e+000	 7.466639999981867e+000	 9.923006967612681e+000
0	 2.000000000000000e+000	 7.533309999982384e+000	 9.925730539472255e+000
0	 2.000000000000000e+000	 7.599979999983599e+000	 9.928519350796117e+000
0	 2.000000000000000e+000	 7.666649999985416e+000	 9.931384567451909e+000
0	 2.000000000000000e+000	 7.733319999987733e+000	 9.934337355307282e+000
0	 2.000000000000000e+000	 7.799989999990449e+000	 9.937388880229884e+000
0	 2.000000000000000e+000	 7.866659999993466e+000	 9.940550308087358e+000
0	 2.000000000000000e+000	 7.933329999996684e+000	 9.943832804747361e+000
0	 2.000000000000000e+000	 7.999999999999999e+000	 9.947247536077544e+000
0	 1.333299999983334e+000	 8.000000000000000e+000	 9.916005387660794e+000
0	 1.333299999983334e+000	 8.066670000003317e+000	 9.920990649080837e+000
0	 1.333299999983334e+000	 8.133340000006532e+000	 9.925813104217765e+000
0	 1.333299999983334e+000	 8.200010000009550e+000	 9.930480549920864e+000
0	 1.333299999983334e+000	 8.266680000012268e+000	 9.935000783039428e+000
0	 1.333299999983334e+000	 8.333350000014587e+000	 9.939381600422713e+000
0	 1.333299999983334e+000	 8.400020000016399e+000	 9.943630798920005e+000
0	 1.333299999983334e+000	 8.466690000017618e+000	 9.947756175380563e+000
0	 1.333299999983334e+000	 8.533360000018135e+000	 9.951765526653650e+000
0	 1.333299999983334e+000	 8.600030000017851e+000	 9.955666649588546e+000
0	 1.333299999983334e+000	 8.666700000016666e+000	 9.959467341034493e+000
0	 1.399969999982150e+000	 7.999999999999999e+000	 9.918712857864442e+000
0	 1.399969999982150e+000	 8.066670000003315e+000	 9.923580167984428e+000
0	 1.399969999982150e+000	 8.133340000006530e+000	 9.928286711884656e+000
0	 1.399969999982150e+000	 8.200010000009547e+000	 9.932838724015312e+000
0	 1.399969999982150e+000	 8.266680000012268e+000	 9.937242438826493e+000
0	 1.399969999982150e+000	 8.333350000014583e+000	 9.941504090768389e+000
0	 1.399969999982150e+000	 8.400020000016399e+000	 9.945629914291114e+000
0	 1.399969999982150e+000	 8.466690000017616e+000	 9.949626143844817e+000
0	 1.399969999982150e+000	 8.533360000018131e+000	 9.953499013879650e+000
0	 1.399969999982150e+000	 8.600030000017849e+000	 9.957254758845739e+000
0	 1.399969999982150e+000	 8.666700000016668e+000	 9.960899613193208e+000
0	 1.466639999981866e+000	 8.000000000000000e+000	 9.921535946064550e+000
0	 1.466639999981866e+000	 8.066670000003317e+000	 9.926281175763169e+000
0	 1.466639999981866e+000	 8.133340000006534e+000	 9.930866686586665e+000
0	 1.466639999981867e+000	 8.200010000009552e+000	 9.935297353855344e+000
0	 1.466639999981867e+000	 8.266680000012267e+000	 9.939578052889491e+000
0	 1.466639999981866e+000	 8.333350000014585e+000	 9.943713659009410e+000
0	 1.466639999981866e+000	 8.400020000016401e+000	 9.947709047535343e+000
0	 1.466639999981866e+000	 8.466690000017618e+000	 9.951569093787617e+000
0	 1.466639999981867e+000	 8.533360000018135e+000	 9.955298673086492e+000
0	 1.466639999981866e+000	 8.600030000017849e+000	 9.958902660752260e+000
0	 1.466639999981866e+000	 8.666700000016666e+000	 9.962385932105162e+000
0	 1.533309999982383e+000	 8.000000000000000e+000	 9.924466024232308e+000
0	 1.533309999982383e+000	 8.066670000003315e+000	 9.929083317797735e+000
0	 1.533309999982383e+000	 8.133340000006529e+000	 9.933541316371763e+000
0	 1.533309999982383e+000	 8.200010000009552e+000	 9.937843739414104e+000
0	 1.533309999982383e+000	 8.266680000012267e+000	 9.941994306384460e+000
0	 1.533309999982383e+000	 8.333350000014583e+000	 9.945996736742512e+000
0	 1.533309999982383e+000	 8.400020000016401e+000	 9.949854749947994e+000
0	 1.533309999982383e+000	 8.466690000017614e+000	 9.953572065460557e+000
0	 1.533309999982383e+000	 8.533360000018135e+000	 9.957152402739915e+000
0	 1.533309999982383e+000	 8.600030000017849e+000	 9.960599481245735e+000
0	 1.533309999982383e+000	 8.666700000016666e+000	 9.963917020437744e+000
0	 1.599979999983600e+000	 8.000000000000000e+000	 9.927494464338830e+000
0	 1.599979999983600e+000	 8.066670000003319e+000	 9.931976239468799e+000
0	 1.599979999983600e+000	 8.133340000006534e+000	 9.936298889287942e+000
0	 1.599979999983599e+000	 8.200010000009550e+000	 9.940465180664710e+000
0	 1.599979999983600e+000	 8.266680000012267e+000	 9.944477880467431e+000
0	 1.599979999983600e+000	 8.333350000014585e+000	 9.948339755564504e+000
0	 1.599979999983600e+000	 8.400020000016401e+000	 9.952053572824310e+000
0	 1.599979999983600e+000	 8.466690000017616e+000	 9.955622099115226e+000
0	 1.599979999983599e+000	 8.533360000018133e+000	 9.959048101305626e+000
0	 1.599979999983600e+000	 8.600030000017853e+000	 9.962334346263882e+000
0	 1.599979999983600e+000	 8.666700000016668e+000	 9.965483600858356e+000
0	 1.666649999985416e+000	 8.000000000000000e+000	 9.930612638355305e+000
0	 1.666649999985417e+000	 8.066670000003317e+000	 9.934949586157016e+000
0	 1.666649999985417e+000	 8.133340000006534e+000	 9.939127693383213e+000
0	 1.666649999985416e+000	 8.200010000009549e+000	 9.943148977580226e+000
0	 1.666649999985417e+000	 8.266680000012268e+000	 9.947015456294400e+000
0	 1.666649999985416e+000	 8.333350000014587e+000	 9.950729147072083e+000
0	 1.666649999985416e+000	 8.400020000016403e+000	 9.954292067459594e+000
0	 1.666649999985416e+000	 8.466690000017614e+000	 9.957706235003249e+000
0	 1.666649999985416e+000	 8.533360000018133e+000	 9.960973667249389e+000
0	 1.666649999985416e+000	 8.600030000017849e+000	 9.964096381744335e+000
0	 1.666649999985417e+000	 8.666700000016666e+000	 9.967076396034411e+000
0	 1.733319999987733e+000	 7.999999999999999e+000	 9.933811918252909e+000
0	 1.733319999987733e+000	 8.066670000003317e+000	 9.937993003243077e+000
0	 1.733319999987733e+000	 8.133340000006534e+000	 9.942016016705518e+000
0	 1.733319999987733e+000	 8.200010000009554e+000	 9.945882430133784e+000
0	 1.733319999987733e+000	 8.266680000012268e+000	 9.949593715021432e+000
0	 1.733319999987733e+000	 8.333350000014583e+000	 9.953151342862018e+000
0	 1.733319999987733e+000	 8.400020000016401e+000	 9.956556785149084e+000
0	 1.733319999987733e+000	 8.466690000017618e+000	 9.959811513376224e+000
0	 1.733319999987733e+000	 8.533360000018135e+000	 9.962916999036931e+000
0	 1.733319999987733e+000	 8.600030000017851e+000	 9.965874713624782e+000
0	 1.733319999987733e+000	 8.666700000016668e+000	 9.968686128633330e+000
0	 1.799989999990450e+000	 8.000000000000002e+000	 9.937083676002770e+000
0	 1.799989999990450e+000	 8.066670000003319e+000	 9.941096136107650e+000
0	 1.799989999990450e+000	 8.133340000006534e+000	 9.944952147302868e+000
0	 1.799989999990450e+000	 8.200010000009554e+000	 9.948652838298475e+000
0	 1.799989999990450e+000	 8.266680000012265e+000	 9.952199337804521e+000
0	 1.799989999990450e+000	 8.333350000014585e+000	 9.955592774531052e+000
0	 1.799989999990450e+000	 8.400020000016399e+000	 9.958834277188103e+000
0	 1.799989999990450e+000	 8.466690000017616e+000	 9.961924974485733e+000
0	 1.799989999990450e+000	 8.533360000018133e+000	 9.964865995133989e+000
0	 1.799989999990450e+000	 8.600030000017851e+000	 9.967658467842895e+000
0	 1.799989999990450e+000	 8.666700000016666e+000	 9.970303521322498e+000
0	 1.866659999993467e+000	 7.999999999999998e+000	 9.940419283576055e+000
0	 1.866659999993467e+000	 8.066670000003315e+000	 9.944248630131405e+000
0	 1.866659999993467e+000	 8.133340000006532e+000	 9.947924373223259e+000
0	 1.866659999993467e+000	 8.200010000009552e+000	 9.951447502047405e+000
0	 1.866659999993467e+000	 8.266680000012267e+000	 9.954819005799697e+000
0	 1.866659999993467e+000	 8.333350000014582e+000	 9.958039873675924e+000
0	 1.866659999993467e+000	 8.400020000016401e+000	 9.961111094871885e+000
0	 1.866659999993467e+000	 8.466690000017618e+000	 9.964033658583407e+000
0	 1.866659999993467e+000	 8.533360000018137e+000	 9.966808554006292e+000
0	 1.866659999993467e+000	 8.600030000017849e+000	 9.969436770336325e+000
0	 1.866659999993466e+000	 8.666700000016663e+000	 9.971919296769336e+000
0	 1.933329999996683e+000	 8.000000000000000e+000	 9.943810112943931e+000
0	 1.933329999996684e+000	 8.066670000003313e+000	 9.947440130695014e+000
0	 1.933329999996683e+000	 8.133340000006534e+000	 9.950920982514646e+000
0	 1.933329999996684e+000	 8.200010000009552e+000	 9.954253721353696e+000
0	 1.933329999996683e+000	 8.266680000012267e+000	 9.957439400162985e+000
0	 1.933329999996684e+000	 8.333350000014585e+000	 9.960479071893390e+000
0	 1.933329999996684e+000	 8.400020000016401e+000	 9.963373789495719e+000
0	 1.933329999996684e+000	 8.466690000017614e+000	 9.966124605920838e+000
0	 1.933329999996684e+000	 8.533360000018135e+000	 9.968732574119569e+000
0	 1.933329999996683e+000	 8.600030000017849e+000	 9.971198747042767e+000
0	 1.933329999996684e+000	 8.666700000016666e+000	 9.973524177641254e+000
0	 2.000000000000000e+000	 7.999999999999999e+000	 9.947247536077544e+000
0	 2.000000000000000e+000	 8.066670000003319e+000	 9.950660283179131e+000
0	 2.000000000000000e+000	 8.133340000006534e+000	 9.953930263225038e+000
0	 2.000000000000000e+000	 8.200010000009549e+000	 9.957058796190410e+000
0	 2.000000000000000e+000	 8.266680000012267e+000	 9.960047202050415e+000
0	 2.000000000000000e+000	 8.333350000014585e+000	 9.962896800780186e+000
0	 1.999999999999999e+000	 8.400020000016397e+000	 9.965608912354870e+000
0	 2.000000000000000e+000	 8.466690000017618e+000	 9.968184856749613e+000
0	 2.000000000000000e+000	 8.533360000018131e+000	 9.970625953939559e+000
0	 2.000000000000000e+000	 8.600030000017851e+000	 9.972933523899856e+000
0	 2.000000000000000e+000	 8.666700000016666e+000	 9.975108886605637e+000
0	 1.333299999983334e+000	 8.666700000016666e+000	 9.959467341034491e+000
0	 1.333299999983334e+000	 8.733360002791903e+000	 9.963131869436431e+000
0	 1.333299999983334e+000	 8.800020022230553e+000	 9.966623277502176e+000
0	 1.333299999983334e+000	 8.866680074997040e+000	 9.969945835062429e+000
0	 1.333299999983334e+000	 8.933340177755781e+000	 9.973103812462979e+000
0	 1.333299999983334e+000	 9.000000347171181e+000	 9.976101480564726e+000
0	 1.333299999983334e+000	 9.066660599907669e+000	 9.978943110743566e+000
0	 1.333299999983334e+000	 9.133320952629656e+000	 9.981632974890475e+000
0	 1.333299999983334e+000	 9.199981422001560e+000	 9.984175345411495e+000
0	 1.333299999983334e+000	 9.266642024687796e+000	 9.986574495227632e+000
0	 1.333299999983334e+000	 9.333302777352785e+000	 9.988834697775010e+000
0	 1.399969999982150e+000	 8.666700000016668e+000	 9.960899613193208e+000
0	 1.399969999982150e+000	 8.733360002791905e+000	 9.964407035630547e+000
0	 1.399969999982150e+000	 8.800020022230555e+000	 9.967750563690906e+000
0	 1.399969999982150e+000	 8.866680074997044e+000	 9.970934934338816e+000
0	 1.399969999982150e+000	 8.933340177755778e+000	 9.973964885026431e+000
0	 1.399969999982150e+000	 9.000000347171181e+000	 9.976845153693434e+000
0	 1.399969999982150e+000	 9.066660599907667e+000	 9.979580478767220e+000
0	 1.399969999982150e+000	 9.133320952629653e+000	 9.982175599162668e+000
0	 1.399969999982150e+000	 9.199981422001560e+000	 9.984635254282333e+000
0	 1.399969999982150e+000	 9.266642024687794e+000	 9.986964184016275e+000
0	 1.399969999982150e+000	 9.333302777352783e+000	 9.989167128742112e+000
0	 1.466639999981866e+000	 8.666700000016666e+000	 9.962385932105162e+000
0	 1.466639999981867e+000	 8.733360002791901e+000	 9.965731291857061e+000
0	 1.466639999981866e+000	 8.800020022230552e+000	 9.968922729702662e+000
0	 1.466639999981867e+000	 8.866680074997040e+000	 9.971965357816162e+000
0	 1.466639999981867e+000	 8.933340177755781e+000	 9.974864288831395e+000
0	 1.466639999981866e+000	 9.000000347171183e+000	 9.977624635841774e+000
0	 1.466639999981866e+000	 9.066660599907669e+000	 9.980251512400381e+000
0	 1.466639999981866e+000	 9.133320952629655e+000	 9.982750032519951e+000
0	 1.466639999981867e+000	 9.199981422001558e+000	 9.985125310672752e+000
0	 1.466639999981867e+000	 9.266642024687799e+000	 9.987382461790681e+000
0	 1.466639999981866e+000	 9.333302777352783e+000	 9.989526601265215e+000
0	 1.533309999982383e+000	 8.666700000016666e+000	 9.963917020437744e+000
0	 1.533309999982383e+000	 8.733360002791901e+000	 9.967097016817190e+000
0	 1.533309999982383e+000	 8.800020022230557e+000	 9.970133560156452e+000
0	 1.533309999982383e+000	 8.866680074997040e+000	 9.973032045914465e+000
0	 1.533309999982383e+000	 8.933340177755779e+000	 9.975797869981703e+000
0	 1.533309999982383e+000	 9.000000347171184e+000	 9.978436428680142e+000
0	 1.533309999982383e+000	 9.066660599907669e+000	 9.980953118763281e+000
0	 1.533309999982383e+000	 9.133320952629656e+000	 9.983353337416119e+000
0	 1.533309999982383e+000	 9.199981422001560e+000	 9.985642482255189e+000
0	 1.533309999982383e+000	 9.266642024687798e+000	 9.987825951328425e+000
0	 1.533309999982383e+000	 9.333302777352783e+000	 9.989909143115300e+000
0	 1.599979999983600e+000	 8.666700000016668e+000	 9.965483600858356e+000
0	 1.599979999983600e+000	 8.733360002791901e+000	 9.968496589212144e+000
0	 1.599979999983600e+000	 8.800020022230555e+000	 9.971376839671253e+000
0	 1.599979999983600e+000	 8.866680074997042e+000	 9.974129939053711e+000
0	 1.599979999983600e+000	 8.933340177755779e+000	 9.976761474581187e+000
0	 1.599979999983600e+000	 9.000000347171183e+000	 9.979277033878999e+000
0	 1.599979999983600e+000	 9.066660599907669e+000	 9.981682204976087e+000
0	 1.599979999983599e+000	 9.133320952629655e+000	 9.983982576305067e+000
0	 1.599979999983600e+000	 9.199981422001557e+000	 9.986183736702113e+000
0	 1.599979999983600e+000	 9.266642024687799e+000	 9.988291275407024e+000
0	 1.599979999983600e+000	 9.333302777352785e+000	 9.990310782063245e+000
0	 1.666649999985417e+000	 8.666700000016666e+000	 9.967076396034409e+000
0	 1.666649999985416e+000	 8.733360002791903e+000	 9.969922387743116e+000
0	 1.666649999985417e+000	 8.800020022230555e+000	 9.972646352866077e+000
0	 1.666649999985417e+000	 8.866680074997042e+000	 9.975253977653891e+000
0	 1.666649999985416e+000	 8.933340177755779e+000	 9.977750948733636e+000
0	 1.666649999985416e+000	 9.000000347171183e+000	 9.980142953108759e+000
0	 1.666649999985417e+000	 9.066660599907669e+000	 9.982435678158998e+000
0	 1.666649999985417e+000	 9.133320952629658e+000	 9.984634811640566e+000
0	 1.666649999985416e+000	 9.199981422001558e+000	 9.986746041685960e+000
0	 1.666649999985416e+000	 9.266642024687796e+000	 9.988775056804039e+000
0	 1.666649999985417e+000	 9.333302777352783e+000	 9.990727545879983e+000
0	 1.733319999987733e+000	 8.666700000016668e+000	 9.968686128633326e+000
0	 1.733319999987733e+000	 8.733360002791901e+000	 9.971366791111331e+000
0	 1.733319999987733e+000	 8.800020022230557e+000	 9.973935884359864e+000
0	 1.733319999987733e+000	 8.866680074997044e+000	 9.976399102134986e+000
0	 1.733319999987733e+000	 8.933340177755776e+000	 9.978762138542880e+000
0	 1.733319999987733e+000	 9.000000347171181e+000	 9.981030688039819e+000
0	 1.733319999987733e+000	 9.066660599907671e+000	 9.983210445432210e+000
0	 1.733319999987733e+000	 9.133320952629653e+000	 9.985307105876476e+000
0	 1.733319999987733e+000	 9.199981422001558e+000	 9.987326364879197e+000
0	 1.733319999987733e+000	 9.266642024687798e+000	 9.989273918296973e+000
0	 1.733319999987734e+000	 9.333302777352785e+000	 9.991155462336446e+000
0	 1.799989999990450e+000	 8.666700000016666e+000	 9.970303521322498e+000
0	 1.799989999990450e+000	 8.733360002791903e+000	 9.972822178017974e+000
0	 1.799989999990450e+000	 8.800020022230557e+000	 9.975239218771648e+000
0	 1.799989999990450e+000	 8.866680074997042e+000	 9.977560252916993e+000
0	 1.799989999990450e+000	 8.933340177755776e+000	 9.979790890112707e+000
0	 1.799989999990450e+000	 9.000000347171181e+000	 9.981936740342665e+000
0	 1.799989999990450e+000	 9.066660599907669e+000	 9.984003413915909e+000
0	 1.799989999990450e+000	 9.133320952629656e+000	 9.985996521466650e+000
0	 1.799989999990450e+000	 9.199981422001560e+000	 9.987921673954281e+000
0	 1.799989999990450e+000	 9.266642024687798e+000	 9.989784482663373e+000
0	 1.799989999990450e+000	 9.333302777352781e+000	 9.991590559203566e+000
0	 1.866659999993466e+000	 8.666700000016663e+000	 9.971919296769336e+000
0	 1.866659999993467e+000	 8.733360002791903e+000	 9.974280927164241e+000
0	 1.866659999993466e+000	 8.800020022230553e+000	 9.976550140720374e+000
0	 1.866659999993467e+000	 8.866680074997042e+000	 9.978732370419898e+000
0	 1.866659999993467e+000	 8.933340177755779e+000	 9.980833049546943e+000
0	 1.866659999993467e+000	 9.000000347171183e+000	 9.982857611687695e+000
0	 1.866659999993467e+000	 9.066660599907667e+000	 9.984811490730278e+000
0	 1.866659999993467e+000	 9.133320952629656e+000	 9.986700120864899e+000
0	 1.866659999993467e+000	 9.199981422001557e+000	 9.988528936583682e+000
0	 1.866659999993467e+000	 9.266642024687796e+000	 9.990303372680762e+000
0	 1.866659999993467e+000	 9.333302777352783e+000	 9.992028864252211e+000
0	 1.933329999996684e+000	 8.666700000016666e+000	 9.973524177641254e+000
0	 1.933329999996683e+000	 8.733360002791899e+000	 9.975735417251329e+000
0	 1.933329999996683e+000	 8.800020022230555e+000	 9.977862434825070e+000
0	 1.933329999996684e+000	 8.866680074997040e+000	 9.979910395063683e+000
0	 1.933329999996684e+000	 8.933340177755781e+000	 9.981884462949397e+000
0	 1.933329999996684e+000	 9.000000347171183e+000	 9.983789803745323e+000
0	 1.933329999996684e+000	 9.066660599907669e+000	 9.985631582995536e+000
0	 1.933329999996683e+000	 9.133320952629656e+000	 9.987414966525067e+000
0	 1.933329999996684e+000	 9.199981422001557e+000	 9.989145120439826e+000
0	 1.933329999996684e+000	 9.266642024687798e+000	 9.990827211126687e+000
0	 1.933329999996684e+000	 9.333302777352785e+000	 9.992466405253387e+000
0	 2.000000000000000e+000	 8.666700000016666e+000	 9.975108886605637e+000
0	 2.000000000000000e+000	 8.733360002791905e+000	 9.977178026980461e+000
0	 2.000000000000000e+000	 8.800020022230555e+000	 9.979169885704685e+000
0	 2.000000000000000e+000	 8.866680074997039e+000	 9.981089267268356e+000
0	 2.000000000000000e+000	 8.933340177755779e+000	 9.982940976423869e+000
0	 2.000000000000000e+000	 9.000000347171183e+000	 9.984729818185974e+000
0	 2.000000000000000e+000	 9.066660599907667e+000	 9.986460597831846e+000
0	 2.000000000000000e+000	 9.133320952629653e+000	 9.988138120900981e+000
0	 2.000000000000000e+000	 9.199981422001558e+000	 9.989767193195197e+000
0	 2.000000000000000e+000	 9.266642024687796e+000	 9.991352620778683e+000
0	 2.000000000000000e+000	 9.333302777352783e+000	 9.992899209977946e+000
0	 1.333299999983334e+000	 9.333302777352785e+000	 9.988834697775012e+000
0	 1.333299999983334e+000	 9.399973674588177e+000	 9.990904747480652e+000
0	 1.333299999983334e+000	 9.466644621844619e+000	 9.992737890698660e+000
0	 1.333299999983334e+000	 9.533315502450002e+000	 9.994346062106004e+000
0	 1.333299999983334e+000	 9.599986199732198e+000	 9.995741191574370e+000
0	 1.333299999983334e+000	 9.666656597019093e+000	 9.996935204169358e+000
0	 1.333299999983334e+000	 9.733326577638575e+000	 9.997940020150246e+000
0	 1.333299999983334e+000	 9.799996024918523e+000	 9.998767554968774e+000
0	 1.333299999983334e+000	 9.866664822186824e+000	 9.999429719268449e+000
0	 1.333299999983334e+000	 9.933332852771356e+000	 9.999938418883430e+000
0	 1.333299999983334e+000	 1.000000000000000e+001	 1.000030555483746e+001
0	 1.399969999982150e+000	 9.333302777352783e+000	 9.989167128742109e+000
0	 1.399969999982150e+000	 9.399973674588177e+000	 9.991188636441128e+000
0	 1.399969999982150e+000	 9.466644621844623e+000	 9.992976855593234e+000
0	 1.399969999982150e+000	 9.533315502449998e+000	 9.994542887945412e+000
0	 1.399969999982150e+000	 9.599986199732197e+000	 9.995897830537265e+000
0	 1.399969999982150e+000	 9.666656597019095e+000	 9.997052775700492e+000
0	 1.399969999982150e+000	 9.733326577638573e+000	 9.998018811058177e+000
0	 1.399969999982150e+000	 9.799996024918523e+000	 9.998807019524151e+000
0	 1.399969999982150e+000	 9.866664822186824e+000	 9.999428479301809e+000
0	 1.399969999982150e+000	 9.933332852771354e+000	 9.999894263883435e+000
0	 1.399969999982150e+000	 1.000000000000000e+001	 1.000021544204857e+001
0	 1.466639999981866e+000	 9.333302777352783e+000	 9.989526601265213e+000
0	 1.466639999981867e+000	 9.399973674588177e+000	 9.991498007139091e+000
0	 1.466639999981867e+000	 9.466644621844619e+000	 9.993239799835239e+000
0	 1.466639999981867e+000	 9.533315502450003e+000	 9.994762295503193e+000
0	 1.466639999981867e+000	 9.599986199732198e+000	 9.996075805687751e+000
0	 1.466639999981867e+000	 9.666656597019093e+000	 9.997190637328252e+000
0	 1.466639999981867e+000	 9.733326577638577e+000	 9.998117092758015e+000
0	 1.466639999981867e+000	 9.799996024918523e+000	 9.998865469703603e+000
0	 1.466639999981867e+000	 9.866664822186822e+000	 9.999446061283752e+000
0	 1.466639999981867e+000	 9.933332852771354e+000	 9.999869156008563e+000
0	 1.466639999981866e+000	 1.000000000000000e+001	 1.000014503777830e+001
0	 1.533309999982383e+000	 9.333302777352783e+000	 9.989909143115298e+000
0	 1.533309999982383e+000	 9.399973674588175e+000	 9.991828242270113e+000
0	 1.533309999982383e+000	 9.466644621844619e+000	 9.993521611231126e+000
0	 1.533309999982383e+000	 9.533315502450002e+000	 9.994998827880533e+000
0	 1.533309999982383e+000	 9.599986199732197e+000	 9.996269465604424e+000
0	 1.533309999982383e+000	 9.666656597019092e+000	 9.997343093292175e+000
0	 1.533309999982383e+000	 9.733326577638577e+000	 9.998229275335717e+000
0	 1.533309999982383e+000	 9.799996024918526e+000	 9.998937571628883e+000
0	 1.533309999982383e+000	 9.866664822186824e+000	 9.999477537566524e+000
0	 1.533309999982383e+000	 9.933332852771354e+000	 9.999858724043406e+000
0	 1.533309999982383e+000	 1.000000000000000e+001	 1.000009067745321e+001
0	 1.599979999983600e+000	 9.333302777352785e+000	 9.990310782063242e+000
0	 1.599979999983600e+000	 9.399973674588175e+000	 9.992174724529750e+000
0	 1.599979999983600e+000	 9.466644621844617e+000	 9.993817177587379e+000
0	 1.599979999983600e+000	 9.533315502450000e+000	 9.995247028178584e+000
0	 1.599979999983600e+000	 9.599986199732197e+000	 9.996473158865955e+000
0	 1.599979999983600e+000	 9.666656597019097e+000	 9.997504447831766e+000
0	 1.599979999983600e+000	 9.733326577638575e+000	 9.998349768877196e+000
0	 1.599979999983600e+000	 9.799996024918524e+000	 9.999017991421866e+000
0	 1.599979999983600e+000	 9.866664822186824e+000	 9.999517980502480e+000
0	 1.599979999983600e+000	 9.933332852771352e+000	 9.999858596772461e+000
0	 1.599979999983600e+000	 1.000000000000000e+001	 1.000004869650022e+001
0	 1.666649999985417e+000	 9.333302777352783e+000	 9.990727545879981e+000
0	 1.666649999985416e+000	 9.399973674588177e+000	 9.992532836613524e+000
0	 1.666649999985416e+000	 9.466644621844619e+000	 9.994121386710500e+000
0	 1.666649999985417e+000	 9.533315502450002e+000	 9.995501439498492e+000
0	 1.666649999985416e+000	 9.599986199732197e+000	 9.996681234050961e+000
0	 1.666649999985416e+000	 9.666656597019090e+000	 9.997669005186520e+000
0	 1.666649999985417e+000	 9.733326577638577e+000	 9.998472983468528e+000
0	 1.666649999985416e+000	 9.799996024918523e+000	 9.999101395204205e+000
0	 1.666649999985416e+000	 9.866664822186824e+000	 9.999562462443981e+000
0	 1.666649999985416e+000	 9.933332852771352e+000	 9.999864402980061e+000
0	 1.666649999985417e+000	 1.000000000000000e+001	 1.000001543034598e+001
0	 1.733319999987734e+000	 9.333302777352785e+000	 9.991155462336444e+000
0	 1.733319999987733e+000	 9.399973674588175e+000	 9.992897961216972e+000
0	 1.733319999987733e+000	 9.466644621844623e+000	 9.994429126406896e+000
0	 1.733319999987733e+000	 9.533315502450002e+000	 9.995756604941420e+000
0	 1.733319999987733e+000	 9.599986199732198e+000	 9.996888039738016e+000
0	 1.733319999987733e+000	 9.666656597019095e+000	 9.997831069595911e+000
0	 1.733319999987733e+000	 9.733326577638579e+000	 9.998593329195606e+000
0	 1.733319999987734e+000	 9.799996024918524e+000	 9.999182449097857e+000
0	 1.733319999987733e+000	 9.866664822186820e+000	 9.999606055743259e+000
0	 1.733319999987733e+000	 9.933332852771352e+000	 9.999871771450788e+000
0	 1.733319999987733e+000	 1.000000000000000e+001	 9.999987214417237e+000
0	 1.799989999990450e+000	 9.333302777352781e+000	 9.991590559203562e+000
0	 1.799989999990450e+000	 9.399973674588177e+000	 9.993265481035675e+000
0	 1.799989999990450e+000	 9.466644621844617e+000	 9.994735284483113e+000
0	 1.799989999990450e+000	 9.533315502450003e+000	 9.996007067608518e+000
0	 1.799989999990450e+000	 9.599986199732193e+000	 9.997087924505765e+000
0	 1.799989999990450e+000	 9.666656597019097e+000	 9.997984945299475e+000
0	 1.799989999990450e+000	 9.733326577638577e+000	 9.998705216144371e+000
0	 1.799989999990450e+000	 9.799996024918524e+000	 9.999255819224512e+000
0	 1.799989999990450e+000	 9.866664822186824e+000	 9.999643832752637e+000
0	 1.799989999990450e+000	 9.933332852771352e+000	 9.999876330969080e+000
0	 1.799989999990450e+000	 1.000000000000000e+001	 9.999960384140744e+000
0	 1.866659999993467e+000	 9.333302777352783e+000	 9.992028864252211e+000
0	 1.866659999993467e+000	 9.399973674588173e+000	 9.993630778765141e+000
0	 1.866659999993467e+000	 9.466644621844623e+000	 9.995034748745550e+000
0	 1.866659999993467e+000	 9.533315502450003e+000	 9.996247370600919e+000
0	 1.866659999993467e+000	 9.599986199732197e+000	 9.997275236932850e+000
0	 1.866659999993467e+000	 9.666656597019093e+000	 9.998124936536710e+000
0	 1.866659999993466e+000	 9.733326577638575e+000	 9.998803054400845e+000
0	 1.866659999993467e+000	 9.799996024918523e+000	 9.999316171705985e+000
0	 1.866659999993467e+000	 9.866664822186822e+000	 9.999670865824484e+000
0	 1.866659999993467e+000	 9.933332852771352e+000	 9.999873710319326e+000
0	 1.866659999993467e+000	 1.000000000000000e+001	 9.999931274943082e+000
0	 1.933329999996684e+000	 9.333302777352785e+000	 9.992466405253389e+000
0	 1.933329999996684e+000	 9.399973674588178e+000	 9.993989237100964e+000
0	 1.933329999996684e+000	 9.466644621844621e+000	 9.995322407000728e+000
0	 1.933329999996684e+000	 9.533315502450000e+000	 9.996472057019767e+000
0	 1.933329999996684e+000	 9.599986199732197e+000	 9.997444325597904e+000
0	 1.933329999996684e+000	 9.666656597019093e+000	 9.998245347547060e+000
0	 1.933329999996684e+000	 9.733326577638575e+000	 9.998881254050959e+000
0	 1.933329999996684e+000	 9.799996024918524e+000	 9.999358172664088e+000
0	 1.933329999996684e+000	 9.866664822186822e+000	 9.999682227311139e+000
0	 1.933329999996684e+000	 9.933332852771352e+000	 9.999859538286071e+000
0	 1.933329999996684e+000	 1.000000000000000e+001	 9.999896222251161e+000
0	 2.000000000000000e+000	 9.333302777352783e+000	 9.992899209977948e+000
0	 2.000000000000000e+000	 9.399973674588177e+000	 9.994336238738658e+000
0	 2.000000000000000e+000	 9.466644621844621e+000	 9.995593147055098e+000
0	 2.000000000000000e+000	 9.533315502449998e+000	 9.996675669966257e+000
0	 2.000000000000000e+000	 9.599986199732198e+000	 9.997589539079479e+000
0	 2.000000000000000e+000	 9.666656597019093e+000	 9.998340482570081e+000
0	 2.000000000000000e+000	 9.733326577638575e+000	 9.998934225180683e+000
0	 2.000000000000000e+000	 9.799996024918524e+000	 9.999376488220564e+000
0	 2.000000000000000e+000	 9.866664822186822e+000	 9.999672989564854e+000
0	 2.000000000000000e+000	 9.933332852771352e+000	 9.999829443653784e+000
0	 2.000000000000000e+000	 1.000000000000000e+001	 9.999851561491720e+000
0	 2.000000000000000e+000	 0.000000000000000e+000	-4.379641603414542e+001
0	 2.000000000000000e+000	 6.666714722864757e-002	-3.967080675721788e+001
0	 2.000000000000000e+000	 1.333351778131789e-001	-3.552347545188554e+001
0	 2.000000000000000e+000	 2.000039750814773e-001	-3.137773807783633e+001
0	 2.000000000000000e+000	 2.666734223614256e-001	-2.725691348270579e+001
0	 2.000000000000000e+000	 3.333434029809069e-001	-2.318432340124061e+001
0	 2.000000000000000e+000	 4.000138002678043e-001	-1.918329245453808e+001
0	 2.000000000000000e+000	 4.666844975500010e-001	-1.527714814936126e+001
0	 2.000000000000000e+000	 5.333553781553803e-001	-1.148922087752997e+001
0	 2.000000000000000e+000	 6.000263254118246e-001	-7.842843915387577e+000
0	 2.000000000000000e+000	 6.666972226472177e-001	-4.361353423343373e+000
0	 2.066670000003316e+000	 0.000000000000000e+000	-4.841616979804856e+001
0	 2.066670000003316e+000	 6.666714722864756e-002	-4.393557617210524e+001
0	 2.066670000003317e+000	 1.333351778131789e-001	-3.938814688691664e+001
0	 2.066670000003318e+000	 2.000039750814773e-001	-3.480772201201597e+001
0	 2.066670000003317e+000	 2.666734223614255e-001	-3.022814497585718e+001
0	 2.066670000003317e+000	 3.333434029809069e-001	-2.568326256486975e+001
0	 2.066670000003317e+000	 4.000138002678045e-001	-2.120692492260140e+001
0	 2.066670000003317e+000	 4.666844975500010e-001	-1.683298554894898e+001
0	 2.066670000003316e+000	 5.333553781553803e-001	-1.259530129947760e+001
0	 2.066670000003317e+000	 6.000263254118247e-001	-8.527732384827816e+000
0	 2.066670000003317e+000	 6.666972226472175e-001	-4.664142370210780e+000
0	 2.133340000006534e+000	 0.000000000000000e+000	-5.343638280080852e+001
0	 2.133340000006534e+000	 6.666714722864753e-002	-4.846202462811419e+001
0	 2.133340000006534e+000	 1.333351778131789e-001	-4.340243466307762e+001
0	 2.133340000006534e+000	 2.000039750814772e-001	-3.829921975699573e+001
0	 2.133340000006534e+000	 2.666734223614256e-001	-3.319399058896060e+001
0	 2.133340000006534e+000	 3.333434029809069e-001	-2.812836166480578e+001
0	 2.133340000006534e+000	 4.000138002678044e-001	-2.314395131615330e+001
0	 2.133340000006534e+000	 4.666844975500012e-001	-1.828238169956110e+001
0	 2.133340000006534e+000	 5.333553781553801e-001	-1.358527879577087e+001
0	 2.133340000006535e+000	 6.000263254118247e-001	-9.094272409056314e+000
0	 2.133340000006534e+000	 6.666972226472177e-001	-4.850996166671808e+000
0	 2.200010000009550e+000	 0.000000000000000e+000	-5.876876924694243e+001
0	 2.200010000009550e+000	 6.666714722864756e-002	-5.317364466814998e+001
0	 2.200010000009551e+000	 1.333351778131789e-001	-4.750102315982386e+001
0	 2.200010000009550e+000	 2.000039750814772e-001	-4.179752110747484e+001
0	 2.200010000009551e+000	 2.666734223614255e-001	-3.610975918502275e+001
0	 2.200010000009551e+000	 3.333434029809069e-001	-3.048436235363726e+001
0	 2.200010000009550e+000	 4.000138002678043e-001	-2.496795986069127e+001
0	 2.200010000009550e+000	 4.666844975500011e-001	-1.960718523882694e+001
0	 2.200010000009551e+000	 5.333553781553804e-001	-1.444867630513418e+001
0	 2.200010000009551e+000	 6.000263254118248e-001	-9.539075160441596e+000
0	 2.200010000009551e+000	 6.666972226472177e-001	-4.925028188719987e+000
0	 2.266680000012268e+000	 0.000000000000000e+000	-6.432504334097216e+001
0	 2.266680000012267e+000	 6.666714722864756e-002	-5.799392883512119e+001
0	 2.266680000012268e+000	 1.333351778131789e-001	-5.161859675661319e+001
0	 2.266680000012268e+000	 2.000039750814772e-001	-4.524791585815404e+001
0	 2.266680000012267e+000	 2.666734223614255e-001	-3.893075962705122e+001
0	 2.266680000012268e+000	 3.333434029809069e-001	-3.271600628395313e+001
0	 2.266680000012267e+000	 4.000138002678044e-001	-2.665253878171277e+001
0	 2.266680000012268e+000	 4.666844975500011e-001	-2.078924480437557e+001
0	 2.266680000012268e+000	 5.333553781553801e-001	-1.517501676629156e+001
0	 2.266680000012268e+000	 6.000263254118248e-001	-9.858751811351695e+000
0	 2.266680000012268e+000	 6.666972226472177e-001	-4.889351812348330e+000
0	 2.333350000014584e+000	 0.000000000000000e+000	-7.001691928742433e+001
0	 2.333350000014584e+000	 6.666714722864756e-002	-6.284636967193982e+001
0	 2.333350000014585e+000	 1.333351778131789e-001	-5.568983983290574e+001
0	 2.333350000014585e+000	 2.000039750814772e-001	-4.859569380373551e+001
0	 2.333350000014584e+000	 2.666734223614256e-001	-4.161230077805432e+001
0	 2.333350000014584e+000	 3.333434029809068e-001	-3.478803510834263e+001
0	 2.333350000014584e+000	 4.000138002678044e-001	-2.817127630471524e+001
0	 2.333350000014585e+000	 4.666844975500012e-001	-2.181040903383579e+001
0	 2.333350000014584e+000	 5.333553781553804e-001	-1.575382311796664e+001
0	 2.333350000014584e+000	 6.000263254118247e-001	-1.004991353415419e+001
0	 2.333350000014584e+000	 6.666972226472177e-001	-4.747080413549377e+000
0	 2.400020000016401e+000	 0.000000000000000e+000	-7.575611129083022e+001
0	 2.400020000016401e+000	 6.666714722864756e-002	-6.765445972152139e+001
0	 2.400020000016401e+000	 1.333351778131790e-001	-5.964943676816404e+001
0	 2.400020000016400e+000	 2.000039750814772e-001	-5.178614473892299e+001
0	 2.400020000016401e+000	 2.666734223614256e-001	-4.410969150104126e+001
0	 2.400020000016401e+000	 3.333434029809069e-001	-3.666519047939532e+001
0	 2.400020000016401e+000	 4.000138002678044e-001	-2.949776065519608e+001
0	 2.400020000016401e+000	 4.666844975500011e-001	-2.265252656483613e+001
0	 2.400020000016400e+000	 5.333553781553801e-001	-1.617461829888266e+001
0	 2.400020000016402e+000	 6.000263254118247e-001	-1.010917150121617e+001
0	 2.400020000016400e+000	 6.666972226472178e-001	-4.501327368315127e+000
0	 2.466690000017618e+000	 0.000000000000000e+000	-8.145433355572594e+001
0	 2.466690000017618e+000	 6.666714722864757e-002	-7.234169152678471e+001
0	 2.466690000017617e+000	 1.333351778131789e-001	-6.343207194185290e+001
0	 2.466690000017618e+000	 2.000039750814773e-001	-5.476455845842165e+001
0	 2.466690000017618e+000	 2.666734223614256e-001	-4.637824065902211e+001
0	 2.466690000017618e+000	 3.333434029809068e-001	-3.831221404970113e+001
0	 2.466690000017617e+000	 4.000138002678044e-001	-3.060558005865269e+001
0	 2.466690000017617e+000	 4.666844975500011e-001	-2.329744603500491e+001
0	 2.466690000017618e+000	 5.333553781553803e-001	-1.642692524776242e+001
0	 2.466690000017618e+000	 6.000263254118246e-001	-1.003313688490427e+001
0	 2.466690000017618e+000	 6.666972226472177e-001	-4.155206052637116e+000
0	 2.533360000018134e+000	 0.000000000000000e+000	-8.702330028665226e+001
0	 2.533360000018134e+000	 6.666714722864753e-002	-7.683155763065213e+001
0	 2.533360000018134e+000	 1.333351778131789e-001	-6.697242973343947e+001
0	 2.533360000018133e+000	 2.000039750814772e-001	-5.747622475693813e+001
0	 2.533360000018134e+000	 2.666734223614255e-001	-4.837325711500766e+001
0	 2.533360000018134e+000	 3.333434029809068e-001	-3.969384747185026e+001
0	 2.533360000018134e+000	 4.000138002678043e-001	-3.146832274058243e+001
0	 2.533360000018134e+000	 4.666844975500011e-001	-2.372701608197012e+001
0	 2.533360000018134e+000	 5.333553781553804e-001	-1.650026690332836e+001
0	 2.533360000018134e+000	 6.000263254118248e-001	-9.818420857584627e+000
0	 2.533360000018134e+000	 6.666972226472177e-001	-3.711829842506351e+000
0	 2.600030000017850e+000	 0.000000000000000e+000	-9.237472568815475e+001
0	 2.600030000017850e+000	 6.666714722864756e-002	-8.104755057604923e+001
0	 2.600030000017851e+000	 1.333351778131790e-001	-7.020519452239330e+001
0	 2.600030000017851e+000	 2.000039750814772e-001	-5.986643342918070e+001
0	 2.600030000017850e+000	 2.666734223614255e-001	-5.005004973200958e+001
0	 2.600030000017851e+000	 3.333434029809069e-001	-4.077483239843331e+001
0	 2.600030000017850e+000	 4.000138002678045e-001	-3.205957692648264e+001
0	 2.600030000017851e+000	 4.666844975500011e-001	-2.392308534335956e+001
0	 2.600030000017851e+000	 5.333553781553803e-001	-1.638416620430249e+001
0	 2.600030000017850e+000	 6.000263254118247e-001	-9.461634591622923e+000
0	 2.600030000017851e+000	 6.666972226472178e-001	-3.174312113913341e+000
0	 2.666700000016666e+000	 0.000000000000000e+000	-9.742032396478365e+001
0	 2.666700000016666e+000	 6.666714722864756e-002	-8.491316290590528e+001
0	 2.666700000016666e+000	 1.333351778131789e-001	-7.306505068818625e+001
0	 2.666700000016666e+000	 2.000039750814772e-001	-6.188047426985892e+001
0	 2.666700000016666e+000	 2.666734223614255e-001	-5.136392737304039e+001
0	 2.666700000016666e+000	 3.333434029809069e-001	-4.151991048204114e+001
0	 2.666700000016666e+000	 4.000138002678045e-001	-3.235293084185064e+001
0	 2.666700000016666e+000	 4.666844975500011e-001	-2.386750245680072e+001
0	 2.666700000016666e+000	 5.333553781553803e-001	-1.606814608940645e+001
0	 2.666700000016666e+000	 6.000263254118247e-001	-8.959389259384370e+000
0	 2.666700000016666e+000	 6.666972226472175e-001	-2.545766242848106e+000
0	 2.000000000000000e+000	 6.666972226472177e-001	-4.361353423343373e+000
0	 2.000000000000000e+000	 7.333579753122048e-001	-1.041159905050483e+000
0	 2.000000000000000e+000	 8.000185779984418e-001	 2.126404545388396e+000
0	 2.000000000000000e+000	 8.666790473703454e-001	 5.124093474305181e+000
0	 2.000000000000000e+000	 9.333394000923323e-001	 7.934660760636765e+000
0	 2.000000000000000e+000	 9.999996528288190e-001	 1.054086061593713e+001
0	 2.000000000000000e+000	 1.066659822244222e+000	 1.292544758438826e+001
0	 2.000000000000000e+000	 1.133319925002958e+000	 1.507117654280986e+001
0	 2.000000000000000e+000	 1.199979977769445e+000	 1.696080270066761e+001
0	 2.000000000000000e+000	 1.266639997208097e+000	 1.857708160008046e+001
0	 2.000000000000000e+000	 1.333299999983334e+000	 1.990276911582643e+001
0	 2.066670000003317e+000	 6.666972226472175e-001	-4.664142370210780e+000
0	 2.066670000003317e+000	 7.333579753122047e-001	-1.005997105375731e+000
0	 2.066670000003316e+000	 8.000185779984413e-001	 2.457866146646648e+000
0	 2.066670000003316e+000	 8.666790473703450e-001	 5.710836920692183e+000
0	 2.066670000003317e+000	 9.333394000923323e-001	 8.736305140411794e+000
0	 2.066670000003317e+000	 9.999996528288190e-001	 1.151766111828516e+001
0	 2.066670000003317e+000	 1.066659822244222e+000	 1.403829555563276e+001
0	 2.066670000003317e+000	 1.133319925002959e+000	 1.628159954262668e+001
0	 2.066670000003316e+000	 1.199979977769445e+000	 1.823096455829973e+001
0	 2.066670000003318e+000	 1.266639997208098e+000	 1.986978247055323e+001
0	 2.066670000003317e+000	 1.333299999983333e+000	 2.118144553616333e+001
0	 2.133340000006534e+000	 6.666972226472177e-001	-4.850996166671808e+000
0	 2.133340000006534e+000	 7.333579753122046e-001	-8.597592324403514e-001
0	 2.133340000006534e+000	 8.000185779984417e-001	 2.893671642621424e+000
0	 2.133340000006534e+000	 8.666790473703452e-001	 6.393626520175221e+000
0	 2.133340000006534e+000	 9.333394000923321e-001	 9.624435907021093e+000
0	 2.133340000006534e+000	 9.999996528288190e-001	 1.257043075511247e+001
0	 2.133340000006534e+000	 1.066659822244222e+000	 1.521594246156958e+001
0	 2.133340000006534e+000	 1.133319925002959e+000	 1.754530286869111e+001
0	 2.133340000006534e+000	 1.199979977769445e+000	 1.954284426396423e+001
0	 2.133340000006534e+000	 1.266639997208098e+000	 2.119289938007297e+001
0	 2.133340000006534e+000	 1.333299999983334e+000	 2.247980139490492e+001
0	 2.200010000009551e+000	 6.666972226472177e-001	-4.925028188719987e+000
0	 2.200010000009551e+000	 7.333579753122049e-001	-6.113835810273908e-001
0	 2.200010000009551e+000	 8.000185779984419e-001	 3.419828524974162e+000
0	 2.200010000009550e+000	 8.666790473703452e-001	 7.154183264785745e+000
0	 2.200010000009550e+000	 9.333394000923322e-001	 1.057725627433014e+001
0	 2.200010000009550e+000	 9.999996528288191e-001	 1.367462368996831e+001
0	 2.200010000009551e+000	 1.066659822244222e+000	 1.643186214851392e+001
0	 2.200010000009551e+000	 1.133319925002959e+000	 1.883454878724603e+001
0	 2.200010000009551e+000	 1.199979977769445e+000	 2.086826124391997e+001
0	 2.200010000009551e+000	 1.266639997208098e+000	 2.251857765677619e+001
0	 2.200010000009552e+000	 1.333299999983334e+000	 2.377107666454737e+001
0	 2.266680000012268e+000	 6.666972226472177e-001	-4.889351812348330e+000
0	 2.266680000012267e+000	 7.333579753122047e-001	-2.698074459193714e-001
0	 2.266680000012267e+000	 8.000185779984413e-001	 4.022344285366783e+000
0	 2.266680000012267e+000	 8.666790473703453e-001	 7.974228146555631e+000
0	 2.266680000012268e+000	 9.333394000923323e-001	 1.157296945620490e+001
0	 2.266680000012268e+000	 9.999996528288190e-001	 1.480569408640231e+001
0	 2.266680000012268e+000	 1.066659822244222e+000	 1.765952846278130e+001
0	 2.266680000012268e+000	 1.133319925002958e+000	 2.012159956453466e+001
0	 2.266680000012267e+000	 1.199979977769445e+000	 2.217903492442609e+001
0	 2.266680000012268e+000	 1.266639997208098e+000	 2.381896262879963e+001
0	 2.266680000012267e+000	 1.333299999983334e+000	 2.502851131758708e+001
0	 2.333350000014584e+000	 6.666972226472177e-001	-4.747080413549377e+000
0	 2.333350000014585e+000	 7.333579753122047e-001	 1.560318781016772e-001
0	 2.333350000014585e+000	 8.000185779984416e-001	 4.687226415461743e+000
0	 2.333350000014584e+000	 8.666790473703452e-001	 8.835482157517298e+000
0	 2.333350000014585e+000	 9.333394000923322e-001	 1.258977866651175e+001
0	 2.333350000014584e+000	 9.999996528288191e-001	 1.593909610796448e+001
0	 2.333350000014585e+000	 1.066659822244222e+000	 1.887241525068762e+001
0	 2.333350000014584e+000	 1.133319925002959e+000	 2.137871746680052e+001
0	 2.333350000014585e+000	 1.199979977769445e+000	 2.344698473174197e+001
0	 2.333350000014585e+000	 1.266639997208098e+000	 2.506619962428019e+001
0	 2.333350000014584e+000	 1.333299999983334e+000	 2.622534532652056e+001
0	 2.400020000016400e+000	 6.666972226472178e-001	-4.501327368315127e+000
0	 2.400020000016402e+000	 7.333579753122050e-001	 6.571970962542392e-001
0	 2.400020000016400e+000	 8.000185779984415e-001	 5.400482406921968e+000
0	 2.400020000016401e+000	 8.666790473703453e-001	 9.719666289703584e+000
0	 2.400020000016401e+000	 9.333394000923321e-001	 1.360588711911751e+001
0	 2.400020000016401e+000	 9.999996528288186e-001	 1.705028391820527e+001
0	 2.400020000016402e+000	 1.066659822244223e+000	 2.004399635854913e+001
0	 2.400020000016400e+000	 1.133319925002958e+000	 2.257816476028741e+001
0	 2.400020000016401e+000	 1.199979977769445e+000	 2.464393009212723e+001
0	 2.400020000016401e+000	 1.266639997208098e+000	 2.623243397135505e+001
0	 2.400020000016401e+000	 1.333299999983334e+000	 2.733481866384449e+001
0	 2.466690000017618e+000	 6.666972226472177e-001	-4.155206052637116e+000
0	 2.466690000017618e+000	 7.333579753122049e-001	 1.224750913757316e+000
0	 2.466690000017617e+000	 8.000185779984419e-001	 6.148119751410894e+000
0	 2.466690000017618e+000	 8.666790473703456e-001	 1.060850153514783e+001
0	 2.466690000017618e+000	 9.333394000923322e-001	 1.459949802788948e+001
0	 2.466690000017618e+000	 9.999996528288190e-001	 1.811471168067553e+001
0	 2.466690000017617e+000	 1.066659822244222e+000	 2.114774563268246e+001
0	 2.466690000017617e+000	 1.133319925002959e+000	 2.369220371123946e+001
0	 2.466690000017618e+000	 1.199979977769445e+000	 2.574169043184179e+001
0	 2.466690000017617e+000	 1.266639997208098e+000	 2.728981099816153e+001
0	 2.466690000017618e+000	 1.333299999983334e+000	 2.833017130205578e+001
0	 2.533360000018134e+000	 6.666972226472177e-001	-3.711829842506351e+000
0	 2.533360000018134e+000	 7.333579753122047e-001	 1.849756035830398e+000
0	 2.533360000018134e+000	 8.000185779984416e-001	 6.916145940592465e+000
0	 2.533360000018134e+000	 8.666790473703454e-001	 1.148370888588384e+001
0	 2.533360000018134e+000	 9.333394000923322e-001	 1.554881460669535e+001
0	 2.533360000018134e+000	 9.999996528288191e-001	 1.910783355892647e+001
0	 2.533360000018134e+000	 1.066659822244222e+000	 2.215713691940453e+001
0	 2.533360000018134e+000	 1.133319925002959e+000	 2.469309658590110e+001
0	 2.533360000018134e+000	 1.199979977769445e+000	 2.671208517714579e+001
0	 2.533360000018134e+000	 1.266639997208098e+000	 2.821047603283721e+001
0	 2.533360000018134e+000	 1.333299999983334e+000	 2.918464321365146e+001
0	 2.600030000017851e+000	 6.666972226472178e-001	-3.174312113913341e+000
0	 2.600030000017851e+000	 7.333579753122048e-001	 2.523275167693514e+000
0	 2.600030000017851e+000	 8.000185779984418e-001	 7.690568466131102e+000
0	 2.600030000017851e+000	 8.666790473703451e-001	 1.232700933394594e+001
0	 2.600030000017851e+000	 9.333394000923320e-001	 1.643204006940330e+001
0	 2.600030000017851e+000	 9.999996528288191e-001	 2.000510371650976e+001
0	 2.600030000017851e+000	 1.066659822244223e+000	 2.304564406503267e+001
0	 2.600030000017850e+000	 1.133319925002959e+000	 2.555310565051705e+001
0	 2.600030000017851e+000	 1.199979977769445e+000	 2.752693375429962e+001
0	 2.600030000017851e+000	 1.266639997208098e+000	 2.896657440351989e+001
0	 2.600030000017851e+000	 1.333299999983334e+000	 2.987147437112872e+001
0	 2.666700000016666e+000	 6.666972226472175e-001	-2.545766242848106e+000
0	 2.666700000016666e+000	 7.333579753122047e-001	 3.236371014567177e+000
0	 2.666700000016666e+000	 8.000185779984416e-001	 8.457394819691755e+000
0	 2.666700000016666e+000	 8.666790473703453e-001	 1.312012387136886e+001
0	 2.666700000016666e+000	 9.333394000923323e-001	 1.722737762988193e+001
0	 2.666700000016665e+000	 9.999996528288190e-001	 2.078197631697743e+001
0	 2.666700000016666e+000	 1.066659822244222e+000	 2.378674091588456e+001
0	 2.666700000016667e+000	 1.133319925002959e+000	 2.624449317133240e+001
0	 2.666700000016667e+000	 1.199979977769445e+000	 2.815805558956397e+001
0	 2.666700000016666e+000	 1.266639997208098e+000	 2.953025143834751e+001
0	 2.666700000016667e+000	 1.333299999983334e+000	 3.036390474698498e+001
0	 2.000000000000000e+000	 1.333299999983334e+000	 1.990276911582643e+001
0	 2.000000000000000e+000	 1.399969999982150e+000	 2.093368598134059e+001
0	 2.000000000000000e+000	 1.466639999981866e+000	 2.168457684444745e+001
0	 2.000000000000000e+000	 1.533309999982383e+000	 2.216711234360875e+001
0	 2.000000000000000e+000	 1.599979999983599e+000	 2.239296311728440e+001
0	 2.000000000000000e+000	 1.666649999985416e+000	 2.237379980393249e+001
0	 2.000000000000000e+000	 1.733319999987733e+000	 2.212129304200920e+001
0	 2.000000000000000e+000	 1.799989999990450e+000	 2.164711346996888e+001
0	 2.000000000000000e+000	 1.866659999993467e+000	 2.096293172626409e+001
0	 2.000000000000000e+000	 1.933329999996683e+000	 2.008041844934543e+001
0	 2.000000000000000e+000	 2.000000000000000e+000	 1.901124427766175e+001
0	 2.066670000003317e+000	 1.333299999983333e+000	 2.118144553616333e+001
0	 2.066670000003317e+000	 1.399969999982150e+000	 2.218087738117447e+001
0	 2.066670000003317e+000	 1.466639999981867e+000	 2.290152533282543e+001
0	 2.066670000003317e+000	 1.533309999982383e+000	 2.335508169018303e+001
0	 2.066670000003317e+000	 1.599979999983599e+000	 2.355323875231217e+001
0	 2.066670000003317e+000	 1.666649999985416e+000	 2.350768881827591e+001
0	 2.066670000003317e+000	 1.733319999987733e+000	 2.323012418713544e+001
0	 2.066670000003317e+000	 1.799989999990450e+000	 2.273223715795011e+001
0	 2.066670000003317e+000	 1.866659999993466e+000	 2.202572002977742e+001
0	 2.066670000003317e+000	 1.933329999996683e+000	 2.112226510167300e+001
0	 2.066670000003317e+000	 2.000000000000000e+000	 2.003356467269068e+001
0	 2.133340000006534e+000	 1.333299999983334e+000	 2.247980139490492e+001
0	 2.133340000006534e+000	 1.399969999982150e+000	 2.343798984838695e+001
0	 2.133340000006534e+000	 1.466639999981866e+000	 2.411973134693891e+001
0	 2.133340000006534e+000	 1.533309999982383e+000	 2.453659509808744e+001
0	 2.133340000006534e+000	 1.599979999983600e+000	 2.470015030935741e+001
0	 2.133340000006534e+000	 1.666649999985416e+000	 2.462196618827177e+001
0	 2.133340000006534e+000	 1.733319999987733e+000	 2.431361194235167e+001
0	 2.133340000006534e+000	 1.799989999990450e+000	 2.378665677911631e+001
0	 2.133340000006534e+000	 1.866659999993466e+000	 2.305266990608321e+001
0	 2.133340000006534e+000	 1.933329999996683e+000	 2.212322053076784e+001
0	 2.133340000006534e+000	 2.000000000000000e+000	 2.100987786068395e+001
0	 2.200010000009552e+000	 1.333299999983334e+000	 2.377107666454737e+001
0	 2.200010000009551e+000	 1.399969999982150e+000	 2.467976418171627e+001
0	 2.200010000009551e+000	 1.466639999981867e+000	 2.531547968946443e+001
0	 2.200010000009551e+000	 1.533309999982383e+000	 2.568952455163344e+001
0	 2.200010000009550e+000	 1.599979999983599e+000	 2.581320013206296e+001
0	 2.200010000009551e+000	 1.666649999985416e+000	 2.569780779459080e+001
0	 2.200010000009550e+000	 1.733319999987732e+000	 2.535464890305295e+001
0	 2.200010000009551e+000	 1.799989999990449e+000	 2.479502482128350e+001
0	 2.200010000009550e+000	 1.866659999993466e+000	 2.403023691311476e+001
0	 2.200010000009550e+000	 1.933329999996683e+000	 2.307158654237711e+001
0	 2.200010000009551e+000	 2.000000000000000e+000	 2.193037507289912e+001
0	 2.266680000012267e+000	 1.333299999983334e+000	 2.502851131758708e+001
0	 2.266680000012268e+000	 1.399969999982150e+000	 2.588094117990065e+001
0	 2.266680000012267e+000	 1.466639999981867e+000	 2.646505516307873e+001
0	 2.266680000012268e+000	 1.533309999982383e+000	 2.679174203513265e+001
0	 2.266680000012267e+000	 1.599979999983599e+000	 2.687189056407182e+001
0	 2.266680000012268e+000	 1.666649999985416e+000	 2.671638951790386e+001
0	 2.266680000012268e+000	 1.733319999987733e+000	 2.633612766463450e+001
0	 2.266680000012268e+000	 1.799989999990449e+000	 2.574199377226764e+001
0	 2.266680000012267e+000	 1.866659999993466e+000	 2.494487660880542e+001
0	 2.266680000012267e+000	 1.933329999996683e+000	 2.395566494224797e+001
0	 2.266680000012268e+000	 2.000000000000000e+000	 2.278524754059369e+001
0	 2.333350000014584e+000	 1.333299999983334e+000	 2.622534532652055e+001
0	 2.333350000014585e+000	 1.399969999982150e+000	 2.701626164167855e+001
0	 2.333350000014585e+000	 1.466639999981867e+000	 2.754474257045861e+001
0	 2.333350000014584e+000	 1.533309999982383e+000	 2.782111953289673e+001
0	 2.333350000014584e+000	 1.599979999983599e+000	 2.785572394902702e+001
0	 2.333350000014584e+000	 1.666649999985416e+000	 2.765888723888178e+001
0	 2.333350000014584e+000	 1.733319999987732e+000	 2.724094082249152e+001
0	 2.333350000014584e+000	 1.799989999990449e+000	 2.661221611988486e+001
0	 2.333350000014585e+000	 1.866659999993466e+000	 2.578304455108858e+001
0	 2.333350000014584e+000	 1.933329999996683e+000	 2.476375753612767e+001
0	 2.333350000014584e+000	 2.000000000000000e+000	 2.356468649502525e+001
0	 2.400020000016401e+000	 1.333299999983334e+000	 2.733481866384450e+001
0	 2.400020000016402e+000	 1.399969999982151e+000	 2.806046636578856e+001
0	 2.400020000016401e+000	 1.466639999981867e+000	 2.853082671428100e+001
0	 2.400020000016401e+000	 1.533309999982382e+000	 2.875552902923744e+001
0	 2.400020000016401e+000	 1.599979999983599e+000	 2.874420263057165e+001
0	 2.400020000016401e+000	 1.666649999985416e+000	 2.850647683819557e+001
0	 2.400020000016401e+000	 1.733319999987733e+000	 2.805198097201928e+001
0	 2.400020000016401e+000	 1.799989999990450e+000	 2.739034435195119e+001
0	 2.400020000016400e+000	 1.866659999993466e+000	 2.653119629789768e+001
0	 2.400020000016401e+000	 1.933329999996683e+000	 2.548416612976348e+001
0	 2.400020000016401e+000	 2.000000000000000e+000	 2.425888316745140e+001
0	 2.466690000017618e+000	 1.333299999983334e+000	 2.833017130205578e+001
0	 2.466690000017618e+000	 1.399969999982150e+000	 2.898829615096934e+001
0	 2.466690000017618e+000	 1.466639999981867e+000	 2.939959239722296e+001
0	 2.466690000017618e+000	 1.533309999982383e+000	 2.957284250846670e+001
0	 2.466690000017617e+000	 1.599979999983599e+000	 2.951682895234896e+001
0	 2.466690000017618e+000	 1.666649999985416e+000	 2.924033419651619e+001
0	 2.466690000017617e+000	 1.733319999987733e+000	 2.875214070861318e+001
0	 2.466690000017617e+000	 1.799989999990449e+000	 2.806103095628281e+001
0	 2.466690000017617e+000	 1.866659999993466e+000	 2.717578740716620e+001
0	 2.466690000017618e+000	 1.933329999996684e+000	 2.610519252890266e+001
0	 2.466690000017618e+000	 2.000000000000000e+000	 2.485802878912968e+001
0	 2.533360000018134e+000	 1.333299999983334e+000	 2.918464321365146e+001
0	 2.533360000018133e+000	 1.399969999982150e+000	 2.977449179595977e+001
0	 2.533360000018134e+000	 1.466639999981867e+000	 3.012732442196158e+001
0	 2.533360000018134e+000	 1.533309999982383e+000	 3.025093195489645e+001
0	 2.533360000018134e+000	 1.599979999983599e+000	 3.015310525800217e+001
0	 2.533360000018134e+000	 1.666649999985416e+000	 2.984163519451480e+001
0	 2.533360000018134e+000	 1.733319999987733e+000	 2.932431262766859e+001
0	 2.533360000018134e+000	 1.799989999990450e+000	 2.860892842069597e+001
0	 2.533360000018134e+000	 1.866659999993466e+000	 2.770327343682762e+001
0	 2.533360000018134e+000	 1.933329999996683e+000	 2.661513853929250e+001
0	 2.533360000018134e+000	 2.000000000000000e+000	 2.535231459131773e+001
0	 2.600030000017851e+000	 1.333299999983334e+000	 2.987147437112872e+001
0	 2.600030000017851e+000	 1.399969999982150e+000	 3.039379409949882e+001
0	 2.600030000017850e+000	 1.466639999981866e+000	 3.069030759117418e+001
0	 2.600030000017850e+000	 1.533309999982383e+000	 3.076766935283873e+001
0	 2.600030000017850e+000	 1.599979999983599e+000	 3.063253389117470e+001
0	 2.600030000017851e+000	 1.666649999985416e+000	 3.029155571286255e+001
0	 2.600030000017851e+000	 1.733319999987733e+000	 2.975138932458093e+001
0	 2.600030000017850e+000	 1.799989999990449e+000	 2.901868923300687e+001
0	 2.600030000017851e+000	 1.866659999993466e+000	 2.810010994481554e+001
0	 2.600030000017850e+000	 1.933329999996683e+000	 2.700230596668039e+001
0	 2.600030000017851e+000	 2.000000000000000e+000	 2.573193180527315e+001
0	 2.666700000016667e+000	 1.333299999983334e+000	 3.036390474698498e+001
0	 2.666700000016667e+000	 1.399969999982150e+000	 3.082094386032562e+001
0	 2.666700000016666e+000	 1.466639999981867e+000	 3.106482670753813e+001
0	 2.666700000016667e+000	 1.533309999982383e+000	 3.110092668660573e+001
0	 2.666700000016667e+000	 1.599979999983600e+000	 3.093461719550995e+001
0	 2.666700000016665e+000	 1.666649999985416e+000	 3.057127163223061e+001
0	 2.666700000016667e+000	 1.733319999987733e+000	 3.001626339474580e+001
0	 2.666700000016667e+000	 1.799989999990450e+000	 2.927496588103186e+001
0	 2.666700000016666e+000	 1.866659999993466e+000	 2.835275248906353e+001
0	 2.666700000016667e+000	 1.933329999996683e+000	 2.725499661681369e+001
0	 2.666700000016667e+000	 2.000000000000000e+000	 2.598707166225360e+001
0	 2.000000000000000e+000	 2.000000000000000e+000	 1.901124427766175e+001
0	 2.000000000000000e+000	 2.066670000003317e+000	 1.785801111699670e+001
0	 2.000000000000000e+000	 2.133340000006534e+000	 1.672014711137137e+001
0	 2.000000000000000e+000	 2.200010000009551e+000	 1.560456225658918e+001
0	 2.000000000000000e+000	 2.266680000012268e+000	 1.451816654845329e+001
0	 2.000000000000000e+000	 2.333350000014584e+000	 1.346786998276670e+001
0	 2.000000000000000e+000	 2.400020000016401e+000	 1.246058255533222e+001
0	 2.000000000000000e+000	 2.466690000017618e+000	 1.150321426195245e+001
0	 2.000000000000000e+000	 2.533360000018133e+000	 1.060267509842974e+001
0	 2.000000000000000e+000	 2.600030000017851e+000	 9.765875060566312e+000
0	 2.000000000000000e+000	 2.666700000016667e+000	 8.999724144164192e+000
0	 2.066670000003317e+000	 2.000000000000000e+000	 2.003356467269068e+001
0	 2.066670000003317e+000	 2.066670000003317e+000	 1.886368152651681e+001
0	 2.066670000003317e+000	 2.133340000006534e+000	 1.771272956925073e+001
0	 2.066670000003317e+000	 2.200010000009551e+000	 1.658647778356400e+001
0	 2.066670000003317e+000	 2.266680000012268e+000	 1.549069515212802e+001
0	 2.066670000003316e+000	 2.333350000014584e+000	 1.443115065761402e+001
0	 2.066670000003318e+000	 2.400020000016401e+000	 1.341361328269308e+001
0	 2.066670000003317e+000	 2.466690000017617e+000	 1.244385201003609e+001
0	 2.066670000003317e+000	 2.533360000018134e+000	 1.152763582231377e+001
0	 2.066670000003317e+000	 2.600030000017850e+000	 1.067073370219661e+001
0	 2.066670000003317e+000	 2.666700000016667e+000	 9.878914632355023e+000
0	 2.133340000006534e+000	 2.000000000000000e+000	 2.100987786068395e+001
0	 2.133340000006534e+000	 2.066670000003317e+000	 1.981825778027010e+001
0	 2.133340000006534e+000	 2.133340000006534e+000	 1.864941324736201e+001
0	 2.133340000006534e+000	 2.200010000009551e+000	 1.750806907956755e+001
0	 2.133340000006534e+000	 2.266680000012268e+000	 1.639895009449442e+001
0	 2.133340000006534e+000	 2.333350000014584e+000	 1.532678110975025e+001
0	 2.133340000006534e+000	 2.400020000016400e+000	 1.429628694294250e+001
0	 2.133340000006534e+000	 2.466690000017617e+000	 1.331219241167846e+001
0	 2.133340000006534e+000	 2.533360000018133e+000	 1.237922233356532e+001
0	 2.133340000006534e+000	 2.600030000017851e+000	 1.150210152621008e+001
0	 2.133340000006534e+000	 2.666700000016666e+000	 1.068555480721968e+001
0	 2.200010000009551e+000	 2.000000000000000e+000	 2.193037507289912e+001
0	 2.200010000009551e+000	 2.066670000003317e+000	 2.071376997643879e+001
0	 2.200010000009551e+000	 2.133340000006534e+000	 1.952392281594429e+001
0	 2.200010000009551e+000	 2.200010000009551e+000	 1.836461109202786e+001
0	 2.200010000009551e+000	 2.266680000012268e+000	 1.723961230530170e+001
0	 2.200010000009550e+000	 2.333350000014583e+000	 1.615270395637786e+001
0	 2.200010000009550e+000	 2.400020000016400e+000	 1.510766354586835e+001
0	 2.200010000009551e+000	 2.466690000017618e+000	 1.410826857438502e+001
0	 2.200010000009550e+000	 2.533360000018133e+000	 1.315829654253963e+001
0	 2.200010000009551e+000	 2.600030000017851e+000	 1.226152495094386e+001
0	 2.200010000009551e+000	 2.666700000016666e+000	 1.142173130020925e+001
0	 2.266680000012268e+000	 2.000000000000000e+000	 2.278524754059369e+001
0	 2.266680000012267e+000	 2.066670000003317e+000	 2.154224821320510e+001
0	 2.266680000012267e+000	 2.133340000006534e+000	 2.032998294523658e+001
0	 2.266680000012267e+000	 2.200010000009550e+000	 1.915137876837293e+001
0	 2.266680000012267e+000	 2.266680000012267e+000	 1.800936271429893e+001
0	 2.266680000012268e+000	 2.333350000014584e+000	 1.690686181469922e+001
0	 2.266680000012267e+000	 2.400020000016400e+000	 1.584680310125843e+001
0	 2.266680000012267e+000	 2.466690000017617e+000	 1.483211360566109e+001
0	 2.266680000012268e+000	 2.533360000018134e+000	 1.386572035959173e+001
0	 2.266680000012268e+000	 2.600030000017851e+000	 1.295055039473473e+001
0	 2.266680000012268e+000	 2.666700000016667e+000	 1.208953074277451e+001
0	 2.333350000014584e+000	 2.000000000000000e+000	 2.356468649502525e+001
0	 2.333350000014584e+000	 2.066670000003316e+000	 2.229572258875122e+001
0	 2.333350000014585e+000	 2.133340000006534e+000	 2.106131830547790e+001
0	 2.333350000014585e+000	 2.200010000009551e+000	 1.986364705603075e+001
0	 2.333350000014584e+000	 2.266680000012267e+000	 1.870488225123519e+001
0	 2.333350000014584e+000	 2.333350000014584e+000	 1.758719730191659e+001
0	 2.333350000014584e+000	 2.400020000016401e+000	 1.651276561890035e+001
0	 2.333350000014584e+000	 2.466690000017617e+000	 1.548376061301185e+001
0	 2.333350000014585e+000	 2.533360000018134e+000	 1.450235569507641e+001
0	 2.333350000014585e+000	 2.600030000017851e+000	 1.357072427591939e+001
0	 2.333350000014584e+000	 2.666700000016666e+000	 1.269103976636606e+001
0	 2.400020000016401e+000	 2.000000000000000e+000	 2.425888316745140e+001
0	 2.400020000016401e+000	 2.066670000003317e+000	 2.296622320125941e+001
0	 2.400020000016400e+000	 2.133340000006534e+000	 2.171165356690726e+001
0	 2.400020000016401e+000	 2.200010000009550e+000	 2.049669090242920e+001
0	 2.400020000016401e+000	 2.266680000012267e+000	 1.932285184585941e+001
0	 2.400020000016401e+000	 2.333350000014584e+000	 1.819165303523215e+001
0	 2.400020000016401e+000	 2.400020000016400e+000	 1.710461110858167e+001
0	 2.400020000016401e+000	 2.466690000017617e+000	 1.606324270394230e+001
0	 2.400020000016401e+000	 2.533360000018134e+000	 1.506906445934838e+001
0	 2.400020000016402e+000	 2.600030000017852e+000	 1.412359301283423e+001
0	 2.400020000016401e+000	 2.666700000016666e+000	 1.322834500243425e+001
0	 2.466690000017618e+000	 2.000000000000000e+000	 2.485802878912968e+001
0	 2.466690000017618e+000	 2.066670000003317e+000	 2.354578014891184e+001
0	 2.466690000017617e+000	 2.133340000006534e+000	 2.227471339976363e+001
0	 2.466690000017618e+000	 2.200010000009551e+000	 2.104578525499612e+001
0	 2.466690000017618e+000	 2.266680000012268e+000	 1.985995242792048e+001
0	 2.466690000017617e+000	 2.333350000014584e+000	 1.871817163184791e+001
0	 2.466690000017617e+000	 2.400020000016400e+000	 1.762139958008974e+001
0	 2.466690000017618e+000	 2.466690000017618e+000	 1.657059298595730e+001
0	 2.466690000017617e+000	 2.533360000018134e+000	 1.556670856276206e+001
0	 2.466690000017618e+000	 2.600030000017851e+000	 1.461070302381549e+001
0	 2.466690000017618e+000	 2.666700000016666e+000	 1.370353308242921e+001
0	 2.533360000018134e+000	 2.000000000000000e+000	 2.535231459131773e+001
0	 2.533360000018134e+000	 2.066670000003317e+000	 2.402642352989075e+001
0	 2.533360000018134e+000	 2.133340000006534e+000	 2.274422247428592e+001
0	 2.533360000018134e+000	 2.200010000009550e+000	 2.150620506115933e+001
0	 2.533360000018134e+000	 2.266680000012268e+000	 2.031286492716720e+001
0	 2.533360000018135e+000	 2.333350000014585e+000	 1.916469570896587e+001
0	 2.533360000018134e+000	 2.400020000016401e+000	 1.806219104321179e+001
0	 2.533360000018134e+000	 2.466690000017617e+000	 1.700584456656150e+001
0	 2.533360000018134e+000	 2.533360000018134e+000	 1.599614991567171e+001
0	 2.533360000018134e+000	 2.600030000017850e+000	 1.503360072719919e+001
0	 2.533360000018134e+000	 2.666700000016666e+000	 1.411869063780083e+001
0	 2.600030000017851e+000	 2.000000000000000e+000	 2.573193180527315e+001
0	 2.600030000017850e+000	 2.066670000003317e+000	 2.440018344237835e+001
0	 2.600030000017851e+000	 2.133340000006534e+000	 2.311390546071307e+001
0	 2.600030000017851e+000	 2.200010000009550e+000	 2.187322526834657e+001
0	 2.600030000017850e+000	 2.266680000012267e+000	 2.067827027334830e+001
0	 2.600030000017850e+000	 2.333350000014584e+000	 1.952916788378785e+001
0	 2.600030000017851e+000	 2.400020000016400e+000	 1.842604550773494e+001
0	 2.600030000017850e+000	 2.466690000017618e+000	 1.736903055325947e+001
0	 2.600030000017850e+000	 2.533360000018134e+000	 1.635825042843146e+001
0	 2.600030000017851e+000	 2.600030000017851e+000	 1.539383254132112e+001
0	 2.600030000017850e+000	 2.666700000016666e+000	 1.447590429999879e+001
0	 2.666700000016667e+000	 2.000000000000000e+000	 2.598707166225360e+001
0	 2.666700000016667e+000	 2.066670000003317e+000	 2.465908998455682e+001
0	 2.666700000016666e+000	 2.133340000006534e+000	 2.337748702928396e+001
0	 2.666700000016666e+000	 2.200010000009550e+000	 2.214212082398557e+001
0	 2.666700000016667e+000	 2.266680000012268e+000	 2.095284939621246e+001
0	 2.666700000016666e+000	 2.333350000014584e+000	 1.980953077351561e+001
0	 2.666700000016667e+000	 2.400020000016401e+000	 1.871202298344618e+001
0	 2.666700000016666e+000	 2.466690000017618e+000	 1.766018405355553e+001
0	 2.666700000016666e+000	 2.533360000018134e+000	 1.665387201139519e+001
0	 2.666700000016666e+000	 2.600030000017850e+000	 1.569294488451688e+001
0	 2.666700000016667e+000	 2.666700000016667e+000	 1.477726070047253e+001
0	 2.000000000000000e+000	 2.666700000016667e+000	 8.999724144164196e+000
0	 2.000000000000000e+000	 2.733360000014533e+000	 8.331200921583577e+000
0	 2.000000000000000e+000	 2.800020000011600e+000	 7.777407851356974e+000
0	 2.000000000000000e+000	 2.866680000008067e+000	 7.330768577514070e+000
0	 2.000000000000000e+000	 2.933340000004133e+000	 6.983706744084153e+000
0	 2.000000000000000e+000	 3.000000000000000e+000	 6.728645995096104e+000
0	 2.000000000000000e+000	 3.066659999995867e+000	 6.558009974578351e+000
0	 2.000000000000000e+000	 3.133319999991934e+000	 6.464222326558966e+000
0	 2.000000000000000e+000	 3.199979999988400e+000	 6.439706695065616e+000
0	 2.000000000000000e+000	 3.266639999985468e+000	 6.476886724125532e+000
0	 2.000000000000000e+000	 3.333299999983334e+000	 6.568186057765540e+000
0	 2.066670000003317e+000	 2.666700000016667e+000	 9.878914632355027e+000
0	 2.066670000003318e+000	 2.733360000014533e+000	 9.179905538564526e+000
0	 2.066670000003317e+000	 2.800020000011600e+000	 8.592739282161830e+000
0	 2.066670000003316e+000	 2.866680000008066e+000	 8.110484541666571e+000
0	 2.066670000003317e+000	 2.933340000004133e+000	 7.726209995597972e+000
0	 2.066670000003318e+000	 3.000000000000000e+000	 7.432984322474651e+000
0	 2.066670000003317e+000	 3.066659999995867e+000	 7.223876200814719e+000
0	 2.066670000003317e+000	 3.133319999991933e+000	 7.091954309135841e+000
0	 2.066670000003317e+000	 3.199979999988401e+000	 7.030287325955078e+000
0	 2.066670000003317e+000	 3.266639999985467e+000	 7.031943929789024e+000
0	 2.066670000003317e+000	 3.333299999983333e+000	 7.089992799153762e+000
0	 2.133340000006534e+000	 2.666700000016666e+000	 1.068555480721968e+001
0	 2.133340000006534e+000	 2.733360000014533e+000	 9.957724383164042e+000
0	 2.133340000006534e+000	 2.800020000011600e+000	 9.339159074056852e+000
0	 2.133340000006534e+000	 2.866680000008067e+000	 8.823546708146557e+000
0	 2.133340000006534e+000	 2.933340000004133e+000	 8.404575113681000e+000
0	 2.133340000006535e+000	 3.000000000000001e+000	 8.075932118907380e+000
0	 2.133340000006534e+000	 3.066659999995868e+000	 7.831305552072291e+000
0	 2.133340000006534e+000	 3.133319999991934e+000	 7.664383241421687e+000
0	 2.133340000006534e+000	 3.199979999988401e+000	 7.568853015200888e+000
0	 2.133340000006534e+000	 3.266639999985467e+000	 7.538402701654624e+000
0	 2.133340000006534e+000	 3.333299999983334e+000	 7.566720129026977e+000
0	 2.200010000009551e+000	 2.666700000016666e+000	 1.142173130020924e+001
0	 2.200010000009551e+000	 2.733360000014533e+000	 1.066717366680989e+001
0	 2.200010000009551e+000	 2.800020000011601e+000	 1.001953618745260e+001
0	 2.200010000009550e+000	 2.866680000008066e+000	 9.473099955353360e+000
0	 2.200010000009550e+000	 2.933340000004133e+000	 9.022146063727472e+000
0	 2.200010000009551e+000	 3.000000000000000e+000	 8.660955605789464e+000
0	 2.200010000009550e+000	 3.066659999995866e+000	 8.383809674753159e+000
0	 2.200010000009550e+000	 3.133319999991934e+000	 8.184989363831626e+000
0	 2.200010000009551e+000	 3.199979999988400e+000	 8.058775766237224e+000
0	 2.200010000009551e+000	 3.266639999985467e+000	 7.999449975181586e+000
0	 2.200010000009551e+000	 3.333299999983335e+000	 8.001293083875620e+000
0	 2.266680000012268e+000	 2.666700000016667e+000	 1.208953074277451e+001
0	 2.266680000012267e+000	 2.733360000014533e+000	 1.131076960092959e+001
0	 2.266680000012267e+000	 2.800020000011599e+000	 1.063673958275935e+001
0	 2.266680000012267e+000	 2.866680000008067e+000	 1.006228916168613e+001
0	 2.266680000012268e+000	 2.933340000004134e+000	 9.582266811131378e+000
0	 2.266680000012268e+000	 3.000000000000000e+000	 9.191521004515774e+000
0	 2.266680000012268e+000	 3.066659999995868e+000	 8.884900215259142e+000
0	 2.266680000012268e+000	 3.133319999991934e+000	 8.657252916780472e+000
0	 2.266680000012267e+000	 3.199979999988400e+000	 8.503427582497947e+000
0	 2.266680000012268e+000	 3.266639999985468e+000	 8.418272685828908e+000
0	 2.266680000012267e+000	 3.333299999983333e+000	 8.396636700189896e+000
0	 2.333350000014584e+000	 2.666700000016666e+000	 1.269103976636606e+001
0	 2.333350000014584e+000	 2.733360000014533e+000	 1.189102839695043e+001
0	 2.333350000014585e+000	 2.800020000011600e+000	 1.119363822038716e+001
0	 2.333350000014584e+000	 2.866680000008067e+000	 1.059425920554368e+001
0	 2.333350000014585e+000	 2.933340000004134e+000	 1.008828132128641e+001
0	 2.333350000014585e+000	 3.000000000000000e+000	 9.671094536480929e+000
0	 2.333350000014585e+000	 3.066659999995868e+000	 9.338088819991814e+000
0	 2.333350000014584e+000	 3.133319999991934e+000	 9.084654140682817e+000
0	 2.333350000014585e+000	 3.199979999988401e+000	 8.906180467416709e+000
0	 2.333350000014585e+000	 3.266639999985466e+000	 8.798057769055356e+000
0	 2.333350000014584e+000	 3.333299999983333e+000	 8.755676014459727e+000
0	 2.400020000016401e+000	 2.666700000016666e+000	 1.322834500243426e+001
0	 2.400020000016402e+000	 2.733360000014533e+000	 1.241046626629945e+001
0	 2.400020000016401e+000	 2.800020000011600e+000	 1.169310106074583e+001
0	 2.400020000016401e+000	 2.866680000008067e+000	 1.107215496532461e+001
0	 2.400020000016402e+000	 2.933340000004134e+000	 1.054353355958600e+001
0	 2.400020000016401e+000	 2.999999999999999e+000	 1.010314242307922e+001
0	 2.400020000016402e+000	 3.066659999995868e+000	 9.746887135352464e+000
0	 2.400020000016401e+000	 3.133319999991934e+000	 9.470673275952953e+000
0	 2.400020000016401e+000	 3.199979999988401e+000	 9.270406424426883e+000
0	 2.400020000016401e+000	 3.266639999985467e+000	 9.141992160319447e+000
0	 2.400020000016401e+000	 3.333299999983334e+000	 9.081336063174847e+000
0	 2.466690000017618e+000	 2.666700000016666e+000	 1.370353308242921e+001
0	 2.466690000017617e+000	 2.733360000014533e+000	 1.287159942040344e+001
0	 2.466690000017618e+000	 2.800020000011601e+000	 1.213799706424484e+001
0	 2.466690000017618e+000	 2.866680000008067e+000	 1.149912131942722e+001
0	 2.466690000017618e+000	 2.933340000004134e+000	 1.095136749142329e+001
0	 2.466690000017618e+000	 3.000000000000000e+000	 1.049113088570474e+001
0	 2.466690000017617e+000	 3.066659999995866e+000	 1.011480680774212e+001
0	 2.466690000017617e+000	 3.133319999991934e+000	 9.818790563004921e+000
0	 2.466690000017618e+000	 3.199979999988401e+000	 9.599477456961584e+000
0	 2.466690000017618e+000	 3.266639999985467e+000	 9.453262795079430e+000
0	 2.466690000017617e+000	 3.333299999983334e+000	 9.376541882824725e+000
0	 2.533360000018134e+000	 2.666700000016666e+000	 1.411869063780083e+001
0	 2.533360000018134e+000	 2.733360000014533e+000	 1.327694407068896e+001
0	 2.533360000018134e+000	 2.800020000011600e+000	 1.253119519129347e+001
0	 2.533360000018134e+000	 2.866680000008067e+000	 1.187830314624955e+001
0	 2.533360000018134e+000	 2.933340000004133e+000	 1.131512708219119e+001
0	 2.533360000018134e+000	 3.000000000000000e+000	 1.083852614575128e+001
0	 2.533360000018134e+000	 3.066659999995867e+000	 1.044535948356152e+001
0	 2.533360000018134e+000	 3.133319999991934e+000	 1.013248624225250e+001
0	 2.533360000018134e+000	 3.199979999988400e+000	 9.896765568453668e+000
0	 2.533360000018134e+000	 3.266639999985467e+000	 9.735056608793315e+000
0	 2.533360000018134e+000	 3.333299999983334e+000	 9.644218509898593e+000
0	 2.600030000017850e+000	 2.666700000016666e+000	 1.447590429999879e+001
0	 2.600030000017850e+000	 2.733360000014533e+000	 1.362901642858229e+001
0	 2.600030000017850e+000	 2.800020000011599e+000	 1.287556440230073e+001
0	 2.600030000017850e+000	 2.866680000008066e+000	 1.221284532418938e+001
0	 2.600030000017850e+000	 2.933340000004134e+000	 1.163815629728231e+001
0	 2.600030000017851e+000	 3.000000000000000e+000	 1.114879442461235e+001
0	 2.600030000017850e+000	 3.066659999995866e+000	 1.074205680921115e+001
0	 2.600030000017851e+000	 3.133319999991933e+000	 1.041524055410919e+001
0	 2.600030000017850e+000	 3.199979999988400e+000	 1.016564276233574e+001
0	 2.600030000017851e+000	 3.266639999985467e+000	 9.990560536918858e+000
0	 2.600030000017851e+000	 3.333299999983334e+000	 9.887290980885444e+000
0	 2.666700000016667e+000	 2.666700000016667e+000	 1.477726070047253e+001
0	 2.666700000016666e+000	 2.733360000014533e+000	 1.393033270550950e+001
0	 2.666700000016666e+000	 2.800020000011599e+000	 1.317397365767537e+001
0	 2.666700000016667e+000	 2.866680000008067e+000	 1.250589273164426e+001
0	 2.666700000016666e+000	 2.933340000004133e+000	 1.192379910208899e+001
0	 2.666700000016666e+000	 3.000000000000000e+000	 1.142540194368118e+001
0	 2.666700000016666e+000	 3.066659999995867e+000	 1.100841043109120e+001
0	 2.666700000016666e+000	 3.133319999991934e+000	 1.067053373898822e+001
0	 2.666700000016667e+000	 3.199979999988401e+000	 1.040948104204011e+001
0	 2.666700000016666e+000	 3.266639999985468e+000	 1.022296151491358e+001
0	 2.666700000016667e+000	 3.333299999983334e+000	 1.010868433227405e+001
0	 2.000000000000000e+000	 3.333299999983334e+000	 6.568186057765538e+000
0	 2.000000000000000e+000	 3.399969999982150e+000	 6.713696546284837e+000
0	 2.000000000000000e+000	 3.466639999981867e+000	 6.911872324620039e+000
0	 2.000000000000000e+000	 3.533309999982383e+000	 7.152732594057326e+000
0	 2.000000000000000e+000	 3.599979999983600e+000	 7.426296555883289e+000
0	 2.000000000000000e+000	 3.666649999985416e+000	 7.722583411384798e+000
0	 2.000000000000000e+000	 3.733319999987733e+000	 8.031612361849117e+000
0	 2.000000000000000e+000	 3.799989999990449e+000	 8.343402608563844e+000
0	 2.000000000000000e+000	 3.866659999993466e+000	 8.647973352816939e+000
0	 2.000000000000000e+000	 3.933329999996683e+000	 8.935343795896687e+000
0	 2.000000000000000e+000	 4.000000000000001e+000	 9.195533139091740e+000
0	 2.066670000003317e+000	 3.333299999983333e+000	 7.089992799153759e+000
0	 2.066670000003317e+000	 3.399969999982150e+000	 7.201643491985314e+000
0	 2.066670000003317e+000	 3.466639999981866e+000	 7.362650825479710e+000
0	 2.066670000003316e+000	 3.533309999982382e+000	 7.563939141372887e+000
0	 2.066670000003317e+000	 3.599979999983600e+000	 7.796432781401210e+000
0	 2.066670000003317e+000	 3.666649999985415e+000	 8.051056087301314e+000
0	 2.066670000003317e+000	 3.733319999987733e+000	 8.318733400810203e+000
0	 2.066670000003317e+000	 3.799989999990450e+000	 8.590389063665237e+000
0	 2.066670000003317e+000	 3.866659999993466e+000	 8.856947417604072e+000
0	 2.066670000003318e+000	 3.933329999996684e+000	 9.109332804364724e+000
0	 2.066670000003317e+000	 4.000000000000001e+000	 9.338469565685571e+000
0	 2.133340000006534e+000	 3.333299999983334e+000	 7.566720129026975e+000
0	 2.133340000006534e+000	 3.399969999982150e+000	 7.648091238492446e+000
0	 2.133340000006534e+000	 3.466639999981867e+000	 7.775521209366214e+000
0	 2.133340000006534e+000	 3.533309999982382e+000	 7.940801748363511e+000
0	 2.133340000006534e+000	 3.599979999983601e+000	 8.135724562199901e+000
0	 2.133340000006534e+000	 3.666649999985416e+000	 8.352081357591311e+000
0	 2.133340000006534e+000	 3.733319999987733e+000	 8.581663841253940e+000
0	 2.133340000006534e+000	 3.799989999990450e+000	 8.816263719904336e+000
0	 2.133340000006534e+000	 3.866659999993468e+000	 9.047672700259399e+000
0	 2.133340000006534e+000	 3.933329999996684e+000	 9.267682489036341e+000
0	 2.133340000006533e+000	 4.000000000000000e+000	 9.468084792952684e+000
0	 2.200010000009551e+000	 3.333299999983335e+000	 8.001293083875622e+000
0	 2.200010000009551e+000	 3.399969999982150e+000	 8.055673804547343e+000
0	 2.200010000009550e+000	 3.466639999981866e+000	 8.152845160807747e+000
0	 2.200010000009551e+000	 3.533309999982383e+000	 8.285428448880781e+000
0	 2.200010000009550e+000	 3.599979999983600e+000	 8.446044964990762e+000
0	 2.200010000009551e+000	 3.666649999985416e+000	 8.627316005362310e+000
0	 2.200010000009551e+000	 3.733319999987733e+000	 8.821862866220316e+000
0	 2.200010000009551e+000	 3.799989999990451e+000	 9.022306843790046e+000
0	 2.200010000009551e+000	 3.866659999993467e+000	 9.221269234297068e+000
0	 2.200010000009551e+000	 3.933329999996683e+000	 9.411371333967249e+000
0	 2.200010000009551e+000	 4.000000000000000e+000	 9.585234439026767e+000
0	 2.266680000012267e+000	 3.333299999983333e+000	 8.396636700189895e+000
0	 2.266680000012268e+000	 3.399969999982151e+000	 8.427025208890930e+000
0	 2.266680000012267e+000	 3.466639999981866e+000	 8.496984364332286e+000
0	 2.266680000012268e+000	 3.533309999982383e+000	 8.599927276776121e+000
0	 2.266680000012267e+000	 3.599979999983600e+000	 8.729267056484984e+000
0	 2.266680000012268e+000	 3.666649999985417e+000	 8.878416813721644e+000
0	 2.266680000012267e+000	 3.733319999987733e+000	 9.040789658749215e+000
0	 2.266680000012268e+000	 3.799989999990450e+000	 9.209798701831121e+000
0	 2.266680000012268e+000	 3.866659999993466e+000	 9.378857053231059e+000
0	 2.266680000012268e+000	 3.933329999996684e+000	 9.541377823213047e+000
0	 2.266680000012268e+000	 4.000000000000001e+000	 9.690774122041423e+000
0	 2.333350000014584e+000	 3.333299999983333e+000	 8.755676014459725e+000
0	 2.333350000014584e+000	 3.399969999982150e+000	 8.764779470263882e+000
0	 2.333350000014585e+000	 3.466639999981867e+000	 8.810300504467602e+000
0	 2.333350000014585e+000	 3.533309999982384e+000	 8.886406265900773e+000
0	 2.333350000014584e+000	 3.599979999983600e+000	 8.987263903393600e+000
0	 2.333350000014584e+000	 3.666649999985416e+000	 9.107040565776543e+000
0	 2.333350000014585e+000	 3.733319999987733e+000	 9.239903401880380e+000
0	 2.333350000014584e+000	 3.799989999990450e+000	 9.380019560536173e+000
0	 2.333350000014585e+000	 3.866659999993466e+000	 9.521556190575270e+000
0	 2.333350000014585e+000	 3.933329999996684e+000	 9.658680440829293e+000
0	 2.333350000014584e+000	 3.999999999999999e+000	 9.785559460130177e+000
0	 2.400020000016401e+000	 3.333299999983334e+000	 9.081336063174847e+000
0	 2.400020000016401e+000	 3.399969999982150e+000	 9.071570607406665e+000
0	 2.400020000016401e+000	 3.466639999981866e+000	 9.095155265741260e+000
0	 2.400020000016401e+000	 3.533309999982383e+000	 9.146973450105737e+000
0	 2.400020000016401e+000	 3.599979999983600e+000	 9.221908572427454e+000
0	 2.400020000016401e+000	 3.666649999985416e+000	 9.314844044634024e+000
0	 2.400020000016401e+000	 3.733319999987733e+000	 9.420663278653386e+000
0	 2.400020000016401e+000	 3.799989999990449e+000	 9.534249686413714e+000
0	 2.400020000016401e+000	 3.866659999993466e+000	 9.650486679843473e+000
0	 2.400020000016401e+000	 3.933329999996684e+000	 9.764257670871382e+000
0	 2.400020000016401e+000	 4.000000000000000e+000	 9.870446071426485e+000
0	 2.466690000017617e+000	 3.333299999983334e+000	 9.376541882824723e+000
0	 2.466690000017618e+000	 3.399969999982150e+000	 9.350032639059497e+000
0	 2.466690000017618e+000	 3.466639999981867e+000	 9.353910332680620e+000
0	 2.466690000017617e+000	 3.533309999982382e+000	 9.383736863241863e+000
0	 2.466690000017618e+000	 3.599979999983600e+000	 9.435074130297226e+000
0	 2.466690000017617e+000	 3.666649999985417e+000	 9.503484033400977e+000
0	 2.466690000017617e+000	 3.733319999987733e+000	 9.584528472107678e+000
0	 2.466690000017617e+000	 3.799989999990450e+000	 9.673769345972113e+000
0	 2.466690000017618e+000	 3.866659999993467e+000	 9.766768554549344e+000
0	 2.466690000017618e+000	 3.933329999996684e+000	 9.859087997394685e+000
0	 2.466690000017617e+000	 4.000000000000000e+000	 9.946289574063702e+000
0	 2.533360000018134e+000	 3.333299999983334e+000	 9.644218509898593e+000
0	 2.533360000018134e+000	 3.399969999982150e+000	 9.602799583962396e+000
0	 2.533360000018134e+000	 3.466639999981866e+000	 9.588927389812827e+000
0	 2.533360000018134e+000	 3.533309999982383e+000	 9.598804539159765e+000
0	 2.533360000018134e+000	 3.599979999983600e+000	 9.628633643713398e+000
0	 2.533360000018134e+000	 3.666649999985416e+000	 9.674617315184113e+000
0	 2.533360000018134e+000	 3.733319999987733e+000	 9.732958165282568e+000
0	 2.533360000018134e+000	 3.799989999990449e+000	 9.799858805719630e+000
0	 2.533360000018134e+000	 3.866659999993467e+000	 9.871521848206456e+000
0	 2.533360000018134e+000	 3.933329999996683e+000	 9.944149904454413e+000
0	 2.533360000018134e+000	 4.000000000000000e+000	 1.001394558617512e+001
0	 2.600030000017851e+000	 3.333299999983334e+000	 9.887290980885446e+000
0	 2.600030000017851e+000	 3.399969999982150e+000	 9.832505460855147e+000
0	 2.600030000017849e+000	 3.466639999981866e+000	 9.802568121664786e+000
0	 2.600030000017850e+000	 3.533309999982382e+000	 9.794284511709909e+000
0	 2.600030000017851e+000	 3.599979999983600e+000	 9.804460179386307e+000
0	 2.600030000017851e+000	 3.666649999985416e+000	 9.829900673089984e+000
0	 2.600030000017850e+000	 3.733319999987733e+000	 9.867411541217191e+000
0	 2.600030000017851e+000	 3.799989999990450e+000	 9.913798332164374e+000
0	 2.600030000017850e+000	 3.866659999993465e+000	 9.965866594328245e+000
0	 2.600030000017850e+000	 3.933329999996684e+000	 1.002042187610573e+001
0	 2.600030000017850e+000	 4.000000000000000e+000	 1.007426972589396e+001
0	 2.666700000016667e+000	 3.333299999983334e+000	 1.010868433227405e+001
0	 2.666700000016666e+000	 3.399969999982150e+000	 1.004178428847729e+001
0	 2.666700000016666e+000	 3.466639999981867e+000	 9.997194212763224e+000
0	 2.666700000016666e+000	 3.533309999982383e+000	 9.972284814742521e+000
0	 2.666700000016666e+000	 3.599979999983599e+000	 9.964426804026074e+000
0	 2.666700000016666e+000	 3.666649999985416e+000	 9.970990890224975e+000
0	 2.666700000016667e+000	 3.733319999987733e+000	 9.989347782950565e+000
0	 2.666700000016667e+000	 3.799989999990450e+000	 1.001686819181435e+001
0	 2.666700000016666e+000	 3.866659999993467e+000	 1.005092282642808e+001
0	 2.666700000016666e+000	 3.933329999996684e+000	 1.008888239640369e+001
0	 2.666700000016666e+000	 4.000000000000001e+000	 1.012811761135334e+001
0	 2.000000000000000e+000	 4.000000000000001e+000	 9.195533139091742e+000
0	 2.000000000000000e+000	 4.066670000003318e+000	 9.410052183975678e+000
0	 2.000000000000000e+000	 4.133340000006533e+000	 9.571833935438818e+000
0	 2.000000000000000e+000	 4.200010000009550e+000	 9.688030899745243e+000
0	 2.000000000000000e+000	 4.266680000012268e+000	 9.765795583159177e+000
0	 2.000000000000000e+000	 4.333350000014584e+000	 9.812280491945002e+000
0	 2.000000000000000e+000	 4.400020000016401e+000	 9.834638132367237e+000
0	 2.000000000000000e+000	 4.466690000017617e+000	 9.840021010690538e+000
0	 2.000000000000000e+000	 4.533360000018134e+000	 9.835581633179729e+000
0	 2.000000000000000e+000	 4.600030000017851e+000	 9.828472506099740e+000
0	 2.000000000000000e+000	 4.666700000016665e+000	 9.825846135715670e+000
0	 2.066670000003317e+000	 4.000000000000001e+000	 9.338469565685571e+000
0	 2.066670000003318e+000	 4.066670000003317e+000	 9.526695921728729e+000
0	 2.066670000003316e+000	 4.133340000006534e+000	 9.666837288774746e+000
0	 2.066670000003317e+000	 4.200010000009550e+000	 9.765548802739914e+000
0	 2.066670000003317e+000	 4.266680000012267e+000	 9.829485599540679e+000
0	 2.066670000003317e+000	 4.333350000014584e+000	 9.865302815093628e+000
0	 2.066670000003318e+000	 4.400020000016401e+000	 9.879655585315481e+000
0	 2.066670000003317e+000	 4.466690000017618e+000	 9.879199046123098e+000
0	 2.066670000003317e+000	 4.533360000018134e+000	 9.870588333433471e+000
0	 2.066670000003318e+000	 4.600030000017852e+000	 9.860478583163745e+000
0	 2.066670000003317e+000	 4.666700000016667e+000	 9.855524931231161e+000
0	 2.133340000006533e+000	 4.000000000000000e+000	 9.468084792952684e+000
0	 2.133340000006534e+000	 4.066670000003317e+000	 9.632072584502236e+000
0	 2.133340000006534e+000	 4.133340000006534e+000	 9.752422332608150e+000
0	 2.133340000006534e+000	 4.200010000009550e+000	 9.835300988632303e+000
0	 2.133340000006534e+000	 4.266680000012269e+000	 9.886875503936743e+000
0	 2.133340000006534e+000	 4.333350000014584e+000	 9.913312829883648e+000
0	 2.133340000006534e+000	 4.400020000016402e+000	 9.920779917835283e+000
0	 2.133340000006534e+000	 4.466690000017618e+000	 9.915443719154084e+000
0	 2.133340000006534e+000	 4.533360000018134e+000	 9.903471185202612e+000
0	 2.133340000006534e+000	 4.600030000017850e+000	 9.891029267343543e+000
0	 2.133340000006534e+000	 4.666700000016666e+000	 9.884284916939691e+000
0	 2.200010000009551e+000	 4.000000000000000e+000	 9.585234439026767e+000
0	 2.200010000009551e+000	 4.066670000003318e+000	 9.726926798226202e+000
0	 2.200010000009550e+000	 4.133340000006534e+000	 9.829227764565690e+000
0	 2.200010000009551e+000	 4.200010000009551e+000	 9.897825290646079e+000
0	 2.200010000009551e+000	 4.266680000012268e+000	 9.938407329068363e+000
0	 2.200010000009551e+000	 4.333350000014583e+000	 9.956661832433653e+000
0	 2.200010000009550e+000	 4.400020000016401e+000	 9.958276753343192e+000
0	 2.200010000009551e+000	 4.466690000017618e+000	 9.948940044398343e+000
0	 2.200010000009550e+000	 4.533360000018135e+000	 9.934339658200564e+000
0	 2.200010000009550e+000	 4.600030000017850e+000	 9.920163547351484e+000
0	 2.200010000009551e+000	 4.666700000016667e+000	 9.912099664452827e+000
0	 2.266680000012268e+000	 4.000000000000001e+000	 9.690774122041427e+000
0	 2.266680000012268e+000	 4.066670000003317e+000	 9.812003188830582e+000
0	 2.266680000012268e+000	 4.133340000006534e+000	 9.897892282273995e+000
0	 2.266680000012267e+000	 4.200010000009550e+000	 9.953659542004839e+000
0	 2.266680000012267e+000	 4.266680000012268e+000	 9.984523107656445e+000
0	 2.266680000012267e+000	 4.333350000014583e+000	 9.995701118862254e+000
0	 2.266680000012267e+000	 4.400020000016401e+000	 9.992411715255770e+000
0	 2.266680000012267e+000	 4.466690000017616e+000	 9.979873036470682e+000
0	 2.266680000012267e+000	 4.533360000018134e+000	 9.963303222140764e+000
0	 2.266680000012268e+000	 4.600030000017852e+000	 9.947920411899901e+000
0	 2.266680000012268e+000	 4.666700000016667e+000	 9.938942745382109e+000
0	 2.333350000014584e+000	 3.999999999999999e+000	 9.785559460130177e+000
0	 2.333350000014584e+000	 4.066670000003318e+000	 9.888046382245248e+000
0	 2.333350000014585e+000	 4.133340000006535e+000	 9.959054583359620e+000
0	 2.333350000014585e+000	 4.200010000009550e+000	 1.000334157593218e+001
0	 2.333350000014584e+000	 4.266680000012268e+000	 1.002566487242193e+001
0	 2.333350000014584e+000	 4.333350000014584e+000	 1.003078198528797e+001
0	 2.333350000014584e+000	 4.400020000016402e+000	 1.002345042698953e+001
0	 2.333350000014585e+000	 4.466690000017618e+000	 1.000842770998594e+001
0	 2.333350000014585e+000	 4.533360000018135e+000	 9.990471346736619e+000
0	 2.333350000014585e+000	 4.600030000017850e+000	 9.974338849701132e+000
0	 2.333350000014584e+000	 4.666700000016666e+000	 9.964787731339110e+000
0	 2.400020000016401e+000	 4.000000000000000e+000	 9.870446071426485e+000
0	 2.400020000016401e+000	 4.066670000003317e+000	 9.955801004400028e+000
0	 2.400020000016401e+000	 4.133340000006534e+000	 1.001335336544909e+001
0	 2.400020000016401e+000	 4.200010000009550e+000	 1.004740922565160e+001
0	 2.400020000016401e+000	 4.266680000012268e+000	 1.006227465608564e+001
0	 2.400020000016402e+000	 4.333350000014583e+000	 1.006225572782936e+001
0	 2.400020000016401e+000	 4.400020000016401e+000	 1.005165851196098e+001
0	 2.400020000016401e+000	 4.466690000017616e+000	 1.003478907955890e+001
0	 2.400020000016400e+000	 4.533360000018133e+000	 1.001595350170155e+001
0	 2.400020000016401e+000	 4.600030000017851e+000	 9.999457849467486e+000
0	 2.400020000016401e+000	 4.666700000016665e+000	 9.989608193935370e+000
0	 2.466690000017617e+000	 4.000000000000000e+000	 9.946289574063702e+000
0	 2.466690000017618e+000	 4.066670000003317e+000	 1.001601168122466e+001
0	 2.466690000017618e+000	 4.133340000006535e+000	 1.006142732616884e+001
0	 2.466690000017618e+000	 4.200010000009550e+000	 1.008640032438662e+001
0	 2.466690000017618e+000	 4.266680000012268e+000	 1.009479449136845e+001
0	 2.466690000017618e+000	 4.333350000014583e+000	 1.009047364260490e+001
0	 2.466690000017617e+000	 4.400020000016402e+000	 1.007730159358662e+001
0	 2.466690000017617e+000	 4.466690000017618e+000	 1.005914215980435e+001
0	 2.466690000017617e+000	 4.533360000018133e+000	 1.003985915674894e+001
0	 2.466690000017617e+000	 4.600030000017849e+000	 1.002331639991129e+001
0	 2.466690000017617e+000	 4.666700000016666e+000	 1.001337770478244e+001
0	 2.533360000018134e+000	 4.000000000000000e+000	 1.001394558617512e+001
0	 2.533360000018134e+000	 4.066670000003318e+000	 1.006942303864883e+001
0	 2.533360000018134e+000	 4.133340000006535e+000	 1.010391516314528e+001
0	 2.533360000018134e+000	 4.200010000009550e+000	 1.012085270536063e+001
0	 2.533360000018135e+000	 4.266680000012268e+000	 1.012366641099113e+001
0	 2.533360000018134e+000	 4.333350000014584e+000	 1.011578702573308e+001
0	 2.533360000018134e+000	 4.400020000016402e+000	 1.010064529528290e+001
0	 2.533360000018134e+000	 4.466690000017617e+000	 1.008167196533707e+001
0	 2.533360000018134e+000	 4.533360000018135e+000	 1.006229778159218e+001
0	 2.533360000018134e+000	 4.600030000017849e+000	 1.004595348974486e+001
0	 2.533360000018134e+000	 4.666700000016666e+000	 1.003606983549188e+001
0	 2.600030000017850e+000	 4.000000000000000e+000	 1.007426972589396e+001
0	 2.600030000017850e+000	 4.066670000003316e+000	 1.011677970260214e+001
0	 2.600030000017851e+000	 4.133340000006535e+000	 1.014145557400475e+001
0	 2.600030000017851e+000	 4.200010000009550e+000	 1.015130420179706e+001
0	 2.600030000017851e+000	 4.266680000012268e+000	 1.014933244767443e+001
0	 2.600030000017851e+000	 4.333350000014584e+000	 1.013854717333233e+001
0	 2.600030000017850e+000	 4.400020000016400e+000	 1.012195524046626e+001
0	 2.600030000017850e+000	 4.466690000017617e+000	 1.010256351077180e+001
0	 2.600030000017850e+000	 4.533360000018132e+000	 1.008337884594464e+001
0	 2.600030000017851e+000	 4.600030000017849e+000	 1.006740810768050e+001
0	 2.600030000017851e+000	 4.666700000016666e+000	 1.005765815767522e+001
0	 2.666700000016666e+000	 4.000000000000001e+000	 1.012811761135335e+001
0	 2.666700000016667e+000	 4.066670000003317e+000	 1.015882629901417e+001
0	 2.666700000016666e+000	 4.133340000006535e+000	 1.017468725637354e+001
0	 2.666700000016666e+000	 4.200010000009551e+000	 1.017829264691924e+001
0	 2.666700000016667e+000	 4.266680000012267e+000	 1.017223463413912e+001
0	 2.666700000016667e+000	 4.333350000014584e+000	 1.015910538152110e+001
0	 2.666700000016666e+000	 4.400020000016401e+000	 1.014149705255313e+001
0	 2.666700000016667e+000	 4.466690000017619e+000	 1.012200181072329e+001
0	 2.666700000016666e+000	 4.533360000018133e+000	 1.010321181951970e+001
0	 2.666700000016666e+000	 4.600030000017851e+000	 1.008771924243052e+001
0	 2.666700000016666e+000	 4.666700000016666e+000	 1.007811624294401e+001
0	 2.000000000000000e+000	 4.666700000016665e+000	 9.825846135715672e+000
0	 2.000000000000000e+000	 4.733360000014533e+000	 9.826767713532094e+000
0	 2.000000000000000e+000	 4.800020000011601e+000	 9.825877593882369e+000
0	 2.000000000000000e+000	 4.866680000008067e+000	 9.823690127690359e+000
0	 2.000000000000000e+000	 4.933340000004134e+000	 9.820719665879839e+000
0	 2.000000000000000e+000	 5.000000000000001e+000	 9.817480559374614e+000
0	 2.000000000000000e+000	 5.066659999995866e+000	 9.814487159098388e+000
0	 2.000000000000000e+000	 5.133319999991934e+000	 9.812253815974875e+000
0	 2.000000000000000e+000	 5.199979999988400e+000	 9.811294880927729e+000
0	 2.000000000000000e+000	 5.266639999985468e+000	 9.812124704880572e+000
0	 2.000000000000000e+000	 5.333299999983333e+000	 9.815257638757007e+000
0	 2.066670000003317e+000	 4.666700000016667e+000	 9.855524931231161e+000
0	 2.066670000003317e+000	 4.733360000014534e+000	 9.854590927956938e+000
0	 2.066670000003316e+000	 4.800020000011599e+000	 9.852375516686154e+000
0	 2.066670000003317e+000	 4.866680000008067e+000	 9.849286993619320e+000
0	 2.066670000003317e+000	 4.933340000004134e+000	 9.845733654956920e+000
0	 2.066670000003318e+000	 5.000000000000000e+000	 9.842123796899394e+000
0	 2.066670000003317e+000	 5.066659999995868e+000	 9.838865715647158e+000
0	 2.066670000003317e+000	 5.133319999991933e+000	 9.836367707400596e+000
0	 2.066670000003316e+000	 5.199979999988400e+000	 9.835038068360072e+000
0	 2.066670000003317e+000	 5.266639999985467e+000	 9.835285094725881e+000
0	 2.066670000003317e+000	 5.333299999983333e+000	 9.837517082698334e+000
0	 2.133340000006534e+000	 4.666700000016666e+000	 9.884284916939691e+000
0	 2.133340000006534e+000	 4.733360000014533e+000	 9.881917332414254e+000
0	 2.133340000006533e+000	 4.800020000011598e+000	 9.878701152133846e+000
0	 2.133340000006534e+000	 4.866680000008067e+000	 9.874947315297405e+000
0	 2.133340000006534e+000	 4.933340000004134e+000	 9.870966761103825e+000
0	 2.133340000006534e+000	 5.000000000000002e+000	 9.867070428751994e+000
0	 2.133340000006534e+000	 5.066659999995867e+000	 9.863569257440755e+000
0	 2.133340000006534e+000	 5.133319999991935e+000	 9.860774186368943e+000
0	 2.133340000006534e+000	 5.199979999988400e+000	 9.858996154735351e+000
0	 2.133340000006534e+000	 5.266639999985467e+000	 9.858546101738755e+000
0	 2.133340000006533e+000	 5.333299999983334e+000	 9.859734966577904e+000
0	 2.200010000009551e+000	 4.666700000016667e+000	 9.912099664452828e+000
0	 2.200010000009551e+000	 4.733360000014534e+000	 9.908663080950031e+000
0	 2.200010000009551e+000	 4.800020000011601e+000	 9.904724153011365e+000
0	 2.200010000009550e+000	 4.866680000008064e+000	 9.900505160555928e+000
0	 2.200010000009550e+000	 4.933340000004133e+000	 9.896228383502809e+000
0	 2.200010000009551e+000	 5.000000000000002e+000	 9.892116101771068e+000
0	 2.200010000009550e+000	 5.066659999995866e+000	 9.888390595279748e+000
0	 2.200010000009551e+000	 5.133319999991936e+000	 9.885274143947884e+000
0	 2.200010000009551e+000	 5.199979999988402e+000	 9.882989027694467e+000
0	 2.200010000009550e+000	 5.266639999985466e+000	 9.881757526438497e+000
0	 2.200010000009551e+000	 5.333299999983335e+000	 9.881801920098916e+000
0	 2.266680000012268e+000	 4.666700000016667e+000	 9.938942745382112e+000
0	 2.266680000012268e+000	 4.733360000014534e+000	 9.934744327610257e+000
0	 2.266680000012267e+000	 4.800020000011600e+000	 9.930314172104612e+000
0	 2.266680000012268e+000	 4.866680000008068e+000	 9.925794597226213e+000
0	 2.266680000012268e+000	 4.933340000004133e+000	 9.921327921336106e+000
0	 2.266680000012267e+000	 4.999999999999999e+000	 9.917056462795269e+000
0	 2.266680000012268e+000	 5.066659999995868e+000	 9.913122539964720e+000
0	 2.266680000012267e+000	 5.133319999991935e+000	 9.909668471205418e+000
0	 2.266680000012268e+000	 5.199979999988401e+000	 9.906836574878323e+000
0	 2.266680000012268e+000	 5.266639999985469e+000	 9.904769169344389e+000
0	 2.266680000012268e+000	 5.333299999983335e+000	 9.903608572964556e+000
0	 2.333350000014584e+000	 4.666700000016666e+000	 9.964787731339111e+000
0	 2.333350000014584e+000	 4.733360000014534e+000	 9.960077226440896e+000
0	 2.333350000014585e+000	 4.800020000011601e+000	 9.955340862199481e+000
0	 2.333350000014584e+000	 4.866680000008066e+000	 9.950649693139601e+000
0	 2.333350000014585e+000	 4.933340000004134e+000	 9.946074773785966e+000
0	 2.333350000014584e+000	 4.999999999999999e+000	 9.941687158663273e+000
0	 2.333350000014584e+000	 5.066659999995866e+000	 9.937557902296231e+000
0	 2.333350000014585e+000	 5.133319999991935e+000	 9.933758059209517e+000
0	 2.333350000014584e+000	 5.199979999988400e+000	 9.930358683927800e+000
0	 2.333350000014585e+000	 5.266639999985466e+000	 9.927430830975762e+000
0	 2.333350000014583e+000	 5.333299999983333e+000	 9.925045554878038e+000
0	 2.400020000016401e+000	 4.666700000016665e+000	 9.989608193935370e+000
0	 2.400020000016401e+000	 4.733360000014533e+000	 9.984577931487943e+000
0	 2.400020000016401e+000	 4.800020000011599e+000	 9.979673876081902e+000
0	 2.400020000016401e+000	 4.866680000008067e+000	 9.974904516127419e+000
0	 2.400020000016401e+000	 4.933340000004132e+000	 9.970278340034641e+000
0	 2.400020000016401e+000	 5.000000000000000e+000	 9.965803836213743e+000
0	 2.400020000016402e+000	 5.066659999995868e+000	 9.961489493074877e+000
0	 2.400020000016401e+000	 5.133319999991934e+000	 9.957343799028195e+000
0	 2.400020000016401e+000	 5.199979999988400e+000	 9.953375242483821e+000
0	 2.400020000016402e+000	 5.266639999985467e+000	 9.949592311851896e+000
0	 2.400020000016401e+000	 5.333299999983335e+000	 9.946003495542572e+000
0	 2.466690000017617e+000	 4.666700000016666e+000	 1.001337770478244e+001
0	 2.466690000017617e+000	 4.733360000014532e+000	 1.000816259679738e+001
0	 2.466690000017617e+000	 4.800020000011599e+000	 1.000318286653777e+001
0	 2.466690000017618e+000	 4.866680000008068e+000	 9.998393134020990e+000
0	 2.466690000017617e+000	 4.933340000004134e+000	 9.993748019264402e+000
0	 2.466690000017618e+000	 5.000000000000000e+000	 9.989202142285356e+000
0	 2.466690000017618e+000	 5.066659999995866e+000	 9.984710123101255e+000
0	 2.466690000017618e+000	 5.133319999991934e+000	 9.980226581729431e+000
0	 2.466690000017618e+000	 5.199979999988400e+000	 9.975706138187269e+000
0	 2.466690000017618e+000	 5.266639999985469e+000	 9.971103412492127e+000
0	 2.466690000017618e+000	 5.333299999983335e+000	 9.966373024661365e+000
0	 2.533360000018134e+000	 4.666700000016666e+000	 1.003606983549188e+001
0	 2.533360000018134e+000	 4.733360000014534e+000	 1.003074737641519e+001
0	 2.533360000018134e+000	 4.800020000011600e+000	 1.002573748635301e+001
0	 2.533360000018134e+000	 4.866680000008065e+000	 1.002094961465166e+001
0	 2.533360000018133e+000	 4.933340000004133e+000	 1.001629321065748e+001
0	 2.533360000018134e+000	 5.000000000000000e+000	 1.001167772371679e+001
0	 2.533360000018134e+000	 5.066659999995868e+000	 1.000701260317594e+001
0	 2.533360000018134e+000	 5.133319999991934e+000	 1.000220729838125e+001
0	 2.533360000018134e+000	 5.199979999988400e+000	 9.997171258679067e+000
0	 2.533360000018134e+000	 5.266639999985468e+000	 9.991813933415752e+000
0	 2.533360000018134e+000	 5.333299999983333e+000	 9.986044771937614e+000
0	 2.600030000017851e+000	 4.666700000016666e+000	 1.005765815767522e+001
0	 2.600030000017851e+000	 4.733360000014534e+000	 1.005224842438735e+001
0	 2.600030000017850e+000	 4.800020000011600e+000	 1.004720738831352e+001
0	 2.600030000017851e+000	 4.866680000008067e+000	 1.004240802585077e+001
0	 2.600030000017851e+000	 4.933340000004134e+000	 1.003772331339616e+001
0	 2.600030000017851e+000	 5.000000000000000e+000	 1.003302622734672e+001
0	 2.600030000017850e+000	 5.066659999995866e+000	 1.002818974409952e+001
0	 2.600030000017850e+000	 5.133319999991935e+000	 1.002308684005164e+001
0	 2.600030000017850e+000	 5.199979999988400e+000	 1.001759049160013e+001
0	 2.600030000017851e+000	 5.266639999985468e+000	 1.001157367514206e+001
0	 2.600030000017851e+000	 5.333299999983334e+000	 1.000490936707455e+001
0	 2.666700000016666e+000	 4.666700000016666e+000	 1.007811624294401e+001
0	 2.666700000016666e+000	 4.733360000014533e+000	 1.007258189475984e+001
0	 2.666700000016666e+000	 4.800020000011600e+000	 1.006746222520522e+001
0	 2.666700000016667e+000	 4.866680000008069e+000	 1.006260243544967e+001
0	 2.666700000016666e+000	 4.933340000004133e+000	 1.005784772666269e+001
0	 2.666700000016666e+000	 5.000000000000001e+000	 1.005304330001383e+001
0	 2.666700000016667e+000	 5.066659999995868e+000	 1.004803435667262e+001
0	 2.666700000016666e+000	 5.133319999991934e+000	 1.004266609780861e+001
0	 2.666700000016667e+000	 5.199979999988402e+000	 1.003678372459136e+001
0	 2.666700000016667e+000	 5.266639999985468e+000	 1.003023243819043e+001
0	 2.666700000016666e+000	 5.333299999983335e+000	 1.002285743977538e+001
0	 2.000000000000000e+000	 5.333299999983333e+000	 9.815257638757007e+000
0	 2.000000000000000e+000	 5.399969999982149e+000	 9.819834387196050e+000
0	 2.000000000000000e+000	 5.466639999981868e+000	 9.824566239476509e+000
0	 2.000000000000000e+000	 5.533309999982383e+000	 9.829325428854752e+000
0	 2.000000000000000e+000	 5.599979999983600e+000	 9.833984188587172e+000
0	 2.000000000000000e+000	 5.666649999985416e+000	 9.838414751930126e+000
0	 2.000000000000000e+000	 5.733319999987732e+000	 9.842489352139964e+000
0	 2.000000000000000e+000	 5.799989999990449e+000	 9.846080222473065e+000
0	 1.999999999999999e+000	 5.866659999993466e+000	 9.849059596185775e+000
0	 2.000000000000000e+000	 5.933329999996682e+000	 9.851299706534446e+000
0	 2.000000000000000e+000	 6.000000000000000e+000	 9.852672786775409e+000
0	 2.066670000003317e+000	 5.333299999983333e+000	 9.837517082698334e+000
0	 2.066670000003317e+000	 5.399969999982150e+000	 9.840985018686464e+000
0	 2.066670000003317e+000	 5.466639999981866e+000	 9.844596364763811e+000
0	 2.066670000003317e+000	 5.533309999982385e+000	 9.848245643033906e+000
0	 2.066670000003317e+000	 5.599979999983599e+000	 9.851827375600333e+000
0	 2.066670000003317e+000	 5.666649999985414e+000	 9.855236084566641e+000
0	 2.066670000003317e+000	 5.733319999987733e+000	 9.858366292036408e+000
0	 2.066670000003317e+000	 5.799989999990450e+000	 9.861112520113169e+000
0	 2.066670000003317e+000	 5.866659999993467e+000	 9.863369290900486e+000
0	 2.066670000003317e+000	 5.933329999996684e+000	 9.865031126501897e+000
0	 2.066670000003317e+000	 5.999999999999999e+000	 9.865992549020943e+000
0	 2.133340000006533e+000	 5.333299999983334e+000	 9.859734966577904e+000
0	 2.133340000006534e+000	 5.399969999982150e+000	 9.861956671003895e+000
0	 2.133340000006534e+000	 5.466639999981865e+000	 9.864341102724863e+000
0	 2.133340000006534e+000	 5.533309999982383e+000	 9.866804100356738e+000
0	 2.133340000006534e+000	 5.599979999983600e+000	 9.869261502515382e+000
0	 2.133340000006534e+000	 5.666649999985418e+000	 9.871629147816698e+000
0	 2.133340000006534e+000	 5.733319999987733e+000	 9.873822874876586e+000
0	 2.133340000006534e+000	 5.799989999990448e+000	 9.875758522310944e+000
0	 2.133340000006534e+000	 5.866659999993466e+000	 9.877351928735640e+000
0	 2.133340000006534e+000	 5.933329999996684e+000	 9.878518932766577e+000
0	 2.133340000006533e+000	 5.999999999999998e+000	 9.879175373019640e+000
0	 2.200010000009551e+000	 5.333299999983335e+000	 9.881801920098914e+000
0	 2.200010000009551e+000	 5.399969999982152e+000	 9.882682668099587e+000
0	 2.200010000009551e+000	 5.466639999981866e+000	 9.883769271494320e+000
0	 2.200010000009551e+000	 5.533309999982383e+000	 9.884997913076468e+000
0	 2.200010000009550e+000	 5.599979999983599e+000	 9.886304775639429e+000
0	 2.200010000009551e+000	 5.666649999985415e+000	 9.887626041976544e+000
0	 2.200010000009550e+000	 5.733319999987733e+000	 9.888897894881202e+000
0	 2.200010000009551e+000	 5.799989999990449e+000	 9.890056517146752e+000
0	 2.200010000009550e+000	 5.866659999993466e+000	 9.891038091566584e+000
0	 2.200010000009551e+000	 5.933329999996686e+000	 9.891778800934045e+000
0	 2.200010000009551e+000	 6.000000000000000e+000	 9.892214828042519e+000
0	 2.266680000012268e+000	 5.333299999983335e+000	 9.903608572964556e+000
0	 2.266680000012268e+000	 5.399969999982151e+000	 9.903096333924820e+000
0	 2.266680000012268e+000	 5.466639999981866e+000	 9.902849689206759e+000
0	 2.266680000012268e+000	 5.533309999982383e+000	 9.902824193446367e+000
0	 2.266680000012267e+000	 5.599979999983599e+000	 9.902975401279596e+000
0	 2.266680000012268e+000	 5.666649999985416e+000	 9.903258867342450e+000
0	 2.266680000012267e+000	 5.733319999987733e+000	 9.903630146270919e+000
0	 2.266680000012268e+000	 5.799989999990450e+000	 9.904044792700976e+000
0	 2.266680000012267e+000	 5.866659999993466e+000	 9.904458361268629e+000
0	 2.266680000012268e+000	 5.933329999996684e+000	 9.904826406609864e+000
0	 2.266680000012268e+000	 6.000000000000000e+000	 9.905104483360644e+000
0	 2.333350000014583e+000	 5.333299999983333e+000	 9.925045554878039e+000
0	 2.333350000014585e+000	 5.399969999982150e+000	 9.923130992430886e+000
0	 2.333350000014584e+000	 5.466639999981866e+000	 9.921551173996832e+000
0	 2.333350000014584e+000	 5.533309999982384e+000	 9.920280053719624e+000
0	 2.333350000014584e+000	 5.599979999983599e+000	 9.919291585742986e+000
0	 2.333350000014584e+000	 5.666649999985417e+000	 9.918559724210676e+000
0	 2.333350000014584e+000	 5.733319999987733e+000	 9.918058423266420e+000
0	 2.333350000014584e+000	 5.799989999990448e+000	 9.917761637053983e+000
0	 2.333350000014585e+000	 5.866659999993468e+000	 9.917643319717104e+000
0	 2.333350000014585e+000	 5.933329999996683e+000	 9.917677425399539e+000
0	 2.333350000014584e+000	 6.000000000000000e+000	 9.917837908245058e+000
0	 2.400020000016401e+000	 5.333299999983335e+000	 9.946003495542572e+000
0	 2.400020000016401e+000	 5.399969999982150e+000	 9.942719967569053e+000
0	 2.400020000016401e+000	 5.466639999981866e+000	 9.939842543999154e+000
0	 2.400020000016401e+000	 5.533309999982383e+000	 9.937362606149490e+000
0	 2.400020000016401e+000	 5.599979999983598e+000	 9.935271535336717e+000
0	 2.400020000016401e+000	 5.666649999985414e+000	 9.933560712877467e+000
0	 2.400020000016401e+000	 5.733319999987733e+000	 9.932221520088390e+000
0	 2.400020000016401e+000	 5.799989999990450e+000	 9.931245338286125e+000
0	 2.400020000016401e+000	 5.866659999993468e+000	 9.930623548787334e+000
0	 2.400020000016401e+000	 5.933329999996683e+000	 9.930347532908687e+000
0	 2.400020000016401e+000	 6.000000000000000e+000	 9.930408671966836e+000
0	 2.466690000017618e+000	 5.333299999983335e+000	 9.966373024661365e+000
0	 2.466690000017617e+000	 5.399969999982149e+000	 9.961796583290610e+000
0	 2.466690000017618e+000	 5.466639999981865e+000	 9.957692617348338e+000
0	 2.466690000017617e+000	 5.533309999982382e+000	 9.954068962989215e+000
0	 2.466690000017617e+000	 5.599979999983598e+000	 9.950933456367913e+000
0	 2.466690000017617e+000	 5.666649999985414e+000	 9.948293933639112e+000
0	 2.466690000017618e+000	 5.733319999987732e+000	 9.946158230957503e+000
0	 2.466690000017618e+000	 5.799989999990450e+000	 9.944534184477785e+000
0	 2.466690000017617e+000	 5.866659999993468e+000	 9.943429630354665e+000
0	 2.466690000017618e+000	 5.933329999996683e+000	 9.942852404742826e+000
0	 2.466690000017618e+000	 6.000000000000000e+000	 9.942810343797005e+000
0	 2.533360000018134e+000	 5.333299999983333e+000	 9.986044771937614e+000
0	 2.533360000018134e+000	 5.399969999982148e+000	 9.980294163546839e+000
0	 2.533360000018134e+000	 5.466639999981866e+000	 9.975070212179030e+000
0	 2.533360000018134e+000	 5.533309999982383e+000	 9.970396236492013e+000
0	 2.533360000018133e+000	 5.599979999983598e+000	 9.966295555143674e+000
0	 2.533360000018134e+000	 5.666649999985417e+000	 9.962791486791870e+000
0	 2.533360000018134e+000	 5.733319999987734e+000	 9.959907350094460e+000
0	 2.533360000018134e+000	 5.799989999990449e+000	 9.957666463709337e+000
0	 2.533360000018134e+000	 5.866659999993467e+000	 9.956092146294401e+000
0	 2.533360000018134e+000	 5.933329999996683e+000	 9.955207716507532e+000
0	 2.533360000018134e+000	 6.000000000000000e+000	 9.955036493006634e+000
0	 2.600030000017851e+000	 5.333299999983334e+000	 1.000490936707455e+001
0	 2.600030000017851e+000	 5.399969999982149e+000	 9.998146032289037e+000
0	 2.600030000017849e+000	 5.466639999981865e+000	 9.991944146625848e+000
0	 2.600030000017850e+000	 5.533309999982384e+000	 9.986341538911148e+000
0	 2.600030000017850e+000	 5.599979999983599e+000	 9.981376037971140e+000
0	 2.600030000017850e+000	 5.666649999985417e+000	 9.977085472631995e+000
0	 2.600030000017851e+000	 5.733319999987734e+000	 9.973507671719938e+000
0	 2.600030000017850e+000	 5.799989999990451e+000	 9.970680464061161e+000
0	 2.600030000017851e+000	 5.866659999993467e+000	 9.968641678481887e+000
0	 2.600030000017851e+000	 5.933329999996685e+000	 9.967429143808344e+000
0	 2.600030000017851e+000	 6.000000000000000e+000	 9.967080688866773e+000
0	 2.666700000016666e+000	 5.333299999983335e+000	 1.002285743977538e+001
0	 2.666700000016666e+000	 5.399969999982150e+000	 1.001528551346849e+001
0	 2.666700000016666e+000	 5.466639999981865e+000	 1.000828323882342e+001
0	 2.666700000016666e+000	 5.533309999982384e+000	 1.000190198249985e+001
0	 2.666700000016666e+000	 5.599979999983598e+000	 9.996193111157426e+000
0	 2.666700000016665e+000	 5.666649999985414e+000	 9.991207991455779e+000
0	 2.666700000016667e+000	 5.733319999987733e+000	 9.986997990054617e+000
0	 2.666700000016667e+000	 5.799989999990448e+000	 9.983614473613619e+000
0	 2.666700000016665e+000	 5.866659999993467e+000	 9.981108808792447e+000
0	 2.666700000016666e+000	 5.933329999996683e+000	 9.979532362250849e+000
0	 2.666700000016666e+000	 6.000000000000001e+000	 9.978936500648498e+000
0	 2.000000000000000e+000	 6.000000000000000e+000	 9.852672786775409e+000
0	 2.000000000000000e+000	 6.066670000003317e+000	 9.853639006625738e+000
0	 2.000000000000000e+000	 6.133340000006534e+000	 9.854784214829470e+000
0	 2.000000000000000e+000	 6.200010000009550e+000	 9.856169163183433e+000
0	 1.999999999999999e+000	 6.266680000012266e+000	 9.857854603484464e+000
0	 2.000000000000000e+000	 6.333350000014585e+000	 9.859901287529382e+000
0	 2.000000000000000e+000	 6.400020000016401e+000	 9.862369967115050e+000
0	 2.000000000000000e+000	 6.466690000017618e+000	 9.865321394038302e+000
0	 2.000000000000000e+000	 6.533360000018136e+000	 9.868816320096004e+000
0	 2.000000000000000e+000	 6.600030000017848e+000	 9.872915497085000e+000
0	 2.000000000000000e+000	 6.666700000016668e+000	 9.877679676802163e+000
0	 2.066670000003317e+000	 5.999999999999999e+000	 9.865992549020943e+000
0	 2.066670000003317e+000	 6.066670000003316e+000	 9.866646028219895e+000
0	 2.066670000003317e+000	 6.133340000006533e+000	 9.867489529704935e+000
0	 2.066670000003317e+000	 6.200010000009550e+000	 9.868575819345494e+000
0	 2.066670000003317e+000	 6.266680000012268e+000	 9.869957663011068e+000
0	 2.066670000003316e+000	 6.333350000014582e+000	 9.871687826571108e+000
0	 2.066670000003318e+000	 6.400020000016401e+000	 9.873819075895097e+000
0	 2.066670000003318e+000	 6.466690000017618e+000	 9.876404176852521e+000
0	 2.066670000003316e+000	 6.533360000018132e+000	 9.879495895312843e+000
0	 2.066670000003317e+000	 6.600030000017851e+000	 9.883146997145586e+000
0	 2.066670000003317e+000	 6.666700000016665e+000	 9.887410248220215e+000
0	 2.133340000006533e+000	 5.999999999999998e+000	 9.879175373019640e+000
0	 2.133340000006534e+000	 6.066670000003318e+000	 9.879624393805036e+000
0	 2.133340000006534e+000	 6.133340000006535e+000	 9.880255263606529e+000
0	 2.133340000006534e+000	 6.200010000009550e+000	 9.881113007300279e+000
0	 2.133340000006533e+000	 6.266680000012268e+000	 9.882242649762487e+000
0	 2.133340000006534e+000	 6.333350000014584e+000	 9.883689215869310e+000
0	 2.133340000006534e+000	 6.400020000016400e+000	 9.885497730496962e+000
0	 2.133340000006534e+000	 6.466690000017617e+000	 9.887713218521640e+000
0	 2.133340000006534e+000	 6.533360000018135e+000	 9.890380704819540e+000
0	 2.133340000006535e+000	 6.600030000017850e+000	 9.893545214266851e+000
0	 2.133340000006534e+000	 6.666700000016665e+000	 9.897251771739793e+000
0	 2.200010000009551e+000	 6.000000000000000e+000	 9.892214828042519e+000
0	 2.200010000009551e+000	 6.066670000003318e+000	 9.892544101448564e+000
0	 2.200010000009551e+000	 6.133340000006534e+000	 9.893032113724468e+000
0	 2.200010000009551e+000	 6.200010000009551e+000	 9.893716393687241e+000
0	 2.200010000009551e+000	 6.266680000012268e+000	 9.894634470153832e+000
0	 2.200010000009550e+000	 6.333350000014584e+000	 9.895823871941252e+000
0	 2.200010000009550e+000	 6.400020000016403e+000	 9.897322127866479e+000
0	 2.200010000009551e+000	 6.466690000017617e+000	 9.899166766746511e+000
0	 2.200010000009550e+000	 6.533360000018132e+000	 9.901395317398347e+000
0	 2.200010000009551e+000	 6.600030000017851e+000	 9.904045308638986e+000
0	 2.200010000009551e+000	 6.666700000016667e+000	 9.907154269285439e+000
0	 2.266680000012268e+000	 6.000000000000000e+000	 9.905104483360644e+000
0	 2.266680000012267e+000	 6.066670000003316e+000	 9.905375149217869e+000
0	 2.266680000012267e+000	 6.133340000006531e+000	 9.905770777248961e+000
0	 2.266680000012268e+000	 6.200010000009551e+000	 9.906321645145800e+000
0	 2.266680000012267e+000	 6.266680000012268e+000	 9.907058030600252e+000
0	 2.266680000012268e+000	 6.333350000014584e+000	 9.908010211304172e+000
0	 2.266680000012268e+000	 6.400020000016402e+000	 9.909208464949462e+000
0	 2.266680000012267e+000	 6.466690000017616e+000	 9.910683069227975e+000
0	 2.266680000012267e+000	 6.533360000018132e+000	 9.912464301831598e+000
0	 2.266680000012267e+000	 6.600030000017849e+000	 9.914582440452220e+000
0	 2.266680000012268e+000	 6.666700000016666e+000	 9.917067762781716e+000
0	 2.333350000014584e+000	 6.000000000000000e+000	 9.917837908245058e+000
0	 2.333350000014584e+000	 6.066670000003316e+000	 9.918087535180368e+000
0	 2.333350000014585e+000	 6.133340000006532e+000	 9.918421951370203e+000
0	 2.333350000014584e+000	 6.200010000009550e+000	 9.918864428315441e+000
0	 2.333350000014584e+000	 6.266680000012268e+000	 9.919438237516875e+000
0	 2.333350000014584e+000	 6.333350000014583e+000	 9.920166650475359e+000
0	 2.333350000014584e+000	 6.400020000016401e+000	 9.921072938691752e+000
0	 2.333350000014585e+000	 6.466690000017619e+000	 9.922180373666881e+000
0	 2.333350000014584e+000	 6.533360000018132e+000	 9.923512226901591e+000
0	 2.333350000014585e+000	 6.600030000017851e+000	 9.925091769896740e+000
0	 2.333350000014584e+000	 6.666700000016665e+000	 9.926942274153184e+000
0	 2.400020000016401e+000	 6.000000000000000e+000	 9.930408671966836e+000
0	 2.400020000016401e+000	 6.066670000003318e+000	 9.930651257403463e+000
0	 2.400020000016401e+000	 6.133340000006532e+000	 9.930936333278412e+000
0	 2.400020000016401e+000	 6.200010000009550e+000	 9.931280409835576e+000
0	 2.400020000016401e+000	 6.266680000012267e+000	 9.931699997318825e+000
0	 2.400020000016401e+000	 6.333350000014582e+000	 9.932211605972061e+000
0	 2.400020000016400e+000	 6.400020000016400e+000	 9.932831746039179e+000
0	 2.400020000016401e+000	 6.466690000017618e+000	 9.933576927764081e+000
0	 2.400020000016401e+000	 6.533360000018134e+000	 9.934463661390641e+000
0	 2.400020000016401e+000	 6.600030000017850e+000	 9.935508457162772e+000
0	 2.400020000016401e+000	 6.666700000016667e+000	 9.936727825324372e+000
0	 2.466690000017618e+000	 6.000000000000000e+000	 9.942810343797005e+000
0	 2.466690000017618e+000	 6.066670000003317e+000	 9.943036313954570e+000
0	 2.466690000017617e+000	 6.133340000006533e+000	 9.943264620163777e+000
0	 2.466690000017618e+000	 6.200010000009551e+000	 9.943505256345672e+000
0	 2.466690000017617e+000	 6.266680000012268e+000	 9.943768216421239e+000
0	 2.466690000017617e+000	 6.333350000014583e+000	 9.944063494311529e+000
0	 2.466690000017618e+000	 6.400020000016401e+000	 9.944401083937587e+000
0	 2.466690000017617e+000	 6.466690000017616e+000	 9.944790979220405e+000
0	 2.466690000017617e+000	 6.533360000018134e+000	 9.945243174081041e+000
0	 2.466690000017618e+000	 6.600030000017852e+000	 9.945767662440519e+000
0	 2.466690000017617e+000	 6.666700000016665e+000	 9.946374438219863e+000
0	 2.533360000018134e+000	 6.000000000000000e+000	 9.955036493006634e+000
0	 2.533360000018133e+000	 6.066670000003315e+000	 9.955212702901095e+000
0	 2.533360000018134e+000	 6.133340000006535e+000	 9.955357509216531e+000
0	 2.533360000018134e+000	 6.200010000009550e+000	 9.955474634485153e+000
0	 2.533360000018134e+000	 6.266680000012267e+000	 9.955567801239248e+000
0	 2.533360000018135e+000	 6.333350000014584e+000	 9.955640732011034e+000
0	 2.533360000018134e+000	 6.400020000016399e+000	 9.955697149332780e+000
0	 2.533360000018134e+000	 6.466690000017617e+000	 9.955740775736722e+000
0	 2.533360000018134e+000	 6.533360000018134e+000	 9.955775333755097e+000
0	 2.533360000018134e+000	 6.600030000017850e+000	 9.955804545920177e+000
0	 2.533360000018134e+000	 6.666700000016665e+000	 9.955832134764215e+000
0	 2.600030000017851e+000	 6.000000000000000e+000	 9.967080688866773e+000
0	 2.600030000017851e+000	 6.066670000003318e+000	 9.967150422310450e+000
0	 2.600030000017850e+000	 6.133340000006532e+000	 9.967165697626850e+000
0	 2.600030000017850e+000	 6.200010000009550e+000	 9.967124210893505e+000
0	 2.600030000017851e+000	 6.266680000012268e+000	 9.967023658187989e+000
0	 2.600030000017851e+000	 6.333350000014585e+000	 9.966861735587839e+000
0	 2.600030000017850e+000	 6.400020000016400e+000	 9.966636139170619e+000
0	 2.600030000017850e+000	 6.466690000017617e+000	 9.966344565013863e+000
0	 2.600030000017850e+000	 6.533360000018133e+000	 9.965984709195132e+000
0	 2.600030000017851e+000	 6.600030000017850e+000	 9.965554267791985e+000
0	 2.600030000017850e+000	 6.666700000016665e+000	 9.965050936881953e+000
0	 2.666700000016666e+000	 6.000000000000001e+000	 9.978936500648498e+000
0	 2.666700000016666e+000	 6.066670000003318e+000	 9.978819470250045e+000
0	 2.666700000016666e+000	 6.133340000006533e+000	 9.978639882584956e+000
0	 2.666700000016667e+000	 6.200010000009550e+000	 9.978389652210161e+000
0	 2.666700000016667e+000	 6.266680000012268e+000	 9.978060693682599e+000
0	 2.666700000016666e+000	 6.333350000014584e+000	 9.977644921559207e+000
0	 2.666700000016667e+000	 6.400020000016400e+000	 9.977134250396933e+000
0	 2.666700000016666e+000	 6.466690000017617e+000	 9.976520594752692e+000
0	 2.666700000016666e+000	 6.533360000018133e+000	 9.975795869183445e+000
0	 2.666700000016667e+000	 6.600030000017850e+000	 9.974951988246136e+000
0	 2.666700000016667e+000	 6.666700000016667e+000	 9.973980866497653e+000
0	 2.000000000000000e+000	 6.666700000016668e+000	 9.877679676802160e+000
0	 2.000000000000000e+000	 6.733360000014532e+000	 9.882709881384962e+000
0	 2.000000000000000e+000	 6.800020000011601e+000	 9.887556902419384e+000
0	 2.000000000000000e+000	 6.866680000008068e+000	 9.892203843370950e+000
0	 2.000000000000000e+000	 6.933340000004133e+000	 9.896633807705165e+000
0	 2.000000000000000e+000	 6.999999999999999e+000	 9.900829898887555e+000
0	 2.000000000000000e+000	 7.066659999995867e+000	 9.904775220383645e+000
0	 2.000000000000000e+000	 7.133319999991933e+000	 9.908452875658977e+000
0	 2.000000000000000e+000	 7.199979999988401e+000	 9.911845968179092e+000
0	 2.000000000000000e+000	 7.266639999985467e+000	 9.914937601409525e+000
0	 2.000000000000000e+000	 7.333299999983335e+000	 9.917710878815825e+000
0	 2.066670000003317e+000	 6.666700000016665e+000	 9.887410248220215e+000
0	 2.066670000003317e+000	 6.733360000014534e+000	 9.891918381571704e+000
0	 2.066670000003317e+000	 6.800020000011601e+000	 9.896261250459887e+000
0	 2.066670000003316e+000	 6.866680000008066e+000	 9.900425237083368e+000
0	 2.066670000003317e+000	 6.933340000004136e+000	 9.904396723640774e+000
0	 2.066670000003317e+000	 7.000000000000001e+000	 9.908162092330683e+000
0	 2.066670000003317e+000	 7.066659999995869e+000	 9.911707725351715e+000
0	 2.066670000003318e+000	 7.133319999991935e+000	 9.915020004902475e+000
0	 2.066670000003316e+000	 7.199979999988399e+000	 9.918085313181596e+000
0	 2.066670000003318e+000	 7.266639999985467e+000	 9.920890032387701e+000
0	 2.066670000003316e+000	 7.333299999983331e+000	 9.923420544719425e+000
0	 2.133340000006534e+000	 6.666700000016665e+000	 9.897251771739795e+000
0	 2.133340000006534e+000	 6.733360000014533e+000	 9.901178981377210e+000
0	 2.133340000006534e+000	 6.800020000011600e+000	 9.904969631788941e+000
0	 2.133340000006534e+000	 6.866680000008066e+000	 9.908613227982155e+000
0	 2.133340000006534e+000	 6.933340000004134e+000	 9.912099274963991e+000
0	 2.133340000006534e+000	 7.000000000000000e+000	 9.915417277741646e+000
0	 2.133340000006534e+000	 7.066659999995868e+000	 9.918556741322256e+000
0	 2.133340000006534e+000	 7.133319999991935e+000	 9.921507170712992e+000
0	 2.133340000006534e+000	 7.199979999988400e+000	 9.924258070921040e+000
0	 2.133340000006534e+000	 7.266639999985467e+000	 9.926798946953564e+000
0	 2.133340000006534e+000	 7.333299999983335e+000	 9.929119303817764e+000
0	 2.200010000009551e+000	 6.666700000016667e+000	 9.907154269285440e+000
0	 2.200010000009551e+000	 6.733360000014533e+000	 9.910457453611381e+000
0	 2.200010000009551e+000	 6.800020000011601e+000	 9.913661083176207e+000
0	 2.200010000009550e+000	 6.866680000008067e+000	 9.916757629871068e+000
0	 2.200010000009550e+000	 6.933340000004134e+000	 9.919739565587147e+000
0	 2.200010000009551e+000	 7.000000000000000e+000	 9.922599362215667e+000
0	 2.200010000009550e+000	 7.066659999995867e+000	 9.925329491647805e+000
0	 2.200010000009550e+000	 7.133319999991934e+000	 9.927922425774741e+000
0	 2.200010000009551e+000	 7.199979999988401e+000	 9.930370636487696e+000
0	 2.200010000009552e+000	 7.266639999985468e+000	 9.932666595677873e+000
0	 2.200010000009551e+000	 7.333299999983335e+000	 9.934802775236438e+000
0	 2.266680000012268e+000	 6.666700000016666e+000	 9.917067762781716e+000
0	 2.266680000012267e+000	 6.733360000014531e+000	 9.919719571084167e+000
0	 2.266680000012267e+000	 6.800020000011599e+000	 9.922314641391333e+000
0	 2.266680000012267e+000	 6.866680000008067e+000	 9.924848256553890e+000
0	 2.266680000012268e+000	 6.933340000004134e+000	 9.927315699422548e+000
0	 2.266680000012268e+000	 7.000000000000001e+000	 9.929712252847990e+000
0	 2.266680000012267e+000	 7.066659999995865e+000	 9.932033199680904e+000
0	 2.266680000012267e+000	 7.133319999991934e+000	 9.934273822771965e+000
0	 2.266680000012267e+000	 7.199979999988401e+000	 9.936429404971896e+000
0	 2.266680000012268e+000	 7.266639999985467e+000	 9.938495229131368e+000
0	 2.266680000012267e+000	 7.333299999983333e+000	 9.940466578101095e+000
0	 2.333350000014584e+000	 6.666700000016665e+000	 9.926942274153184e+000
0	 2.333350000014585e+000	 6.733360000014533e+000	 9.928931106605440e+000
0	 2.333350000014585e+000	 6.800020000011600e+000	 9.930909343203966e+000
0	 2.333350000014584e+000	 6.866680000008066e+000	 9.932874921834445e+000
0	 2.333350000014584e+000	 6.933340000004132e+000	 9.934825780382511e+000
0	 2.333350000014585e+000	 6.999999999999999e+000	 9.936759856733842e+000
0	 2.333350000014585e+000	 7.066659999995865e+000	 9.938675088774065e+000
0	 2.333350000014584e+000	 7.133319999991935e+000	 9.940569414388886e+000
0	 2.333350000014584e+000	 7.199979999988400e+000	 9.942440771463923e+000
0	 2.333350000014585e+000	 7.266639999985468e+000	 9.944287097884846e+000
0	 2.333350000014584e+000	 7.333299999983333e+000	 9.946106331537330e+000
0	 2.400020000016401e+000	 6.666700000016667e+000	 9.936727825324375e+000
0	 2.400020000016401e+000	 6.733360000014533e+000	 9.938057832985118e+000
0	 2.400020000016401e+000	 6.800020000011598e+000	 9.939424225383791e+000
0	 2.400020000016401e+000	 6.866680000008064e+000	 9.940827439516511e+000
0	 2.400020000016402e+000	 6.933340000004134e+000	 9.942267912379341e+000
0	 2.400020000016402e+000	 7.000000000000000e+000	 9.943746080968419e+000
0	 2.400020000016401e+000	 7.066659999995866e+000	 9.945262382279839e+000
0	 2.400020000016401e+000	 7.133319999991936e+000	 9.946817253309686e+000
0	 2.400020000016400e+000	 7.199979999988400e+000	 9.948411131054060e+000
0	 2.400020000016402e+000	 7.266639999985467e+000	 9.950044452509061e+000
0	 2.400020000016401e+000	 7.333299999983335e+000	 9.951717654670793e+000
0	 2.466690000017617e+000	 6.666700000016665e+000	 9.946374438219864e+000
0	 2.466690000017618e+000	 6.733360000014534e+000	 9.947065523033118e+000
0	 2.466690000017618e+000	 6.800020000011600e+000	 9.947838324700438e+000
0	 2.466690000017617e+000	 6.866680000008068e+000	 9.948695623403857e+000
0	 2.466690000017617e+000	 6.933340000004133e+000	 9.949640199325364e+000
0	 2.466690000017618e+000	 6.999999999999999e+000	 9.950674832646987e+000
0	 2.466690000017617e+000	 7.066659999995868e+000	 9.951802303550741e+000
0	 2.466690000017617e+000	 7.133319999991935e+000	 9.953025392218615e+000
0	 2.466690000017618e+000	 7.199979999988401e+000	 9.954346878832634e+000
0	 2.466690000017618e+000	 7.266639999985467e+000	 9.955769543574805e+000
0	 2.466690000017617e+000	 7.333299999983336e+000	 9.957296166627106e+000
0	 2.533360000018134e+000	 6.666700000016665e+000	 9.955832134764213e+000
0	 2.533360000018134e+000	 6.733360000014532e+000	 9.955919949559359e+000
0	 2.533360000018134e+000	 6.800020000011599e+000	 9.956130677923596e+000
0	 2.533360000018134e+000	 6.866680000008065e+000	 9.956469287300299e+000
0	 2.533360000018134e+000	 6.933340000004132e+000	 9.956940745132892e+000
0	 2.533360000018133e+000	 6.999999999999999e+000	 9.957550018864756e+000
0	 2.533360000018134e+000	 7.066659999995868e+000	 9.958302075939297e+000
0	 2.533360000018134e+000	 7.133319999991935e+000	 9.959201883799901e+000
0	 2.533360000018134e+000	 7.199979999988400e+000	 9.960254409889933e+000
0	 2.533360000018134e+000	 7.266639999985466e+000	 9.961464621652802e+000
0	 2.533360000018134e+000	 7.333299999983334e+000	 9.962837486531891e+000
0	 2.600030000017850e+000	 6.666700000016665e+000	 9.965050936881953e+000
0	 2.600030000017851e+000	 6.733360000014532e+000	 9.964586885373745e+000
0	 2.600030000017850e+000	 6.800020000011601e+000	 9.964280321822887e+000
0	 2.600030000017851e+000	 6.866680000008067e+000	 9.964138245009634e+000
0	 2.600030000017851e+000	 6.933340000004134e+000	 9.964167653714243e+000
0	 2.600030000017851e+000	 7.000000000000000e+000	 9.964375546716960e+000
0	 2.600030000017851e+000	 7.066659999995867e+000	 9.964768922798053e+000
0	 2.600030000017850e+000	 7.133319999991934e+000	 9.965354780737734e+000
0	 2.600030000017851e+000	 7.199979999988402e+000	 9.966140119316256e+000
0	 2.600030000017851e+000	 7.266639999985467e+000	 9.967131937313862e+000
0	 2.600030000017851e+000	 7.333299999983335e+000	 9.968337233510763e+000
0	 2.666700000016667e+000	 6.666700000016667e+000	 9.973980866497653e+000
0	 2.666700000016666e+000	 6.733360000014533e+000	 9.973032103286188e+000
0	 2.666700000016666e+000	 6.800020000011599e+000	 9.972266293167992e+000
0	 2.666700000016666e+000	 6.866680000008068e+000	 9.971692310335641e+000
0	 2.666700000016667e+000	 6.933340000004134e+000	 9.971319028981732e+000
0	 2.666700000016667e+000	 7.000000000000000e+000	 9.971155323298833e+000
0	 2.666700000016667e+000	 7.066659999995867e+000	 9.971210067479520e+000
0	 2.666700000016666e+000	 7.133319999991936e+000	 9.971492135716355e+000
0	 2.666700000016666e+000	 7.199979999988401e+000	 9.972010402201908e+000
0	 2.666700000016666e+000	 7.266639999985467e+000	 9.972773741128723e+000
0	 2.666700000016667e+000	 7.333299999983335e+000	 9.973791026689364e+000
0	 2.000000000000000e+000	 7.333299999983335e+000	 9.917710878815823e+000
0	 2.000000000000000e+000	 7.399969999982151e+000	 9.920337469349754e+000
0	 2.000000000000000e+000	 7.466639999981867e+000	 9.923006967612681e+000
0	 2.000000000000000e+000	 7.533309999982384e+000	 9.925730539472255e+000
0	 2.000000000000000e+000	 7.599979999983599e+000	 9.928519350796117e+000
0	 2.000000000000000e+000	 7.666649999985416e+000	 9.931384567451909e+000
0	 2.000000000000000e+000	 7.733319999987733e+000	 9.934337355307282e+000
0	 2.000000000000000e+000	 7.799989999990449e+000	 9.937388880229884e+000
0	 2.000000000000000e+000	 7.866659999993466e+000	 9.940550308087358e+000
0	 2.000000000000000e+000	 7.933329999996684e+000	 9.943832804747361e+000
0	 2.000000000000000e+000	 7.999999999999999e+000	 9.947247536077544e+000
0	 2.066670000003316e+000	 7.333299999983331e+000	 9.923420544719425e+000
0	 2.066670000003317e+000	 7.399969999982150e+000	 9.925829095514759e+000
0	 2.066670000003317e+000	 7.466639999981865e+000	 9.928282951286219e+000
0	 2.066670000003317e+000	 7.533309999982384e+000	 9.930792101093038e+000
0	 2.066670000003318e+000	 7.599979999983600e+000	 9.933366533994464e+000
0	 2.066670000003317e+000	 7.666649999985414e+000	 9.936016239049758e+000
0	 2.066670000003317e+000	 7.733319999987731e+000	 9.938751205318143e+000
0	 2.066670000003317e+000	 7.799989999990450e+000	 9.941581421858896e+000
0	 2.066670000003317e+000	 7.866659999993468e+000	 9.944516877731227e+000
0	 2.066670000003318e+000	 7.933329999996684e+000	 9.947567561994404e+000
0	 2.066670000003317e+000	 7.999999999999999e+000	 9.950743463707690e+000
0	 2.133340000006534e+000	 7.333299999983335e+000	 9.929119303817762e+000
0	 2.133340000006534e+000	 7.399969999982150e+000	 9.931344054452541e+000
0	 2.133340000006534e+000	 7.466639999981867e+000	 9.933610368555300e+000
0	 2.133340000006533e+000	 7.533309999982382e+000	 9.935927129339790e+000
0	 2.133340000006534e+000	 7.599979999983600e+000	 9.938303220019771e+000
0	 2.133340000006534e+000	 7.666649999985416e+000	 9.940747523808973e+000
0	 2.133340000006534e+000	 7.733319999987731e+000	 9.943268923921144e+000
0	 2.133340000006534e+000	 7.799989999990448e+000	 9.945876303570049e+000
0	 2.133340000006534e+000	 7.866659999993466e+000	 9.948578545969415e+000
0	 2.133340000006534e+000	 7.933329999996685e+000	 9.951384534332989e+000
0	 2.133340000006534e+000	 8.000000000000000e+000	 9.954303151874555e+000
0	 2.200010000009551e+000	 7.333299999983335e+000	 9.934802775236436e+000
0	 2.200010000009551e+000	 7.399969999982150e+000	 9.936870734516432e+000
0	 2.200010000009551e+000	 7.466639999981867e+000	 9.938971667635059e+000
0	 2.200010000009551e+000	 7.533309999982385e+000	 9.941113422923481e+000
0	 2.200010000009550e+000	 7.599979999983601e+000	 9.943303848712866e+000
0	 2.200010000009550e+000	 7.666649999985416e+000	 9.945550793334325e+000
0	 2.200010000009551e+000	 7.733319999987732e+000	 9.947862105119055e+000
0	 2.200010000009551e+000	 7.799989999990449e+000	 9.950245632398170e+000
0	 2.200010000009551e+000	 7.866659999993468e+000	 9.952709223502842e+000
0	 2.200010000009551e+000	 7.933329999996684e+000	 9.955260726764216e+000
0	 2.200010000009551e+000	 8.000000000000000e+000	 9.957907990513458e+000
0	 2.266680000012267e+000	 7.333299999983333e+000	 9.940466578101095e+000
0	 2.266680000012267e+000	 7.399969999982149e+000	 9.942397524059777e+000
0	 2.266680000012267e+000	 7.466639999981863e+000	 9.944349296740610e+000
0	 2.266680000012267e+000	 7.533309999982382e+000	 9.946328780555056e+000
0	 2.266680000012267e+000	 7.599979999983599e+000	 9.948342859914582e+000
0	 2.266680000012268e+000	 7.666649999985416e+000	 9.950398419230616e+000
0	 2.266680000012267e+000	 7.733319999987733e+000	 9.952502342914633e+000
0	 2.266680000012268e+000	 7.799989999990449e+000	 9.954661515378083e+000
0	 2.266680000012267e+000	 7.866659999993468e+000	 9.956882821032433e+000
0	 2.266680000012267e+000	 7.933329999996682e+000	 9.959173144289133e+000
0	 2.266680000012267e+000	 7.999999999999998e+000	 9.961539369559642e+000
0	 2.333350000014584e+000	 7.333299999983333e+000	 9.946106331537328e+000
0	 2.333350000014584e+000	 7.399969999982148e+000	 9.947912811435923e+000
0	 2.333350000014584e+000	 7.466639999981866e+000	 9.949725704087101e+000
0	 2.333350000014584e+000	 7.533309999982383e+000	 9.951551000945486e+000
0	 2.333350000014584e+000	 7.599979999983599e+000	 9.953394693465775e+000
0	 2.333350000014585e+000	 7.666649999985417e+000	 9.955262773102618e+000
0	 2.333350000014584e+000	 7.733319999987733e+000	 9.957161231310673e+000
0	 2.333350000014584e+000	 7.799989999990449e+000	 9.959096059544613e+000
0	 2.333350000014585e+000	 7.866659999993465e+000	 9.961073249259112e+000
0	 2.333350000014584e+000	 7.933329999996682e+000	 9.963098791908818e+000
0	 2.333350000014583e+000	 8.000000000000000e+000	 9.965178678948382e+000
0	 2.400020000016401e+000	 7.333299999983335e+000	 9.951717654670793e+000
0	 2.400020000016401e+000	 7.399969999982149e+000	 9.953404984998251e+000
0	 2.400020000016401e+000	 7.466639999981866e+000	 9.955083337889642e+000
0	 2.400020000016401e+000	 7.533309999982383e+000	 9.956757882805729e+000
0	 2.400020000016401e+000	 7.599979999983599e+000	 9.958433789207287e+000
0	 2.400020000016401e+000	 7.666649999985415e+000	 9.960116226555119e+000
0	 2.400020000016401e+000	 7.733319999987733e+000	 9.961810364309962e+000
0	 2.400020000016400e+000	 7.799989999990447e+000	 9.963521371932599e+000
0	 2.400020000016401e+000	 7.866659999993467e+000	 9.965254418883808e+000
0	 2.400020000016401e+000	 7.933329999996683e+000	 9.967014674624345e+000
0	 2.400020000016401e+000	 8.000000000000000e+000	 9.968807308615013e+000
0	 2.466690000017617e+000	 7.333299999983336e+000	 9.957296166627106e+000
0	 2.466690000017618e+000	 7.399969999982151e+000	 9.958862433100078e+000
0	 2.466690000017618e+000	 7.466639999981866e+000	 9.960404646363365e+000
0	 2.466690000017617e+000	 7.533309999982383e+000	 9.961927224846736e+000
0	 2.466690000017618e+000	 7.599979999983601e+000	 9.963434586979986e+000
0	 2.466690000017618e+000	 7.666649999985418e+000	 9.964931151192896e+000
0	 2.466690000017617e+000	 7.733319999987734e+000	 9.966421335915252e+000
0	 2.466690000017618e+000	 7.799989999990449e+000	 9.967909559576826e+000
0	 2.466690000017617e+000	 7.866659999993468e+000	 9.969400240607408e+000
0	 2.466690000017618e+000	 7.933329999996683e+000	 9.970897797436800e+000
0	 2.466690000017618e+000	 8.000000000000000e+000	 9.972406648494770e+000
0	 2.533360000018134e+000	 7.333299999983334e+000	 9.962837486531889e+000
0	 2.533360000018134e+000	 7.399969999982149e+000	 9.964273544094761e+000
0	 2.533360000018134e+000	 7.466639999981867e+000	 9.965672077723395e+000
0	 2.533360000018134e+000	 7.533309999982385e+000	 9.967036825779468e+000
0	 2.533360000018134e+000	 7.599979999983598e+000	 9.968371526624690e+000
0	 2.533360000018134e+000	 7.666649999985415e+000	 9.969679918620733e+000
0	 2.533360000018134e+000	 7.733319999987733e+000	 9.970965740129319e+000
0	 2.533360000018134e+000	 7.799989999990449e+000	 9.972232729512141e+000
0	 2.533360000018134e+000	 7.866659999993467e+000	 9.973484625130883e+000
0	 2.533360000018134e+000	 7.933329999996683e+000	 9.974725165347250e+000
0	 2.533360000018133e+000	 8.000000000000000e+000	 9.975958088522930e+000
0	 2.600030000017851e+000	 7.333299999983335e+000	 9.968337233510763e+000
0	 2.600030000017851e+000	 7.399969999982149e+000	 9.969626706335662e+000
0	 2.600030000017850e+000	 7.466639999981865e+000	 9.970868080184864e+000
0	 2.600030000017851e+000	 7.533309999982384e+000	 9.972064484314892e+000
0	 2.600030000017851e+000	 7.599979999983599e+000	 9.973219047982241e+000
0	 2.600030000017851e+000	 7.666649999985416e+000	 9.974334900443425e+000
0	 2.600030000017850e+000	 7.733319999987733e+000	 9.975415170954966e+000
0	 2.600030000017850e+000	 7.799989999990449e+000	 9.976462988773355e+000
0	 2.600030000017851e+000	 7.866659999993467e+000	 9.977481483155124e+000
0	 2.600030000017850e+000	 7.933329999996685e+000	 9.978473783356765e+000
0	 2.600030000017851e+000	 8.000000000000000e+000	 9.979443018634790e+000
0	 2.666700000016667e+000	 7.333299999983335e+000	 9.973791026689362e+000
0	 2.666700000016667e+000	 7.399969999982151e+000	 9.974910308176121e+000
0	 2.666700000016666e+000	 7.466639999981866e+000	 9.975975101962908e+000
0	 2.666700000016666e+000	 7.533309999982383e+000	 9.976987999163956e+000
0	 2.666700000016666e+000	 7.599979999983598e+000	 9.977951590893495e+000
0	 2.666700000016666e+000	 7.666649999985416e+000	 9.978868468265748e+000
0	 2.666700000016667e+000	 7.733319999987733e+000	 9.979741222394937e+000
0	 2.666700000016667e+000	 7.799989999990449e+000	 9.980572444395303e+000
0	 2.666700000016665e+000	 7.866659999993464e+000	 9.981364725381059e+000
0	 2.666700000016666e+000	 7.933329999996683e+000	 9.982120656466423e+000
0	 2.666700000016667e+000	 8.000000000000000e+000	 9.982842828765643e+000
0	 2.000000000000000e+000	 7.999999999999999e+000	 9.947247536077544e+000
0	 2.000000000000000e+000	 8.066670000003319e+000	 9.950660283179131e+000
0	 2.000000000000000e+000	 8.133340000006534e+000	 9.953930263225038e+000
0	 2.000000000000000e+000	 8.200010000009549e+000	 9.957058796190410e+000
0	 2.000000000000000e+000	 8.266680000012267e+000	 9.960047202050415e+000
0	 2.000000000000000e+000	 8.333350000014585e+000	 9.962896800780186e+000
0	 1.999999999999999e+000	 8.400020000016397e+000	 9.965608912354870e+000
0	 2.000000000000000e+000	 8.466690000017618e+000	 9.968184856749613e+000
0	 2.000000000000000e+000	 8.533360000018131e+000	 9.970625953939559e+000
0	 2.000000000000000e+000	 8.600030000017851e+000	 9.972933523899856e+000
0	 2.000000000000000e+000	 8.666700000016666e+000	 9.975108886605637e+000
0	 2.066670000003317e+000	 7.999999999999999e+000	 9.950743463707690e+000
0	 2.066670000003317e+000	 8.066670000003317e+000	 9.953918056748494e+000
0	 2.066670000003316e+000	 8.133340000006532e+000	 9.956959262896545e+000
0	 2.066670000003317e+000	 8.200010000009549e+000	 9.959868743064453e+000
0	 2.066670000003317e+000	 8.266680000012268e+000	 9.962648158164853e+000
0	 2.066670000003317e+000	 8.333350000014583e+000	 9.965299169110372e+000
0	 2.066670000003318e+000	 8.400020000016401e+000	 9.967823436813655e+000
0	 2.066670000003316e+000	 8.466690000017616e+000	 9.970222622187301e+000
0	 2.066670000003317e+000	 8.533360000018135e+000	 9.972498386143931e+000
0	 2.066670000003317e+000	 8.600030000017851e+000	 9.974652389596187e+000
0	 2.066670000003317e+000	 8.666700000016666e+000	 9.976686293456680e+000
0	 2.133340000006534e+000	 8.000000000000000e+000	 9.954303151874555e+000
0	 2.133340000006534e+000	 8.066670000003317e+000	 9.957220037490519e+000
0	 2.133340000006534e+000	 8.133340000006536e+000	 9.960016205539610e+000
0	 2.133340000006534e+000	 8.200010000009550e+000	 9.962693602429024e+000
0	 2.133340000006534e+000	 8.266680000012268e+000	 9.965254174565944e+000
0	 2.133340000006534e+000	 8.333350000014583e+000	 9.967699868357562e+000
0	 2.133340000006534e+000	 8.400020000016401e+000	 9.970032630211057e+000
0	 2.133340000006534e+000	 8.466690000017616e+000	 9.972254406533631e+000
0	 2.133340000006534e+000	 8.533360000018135e+000	 9.974367143732460e+000
0	 2.133340000006535e+000	 8.600030000017851e+000	 9.976372788214720e+000
0	 2.133340000006534e+000	 8.666700000016668e+000	 9.978273286387617e+000
0	 2.200010000009551e+000	 8.000000000000000e+000	 9.957907990513458e+000
0	 2.200010000009551e+000	 8.066670000003319e+000	 9.960552296169908e+000
0	 2.200010000009551e+000	 8.133340000006532e+000	 9.963091143904743e+000
0	 2.200010000009551e+000	 8.200010000009550e+000	 9.965526710176775e+000
0	 2.200010000009551e+000	 8.266680000012268e+000	 9.967861171444854e+000
0	 2.200010000009550e+000	 8.333350000014583e+000	 9.970096704167784e+000
0	 2.200010000009550e+000	 8.400020000016399e+000	 9.972235484804418e+000
0	 2.200010000009551e+000	 8.466690000017618e+000	 9.974279689813583e+000
0	 2.200010000009550e+000	 8.533360000018135e+000	 9.976231495654098e+000
0	 2.200010000009550e+000	 8.600030000017851e+000	 9.978093078784786e+000
0	 2.200010000009551e+000	 8.666700000016666e+000	 9.979866615664466e+000
0	 2.266680000012267e+000	 7.999999999999998e+000	 9.961539369559642e+000
0	 2.266680000012268e+000	 8.066670000003319e+000	 9.963900903551348e+000
0	 2.266680000012267e+000	 8.133340000006530e+000	 9.966174130742395e+000
0	 2.266680000012268e+000	 8.200010000009554e+000	 9.968361402200328e+000
0	 2.266680000012266e+000	 8.266680000012265e+000	 9.970465068992715e+000
0	 2.266680000012268e+000	 8.333350000014583e+000	 9.972487482187102e+000
0	 2.266680000012268e+000	 8.400020000016403e+000	 9.974430992851028e+000
0	 2.266680000012267e+000	 8.466690000017618e+000	 9.976297952052070e+000
0	 2.266680000012268e+000	 8.533360000018135e+000	 9.978090710857764e+000
0	 2.266680000012268e+000	 8.600030000017849e+000	 9.979811620335653e+000
0	 2.266680000012268e+000	 8.666700000016670e+000	 9.981463031553290e+000
0	 2.333350000014583e+000	 8.000000000000000e+000	 9.965178678948382e+000
0	 2.333350000014584e+000	 8.066670000003315e+000	 9.967251930399536e+000
0	 2.333350000014585e+000	 8.133340000006532e+000	 9.969255218803065e+000
0	 2.333350000014584e+000	 8.200010000009552e+000	 9.971191014392343e+000
0	 2.333350000014583e+000	 8.266680000012267e+000	 9.973061787400715e+000
0	 2.333350000014584e+000	 8.333350000014583e+000	 9.974870008061549e+000
0	 2.333350000014584e+000	 8.400020000016401e+000	 9.976618146608207e+000
0	 2.333350000014584e+000	 8.466690000017618e+000	 9.978308673274031e+000
0	 2.333350000014585e+000	 8.533360000018135e+000	 9.979944058292377e+000
0	 2.333350000014585e+000	 8.600030000017851e+000	 9.981526771896611e+000
0	 2.333350000014584e+000	 8.666700000016668e+000	 9.983059284320063e+000
0	 2.400020000016401e+000	 8.000000000000000e+000	 9.968807308615013e+000
0	 2.400020000016401e+000	 8.066670000003317e+000	 9.970591447479185e+000
0	 2.400020000016401e+000	 8.133340000006534e+000	 9.972324460837239e+000
0	 2.400020000016401e+000	 8.200010000009550e+000	 9.974008882645439e+000
0	 2.400020000016402e+000	 8.266680000012268e+000	 9.975647246860012e+000
0	 2.400020000016402e+000	 8.333350000014583e+000	 9.977242087437212e+000
0	 2.400020000016401e+000	 8.400020000016397e+000	 9.978795938333246e+000
0	 2.400020000016401e+000	 8.466690000017618e+000	 9.980311333504403e+000
0	 2.400020000016401e+000	 8.533360000018135e+000	 9.981790806906901e+000
0	 2.400020000016401e+000	 8.600030000017851e+000	 9.983236892496961e+000
0	 2.400020000016401e+000	 8.666700000016665e+000	 9.984652124230852e+000
0	 2.466690000017618e+000	 8.000000000000000e+000	 9.972406648494770e+000
0	 2.466690000017617e+000	 8.066670000003317e+000	 9.973905525554967e+000
0	 2.466690000017617e+000	 8.133340000006534e+000	 9.975371909595406e+000
0	 2.466690000017619e+000	 8.200010000009552e+000	 9.976808342852266e+000
0	 2.466690000017618e+000	 8.266680000012268e+000	 9.978217367561751e+000
0	 2.466690000017617e+000	 8.333350000014585e+000	 9.979601525960089e+000
0	 2.466690000017617e+000	 8.400020000016401e+000	 9.980963360283466e+000
0	 2.466690000017617e+000	 8.466690000017616e+000	 9.982305412768110e+000
0	 2.466690000017618e+000	 8.533360000018135e+000	 9.983630225650217e+000
0	 2.466690000017618e+000	 8.600030000017849e+000	 9.984940341165986e+000
0	 2.466690000017618e+000	 8.666700000016668e+000	 9.986238301551648e+000
0	 2.533360000018133e+000	 8.000000000000000e+000	 9.975958088522930e+000
0	 2.533360000018134e+000	 8.066670000003315e+000	 9.977180235391611e+000
0	 2.533360000018134e+000	 8.133340000006534e+000	 9.978387617828028e+000
0	 2.533360000018133e+000	 8.200010000009549e+000	 9.979582730905431e+000
0	 2.533360000018134e+000	 8.266680000012268e+000	 9.980768069697085e+000
0	 2.533360000018135e+000	 8.333350000014585e+000	 9.981946129276262e+000
0	 2.533360000018134e+000	 8.400020000016403e+000	 9.983119404716174e+000
0	 2.533360000018134e+000	 8.466690000017616e+000	 9.984290391090099e+000
0	 2.533360000018134e+000	 8.533360000018133e+000	 9.985461583471286e+000
0	 2.533360000018134e+000	 8.600030000017851e+000	 9.986635476933008e+000
0	 2.533360000018134e+000	 8.666700000016666e+000	 9.987814566548494e+000
0	 2.600030000017851e+000	 8.000000000000000e+000	 9.979443018634790e+000
0	 2.600030000017851e+000	 8.066670000003317e+000	 9.980401647753798e+000
0	 2.600030000017850e+000	 8.133340000006532e+000	 9.981361638285605e+000
0	 2.600030000017851e+000	 8.200010000009552e+000	 9.982325382697622e+000
0	 2.600030000017851e+000	 8.266680000012268e+000	 9.983295273457211e+000
0	 2.600030000017851e+000	 8.333350000014585e+000	 9.984273703031763e+000
0	 2.600030000017850e+000	 8.400020000016401e+000	 9.985263063888672e+000
0	 2.600030000017850e+000	 8.466690000017618e+000	 9.986265748495281e+000
0	 2.600030000017850e+000	 8.533360000018133e+000	 9.987284149319043e+000
0	 2.600030000017850e+000	 8.600030000017849e+000	 9.988320658827288e+000
0	 2.600030000017851e+000	 8.666700000016668e+000	 9.989377669487418e+000
0	 2.666700000016667e+000	 8.000000000000000e+000	 9.982842828765643e+000
0	 2.666700000016666e+000	 8.066670000003317e+000	 9.983555833406232e+000
0	 2.666700000016666e+000	 8.133340000006532e+000	 9.984284023718622e+000
0	 2.666700000016666e+000	 8.200010000009550e+000	 9.985029634121439e+000
0	 2.666700000016666e+000	 8.266680000012267e+000	 9.985794899033243e+000
0	 2.666700000016666e+000	 8.333350000014583e+000	 9.986582052872654e+000
0	 2.666700000016665e+000	 8.400020000016399e+000	 9.987393330058248e+000
0	 2.666700000016666e+000	 8.466690000017618e+000	 9.988230965008642e+000
0	 2.666700000016666e+000	 8.533360000018133e+000	 9.989097192142403e+000
0	 2.666700000016666e+000	 8.600030000017851e+000	 9.989994245878135e+000
0	 2.666700000016666e+000	 8.666700000016668e+000	 9.990924360634429e+000
0	 2.000000000000000e+000	 8.666700000016666e+000	 9.975108886605637e+000
0	 2.000000000000000e+000	 8.733360002791905e+000	 9.977178026980461e+000
0	 2.000000000000000e+000	 8.800020022230555e+000	 9.979169885704685e+000
0	 2.000000000000000e+000	 8.866680074997039e+000	 9.981089267268356e+000
0	 2.000000000000000e+000	 8.933340177755779e+000	 9.982940976423869e+000
0	 2.000000000000000e+000	 9.000000347171183e+000	 9.984729818185974e+000
0	 2.000000000000000e+000	 9.066660599907667e+000	 9.986460597831846e+000
0	 2.000000000000000e+000	 9.133320952629653e+000	 9.988138120900981e+000
0	 2.000000000000000e+000	 9.199981422001558e+000	 9.989767193195197e+000
0	 2.000000000000000e+000	 9.266642024687796e+000	 9.991352620778683e+000
0	 2.000000000000000e+000	 9.333302777352783e+000	 9.992899209977946e+000
0	 2.066670000003317e+000	 8.666700000016666e+000	 9.976686293456680e+000
0	 2.066670000003317e+000	 8.733360002791905e+000	 9.978622923177486e+000
0	 2.066670000003317e+000	 8.800020022230557e+000	 9.980487532539181e+000
0	 2.066670000003318e+000	 8.866680074997042e+000	 9.982284536692939e+000
0	 2.066670000003317e+000	 8.933340177755779e+000	 9.984018351036427e+000
0	 2.066670000003317e+000	 9.000000347171184e+000	 9.985693391213877e+000
0	 2.066670000003317e+000	 9.066660599907671e+000	 9.987314073115977e+000
0	 2.066670000003316e+000	 9.133320952629656e+000	 9.988884812879929e+000
0	 2.066670000003317e+000	 9.199981422001560e+000	 9.990410026889427e+000
0	 2.066670000003317e+000	 9.266642024687798e+000	 9.991894131774634e+000
0	 2.066670000003317e+000	 9.333302777352783e+000	 9.993341544412186e+000
0	 2.133340000006534e+000	 8.666700000016668e+000	 9.978273286387617e+000
0	 2.133340000006534e+000	 8.733360002791903e+000	 9.980085994485350e+000
0	 2.133340000006534e+000	 8.800020022230553e+000	 9.981830231890871e+000
0	 2.133340000006534e+000	 8.866680074997042e+000	 9.983510058092499e+000
0	 2.133340000006534e+000	 8.933340177755776e+000	 9.985129532811611e+000
0	 2.133340000006534e+000	 9.000000347171181e+000	 9.986692716002541e+000
0	 2.133340000006534e+000	 9.066660599907666e+000	 9.988203667852661e+000
0	 2.133340000006534e+000	 9.133320952629655e+000	 9.989666448782316e+000
0	 2.133340000006534e+000	 9.199981422001558e+000	 9.991085119444836e+000
0	 2.133340000006534e+000	 9.266642024687796e+000	 9.992463740726528e+000
0	 2.133340000006534e+000	 9.333302777352783e+000	 9.993806373746651e+000
0	 2.200010000009551e+000	 8.666700000016666e+000	 9.979866615664468e+000
0	 2.200010000009551e+000	 8.733360002791905e+000	 9.981562202330855e+000
0	 2.200010000009551e+000	 8.800020022230557e+000	 9.983191494452305e+000
0	 2.200010000009550e+000	 8.866680074997039e+000	 9.984758229531110e+000
0	 2.200010000009551e+000	 8.933340177755778e+000	 9.986266145290838e+000
0	 2.200010000009550e+000	 9.000000347171183e+000	 9.987718979676410e+000
0	 2.200010000009550e+000	 9.066660599907667e+000	 9.989120470854163e+000
0	 2.200010000009551e+000	 9.133320952629656e+000	 9.990474357211634e+000
0	 2.200010000009551e+000	 9.199981422001558e+000	 9.991784377357813e+000
0	 2.200010000009551e+000	 9.266642024687799e+000	 9.993054270122974e+000
0	 2.200010000009551e+000	 9.333302777352783e+000	 9.994287774558650e+000
0	 2.266680000012268e+000	 8.666700000016670e+000	 9.981463031553290e+000
0	 2.266680000012267e+000	 8.733360002791901e+000	 9.983046508140747e+000
0	 2.266680000012267e+000	 8.800020022230553e+000	 9.984564830916066e+000
0	 2.266680000012267e+000	 8.866680074997042e+000	 9.986021449072812e+000
0	 2.266680000012268e+000	 8.933340177755781e+000	 9.987419812015563e+000
0	 2.266680000012268e+000	 9.000000347171181e+000	 9.988763369359967e+000
0	 2.266680000012267e+000	 9.066660599907669e+000	 9.990055570932668e+000
0	 2.266680000012268e+000	 9.133320952629653e+000	 9.991299866771390e+000
0	 2.266680000012267e+000	 9.199981422001558e+000	 9.992499707124797e+000
0	 2.266680000012267e+000	 9.266642024687796e+000	 9.993658542452586e+000
0	 2.266680000012268e+000	 9.333302777352783e+000	 9.994779823425478e+000
0	 2.333350000014584e+000	 8.666700000016668e+000	 9.983059284320063e+000
0	 2.333350000014585e+000	 8.733360002791905e+000	 9.984533873341857e+000
0	 2.333350000014585e+000	 8.800020022230557e+000	 9.985943751974720e+000
0	 2.333350000014584e+000	 8.866680074997040e+000	 9.987292114781642e+000
0	 2.333350000014585e+000	 8.933340177755779e+000	 9.988582156527235e+000
0	 2.333350000014585e+000	 9.000000347171183e+000	 9.989817072177619e+000
0	 2.333350000014585e+000	 9.066660599907669e+000	 9.991000056900493e+000
0	 2.333350000014584e+000	 9.133320952629658e+000	 9.992134306065093e+000
0	 2.333350000014585e+000	 9.199981422001560e+000	 9.993223015242167e+000
0	 2.333350000014584e+000	 9.266642024687796e+000	 9.994269380204017e+000
0	 2.333350000014584e+000	 9.333302777352781e+000	 9.995276596924457e+000
0	 2.400020000016401e+000	 8.666700000016665e+000	 9.984652124230852e+000
0	 2.400020000016400e+000	 8.733360002791899e+000	 9.986019259360981e+000
0	 2.400020000016401e+000	 8.800020022230555e+000	 9.987321768320804e+000
0	 2.400020000016401e+000	 8.866680074997040e+000	 9.988562624721670e+000
0	 2.400020000016402e+000	 8.933340177755779e+000	 9.989744802367293e+000
0	 2.400020000016401e+000	 9.000000347171181e+000	 9.990871275253820e+000
0	 2.400020000016401e+000	 9.066660599907667e+000	 9.991945017569837e+000
0	 2.400020000016401e+000	 9.133320952629655e+000	 9.992969003696238e+000
0	 2.400020000016401e+000	 9.199981422001558e+000	 9.993946208206344e+000
0	 2.400020000016402e+000	 9.266642024687796e+000	 9.994879605865895e+000
0	 2.400020000016400e+000	 9.333302777352781e+000	 9.995772171632861e+000
0	 2.466690000017618e+000	 8.666700000016668e+000	 9.986238301551648e+000
0	 2.466690000017617e+000	 8.733360002791901e+000	 9.987497627624896e+000
0	 2.466690000017618e+000	 8.800020022230559e+000	 9.988692390646925e+000
0	 2.466690000017618e+000	 8.866680074997042e+000	 9.989825376956915e+000
0	 2.466690000017617e+000	 8.933340177755776e+000	 9.990899373077172e+000
0	 2.466690000017618e+000	 9.000000347171183e+000	 9.991917165713030e+000
0	 2.466690000017617e+000	 9.066660599907667e+000	 9.992881541752922e+000
0	 2.466690000017618e+000	 9.133320952629656e+000	 9.993795288268313e+000
0	 2.466690000017618e+000	 9.199981422001557e+000	 9.994661192513743e+000
0	 2.466690000017618e+000	 9.266642024687798e+000	 9.995482041926783e+000
0	 2.466690000017618e+000	 9.333302777352783e+000	 9.996260624128027e+000
0	 2.533360000018134e+000	 8.666700000016666e+000	 9.987814566548494e+000
0	 2.533360000018134e+000	 8.733360002791899e+000	 9.988963939560394e+000
0	 2.533360000018134e+000	 8.800020022230557e+000	 9.990049129645600e+000
0	 2.533360000018134e+000	 8.866680074997042e+000	 9.991072769551444e+000
0	 2.533360000018135e+000	 8.933340177755779e+000	 9.992037492198312e+000
0	 2.533360000018135e+000	 9.000000347171181e+000	 9.992945930679669e+000
0	 2.533360000018134e+000	 9.066660599907667e+000	 9.993800718262001e+000
0	 2.533360000018135e+000	 9.133320952629656e+000	 9.994604488384846e+000
0	 2.533360000018134e+000	 9.199981422001557e+000	 9.995359874660780e+000
0	 2.533360000018134e+000	 9.266642024687798e+000	 9.996069510875371e+000
0	 2.533360000018134e+000	 9.333302777352783e+000	 9.996736030987249e+000
0	 2.600030000017851e+000	 8.666700000016668e+000	 9.989377669487418e+000
0	 2.600030000017851e+000	 8.733360002791903e+000	 9.990413156594277e+000
0	 2.600030000017850e+000	 8.800020022230555e+000	 9.991385496009427e+000
0	 2.600030000017850e+000	 8.866680074997042e+000	 9.992297200569292e+000
0	 2.600030000017851e+000	 8.933340177755778e+000	 9.993150783272160e+000
0	 2.600030000017851e+000	 9.000000347171183e+000	 9.993948757278192e+000
0	 2.600030000017851e+000	 9.066660599907669e+000	 9.994693635909311e+000
0	 2.600030000017851e+000	 9.133320952629655e+000	 9.995387932649324e+000
0	 2.600030000017851e+000	 9.199981422001558e+000	 9.996034161143838e+000
0	 2.600030000017851e+000	 9.266642024687798e+000	 9.996634835200252e+000
0	 2.600030000017850e+000	 9.333302777352781e+000	 9.997192468787807e+000
0	 2.666700000016666e+000	 8.666700000016668e+000	 9.990924360634427e+000
0	 2.666700000016667e+000	 8.733360002791903e+000	 9.991840240153323e+000
0	 2.666700000016667e+000	 8.800020022230555e+000	 9.992695000430945e+000
0	 2.666700000016666e+000	 8.866680074997040e+000	 9.993491068074514e+000
0	 2.666700000016667e+000	 8.933340177755779e+000	 9.994230869840182e+000
0	 2.666700000016666e+000	 9.000000347171183e+000	 9.994916832633045e+000
0	 2.666700000016666e+000	 9.066660599907667e+000	 9.995551383507085e+000
0	 2.666700000016666e+000	 9.133320952629655e+000	 9.996136949665242e+000
0	 2.666700000016667e+000	 9.199981422001557e+000	 9.996675958459338e+000
0	 2.666700000016667e+000	 9.266642024687794e+000	 9.997170837390058e+000
0	 2.666700000016666e+000	 9.333302777352785e+000	 9.997624014107021e+000
0	 2.000000000000000e+000	 9.333302777352783e+000	 9.992899209977948e+000
0	 2.000000000000000e+000	 9.399973674588177e+000	 9.994336238738658e+000
0	 2.000000000000000e+000	 9.466644621844621e+000	 9.995593147055098e+000
0	 2.000000000000000e+000	 9.533315502449998e+000	 9.996675669966257e+000
0	 2.000000000000000e+000	 9.599986199732198e+000	 9.997589539079479e+000
0	 2.000000000000000e+000	 9.666656597019093e+000	 9.998340482570081e+000
0	 2.000000000000000e+000	 9.733326577638575e+000	 9.998934225180683e+000
0	 2.000000000000000e+000	 9.799996024918524e+000	 9.999376488220564e+000
0	 2.000000000000000e+000	 9.866664822186822e+000	 9.999672989564854e+000
0	 2.000000000000000e+000	 9.933332852771352e+000	 9.999829443653784e+000
0	 2.000000000000000e+000	 1.000000000000000e+001	 9.999851561491720e+000
0	 2.066670000003317e+000	 9.333302777352783e+000	 9.993341544412184e+000
0	 2.066670000003317e+000	 9.399973674588177e+000	 9.994686019682558e+000
0	 2.066670000003317e+000	 9.466644621844623e+000	 9.995861494624885e+000
0	 2.066670000003317e+000	 9.533315502450000e+000	 9.996873300932201e+000
0	 2.066670000003317e+000	 9.599986199732197e+000	 9.997726767079557e+000
0	 2.066670000003318e+000	 9.666656597019095e+000	 9.998427218323498e+000
0	 2.066670000003317e+000	 9.733326577638573e+000	 9.998979976701543e+000
0	 2.066670000003318e+000	 9.799996024918524e+000	 9.999390361031491e+000
0	 2.066670000003318e+000	 9.866664822186822e+000	 9.999663686910720e+000
0	 2.066670000003317e+000	 9.933332852771352e+000	 9.999805266715343e+000
0	 2.066670000003316e+000	 9.999999999999998e+000	 9.999820409599259e+000
0	 2.133340000006534e+000	 9.333302777352783e+000	 9.993806373746649e+000
0	 2.133340000006534e+000	 9.399973674588177e+000	 9.995052784987857e+000
0	 2.133340000006534e+000	 9.466644621844621e+000	 9.996142895996352e+000
0	 2.133340000006534e+000	 9.533315502450003e+000	 9.997081595176180e+000
0	 2.133340000006534e+000	 9.599986199732195e+000	 9.997873767942322e+000
0	 2.133340000006534e+000	 9.666656597019093e+000	 9.998524296720232e+000
0	 2.133340000006534e+000	 9.733326577638577e+000	 9.999038060945154e+000
0	 2.133340000006534e+000	 9.799996024918523e+000	 9.999419937061676e+000
0	 2.133340000006534e+000	 9.866664822186820e+000	 9.999674798522861e+000
0	 2.133340000006534e+000	 9.933332852771351e+000	 9.999807515789415e+000
0	 2.133340000006534e+000	 1.000000000000000e+001	 9.999822956329128e+000
0	 2.200010000009551e+000	 9.333302777352783e+000	 9.994287774558647e+000
0	 2.200010000009551e+000	 9.399973674588173e+000	 9.995431870926364e+000
0	 2.200010000009550e+000	 9.466644621844621e+000	 9.996433619830961e+000
0	 2.200010000009551e+000	 9.533315502450000e+000	 9.997297426449316e+000
0	 2.200010000009550e+000	 9.599986199732197e+000	 9.998027693209975e+000
0	 2.200010000009551e+000	 9.666656597019095e+000	 9.998628819792666e+000
0	 2.200010000009551e+000	 9.733326577638573e+000	 9.999105203127833e+000
0	 2.200010000009551e+000	 9.799996024918523e+000	 9.999461237395973e+000
0	 2.200010000009550e+000	 9.866664822186822e+000	 9.999701314026876e+000
0	 2.200010000009551e+000	 9.933332852771354e+000	 9.999829821699109e+000
0	 2.200010000009550e+000	 1.000000000000000e+001	 9.999851146338830e+000
0	 2.266680000012268e+000	 9.333302777352783e+000	 9.994779823425482e+000
0	 2.266680000012267e+000	 9.399973674588175e+000	 9.995818613769831e+000
0	 2.266680000012268e+000	 9.466644621844619e+000	 9.996729934790251e+000
0	 2.266680000012268e+000	 9.533315502450002e+000	 9.997517668502839e+000
0	 2.266680000012268e+000	 9.599986199732197e+000	 9.998185694424658e+000
0	 2.266680000012267e+000	 9.666656597019093e+000	 9.998737889573176e+000
0	 2.266680000012268e+000	 9.733326577638575e+000	 9.999178128465795e+000
0	 2.266680000012268e+000	 9.799996024918526e+000	 9.999510283119173e+000
0	 2.266680000012268e+000	 9.866664822186824e+000	 9.999738223048643e+000
0	 2.266680000012268e+000	 9.933332852771354e+000	 9.999865815267460e+000
0	 2.266680000012268e+000	 1.000000000000000e+001	 9.999896924285945e+000
0	 2.333350000014584e+000	 9.333302777352781e+000	 9.995276596924459e+000
0	 2.333350000014584e+000	 9.399973674588173e+000	 9.996208349790097e+000
0	 2.333350000014584e+000	 9.466644621844621e+000	 9.997028109535647e+000
0	 2.333350000014584e+000	 9.533315502450002e+000	 9.997739195087819e+000
0	 2.333350000014584e+000	 9.599986199732197e+000	 9.998344923128510e+000
0	 2.333350000014585e+000	 9.666656597019093e+000	 9.998848608094148e+000
0	 2.333350000014584e+000	 9.733326577638575e+000	 9.999253562175300e+000
0	 2.333350000014584e+000	 9.799996024918523e+000	 9.999563095316180e+000
0	 2.333350000014584e+000	 9.866664822186822e+000	 9.999780515213818e+000
0	 2.333350000014584e+000	 9.933332852771352e+000	 9.999909127317512e+000
0	 2.333350000014584e+000	 1.000000000000000e+001	 9.999952234828015e+000
0	 2.400020000016400e+000	 9.333302777352781e+000	 9.995772171632863e+000
0	 2.400020000016401e+000	 9.399973674588178e+000	 9.996596415258885e+000
0	 2.400020000016401e+000	 9.466644621844623e+000	 9.997324412728647e+000
0	 2.400020000016401e+000	 9.533315502450002e+000	 9.997958879955496e+000
0	 2.400020000016401e+000	 9.599986199732197e+000	 9.998502530863707e+000
0	 2.400020000016402e+000	 9.666656597019093e+000	 9.998958077387895e+000
0	 2.400020000016401e+000	 9.733326577638579e+000	 9.999328229472623e+000
0	 2.400020000016401e+000	 9.799996024918523e+000	 9.999615695071817e+000
0	 2.400020000016401e+000	 9.866664822186822e+000	 9.999823180148137e+000
0	 2.400020000016401e+000	 9.933332852771351e+000	 9.999953388672333e+000
0	 2.400020000016401e+000	 1.000000000000000e+001	 1.000000902262257e+001
0	 2.466690000017618e+000	 9.333302777352783e+000	 9.996260624128027e+000
0	 2.466690000017618e+000	 9.399973674588177e+000	 9.996978146448029e+000
0	 2.466690000017618e+000	 9.466644621844623e+000	 9.997615113030756e+000
0	 2.466690000017617e+000	 9.533315502450000e+000	 9.998173596856978e+000
0	 2.466690000017617e+000	 9.599986199732198e+000	 9.998655669172372e+000
0	 2.466690000017618e+000	 9.666656597019095e+000	 9.999063399486802e+000
0	 2.466690000017618e+000	 9.733326577638577e+000	 9.999398855573977e+000
0	 2.466690000017617e+000	 9.799996024918523e+000	 9.999664103470925e+000
0	 2.466690000017617e+000	 9.866664822186822e+000	 9.999861207477355e+000
0	 2.466690000017618e+000	 9.933332852771354e+000	 9.999992230155021e+000
0	 2.466690000017618e+000	 1.000000000000000e+001	 1.000005923232725e+001
0	 2.533360000018134e+000	 9.333302777352783e+000	 9.996736030987247e+000
0	 2.533360000018134e+000	 9.399973674588177e+000	 9.997348879629310e+000
0	 2.533360000018134e+000	 9.466644621844621e+000	 9.997896479103421e+000
0	 2.533360000018134e+000	 9.533315502450002e+000	 9.998380219543471e+000
0	 2.533360000018134e+000	 9.599986199732197e+000	 9.998801489596682e+000
0	 2.533360000018134e+000	 9.666656597019095e+000	 9.999161676423222e+000
0	 2.533360000018135e+000	 9.733326577638575e+000	 9.999462165695638e+000
0	 2.533360000018134e+000	 9.799996024918524e+000	 9.999704341598347e+000
0	 2.533360000018134e+000	 9.866664822186824e+000	 9.999889586827177e+000
0	 2.533360000018134e+000	 9.933332852771354e+000	 1.000001928258867e+001
0	 2.533360000018134e+000	 1.000000000000000e+001	 1.000009480859951e+001
0	 2.600030000017850e+000	 9.333302777352781e+000	 9.997192468787807e+000
0	 2.600030000017851e+000	 9.399973674588177e+000	 9.997703951074536e+000
0	 2.600030000017850e+000	 9.466644621844619e+000	 9.998164779608164e+000
0	 2.600030000017850e+000	 9.533315502450002e+000	 9.998575621766067e+000
0	 2.600030000017850e+000	 9.599986199732197e+000	 9.998937143678784e+000
0	 2.600030000017850e+000	 9.666656597019093e+000	 9.999250010229547e+000
0	 2.600030000017850e+000	 9.733326577638575e+000	 9.999514885053864e+000
0	 2.600030000017850e+000	 9.799996024918523e+000	 9.999732430538975e+000
0	 2.600030000017851e+000	 9.866664822186824e+000	 9.999903307823393e+000
0	 2.600030000017850e+000	 9.933332852771351e+000	 1.000002817679628e+001
0	 2.600030000017850e+000	 1.000000000000000e+001	 1.000010769609694e+001
0	 2.666700000016666e+000	 9.333302777352785e+000	 9.997624014107023e+000
0	 2.666700000016666e+000	 9.399973674588178e+000	 9.998038697055460e+000
0	 2.666700000016666e+000	 9.466644621844617e+000	 9.998416283206451e+000
0	 2.666700000016666e+000	 9.533315502450000e+000	 9.998756677275978e+000
0	 2.666700000016666e+000	 9.599986199732197e+000	 9.999059782960812e+000
0	 2.666700000016667e+000	 9.666656597019095e+000	 9.999325502938092e+000
0	 2.666700000016666e+000	 9.733326577638575e+000	 9.999553738864861e+000
0	 2.666700000016667e+000	 9.799996024918521e+000	 9.999744391377597e+000
0	 2.666700000016666e+000	 9.866664822186822e+000	 9.999897360091664e+000
0	 2.666700000016666e+000	 9.933332852771351e+000	 1.000001254360100e+001
0	 2.666700000016666e+000	 1.000000000000000e+001	 1.000008983947712e+001
0	 2.666700000016666e+000	 0.000000000000000e+000	-9.742032396478365e+001
0	 2.666700000016666e+000	 6.666714722864756e-002	-8.491316290590528e+001
0	 2.666700000016666e+000	 1.333351778131789e-001	-7.306505068818625e+001
0	 2.666700000016666e+000	 2.000039750814772e-001	-6.188047426985892e+001
0	 2.666700000016666e+000	 2.666734223614255e-001	-5.136392737304039e+001
0	 2.666700000016666e+000	 3.333434029809069e-001	-4.151991048204114e+001
0	 2.666700000016666e+000	 4.000138002678045e-001	-3.235293084185064e+001
0	 2.666700000016666e+000	 4.666844975500011e-001	-2.386750245680072e+001
0	 2.666700000016666e+000	 5.333553781553803e-001	-1.606814608940646e+001
0	 2.666700000016666e+000	 6.000263254118247e-001	-8.959389259384372e+000
0	 2.666700000016666e+000	 6.666972226472175e-001	-2.545766242848107e+000
0	 2.733360000014533e+000	 0.000000000000000e+000	-1.014446043628956e+002
0	 2.733360000014533e+000	 6.666714722864756e-002	-8.788067017319433e+001
0	 2.733360000014533e+000	 1.333351778131789e-001	-7.514419625812604e+001
0	 2.733360000014533e+000	 2.000039750814772e-001	-6.322530692543347e+001
0	 2.733360000014532e+000	 2.666734223614255e-001	-5.211413342038091e+001
0	 2.733360000014533e+000	 3.333434029809069e-001	-4.180081392403489e+001
0	 2.733360000014533e+000	 4.000138002678044e-001	-3.227549355172732e+001
0	 2.733360000014533e+000	 4.666844975500011e-001	-2.352832435170058e+001
0	 2.733360000014533e+000	 5.333553781553801e-001	-1.554946530393466e+001
0	 2.733360000014533e+000	 6.000263254118246e-001	-8.329082319156372e+000
0	 2.733360000014533e+000	 6.666972226472175e-001	-1.857348238030420e+000
0	 2.800020000011600e+000	 0.000000000000000e+000	-1.038326456418421e+002
0	 2.800020000011600e+000	 6.666714722864754e-002	-8.949135520206320e+001
0	 2.800020000011600e+000	 1.333351778131790e-001	-7.611268265046391e+001
0	 2.800020000011600e+000	 2.000039750814773e-001	-6.367499414466917e+001
0	 2.800020000011600e+000	 2.666734223614255e-001	-5.215666289532981e+001
0	 2.800020000011600e+000	 3.333434029809069e-001	-4.153606916439108e+001
0	 2.800020000011600e+000	 4.000138002678044e-001	-3.179160026354656e+001
0	 2.800020000011600e+000	 4.666844975500012e-001	-2.290165055287712e+001
0	 2.800020000011600e+000	 5.333553781553803e-001	-1.484462143967497e+001
0	 2.800020000011599e+000	 6.000263254118249e-001	-7.598921377452739e+000
0	 2.800020000011599e+000	 6.666972226472175e-001	-1.142965865137500e+000
0	 2.866680000008067e+000	 0.000000000000000e+000	-1.046448279198457e+002
0	 2.866680000008066e+000	 6.666714722864754e-002	-8.980057231087551e+001
0	 2.866680000008067e+000	 1.333351778131790e-001	-7.602078115726251e+001
0	 2.866680000008066e+000	 2.000039750814772e-001	-6.327466694232388e+001
0	 2.866680000008067e+000	 2.666734223614255e-001	-5.153144925917505e+001
0	 2.866680000008067e+000	 3.333434029809069e-001	-4.076035480900070e+001
0	 2.866680000008067e+000	 4.000138002678044e-001	-3.093061739951262e+001
0	 2.866680000008067e+000	 4.666844975500011e-001	-2.201147794359414e+001
0	 2.866680000008066e+000	 5.333553781553803e-001	-1.397218445813124e+001
0	 2.866680000008067e+000	 6.000263254118248e-001	-6.781992063029961e+000
0	 2.866680000008067e+000	 6.666972226472177e-001	-4.101629804205030e-001
0	 2.933340000004133e+000	 0.000000000000000e+000	-1.039415313151429e+002
0	 2.933340000004133e+000	 6.666714722864756e-002	-8.886367581800595e+001
0	 2.933340000004133e+000	 1.333351778131789e-001	-7.491876307059282e+001
0	 2.933340000004133e+000	 2.000039750814772e-001	-6.206945633316170e+001
0	 2.933340000004134e+000	 2.666734223614256e-001	-5.027842597320908e+001
0	 2.933340000004133e+000	 3.333434029809070e-001	-3.950834946375784e+001
0	 2.933340000004133e+000	 4.000138002678044e-001	-2.972191138183177e+001
0	 2.933340000004133e+000	 4.666844975500011e-001	-2.088180340711666e+001
0	 2.933340000004134e+000	 5.333553781553803e-001	-1.295072432080799e+001
0	 2.933340000004133e+000	 6.000263254118248e-001	-5.891380004644875e+000
0	 2.933340000004133e+000	 6.666972226472175e-001	 3.335165598693852e-001
0	 3.000000000000000e+000	 0.000000000000000e+000	-1.017831359459844e+002
0	 3.000000000000000e+000	 6.666714722864756e-002	-8.673602004184005e+001
0	 3.000000000000000e+000	 1.333351778131790e-001	-7.285689968253423e+001
0	 3.000000000000000e+000	 2.000039750814773e-001	-6.010449333195294e+001
0	 3.000000000000000e+000	 2.666734223614255e-001	-4.843752649872877e+001
0	 3.000000000000001e+000	 3.333434029809069e-001	-3.781473173455967e+001
0	 3.000000000000000e+000	 4.000138002678044e-001	-2.819484863271238e+001
0	 3.000000000000000e+000	 4.666844975500011e-001	-1.953662382671101e+001
0	 3.000000000000000e+000	 5.333553781553801e-001	-1.179881098921047e+001
0	 3.000000000000000e+000	 6.000263254118247e-001	-4.940170831054583e+000
0	 3.000000000000001e+000	 6.666972226472178e-001	 1.080528899480980e+000
0	 3.066659999995866e+000	 0.000000000000000e+000	-9.823002193063455e+001
0	 3.066659999995867e+000	 6.666714722864757e-002	-8.347295930077429e+001
0	 3.066659999995868e+000	 1.333351778131789e-001	-6.988546228517431e+001
0	 3.066659999995867e+000	 2.000039750814772e-001	-5.742490895347402e+001
0	 3.066659999995867e+000	 2.666734223614256e-001	-4.604868429703550e+001
0	 3.066659999995867e+000	 3.333434029809069e-001	-3.571418022730651e+001
0	 3.066659999995868e+000	 4.000138002678044e-001	-2.637879557436488e+001
0	 3.066659999995868e+000	 4.666844975500012e-001	-1.799993608564478e+001
0	 3.066659999995868e+000	 5.333553781553801e-001	-1.053501442484463e+001
0	 3.066659999995868e+000	 6.000263254118249e-001	-3.941450171016495e+000
0	 3.066659999995867e+000	 6.666972226472177e-001	 1.823330182162990e+000
0	 3.133319999991934e+000	 0.000000000000000e+000	-9.334256938737190e+001
0	 3.133319999991935e+000	 6.666714722864757e-002	-7.912984791321600e+001
0	 3.133319999991934e+000	 1.333351778131790e-001	-6.605472217060910e+001
0	 3.133319999991934e+000	 2.000039750814772e-001	-5.407583421250767e+001
0	 3.133319999991934e+000	 2.666734223614255e-001	-4.315183282943512e+001
0	 3.133319999991933e+000	 3.333434029809069e-001	-3.324137354790177e+001
0	 3.133319999991933e+000	 4.000138002678043e-001	-2.430311862900172e+001
0	 3.133319999991934e+000	 4.666844975500011e-001	-1.629573706718681e+001
0	 3.133319999991934e+000	 5.333553781553804e-001	-9.177904589217116e+000
0	 3.133319999991935e+000	 6.000263254118247e-001	-2.908303653288313e+000
0	 3.133319999991934e+000	 6.666972226472177e-001	 2.554376551664203e+000
0	 3.199979999988401e+000	 0.000000000000000e+000	-8.718115843448889e+001
0	 3.199979999988400e+000	 6.666714722864756e-002	-7.376204019758346e+001
0	 3.199979999988400e+000	 1.333351778131789e-001	-6.141495063094281e+001
0	 3.199979999988401e+000	 2.000039750814773e-001	-5.010240012384278e+001
0	 3.199979999988400e+000	 2.666734223614255e-001	-3.978690555723798e+001
0	 3.199979999988401e+000	 3.333434029809070e-001	-3.043099030225197e+001
0	 3.199979999988401e+000	 4.000138002678044e-001	-2.199718421883746e+001
0	 3.199979999988401e+000	 4.666844975500011e-001	-1.444802365460722e+001
0	 3.199979999988401e+000	 5.333553781553801e-001	-7.746051443835247e+000
0	 3.199979999988401e+000	 6.000263254118249e-001	-1.853816906628070e+000
0	 3.199979999988400e+000	 6.666972226472175e-001	 3.266124151733312e+000
0	 3.266639999985468e+000	 0.000000000000000e+000	-7.980616919029197e+001
0	 3.266639999985468e+000	 6.666714722864756e-002	-6.742489047230579e+001
0	 3.266639999985467e+000	 1.333351778131789e-001	-5.601641895828811e+001
0	 3.266639999985468e+000	 2.000039750814772e-001	-4.554973770227435e+001
0	 3.266639999985468e+000	 2.666734223614255e-001	-3.599383594175883e+001
0	 3.266639999985467e+000	 3.333434029809068e-001	-2.731770909626671e+001
0	 3.266639999985467e+000	 4.000138002678043e-001	-1.949035876608866e+001
0	 3.266639999985468e+000	 4.666844975500012e-001	-1.248079273117743e+001
0	 3.266639999985467e+000	 5.333553781553803e-001	-6.258024950207058e+000
0	 3.266639999985467e+000	 6.000263254118246e-001	-7.910755597940845e-001
0	 3.266639999985468e+000	 6.666972226472178e-001	 3.951029126119015e+000
0	 3.333299999983334e+000	 0.000000000000000e+000	-7.127798177310163e+001
0	 3.333299999983333e+000	 6.666714722864756e-002	-6.017375305582314e+001
0	 3.333299999983333e+000	 1.333351778131789e-001	-4.990939844476591e+001
0	 3.333299999983334e+000	 2.000039750814772e-001	-4.046297796260373e+001
0	 3.333299999983334e+000	 2.666734223614256e-001	-3.181255744431697e+001
0	 3.333299999983334e+000	 3.333434029809069e-001	-2.393620853585882e+001
0	 3.333299999983334e+000	 4.000138002678044e-001	-1.681200869297403e+001
0	 3.333299999983333e+000	 4.666844975500011e-001	-1.041804118017009e+001
0	 3.333299999983335e+000	 5.333553781553803e-001	-4.732395069841325e+000
0	 3.333299999983334e+000	 6.000263254118248e-001	 2.668347584550115e-001
0	 3.333299999983334e+000	 6.666972226472175e-001	 4.601547618569924e+000
0	 2.666700000016666e+000	 6.666972226472175e-001	-2.545766242848107e+000
0	 2.666700000016666e+000	 7.333579753122047e-001	 3.236371014567177e+000
0	 2.666700000016666e+000	 8.000185779984416e-001	 8.457394819691753e+000
0	 2.666700000016666e+000	 8.666790473703453e-001	 1.312012387136886e+001
0	 2.666700000016666e+000	 9.333394000923323e-001	 1.722737762988193e+001
0	 2.666700000016665e+000	 9.999996528288190e-001	 2.078197631697742e+001
0	 2.666700000016666e+000	 1.066659822244222e+000	 2.378674091588455e+001
0	 2.666700000016667e+000	 1.133319925002959e+000	 2.624449317133240e+001
0	 2.666700000016667e+000	 1.199979977769445e+000	 2.815805558956397e+001
0	 2.666700000016666e+000	 1.266639997208098e+000	 2.953025143834751e+001
0	 2.666700000016667e+000	 1.333299999983334e+000	 3.036390474698498e+001
0	 2.733360000014533e+000	 6.666972226472175e-001	-1.857348238030421e+000
0	 2.733360000014533e+000	 7.333579753122049e-001	 3.948221870670342e+000
0	 2.733360000014532e+000	 8.000185779984417e-001	 9.169437084025720e+000
0	 2.733360000014533e+000	 8.666790473703454e-001	 1.381236098813773e+001
0	 2.733360000014533e+000	 9.333394000923319e-001	 1.788305793634941e+001
0	 2.733360000014533e+000	 9.999996528288192e-001	 2.138759304926763e+001
0	 2.733360000014532e+000	 1.066659822244222e+000	 2.433203221478296e+001
0	 2.733360000014533e+000	 1.133319925002959e+000	 2.672244208808666e+001
0	 2.733360000014533e+000	 1.199979977769445e+000	 2.856489009168479e+001
0	 2.733360000014533e+000	 1.266639997208098e+000	 2.986544441540947e+001
0	 2.733360000014532e+000	 1.333299999983334e+000	 3.063017401642723e+001
0	 2.800020000011599e+000	 6.666972226472175e-001	-1.142965865137501e+000
0	 2.800020000011599e+000	 7.333579753122049e-001	 4.622665925438831e+000
0	 2.800020000011599e+000	 8.000185779984415e-001	 9.790655617897411e+000
0	 2.800020000011600e+000	 8.666790473703455e-001	 1.436974360776094e+001
0	 2.800020000011600e+000	 9.333394000923321e-001	 1.836867105423852e+001
0	 2.800020000011600e+000	 9.999996528288189e-001	 2.179617988024830e+001
0	 2.800020000011600e+000	 1.066659822244222e+000	 2.466101277243715e+001
0	 2.800020000011600e+000	 1.133319925002959e+000	 2.697191318119740e+001
0	 2.800020000011600e+000	 1.199979977769445e+000	 2.873762532068085e+001
0	 2.800020000011600e+000	 1.266639997208098e+000	 2.996689416880983e+001
0	 2.800020000011600e+000	 1.333299999983334e+000	 3.066846546728542e+001
0	 2.866680000008067e+000	 6.666972226472177e-001	-4.101629804205030e-001
0	 2.866680000008067e+000	 7.333579753122049e-001	 5.257427286043268e+000
0	 2.866680000008066e+000	 8.000185779984417e-001	 1.032343908021014e+001
0	 2.866680000008067e+000	 8.666790473703453e-001	 1.479872152184047e+001
0	 2.866680000008067e+000	 9.333394000923322e-001	 1.869412448237613e+001
0	 2.866680000008067e+000	 9.999996528288191e-001	 2.202049858496259e+001
0	 2.866680000008066e+000	 1.066659822244222e+000	 2.478869520446822e+001
0	 2.866680000008066e+000	 1.133319925002958e+000	 2.700956646750073e+001
0	 2.866680000008067e+000	 1.199979977769445e+000	 2.869396525242086e+001
0	 2.866680000008067e+000	 1.266639997208098e+000	 2.985274518935310e+001
0	 2.866680000008067e+000	 1.333299999983334e+000	 3.049676066019385e+001
0	 2.933340000004133e+000	 6.666972226472175e-001	 3.335165598693852e-001
0	 2.933340000004133e+000	 7.333579753122048e-001	 5.850230059654463e+000
0	 2.933340000004134e+000	 8.000185779984418e-001	 1.077017612986748e+001
0	 2.933340000004133e+000	 8.666790473703455e-001	 1.510574452197871e+001
0	 2.933340000004133e+000	 9.333394000923322e-001	 1.886932571958951e+001
0	 2.933340000004134e+000	 9.999996528288188e-001	 2.207331093845400e+001
0	 2.933340000004133e+000	 1.066659822244222e+000	 2.473009212649759e+001
0	 2.933340000004133e+000	 1.133319925002958e+000	 2.685206196383306e+001
0	 2.933340000004133e+000	 1.199979977769445e+000	 2.845161386277376e+001
0	 2.933340000004133e+000	 1.266639997208098e+000	 2.954114196784401e+001
0	 2.933340000004133e+000	 1.333299999983334e+000	 3.013304115578697e+001
0	 3.000000000000001e+000	 6.666972226472178e-001	 1.080528899480980e+000
0	 3.000000000000000e+000	 7.333579753122049e-001	 6.398798353443377e+000
0	 3.000000000000001e+000	 8.000185779984418e-001	 1.113325542577336e+001
0	 3.000000000000001e+000	 8.666790473703453e-001	 1.529726239977835e+001
0	 3.000000000000000e+000	 9.333394000923321e-001	 1.890418226470631e+001
0	 3.000000000000000e+000	 9.999996528288189e-001	 2.196737871576639e+001
0	 3.000000000000000e+000	 1.066659822244222e+000	 2.450021615414699e+001
0	 3.000000000000000e+000	 1.133319925002959e+000	 2.651605968703102e+001
0	 3.000000000000001e+000	 1.199979977769445e+000	 2.802827512760867e+001
0	 3.000000000000000e+000	 1.266639997208098e+000	 2.905022899508738e+001
0	 3.000000000000000e+000	 1.333299999983334e+000	 2.959528851469936e+001
0	 3.066659999995867e+000	 6.666972226472177e-001	 1.823330182162990e+000
0	 3.066659999995867e+000	 7.333579753122047e-001	 6.900856274581137e+000
0	 3.066659999995868e+000	 8.000185779984420e-001	 1.141506562683195e+001
0	 3.066659999995867e+000	 8.666790473703452e-001	 1.537972494684254e+001
0	 3.066659999995867e+000	 9.333394000923320e-001	 1.880860161655453e+001
0	 3.066659999995868e+000	 9.999996528288190e-001	 2.171546369194402e+001
0	 3.066659999995867e+000	 1.066659822244222e+000	 2.411407990303850e+001
0	 3.066659999995868e+000	 1.133319925002959e+000	 2.601821965393152e+001
0	 3.066659999995867e+000	 1.199979977769445e+000	 2.744165302279493e+001
0	 3.066659999995868e+000	 1.266639997208098e+000	 2.839815076188819e+001
0	 3.066659999995867e+000	 1.333299999983334e+000	 2.890148429756569e+001
0	 3.133319999991934e+000	 6.666972226472177e-001	 2.554376551664202e+000
0	 3.133319999991934e+000	 7.333579753122048e-001	 7.354127930239064e+000
0	 3.133319999991934e+000	 8.000185779984418e-001	 1.161799539194775e+001
0	 3.133319999991934e+000	 8.666790473703455e-001	 1.535958195477467e+001
0	 3.133319999991934e+000	 9.333394000923323e-001	 1.859249127396259e+001
0	 3.133319999991934e+000	 9.999996528288190e-001	 2.133032764203147e+001
0	 3.133319999991934e+000	 1.066659822244222e+000	 2.358669598879444e+001
0	 3.133319999991934e+000	 1.133319925002959e+000	 2.537520188137174e+001
0	 3.133319999991933e+000	 1.199979977769445e+000	 2.670945152420205e+001
0	 3.133319999991934e+000	 1.266639997208098e+000	 2.760305175905161e+001
0	 3.133319999991933e+000	 1.333299999983334e+000	 2.806961006502068e+001
0	 3.199979999988400e+000	 6.666972226472175e-001	 3.266124151733313e+000
0	 3.199979999988401e+000	 7.333579753122048e-001	 7.756337427588565e+000
0	 3.199979999988401e+000	 8.000185779984419e-001	 1.174443338002551e+001
0	 3.199979999988400e+000	 8.666790473703452e-001	 1.524328321517856e+001
0	 3.199979999988402e+000	 9.333394000923322e-001	 1.826575873575930e+001
0	 3.199979999988401e+000	 9.999996528288190e-001	 2.082473234107372e+001
0	 3.199979999988401e+000	 1.066659822244222e+000	 2.293307702703758e+001
0	 3.199979999988401e+000	 1.133319925002959e+000	 2.460366638618912e+001
0	 3.199979999988401e+000	 1.199979977769445e+000	 2.584937460769984e+001
0	 3.199979999988401e+000	 1.266639997208098e+000	 2.668307647738288e+001
0	 3.199979999988401e+000	 1.333299999983334e+000	 2.711764737769921e+001
0	 3.266639999985468e+000	 6.666972226472178e-001	 3.951029126119015e+000
0	 3.266639999985468e+000	 7.333579753122048e-001	 8.105208873801310e+000
0	 3.266639999985468e+000	 8.000185779984418e-001	 1.179676824997028e+001
0	 3.266639999985467e+000	 8.666790473703451e-001	 1.503727851965840e+001
0	 3.266639999985467e+000	 9.333394000923321e-001	 1.783831150077374e+001
0	 3.266639999985467e+000	 9.999996528288189e-001	 2.021143956411610e+001
0	 3.266639999985468e+000	 1.066659822244222e+000	 2.216823563339091e+001
0	 3.266639999985468e+000	 1.133319925002959e+000	 2.372027318522138e+001
0	 3.266639999985467e+000	 1.199979977769445e+000	 2.487912624915821e+001
0	 3.266639999985468e+000	 1.266639997208098e+000	 2.565636940768749e+001
0	 3.266639999985468e+000	 1.333299999983334e+000	 2.606357779623631e+001
0	 3.333299999983334e+000	 6.666972226472175e-001	 4.601547618569923e+000
0	 3.333299999983334e+000	 7.333579753122049e-001	 8.398466376049084e+000
0	 3.333299999983334e+000	 8.000185779984418e-001	 1.177738866068741e+001
0	 3.333299999983334e+000	 8.666790473703455e-001	 1.474801765981868e+001
0	 3.333299999983334e+000	 9.333394000923322e-001	 1.732005706783553e+001
0	 3.333299999983334e+000	 9.999996528288189e-001	 1.950321108620429e+001
0	 3.333299999983335e+000	 1.066659822244222e+000	 2.130718442347782e+001
0	 3.333299999983334e+000	 1.133319925002958e+000	 2.274168229530654e+001
0	 3.333299999983334e+000	 1.199979977769445e+000	 2.381641042444734e+001
0	 3.333299999983334e+000	 1.266639997208098e+000	 2.454107504077096e+001
0	 3.333299999983334e+000	 1.333299999983334e+000	 2.492538288126703e+001
0	 2.666700000016667e+000	 1.333299999983334e+000	 3.036390474698498e+001
0	 2.666700000016667e+000	 1.399969999982150e+000	 3.082094386032562e+001
0	 2.666700000016666e+000	 1.466639999981867e+000	 3.106482670753813e+001
0	 2.666700000016667e+000	 1.533309999982383e+000	 3.110092668660573e+001
0	 2.666700000016667e+000	 1.599979999983600e+000	 3.093461719550995e+001
0	 2.666700000016665e+000	 1.666649999985416e+000	 3.057127163223061e+001
0	 2.666700000016667e+000	 1.733319999987733e+000	 3.001626339474580e+001
0	 2.666700000016667e+000	 1.799989999990450e+000	 2.927496588103186e+001
0	 2.666700000016666e+000	 1.866659999993466e+000	 2.835275248906353e+001
0	 2.666700000016667e+000	 1.933329999996683e+000	 2.725499661681369e+001
0	 2.666700000016667e+000	 2.000000000000000e+000	 2.598707166225360e+001
0	 2.733360000014532e+000	 1.333299999983334e+000	 3.063017401642724e+001
0	 2.733360000014533e+000	 1.399969999982150e+000	 3.102769399491751e+001
0	 2.733360000014533e+000	 1.466639999981867e+000	 3.122515761095772e+001
0	 2.733360000014533e+000	 1.533309999982383e+000	 3.122666613770237e+001
0	 2.733360000014532e+000	 1.599979999983600e+000	 3.103632084830426e+001
0	 2.733360000014533e+000	 1.666649999985416e+000	 3.065822301591455e+001
0	 2.733360000014534e+000	 1.733319999987733e+000	 3.009647391368275e+001
0	 2.733360000014532e+000	 1.799989999990449e+000	 2.935517481475663e+001
0	 2.733360000014533e+000	 1.866659999993466e+000	 2.843842699228235e+001
0	 2.733360000014533e+000	 1.933329999996683e+000	 2.735033171940433e+001
0	 2.733360000014533e+000	 2.000000000000000e+000	 2.609499026926535e+001
0	 2.800020000011600e+000	 1.333299999983334e+000	 3.066846546728542e+001
0	 2.800020000011600e+000	 1.399969999982150e+000	 3.101439855292113e+001
0	 2.800020000011600e+000	 1.466639999981866e+000	 3.117278398968968e+001
0	 2.800020000011600e+000	 1.533309999982383e+000	 3.114661323978072e+001
0	 2.800020000011600e+000	 1.599979999983599e+000	 3.093887776538229e+001
0	 2.800020000011599e+000	 1.666649999985416e+000	 3.055256902868089e+001
0	 2.800020000011600e+000	 1.733319999987733e+000	 2.999067849186130e+001
0	 2.800020000011600e+000	 1.799989999990450e+000	 2.925619761710666e+001
0	 2.800020000011600e+000	 1.866659999993466e+000	 2.835211786659855e+001
0	 2.800020000011600e+000	 1.933329999996683e+000	 2.728143070251690e+001
0	 2.800020000011600e+000	 2.000000000000000e+000	 2.604712758703998e+001
0	 2.866680000008067e+000	 1.333299999983334e+000	 3.049676066019385e+001
0	 2.866680000008067e+000	 1.399969999982150e+000	 3.079855484589904e+001
0	 2.866680000008067e+000	 1.466639999981866e+000	 3.092467985315764e+001
0	 2.866680000008067e+000	 1.533309999982383e+000	 3.087717964705839e+001
0	 2.866680000008067e+000	 1.599979999983600e+000	 3.065809819268860e+001
0	 2.866680000008067e+000	 1.666649999985416e+000	 3.026947945513390e+001
0	 2.866680000008067e+000	 1.733319999987733e+000	 2.971336739947842e+001
0	 2.866680000008067e+000	 1.799989999990450e+000	 2.899180599080464e+001
0	 2.866680000008067e+000	 1.866659999993467e+000	 2.810683919419350e+001
0	 2.866680000008067e+000	 1.933329999996683e+000	 2.706051097472439e+001
0	 2.866680000008067e+000	 2.000000000000000e+000	 2.585486529747509e+001
0	 2.933340000004133e+000	 1.333299999983334e+000	 3.013304115578697e+001
0	 2.933340000004133e+000	 1.399969999982150e+000	 3.039766018541386e+001
0	 2.933340000004133e+000	 1.466639999981866e+000	 3.049781921078526e+001
0	 2.933340000004133e+000	 1.533309999982383e+000	 3.043477701375306e+001
0	 2.933340000004134e+000	 1.599979999983599e+000	 3.020979237616773e+001
0	 2.933340000004133e+000	 1.666649999985416e+000	 2.982412407987803e+001
0	 2.933340000004133e+000	 1.733319999987732e+000	 2.927903090673136e+001
0	 2.933340000004133e+000	 1.799989999990450e+000	 2.857577163857357e+001
0	 2.933340000004133e+000	 1.866659999993466e+000	 2.771560505724893e+001
0	 2.933340000004133e+000	 1.933329999996683e+000	 2.669978994460024e+001
0	 2.933340000004134e+000	 2.000000000000000e+000	 2.552958508246881e+001
0	 3.000000000000000e+000	 1.333299999983334e+000	 2.959528851469937e+001
0	 3.000000000000000e+000	 1.399969999982150e+000	 2.982921188302829e+001
0	 3.000000000000000e+000	 1.466639999981867e+000	 2.990917607199637e+001
0	 3.000000000000001e+000	 1.533309999982383e+000	 2.983581699408260e+001
0	 3.000000000000000e+000	 1.599979999983599e+000	 2.960977056176447e+001
0	 3.000000000000000e+000	 1.666649999985416e+000	 2.923167268751798e+001
0	 3.000000000000000e+000	 1.733319999987733e+000	 2.870215928381772e+001
0	 3.000000000000000e+000	 1.799989999990450e+000	 2.802186626313683e+001
0	 3.000000000000000e+000	 1.866659999993466e+000	 2.719142953794700e+001
0	 3.000000000000000e+000	 1.933329999996683e+000	 2.621148502071840e+001
0	 3.000000000000001e+000	 2.000000000000000e+000	 2.508266862391979e+001
0	 3.066659999995867e+000	 1.333299999983334e+000	 2.890148429756568e+001
0	 3.066659999995867e+000	 1.399969999982150e+000	 2.911070725030513e+001
0	 3.066659999995867e+000	 1.466639999981866e+000	 2.917572444621488e+001
0	 3.066659999995868e+000	 1.533309999982383e+000	 2.909671124226486e+001
0	 3.066659999995868e+000	 1.599979999983600e+000	 2.887384299542371e+001
0	 3.066659999995868e+000	 1.666649999985416e+000	 2.850729506265860e+001
0	 3.066659999995868e+000	 1.733319999987733e+000	 2.799724280093526e+001
0	 3.066659999995867e+000	 1.799989999990450e+000	 2.734386156721815e+001
0	 3.066659999995867e+000	 1.866659999993466e+000	 2.654732671847028e+001
0	 3.066659999995866e+000	 1.933329999996683e+000	 2.560781361165328e+001
0	 3.066659999995868e+000	 2.000000000000000e+000	 2.452549760372735e+001
0	 3.133319999991933e+000	 1.333299999983334e+000	 2.806961006502068e+001
0	 3.133319999991935e+000	 1.399969999982150e+000	 2.825964359880725e+001
0	 3.133319999991935e+000	 1.466639999981866e+000	 2.831443834286470e+001
0	 3.133319999991933e+000	 1.533309999982382e+000	 2.823387141251792e+001
0	 3.133319999991934e+000	 1.599979999983600e+000	 2.801781992309057e+001
0	 3.133319999991934e+000	 1.666649999985416e+000	 2.766616098990496e+001
0	 3.133319999991935e+000	 1.733319999987733e+000	 2.717877172828205e+001
0	 3.133319999991934e+000	 1.799989999990449e+000	 2.655552925354155e+001
0	 3.133319999991933e+000	 1.866659999993466e+000	 2.579631068100177e+001
0	 3.133319999991934e+000	 1.933329999996683e+000	 2.490099312597977e+001
0	 3.133319999991934e+000	 2.000000000000000e+000	 2.386945370379126e+001
0	 3.199979999988401e+000	 1.333299999983334e+000	 2.711764737769922e+001
0	 3.199979999988401e+000	 1.399969999982150e+000	 2.729351824009767e+001
0	 3.199979999988401e+000	 1.466639999981866e+000	 2.734229177136994e+001
0	 3.199979999988401e+000	 1.533309999982383e+000	 2.726370915905988e+001
0	 3.199979999988400e+000	 1.599979999983599e+000	 2.705751159071024e+001
0	 3.199979999988401e+000	 1.666649999985416e+000	 2.672344025386235e+001
0	 3.199979999988400e+000	 1.733319999987733e+000	 2.626123633605643e+001
0	 3.199979999988400e+000	 1.799989999990450e+000	 2.567064102483136e+001
0	 3.199979999988401e+000	 1.866659999993466e+000	 2.495139550772485e+001
0	 3.199979999988401e+000	 1.933329999996683e+000	 2.410324097227329e+001
0	 3.199979999988401e+000	 2.000000000000000e+000	 2.312591860601192e+001
0	 3.266639999985468e+000	 1.333299999983334e+000	 2.606357779623631e+001
0	 3.266639999985467e+000	 1.399969999982150e+000	 2.622982848573938e+001
0	 3.266639999985468e+000	 1.466639999981866e+000	 2.627625874115470e+001
0	 3.266639999985468e+000	 1.533309999982383e+000	 2.620263613610904e+001
0	 3.266639999985469e+000	 1.599979999983600e+000	 2.600872824422807e+001
0	 3.266639999985467e+000	 1.666649999985416e+000	 2.569430263913628e+001
0	 3.266639999985467e+000	 1.733319999987733e+000	 2.525912689445699e+001
0	 3.266639999985467e+000	 1.799989999990449e+000	 2.470296858381234e+001
0	 3.266639999985468e+000	 1.866659999993466e+000	 2.402559528082332e+001
0	 3.266639999985468e+000	 1.933329999996684e+000	 2.322677455910974e+001
0	 3.266639999985468e+000	 2.000000000000000e+000	 2.230627399229027e+001
0	 3.333299999983334e+000	 1.333299999983334e+000	 2.492538288126703e+001
0	 3.333299999983334e+000	 1.399969999982150e+000	 2.508607164729562e+001
0	 3.333299999983334e+000	 1.466639999981867e+000	 2.513331326164328e+001
0	 3.333299999983334e+000	 1.533309999982383e+000	 2.506706399788374e+001
0	 3.333299999983333e+000	 1.599979999983599e+000	 2.488728012958963e+001
0	 3.333299999983334e+000	 1.666649999985416e+000	 2.459391793033242e+001
0	 3.333299999983334e+000	 1.733319999987733e+000	 2.418693367368260e+001
0	 3.333299999983334e+000	 1.799989999990450e+000	 2.366628363320950e+001
0	 3.333299999983334e+000	 1.866659999993466e+000	 2.303192408248141e+001
0	 3.333299999983334e+000	 1.933329999996683e+000	 2.228381129506547e+001
0	 3.333299999983334e+000	 2.000000000000000e+000	 2.142190154452780e+001
0	 2.666700000016667e+000	 2.000000000000000e+000	 2.598707166225360e+001
0	 2.666700000016667e+000	 2.066670000003317e+000	 2.465908998455682e+001
0	 2.666700000016666e+000	 2.133340000006534e+000	 2.337748702928396e+001
0	 2.666700000016666e+000	 2.200010000009550e+000	 2.214212082398557e+001
0	 2.666700000016667e+000	 2.266680000012268e+000	 2.095284939621245e+001
0	 2.666700000016666e+000	 2.333350000014584e+000	 1.980953077351561e+001
0	 2.666700000016667e+000	 2.400020000016401e+000	 1.871202298344618e+001
0	 2.666700000016666e+000	 2.466690000017618e+000	 1.766018405355553e+001
0	 2.666700000016666e+000	 2.533360000018134e+000	 1.665387201139519e+001
0	 2.666700000016666e+000	 2.600030000017850e+000	 1.569294488451688e+001
0	 2.666700000016667e+000	 2.666700000016667e+000	 1.477726070047253e+001
0	 2.733360000014533e+000	 2.000000000000000e+000	 2.609499026926535e+001
0	 2.733360000014533e+000	 2.066670000003317e+000	 2.478082379794680e+001
0	 2.733360000014533e+000	 2.133340000006534e+000	 2.351328790062264e+001
0	 2.733360000014533e+000	 2.200010000009550e+000	 2.229203550907349e+001
0	 2.733360000014533e+000	 2.266680000012268e+000	 2.111671955508010e+001
0	 2.733360000014533e+000	 2.333350000014585e+000	 1.998699297042353e+001
0	 2.733360000014533e+000	 2.400020000016402e+000	 1.890250868688499e+001
0	 2.733360000014534e+000	 2.466690000017618e+000	 1.786291963624593e+001
0	 2.733360000014533e+000	 2.533360000018134e+000	 1.686787875028803e+001
0	 2.733360000014533e+000	 2.600030000017851e+000	 1.591703896079318e+001
0	 2.733360000014533e+000	 2.666700000016666e+000	 1.501005319954350e+001
0	 2.800020000011600e+000	 2.000000000000000e+000	 2.604712758703998e+001
0	 2.800020000011599e+000	 2.066670000003316e+000	 2.475546453936225e+001
0	 2.800020000011600e+000	 2.133340000006534e+000	 2.351035626466407e+001
0	 2.800020000011600e+000	 2.200010000009551e+000	 2.231128225410150e+001
0	 2.800020000011600e+000	 2.266680000012266e+000	 2.115772199883091e+001
0	 2.800020000011600e+000	 2.333350000014585e+000	 2.004915499000884e+001
0	 2.800020000011600e+000	 2.400020000016400e+000	 1.898506071879213e+001
0	 2.800020000011601e+000	 2.466690000017618e+000	 1.796491867633785e+001
0	 2.800020000011600e+000	 2.533360000018134e+000	 1.698820835380327e+001
0	 2.800020000011599e+000	 2.600030000017851e+000	 1.605440924234596e+001
0	 2.800020000011600e+000	 2.666700000016667e+000	 1.516300083312371e+001
0	 2.866680000008067e+000	 2.000000000000000e+000	 2.585486529747509e+001
0	 2.866680000008066e+000	 2.066670000003316e+000	 2.459355136394893e+001
0	 2.866680000008066e+000	 2.133340000006534e+000	 2.337841420271614e+001
0	 2.866680000008067e+000	 2.200010000009550e+000	 2.220879151945385e+001
0	 2.866680000008067e+000	 2.266680000012267e+000	 2.108402101983944e+001
0	 2.866680000008066e+000	 2.333350000014584e+000	 2.000344040955058e+001
0	 2.866680000008066e+000	 2.400020000016400e+000	 1.896638739426516e+001
0	 2.866680000008067e+000	 2.466690000017618e+000	 1.797219967966137e+001
0	 2.866680000008066e+000	 2.533360000018134e+000	 1.702021497141765e+001
0	 2.866680000008067e+000	 2.600030000017850e+000	 1.610977097521269e+001
0	 2.866680000008067e+000	 2.666700000016667e+000	 1.524020539672547e+001
0	 2.933340000004134e+000	 2.000000000000000e+000	 2.552958508246881e+001
0	 2.933340000004133e+000	 2.066670000003317e+000	 2.430562342685317e+001
0	 2.933340000004133e+000	 2.133340000006534e+000	 2.312718379608750e+001
0	 2.933340000004133e+000	 2.200010000009550e+000	 2.199349376551551e+001
0	 2.933340000004134e+000	 2.266680000012267e+000	 2.090378091048113e+001
0	 2.933340000004134e+000	 2.333350000014585e+000	 1.985727280632862e+001
0	 2.933340000004133e+000	 2.400020000016400e+000	 1.885319702840251e+001
0	 2.933340000004133e+000	 2.466690000017617e+000	 1.789078115204759e+001
0	 2.933340000004134e+000	 2.533360000018134e+000	 1.696925275260894e+001
0	 2.933340000004133e+000	 2.600030000017851e+000	 1.608783940543189e+001
0	 2.933340000004133e+000	 2.666700000016666e+000	 1.524576868586210e+001
0	 3.000000000000001e+000	 2.000000000000000e+000	 2.508266862391979e+001
0	 3.000000000000000e+000	 2.066670000003317e+000	 2.390221988322193e+001
0	 3.000000000000001e+000	 2.133340000006534e+000	 2.276638712608747e+001
0	 3.000000000000000e+000	 2.200010000009550e+000	 2.167431945267220e+001
0	 3.000000000000000e+000	 2.266680000012267e+000	 2.062516596313217e+001
0	 3.000000000000000e+000	 2.333350000014584e+000	 1.961807575762375e+001
0	 3.000000000000001e+000	 2.400020000016401e+000	 1.865219793630353e+001
0	 3.000000000000000e+000	 2.466690000017617e+000	 1.772668159932849e+001
0	 3.000000000000000e+000	 2.533360000018134e+000	 1.684067584685584e+001
0	 3.000000000000000e+000	 2.600030000017850e+000	 1.599332977904303e+001
0	 3.000000000000000e+000	 2.666700000016666e+000	 1.518379249604791e+001
0	 3.066659999995868e+000	 2.000000000000000e+000	 2.452549760372735e+001
0	 3.066659999995866e+000	 2.066670000003317e+000	 2.339387988820284e+001
0	 3.066659999995868e+000	 2.133340000006534e+000	 2.230574627402609e+001
0	 3.066659999995867e+000	 2.200010000009550e+000	 2.126019904131046e+001
0	 3.066659999995868e+000	 2.266680000012267e+000	 2.025634047016962e+001
0	 3.066659999995868e+000	 2.333350000014584e+000	 1.929327284071754e+001
0	 3.066659999995867e+000	 2.400020000016401e+000	 1.837009843306851e+001
0	 3.066659999995867e+000	 2.466690000017617e+000	 1.748591952733707e+001
0	 3.066659999995868e+000	 2.533360000018134e+000	 1.663983840363806e+001
0	 3.066659999995868e+000	 2.600030000017851e+000	 1.583095734208661e+001
0	 3.066659999995868e+000	 2.666700000016666e+000	 1.505837862279820e+001
0	 3.133319999991934e+000	 2.000000000000000e+000	 2.386945370379126e+001
0	 3.133319999991935e+000	 2.066670000003317e+000	 2.279114259694415e+001
0	 3.133319999991934e+000	 2.133340000006534e+000	 2.175498332121406e+001
0	 3.133319999991934e+000	 2.200010000009550e+000	 2.076006299181752e+001
0	 3.133319999991933e+000	 2.266680000012267e+000	 1.980546872397130e+001
0	 3.133319999991935e+000	 2.333350000014585e+000	 1.889028763289253e+001
0	 3.133319999991934e+000	 2.400020000016401e+000	 1.801360683379859e+001
0	 3.133319999991934e+000	 2.466690000017617e+000	 1.717451344190717e+001
0	 3.133319999991934e+000	 2.533360000018134e+000	 1.637209457243624e+001
0	 3.133319999991934e+000	 2.600030000017850e+000	 1.560543734060409e+001
0	 3.133319999991934e+000	 2.666700000016666e+000	 1.487362886162931e+001
0	 3.199979999988401e+000	 2.000000000000000e+000	 2.312591860601192e+001
0	 3.199979999988401e+000	 2.066670000003316e+000	 2.210454716459471e+001
0	 3.199979999988401e+000	 2.133340000006534e+000	 2.112382034896283e+001
0	 3.199979999988401e+000	 2.200010000009550e+000	 2.018284176458143e+001
0	 3.199979999988401e+000	 2.266680000012267e+000	 1.928071501691592e+001
0	 3.199979999988401e+000	 2.333350000014584e+000	 1.841654371143206e+001
0	 3.199979999988401e+000	 2.400020000016401e+000	 1.758943145359587e+001
0	 3.199979999988401e+000	 2.466690000017617e+000	 1.679848184887366e+001
0	 3.199979999988401e+000	 2.533360000018134e+000	 1.604279850273206e+001
0	 3.199979999988401e+000	 2.600030000017851e+000	 1.532148502063795e+001
0	 3.199979999988401e+000	 2.666700000016666e+000	 1.463364500805854e+001
0	 3.266639999985468e+000	 2.000000000000000e+000	 2.230627399229027e+001
0	 3.266639999985467e+000	 2.066670000003317e+000	 2.134463274630406e+001
0	 3.266639999985467e+000	 2.133340000006534e+000	 2.042197943858452e+001
0	 3.266639999985468e+000	 2.200010000009550e+000	 1.953746581999097e+001
0	 3.266639999985468e+000	 2.266680000012267e+000	 1.869024364138296e+001
0	 3.266639999985467e+000	 2.333350000014584e+000	 1.787946465362036e+001
0	 3.266639999985468e+000	 2.400020000016401e+000	 1.710428060756335e+001
0	 3.266639999985467e+000	 2.466690000017616e+000	 1.636384325407235e+001
0	 3.266639999985467e+000	 2.533360000018133e+000	 1.565730434400811e+001
0	 3.266639999985468e+000	 2.600030000017851e+000	 1.498381562823163e+001
0	 3.266639999985468e+000	 2.666700000016666e+000	 1.434252885760422e+001
0	 3.333299999983334e+000	 2.000000000000000e+000	 2.142190154452780e+001
0	 3.333299999983333e+000	 2.066670000003317e+000	 2.052193849722233e+001
0	 3.333299999983334e+000	 2.133340000006534e+000	 1.965918267139200e+001
0	 3.333299999983335e+000	 2.200010000009550e+000	 1.883286561843573e+001
0	 3.333299999983334e+000	 2.266680000012267e+000	 1.804221888975275e+001
0	 3.333299999983334e+000	 2.333350000014584e+000	 1.728647403674255e+001
0	 3.333299999983334e+000	 2.400020000016401e+000	 1.656486261080494e+001
0	 3.333299999983334e+000	 2.466690000017617e+000	 1.587661616333998e+001
0	 3.333299999983334e+000	 2.533360000018134e+000	 1.522096624574798e+001
0	 3.333299999983334e+000	 2.600030000017851e+000	 1.459714440942958e+001
0	 3.333299999983334e+000	 2.666700000016667e+000	 1.400438220578568e+001
0	 2.666700000016667e+000	 2.666700000016667e+000	 1.477726070047253e+001
0	 2.666700000016666e+000	 2.733360000014533e+000	 1.393033270550950e+001
0	 2.666700000016666e+000	 2.800020000011599e+000	 1.317397365767536e+001
0	 2.666700000016667e+000	 2.866680000008067e+000	 1.250589273164426e+001
0	 2.666700000016666e+000	 2.933340000004133e+000	 1.192379910208899e+001
0	 2.666700000016666e+000	 3.000000000000000e+000	 1.142540194368118e+001
0	 2.666700000016666e+000	 3.066659999995867e+000	 1.100841043109120e+001
0	 2.666700000016666e+000	 3.133319999991934e+000	 1.067053373898822e+001
0	 2.666700000016667e+000	 3.199979999988401e+000	 1.040948104204011e+001
0	 2.666700000016666e+000	 3.266639999985468e+000	 1.022296151491358e+001
0	 2.666700000016667e+000	 3.333299999983334e+000	 1.010868433227405e+001
0	 2.733360000014533e+000	 2.666700000016666e+000	 1.501005319954350e+001
0	 2.733360000014534e+000	 2.733360000014534e+000	 1.416933523900125e+001
0	 2.733360000014533e+000	 2.800020000011599e+000	 1.341599042824679e+001
0	 2.733360000014533e+000	 2.866680000008067e+000	 1.274810737256955e+001
0	 2.733360000014533e+000	 2.933340000004133e+000	 1.216377467725765e+001
0	 2.733360000014534e+000	 3.000000000000000e+000	 1.166108094759799e+001
0	 2.733360000014533e+000	 3.066659999995867e+000	 1.123811478887619e+001
0	 2.733360000014532e+000	 3.133319999991934e+000	 1.089296480637664e+001
0	 2.733360000014533e+000	 3.199979999988400e+000	 1.062371960538244e+001
0	 2.733360000014534e+000	 3.266639999985468e+000	 1.042846779117544e+001
0	 2.733360000014533e+000	 3.333299999983334e+000	 1.030529796903624e+001
0	 2.800020000011600e+000	 2.666700000016667e+000	 1.516300083312371e+001
0	 2.800020000011600e+000	 2.733360000014533e+000	 1.433522234437432e+001
0	 2.800020000011599e+000	 2.800020000011600e+000	 1.359135140288566e+001
0	 2.800020000011600e+000	 2.866680000008066e+000	 1.292981676700944e+001
0	 2.800020000011600e+000	 2.933340000004134e+000	 1.234904719509618e+001
0	 2.800020000011600e+000	 3.000000000000000e+000	 1.184747144549513e+001
0	 2.800020000011601e+000	 3.066659999995868e+000	 1.142351827655421e+001
0	 2.800020000011600e+000	 3.133319999991933e+000	 1.107561644662012e+001
0	 2.800020000011600e+000	 3.199979999988401e+000	 1.080219471403829e+001
0	 2.800020000011599e+000	 3.266639999985466e+000	 1.060168183715286e+001
0	 2.800020000011600e+000	 3.333299999983334e+000	 1.047250657430670e+001
0	 2.866680000008067e+000	 2.666700000016667e+000	 1.524020539672547e+001
0	 2.866680000008066e+000	 2.733360000014533e+000	 1.443151965632357e+001
0	 2.866680000008067e+000	 2.800020000011600e+000	 1.370305500176248e+001
0	 2.866680000008067e+000	 2.866680000008067e+000	 1.305354106690337e+001
0	 2.866680000008067e+000	 2.933340000004133e+000	 1.248170748560613e+001
0	 2.866680000008066e+000	 2.999999999999999e+000	 1.198628389172938e+001
0	 2.866680000008067e+000	 3.066659999995866e+000	 1.156599991913048e+001
0	 2.866680000008067e+000	 3.133319999991934e+000	 1.121958520166553e+001
0	 2.866680000008066e+000	 3.199979999988400e+000	 1.094576937318935e+001
0	 2.866680000008066e+000	 3.266639999985467e+000	 1.074328206755550e+001
0	 2.866680000008066e+000	 3.333299999983333e+000	 1.061085291861627e+001
0	 2.933340000004133e+000	 2.666700000016666e+000	 1.524576868586210e+001
0	 2.933340000004133e+000	 2.733360000014533e+000	 1.446175280954483e+001
0	 2.933340000004134e+000	 2.800020000011599e+000	 1.375409964504886e+001
0	 2.933340000004133e+000	 2.866680000008067e+000	 1.312180042419180e+001
0	 2.933340000004133e+000	 2.933340000004133e+000	 1.256384637878998e+001
0	 2.933340000004133e+000	 2.999999999999999e+000	 1.207922874065850e+001
0	 2.933340000004133e+000	 3.066659999995867e+000	 1.166693874161117e+001
0	 2.933340000004133e+000	 3.133319999991933e+000	 1.132596761346060e+001
0	 2.933340000004133e+000	 3.199979999988400e+000	 1.105530658801810e+001
0	 2.933340000004133e+000	 3.266639999985467e+000	 1.085394689709378e+001
0	 2.933340000004133e+000	 3.333299999983334e+000	 1.072087977249644e+001
0	 3.000000000000000e+000	 2.666700000016666e+000	 1.518379249604791e+001
0	 3.000000000000000e+000	 2.733360000014533e+000	 1.442944743873494e+001
0	 3.000000000000000e+000	 2.800020000011599e+000	 1.374748375291733e+001
0	 3.000000000000001e+000	 2.866680000008067e+000	 1.313711499081613e+001
0	 3.000000000000000e+000	 2.933340000004132e+000	 1.259755470465118e+001
0	 3.000000000000000e+000	 3.000000000000000e+000	 1.212801644664111e+001
0	 2.999999999999999e+000	 3.066659999995866e+000	 1.172771376900328e+001
0	 3.000000000000000e+000	 3.133319999991935e+000	 1.139586022395388e+001
0	 3.000000000000000e+000	 3.199979999988400e+000	 1.113166936370783e+001
0	 3.000000000000000e+000	 3.266639999985467e+000	 1.093435474047885e+001
0	 3.000000000000000e+000	 3.333299999983334e+000	 1.080312990647941e+001
0	 3.066659999995868e+000	 2.666700000016666e+000	 1.505837862279821e+001
0	 3.066659999995868e+000	 2.733360000014534e+000	 1.433812917859178e+001
0	 3.066659999995867e+000	 2.800020000011600e+000	 1.368620574554143e+001
0	 3.066659999995867e+000	 2.866680000008066e+000	 1.310200491871875e+001
0	 3.066659999995867e+000	 2.933340000004134e+000	 1.258492329319412e+001
0	 3.066659999995867e+000	 2.999999999999999e+000	 1.213435746403677e+001
0	 3.066659999995867e+000	 3.066659999995865e+000	 1.174970402631471e+001
0	 3.066659999995868e+000	 3.133319999991934e+000	 1.143035957509476e+001
0	 3.066659999995867e+000	 3.199979999988400e+000	 1.117572070544257e+001
0	 3.066659999995868e+000	 3.266639999985467e+000	 1.098518401242258e+001
0	 3.066659999995867e+000	 3.333299999983333e+000	 1.085814609109805e+001
0	 3.133319999991934e+000	 2.666700000016666e+000	 1.487362886162931e+001
0	 3.133319999991934e+000	 2.733360000014533e+000	 1.419132366381418e+001
0	 3.133319999991934e+000	 2.800020000011599e+000	 1.357326404309568e+001
0	 3.133319999991935e+000	 2.866680000008067e+000	 1.301899035984301e+001
0	 3.133319999991934e+000	 2.933340000004134e+000	 1.252804297442415e+001
0	 3.133319999991934e+000	 3.000000000000000e+000	 1.209996224720597e+001
0	 3.133319999991934e+000	 3.066659999995868e+000	 1.173428853855423e+001
0	 3.133319999991935e+000	 3.133319999991934e+000	 1.143056220883347e+001
0	 3.133319999991934e+000	 3.199979999988400e+000	 1.118832361840716e+001
0	 3.133319999991933e+000	 3.266639999985467e+000	 1.100711312763758e+001
0	 3.133319999991934e+000	 3.333299999983333e+000	 1.088647109688588e+001
0	 3.199979999988401e+000	 2.666700000016666e+000	 1.463364500805854e+001
0	 3.199979999988401e+000	 2.733360000014534e+000	 1.399255652910199e+001
0	 3.199979999988400e+000	 2.800020000011599e+000	 1.341165706575563e+001
0	 3.199979999988401e+000	 2.866680000008067e+000	 1.289059146613325e+001
0	 3.199979999988401e+000	 2.933340000004134e+000	 1.242900457834754e+001
0	 3.199979999988401e+000	 3.000000000000000e+000	 1.202654125051012e+001
0	 3.199979999988401e+000	 3.066659999995867e+000	 1.168284633073149e+001
0	 3.199979999988401e+000	 3.133319999991933e+000	 1.139756466712109e+001
0	 3.199979999988401e+000	 3.199979999988400e+000	 1.117034110778725e+001
0	 3.199979999988401e+000	 3.266639999985466e+000	 1.100082050083721e+001
0	 3.199979999988401e+000	 3.333299999983334e+000	 1.088864769437714e+001
0	 3.266639999985468e+000	 2.666700000016666e+000	 1.434252885760422e+001
0	 3.266639999985468e+000	 2.733360000014533e+000	 1.374535340915609e+001
0	 3.266639999985468e+000	 2.800020000011600e+000	 1.320438323369778e+001
0	 3.266639999985468e+000	 2.866680000008066e+000	 1.271932838953479e+001
0	 3.266639999985467e+000	 2.933340000004133e+000	 1.228989893497156e+001
0	 3.266639999985468e+000	 3.000000000000000e+000	 1.191580492831152e+001
0	 3.266639999985468e+000	 3.066659999995867e+000	 1.159675642785703e+001
0	 3.266639999985467e+000	 3.133319999991933e+000	 1.133246349190950e+001
0	 3.266639999985468e+000	 3.199979999988400e+000	 1.112263617876924e+001
0	 3.266639999985468e+000	 3.266639999985468e+000	 1.096698454673555e+001
0	 3.266639999985468e+000	 3.333299999983334e+000	 1.086521865410673e+001
0	 3.333299999983334e+000	 2.666700000016667e+000	 1.400438220578568e+001
0	 3.333299999983333e+000	 2.733360000014532e+000	 1.345323993867832e+001
0	 3.333299999983334e+000	 2.800020000011600e+000	 1.295444096709966e+001
0	 3.333299999983334e+000	 2.866680000008067e+000	 1.250772128199392e+001
0	 3.333299999983334e+000	 2.933340000004133e+000	 1.211281687430440e+001
0	 3.333299999983334e+000	 3.000000000000000e+000	 1.176946373497341e+001
0	 3.333299999983334e+000	 3.066659999995868e+000	 1.147739785494229e+001
0	 3.333299999983333e+000	 3.133319999991934e+000	 1.123635522515144e+001
0	 3.333299999983333e+000	 3.199979999988400e+000	 1.104607183654033e+001
0	 3.333299999983334e+000	 3.266639999985468e+000	 1.090628368004741e+001
0	 3.333299999983334e+000	 3.333299999983334e+000	 1.081672674661023e+001
0	 2.666700000016667e+000	 3.333299999983334e+000	 1.010868433227405e+001
0	 2.666700000016666e+000	 3.399969999982150e+000	 1.004178428847729e+001
0	 2.666700000016666e+000	 3.466639999981867e+000	 9.997194212763224e+000
0	 2.666700000016666e+000	 3.533309999982383e+000	 9.972284814742519e+000
0	 2.666700000016666e+000	 3.599979999983599e+000	 9.964426804026074e+000
0	 2.666700000016666e+000	 3.666649999985416e+000	 9.970990890224975e+000
0	 2.666700000016667e+000	 3.733319999987733e+000	 9.989347782950565e+000
0	 2.666700000016667e+000	 3.799989999990450e+000	 1.001686819181435e+001
0	 2.666700000016666e+000	 3.866659999993467e+000	 1.005092282642808e+001
0	 2.666700000016666e+000	 3.933329999996684e+000	 1.008888239640369e+001
0	 2.666700000016666e+000	 4.000000000000001e+000	 1.012811761135334e+001
0	 2.733360000014533e+000	 3.333299999983334e+000	 1.030529796903624e+001
0	 2.733360000014533e+000	 3.399969999982150e+000	 1.022817843419916e+001
0	 2.733360000014533e+000	 3.466639999981868e+000	 1.017097194647221e+001
0	 2.733360000014534e+000	 3.533309999982383e+000	 1.013156930936495e+001
0	 2.733360000014533e+000	 3.599979999983600e+000	 1.010786132638713e+001
0	 2.733360000014533e+000	 3.666649999985416e+000	 1.009773880104867e+001
0	 2.733360000014532e+000	 3.733319999987732e+000	 1.009909253685973e+001
0	 2.733360000014533e+000	 3.799989999990450e+000	 1.010981333733062e+001
0	 2.733360000014534e+000	 3.866659999993467e+000	 1.012779200597188e+001
0	 2.733360000014533e+000	 3.933329999996684e+000	 1.015091934629424e+001
0	 2.733360000014533e+000	 4.000000000000001e+000	 1.017708616180860e+001
0	 2.800020000011600e+000	 3.333299999983334e+000	 1.047250657430670e+001
0	 2.800020000011599e+000	 3.399969999982150e+000	 1.038782407397250e+001
0	 2.800020000011600e+000	 3.466639999981866e+000	 1.032077099235712e+001
0	 2.800020000011600e+000	 3.533309999982382e+000	 1.026970603158085e+001
0	 2.800020000011600e+000	 3.599979999983599e+000	 1.023298789376413e+001
0	 2.800020000011599e+000	 3.666649999985417e+000	 1.020897528102761e+001
0	 2.800020000011600e+000	 3.733319999987733e+000	 1.019602689549209e+001
0	 2.800020000011600e+000	 3.799989999990450e+000	 1.019250143927856e+001
0	 2.800020000011601e+000	 3.866659999993467e+000	 1.019675761450819e+001
0	 2.800020000011600e+000	 3.933329999996684e+000	 1.020715412330234e+001
0	 2.800020000011600e+000	 4.000000000000001e+000	 1.022204966778253e+001
0	 2.866680000008066e+000	 3.333299999983333e+000	 1.061085291861627e+001
0	 2.866680000008066e+000	 3.399969999982149e+000	 1.052115596941867e+001
0	 2.866680000008066e+000	 3.466639999981866e+000	 1.044692446073007e+001
0	 2.866680000008066e+000	 3.533309999982382e+000	 1.038693279799329e+001
0	 2.866680000008067e+000	 3.599979999983599e+000	 1.033995538665137e+001
0	 2.866680000008066e+000	 3.666649999985417e+000	 1.030476663214746e+001
0	 2.866680000008067e+000	 3.733319999987734e+000	 1.028014093992491e+001
0	 2.866680000008067e+000	 3.799989999990450e+000	 1.026485271542720e+001
0	 2.866680000008067e+000	 3.866659999993467e+000	 1.025767636409801e+001
0	 2.866680000008066e+000	 3.933329999996684e+000	 1.025738629138117e+001
0	 2.866680000008066e+000	 4.000000000000000e+000	 1.026275690272063e+001
0	 2.933340000004133e+000	 3.333299999983334e+000	 1.072087977249644e+001
0	 2.933340000004133e+000	 3.399969999982150e+000	 1.062860888215965e+001
0	 2.933340000004133e+000	 3.466639999981867e+000	 1.054976546190371e+001
0	 2.933340000004133e+000	 3.533309999982383e+000	 1.048348742520587e+001
0	 2.933340000004134e+000	 3.599979999983600e+000	 1.042891268554355e+001
0	 2.933340000004133e+000	 3.666649999985415e+000	 1.038517915639428e+001
0	 2.933340000004133e+000	 3.733319999987733e+000	 1.035142475123577e+001
0	 2.933340000004133e+000	 3.799989999990450e+000	 1.032678738354587e+001
0	 2.933340000004133e+000	 3.866659999993467e+000	 1.031040496680258e+001
0	 2.933340000004133e+000	 3.933329999996683e+000	 1.030141541448403e+001
0	 2.933340000004133e+000	 4.000000000000001e+000	 1.029895664006854e+001
0	 3.000000000000000e+000	 3.333299999983334e+000	 1.080312990647941e+001
0	 3.000000000000000e+000	 3.399969999982150e+000	 1.071061757381804e+001
0	 3.000000000000000e+000	 3.466639999981868e+000	 1.062962710619130e+001
0	 3.000000000000000e+000	 3.533309999982383e+000	 1.055960772982268e+001
0	 3.000000000000001e+000	 3.599979999983601e+000	 1.050000867093581e+001
0	 3.000000000000001e+000	 3.666649999985417e+000	 1.045027915575447e+001
0	 3.000000000000000e+000	 3.733319999987733e+000	 1.040986841050257e+001
0	 3.000000000000000e+000	 3.799989999990450e+000	 1.037822566140411e+001
0	 3.000000000000001e+000	 3.866659999993467e+000	 1.035480013468331e+001
0	 3.000000000000001e+000	 3.933329999996685e+000	 1.033904105656444e+001
0	 3.000000000000000e+000	 4.000000000000001e+000	 1.033039765327196e+001
0	 3.066659999995867e+000	 3.333299999983333e+000	 1.085814609109805e+001
0	 3.066659999995868e+000	 3.399969999982150e+000	 1.076761680601707e+001
0	 3.066659999995866e+000	 3.466639999981866e+000	 1.068684250390663e+001
0	 3.066659999995868e+000	 3.533309999982383e+000	 1.061553152844828e+001
0	 3.066659999995868e+000	 3.599979999983600e+000	 1.055339222332374e+001
0	 3.066659999995867e+000	 3.666649999985415e+000	 1.050013293221484e+001
0	 3.066659999995868e+000	 3.733319999987733e+000	 1.045546199880350e+001
0	 3.066659999995867e+000	 3.799989999990450e+000	 1.041908776677179e+001
0	 3.066659999995867e+000	 3.866659999993466e+000	 1.039071857980187e+001
0	 3.066659999995868e+000	 3.933329999996685e+000	 1.037006278157606e+001
0	 3.066659999995868e+000	 4.000000000000000e+000	 1.035682871577677e+001
0	 3.133319999991934e+000	 3.333299999983333e+000	 1.088647109688588e+001
0	 3.133319999991933e+000	 3.399969999982149e+000	 1.080004134038057e+001
0	 3.133319999991934e+000	 3.466639999981867e+000	 1.072174476536404e+001
0	 3.133319999991934e+000	 3.533309999982382e+000	 1.065149663768778e+001
0	 3.133319999991933e+000	 3.599979999983600e+000	 1.058921222320339e+001
0	 3.133319999991934e+000	 3.666649999985416e+000	 1.053480678776256e+001
0	 3.133319999991934e+000	 3.733319999987733e+000	 1.048819559721712e+001
0	 3.133319999991934e+000	 3.799989999990450e+000	 1.044929391741897e+001
0	 3.133319999991934e+000	 3.866659999993466e+000	 1.041801701422012e+001
0	 3.133319999991934e+000	 3.933329999996683e+000	 1.039428015347271e+001
0	 3.133319999991935e+000	 4.000000000000000e+000	 1.037799860102895e+001
0	 3.199979999988401e+000	 3.333299999983334e+000	 1.088864769437714e+001
0	 3.199979999988401e+000	 3.399969999982150e+000	 1.080832593853300e+001
0	 3.199979999988400e+000	 3.466639999981866e+000	 1.073466700087845e+001
0	 3.199979999988400e+000	 3.533309999982383e+000	 1.066774087414675e+001
0	 3.199979999988400e+000	 3.599979999983599e+000	 1.060761755107119e+001
0	 3.199979999988401e+000	 3.666649999985417e+000	 1.055436702438519e+001
0	 3.199979999988401e+000	 3.733319999987733e+000	 1.050805928682227e+001
0	 3.199979999988401e+000	 3.799989999990450e+000	 1.046876433111603e+001
0	 3.199979999988400e+000	 3.866659999993466e+000	 1.043655215000013e+001
0	 3.199979999988401e+000	 3.933329999996683e+000	 1.041149273620838e+001
0	 3.199979999988401e+000	 4.000000000000000e+000	 1.039365608247464e+001
0	 3.266639999985468e+000	 3.333299999983334e+000	 1.086521865410673e+001
0	 3.266639999985468e+000	 3.399969999982151e+000	 1.079290536209944e+001
0	 3.266639999985468e+000	 3.466639999981867e+000	 1.072594232076535e+001
0	 3.266639999985467e+000	 3.533309999982383e+000	 1.066450205443125e+001
0	 3.266639999985468e+000	 3.599979999983599e+000	 1.060875708742403e+001
0	 3.266639999985467e+000	 3.666649999985417e+000	 1.055887994407065e+001
0	 3.266639999985467e+000	 3.733319999987732e+000	 1.051504314869812e+001
0	 3.266639999985468e+000	 3.799989999990451e+000	 1.047741922563357e+001
0	 3.266639999985468e+000	 3.866659999993467e+000	 1.044618069920419e+001
0	 3.266639999985468e+000	 3.933329999996684e+000	 1.042150009373724e+001
0	 3.266639999985467e+000	 4.000000000000001e+000	 1.040354993356006e+001
0	 3.333299999983334e+000	 3.333299999983334e+000	 1.081672674661023e+001
0	 3.333299999983333e+000	 3.399969999982149e+000	 1.075421437270558e+001
0	 3.333299999983333e+000	 3.466639999981866e+000	 1.069590383534074e+001
0	 3.333299999983334e+000	 3.533309999982383e+000	 1.064201799514788e+001
0	 3.333299999983334e+000	 3.599979999983599e+000	 1.059277971275927e+001
0	 3.333299999983334e+000	 3.666649999985416e+000	 1.054841184880723e+001
0	 3.333299999983334e+000	 3.733319999987733e+000	 1.050913726392416e+001
0	 3.333299999983334e+000	 3.799989999990450e+000	 1.047517881874250e+001
0	 3.333299999983334e+000	 3.866659999993467e+000	 1.044675937389479e+001
0	 3.333299999983333e+000	 3.933329999996682e+000	 1.042410179001360e+001
0	 3.333299999983333e+000	 4.000000000000000e+000	 1.040742892773157e+001
0	 2.666700000016666e+000	 4.000000000000001e+000	 1.012811761135335e+001
0	 2.666700000016667e+000	 4.066670000003317e+000	 1.015882629901417e+001
0	 2.666700000016666e+000	 4.133340000006535e+000	 1.017468725637354e+001
0	 2.666700000016666e+000	 4.200010000009551e+000	 1.017829264691924e+001
0	 2.666700000016667e+000	 4.266680000012267e+000	 1.017223463413912e+001
0	 2.666700000016667e+000	 4.333350000014584e+000	 1.015910538152110e+001
0	 2.666700000016666e+000	 4.400020000016401e+000	 1.014149705255313e+001
0	 2.666700000016667e+000	 4.466690000017619e+000	 1.012200181072329e+001
0	 2.666700000016666e+000	 4.533360000018133e+000	 1.010321181951970e+001
0	 2.666700000016666e+000	 4.600030000017851e+000	 1.008771924243052e+001
0	 2.666700000016666e+000	 4.666700000016666e+000	 1.007811624294401e+001
0	 2.733360000014533e+000	 4.000000000000001e+000	 1.017708616180860e+001
0	 2.733360000014533e+000	 4.066670000003317e+000	 1.019728208368797e+001
0	 2.733360000014534e+000	 4.133340000006533e+000	 1.020536873798883e+001
0	 2.733360000014533e+000	 4.200010000009550e+000	 1.020354492054749e+001
0	 2.733360000014534e+000	 4.266680000012269e+000	 1.019400942720031e+001
0	 2.733360000014533e+000	 4.333350000014582e+000	 1.017896105378376e+001
0	 2.733360000014533e+000	 4.400020000016402e+000	 1.016059859613432e+001
0	 2.733360000014534e+000	 4.466690000017618e+000	 1.014112085008854e+001
0	 2.733360000014533e+000	 4.533360000018131e+000	 1.012272661148304e+001
0	 2.733360000014533e+000	 4.600030000017852e+000	 1.010761467615449e+001
0	 2.733360000014533e+000	 4.666700000016666e+000	 1.009798383993962e+001
0	 2.800020000011600e+000	 4.000000000000001e+000	 1.022204966778253e+001
0	 2.800020000011599e+000	 4.066670000003317e+000	 1.023318655975610e+001
0	 2.800020000011599e+000	 4.133340000006532e+000	 1.023462716326799e+001
0	 2.800020000011600e+000	 4.200010000009550e+000	 1.022821025879635e+001
0	 2.800020000011599e+000	 4.266680000012266e+000	 1.021577462681942e+001
0	 2.800020000011600e+000	 4.333350000014584e+000	 1.019915904781547e+001
0	 2.800020000011601e+000	 4.400020000016401e+000	 1.018020230226279e+001
0	 2.800020000011600e+000	 4.466690000017619e+000	 1.016074317063976e+001
0	 2.800020000011600e+000	 4.533360000018134e+000	 1.014262043342479e+001
0	 2.800020000011600e+000	 4.600030000017849e+000	 1.012767287109635e+001
0	 2.800020000011599e+000	 4.666700000016665e+000	 1.011773926413297e+001
0	 2.866680000008066e+000	 4.000000000000000e+000	 1.026275690272064e+001
0	 2.866680000008066e+000	 4.066670000003319e+000	 1.026624688713706e+001
0	 2.866680000008067e+000	 4.133340000006533e+000	 1.026214007496381e+001
0	 2.866680000008067e+000	 4.200010000009550e+000	 1.025194858361419e+001
0	 2.866680000008067e+000	 4.266680000012268e+000	 1.023718453050157e+001
0	 2.866680000008066e+000	 4.333350000014585e+000	 1.021936003303936e+001
0	 2.866680000008067e+000	 4.400020000016401e+000	 1.019998720864100e+001
0	 2.866680000008066e+000	 4.466690000017617e+000	 1.018057817471996e+001
0	 2.866680000008066e+000	 4.533360000018135e+000	 1.016264504868980e+001
0	 2.866680000008067e+000	 4.600030000017851e+000	 1.014769994796408e+001
0	 2.866680000008067e+000	 4.666700000016666e+000	 1.013725498995642e+001
0	 2.933340000004133e+000	 4.000000000000001e+000	 1.029895664006854e+001
0	 2.933340000004133e+000	 4.066670000003317e+000	 1.029617022574949e+001
0	 2.933340000004133e+000	 4.133340000006534e+000	 1.028758501582916e+001
0	 2.933340000004133e+000	 4.200010000009550e+000	 1.027441981694935e+001
0	 2.933340000004134e+000	 4.266680000012267e+000	 1.025789343575188e+001
0	 2.933340000004133e+000	 4.333350000014583e+000	 1.023922467887859e+001
0	 2.933340000004133e+000	 4.400020000016400e+000	 1.021963235297138e+001
0	 2.933340000004133e+000	 4.466690000017617e+000	 1.020033526467218e+001
0	 2.933340000004133e+000	 4.533360000018133e+000	 1.018255222062293e+001
0	 2.933340000004133e+000	 4.600030000017850e+000	 1.016750202746565e+001
0	 2.933340000004133e+000	 4.666700000016667e+000	 1.015640349184235e+001
0	 3.000000000000000e+000	 4.000000000000001e+000	 1.033039765327196e+001
0	 3.000000000000000e+000	 4.066670000003318e+000	 1.032266373551205e+001
0	 3.000000000000001e+000	 4.133340000006534e+000	 1.031063952861696e+001
0	 3.000000000000000e+000	 4.200010000009552e+000	 1.029528388075024e+001
0	 3.000000000000000e+000	 4.266680000012268e+000	 1.027755564007549e+001
0	 3.000000000000000e+000	 4.333350000014583e+000	 1.025841365475632e+001
0	 3.000000000000000e+000	 4.400020000016401e+000	 1.023881677295641e+001
0	 3.000000000000000e+000	 4.466690000017617e+000	 1.021972384283940e+001
0	 3.000000000000001e+000	 4.533360000018135e+000	 1.020209371256903e+001
0	 3.000000000000001e+000	 4.600030000017850e+000	 1.018688523030901e+001
0	 3.000000000000000e+000	 4.666700000016665e+000	 1.017505724422312e+001
0	 3.066659999995868e+000	 4.000000000000000e+000	 1.035682871577677e+001
0	 3.066659999995867e+000	 4.066670000003318e+000	 1.034543457634359e+001
0	 3.066659999995868e+000	 4.133340000006535e+000	 1.033098115608022e+001
0	 3.066659999995866e+000	 4.200010000009550e+000	 1.031420069696532e+001
0	 3.066659999995867e+000	 4.266680000012268e+000	 1.029582544097759e+001
0	 3.066659999995867e+000	 4.333350000014583e+000	 1.027658763009574e+001
0	 3.066659999995868e+000	 4.400020000016402e+000	 1.025721950629850e+001
0	 3.066659999995867e+000	 4.466690000017617e+000	 1.023845331156462e+001
0	 3.066659999995868e+000	 4.533360000018135e+000	 1.022102128787288e+001
0	 3.066659999995867e+000	 4.600030000017850e+000	 1.020565567720209e+001
0	 3.066659999995867e+000	 4.666700000016665e+000	 1.019308872153105e+001
0	 3.133319999991935e+000	 4.000000000000000e+000	 1.037799860102895e+001
0	 3.133319999991935e+000	 4.066670000003318e+000	 1.036418990816295e+001
0	 3.133319999991935e+000	 4.133340000006535e+000	 1.034828744097196e+001
0	 3.133319999991934e+000	 4.200010000009551e+000	 1.033083018754305e+001
0	 3.133319999991934e+000	 4.266680000012268e+000	 1.031235713596336e+001
0	 3.133319999991935e+000	 4.333350000014585e+000	 1.029340727432000e+001
0	 3.133319999991933e+000	 4.400020000016399e+000	 1.027451959070010e+001
0	 3.133319999991935e+000	 4.466690000017617e+000	 1.025623307319082e+001
0	 3.133319999991935e+000	 4.533360000018134e+000	 1.023908670987932e+001
0	 3.133319999991934e+000	 4.600030000017850e+000	 1.022361948885280e+001
0	 3.133319999991934e+000	 4.666700000016667e+000	 1.021037039819845e+001
0	 3.199979999988401e+000	 4.000000000000000e+000	 1.039365608247464e+001
0	 3.199979999988401e+000	 4.066670000003318e+000	 1.037863689088912e+001
0	 3.199979999988400e+000	 4.133340000006534e+000	 1.036223592604528e+001
0	 3.199979999988401e+000	 4.200010000009550e+000	 1.034483227443197e+001
0	 3.199979999988401e+000	 4.266680000012268e+000	 1.032680502253803e+001
0	 3.199979999988400e+000	 4.333350000014583e+000	 1.030853325685230e+001
0	 3.199979999988401e+000	 4.400020000016401e+000	 1.029039606386366e+001
0	 3.199979999988401e+000	 4.466690000017617e+000	 1.027277253006099e+001
0	 3.199979999988400e+000	 4.533360000018132e+000	 1.025604174193315e+001
0	 3.199979999988401e+000	 4.600030000017852e+000	 1.024058278596907e+001
0	 3.199979999988400e+000	 4.666700000016665e+000	 1.022677474865763e+001
0	 3.266639999985467e+000	 4.000000000000001e+000	 1.040354993356007e+001
0	 3.266639999985468e+000	 4.066670000003318e+000	 1.038848268444117e+001
0	 3.266639999985467e+000	 4.133340000006533e+000	 1.037250415405340e+001
0	 3.266639999985467e+000	 4.200010000009550e+000	 1.035586687958064e+001
0	 3.266639999985468e+000	 4.266680000012268e+000	 1.033882339820683e+001
0	 3.266639999985468e+000	 4.333350000014584e+000	 1.032162624711584e+001
0	 3.266639999985468e+000	 4.400020000016402e+000	 1.030452796349161e+001
0	 3.266639999985468e+000	 4.466690000017616e+000	 1.028778108451807e+001
0	 3.266639999985468e+000	 4.533360000018134e+000	 1.027163814737915e+001
0	 3.266639999985468e+000	 4.600030000017851e+000	 1.025635168925877e+001
0	 3.266639999985468e+000	 4.666700000016667e+000	 1.024217424734088e+001
0	 3.333299999983333e+000	 4.000000000000000e+000	 1.040742892773157e+001
0	 3.333299999983334e+000	 4.066670000003317e+000	 1.039343444873825e+001
0	 3.333299999983334e+000	 4.133340000006534e+000	 1.037876966774951e+001
0	 3.333299999983335e+000	 4.200010000009551e+000	 1.036359392493766e+001
0	 3.333299999983334e+000	 4.266680000012268e+000	 1.034806656047500e+001
0	 3.333299999983334e+000	 4.333350000014583e+000	 1.033234691453382e+001
0	 3.333299999983334e+000	 4.400020000016401e+000	 1.031659432728640e+001
0	 3.333299999983333e+000	 4.466690000017617e+000	 1.030096813890504e+001
0	 3.333299999983334e+000	 4.533360000018134e+000	 1.028562768956208e+001
0	 3.333299999983334e+000	 4.600030000017851e+000	 1.027073231942978e+001
0	 3.333299999983333e+000	 4.666700000016666e+000	 1.025644136868048e+001
0	 2.666700000016666e+000	 4.666700000016666e+000	 1.007811624294401e+001
0	 2.666700000016666e+000	 4.733360000014533e+000	 1.007258189475984e+001
0	 2.666700000016666e+000	 4.800020000011600e+000	 1.006746222520522e+001
0	 2.666700000016667e+000	 4.866680000008069e+000	 1.006260243544967e+001
0	 2.666700000016666e+000	 4.933340000004133e+000	 1.005784772666269e+001
0	 2.666700000016666e+000	 5.000000000000001e+000	 1.005304330001383e+001
0	 2.666700000016667e+000	 5.066659999995868e+000	 1.004803435667262e+001
0	 2.666700000016666e+000	 5.133319999991934e+000	 1.004266609780861e+001
0	 2.666700000016667e+000	 5.199979999988402e+000	 1.003678372459136e+001
0	 2.666700000016667e+000	 5.266639999985468e+000	 1.003023243819043e+001
0	 2.666700000016666e+000	 5.333299999983335e+000	 1.002285743977538e+001
0	 2.733360000014533e+000	 4.666700000016666e+000	 1.009798383993962e+001
0	 2.733360000014533e+000	 4.733360000014534e+000	 1.009212397733068e+001
0	 2.733360000014533e+000	 4.800020000011600e+000	 1.008674040683740e+001
0	 2.733360000014533e+000	 4.866680000008067e+000	 1.008165786099392e+001
0	 2.733360000014533e+000	 4.933340000004135e+000	 1.007670107233440e+001
0	 2.733360000014534e+000	 5.000000000000000e+000	 1.007169477339296e+001
0	 2.733360000014533e+000	 5.066659999995868e+000	 1.006646369670378e+001
0	 2.733360000014533e+000	 5.133319999991935e+000	 1.006083257480104e+001
0	 2.733360000014534e+000	 5.199979999988400e+000	 1.005462614021888e+001
0	 2.733360000014533e+000	 5.266639999985467e+000	 1.004766912549152e+001
0	 2.733360000014532e+000	 5.333299999983334e+000	 1.003978626315314e+001
0	 2.800020000011599e+000	 4.666700000016665e+000	 1.011773926413297e+001
0	 2.800020000011599e+000	 4.733360000014533e+000	 1.011127228265029e+001
0	 2.800020000011600e+000	 4.800020000011601e+000	 1.010537014732554e+001
0	 2.800020000011600e+000	 4.866680000008067e+000	 1.009984303049246e+001
0	 2.800020000011600e+000	 4.933340000004134e+000	 1.009450110448474e+001
0	 2.800020000011600e+000	 5.000000000000000e+000	 1.008915454163616e+001
0	 2.800020000011600e+000	 5.066659999995867e+000	 1.008361351428046e+001
0	 2.800020000011601e+000	 5.133319999991935e+000	 1.007768819475138e+001
0	 2.800020000011600e+000	 5.199979999988400e+000	 1.007118875538269e+001
0	 2.800020000011599e+000	 5.266639999985466e+000	 1.006392536850816e+001
0	 2.800020000011600e+000	 5.333299999983335e+000	 1.005570820646156e+001
0	 2.866680000008067e+000	 4.666700000016666e+000	 1.013725498995643e+001
0	 2.866680000008066e+000	 4.733360000014534e+000	 1.012996622155723e+001
0	 2.866680000008067e+000	 4.800020000011600e+000	 1.012334698462113e+001
0	 2.866680000008067e+000	 4.866680000008066e+000	 1.011719879971637e+001
0	 2.866680000008066e+000	 4.933340000004132e+000	 1.011132318741126e+001
0	 2.866680000008067e+000	 5.000000000000001e+000	 1.010552166827410e+001
0	 2.866680000008067e+000	 5.066659999995866e+000	 1.009959576287315e+001
0	 2.866680000008067e+000	 5.133319999991933e+000	 1.009334699177677e+001
0	 2.866680000008067e+000	 5.199979999988401e+000	 1.008657687555322e+001
0	 2.866680000008067e+000	 5.266639999985468e+000	 1.007908693477088e+001
0	 2.866680000008066e+000	 5.333299999983334e+000	 1.007067868999803e+001
0	 2.933340000004133e+000	 4.666700000016667e+000	 1.015640349184236e+001
0	 2.933340000004133e+000	 4.733360000014534e+000	 1.014814520489005e+001
0	 2.933340000004134e+000	 4.800020000011599e+000	 1.014066645667559e+001
0	 2.933340000004133e+000	 4.866680000008067e+000	 1.013376602443678e+001
0	 2.933340000004133e+000	 4.933340000004132e+000	 1.012724268541143e+001
0	 2.933340000004133e+000	 5.000000000000000e+000	 1.012089521683735e+001
0	 2.933340000004133e+000	 5.066659999995868e+000	 1.011452239595236e+001
0	 2.933340000004134e+000	 5.133319999991934e+000	 1.010792299999429e+001
0	 2.933340000004133e+000	 5.199979999988400e+000	 1.010089580620095e+001
0	 2.933340000004134e+000	 5.266639999985470e+000	 1.009323959181021e+001
0	 2.933340000004133e+000	 5.333299999983334e+000	 1.008475313405988e+001
0	 3.000000000000000e+000	 4.666700000016665e+000	 1.017505724422311e+001
0	 3.000000000000001e+000	 4.733360000014534e+000	 1.016574864348727e+001
0	 3.000000000000000e+000	 4.800020000011601e+000	 1.015732410144038e+001
0	 3.000000000000001e+000	 4.866680000008068e+000	 1.014958556042478e+001
0	 3.000000000000000e+000	 4.933340000004135e+000	 1.014233496278272e+001
0	 3.000000000000000e+000	 4.999999999999999e+000	 1.013537425085655e+001
0	 3.000000000000000e+000	 5.066659999995866e+000	 1.012850536698854e+001
0	 3.000000000000000e+000	 5.133319999991934e+000	 1.012153025352102e+001
0	 3.000000000000001e+000	 5.199979999988401e+000	 1.011425085279629e+001
0	 3.000000000000000e+000	 5.266639999985467e+000	 1.010646910715667e+001
0	 3.000000000000000e+000	 5.333299999983333e+000	 1.009798695894446e+001
0	 3.066659999995867e+000	 4.666700000016665e+000	 1.019308872153105e+001
0	 3.066659999995868e+000	 4.733360000014534e+000	 1.018271594818738e+001
0	 3.066659999995868e+000	 4.800020000011600e+000	 1.017331545686691e+001
0	 3.066659999995868e+000	 4.866680000008067e+000	 1.016469826345140e+001
0	 3.066659999995867e+000	 4.933340000004133e+000	 1.015667538382260e+001
0	 3.066659999995867e+000	 5.000000000000001e+000	 1.014905783386228e+001
0	 3.066659999995867e+000	 5.066659999995867e+000	 1.014165662945217e+001
0	 3.066659999995868e+000	 5.133319999991936e+000	 1.013428278647405e+001
0	 3.066659999995867e+000	 5.199979999988400e+000	 1.012674732080967e+001
0	 3.066659999995867e+000	 5.266639999985467e+000	 1.011886124834077e+001
0	 3.066659999995867e+000	 5.333299999983333e+000	 1.011043558494914e+001
0	 3.133319999991934e+000	 4.666700000016667e+000	 1.021037039819845e+001
0	 3.133319999991934e+000	 4.733360000014534e+000	 1.019898652982887e+001
0	 3.133319999991934e+000	 4.800020000011601e+000	 1.018863606090657e+001
0	 3.133319999991934e+000	 4.866680000008065e+000	 1.017914498928773e+001
0	 3.133319999991934e+000	 4.933340000004134e+000	 1.017033931282852e+001
0	 3.133319999991934e+000	 4.999999999999999e+000	 1.016204502938512e+001
0	 3.133319999991934e+000	 5.066659999995868e+000	 1.015408813681370e+001
0	 3.133319999991935e+000	 5.133319999991935e+000	 1.014629463297045e+001
0	 3.133319999991933e+000	 5.199979999988398e+000	 1.013849051571150e+001
0	 3.133319999991934e+000	 5.266639999985468e+000	 1.013050178289304e+001
0	 3.133319999991933e+000	 5.333299999983333e+000	 1.012215443237123e+001
0	 3.199979999988400e+000	 4.666700000016665e+000	 1.022677474865763e+001
0	 3.199979999988401e+000	 4.733360000014532e+000	 1.021449979925023e+001
0	 3.199979999988401e+000	 4.800020000011601e+000	 1.020328145151076e+001
0	 3.199979999988401e+000	 4.866680000008067e+000	 1.019296659370480e+001
0	 3.199979999988402e+000	 4.933340000004134e+000	 1.018340211409791e+001
0	 3.199979999988401e+000	 4.999999999999999e+000	 1.017443490095564e+001
0	 3.199979999988401e+000	 5.066659999995867e+000	 1.016591184254358e+001
0	 3.199979999988400e+000	 5.133319999991934e+000	 1.015767982712725e+001
0	 3.199979999988400e+000	 5.199979999988400e+000	 1.014958574297219e+001
0	 3.199979999988400e+000	 5.266639999985467e+000	 1.014147647834396e+001
0	 3.199979999988401e+000	 5.333299999983335e+000	 1.013319892150808e+001
0	 3.266639999985468e+000	 4.666700000016667e+000	 1.024217424734088e+001
0	 3.266639999985468e+000	 4.733360000014534e+000	 1.022919516728990e+001
0	 3.266639999985468e+000	 4.800020000011601e+000	 1.021724716663083e+001
0	 3.266639999985468e+000	 4.866680000008065e+000	 1.020620393247362e+001
0	 3.266639999985468e+000	 4.933340000004135e+000	 1.019593915192818e+001
0	 3.266639999985468e+000	 4.999999999999999e+000	 1.018632651210442e+001
0	 3.266639999985468e+000	 5.066659999995868e+000	 1.017723970011224e+001
0	 3.266639999985467e+000	 5.133319999991936e+000	 1.016855240306152e+001
0	 3.266639999985468e+000	 5.199979999988400e+000	 1.016013830806216e+001
0	 3.266639999985468e+000	 5.266639999985468e+000	 1.015187110222404e+001
0	 3.266639999985467e+000	 5.333299999983334e+000	 1.014362447265703e+001
0	 3.333299999983333e+000	 4.666700000016666e+000	 1.025644136868048e+001
0	 3.333299999983334e+000	 4.733360000014533e+000	 1.024301204478631e+001
0	 3.333299999983334e+000	 4.800020000011601e+000	 1.023052874421814e+001
0	 3.333299999983333e+000	 4.866680000008066e+000	 1.021889786136521e+001
0	 3.333299999983335e+000	 4.933340000004134e+000	 1.020802579061675e+001
0	 3.333299999983334e+000	 5.000000000000001e+000	 1.019781892636198e+001
0	 3.333299999983334e+000	 5.066659999995867e+000	 1.018818366299008e+001
0	 3.333299999983334e+000	 5.133319999991934e+000	 1.017902639489029e+001
0	 3.333299999983334e+000	 5.199979999988400e+000	 1.017025351645180e+001
0	 3.333299999983333e+000	 5.266639999985467e+000	 1.016177142206376e+001
0	 3.333299999983334e+000	 5.333299999983335e+000	 1.015348650611538e+001
0	 2.666700000016666e+000	 5.333299999983335e+000	 1.002285743977538e+001
0	 2.666700000016666e+000	 5.399969999982150e+000	 1.001528551346849e+001
0	 2.666700000016666e+000	 5.466639999981865e+000	 1.000828323882342e+001
0	 2.666700000016666e+000	 5.533309999982384e+000	 1.000190198249985e+001
0	 2.666700000016666e+000	 5.599979999983598e+000	 9.996193111157426e+000
0	 2.666700000016665e+000	 5.666649999985414e+000	 9.991207991455779e+000
0	 2.666700000016667e+000	 5.733319999987733e+000	 9.986997990054615e+000
0	 2.666700000016667e+000	 5.799989999990448e+000	 9.983614473613619e+000
0	 2.666700000016665e+000	 5.866659999993467e+000	 9.981108808792449e+000
0	 2.666700000016666e+000	 5.933329999996683e+000	 9.979532362250849e+000
0	 2.666700000016666e+000	 6.000000000000001e+000	 9.978936500648498e+000
0	 2.733360000014532e+000	 5.333299999983334e+000	 1.003978626315313e+001
0	 2.733360000014533e+000	 5.399969999982151e+000	 1.003163538641801e+001
0	 2.733360000014533e+000	 5.466639999981866e+000	 1.002403571220433e+001
0	 2.733360000014532e+000	 5.533309999982381e+000	 1.001705026633014e+001
0	 2.733360000014533e+000	 5.599979999983599e+000	 1.001074207461341e+001
0	 2.733360000014533e+000	 5.666649999985415e+000	 1.000517416287222e+001
0	 2.733360000014533e+000	 5.733319999987733e+000	 1.000040955692455e+001
0	 2.733360000014533e+000	 5.799989999990450e+000	 9.996511282588493e+000
0	 2.733360000014534e+000	 5.866659999993466e+000	 9.993542365682085e+000
0	 2.733360000014533e+000	 5.933329999996684e+000	 9.991565832023394e+000
0	 2.733360000014533e+000	 6.000000000000001e+000	 9.990644707430491e+000
0	 2.800020000011600e+000	 5.333299999983335e+000	 1.005570820646156e+001
0	 2.800020000011599e+000	 5.399969999982149e+000	 1.004718278645173e+001
0	 2.800020000011600e+000	 5.466639999981864e+000	 1.003917174084288e+001
0	 2.800020000011600e+000	 5.533309999982385e+000	 1.003174697351134e+001
0	 2.800020000011600e+000	 5.599979999983599e+000	 1.002498038833342e+001
0	 2.800020000011600e+000	 5.666649999985417e+000	 1.001894388918548e+001
0	 2.800020000011600e+000	 5.733319999987732e+000	 1.001370937994385e+001
0	 2.800020000011600e+000	 5.799989999990451e+000	 1.000934876448490e+001
0	 2.800020000011600e+000	 5.866659999993467e+000	 1.000593394668498e+001
0	 2.800020000011600e+000	 5.933329999996683e+000	 1.000353683042048e+001
0	 2.800020000011600e+000	 6.000000000000000e+000	 1.000222931956779e+001
0	 2.866680000008066e+000	 5.333299999983334e+000	 1.007067868999803e+001
0	 2.866680000008066e+000	 5.399969999982149e+000	 1.006195002939209e+001
0	 2.866680000008066e+000	 5.466639999981866e+000	 1.005368584162297e+001
0	 2.866680000008066e+000	 5.533309999982384e+000	 1.004596412752524e+001
0	 2.866680000008066e+000	 5.599979999983598e+000	 1.003886288793346e+001
0	 2.866680000008066e+000	 5.666649999985414e+000	 1.003246012368227e+001
0	 2.866680000008067e+000	 5.733319999987731e+000	 1.002683383560624e+001
0	 2.866680000008066e+000	 5.799989999990449e+000	 1.002206202453999e+001
0	 2.866680000008066e+000	 5.866659999993466e+000	 1.001822269131815e+001
0	 2.866680000008067e+000	 5.933329999996684e+000	 1.001539383677534e+001
0	 2.866680000008067e+000	 6.000000000000002e+000	 1.001365346174623e+001
0	 2.933340000004133e+000	 5.333299999983334e+000	 1.008475313405988e+001
0	 2.933340000004133e+000	 5.399969999982149e+000	 1.007595943106152e+001
0	 2.933340000004133e+000	 5.466639999981866e+000	 1.006757253142850e+001
0	 2.933340000004133e+000	 5.533309999982382e+000	 1.005967375185358e+001
0	 2.933340000004134e+000	 5.599979999983600e+000	 1.005234440902959e+001
0	 2.933340000004134e+000	 5.666649999985417e+000	 1.004566581964926e+001
0	 2.933340000004134e+000	 5.733319999987733e+000	 1.003971930040544e+001
0	 2.933340000004133e+000	 5.799989999990449e+000	 1.003458616799095e+001
0	 2.933340000004134e+000	 5.866659999993467e+000	 1.003034773909858e+001
0	 2.933340000004133e+000	 5.933329999996683e+000	 1.002708533042121e+001
0	 2.933340000004133e+000	 5.999999999999998e+000	 1.002488025865165e+001
0	 3.000000000000000e+000	 5.333299999983333e+000	 1.009798695894446e+001
0	 3.000000000000000e+000	 5.399969999982150e+000	 1.008923330728245e+001
0	 3.000000000000000e+000	 5.466639999981866e+000	 1.008082632714338e+001
0	 3.000000000000000e+000	 5.533309999982383e+000	 1.007284786997818e+001
0	 3.000000000000001e+000	 5.599979999983600e+000	 1.006537978723778e+001
0	 3.000000000000001e+000	 5.666649999985417e+000	 1.005850393037314e+001
0	 3.000000000000001e+000	 5.733319999987733e+000	 1.005230215083521e+001
0	 3.000000000000000e+000	 5.799989999990451e+000	 1.004685630007494e+001
0	 3.000000000000000e+000	 5.866659999993466e+000	 1.004224822954331e+001
0	 3.000000000000000e+000	 5.933329999996684e+000	 1.003855979069130e+001
0	 3.000000000000000e+000	 6.000000000000000e+000	 1.003587283496989e+001
0	 3.066659999995867e+000	 5.333299999983333e+000	 1.011043558494913e+001
0	 3.066659999995867e+000	 5.399969999982149e+000	 1.010179397387730e+001
0	 3.066659999995867e+000	 5.466639999981865e+000	 1.009344174565150e+001
0	 3.066659999995868e+000	 5.533309999982384e+000	 1.008545850538075e+001
0	 3.066659999995868e+000	 5.599979999983599e+000	 1.007792385817411e+001
0	 3.066659999995866e+000	 5.666649999985416e+000	 1.007091740914058e+001
0	 3.066659999995867e+000	 5.733319999987734e+000	 1.006451876338923e+001
0	 3.066659999995867e+000	 5.799989999990450e+000	 1.005880752602911e+001
0	 3.066659999995867e+000	 5.866659999993468e+000	 1.005386330216928e+001
0	 3.066659999995867e+000	 5.933329999996683e+000	 1.004976569691881e+001
0	 3.066659999995868e+000	 6.000000000000001e+000	 1.004659431538680e+001
0	 3.133319999991933e+000	 5.333299999983333e+000	 1.012215443237123e+001
0	 3.133319999991933e+000	 5.399969999982149e+000	 1.011366374666849e+001
0	 3.133319999991934e+000	 5.466639999981865e+000	 1.010541330383675e+001
0	 3.133319999991933e+000	 5.533309999982383e+000	 1.009747768154309e+001
0	 3.133319999991933e+000	 5.599979999983598e+000	 1.008993145745457e+001
0	 3.133319999991934e+000	 5.666649999985416e+000	 1.008284920923825e+001
0	 3.133319999991933e+000	 5.733319999987733e+000	 1.007630551456125e+001
0	 3.133319999991934e+000	 5.799989999990449e+000	 1.007037495109063e+001
0	 3.133319999991934e+000	 5.866659999993467e+000	 1.006513209649350e+001
0	 3.133319999991933e+000	 5.933329999996682e+000	 1.006065152843698e+001
0	 3.133319999991934e+000	 6.000000000000000e+000	 1.005700782458819e+001
0	 3.199979999988401e+000	 5.333299999983335e+000	 1.013319892150808e+001
0	 3.199979999988401e+000	 5.399969999982150e+000	 1.012486494147843e+001
0	 3.199979999988401e+000	 5.466639999981867e+000	 1.011673551858304e+001
0	 3.199979999988401e+000	 5.533309999982383e+000	 1.010887742194693e+001
0	 3.199979999988401e+000	 5.599979999983601e+000	 1.010135742069517e+001
0	 3.199979999988400e+000	 5.666649999985415e+000	 1.009424228395283e+001
0	 3.199979999988401e+000	 5.733319999987733e+000	 1.008759878084496e+001
0	 3.199979999988401e+000	 5.799989999990450e+000	 1.008149368049664e+001
0	 3.199979999988400e+000	 5.866659999993467e+000	 1.007599375203296e+001
0	 3.199979999988401e+000	 5.933329999996685e+000	 1.007116576457901e+001
0	 3.199979999988401e+000	 6.000000000000001e+000	 1.006707648725987e+001
0	 3.266639999985467e+000	 5.333299999983334e+000	 1.014362447265703e+001
0	 3.266639999985468e+000	 5.399969999982149e+000	 1.013541987412954e+001
0	 3.266639999985467e+000	 5.466639999981867e+000	 1.012740290677423e+001
0	 3.266639999985468e+000	 5.533309999982385e+000	 1.011962975007402e+001
0	 3.266639999985467e+000	 5.599979999983599e+000	 1.011215658351194e+001
0	 3.266639999985468e+000	 5.666649999985419e+000	 1.010503958657096e+001
0	 3.266639999985467e+000	 5.733319999987733e+000	 1.009833493873407e+001
0	 3.266639999985467e+000	 5.799989999990450e+000	 1.009209881948430e+001
0	 3.266639999985468e+000	 5.866659999993468e+000	 1.008638740830462e+001
0	 3.266639999985468e+000	 5.933329999996684e+000	 1.008125688467807e+001
0	 3.266639999985468e+000	 6.000000000000001e+000	 1.007676342808767e+001
0	 3.333299999983334e+000	 5.333299999983335e+000	 1.015348650611538e+001
0	 3.333299999983334e+000	 5.399969999982148e+000	 1.014535086044423e+001
0	 3.333299999983335e+000	 5.466639999981867e+000	 1.013740998529420e+001
0	 3.333299999983334e+000	 5.533309999982384e+000	 1.012970668940614e+001
0	 3.333299999983334e+000	 5.599979999983601e+000	 1.012228378152088e+001
0	 3.333299999983334e+000	 5.666649999985414e+000	 1.011518407037932e+001
0	 3.333299999983334e+000	 5.733319999987733e+000	 1.010845036472232e+001
0	 3.333299999983333e+000	 5.799989999990449e+000	 1.010212547329074e+001
0	 3.333299999983333e+000	 5.866659999993468e+000	 1.009625220482546e+001
0	 3.333299999983334e+000	 5.933329999996684e+000	 1.009087336806740e+001
0	 3.333299999983333e+000	 5.999999999999998e+000	 1.008603177175740e+001
0	 2.666700000016666e+000	 6.000000000000001e+000	 9.978936500648498e+000
0	 2.666700000016666e+000	 6.066670000003318e+000	 9.978819470250045e+000
0	 2.666700000016666e+000	 6.133340000006533e+000	 9.978639882584956e+000
0	 2.666700000016667e+000	 6.200010000009550e+000	 9.978389652210161e+000
0	 2.666700000016667e+000	 6.266680000012268e+000	 9.978060693682599e+000
0	 2.666700000016666e+000	 6.333350000014584e+000	 9.977644921559207e+000
0	 2.666700000016667e+000	 6.400020000016400e+000	 9.977134250396933e+000
0	 2.666700000016666e+000	 6.466690000017617e+000	 9.976520594752692e+000
0	 2.666700000016666e+000	 6.533360000018133e+000	 9.975795869183445e+000
0	 2.666700000016667e+000	 6.600030000017850e+000	 9.974951988246135e+000
0	 2.666700000016667e+000	 6.666700000016667e+000	 9.973980866497653e+000
0	 2.733360000014533e+000	 6.000000000000001e+000	 9.990644707430491e+000
0	 2.733360000014533e+000	 6.066670000003318e+000	 9.990249061034856e+000
0	 2.733360000014533e+000	 6.133340000006531e+000	 9.989798131674505e+000
0	 2.733360000014533e+000	 6.200010000009551e+000	 9.989278699727352e+000
0	 2.733360000014532e+000	 6.266680000012268e+000	 9.988677545571319e+000
0	 2.733360000014533e+000	 6.333350000014583e+000	 9.987981449584332e+000
0	 2.733360000014533e+000	 6.400020000016401e+000	 9.987177192144324e+000
0	 2.733360000014533e+000	 6.466690000017619e+000	 9.986251553629186e+000
0	 2.733360000014533e+000	 6.533360000018132e+000	 9.985191314416863e+000
0	 2.733360000014533e+000	 6.600030000017851e+000	 9.983983254885246e+000
0	 2.733360000014533e+000	 6.666700000016669e+000	 9.982614155412273e+000
0	 2.800020000011600e+000	 6.000000000000000e+000	 1.000222931956779e+001
0	 2.800020000011599e+000	 6.066670000003313e+000	 1.000147792425669e+001
0	 2.800020000011600e+000	 6.133340000006533e+000	 1.000068968153296e+001
0	 2.800020000011600e+000	 6.200010000009553e+000	 9.999847285646984e+000
0	 2.800020000011599e+000	 6.266680000012265e+000	 9.998933430849121e+000
0	 2.800020000011600e+000	 6.333350000014586e+000	 9.997930811389761e+000
0	 2.800020000011600e+000	 6.400020000016401e+000	 9.996822121519278e+000
0	 2.800020000011600e+000	 6.466690000017617e+000	 9.995590055488041e+000
0	 2.800020000011600e+000	 6.533360000018133e+000	 9.994217307546407e+000
0	 2.800020000011600e+000	 6.600030000017850e+000	 9.992686571944763e+000
0	 2.800020000011599e+000	 6.666700000016665e+000	 9.990980542933500e+000
0	 2.866680000008067e+000	 6.000000000000002e+000	 1.001365346174623e+001
0	 2.866680000008066e+000	 6.066670000003317e+000	 1.001248514503734e+001
0	 2.866680000008066e+000	 6.133340000006531e+000	 1.001130690234832e+001
0	 2.866680000008067e+000	 6.200010000009550e+000	 1.001009838985349e+001
0	 2.866680000008067e+000	 6.266680000012267e+000	 1.000883926372714e+001
0	 2.866680000008067e+000	 6.333350000014584e+000	 1.000750918014358e+001
0	 2.866680000008066e+000	 6.400020000016399e+000	 1.000608779527708e+001
0	 2.866680000008066e+000	 6.466690000017618e+000	 1.000455476530199e+001
0	 2.866680000008066e+000	 6.533360000018135e+000	 1.000288974639258e+001
0	 2.866680000008067e+000	 6.600030000017850e+000	 1.000107239472315e+001
0	 2.866680000008067e+000	 6.666700000016666e+000	 9.999082366468013e+000
0	 2.933340000004133e+000	 5.999999999999998e+000	 1.002488025865165e+001
0	 2.933340000004133e+000	 6.066670000003318e+000	 1.002324980849857e+001
0	 2.933340000004133e+000	 6.133340000006530e+000	 1.002164216430855e+001
0	 2.933340000004133e+000	 6.200010000009551e+000	 1.002003499223129e+001
0	 2.933340000004134e+000	 6.266680000012268e+000	 1.001840595841647e+001
0	 2.933340000004133e+000	 6.333350000014583e+000	 1.001673272901382e+001
0	 2.933340000004135e+000	 6.400020000016403e+000	 1.001499297017303e+001
0	 2.933340000004133e+000	 6.466690000017616e+000	 1.001316434804381e+001
0	 2.933340000004134e+000	 6.533360000018133e+000	 1.001122452877584e+001
0	 2.933340000004134e+000	 6.600030000017850e+000	 1.000915117851884e+001
0	 2.933340000004133e+000	 6.666700000016665e+000	 1.000692196342251e+001
0	 3.000000000000000e+000	 6.000000000000000e+000	 1.003587283496989e+001
0	 3.000000000000000e+000	 6.066670000003318e+000	 1.003375099976219e+001
0	 3.000000000000000e+000	 6.133340000006531e+000	 1.003168783760163e+001
0	 3.000000000000000e+000	 6.200010000009552e+000	 1.002966007266479e+001
0	 3.000000000000000e+000	 6.266680000012268e+000	 1.002764442912827e+001
0	 3.000000000000000e+000	 6.333350000014584e+000	 1.002561763116861e+001
0	 3.000000000000000e+000	 6.400020000016401e+000	 1.002355640296242e+001
0	 3.000000000000000e+000	 6.466690000017617e+000	 1.002143746868624e+001
0	 3.000000000000000e+000	 6.533360000018136e+000	 1.001923755251668e+001
0	 3.000000000000000e+000	 6.600030000017848e+000	 1.001693337863029e+001
0	 3.000000000000000e+000	 6.666700000016666e+000	 1.001450167120366e+001
0	 3.066659999995868e+000	 6.000000000000001e+000	 1.004659431538680e+001
0	 3.066659999995867e+000	 6.066670000003317e+000	 1.004396780394995e+001
0	 3.066659999995867e+000	 6.133340000006533e+000	 1.004143629241551e+001
0	 3.066659999995867e+000	 6.200010000009553e+000	 1.003897661103844e+001
0	 3.066659999995868e+000	 6.266680000012269e+000	 1.003656559007363e+001
0	 3.066659999995868e+000	 6.333350000014584e+000	 1.003418005977602e+001
0	 3.066659999995868e+000	 6.400020000016403e+000	 1.003179685040053e+001
0	 3.066659999995868e+000	 6.466690000017617e+000	 1.002939279220207e+001
0	 3.066659999995868e+000	 6.533360000018135e+000	 1.002694471543556e+001
0	 3.066659999995868e+000	 6.600030000017851e+000	 1.002442945035594e+001
0	 3.066659999995867e+000	 6.666700000016665e+000	 1.002182382721814e+001
0	 3.133319999991934e+000	 6.000000000000000e+000	 1.005700782458819e+001
0	 3.133319999991935e+000	 6.066670000003319e+000	 1.005387930618361e+001
0	 3.133319999991934e+000	 6.133340000006534e+000	 1.005087989893818e+001
0	 3.133319999991934e+000	 6.200010000009550e+000	 1.004798758723661e+001
0	 3.133319999991934e+000	 6.266680000012267e+000	 1.004518035546368e+001
0	 3.133319999991934e+000	 6.333350000014583e+000	 1.004243618800411e+001
0	 3.133319999991934e+000	 6.400020000016399e+000	 1.003973306924264e+001
0	 3.133319999991933e+000	 6.466690000017615e+000	 1.003704898356402e+001
0	 3.133319999991935e+000	 6.533360000018135e+000	 1.003436191535297e+001
0	 3.133319999991933e+000	 6.600030000017849e+000	 1.003164984899426e+001
0	 3.133319999991934e+000	 6.666700000016667e+000	 1.002889076887263e+001
0	 3.199979999988401e+000	 6.000000000000001e+000	 1.006707648725987e+001
0	 3.199979999988401e+000	 6.066670000003318e+000	 1.006346459158493e+001
0	 3.199979999988401e+000	 6.133340000006532e+000	 1.006001102735755e+001
0	 3.199979999988401e+000	 6.200010000009551e+000	 1.005669598114373e+001
0	 3.199979999988400e+000	 6.266680000012266e+000	 1.005349963950952e+001
0	 3.199979999988400e+000	 6.333350000014582e+000	 1.005040218902095e+001
0	 3.199979999988401e+000	 6.400020000016401e+000	 1.004738381624403e+001
0	 3.199979999988400e+000	 6.466690000017614e+000	 1.004442470774483e+001
0	 3.199979999988401e+000	 6.533360000018133e+000	 1.004150505008937e+001
0	 3.199979999988400e+000	 6.600030000017850e+000	 1.003860502984368e+001
0	 3.199979999988401e+000	 6.666700000016667e+000	 1.003570483357380e+001
0	 3.266639999985468e+000	 6.000000000000001e+000	 1.007676342808767e+001
0	 3.266639999985468e+000	 6.066670000003318e+000	 1.007270274527569e+001
0	 3.266639999985467e+000	 6.133340000006531e+000	 1.006882204786160e+001
0	 3.266639999985468e+000	 6.200010000009553e+000	 1.006510477264419e+001
0	 3.266639999985467e+000	 6.266680000012268e+000	 1.006153435642226e+001
0	 3.266639999985468e+000	 6.333350000014584e+000	 1.005809423599459e+001
0	 3.266639999985468e+000	 6.400020000016400e+000	 1.005476784815999e+001
0	 3.266639999985468e+000	 6.466690000017618e+000	 1.005153862971726e+001
0	 3.266639999985467e+000	 6.533360000018132e+000	 1.004839001746521e+001
0	 3.266639999985468e+000	 6.600030000017852e+000	 1.004530544820262e+001
0	 3.266639999985468e+000	 6.666700000016667e+000	 1.004226835872832e+001
0	 3.333299999983333e+000	 5.999999999999998e+000	 1.008603177175740e+001
0	 3.333299999983333e+000	 6.066670000003317e+000	 1.008157285237764e+001
0	 3.333299999983333e+000	 6.133340000006531e+000	 1.007730533063828e+001
0	 3.333299999983334e+000	 6.200010000009550e+000	 1.007321694162239e+001
0	 3.333299999983334e+000	 6.266680000012269e+000	 1.006929542041299e+001
0	 3.333299999983334e+000	 6.333350000014584e+000	 1.006552850209311e+001
0	 3.333299999983334e+000	 6.400020000016401e+000	 1.006190392174578e+001
0	 3.333299999983334e+000	 6.466690000017618e+000	 1.005840941445405e+001
0	 3.333299999983334e+000	 6.533360000018134e+000	 1.005503271530098e+001
0	 3.333299999983334e+000	 6.600030000017851e+000	 1.005176155936955e+001
0	 3.333299999983333e+000	 6.666700000016665e+000	 1.004858368174286e+001
0	 2.666700000016667e+000	 6.666700000016667e+000	 9.973980866497653e+000
0	 2.666700000016666e+000	 6.733360000014533e+000	 9.973032103286188e+000
0	 2.666700000016666e+000	 6.800020000011599e+000	 9.972266293167992e+000
0	 2.666700000016666e+000	 6.866680000008068e+000	 9.971692310335641e+000
0	 2.666700000016667e+000	 6.933340000004134e+000	 9.971319028981732e+000
0	 2.666700000016667e+000	 7.000000000000000e+000	 9.971155323298833e+000
0	 2.666700000016667e+000	 7.066659999995867e+000	 9.971210067479520e+000
0	 2.666700000016666e+000	 7.133319999991936e+000	 9.971492135716355e+000
0	 2.666700000016666e+000	 7.199979999988401e+000	 9.972010402201908e+000
0	 2.666700000016666e+000	 7.266639999985467e+000	 9.972773741128725e+000
0	 2.666700000016667e+000	 7.333299999983335e+000	 9.973791026689364e+000
0	 2.733360000014533e+000	 6.666700000016669e+000	 9.982614155412275e+000
0	 2.733360000014533e+000	 6.733360000014533e+000	 9.981256002109287e+000
0	 2.733360000014533e+000	 6.800020000011597e+000	 9.980096154885583e+000
0	 2.733360000014533e+000	 6.866680000008068e+000	 9.979145109095018e+000
0	 2.733360000014533e+000	 6.933340000004135e+000	 9.978413360091441e+000
0	 2.733360000014534e+000	 7.000000000000002e+000	 9.977911403228672e+000
0	 2.733360000014533e+000	 7.066659999995870e+000	 9.977649733860542e+000
0	 2.733360000014533e+000	 7.133319999991937e+000	 9.977638847340877e+000
0	 2.733360000014533e+000	 7.199979999988400e+000	 9.977889239023476e+000
0	 2.733360000014533e+000	 7.266639999985468e+000	 9.978411404262170e+000
0	 2.733360000014533e+000	 7.333299999983334e+000	 9.979215838410763e+000
0	 2.800020000011599e+000	 6.666700000016665e+000	 9.990980542933498e+000
0	 2.800020000011599e+000	 6.733360000014535e+000	 9.989280044012855e+000
0	 2.800020000011599e+000	 6.800020000011600e+000	 9.987784739027722e+000
0	 2.800020000011600e+000	 6.866680000008067e+000	 9.986506392454784e+000
0	 2.800020000011600e+000	 6.933340000004134e+000	 9.985456768770746e+000
0	 2.800020000011600e+000	 7.000000000000001e+000	 9.984647632452298e+000
0	 2.800020000011600e+000	 7.066659999995867e+000	 9.984090747976135e+000
0	 2.800020000011600e+000	 7.133319999991935e+000	 9.983797879818924e+000
0	 2.800020000011600e+000	 7.199979999988400e+000	 9.983780792457333e+000
0	 2.800020000011599e+000	 7.266639999985466e+000	 9.984051250368049e+000
0	 2.800020000011599e+000	 7.333299999983334e+000	 9.984621018027713e+000
0	 2.866680000008067e+000	 6.666700000016666e+000	 9.999082366468015e+000
0	 2.866680000008067e+000	 6.733360000014534e+000	 9.997097851702518e+000
0	 2.866680000008067e+000	 6.800020000011600e+000	 9.995318432513489e+000
0	 2.866680000008066e+000	 6.866680000008065e+000	 9.993756790462093e+000
0	 2.866680000008067e+000	 6.933340000004133e+000	 9.992425607109482e+000
0	 2.866680000008067e+000	 6.999999999999997e+000	 9.991337564016801e+000
0	 2.866680000008066e+000	 7.066659999995865e+000	 9.990505342745216e+000
0	 2.866680000008067e+000	 7.133319999991935e+000	 9.989941624855813e+000
0	 2.866680000008067e+000	 7.199979999988402e+000	 9.989659091909779e+000
0	 2.866680000008067e+000	 7.266639999985468e+000	 9.989670425468201e+000
0	 2.866680000008067e+000	 7.333299999983333e+000	 9.989988307092210e+000
0	 2.933340000004133e+000	 6.666700000016665e+000	 1.000692196342251e+001
0	 2.933340000004133e+000	 6.733360000014533e+000	 1.000470304788385e+001
0	 2.933340000004134e+000	 6.800020000011601e+000	 1.000268362226199e+001
0	 2.933340000004133e+000	 6.866680000008067e+000	 1.000087693316412e+001
0	 2.933340000004133e+000	 6.933340000004134e+000	 9.999296227197476e+000
0	 2.933340000004133e+000	 7.000000000000000e+000	 9.997954750969260e+000
0	 2.933340000004133e+000	 7.066659999995869e+000	 9.996865751086661e+000
0	 2.933340000004133e+000	 7.133319999991932e+000	 9.996042474156884e+000
0	 2.933340000004133e+000	 7.199979999988399e+000	 9.995498166787106e+000
0	 2.933340000004133e+000	 7.266639999985467e+000	 9.995246075584534e+000
0	 2.933340000004133e+000	 7.333299999983336e+000	 9.995299447156317e+000
0	 3.000000000000000e+000	 6.666700000016666e+000	 1.001450167120366e+001
0	 3.000000000000000e+000	 6.733360000014533e+000	 1.001208925526246e+001
0	 3.000000000000001e+000	 6.800020000011600e+000	 1.000986669519229e+001
0	 3.000000000000000e+000	 6.866680000008066e+000	 1.000784745060803e+001
0	 3.000000000000001e+000	 6.933340000004134e+000	 1.000604498112454e+001
0	 3.000000000000000e+000	 7.000000000000000e+000	 1.000447274635672e+001
0	 3.000000000000000e+000	 7.066659999995870e+000	 1.000314420591937e+001
0	 3.000000000000000e+000	 7.133319999991934e+000	 1.000207281942740e+001
0	 3.000000000000000e+000	 7.199979999988401e+000	 1.000127204649562e+001
0	 3.000000000000000e+000	 7.266639999985467e+000	 1.000075534673891e+001
0	 3.000000000000001e+000	 7.333299999983335e+000	 1.000053617977207e+001
0	 3.066659999995867e+000	 6.666700000016665e+000	 1.002182382721814e+001
0	 3.066659999995868e+000	 6.733360000014532e+000	 1.001925009654392e+001
0	 3.066659999995868e+000	 6.800020000011598e+000	 1.001685403822349e+001
0	 3.066659999995867e+000	 6.866680000008066e+000	 1.001464897284098e+001
0	 3.066659999995867e+000	 6.933340000004133e+000	 1.001264822098052e+001
0	 3.066659999995867e+000	 7.000000000000000e+000	 1.001086510322624e+001
0	 3.066659999995867e+000	 7.066659999995864e+000	 1.000931294016226e+001
0	 3.066659999995868e+000	 7.133319999991935e+000	 1.000800505237269e+001
0	 3.066659999995867e+000	 7.199979999988399e+000	 1.000695476044164e+001
0	 3.066659999995866e+000	 7.266639999985464e+000	 1.000617538495320e+001
0	 3.066659999995867e+000	 7.333299999983333e+000	 1.000568024649147e+001
0	 3.133319999991934e+000	 6.666700000016667e+000	 1.002889076887264e+001
0	 3.133319999991934e+000	 6.733360000014533e+000	 1.002617919443384e+001
0	 3.133319999991934e+000	 6.800020000011601e+000	 1.002363203827468e+001
0	 3.133319999991934e+000	 6.866680000008067e+000	 1.002126212991015e+001
0	 3.133319999991934e+000	 6.933340000004134e+000	 1.001908229885523e+001
0	 3.133319999991933e+000	 6.999999999999998e+000	 1.001710537462493e+001
0	 3.133319999991934e+000	 7.066659999995867e+000	 1.001534418673421e+001
0	 3.133319999991934e+000	 7.133319999991935e+000	 1.001381156469805e+001
0	 3.133319999991934e+000	 7.199979999988399e+000	 1.001252033803142e+001
0	 3.133319999991934e+000	 7.266639999985467e+000	 1.001148333624927e+001
0	 3.133319999991933e+000	 7.333299999983334e+000	 1.001071338886659e+001
0	 3.199979999988401e+000	 6.666700000016667e+000	 1.003570483357380e+001
0	 3.199979999988401e+000	 6.733360000014533e+000	 1.003287017163778e+001
0	 3.199979999988401e+000	 6.800020000011601e+000	 1.003018708226492e+001
0	 3.199979999988401e+000	 6.866680000008066e+000	 1.002766755186267e+001
0	 3.199979999988402e+000	 6.933340000004133e+000	 1.002532356683850e+001
0	 3.199979999988401e+000	 7.000000000000000e+000	 1.002316711359982e+001
0	 3.199979999988401e+000	 7.066659999995867e+000	 1.002121017855411e+001
0	 3.199979999988401e+000	 7.133319999991935e+000	 1.001946474810879e+001
0	 3.199979999988401e+000	 7.199979999988402e+000	 1.001794280867128e+001
0	 3.199979999988400e+000	 7.266639999985467e+000	 1.001665634664903e+001
0	 3.199979999988401e+000	 7.333299999983334e+000	 1.001561734844944e+001
0	 3.266639999985468e+000	 6.666700000016667e+000	 1.004226835872832e+001
0	 3.266639999985468e+000	 6.733360000014533e+000	 1.003931665086134e+001
0	 3.266639999985468e+000	 6.800020000011600e+000	 1.003650555711330e+001
0	 3.266639999985468e+000	 6.866680000008067e+000	 1.003384586874573e+001
0	 3.266639999985468e+000	 6.933340000004133e+000	 1.003134837702013e+001
0	 3.266639999985468e+000	 6.999999999999999e+000	 1.002902387319800e+001
0	 3.266639999985468e+000	 7.066659999995867e+000	 1.002688314854086e+001
0	 3.266639999985468e+000	 7.133319999991934e+000	 1.002493699431021e+001
0	 3.266639999985468e+000	 7.199979999988400e+000	 1.002319620176753e+001
0	 3.266639999985468e+000	 7.266639999985468e+000	 1.002167156217430e+001
0	 3.266639999985467e+000	 7.333299999983333e+000	 1.002037386679204e+001
0	 3.333299999983333e+000	 6.666700000016665e+000	 1.004858368174286e+001
0	 3.333299999983334e+000	 6.733360000014534e+000	 1.004551225481010e+001
0	 3.333299999983334e+000	 6.800020000011601e+000	 1.004257384973892e+001
0	 3.333299999983333e+000	 6.866680000008064e+000	 1.003977771060647e+001
0	 3.333299999983334e+000	 6.933340000004133e+000	 1.003713308148994e+001
0	 3.333299999983333e+000	 6.999999999999999e+000	 1.003464920646652e+001
0	 3.333299999983335e+000	 7.066659999995867e+000	 1.003233532961336e+001
0	 3.333299999983334e+000	 7.133319999991936e+000	 1.003020069500760e+001
0	 3.333299999983334e+000	 7.199979999988401e+000	 1.002825454672643e+001
0	 3.333299999983334e+000	 7.266639999985467e+000	 1.002650612884699e+001
0	 3.333299999983335e+000	 7.333299999983336e+000	 1.002496468544642e+001
0	 2.666700000016667e+000	 7.333299999983335e+000	 9.973791026689362e+000
0	 2.666700000016667e+000	 7.399969999982151e+000	 9.974910308176119e+000
0	 2.666700000016666e+000	 7.466639999981866e+000	 9.975975101962908e+000
0	 2.666700000016666e+000	 7.533309999982383e+000	 9.976987999163956e+000
0	 2.666700000016666e+000	 7.599979999983598e+000	 9.977951590893495e+000
0	 2.666700000016666e+000	 7.666649999985416e+000	 9.978868468265748e+000
0	 2.666700000016667e+000	 7.733319999987733e+000	 9.979741222394937e+000
0	 2.666700000016667e+000	 7.799989999990449e+000	 9.980572444395303e+000
0	 2.666700000016665e+000	 7.866659999993464e+000	 9.981364725381059e+000
0	 2.666700000016666e+000	 7.933329999996683e+000	 9.982120656466423e+000
0	 2.666700000016667e+000	 8.000000000000000e+000	 9.982842828765643e+000
0	 2.733360000014533e+000	 7.333299999983334e+000	 9.979215838410767e+000
0	 2.733360000014533e+000	 7.399969999982149e+000	 9.980136438228826e+000
0	 2.733360000014533e+000	 7.466639999981865e+000	 9.981001229134753e+000
0	 2.733360000014533e+000	 7.533309999982382e+000	 9.981812326593435e+000
0	 2.733360000014533e+000	 7.599979999983601e+000	 9.982571846069769e+000
0	 2.733360000014533e+000	 7.666649999985416e+000	 9.983281903028678e+000
0	 2.733360000014533e+000	 7.733319999987733e+000	 9.983944612935037e+000
0	 2.733360000014533e+000	 7.799989999990449e+000	 9.984562091253752e+000
0	 2.733360000014533e+000	 7.866659999993466e+000	 9.985136453449741e+000
0	 2.733360000014533e+000	 7.933329999996682e+000	 9.985669814987885e+000
0	 2.733360000014533e+000	 7.999999999999999e+000	 9.986164291333076e+000
0	 2.800020000011599e+000	 7.333299999983334e+000	 9.984621018027712e+000
0	 2.800020000011599e+000	 7.399969999982149e+000	 9.985317630215640e+000
0	 2.800020000011599e+000	 7.466639999981865e+000	 9.985961690827015e+000
0	 2.800020000011600e+000	 7.533309999982383e+000	 9.986554893549636e+000
0	 2.800020000011601e+000	 7.599979999983602e+000	 9.987098932071302e+000
0	 2.800020000011600e+000	 7.666649999985417e+000	 9.987595500079808e+000
0	 2.800020000011600e+000	 7.733319999987733e+000	 9.988046291262938e+000
0	 2.800020000011600e+000	 7.799989999990451e+000	 9.988452999308519e+000
0	 2.800020000011600e+000	 7.866659999993467e+000	 9.988817317904328e+000
0	 2.800020000011600e+000	 7.933329999996681e+000	 9.989140940738174e+000
0	 2.800020000011600e+000	 8.000000000000000e+000	 9.989425561497836e+000
0	 2.866680000008067e+000	 7.333299999983333e+000	 9.989988307092212e+000
0	 2.866680000008067e+000	 7.399969999982149e+000	 9.990440580043595e+000
0	 2.866680000008066e+000	 7.466639999981866e+000	 9.990847374436276e+000
0	 2.866680000008066e+000	 7.533309999982383e+000	 9.991210016053147e+000
0	 2.866680000008066e+000	 7.599979999983598e+000	 9.991529830677143e+000
0	 2.866680000008067e+000	 7.666649999985417e+000	 9.991808144091182e+000
0	 2.866680000008067e+000	 7.733319999987733e+000	 9.992046282078176e+000
0	 2.866680000008066e+000	 7.799989999990447e+000	 9.992245570421071e+000
0	 2.866680000008066e+000	 7.866659999993466e+000	 9.992407334902749e+000
0	 2.866680000008066e+000	 7.933329999996682e+000	 9.992532901306152e+000
0	 2.866680000008067e+000	 7.999999999999999e+000	 9.992623595414203e+000
0	 2.933340000004133e+000	 7.333299999983336e+000	 9.995299447156315e+000
0	 2.933340000004133e+000	 7.399969999982149e+000	 9.995491983619779e+000
0	 2.933340000004133e+000	 7.466639999981866e+000	 9.995649167359101e+000
0	 2.933340000004133e+000	 7.533309999982383e+000	 9.995772010124549e+000
0	 2.933340000004134e+000	 7.599979999983602e+000	 9.995861523666378e+000
0	 2.933340000004133e+000	 7.666649999985414e+000	 9.995918719734863e+000
0	 2.933340000004134e+000	 7.733319999987733e+000	 9.995944610080262e+000
0	 2.933340000004133e+000	 7.799989999990448e+000	 9.995940206452858e+000
0	 2.933340000004134e+000	 7.866659999993468e+000	 9.995906520602903e+000
0	 2.933340000004134e+000	 7.933329999996684e+000	 9.995844564280690e+000
0	 2.933340000004133e+000	 7.999999999999999e+000	 9.995755349236438e+000
0	 3.000000000000001e+000	 7.333299999983335e+000	 1.000053617977207e+001
0	 3.000000000000000e+000	 7.399969999982151e+000	 1.000045853685123e+001
0	 2.999999999999999e+000	 7.466639999981865e+000	 1.000035795699205e+001
0	 3.000000000000000e+000	 7.533309999982383e+000	 1.000023519178437e+001
0	 3.000000000000001e+000	 7.599979999983599e+000	 1.000009099281804e+001
0	 3.000000000000000e+000	 7.666649999985415e+000	 9.999926111682864e+000
0	 3.000000000000000e+000	 7.733319999987733e+000	 9.999741299968683e+000
0	 3.000000000000000e+000	 7.799989999990451e+000	 9.999537309265376e+000
0	 3.000000000000001e+000	 7.866659999993468e+000	 9.999314891162735e+000
0	 3.000000000000000e+000	 7.933329999996683e+000	 9.999074797250604e+000
0	 3.000000000000000e+000	 8.000000000000000e+000	 9.998817779118847e+000
0	 3.066659999995867e+000	 7.333299999983333e+000	 1.000568024649147e+001
0	 3.066659999995868e+000	 7.399969999982150e+000	 1.000532693564501e+001
0	 3.066659999995867e+000	 7.466639999981867e+000	 1.000496463073170e+001
0	 3.066659999995867e+000	 7.533309999982381e+000	 1.000459387705323e+001
0	 3.066659999995868e+000	 7.599979999983601e+000	 1.000421521991119e+001
0	 3.066659999995868e+000	 7.666649999985417e+000	 1.000382920460723e+001
0	 3.066659999995868e+000	 7.733319999987733e+000	 1.000343637644298e+001
0	 3.066659999995867e+000	 7.799989999990450e+000	 1.000303728072007e+001
0	 3.066659999995867e+000	 7.866659999993466e+000	 1.000263246274013e+001
0	 3.066659999995867e+000	 7.933329999996682e+000	 1.000222246780480e+001
0	 3.066659999995868e+000	 8.000000000000000e+000	 1.000180784121570e+001
0	 3.133319999991933e+000	 7.333299999983334e+000	 1.001071338886659e+001
0	 3.133319999991933e+000	 7.399969999982148e+000	 1.001008387590815e+001
0	 3.133319999991935e+000	 7.466639999981867e+000	 1.000946007597462e+001
0	 3.133319999991934e+000	 7.533309999982384e+000	 1.000884238195164e+001
0	 3.133319999991933e+000	 7.599979999983598e+000	 1.000823118672490e+001
0	 3.133319999991934e+000	 7.666649999985417e+000	 1.000762688318000e+001
0	 3.133319999991934e+000	 7.733319999987733e+000	 1.000702986420262e+001
0	 3.133319999991934e+000	 7.799989999990449e+000	 1.000644052267841e+001
0	 3.133319999991934e+000	 7.866659999993466e+000	 1.000585925149301e+001
0	 3.133319999991935e+000	 7.933329999996683e+000	 1.000528644353209e+001
0	 3.133319999991934e+000	 8.000000000000000e+000	 1.000472249168129e+001
0	 3.199979999988401e+000	 7.333299999983334e+000	 1.001561734844944e+001
0	 3.199979999988402e+000	 7.399969999982152e+000	 1.001471605354773e+001
0	 3.199979999988402e+000	 7.466639999981867e+000	 1.001383518011735e+001
0	 3.199979999988400e+000	 7.533309999982381e+000	 1.001297502250022e+001
0	 3.199979999988401e+000	 7.599979999983600e+000	 1.001213587503821e+001
0	 3.199979999988401e+000	 7.666649999985417e+000	 1.001131803207322e+001
0	 3.199979999988401e+000	 7.733319999987733e+000	 1.001052178794715e+001
0	 3.199979999988401e+000	 7.799989999990449e+000	 1.000974743700188e+001
0	 3.199979999988400e+000	 7.866659999993467e+000	 1.000899527357932e+001
0	 3.199979999988401e+000	 7.933329999996684e+000	 1.000826559202134e+001
0	 3.199979999988401e+000	 7.999999999999999e+000	 1.000755868666986e+001
0	 3.266639999985467e+000	 7.333299999983333e+000	 1.002037386679204e+001
0	 3.266639999985467e+000	 7.399969999982151e+000	 1.001921016447078e+001
0	 3.266639999985468e+000	 7.466639999981867e+000	 1.001808083055647e+001
0	 3.266639999985468e+000	 7.533309999982384e+000	 1.001698611471950e+001
0	 3.266639999985468e+000	 7.599979999983599e+000	 1.001592626663019e+001
0	 3.266639999985467e+000	 7.666649999985417e+000	 1.001490153595892e+001
0	 3.266639999985467e+000	 7.733319999987733e+000	 1.001391217237604e+001
0	 3.266639999985467e+000	 7.799989999990450e+000	 1.001295842555191e+001
0	 3.266639999985467e+000	 7.866659999993466e+000	 1.001204054515692e+001
0	 3.266639999985468e+000	 7.933329999996683e+000	 1.001115878086141e+001
0	 3.266639999985468e+000	 8.000000000000000e+000	 1.001031338233573e+001
0	 3.333299999983335e+000	 7.333299999983336e+000	 1.002496468544641e+001
0	 3.333299999983333e+000	 7.399969999982149e+000	 1.002355290458436e+001
0	 3.333299999983334e+000	 7.466639999981866e+000	 1.002218791468855e+001
0	 3.333299999983334e+000	 7.533309999982383e+000	 1.002086997463004e+001
0	 3.333299999983334e+000	 7.599979999983601e+000	 1.001959934327988e+001
0	 3.333299999983334e+000	 7.666649999985416e+000	 1.001837627950913e+001
0	 3.333299999983334e+000	 7.733319999987733e+000	 1.001720104218881e+001
0	 3.333299999983334e+000	 7.799989999990448e+000	 1.001607389019001e+001
0	 3.333299999983333e+000	 7.866659999993466e+000	 1.001499508238376e+001
0	 3.333299999983334e+000	 7.933329999996683e+000	 1.001396487764113e+001
0	 3.333299999983334e+000	 8.000000000000000e+000	 1.001298353483316e+001
0	 2.666700000016667e+000	 8.000000000000000e+000	 9.982842828765643e+000
0	 2.666700000016666e+000	 8.066670000003317e+000	 9.983555833406232e+000
0	 2.666700000016666e+000	 8.133340000006532e+000	 9.984284023718622e+000
0	 2.666700000016666e+000	 8.200010000009550e+000	 9.985029634121439e+000
0	 2.666700000016666e+000	 8.266680000012267e+000	 9.985794899033243e+000
0	 2.666700000016666e+000	 8.333350000014583e+000	 9.986582052872654e+000
0	 2.666700000016665e+000	 8.400020000016399e+000	 9.987393330058248e+000
0	 2.666700000016666e+000	 8.466690000017618e+000	 9.988230965008642e+000
0	 2.666700000016666e+000	 8.533360000018133e+000	 9.989097192142403e+000
0	 2.666700000016666e+000	 8.600030000017851e+000	 9.989994245878135e+000
0	 2.666700000016666e+000	 8.666700000016668e+000	 9.990924360634429e+000
0	 2.733360000014533e+000	 7.999999999999999e+000	 9.986164291333076e+000
0	 2.733360000014534e+000	 8.066670000003319e+000	 9.986652385050791e+000
0	 2.733360000014534e+000	 8.133340000006532e+000	 9.987166562139478e+000
0	 2.733360000014533e+000	 8.200010000009552e+000	 9.987708883213577e+000
0	 2.733360000014533e+000	 8.266680000012268e+000	 9.988281408887534e+000
0	 2.733360000014533e+000	 8.333350000014583e+000	 9.988886199775775e+000
0	 2.733360000014532e+000	 8.400020000016403e+000	 9.989525316492749e+000
0	 2.733360000014534e+000	 8.466690000017618e+000	 9.990200819652877e+000
0	 2.733360000014532e+000	 8.533360000018133e+000	 9.990914769870622e+000
0	 2.733360000014533e+000	 8.600030000017854e+000	 9.991669227760397e+000
0	 2.733360000014533e+000	 8.666700000016666e+000	 9.992466253936659e+000
0	 2.800020000011600e+000	 8.000000000000000e+000	 9.989425561497836e+000
0	 2.800020000011599e+000	 8.066670000003315e+000	 9.989707684310227e+000
0	 2.800020000011600e+000	 8.133340000006530e+000	 9.990023957968173e+000
0	 2.800020000011599e+000	 8.200010000009550e+000	 9.990376293158434e+000
0	 2.800020000011600e+000	 8.266680000012265e+000	 9.990766600567724e+000
0	 2.800020000011600e+000	 8.333350000014585e+000	 9.991196790882800e+000
0	 2.800020000011600e+000	 8.400020000016397e+000	 9.991668774790391e+000
0	 2.800020000011600e+000	 8.466690000017618e+000	 9.992184462977225e+000
0	 2.800020000011601e+000	 8.533360000018135e+000	 9.992745766130074e+000
0	 2.800020000011601e+000	 8.600030000017853e+000	 9.993354594935658e+000
0	 2.800020000011600e+000	 8.666700000016666e+000	 9.994012860080709e+000
0	 2.866680000008067e+000	 7.999999999999999e+000	 9.992623595414203e+000
0	 2.866680000008066e+000	 8.066670000003319e+000	 9.992716583232475e+000
0	 2.866680000008067e+000	 8.133340000006532e+000	 9.992849336668263e+000
0	 2.866680000008067e+000	 8.200010000009549e+000	 9.993023640357110e+000
0	 2.866680000008067e+000	 8.266680000012267e+000	 9.993241278934471e+000
0	 2.866680000008066e+000	 8.333350000014585e+000	 9.993504037035848e+000
0	 2.866680000008066e+000	 8.400020000016399e+000	 9.993813699296730e+000
0	 2.866680000008066e+000	 8.466690000017618e+000	 9.994172050352649e+000
0	 2.866680000008066e+000	 8.533360000018133e+000	 9.994580874839089e+000
0	 2.866680000008067e+000	 8.600030000017849e+000	 9.995041957391539e+000
0	 2.866680000008067e+000	 8.666700000016665e+000	 9.995557082645501e+000
0	 2.933340000004133e+000	 7.999999999999999e+000	 9.995755349236438e+000
0	 2.933340000004133e+000	 8.066670000003319e+000	 9.995673933865456e+000
0	 2.933340000004133e+000	 8.133340000006534e+000	 9.995635823703319e+000
0	 2.933340000004133e+000	 8.200010000009550e+000	 9.995642701210716e+000
0	 2.933340000004133e+000	 8.266680000012267e+000	 9.995696248848399e+000
0	 2.933340000004133e+000	 8.333350000014585e+000	 9.995798149077032e+000
0	 2.933340000004133e+000	 8.400020000016399e+000	 9.995950084357375e+000
0	 2.933340000004133e+000	 8.466690000017618e+000	 9.996153737150120e+000
0	 2.933340000004133e+000	 8.533360000018131e+000	 9.996410789915993e+000
0	 2.933340000004133e+000	 8.600030000017851e+000	 9.996722925115709e+000
0	 2.933340000004133e+000	 8.666700000016666e+000	 9.997091825209971e+000
0	 3.000000000000000e+000	 8.000000000000000e+000	 9.998817779118847e+000
0	 3.000000000000000e+000	 8.066670000003319e+000	 9.998574588257132e+000
0	 3.000000000000000e+000	 8.133340000006530e+000	 9.998376544536855e+000
0	 2.999999999999999e+000	 8.200010000009549e+000	 9.998225252120381e+000
0	 3.000000000000000e+000	 8.266680000012267e+000	 9.998122315170139e+000
0	 3.000000000000000e+000	 8.333350000014582e+000	 9.998069337848502e+000
0	 3.000000000000000e+000	 8.400020000016401e+000	 9.998067924317853e+000
0	 3.000000000000001e+000	 8.466690000017618e+000	 9.998119678740588e+000
0	 3.000000000000000e+000	 8.533360000018133e+000	 9.998226205279103e+000
0	 3.000000000000000e+000	 8.600030000017847e+000	 9.998389108095783e+000
0	 3.000000000000001e+000	 8.666700000016666e+000	 9.998609991353030e+000
0	 3.066659999995868e+000	 8.000000000000000e+000	 1.000180784121570e+001
0	 3.066659999995867e+000	 8.066670000003319e+000	 1.000141339845540e+001
0	 3.066659999995867e+000	 8.133340000006534e+000	 1.000106462463240e+001
0	 3.066659999995867e+000	 8.200010000009552e+000	 1.000076306948721e+001
0	 3.066659999995868e+000	 8.266680000012270e+000	 1.000051028276036e+001
0	 3.066659999995867e+000	 8.333350000014583e+000	 1.000030781419237e+001
0	 3.066659999995868e+000	 8.400020000016399e+000	 1.000015721352375e+001
0	 3.066659999995867e+000	 8.466690000017616e+000	 1.000006003049505e+001
0	 3.066659999995867e+000	 8.533360000018133e+000	 1.000001781484678e+001
0	 3.066659999995868e+000	 8.600030000017851e+000	 1.000003211631946e+001
0	 3.066659999995868e+000	 8.666700000016665e+000	 1.000010448465362e+001
0	 3.133319999991934e+000	 8.000000000000000e+000	 1.000472249168129e+001
0	 3.133319999991934e+000	 8.066670000003317e+000	 1.000418521650822e+001
0	 3.133319999991935e+000	 8.133340000006536e+000	 1.000369318945353e+001
0	 3.133319999991933e+000	 8.200010000009550e+000	 1.000324792971231e+001
0	 3.133319999991935e+000	 8.266680000012268e+000	 1.000285095647968e+001
0	 3.133319999991934e+000	 8.333350000014583e+000	 1.000250378895075e+001
0	 3.133319999991934e+000	 8.400020000016403e+000	 1.000220794632063e+001
0	 3.133319999991934e+000	 8.466690000017618e+000	 1.000196494778445e+001
0	 3.133319999991935e+000	 8.533360000018137e+000	 1.000177631253732e+001
0	 3.133319999991935e+000	 8.600030000017851e+000	 1.000164355977436e+001
0	 3.133319999991935e+000	 8.666700000016668e+000	 1.000156820869066e+001
0	 3.199979999988401e+000	 7.999999999999999e+000	 1.000755868666986e+001
0	 3.199979999988401e+000	 8.066670000003317e+000	 1.000688489446352e+001
0	 3.199979999988400e+000	 8.133340000006530e+000	 1.000625536446376e+001
0	 3.199979999988401e+000	 8.200010000009550e+000	 1.000567160919678e+001
0	 3.199979999988400e+000	 8.266680000012265e+000	 1.000513514118874e+001
0	 3.199979999988401e+000	 8.333350000014583e+000	 1.000464747296577e+001
0	 3.199979999988401e+000	 8.400020000016401e+000	 1.000421011705406e+001
0	 3.199979999988401e+000	 8.466690000017618e+000	 1.000382458597977e+001
0	 3.199979999988400e+000	 8.533360000018133e+000	 1.000349239226906e+001
0	 3.199979999988400e+000	 8.600030000017849e+000	 1.000321504844810e+001
0	 3.199979999988401e+000	 8.666700000016668e+000	 1.000299406704306e+001
0	 3.266639999985468e+000	 8.000000000000000e+000	 1.001031338233573e+001
0	 3.266639999985468e+000	 8.066670000003317e+000	 1.000950728436921e+001
0	 3.266639999985467e+000	 8.133340000006534e+000	 1.000874427512665e+001
0	 3.266639999985468e+000	 8.200010000009552e+000	 1.000802588434174e+001
0	 3.266639999985468e+000	 8.266680000012267e+000	 1.000735364174815e+001
0	 3.266639999985468e+000	 8.333350000014583e+000	 1.000672907707954e+001
0	 3.266639999985468e+000	 8.400020000016401e+000	 1.000615372006960e+001
0	 3.266639999985467e+000	 8.466690000017616e+000	 1.000562910045196e+001
0	 3.266639999985467e+000	 8.533360000018133e+000	 1.000515674796034e+001
0	 3.266639999985467e+000	 8.600030000017849e+000	 1.000473819232838e+001
0	 3.266639999985467e+000	 8.666700000016666e+000	 1.000437496328977e+001
0	 3.333299999983334e+000	 8.000000000000000e+000	 1.001298353483316e+001
0	 3.333299999983334e+000	 8.066670000003317e+000	 1.001204723827322e+001
0	 3.333299999983334e+000	 8.133340000006532e+000	 1.001115304690573e+001
0	 3.333299999983334e+000	 8.200010000009550e+000	 1.001030253154830e+001
0	 3.333299999983334e+000	 8.266680000012267e+000	 1.000949726301860e+001
0	 3.333299999983334e+000	 8.333350000014585e+000	 1.000873881213420e+001
0	 3.333299999983334e+000	 8.400020000016399e+000	 1.000802874971281e+001
0	 3.333299999983334e+000	 8.466690000017618e+000	 1.000736864657202e+001
0	 3.333299999983333e+000	 8.533360000018133e+000	 1.000676007352948e+001
0	 3.333299999983335e+000	 8.600030000017851e+000	 1.000620460140284e+001
0	 3.333299999983334e+000	 8.666700000016668e+000	 1.000570380100971e+001
0	 2.666700000016666e+000	 8.666700000016668e+000	 9.990924360634427e+000
0	 2.666700000016667e+000	 8.733360002791903e+000	 9.991840240153323e+000
0	 2.666700000016667e+000	 8.800020022230555e+000	 9.992695000430945e+000
0	 2.666700000016666e+000	 8.866680074997040e+000	 9.993491068074514e+000
0	 2.666700000016667e+000	 8.933340177755779e+000	 9.994230869840182e+000
0	 2.666700000016666e+000	 9.000000347171183e+000	 9.994916832633047e+000
0	 2.666700000016666e+000	 9.066660599907667e+000	 9.995551383507085e+000
0	 2.666700000016666e+000	 9.133320952629655e+000	 9.996136949665242e+000
0	 2.666700000016667e+000	 9.199981422001557e+000	 9.996675958459338e+000
0	 2.666700000016667e+000	 9.266642024687794e+000	 9.997170837390058e+000
0	 2.666700000016666e+000	 9.333302777352785e+000	 9.997624014107021e+000
0	 2.733360000014533e+000	 8.666700000016666e+000	 9.992466253936659e+000
0	 2.733360000014533e+000	 8.733360002791901e+000	 9.993255529797422e+000
0	 2.733360000014534e+000	 8.800020022230553e+000	 9.993987164623571e+000
0	 2.733360000014533e+000	 8.866680074997044e+000	 9.994663492424037e+000
0	 2.733360000014533e+000	 8.933340177755776e+000	 9.995286847341701e+000
0	 2.733360000014533e+000	 9.000000347171183e+000	 9.995859563653362e+000
0	 2.733360000014533e+000	 9.066660599907669e+000	 9.996383975769797e+000
0	 2.733360000014533e+000	 9.133320952629655e+000	 9.996862418235679e+000
0	 2.733360000014532e+000	 9.199981422001558e+000	 9.997297225729625e+000
0	 2.733360000014533e+000	 9.266642024687798e+000	 9.997690733064170e+000
0	 2.733360000014533e+000	 9.333302777352785e+000	 9.998045275185772e+000
0	 2.800020000011600e+000	 8.666700000016666e+000	 9.994012860080709e+000
0	 2.800020000011600e+000	 8.733360002791905e+000	 9.994669331075457e+000
0	 2.800020000011600e+000	 8.800020022230557e+000	 9.995273171968956e+000
0	 2.800020000011599e+000	 8.866680074997040e+000	 9.995826577730240e+000
0	 2.800020000011600e+000	 8.933340177755781e+000	 9.996331743445476e+000
0	 2.800020000011600e+000	 9.000000347171183e+000	 9.996790864317926e+000
0	 2.800020000011600e+000	 9.066660599907667e+000	 9.997206135667913e+000
0	 2.800020000011600e+000	 9.133320952629653e+000	 9.997579752932913e+000
0	 2.800020000011600e+000	 9.199981422001557e+000	 9.997913911667368e+000
0	 2.800020000011599e+000	 9.266642024687796e+000	 9.998210807542845e+000
0	 2.800020000011600e+000	 9.333302777352783e+000	 9.998472636347991e+000
0	 2.866680000008067e+000	 8.666700000016665e+000	 9.995557082645501e+000
0	 2.866680000008066e+000	 8.733360002791903e+000	 9.996075917977871e+000
0	 2.866680000008067e+000	 8.800020022230553e+000	 9.996548443431507e+000
0	 2.866680000008066e+000	 8.866680074997040e+000	 9.996976668493451e+000
0	 2.866680000008067e+000	 8.933340177755778e+000	 9.997362602749467e+000
0	 2.866680000008067e+000	 9.000000347171184e+000	 9.997708255883982e+000
0	 2.866680000008066e+000	 9.066660599907666e+000	 9.998015637680206e+000
0	 2.866680000008067e+000	 9.133320952629656e+000	 9.998286758019944e+000
0	 2.866680000008067e+000	 9.199981422001558e+000	 9.998523626883724e+000
0	 2.866680000008067e+000	 9.266642024687798e+000	 9.998728254350782e+000
0	 2.866680000008067e+000	 9.333302777352783e+000	 9.998902650598971e+000
0	 2.933340000004133e+000	 8.666700000016666e+000	 9.997091825209971e+000
0	 2.933340000004133e+000	 8.733360002791905e+000	 9.997469564495036e+000
0	 2.933340000004133e+000	 8.800020022230555e+000	 9.997808399975646e+000
0	 2.933340000004133e+000	 8.866680074997042e+000	 9.998110109214041e+000
0	 2.933340000004133e+000	 8.933340177755776e+000	 9.998376469851628e+000
0	 2.933340000004133e+000	 9.000000347171181e+000	 9.998609259608843e+000
0	 2.933340000004133e+000	 9.066660599907667e+000	 9.998810256285323e+000
0	 2.933340000004133e+000	 9.133320952629653e+000	 9.998981237759736e+000
0	 2.933340000004133e+000	 9.199981422001558e+000	 9.999123981989889e+000
0	 2.933340000004133e+000	 9.266642024687798e+000	 9.999240267012645e+000
0	 2.933340000004133e+000	 9.333302777352783e+000	 9.999331870943930e+000
0	 3.000000000000001e+000	 8.666700000016666e+000	 9.998609991353030e+000
0	 3.000000000000000e+000	 8.733360002791903e+000	 9.998844544617347e+000
0	 3.000000000000000e+000	 8.800020022230555e+000	 9.999048462565757e+000
0	 3.000000000000000e+000	 8.866680074997039e+000	 9.999223244392358e+000
0	 3.000000000000000e+000	 8.933340177755776e+000	 9.999370389349890e+000
0	 3.000000000000000e+000	 9.000000347171181e+000	 9.999491396749736e+000
0	 3.000000000000000e+000	 9.066660599907666e+000	 9.999587765961978e+000
0	 3.000000000000000e+000	 9.133320952629658e+000	 9.999660996415301e+000
0	 2.999999999999999e+000	 9.199981422001557e+000	 9.999712587597028e+000
0	 3.000000000000001e+000	 9.266642024687796e+000	 9.999744039053098e+000
0	 3.000000000000000e+000	 9.333302777352781e+000	 9.999756850388092e+000
0	 3.066659999995868e+000	 8.666700000016665e+000	 1.000010448465362e+001
0	 3.066659999995868e+000	 8.733360002791901e+000	 1.000019513233523e+001
0	 3.066659999995868e+000	 8.800020022230557e+000	 1.000026405216629e+001
0	 3.066659999995867e+000	 8.866680074997042e+000	 1.000031241852875e+001
0	 3.066659999995867e+000	 8.933340177755779e+000	 1.000034140584220e+001
0	 3.066659999995868e+000	 9.000000347171181e+000	 1.000035218856394e+001
0	 3.066659999995868e+000	 9.066660599907667e+000	 1.000034594118888e+001
0	 3.066659999995867e+000	 9.133320952629655e+000	 1.000032383824959e+001
0	 3.066659999995868e+000	 9.199981422001562e+000	 1.000028705431631e+001
0	 3.066659999995867e+000	 9.266642024687794e+000	 1.000023676399685e+001
0	 3.066659999995867e+000	 9.333302777352781e+000	 1.000017414193672e+001
0	 3.133319999991935e+000	 8.666700000016668e+000	 1.000156820869066e+001
0	 3.133319999991934e+000	 8.733360002791903e+000	 1.000151560163904e+001
0	 3.133319999991934e+000	 8.800020022230555e+000	 1.000145058974160e+001
0	 3.133319999991934e+000	 8.866680074997040e+000	 1.000137397612356e+001
0	 3.133319999991933e+000	 8.933340177755776e+000	 1.000128656392655e+001
0	 3.133319999991934e+000	 9.000000347171183e+000	 1.000118915630873e+001
0	 3.133319999991934e+000	 9.066660599907669e+000	 1.000108255644473e+001
0	 3.133319999991933e+000	 9.133320952629653e+000	 1.000096756752560e+001
0	 3.133319999991934e+000	 9.199981422001557e+000	 1.000084499275889e+001
0	 3.133319999991934e+000	 9.266642024687799e+000	 1.000071563536856e+001
0	 3.133319999991934e+000	 9.333302777352783e+000	 1.000058029859506e+001
0	 3.199979999988401e+000	 8.666700000016668e+000	 1.000299406704306e+001
0	 3.199979999988400e+000	 8.733360002791901e+000	 1.000280022651919e+001
0	 3.199979999988401e+000	 8.800020022230557e+000	 1.000260349625614e+001
0	 3.199979999988401e+000	 8.866680074997042e+000	 1.000240426167713e+001
0	 3.199979999988400e+000	 8.933340177755778e+000	 1.000220290820085e+001
0	 3.199979999988401e+000	 9.000000347171181e+000	 1.000199982124137e+001
0	 3.199979999988401e+000	 9.066660599907667e+000	 1.000179538620822e+001
0	 3.199979999988400e+000	 9.133320952629653e+000	 1.000158998850630e+001
0	 3.199979999988402e+000	 9.199981422001560e+000	 1.000138401353597e+001
0	 3.199979999988400e+000	 9.266642024687794e+000	 1.000117784669295e+001
0	 3.199979999988401e+000	 9.333302777352785e+000	 1.000097187336836e+001
0	 3.266639999985467e+000	 8.666700000016666e+000	 1.000437496328977e+001
0	 3.266639999985467e+000	 8.733360002791901e+000	 1.000404328096609e+001
0	 3.266639999985468e+000	 8.800020022230555e+000	 1.000371819267428e+001
0	 3.266639999985467e+000	 8.866680074997042e+000	 1.000339961968983e+001
0	 3.266639999985468e+000	 8.933340177755778e+000	 1.000308748326305e+001
0	 3.266639999985468e+000	 9.000000347171181e+000	 1.000278170461912e+001
0	 3.266639999985468e+000	 9.066660599907667e+000	 1.000248220495802e+001
0	 3.266639999985468e+000	 9.133320952629656e+000	 1.000218890545467e+001
0	 3.266639999985468e+000	 9.199981422001562e+000	 1.000190172725871e+001
0	 3.266639999985468e+000	 9.266642024687798e+000	 1.000162059149465e+001
0	 3.266639999985468e+000	 9.333302777352785e+000	 1.000134541926185e+001
0	 3.333299999983334e+000	 8.666700000016668e+000	 1.000570380100971e+001
0	 3.333299999983334e+000	 8.733360002791903e+000	 1.000523903897013e+001
0	 3.333299999983334e+000	 8.800020022230553e+000	 1.000479009996048e+001
0	 3.333299999983334e+000	 8.866680074997039e+000	 1.000435639466200e+001
0	 3.333299999983334e+000	 8.933340177755779e+000	 1.000393733371112e+001
0	 3.333299999983333e+000	 9.000000347171181e+000	 1.000353232769923e+001
0	 3.333299999983334e+000	 9.066660599907667e+000	 1.000314078717289e+001
0	 3.333299999983335e+000	 9.133320952629656e+000	 1.000276212263369e+001
0	 3.333299999983333e+000	 9.199981422001558e+000	 1.000239574453830e+001
0	 3.333299999983334e+000	 9.266642024687796e+000	 1.000204106329839e+001
0	 3.333299999983334e+000	 9.333302777352785e+000	 1.000169748928080e+001
0	 2.666700000016666e+000	 9.333302777352785e+000	 9.997624014107025e+000
0	 2.666700000016666e+000	 9.399973674588178e+000	 9.998038697055460e+000
0	 2.666700000016666e+000	 9.466644621844617e+000	 9.998416283206449e+000
0	 2.666700000016666e+000	 9.533315502450000e+000	 9.998756677275978e+000
0	 2.666700000016666e+000	 9.599986199732197e+000	 9.999059782960812e+000
0	 2.666700000016667e+000	 9.666656597019095e+000	 9.999325502938092e+000
0	 2.666700000016666e+000	 9.733326577638575e+000	 9.999553738864861e+000
0	 2.666700000016667e+000	 9.799996024918521e+000	 9.999744391377595e+000
0	 2.666700000016666e+000	 9.866664822186822e+000	 9.999897360091662e+000
0	 2.666700000016666e+000	 9.933332852771351e+000	 1.000001254360100e+001
0	 2.666700000016666e+000	 1.000000000000000e+001	 1.000008983947712e+001
0	 2.733360000014533e+000	 9.333302777352785e+000	 9.998045275185772e+000
0	 2.733360000014533e+000	 9.399973674588175e+000	 9.998368985451377e+000
0	 2.733360000014533e+000	 9.466644621844619e+000	 9.998667785059316e+000
0	 2.733360000014533e+000	 9.533315502450000e+000	 9.998940841355894e+000
0	 2.733360000014532e+000	 9.599986199732195e+000	 9.999187320881072e+000
0	 2.733360000014533e+000	 9.666656597019092e+000	 9.999406389367998e+000
0	 2.733360000014533e+000	 9.733326577638577e+000	 9.999597211742552e+000
0	 2.733360000014533e+000	 9.799996024918524e+000	 9.999758952122814e+000
0	 2.733360000014532e+000	 9.866664822186822e+000	 9.999890773818851e+000
0	 2.733360000014533e+000	 9.933332852771352e+000	 9.999991839331958e+000
0	 2.733360000014533e+000	 1.000000000000000e+001	 1.000006131035429e+001
0	 2.800020000011600e+000	 9.333302777352783e+000	 9.998472636347994e+000
0	 2.800020000011599e+000	 9.399973674588173e+000	 9.998711140625183e+000
0	 2.800020000011600e+000	 9.466644621844619e+000	 9.998935539270937e+000
0	 2.800020000011600e+000	 9.533315502450002e+000	 9.999144352510522e+000
0	 2.800020000011601e+000	 9.599986199732197e+000	 9.999336099961607e+000
0	 2.800020000011600e+000	 9.666656597019092e+000	 9.999509300633831e+000
0	 2.800020000011600e+000	 9.733326577638575e+000	 9.999662472928327e+000
0	 2.800020000011599e+000	 9.799996024918523e+000	 9.999794134637423e+000
0	 2.800020000011600e+000	 9.866664822186820e+000	 9.999902802943964e+000
0	 2.800020000011600e+000	 9.933332852771352e+000	 9.999986994421096e+000
0	 2.800020000011600e+000	 1.000000000000000e+001	 1.000004522503163e+001
0	 2.866680000008067e+000	 9.333302777352783e+000	 9.998902650598970e+000
0	 2.866680000008067e+000	 9.399973674588178e+000	 9.999061038218423e+000
0	 2.866680000008066e+000	 9.466644621844619e+000	 9.999214894085327e+000
0	 2.866680000008066e+000	 9.533315502450000e+000	 9.999362181549788e+000
0	 2.866680000008067e+000	 9.599986199732197e+000	 9.999500863540588e+000
0	 2.866680000008066e+000	 9.666656597019095e+000	 9.999628902564815e+000
0	 2.866680000008066e+000	 9.733326577638572e+000	 9.999744260707379e+000
0	 2.866680000008067e+000	 9.799996024918524e+000	 9.999844899630638e+000
0	 2.866680000008067e+000	 9.866664822186822e+000	 9.999928780573994e+000
0	 2.866680000008066e+000	 9.933332852771354e+000	 9.999993864353304e+000
0	 2.866680000008067e+000	 1.000000000000000e+001	 1.000003811136072e+001
0	 2.933340000004133e+000	 9.333302777352783e+000	 9.999331870943928e+000
0	 2.933340000004133e+000	 9.399973674588175e+000	 9.999414553872636e+000
0	 2.933340000004133e+000	 9.466644621844619e+000	 9.999501197746509e+000
0	 2.933340000004134e+000	 9.533315502450002e+000	 9.999589299283676e+000
0	 2.933340000004133e+000	 9.599986199732197e+000	 9.999676354956311e+000
0	 2.933340000004133e+000	 9.666656597019093e+000	 9.999759860990318e+000
0	 2.933340000004134e+000	 9.733326577638575e+000	 9.999837313364807e+000
0	 2.933340000004133e+000	 9.799996024918521e+000	 9.999906207811812e+000
0	 2.933340000004133e+000	 9.866664822186820e+000	 9.999964039815906e+000
0	 2.933340000004133e+000	 9.933332852771354e+000	 1.000000830461366e+001
0	 2.933340000004133e+000	 1.000000000000000e+001	 1.000003649719321e+001
0	 3.000000000000000e+000	 9.333302777352781e+000	 9.999756850388096e+000
0	 3.000000000000001e+000	 9.399973674588180e+000	 9.999767563229328e+000
0	 3.000000000000000e+000	 9.466644621844623e+000	 9.999789798498483e+000
0	 3.000000000000000e+000	 9.533315502450000e+000	 9.999820676522145e+000
0	 3.000000000000001e+000	 9.599986199732197e+000	 9.999857317547006e+000
0	 3.000000000000000e+000	 9.666656597019092e+000	 9.999896841739551e+000
0	 3.000000000000000e+000	 9.733326577638575e+000	 9.999936369185678e+000
0	 3.000000000000000e+000	 9.799996024918523e+000	 9.999973019890287e+000
0	 3.000000000000000e+000	 9.866664822186822e+000	 1.000000391377685e+001
0	 3.000000000000001e+000	 9.933332852771352e+000	 1.000002617068706e+001
0	 3.000000000000000e+000	 1.000000000000000e+001	 1.000003691038056e+001
0	 3.066659999995867e+000	 9.333302777352781e+000	 1.000017414193672e+001
0	 3.066659999995867e+000	 9.399973674588175e+000	 1.000011594193006e+001
0	 3.066659999995868e+000	 9.466644621844619e+000	 1.000007604458529e+001
0	 3.066659999995868e+000	 9.533315502450002e+000	 1.000005128407516e+001
0	 3.066659999995867e+000	 9.599986199732197e+000	 1.000003849465090e+001
0	 3.066659999995867e+000	 9.666656597019090e+000	 1.000003451064185e+001
0	 3.066659999995868e+000	 9.733326577638577e+000	 1.000003616645516e+001
0	 3.066659999995868e+000	 9.799996024918524e+000	 1.000004029657528e+001
0	 3.066659999995867e+000	 9.866664822186822e+000	 1.000004373556375e+001
0	 3.066659999995868e+000	 9.933332852771354e+000	 1.000004331805858e+001
0	 3.066659999995866e+000	 9.999999999999998e+000	 1.000003587877438e+001
0	 3.133319999991934e+000	 9.333302777352783e+000	 1.000058029859506e+001
0	 3.133319999991933e+000	 9.399973674588175e+000	 1.000045556561637e+001
0	 3.133319999991933e+000	 9.466644621844619e+000	 1.000035528425091e+001
0	 3.133319999991935e+000	 9.533315502450002e+000	 1.000027609275265e+001
0	 3.133319999991934e+000	 9.599986199732195e+000	 1.000021462960622e+001
0	 3.133319999991934e+000	 9.666656597019097e+000	 1.000016753352648e+001
0	 3.133319999991934e+000	 9.733326577638579e+000	 1.000013144345831e+001
0	 3.133319999991935e+000	 9.799996024918523e+000	 1.000010299857616e+001
0	 3.133319999991934e+000	 9.866664822186820e+000	 1.000007883828361e+001
0	 3.133319999991934e+000	 9.933332852771354e+000	 1.000005560221326e+001
0	 3.133319999991934e+000	 1.000000000000000e+001	 1.000002993022619e+001
0	 3.199979999988401e+000	 9.333302777352785e+000	 1.000097187336836e+001
0	 3.199979999988400e+000	 9.399973674588173e+000	 1.000078230992981e+001
0	 3.199979999988400e+000	 9.466644621844617e+000	 1.000062286573939e+001
0	 3.199979999988400e+000	 9.533315502449998e+000	 1.000049007336462e+001
0	 3.199979999988401e+000	 9.599986199732197e+000	 1.000038046575124e+001
0	 3.199979999988401e+000	 9.666656597019095e+000	 1.000029057622277e+001
0	 3.199979999988401e+000	 9.733326577638577e+000	 1.000021693848031e+001
0	 3.199979999988401e+000	 9.799996024918523e+000	 1.000015608660220e+001
0	 3.199979999988401e+000	 9.866664822186822e+000	 1.000010455504351e+001
0	 3.199979999988401e+000	 9.933332852771354e+000	 1.000005887863600e+001
0	 3.199979999988401e+000	 1.000000000000000e+001	 1.000001559258759e+001
0	 3.266639999985468e+000	 9.333302777352785e+000	 1.000134541926185e+001
0	 3.266639999985467e+000	 9.399973674588177e+000	 1.000109205051186e+001
0	 3.266639999985468e+000	 9.466644621844621e+000	 1.000087413729472e+001
0	 3.266639999985468e+000	 9.533315502450002e+000	 1.000068819672103e+001
0	 3.266639999985468e+000	 9.599986199732198e+000	 1.000053074642417e+001
0	 3.266639999985468e+000	 9.666656597019095e+000	 1.000039830455994e+001
0	 3.266639999985468e+000	 9.733326577638573e+000	 1.000028738980621e+001
0	 3.266639999985468e+000	 9.799996024918523e+000	 1.000019452136270e+001
0	 3.266639999985468e+000	 9.866664822186822e+000	 1.000011621895048e+001
0	 3.266639999985468e+000	 9.933332852771354e+000	 1.000004900281188e+001
0	 3.266639999985468e+000	 1.000000000000000e+001	 9.999989393710074e+000
0	 3.333299999983334e+000	 9.333302777352785e+000	 1.000169748928080e+001
0	 3.333299999983334e+000	 9.399973674588177e+000	 1.000138066300412e+001
0	 3.333299999983334e+000	 9.466644621844619e+000	 1.000110444716092e+001
0	 3.333299999983334e+000	 9.533315502450002e+000	 1.000086543363181e+001
0	 3.333299999983333e+000	 9.599986199732197e+000	 1.000066021496326e+001
0	 3.333299999983334e+000	 9.666656597019093e+000	 1.000048538436731e+001
0	 3.333299999983334e+000	 9.733326577638577e+000	 1.000033753572118e+001
0	 3.333299999983334e+000	 9.799996024918524e+000	 1.000021326356701e+001
0	 3.333299999983334e+000	 9.866664822186822e+000	 1.000010916311153e+001
0	 3.333299999983333e+000	 9.933332852771354e+000	 1.000002183022584e+001
0	 3.333299999983334e+000	 1.000000000000000e+001	 9.999947861445303e+000
0	 3.333299999983334e+000	 0.000000000000000e+000	-7.127798177310163e+001
0	 3.333299999983333e+000	 6.666714722864756e-002	-6.017375305582313e+001
0	 3.333299999983333e+000	 1.333351778131789e-001	-4.990939844476591e+001
0	 3.333299999983334e+000	 2.000039750814772e-001	-4.046297796260372e+001
0	 3.333299999983334e+000	 2.666734223614256e-001	-3.181255744431697e+001
0	 3.333299999983334e+000	 3.333434029809069e-001	-2.393620853585882e+001
0	 3.333299999983334e+000	 4.000138002678044e-001	-1.681200869297403e+001
0	 3.333299999983333e+000	 4.666844975500011e-001	-1.041804118017009e+001
0	 3.333299999983335e+000	 5.333553781553803e-001	-4.732395069841326e+000
0	 3.333299999983334e+000	 6.000263254118248e-001	 2.668347584550115e-001
0	 3.333299999983334e+000	 6.666972226472175e-001	 4.601547618569925e+000
0	 3.399969999982150e+000	 0.000000000000000e+000	-6.222806544762020e+001
0	 3.399969999982149e+000	 6.666714722864757e-002	-5.250677621439555e+001
0	 3.399969999982150e+000	 1.333351778131789e-001	-4.347975304401203e+001
0	 3.399969999982150e+000	 2.000039750814772e-001	-3.513474920492733e+001
0	 3.399969999982149e+000	 2.666734223614254e-001	-2.745952334556711e+001
0	 3.399969999982150e+000	 3.333434029809069e-001	-2.044183949309636e+001
0	 3.399969999982150e+000	 4.000138002678045e-001	-1.406946705233183e+001
0	 3.399969999982150e+000	 4.666844975500012e-001	-8.330180804795671e+000
0	 3.399969999982150e+000	 5.333553781553803e-001	-3.211760907910394e+000
0	 3.399969999982150e+000	 6.000263254118246e-001	 1.298007105665152e+000
0	 3.399969999982150e+000	 6.666972226472177e-001	 5.211332328558661e+000
0	 3.466639999981865e+000	 0.000000000000000e+000	-5.332020937830396e+001
0	 3.466639999981866e+000	 6.666714722864756e-002	-4.494626316109743e+001
0	 3.466639999981865e+000	 1.333351778131789e-001	-3.713030164808992e+001
0	 3.466639999981866e+000	 2.000039750814772e-001	-2.986839641989721e+001
0	 3.466639999981866e+000	 2.666734223614255e-001	-2.315662395510703e+001
0	 3.466639999981866e+000	 3.333434029809069e-001	-1.699106562916413e+001
0	 3.466639999981866e+000	 4.000138002678044e-001	-1.136780771338373e+001
0	 3.466639999981866e+000	 4.666844975500011e-001	-6.282941374093880e+000
0	 3.466639999981866e+000	 5.333553781553801e-001	-1.732562671905962e+000
0	 3.466639999981866e+000	 6.000263254118248e-001	 2.287227438886000e+000
0	 3.466639999981866e+000	 6.666972226472177e-001	 5.780323110777720e+000
0	 3.533309999982383e+000	 0.000000000000000e+000	-4.465918502735752e+001
0	 3.533309999982382e+000	 6.666714722864756e-002	-3.758033993260974e+001
0	 3.533309999982382e+000	 1.333351778131790e-001	-3.093384763821117e+001
0	 3.533309999982383e+000	 2.000039750814773e-001	-2.472272297375805e+001
0	 3.533309999982383e+000	 2.666734223614256e-001	-1.894998514905876e+001
0	 3.533309999982382e+000	 3.333434029809068e-001	-1.361865775313852e+001
0	 3.533309999982383e+000	 4.000138002678045e-001	-8.731768753359047e+000
0	 3.533309999982382e+000	 4.666844975500012e-001	-4.292350494653206e+000
0	 3.533309999982382e+000	 5.333553781553801e-001	-3.034396988746950e-001
0	 3.533309999982382e+000	 6.000263254118247e-001	 3.231922535737534e+000
0	 3.533309999982382e+000	 6.666972226472177e-001	 6.310690734979789e+000
0	 3.599979999983598e+000	 0.000000000000000e+000	-3.634976385698860e+001
0	 3.599979999983598e+000	 6.666714722864756e-002	-3.049713256561588e+001
0	 3.599979999983598e+000	 1.333351778131789e-001	-2.496319439558921e+001
0	 3.599979999983600e+000	 2.000039750814772e-001	-1.975653223275583e+001
0	 3.599979999983600e+000	 2.666734223614256e-001	-1.488573280354523e+001
0	 3.599979999983598e+000	 3.333434029809068e-001	-1.035938667409664e+001
0	 3.599979999983598e+000	 4.000138002678043e-001	-6.186088249487490e+000
0	 3.599979999983598e+000	 4.666844975500011e-001	-2.374435773062414e+000
0	 3.599979999983599e+000	 5.333553781553801e-001	 1.066968674136607e+000
0	 3.599979999983598e+000	 6.000263254118247e-001	 4.129519173839683e+000
0	 3.599979999983599e+000	 6.666972226472178e-001	 6.804605970917497e+000
0	 3.666649999985415e+000	 0.000000000000000e+000	-2.849671732940817e+001
0	 3.666649999985415e+000	 6.666714722864756e-002	-2.378476709680171e+001
0	 3.666649999985415e+000	 1.333351778131789e-001	-1.929114530143927e+001
0	 3.666649999985416e+000	 2.000039750814773e-001	-1.502862756313781e+001
0	 3.666649999985415e+000	 2.666734223614255e-001	-1.100999279469023e+001
0	 3.666649999985414e+000	 3.333434029809068e-001	-7.248023201116152e+000
0	 3.666649999985415e+000	 4.000138002678044e-001	-3.755504278999186e+000
0	 3.666649999985415e+000	 4.666844975500012e-001	-5.452248159104765e-001
0	 3.666649999985415e+000	 5.333553781553803e-001	 2.370023110081047e+000
0	 3.666649999985415e+000	 6.000263254118246e-001	 4.977444130812383e+000
0	 3.666649999985416e+000	 6.666972226472177e-001	 7.264239588343500e+000
0	 3.733319999987732e+000	 0.000000000000000e+000	-2.120481690683033e+001
0	 3.733319999987730e+000	 6.666714722864754e-002	-1.753136956285552e+001
0	 3.733319999987731e+000	 1.333351778131789e-001	-1.399050373697846e+001
0	 3.733319999987732e+000	 2.000039750814773e-001	-1.059781233115264e+001
0	 3.733319999987731e+000	 2.666734223614256e-001	-7.368890998618576e+000
0	 3.733319999987732e+000	 3.333434029809069e-001	-4.319338143275353e+000
0	 3.733319999987732e+000	 4.000138002678044e-001	-1.464754919124598e+000
0	 3.733319999987732e+000	 4.666844975500011e-001	 1.179254770213430e+000
0	 3.733319999987732e+000	 5.333553781553803e-001	 3.597084271911620e+000
0	 3.733319999987731e+000	 6.000263254118247e-001	 5.773124184275470e+000
0	 3.733319999987732e+000	 6.666972226472177e-001	 7.691762357010478e+000
0	 3.799989999990448e+000	 0.000000000000000e+000	-1.457883405147238e+001
0	 3.799989999990448e+000	 6.666714722864756e-002	-1.182506600046806e+001
0	 3.799989999990448e+000	 1.333351778131790e-001	-9.134073083425694e+000
0	 3.799989999990448e+000	 2.000039750814773e-001	-6.522889903050319e+000
0	 3.799989999990448e+000	 2.666734223614256e-001	-4.008553291456005e+000
0	 3.799989999990449e+000	 3.333434029809070e-001	-1.608102309653175e+000
0	 3.799989999990448e+000	 4.000138002678043e-001	 6.614217529052958e-001
0	 3.799989999990448e+000	 4.666844975500011e-001	 2.782975378719875e+000
0	 3.799989999990449e+000	 5.333553781553804e-001	 4.739512822581187e+000
0	 3.799989999990448e+000	 6.000263254118246e-001	 6.513986111848763e+000
0	 3.799989999990448e+000	 6.666972226472178e-001	 8.089345046671072e+000
0	 3.866659999993465e+000	 0.000000000000000e+000	-8.723540225554833e+000
0	 3.866659999993464e+000	 6.666714722864754e-002	-6.753982446332495e+000
0	 3.866659999993465e+000	 1.333351778131789e-001	-4.794656722001710e+000
0	 3.866659999993465e+000	 2.000039750814773e-001	-2.862663645082107e+000
0	 3.866659999993464e+000	 2.666734223614255e-001	-9.751055493291279e-001
0	 3.866659999993465e+000	 3.333434029809068e-001	 8.509134906708061e-001
0	 3.866659999993466e+000	 4.000138002678045e-001	 2.598287659859278e+000
0	 3.866659999993465e+000	 4.666844975500012e-001	 4.249909403019206e+000
0	 3.866659999993464e+000	 5.333553781553800e-001	 5.788669425042509e+000
0	 3.866659999993466e+000	 6.000263254118247e-001	 7.197456691152054e+000
0	 3.866659999993465e+000	 6.666972226472177e-001	 8.459158427077963e+000
0	 3.933329999996682e+000	 0.000000000000000e+000	-3.743706891301333e+000
0	 3.933329999996682e+000	 6.666714722864757e-002	-2.406244937144462e+000
0	 3.933329999996682e+000	 1.333351778131790e-001	-1.045058033929077e+000
0	 3.933329999996681e+000	 2.000039750814773e-001	 3.240630764993430e-001
0	 3.933329999996681e+000	 2.666734223614255e-001	 1.685326351634428e+000
0	 3.933329999996682e+000	 3.333434029809070e-001	 3.022938448616422e+000
0	 3.933329999996681e+000	 4.000138002678044e-001	 4.321104724505600e+000
0	 3.933329999996682e+000	 4.666844975500011e-001	 5.564029236521534e+000
0	 3.933329999996682e+000	 5.333553781553801e-001	 6.735914742248218e+000
0	 3.933329999996682e+000	 6.000263254118247e-001	 7.820962699805058e+000
0	 3.933329999996682e+000	 6.666972226472177e-001	 8.803373267983806e+000
0	 4.000000000000000e+000	 0.000000000000000e+000	 2.558944890613765e-001
0	 4.000000000000001e+000	 6.666714722864757e-002	 1.130020490398083e+000
0	 4.000000000000001e+000	 1.333351778131790e-001	 2.041919599567874e+000
0	 4.000000000000000e+000	 2.000039750814772e-001	 2.978486895440162e+000
0	 4.000000000000001e+000	 2.666734223614255e-001	 3.926616535306219e+000
0	 3.999999999999999e+000	 3.333434029809068e-001	 4.873201755102897e+000
0	 4.000000000000000e+000	 4.000138002678045e-001	 5.805134869612231e+000
0	 4.000000000000000e+000	 4.666844975500011e-001	 6.709307272636788e+000
0	 4.000000000000000e+000	 5.333553781553803e-001	 7.572609437150859e+000
0	 4.000000000000001e+000	 6.000263254118247e-001	 8.381930915427493e+000
0	 4.000000000000000e+000	 6.666972226472175e-001	 9.124160339141303e+000
0	 3.333299999983334e+000	 6.666972226472175e-001	 4.601547618569924e+000
0	 3.333299999983334e+000	 7.333579753122049e-001	 8.398466376049084e+000
0	 3.333299999983334e+000	 8.000185779984418e-001	 1.177738866068741e+001
0	 3.333299999983334e+000	 8.666790473703455e-001	 1.474801765981869e+001
0	 3.333299999983334e+000	 9.333394000923322e-001	 1.732005706783553e+001
0	 3.333299999983334e+000	 9.999996528288189e-001	 1.950321108620429e+001
0	 3.333299999983335e+000	 1.066659822244222e+000	 2.130718442347782e+001
0	 3.333299999983334e+000	 1.133319925002958e+000	 2.274168229530654e+001
0	 3.333299999983334e+000	 1.199979977769445e+000	 2.381641042444734e+001
0	 3.333299999983334e+000	 1.266639997208098e+000	 2.454107504077096e+001
0	 3.333299999983334e+000	 1.333299999983334e+000	 2.492538288126702e+001
0	 3.399969999982150e+000	 6.666972226472177e-001	 5.211332328558659e+000
0	 3.399969999982150e+000	 7.333579753122047e-001	 8.641707601978155e+000
0	 3.399969999982150e+000	 8.000185779984420e-001	 1.170067907145130e+001
0	 3.399969999982150e+000	 8.666790473703454e-001	 1.439590355421679e+001
0	 3.399969999982150e+000	 9.333394000923322e-001	 1.673503832749557e+001
0	 3.399969999982150e+000	 9.999996528288190e-001	 1.872574112850441e+001
0	 3.399969999982150e+000	 1.066659822244222e+000	 2.037567015446749e+001
0	 3.399969999982150e+000	 1.133319925002958e+000	 2.169248406262627e+001
0	 3.399969999982150e+000	 1.199979977769445e+000	 2.268384197024790e+001
0	 3.399969999982150e+000	 1.266639997208098e+000	 2.335740345463161e+001
0	 3.399969999982149e+000	 1.333299999983334e+000	 2.372082855311348e+001
0	 3.466639999981866e+000	 6.666972226472177e-001	 5.780323110777721e+000
0	 3.466639999981867e+000	 7.333579753122049e-001	 8.845992489814041e+000
0	 3.466639999981866e+000	 8.000185779984418e-001	 1.158576088978672e+001
0	 3.466639999981866e+000	 8.666790473703452e-001	 1.400545095669295e+001
0	 3.466639999981866e+000	 9.333394000923321e-001	 1.611088574887439e+001
0	 3.466639999981866e+000	 9.999996528288189e-001	 1.790788873702948e+001
0	 3.466639999981866e+000	 1.066659822244222e+000	 1.940228380422369e+001
0	 3.466639999981866e+000	 1.133319925002959e+000	 2.059989524589856e+001
0	 3.466639999981866e+000	 1.199979977769445e+000	 2.150654776987911e+001
0	 3.466639999981867e+000	 1.266639997208098e+000	 2.212806649637956e+001
0	 3.466639999981866e+000	 1.333299999983334e+000	 2.247027695800779e+001
0	 3.533309999982382e+000	 6.666972226472177e-001	 6.310690734979791e+000
0	 3.533309999982382e+000	 7.333579753122047e-001	 9.017357675864524e+000
0	 3.533309999982382e+000	 8.000185779984416e-001	 1.144210369625514e+001
0	 3.533309999982383e+000	 8.666790473703456e-001	 1.358912946442645e+001
0	 3.533309999982382e+000	 9.333394000923320e-001	 1.546263601344820e+001
0	 3.533309999982383e+000	 9.999996528288191e-001	 1.706682474119602e+001
0	 3.533309999982382e+000	 1.066659822244222e+000	 1.840589741036040e+001
0	 3.533309999982382e+000	 1.133319925002958e+000	 1.948405614845484e+001
0	 3.533309999982382e+000	 1.199979977769445e+000	 2.030550344782231e+001
0	 3.533309999982383e+000	 1.266639997208098e+000	 2.087444216564046e+001
0	 3.533309999982381e+000	 1.333299999983334e+000	 2.119507552392537e+001
0	 3.599979999983599e+000	 6.666972226472178e-001	 6.804605970917499e+000
0	 3.599979999983600e+000	 7.333579753122049e-001	 9.161839796437434e+000
0	 3.599979999983598e+000	 8.000185779984416e-001	 1.127917707141805e+001
0	 3.599979999983598e+000	 8.666790473703452e-001	 1.315940867459659e+001
0	 3.599979999983598e+000	 9.333394000923321e-001	 1.480532580269325e+001
0	 3.599979999983599e+000	 9.999996528288191e-001	 1.621971997042056e+001
0	 3.599979999983598e+000	 1.066659822244222e+000	 1.740538301049152e+001
0	 3.599979999983599e+000	 1.133319925002959e+000	 1.836510707362648e+001
0	 3.599979999983598e+000	 1.199979977769445e+000	 1.910168462855891e+001
0	 3.599979999983598e+000	 1.266639997208098e+000	 1.961790846203989e+001
0	 3.599979999983598e+000	 1.333299999983334e+000	 1.991657167884149e+001
0	 3.666649999985416e+000	 6.666972226472177e-001	 7.264239588343500e+000
0	 3.666649999985415e+000	 7.333579753122047e-001	 9.285475487840634e+000
0	 3.666649999985415e+000	 8.000185779984416e-001	 1.110645059583705e+001
0	 3.666649999985415e+000	 8.666790473703450e-001	 1.272875818438281e+001
0	 3.666649999985415e+000	 9.333394000923321e-001	 1.415399179808582e+001
0	 3.666649999985415e+000	 9.999996528288190e-001	 1.538374525411975e+001
0	 3.666649999985415e+000	 1.066659822244222e+000	 1.641961264223106e+001
0	 3.666649999985415e+000	 1.133319925002959e+000	 1.726318832474492e+001
0	 3.666649999985415e+000	 1.199979977769445e+000	 1.791606693657021e+001
0	 3.666649999985415e+000	 1.266639997208098e+000	 1.837984338520339e+001
0	 3.666649999985415e+000	 1.333299999983333e+000	 1.865611285073138e+001
0	 3.733319999987732e+000	 6.666972226472177e-001	 7.691762357010478e+000
0	 3.733319999987732e+000	 7.333579753122047e-001	 9.394301386382027e+000
0	 3.733319999987731e+000	 8.000185779984413e-001	 1.093339385007367e+001
0	 3.733319999987732e+000	 8.666790473703451e-001	 1.230964759096448e+001
0	 3.733319999987732e+000	 9.333394000923323e-001	 1.352367068110226e+001
0	 3.733319999987732e+000	 9.999996528288190e-001	 1.457607142171020e+001
0	 3.733319999987732e+000	 1.066659822244222e+000	 1.546745834319297e+001
0	 3.733319999987731e+000	 1.133319925002959e+000	 1.619844020514156e+001
0	 3.733319999987731e+000	 1.199979977769445e+000	 1.676962599633755e+001
0	 3.733319999987732e+000	 1.266639997208098e+000	 1.718162493475649e+001
0	 3.733319999987732e+000	 1.333299999983334e+000	 1.743504646757023e+001
0	 3.799989999990448e+000	 6.666972226472178e-001	 8.089345046671072e+000
0	 3.799989999990447e+000	 7.333579753122048e-001	 9.494354128369528e+000
0	 3.799989999990448e+000	 8.000185779984416e-001	 1.076947641468962e+001
0	 3.799989999990448e+000	 8.666790473703453e-001	 1.191454649152115e+001
0	 3.799989999990449e+000	 9.333394000923323e-001	 1.292939913321895e+001
0	 3.799989999990448e+000	 9.999996528288186e-001	 1.381386930260862e+001
0	 3.799989999990448e+000	 1.066659822244222e+000	 1.456779215099127e+001
0	 3.799989999990448e+000	 1.133319925002958e+000	 1.519100301814777e+001
0	 3.799989999990448e+000	 1.199979977769445e+000	 1.568333743234220e+001
0	 3.799989999990448e+000	 1.266639997208098e+000	 1.604463111032462e+001
0	 3.799989999990448e+000	 1.333299999983334e+000	 1.627471995733311e+001
0	 3.866659999993465e+000	 6.666972226472177e-001	 8.459158427077961e+000
0	 3.866659999993465e+000	 7.333579753122048e-001	 9.591670350111100e+000
0	 3.866659999993465e+000	 8.000185779984417e-001	 1.062416787024659e+001
0	 3.866659999993465e+000	 8.666790473703453e-001	 1.155592448323230e+001
0	 3.866659999993466e+000	 9.333394000923324e-001	 1.238621383591237e+001
0	 3.866659999993465e+000	 9.999996528288191e-001	 1.311430972623172e+001
0	 3.866659999993465e+000	 1.066659822244222e+000	 1.373948610324001e+001
0	 3.866659999993465e+000	 1.133319925002958e+000	 1.426101706709502e+001
0	 3.866659999993466e+000	 1.199979977769445e+000	 1.467817686906545e+001
0	 3.866659999993464e+000	 1.266639997208098e+000	 1.499023991153322e+001
0	 3.866659999993464e+000	 1.333299999983334e+000	 1.519648074799508e+001
0	 3.933329999996682e+000	 6.666972226472177e-001	 8.803373267983806e+000
0	 3.933329999996681e+000	 7.333579753122047e-001	 9.692286687914741e+000
0	 3.933329999996682e+000	 8.000185779984415e-001	 1.050693779730634e+001
0	 3.933329999996682e+000	 8.666790473703455e-001	 1.124625116327759e+001
0	 3.933329999996682e+000	 9.333394000923321e-001	 1.190915147065901e+001
0	 3.933329999996682e+000	 9.999996528288190e-001	 1.249456352199626e+001
0	 3.933329999996681e+000	 1.066659822244222e+000	 1.300141223755323e+001
0	 3.933329999996681e+000	 1.133319925002959e+000	 1.342862265531468e+001
0	 3.933329999996682e+000	 1.199979977769445e+000	 1.377511993098856e+001
0	 3.933329999996681e+000	 1.266639997208098e+000	 1.403982933800767e+001
0	 3.933329999996682e+000	 1.333299999983334e+000	 1.422167626753114e+001
0	 4.000000000000000e+000	 6.666972226472175e-001	 9.124160339141303e+000
0	 4.000000000000002e+000	 7.333579753122048e-001	 9.802239778088485e+000
0	 4.000000000000001e+000	 8.000185779984418e-001	 1.042725577643068e+001
0	 4.000000000000000e+000	 8.666790473703454e-001	 1.099799612883664e+001
0	 4.000000000000000e+000	 9.333394000923323e-001	 1.151324871893541e+001
0	 3.999999999999999e+000	 9.999996528288188e-001	 1.197180151931904e+001
0	 4.000000000000001e+000	 1.066659822244222e+000	 1.237244259154498e+001
0	 3.999999999999999e+000	 1.133319925002959e+000	 1.271396008613817e+001
0	 4.000000000000001e+000	 1.199979977769445e+000	 1.299514224259270e+001
0	 4.000000000000000e+000	 1.266639997208098e+000	 1.321477738937326e+001
0	 3.999999999999999e+000	 1.333299999983334e+000	 1.337165394391618e+001
0	 3.333299999983334e+000	 1.333299999983334e+000	 2.492538288126703e+001
0	 3.333299999983334e+000	 1.399969999982150e+000	 2.508607164729562e+001
0	 3.333299999983334e+000	 1.466639999981867e+000	 2.513331326164328e+001
0	 3.333299999983334e+000	 1.533309999982383e+000	 2.506706399788374e+001
0	 3.333299999983333e+000	 1.599979999983599e+000	 2.488728012958963e+001
0	 3.333299999983334e+000	 1.666649999985416e+000	 2.459391793033242e+001
0	 3.333299999983334e+000	 1.733319999987733e+000	 2.418693367368260e+001
0	 3.333299999983334e+000	 1.799989999990450e+000	 2.366628363320950e+001
0	 3.333299999983334e+000	 1.866659999993466e+000	 2.303192408248141e+001
0	 3.333299999983334e+000	 1.933329999996683e+000	 2.228381129506547e+001
0	 3.333299999983334e+000	 2.000000000000000e+000	 2.142190154452780e+001
0	 3.399969999982149e+000	 1.333299999983334e+000	 2.372082855311347e+001
0	 3.399969999982150e+000	 1.399969999982150e+000	 2.387809820214993e+001
0	 3.399969999982150e+000	 1.466639999981867e+000	 2.392816075151193e+001
0	 3.399969999982150e+000	 1.533309999982383e+000	 2.387122262269297e+001
0	 3.399969999982150e+000	 1.599979999983600e+000	 2.370749023718548e+001
0	 3.399969999982150e+000	 1.666649999985416e+000	 2.343717001648095e+001
0	 3.399969999982150e+000	 1.733319999987733e+000	 2.306046838206983e+001
0	 3.399969999982150e+000	 1.799989999990450e+000	 2.257759175544158e+001
0	 3.399969999982150e+000	 1.866659999993466e+000	 2.198874655808466e+001
0	 3.399969999982150e+000	 1.933329999996683e+000	 2.129413921148651e+001
0	 3.399969999982150e+000	 2.000000000000000e+000	 2.049397613713355e+001
0	 3.466639999981866e+000	 1.333299999983334e+000	 2.247027695800779e+001
0	 3.466639999981866e+000	 1.399969999982150e+000	 2.262447689541677e+001
0	 3.466639999981866e+000	 1.466639999981866e+000	 2.267829684605817e+001
0	 3.466639999981866e+000	 1.533309999982382e+000	 2.263215388046188e+001
0	 3.466639999981865e+000	 1.599979999983599e+000	 2.248646506915692e+001
0	 3.466639999981866e+000	 1.666649999985416e+000	 2.224164748267135e+001
0	 3.466639999981866e+000	 1.733319999987733e+000	 2.189811819153234e+001
0	 3.466639999981866e+000	 1.799989999990450e+000	 2.145629426626610e+001
0	 3.466639999981866e+000	 1.866659999993466e+000	 2.091659277739796e+001
0	 3.466639999981866e+000	 1.933329999996684e+000	 2.027943079545232e+001
0	 3.466639999981866e+000	 2.000000000000000e+000	 1.954522539095262e+001
0	 3.533309999982381e+000	 1.333299999983334e+000	 2.119507552392537e+001
0	 3.533309999982382e+000	 1.399969999982150e+000	 2.134625230616756e+001
0	 3.533309999982383e+000	 1.466639999981866e+000	 2.140435174205883e+001
0	 3.533309999982382e+000	 1.533309999982383e+000	 2.136996205228213e+001
0	 3.533309999982383e+000	 1.599979999983600e+000	 2.124367145751974e+001
0	 3.533309999982382e+000	 1.666649999985416e+000	 2.102606817845296e+001
0	 3.533309999982382e+000	 1.733319999987733e+000	 2.071774043576233e+001
0	 3.533309999982382e+000	 1.799989999990450e+000	 2.031927645012755e+001
0	 3.533309999982382e+000	 1.866659999993466e+000	 1.983126444222743e+001
0	 3.533309999982383e+000	 1.933329999996683e+000	 1.925429263274004e+001
0	 3.533309999982383e+000	 2.000000000000000e+000	 1.858894924234254e+001
0	 3.599979999983598e+000	 1.333299999983334e+000	 1.991657167884149e+001
0	 3.599979999983598e+000	 1.399969999982150e+000	 2.006446901347367e+001
0	 3.599979999983599e+000	 1.466639999981866e+000	 2.012695563629068e+001
0	 3.599979999983599e+000	 1.533309999982383e+000	 2.010475141924532e+001
0	 3.599979999983598e+000	 1.599979999983599e+000	 1.999857623428964e+001
0	 3.599979999983598e+000	 1.666649999985416e+000	 1.980914995337501e+001
0	 3.599979999983600e+000	 1.733319999987733e+000	 1.953719244845194e+001
0	 3.599979999983597e+000	 1.799989999990449e+000	 1.918342359147029e+001
0	 3.599979999983599e+000	 1.866659999993466e+000	 1.874856325437910e+001
0	 3.599979999983598e+000	 1.933329999996683e+000	 1.823333130912672e+001
0	 3.599979999983599e+000	 2.000000000000001e+000	 1.763844762766068e+001
0	 3.666649999985415e+000	 1.333299999983333e+000	 1.865611285073138e+001
0	 3.666649999985415e+000	 1.399969999982150e+000	 1.880017159640635e+001
0	 3.666649999985415e+000	 1.466639999981867e+000	 1.886673872553040e+001
0	 3.666649999985416e+000	 1.533309999982383e+000	 1.885662626244281e+001
0	 3.666649999985415e+000	 1.599979999983600e+000	 1.877064623148219e+001
0	 3.666649999985415e+000	 1.666649999985416e+000	 1.860961065698655e+001
0	 3.666649999985415e+000	 1.733319999987733e+000	 1.837433156329313e+001
0	 3.666649999985415e+000	 1.799989999990449e+000	 1.806562097473859e+001
0	 3.666649999985415e+000	 1.866659999993466e+000	 1.768429091565886e+001
0	 3.666649999985415e+000	 1.933329999996683e+000	 1.723115341038926e+001
0	 3.666649999985414e+000	 2.000000000000000e+000	 1.670702048326439e+001
0	 3.733319999987732e+000	 1.333299999983334e+000	 1.743504646757023e+001
0	 3.733319999987732e+000	 1.399969999982150e+000	 1.757440463403680e+001
0	 3.733319999987732e+000	 1.466639999981866e+000	 1.764433120655457e+001
0	 3.733319999987732e+000	 1.533309999982383e+000	 1.764569086296597e+001
0	 3.733319999987731e+000	 1.599979999983599e+000	 1.757934828111289e+001
0	 3.733319999987732e+000	 1.666649999985416e+000	 1.744616813883659e+001
0	 3.733319999987732e+000	 1.733319999987733e+000	 1.724701511397781e+001
0	 3.733319999987732e+000	 1.799989999990450e+000	 1.698275388437659e+001
0	 3.733319999987732e+000	 1.866659999993466e+000	 1.665424912787250e+001
0	 3.733319999987732e+000	 1.933329999996683e+000	 1.626236552230448e+001
0	 3.733319999987732e+000	 2.000000000000000e+000	 1.580796774551086e+001
0	 3.799989999990448e+000	 1.333299999983334e+000	 1.627471995733311e+001
0	 3.799989999990449e+000	 1.399969999982150e+000	 1.640821270543611e+001
0	 3.799989999990448e+000	 1.466639999981866e+000	 1.648036327613966e+001
0	 3.799989999990448e+000	 1.533309999982383e+000	 1.649204950190606e+001
0	 3.799989999990448e+000	 1.599979999983599e+000	 1.644414921519708e+001
0	 3.799989999990449e+000	 1.666649999985416e+000	 1.633754024847403e+001
0	 3.799989999990449e+000	 1.733319999987733e+000	 1.617310043419769e+001
0	 3.799989999990448e+000	 1.799989999990450e+000	 1.595170760482833e+001
0	 3.799989999990448e+000	 1.866659999993466e+000	 1.567423959282571e+001
0	 3.799989999990449e+000	 1.933329999996683e+000	 1.534157423064908e+001
0	 3.799989999990448e+000	 2.000000000000000e+000	 1.495458935075718e+001
0	 3.866659999993464e+000	 1.333299999983334e+000	 1.519648074799508e+001
0	 3.866659999993465e+000	 1.399969999982150e+000	 1.532264038967533e+001
0	 3.866659999993464e+000	 1.466639999981866e+000	 1.539546513106208e+001
0	 3.866659999993465e+000	 1.533309999982383e+000	 1.541580646035416e+001
0	 3.866659999993464e+000	 1.599979999983599e+000	 1.538451586575001e+001
0	 3.866659999993463e+000	 1.666649999985416e+000	 1.530244483544761e+001
0	 3.866659999993464e+000	 1.733319999987733e+000	 1.517044485764447e+001
0	 3.866659999993465e+000	 1.799989999990450e+000	 1.498936742053772e+001
0	 3.866659999993465e+000	 1.866659999993467e+000	 1.476006401232404e+001
0	 3.866659999993465e+000	 1.933329999996683e+000	 1.448338612119963e+001
0	 3.866659999993465e+000	 2.000000000000000e+000	 1.416018523536031e+001
0	 3.933329999996682e+000	 1.333299999983334e+000	 1.422167626753114e+001
0	 3.933329999996682e+000	 1.399969999982150e+000	 1.433873226582539e+001
0	 3.933329999996682e+000	 1.466639999981866e+000	 1.441026696809809e+001
0	 3.933329999996682e+000	 1.533309999982383e+000	 1.443706601940134e+001
0	 3.933329999996681e+000	 1.599979999983600e+000	 1.441991506478684e+001
0	 3.933329999996682e+000	 1.666649999985416e+000	 1.435959974930595e+001
0	 3.933329999996681e+000	 1.733319999987733e+000	 1.425690571800966e+001
0	 3.933329999996681e+000	 1.799989999990450e+000	 1.411261861594856e+001
0	 3.933329999996682e+000	 1.866659999993466e+000	 1.392752408817293e+001
0	 3.933329999996682e+000	 1.933329999996683e+000	 1.370240777973261e+001
0	 3.933329999996681e+000	 2.000000000000000e+000	 1.343805533567715e+001
0	 3.999999999999999e+000	 1.333299999983334e+000	 1.337165394391618e+001
0	 4.000000000000000e+000	 1.399969999982150e+000	 1.347753291295715e+001
0	 4.000000000000002e+000	 1.466639999981866e+000	 1.354539898402391e+001
0	 4.000000000000000e+000	 1.533309999982383e+000	 1.357593246013848e+001
0	 4.000000000000001e+000	 1.599979999983599e+000	 1.356981364432257e+001
0	 4.000000000000001e+000	 1.666649999985416e+000	 1.352772283959759e+001
0	 4.000000000000001e+000	 1.733319999987733e+000	 1.345034034898464e+001
0	 4.000000000000001e+000	 1.799989999990450e+000	 1.333834647550451e+001
0	 4.000000000000000e+000	 1.866659999993467e+000	 1.319242152217770e+001
0	 4.000000000000001e+000	 1.933329999996683e+000	 1.301324579202439e+001
0	 4.000000000000001e+000	 2.000000000000000e+000	 1.280149958806445e+001
0	 3.333299999983334e+000	 2.000000000000000e+000	 2.142190154452780e+001
0	 3.333299999983333e+000	 2.066670000003317e+000	 2.052193849722233e+001
0	 3.333299999983334e+000	 2.133340000006534e+000	 1.965918267139200e+001
0	 3.333299999983335e+000	 2.200010000009550e+000	 1.883286561843573e+001
0	 3.333299999983334e+000	 2.266680000012267e+000	 1.804221888975275e+001
0	 3.333299999983334e+000	 2.333350000014584e+000	 1.728647403674255e+001
0	 3.333299999983334e+000	 2.400020000016401e+000	 1.656486261080494e+001
0	 3.333299999983334e+000	 2.466690000017617e+000	 1.587661616333998e+001
0	 3.333299999983334e+000	 2.533360000018134e+000	 1.522096624574798e+001
0	 3.333299999983334e+000	 2.600030000017851e+000	 1.459714440942958e+001
0	 3.333299999983334e+000	 2.666700000016667e+000	 1.400438220578568e+001
0	 3.399969999982150e+000	 2.000000000000000e+000	 2.049397613713355e+001
0	 3.399969999982150e+000	 2.066670000003318e+000	 1.965894231681484e+001
0	 3.399969999982150e+000	 2.133340000006534e+000	 1.885913393137890e+001
0	 3.399969999982150e+000	 2.200010000009551e+000	 1.809387420090099e+001
0	 3.399969999982150e+000	 2.266680000012267e+000	 1.736248634545658e+001
0	 3.399969999982150e+000	 2.333350000014584e+000	 1.666429358512139e+001
0	 3.399969999982150e+000	 2.400020000016401e+000	 1.599861913997146e+001
0	 3.399969999982150e+000	 2.466690000017616e+000	 1.536478623008305e+001
0	 3.399969999982150e+000	 2.533360000018133e+000	 1.476211807553273e+001
0	 3.399969999982150e+000	 2.600030000017851e+000	 1.418993789639728e+001
0	 3.399969999982150e+000	 2.666700000016666e+000	 1.364756891275380e+001
0	 3.466639999981866e+000	 2.000000000000000e+000	 1.954522539095262e+001
0	 3.466639999981866e+000	 2.066670000003318e+000	 1.877932844254087e+001
0	 3.466639999981866e+000	 2.133340000006534e+000	 1.804641840930231e+001
0	 3.466639999981866e+000	 2.200010000009550e+000	 1.734590223242485e+001
0	 3.466639999981866e+000	 2.266680000012266e+000	 1.667718685309665e+001
0	 3.466639999981866e+000	 2.333350000014584e+000	 1.603967921250613e+001
0	 3.466639999981866e+000	 2.400020000016401e+000	 1.543278625184192e+001
0	 3.466639999981866e+000	 2.466690000017617e+000	 1.485591491229296e+001
0	 3.466639999981867e+000	 2.533360000018134e+000	 1.430847213504841e+001
0	 3.466639999981866e+000	 2.600030000017849e+000	 1.378986486129767e+001
0	 3.466639999981867e+000	 2.666700000016666e+000	 1.329950003223044e+001
0	 3.533309999982383e+000	 2.000000000000000e+000	 1.858894924234254e+001
0	 3.533309999982382e+000	 2.066670000003316e+000	 1.789506274126169e+001
0	 3.533309999982382e+000	 2.133340000006534e+000	 1.723172459576453e+001
0	 3.533309999982382e+000	 2.200010000009550e+000	 1.659841752058803e+001
0	 3.533309999982382e+000	 2.266680000012267e+000	 1.599462423046945e+001
0	 3.533309999982382e+000	 2.333350000014584e+000	 1.541982744014629e+001
0	 3.533309999982382e+000	 2.400020000016401e+000	 1.487350986435629e+001
0	 3.533309999982382e+000	 2.466690000017617e+000	 1.435515421783736e+001
0	 3.533309999982383e+000	 2.533360000018134e+000	 1.386424321532773e+001
0	 3.533309999982382e+000	 2.600030000017850e+000	 1.340025957156582e+001
0	 3.533309999982382e+000	 2.666700000016667e+000	 1.296268600129029e+001
0	 3.599979999983599e+000	 2.000000000000001e+000	 1.763844762766068e+001
0	 3.599979999983598e+000	 2.066670000003316e+000	 1.701811107983848e+001
0	 3.599979999983599e+000	 2.133340000006534e+000	 1.642574098136778e+001
0	 3.599979999983599e+000	 2.200010000009550e+000	 1.586088787297116e+001
0	 3.599979999983598e+000	 2.266680000012267e+000	 1.532310229537136e+001
0	 3.599979999983599e+000	 2.333350000014584e+000	 1.481193478929137e+001
0	 3.599979999983598e+000	 2.400020000016401e+000	 1.432693589545441e+001
0	 3.599979999983599e+000	 2.466690000017617e+000	 1.386765615458385e+001
0	 3.599979999983599e+000	 2.533360000018134e+000	 1.343364610740334e+001
0	 3.599979999983599e+000	 2.600030000017851e+000	 1.302445629463672e+001
0	 3.599979999983599e+000	 2.666700000016667e+000	 1.263963725700804e+001
0	 3.666649999985414e+000	 2.000000000000000e+000	 1.670702048326439e+001
0	 3.666649999985414e+000	 2.066670000003316e+000	 1.616043932513223e+001
0	 3.666649999985415e+000	 2.133340000006534e+000	 1.563915605671420e+001
0	 3.666649999985415e+000	 2.200010000009550e+000	 1.514278109715479e+001
0	 3.666649999985415e+000	 2.266680000012267e+000	 1.467092486559869e+001
0	 3.666649999985415e+000	 2.333350000014583e+000	 1.422319778119075e+001
0	 3.666649999985415e+000	 2.400020000016400e+000	 1.379921026307608e+001
0	 3.666649999985415e+000	 2.466690000017617e+000	 1.339857273039994e+001
0	 3.666649999985415e+000	 2.533360000018134e+000	 1.302089560230778e+001
0	 3.666649999985415e+000	 2.600030000017851e+000	 1.266578929794527e+001
0	 3.666649999985415e+000	 2.666700000016666e+000	 1.233286423645828e+001
0	 3.733319999987732e+000	 2.000000000000000e+000	 1.580796774551086e+001
0	 3.733319999987733e+000	 2.066670000003317e+000	 1.533401334400394e+001
0	 3.733319999987732e+000	 2.133340000006534e+000	 1.488265831240585e+001
0	 3.733319999987732e+000	 2.200010000009550e+000	 1.445356500071940e+001
0	 3.733319999987731e+000	 2.266680000012266e+000	 1.404639575894765e+001
0	 3.733319999987732e+000	 2.333350000014584e+000	 1.366081293709372e+001
0	 3.733319999987731e+000	 2.400020000016400e+000	 1.329647888516102e+001
0	 3.733319999987732e+000	 2.466690000017617e+000	 1.295305595315305e+001
0	 3.733319999987732e+000	 2.533360000018134e+000	 1.263020649107355e+001
0	 3.733319999987733e+000	 2.600030000017851e+000	 1.232759284892636e+001
0	 3.733319999987732e+000	 2.666700000016666e+000	 1.204487737671556e+001
0	 3.799989999990448e+000	 2.000000000000000e+000	 1.495458935075718e+001
0	 3.799989999990449e+000	 2.066670000003318e+000	 1.455079900331442e+001
0	 3.799989999990448e+000	 2.133340000006534e+000	 1.416693623904462e+001
0	 3.799989999990448e+000	 2.200010000009550e+000	 1.380270739124535e+001
0	 3.799989999990448e+000	 2.266680000012268e+000	 1.345781879321435e+001
0	 3.799989999990449e+000	 2.333350000014584e+000	 1.313197677824950e+001
0	 3.799989999990448e+000	 2.400020000016401e+000	 1.282488767964885e+001
0	 3.799989999990448e+000	 2.466690000017617e+000	 1.253625783071057e+001
0	 3.799989999990448e+000	 2.533360000018133e+000	 1.226579356473305e+001
0	 3.799989999990448e+000	 2.600030000017850e+000	 1.201320121501476e+001
0	 3.799989999990448e+000	 2.666700000016666e+000	 1.177818711485436e+001
0	 3.866659999993465e+000	 2.000000000000000e+000	 1.416018523536031e+001
0	 3.866659999993464e+000	 2.066670000003317e+000	 1.382276216992441e+001
0	 3.866659999993465e+000	 2.133340000006534e+000	 1.350267832723237e+001
0	 3.866659999993465e+000	 2.200010000009550e+000	 1.319967607631290e+001
0	 3.866659999993464e+000	 2.266680000012267e+000	 1.291349778619486e+001
0	 3.866659999993465e+000	 2.333350000014584e+000	 1.264388582590722e+001
0	 3.866659999993466e+000	 2.400020000016401e+000	 1.239058256447911e+001
0	 3.866659999993465e+000	 2.466690000017617e+000	 1.215333037093980e+001
0	 3.866659999993464e+000	 2.533360000018133e+000	 1.193187161431866e+001
0	 3.866659999993464e+000	 2.600030000017850e+000	 1.172594866364521e+001
0	 3.866659999993464e+000	 2.666700000016666e+000	 1.153530388794913e+001
0	 3.933329999996681e+000	 2.000000000000000e+000	 1.343805533567715e+001
0	 3.933329999996681e+000	 2.066670000003317e+000	 1.316186871069456e+001
0	 3.933329999996681e+000	 2.133340000006534e+000	 1.290057306757084e+001
0	 3.933329999996682e+000	 2.200010000009551e+000	 1.265393886350222e+001
0	 3.933329999996681e+000	 2.266680000012267e+000	 1.242173655568509e+001
0	 3.933329999996682e+000	 2.333350000014584e+000	 1.220373660131592e+001
0	 3.933329999996682e+000	 2.400020000016401e+000	 1.199970945759130e+001
0	 3.933329999996681e+000	 2.466690000017617e+000	 1.180942558170793e+001
0	 3.933329999996682e+000	 2.533360000018134e+000	 1.163265543086266e+001
0	 3.933329999996681e+000	 2.600030000017850e+000	 1.146916946225240e+001
0	 3.933329999996681e+000	 2.666700000016666e+000	 1.131873813307421e+001
0	 4.000000000000001e+000	 2.000000000000000e+000	 1.280149958806445e+001
0	 4.000000000000001e+000	 2.066670000003317e+000	 1.258008449248537e+001
0	 4.000000000000001e+000	 2.133340000006534e+000	 1.237130895066162e+001
0	 4.000000000000000e+000	 2.200010000009551e+000	 1.217496356039338e+001
0	 4.000000000000001e+000	 2.266680000012268e+000	 1.199083891948090e+001
0	 4.000000000000000e+000	 2.333350000014584e+000	 1.181872562572454e+001
0	 4.000000000000000e+000	 2.400020000016400e+000	 1.165841427692476e+001
0	 4.000000000000001e+000	 2.466690000017617e+000	 1.150969547088211e+001
0	 4.000000000000001e+000	 2.533360000018134e+000	 1.137235980539725e+001
0	 4.000000000000000e+000	 2.600030000017850e+000	 1.124619787827090e+001
0	 4.000000000000000e+000	 2.666700000016667e+000	 1.113100028730393e+001
0	 3.333299999983334e+000	 2.666700000016667e+000	 1.400438220578568e+001
0	 3.333299999983333e+000	 2.733360000014532e+000	 1.345323993867832e+001
0	 3.333299999983334e+000	 2.800020000011600e+000	 1.295444096709966e+001
0	 3.333299999983334e+000	 2.866680000008067e+000	 1.250772128199392e+001
0	 3.333299999983334e+000	 2.933340000004133e+000	 1.211281687430440e+001
0	 3.333299999983334e+000	 3.000000000000000e+000	 1.176946373497341e+001
0	 3.333299999983334e+000	 3.066659999995868e+000	 1.147739785494229e+001
0	 3.333299999983333e+000	 3.133319999991934e+000	 1.123635522515144e+001
0	 3.333299999983333e+000	 3.199979999988400e+000	 1.104607183654033e+001
0	 3.333299999983334e+000	 3.266639999985468e+000	 1.090628368004741e+001
0	 3.333299999983334e+000	 3.333299999983334e+000	 1.081672674661023e+001
0	 3.399969999982150e+000	 2.666700000016666e+000	 1.364756891275380e+001
0	 3.399969999982150e+000	 2.733360000014534e+000	 1.314424103071819e+001
0	 3.399969999982150e+000	 2.800020000011598e+000	 1.268930631156169e+001
0	 3.399969999982149e+000	 2.866680000008067e+000	 1.228250865626218e+001
0	 3.399969999982150e+000	 2.933340000004133e+000	 1.192359196579666e+001
0	 3.399969999982150e+000	 3.000000000000000e+000	 1.161230014114126e+001
0	 3.399969999982150e+000	 3.066659999995866e+000	 1.134837708327116e+001
0	 3.399969999982149e+000	 3.133319999991933e+000	 1.113156669316076e+001
0	 3.399969999982150e+000	 3.199979999988400e+000	 1.096161287178348e+001
0	 3.399969999982150e+000	 3.266639999985468e+000	 1.083825952011191e+001
0	 3.399969999982149e+000	 3.333299999983333e+000	 1.076125053911772e+001
0	 3.466639999981867e+000	 2.666700000016666e+000	 1.329950003223044e+001
0	 3.466639999981867e+000	 2.733360000014534e+000	 1.284529688997698e+001
0	 3.466639999981866e+000	 2.800020000011600e+000	 1.243526381827702e+001
0	 3.466639999981866e+000	 2.866680000008065e+000	 1.206915585859646e+001
0	 3.466639999981866e+000	 2.933340000004133e+000	 1.174672805240038e+001
0	 3.466639999981865e+000	 2.999999999999999e+000	 1.146773544115304e+001
0	 3.466639999981866e+000	 3.066659999995866e+000	 1.123193306631791e+001
0	 3.466639999981866e+000	 3.133319999991933e+000	 1.103907596935763e+001
0	 3.466639999981866e+000	 3.199979999988401e+000	 1.088891919173410e+001
0	 3.466639999981867e+000	 3.266639999985468e+000	 1.078121777490832e+001
0	 3.466639999981866e+000	 3.333299999983334e+000	 1.071572676034059e+001
0	 3.533309999982382e+000	 2.666700000016667e+000	 1.296268600129030e+001
0	 3.533309999982383e+000	 2.733360000014533e+000	 1.255816504748539e+001
0	 3.533309999982382e+000	 2.800020000011600e+000	 1.219340302899450e+001
0	 3.533309999982383e+000	 2.866680000008067e+000	 1.186816935822592e+001
0	 3.533309999982383e+000	 2.933340000004133e+000	 1.158223344758714e+001
0	 3.533309999982382e+000	 3.000000000000000e+000	 1.133536470948497e+001
0	 3.533309999982383e+000	 3.066659999995867e+000	 1.112733255632550e+001
0	 3.533309999982383e+000	 3.133319999991934e+000	 1.095790640051405e+001
0	 3.533309999982382e+000	 3.199979999988401e+000	 1.082685565445529e+001
0	 3.533309999982383e+000	 3.266639999985468e+000	 1.073394973055311e+001
0	 3.533309999982382e+000	 3.333299999983334e+000	 1.067895804121071e+001
0	 3.599979999983599e+000	 2.666700000016667e+000	 1.263963725700804e+001
0	 3.599979999983599e+000	 2.733360000014533e+000	 1.228460303427407e+001
0	 3.599979999983599e+000	 2.800020000011600e+000	 1.196481348546296e+001
0	 3.599979999983598e+000	 2.866680000008067e+000	 1.168005562437965e+001
0	 3.599979999983598e+000	 2.933340000004133e+000	 1.143011646482850e+001
0	 3.599979999983599e+000	 3.000000000000000e+000	 1.121478302061323e+001
0	 3.599979999983598e+000	 3.066659999995866e+000	 1.103384230553691e+001
0	 3.599979999983599e+000	 3.133319999991934e+000	 1.088708133340196e+001
0	 3.599979999983599e+000	 3.199979999988401e+000	 1.077428711801016e+001
0	 3.599979999983599e+000	 3.266639999985467e+000	 1.069524667316267e+001
0	 3.599979999983598e+000	 3.333299999983333e+000	 1.064974701266000e+001
0	 3.666649999985415e+000	 2.666700000016666e+000	 1.233286423645828e+001
0	 3.666649999985415e+000	 2.733360000014533e+000	 1.202636838137367e+001
0	 3.666649999985415e+000	 2.800020000011600e+000	 1.175058472943111e+001
0	 3.666649999985415e+000	 2.866680000008065e+000	 1.150532112628670e+001
0	 3.666649999985415e+000	 2.933340000004133e+000	 1.129038541759599e+001
0	 3.666649999985415e+000	 3.000000000000000e+000	 1.110558544901399e+001
0	 3.666649999985415e+000	 3.066659999995867e+000	 1.095072906619511e+001
0	 3.666649999985415e+000	 3.133319999991933e+000	 1.082562411479327e+001
0	 3.666649999985415e+000	 3.199979999988401e+000	 1.073007844046176e+001
0	 3.666649999985415e+000	 3.266639999985468e+000	 1.066389988885337e+001
0	 3.666649999985415e+000	 3.333299999983334e+000	 1.062689630562033e+001
0	 3.733319999987732e+000	 2.666700000016666e+000	 1.204487737671556e+001
0	 3.733319999987731e+000	 2.733360000014532e+000	 1.178521861981471e+001
0	 3.733319999987731e+000	 2.800020000011599e+000	 1.155180630264768e+001
0	 3.733319999987732e+000	 2.866680000008066e+000	 1.134447233317609e+001
0	 3.733319999987732e+000	 2.933340000004133e+000	 1.116304861936108e+001
0	 3.733319999987731e+000	 3.000000000000000e+000	 1.100736706916333e+001
0	 3.733319999987732e+000	 3.066659999995867e+000	 1.087725959054301e+001
0	 3.733319999987732e+000	 3.133319999991933e+000	 1.077255809145987e+001
0	 3.733319999987731e+000	 3.199979999988401e+000	 1.069309447987312e+001
0	 3.733319999987732e+000	 3.266639999985467e+000	 1.063870066374157e+001
0	 3.733319999987732e+000	 3.333299999983334e+000	 1.060920855102351e+001
0	 3.799989999990448e+000	 2.666700000016666e+000	 1.177818711485436e+001
0	 3.799989999990448e+000	 2.733360000014533e+000	 1.156291128062770e+001
0	 3.799989999990448e+000	 2.800020000011600e+000	 1.136956774686133e+001
0	 3.799989999990448e+000	 2.866680000008066e+000	 1.119801571427680e+001
0	 3.799989999990448e+000	 2.933340000004133e+000	 1.104811438359522e+001
0	 3.799989999990448e+000	 3.000000000000000e+000	 1.091972295553733e+001
0	 3.799989999990448e+000	 3.066659999995866e+000	 1.081270063082348e+001
0	 3.799989999990448e+000	 3.133319999991934e+000	 1.072690661017361e+001
0	 3.799989999990448e+000	 3.199979999988400e+000	 1.066220009430727e+001
0	 3.799989999990449e+000	 3.266639999985467e+000	 1.061844028394362e+001
0	 3.799989999990448e+000	 3.333299999983334e+000	 1.059548637980142e+001
0	 3.866659999993464e+000	 2.666700000016666e+000	 1.153530388794913e+001
0	 3.866659999993464e+000	 2.733360000014533e+000	 1.136120389484309e+001
0	 3.866659999993465e+000	 2.800020000011601e+000	 1.120495860382067e+001
0	 3.866659999993464e+000	 2.866680000008067e+000	 1.106645773881773e+001
0	 3.866659999993464e+000	 2.933340000004133e+000	 1.094559102376978e+001
0	 3.866659999993465e+000	 3.000000000000000e+000	 1.084224818261203e+001
0	 3.866659999993464e+000	 3.066659999995866e+000	 1.075631893927937e+001
0	 3.866659999993465e+000	 3.133319999991934e+000	 1.068769301770633e+001
0	 3.866659999993465e+000	 3.199979999988400e+000	 1.063626014182718e+001
0	 3.866659999993465e+000	 3.266639999985467e+000	 1.060191003557583e+001
0	 3.866659999993464e+000	 3.333299999983334e+000	 1.058453242288586e+001
0	 3.933329999996681e+000	 2.666700000016666e+000	 1.131873813307421e+001
0	 3.933329999996682e+000	 2.733360000014532e+000	 1.118185399349126e+001
0	 3.933329999996682e+000	 2.800020000011600e+000	 1.105906841527425e+001
0	 3.933329999996681e+000	 2.866680000008066e+000	 1.095030487602777e+001
0	 3.933329999996681e+000	 2.933340000004133e+000	 1.085548685335614e+001
0	 3.933329999996681e+000	 3.000000000000000e+000	 1.077453782486343e+001
0	 3.933329999996682e+000	 3.066659999995867e+000	 1.070738126815348e+001
0	 3.933329999996681e+000	 3.133319999991933e+000	 1.065394066082983e+001
0	 3.933329999996682e+000	 3.199979999988400e+000	 1.061413948049580e+001
0	 3.933329999996682e+000	 3.266639999985467e+000	 1.058790120475447e+001
0	 3.933329999996681e+000	 3.333299999983334e+000	 1.057514931120861e+001
0	 4.000000000000000e+000	 2.666700000016667e+000	 1.113100028730393e+001
0	 4.000000000000000e+000	 2.733360000014533e+000	 1.102661910760254e+001
0	 4.000000000000000e+000	 2.800020000011599e+000	 1.093298672297057e+001
0	 4.000000000000001e+000	 2.866680000008067e+000	 1.085006359513573e+001
0	 4.000000000000000e+000	 2.933340000004133e+000	 1.077781018582559e+001
0	 4.000000000000000e+000	 3.000000000000000e+000	 1.071618695676750e+001
0	 4.000000000000000e+000	 3.066659999995867e+000	 1.066515436968860e+001
0	 4.000000000000000e+000	 3.133319999991933e+000	 1.062467288631587e+001
0	 4.000000000000001e+000	 3.199979999988401e+000	 1.059470296837608e+001
0	 4.000000000000001e+000	 3.266639999985467e+000	 1.057520507759582e+001
0	 4.000000000000000e+000	 3.333299999983333e+000	 1.056613967570147e+001
0	 3.333299999983334e+000	 3.333299999983334e+000	 1.081672674661023e+001
0	 3.333299999983333e+000	 3.399969999982149e+000	 1.075421437270558e+001
0	 3.333299999983333e+000	 3.466639999981866e+000	 1.069590383534074e+001
0	 3.333299999983334e+000	 3.533309999982383e+000	 1.064201799514788e+001
0	 3.333299999983334e+000	 3.599979999983599e+000	 1.059277971275927e+001
0	 3.333299999983334e+000	 3.666649999985416e+000	 1.054841184880723e+001
0	 3.333299999983334e+000	 3.733319999987733e+000	 1.050913726392416e+001
0	 3.333299999983334e+000	 3.799989999990450e+000	 1.047517881874250e+001
0	 3.333299999983334e+000	 3.866659999993467e+000	 1.044675937389479e+001
0	 3.333299999983333e+000	 3.933329999996682e+000	 1.042410179001360e+001
0	 3.333299999983333e+000	 4.000000000000000e+000	 1.040742892773157e+001
0	 3.399969999982149e+000	 3.333299999983333e+000	 1.076125053911772e+001
0	 3.399969999982150e+000	 3.399969999982150e+000	 1.070882586440256e+001
0	 3.399969999982150e+000	 3.466639999981867e+000	 1.065957467926042e+001
0	 3.399969999982150e+000	 3.533309999982383e+000	 1.061374048880133e+001
0	 3.399969999982150e+000	 3.599979999983600e+000	 1.057156679813537e+001
0	 3.399969999982150e+000	 3.666649999985417e+000	 1.053329711237269e+001
0	 3.399969999982150e+000	 3.733319999987732e+000	 1.049917493662347e+001
0	 3.399969999982150e+000	 3.799989999990450e+000	 1.046944377599794e+001
0	 3.399969999982150e+000	 3.866659999993467e+000	 1.044434713560642e+001
0	 3.399969999982150e+000	 3.933329999996684e+000	 1.042412852055925e+001
0	 3.399969999982150e+000	 4.000000000000000e+000	 1.040903143596683e+001
0	 3.466639999981866e+000	 3.333299999983334e+000	 1.071572676034059e+001
0	 3.466639999981866e+000	 3.399969999982150e+000	 1.067227806334604e+001
0	 3.466639999981867e+000	 3.466639999981867e+000	 1.063105154913986e+001
0	 3.466639999981866e+000	 3.533309999982382e+000	 1.059230417167061e+001
0	 3.466639999981866e+000	 3.599979999983600e+000	 1.055629288488697e+001
0	 3.466639999981866e+000	 3.666649999985417e+000	 1.052327464273761e+001
0	 3.466639999981866e+000	 3.733319999987733e+000	 1.049350639917122e+001
0	 3.466639999981866e+000	 3.799989999990450e+000	 1.046724510813660e+001
0	 3.466639999981866e+000	 3.866659999993466e+000	 1.044474772358254e+001
0	 3.466639999981866e+000	 3.933329999996683e+000	 1.042627119945790e+001
0	 3.466639999981866e+000	 4.000000000000001e+000	 1.041207248971156e+001
0	 3.533309999982382e+000	 3.333299999983334e+000	 1.067895804121071e+001
0	 3.533309999982383e+000	 3.399969999982150e+000	 1.064343114548672e+001
0	 3.533309999982382e+000	 3.466639999981867e+000	 1.060925963345042e+001
0	 3.533309999982381e+000	 3.533309999982382e+000	 1.057670671224968e+001
0	 3.533309999982383e+000	 3.599979999983600e+000	 1.054603558903246e+001
0	 3.533309999982381e+000	 3.666649999985415e+000	 1.051750947094668e+001
0	 3.533309999982382e+000	 3.733319999987732e+000	 1.049139156514036e+001
0	 3.533309999982382e+000	 3.799989999990450e+000	 1.046794507876150e+001
0	 3.533309999982382e+000	 3.866659999993467e+000	 1.044743321895817e+001
0	 3.533309999982383e+000	 3.933329999996684e+000	 1.043011919287844e+001
0	 3.533309999982383e+000	 4.000000000000000e+000	 1.041626620767043e+001
0	 3.599979999983598e+000	 3.333299999983333e+000	 1.064974701266000e+001
0	 3.599979999983598e+000	 3.399969999982150e+000	 1.062114528677530e+001
0	 3.599979999983599e+000	 3.466639999981867e+000	 1.059312412066347e+001
0	 3.599979999983600e+000	 3.533309999982384e+000	 1.056594577903246e+001
0	 3.599979999983598e+000	 3.599979999983600e+000	 1.053987252659020e+001
0	 3.599979999983599e+000	 3.666649999985416e+000	 1.051516662804465e+001
0	 3.599979999983598e+000	 3.733319999987732e+000	 1.049209034810381e+001
0	 3.599979999983598e+000	 3.799989999990448e+000	 1.047090595147570e+001
0	 3.599979999983598e+000	 3.866659999993467e+000	 1.045187570286833e+001
0	 3.599979999983599e+000	 3.933329999996684e+000	 1.043526186698977e+001
0	 3.599979999983598e+000	 4.000000000000000e+000	 1.042132670854810e+001
0	 3.666649999985415e+000	 3.333299999983334e+000	 1.062689630562033e+001
0	 3.666649999985415e+000	 3.399969999982150e+000	 1.060428066316243e+001
0	 3.666649999985415e+000	 3.466639999981866e+000	 1.058157019925039e+001
0	 3.666649999985416e+000	 3.533309999982384e+000	 1.055901904051287e+001
0	 3.666649999985415e+000	 3.599979999983600e+000	 1.053688131357858e+001
0	 3.666649999985415e+000	 3.666649999985416e+000	 1.051541114507622e+001
0	 3.666649999985416e+000	 3.733319999987733e+000	 1.049486266163452e+001
0	 3.666649999985415e+000	 3.799989999990450e+000	 1.047548998988222e+001
0	 3.666649999985415e+000	 3.866659999993467e+000	 1.045754725644806e+001
0	 3.666649999985415e+000	 3.933329999996683e+000	 1.044128858796081e+001
0	 3.666649999985415e+000	 4.000000000000001e+000	 1.042696811104925e+001
0	 3.733319999987732e+000	 3.333299999983334e+000	 1.060920855102351e+001
0	 3.733319999987733e+000	 3.399969999982150e+000	 1.059169745059878e+001
0	 3.733319999987732e+000	 3.466639999981866e+000	 1.057352305768249e+001
0	 3.733319999987732e+000	 3.533309999982383e+000	 1.055492416518483e+001
0	 3.733319999987730e+000	 3.599979999983599e+000	 1.053613956601597e+001
0	 3.733319999987732e+000	 3.666649999985417e+000	 1.051740805308610e+001
0	 3.733319999987732e+000	 3.733319999987733e+000	 1.049896841930542e+001
0	 3.733319999987732e+000	 3.799989999990451e+000	 1.048105945758411e+001
0	 3.733319999987732e+000	 3.866659999993467e+000	 1.046391996083239e+001
0	 3.733319999987732e+000	 3.933329999996684e+000	 1.044778872196046e+001
0	 3.733319999987732e+000	 4.000000000000001e+000	 1.043290453387855e+001
0	 3.799989999990448e+000	 3.333299999983334e+000	 1.059548637980142e+001
0	 3.799989999990449e+000	 3.399969999982149e+000	 1.058225582503499e+001
0	 3.799989999990447e+000	 3.466639999981866e+000	 1.056790788443113e+001
0	 3.799989999990448e+000	 3.533309999982383e+000	 1.055265882154226e+001
0	 3.799989999990449e+000	 3.599979999983600e+000	 1.053672489992075e+001
0	 3.799989999990449e+000	 3.666649999985417e+000	 1.052032238311901e+001
0	 3.799989999990448e+000	 3.733319999987733e+000	 1.050366753468944e+001
0	 3.799989999990448e+000	 3.799989999990450e+000	 1.048697661818443e+001
0	 3.799989999990448e+000	 3.866659999993467e+000	 1.047046589715638e+001
0	 3.799989999990448e+000	 3.933329999996684e+000	 1.045435163515768e+001
0	 3.799989999990448e+000	 4.000000000000001e+000	 1.043885009574071e+001
0	 3.866659999993464e+000	 3.333299999983334e+000	 1.058453242288586e+001
0	 3.866659999993465e+000	 3.399969999982150e+000	 1.057481596242169e+001
0	 3.866659999993465e+000	 3.466639999981867e+000	 1.056364986796764e+001
0	 3.866659999993465e+000	 3.533309999982383e+000	 1.055122067807905e+001
0	 3.866659999993465e+000	 3.599979999983600e+000	 1.053771493131128e+001
0	 3.866659999993464e+000	 3.666649999985416e+000	 1.052331916621967e+001
0	 3.866659999993465e+000	 3.733319999987733e+000	 1.050821992135955e+001
0	 3.866659999993464e+000	 3.799989999990449e+000	 1.049260373528624e+001
0	 3.866659999993464e+000	 3.866659999993466e+000	 1.047665714655508e+001
0	 3.866659999993465e+000	 3.933329999996684e+000	 1.046056669372137e+001
0	 3.866659999993465e+000	 4.000000000000000e+000	 1.044451891534042e+001
0	 3.933329999996681e+000	 3.333299999983334e+000	 1.057514931120861e+001
0	 3.933329999996682e+000	 3.399969999982151e+000	 1.056823803870949e+001
0	 3.933329999996682e+000	 3.466639999981867e+000	 1.055967419676331e+001
0	 3.933329999996682e+000	 3.533309999982382e+000	 1.054960740328912e+001
0	 3.933329999996682e+000	 3.599979999983600e+000	 1.053818727620593e+001
0	 3.933329999996681e+000	 3.666649999985416e+000	 1.052556343343278e+001
0	 3.933329999996681e+000	 3.733319999987733e+000	 1.051188549288867e+001
0	 3.933329999996681e+000	 3.799989999990450e+000	 1.049730307249259e+001
0	 3.933329999996682e+000	 3.866659999993466e+000	 1.048196579016354e+001
0	 3.933329999996682e+000	 3.933329999996684e+000	 1.046602326382049e+001
0	 3.933329999996682e+000	 4.000000000000000e+000	 1.044962511138242e+001
0	 4.000000000000000e+000	 3.333299999983333e+000	 1.056613967570146e+001
0	 4.000000000000000e+000	 3.399969999982150e+000	 1.056138222984899e+001
0	 4.000000000000001e+000	 3.466639999981866e+000	 1.055490605928946e+001
0	 4.000000000000000e+000	 3.533309999982383e+000	 1.054681666566633e+001
0	 4.000000000000000e+000	 3.599979999983600e+000	 1.053721955062305e+001
0	 4.000000000000001e+000	 3.666649999985417e+000	 1.052622021580305e+001
0	 4.000000000000001e+000	 3.733319999987733e+000	 1.051392416284975e+001
0	 4.000000000000001e+000	 3.799989999990450e+000	 1.050043689340655e+001
0	 4.000000000000000e+000	 3.866659999993467e+000	 1.048586390911684e+001
0	 3.999999999999999e+000	 3.933329999996683e+000	 1.047031071162400e+001
0	 4.000000000000000e+000	 4.000000000000000e+000	 1.045388280257139e+001
0	 3.333299999983333e+000	 4.000000000000000e+000	 1.040742892773157e+001
0	 3.333299999983334e+000	 4.066670000003317e+000	 1.039343444873825e+001
0	 3.333299999983334e+000	 4.133340000006534e+000	 1.037876966774951e+001
0	 3.333299999983335e+000	 4.200010000009551e+000	 1.036359392493766e+001
0	 3.333299999983334e+000	 4.266680000012268e+000	 1.034806656047500e+001
0	 3.333299999983334e+000	 4.333350000014583e+000	 1.033234691453382e+001
0	 3.333299999983334e+000	 4.400020000016401e+000	 1.031659432728640e+001
0	 3.333299999983333e+000	 4.466690000017617e+000	 1.030096813890504e+001
0	 3.333299999983334e+000	 4.533360000018134e+000	 1.028562768956208e+001
0	 3.333299999983334e+000	 4.600030000017851e+000	 1.027073231942978e+001
0	 3.333299999983333e+000	 4.666700000016666e+000	 1.025644136868048e+001
0	 3.399969999982150e+000	 4.000000000000000e+000	 1.040903143596683e+001
0	 3.399969999982150e+000	 4.066670000003317e+000	 1.039629140663103e+001
0	 3.399969999982150e+000	 4.133340000006534e+000	 1.038304022084675e+001
0	 3.399969999982150e+000	 4.200010000009551e+000	 1.036936577896410e+001
0	 3.399969999982150e+000	 4.266680000012267e+000	 1.035535598133309e+001
0	 3.399969999982150e+000	 4.333350000014584e+000	 1.034109872830381e+001
0	 3.399969999982149e+000	 4.400020000016400e+000	 1.032668192022631e+001
0	 3.399969999982150e+000	 4.466690000017616e+000	 1.031219345745064e+001
0	 3.399969999982149e+000	 4.533360000018131e+000	 1.029772124032687e+001
0	 3.399969999982150e+000	 4.600030000017850e+000	 1.028335316920507e+001
0	 3.399969999982150e+000	 4.666700000016666e+000	 1.026917714443527e+001
0	 3.466639999981866e+000	 4.000000000000001e+000	 1.041207248971156e+001
0	 3.466639999981866e+000	 4.066670000003318e+000	 1.039993677464100e+001
0	 3.466639999981865e+000	 4.133340000006533e+000	 1.038749569562563e+001
0	 3.466639999981866e+000	 4.200010000009550e+000	 1.037477589823725e+001
0	 3.466639999981866e+000	 4.266680000012267e+000	 1.036180402804769e+001
0	 3.466639999981865e+000	 4.333350000014584e+000	 1.034860673062877e+001
0	 3.466639999981866e+000	 4.400020000016402e+000	 1.033521065155230e+001
0	 3.466639999981866e+000	 4.466690000017618e+000	 1.032164243639009e+001
0	 3.466639999981866e+000	 4.533360000018133e+000	 1.030792873071395e+001
0	 3.466639999981866e+000	 4.600030000017851e+000	 1.029409618009572e+001
0	 3.466639999981866e+000	 4.666700000016666e+000	 1.028017143010717e+001
0	 3.533309999982383e+000	 4.000000000000000e+000	 1.041626620767043e+001
0	 3.533309999982383e+000	 4.066670000003318e+000	 1.040420478651337e+001
0	 3.533309999982382e+000	 4.133340000006534e+000	 1.039207369837943e+001
0	 3.533309999982382e+000	 4.200010000009551e+000	 1.037984851910618e+001
0	 3.533309999982382e+000	 4.266680000012267e+000	 1.036750482453120e+001
0	 3.533309999982382e+000	 4.333350000014583e+000	 1.035501819049205e+001
0	 3.533309999982383e+000	 4.400020000016403e+000	 1.034236419282629e+001
0	 3.533309999982381e+000	 4.466690000017615e+000	 1.032951840737151e+001
0	 3.533309999982383e+000	 4.533360000018135e+000	 1.031645640996525e+001
0	 3.533309999982383e+000	 4.600030000017849e+000	 1.030315377644508e+001
0	 3.533309999982381e+000	 4.666700000016665e+000	 1.028958608264855e+001
0	 3.599979999983598e+000	 4.000000000000000e+000	 1.042132670854810e+001
0	 3.599979999983598e+000	 4.066670000003316e+000	 1.040892967599329e+001
0	 3.599979999983599e+000	 4.133340000006532e+000	 1.039671183540146e+001
0	 3.599979999983598e+000	 4.200010000009550e+000	 1.038460787791993e+001
0	 3.599979999983598e+000	 4.266680000012268e+000	 1.037255249469601e+001
0	 3.599979999983599e+000	 4.333350000014584e+000	 1.036048037687702e+001
0	 3.599979999983598e+000	 4.400020000016402e+000	 1.034832621561026e+001
0	 3.599979999983599e+000	 4.466690000017617e+000	 1.033602470204304e+001
0	 3.599979999983598e+000	 4.533360000018133e+000	 1.032351052732269e+001
0	 3.599979999983598e+000	 4.600030000017853e+000	 1.031071838259649e+001
0	 3.599979999983599e+000	 4.666700000016667e+000	 1.029758295901175e+001
0	 3.666649999985415e+000	 4.000000000000001e+000	 1.042696811104925e+001
0	 3.666649999985415e+000	 4.066670000003317e+000	 1.041394567682596e+001
0	 3.666649999985415e+000	 4.133340000006534e+000	 1.040134771298505e+001
0	 3.666649999985415e+000	 4.200010000009550e+000	 1.038907821102755e+001
0	 3.666649999985415e+000	 4.266680000012268e+000	 1.037704116245453e+001
0	 3.666649999985415e+000	 4.333350000014582e+000	 1.036514055876705e+001
0	 3.666649999985415e+000	 4.400020000016401e+000	 1.035328039146613e+001
0	 3.666649999985416e+000	 4.466690000017618e+000	 1.034136465205284e+001
0	 3.666649999985415e+000	 4.533360000018133e+000	 1.032929733202822e+001
0	 3.666649999985416e+000	 4.600030000017850e+000	 1.031698242289331e+001
0	 3.666649999985415e+000	 4.666700000016665e+000	 1.030432391614916e+001
0	 3.733319999987732e+000	 4.000000000000001e+000	 1.043290453387855e+001
0	 3.733319999987732e+000	 4.066670000003318e+000	 1.041908702275658e+001
0	 3.733319999987732e+000	 4.133340000006535e+000	 1.040591893742350e+001
0	 3.733319999987732e+000	 4.200010000009550e+000	 1.039328375477811e+001
0	 3.733319999987731e+000	 4.266680000012267e+000	 1.038106495171920e+001
0	 3.733319999987732e+000	 4.333350000014584e+000	 1.036914600514553e+001
0	 3.733319999987732e+000	 4.400020000016402e+000	 1.035741039195588e+001
0	 3.733319999987732e+000	 4.466690000017617e+000	 1.034574158904903e+001
0	 3.733319999987732e+000	 4.533360000018135e+000	 1.033402307332379e+001
0	 3.733319999987732e+000	 4.600030000017851e+000	 1.032213832167888e+001
0	 3.733319999987732e+000	 4.666700000016666e+000	 1.030997081101313e+001
0	 3.799989999990448e+000	 4.000000000000001e+000	 1.043885009574071e+001
0	 3.799989999990449e+000	 4.066670000003317e+000	 1.042418794753034e+001
0	 3.799989999990448e+000	 4.133340000006534e+000	 1.041036311501018e+001
0	 3.799989999990448e+000	 4.200010000009550e+000	 1.039724874552070e+001
0	 3.799989999990448e+000	 4.266680000012267e+000	 1.038471798640242e+001
0	 3.799989999990448e+000	 4.333350000014583e+000	 1.037264398499584e+001
0	 3.799989999990448e+000	 4.400020000016401e+000	 1.036089988864146e+001
0	 3.799989999990447e+000	 4.466690000017617e+000	 1.034935884467979e+001
0	 3.799989999990449e+000	 4.533360000018134e+000	 1.033789400045133e+001
0	 3.799989999990449e+000	 4.600030000017850e+000	 1.032637850329657e+001
0	 3.799989999990448e+000	 4.666700000016666e+000	 1.031468550055603e+001
0	 3.866659999993465e+000	 4.000000000000000e+000	 1.044451891534042e+001
0	 3.866659999993464e+000	 4.066670000003316e+000	 1.042908268489249e+001
0	 3.866659999993465e+000	 4.133340000006534e+000	 1.041461785203841e+001
0	 3.866659999993464e+000	 4.200010000009551e+000	 1.040099741960439e+001
0	 3.866659999993464e+000	 4.266680000012268e+000	 1.038809439041665e+001
0	 3.866659999993464e+000	 4.333350000014585e+000	 1.037578176730141e+001
0	 3.866659999993466e+000	 4.400020000016401e+000	 1.036393255308487e+001
0	 3.866659999993465e+000	 4.466690000017617e+000	 1.035241975059326e+001
0	 3.866659999993464e+000	 4.533360000018133e+000	 1.034111636265281e+001
0	 3.866659999993464e+000	 4.600030000017849e+000	 1.032989539208973e+001
0	 3.866659999993464e+000	 4.666700000016665e+000	 1.031862984173023e+001
0	 3.933329999996682e+000	 4.000000000000000e+000	 1.044962511138241e+001
0	 3.933329999996681e+000	 4.066670000003316e+000	 1.043360546858825e+001
0	 3.933329999996682e+000	 4.133340000006535e+000	 1.041862075480156e+001
0	 3.933329999996682e+000	 4.200010000009551e+000	 1.040455401337829e+001
0	 3.933329999996681e+000	 4.266680000012268e+000	 1.039128828767433e+001
0	 3.933329999996682e+000	 4.333350000014584e+000	 1.037870662104562e+001
0	 3.933329999996681e+000	 4.400020000016401e+000	 1.036669205684807e+001
0	 3.933329999996682e+000	 4.466690000017618e+000	 1.035512763843762e+001
0	 3.933329999996682e+000	 4.533360000018134e+000	 1.034389640917018e+001
0	 3.933329999996682e+000	 4.600030000017851e+000	 1.033288141240172e+001
0	 3.933329999996682e+000	 4.666700000016666e+000	 1.032196569148813e+001
0	 4.000000000000000e+000	 4.000000000000000e+000	 1.045388280257139e+001
0	 4.000000000000000e+000	 4.066670000003317e+000	 1.043759053236284e+001
0	 4.000000000000000e+000	 4.133340000006534e+000	 1.042230942959300e+001
0	 4.000000000000000e+000	 4.200010000009550e+000	 1.040794276319149e+001
0	 4.000000000000001e+000	 4.266680000012268e+000	 1.039439380208791e+001
0	 4.000000000000000e+000	 4.333350000014584e+000	 1.038156581521190e+001
0	 4.000000000000000e+000	 4.400020000016401e+000	 1.036936207149306e+001
0	 4.000000000000000e+000	 4.466690000017617e+000	 1.035768583986102e+001
0	 4.000000000000001e+000	 4.533360000018134e+000	 1.034644038924541e+001
0	 4.000000000000000e+000	 4.600030000017851e+000	 1.033552898857589e+001
0	 4.000000000000000e+000	 4.666700000016666e+000	 1.032485490678207e+001
0	 3.333299999983333e+000	 4.666700000016666e+000	 1.025644136868048e+001
0	 3.333299999983334e+000	 4.733360000014533e+000	 1.024301204478631e+001
0	 3.333299999983334e+000	 4.800020000011601e+000	 1.023052874421814e+001
0	 3.333299999983333e+000	 4.866680000008066e+000	 1.021889786136521e+001
0	 3.333299999983335e+000	 4.933340000004134e+000	 1.020802579061675e+001
0	 3.333299999983334e+000	 5.000000000000001e+000	 1.019781892636198e+001
0	 3.333299999983334e+000	 5.066659999995867e+000	 1.018818366299008e+001
0	 3.333299999983334e+000	 5.133319999991934e+000	 1.017902639489029e+001
0	 3.333299999983334e+000	 5.199979999988400e+000	 1.017025351645180e+001
0	 3.333299999983333e+000	 5.266639999985467e+000	 1.016177142206376e+001
0	 3.333299999983334e+000	 5.333299999983335e+000	 1.015348650611538e+001
0	 3.399969999982150e+000	 4.666700000016666e+000	 1.026917714443527e+001
0	 3.399969999982151e+000	 4.733360000014534e+000	 1.025556066075083e+001
0	 3.399969999982150e+000	 4.800020000011601e+000	 1.024276821781958e+001
0	 3.399969999982149e+000	 4.866680000008066e+000	 1.023073954589277e+001
0	 3.399969999982149e+000	 4.933340000004132e+000	 1.021941437522169e+001
0	 3.399969999982150e+000	 5.000000000000001e+000	 1.020873243605757e+001
0	 3.399969999982150e+000	 5.066659999995867e+000	 1.019863345865164e+001
0	 3.399969999982149e+000	 5.133319999991934e+000	 1.018905717325517e+001
0	 3.399969999982150e+000	 5.199979999988400e+000	 1.017994331011934e+001
0	 3.399969999982150e+000	 5.266639999985468e+000	 1.017123159949538e+001
0	 3.399969999982149e+000	 5.333299999983332e+000	 1.016286177163449e+001
0	 3.466639999981866e+000	 4.666700000016666e+000	 1.028017143010717e+001
0	 3.466639999981866e+000	 4.733360000014534e+000	 1.026657108359535e+001
0	 3.466639999981866e+000	 4.800020000011600e+000	 1.025366872740800e+001
0	 3.466639999981866e+000	 4.866680000008067e+000	 1.024143276568939e+001
0	 3.466639999981866e+000	 4.933340000004135e+000	 1.022983160258376e+001
0	 3.466639999981866e+000	 4.999999999999999e+000	 1.021883364223537e+001
0	 3.466639999981866e+000	 5.066659999995866e+000	 1.020840728878845e+001
0	 3.466639999981866e+000	 5.133319999991933e+000	 1.019852094638721e+001
0	 3.466639999981866e+000	 5.199979999988401e+000	 1.018914301917586e+001
0	 3.466639999981866e+000	 5.266639999985468e+000	 1.018024191129858e+001
0	 3.466639999981866e+000	 5.333299999983334e+000	 1.017178602689959e+001
0	 3.533309999982381e+000	 4.666700000016665e+000	 1.028958608264855e+001
0	 3.533309999982382e+000	 4.733360000014534e+000	 1.027616849470635e+001
0	 3.533309999982382e+000	 4.800020000011601e+000	 1.026332329326566e+001
0	 3.533309999982384e+000	 4.866680000008067e+000	 1.025104289439468e+001
0	 3.533309999982383e+000	 4.933340000004134e+000	 1.023931971416162e+001
0	 3.533309999982382e+000	 4.999999999999999e+000	 1.022814616863466e+001
0	 3.533309999982382e+000	 5.066659999995867e+000	 1.021751467388200e+001
0	 3.533309999982383e+000	 5.133319999991936e+000	 1.020741764597178e+001
0	 3.533309999982382e+000	 5.199979999988400e+000	 1.019784750097218e+001
0	 3.533309999982382e+000	 5.266639999985468e+000	 1.018879665495133e+001
0	 3.533309999982382e+000	 5.333299999983335e+000	 1.018025752397737e+001
0	 3.599979999983599e+000	 4.666700000016667e+000	 1.029758295901175e+001
0	 3.599979999983598e+000	 4.733360000014534e+000	 1.028447807547034e+001
0	 3.599979999983599e+000	 4.800020000011600e+000	 1.027182493567482e+001
0	 3.599979999983599e+000	 4.866680000008065e+000	 1.025963530564828e+001
0	 3.599979999983599e+000	 4.933340000004134e+000	 1.024792095141386e+001
0	 3.599979999983598e+000	 4.999999999999999e+000	 1.023669363899465e+001
0	 3.599979999983598e+000	 5.066659999995866e+000	 1.022596513441376e+001
0	 3.599979999983598e+000	 5.133319999991934e+000	 1.021574720369424e+001
0	 3.599979999983598e+000	 5.199979999988400e+000	 1.020605161285918e+001
0	 3.599979999983598e+000	 5.266639999985467e+000	 1.019689012793161e+001
0	 3.599979999983598e+000	 5.333299999983333e+000	 1.018827451493458e+001
0	 3.666649999985415e+000	 4.666700000016665e+000	 1.030432391614916e+001
0	 3.666649999985415e+000	 4.733360000014534e+000	 1.029162500727382e+001
0	 3.666649999985415e+000	 4.800020000011601e+000	 1.027926667491770e+001
0	 3.666649999985415e+000	 4.866680000008065e+000	 1.026727537308982e+001
0	 3.666649999985414e+000	 4.933340000004133e+000	 1.025567755579913e+001
0	 3.666649999985415e+000	 5.000000000000001e+000	 1.024449967705461e+001
0	 3.666649999985415e+000	 5.066659999995867e+000	 1.023376819086526e+001
0	 3.666649999985415e+000	 5.133319999991935e+000	 1.022350955123997e+001
0	 3.666649999985415e+000	 5.199979999988400e+000	 1.021375021218770e+001
0	 3.666649999985415e+000	 5.266639999985467e+000	 1.020451662771738e+001
0	 3.666649999985415e+000	 5.333299999983333e+000	 1.019583525183793e+001
0	 3.733319999987732e+000	 4.666700000016666e+000	 1.030997081101313e+001
0	 3.733319999987732e+000	 4.733360000014534e+000	 1.029773447150326e+001
0	 3.733319999987731e+000	 4.800020000011599e+000	 1.028574153127659e+001
0	 3.733319999987733e+000	 4.866680000008066e+000	 1.027402847035891e+001
0	 3.733319999987731e+000	 4.933340000004131e+000	 1.026263176877605e+001
0	 3.733319999987731e+000	 4.999999999999999e+000	 1.025158790655380e+001
0	 3.733319999987732e+000	 5.066659999995868e+000	 1.024093336371797e+001
0	 3.733319999987732e+000	 5.133319999991934e+000	 1.023070462029432e+001
0	 3.733319999987732e+000	 5.199979999988401e+000	 1.022093815630864e+001
0	 3.733319999987732e+000	 5.266639999985467e+000	 1.021167045178666e+001
0	 3.733319999987731e+000	 5.333299999983333e+000	 1.020293798675416e+001
0	 3.799989999990448e+000	 4.666700000016666e+000	 1.031468550055603e+001
0	 3.799989999990448e+000	 4.733360000014532e+000	 1.030293164954520e+001
0	 3.799989999990448e+000	 4.800020000011600e+000	 1.029134252503372e+001
0	 3.799989999990448e+000	 4.866680000008067e+000	 1.027995997109520e+001
0	 3.799989999990448e+000	 4.933340000004133e+000	 1.026882583180326e+001
0	 3.799989999990447e+000	 4.999999999999999e+000	 1.025798195123147e+001
0	 3.799989999990449e+000	 5.066659999995868e+000	 1.024747017345342e+001
0	 3.799989999990448e+000	 5.133319999991934e+000	 1.023733234254270e+001
0	 3.799989999990448e+000	 5.199979999988400e+000	 1.022761030257284e+001
0	 3.799989999990449e+000	 5.266639999985467e+000	 1.021834589761742e+001
0	 3.799989999990449e+000	 5.333299999983334e+000	 1.020958097174999e+001
0	 3.866659999993464e+000	 4.666700000016665e+000	 1.031862984173023e+001
0	 3.866659999993465e+000	 4.733360000014533e+000	 1.030734172278611e+001
0	 3.866659999993465e+000	 4.800020000011601e+000	 1.029616267647136e+001
0	 3.866659999993464e+000	 4.866680000008066e+000	 1.028513524893833e+001
0	 3.866659999993465e+000	 4.933340000004133e+000	 1.027430198633938e+001
0	 3.866659999993465e+000	 5.000000000000000e+000	 1.026370543482686e+001
0	 3.866659999993465e+000	 5.066659999995866e+000	 1.025338814055311e+001
0	 3.866659999993465e+000	 5.133319999991935e+000	 1.024339264967044e+001
0	 3.866659999993465e+000	 5.199979999988400e+000	 1.023376150833119e+001
0	 3.866659999993465e+000	 5.266639999985468e+000	 1.022453726268765e+001
0	 3.866659999993464e+000	 5.333299999983333e+000	 1.021576245889215e+001
0	 3.933329999996682e+000	 4.666700000016666e+000	 1.032196569148813e+001
0	 3.933329999996682e+000	 4.733360000014532e+000	 1.031108987261252e+001
0	 3.933329999996682e+000	 4.800020000011600e+000	 1.030029500587177e+001
0	 3.933329999996682e+000	 4.866680000008067e+000	 1.028961967752792e+001
0	 3.933329999996682e+000	 4.933340000004133e+000	 1.027910247384307e+001
0	 3.933329999996682e+000	 5.000000000000001e+000	 1.026878198107925e+001
0	 3.933329999996681e+000	 5.066659999995867e+000	 1.025869678549853e+001
0	 3.933329999996682e+000	 5.133319999991934e+000	 1.024888547336294e+001
0	 3.933329999996682e+000	 5.199979999988400e+000	 1.023938663093454e+001
0	 3.933329999996682e+000	 5.266639999985467e+000	 1.023023884447535e+001
0	 3.933329999996682e+000	 5.333299999983334e+000	 1.022148070024739e+001
0	 4.000000000000000e+000	 4.666700000016666e+000	 1.032485490678207e+001
0	 4.000000000000000e+000	 4.733360000014533e+000	 1.031430128041092e+001
0	 4.000000000000000e+000	 4.800020000011600e+000	 1.030383253351719e+001
0	 4.000000000000001e+000	 4.866680000008067e+000	 1.029347863050361e+001
0	 3.999999999999999e+000	 4.933340000004133e+000	 1.028326953577293e+001
0	 3.999999999999999e+000	 5.000000000000000e+000	 1.027323521372789e+001
0	 4.000000000000000e+000	 5.066659999995866e+000	 1.026340562877119e+001
0	 4.000000000000000e+000	 5.133319999991934e+000	 1.025381074530558e+001
0	 4.000000000000001e+000	 5.199979999988400e+000	 1.024448052773378e+001
0	 4.000000000000000e+000	 5.266639999985467e+000	 1.023544494045850e+001
0	 4.000000000000000e+000	 5.333299999983334e+000	 1.022673394788245e+001
0	 3.333299999983334e+000	 5.333299999983335e+000	 1.015348650611538e+001
0	 3.333299999983334e+000	 5.399969999982148e+000	 1.014535086044423e+001
0	 3.333299999983335e+000	 5.466639999981867e+000	 1.013740998529420e+001
0	 3.333299999983334e+000	 5.533309999982384e+000	 1.012970668940614e+001
0	 3.333299999983334e+000	 5.599979999983601e+000	 1.012228378152088e+001
0	 3.333299999983334e+000	 5.666649999985414e+000	 1.011518407037932e+001
0	 3.333299999983334e+000	 5.733319999987733e+000	 1.010845036472232e+001
0	 3.333299999983333e+000	 5.799989999990449e+000	 1.010212547329074e+001
0	 3.333299999983333e+000	 5.866659999993468e+000	 1.009625220482546e+001
0	 3.333299999983334e+000	 5.933329999996684e+000	 1.009087336806740e+001
0	 3.333299999983333e+000	 5.999999999999998e+000	 1.008603177175740e+001
0	 3.399969999982149e+000	 5.333299999983332e+000	 1.016286177163449e+001
0	 3.399969999982150e+000	 5.399969999982149e+000	 1.015473983591217e+001
0	 3.399969999982150e+000	 5.466639999981866e+000	 1.014683373834833e+001
0	 3.399969999982150e+000	 5.533309999982383e+000	 1.013917241525146e+001
0	 3.399969999982150e+000	 5.599979999983599e+000	 1.013178480293004e+001
0	 3.399969999982150e+000	 5.666649999985416e+000	 1.012469983769259e+001
0	 3.399969999982150e+000	 5.733319999987733e+000	 1.011794645584759e+001
0	 3.399969999982150e+000	 5.799989999990447e+000	 1.011155359370358e+001
0	 3.399969999982150e+000	 5.866659999993466e+000	 1.010555018756907e+001
0	 3.399969999982150e+000	 5.933329999996683e+000	 1.009996517375255e+001
0	 3.399969999982150e+000	 6.000000000000001e+000	 1.009482748856256e+001
0	 3.466639999981866e+000	 5.333299999983334e+000	 1.017178602689959e+001
0	 3.466639999981866e+000	 5.399969999982150e+000	 1.016365362907609e+001
0	 3.466639999981867e+000	 5.466639999981867e+000	 1.015575774890100e+001
0	 3.466639999981866e+000	 5.533309999982382e+000	 1.014811523239882e+001
0	 3.466639999981865e+000	 5.599979999983598e+000	 1.014074292559411e+001
0	 3.466639999981866e+000	 5.666649999985417e+000	 1.013365767451139e+001
0	 3.466639999981866e+000	 5.733319999987733e+000	 1.012687632517524e+001
0	 3.466639999981867e+000	 5.799989999990451e+000	 1.012041572361020e+001
0	 3.466639999981866e+000	 5.866659999993467e+000	 1.011429271584082e+001
0	 3.466639999981866e+000	 5.933329999996685e+000	 1.010852414789165e+001
0	 3.466639999981866e+000	 6.000000000000001e+000	 1.010312686578728e+001
0	 3.533309999982382e+000	 5.333299999983335e+000	 1.018025752397737e+001
0	 3.533309999982383e+000	 5.399969999982149e+000	 1.017209622767452e+001
0	 3.533309999982383e+000	 5.466639999981865e+000	 1.016419078620325e+001
0	 3.533309999982382e+000	 5.533309999982382e+000	 1.015654773745254e+001
0	 3.533309999982383e+000	 5.599979999983600e+000	 1.014917361931141e+001
0	 3.533309999982382e+000	 5.666649999985417e+000	 1.014207496966883e+001
0	 3.533309999982383e+000	 5.733319999987733e+000	 1.013525832641383e+001
0	 3.533309999982382e+000	 5.799989999990449e+000	 1.012873022743539e+001
0	 3.533309999982382e+000	 5.866659999993466e+000	 1.012249721062252e+001
0	 3.533309999982382e+000	 5.933329999996683e+000	 1.011656581386423e+001
0	 3.533309999982383e+000	 6.000000000000000e+000	 1.011094257504955e+001
0	 3.599979999983598e+000	 5.333299999983333e+000	 1.018827451493458e+001
0	 3.599979999983598e+000	 5.399969999982149e+000	 1.018007161944595e+001
0	 3.599979999983600e+000	 5.466639999981866e+000	 1.017214161950612e+001
0	 3.599979999983599e+000	 5.533309999982384e+000	 1.016448252701695e+001
0	 3.599979999983598e+000	 5.599979999983600e+000	 1.015709235388029e+001
0	 3.599979999983598e+000	 5.666649999985416e+000	 1.014996911199801e+001
0	 3.599979999983598e+000	 5.733319999987733e+000	 1.014311081327194e+001
0	 3.599979999983598e+000	 5.799989999990449e+000	 1.013651546960398e+001
0	 3.599979999983599e+000	 5.866659999993468e+000	 1.013018109289597e+001
0	 3.599979999983598e+000	 5.933329999996683e+000	 1.012410569504980e+001
0	 3.599979999983599e+000	 6.000000000000001e+000	 1.011828728796735e+001
0	 3.666649999985415e+000	 5.333299999983333e+000	 1.019583525183793e+001
0	 3.666649999985415e+000	 5.399969999982151e+000	 1.018758379212891e+001
0	 3.666649999985415e+000	 5.466639999981864e+000	 1.017961901806068e+001
0	 3.666649999985415e+000	 5.533309999982385e+000	 1.017193219769637e+001
0	 3.666649999985415e+000	 5.599979999983601e+000	 1.016451459909909e+001
0	 3.666649999985415e+000	 5.666649999985416e+000	 1.015735749033199e+001
0	 3.666649999985416e+000	 5.733319999987733e+000	 1.015045213945818e+001
0	 3.666649999985415e+000	 5.799989999990449e+000	 1.014378981454081e+001
0	 3.666649999985415e+000	 5.866659999993467e+000	 1.013736178364299e+001
0	 3.666649999985415e+000	 5.933329999996684e+000	 1.013115931482790e+001
0	 3.666649999985415e+000	 5.999999999999998e+000	 1.012517367615864e+001
0	 3.733319999987731e+000	 5.333299999983333e+000	 1.020293798675416e+001
0	 3.733319999987733e+000	 5.399969999982150e+000	 1.019463673346192e+001
0	 3.733319999987732e+000	 5.466639999981866e+000	 1.018663175111797e+001
0	 3.733319999987732e+000	 5.533309999982384e+000	 1.017890934609511e+001
0	 3.733319999987731e+000	 5.599979999983598e+000	 1.017145582476615e+001
0	 3.733319999987731e+000	 5.666649999985416e+000	 1.016425749350388e+001
0	 3.733319999987731e+000	 5.733319999987733e+000	 1.015730065868113e+001
0	 3.733319999987732e+000	 5.799989999990450e+000	 1.015057162667068e+001
0	 3.733319999987731e+000	 5.866659999993466e+000	 1.014405670384537e+001
0	 3.733319999987732e+000	 5.933329999996684e+000	 1.013774219657802e+001
0	 3.733319999987732e+000	 6.000000000000000e+000	 1.013161441124144e+001
0	 3.799989999990449e+000	 5.333299999983334e+000	 1.020958097174999e+001
0	 3.799989999990449e+000	 5.399969999982148e+000	 1.020123443118350e+001
0	 3.799989999990448e+000	 5.466639999981866e+000	 1.019318858792905e+001
0	 3.799989999990448e+000	 5.533309999982381e+000	 1.018542656881753e+001
0	 3.799989999990449e+000	 5.599979999983600e+000	 1.017793150067981e+001
0	 3.799989999990449e+000	 5.666649999985418e+000	 1.017068651034679e+001
0	 3.799989999990448e+000	 5.733319999987732e+000	 1.016367472464938e+001
0	 3.799989999990448e+000	 5.799989999990449e+000	 1.015687927041846e+001
0	 3.799989999990448e+000	 5.866659999993468e+000	 1.015028327448494e+001
0	 3.799989999990449e+000	 5.933329999996684e+000	 1.014386986367970e+001
0	 3.799989999990448e+000	 6.000000000000000e+000	 1.013762216483369e+001
0	 3.866659999993464e+000	 5.333299999983333e+000	 1.021576245889215e+001
0	 3.866659999993465e+000	 5.399969999982149e+000	 1.020738087303218e+001
0	 3.866659999993465e+000	 5.466639999981866e+000	 1.019929829774498e+001
0	 3.866659999993465e+000	 5.533309999982382e+000	 1.019149646246793e+001
0	 3.866659999993464e+000	 5.599979999983599e+000	 1.018395709663842e+001
0	 3.866659999993463e+000	 5.666649999985416e+000	 1.017666192969382e+001
0	 3.866659999993465e+000	 5.733319999987733e+000	 1.016959269107154e+001
0	 3.866659999993464e+000	 5.799989999990449e+000	 1.016273111020895e+001
0	 3.866659999993466e+000	 5.866659999993469e+000	 1.015605891654348e+001
0	 3.866659999993465e+000	 5.933329999996684e+000	 1.014955783951249e+001
0	 3.866659999993465e+000	 6.000000000000000e+000	 1.014320960855339e+001
0	 3.933329999996682e+000	 5.333299999983334e+000	 1.022148070024739e+001
0	 3.933329999996681e+000	 5.399969999982149e+000	 1.021308004674649e+001
0	 3.933329999996681e+000	 5.466639999981867e+000	 1.020496964981682e+001
0	 3.933329999996681e+000	 5.533309999982383e+000	 1.019713162365068e+001
0	 3.933329999996681e+000	 5.599979999983599e+000	 1.018954808244033e+001
0	 3.933329999996681e+000	 5.666649999985417e+000	 1.018220114037807e+001
0	 3.933329999996682e+000	 5.733319999987733e+000	 1.017507291165621e+001
0	 3.933329999996682e+000	 5.799989999990448e+000	 1.016814551046702e+001
0	 3.933329999996682e+000	 5.866659999993466e+000	 1.016140105100281e+001
0	 3.933329999996682e+000	 5.933329999996683e+000	 1.015482164745589e+001
0	 3.933329999996682e+000	 5.999999999999998e+000	 1.014838941401853e+001
0	 4.000000000000000e+000	 5.333299999983334e+000	 1.022673394788244e+001
0	 4.000000000000000e+000	 5.399969999982148e+000	 1.021833594006496e+001
0	 4.000000000000002e+000	 5.466639999981868e+000	 1.021021141339565e+001
0	 4.000000000000000e+000	 5.533309999982382e+000	 1.020234464897010e+001
0	 4.000000000000001e+000	 5.599979999983600e+000	 1.019471992788389e+001
0	 4.000000000000001e+000	 5.666649999985416e+000	 1.018732153123266e+001
0	 4.000000000000001e+000	 5.733319999987733e+000	 1.018013374011198e+001
0	 4.000000000000000e+000	 5.799989999990448e+000	 1.017314083561748e+001
0	 4.000000000000001e+000	 5.866659999993468e+000	 1.016632709884476e+001
0	 4.000000000000000e+000	 5.933329999996682e+000	 1.015967681088943e+001
0	 4.000000000000000e+000	 6.000000000000001e+000	 1.015317425284709e+001
0	 3.333299999983333e+000	 5.999999999999998e+000	 1.008603177175740e+001
0	 3.333299999983333e+000	 6.066670000003317e+000	 1.008157285237764e+001
0	 3.333299999983333e+000	 6.133340000006531e+000	 1.007730533063828e+001
0	 3.333299999983334e+000	 6.200010000009550e+000	 1.007321694162239e+001
0	 3.333299999983334e+000	 6.266680000012269e+000	 1.006929542041299e+001
0	 3.333299999983334e+000	 6.333350000014584e+000	 1.006552850209311e+001
0	 3.333299999983334e+000	 6.400020000016401e+000	 1.006190392174578e+001
0	 3.333299999983334e+000	 6.466690000017618e+000	 1.005840941445405e+001
0	 3.333299999983334e+000	 6.533360000018134e+000	 1.005503271530098e+001
0	 3.333299999983334e+000	 6.600030000017851e+000	 1.005176155936955e+001
0	 3.333299999983333e+000	 6.666700000016665e+000	 1.004858368174286e+001
0	 3.399969999982150e+000	 6.000000000000001e+000	 1.009482748856256e+001
0	 3.399969999982150e+000	 6.066670000003313e+000	 1.009002354699241e+001
0	 3.399969999982150e+000	 6.133340000006532e+000	 1.008541530789721e+001
0	 3.399969999982150e+000	 6.200010000009552e+000	 1.008099502337825e+001
0	 3.399969999982150e+000	 6.266680000012269e+000	 1.007675494553676e+001
0	 3.399969999982151e+000	 6.333350000014587e+000	 1.007268732647403e+001
0	 3.399969999982150e+000	 6.400020000016400e+000	 1.006878441829132e+001
0	 3.399969999982150e+000	 6.466690000017618e+000	 1.006503847308989e+001
0	 3.399969999982150e+000	 6.533360000018132e+000	 1.006144174297103e+001
0	 3.399969999982150e+000	 6.600030000017850e+000	 1.005798648003601e+001
0	 3.399969999982150e+000	 6.666700000016666e+000	 1.005466493638609e+001
0	 3.466639999981866e+000	 6.000000000000001e+000	 1.010312686578728e+001
0	 3.466639999981866e+000	 6.066670000003317e+000	 1.009802115810083e+001
0	 3.466639999981866e+000	 6.133340000006534e+000	 1.009311352078179e+001
0	 3.466639999981867e+000	 6.200010000009552e+000	 1.008840011091936e+001
0	 3.466639999981866e+000	 6.266680000012266e+000	 1.008387708560271e+001
0	 3.466639999981866e+000	 6.333350000014584e+000	 1.007954060192101e+001
0	 3.466639999981866e+000	 6.400020000016401e+000	 1.007538681696342e+001
0	 3.466639999981866e+000	 6.466690000017618e+000	 1.007141188781916e+001
0	 3.466639999981866e+000	 6.533360000018134e+000	 1.006761197157740e+001
0	 3.466639999981866e+000	 6.600030000017850e+000	 1.006398322532731e+001
0	 3.466639999981867e+000	 6.666700000016669e+000	 1.006052180615808e+001
0	 3.533309999982383e+000	 6.000000000000000e+000	 1.011094257504955e+001
0	 3.533309999982383e+000	 6.066670000003317e+000	 1.010557521913444e+001
0	 3.533309999982382e+000	 6.133340000006533e+000	 1.010040674584670e+001
0	 3.533309999982382e+000	 6.200010000009550e+000	 1.009543660523308e+001
0	 3.533309999982382e+000	 6.266680000012268e+000	 1.009066424734038e+001
0	 3.533309999982381e+000	 6.333350000014585e+000	 1.008608912221531e+001
0	 3.533309999982383e+000	 6.400020000016402e+000	 1.008171067990467e+001
0	 3.533309999982382e+000	 6.466690000017618e+000	 1.007752837045522e+001
0	 3.533309999982383e+000	 6.533360000018136e+000	 1.007354164391373e+001
0	 3.533309999982383e+000	 6.600030000017850e+000	 1.006974995032700e+001
0	 3.533309999982382e+000	 6.666700000016667e+000	 1.006615273974177e+001
0	 3.599979999983599e+000	 6.000000000000001e+000	 1.011828728796735e+001
0	 3.599979999983598e+000	 6.066670000003318e+000	 1.011269526352485e+001
0	 3.599979999983598e+000	 6.133340000006532e+000	 1.010730175964666e+001
0	 3.599979999983598e+000	 6.200010000009550e+000	 1.010210890730681e+001
0	 3.599979999983598e+000	 6.266680000012266e+000	 1.009711883747932e+001
0	 3.599979999983599e+000	 6.333350000014584e+000	 1.009233368113824e+001
0	 3.599979999983598e+000	 6.400020000016400e+000	 1.008775556925758e+001
0	 3.599979999983599e+000	 6.466690000017616e+000	 1.008338663281139e+001
0	 3.599979999983598e+000	 6.533360000018133e+000	 1.007922900277371e+001
0	 3.599979999983599e+000	 6.600030000017851e+000	 1.007528481011858e+001
0	 3.599979999983599e+000	 6.666700000016668e+000	 1.007155618582003e+001
0	 3.666649999985415e+000	 5.999999999999998e+000	 1.012517367615864e+001
0	 3.666649999985415e+000	 6.066670000003318e+000	 1.011939082470361e+001
0	 3.666649999985415e+000	 6.133340000006533e+000	 1.011380533873636e+001
0	 3.666649999985415e+000	 6.200010000009550e+000	 1.010842141812787e+001
0	 3.666649999985415e+000	 6.266680000012267e+000	 1.010324326274912e+001
0	 3.666649999985415e+000	 6.333350000014584e+000	 1.009827507247107e+001
0	 3.666649999985415e+000	 6.400020000016402e+000	 1.009352104716470e+001
0	 3.666649999985416e+000	 6.466690000017619e+000	 1.008898538670101e+001
0	 3.666649999985416e+000	 6.533360000018135e+000	 1.008467229095098e+001
0	 3.666649999985416e+000	 6.600030000017851e+000	 1.008058595978559e+001
0	 3.666649999985415e+000	 6.666700000016666e+000	 1.007673059307585e+001
0	 3.733319999987732e+000	 6.000000000000000e+000	 1.013161441124144e+001
0	 3.733319999987732e+000	 6.066670000003316e+000	 1.012567143610230e+001
0	 3.733319999987732e+000	 6.133340000006533e+000	 1.011992425967050e+001
0	 3.733319999987732e+000	 6.200010000009552e+000	 1.011437853868364e+001
0	 3.733319999987732e+000	 6.266680000012268e+000	 1.010903992987929e+001
0	 3.733319999987732e+000	 6.333350000014586e+000	 1.010391408999508e+001
0	 3.733319999987731e+000	 6.400020000016399e+000	 1.009900667576859e+001
0	 3.733319999987732e+000	 6.466690000017619e+000	 1.009432334393744e+001
0	 3.733319999987732e+000	 6.533360000018135e+000	 1.008986975123923e+001
0	 3.733319999987733e+000	 6.600030000017851e+000	 1.008565155441158e+001
0	 3.733319999987732e+000	 6.666700000016666e+000	 1.008167441019211e+001
0	 3.799989999990448e+000	 6.000000000000000e+000	 1.013762216483369e+001
0	 3.799989999990448e+000	 6.066670000003319e+000	 1.013154663115250e+001
0	 3.799989999990448e+000	 6.133340000006533e+000	 1.012566529900381e+001
0	 3.799989999990448e+000	 6.200010000009551e+000	 1.011998466996147e+001
0	 3.799989999990448e+000	 6.266680000012268e+000	 1.011451124559943e+001
0	 3.799989999990449e+000	 6.333350000014584e+000	 1.010925152749157e+001
0	 3.799989999990448e+000	 6.400020000016402e+000	 1.010421201721178e+001
0	 3.799989999990448e+000	 6.466690000017616e+000	 1.009939921633401e+001
0	 3.799989999990449e+000	 6.533360000018135e+000	 1.009481962643212e+001
0	 3.799989999990449e+000	 6.600030000017850e+000	 1.009047974908007e+001
0	 3.799989999990448e+000	 6.666700000016664e+000	 1.008638608585175e+001
0	 3.866659999993465e+000	 6.000000000000000e+000	 1.014320960855339e+001
0	 3.866659999993464e+000	 6.066670000003315e+000	 1.013702594328578e+001
0	 3.866659999993465e+000	 6.133340000006534e+000	 1.013103523329096e+001
0	 3.866659999993464e+000	 6.200010000009551e+000	 1.012524421294875e+001
0	 3.866659999993465e+000	 6.266680000012268e+000	 1.011965961663909e+001
0	 3.866659999993465e+000	 6.333350000014584e+000	 1.011428817874182e+001
0	 3.866659999993465e+000	 6.400020000016401e+000	 1.010913663363684e+001
0	 3.866659999993465e+000	 6.466690000017617e+000	 1.010421171570404e+001
0	 3.866659999993464e+000	 6.533360000018134e+000	 1.009952015932332e+001
0	 3.866659999993465e+000	 6.600030000017849e+000	 1.009506869887458e+001
0	 3.866659999993464e+000	 6.666700000016666e+000	 1.009086406873769e+001
0	 3.933329999996682e+000	 5.999999999999998e+000	 1.014838941401853e+001
0	 3.933329999996682e+000	 6.066670000003318e+000	 1.014211890593373e+001
0	 3.933329999996682e+000	 6.133340000006533e+000	 1.013604083908667e+001
0	 3.933329999996682e+000	 6.200010000009552e+000	 1.013016156863284e+001
0	 3.933329999996681e+000	 6.266680000012267e+000	 1.012448744972781e+001
0	 3.933329999996682e+000	 6.333350000014585e+000	 1.011902483752712e+001
0	 3.933329999996682e+000	 6.400020000016402e+000	 1.011378008718631e+001
0	 3.933329999996681e+000	 6.466690000017615e+000	 1.010875955386091e+001
0	 3.933329999996682e+000	 6.533360000018136e+000	 1.010396959270651e+001
0	 3.933329999996682e+000	 6.600030000017851e+000	 1.009941655887864e+001
0	 3.933329999996681e+000	 6.666700000016666e+000	 1.009510680753286e+001
0	 4.000000000000000e+000	 6.000000000000001e+000	 1.015317425284709e+001
0	 4.000000000000000e+000	 6.066670000003314e+000	 1.014683505252794e+001
0	 4.000000000000001e+000	 6.133340000006534e+000	 1.014068889294565e+001
0	 4.000000000000000e+000	 6.200010000009551e+000	 1.013474113800111e+001
0	 4.000000000000001e+000	 6.266680000012268e+000	 1.012899715159518e+001
0	 4.000000000000000e+000	 6.333350000014584e+000	 1.012346229762876e+001
0	 3.999999999999999e+000	 6.400020000016398e+000	 1.011814194000272e+001
0	 4.000000000000000e+000	 6.466690000017617e+000	 1.011304144261797e+001
0	 4.000000000000000e+000	 6.533360000018133e+000	 1.010816616937535e+001
0	 4.000000000000000e+000	 6.600030000017848e+000	 1.010352148417581e+001
0	 4.000000000000000e+000	 6.666700000016665e+000	 1.009911275092020e+001
0	 3.333299999983333e+000	 6.666700000016665e+000	 1.004858368174286e+001
0	 3.333299999983334e+000	 6.733360000014534e+000	 1.004551225481010e+001
0	 3.333299999983334e+000	 6.800020000011601e+000	 1.004257384973892e+001
0	 3.333299999983333e+000	 6.866680000008064e+000	 1.003977771060647e+001
0	 3.333299999983334e+000	 6.933340000004133e+000	 1.003713308148994e+001
0	 3.333299999983333e+000	 6.999999999999999e+000	 1.003464920646652e+001
0	 3.333299999983335e+000	 7.066659999995867e+000	 1.003233532961336e+001
0	 3.333299999983334e+000	 7.133319999991936e+000	 1.003020069500760e+001
0	 3.333299999983334e+000	 7.199979999988401e+000	 1.002825454672643e+001
0	 3.333299999983334e+000	 7.266639999985467e+000	 1.002650612884699e+001
0	 3.333299999983335e+000	 7.333299999983336e+000	 1.002496468544642e+001
0	 3.399969999982150e+000	 6.666700000016666e+000	 1.005466493638609e+001
0	 3.399969999982150e+000	 6.733360000014531e+000	 1.005146967338498e+001
0	 3.399969999982150e+000	 6.800020000011599e+000	 1.004840250845803e+001
0	 3.399969999982150e+000	 6.866680000008066e+000	 1.004547104349571e+001
0	 3.399969999982150e+000	 6.933340000004133e+000	 1.004268288038853e+001
0	 3.399969999982150e+000	 6.999999999999999e+000	 1.004004562102695e+001
0	 3.399969999982150e+000	 7.066659999995865e+000	 1.003756686730144e+001
0	 3.399969999982150e+000	 7.133319999991934e+000	 1.003525422110250e+001
0	 3.399969999982150e+000	 7.199979999988400e+000	 1.003311528432056e+001
0	 3.399969999982150e+000	 7.266639999985467e+000	 1.003115765884610e+001
0	 3.399969999982149e+000	 7.333299999983332e+000	 1.002938894656957e+001
0	 3.466639999981867e+000	 6.666700000016669e+000	 1.006052180615808e+001
0	 3.466639999981867e+000	 6.733360000014534e+000	 1.005720328074622e+001
0	 3.466639999981866e+000	 6.800020000011599e+000	 1.005400884555145e+001
0	 3.466639999981866e+000	 6.866680000008068e+000	 1.005094462282825e+001
0	 3.466639999981866e+000	 6.933340000004134e+000	 1.004801673483115e+001
0	 3.466639999981866e+000	 6.999999999999998e+000	 1.004523130381461e+001
0	 3.466639999981866e+000	 7.066659999995866e+000	 1.004259445203313e+001
0	 3.466639999981866e+000	 7.133319999991935e+000	 1.004011230174118e+001
0	 3.466639999981866e+000	 7.199979999988400e+000	 1.003779097519326e+001
0	 3.466639999981866e+000	 7.266639999985467e+000	 1.003563659464382e+001
0	 3.466639999981866e+000	 7.333299999983332e+000	 1.003365528234735e+001
0	 3.533309999982382e+000	 6.666700000016667e+000	 1.006615273974177e+001
0	 3.533309999982382e+000	 6.733360000014534e+000	 1.006271195687974e+001
0	 3.533309999982382e+000	 6.800020000011599e+000	 1.005939206655103e+001
0	 3.533309999982383e+000	 6.866680000008067e+000	 1.005619787392483e+001
0	 3.533309999982382e+000	 6.933340000004132e+000	 1.005313418417035e+001
0	 3.533309999982383e+000	 7.000000000000001e+000	 1.005020580245681e+001
0	 3.533309999982382e+000	 7.066659999995866e+000	 1.004741753395338e+001
0	 3.533309999982383e+000	 7.133319999991936e+000	 1.004477418382929e+001
0	 3.533309999982382e+000	 7.199979999988400e+000	 1.004228055725370e+001
0	 3.533309999982383e+000	 7.266639999985467e+000	 1.003994145939582e+001
0	 3.533309999982382e+000	 7.333299999983335e+000	 1.003776169542481e+001
0	 3.599979999983599e+000	 6.666700000016668e+000	 1.007155618582003e+001
0	 3.599979999983599e+000	 6.733360000014532e+000	 1.006799458177147e+001
0	 3.599979999983599e+000	 6.800020000011598e+000	 1.006455137698862e+001
0	 3.599979999983598e+000	 6.866680000008066e+000	 1.006123022210616e+001
0	 3.599979999983599e+000	 6.933340000004134e+000	 1.005803476775869e+001
0	 3.599979999983598e+000	 6.999999999999999e+000	 1.005496866458081e+001
0	 3.599979999983598e+000	 7.066659999995865e+000	 1.005203556320717e+001
0	 3.599979999983599e+000	 7.133319999991934e+000	 1.004923911427238e+001
0	 3.599979999983598e+000	 7.199979999988399e+000	 1.004658296841104e+001
0	 3.599979999983599e+000	 7.266639999985468e+000	 1.004407077625775e+001
0	 3.599979999983598e+000	 7.333299999983334e+000	 1.004170618844712e+001
0	 3.666649999985415e+000	 6.666700000016666e+000	 1.007673059307585e+001
0	 3.666649999985415e+000	 6.733360000014532e+000	 1.007305003540730e+001
0	 3.666649999985415e+000	 6.800020000011601e+000	 1.006948598239609e+001
0	 3.666649999985415e+000	 6.866680000008066e+000	 1.006604109269297e+001
0	 3.666649999985414e+000	 6.933340000004129e+000	 1.006271802494865e+001
0	 3.666649999985415e+000	 6.999999999999999e+000	 1.005951943781393e+001
0	 3.666649999985415e+000	 7.066659999995867e+000	 1.005644798993948e+001
0	 3.666649999985415e+000	 7.133319999991936e+000	 1.005350633997607e+001
0	 3.666649999985416e+000	 7.199979999988400e+000	 1.005069714657443e+001
0	 3.666649999985415e+000	 7.266639999985468e+000	 1.004802306838529e+001
0	 3.666649999985415e+000	 7.333299999983333e+000	 1.004548676405934e+001
0	 3.733319999987732e+000	 6.666700000016666e+000	 1.008167441019211e+001
0	 3.733319999987731e+000	 6.733360000014532e+000	 1.007787719777318e+001
0	 3.733319999987731e+000	 6.800020000011599e+000	 1.007419508830529e+001
0	 3.733319999987732e+000	 6.866680000008067e+000	 1.007062991100598e+001
0	 3.733319999987732e+000	 6.933340000004134e+000	 1.006718349509284e+001
0	 3.733319999987732e+000	 6.999999999999999e+000	 1.006385766978342e+001
0	 3.733319999987732e+000	 7.066659999995867e+000	 1.006065426429527e+001
0	 3.733319999987732e+000	 7.133319999991934e+000	 1.005757510784597e+001
0	 3.733319999987732e+000	 7.199979999988401e+000	 1.005462202965305e+001
0	 3.733319999987732e+000	 7.266639999985467e+000	 1.005179685893408e+001
0	 3.733319999987732e+000	 7.333299999983333e+000	 1.004910142490659e+001
0	 3.799989999990448e+000	 6.666700000016664e+000	 1.008638608585175e+001
0	 3.799989999990449e+000	 6.733360000014533e+000	 1.008247494885503e+001
0	 3.799989999990449e+000	 6.800020000011601e+000	 1.007867790024805e+001
0	 3.799989999990448e+000	 6.866680000008067e+000	 1.007499610236594e+001
0	 3.799989999990448e+000	 6.933340000004132e+000	 1.007143071754376e+001
0	 3.799989999990448e+000	 6.999999999999999e+000	 1.006798290811658e+001
0	 3.799989999990448e+000	 7.066659999995867e+000	 1.006465383641953e+001
0	 3.799989999990448e+000	 7.133319999991934e+000	 1.006144466478766e+001
0	 3.799989999990449e+000	 7.199979999988400e+000	 1.005835655555605e+001
0	 3.799989999990448e+000	 7.266639999985467e+000	 1.005539067105981e+001
0	 3.799989999990449e+000	 7.333299999983335e+000	 1.005254817363396e+001
0	 3.866659999993464e+000	 6.666700000016666e+000	 1.009086406873769e+001
0	 3.866659999993465e+000	 6.733360000014533e+000	 1.008684216863876e+001
0	 3.866659999993465e+000	 6.800020000011601e+000	 1.008293362375627e+001
0	 3.866659999993465e+000	 6.866680000008067e+000	 1.007913909209356e+001
0	 3.866659999993465e+000	 6.933340000004135e+000	 1.007545923165393e+001
0	 3.866659999993464e+000	 6.999999999999999e+000	 1.007189470044071e+001
0	 3.866659999993465e+000	 7.066659999995868e+000	 1.006844615645722e+001
0	 3.866659999993465e+000	 7.133319999991935e+000	 1.006511425770676e+001
0	 3.866659999993465e+000	 7.199979999988401e+000	 1.006189966219262e+001
0	 3.866659999993466e+000	 7.266639999985467e+000	 1.005880302791813e+001
0	 3.866659999993464e+000	 7.333299999983333e+000	 1.005582501288657e+001
0	 3.933329999996681e+000	 6.666700000016666e+000	 1.009510680753286e+001
0	 3.933329999996682e+000	 6.733360000014534e+000	 1.009097773711029e+001
0	 3.933329999996682e+000	 6.800020000011600e+000	 1.008696146436178e+001
0	 3.933329999996682e+000	 6.866680000008067e+000	 1.008305830550957e+001
0	 3.933329999996682e+000	 6.933340000004133e+000	 1.007926857677593e+001
0	 3.933329999996681e+000	 6.999999999999999e+000	 1.007559259438310e+001
0	 3.933329999996681e+000	 7.066659999995866e+000	 1.007203067455332e+001
0	 3.933329999996681e+000	 7.133319999991934e+000	 1.006858313350884e+001
0	 3.933329999996682e+000	 7.199979999988401e+000	 1.006525028747190e+001
0	 3.933329999996682e+000	 7.266639999985467e+000	 1.006203245266471e+001
0	 3.933329999996682e+000	 7.333299999983334e+000	 1.005892994530953e+001
0	 4.000000000000000e+000	 6.666700000016665e+000	 1.009911275092020e+001
0	 4.000000000000001e+000	 6.733360000014532e+000	 1.009488053425557e+001
0	 4.000000000000000e+000	 6.800020000011598e+000	 1.009076062759645e+001
0	 4.000000000000000e+000	 6.866680000008068e+000	 1.008675316793472e+001
0	 4.000000000000001e+000	 6.933340000004132e+000	 1.008285829226229e+001
0	 4.000000000000000e+000	 6.999999999999998e+000	 1.007907613757104e+001
0	 4.000000000000000e+000	 7.066659999995868e+000	 1.007540684085283e+001
0	 4.000000000000000e+000	 7.133319999991934e+000	 1.007185053909955e+001
0	 4.000000000000001e+000	 7.199979999988402e+000	 1.006840736930305e+001
0	 4.000000000000001e+000	 7.266639999985467e+000	 1.006507746845523e+001
0	 4.000000000000001e+000	 7.333299999983335e+000	 1.006186097354794e+001
0	 3.333299999983335e+000	 7.333299999983336e+000	 1.002496468544641e+001
0	 3.333299999983333e+000	 7.399969999982149e+000	 1.002355290458436e+001
0	 3.333299999983334e+000	 7.466639999981866e+000	 1.002218791468855e+001
0	 3.333299999983334e+000	 7.533309999982383e+000	 1.002086997463004e+001
0	 3.333299999983334e+000	 7.599979999983601e+000	 1.001959934327988e+001
0	 3.333299999983334e+000	 7.666649999985416e+000	 1.001837627950913e+001
0	 3.333299999983334e+000	 7.733319999987733e+000	 1.001720104218881e+001
0	 3.333299999983334e+000	 7.799989999990448e+000	 1.001607389019001e+001
0	 3.333299999983333e+000	 7.866659999993466e+000	 1.001499508238376e+001
0	 3.333299999983334e+000	 7.933329999996683e+000	 1.001396487764113e+001
0	 3.333299999983334e+000	 8.000000000000000e+000	 1.001298353483316e+001
0	 3.399969999982149e+000	 7.333299999983332e+000	 1.002938894656957e+001
0	 3.399969999982150e+000	 7.399969999982149e+000	 1.002774559883730e+001
0	 3.399969999982150e+000	 7.466639999981865e+000	 1.002615969598334e+001
0	 3.399969999982150e+000	 7.533309999982385e+000	 1.002463153102989e+001
0	 3.399969999982150e+000	 7.599979999983598e+000	 1.002316139699910e+001
0	 3.399969999982150e+000	 7.666649999985416e+000	 1.002174958691312e+001
0	 3.399969999982150e+000	 7.733319999987732e+000	 1.002039639379409e+001
0	 3.399969999982150e+000	 7.799989999990450e+000	 1.001910211066420e+001
0	 3.399969999982150e+000	 7.866659999993466e+000	 1.001786703054559e+001
0	 3.399969999982150e+000	 7.933329999996683e+000	 1.001669144646041e+001
0	 3.399969999982150e+000	 8.000000000000000e+000	 1.001557565143084e+001
0	 3.466639999981866e+000	 7.333299999983332e+000	 1.003365528234735e+001
0	 3.466639999981866e+000	 7.399969999982150e+000	 1.003179547918159e+001
0	 3.466639999981867e+000	 7.466639999981868e+000	 1.003000232786003e+001
0	 3.466639999981866e+000	 7.533309999982382e+000	 1.002827615157368e+001
0	 3.466639999981866e+000	 7.599979999983601e+000	 1.002661727351357e+001
0	 3.466639999981866e+000	 7.666649999985418e+000	 1.002502601687073e+001
0	 3.466639999981866e+000	 7.733319999987734e+000	 1.002350270483614e+001
0	 3.466639999981867e+000	 7.799989999990450e+000	 1.002204766060087e+001
0	 3.466639999981866e+000	 7.866659999993466e+000	 1.002066120735589e+001
0	 3.466639999981866e+000	 7.933329999996682e+000	 1.001934366829225e+001
0	 3.466639999981866e+000	 8.000000000000000e+000	 1.001809536660099e+001
0	 3.533309999982382e+000	 7.333299999983335e+000	 1.003776169542481e+001
0	 3.533309999982383e+000	 7.399969999982151e+000	 1.003570002040000e+001
0	 3.533309999982383e+000	 7.466639999981866e+000	 1.003371284846445e+001
0	 3.533309999982382e+000	 7.533309999982385e+000	 1.003180052899583e+001
0	 3.533309999982383e+000	 7.599979999983599e+000	 1.002996341137177e+001
0	 3.533309999982382e+000	 7.666649999985417e+000	 1.002820184496993e+001
0	 3.533309999982382e+000	 7.733319999987733e+000	 1.002651617916793e+001
0	 3.533309999982382e+000	 7.799989999990448e+000	 1.002490676334344e+001
0	 3.533309999982382e+000	 7.866659999993467e+000	 1.002337394687408e+001
0	 3.533309999982383e+000	 7.933329999996684e+000	 1.002191807913751e+001
0	 3.533309999982383e+000	 8.000000000000000e+000	 1.002053950951136e+001
0	 3.599979999983598e+000	 7.333299999983334e+000	 1.004170618844712e+001
0	 3.599979999983599e+000	 7.399969999982151e+000	 1.003945669727523e+001
0	 3.599979999983599e+000	 7.466639999981866e+000	 1.003728829594242e+001
0	 3.599979999983599e+000	 7.533309999982382e+000	 1.003520135603073e+001
0	 3.599979999983598e+000	 7.599979999983598e+000	 1.003319624912214e+001
0	 3.599979999983598e+000	 7.666649999985415e+000	 1.003127334679872e+001
0	 3.599979999983599e+000	 7.733319999987733e+000	 1.002943302064246e+001
0	 3.599979999983598e+000	 7.799989999990448e+000	 1.002767564223541e+001
0	 3.599979999983598e+000	 7.866659999993466e+000	 1.002600158315957e+001
0	 3.599979999983598e+000	 7.933329999996682e+000	 1.002441121499697e+001
0	 3.599979999983599e+000	 8.000000000000002e+000	 1.002290490932965e+001
0	 3.666649999985415e+000	 7.333299999983333e+000	 1.004548676405935e+001
0	 3.666649999985415e+000	 7.399969999982151e+000	 1.004306298459006e+001
0	 3.666649999985415e+000	 7.466639999981868e+000	 1.004072570843982e+001
0	 3.666649999985416e+000	 7.533309999982385e+000	 1.003847532541281e+001
0	 3.666649999985415e+000	 7.599979999983599e+000	 1.003631222531318e+001
0	 3.666649999985415e+000	 7.666649999985417e+000	 1.003423679794509e+001
0	 3.666649999985415e+000	 7.733319999987732e+000	 1.003224943311271e+001
0	 3.666649999985415e+000	 7.799989999990449e+000	 1.003035052062022e+001
0	 3.666649999985415e+000	 7.866659999993464e+000	 1.002854045027175e+001
0	 3.666649999985415e+000	 7.933329999996682e+000	 1.002681961187150e+001
0	 3.666649999985414e+000	 7.999999999999998e+000	 1.002518839522361e+001
0	 3.733319999987732e+000	 7.333299999983333e+000	 1.004910142490659e+001
0	 3.733319999987732e+000	 7.399969999982150e+000	 1.004651635712718e+001
0	 3.733319999987732e+000	 7.466639999981866e+000	 1.004402212410244e+001
0	 3.733319999987732e+000	 7.533309999982383e+000	 1.004161912987647e+001
0	 3.733319999987730e+000	 7.599979999983598e+000	 1.003930777849331e+001
0	 3.733319999987732e+000	 7.666649999985416e+000	 1.003708847399702e+001
0	 3.733319999987732e+000	 7.733319999987733e+000	 1.003496162043167e+001
0	 3.733319999987732e+000	 7.799989999990451e+000	 1.003292762184133e+001
0	 3.733319999987732e+000	 7.866659999993465e+000	 1.003098688227004e+001
0	 3.733319999987732e+000	 7.933329999996683e+000	 1.002913980576189e+001
0	 3.733319999987732e+000	 8.000000000000000e+000	 1.002738679636094e+001
0	 3.799989999990449e+000	 7.333299999983335e+000	 1.005254817363396e+001
0	 3.799989999990449e+000	 7.399969999982151e+000	 1.004981428966933e+001
0	 3.799989999990448e+000	 7.466639999981865e+000	 1.004717458107615e+001
0	 3.799989999990448e+000	 7.533309999982384e+000	 1.004462946215614e+001
0	 3.799989999990448e+000	 7.599979999983598e+000	 1.004217934721102e+001
0	 3.799989999990449e+000	 7.666649999985417e+000	 1.003982465054251e+001
0	 3.799989999990449e+000	 7.733319999987733e+000	 1.003756578645232e+001
0	 3.799989999990448e+000	 7.799989999990450e+000	 1.003540316924219e+001
0	 3.799989999990448e+000	 7.866659999993466e+000	 1.003333721321385e+001
0	 3.799989999990448e+000	 7.933329999996683e+000	 1.003136833266900e+001
0	 3.799989999990448e+000	 8.000000000000000e+000	 1.002949694190939e+001
0	 3.866659999993464e+000	 7.333299999983333e+000	 1.005582501288657e+001
0	 3.866659999993466e+000	 7.399969999982151e+000	 1.005295425699926e+001
0	 3.866659999993464e+000	 7.466639999981866e+000	 1.005018011750677e+001
0	 3.866659999993465e+000	 7.533309999982382e+000	 1.004750301498623e+001
0	 3.866659999993465e+000	 7.599979999983599e+000	 1.004492337001477e+001
0	 3.866659999993464e+000	 7.666649999985417e+000	 1.004244160316953e+001
0	 3.866659999993465e+000	 7.733319999987733e+000	 1.004005813502766e+001
0	 3.866659999993463e+000	 7.799989999990447e+000	 1.003777338616629e+001
0	 3.866659999993465e+000	 7.866659999993468e+000	 1.003558777716258e+001
0	 3.866659999993465e+000	 7.933329999996684e+000	 1.003350172859364e+001
0	 3.866659999993465e+000	 8.000000000000000e+000	 1.003151566103664e+001
0	 3.933329999996682e+000	 7.333299999983334e+000	 1.005892994530953e+001
0	 3.933329999996682e+000	 7.399969999982151e+000	 1.005593373389972e+001
0	 3.933329999996681e+000	 7.466639999981865e+000	 1.005303577154014e+001
0	 3.933329999996681e+000	 7.533309999982382e+000	 1.005023648110115e+001
0	 3.933329999996681e+000	 7.599979999983600e+000	 1.004753628545303e+001
0	 3.933329999996682e+000	 7.666649999985415e+000	 1.004493560746610e+001
0	 3.933329999996681e+000	 7.733319999987733e+000	 1.004243487001069e+001
0	 3.933329999996682e+000	 7.799989999990451e+000	 1.004003449595711e+001
0	 3.933329999996682e+000	 7.866659999993467e+000	 1.003773490817564e+001
0	 3.933329999996682e+000	 7.933329999996685e+000	 1.003553652953665e+001
0	 3.933329999996681e+000	 7.999999999999999e+000	 1.003343978291044e+001
0	 4.000000000000001e+000	 7.333299999983335e+000	 1.006186097354794e+001
0	 4.000000000000001e+000	 7.399969999982151e+000	 1.005875019515340e+001
0	 4.000000000000000e+000	 7.466639999981866e+000	 1.005573858132212e+001
0	 4.000000000000000e+000	 7.533309999982384e+000	 1.005282655323533e+001
0	 4.000000000000000e+000	 7.599979999983599e+000	 1.005001453207427e+001
0	 4.000000000000001e+000	 7.666649999985416e+000	 1.004730293902019e+001
0	 4.000000000000000e+000	 7.733319999987733e+000	 1.004469219525437e+001
0	 4.000000000000000e+000	 7.799989999990448e+000	 1.004218272195804e+001
0	 4.000000000000000e+000	 7.866659999993465e+000	 1.003977494031245e+001
0	 4.000000000000000e+000	 7.933329999996684e+000	 1.003746927149886e+001
0	 4.000000000000000e+000	 7.999999999999999e+000	 1.003526613669852e+001
0	 3.333299999983334e+000	 8.000000000000000e+000	 1.001298353483316e+001
0	 3.333299999983334e+000	 8.066670000003317e+000	 1.001204723827322e+001
0	 3.333299999983334e+000	 8.133340000006532e+000	 1.001115304690573e+001
0	 3.333299999983334e+000	 8.200010000009550e+000	 1.001030253154830e+001
0	 3.333299999983334e+000	 8.266680000012267e+000	 1.000949726301860e+001
0	 3.333299999983334e+000	 8.333350000014585e+000	 1.000873881213420e+001
0	 3.333299999983334e+000	 8.400020000016399e+000	 1.000802874971281e+001
0	 3.333299999983334e+000	 8.466690000017618e+000	 1.000736864657202e+001
0	 3.333299999983333e+000	 8.533360000018133e+000	 1.000676007352949e+001
0	 3.333299999983335e+000	 8.600030000017851e+000	 1.000620460140284e+001
0	 3.333299999983334e+000	 8.666700000016668e+000	 1.000570380100971e+001
0	 3.399969999982150e+000	 8.000000000000000e+000	 1.001557565143084e+001
0	 3.399969999982150e+000	 8.066670000003317e+000	 1.001451016351935e+001
0	 3.399969999982149e+000	 8.133340000006530e+000	 1.001348637408830e+001
0	 3.399969999982150e+000	 8.200010000009549e+000	 1.001250588610973e+001
0	 3.399969999982150e+000	 8.266680000012268e+000	 1.001157030255560e+001
0	 3.399969999982151e+000	 8.333350000014583e+000	 1.001068122639794e+001
0	 3.399969999982150e+000	 8.400020000016401e+000	 1.000984026060871e+001
0	 3.399969999982150e+000	 8.466690000017614e+000	 1.000904900815995e+001
0	 3.399969999982150e+000	 8.533360000018133e+000	 1.000830907202365e+001
0	 3.399969999982150e+000	 8.600030000017851e+000	 1.000762205517178e+001
0	 3.399969999982149e+000	 8.666700000016666e+000	 1.000698956057640e+001
0	 3.466639999981866e+000	 8.000000000000000e+000	 1.001809536660099e+001
0	 3.466639999981865e+000	 8.066670000003317e+000	 1.001690224351002e+001
0	 3.466639999981866e+000	 8.133340000006532e+000	 1.001575108703645e+001
0	 3.466639999981867e+000	 8.200010000009552e+000	 1.001464349055510e+001
0	 3.466639999981866e+000	 8.266680000012265e+000	 1.001358104744074e+001
0	 3.466639999981866e+000	 8.333350000014583e+000	 1.001256535106819e+001
0	 3.466639999981866e+000	 8.400020000016401e+000	 1.001159799481221e+001
0	 3.466639999981866e+000	 8.466690000017620e+000	 1.001068057204763e+001
0	 3.466639999981867e+000	 8.533360000018135e+000	 1.000981467614923e+001
0	 3.466639999981866e+000	 8.600030000017849e+000	 1.000900190049181e+001
0	 3.466639999981866e+000	 8.666700000016668e+000	 1.000824383845017e+001
0	 3.533309999982383e+000	 8.000000000000000e+000	 1.002053950951136e+001
0	 3.533309999982383e+000	 8.066670000003315e+000	 1.001922061815264e+001
0	 3.533309999982382e+000	 8.133340000006530e+000	 1.001794458031730e+001
0	 3.533309999982382e+000	 8.200010000009549e+000	 1.001671293803132e+001
0	 3.533309999982382e+000	 8.266680000012267e+000	 1.001552723332074e+001
0	 3.533309999982382e+000	 8.333350000014583e+000	 1.001438900821160e+001
0	 3.533309999982383e+000	 8.400020000016401e+000	 1.001329980472988e+001
0	 3.533309999982382e+000	 8.466690000017616e+000	 1.001226116490166e+001
0	 3.533309999982383e+000	 8.533360000018137e+000	 1.001127463075294e+001
0	 3.533309999982382e+000	 8.600030000017851e+000	 1.001034174430973e+001
0	 3.533309999982382e+000	 8.666700000016668e+000	 1.000946404759808e+001
0	 3.599979999983599e+000	 8.000000000000002e+000	 1.002290490932965e+001
0	 3.599979999983598e+000	 8.066670000003315e+000	 1.002146242735460e+001
0	 3.599979999983598e+000	 8.133340000006532e+000	 1.002006424849792e+001
0	 3.599979999983599e+000	 8.200010000009552e+000	 1.001871182168526e+001
0	 3.599979999983598e+000	 8.266680000012265e+000	 1.001740659584233e+001
0	 3.599979999983599e+000	 8.333350000014587e+000	 1.001615001989479e+001
0	 3.599979999983598e+000	 8.400020000016399e+000	 1.001494354276835e+001
0	 3.599979999983598e+000	 8.466690000017612e+000	 1.001378861338867e+001
0	 3.599979999983598e+000	 8.533360000018135e+000	 1.001268668068146e+001
0	 3.599979999983599e+000	 8.600030000017851e+000	 1.001163919357237e+001
0	 3.599979999983599e+000	 8.666700000016666e+000	 1.001064760098714e+001
0	 3.666649999985414e+000	 7.999999999999998e+000	 1.002518839522361e+001
0	 3.666649999985415e+000	 8.066670000003315e+000	 1.002362481102328e+001
0	 3.666649999985415e+000	 8.133340000006536e+000	 1.002210748614542e+001
0	 3.666649999985416e+000	 8.200010000009552e+000	 1.002063773466382e+001
0	 3.666649999985415e+000	 8.266680000012270e+000	 1.001921687065222e+001
0	 3.666649999985415e+000	 8.333350000014583e+000	 1.001784620818439e+001
0	 3.666649999985416e+000	 8.400020000016403e+000	 1.001652706133415e+001
0	 3.666649999985416e+000	 8.466690000017618e+000	 1.001526074417524e+001
0	 3.666649999985415e+000	 8.533360000018135e+000	 1.001404857078145e+001
0	 3.666649999985416e+000	 8.600030000017851e+000	 1.001289185522656e+001
0	 3.666649999985415e+000	 8.666700000016665e+000	 1.001179191158436e+001
0	 3.733319999987732e+000	 8.000000000000000e+000	 1.002738679636094e+001
0	 3.733319999987732e+000	 8.066670000003317e+000	 1.002570490906608e+001
0	 3.733319999987732e+000	 8.133340000006532e+000	 1.002407168782696e+001
0	 3.733319999987732e+000	 8.200010000009552e+000	 1.002248827011386e+001
0	 3.733319999987732e+000	 8.266680000012267e+000	 1.002095579339713e+001
0	 3.733319999987732e+000	 8.333350000014585e+000	 1.001947539514703e+001
0	 3.733319999987732e+000	 8.400020000016401e+000	 1.001804821283389e+001
0	 3.733319999987732e+000	 8.466690000017616e+000	 1.001667538392800e+001
0	 3.733319999987732e+000	 8.533360000018131e+000	 1.001535804589963e+001
0	 3.733319999987732e+000	 8.600030000017851e+000	 1.001409733621914e+001
0	 3.733319999987732e+000	 8.666700000016668e+000	 1.001289439235679e+001
0	 3.799989999990448e+000	 8.000000000000000e+000	 1.002949694190939e+001
0	 3.799989999990449e+000	 8.066670000003317e+000	 1.002769986139034e+001
0	 3.799989999990449e+000	 8.133340000006534e+000	 1.002595424810955e+001
0	 3.799989999990448e+000	 8.200010000009552e+000	 1.002426102118230e+001
0	 3.799989999990448e+000	 8.266680000012267e+000	 1.002262109972381e+001
0	 3.799989999990449e+000	 8.333350000014585e+000	 1.002103540284935e+001
0	 3.799989999990448e+000	 8.400020000016401e+000	 1.001950484967416e+001
0	 3.799989999990448e+000	 8.466690000017616e+000	 1.001803035931352e+001
0	 3.799989999990449e+000	 8.533360000018135e+000	 1.001661285088268e+001
0	 3.799989999990448e+000	 8.600030000017849e+000	 1.001525324349690e+001
0	 3.799989999990448e+000	 8.666700000016668e+000	 1.001395245627143e+001
0	 3.866659999993465e+000	 8.000000000000000e+000	 1.003151566103664e+001
0	 3.866659999993464e+000	 8.066670000003315e+000	 1.002960680790347e+001
0	 3.866659999993464e+000	 8.133340000006532e+000	 1.002775256156038e+001
0	 3.866659999993464e+000	 8.200010000009550e+000	 1.002595358101600e+001
0	 3.866659999993465e+000	 8.266680000012268e+000	 1.002421052527896e+001
0	 3.866659999993465e+000	 8.333350000014585e+000	 1.002252405335793e+001
0	 3.866659999993466e+000	 8.400020000016401e+000	 1.002089482426155e+001
0	 3.866659999993464e+000	 8.466690000017618e+000	 1.001932349699845e+001
0	 3.866659999993465e+000	 8.533360000018133e+000	 1.001781073057728e+001
0	 3.866659999993464e+000	 8.600030000017849e+000	 1.001635718400669e+001
0	 3.866659999993465e+000	 8.666700000016666e+000	 1.001496351629532e+001
0	 3.933329999996681e+000	 7.999999999999999e+000	 1.003343978291044e+001
0	 3.933329999996682e+000	 8.066670000003317e+000	 1.003142288851286e+001
0	 3.933329999996681e+000	 8.133340000006532e+000	 1.002946402274651e+001
0	 3.933329999996682e+000	 8.200010000009550e+000	 1.002756354276186e+001
0	 3.933329999996682e+000	 8.266680000012268e+000	 1.002572180570936e+001
0	 3.933329999996682e+000	 8.333350000014585e+000	 1.002393916873945e+001
0	 3.933329999996681e+000	 8.400020000016399e+000	 1.002221598900264e+001
0	 3.933329999996682e+000	 8.466690000017616e+000	 1.002055262364938e+001
0	 3.933329999996681e+000	 8.533360000018133e+000	 1.001894942983012e+001
0	 3.933329999996681e+000	 8.600030000017847e+000	 1.001740676469532e+001
0	 3.933329999996682e+000	 8.666700000016666e+000	 1.001592498539550e+001
0	 4.000000000000000e+000	 7.999999999999999e+000	 1.003526613669852e+001
0	 4.000000000000001e+000	 8.066670000003319e+000	 1.003314524312590e+001
0	 4.000000000000001e+000	 8.133340000006536e+000	 1.003108602623507e+001
0	 4.000000000000002e+000	 8.200010000009552e+000	 1.002908849956675e+001
0	 4.000000000000000e+000	 8.266680000012267e+000	 1.002715267666167e+001
0	 4.000000000000000e+000	 8.333350000014585e+000	 1.002527857106052e+001
0	 4.000000000000000e+000	 8.400020000016399e+000	 1.002346619630404e+001
0	 4.000000000000000e+000	 8.466690000017618e+000	 1.002171556593290e+001
0	 4.000000000000001e+000	 8.533360000018135e+000	 1.002002669348788e+001
0	 4.000000000000000e+000	 8.600030000017847e+000	 1.001839959250965e+001
0	 4.000000000000000e+000	 8.666700000016666e+000	 1.001683427653896e+001
0	 3.333299999983334e+000	 8.666700000016668e+000	 1.000570380100971e+001
0	 3.333299999983334e+000	 8.733360002791903e+000	 1.000523903897012e+001
0	 3.333299999983334e+000	 8.800020022230553e+000	 1.000479009996048e+001
0	 3.333299999983334e+000	 8.866680074997039e+000	 1.000435639466200e+001
0	 3.333299999983334e+000	 8.933340177755779e+000	 1.000393733371112e+001
0	 3.333299999983333e+000	 9.000000347171181e+000	 1.000353232769923e+001
0	 3.333299999983334e+000	 9.066660599907667e+000	 1.000314078717289e+001
0	 3.333299999983335e+000	 9.133320952629656e+000	 1.000276212263369e+001
0	 3.333299999983333e+000	 9.199981422001558e+000	 1.000239574453830e+001
0	 3.333299999983334e+000	 9.266642024687796e+000	 1.000204106329839e+001
0	 3.333299999983334e+000	 9.333302777352785e+000	 1.000169748928080e+001
0	 3.399969999982149e+000	 8.666700000016666e+000	 1.000698956057639e+001
0	 3.399969999982150e+000	 8.733360002791905e+000	 1.000639754547171e+001
0	 3.399969999982150e+000	 8.800020022230555e+000	 1.000582998708410e+001
0	 3.399969999982150e+000	 8.866680074997044e+000	 1.000528579042705e+001
0	 3.399969999982150e+000	 8.933340177755776e+000	 1.000476386045047e+001
0	 3.399969999982150e+000	 9.000000347171181e+000	 1.000426310204060e+001
0	 3.399969999982150e+000	 9.066660599907669e+000	 1.000378242002014e+001
0	 3.399969999982150e+000	 9.133320952629656e+000	 1.000332071914813e+001
0	 3.399969999982150e+000	 9.199981422001562e+000	 1.000287690411997e+001
0	 3.399969999982150e+000	 9.266642024687798e+000	 1.000244987956744e+001
0	 3.399969999982149e+000	 9.333302777352783e+000	 1.000203855005869e+001
0	 3.466639999981866e+000	 8.666700000016668e+000	 1.000824383845017e+001
0	 3.466639999981866e+000	 8.733360002791901e+000	 1.000753045211320e+001
0	 3.466639999981866e+000	 8.800020022230555e+000	 1.000684939285624e+001
0	 3.466639999981866e+000	 8.866680074997040e+000	 1.000619911648486e+001
0	 3.466639999981866e+000	 8.933340177755781e+000	 1.000557807872340e+001
0	 3.466639999981866e+000	 9.000000347171181e+000	 1.000498473521496e+001
0	 3.466639999981866e+000	 9.066660599907669e+000	 1.000441754152149e+001
0	 3.466639999981866e+000	 9.133320952629655e+000	 1.000387495312363e+001
0	 3.466639999981866e+000	 9.199981422001557e+000	 1.000335542542086e+001
0	 3.466639999981867e+000	 9.266642024687799e+000	 1.000285741373133e+001
0	 3.466639999981866e+000	 9.333302777352783e+000	 1.000237937329204e+001
0	 3.533309999982382e+000	 8.666700000016668e+000	 1.000946404759808e+001
0	 3.533309999982382e+000	 8.733360002791901e+000	 1.000863496958109e+001
0	 3.533309999982382e+000	 8.800020022230557e+000	 1.000784536509483e+001
0	 3.533309999982382e+000	 8.866680074997042e+000	 1.000709329719686e+001
0	 3.533309999982382e+000	 8.933340177755778e+000	 1.000637682884688e+001
0	 3.533309999982383e+000	 9.000000347171184e+000	 1.000569402290689e+001
0	 3.533309999982382e+000	 9.066660599907669e+000	 1.000504294214102e+001
0	 3.533309999982383e+000	 9.133320952629658e+000	 1.000442164921560e+001
0	 3.533309999982383e+000	 9.199981422001558e+000	 1.000382820669916e+001
0	 3.533309999982382e+000	 9.266642024687796e+000	 1.000326067706241e+001
0	 3.533309999982382e+000	 9.333302777352783e+000	 1.000271712267825e+001
0	 3.599979999983599e+000	 8.666700000016666e+000	 1.001064760098714e+001
0	 3.599979999983598e+000	 8.733360002791899e+000	 1.000970830856189e+001
0	 3.599979999983599e+000	 8.800020022230555e+000	 1.000881495161783e+001
0	 3.599979999983599e+000	 8.866680074997042e+000	 1.000796525692448e+001
0	 3.599979999983599e+000	 8.933340177755779e+000	 1.000715695113794e+001
0	 3.599979999983599e+000	 9.000000347171184e+000	 1.000638776080098e+001
0	 3.599979999983599e+000	 9.066660599907666e+000	 1.000565541234284e+001
0	 3.599979999983599e+000	 9.133320952629655e+000	 1.000495763207942e+001
0	 3.599979999983598e+000	 9.199981422001558e+000	 1.000429214621316e+001
0	 3.599979999983598e+000	 9.266642024687796e+000	 1.000365668083305e+001
0	 3.599979999983598e+000	 9.333302777352783e+000	 1.000304896191469e+001
0	 3.666649999985415e+000	 8.666700000016665e+000	 1.001179191158436e+001
0	 3.666649999985415e+000	 8.733360002791903e+000	 1.001074767974212e+001
0	 3.666649999985415e+000	 8.800020022230557e+000	 1.000975520024318e+001
0	 3.666649999985415e+000	 8.866680074997044e+000	 1.000881192002917e+001
0	 3.666649999985415e+000	 8.933340177755778e+000	 1.000791528591360e+001
0	 3.666649999985416e+000	 9.000000347171184e+000	 1.000706274458181e+001
0	 3.666649999985416e+000	 9.066660599907667e+000	 1.000625174259105e+001
0	 3.666649999985416e+000	 9.133320952629656e+000	 1.000547972637047e+001
0	 3.666649999985415e+000	 9.199981422001560e+000	 1.000474414222101e+001
0	 3.666649999985415e+000	 9.266642024687796e+000	 1.000404243631557e+001
0	 3.666649999985415e+000	 9.333302777352781e+000	 1.000337205469878e+001
0	 3.733319999987732e+000	 8.666700000016668e+000	 1.001289439235679e+001
0	 3.733319999987732e+000	 8.733360002791905e+000	 1.001175029380821e+001
0	 3.733319999987732e+000	 8.800020022230555e+000	 1.001066315878881e+001
0	 3.733319999987731e+000	 8.866680074997040e+000	 1.000963021087239e+001
0	 3.733319999987732e+000	 8.933340177755778e+000	 1.000864867349082e+001
0	 3.733319999987732e+000	 9.000000347171183e+000	 1.000771576993399e+001
0	 3.733319999987732e+000	 9.066660599907669e+000	 1.000682872334979e+001
0	 3.733319999987732e+000	 9.133320952629656e+000	 1.000598475674416e+001
0	 3.733319999987732e+000	 9.199981422001560e+000	 1.000518109298103e+001
0	 3.733319999987733e+000	 9.266642024687796e+000	 1.000441495478229e+001
0	 3.733319999987732e+000	 9.333302777352783e+000	 1.000368356472788e+001
0	 3.799989999990448e+000	 8.666700000016668e+000	 1.001395245627143e+001
0	 3.799989999990448e+000	 8.733360002791905e+000	 1.001271336144675e+001
0	 3.799989999990448e+000	 8.800020022230555e+000	 1.001153587507269e+001
0	 3.799989999990448e+000	 8.866680074997042e+000	 1.001041705381558e+001
0	 3.799989999990448e+000	 8.933340177755779e+000	 1.000935395418663e+001
0	 3.799989999990449e+000	 9.000000347171179e+000	 1.000834363254210e+001
0	 3.799989999990449e+000	 9.066660599907667e+000	 1.000738314508316e+001
0	 3.799989999990449e+000	 9.133320952629658e+000	 1.000646954785591e+001
0	 3.799989999990447e+000	 9.199981422001557e+000	 1.000559989675139e+001
0	 3.799989999990448e+000	 9.266642024687798e+000	 1.000477124750559e+001
0	 3.799989999990448e+000	 9.333302777352783e+000	 1.000398065569942e+001
0	 3.866659999993465e+000	 8.666700000016666e+000	 1.001496351629532e+001
0	 3.866659999993465e+000	 8.733360002791903e+000	 1.001363409334418e+001
0	 3.866659999993464e+000	 8.800020022230553e+000	 1.001237039691275e+001
0	 3.866659999993465e+000	 8.866680074997040e+000	 1.001116937322014e+001
0	 3.866659999993465e+000	 8.933340177755778e+000	 1.001002796831802e+001
0	 3.866659999993465e+000	 9.000000347171183e+000	 1.000894312809077e+001
0	 3.866659999993465e+000	 9.066660599907669e+000	 1.000791179825528e+001
0	 3.866659999993465e+000	 9.133320952629658e+000	 1.000693092436109e+001
0	 3.866659999993465e+000	 9.199981422001558e+000	 1.000599745179035e+001
0	 3.866659999993464e+000	 9.266642024687796e+000	 1.000510832575781e+001
0	 3.866659999993464e+000	 9.333302777352783e+000	 1.000426049131076e+001
0	 3.933329999996682e+000	 8.666700000016666e+000	 1.001592498539550e+001
0	 3.933329999996681e+000	 8.733360002791899e+000	 1.001450970018702e+001
0	 3.933329999996682e+000	 8.800020022230557e+000	 1.001316377212695e+001
0	 3.933329999996682e+000	 8.866680074997040e+000	 1.001188409344755e+001
0	 3.933329999996682e+000	 8.933340177755776e+000	 1.001066755620202e+001
0	 3.933329999996681e+000	 9.000000347171183e+000	 1.000951105226455e+001
0	 3.933329999996681e+000	 9.066660599907669e+000	 1.000841147333022e+001
0	 3.933329999996682e+000	 9.133320952629655e+000	 1.000736571091510e+001
0	 3.933329999996681e+000	 9.199981422001555e+000	 1.000637065635614e+001
0	 3.933329999996682e+000	 9.266642024687799e+000	 1.000542320081127e+001
0	 3.933329999996682e+000	 9.333302777352781e+000	 1.000452023525931e+001
0	 4.000000000000000e+000	 8.666700000016666e+000	 1.001683427653897e+001
0	 4.000000000000000e+000	 8.733360002791901e+000	 1.001533739266178e+001
0	 4.000000000000000e+000	 8.800020022230555e+000	 1.001391304853324e+001
0	 4.000000000000000e+000	 8.866680074997040e+000	 1.001255813885926e+001
0	 4.000000000000000e+000	 8.933340177755778e+000	 1.001126955815561e+001
0	 4.000000000000001e+000	 9.000000347171181e+000	 1.001004420074805e+001
0	 4.000000000000000e+000	 9.066660599907667e+000	 1.000887896077213e+001
0	 4.000000000000001e+000	 9.133320952629656e+000	 1.000777073217332e+001
0	 4.000000000000001e+000	 9.199981422001560e+000	 1.000671640870700e+001
0	 4.000000000000001e+000	 9.266642024687796e+000	 1.000571288393835e+001
0	 4.000000000000000e+000	 9.333302777352783e+000	 1.000475705124246e+001
0	 3.333299999983334e+000	 9.333302777352785e+000	 1.000169748928080e+001
0	 3.333299999983334e+000	 9.399973674588177e+000	 1.000138066300412e+001
0	 3.333299999983334e+000	 9.466644621844619e+000	 1.000110444716092e+001
0	 3.333299999983334e+000	 9.533315502450002e+000	 1.000086543363181e+001
0	 3.333299999983333e+000	 9.599986199732197e+000	 1.000066021496326e+001
0	 3.333299999983334e+000	 9.666656597019093e+000	 1.000048538436730e+001
0	 3.333299999983334e+000	 9.733326577638577e+000	 1.000033753572118e+001
0	 3.333299999983334e+000	 9.799996024918524e+000	 1.000021326356701e+001
0	 3.333299999983334e+000	 9.866664822186822e+000	 1.000010916311153e+001
0	 3.333299999983333e+000	 9.933332852771354e+000	 1.000002183022584e+001
0	 3.333299999983334e+000	 1.000000000000000e+001	 9.999947861445303e+000
0	 3.399969999982149e+000	 9.333302777352783e+000	 1.000203855005869e+001
0	 3.399969999982150e+000	 9.399973674588175e+000	 1.000165871087298e+001
0	 3.399969999982151e+000	 9.466644621844623e+000	 1.000132479544073e+001
0	 3.399969999982150e+000	 9.533315502449995e+000	 1.000103348436624e+001
0	 3.399969999982150e+000	 9.599986199732198e+000	 1.000078145906267e+001
0	 3.399969999982150e+000	 9.666656597019093e+000	 1.000056540175157e+001
0	 3.399969999982149e+000	 9.733326577638572e+000	 1.000038199546254e+001
0	 3.399969999982150e+000	 9.799996024918524e+000	 1.000022792403307e+001
0	 3.399969999982150e+000	 9.866664822186822e+000	 1.000009987210814e+001
0	 3.399969999982150e+000	 9.933332852771354e+000	 9.999994525140110e+000
0	 3.399969999982150e+000	 1.000000000000000e+001	 9.999908569388277e+000
0	 3.466639999981866e+000	 9.333302777352783e+000	 1.000237937329204e+001
0	 3.466639999981866e+000	 9.399973674588175e+000	 1.000193762670705e+001
0	 3.466639999981866e+000	 9.466644621844619e+000	 1.000154747122240e+001
0	 3.466639999981866e+000	 9.533315502449998e+000	 1.000120561381287e+001
0	 3.466639999981866e+000	 9.599986199732197e+000	 1.000090876240437e+001
0	 3.466639999981866e+000	 9.666656597019095e+000	 1.000065362587361e+001
0	 3.466639999981866e+000	 9.733326577638575e+000	 1.000043691404768e+001
0	 3.466639999981866e+000	 9.799996024918523e+000	 1.000025533770390e+001
0	 3.466639999981866e+000	 9.866664822186820e+000	 1.000010560856948e+001
0	 3.466639999981866e+000	 9.933332852771354e+000	 9.999984439321342e+000
0	 3.466639999981865e+000	 1.000000000000000e+001	 9.999888543585970e+000
0	 3.533309999982382e+000	 9.333302777352783e+000	 1.000271712267825e+001
0	 3.533309999982383e+000	 9.399973674588178e+000	 1.000221471434673e+001
0	 3.533309999982383e+000	 9.466644621844623e+000	 1.000176985446341e+001
0	 3.533309999982381e+000	 9.533315502450002e+000	 1.000137921402072e+001
0	 3.533309999982383e+000	 9.599986199732197e+000	 1.000103946510320e+001
0	 3.533309999982382e+000	 9.666656597019092e+000	 1.000074728088731e+001
0	 3.533309999982382e+000	 9.733326577638573e+000	 1.000049933564106e+001
0	 3.533309999982382e+000	 9.799996024918524e+000	 1.000029230472377e+001
0	 3.533309999982382e+000	 9.866664822186825e+000	 1.000012286458590e+001
0	 3.533309999982383e+000	 9.933332852771352e+000	 9.999987692768876e+000
0	 3.533309999982383e+000	 1.000000000000000e+001	 9.999883467904725e+000
0	 3.599979999983598e+000	 9.333302777352783e+000	 1.000304896191469e+001
0	 3.599979999983598e+000	 9.399973674588177e+000	 1.000248727763231e+001
0	 3.599979999983599e+000	 9.466644621844619e+000	 1.000198932512125e+001
0	 3.599979999983599e+000	 9.533315502450003e+000	 1.000155167703886e+001
0	 3.599979999983598e+000	 9.599986199732195e+000	 1.000117090727399e+001
0	 3.599979999983598e+000	 9.666656597019093e+000	 1.000084359094647e+001
0	 3.599979999983598e+000	 9.733326577638575e+000	 1.000056630440703e+001
0	 3.599979999983599e+000	 9.799996024918526e+000	 1.000033562523698e+001
0	 3.599979999983600e+000	 9.866664822186822e+000	 1.000014813224799e+001
0	 3.599979999983598e+000	 9.933332852771352e+000	 1.000000040548189e+001
0	 3.599979999983598e+000	 1.000000000000000e+001	 9.999889026210692e+000
0	 3.666649999985415e+000	 9.333302777352781e+000	 1.000337205469878e+001
0	 3.666649999985415e+000	 9.399973674588177e+000	 1.000275262040423e+001
0	 3.666649999985416e+000	 9.466644621844621e+000	 1.000220326315334e+001
0	 3.666649999985416e+000	 9.533315502450002e+000	 1.000172039491635e+001
0	 3.666649999985415e+000	 9.599986199732197e+000	 1.000130042903153e+001
0	 3.666649999985414e+000	 9.666656597019092e+000	 1.000093978020495e+001
0	 3.666649999985415e+000	 9.733326577638577e+000	 1.000063486451007e+001
0	 3.666649999985415e+000	 9.799996024918523e+000	 1.000038209938784e+001
0	 3.666649999985415e+000	 9.866664822186824e+000	 1.000017790364607e+001
0	 3.666649999985415e+000	 9.933332852771354e+000	 1.000001869745964e+001
0	 3.666649999985415e+000	 9.999999999999998e+000	 9.999900902370261e+000
0	 3.733319999987732e+000	 9.333302777352783e+000	 1.000368356472787e+001
0	 3.733319999987732e+000	 9.399973674588175e+000	 1.000300804650284e+001
0	 3.733319999987732e+000	 9.466644621844621e+000	 1.000240904851720e+001
0	 3.733319999987732e+000	 9.533315502450002e+000	 1.000188275970225e+001
0	 3.733319999987731e+000	 9.599986199732195e+000	 1.000142537049074e+001
0	 3.733319999987732e+000	 9.666656597019093e+000	 1.000103307281656e+001
0	 3.733319999987732e+000	 9.733326577638577e+000	 1.000070206011466e+001
0	 3.733319999987732e+000	 9.799996024918524e+000	 1.000042852732065e+001
0	 3.733319999987731e+000	 9.866664822186820e+000	 1.000020867087066e+001
0	 3.733319999987732e+000	 9.933332852771356e+000	 1.000003868870137e+001
0	 3.733319999987732e+000	 1.000000000000000e+001	 9.999914780249737e+000
0	 3.799989999990448e+000	 9.333302777352783e+000	 1.000398065569942e+001
0	 3.799989999990449e+000	 9.399973674588177e+000	 1.000325085976850e+001
0	 3.799989999990447e+000	 9.466644621844621e+000	 1.000260406117028e+001
0	 3.799989999990449e+000	 9.533315502450000e+000	 1.000203616344561e+001
0	 3.799989999990448e+000	 9.599986199732197e+000	 1.000154307176637e+001
0	 3.799989999990449e+000	 9.666656597019095e+000	 1.000112069293522e+001
0	 3.799989999990448e+000	 9.733326577638575e+000	 1.000076493538521e+001
0	 3.799989999990448e+000	 9.799996024918524e+000	 1.000047170917970e+001
0	 3.799989999990447e+000	 9.866664822186824e+000	 1.000023692601224e+001
0	 3.799989999990449e+000	 9.933332852771352e+000	 1.000005649920631e+001
0	 3.799989999990448e+000	 1.000000000000000e+001	 9.999926343715393e+000
0	 3.866659999993464e+000	 9.333302777352783e+000	 1.000426049131076e+001
0	 3.866659999993465e+000	 9.399973674588177e+000	 1.000347836404159e+001
0	 3.866659999993464e+000	 9.466644621844621e+000	 1.000278568107000e+001
0	 3.866659999993465e+000	 9.533315502450002e+000	 1.000217799819544e+001
0	 3.866659999993466e+000	 9.599986199732198e+000	 1.000165087297332e+001
0	 3.866659999993465e+000	 9.666656597019095e+000	 1.000119986471472e+001
0	 3.866659999993465e+000	 9.733326577638577e+000	 1.000082053448613e+001
0	 3.866659999993465e+000	 9.799996024918524e+000	 1.000050844510933e+001
0	 3.866659999993466e+000	 9.866664822186824e+000	 1.000025916116119e+001
0	 3.866659999993464e+000	 9.933332852771352e+000	 1.000006824897366e+001
0	 3.866659999993465e+000	 1.000000000000000e+001	 9.999931276633610e+000
0	 3.933329999996682e+000	 9.333302777352781e+000	 1.000452023525931e+001
0	 3.933329999996682e+000	 9.399973674588177e+000	 1.000368786316249e+001
0	 3.933329999996682e+000	 9.466644621844619e+000	 1.000295128817387e+001
0	 3.933329999996682e+000	 9.533315502450000e+000	 1.000230565600084e+001
0	 3.933329999996681e+000	 9.599986199732197e+000	 1.000174611422640e+001
0	 3.933329999996682e+000	 9.666656597019093e+000	 1.000126781230890e+001
0	 3.933329999996681e+000	 9.733326577638575e+000	 1.000086590158187e+001
0	 3.933329999996681e+000	 9.799996024918524e+000	 1.000053553525382e+001
0	 3.933329999996682e+000	 9.866664822186824e+000	 1.000027186840802e+001
0	 3.933329999996682e+000	 9.933332852771352e+000	 1.000007005800268e+001
0	 3.933329999996682e+000	 1.000000000000000e+001	 9.999925262870690e+000
0	 4.000000000000000e+000	 9.333302777352783e+000	 1.000475705124246e+001
0	 4.000000000000001e+000	 9.399973674588178e+000	 1.000387666097155e+001
0	 4.000000000000001e+000	 9.466644621844623e+000	 1.000309826243936e+001
0	 4.000000000000000e+000	 9.533315502450000e+000	 1.000241652891084e+001
0	 4.000000000000000e+000	 9.599986199732195e+000	 1.000182613564043e+001
0	 4.000000000000000e+000	 9.666656597019095e+000	 1.000132175987163e+001
0	 4.000000000000001e+000	 9.733326577638577e+000	 1.000089808083690e+001
0	 3.999999999999999e+000	 9.799996024918523e+000	 1.000054977975745e+001
0	 4.000000000000000e+000	 9.866664822186824e+000	 1.000027153984316e+001
0	 4.000000000000000e+000	 9.933332852771352e+000	 1.000005804629259e+001
0	 4.000000000000000e+000	 1.000000000000000e+001	 9.999903986292880e+000
0	 4.000000000000000e+000	 0.000000000000000e+000	 2.558944890613765e-001
0	 4.000000000000001e+000	 6.666714722864757e-002	 1.130020490398083e+000
0	 4.000000000000001e+000	 1.333351778131790e-001	 2.041919599567874e+000
0	 4.000000000000000e+000	 2.000039750814772e-001	 2.978486895440162e+000
0	 4.000000000000001e+000	 2.666734223614255e-001	 3.926616535306218e+000
0	 3.999999999999999e+000	 3.333434029809068e-001	 4.873201755102897e+000
0	 4.000000000000000e+000	 4.000138002678045e-001	 5.805134869612231e+000
0	 4.000000000000000e+000	 4.666844975500011e-001	 6.709307272636788e+000
0	 4.000000000000000e+000	 5.333553781553803e-001	 7.572609437150859e+000
0	 4.000000000000001e+000	 6.000263254118247e-001	 8.381930915427493e+000
0	 4.000000000000000e+000	 6.666972226472175e-001	 9.124160339141302e+000
0	 4.066670000003317e+000	 0.000000000000000e+000	 3.379461560403105e+000
0	 4.066670000003317e+000	 6.666714722864756e-002	 3.924129971493399e+000
0	 4.066670000003317e+000	 1.333351778131789e-001	 4.508322085980354e+000
0	 4.066670000003317e+000	 2.000039750814773e-001	 5.122117536758382e+000
0	 4.066670000003317e+000	 2.666734223614256e-001	 5.755595342469760e+000
0	 4.066670000003317e+000	 3.333434029809069e-001	 6.398833907660024e+000
0	 4.066670000003318e+000	 4.000138002678044e-001	 7.041911022917264e+000
0	 4.066670000003316e+000	 4.666844975500010e-001	 7.674903864995278e+000
0	 4.066670000003317e+000	 5.333553781553803e-001	 8.287888996920595e+000
0	 4.066670000003318e+000	 6.000263254118246e-001	 8.870942368083458e+000
0	 4.066670000003317e+000	 6.666972226472177e-001	 9.414139314312527e+000
0	 4.133340000006534e+000	 0.000000000000000e+000	 5.849850772926533e+000
0	 4.133340000006533e+000	 6.666714722864754e-002	 6.145934259866635e+000
0	 4.133340000006533e+000	 1.333351778131789e-001	 6.479987785836546e+000
0	 4.133340000006534e+000	 2.000039750814772e-001	 6.844896895131118e+000
0	 4.133340000006534e+000	 2.666734223614255e-001	 7.233546757613869e+000
0	 4.133340000006532e+000	 3.333434029809069e-001	 7.638822168818503e+000
0	 4.133340000006534e+000	 4.000138002678043e-001	 8.053607550040738e+000
0	 4.133340000006535e+000	 4.666844975500012e-001	 8.470786948420130e+000
0	 4.133340000006533e+000	 5.333553781553800e-001	 8.883244037012171e+000
0	 4.133340000006534e+000	 6.000263254118247e-001	 9.283862114850571e+000
0	 4.133340000006534e+000	 6.666972226472177e-001	 9.665524106999673e+000
0	 4.200010000009550e+000	 0.000000000000000e+000	 7.740278872401145e+000
0	 4.200010000009549e+000	 6.666714722864756e-002	 7.858109246607642e+000
0	 4.200010000009550e+000	 1.333351778131789e-001	 8.009801997465585e+000
0	 4.200010000009550e+000	 2.000039750814773e-001	 8.190669858791500e+000
0	 4.200010000009550e+000	 2.666734223614256e-001	 8.396025370166722e+000
0	 4.200010000009550e+000	 3.333434029809069e-001	 8.621180876997961e+000
0	 4.200010000009550e+000	 4.000138002678044e-001	 8.861448530572750e+000
0	 4.200010000009550e+000	 4.666844975500010e-001	 9.112140288109858e+000
0	 4.200010000009550e+000	 5.333553781553800e-001	 9.368567912804489e+000
0	 4.200010000009550e+000	 6.000263254118248e-001	 9.626042973868490e+000
0	 4.200010000009550e+000	 6.666972226472178e-001	 9.879876846565439e+000
0	 4.266680000012267e+000	 0.000000000000000e+000	 9.123962604596461e+000
0	 4.266680000012266e+000	 6.666714722864754e-002	 9.123330822806192e+000
0	 4.266680000012267e+000	 1.333351778131790e-001	 9.150650019196458e+000
0	 4.266680000012267e+000	 2.000039750814772e-001	 9.203281315972465e+000
0	 4.266680000012268e+000	 2.666734223614256e-001	 9.278585769556324e+000
0	 4.266680000012268e+000	 3.333434029809068e-001	 9.373924370617775e+000
0	 4.266680000012267e+000	 4.000138002678044e-001	 9.486658044103171e+000
0	 4.266680000012267e+000	 4.666844975500011e-001	 9.614147649262776e+000
0	 4.266680000012267e+000	 5.333553781553803e-001	 9.753753979676274e+000
0	 4.266680000012268e+000	 6.000263254118248e-001	 9.902837763276681e+000
0	 4.266680000012267e+000	 6.666972226472177e-001	 1.005875966237236e+001
0	 4.333350000014584e+000	 0.000000000000000e+000	 1.007411871528204e+001
0	 4.333350000014582e+000	 6.666714722864756e-002	 1.000427487955204e+001
0	 4.333350000014582e+000	 1.333351778131790e-001	 9.955417149358015e+000
0	 4.333350000014583e+000	 2.000039750814773e-001	 9.926576154906744e+000
0	 4.333350000014585e+000	 2.666734223614256e-001	 9.916782545210424e+000
0	 4.333350000014582e+000	 3.333434029809069e-001	 9.925066988097102e+000
0	 4.333350000014584e+000	 4.000138002678044e-001	 9.950460170221620e+000
0	 4.333350000014584e+000	 4.666844975500012e-001	 9.991992797076929e+000
0	 4.333350000014583e+000	 5.333553781553800e-001	 1.004869559300605e+001
0	 4.333350000014583e+000	 6.000263254118247e-001	 1.011959930121442e+001
0	 4.333350000014583e+000	 6.666972226472177e-001	 1.020373468378280e+001
0	 4.400020000016400e+000	 0.000000000000000e+000	 1.066396395022751e+001
0	 4.400020000016400e+000	 6.666714722864754e-002	 1.056361730793481e+001
0	 4.400020000016400e+000	 1.333351778131789e-001	 1.047698868627897e+001
0	 4.400020000016400e+000	 2.000039750814773e-001	 1.040439926382689e+001
0	 4.400020000016401e+000	 2.666734223614256e-001	 1.034617028655653e+001
0	 4.400020000016400e+000	 3.333434029809069e-001	 1.030262306785485e+001
0	 4.400020000016402e+000	 4.000138002678044e-001	 1.027407898851747e+001
0	 4.400020000016398e+000	 4.666844975500011e-001	 1.026085949675017e+001
0	 4.400020000016401e+000	 5.333553781553803e-001	 1.026328610817211e+001
0	 4.400020000016400e+000	 6.000263254118248e-001	 1.028168040582081e+001
0	 4.400020000016399e+000	 6.666972226472175e-001	 1.031636404015896e+001
0	 4.466690000017617e+000	 0.000000000000000e+000	 1.096671505520253e+001
0	 4.466690000017615e+000	 6.666714722864756e-002	 1.086403399904411e+001
0	 4.466690000017616e+000	 1.333351778131790e-001	 1.076824992828787e+001
0	 4.466690000017617e+000	 2.000039750814773e-001	 1.068059553096525e+001
0	 4.466690000017615e+000	 2.666734223614255e-001	 1.060230358302195e+001
0	 4.466690000017616e+000	 3.333434029809069e-001	 1.053460694830966e+001
0	 4.466690000017616e+000	 4.000138002678044e-001	 1.047873857857985e+001
0	 4.466690000017619e+000	 4.666844975500012e-001	 1.043593151348010e+001
0	 4.466690000017617e+000	 5.333553781553801e-001	 1.040741888055253e+001
0	 4.466690000017616e+000	 6.000263254118246e-001	 1.039443389523473e+001
0	 4.466690000017616e+000	 6.666972226472177e-001	 1.039820986086287e+001
0	 4.533360000018132e+000	 0.000000000000000e+000	 1.105558877597680e+001
0	 4.533360000018133e+000	 6.666714722864756e-002	 1.096820084396950e+001
0	 4.533360000018132e+000	 1.333351778131789e-001	 1.088208617371318e+001
0	 4.533360000018133e+000	 2.000039750814773e-001	 1.079900984455398e+001
0	 4.533360000018131e+000	 2.666734223614256e-001	 1.072073702403377e+001
0	 4.533360000018131e+000	 3.333434029809069e-001	 1.064903296787997e+001
0	 4.533360000018132e+000	 4.000138002678044e-001	 1.058566301999768e+001
0	 4.533360000018133e+000	 4.666844975500011e-001	 1.053239261246409e+001
0	 4.533360000018132e+000	 5.333553781553803e-001	 1.049098726552520e+001
0	 4.533360000018133e+000	 6.000263254118248e-001	 1.046321258759492e+001
0	 4.533360000018133e+000	 6.666972226472177e-001	 1.045083427525640e+001
0	 4.600030000017849e+000	 0.000000000000000e+000	 1.100380185832008e+001
0	 4.600030000017847e+000	 6.666714722864754e-002	 1.093879373380043e+001
0	 4.600030000017849e+000	 1.333351778131790e-001	 1.087138272088317e+001
0	 4.600030000017848e+000	 2.000039750814773e-001	 1.080348709282505e+001
0	 4.600030000017848e+000	 2.666734223614254e-001	 1.073702519901881e+001
0	 4.600030000017848e+000	 3.333434029809069e-001	 1.067391546498396e+001
0	 4.600030000017848e+000	 4.000138002678044e-001	 1.061607639235960e+001
0	 4.600030000017849e+000	 4.666844975500011e-001	 1.056542655889929e+001
0	 4.600030000017849e+000	 5.333553781553801e-001	 1.052388461846777e+001
0	 4.600030000017849e+000	 6.000263254118249e-001	 1.049336930103987e+001
0	 4.600030000017848e+000	 6.666972226472175e-001	 1.047579941270125e+001
0	 4.666700000016666e+000	 0.000000000000000e+000	 1.088457104800215e+001
0	 4.666700000016666e+000	 6.666714722864757e-002	 1.083848855962634e+001
0	 4.666700000016667e+000	 1.333351778131790e-001	 1.078902486812599e+001
0	 4.666700000016665e+000	 2.000039750814772e-001	 1.073787216401024e+001
0	 4.666700000016666e+000	 2.666734223614256e-001	 1.068672269740370e+001
0	 4.666700000016668e+000	 3.333434029809070e-001	 1.063726877803955e+001
0	 4.666700000016665e+000	 4.000138002678044e-001	 1.059120277525403e+001
0	 4.666700000016666e+000	 4.666844975500011e-001	 1.055021711798260e+001
0	 4.666700000016667e+000	 5.333553781553803e-001	 1.051600429475770e+001
0	 4.666700000016666e+000	 6.000263254118248e-001	 1.049025685370794e+001
0	 4.666700000016667e+000	 6.666972226472179e-001	 1.047466740255896e+001
0	 4.000000000000000e+000	 6.666972226472175e-001	 9.124160339141302e+000
0	 4.000000000000002e+000	 7.333579753122048e-001	 9.802239778088485e+000
0	 4.000000000000001e+000	 8.000185779984418e-001	 1.042725577643068e+001
0	 4.000000000000000e+000	 8.666790473703454e-001	 1.099799612883664e+001
0	 4.000000000000000e+000	 9.333394000923323e-001	 1.151324871893541e+001
0	 3.999999999999999e+000	 9.999996528288188e-001	 1.197180151931904e+001
0	 4.000000000000001e+000	 1.066659822244222e+000	 1.237244259154498e+001
0	 3.999999999999999e+000	 1.133319925002959e+000	 1.271396008613817e+001
0	 4.000000000000001e+000	 1.199979977769445e+000	 1.299514224259270e+001
0	 4.000000000000000e+000	 1.266639997208098e+000	 1.321477738937326e+001
0	 3.999999999999999e+000	 1.333299999983334e+000	 1.337165394391618e+001
0	 4.066670000003317e+000	 6.666972226472177e-001	 9.414139314312527e+000
0	 4.066670000003317e+000	 7.333579753122046e-001	 9.916371148359774e+000
0	 4.066670000003316e+000	 8.000185779984417e-001	 1.038247941135771e+001
0	 4.066670000003318e+000	 8.666790473703452e-001	 1.081123040007793e+001
0	 4.066670000003317e+000	 9.333394000923323e-001	 1.120139047658634e+001
0	 4.066670000003317e+000	 9.999996528288190e-001	 1.155172606824518e+001
0	 4.066670000003318e+000	 1.066659822244223e+000	 1.186100366771479e+001
0	 4.066670000003317e+000	 1.133319925002959e+000	 1.212798983295519e+001
0	 4.066670000003318e+000	 1.199979977769445e+000	 1.235145118722741e+001
0	 4.066670000003317e+000	 1.266639997208098e+000	 1.253015441909449e+001
0	 4.066670000003317e+000	 1.333299999983333e+000	 1.266286628242230e+001
0	 4.133340000006534e+000	 6.666972226472177e-001	 9.665524106999671e+000
0	 4.133340000006534e+000	 7.333579753122047e-001	 1.002438150777024e+001
0	 4.133340000006532e+000	 8.000185779984416e-001	 1.036061709532265e+001
0	 4.133340000006534e+000	 8.666790473703452e-001	 1.067299406797234e+001
0	 4.133340000006534e+000	 9.333394000923320e-001	 1.096027567041025e+001
0	 4.133340000006535e+000	 9.999996528288191e-001	 1.122122519370431e+001
0	 4.133340000006534e+000	 1.066659822244222e+000	 1.145460597530068e+001
0	 4.133340000006535e+000	 1.133319925002959e+000	 1.165918139902503e+001
0	 4.133340000006534e+000	 1.199979977769445e+000	 1.183371489508336e+001
0	 4.133340000006534e+000	 1.266639997208098e+000	 1.197696994006287e+001
0	 4.133340000006534e+000	 1.333299999983334e+000	 1.208771005693254e+001
0	 4.200010000009550e+000	 6.666972226472178e-001	 9.879876846565443e+000
0	 4.200010000009551e+000	 7.333579753122049e-001	 1.012459626459908e+001
0	 4.200010000009550e+000	 8.000185779984417e-001	 1.035711459313291e+001
0	 4.200010000009550e+000	 8.666790473703452e-001	 1.057621033590312e+001
0	 4.200010000009550e+000	 9.333394000923323e-001	 1.078066202831420e+001
0	 4.200010000009551e+000	 9.999996528288190e-001	 1.096924823743999e+001
0	 4.200010000009550e+000	 1.066659822244222e+000	 1.114074756202466e+001
0	 4.200010000009550e+000	 1.133319925002958e+000	 1.129393863248349e+001
0	 4.200010000009550e+000	 1.199979977769445e+000	 1.142760011090356e+001
0	 4.200010000009550e+000	 1.266639997208098e+000	 1.154051069104434e+001
0	 4.200010000009550e+000	 1.333299999983334e+000	 1.163144909833813e+001
0	 4.266680000012267e+000	 6.666972226472177e-001	 1.005875966237236e+001
0	 4.266680000012267e+000	 7.333579753122047e-001	 1.021534082712534e+001
0	 4.266680000012265e+000	 8.000185779984413e-001	 1.036741766959581e+001
0	 4.266680000012267e+000	 8.666790473703453e-001	 1.051380240725344e+001
0	 4.266680000012268e+000	 9.333394000923322e-001	 1.065330727820515e+001
0	 4.266680000012267e+000	 9.999996528288189e-001	 1.078474454119574e+001
0	 4.266680000012267e+000	 1.066659822244222e+000	 1.090692647560861e+001
0	 4.266680000012266e+000	 1.133319925002959e+000	 1.101866538146631e+001
0	 4.266680000012267e+000	 1.199979977769445e+000	 1.111877357943098e+001
0	 4.266680000012267e+000	 1.266639997208098e+000	 1.120606341080480e+001
0	 4.266680000012265e+000	 1.333299999983333e+000	 1.127934723753032e+001
0	 4.333350000014583e+000	 6.666972226472177e-001	 1.020373468378280e+001
0	 4.333350000014583e+000	 7.333579753122048e-001	 1.029494060362794e+001
0	 4.333350000014583e+000	 8.000185779984417e-001	 1.038697208951848e+001
0	 4.333350000014583e+000	 8.666790473703452e-001	 1.047869348540632e+001
0	 4.333350000014584e+000	 9.333394000923323e-001	 1.056896914798995e+001
0	 4.333350000014582e+000	 9.999996528288190e-001	 1.065666344671495e+001
0	 4.333350000014583e+000	 1.066659822244222e+000	 1.074064076377438e+001
0	 4.333350000014583e+000	 1.133319925002959e+000	 1.081976549410917e+001
0	 4.333350000014582e+000	 1.199979977769445e+000	 1.089290204540852e+001
0	 4.333350000014583e+000	 1.266639997208098e+000	 1.095891483811007e+001
0	 4.333350000014583e+000	 1.333299999983334e+000	 1.101666830540025e+001
0	 4.400020000016399e+000	 6.666972226472175e-001	 1.031636404015896e+001
0	 4.400020000016400e+000	 7.333579753122048e-001	 1.036172100238564e+001
0	 4.400020000016400e+000	 8.000185779984417e-001	 1.041122361770797e+001
0	 4.400020000016399e+000	 8.666790473703453e-001	 1.046380677374468e+001
0	 4.400020000016400e+000	 9.333394000923323e-001	 1.051840536557540e+001
0	 4.400020000016398e+000	 9.999996528288188e-001	 1.057395429574096e+001
0	 4.400020000016401e+000	 1.066659822244222e+000	 1.062938847424370e+001
0	 4.400020000016401e+000	 1.133319925002958e+000	 1.068364281854769e+001
0	 4.400020000016400e+000	 1.199979977769445e+000	 1.073565225357903e+001
0	 4.400020000016400e+000	 1.266639997208098e+000	 1.078435171172596e+001
0	 4.400020000016401e+000	 1.333299999983334e+000	 1.082867613283906e+001
0	 4.466690000017616e+000	 6.666972226472177e-001	 1.039820986086287e+001
0	 4.466690000017617e+000	 7.333579753122048e-001	 1.041400743167705e+001
0	 4.466690000017617e+000	 8.000185779984417e-001	 1.043561801897120e+001
0	 4.466690000017616e+000	 8.666790473703452e-001	 1.046206547565137e+001
0	 4.466690000017616e+000	 9.333394000923321e-001	 1.049237365886817e+001
0	 4.466690000017618e+000	 9.999996528288189e-001	 1.052556643001701e+001
0	 4.466690000017617e+000	 1.066659822244222e+000	 1.056066765473827e+001
0	 4.466690000017614e+000	 1.133319925002958e+000	 1.059670120291743e+001
0	 4.466690000017616e+000	 1.199979977769445e+000	 1.063269094868533e+001
0	 4.466690000017615e+000	 1.266639997208098e+000	 1.066766077041820e+001
0	 4.466690000017615e+000	 1.333299999983334e+000	 1.070063455073785e+001
0	 4.533360000018133e+000	 6.666972226472177e-001	 1.045083427525640e+001
0	 4.533360000018132e+000	 7.333579753122049e-001	 1.045012529978065e+001
0	 4.533360000018132e+000	 8.000185779984417e-001	 1.045560105811495e+001
0	 4.533360000018130e+000	 8.666790473703453e-001	 1.046639279450908e+001
0	 4.533360000018133e+000	 9.333394000923322e-001	 1.048163175577485e+001
0	 4.533360000018132e+000	 9.999996528288191e-001	 1.050044919128628e+001
0	 4.533360000018132e+000	 1.066659822244222e+000	 1.052197635297969e+001
0	 4.533360000018133e+000	 1.133319925002959e+000	 1.054534449535388e+001
0	 4.533360000018133e+000	 1.199979977769445e+000	 1.056968487547014e+001
0	 4.533360000018133e+000	 1.266639997208098e+000	 1.059412875295249e+001
0	 4.533360000018131e+000	 1.333299999983334e+000	 1.061780738998764e+001
0	 4.600030000017848e+000	 6.666972226472175e-001	 1.047579941270125e+001
0	 4.600030000017849e+000	 7.333579753122049e-001	 1.046840001497478e+001
0	 4.600030000017849e+000	 8.000185779984419e-001	 1.046661849994589e+001
0	 4.600030000017848e+000	 8.666790473703451e-001	 1.046971193370041e+001
0	 4.600030000017849e+000	 9.333394000923323e-001	 1.047693738420192e+001
0	 4.600030000017849e+000	 9.999996528288190e-001	 1.048755192129183e+001
0	 4.600030000017849e+000	 1.066659822244222e+000	 1.050081261668953e+001
0	 4.600030000017849e+000	 1.133319925002959e+000	 1.051597654399244e+001
0	 4.600030000017849e+000	 1.199979977769445e+000	 1.053230077867616e+001
0	 4.600030000017847e+000	 1.266639997208098e+000	 1.054904239809446e+001
0	 4.600030000017849e+000	 1.333299999983334e+000	 1.056545848147942e+001
0	 4.666700000016667e+000	 6.666972226472179e-001	 1.047466740255896e+001
0	 4.666700000016665e+000	 7.333579753122046e-001	 1.046715698553761e+001
0	 4.666700000016666e+000	 8.000185779984418e-001	 1.046411610927054e+001
0	 4.666700000016665e+000	 8.666790473703452e-001	 1.046494609660787e+001
0	 4.666700000016666e+000	 9.333394000923320e-001	 1.046904827205577e+001
0	 4.666700000016666e+000	 9.999996528288190e-001	 1.047582396177667e+001
0	 4.666700000016665e+000	 1.066659822244222e+000	 1.048467449358924e+001
0	 4.666700000016667e+000	 1.133319925002959e+000	 1.049500119696852e+001
0	 4.666700000016666e+000	 1.199979977769445e+000	 1.050620540304602e+001
0	 4.666700000016667e+000	 1.266639997208098e+000	 1.051768844460971e+001
0	 4.666700000016666e+000	 1.333299999983334e+000	 1.052885165610416e+001
0	 3.999999999999999e+000	 1.333299999983334e+000	 1.337165394391618e+001
0	 4.000000000000000e+000	 1.399969999982150e+000	 1.347753291295715e+001
0	 4.000000000000002e+000	 1.466639999981866e+000	 1.354539898402391e+001
0	 4.000000000000000e+000	 1.533309999982383e+000	 1.357593246013848e+001
0	 4.000000000000001e+000	 1.599979999983599e+000	 1.356981364432257e+001
0	 4.000000000000001e+000	 1.666649999985416e+000	 1.352772283959759e+001
0	 4.000000000000001e+000	 1.733319999987733e+000	 1.345034034898464e+001
0	 4.000000000000001e+000	 1.799989999990450e+000	 1.333834647550451e+001
0	 4.000000000000000e+000	 1.866659999993467e+000	 1.319242152217770e+001
0	 4.000000000000001e+000	 1.933329999996683e+000	 1.301324579202439e+001
0	 4.000000000000001e+000	 2.000000000000000e+000	 1.280149958806445e+001
0	 4.066670000003317e+000	 1.333299999983333e+000	 1.266286628242230e+001
0	 4.066670000003317e+000	 1.399969999982150e+000	 1.275642859715231e+001
0	 4.066670000003317e+000	 1.466639999981866e+000	 1.281884663378771e+001
0	 4.066670000003316e+000	 1.533309999982383e+000	 1.285068156323452e+001
0	 4.066670000003318e+000	 1.599979999983600e+000	 1.285249455639852e+001
0	 4.066670000003317e+000	 1.666649999985416e+000	 1.282484678418526e+001
0	 4.066670000003317e+000	 1.733319999987733e+000	 1.276829941750002e+001
0	 4.066670000003317e+000	 1.799989999990450e+000	 1.268341362724781e+001
0	 4.066670000003317e+000	 1.866659999993467e+000	 1.257075058433344e+001
0	 4.066670000003316e+000	 1.933329999996683e+000	 1.243087145966140e+001
0	 4.066670000003316e+000	 2.000000000000000e+000	 1.226433742413599e+001
0	 4.133340000006534e+000	 1.333299999983334e+000	 1.208771005693254e+001
0	 4.133340000006534e+000	 1.399969999982151e+000	 1.216907386933657e+001
0	 4.133340000006534e+000	 1.466639999981866e+000	 1.222529871010920e+001
0	 4.133340000006533e+000	 1.533309999982382e+000	 1.225683853675193e+001
0	 4.133340000006534e+000	 1.599979999983600e+000	 1.226414730676606e+001
0	 4.133340000006534e+000	 1.666649999985416e+000	 1.224767897765274e+001
0	 4.133340000006534e+000	 1.733319999987733e+000	 1.220788750691284e+001
0	 4.133340000006534e+000	 1.799989999990450e+000	 1.214522685204708e+001
0	 4.133340000006534e+000	 1.866659999993467e+000	 1.206015097055595e+001
0	 4.133340000006535e+000	 1.933329999996683e+000	 1.195311381993973e+001
0	 4.133340000006533e+000	 2.000000000000000e+000	 1.182456935769852e+001
0	 4.200010000009550e+000	 1.333299999983334e+000	 1.163144909833814e+001
0	 4.200010000009549e+000	 1.399969999982150e+000	 1.170091573584678e+001
0	 4.200010000009550e+000	 1.466639999981866e+000	 1.175044041642190e+001
0	 4.200010000009551e+000	 1.533309999982383e+000	 1.178038180287199e+001
0	 4.200010000009550e+000	 1.599979999983599e+000	 1.179109855800535e+001
0	 4.200010000009549e+000	 1.666649999985416e+000	 1.178294934463011e+001
0	 4.200010000009550e+000	 1.733319999987733e+000	 1.175629282555422e+001
0	 4.200010000009550e+000	 1.799989999990450e+000	 1.171148766358552e+001
0	 4.200010000009550e+000	 1.866659999993466e+000	 1.164889252153164e+001
0	 4.200010000009550e+000	 1.933329999996683e+000	 1.156886606220006e+001
0	 4.200010000009550e+000	 1.999999999999999e+000	 1.147176694839808e+001
0	 4.266680000012265e+000	 1.333299999983333e+000	 1.127934723753032e+001
0	 4.266680000012267e+000	 1.399969999982150e+000	 1.133740120301971e+001
0	 4.266680000012267e+000	 1.466639999981867e+000	 1.137995695615931e+001
0	 4.266680000012266e+000	 1.533309999982383e+000	 1.140728978377599e+001
0	 4.266680000012267e+000	 1.599979999983599e+000	 1.141967497269648e+001
0	 4.266680000012267e+000	 1.666649999985416e+000	 1.141738780974740e+001
0	 4.266680000012268e+000	 1.733319999987733e+000	 1.140070358175523e+001
0	 4.266680000012266e+000	 1.799989999990449e+000	 1.136989757554633e+001
0	 4.266680000012268e+000	 1.866659999993466e+000	 1.132524507794691e+001
0	 4.266680000012267e+000	 1.933329999996683e+000	 1.126702137578307e+001
0	 4.266680000012267e+000	 2.000000000000000e+000	 1.119550175588078e+001
0	 4.333350000014583e+000	 1.333299999983334e+000	 1.101666830540025e+001
0	 4.333350000014585e+000	 1.399969999982150e+000	 1.106397727719216e+001
0	 4.333350000014582e+000	 1.466639999981867e+000	 1.109953353275487e+001
0	 4.333350000014582e+000	 1.533309999982383e+000	 1.112354090164512e+001
0	 4.333350000014584e+000	 1.599979999983599e+000	 1.113620321341953e+001
0	 4.333350000014583e+000	 1.666649999985416e+000	 1.113772429763465e+001
0	 4.333350000014583e+000	 1.733319999987733e+000	 1.112830798384692e+001
0	 4.333350000014583e+000	 1.799989999990449e+000	 1.110815810161266e+001
0	 4.333350000014583e+000	 1.866659999993466e+000	 1.107747848048812e+001
0	 4.333350000014583e+000	 1.933329999996683e+000	 1.103647295002944e+001
0	 4.333350000014584e+000	 2.000000000000000e+000	 1.098534533979264e+001
0	 4.400020000016401e+000	 1.333299999983334e+000	 1.082867613283906e+001
0	 4.400020000016399e+000	 1.399969999982150e+000	 1.086609096470086e+001
0	 4.400020000016400e+000	 1.466639999981867e+000	 1.089485534964201e+001
0	 4.400020000016399e+000	 1.533309999982383e+000	 1.091511357866058e+001
0	 4.400020000016400e+000	 1.599979999983599e+000	 1.092700994275455e+001
0	 4.400020000016400e+000	 1.666649999985416e+000	 1.093068873292185e+001
0	 4.400020000016399e+000	 1.733319999987733e+000	 1.092629424016030e+001
0	 4.400020000016400e+000	 1.799989999990450e+000	 1.091397075546766e+001
0	 4.400020000016399e+000	 1.866659999993466e+000	 1.089386256984161e+001
0	 4.400020000016399e+000	 1.933329999996683e+000	 1.086611397427977e+001
0	 4.400020000016400e+000	 2.000000000000000e+000	 1.083086925977968e+001
0	 4.466690000017615e+000	 1.333299999983334e+000	 1.070063455073785e+001
0	 4.466690000017617e+000	 1.399969999982150e+000	 1.072918927188247e+001
0	 4.466690000017617e+000	 1.466639999981867e+000	 1.075160761025408e+001
0	 4.466690000017618e+000	 1.533309999982383e+000	 1.076798623700351e+001
0	 4.466690000017615e+000	 1.599979999983599e+000	 1.077842182328155e+001
0	 4.466690000017616e+000	 1.666649999985416e+000	 1.078301104023894e+001
0	 4.466690000017616e+000	 1.733319999987733e+000	 1.078185055902635e+001
0	 4.466690000017616e+000	 1.799989999990450e+000	 1.077503705079441e+001
0	 4.466690000017617e+000	 1.866659999993466e+000	 1.076266718669369e+001
0	 4.466690000017617e+000	 1.933329999996683e+000	 1.074483763787468e+001
0	 4.466690000017617e+000	 2.000000000000000e+000	 1.072164507548787e+001
0	 4.533360000018131e+000	 1.333299999983334e+000	 1.061780738998764e+001
0	 4.533360000018131e+000	 1.399969999982150e+000	 1.063871920507367e+001
0	 4.533360000018132e+000	 1.466639999981867e+000	 1.065547551802445e+001
0	 4.533360000018131e+000	 1.533309999982383e+000	 1.066813729885504e+001
0	 4.533360000018132e+000	 1.599979999983600e+000	 1.067676551758053e+001
0	 4.533360000018132e+000	 1.666649999985416e+000	 1.068142114421587e+001
0	 4.533360000018131e+000	 1.733319999987733e+000	 1.068216514877606e+001
0	 4.533360000018132e+000	 1.799989999990450e+000	 1.067905850127601e+001
0	 4.533360000018133e+000	 1.866659999993466e+000	 1.067216217173063e+001
0	 4.533360000018133e+000	 1.933329999996683e+000	 1.066153713015475e+001
0	 4.533360000018131e+000	 2.000000000000000e+000	 1.064724434656318e+001
0	 4.600030000017849e+000	 1.333299999983334e+000	 1.056545848147942e+001
0	 4.600030000017848e+000	 1.399969999982150e+000	 1.058012777061105e+001
0	 4.600030000017847e+000	 1.466639999981866e+000	 1.059214427638640e+001
0	 4.600030000017849e+000	 1.533309999982383e+000	 1.060154518639628e+001
0	 4.600030000017849e+000	 1.599979999983599e+000	 1.060836768823140e+001
0	 4.600030000017848e+000	 1.666649999985416e+000	 1.061264896948252e+001
0	 4.600030000017849e+000	 1.733319999987733e+000	 1.061442621774033e+001
0	 4.600030000017848e+000	 1.799989999990449e+000	 1.061373662059550e+001
0	 4.600030000017849e+000	 1.866659999993466e+000	 1.061061736563869e+001
0	 4.600030000017850e+000	 1.933329999996683e+000	 1.060510564046050e+001
0	 4.600030000017850e+000	 2.000000000000000e+000	 1.059723863265156e+001
0	 4.666700000016666e+000	 1.333299999983334e+000	 1.052885165610416e+001
0	 4.666700000016665e+000	 1.399969999982150e+000	 1.053886197483118e+001
0	 4.666700000016666e+000	 1.466639999981866e+000	 1.054729908877324e+001
0	 4.666700000016667e+000	 1.533309999982383e+000	 1.055418832180824e+001
0	 4.666700000016666e+000	 1.599979999983600e+000	 1.055955499781412e+001
0	 4.666700000016665e+000	 1.666649999985416e+000	 1.056342444066878e+001
0	 4.666700000016666e+000	 1.733319999987733e+000	 1.056582197425008e+001
0	 4.666700000016666e+000	 1.799989999990450e+000	 1.056677292243589e+001
0	 4.666700000016666e+000	 1.866659999993466e+000	 1.056630260910409e+001
0	 4.666700000016666e+000	 1.933329999996683e+000	 1.056443635813247e+001
0	 4.666700000016666e+000	 2.000000000000000e+000	 1.056119949339887e+001
0	 4.000000000000001e+000	 2.000000000000000e+000	 1.280149958806445e+001
0	 4.000000000000001e+000	 2.066670000003317e+000	 1.258008449248537e+001
0	 4.000000000000001e+000	 2.133340000006534e+000	 1.237130895066162e+001
0	 4.000000000000000e+000	 2.200010000009551e+000	 1.217496356039338e+001
0	 4.000000000000001e+000	 2.266680000012268e+000	 1.199083891948090e+001
0	 4.000000000000000e+000	 2.333350000014584e+000	 1.181872562572454e+001
0	 4.000000000000000e+000	 2.400020000016400e+000	 1.165841427692476e+001
0	 4.000000000000001e+000	 2.466690000017617e+000	 1.150969547088211e+001
0	 4.000000000000001e+000	 2.533360000018134e+000	 1.137235980539725e+001
0	 4.000000000000000e+000	 2.600030000017850e+000	 1.124619787827090e+001
0	 4.000000000000000e+000	 2.666700000016667e+000	 1.113100028730393e+001
0	 4.066670000003316e+000	 2.000000000000000e+000	 1.226433742413599e+001
0	 4.066670000003317e+000	 2.066670000003317e+000	 1.209003486858299e+001
0	 4.066670000003317e+000	 2.133340000006534e+000	 1.192634749557512e+001
0	 4.066670000003317e+000	 2.200010000009551e+000	 1.177308244363697e+001
0	 4.066670000003318e+000	 2.266680000012268e+000	 1.163004685129317e+001
0	 4.066670000003317e+000	 2.333350000014583e+000	 1.149704785706846e+001
0	 4.066670000003317e+000	 2.400020000016401e+000	 1.137389259948765e+001
0	 4.066670000003317e+000	 2.466690000017617e+000	 1.126038821707562e+001
0	 4.066670000003318e+000	 2.533360000018134e+000	 1.115634184835737e+001
0	 4.066670000003317e+000	 2.600030000017850e+000	 1.106156063185791e+001
0	 4.066670000003316e+000	 2.666700000016667e+000	 1.097585170610241e+001
0	 4.133340000006533e+000	 2.000000000000000e+000	 1.182456935769852e+001
0	 4.133340000006534e+000	 2.066670000003318e+000	 1.168988238277724e+001
0	 4.133340000006534e+000	 2.133340000006534e+000	 1.156399800715656e+001
0	 4.133340000006533e+000	 2.200010000009550e+000	 1.144674065789005e+001
0	 4.133340000006534e+000	 2.266680000012267e+000	 1.133793476203134e+001
0	 4.133340000006533e+000	 2.333350000014585e+000	 1.123740474663411e+001
0	 4.133340000006535e+000	 2.400020000016401e+000	 1.114497503875213e+001
0	 4.133340000006534e+000	 2.466690000017617e+000	 1.106047006543923e+001
0	 4.133340000006533e+000	 2.533360000018134e+000	 1.098371425374930e+001
0	 4.133340000006534e+000	 2.600030000017851e+000	 1.091453203073628e+001
0	 4.133340000006534e+000	 2.666700000016666e+000	 1.085274782345421e+001
0	 4.200010000009550e+000	 1.999999999999999e+000	 1.147176694839808e+001
0	 4.200010000009550e+000	 2.066670000003318e+000	 1.136989868768413e+001
0	 4.200010000009550e+000	 2.133340000006534e+000	 1.127522065466988e+001
0	 4.200010000009550e+000	 2.200010000009551e+000	 1.118757531274247e+001
0	 4.200010000009550e+000	 2.266680000012268e+000	 1.110680512528912e+001
0	 4.200010000009550e+000	 2.333350000014584e+000	 1.103275255569707e+001
0	 4.200010000009550e+000	 2.400020000016400e+000	 1.096526006735366e+001
0	 4.200010000009551e+000	 2.466690000017618e+000	 1.090417012364624e+001
0	 4.200010000009550e+000	 2.533360000018134e+000	 1.084932518796223e+001
0	 4.200010000009550e+000	 2.600030000017850e+000	 1.080056772368908e+001
0	 4.200010000009550e+000	 2.666700000016667e+000	 1.075774019421432e+001
0	 4.266680000012267e+000	 2.000000000000000e+000	 1.119550175588078e+001
0	 4.266680000012266e+000	 2.066670000003317e+000	 1.112035543591966e+001
0	 4.266680000012268e+000	 2.133340000006534e+000	 1.105097560737895e+001
0	 4.266680000012268e+000	 2.200010000009550e+000	 1.098722351778400e+001
0	 4.266680000012268e+000	 2.266680000012267e+000	 1.092896041466018e+001
0	 4.266680000012268e+000	 2.333350000014584e+000	 1.087604754553292e+001
0	 4.266680000012268e+000	 2.400020000016401e+000	 1.082834615792768e+001
0	 4.266680000012266e+000	 2.466690000017617e+000	 1.078571749936997e+001
0	 4.266680000012267e+000	 2.533360000018134e+000	 1.074802281738533e+001
0	 4.266680000012268e+000	 2.600030000017850e+000	 1.071512335949936e+001
0	 4.266680000012266e+000	 2.666700000016666e+000	 1.068688037323767e+001
0	 4.333350000014584e+000	 2.000000000000000e+000	 1.098534533979264e+001
0	 4.333350000014583e+000	 2.066670000003317e+000	 1.093152428009978e+001
0	 4.333350000014582e+000	 2.133340000006534e+000	 1.088222303454766e+001
0	 4.333350000014584e+000	 2.200010000009550e+000	 1.083732238260440e+001
0	 4.333350000014583e+000	 2.266680000012267e+000	 1.079670310373817e+001
0	 4.333350000014582e+000	 2.333350000014584e+000	 1.076024597741716e+001
0	 4.333350000014584e+000	 2.400020000016401e+000	 1.072783178310958e+001
0	 4.333350000014582e+000	 2.466690000017616e+000	 1.069934130028370e+001
0	 4.333350000014583e+000	 2.533360000018134e+000	 1.067465530840778e+001
0	 4.333350000014584e+000	 2.600030000017851e+000	 1.065365458695017e+001
0	 4.333350000014583e+000	 2.666700000016666e+000	 1.063621991537920e+001
0	 4.400020000016400e+000	 2.000000000000000e+000	 1.083086925977968e+001
0	 4.400020000016400e+000	 2.066670000003317e+000	 1.079367687284044e+001
0	 4.400020000016399e+000	 2.133340000006534e+000	 1.075992310543984e+001
0	 4.400020000016399e+000	 2.200010000009550e+000	 1.072950901679343e+001
0	 4.400020000016399e+000	 2.266680000012267e+000	 1.070233566611671e+001
0	 4.400020000016399e+000	 2.333350000014585e+000	 1.067830411262530e+001
0	 4.400020000016401e+000	 2.400020000016401e+000	 1.065731541553474e+001
0	 4.400020000016400e+000	 2.466690000017617e+000	 1.063927063406067e+001
0	 4.400020000016401e+000	 2.533360000018133e+000	 1.062407082741872e+001
0	 4.400020000016400e+000	 2.600030000017850e+000	 1.061161705482453e+001
0	 4.400020000016400e+000	 2.666700000016666e+000	 1.060181037549381e+001
0	 4.466690000017617e+000	 2.000000000000000e+000	 1.072164507548787e+001
0	 4.466690000017616e+000	 2.066670000003316e+000	 1.069708486675752e+001
0	 4.466690000017616e+000	 2.133340000006533e+000	 1.067503598931932e+001
0	 4.466690000017617e+000	 2.200010000009550e+000	 1.065542052994077e+001
0	 4.466690000017615e+000	 2.266680000012267e+000	 1.063816057538942e+001
0	 4.466690000017616e+000	 2.333350000014585e+000	 1.062317821243282e+001
0	 4.466690000017615e+000	 2.400020000016400e+000	 1.061039552783853e+001
0	 4.466690000017616e+000	 2.466690000017617e+000	 1.059973460837414e+001
0	 4.466690000017618e+000	 2.533360000018134e+000	 1.059111754080724e+001
0	 4.466690000017618e+000	 2.600030000017851e+000	 1.058446641190545e+001
0	 4.466690000017616e+000	 2.666700000016666e+000	 1.057970330843640e+001
0	 4.533360000018131e+000	 2.000000000000000e+000	 1.064724434656318e+001
0	 4.533360000018133e+000	 2.066670000003317e+000	 1.063201991446694e+001
0	 4.533360000018133e+000	 2.133340000006534e+000	 1.061852185544987e+001
0	 4.533360000018131e+000	 2.200010000009550e+000	 1.060669403163614e+001
0	 4.533360000018131e+000	 2.266680000012267e+000	 1.059648030514986e+001
0	 4.533360000018132e+000	 2.333350000014584e+000	 1.058782453811519e+001
0	 4.533360000018132e+000	 2.400020000016400e+000	 1.058067059265628e+001
0	 4.533360000018132e+000	 2.466690000017617e+000	 1.057496233089731e+001
0	 4.533360000018132e+000	 2.533360000018133e+000	 1.057064361496246e+001
0	 4.533360000018132e+000	 2.600030000017850e+000	 1.056765830697590e+001
0	 4.533360000018131e+000	 2.666700000016666e+000	 1.056595026906184e+001
0	 4.600030000017850e+000	 2.000000000000000e+000	 1.059723863265156e+001
0	 4.600030000017848e+000	 2.066670000003317e+000	 1.058875366858452e+001
0	 4.600030000017850e+000	 2.133340000006534e+000	 1.058134087309528e+001
0	 4.600030000017849e+000	 2.200010000009551e+000	 1.057496663146918e+001
0	 4.600030000017848e+000	 2.266680000012267e+000	 1.056959732899158e+001
0	 4.600030000017848e+000	 2.333350000014584e+000	 1.056519935094784e+001
0	 4.600030000017849e+000	 2.400020000016401e+000	 1.056173908262332e+001
0	 4.600030000017850e+000	 2.466690000017617e+000	 1.055918290930340e+001
0	 4.600030000017848e+000	 2.533360000018134e+000	 1.055749721627345e+001
0	 4.600030000017849e+000	 2.600030000017850e+000	 1.055664838881886e+001
0	 4.600030000017850e+000	 2.666700000016666e+000	 1.055660281222501e+001
0	 4.666700000016666e+000	 2.000000000000000e+000	 1.056119949339887e+001
0	 4.666700000016665e+000	 2.066670000003317e+000	 1.055755778172611e+001
0	 4.666700000016666e+000	 2.133340000006534e+000	 1.055445321151927e+001
0	 4.666700000016667e+000	 2.200010000009551e+000	 1.055187543902954e+001
0	 4.666700000016666e+000	 2.266680000012268e+000	 1.054981412050810e+001
0	 4.666700000016667e+000	 2.333350000014584e+000	 1.054825891220617e+001
0	 4.666700000016666e+000	 2.400020000016401e+000	 1.054719947037491e+001
0	 4.666700000016668e+000	 2.466690000017617e+000	 1.054662545126556e+001
0	 4.666700000016667e+000	 2.533360000018134e+000	 1.054652651112927e+001
0	 4.666700000016667e+000	 2.600030000017851e+000	 1.054689230621726e+001
0	 4.666700000016666e+000	 2.666700000016666e+000	 1.054771249278073e+001
0	 4.000000000000000e+000	 2.666700000016667e+000	 1.113100028730393e+001
0	 4.000000000000000e+000	 2.733360000014533e+000	 1.102661910760254e+001
0	 4.000000000000000e+000	 2.800020000011599e+000	 1.093298672297057e+001
0	 4.000000000000001e+000	 2.866680000008067e+000	 1.085006359513573e+001
0	 4.000000000000000e+000	 2.933340000004133e+000	 1.077781018582559e+001
0	 4.000000000000000e+000	 3.000000000000000e+000	 1.071618695676749e+001
0	 4.000000000000000e+000	 3.066659999995867e+000	 1.066515436968860e+001
0	 4.000000000000000e+000	 3.133319999991933e+000	 1.062467288631587e+001
0	 4.000000000000001e+000	 3.199979999988401e+000	 1.059470296837608e+001
0	 4.000000000000001e+000	 3.266639999985467e+000	 1.057520507759582e+001
0	 4.000000000000000e+000	 3.333299999983333e+000	 1.056613967570147e+001
0	 4.066670000003316e+000	 2.666700000016667e+000	 1.097585170610241e+001
0	 4.066670000003318e+000	 2.733360000014534e+000	 1.089857229298171e+001
0	 4.066670000003316e+000	 2.800020000011600e+000	 1.082918113076882e+001
0	 4.066670000003319e+000	 2.866680000008067e+000	 1.076767418741453e+001
0	 4.066670000003317e+000	 2.933340000004133e+000	 1.071404743086955e+001
0	 4.066670000003319e+000	 3.000000000000000e+000	 1.066829682908445e+001
0	 4.066670000003318e+000	 3.066659999995867e+000	 1.063041835000961e+001
0	 4.066670000003318e+000	 3.133319999991933e+000	 1.060040796159532e+001
0	 4.066670000003316e+000	 3.199979999988401e+000	 1.057826163179169e+001
0	 4.066670000003318e+000	 3.266639999985467e+000	 1.056397532854870e+001
0	 4.066670000003317e+000	 3.333299999983334e+000	 1.055754501981621e+001
0	 4.133340000006534e+000	 2.666700000016666e+000	 1.085274782345421e+001
0	 4.133340000006534e+000	 2.733360000014534e+000	 1.079736145629847e+001
0	 4.133340000006531e+000	 2.800020000011599e+000	 1.074748921866298e+001
0	 4.133340000006533e+000	 2.866680000008067e+000	 1.070315639846712e+001
0	 4.133340000006534e+000	 2.933340000004133e+000	 1.066438828363017e+001
0	 4.133340000006534e+000	 3.000000000000000e+000	 1.063121016207130e+001
0	 4.133340000006534e+000	 3.066659999995867e+000	 1.060364732170958e+001
0	 4.133340000006533e+000	 3.133319999991933e+000	 1.058172505046396e+001
0	 4.133340000006533e+000	 3.199979999988401e+000	 1.056546863625333e+001
0	 4.133340000006533e+000	 3.266639999985467e+000	 1.055490336699648e+001
0	 4.133340000006533e+000	 3.333299999983333e+000	 1.055005453061204e+001
0	 4.200010000009550e+000	 2.666700000016667e+000	 1.075774019421432e+001
0	 4.200010000009551e+000	 2.733360000014533e+000	 1.071960640488049e+001
0	 4.200010000009551e+000	 2.800020000011600e+000	 1.068505549260377e+001
0	 4.200010000009550e+000	 2.866680000008067e+000	 1.065413587901746e+001
0	 4.200010000009551e+000	 2.933340000004133e+000	 1.062689598575486e+001
0	 4.200010000009553e+000	 3.000000000000000e+000	 1.060338423444915e+001
0	 4.200010000009550e+000	 3.066659999995866e+000	 1.058364904673349e+001
0	 4.200010000009550e+000	 3.133319999991933e+000	 1.056773884424097e+001
0	 4.200010000009550e+000	 3.199979999988401e+000	 1.055570204860454e+001
0	 4.200010000009550e+000	 3.266639999985467e+000	 1.054758708145720e+001
0	 4.200010000009550e+000	 3.333299999983334e+000	 1.054344236443182e+001
0	 4.266680000012266e+000	 2.666700000016666e+000	 1.068688037323767e+001
0	 4.266680000012268e+000	 2.733360000014534e+000	 1.066192694605552e+001
0	 4.266680000012265e+000	 2.800020000011599e+000	 1.063902445854188e+001
0	 4.266680000012267e+000	 2.866680000008067e+000	 1.061823827978947e+001
0	 4.266680000012267e+000	 2.933340000004133e+000	 1.059963377889100e+001
0	 4.266680000012267e+000	 2.999999999999999e+000	 1.058327632493909e+001
0	 4.266680000012265e+000	 3.066659999995866e+000	 1.056923128702638e+001
0	 4.266680000012267e+000	 3.133319999991934e+000	 1.055756403424543e+001
0	 4.266680000012266e+000	 3.199979999988400e+000	 1.054833993568880e+001
0	 4.266680000012268e+000	 3.266639999985467e+000	 1.054162436044897e+001
0	 4.266680000012266e+000	 3.333299999983333e+000	 1.053748267761842e+001
0	 4.333350000014583e+000	 2.666700000016666e+000	 1.063621991537920e+001
0	 4.333350000014582e+000	 2.733360000014532e+000	 1.062094288715122e+001
0	 4.333350000014582e+000	 2.800020000011599e+000	 1.060654062242799e+001
0	 4.333350000014584e+000	 2.866680000008067e+000	 1.059308925150707e+001
0	 4.333350000014582e+000	 2.933340000004133e+000	 1.058066490468598e+001
0	 4.333350000014583e+000	 3.000000000000000e+000	 1.056934371226219e+001
0	 4.333350000014583e+000	 3.066659999995867e+000	 1.055920180453323e+001
0	 4.333350000014584e+000	 3.133319999991934e+000	 1.055031531179655e+001
0	 4.333350000014582e+000	 3.199979999988400e+000	 1.054276036434960e+001
0	 4.333350000014583e+000	 3.266639999985467e+000	 1.053661309248984e+001
0	 4.333350000014582e+000	 3.333299999983333e+000	 1.053194962651468e+001
0	 4.400020000016400e+000	 2.666700000016666e+000	 1.060181037549381e+001
0	 4.400020000016401e+000	 2.733360000014534e+000	 1.059327403549525e+001
0	 4.400020000016400e+000	 2.800020000011600e+000	 1.058474849021278e+001
0	 4.400020000016399e+000	 2.866680000008066e+000	 1.057631444489418e+001
0	 4.400020000016400e+000	 2.933340000004134e+000	 1.056805260478718e+001
0	 4.400020000016397e+000	 2.999999999999999e+000	 1.056004367513955e+001
0	 4.400020000016401e+000	 3.066659999995867e+000	 1.055236836119904e+001
0	 4.400020000016399e+000	 3.133319999991933e+000	 1.054510736821342e+001
0	 4.400020000016401e+000	 3.199979999988401e+000	 1.053834140143045e+001
0	 4.400020000016401e+000	 3.266639999985468e+000	 1.053215116609789e+001
0	 4.400020000016401e+000	 3.333299999983334e+000	 1.052661736746349e+001
0	 4.466690000017616e+000	 2.666700000016666e+000	 1.057970330843639e+001
0	 4.466690000017616e+000	 2.733360000014533e+000	 1.057554019841528e+001
0	 4.466690000017618e+000	 2.800020000011600e+000	 1.057079256784691e+001
0	 4.466690000017616e+000	 2.866680000008066e+000	 1.056553951067468e+001
0	 4.466690000017616e+000	 2.933340000004134e+000	 1.055986012084198e+001
0	 4.466690000017618e+000	 3.000000000000000e+000	 1.055383349229221e+001
0	 4.466690000017615e+000	 3.066659999995867e+000	 1.054753871896880e+001
0	 4.466690000017616e+000	 3.133319999991933e+000	 1.054105489481520e+001
0	 4.466690000017618e+000	 3.199979999988400e+000	 1.053446111377484e+001
0	 4.466690000017616e+000	 3.266639999985467e+000	 1.052783646979118e+001
0	 4.466690000017616e+000	 3.333299999983334e+000	 1.052126005680771e+001
0	 4.533360000018131e+000	 2.666700000016666e+000	 1.056595026906184e+001
0	 4.533360000018131e+000	 2.733360000014534e+000	 1.056436118323895e+001
0	 4.533360000018133e+000	 2.800020000011601e+000	 1.056181736128102e+001
0	 4.533360000018132e+000	 2.866680000008066e+000	 1.055839009957246e+001
0	 4.533360000018132e+000	 2.933340000004133e+000	 1.055415069449772e+001
0	 4.533360000018131e+000	 3.000000000000000e+000	 1.054917044244125e+001
0	 4.533360000018131e+000	 3.066659999995866e+000	 1.054352063978752e+001
0	 4.533360000018134e+000	 3.133319999991933e+000	 1.053727258292102e+001
0	 4.533360000018133e+000	 3.199979999988401e+000	 1.053049756822627e+001
0	 4.533360000018132e+000	 3.266639999985467e+000	 1.052326689208781e+001
0	 4.533360000018131e+000	 3.333299999983334e+000	 1.051565185089020e+001
0	 4.600030000017850e+000	 2.666700000016666e+000	 1.055660281222501e+001
0	 4.600030000017848e+000	 2.733360000014532e+000	 1.055635679729387e+001
0	 4.600030000017848e+000	 2.800020000011600e+000	 1.055496737646573e+001
0	 4.600030000017849e+000	 2.866680000008067e+000	 1.055249186231141e+001
0	 4.600030000017848e+000	 2.933340000004133e+000	 1.054898756740178e+001
0	 4.600030000017849e+000	 3.000000000000000e+000	 1.054451180430772e+001
0	 4.600030000017848e+000	 3.066659999995867e+000	 1.053912188560014e+001
0	 4.600030000017848e+000	 3.133319999991934e+000	 1.053287512384999e+001
0	 4.600030000017849e+000	 3.199979999988401e+000	 1.052582883162823e+001
0	 4.600030000017848e+000	 3.266639999985467e+000	 1.051804032150583e+001
0	 4.600030000017848e+000	 3.333299999983334e+000	 1.050956690605382e+001
0	 4.666700000016666e+000	 2.666700000016666e+000	 1.054771249278073e+001
0	 4.666700000016666e+000	 2.733360000014533e+000	 1.054814684790767e+001
0	 4.666700000016665e+000	 2.800020000011599e+000	 1.054738711935167e+001
0	 4.666700000016666e+000	 2.866680000008067e+000	 1.054547044961539e+001
0	 4.666700000016667e+000	 2.933340000004133e+000	 1.054243398120148e+001
0	 4.666700000016666e+000	 3.000000000000000e+000	 1.053831485661268e+001
0	 4.666700000016665e+000	 3.066659999995866e+000	 1.053315021835168e+001
0	 4.666700000016666e+000	 3.133319999991934e+000	 1.052697720892127e+001
0	 4.666700000016665e+000	 3.199979999988400e+000	 1.051983297082421e+001
0	 4.666700000016665e+000	 3.266639999985467e+000	 1.051175464656333e+001
0	 4.666700000016666e+000	 3.333299999983334e+000	 1.050277937864147e+001
0	 4.000000000000000e+000	 3.333299999983333e+000	 1.056613967570146e+001
0	 4.000000000000000e+000	 3.399969999982150e+000	 1.056138222984899e+001
0	 4.000000000000001e+000	 3.466639999981866e+000	 1.055490605928946e+001
0	 4.000000000000000e+000	 3.533309999982383e+000	 1.054681666566633e+001
0	 4.000000000000000e+000	 3.599979999983600e+000	 1.053721955062305e+001
0	 4.000000000000001e+000	 3.666649999985417e+000	 1.052622021580305e+001
0	 4.000000000000001e+000	 3.733319999987733e+000	 1.051392416284975e+001
0	 4.000000000000001e+000	 3.799989999990450e+000	 1.050043689340654e+001
0	 4.000000000000000e+000	 3.866659999993467e+000	 1.048586390911684e+001
0	 3.999999999999999e+000	 3.933329999996683e+000	 1.047031071162400e+001
0	 4.000000000000000e+000	 4.000000000000000e+000	 1.045388280257139e+001
0	 4.066670000003317e+000	 3.333299999983334e+000	 1.055754501981621e+001
0	 4.066670000003317e+000	 3.399969999982150e+000	 1.055418980519922e+001
0	 4.066670000003318e+000	 3.466639999981866e+000	 1.054917282548794e+001
0	 4.066670000003315e+000	 3.533309999982382e+000	 1.054255498365219e+001
0	 4.066670000003316e+000	 3.599979999983600e+000	 1.053439718266177e+001
0	 4.066670000003317e+000	 3.666649999985416e+000	 1.052476032548650e+001
0	 4.066670000003318e+000	 3.733319999987734e+000	 1.051370531509617e+001
0	 4.066670000003317e+000	 3.799989999990450e+000	 1.050129305446053e+001
0	 4.066670000003317e+000	 3.866659999993466e+000	 1.048758444654935e+001
0	 4.066670000003317e+000	 3.933329999996684e+000	 1.047264039433236e+001
0	 4.066670000003317e+000	 4.000000000000001e+000	 1.045652180077929e+001
0	 4.133340000006533e+000	 3.333299999983333e+000	 1.055005453061204e+001
0	 4.133340000006534e+000	 3.399969999982150e+000	 1.054730723955914e+001
0	 4.133340000006534e+000	 3.466639999981867e+000	 1.054304536582737e+001
0	 4.133340000006534e+000	 3.533309999982382e+000	 1.053729144455612e+001
0	 4.133340000006533e+000	 3.599979999983600e+000	 1.053006801088476e+001
0	 4.133340000006534e+000	 3.666649999985416e+000	 1.052139759995264e+001
0	 4.133340000006534e+000	 3.733319999987733e+000	 1.051130274689910e+001
0	 4.133340000006534e+000	 3.799989999990451e+000	 1.049980598686344e+001
0	 4.133340000006533e+000	 3.866659999993467e+000	 1.048692985498498e+001
0	 4.133340000006534e+000	 3.933329999996684e+000	 1.047269688640301e+001
0	 4.133340000006533e+000	 4.000000000000001e+000	 1.045712961625678e+001
0	 4.200010000009550e+000	 3.333299999983334e+000	 1.054344236443182e+001
0	 4.200010000009550e+000	 3.399969999982150e+000	 1.054065251703914e+001
0	 4.200010000009551e+000	 3.466639999981867e+000	 1.053656411956916e+001
0	 4.200010000009551e+000	 3.533309999982383e+000	 1.053116757017398e+001
0	 4.200010000009551e+000	 3.599979999983601e+000	 1.052445326700571e+001
0	 4.200010000009550e+000	 3.666649999985415e+000	 1.051641160821644e+001
0	 4.200010000009551e+000	 3.733319999987733e+000	 1.050703299195823e+001
0	 4.200010000009550e+000	 3.799989999990450e+000	 1.049630781638311e+001
0	 4.200010000009550e+000	 3.866659999993467e+000	 1.048422647964315e+001
0	 4.200010000009549e+000	 3.933329999996684e+000	 1.047077937989035e+001
0	 4.200010000009550e+000	 4.000000000000000e+000	 1.045595691527672e+001
0	 4.266680000012266e+000	 3.333299999983333e+000	 1.053748267761842e+001
0	 4.266680000012267e+000	 3.399969999982151e+000	 1.053414362174967e+001
0	 4.266680000012267e+000	 3.466639999981867e+000	 1.052976952597472e+001
0	 4.266680000012266e+000	 3.533309999982384e+000	 1.052432488230160e+001
0	 4.266680000012268e+000	 3.599979999983600e+000	 1.051777418273832e+001
0	 4.266680000012268e+000	 3.666649999985416e+000	 1.051008191929286e+001
0	 4.266680000012268e+000	 3.733319999987733e+000	 1.050121258397323e+001
0	 4.266680000012266e+000	 3.799989999990449e+000	 1.049113066878737e+001
0	 4.266680000012268e+000	 3.866659999993467e+000	 1.047980066574325e+001
0	 4.266680000012267e+000	 3.933329999996684e+000	 1.046718706684880e+001
0	 4.266680000012267e+000	 4.000000000000001e+000	 1.045325436411194e+001
0	 4.333350000014582e+000	 3.333299999983333e+000	 1.053194962651468e+001
0	 4.333350000014584e+000	 3.399969999982150e+000	 1.052769853780115e+001
0	 4.333350000014582e+000	 3.466639999981867e+000	 1.052270202430549e+001
0	 4.333350000014582e+000	 3.533309999982383e+000	 1.051690490273482e+001
0	 4.333350000014584e+000	 3.599979999983600e+000	 1.051025198979626e+001
0	 4.333350000014584e+000	 3.666649999985416e+000	 1.050268810219689e+001
0	 4.333350000014582e+000	 3.733319999987733e+000	 1.049415805664379e+001
0	 4.333350000014583e+000	 3.799989999990450e+000	 1.048460666984403e+001
0	 4.333350000014584e+000	 3.866659999993467e+000	 1.047397875850468e+001
0	 4.333350000014584e+000	 3.933329999996683e+000	 1.046221913933275e+001
0	 4.333350000014585e+000	 4.000000000000000e+000	 1.044927262903529e+001
0	 4.400020000016401e+000	 3.333299999983334e+000	 1.052661736746349e+001
0	 4.400020000016399e+000	 3.399969999982149e+000	 1.052123524930401e+001
0	 4.400020000016400e+000	 3.466639999981866e+000	 1.051540205382288e+001
0	 4.400020000016400e+000	 3.533309999982383e+000	 1.050904915326949e+001
0	 4.400020000016401e+000	 3.599979999983600e+000	 1.050210791989324e+001
0	 4.400020000016399e+000	 3.666649999985415e+000	 1.049450972594347e+001
0	 4.400020000016400e+000	 3.733319999987733e+000	 1.048618594366959e+001
0	 4.400020000016399e+000	 3.799989999990451e+000	 1.047706794532093e+001
0	 4.400020000016399e+000	 3.866659999993466e+000	 1.046708710314682e+001
0	 4.400020000016399e+000	 3.933329999996684e+000	 1.045617478939662e+001
0	 4.400020000016400e+000	 4.000000000000000e+000	 1.044426237631963e+001
0	 4.466690000017616e+000	 3.333299999983334e+000	 1.052126005680770e+001
0	 4.466690000017617e+000	 3.399969999982150e+000	 1.051467174036870e+001
0	 4.466690000017617e+000	 3.466639999981867e+000	 1.050791005378832e+001
0	 4.466690000017617e+000	 3.533309999982383e+000	 1.050089915570146e+001
0	 4.466690000017616e+000	 3.599979999983599e+000	 1.049356320474294e+001
0	 4.466690000017617e+000	 3.666649999985417e+000	 1.048582635954761e+001
0	 4.466690000017615e+000	 3.733319999987733e+000	 1.047761277875031e+001
0	 4.466690000017616e+000	 3.799989999990450e+000	 1.046884662098587e+001
0	 4.466690000017618e+000	 3.866659999993467e+000	 1.045945204488910e+001
0	 4.466690000017615e+000	 3.933329999996683e+000	 1.044935320909480e+001
0	 4.466690000017616e+000	 4.000000000000001e+000	 1.043847427223778e+001
0	 4.533360000018131e+000	 3.333299999983334e+000	 1.051565185089020e+001
0	 4.533360000018132e+000	 3.399969999982150e+000	 1.050792599510562e+001
0	 4.533360000018132e+000	 3.466639999981867e+000	 1.050026646346323e+001
0	 4.533360000018132e+000	 3.533309999982382e+000	 1.049259643182654e+001
0	 4.533360000018132e+000	 3.599979999983599e+000	 1.048483907605905e+001
0	 4.533360000018131e+000	 3.666649999985416e+000	 1.047691757202425e+001
0	 4.533360000018131e+000	 3.733319999987734e+000	 1.046875509558565e+001
0	 4.533360000018133e+000	 3.799989999990450e+000	 1.046027482260670e+001
0	 4.533360000018131e+000	 3.866659999993466e+000	 1.045139992895089e+001
0	 4.533360000018132e+000	 3.933329999996683e+000	 1.044205359048170e+001
0	 4.533360000018131e+000	 4.000000000000001e+000	 1.043215898306258e+001
0	 4.600030000017848e+000	 3.333299999983334e+000	 1.050956690605383e+001
0	 4.600030000017849e+000	 3.399969999982150e+000	 1.050091599762523e+001
0	 4.600030000017848e+000	 3.466639999981866e+000	 1.049251172210905e+001
0	 4.600030000017849e+000	 3.533309999982383e+000	 1.048428250344061e+001
0	 4.600030000017849e+000	 3.599979999983600e+000	 1.047615676555529e+001
0	 4.600030000017848e+000	 3.666649999985416e+000	 1.046806293238839e+001
0	 4.600030000017849e+000	 3.733319999987733e+000	 1.045992942787526e+001
0	 4.600030000017848e+000	 3.799989999990450e+000	 1.045168467595122e+001
0	 4.600030000017849e+000	 3.866659999993467e+000	 1.044325710055161e+001
0	 4.600030000017848e+000	 3.933329999996683e+000	 1.043457512561173e+001
0	 4.600030000017848e+000	 4.000000000000000e+000	 1.042556717506691e+001
0	 4.666700000016666e+000	 3.333299999983334e+000	 1.050277937864147e+001
0	 4.666700000016665e+000	 3.399969999982150e+000	 1.049355973203797e+001
0	 4.666700000016666e+000	 3.466639999981866e+000	 1.048468626898720e+001
0	 4.666700000016666e+000	 3.533309999982382e+000	 1.047609889233953e+001
0	 4.666700000016665e+000	 3.599979999983599e+000	 1.046773750494533e+001
0	 4.666700000016667e+000	 3.666649999985417e+000	 1.045954200965499e+001
0	 4.666700000016667e+000	 3.733319999987733e+000	 1.045145230931885e+001
0	 4.666700000016666e+000	 3.799989999990449e+000	 1.044340830678728e+001
0	 4.666700000016667e+000	 3.866659999993467e+000	 1.043534990491065e+001
0	 4.666700000016666e+000	 3.933329999996684e+000	 1.042721700653929e+001
0	 4.666700000016667e+000	 4.000000000000001e+000	 1.041894951452358e+001
0	 4.000000000000000e+000	 4.000000000000000e+000	 1.045388280257139e+001
0	 4.000000000000000e+000	 4.066670000003317e+000	 1.043759053236284e+001
0	 4.000000000000000e+000	 4.133340000006534e+000	 1.042230942959300e+001
0	 4.000000000000000e+000	 4.200010000009550e+000	 1.040794276319149e+001
0	 4.000000000000001e+000	 4.266680000012268e+000	 1.039439380208791e+001
0	 4.000000000000000e+000	 4.333350000014584e+000	 1.038156581521190e+001
0	 4.000000000000000e+000	 4.400020000016401e+000	 1.036936207149306e+001
0	 4.000000000000000e+000	 4.466690000017617e+000	 1.035768583986102e+001
0	 4.000000000000001e+000	 4.533360000018134e+000	 1.034644038924541e+001
0	 4.000000000000000e+000	 4.600030000017851e+000	 1.033552898857589e+001
0	 4.000000000000000e+000	 4.666700000016666e+000	 1.032485490678207e+001
0	 4.066670000003317e+000	 4.000000000000001e+000	 1.045652180077929e+001
0	 4.066670000003317e+000	 4.066670000003317e+000	 1.044032292490373e+001
0	 4.066670000003317e+000	 4.133340000006534e+000	 1.042504882165554e+001
0	 4.066670000003317e+000	 4.200010000009550e+000	 1.041062658790890e+001
0	 4.066670000003318e+000	 4.266680000012268e+000	 1.039698332053795e+001
0	 4.066670000003318e+000	 4.333350000014584e+000	 1.038404611641687e+001
0	 4.066670000003317e+000	 4.400020000016400e+000	 1.037174207241982e+001
0	 4.066670000003317e+000	 4.466690000017617e+000	 1.035999828542097e+001
0	 4.066670000003316e+000	 4.533360000018134e+000	 1.034874185229451e+001
0	 4.066670000003317e+000	 4.600030000017850e+000	 1.033789986991460e+001
0	 4.066670000003317e+000	 4.666700000016667e+000	 1.032739943515544e+001
0	 4.133340000006533e+000	 4.000000000000001e+000	 1.045712961625678e+001
0	 4.133340000006534e+000	 4.066670000003318e+000	 1.044132804477462e+001
0	 4.133340000006533e+000	 4.133340000006534e+000	 1.042634244510293e+001
0	 4.133340000006533e+000	 4.200010000009550e+000	 1.041212076175809e+001
0	 4.133340000006534e+000	 4.266680000012268e+000	 1.039861093925655e+001
0	 4.133340000006532e+000	 4.333350000014584e+000	 1.038576092211471e+001
0	 4.133340000006534e+000	 4.400020000016402e+000	 1.037351865484898e+001
0	 4.133340000006534e+000	 4.466690000017618e+000	 1.036183208197580e+001
0	 4.133340000006534e+000	 4.533360000018134e+000	 1.035064914801159e+001
0	 4.133340000006534e+000	 4.600030000017851e+000	 1.033991779747278e+001
0	 4.133340000006533e+000	 4.666700000016667e+000	 1.032958597487581e+001
0	 4.200010000009550e+000	 4.000000000000000e+000	 1.045595691527672e+001
0	 4.200010000009550e+000	 4.066670000003317e+000	 1.044080065053517e+001
0	 4.200010000009550e+000	 4.133340000006535e+000	 1.042633575953486e+001
0	 4.200010000009550e+000	 4.200010000009550e+000	 1.041252805413217e+001
0	 4.200010000009550e+000	 4.266680000012268e+000	 1.039934334618345e+001
0	 4.200010000009551e+000	 4.333350000014583e+000	 1.038674744754509e+001
0	 4.200010000009550e+000	 4.400020000016402e+000	 1.037470617007345e+001
0	 4.200010000009551e+000	 4.466690000017619e+000	 1.036318532562492e+001
0	 4.200010000009550e+000	 4.533360000018135e+000	 1.035215072605588e+001
0	 4.200010000009550e+000	 4.600030000017851e+000	 1.034156818322272e+001
0	 4.200010000009550e+000	 4.666700000016666e+000	 1.033140350898183e+001
0	 4.266680000012267e+000	 4.000000000000001e+000	 1.045325436411194e+001
0	 4.266680000012267e+000	 4.066670000003317e+000	 1.043893550074501e+001
0	 4.266680000012268e+000	 4.133340000006534e+000	 1.042517422455109e+001
0	 4.266680000012267e+000	 4.200010000009550e+000	 1.041195123442422e+001
0	 4.266680000012268e+000	 4.266680000012268e+000	 1.039924722925841e+001
0	 4.266680000012268e+000	 4.333350000014583e+000	 1.038704290794770e+001
0	 4.266680000012267e+000	 4.400020000016402e+000	 1.037531896938613e+001
0	 4.266680000012266e+000	 4.466690000017617e+000	 1.036405611246775e+001
0	 4.266680000012266e+000	 4.533360000018133e+000	 1.035323503608660e+001
0	 4.266680000012267e+000	 4.600030000017851e+000	 1.034283643913672e+001
0	 4.266680000012266e+000	 4.666700000016666e+000	 1.033284102051216e+001
0	 4.333350000014585e+000	 4.000000000000000e+000	 1.044927262903529e+001
0	 4.333350000014583e+000	 4.066670000003318e+000	 1.043592735396380e+001
0	 4.333350000014582e+000	 4.133340000006534e+000	 1.042300329975135e+001
0	 4.333350000014584e+000	 4.200010000009550e+000	 1.041049307202733e+001
0	 4.333350000014583e+000	 4.266680000012268e+000	 1.039838927642116e+001
0	 4.333350000014582e+000	 4.333350000014584e+000	 1.038668451856223e+001
0	 4.333350000014583e+000	 4.400020000016401e+000	 1.037537140407994e+001
0	 4.333350000014582e+000	 4.466690000017616e+000	 1.036444253860372e+001
0	 4.333350000014583e+000	 4.533360000018132e+000	 1.035389052776294e+001
0	 4.333350000014583e+000	 4.600030000017850e+000	 1.034370797718705e+001
0	 4.333350000014582e+000	 4.666700000016665e+000	 1.033388749250546e+001
0	 4.400020000016400e+000	 4.000000000000000e+000	 1.044426237631963e+001
0	 4.400020000016399e+000	 4.066670000003317e+000	 1.043197096875117e+001
0	 4.400020000016399e+000	 4.133340000006534e+000	 1.041996844473534e+001
0	 4.400020000016399e+000	 4.200010000009550e+000	 1.040825633633462e+001
0	 4.400020000016399e+000	 4.266680000012268e+000	 1.039683617561146e+001
0	 4.400020000016399e+000	 4.333350000014584e+000	 1.038570949462837e+001
0	 4.400020000016399e+000	 4.400020000016402e+000	 1.037487782544780e+001
0	 4.400020000016399e+000	 4.466690000017615e+000	 1.036434270013224e+001
0	 4.400020000016399e+000	 4.533360000018132e+000	 1.035410565074414e+001
0	 4.400020000016399e+000	 4.600030000017850e+000	 1.034416820934604e+001
0	 4.400020000016400e+000	 4.666700000016666e+000	 1.033453190800037e+001
0	 4.466690000017616e+000	 4.000000000000001e+000	 1.043847427223778e+001
0	 4.466690000017616e+000	 4.066670000003316e+000	 1.042726110366676e+001
0	 4.466690000017616e+000	 4.133340000006534e+000	 1.041621511910281e+001
0	 4.466690000017616e+000	 4.200010000009551e+000	 1.040534379673916e+001
0	 4.466690000017615e+000	 4.266680000012268e+000	 1.039465461476909e+001
0	 4.466690000017618e+000	 4.333350000014584e+000	 1.038415505138580e+001
0	 4.466690000017616e+000	 4.400020000016401e+000	 1.037385258478260e+001
0	 4.466690000017617e+000	 4.466690000017619e+000	 1.036375469315272e+001
0	 4.466690000017618e+000	 4.533360000018133e+000	 1.035386885468941e+001
0	 4.466690000017618e+000	 4.600030000017851e+000	 1.034420254758594e+001
0	 4.466690000017615e+000	 4.666700000016665e+000	 1.033476325003556e+001
0	 4.533360000018131e+000	 4.000000000000001e+000	 1.043215898306258e+001
0	 4.533360000018134e+000	 4.066670000003318e+000	 1.042199251727022e+001
0	 4.533360000018133e+000	 4.133340000006534e+000	 1.041188878245347e+001
0	 4.533360000018130e+000	 4.200010000009550e+000	 1.040185822263406e+001
0	 4.533360000018131e+000	 4.266680000012268e+000	 1.039191128183374e+001
0	 4.533360000018131e+000	 4.333350000014583e+000	 1.038205840407423e+001
0	 4.533360000018132e+000	 4.400020000016402e+000	 1.037231003337727e+001
0	 4.533360000018132e+000	 4.466690000017617e+000	 1.036267661376461e+001
0	 4.533360000018133e+000	 4.533360000018135e+000	 1.035316858925796e+001
0	 4.533360000018133e+000	 4.600030000017851e+000	 1.034379640387909e+001
0	 4.533360000018131e+000	 4.666700000016666e+000	 1.033457050164970e+001
0	 4.600030000017848e+000	 4.000000000000000e+000	 1.042556717506691e+001
0	 4.600030000017849e+000	 4.066670000003318e+000	 1.041635996812119e+001
0	 4.600030000017850e+000	 4.133340000006535e+000	 1.040713489438704e+001
0	 4.600030000017849e+000	 4.200010000009551e+000	 1.039790238341241e+001
0	 4.600030000017848e+000	 4.266680000012267e+000	 1.038867286474519e+001
0	 4.600030000017848e+000	 4.333350000014583e+000	 1.037945676793332e+001
0	 4.600030000017849e+000	 4.400020000016401e+000	 1.037026452252472e+001
0	 4.600030000017849e+000	 4.466690000017617e+000	 1.036110655806731e+001
0	 4.600030000017847e+000	 4.533360000018132e+000	 1.035199330410901e+001
0	 4.600030000017848e+000	 4.600030000017850e+000	 1.034293519019775e+001
0	 4.600030000017850e+000	 4.666700000016668e+000	 1.033394264588143e+001
0	 4.666700000016667e+000	 4.000000000000001e+000	 1.041894951452358e+001
0	 4.666700000016666e+000	 4.066670000003317e+000	 1.041055821477930e+001
0	 4.666700000016666e+000	 4.133340000006535e+000	 1.040209891450327e+001
0	 4.666700000016667e+000	 4.200010000009550e+000	 1.039357904846729e+001
0	 4.666700000016666e+000	 4.266680000012268e+000	 1.038500605144319e+001
0	 4.666700000016665e+000	 4.333350000014583e+000	 1.037638735820277e+001
0	 4.666700000016665e+000	 4.400020000016400e+000	 1.036773040351785e+001
0	 4.666700000016667e+000	 4.466690000017618e+000	 1.035904262216025e+001
0	 4.666700000016666e+000	 4.533360000018134e+000	 1.035033144890177e+001
0	 4.666700000016668e+000	 4.600030000017852e+000	 1.034160431851424e+001
0	 4.666700000016666e+000	 4.666700000016666e+000	 1.033286866576944e+001
0	 4.000000000000000e+000	 4.666700000016666e+000	 1.032485490678207e+001
0	 4.000000000000000e+000	 4.733360000014533e+000	 1.031430128041092e+001
0	 4.000000000000000e+000	 4.800020000011600e+000	 1.030383253351719e+001
0	 4.000000000000001e+000	 4.866680000008067e+000	 1.029347863050361e+001
0	 3.999999999999999e+000	 4.933340000004133e+000	 1.028326953577293e+001
0	 3.999999999999999e+000	 5.000000000000000e+000	 1.027323521372789e+001
0	 4.000000000000000e+000	 5.066659999995866e+000	 1.026340562877119e+001
0	 4.000000000000000e+000	 5.133319999991934e+000	 1.025381074530558e+001
0	 4.000000000000001e+000	 5.199979999988400e+000	 1.024448052773378e+001
0	 4.000000000000000e+000	 5.266639999985467e+000	 1.023544494045850e+001
0	 4.000000000000000e+000	 5.333299999983334e+000	 1.022673394788245e+001
0	 4.066670000003317e+000	 4.666700000016667e+000	 1.032739943515544e+001
0	 4.066670000003317e+000	 4.733360000014532e+000	 1.031709335533550e+001
0	 4.066670000003315e+000	 4.800020000011598e+000	 1.030689301363808e+001
0	 4.066670000003319e+000	 4.866680000008067e+000	 1.029681802978456e+001
0	 4.066670000003318e+000	 4.933340000004133e+000	 1.028688802349627e+001
0	 4.066670000003317e+000	 5.000000000000000e+000	 1.027712261449458e+001
0	 4.066670000003318e+000	 5.066659999995867e+000	 1.026754142250083e+001
0	 4.066670000003318e+000	 5.133319999991933e+000	 1.025816406723638e+001
0	 4.066670000003315e+000	 5.199979999988400e+000	 1.024901016842255e+001
0	 4.066670000003317e+000	 5.266639999985467e+000	 1.024009934578069e+001
0	 4.066670000003316e+000	 5.333299999983332e+000	 1.023145121903213e+001
0	 4.133340000006533e+000	 4.666700000016667e+000	 1.032958597487581e+001
0	 4.133340000006532e+000	 4.733360000014532e+000	 1.031949710947934e+001
0	 4.133340000006533e+000	 4.800020000011599e+000	 1.030953328377012e+001
0	 4.133340000006534e+000	 4.866680000008066e+000	 1.029970498911304e+001
0	 4.133340000006533e+000	 4.933340000004134e+000	 1.029002271687299e+001
0	 4.133340000006535e+000	 5.000000000000002e+000	 1.028049695841486e+001
0	 4.133340000006534e+000	 5.066659999995867e+000	 1.027113820510353e+001
0	 4.133340000006534e+000	 5.133319999991933e+000	 1.026195694830391e+001
0	 4.133340000006534e+000	 5.199979999988401e+000	 1.025296367938085e+001
0	 4.133340000006533e+000	 5.266639999985468e+000	 1.024416888969925e+001
0	 4.133340000006533e+000	 5.333299999983334e+000	 1.023558307062396e+001
0	 4.200010000009550e+000	 4.666700000016666e+000	 1.033140350898184e+001
0	 4.200010000009551e+000	 4.733360000014534e+000	 1.032150812863736e+001
0	 4.200010000009550e+000	 4.800020000011601e+000	 1.031175498915343e+001
0	 4.200010000009550e+000	 4.866680000008064e+000	 1.030214666986341e+001
0	 4.200010000009551e+000	 4.933340000004133e+000	 1.029268575010066e+001
0	 4.200010000009553e+000	 5.000000000000001e+000	 1.028337480919850e+001
0	 4.200010000009550e+000	 5.066659999995866e+000	 1.027421642649029e+001
0	 4.200010000009550e+000	 5.133319999991934e+000	 1.026521318130938e+001
0	 4.200010000009550e+000	 5.199979999988400e+000	 1.025636765298909e+001
0	 4.200010000009550e+000	 5.266639999985467e+000	 1.024768242086275e+001
0	 4.200010000009550e+000	 5.333299999983334e+000	 1.023916006426372e+001
0	 4.266680000012266e+000	 4.666700000016666e+000	 1.033284102051217e+001
0	 4.266680000012268e+000	 4.733360000014534e+000	 1.032312199860443e+001
0	 4.266680000012265e+000	 4.800020000011599e+000	 1.031355977502813e+001
0	 4.266680000012267e+000	 4.866680000008066e+000	 1.030415023341005e+001
0	 4.266680000012266e+000	 4.933340000004134e+000	 1.029488925737686e+001
0	 4.266680000012268e+000	 5.000000000000000e+000	 1.028577273055532e+001
0	 4.266680000012266e+000	 5.066659999995866e+000	 1.027679653657213e+001
0	 4.266680000012266e+000	 5.133319999991935e+000	 1.026795655905399e+001
0	 4.266680000012267e+000	 5.199979999988400e+000	 1.025924868162767e+001
0	 4.266680000012267e+000	 5.266639999985468e+000	 1.025066878791984e+001
0	 4.266680000012265e+000	 5.333299999983333e+000	 1.024221276155722e+001
0	 4.333350000014582e+000	 4.666700000016665e+000	 1.033388749250546e+001
0	 4.333350000014582e+000	 4.733360000014533e+000	 1.032433430517544e+001
0	 4.333350000014582e+000	 4.800020000011600e+000	 1.031494928663438e+001
0	 4.333350000014583e+000	 4.866680000008066e+000	 1.030572284112729e+001
0	 4.333350000014582e+000	 4.933340000004133e+000	 1.029664537289919e+001
0	 4.333350000014582e+000	 4.999999999999998e+000	 1.028770728619510e+001
0	 4.333350000014583e+000	 5.066659999995869e+000	 1.027889898526003e+001
0	 4.333350000014583e+000	 5.133319999991934e+000	 1.027021087433900e+001
0	 4.333350000014583e+000	 5.199979999988401e+000	 1.026163335767702e+001
0	 4.333350000014582e+000	 5.266639999985467e+000	 1.025315683951910e+001
0	 4.333350000014583e+000	 5.333299999983334e+000	 1.024477172411025e+001
0	 4.400020000016400e+000	 4.666700000016666e+000	 1.033453190800037e+001
0	 4.400020000016401e+000	 4.733360000014534e+000	 1.032514063414531e+001
0	 4.400020000016399e+000	 4.800020000011600e+000	 1.031592516921227e+001
0	 4.400020000016399e+000	 4.866680000008065e+000	 1.030687165438950e+001
0	 4.400020000016400e+000	 4.933340000004133e+000	 1.029796623086521e+001
0	 4.400020000016400e+000	 5.000000000000000e+000	 1.028919503982765e+001
0	 4.400020000016400e+000	 5.066659999995867e+000	 1.028054422246503e+001
0	 4.400020000016399e+000	 5.133319999991933e+000	 1.027199991996559e+001
0	 4.400020000016400e+000	 5.199979999988400e+000	 1.026354827351755e+001
0	 4.400020000016401e+000	 5.266639999985467e+000	 1.025517542430916e+001
0	 4.400020000016400e+000	 5.333299999983333e+000	 1.024686751352862e+001
0	 4.466690000017615e+000	 4.666700000016665e+000	 1.033476325003556e+001
0	 4.466690000017615e+000	 4.733360000014532e+000	 1.032553657130894e+001
0	 4.466690000017618e+000	 4.800020000011601e+000	 1.031648906800198e+001
0	 4.466690000017617e+000	 4.866680000008068e+000	 1.030760383457105e+001
0	 4.466690000017615e+000	 4.933340000004133e+000	 1.029886396547253e+001
0	 4.466690000017618e+000	 5.000000000000000e+000	 1.029025255516277e+001
0	 4.466690000017615e+000	 5.066659999995866e+000	 1.028175269809814e+001
0	 4.466690000017616e+000	 5.133319999991935e+000	 1.027334748873499e+001
0	 4.466690000017618e+000	 5.199979999988400e+000	 1.026502002152970e+001
0	 4.466690000017614e+000	 5.266639999985467e+000	 1.025675339093863e+001
0	 4.466690000017616e+000	 5.333299999983335e+000	 1.024853069141813e+001
0	 4.533360000018131e+000	 4.666700000016666e+000	 1.033457050164970e+001
0	 4.533360000018132e+000	 4.733360000014534e+000	 1.032551770246121e+001
0	 4.533360000018133e+000	 4.800020000011601e+000	 1.031664262824361e+001
0	 4.533360000018133e+000	 4.866680000008067e+000	 1.030792654304631e+001
0	 4.533360000018132e+000	 4.933340000004135e+000	 1.029935071091872e+001
0	 4.533360000018132e+000	 5.000000000000001e+000	 1.029089639591027e+001
0	 4.533360000018133e+000	 5.066659999995866e+000	 1.028254486207037e+001
0	 4.533360000018133e+000	 5.133319999991935e+000	 1.027427737344844e+001
0	 4.533360000018132e+000	 5.199979999988401e+000	 1.026607519409388e+001
0	 4.533360000018132e+000	 5.266639999985467e+000	 1.025791958805614e+001
0	 4.533360000018131e+000	 5.333299999983334e+000	 1.024979181938460e+001
0	 4.600030000017850e+000	 4.666700000016668e+000	 1.033394264588143e+001
0	 4.600030000017849e+000	 4.733360000014534e+000	 1.032507961339704e+001
0	 4.600030000017848e+000	 4.800020000011601e+000	 1.031638749517731e+001
0	 4.600030000017848e+000	 4.866680000008065e+000	 1.030784694118963e+001
0	 4.600030000017848e+000	 4.933340000004134e+000	 1.029943860140139e+001
0	 4.600030000017849e+000	 4.999999999999999e+000	 1.029114312577996e+001
0	 4.600030000017848e+000	 5.066659999995866e+000	 1.028294116429275e+001
0	 4.600030000017849e+000	 5.133319999991935e+000	 1.027481336690714e+001
0	 4.600030000017849e+000	 5.199979999988401e+000	 1.026674038359053e+001
0	 4.600030000017848e+000	 5.266639999985468e+000	 1.025870286431029e+001
0	 4.600030000017849e+000	 5.333299999983335e+000	 1.025068145903382e+001
0	 4.666700000016666e+000	 4.666700000016666e+000	 1.033286866576944e+001
0	 4.666700000016666e+000	 4.733360000014534e+000	 1.032421788991134e+001
0	 4.666700000016665e+000	 4.800020000011599e+000	 1.031572531404322e+001
0	 4.666700000016666e+000	 4.866680000008067e+000	 1.030737219037539e+001
0	 4.666700000016667e+000	 4.933340000004135e+000	 1.029913977111810e+001
0	 4.666700000016666e+000	 5.000000000000001e+000	 1.029100930848164e+001
0	 4.666700000016667e+000	 5.066659999995867e+000	 1.028296205467629e+001
0	 4.666700000016666e+000	 5.133319999991935e+000	 1.027497926191234e+001
0	 4.666700000016665e+000	 5.199979999988400e+000	 1.026704218240005e+001
0	 4.666700000016667e+000	 5.266639999985468e+000	 1.025913206834971e+001
0	 4.666700000016667e+000	 5.333299999983335e+000	 1.025123017197161e+001
0	 4.000000000000000e+000	 5.333299999983334e+000	 1.022673394788244e+001
0	 4.000000000000000e+000	 5.399969999982148e+000	 1.021833594006496e+001
0	 4.000000000000002e+000	 5.466639999981868e+000	 1.021021141339565e+001
0	 4.000000000000000e+000	 5.533309999982382e+000	 1.020234464897010e+001
0	 4.000000000000001e+000	 5.599979999983600e+000	 1.019471992788389e+001
0	 4.000000000000001e+000	 5.666649999985416e+000	 1.018732153123266e+001
0	 4.000000000000001e+000	 5.733319999987733e+000	 1.018013374011198e+001
0	 4.000000000000000e+000	 5.799989999990448e+000	 1.017314083561748e+001
0	 4.000000000000001e+000	 5.866659999993468e+000	 1.016632709884476e+001
0	 4.000000000000000e+000	 5.933329999996682e+000	 1.015967681088943e+001
0	 4.000000000000000e+000	 6.000000000000001e+000	 1.015317425284709e+001
0	 4.066670000003316e+000	 5.333299999983332e+000	 1.023145121903213e+001
0	 4.066670000003317e+000	 5.399969999982150e+000	 1.022307118389128e+001
0	 4.066670000003318e+000	 5.466639999981867e+000	 1.021494556215597e+001
0	 4.066670000003317e+000	 5.533309999982384e+000	 1.020706153268220e+001
0	 4.066670000003316e+000	 5.599979999983599e+000	 1.019940627432594e+001
0	 4.066670000003317e+000	 5.666649999985415e+000	 1.019196696594317e+001
0	 4.066670000003318e+000	 5.733319999987733e+000	 1.018473078638987e+001
0	 4.066670000003318e+000	 5.799989999990451e+000	 1.017768491452204e+001
0	 4.066670000003317e+000	 5.866659999993468e+000	 1.017081652919565e+001
0	 4.066670000003316e+000	 5.933329999996683e+000	 1.016411280926669e+001
0	 4.066670000003316e+000	 5.999999999999999e+000	 1.015756093359116e+001
0	 4.133340000006533e+000	 5.333299999983334e+000	 1.023558307062396e+001
0	 4.133340000006534e+000	 5.399969999982150e+000	 1.022722690392774e+001
0	 4.133340000006533e+000	 5.466639999981865e+000	 1.021910979153349e+001
0	 4.133340000006533e+000	 5.533309999982382e+000	 1.021122148962329e+001
0	 4.133340000006534e+000	 5.599979999983601e+000	 1.020355175437924e+001
0	 4.133340000006533e+000	 5.666649999985417e+000	 1.019609034198344e+001
0	 4.133340000006535e+000	 5.733319999987733e+000	 1.018882700861795e+001
0	 4.133340000006532e+000	 5.799989999990449e+000	 1.018175151046486e+001
0	 4.133340000006532e+000	 5.866659999993466e+000	 1.017485360370630e+001
0	 4.133340000006533e+000	 5.933329999996684e+000	 1.016812304452433e+001
0	 4.133340000006532e+000	 6.000000000000000e+000	 1.016154958910105e+001
0	 4.200010000009550e+000	 5.333299999983334e+000	 1.023916006426372e+001
0	 4.200010000009550e+000	 5.399969999982150e+000	 1.023083483011085e+001
0	 4.200010000009550e+000	 5.466639999981865e+000	 1.022273645342101e+001
0	 4.200010000009551e+000	 5.533309999982384e+000	 1.021485694726813e+001
0	 4.200010000009550e+000	 5.599979999983600e+000	 1.020718832472611e+001
0	 4.200010000009549e+000	 5.666649999985416e+000	 1.019972259886890e+001
0	 4.200010000009550e+000	 5.733319999987733e+000	 1.019245178277040e+001
0	 4.200010000009550e+000	 5.799989999990450e+000	 1.018536788950454e+001
0	 4.200010000009550e+000	 5.866659999993467e+000	 1.017846293214525e+001
0	 4.200010000009550e+000	 5.933329999996684e+000	 1.017172892376645e+001
0	 4.200010000009550e+000	 5.999999999999998e+000	 1.016515787744211e+001
0	 4.266680000012265e+000	 5.333299999983333e+000	 1.024221276155722e+001
0	 4.266680000012267e+000	 5.399969999982151e+000	 1.023392669237712e+001
0	 4.266680000012266e+000	 5.466639999981866e+000	 1.022585789971137e+001
0	 4.266680000012267e+000	 5.533309999982383e+000	 1.021800033309144e+001
0	 4.266680000012268e+000	 5.599979999983600e+000	 1.021034794204883e+001
0	 4.266680000012268e+000	 5.666649999985417e+000	 1.020289467611498e+001
0	 4.266680000012268e+000	 5.733319999987733e+000	 1.019563448482142e+001
0	 4.266680000012266e+000	 5.799989999990449e+000	 1.018856131769961e+001
0	 4.266680000012268e+000	 5.866659999993467e+000	 1.018166912428106e+001
0	 4.266680000012267e+000	 5.933329999996683e+000	 1.017495185409723e+001
0	 4.266680000012267e+000	 6.000000000000000e+000	 1.016840345667964e+001
0	 4.333350000014583e+000	 5.333299999983334e+000	 1.024477172411024e+001
0	 4.333350000014583e+000	 5.399969999982149e+000	 1.023653422066307e+001
0	 4.333350000014583e+000	 5.466639999981866e+000	 1.022850648229739e+001
0	 4.333350000014582e+000	 5.533309999982382e+000	 1.022068407456801e+001
0	 4.333350000014583e+000	 5.599979999983598e+000	 1.021306256302966e+001
0	 4.333350000014584e+000	 5.666649999985417e+000	 1.020563751323715e+001
0	 4.333350000014583e+000	 5.733319999987733e+000	 1.019840449074523e+001
0	 4.333350000014583e+000	 5.799989999990449e+000	 1.019135906110869e+001
0	 4.333350000014583e+000	 5.866659999993468e+000	 1.018449678988227e+001
0	 4.333350000014584e+000	 5.933329999996684e+000	 1.017781324262080e+001
0	 4.333350000014585e+000	 6.000000000000001e+000	 1.017130398487903e+001
0	 4.400020000016400e+000	 5.333299999983333e+000	 1.024686751352862e+001
0	 4.400020000016400e+000	 5.399969999982149e+000	 1.023868914490519e+001
0	 4.400020000016401e+000	 5.466639999981866e+000	 1.023071455307190e+001
0	 4.400020000016399e+000	 5.533309999982382e+000	 1.022294059917256e+001
0	 4.400020000016400e+000	 5.599979999983599e+000	 1.021536414435094e+001
0	 4.400020000016399e+000	 5.666649999985414e+000	 1.020798204975082e+001
0	 4.400020000016400e+000	 5.733319999987732e+000	 1.020079117651602e+001
0	 4.400020000016400e+000	 5.799989999990449e+000	 1.019378838579029e+001
0	 4.400020000016401e+000	 5.866659999993468e+000	 1.018697053871745e+001
0	 4.400020000016399e+000	 5.933329999996682e+000	 1.018033449644129e+001
0	 4.400020000016400e+000	 6.000000000000000e+000	 1.017387712010560e+001
0	 4.466690000017616e+000	 5.333299999983335e+000	 1.024853069141813e+001
0	 4.466690000017618e+000	 5.399969999982151e+000	 1.024042319504000e+001
0	 4.466690000017616e+000	 5.466639999981865e+000	 1.023251446392774e+001
0	 4.466690000017615e+000	 5.533309999982382e+000	 1.022480233437988e+001
0	 4.466690000017616e+000	 5.599979999983600e+000	 1.021728464269495e+001
0	 4.466690000017615e+000	 5.666649999985417e+000	 1.020995922517148e+001
0	 4.466690000017614e+000	 5.733319999987733e+000	 1.020282391810800e+001
0	 4.466690000017616e+000	 5.799989999990449e+000	 1.019587655780303e+001
0	 4.466690000017617e+000	 5.866659999993466e+000	 1.018911498055515e+001
0	 4.466690000017616e+000	 5.933329999996682e+000	 1.018253702266285e+001
0	 4.466690000017617e+000	 6.000000000000001e+000	 1.017614052042469e+001
0	 4.533360000018131e+000	 5.333299999983334e+000	 1.024979181938460e+001
0	 4.533360000018133e+000	 5.399969999982151e+000	 1.024176810100401e+001
0	 4.533360000018131e+000	 5.466639999981865e+000	 1.023393856675772e+001
0	 4.533360000018134e+000	 5.533309999982383e+000	 1.022630170766471e+001
0	 4.533360000018132e+000	 5.599979999983599e+000	 1.021885601474398e+001
0	 4.533360000018132e+000	 5.666649999985416e+000	 1.021159997901453e+001
0	 4.533360000018131e+000	 5.733319999987733e+000	 1.020453209149537e+001
0	 4.533360000018132e+000	 5.799989999990448e+000	 1.019765084320549e+001
0	 4.533360000018133e+000	 5.866659999993467e+000	 1.019095472516391e+001
0	 4.533360000018134e+000	 5.933329999996684e+000	 1.018444222838963e+001
0	 4.533360000018132e+000	 6.000000000000000e+000	 1.017811184390166e+001
0	 4.600030000017849e+000	 5.333299999983335e+000	 1.025068145903382e+001
0	 4.600030000017848e+000	 5.399969999982150e+000	 1.024275559273375e+001
0	 4.600030000017849e+000	 5.466639999981867e+000	 1.023501921345469e+001
0	 4.600030000017849e+000	 5.533309999982384e+000	 1.022747114650182e+001
0	 4.600030000017849e+000	 5.599979999983599e+000	 1.022011021718034e+001
0	 4.600030000017848e+000	 5.666649999985417e+000	 1.021293525079544e+001
0	 4.600030000017848e+000	 5.733319999987731e+000	 1.020594507265233e+001
0	 4.600030000017848e+000	 5.799989999990449e+000	 1.019913850805623e+001
0	 4.600030000017849e+000	 5.866659999993467e+000	 1.019251438231230e+001
0	 4.600030000017849e+000	 5.933329999996683e+000	 1.018607152072577e+001
0	 4.600030000017848e+000	 6.000000000000001e+000	 1.017980874860184e+001
0	 4.666700000016667e+000	 5.333299999983335e+000	 1.025123017197161e+001
0	 4.666700000016665e+000	 5.399969999982150e+000	 1.024341740016573e+001
0	 4.666700000016666e+000	 5.466639999981867e+000	 1.023578875591147e+001
0	 4.666700000016665e+000	 5.533309999982382e+000	 1.022834307836596e+001
0	 4.666700000016666e+000	 5.599979999983599e+000	 1.022107920668632e+001
0	 4.666700000016665e+000	 5.666649999985416e+000	 1.021399598002966e+001
0	 4.666700000016666e+000	 5.733319999987732e+000	 1.020709223755312e+001
0	 4.666700000016666e+000	 5.799989999990449e+000	 1.020036681841381e+001
0	 4.666700000016666e+000	 5.866659999993467e+000	 1.019381856176886e+001
0	 4.666700000016667e+000	 5.933329999996684e+000	 1.018744630677542e+001
0	 4.666700000016666e+000	 6.000000000000000e+000	 1.018124889259059e+001
0	 4.000000000000000e+000	 6.000000000000001e+000	 1.015317425284709e+001
0	 4.000000000000000e+000	 6.066670000003314e+000	 1.014683505252794e+001
0	 4.000000000000001e+000	 6.133340000006534e+000	 1.014068889294565e+001
0	 4.000000000000000e+000	 6.200010000009551e+000	 1.013474113800111e+001
0	 4.000000000000001e+000	 6.266680000012268e+000	 1.012899715159518e+001
0	 4.000000000000000e+000	 6.333350000014584e+000	 1.012346229762876e+001
0	 3.999999999999999e+000	 6.400020000016398e+000	 1.011814194000272e+001
0	 4.000000000000000e+000	 6.466690000017617e+000	 1.011304144261797e+001
0	 4.000000000000000e+000	 6.533360000018133e+000	 1.010816616937535e+001
0	 4.000000000000000e+000	 6.600030000017848e+000	 1.010352148417581e+001
0	 4.000000000000000e+000	 6.666700000016665e+000	 1.009911275092020e+001
0	 4.066670000003316e+000	 5.999999999999999e+000	 1.015756093359116e+001
0	 4.066670000003317e+000	 6.066670000003316e+000	 1.015117566921166e+001
0	 4.066670000003316e+000	 6.133340000006532e+000	 1.014498307463328e+001
0	 4.066670000003317e+000	 6.200010000009550e+000	 1.013898726590582e+001
0	 4.066670000003319e+000	 6.266680000012269e+000	 1.013319235907899e+001
0	 4.066670000003316e+000	 6.333350000014583e+000	 1.012760247020258e+001
0	 4.066670000003317e+000	 6.400020000016401e+000	 1.012222171532637e+001
0	 4.066670000003318e+000	 6.466690000017618e+000	 1.011705421050011e+001
0	 4.066670000003317e+000	 6.533360000018134e+000	 1.011210407177357e+001
0	 4.066670000003317e+000	 6.600030000017851e+000	 1.010737541519656e+001
0	 4.066670000003317e+000	 6.666700000016667e+000	 1.010287235681881e+001
0	 4.133340000006532e+000	 6.000000000000000e+000	 1.016154958910105e+001
0	 4.133340000006533e+000	 6.066670000003317e+000	 1.015514495539479e+001
0	 4.133340000006533e+000	 6.133340000006534e+000	 1.014892966859987e+001
0	 4.133340000006533e+000	 6.200010000009551e+000	 1.014290669575230e+001
0	 4.133340000006534e+000	 6.266680000012267e+000	 1.013707900388816e+001
0	 4.133340000006532e+000	 6.333350000014583e+000	 1.013144956004351e+001
0	 4.133340000006535e+000	 6.400020000016401e+000	 1.012602133125441e+001
0	 4.133340000006535e+000	 6.466690000017617e+000	 1.012079728455693e+001
0	 4.133340000006532e+000	 6.533360000018134e+000	 1.011578038698715e+001
0	 4.133340000006533e+000	 6.600030000017849e+000	 1.011097360558111e+001
0	 4.133340000006534e+000	 6.666700000016666e+000	 1.010637990737490e+001
0	 4.200010000009550e+000	 5.999999999999998e+000	 1.016515787744211e+001
0	 4.200010000009548e+000	 6.066670000003315e+000	 1.015875681440890e+001
0	 4.200010000009550e+000	 6.133340000006534e+000	 1.015253935842747e+001
0	 4.200010000009550e+000	 6.200010000009553e+000	 1.014650742635757e+001
0	 4.200010000009551e+000	 6.266680000012268e+000	 1.014066293505898e+001
0	 4.200010000009550e+000	 6.333350000014583e+000	 1.013500780139146e+001
0	 4.200010000009551e+000	 6.400020000016402e+000	 1.012954394221478e+001
0	 4.200010000009550e+000	 6.466690000017617e+000	 1.012427327438875e+001
0	 4.200010000009551e+000	 6.533360000018136e+000	 1.011919771477309e+001
0	 4.200010000009550e+000	 6.600030000017851e+000	 1.011431918022762e+001
0	 4.200010000009549e+000	 6.666700000016665e+000	 1.010963958761212e+001
0	 4.266680000012267e+000	 6.000000000000000e+000	 1.016840345667964e+001
0	 4.266680000012265e+000	 6.066670000003316e+000	 1.016202514958547e+001
0	 4.266680000012268e+000	 6.133340000006534e+000	 1.015582282769817e+001
0	 4.266680000012267e+000	 6.200010000009549e+000	 1.014979745653861e+001
0	 4.266680000012268e+000	 6.266680000012267e+000	 1.014395000162772e+001
0	 4.266680000012268e+000	 6.333350000014584e+000	 1.013828142848636e+001
0	 4.266680000012268e+000	 6.400020000016403e+000	 1.013279270263544e+001
0	 4.266680000012266e+000	 6.466690000017617e+000	 1.012748478959585e+001
0	 4.266680000012266e+000	 6.533360000018135e+000	 1.012235865488851e+001
0	 4.266680000012266e+000	 6.600030000017849e+000	 1.011741526403429e+001
0	 4.266680000012267e+000	 6.666700000016666e+000	 1.011265558255411e+001
0	 4.333350000014585e+000	 6.000000000000001e+000	 1.017130398487903e+001
0	 4.333350000014583e+000	 6.066670000003317e+000	 1.016496386425605e+001
0	 4.333350000014582e+000	 6.133340000006533e+000	 1.015879075999405e+001
0	 4.333350000014582e+000	 6.200010000009551e+000	 1.015278478511244e+001
0	 4.333350000014584e+000	 6.266680000012268e+000	 1.014694605263066e+001
0	 4.333350000014582e+000	 6.333350000014582e+000	 1.014127467556814e+001
0	 4.333350000014584e+000	 6.400020000016401e+000	 1.013577076694431e+001
0	 4.333350000014582e+000	 6.466690000017615e+000	 1.013043443977859e+001
0	 4.333350000014582e+000	 6.533360000018134e+000	 1.012526580709042e+001
0	 4.333350000014584e+000	 6.600030000017850e+000	 1.012026498189924e+001
0	 4.333350000014582e+000	 6.666700000016665e+000	 1.011543207722449e+001
0	 4.400020000016400e+000	 6.000000000000000e+000	 1.017387712010560e+001
0	 4.400020000016399e+000	 6.066670000003317e+000	 1.016758686175217e+001
0	 4.400020000016400e+000	 6.133340000006532e+000	 1.016145383889720e+001
0	 4.400020000016400e+000	 6.200010000009550e+000	 1.015547741089605e+001
0	 4.400020000016399e+000	 6.266680000012267e+000	 1.014965693710411e+001
0	 4.400020000016399e+000	 6.333350000014584e+000	 1.014399177687674e+001
0	 4.400020000016400e+000	 6.400020000016399e+000	 1.013848128956934e+001
0	 4.400020000016398e+000	 6.466690000017617e+000	 1.013312483453726e+001
0	 4.400020000016401e+000	 6.533360000018135e+000	 1.012792177113591e+001
0	 4.400020000016400e+000	 6.600030000017850e+000	 1.012287145872066e+001
0	 4.400020000016401e+000	 6.666700000016666e+000	 1.011797325664690e+001
0	 4.466690000017617e+000	 6.000000000000001e+000	 1.017614052042469e+001
0	 4.466690000017616e+000	 6.066670000003316e+000	 1.016990804540536e+001
0	 4.466690000017617e+000	 6.133340000006532e+000	 1.016382274798971e+001
0	 4.466690000017617e+000	 6.200010000009551e+000	 1.015788333270645e+001
0	 4.466690000017615e+000	 6.266680000012268e+000	 1.015208850408433e+001
0	 4.466690000017616e+000	 6.333350000014584e+000	 1.014643696665208e+001
0	 4.466690000017616e+000	 6.400020000016401e+000	 1.014092742493847e+001
0	 4.466690000017616e+000	 6.466690000017617e+000	 1.013555858347220e+001
0	 4.466690000017616e+000	 6.533360000018133e+000	 1.013032914678204e+001
0	 4.466690000017617e+000	 6.600030000017851e+000	 1.012523781939671e+001
0	 4.466690000017615e+000	 6.666700000016665e+000	 1.012028330584498e+001
0	 4.533360000018132e+000	 6.000000000000000e+000	 1.017811184390166e+001
0	 4.533360000018132e+000	 6.066670000003316e+000	 1.017194131854716e+001
0	 4.533360000018132e+000	 6.133340000006533e+000	 1.016590817085365e+001
0	 4.533360000018130e+000	 6.200010000009550e+000	 1.016001054936062e+001
0	 4.533360000018131e+000	 6.266680000012268e+000	 1.015424660260761e+001
0	 4.533360000018131e+000	 6.333350000014584e+000	 1.014861447913411e+001
0	 4.533360000018133e+000	 6.400020000016402e+000	 1.014311232747964e+001
0	 4.533360000018133e+000	 6.466690000017616e+000	 1.013773829618371e+001
0	 4.533360000018132e+000	 6.533360000018135e+000	 1.013249053378585e+001
0	 4.533360000018134e+000	 6.600030000017852e+000	 1.012736718882555e+001
0	 4.533360000018133e+000	 6.666700000016666e+000	 1.012236640984236e+001
0	 4.600030000017848e+000	 6.000000000000001e+000	 1.017980874860184e+001
0	 4.600030000017849e+000	 6.066670000003317e+000	 1.017370058450910e+001
0	 4.600030000017849e+000	 6.133340000006534e+000	 1.016772079107112e+001
0	 4.600030000017847e+000	 6.200010000009550e+000	 1.016186705967561e+001
0	 4.600030000017848e+000	 6.266680000012268e+000	 1.015613708171025e+001
0	 4.600030000017849e+000	 6.333350000014584e+000	 1.015052854856275e+001
0	 4.600030000017848e+000	 6.400020000016399e+000	 1.014503915162082e+001
0	 4.600030000017848e+000	 6.466690000017617e+000	 1.013966658227214e+001
0	 4.600030000017850e+000	 6.533360000018135e+000	 1.013440853190442e+001
0	 4.600030000017848e+000	 6.600030000017850e+000	 1.012926269190537e+001
0	 4.600030000017849e+000	 6.666700000016666e+000	 1.012422675366269e+001
0	 4.666700000016666e+000	 6.000000000000000e+000	 1.018124889259059e+001
0	 4.666700000016665e+000	 6.066670000003318e+000	 1.017519974662271e+001
0	 4.666700000016667e+000	 6.133340000006533e+000	 1.016927129222422e+001
0	 4.666700000016666e+000	 6.200010000009551e+000	 1.016346086246838e+001
0	 4.666700000016667e+000	 6.266680000012267e+000	 1.015776579042854e+001
0	 4.666700000016667e+000	 6.333350000014587e+000	 1.015218340917795e+001
0	 4.666700000016666e+000	 6.400020000016402e+000	 1.014671105178993e+001
0	 4.666700000016667e+000	 6.466690000017617e+000	 1.014134605133778e+001
0	 4.666700000016666e+000	 6.533360000018133e+000	 1.013608574089480e+001
0	 4.666700000016666e+000	 6.600030000017847e+000	 1.013092745353433e+001
0	 4.666700000016666e+000	 6.666700000016667e+000	 1.012586852232962e+001
0	 4.000000000000000e+000	 6.666700000016665e+000	 1.009911275092020e+001
0	 4.000000000000001e+000	 6.733360000014532e+000	 1.009488053425557e+001
0	 4.000000000000000e+000	 6.800020000011598e+000	 1.009076062759645e+001
0	 4.000000000000000e+000	 6.866680000008068e+000	 1.008675316793472e+001
0	 4.000000000000001e+000	 6.933340000004132e+000	 1.008285829226229e+001
0	 4.000000000000000e+000	 6.999999999999998e+000	 1.007907613757104e+001
0	 4.000000000000000e+000	 7.066659999995868e+000	 1.007540684085283e+001
0	 4.000000000000000e+000	 7.133319999991934e+000	 1.007185053909955e+001
0	 4.000000000000001e+000	 7.199979999988402e+000	 1.006840736930305e+001
0	 4.000000000000001e+000	 7.266639999985467e+000	 1.006507746845523e+001
0	 4.000000000000001e+000	 7.333299999983335e+000	 1.006186097354794e+001
0	 4.066670000003317e+000	 6.666700000016667e+000	 1.010287235681881e+001
0	 4.066670000003318e+000	 6.733360000014534e+000	 1.009854030932469e+001
0	 4.066670000003316e+000	 6.800020000011600e+000	 1.009432065195146e+001
0	 4.066670000003319e+000	 6.866680000008067e+000	 1.009021342547882e+001
0	 4.066670000003318e+000	 6.933340000004136e+000	 1.008621867068643e+001
0	 4.066670000003318e+000	 7.000000000000002e+000	 1.008233642835398e+001
0	 4.066670000003319e+000	 7.066659999995869e+000	 1.007856673926112e+001
0	 4.066670000003319e+000	 7.133319999991935e+000	 1.007490964418754e+001
0	 4.066670000003316e+000	 7.199979999988399e+000	 1.007136518391290e+001
0	 4.066670000003317e+000	 7.266639999985467e+000	 1.006793339921687e+001
0	 4.066670000003317e+000	 7.333299999983334e+000	 1.006461433087911e+001
0	 4.133340000006534e+000	 6.666700000016666e+000	 1.010637990737490e+001
0	 4.133340000006534e+000	 6.733360000014533e+000	 1.010195114874958e+001
0	 4.133340000006533e+000	 6.800020000011598e+000	 1.009763582764788e+001
0	 4.133340000006535e+000	 6.866680000008068e+000	 1.009343389212290e+001
0	 4.133340000006534e+000	 6.933340000004133e+000	 1.008934529022773e+001
0	 4.133340000006534e+000	 6.999999999999997e+000	 1.008536997001545e+001
0	 4.133340000006534e+000	 7.066659999995868e+000	 1.008150787953917e+001
0	 4.133340000006534e+000	 7.133319999991934e+000	 1.007775896685193e+001
0	 4.133340000006533e+000	 7.199979999988399e+000	 1.007412318000685e+001
0	 4.133340000006533e+000	 7.266639999985467e+000	 1.007060046705700e+001
0	 4.133340000006533e+000	 7.333299999983331e+000	 1.006719077605542e+001
0	 4.200010000009549e+000	 6.666700000016665e+000	 1.010963958761213e+001
0	 4.200010000009550e+000	 6.733360000014530e+000	 1.010511843828889e+001
0	 4.200010000009550e+000	 6.800020000011600e+000	 1.010071248781234e+001
0	 4.200010000009551e+000	 6.866680000008067e+000	 1.009642159499458e+001
0	 4.200010000009551e+000	 6.933340000004134e+000	 1.009224561864774e+001
0	 4.200010000009552e+000	 7.000000000000001e+000	 1.008818441758396e+001
0	 4.200010000009552e+000	 7.066659999995866e+000	 1.008423785061532e+001
0	 4.200010000009551e+000	 7.133319999991935e+000	 1.008040577655397e+001
0	 4.200010000009550e+000	 7.199979999988400e+000	 1.007668805421202e+001
0	 4.200010000009550e+000	 7.266639999985467e+000	 1.007308454240153e+001
0	 4.200010000009550e+000	 7.333299999983334e+000	 1.006959509993467e+001
0	 4.266680000012267e+000	 6.666700000016666e+000	 1.011265558255411e+001
0	 4.266680000012267e+000	 6.733360000014534e+000	 1.010804756370126e+001
0	 4.266680000012266e+000	 6.800020000011599e+000	 1.010355696557144e+001
0	 4.266680000012267e+000	 6.866680000008067e+000	 1.009918356122143e+001
0	 4.266680000012266e+000	 6.933340000004132e+000	 1.009492712370801e+001
0	 4.266680000012266e+000	 6.999999999999997e+000	 1.009078742608795e+001
0	 4.266680000012266e+000	 7.066659999995866e+000	 1.008676424141800e+001
0	 4.266680000012268e+000	 7.133319999991934e+000	 1.008285734275493e+001
0	 4.266680000012266e+000	 7.199979999988400e+000	 1.007906650315551e+001
0	 4.266680000012268e+000	 7.266639999985468e+000	 1.007539149567649e+001
0	 4.266680000012265e+000	 7.333299999983333e+000	 1.007183209337461e+001
0	 4.333350000014582e+000	 6.666700000016665e+000	 1.011543207722449e+001
0	 4.333350000014582e+000	 6.733360000014533e+000	 1.011074391074532e+001
0	 4.333350000014582e+000	 6.800020000011600e+000	 1.010617559405184e+001
0	 4.333350000014583e+000	 6.866680000008066e+000	 1.010172681793107e+001
0	 4.333350000014583e+000	 6.933340000004134e+000	 1.009739727317009e+001
0	 4.333350000014583e+000	 7.000000000000000e+000	 1.009318665055589e+001
0	 4.333350000014582e+000	 7.066659999995867e+000	 1.008909464087555e+001
0	 4.333350000014584e+000	 7.133319999991933e+000	 1.008512093491605e+001
0	 4.333350000014582e+000	 7.199979999988400e+000	 1.008126522346447e+001
0	 4.333350000014583e+000	 7.266639999985467e+000	 1.007752719730778e+001
0	 4.333350000014583e+000	 7.333299999983334e+000	 1.007390654723304e+001
0	 4.400020000016401e+000	 6.666700000016666e+000	 1.011797325664690e+001
0	 4.400020000016400e+000	 6.733360000014531e+000	 1.011321286517974e+001
0	 4.400020000016399e+000	 6.800020000011599e+000	 1.010857470638016e+001
0	 4.400020000016398e+000	 6.866680000008064e+000	 1.010405839225112e+001
0	 4.400020000016400e+000	 6.933340000004134e+000	 1.009966353479551e+001
0	 4.400020000016399e+000	 6.999999999999999e+000	 1.009538974601628e+001
0	 4.400020000016400e+000	 7.066659999995868e+000	 1.009123663791633e+001
0	 4.400020000016400e+000	 7.133319999991934e+000	 1.008720382249860e+001
0	 4.400020000016399e+000	 7.199979999988400e+000	 1.008329091176597e+001
0	 4.400020000016401e+000	 7.266639999985467e+000	 1.007949751772138e+001
0	 4.400020000016400e+000	 7.333299999983333e+000	 1.007582325236771e+001
0	 4.466690000017615e+000	 6.666700000016665e+000	 1.012028330584498e+001
0	 4.466690000017616e+000	 6.733360000014533e+000	 1.011545981276314e+001
0	 4.466690000017618e+000	 6.800020000011601e+000	 1.011076063568305e+001
0	 4.466690000017615e+000	 6.866680000008068e+000	 1.010618531130915e+001
0	 4.466690000017615e+000	 6.933340000004133e+000	 1.010173337634584e+001
0	 4.466690000017617e+000	 7.000000000000000e+000	 1.009740436749757e+001
0	 4.466690000017615e+000	 7.066659999995867e+000	 1.009319782146877e+001
0	 4.466690000017616e+000	 7.133319999991935e+000	 1.008911327496383e+001
0	 4.466690000017616e+000	 7.199979999988399e+000	 1.008515026468719e+001
0	 4.466690000017615e+000	 7.266639999985466e+000	 1.008130832734325e+001
0	 4.466690000017616e+000	 7.333299999983335e+000	 1.007758699963641e+001
0	 4.533360000018133e+000	 6.666700000016666e+000	 1.012236640984237e+001
0	 4.533360000018131e+000	 6.733360000014534e+000	 1.011749013925420e+001
0	 4.533360000018134e+000	 6.800020000011600e+000	 1.011273971508714e+001
0	 4.533360000018134e+000	 6.866680000008068e+000	 1.010811460223277e+001
0	 4.533360000018132e+000	 6.933340000004134e+000	 1.010361426558262e+001
0	 4.533360000018132e+000	 6.999999999999998e+000	 1.009923817002826e+001
0	 4.533360000018133e+000	 7.066659999995868e+000	 1.009498578046120e+001
0	 4.533360000018133e+000	 7.133319999991935e+000	 1.009085656177299e+001
0	 4.533360000018132e+000	 7.199979999988400e+000	 1.008684997885520e+001
0	 4.533360000018132e+000	 7.266639999985467e+000	 1.008296549659933e+001
0	 4.533360000018132e+000	 7.333299999983335e+000	 1.007920257989692e+001
0	 4.600030000017849e+000	 6.666700000016666e+000	 1.012422675366269e+001
0	 4.600030000017850e+000	 6.733360000014533e+000	 1.011930923041153e+001
0	 4.600030000017849e+000	 6.800020000011599e+000	 1.011451827771907e+001
0	 4.600030000017849e+000	 6.866680000008067e+000	 1.010985329214960e+001
0	 4.600030000017849e+000	 6.933340000004133e+000	 1.010531367026740e+001
0	 4.600030000017849e+000	 6.999999999999999e+000	 1.010089880863678e+001
0	 4.600030000017848e+000	 7.066659999995867e+000	 1.009660810382200e+001
0	 4.600030000017849e+000	 7.133319999991935e+000	 1.009244095238737e+001
0	 4.600030000017849e+000	 7.199979999988402e+000	 1.008839675089714e+001
0	 4.600030000017848e+000	 7.266639999985467e+000	 1.008447489591560e+001
0	 4.600030000017849e+000	 7.333299999983334e+000	 1.008067478400701e+001
0	 4.666700000016666e+000	 6.666700000016667e+000	 1.012586852232962e+001
0	 4.666700000016666e+000	 6.733360000014533e+000	 1.012092247199382e+001
0	 4.666700000016665e+000	 6.800020000011599e+000	 1.011610265670548e+001
0	 4.666700000016666e+000	 6.866680000008066e+000	 1.011140840818723e+001
0	 4.666700000016666e+000	 6.933340000004132e+000	 1.010683905816173e+001
0	 4.666700000016666e+000	 6.999999999999999e+000	 1.010239393835163e+001
0	 4.666700000016666e+000	 7.066659999995867e+000	 1.009807238047958e+001
0	 4.666700000016667e+000	 7.133319999991935e+000	 1.009387371626820e+001
0	 4.666700000016666e+000	 7.199979999988400e+000	 1.008979727744013e+001
0	 4.666700000016667e+000	 7.266639999985467e+000	 1.008584239571801e+001
0	 4.666700000016665e+000	 7.333299999983333e+000	 1.008200840282446e+001
0	 4.000000000000001e+000	 7.333299999983335e+000	 1.006186097354794e+001
0	 4.000000000000001e+000	 7.399969999982151e+000	 1.005875019515340e+001
0	 4.000000000000000e+000	 7.466639999981866e+000	 1.005573858132212e+001
0	 4.000000000000000e+000	 7.533309999982384e+000	 1.005282655323533e+001
0	 4.000000000000000e+000	 7.599979999983599e+000	 1.005001453207427e+001
0	 4.000000000000001e+000	 7.666649999985416e+000	 1.004730293902019e+001
0	 4.000000000000000e+000	 7.733319999987733e+000	 1.004469219525437e+001
0	 4.000000000000000e+000	 7.799989999990448e+000	 1.004218272195804e+001
0	 4.000000000000000e+000	 7.866659999993465e+000	 1.003977494031245e+001
0	 4.000000000000000e+000	 7.933329999996684e+000	 1.003746927149886e+001
0	 4.000000000000000e+000	 7.999999999999999e+000	 1.003526613669852e+001
0	 4.066670000003317e+000	 7.333299999983334e+000	 1.006461433087910e+001
0	 4.066670000003318e+000	 7.399969999982152e+000	 1.006140069217169e+001
0	 4.066670000003317e+000	 7.466639999981867e+000	 1.005828641933038e+001
0	 4.066670000003317e+000	 7.533309999982385e+000	 1.005527191922000e+001
0	 4.066670000003317e+000	 7.599979999983600e+000	 1.005235759870538e+001
0	 4.066670000003317e+000	 7.666649999985415e+000	 1.004954386465135e+001
0	 4.066670000003318e+000	 7.733319999987733e+000	 1.004683112392279e+001
0	 4.066670000003318e+000	 7.799989999990450e+000	 1.004421978338450e+001
0	 4.066670000003316e+000	 7.866659999993468e+000	 1.004171024990136e+001
0	 4.066670000003318e+000	 7.933329999996684e+000	 1.003930293033818e+001
0	 4.066670000003316e+000	 7.999999999999998e+000	 1.003699823155982e+001
0	 4.133340000006533e+000	 7.333299999983331e+000	 1.006719077605542e+001
0	 4.133340000006533e+000	 7.399969999982151e+000	 1.006388639567392e+001
0	 4.133340000006533e+000	 7.466639999981865e+000	 1.006068090279264e+001
0	 4.133340000006533e+000	 7.533309999982381e+000	 1.005757466868757e+001
0	 4.133340000006533e+000	 7.599979999983600e+000	 1.005456806463469e+001
0	 4.133340000006534e+000	 7.666649999985416e+000	 1.005166146190997e+001
0	 4.133340000006534e+000	 7.733319999987733e+000	 1.004885523178940e+001
0	 4.133340000006532e+000	 7.799989999990447e+000	 1.004614974554898e+001
0	 4.133340000006533e+000	 7.866659999993467e+000	 1.004354537446466e+001
0	 4.133340000006533e+000	 7.933329999996684e+000	 1.004104248981245e+001
0	 4.133340000006533e+000	 7.999999999999998e+000	 1.003864146286834e+001
0	 4.200010000009550e+000	 7.333299999983334e+000	 1.006959509993466e+001
0	 4.200010000009550e+000	 7.399969999982148e+000	 1.006621095940477e+001
0	 4.200010000009551e+000	 7.466639999981867e+000	 1.006292468697972e+001
0	 4.200010000009551e+000	 7.533309999982384e+000	 1.005973659707418e+001
0	 4.200010000009551e+000	 7.599979999983600e+000	 1.005664700410282e+001
0	 4.200010000009550e+000	 7.666649999985415e+000	 1.005365622248034e+001
0	 4.200010000009551e+000	 7.733319999987732e+000	 1.005076456662137e+001
0	 4.200010000009550e+000	 7.799989999990451e+000	 1.004797235094062e+001
0	 4.200010000009550e+000	 7.866659999993466e+000	 1.004527988985275e+001
0	 4.200010000009549e+000	 7.933329999996683e+000	 1.004268749777243e+001
0	 4.200010000009550e+000	 8.000000000000000e+000	 1.004019548911437e+001
0	 4.266680000012265e+000	 7.333299999983333e+000	 1.007183209337461e+001
0	 4.266680000012266e+000	 7.399969999982150e+000	 1.006837803710898e+001
0	 4.266680000012266e+000	 7.466639999981865e+000	 1.006502042716246e+001
0	 4.266680000012267e+000	 7.533309999982383e+000	 1.006175949981597e+001
0	 4.266680000012268e+000	 7.599979999983600e+000	 1.005859549135042e+001
0	 4.266680000012268e+000	 7.666649999985416e+000	 1.005552863804672e+001
0	 4.266680000012267e+000	 7.733319999987732e+000	 1.005255917618579e+001
0	 4.266680000012266e+000	 7.799989999990448e+000	 1.004968734204855e+001
0	 4.266680000012268e+000	 7.866659999993467e+000	 1.004691337191592e+001
0	 4.266680000012267e+000	 7.933329999996684e+000	 1.004423750206884e+001
0	 4.266680000012268e+000	 8.000000000000000e+000	 1.004165996878820e+001
0	 4.333350000014583e+000	 7.333299999983334e+000	 1.007390654723304e+001
0	 4.333350000014583e+000	 7.399969999982148e+000	 1.007039128253127e+001
0	 4.333350000014582e+000	 7.466639999981867e+000	 1.006697077861172e+001
0	 4.333350000014583e+000	 7.533309999982384e+000	 1.006364517234908e+001
0	 4.333350000014584e+000	 7.599979999983599e+000	 1.006041460061807e+001
0	 4.333350000014584e+000	 7.666649999985417e+000	 1.005727920029341e+001
0	 4.333350000014583e+000	 7.733319999987733e+000	 1.005423910824979e+001
0	 4.333350000014582e+000	 7.799989999990448e+000	 1.005129446136193e+001
0	 4.333350000014583e+000	 7.866659999993468e+000	 1.004844539650457e+001
0	 4.333350000014583e+000	 7.933329999996683e+000	 1.004569205055239e+001
0	 4.333350000014584e+000	 8.000000000000000e+000	 1.004303456038013e+001
0	 4.400020000016400e+000	 7.333299999983333e+000	 1.007582325236771e+001
0	 4.400020000016400e+000	 7.399969999982149e+000	 1.007225434941634e+001
0	 4.400020000016401e+000	 7.466639999981867e+000	 1.006877839659830e+001
0	 4.400020000016399e+000	 7.533309999982383e+000	 1.006539541010965e+001
0	 4.400020000016400e+000	 7.599979999983600e+000	 1.006210540614642e+001
0	 4.400020000016399e+000	 7.666649999985414e+000	 1.005890840090469e+001
0	 4.400020000016399e+000	 7.733319999987733e+000	 1.005580441058051e+001
0	 4.400020000016400e+000	 7.799989999990449e+000	 1.005279345136993e+001
0	 4.400020000016401e+000	 7.866659999993468e+000	 1.004987553946902e+001
0	 4.400020000016398e+000	 7.933329999996681e+000	 1.004705069107383e+001
0	 4.400020000016399e+000	 7.999999999999999e+000	 1.004431892238045e+001
0	 4.466690000017616e+000	 7.333299999983335e+000	 1.007758699963641e+001
0	 4.466690000017616e+000	 7.399969999982149e+000	 1.007397089150892e+001
0	 4.466690000017616e+000	 7.466639999981865e+000	 1.007044593639308e+001
0	 4.466690000017615e+000	 7.533309999982382e+000	 1.006701200853381e+001
0	 4.466690000017616e+000	 7.599979999983599e+000	 1.006366898217608e+001
0	 4.466690000017617e+000	 7.666649999985417e+000	 1.006041673156484e+001
0	 4.466690000017615e+000	 7.733319999987733e+000	 1.005725513094505e+001
0	 4.466690000017616e+000	 7.799989999990450e+000	 1.005418405456167e+001
0	 4.466690000017617e+000	 7.866659999993466e+000	 1.005120337665963e+001
0	 4.466690000017616e+000	 7.933329999996684e+000	 1.004831297148391e+001
0	 4.466690000017617e+000	 8.000000000000000e+000	 1.004551271327945e+001
0	 4.533360000018132e+000	 7.333299999983335e+000	 1.007920257989692e+001
0	 4.533360000018132e+000	 7.399969999982149e+000	 1.007554456255373e+001
0	 4.533360000018132e+000	 7.466639999981865e+000	 1.007197605326686e+001
0	 4.533360000018134e+000	 7.533309999982383e+000	 1.006849676305771e+001
0	 4.533360000018132e+000	 7.599979999983598e+000	 1.006510640294768e+001
0	 4.533360000018131e+000	 7.666649999985417e+000	 1.006180468395817e+001
0	 4.533360000018131e+000	 7.733319999987732e+000	 1.005859131711056e+001
0	 4.533360000018131e+000	 7.799989999990449e+000	 1.005546601342630e+001
0	 4.533360000018133e+000	 7.866659999993465e+000	 1.005242848392674e+001
0	 4.533360000018134e+000	 7.933329999996683e+000	 1.004947843963332e+001
0	 4.533360000018131e+000	 8.000000000000000e+000	 1.004661559156743e+001
0	 4.600030000017849e+000	 7.333299999983334e+000	 1.008067478400701e+001
0	 4.600030000017848e+000	 7.399969999982149e+000	 1.007697901629548e+001
0	 4.600030000017851e+000	 7.466639999981866e+000	 1.007337140249050e+001
0	 4.600030000017848e+000	 7.533309999982384e+000	 1.006985146911749e+001
0	 4.600030000017848e+000	 7.599979999983599e+000	 1.006641874270184e+001
0	 4.600030000017848e+000	 7.666649999985416e+000	 1.006307274976893e+001
0	 4.600030000017848e+000	 7.733319999987732e+000	 1.005981301684416e+001
0	 4.600030000017848e+000	 7.799989999990448e+000	 1.005663907045297e+001
0	 4.600030000017849e+000	 7.866659999993466e+000	 1.005355043712071e+001
0	 4.600030000017848e+000	 7.933329999996684e+000	 1.005054664337282e+001
0	 4.600030000017850e+000	 8.000000000000000e+000	 1.004762721573468e+001
0	 4.666700000016665e+000	 7.333299999983333e+000	 1.008200840282446e+001
0	 4.666700000016665e+000	 7.399969999982149e+000	 1.007827790647889e+001
0	 4.666700000016666e+000	 7.466639999981866e+000	 1.007463463933486e+001
0	 4.666700000016665e+000	 7.533309999982382e+000	 1.007107792214930e+001
0	 4.666700000016666e+000	 7.599979999983599e+000	 1.006760707567918e+001
0	 4.666700000016667e+000	 7.666649999985417e+000	 1.006422142068144e+001
0	 4.666700000016667e+000	 7.733319999987733e+000	 1.006092027791300e+001
0	 4.666700000016665e+000	 7.799989999990450e+000	 1.005770296813084e+001
0	 4.666700000016665e+000	 7.866659999993466e+000	 1.005456881209190e+001
0	 4.666700000016666e+000	 7.933329999996682e+000	 1.005151713055313e+001
0	 4.666700000016665e+000	 7.999999999999998e+000	 1.004854724427149e+001
0	 4.000000000000000e+000	 7.999999999999999e+000	 1.003526613669852e+001
0	 4.000000000000001e+000	 8.066670000003319e+000	 1.003314524312590e+001
0	 4.000000000000001e+000	 8.133340000006536e+000	 1.003108602623507e+001
0	 4.000000000000002e+000	 8.200010000009552e+000	 1.002908849956675e+001
0	 4.000000000000000e+000	 8.266680000012267e+000	 1.002715267666167e+001
0	 4.000000000000000e+000	 8.333350000014585e+000	 1.002527857106052e+001
0	 4.000000000000000e+000	 8.400020000016399e+000	 1.002346619630404e+001
0	 4.000000000000000e+000	 8.466690000017618e+000	 1.002171556593290e+001
0	 4.000000000000001e+000	 8.533360000018135e+000	 1.002002669348788e+001
0	 4.000000000000000e+000	 8.600030000017847e+000	 1.001839959250965e+001
0	 4.000000000000000e+000	 8.666700000016666e+000	 1.001683427653896e+001
0	 4.066670000003316e+000	 7.999999999999998e+000	 1.003699823155982e+001
0	 4.066670000003318e+000	 8.066670000003319e+000	 1.003477777107354e+001
0	 4.066670000003316e+000	 8.133340000006532e+000	 1.003262267164751e+001
0	 4.066670000003317e+000	 8.200010000009550e+000	 1.003053259803799e+001
0	 4.066670000003317e+000	 8.266680000012268e+000	 1.002850721500122e+001
0	 4.066670000003318e+000	 8.333350000014583e+000	 1.002654618729345e+001
0	 4.066670000003318e+000	 8.400020000016403e+000	 1.002464917967095e+001
0	 4.066670000003317e+000	 8.466690000017618e+000	 1.002281585688996e+001
0	 4.066670000003316e+000	 8.533360000018135e+000	 1.002104588370672e+001
0	 4.066670000003316e+000	 8.600030000017849e+000	 1.001933892487749e+001
0	 4.066670000003317e+000	 8.666700000016668e+000	 1.001769464515855e+001
0	 4.133340000006533e+000	 7.999999999999998e+000	 1.003864146286834e+001
0	 4.133340000006533e+000	 8.066670000003317e+000	 1.003632615926740e+001
0	 4.133340000006533e+000	 8.133340000006534e+000	 1.003407976204334e+001
0	 4.133340000006533e+000	 8.200010000009549e+000	 1.003190161857009e+001
0	 4.133340000006534e+000	 8.266680000012268e+000	 1.002979107622159e+001
0	 4.133340000006533e+000	 8.333350000014583e+000	 1.002774748237172e+001
0	 4.133340000006534e+000	 8.400020000016401e+000	 1.002577018439444e+001
0	 4.133340000006534e+000	 8.466690000017616e+000	 1.002385852966366e+001
0	 4.133340000006534e+000	 8.533360000018135e+000	 1.002201186555331e+001
0	 4.133340000006533e+000	 8.600030000017847e+000	 1.002022953943732e+001
0	 4.133340000006534e+000	 8.666700000016665e+000	 1.001851089868962e+001
0	 4.200010000009550e+000	 8.000000000000000e+000	 1.004019548911437e+001
0	 4.200010000009548e+000	 8.066670000003319e+000	 1.003779022898581e+001
0	 4.200010000009550e+000	 8.133340000006534e+000	 1.003545724714673e+001
0	 4.200010000009551e+000	 8.200010000009552e+000	 1.003319560499084e+001
0	 4.200010000009550e+000	 8.266680000012265e+000	 1.003100436391190e+001
0	 4.200010000009550e+000	 8.333350000014583e+000	 1.002888258530362e+001
0	 4.200010000009550e+000	 8.400020000016401e+000	 1.002682933055975e+001
0	 4.200010000009552e+000	 8.466690000017620e+000	 1.002484366107402e+001
0	 4.200010000009550e+000	 8.533360000018133e+000	 1.002292463824018e+001
0	 4.200010000009550e+000	 8.600030000017847e+000	 1.002107132345194e+001
0	 4.200010000009550e+000	 8.666700000016666e+000	 1.001928277810307e+001
0	 4.266680000012268e+000	 8.000000000000000e+000	 1.004165996878820e+001
0	 4.266680000012268e+000	 8.066670000003317e+000	 1.003916980150711e+001
0	 4.266680000012268e+000	 8.133340000006534e+000	 1.003675507668181e+001
0	 4.266680000012267e+000	 8.200010000009550e+000	 1.003441460112800e+001
0	 4.266680000012268e+000	 8.266680000012268e+000	 1.003214718166133e+001
0	 4.266680000012268e+000	 8.333350000014582e+000	 1.002995162509750e+001
0	 4.266680000012268e+000	 8.400020000016403e+000	 1.002782673825217e+001
0	 4.266680000012266e+000	 8.466690000017616e+000	 1.002577132794106e+001
0	 4.266680000012268e+000	 8.533360000018137e+000	 1.002378420097982e+001
0	 4.266680000012266e+000	 8.600030000017849e+000	 1.002186416418415e+001
0	 4.266680000012267e+000	 8.666700000016668e+000	 1.002001002436974e+001
0	 4.333350000014584e+000	 8.000000000000000e+000	 1.004303456038013e+001
0	 4.333350000014583e+000	 8.066670000003319e+000	 1.004046469810962e+001
0	 4.333350000014582e+000	 8.133340000006534e+000	 1.003797320037277e+001
0	 4.333350000014582e+000	 8.200010000009550e+000	 1.003555865080930e+001
0	 4.333350000014584e+000	 8.266680000012268e+000	 1.003321963305901e+001
0	 4.333350000014582e+000	 8.333350000014582e+000	 1.003095473076163e+001
0	 4.333350000014584e+000	 8.400020000016401e+000	 1.002876252755694e+001
0	 4.333350000014582e+000	 8.466690000017616e+000	 1.002664160708474e+001
0	 4.333350000014582e+000	 8.533360000018133e+000	 1.002459055298473e+001
0	 4.333350000014583e+000	 8.600030000017849e+000	 1.002260794889674e+001
0	 4.333350000014583e+000	 8.666700000016666e+000	 1.002069237846052e+001
0	 4.400020000016399e+000	 7.999999999999999e+000	 1.004431892238045e+001
0	 4.400020000016399e+000	 8.066670000003317e+000	 1.004167474007171e+001
0	 4.400020000016400e+000	 8.133340000006532e+000	 1.003911156794374e+001
0	 4.400020000016400e+000	 8.200010000009549e+000	 1.003662779786254e+001
0	 4.400020000016400e+000	 8.266680000012267e+000	 1.003422182169409e+001
0	 4.400020000016400e+000	 8.333350000014583e+000	 1.003189203130436e+001
0	 4.400020000016399e+000	 8.400020000016397e+000	 1.002963681855934e+001
0	 4.400020000016399e+000	 8.466690000017618e+000	 1.002745457532504e+001
0	 4.400020000016401e+000	 8.533360000018135e+000	 1.002534369346744e+001
0	 4.400020000016400e+000	 8.600030000017849e+000	 1.002330256485251e+001
0	 4.400020000016401e+000	 8.666700000016666e+000	 1.002132958134626e+001
0	 4.466690000017617e+000	 8.000000000000000e+000	 1.004551271327945e+001
0	 4.466690000017616e+000	 8.066670000003319e+000	 1.004279974867167e+001
0	 4.466690000017617e+000	 8.133340000006534e+000	 1.004017012911890e+001
0	 4.466690000017617e+000	 8.200010000009552e+000	 1.003762208611546e+001
0	 4.466690000017615e+000	 8.266680000012265e+000	 1.003515385115573e+001
0	 4.466690000017617e+000	 8.333350000014587e+000	 1.003276365573400e+001
0	 4.466690000017615e+000	 8.400020000016401e+000	 1.003044973134465e+001
0	 4.466690000017616e+000	 8.466690000017618e+000	 1.002821030948200e+001
0	 4.466690000017616e+000	 8.533360000018135e+000	 1.002604362164043e+001
0	 4.466690000017616e+000	 8.600030000017851e+000	 1.002394789931427e+001
0	 4.466690000017616e+000	 8.666700000016668e+000	 1.002192137399787e+001
0	 4.533360000018131e+000	 8.000000000000000e+000	 1.004661559156743e+001
0	 4.533360000018133e+000	 8.066670000003317e+000	 1.004383954518787e+001
0	 4.533360000018132e+000	 8.133340000006534e+000	 1.004114883362240e+001
0	 4.533360000018130e+000	 8.200010000009549e+000	 1.003854155939585e+001
0	 4.533360000018132e+000	 8.266680000012267e+000	 1.003601582503306e+001
0	 4.533360000018131e+000	 8.333350000014583e+000	 1.003356973305887e+001
0	 4.533360000018133e+000	 8.400020000016399e+000	 1.003120138599810e+001
0	 4.533360000018133e+000	 8.466690000017616e+000	 1.002890888637561e+001
0	 4.533360000018132e+000	 8.533360000018131e+000	 1.002669033671623e+001
0	 4.533360000018133e+000	 8.600030000017849e+000	 1.002454383954479e+001
0	 4.533360000018131e+000	 8.666700000016666e+000	 1.002246749738617e+001
0	 4.600030000017850e+000	 8.000000000000000e+000	 1.004762721573468e+001
0	 4.600030000017848e+000	 8.066670000003315e+000	 1.004479395089864e+001
0	 4.600030000017848e+000	 8.133340000006532e+000	 1.004204763117841e+001
0	 4.600030000017848e+000	 8.200010000009549e+000	 1.003938626153147e+001
0	 4.600030000017849e+000	 8.266680000012267e+000	 1.003680784691527e+001
0	 4.600030000017849e+000	 8.333350000014583e+000	 1.003431039228729e+001
0	 4.600030000017848e+000	 8.400020000016401e+000	 1.003189190260497e+001
0	 4.600030000017850e+000	 8.466690000017618e+000	 1.002955038282584e+001
0	 4.600030000017848e+000	 8.533360000018133e+000	 1.002728383790733e+001
0	 4.600030000017849e+000	 8.600030000017851e+000	 1.002509027280691e+001
0	 4.600030000017849e+000	 8.666700000016668e+000	 1.002296769248208e+001
0	 4.666700000016665e+000	 7.999999999999998e+000	 1.004854724427149e+001
0	 4.666700000016665e+000	 8.066670000003317e+000	 1.004566278708231e+001
0	 4.666700000016666e+000	 8.133340000006532e+000	 1.004286647151109e+001
0	 4.666700000016666e+000	 8.200010000009549e+000	 1.004015623635007e+001
0	 4.666700000016666e+000	 8.266680000012268e+000	 1.003753002039148e+001
0	 4.666700000016667e+000	 8.333350000014585e+000	 1.003498576242757e+001
0	 4.666700000016666e+000	 8.400020000016399e+000	 1.003252140125056e+001
0	 4.666700000016666e+000	 8.466690000017616e+000	 1.003013487565269e+001
0	 4.666700000016666e+000	 8.533360000018133e+000	 1.002782412442624e+001
0	 4.666700000016667e+000	 8.600030000017853e+000	 1.002558708636340e+001
0	 4.666700000016665e+000	 8.666700000016666e+000	 1.002342170025645e+001
0	 4.000000000000000e+000	 8.666700000016666e+000	 1.001683427653897e+001
0	 4.000000000000000e+000	 8.733360002791901e+000	 1.001533739266178e+001
0	 4.000000000000000e+000	 8.800020022230555e+000	 1.001391304853324e+001
0	 4.000000000000000e+000	 8.866680074997040e+000	 1.001255813885926e+001
0	 4.000000000000000e+000	 8.933340177755778e+000	 1.001126955815561e+001
0	 4.000000000000001e+000	 9.000000347171181e+000	 1.001004420074805e+001
0	 4.000000000000000e+000	 9.066660599907667e+000	 1.000887896077213e+001
0	 4.000000000000001e+000	 9.133320952629656e+000	 1.000777073217332e+001
0	 4.000000000000001e+000	 9.199981422001560e+000	 1.000671640870700e+001
0	 4.000000000000001e+000	 9.266642024687796e+000	 1.000571288393835e+001
0	 4.000000000000000e+000	 9.333302777352783e+000	 1.000475705124246e+001
0	 4.066670000003317e+000	 8.666700000016668e+000	 1.001769464515855e+001
0	 4.066670000003318e+000	 8.733360002791907e+000	 1.001612059418990e+001
0	 4.066670000003317e+000	 8.800020022230557e+000	 1.001462200517262e+001
0	 4.066670000003317e+000	 8.866680074997040e+000	 1.001319579389115e+001
0	 4.066670000003319e+000	 8.933340177755778e+000	 1.001183887592938e+001
0	 4.066670000003318e+000	 9.000000347171183e+000	 1.001054816667054e+001
0	 4.066670000003317e+000	 9.066660599907669e+000	 1.000932058129730e+001
0	 4.066670000003317e+000	 9.133320952629655e+000	 1.000815303479170e+001
0	 4.066670000003317e+000	 9.199981422001560e+000	 1.000704244193516e+001
0	 4.066670000003317e+000	 9.266642024687794e+000	 1.000598571730850e+001
0	 4.066670000003317e+000	 9.333302777352783e+000	 1.000497977529190e+001
0	 4.133340000006534e+000	 8.666700000016665e+000	 1.001851089868962e+001
0	 4.133340000006533e+000	 8.733360002791905e+000	 1.001686430795735e+001
0	 4.133340000006533e+000	 8.800020022230553e+000	 1.001529600607250e+001
0	 4.133340000006534e+000	 8.866680074997040e+000	 1.001380291064739e+001
0	 4.133340000006533e+000	 8.933340177755776e+000	 1.001238193908387e+001
0	 4.133340000006534e+000	 9.000000347171183e+000	 1.001103000857321e+001
0	 4.133340000006535e+000	 9.066660599907667e+000	 1.000974403609611e+001
0	 4.133340000006534e+000	 9.133320952629656e+000	 1.000852093842272e+001
0	 4.133340000006533e+000	 9.199981422001560e+000	 1.000735763211265e+001
0	 4.133340000006533e+000	 9.266642024687796e+000	 1.000625103351488e+001
0	 4.133340000006535e+000	 9.333302777352783e+000	 1.000519805876789e+001
0	 4.200010000009550e+000	 8.666700000016666e+000	 1.001928277810307e+001
0	 4.200010000009550e+000	 8.733360002791905e+000	 1.001756811429739e+001
0	 4.200010000009550e+000	 8.800020022230555e+000	 1.001593447653035e+001
0	 4.200010000009550e+000	 8.866680074997040e+000	 1.001437876499168e+001
0	 4.200010000009551e+000	 8.933340177755779e+000	 1.001289787965114e+001
0	 4.200010000009550e+000	 9.000000347171181e+000	 1.001148872025856e+001
0	 4.200010000009551e+000	 9.066660599907671e+000	 1.001014818634381e+001
0	 4.200010000009550e+000	 9.133320952629656e+000	 1.000887317721673e+001
0	 4.200010000009550e+000	 9.199981422001558e+000	 1.000766059196723e+001
0	 4.200010000009550e+000	 9.266642024687796e+000	 1.000650732946523e+001
0	 4.200010000009550e+000	 9.333302777352779e+000	 1.000541028836064e+001
0	 4.266680000012267e+000	 8.666700000016668e+000	 1.002001002436974e+001
0	 4.266680000012268e+000	 8.733360002791903e+000	 1.001823159354324e+001
0	 4.266680000012266e+000	 8.800020022230553e+000	 1.001653684184369e+001
0	 4.266680000012267e+000	 8.866680074997040e+000	 1.001492263278772e+001
0	 4.266680000012266e+000	 8.933340177755779e+000	 1.001338582966321e+001
0	 4.266680000012266e+000	 9.000000347171181e+000	 1.001192329552916e+001
0	 4.266680000012267e+000	 9.066660599907667e+000	 1.001053189321567e+001
0	 4.266680000012266e+000	 9.133320952629655e+000	 1.000920848532406e+001
0	 4.266680000012267e+000	 9.199981422001560e+000	 1.000794993422676e+001
0	 4.266680000012268e+000	 9.266642024687798e+000	 1.000675310206727e+001
0	 4.266680000012267e+000	 9.333302777352785e+000	 1.000561485076034e+001
0	 4.333350000014583e+000	 8.666700000016666e+000	 1.002069237846052e+001
0	 4.333350000014583e+000	 8.733360002791903e+000	 1.001885432602817e+001
0	 4.333350000014582e+000	 8.800020022230555e+000	 1.001710252730999e+001
0	 4.333350000014582e+000	 8.866680074997039e+000	 1.001543378989928e+001
0	 4.333350000014583e+000	 8.933340177755781e+000	 1.001384492115213e+001
0	 4.333350000014583e+000	 9.000000347171181e+000	 1.001233272818746e+001
0	 4.333350000014582e+000	 9.066660599907666e+000	 1.001089401788694e+001
0	 4.333350000014584e+000	 9.133320952629658e+000	 1.000952559689506e+001
0	 4.333350000014582e+000	 9.199981422001557e+000	 1.000822427161901e+001
0	 4.333350000014583e+000	 9.266642024687798e+000	 1.000698684822880e+001
0	 4.333350000014585e+000	 9.333302777352785e+000	 1.000581013265720e+001
0	 4.400020000016401e+000	 8.666700000016666e+000	 1.002132958134626e+001
0	 4.400020000016400e+000	 8.733360002791901e+000	 1.001943589208544e+001
0	 4.400020000016400e+000	 8.800020022230553e+000	 1.001763095822678e+001
0	 4.400020000016401e+000	 8.866680074997042e+000	 1.001591151219003e+001
0	 4.400020000016401e+000	 8.933340177755779e+000	 1.001427428614990e+001
0	 4.400020000016398e+000	 9.000000347171181e+000	 1.001271601203600e+001
0	 4.400020000016399e+000	 9.066660599907667e+000	 1.001123342153290e+001
0	 4.400020000016400e+000	 9.133320952629656e+000	 1.000982324608004e+001
0	 4.400020000016400e+000	 9.199981422001557e+000	 1.000848221687182e+001
0	 4.400020000016400e+000	 9.266642024687796e+000	 1.000720706485755e+001
0	 4.400020000016399e+000	 9.333302777352781e+000	 1.000599452074146e+001
0	 4.466690000017616e+000	 8.666700000016668e+000	 1.002192137399787e+001
0	 4.466690000017615e+000	 8.733360002791899e+000	 1.001997587204826e+001
0	 4.466690000017618e+000	 8.800020022230557e+000	 1.001812155989152e+001
0	 4.466690000017615e+000	 8.866680074997040e+000	 1.001635507552372e+001
0	 4.466690000017616e+000	 8.933340177755776e+000	 1.001467305668856e+001
0	 4.466690000017617e+000	 9.000000347171179e+000	 1.001307214087730e+001
0	 4.466690000017616e+000	 9.066660599907671e+000	 1.001154896532875e+001
0	 4.466690000017617e+000	 9.133320952629656e+000	 1.001010016702932e+001
0	 4.466690000017617e+000	 9.199981422001558e+000	 1.000872238271299e+001
0	 4.466690000017617e+000	 9.266642024687799e+000	 1.000741224886130e+001
0	 4.466690000017616e+000	 9.333302777352783e+000	 1.000616640170329e+001
0	 4.533360000018131e+000	 8.666700000016666e+000	 1.002246749738617e+001
0	 4.533360000018132e+000	 8.733360002791899e+000	 1.002047384624991e+001
0	 4.533360000018134e+000	 8.800020022230559e+000	 1.001857375760173e+001
0	 4.533360000018135e+000	 8.866680074997042e+000	 1.001676375576409e+001
0	 4.533360000018133e+000	 8.933340177755781e+000	 1.001504036480018e+001
0	 4.533360000018134e+000	 9.000000347171181e+000	 1.001340010851387e+001
0	 4.533360000018132e+000	 9.066660599907666e+000	 1.001183951044978e+001
0	 4.533360000018132e+000	 9.133320952629656e+000	 1.001035509389327e+001
0	 4.533360000018132e+000	 9.199981422001558e+000	 1.000894338187036e+001
0	 4.533360000018133e+000	 9.266642024687796e+000	 1.000760089714778e+001
0	 4.533360000018132e+000	 9.333302777352779e+000	 1.000632416223295e+001
0	 4.600030000017849e+000	 8.666700000016668e+000	 1.002296769248208e+001
0	 4.600030000017849e+000	 8.733360002791903e+000	 1.002092939502363e+001
0	 4.600030000017848e+000	 8.800020022230553e+000	 1.001898697665491e+001
0	 4.600030000017848e+000	 8.866680074997042e+000	 1.001713682877483e+001
0	 4.600030000017850e+000	 8.933340177755779e+000	 1.001537534251673e+001
0	 4.600030000017848e+000	 9.000000347171181e+000	 1.001369890874819e+001
0	 4.600030000017849e+000	 9.066660599907667e+000	 1.001210391807125e+001
0	 4.600030000017849e+000	 9.133320952629656e+000	 1.001058676082220e+001
0	 4.600030000017848e+000	 9.199981422001558e+000	 1.000914382707171e+001
0	 4.600030000017848e+000	 9.266642024687796e+000	 1.000777150662473e+001
0	 4.600030000017849e+000	 9.333302777352783e+000	 1.000646618902063e+001
0	 4.666700000016665e+000	 8.666700000016666e+000	 1.002342170025645e+001
0	 4.666700000016665e+000	 8.733360002791901e+000	 1.002134209870267e+001
0	 4.666700000016665e+000	 8.800020022230555e+000	 1.001936064234854e+001
0	 4.666700000016666e+000	 8.866680074997040e+000	 1.001747357041970e+001
0	 4.666700000016666e+000	 8.933340177755778e+000	 1.001567712187028e+001
0	 4.666700000016666e+000	 9.000000347171181e+000	 1.001396753538284e+001
0	 4.666700000016667e+000	 9.066660599907669e+000	 1.001234104936841e+001
0	 4.666700000016666e+000	 9.133320952629655e+000	 1.001079390196646e+001
0	 4.666700000016666e+000	 9.199981422001557e+000	 1.000932233104486e+001
0	 4.666700000016667e+000	 9.266642024687798e+000	 1.000792257419995e+001
0	 4.666700000016665e+000	 9.333302777352781e+000	 1.000659086875655e+001
0	 4.000000000000000e+000	 9.333302777352783e+000	 1.000475705124246e+001
0	 4.000000000000001e+000	 9.399973674588178e+000	 1.000387666097155e+001
0	 4.000000000000001e+000	 9.466644621844623e+000	 1.000309826243936e+001
0	 4.000000000000000e+000	 9.533315502450000e+000	 1.000241652891084e+001
0	 4.000000000000000e+000	 9.599986199732195e+000	 1.000182613564043e+001
0	 4.000000000000000e+000	 9.666656597019095e+000	 1.000132175987163e+001
0	 4.000000000000001e+000	 9.733326577638577e+000	 1.000089808083690e+001
0	 3.999999999999999e+000	 9.799996024918523e+000	 1.000054977975745e+001
0	 4.000000000000000e+000	 9.866664822186824e+000	 1.000027153984316e+001
0	 4.000000000000000e+000	 9.933332852771352e+000	 1.000005804629259e+001
0	 4.000000000000000e+000	 1.000000000000000e+001	 9.999903986292880e+000
0	 4.066670000003317e+000	 9.333302777352783e+000	 1.000497977529190e+001
0	 4.066670000003318e+000	 9.399973674588175e+000	 1.000405390857281e+001
0	 4.066670000003318e+000	 9.466644621844623e+000	 1.000323589208699e+001
0	 4.066670000003317e+000	 9.533315502450000e+000	 1.000251992325453e+001
0	 4.066670000003318e+000	 9.599986199732197e+000	 1.000190020159216e+001
0	 4.066670000003319e+000	 9.666656597019097e+000	 1.000137092871312e+001
0	 4.066670000003317e+000	 9.733326577638575e+000	 1.000092630832689e+001
0	 4.066670000003318e+000	 9.799996024918523e+000	 1.000056054623905e+001
0	 4.066670000003316e+000	 9.866664822186820e+000	 1.000026785035126e+001
0	 4.066670000003316e+000	 9.933332852771352e+000	 1.000004243066116e+001
0	 4.066670000003317e+000	 1.000000000000000e+001	 9.999878499262405e+000
0	 4.133340000006535e+000	 9.333302777352783e+000	 1.000519805876789e+001
0	 4.133340000006534e+000	 9.399973674588178e+000	 1.000422941405791e+001
0	 4.133340000006533e+000	 9.466644621844621e+000	 1.000337402008648e+001
0	 4.133340000006534e+000	 9.533315502450003e+000	 1.000262565397336e+001
0	 4.133340000006533e+000	 9.599986199732195e+000	 1.000197809503597e+001
0	 4.133340000006531e+000	 9.666656597019092e+000	 1.000142512478907e+001
0	 4.133340000006533e+000	 9.733326577638575e+000	 1.000096052694472e+001
0	 4.133340000006532e+000	 9.799996024918521e+000	 1.000057808741197e+001
0	 4.133340000006532e+000	 9.866664822186818e+000	 1.000027159429691e+001
0	 4.133340000006533e+000	 9.933332852771351e+000	 1.000003483790265e+001
0	 4.133340000006534e+000	 1.000000000000000e+001	 9.999861610729429e+000
0	 4.200010000009550e+000	 9.333302777352779e+000	 1.000541028836064e+001
0	 4.200010000009550e+000	 9.399973674588175e+000	 1.000440146674870e+001
0	 4.200010000009551e+000	 9.466644621844621e+000	 1.000351085851893e+001
0	 4.200010000009550e+000	 9.533315502449998e+000	 1.000273187603506e+001
0	 4.200010000009551e+000	 9.599986199732198e+000	 1.000205793395322e+001
0	 4.200010000009550e+000	 9.666656597019090e+000	 1.000148244922164e+001
0	 4.200010000009550e+000	 9.733326577638575e+000	 1.000099884108064e+001
0	 4.200010000009550e+000	 9.799996024918524e+000	 1.000060053106230e+001
0	 4.200010000009550e+000	 9.866664822186822e+000	 1.000028094299058e+001
0	 4.200010000009550e+000	 9.933332852771352e+000	 1.000003350298127e+001
0	 4.200010000009550e+000	 9.999999999999998e+000	 9.999851639441985e+000
0	 4.266680000012267e+000	 9.333302777352785e+000	 1.000561485076034e+001
0	 4.266680000012267e+000	 9.399973674588175e+000	 1.000456835596702e+001
0	 4.266680000012268e+000	 9.466644621844623e+000	 1.000364461946552e+001
0	 4.266680000012266e+000	 9.533315502450000e+000	 1.000283674440736e+001
0	 4.266680000012268e+000	 9.599986199732198e+000	 1.000213783632528e+001
0	 4.266680000012268e+000	 9.666656597019090e+000	 1.000154100313295e+001
0	 4.266680000012268e+000	 9.733326577638575e+000	 1.000103935512484e+001
0	 4.266680000012268e+000	 9.799996024918521e+000	 1.000062600497614e+001
0	 4.266680000012266e+000	 9.866664822186824e+000	 1.000029406774268e+001
0	 4.266680000012268e+000	 9.933332852771356e+000	 1.000003666086096e+001
0	 4.266680000012267e+000	 9.999999999999998e+000	 9.999846904148290e+000
0	 4.333350000014585e+000	 9.333302777352785e+000	 1.000581013265720e+001
0	 4.333350000014583e+000	 9.399973674588175e+000	 1.000472837103472e+001
0	 4.333350000014582e+000	 9.466644621844619e+000	 1.000377351500738e+001
0	 4.333350000014584e+000	 9.533315502450000e+000	 1.000293841405795e+001
0	 4.333350000014584e+000	 9.599986199732198e+000	 1.000221592013350e+001
0	 4.333350000014582e+000	 9.666656597019093e+000	 1.000159888764506e+001
0	 4.333350000014583e+000	 9.733326577638572e+000	 1.000108017346753e+001
0	 4.333350000014583e+000	 9.799996024918523e+000	 1.000065263693959e+001
0	 4.333350000014583e+000	 9.866664822186824e+000	 1.000030913986366e+001
0	 4.333350000014585e+000	 9.933332852771358e+000	 1.000004254650590e+001
0	 4.333350000014584e+000	 1.000000000000000e+001	 9.999845723596490e+000
0	 4.400020000016399e+000	 9.333302777352781e+000	 1.000599452074146e+001
0	 4.400020000016400e+000	 9.399973674588177e+000	 1.000487980127364e+001
0	 4.400020000016400e+000	 9.466644621844621e+000	 1.000389575722564e+001
0	 4.400020000016398e+000	 9.533315502450000e+000	 1.000303503995455e+001
0	 4.400020000016400e+000	 9.599986199732198e+000	 1.000229030335925e+001
0	 4.400020000016400e+000	 9.666656597019092e+000	 1.000165420388015e+001
0	 4.400020000016401e+000	 9.733326577638575e+000	 1.000111940049896e+001
0	 4.400020000016400e+000	 9.799996024918524e+000	 1.000067855473876e+001
0	 4.400020000016400e+000	 9.866664822186820e+000	 1.000032433066397e+001
0	 4.400020000016399e+000	 9.933332852771354e+000	 1.000004939488019e+001
0	 4.400020000016400e+000	 1.000000000000000e+001	 9.999846416534695e+000
0	 4.466690000017616e+000	 9.333302777352783e+000	 1.000616640170329e+001
0	 4.466690000017616e+000	 9.399973674588177e+000	 1.000502093600564e+001
0	 4.466690000017615e+000	 9.466644621844621e+000	 1.000400955820146e+001
0	 4.466690000017617e+000	 9.533315502450000e+000	 1.000312477706488e+001
0	 4.466690000017616e+000	 9.599986199732195e+000	 1.000235910398391e+001
0	 4.466690000017615e+000	 9.666656597019092e+000	 1.000170505296029e+001
0	 4.466690000017616e+000	 9.733326577638577e+000	 1.000115514060930e+001
0	 4.466690000017616e+000	 9.799996024918524e+000	 1.000070188615974e+001
0	 4.466690000017616e+000	 9.866664822186822e+000	 1.000033781145399e+001
0	 4.466690000017616e+000	 9.933332852771354e+000	 1.000005544094787e+001
0	 4.466690000017617e+000	 1.000000000000000e+001	 9.999847301711071e+000
0	 4.533360000018132e+000	 9.333302777352779e+000	 1.000632416223296e+001
0	 4.533360000018131e+000	 9.399973674588173e+000	 1.000515006455255e+001
0	 4.533360000018132e+000	 9.466644621844619e+000	 1.000411313001600e+001
0	 4.533360000018134e+000	 9.533315502450002e+000	 1.000320578035663e+001
0	 4.533360000018131e+000	 9.599986199732197e+000	 1.000242043998882e+001
0	 4.533360000018131e+000	 9.666656597019093e+000	 1.000174953600762e+001
0	 4.533360000018134e+000	 9.733326577638577e+000	 1.000118549818880e+001
0	 4.533360000018132e+000	 9.799996024918528e+000	 1.000072075898864e+001
0	 4.533360000018132e+000	 9.866664822186822e+000	 1.000034775354422e+001
0	 4.533360000018132e+000	 9.933332852771356e+000	 1.000005891967309e+001
0	 4.533360000018132e+000	 1.000000000000000e+001	 9.999846697873792e+000
0	 4.600030000017849e+000	 9.333302777352783e+000	 1.000646618902063e+001
0	 4.600030000017849e+000	 9.399973674588177e+000	 1.000526547623623e+001
0	 4.600030000017849e+000	 9.466644621844619e+000	 1.000420468475038e+001
0	 4.600030000017849e+000	 9.533315502450002e+000	 1.000327620479756e+001
0	 4.600030000017849e+000	 9.599986199732195e+000	 1.000247242935536e+001
0	 4.600030000017847e+000	 9.666656597019092e+000	 1.000178575414427e+001
0	 4.600030000017849e+000	 9.733326577638573e+000	 1.000120857762766e+001
0	 4.600030000017848e+000	 9.799996024918523e+000	 1.000073330101162e+001
0	 4.600030000017849e+000	 9.866664822186822e+000	 1.000035232824509e+001
0	 4.600030000017848e+000	 9.933332852771352e+000	 1.000005806601990e+001
0	 4.600030000017849e+000	 1.000000000000000e+001	 9.999842923771000e+000
0	 4.666700000016665e+000	 9.333302777352781e+000	 1.000659086875655e+001
0	 4.666700000016666e+000	 9.399973674588177e+000	 1.000536546037851e+001
0	 4.666700000016667e+000	 9.466644621844621e+000	 1.000428243448576e+001
0	 4.666700000016667e+000	 9.533315502450000e+000	 1.000333420535535e+001
0	 4.666700000016666e+000	 9.599986199732197e+000	 1.000251319006487e+001
0	 4.666700000016666e+000	 9.666656597019095e+000	 1.000181180849234e+001
0	 4.666700000016666e+000	 9.733326577638573e+000	 1.000122248331609e+001
0	 4.666700000016665e+000	 9.799996024918521e+000	 1.000073764001470e+001
0	 4.666700000016666e+000	 9.866664822186822e+000	 1.000034970686701e+001
0	 4.666700000016666e+000	 9.933332852771352e+000	 1.000005111495240e+001
0	 4.666700000016666e+000	 1.000000000000000e+001	 9.999834298150692e+000
0	 4.666700000016666e+000	 0.000000000000000e+000	 1.088457104800215e+001
0	 4.666700000016666e+000	 6.666714722864757e-002	 1.083848855962634e+001
0	 4.666700000016667e+000	 1.333351778131790e-001	 1.078902486812599e+001
0	 4.666700000016665e+000	 2.000039750814772e-001	 1.073787216401024e+001
0	 4.666700000016666e+000	 2.666734223614256e-001	 1.068672269740370e+001
0	 4.666700000016668e+000	 3.333434029809070e-001	 1.063726877803955e+001
0	 4.666700000016665e+000	 4.000138002678044e-001	 1.059120277525403e+001
0	 4.666700000016666e+000	 4.666844975500011e-001	 1.055021711798260e+001
0	 4.666700000016667e+000	 5.333553781553803e-001	 1.051600429475770e+001
0	 4.666700000016666e+000	 6.000263254118248e-001	 1.049025685370794e+001
0	 4.666700000016667e+000	 6.666972226472179e-001	 1.047466740255896e+001
0	 4.733360000014534e+000	 0.000000000000000e+000	 1.076289668325258e+001
0	 4.733360000014533e+000	 6.666714722864754e-002	 1.072922393077179e+001
0	 4.733360000014533e+000	 1.333351778131789e-001	 1.069282446426420e+001
0	 4.733360000014534e+000	 2.000039750814773e-001	 1.065499819116789e+001
0	 4.733360000014534e+000	 2.666734223614255e-001	 1.061704506406479e+001
0	 4.733360000014533e+000	 3.333434029809068e-001	 1.058026508067564e+001
0	 4.733360000014533e+000	 4.000138002678044e-001	 1.054595828385616e+001
0	 4.733360000014534e+000	 4.666844975500012e-001	 1.051542476159443e+001
0	 4.733360000014533e+000	 5.333553781553801e-001	 1.048996464700938e+001
0	 4.733360000014534e+000	 6.000263254118248e-001	 1.047087811835058e+001
0	 4.733360000014533e+000	 6.666972226472174e-001	 1.045946539899906e+001
0	 4.800020000011600e+000	 0.000000000000000e+000	 1.065482424528028e+001
0	 4.800020000011600e+000	 6.666714722864754e-002	 1.063117684005729e+001
0	 4.800020000011601e+000	 1.333351778131790e-001	 1.060550229129341e+001
0	 4.800020000011601e+000	 2.000039750814772e-001	 1.057875502905895e+001
0	 4.800020000011600e+000	 2.666734223614255e-001	 1.055188951715761e+001
0	 4.800020000011599e+000	 3.333434029809069e-001	 1.052586025312299e+001
0	 4.800020000011599e+000	 4.000138002678044e-001	 1.050162176821598e+001
0	 4.800020000011599e+000	 4.666844975500012e-001	 1.048012862742306e+001
0	 4.800020000011601e+000	 5.333553781553804e-001	 1.046233542945547e+001
0	 4.800020000011601e+000	 6.000263254118247e-001	 1.044919680674923e+001
0	 4.800020000011600e+000	 6.666972226472175e-001	 1.044166742546614e+001
0	 4.866680000008066e+000	 0.000000000000000e+000	 1.056019603766037e+001
0	 4.866680000008067e+000	 6.666714722864757e-002	 1.054443243924072e+001
0	 4.866680000008067e+000	 1.333351778131789e-001	 1.052735229551766e+001
0	 4.866680000008068e+000	 2.000039750814772e-001	 1.050961136725740e+001
0	 4.866680000008065e+000	 2.666734223614256e-001	 1.049186544025264e+001
0	 4.866680000008065e+000	 3.333434029809069e-001	 1.047477032532029e+001
0	 4.866680000008066e+000	 4.000138002678044e-001	 1.045898185829974e+001
0	 4.866680000008067e+000	 4.666844975500011e-001	 1.044515590005178e+001
0	 4.866680000008067e+000	 5.333553781553803e-001	 1.043394833645833e+001
0	 4.866680000008066e+000	 6.000263254118248e-001	 1.042601507842261e+001
0	 4.866680000008067e+000	 6.666972226472177e-001	 1.042201206187016e+001
0	 4.933340000004134e+000	 0.000000000000000e+000	 1.047885436396774e+001
0	 4.933340000004134e+000	 6.666714722864754e-002	 1.046907588007975e+001
0	 4.933340000004133e+000	 1.333351778131789e-001	 1.045866842324079e+001
0	 4.933340000004134e+000	 2.000039750814772e-001	 1.044803589533701e+001
0	 4.933340000004134e+000	 2.666734223614255e-001	 1.043758221692018e+001
0	 4.933340000004134e+000	 3.333434029809070e-001	 1.042771132720610e+001
0	 4.933340000004134e+000	 4.000138002678044e-001	 1.041882718407355e+001
0	 4.933340000004133e+000	 4.666844975500011e-001	 1.041133376406376e+001
0	 4.933340000004133e+000	 5.333553781553803e-001	 1.040563506238027e+001
0	 4.933340000004133e+000	 6.000263254118248e-001	 1.040213509288937e+001
0	 4.933340000004133e+000	 6.666972226472175e-001	 1.040123788812101e+001
0	 5.000000000000000e+000	 0.000000000000000e+000	 1.041064152777705e+001
0	 5.000000000000004e+000	 6.666714722864757e-002	 1.040519231433184e+001
0	 5.000000000000002e+000	 1.333351778131790e-001	 1.039974462076640e+001
0	 5.000000000000001e+000	 2.000039750814772e-001	 1.039449730287139e+001
0	 5.000000000000000e+000	 2.666734223614255e-001	 1.038964923073035e+001
0	 5.000000000000001e+000	 3.333434029809069e-001	 1.038539928871877e+001
0	 5.000000000000001e+000	 4.000138002678044e-001	 1.038194637550342e+001
0	 4.999999999999999e+000	 4.666844975500012e-001	 1.037948940404205e+001
0	 5.000000000000001e+000	 5.333553781553803e-001	 1.037822730158347e+001
0	 4.999999999999999e+000	 6.000263254118246e-001	 1.037835900966806e+001
0	 5.000000000000001e+000	 6.666972226472178e-001	 1.038008348412854e+001
0	 5.066659999995866e+000	 0.000000000000000e+000	 1.035539983266273e+001
0	 5.066659999995868e+000	 6.666714722864757e-002	 1.035286689375418e+001
0	 5.066659999995867e+000	 1.333351778131790e-001	 1.035087483439792e+001
0	 5.066659999995868e+000	 2.000039750814772e-001	 1.034946427943392e+001
0	 5.066659999995867e+000	 2.666734223614256e-001	 1.034867586525308e+001
0	 5.066659999995866e+000	 3.333434029809069e-001	 1.034855023979654e+001
0	 5.066659999995867e+000	 4.000138002678044e-001	 1.034912806255520e+001
0	 5.066659999995866e+000	 4.666844975500011e-001	 1.035045000456961e+001
0	 5.066659999995866e+000	 5.333553781553804e-001	 1.035255674843008e+001
0	 5.066659999995868e+000	 6.000263254118248e-001	 1.035548898827720e+001
0	 5.066659999995868e+000	 6.666972226472178e-001	 1.035928742980257e+001
0	 5.133319999991932e+000	 0.000000000000000e+000	 1.031297158219897e+001
0	 5.133319999991933e+000	 6.666714722864756e-002	 1.031218477010379e+001
0	 5.133319999991933e+000	 1.333351778131789e-001	 1.031235301043853e+001
0	 5.133319999991933e+000	 2.000039750814772e-001	 1.031340551459779e+001
0	 5.133319999991933e+000	 2.666734223614255e-001	 1.031527150405815e+001
0	 5.133319999991933e+000	 3.333434029809069e-001	 1.031788021037748e+001
0	 5.133319999991934e+000	 4.000138002678043e-001	 1.032116087519462e+001
0	 5.133319999991933e+000	 4.666844975500012e-001	 1.032504275022927e+001
0	 5.133319999991935e+000	 5.333553781553804e-001	 1.032945509728210e+001
0	 5.133319999991932e+000	 6.000263254118248e-001	 1.033432718823522e+001
0	 5.133319999991933e+000	 6.666972226472177e-001	 1.033958830505285e+001
0	 5.199979999988400e+000	 0.000000000000000e+000	 1.028319907995973e+001
0	 5.199979999988399e+000	 6.666714722864756e-002	 1.028323109513741e+001
0	 5.199979999988400e+000	 1.333351778131790e-001	 1.028447309519120e+001
0	 5.199979999988400e+000	 2.000039750814773e-001	 1.028678969793603e+001
0	 5.199979999988401e+000	 2.666734223614256e-001	 1.029004553071516e+001
0	 5.199979999988399e+000	 3.333434029809069e-001	 1.029410523039951e+001
0	 5.199979999988399e+000	 4.000138002678044e-001	 1.029883344338728e+001
0	 5.199979999988399e+000	 4.666844975500011e-001	 1.030409482560376e+001
0	 5.199979999988400e+000	 5.333553781553800e-001	 1.030975404250147e+001
0	 5.199979999988400e+000	 6.000263254118249e-001	 1.031567576906051e+001
0	 5.199979999988399e+000	 6.666972226472177e-001	 1.032172468978910e+001
0	 5.266639999985466e+000	 0.000000000000000e+000	 1.026592462951871e+001
0	 5.266639999985466e+000	 6.666714722864756e-002	 1.026609102061160e+001
0	 5.266639999985464e+000	 1.333351778131789e-001	 1.026752903495871e+001
0	 5.266639999985465e+000	 2.000039750814772e-001	 1.027008551902141e+001
0	 5.266639999985465e+000	 2.666734223614255e-001	 1.027360732879350e+001
0	 5.266639999985465e+000	 3.333434029809068e-001	 1.027794132980038e+001
0	 5.266639999985466e+000	 4.000138002678045e-001	 1.028293439709861e+001
0	 5.266639999985465e+000	 4.666844975500011e-001	 1.028843341527570e+001
0	 5.266639999985465e+000	 5.333553781553801e-001	 1.029428527845005e+001
0	 5.266639999985466e+000	 6.000263254118247e-001	 1.030033689027134e+001
0	 5.266639999985466e+000	 6.666972226472178e-001	 1.030643516392095e+001
0	 5.333299999983334e+000	 0.000000000000000e+000	 1.026099053444941e+001
0	 5.333299999983336e+000	 6.666714722864757e-002	 1.026084969828268e+001
0	 5.333299999983333e+000	 1.333351778131789e-001	 1.026181477604359e+001
0	 5.333299999983336e+000	 2.000039750814772e-001	 1.026376166742656e+001
0	 5.333299999983334e+000	 2.666734223614255e-001	 1.026656628186242e+001
0	 5.333299999983334e+000	 3.333434029809068e-001	 1.027010453851770e+001
0	 5.333299999983334e+000	 4.000138002678044e-001	 1.027425236629397e+001
0	 5.333299999983334e+000	 4.666844975500011e-001	 1.027888570382759e+001
0	 5.333299999983333e+000	 5.333553781553803e-001	 1.028388049948960e+001
0	 5.333299999983335e+000	 6.000263254118248e-001	 1.028911271138599e+001
0	 5.333299999983334e+000	 6.666972226472175e-001	 1.029445830735804e+001
0	 4.666700000016667e+000	 6.666972226472179e-001	 1.047466740255896e+001
0	 4.666700000016665e+000	 7.333579753122046e-001	 1.046715698553761e+001
0	 4.666700000016666e+000	 8.000185779984418e-001	 1.046411610927054e+001
0	 4.666700000016665e+000	 8.666790473703452e-001	 1.046494609660787e+001
0	 4.666700000016666e+000	 9.333394000923320e-001	 1.046904827205577e+001
0	 4.666700000016666e+000	 9.999996528288190e-001	 1.047582396177667e+001
0	 4.666700000016665e+000	 1.066659822244222e+000	 1.048467449358924e+001
0	 4.666700000016667e+000	 1.133319925002959e+000	 1.049500119696852e+001
0	 4.666700000016666e+000	 1.199979977769445e+000	 1.050620540304602e+001
0	 4.666700000016667e+000	 1.266639997208098e+000	 1.051768844460971e+001
0	 4.666700000016666e+000	 1.333299999983334e+000	 1.052885165610416e+001
0	 4.733360000014533e+000	 6.666972226472174e-001	 1.045946539899906e+001
0	 4.733360000014534e+000	 7.333579753122049e-001	 1.045410093126332e+001
0	 4.733360000014533e+000	 8.000185779984421e-001	 1.045198767041717e+001
0	 4.733360000014535e+000	 8.666790473703454e-001	 1.045267185814686e+001
0	 4.733360000014532e+000	 9.333394000923320e-001	 1.045569973759207e+001
0	 4.733360000014533e+000	 9.999996528288190e-001	 1.046061755334599e+001
0	 4.733360000014534e+000	 1.066659822244222e+000	 1.046697155145540e+001
0	 4.733360000014534e+000	 1.133319925002959e+000	 1.047430797942070e+001
0	 4.733360000014533e+000	 1.199979977769445e+000	 1.048217308619609e+001
0	 4.733360000014534e+000	 1.266639997208097e+000	 1.049011312218946e+001
0	 4.733360000014534e+000	 1.333299999983334e+000	 1.049767433926257e+001
0	 4.800020000011600e+000	 6.666972226472175e-001	 1.044166742546614e+001
0	 4.800020000011599e+000	 7.333579753122046e-001	 1.043848472395266e+001
0	 4.800020000011600e+000	 8.000185779984415e-001	 1.043753108564442e+001
0	 4.800020000011601e+000	 8.666790473703455e-001	 1.043848060336671e+001
0	 4.800020000011600e+000	 9.333394000923323e-001	 1.044100737113815e+001
0	 4.800020000011599e+000	 9.999996528288186e-001	 1.044478548417075e+001
0	 4.800020000011601e+000	 1.066659822244222e+000	 1.044948903887001e+001
0	 4.800020000011601e+000	 1.133319925002959e+000	 1.045479213283493e+001
0	 4.800020000011601e+000	 1.199979977769445e+000	 1.046036886485808e+001
0	 4.800020000011601e+000	 1.266639997208098e+000	 1.046589333492568e+001
0	 4.800020000011601e+000	 1.333299999983334e+000	 1.047103964421759e+001
0	 4.866680000008067e+000	 6.666972226472177e-001	 1.042201206187016e+001
0	 4.866680000008067e+000	 7.333579753122050e-001	 1.042096120167799e+001
0	 4.866680000008067e+000	 8.000185779984419e-001	 1.042130314758514e+001
0	 4.866680000008067e+000	 8.666790473703453e-001	 1.042282277586520e+001
0	 4.866680000008066e+000	 9.333394000923324e-001	 1.042530496368296e+001
0	 4.866680000008067e+000	 9.999996528288191e-001	 1.042853458909461e+001
0	 4.866680000008066e+000	 1.066659822244222e+000	 1.043229653104764e+001
0	 4.866680000008065e+000	 1.133319925002958e+000	 1.043637566938099e+001
0	 4.866680000008068e+000	 1.199979977769445e+000	 1.044055688482507e+001
0	 4.866680000008066e+000	 1.266639997208098e+000	 1.044462505900179e+001
0	 4.866680000008067e+000	 1.333299999983334e+000	 1.044836507442458e+001
0	 4.933340000004133e+000	 6.666972226472175e-001	 1.040123788812101e+001
0	 4.933340000004135e+000	 7.333579753122049e-001	 1.040218320251163e+001
0	 4.933340000004133e+000	 8.000185779984418e-001	 1.040386064887219e+001
0	 4.933340000004134e+000	 8.666790473703455e-001	 1.040614881924011e+001
0	 4.933340000004133e+000	 9.333394000923323e-001	 1.040892630621551e+001
0	 4.933340000004134e+000	 9.999996528288190e-001	 1.041207170296121e+001
0	 4.933340000004134e+000	 1.066659822244222e+000	 1.041546360320281e+001
0	 4.933340000004135e+000	 1.133319925002959e+000	 1.041898060122871e+001
0	 4.933340000004133e+000	 1.199979977769445e+000	 1.042250129189014e+001
0	 4.933340000004134e+000	 1.266639997208098e+000	 1.042590427060120e+001
0	 4.933340000004134e+000	 1.333299999983334e+000	 1.042906813333890e+001
0	 5.000000000000001e+000	 6.666972226472178e-001	 1.038008348412854e+001
0	 5.000000000000002e+000	 7.333579753122050e-001	 1.038280356452589e+001
0	 5.000000000000002e+000	 8.000185779984418e-001	 1.038576038213838e+001
0	 5.000000000000001e+000	 8.666790473703453e-001	 1.038890917708924e+001
0	 5.000000000000001e+000	 9.333394000923323e-001	 1.039220518972476e+001
0	 5.000000000000000e+000	 9.999996528288190e-001	 1.039560366061424e+001
0	 5.000000000000001e+000	 1.066659822244222e+000	 1.039905983055011e+001
0	 5.000000000000002e+000	 1.133319925002959e+000	 1.040252894054792e+001
0	 5.000000000000001e+000	 1.199979977769445e+000	 1.040596623184636e+001
0	 5.000000000000000e+000	 1.266639997208098e+000	 1.040932694590734e+001
0	 4.999999999999999e+000	 1.333299999983334e+000	 1.041256632441592e+001
0	 5.066659999995868e+000	 6.666972226472178e-001	 1.035928742980257e+001
0	 5.066659999995868e+000	 7.333579753122048e-001	 1.036347512579302e+001
0	 5.066659999995867e+000	 8.000185779984419e-001	 1.036755914001650e+001
0	 5.066659999995865e+000	 8.666790473703453e-001	 1.037155429301035e+001
0	 5.066659999995866e+000	 9.333394000923321e-001	 1.037547540519966e+001
0	 5.066659999995865e+000	 9.999996528288186e-001	 1.037933729689733e+001
0	 5.066659999995867e+000	 1.066659822244222e+000	 1.038315478830408e+001
0	 5.066659999995868e+000	 1.133319925002959e+000	 1.038694269950844e+001
0	 5.066659999995867e+000	 1.199979977769445e+000	 1.039071585048685e+001
0	 5.066659999995866e+000	 1.266639997208098e+000	 1.039448906110364e+001
0	 5.066659999995866e+000	 1.333299999983334e+000	 1.039827715111102e+001
0	 5.133319999991933e+000	 6.666972226472177e-001	 1.033958830505285e+001
0	 5.133319999991933e+000	 7.333579753122048e-001	 1.034485072438524e+001
0	 5.133319999991933e+000	 8.000185779984418e-001	 1.034981371513934e+001
0	 5.133319999991933e+000	 8.666790473703454e-001	 1.035453461060118e+001
0	 5.133319999991933e+000	 9.333394000923322e-001	 1.035907074362920e+001
0	 5.133319999991934e+000	 9.999996528288190e-001	 1.036347944665418e+001
0	 5.133319999991932e+000	 1.066659822244222e+000	 1.036781805167929e+001
0	 5.133319999991933e+000	 1.133319925002959e+000	 1.037214389028013e+001
0	 5.133319999991932e+000	 1.199979977769445e+000	 1.037651429360473e+001
0	 5.133319999991934e+000	 1.266639997208098e+000	 1.038098659237357e+001
0	 5.133319999991933e+000	 1.333299999983334e+000	 1.038561811687960e+001
0	 5.199979999988399e+000	 6.666972226472177e-001	 1.032172468978910e+001
0	 5.199979999988398e+000	 7.333579753122047e-001	 1.032758319837476e+001
0	 5.199979999988399e+000	 8.000185779984419e-001	 1.033308090013963e+001
0	 5.199979999988399e+000	 8.666790473703452e-001	 1.033830057345949e+001
0	 5.199979999988399e+000	 9.333394000923322e-001	 1.034332499600233e+001
0	 5.199979999988399e+000	 9.999996528288189e-001	 1.034823694472842e+001
0	 5.199979999988400e+000	 1.066659822244222e+000	 1.035311919589033e+001
0	 5.199979999988399e+000	 1.133319925002959e+000	 1.035805452503284e+001
0	 5.199979999988399e+000	 1.199979977769445e+000	 1.036312570699312e+001
0	 5.199979999988398e+000	 1.266639997208097e+000	 1.036841551590060e+001
0	 5.199979999988400e+000	 1.333299999983334e+000	 1.037400672517708e+001
0	 5.266639999985466e+000	 6.666972226472178e-001	 1.030643516392095e+001
0	 5.266639999985464e+000	 7.333579753122047e-001	 1.031232538583372e+001
0	 5.266639999985466e+000	 8.000185779984418e-001	 1.031791748765012e+001
0	 5.266639999985464e+000	 8.666790473703451e-001	 1.032330262518298e+001
0	 5.266639999985466e+000	 9.333394000923322e-001	 1.032857195330800e+001
0	 5.266639999985465e+000	 9.999996528288189e-001	 1.033381662596375e+001
0	 5.266639999985464e+000	 1.066659822244222e+000	 1.033912779615175e+001
0	 5.266639999985465e+000	 1.133319925002958e+000	 1.034459661593643e+001
0	 5.266639999985466e+000	 1.199979977769445e+000	 1.035031423644514e+001
0	 5.266639999985465e+000	 1.266639997208098e+000	 1.035637180786820e+001
0	 5.266639999985464e+000	 1.333299999983333e+000	 1.036286047945888e+001
0	 5.333299999983334e+000	 6.666972226472175e-001	 1.029445830735804e+001
0	 5.333299999983334e+000	 7.333579753122048e-001	 1.029973012483424e+001
0	 5.333299999983334e+000	 8.000185779984417e-001	 1.030488027030352e+001
0	 5.333299999983334e+000	 8.666790473703453e-001	 1.030999120936942e+001
0	 5.333299999983335e+000	 9.333394000923322e-001	 1.031514540653517e+001
0	 5.333299999983333e+000	 9.999996528288189e-001	 1.032042532520383e+001
0	 5.333299999983334e+000	 1.066659822244222e+000	 1.032591342767818e+001
0	 5.333299999983335e+000	 1.133319925002959e+000	 1.033169217516077e+001
0	 5.333299999983334e+000	 1.199979977769445e+000	 1.033784402775394e+001
0	 5.333299999983333e+000	 1.266639997208098e+000	 1.034445144445985e+001
0	 5.333299999983335e+000	 1.333299999983334e+000	 1.035159688318044e+001
0	 4.666700000016666e+000	 1.333299999983334e+000	 1.052885165610416e+001
0	 4.666700000016665e+000	 1.399969999982150e+000	 1.053886197483118e+001
0	 4.666700000016666e+000	 1.466639999981866e+000	 1.054729908877324e+001
0	 4.666700000016667e+000	 1.533309999982383e+000	 1.055418832180824e+001
0	 4.666700000016666e+000	 1.599979999983600e+000	 1.055955499781412e+001
0	 4.666700000016665e+000	 1.666649999985416e+000	 1.056342444066878e+001
0	 4.666700000016666e+000	 1.733319999987733e+000	 1.056582197425008e+001
0	 4.666700000016666e+000	 1.799989999990450e+000	 1.056677292243589e+001
0	 4.666700000016666e+000	 1.866659999993466e+000	 1.056630260910409e+001
0	 4.666700000016666e+000	 1.933329999996683e+000	 1.056443635813247e+001
0	 4.666700000016666e+000	 2.000000000000000e+000	 1.056119949339887e+001
0	 4.733360000014534e+000	 1.333299999983334e+000	 1.049767433926257e+001
0	 4.733360000014534e+000	 1.399969999982150e+000	 1.050448175540819e+001
0	 4.733360000014533e+000	 1.466639999981867e+000	 1.051047405985157e+001
0	 4.733360000014533e+000	 1.533309999982383e+000	 1.051567126196986e+001
0	 4.733360000014534e+000	 1.599979999983600e+000	 1.052009337114024e+001
0	 4.733360000014534e+000	 1.666649999985416e+000	 1.052376039673986e+001
0	 4.733360000014533e+000	 1.733319999987733e+000	 1.052669234814584e+001
0	 4.733360000014532e+000	 1.799989999990450e+000	 1.052890923473531e+001
0	 4.733360000014534e+000	 1.866659999993466e+000	 1.053043106588541e+001
0	 4.733360000014534e+000	 1.933329999996683e+000	 1.053127785097324e+001
0	 4.733360000014533e+000	 2.000000000000000e+000	 1.053146959937592e+001
0	 4.800020000011601e+000	 1.333299999983334e+000	 1.047103964421759e+001
0	 4.800020000011600e+000	 1.399969999982150e+000	 1.047573818469336e+001
0	 4.800020000011600e+000	 1.466639999981866e+000	 1.048014574075006e+001
0	 4.800020000011599e+000	 1.533309999982383e+000	 1.048427818520557e+001
0	 4.800020000011599e+000	 1.599979999983599e+000	 1.048815139087778e+001
0	 4.800020000011600e+000	 1.666649999985416e+000	 1.049178123058460e+001
0	 4.800020000011599e+000	 1.733319999987733e+000	 1.049518357714388e+001
0	 4.800020000011599e+000	 1.799989999990449e+000	 1.049837430337354e+001
0	 4.800020000011599e+000	 1.866659999993466e+000	 1.050136928209142e+001
0	 4.800020000011600e+000	 1.933329999996683e+000	 1.050418438611542e+001
0	 4.800020000011601e+000	 2.000000000000000e+000	 1.050683548826340e+001
0	 4.866680000008067e+000	 1.333299999983334e+000	 1.044836507442458e+001
0	 4.866680000008065e+000	 1.399969999982150e+000	 1.045188182448486e+001
0	 4.866680000008065e+000	 1.466639999981866e+000	 1.045543117187844e+001
0	 4.866680000008068e+000	 1.533309999982383e+000	 1.045902603080542e+001
0	 4.866680000008067e+000	 1.599979999983599e+000	 1.046267931546594e+001
0	 4.866680000008066e+000	 1.666649999985416e+000	 1.046640394006009e+001
0	 4.866680000008068e+000	 1.733319999987733e+000	 1.047021281878802e+001
0	 4.866680000008065e+000	 1.799989999990449e+000	 1.047411886584981e+001
0	 4.866680000008067e+000	 1.866659999993467e+000	 1.047813499544560e+001
0	 4.866680000008066e+000	 1.933329999996683e+000	 1.048227412177552e+001
0	 4.866680000008066e+000	 2.000000000000000e+000	 1.048654915903964e+001
0	 4.933340000004134e+000	 1.333299999983334e+000	 1.042906813333890e+001
0	 4.933340000004134e+000	 1.399969999982150e+000	 1.043216323658082e+001
0	 4.933340000004134e+000	 1.466639999981866e+000	 1.043544739364640e+001
0	 4.933340000004133e+000	 1.533309999982383e+000	 1.043893173805947e+001
0	 4.933340000004133e+000	 1.599979999983599e+000	 1.044262740334388e+001
0	 4.933340000004133e+000	 1.666649999985416e+000	 1.044654552302345e+001
0	 4.933340000004133e+000	 1.733319999987733e+000	 1.045069723062201e+001
0	 4.933340000004134e+000	 1.799989999990449e+000	 1.045509365966341e+001
0	 4.933340000004132e+000	 1.866659999993466e+000	 1.045974594367147e+001
0	 4.933340000004134e+000	 1.933329999996684e+000	 1.046466521617005e+001
0	 4.933340000004134e+000	 2.000000000000000e+000	 1.046986261068297e+001
0	 4.999999999999999e+000	 1.333299999983334e+000	 1.041256632441592e+001
0	 5.000000000000001e+000	 1.399969999982150e+000	 1.041583298277939e+001
0	 5.000000000000000e+000	 1.466639999981866e+000	 1.041931144646368e+001
0	 4.999999999999998e+000	 1.533309999982383e+000	 1.042301224625782e+001
0	 5.000000000000000e+000	 1.599979999983600e+000	 1.042694591295085e+001
0	 5.000000000000000e+000	 1.666649999985416e+000	 1.043112297733179e+001
0	 5.000000000000000e+000	 1.733319999987733e+000	 1.043555397018970e+001
0	 5.000000000000002e+000	 1.799989999990450e+000	 1.044024942231360e+001
0	 5.000000000000002e+000	 1.866659999993466e+000	 1.044521986449253e+001
0	 5.000000000000002e+000	 1.933329999996683e+000	 1.045047582751556e+001
0	 5.000000000000001e+000	 2.000000000000000e+000	 1.045602784217170e+001
0	 5.066659999995866e+000	 1.333299999983334e+000	 1.039827715111102e+001
0	 5.066659999995867e+000	 1.399969999982150e+000	 1.040214162487875e+001
0	 5.066659999995868e+000	 1.466639999981866e+000	 1.040614037074002e+001
0	 5.066659999995866e+000	 1.533309999982383e+000	 1.041028449469054e+001
0	 5.066659999995868e+000	 1.599979999983600e+000	 1.041458510272605e+001
0	 5.066659999995866e+000	 1.666649999985416e+000	 1.041905330084226e+001
0	 5.066659999995867e+000	 1.733319999987733e+000	 1.042370019503489e+001
0	 5.066659999995867e+000	 1.799989999990449e+000	 1.042853689129967e+001
0	 5.066659999995868e+000	 1.866659999993466e+000	 1.043357449563233e+001
0	 5.066659999995865e+000	 1.933329999996683e+000	 1.043882411402859e+001
0	 5.066659999995866e+000	 2.000000000000000e+000	 1.044429685248418e+001
0	 5.133319999991933e+000	 1.333299999983334e+000	 1.038561811687960e+001
0	 5.133319999991933e+000	 1.399969999982150e+000	 1.039033972467708e+001
0	 5.133319999991933e+000	 1.466639999981867e+000	 1.039505120688517e+001
0	 5.133319999991933e+000	 1.533309999982383e+000	 1.039976542264776e+001
0	 5.133319999991933e+000	 1.599979999983600e+000	 1.040449523110874e+001
0	 5.133319999991934e+000	 1.666649999985416e+000	 1.040925349141200e+001
0	 5.133319999991933e+000	 1.733319999987733e+000	 1.041405306270144e+001
0	 5.133319999991933e+000	 1.799989999990450e+000	 1.041890680412093e+001
0	 5.133319999991933e+000	 1.866659999993466e+000	 1.042382757481440e+001
0	 5.133319999991933e+000	 1.933329999996683e+000	 1.042882823392571e+001
0	 5.133319999991933e+000	 2.000000000000000e+000	 1.043392164059877e+001
0	 5.199979999988400e+000	 1.333299999983334e+000	 1.037400672517708e+001
0	 5.199979999988398e+000	 1.399969999982150e+000	 1.037967784397260e+001
0	 5.199979999988401e+000	 1.466639999981867e+000	 1.038516099530893e+001
0	 5.199979999988400e+000	 1.533309999982383e+000	 1.039047196941960e+001
0	 5.199979999988399e+000	 1.599979999983599e+000	 1.039562655653817e+001
0	 5.199979999988401e+000	 1.666649999985417e+000	 1.040064054689819e+001
0	 5.199979999988400e+000	 1.733319999987733e+000	 1.040552973073319e+001
0	 5.199979999988400e+000	 1.799989999990450e+000	 1.041030989827672e+001
0	 5.199979999988398e+000	 1.866659999993466e+000	 1.041499683976231e+001
0	 5.199979999988399e+000	 1.933329999996683e+000	 1.041960634542350e+001
0	 5.199979999988400e+000	 2.000000000000000e+000	 1.042415420549384e+001
0	 5.266639999985464e+000	 1.333299999983333e+000	 1.036286047945888e+001
0	 5.266639999985466e+000	 1.399969999982150e+000	 1.036940654456350e+001
0	 5.266639999985465e+000	 1.466639999981866e+000	 1.037558677642105e+001
0	 5.266639999985466e+000	 1.533309999982383e+000	 1.038142107429620e+001
0	 5.266639999985467e+000	 1.599979999983599e+000	 1.038692933745362e+001
0	 5.266639999985467e+000	 1.666649999985417e+000	 1.039213146515801e+001
0	 5.266639999985466e+000	 1.733319999987733e+000	 1.039704735667403e+001
0	 5.266639999985466e+000	 1.799989999990450e+000	 1.040169691126634e+001
0	 5.266639999985466e+000	 1.866659999993466e+000	 1.040610002819963e+001
0	 5.266639999985465e+000	 1.933329999996683e+000	 1.041027660673856e+001
0	 5.266639999985466e+000	 2.000000000000000e+000	 1.041424654614779e+001
0	 5.333299999983335e+000	 1.333299999983334e+000	 1.035159688318044e+001
0	 5.333299999983333e+000	 1.399969999982150e+000	 1.035877638824803e+001
0	 5.333299999983335e+000	 1.466639999981867e+000	 1.036544559063136e+001
0	 5.333299999983333e+000	 1.533309999982383e+000	 1.037162967656771e+001
0	 5.333299999983335e+000	 1.599979999983599e+000	 1.037735383229438e+001
0	 5.333299999983334e+000	 1.666649999985416e+000	 1.038264324404866e+001
0	 5.333299999983334e+000	 1.733319999987733e+000	 1.038752309806784e+001
0	 5.333299999983333e+000	 1.799989999990449e+000	 1.039201858058918e+001
0	 5.333299999983334e+000	 1.866659999993466e+000	 1.039615487784997e+001
0	 5.333299999983334e+000	 1.933329999996684e+000	 1.039995717608748e+001
0	 5.333299999983333e+000	 2.000000000000000e+000	 1.040345066153899e+001
0	 4.666700000016666e+000	 2.000000000000000e+000	 1.056119949339887e+001
0	 4.666700000016665e+000	 2.066670000003317e+000	 1.055755778172611e+001
0	 4.666700000016666e+000	 2.133340000006534e+000	 1.055445321151927e+001
0	 4.666700000016667e+000	 2.200010000009551e+000	 1.055187543902954e+001
0	 4.666700000016666e+000	 2.266680000012268e+000	 1.054981412050810e+001
0	 4.666700000016667e+000	 2.333350000014584e+000	 1.054825891220617e+001
0	 4.666700000016666e+000	 2.400020000016401e+000	 1.054719947037491e+001
0	 4.666700000016668e+000	 2.466690000017617e+000	 1.054662545126556e+001
0	 4.666700000016667e+000	 2.533360000018134e+000	 1.054652651112927e+001
0	 4.666700000016667e+000	 2.600030000017851e+000	 1.054689230621726e+001
0	 4.666700000016666e+000	 2.666700000016666e+000	 1.054771249278073e+001
0	 4.733360000014533e+000	 2.000000000000000e+000	 1.053146959937592e+001
0	 4.733360000014532e+000	 2.066670000003317e+000	 1.053139157995546e+001
0	 4.733360000014533e+000	 2.133340000006534e+000	 1.053142330878243e+001
0	 4.733360000014531e+000	 2.200010000009550e+000	 1.053157616604666e+001
0	 4.733360000014532e+000	 2.266680000012267e+000	 1.053186153193799e+001
0	 4.733360000014534e+000	 2.333350000014585e+000	 1.053229078664627e+001
0	 4.733360000014534e+000	 2.400020000016401e+000	 1.053287531036134e+001
0	 4.733360000014533e+000	 2.466690000017617e+000	 1.053362648327304e+001
0	 4.733360000014534e+000	 2.533360000018134e+000	 1.053455568557121e+001
0	 4.733360000014534e+000	 2.600030000017850e+000	 1.053567429744568e+001
0	 4.733360000014534e+000	 2.666700000016666e+000	 1.053699369908627e+001
0	 4.800020000011601e+000	 2.000000000000000e+000	 1.050683548826340e+001
0	 4.800020000011599e+000	 2.066670000003316e+000	 1.050928982395939e+001
0	 4.800020000011598e+000	 2.133340000006533e+000	 1.051152355965722e+001
0	 4.800020000011600e+000	 2.200010000009550e+000	 1.051356596471953e+001
0	 4.800020000011599e+000	 2.266680000012266e+000	 1.051544630850895e+001
0	 4.800020000011599e+000	 2.333350000014585e+000	 1.051719386038806e+001
0	 4.800020000011599e+000	 2.400020000016400e+000	 1.051883788971950e+001
0	 4.800020000011599e+000	 2.466690000017617e+000	 1.052040766586585e+001
0	 4.800020000011600e+000	 2.533360000018134e+000	 1.052193245818973e+001
0	 4.800020000011601e+000	 2.600030000017851e+000	 1.052344153605371e+001
0	 4.800020000011601e+000	 2.666700000016667e+000	 1.052496416882041e+001
0	 4.866680000008066e+000	 2.000000000000000e+000	 1.048654915903964e+001
0	 4.866680000008067e+000	 2.066670000003316e+000	 1.049065009921965e+001
0	 4.866680000008066e+000	 2.133340000006534e+000	 1.049428720734343e+001
0	 4.866680000008066e+000	 2.200010000009550e+000	 1.049750380718050e+001
0	 4.866680000008066e+000	 2.266680000012267e+000	 1.050034322250038e+001
0	 4.866680000008065e+000	 2.333350000014584e+000	 1.050284877707258e+001
0	 4.866680000008066e+000	 2.400020000016400e+000	 1.050506379466657e+001
0	 4.866680000008067e+000	 2.466690000017617e+000	 1.050703159905186e+001
0	 4.866680000008067e+000	 2.533360000018134e+000	 1.050879551399795e+001
0	 4.866680000008065e+000	 2.600030000017850e+000	 1.051039886327429e+001
0	 4.866680000008069e+000	 2.666700000016667e+000	 1.051188497065038e+001
0	 4.933340000004134e+000	 2.000000000000000e+000	 1.046986261068297e+001
0	 4.933340000004133e+000	 2.066670000003317e+000	 1.047486999121803e+001
0	 4.933340000004133e+000	 2.133340000006534e+000	 1.047924749504082e+001
0	 4.933340000004133e+000	 2.200010000009550e+000	 1.048304866556185e+001
0	 4.933340000004133e+000	 2.266680000012267e+000	 1.048632704619168e+001
0	 4.933340000004134e+000	 2.333350000014584e+000	 1.048913618034080e+001
0	 4.933340000004133e+000	 2.400020000016400e+000	 1.049152961141973e+001
0	 4.933340000004134e+000	 2.466690000017617e+000	 1.049356088283897e+001
0	 4.933340000004133e+000	 2.533360000018133e+000	 1.049528353800901e+001
0	 4.933340000004135e+000	 2.600030000017851e+000	 1.049675112034033e+001
0	 4.933340000004134e+000	 2.666700000016666e+000	 1.049801717324344e+001
0	 5.000000000000001e+000	 2.000000000000000e+000	 1.045602784217170e+001
0	 5.000000000000002e+000	 2.066670000003317e+000	 1.046134708543631e+001
0	 5.000000000000002e+000	 2.133340000006534e+000	 1.046593766594917e+001
0	 5.000000000000002e+000	 2.200010000009550e+000	 1.046985951199592e+001
0	 5.000000000000000e+000	 2.266680000012267e+000	 1.047317255186224e+001
0	 5.000000000000000e+000	 2.333350000014584e+000	 1.047593671383376e+001
0	 5.000000000000000e+000	 2.400020000016401e+000	 1.047821192619615e+001
0	 5.000000000000000e+000	 2.466690000017617e+000	 1.048005811723503e+001
0	 5.000000000000002e+000	 2.533360000018134e+000	 1.048153521523602e+001
0	 5.000000000000000e+000	 2.600030000017850e+000	 1.048270314848475e+001
0	 5.000000000000000e+000	 2.666700000016665e+000	 1.048362184526683e+001
0	 5.066659999995866e+000	 2.000000000000000e+000	 1.044429685248418e+001
0	 5.066659999995867e+000	 2.066670000003317e+000	 1.044947896735629e+001
0	 5.066659999995868e+000	 2.133340000006534e+000	 1.045389096326827e+001
0	 5.066659999995867e+000	 2.200010000009550e+000	 1.045759531861502e+001
0	 5.066659999995867e+000	 2.266680000012268e+000	 1.046065451179146e+001
0	 5.066659999995865e+000	 2.333350000014584e+000	 1.046313102119249e+001
0	 5.066659999995868e+000	 2.400020000016401e+000	 1.046508732521303e+001
0	 5.066659999995866e+000	 2.466690000017617e+000	 1.046658590224794e+001
0	 5.066659999995867e+000	 2.533360000018133e+000	 1.046768923069214e+001
0	 5.066659999995867e+000	 2.600030000017850e+000	 1.046845978894046e+001
0	 5.066659999995867e+000	 2.666700000016666e+000	 1.046896005538781e+001
0	 5.133319999991933e+000	 2.000000000000000e+000	 1.043392164059877e+001
0	 5.133319999991932e+000	 2.066670000003317e+000	 1.043866322245978e+001
0	 5.133319999991933e+000	 2.133340000006534e+000	 1.044264063019792e+001
0	 5.133319999991933e+000	 2.200010000009551e+000	 1.044591505755148e+001
0	 5.133319999991933e+000	 2.266680000012267e+000	 1.044854769825875e+001
0	 5.133319999991933e+000	 2.333350000014584e+000	 1.045059974605801e+001
0	 5.133319999991934e+000	 2.400020000016400e+000	 1.045213239468753e+001
0	 5.133319999991933e+000	 2.466690000017618e+000	 1.045320683788560e+001
0	 5.133319999991930e+000	 2.533360000018133e+000	 1.045388426939047e+001
0	 5.133319999991933e+000	 2.600030000017851e+000	 1.045422588294038e+001
0	 5.133319999991933e+000	 2.666700000016667e+000	 1.045429287227360e+001
0	 5.199979999988400e+000	 2.000000000000000e+000	 1.042415420549384e+001
0	 5.199979999988399e+000	 2.066670000003317e+000	 1.042829743622862e+001
0	 5.199979999988398e+000	 2.133340000006534e+000	 1.043171990993795e+001
0	 5.199979999988400e+000	 2.200010000009550e+000	 1.043447770093766e+001
0	 5.199979999988400e+000	 2.266680000012267e+000	 1.043662688354354e+001
0	 5.199979999988400e+000	 2.333350000014584e+000	 1.043822353207134e+001
0	 5.199979999988399e+000	 2.400020000016401e+000	 1.043932372083687e+001
0	 5.199979999988398e+000	 2.466690000017617e+000	 1.043998352415589e+001
0	 5.199979999988400e+000	 2.533360000018133e+000	 1.044025901634416e+001
0	 5.199979999988398e+000	 2.600030000017850e+000	 1.044020627171743e+001
0	 5.199979999988400e+000	 2.666700000016666e+000	 1.043988136459145e+001
0	 5.266639999985466e+000	 2.000000000000000e+000	 1.041424654614779e+001
0	 5.266639999985465e+000	 2.066670000003317e+000	 1.041777919414461e+001
0	 5.266639999985466e+000	 2.133340000006534e+000	 1.042066204568819e+001
0	 5.266639999985466e+000	 2.200010000009550e+000	 1.042294222090592e+001
0	 5.266639999985467e+000	 2.266680000012267e+000	 1.042466683992524e+001
0	 5.266639999985466e+000	 2.333350000014584e+000	 1.042588302287354e+001
0	 5.266639999985467e+000	 2.400020000016401e+000	 1.042663788987824e+001
0	 5.266639999985466e+000	 2.466690000017617e+000	 1.042697856106670e+001
0	 5.266639999985463e+000	 2.533360000018133e+000	 1.042695215656633e+001
0	 5.266639999985467e+000	 2.600030000017851e+000	 1.042660579650451e+001
0	 5.266639999985465e+000	 2.666700000016666e+000	 1.042598660100861e+001
0	 5.333299999983333e+000	 2.000000000000000e+000	 1.040345066153899e+001
0	 5.333299999983333e+000	 2.066670000003317e+000	 1.040650608168962e+001
0	 5.333299999983333e+000	 2.133340000006534e+000	 1.040900028064844e+001
0	 5.333299999983335e+000	 2.200010000009550e+000	 1.041096758958861e+001
0	 5.333299999983333e+000	 2.266680000012268e+000	 1.041244233968330e+001
0	 5.333299999983335e+000	 2.333350000014584e+000	 1.041345886210564e+001
0	 5.333299999983334e+000	 2.400020000016401e+000	 1.041405148802881e+001
0	 5.333299999983334e+000	 2.466690000017617e+000	 1.041425454862593e+001
0	 5.333299999983335e+000	 2.533360000018134e+000	 1.041410237507013e+001
0	 5.333299999983333e+000	 2.600030000017851e+000	 1.041362929853455e+001
0	 5.333299999983334e+000	 2.666700000016666e+000	 1.041286965019231e+001
0	 4.666700000016666e+000	 2.666700000016666e+000	 1.054771249278073e+001
0	 4.666700000016666e+000	 2.733360000014533e+000	 1.054814684790767e+001
0	 4.666700000016665e+000	 2.800020000011599e+000	 1.054738711935167e+001
0	 4.666700000016666e+000	 2.866680000008067e+000	 1.054547044961539e+001
0	 4.666700000016667e+000	 2.933340000004133e+000	 1.054243398120148e+001
0	 4.666700000016666e+000	 3.000000000000000e+000	 1.053831485661268e+001
0	 4.666700000016665e+000	 3.066659999995866e+000	 1.053315021835168e+001
0	 4.666700000016666e+000	 3.133319999991934e+000	 1.052697720892127e+001
0	 4.666700000016665e+000	 3.199979999988400e+000	 1.051983297082421e+001
0	 4.666700000016665e+000	 3.266639999985467e+000	 1.051175464656333e+001
0	 4.666700000016666e+000	 3.333299999983334e+000	 1.050277937864147e+001
0	 4.733360000014534e+000	 2.666700000016666e+000	 1.053699369908627e+001
0	 4.733360000014534e+000	 2.733360000014534e+000	 1.053783128070393e+001
0	 4.733360000014532e+000	 2.800020000011599e+000	 1.053750769041646e+001
0	 4.733360000014534e+000	 2.866680000008067e+000	 1.053603855469051e+001
0	 4.733360000014534e+000	 2.933340000004133e+000	 1.053343949999277e+001
0	 4.733360000014534e+000	 3.000000000000000e+000	 1.052972615278999e+001
0	 4.733360000014534e+000	 3.066659999995867e+000	 1.052491413954892e+001
0	 4.733360000014534e+000	 3.133319999991934e+000	 1.051901908673636e+001
0	 4.733360000014534e+000	 3.199979999988400e+000	 1.051205662081911e+001
0	 4.733360000014534e+000	 3.266639999985468e+000	 1.050404236826403e+001
0	 4.733360000014534e+000	 3.333299999983334e+000	 1.049499195553798e+001
0	 4.800020000011601e+000	 2.666700000016667e+000	 1.052496416882041e+001
0	 4.800020000011601e+000	 2.733360000014532e+000	 1.052596485365672e+001
0	 4.800020000011600e+000	 2.800020000011599e+000	 1.052588743506217e+001
0	 4.800020000011601e+000	 2.866680000008067e+000	 1.052472951080790e+001
0	 4.800020000011599e+000	 2.933340000004135e+000	 1.052248867866507e+001
0	 4.800020000011600e+000	 3.000000000000000e+000	 1.051916253640488e+001
0	 4.800020000011601e+000	 3.066659999995867e+000	 1.051474868179854e+001
0	 4.800020000011601e+000	 3.133319999991933e+000	 1.050924471261732e+001
0	 4.800020000011600e+000	 3.199979999988401e+000	 1.050264822663249e+001
0	 4.800020000011599e+000	 3.266639999985466e+000	 1.049495682161536e+001
0	 4.800020000011601e+000	 3.333299999983335e+000	 1.048616809533729e+001
0	 4.866680000008069e+000	 2.666700000016667e+000	 1.051188497065037e+001
0	 4.866680000008066e+000	 2.733360000014534e+000	 1.051285384016475e+001
0	 4.866680000008067e+000	 2.800020000011600e+000	 1.051286573017697e+001
0	 4.866680000008065e+000	 2.866680000008066e+000	 1.051190369710309e+001
0	 4.866680000008066e+000	 2.933340000004133e+000	 1.050995079735919e+001
0	 4.866680000008067e+000	 3.000000000000000e+000	 1.050699008736135e+001
0	 4.866680000008066e+000	 3.066659999995866e+000	 1.050300462352571e+001
0	 4.866680000008066e+000	 3.133319999991934e+000	 1.049797746226841e+001
0	 4.866680000008067e+000	 3.199979999988400e+000	 1.049189166000563e+001
0	 4.866680000008066e+000	 3.266639999985467e+000	 1.048473027315358e+001
0	 4.866680000008066e+000	 3.333299999983333e+000	 1.047647635812850e+001
0	 4.933340000004134e+000	 2.666700000016666e+000	 1.049801717324345e+001
0	 4.933340000004135e+000	 2.733360000014533e+000	 1.049880451362676e+001
0	 4.933340000004134e+000	 2.800020000011601e+000	 1.049878195264902e+001
0	 4.933340000004132e+000	 2.866680000008067e+000	 1.049792149271162e+001
0	 4.933340000004133e+000	 2.933340000004133e+000	 1.049619513621596e+001
0	 4.933340000004135e+000	 3.000000000000000e+000	 1.049357488556348e+001
0	 4.933340000004134e+000	 3.066659999995867e+000	 1.049003274315562e+001
0	 4.933340000004134e+000	 3.133319999991934e+000	 1.048554071139391e+001
0	 4.933340000004132e+000	 3.199979999988401e+000	 1.048007079267982e+001
0	 4.933340000004135e+000	 3.266639999985467e+000	 1.047359498941490e+001
0	 4.933340000004134e+000	 3.333299999983334e+000	 1.046608530400072e+001
0	 5.000000000000000e+000	 2.666700000016665e+000	 1.048362184526683e+001
0	 5.000000000000000e+000	 2.733360000014533e+000	 1.048412314744149e+001
0	 5.000000000000000e+000	 2.800020000011600e+000	 1.048397547936648e+001
0	 5.000000000000002e+000	 2.866680000008067e+000	 1.048314327676898e+001
0	 5.000000000000002e+000	 2.933340000004133e+000	 1.048159097537617e+001
0	 5.000000000000000e+000	 3.000000000000000e+000	 1.047928301091527e+001
0	 5.000000000000002e+000	 3.066659999995867e+000	 1.047618381911348e+001
0	 5.000000000000000e+000	 3.133319999991934e+000	 1.047225783569808e+001
0	 5.000000000000002e+000	 3.199979999988401e+000	 1.046746949639634e+001
0	 5.000000000000001e+000	 3.266639999985467e+000	 1.046178323693556e+001
0	 4.999999999999999e+000	 3.333299999983334e+000	 1.045516349304308e+001
0	 5.066659999995867e+000	 2.666700000016666e+000	 1.046896005538781e+001
0	 5.066659999995868e+000	 2.733360000014533e+000	 1.046911601500769e+001
0	 5.066659999995868e+000	 2.800020000011599e+000	 1.046878568721753e+001
0	 5.066659999995866e+000	 2.866680000008067e+000	 1.046792942841073e+001
0	 5.066659999995866e+000	 2.933340000004133e+000	 1.046650759498066e+001
0	 5.066659999995867e+000	 3.000000000000000e+000	 1.046448054332075e+001
0	 5.066659999995866e+000	 3.066659999995866e+000	 1.046180862982443e+001
0	 5.066659999995867e+000	 3.133319999991934e+000	 1.045845221088519e+001
0	 5.066659999995868e+000	 3.199979999988400e+000	 1.045437164289648e+001
0	 5.066659999995868e+000	 3.266639999985467e+000	 1.044952728225180e+001
0	 5.066659999995866e+000	 3.333299999983334e+000	 1.044387948534469e+001
0	 5.133319999991933e+000	 2.666700000016667e+000	 1.045429287227360e+001
0	 5.133319999991935e+000	 2.733360000014533e+000	 1.045408938972409e+001
0	 5.133319999991932e+000	 2.800020000011599e+000	 1.045355195309033e+001
0	 5.133319999991932e+000	 2.866680000008067e+000	 1.045264032677236e+001
0	 5.133319999991933e+000	 2.933340000004133e+000	 1.045131427517022e+001
0	 5.133319999991935e+000	 3.000000000000000e+000	 1.044953356268397e+001
0	 5.133319999991934e+000	 3.066659999995868e+000	 1.044725795371370e+001
0	 5.133319999991932e+000	 3.133319999991933e+000	 1.044444721265952e+001
0	 5.133319999991933e+000	 3.199979999988400e+000	 1.044106110392152e+001
0	 5.133319999991934e+000	 3.266639999985467e+000	 1.043705939189986e+001
0	 5.133319999991931e+000	 3.333299999983333e+000	 1.043240184099468e+001
0	 5.199979999988400e+000	 2.666700000016666e+000	 1.043988136459145e+001
0	 5.199979999988398e+000	 2.733360000014533e+000	 1.043934954498943e+001
0	 5.199979999988401e+000	 2.800020000011600e+000	 1.043861365387305e+001
0	 5.199979999988399e+000	 2.866680000008067e+000	 1.043763635098942e+001
0	 5.199979999988400e+000	 2.933340000004133e+000	 1.043638029608567e+001
0	 5.199979999988399e+000	 3.000000000000000e+000	 1.043480814890897e+001
0	 5.199979999988400e+000	 3.066659999995867e+000	 1.043288256920647e+001
0	 5.199979999988399e+000	 3.133319999991933e+000	 1.043056621672533e+001
0	 5.199979999988400e+000	 3.199979999988401e+000	 1.042782175121277e+001
0	 5.199979999988398e+000	 3.266639999985467e+000	 1.042461183241598e+001
0	 5.199979999988399e+000	 3.333299999983334e+000	 1.042089912008218e+001
0	 5.266639999985465e+000	 2.666700000016666e+000	 1.042598660100861e+001
0	 5.266639999985464e+000	 2.733360000014533e+000	 1.042520275420244e+001
0	 5.266639999985467e+000	 2.800020000011600e+000	 1.042431016645382e+001
0	 5.266639999985466e+000	 2.866680000008066e+000	 1.042327788019739e+001
0	 5.266639999985465e+000	 2.933340000004133e+000	 1.042207493786782e+001
0	 5.266639999985466e+000	 3.000000000000000e+000	 1.042067038189977e+001
0	 5.266639999985466e+000	 3.066659999995868e+000	 1.041903325472791e+001
0	 5.266639999985465e+000	 3.133319999991933e+000	 1.041713259878692e+001
0	 5.266639999985467e+000	 3.199979999988400e+000	 1.041493745651150e+001
0	 5.266639999985465e+000	 3.266639999985467e+000	 1.041241687033640e+001
0	 5.266639999985465e+000	 3.333299999983333e+000	 1.040953988269630e+001
0	 5.333299999983334e+000	 2.666700000016666e+000	 1.041286965019231e+001
0	 5.333299999983334e+000	 2.733360000014532e+000	 1.041195529076185e+001
0	 5.333299999983334e+000	 2.800020000011599e+000	 1.041098086772082e+001
0	 5.333299999983334e+000	 2.866680000008067e+000	 1.040992529353184e+001
0	 5.333299999983335e+000	 2.933340000004133e+000	 1.040876748065749e+001
0	 5.333299999983333e+000	 3.000000000000000e+000	 1.040748634156041e+001
0	 5.333299999983334e+000	 3.066659999995867e+000	 1.040606078870321e+001
0	 5.333299999983334e+000	 3.133319999991934e+000	 1.040446973454854e+001
0	 5.333299999983333e+000	 3.199979999988401e+000	 1.040269209155904e+001
0	 5.333299999983334e+000	 3.266639999985468e+000	 1.040070677219737e+001
0	 5.333299999983335e+000	 3.333299999983334e+000	 1.039849268892619e+001
0	 4.666700000016666e+000	 3.333299999983334e+000	 1.050277937864147e+001
0	 4.666700000016665e+000	 3.399969999982150e+000	 1.049355973203797e+001
0	 4.666700000016666e+000	 3.466639999981866e+000	 1.048468626898720e+001
0	 4.666700000016666e+000	 3.533309999982382e+000	 1.047609889233953e+001
0	 4.666700000016665e+000	 3.599979999983599e+000	 1.046773750494533e+001
0	 4.666700000016667e+000	 3.666649999985417e+000	 1.045954200965499e+001
0	 4.666700000016667e+000	 3.733319999987733e+000	 1.045145230931885e+001
0	 4.666700000016666e+000	 3.799989999990449e+000	 1.044340830678728e+001
0	 4.666700000016667e+000	 3.866659999993467e+000	 1.043534990491065e+001
0	 4.666700000016666e+000	 3.933329999996684e+000	 1.042721700653929e+001
0	 4.666700000016667e+000	 4.000000000000001e+000	 1.041894951452358e+001
0	 4.733360000014534e+000	 3.333299999983334e+000	 1.049499195553798e+001
0	 4.733360000014534e+000	 3.399969999982150e+000	 1.048562879720455e+001
0	 4.733360000014533e+000	 3.466639999981868e+000	 1.047663785066566e+001
0	 4.733360000014533e+000	 3.533309999982383e+000	 1.046797275273761e+001
0	 4.733360000014534e+000	 3.599979999983600e+000	 1.045958714023673e+001
0	 4.733360000014534e+000	 3.666649999985415e+000	 1.045143464997927e+001
0	 4.733360000014534e+000	 3.733319999987733e+000	 1.044346891878155e+001
0	 4.733360000014531e+000	 3.799989999990450e+000	 1.043564358345987e+001
0	 4.733360000014534e+000	 3.866659999993467e+000	 1.042791228083051e+001
0	 4.733360000014534e+000	 3.933329999996684e+000	 1.042022864770977e+001
0	 4.733360000014533e+000	 4.000000000000000e+000	 1.041254632091392e+001
0	 4.800020000011601e+000	 3.333299999983335e+000	 1.048616809533729e+001
0	 4.800020000011601e+000	 3.399969999982150e+000	 1.047701617658153e+001
0	 4.800020000011599e+000	 3.466639999981866e+000	 1.046821670029949e+001
0	 4.800020000011600e+000	 3.533309999982383e+000	 1.045973532091012e+001
0	 4.800020000011598e+000	 3.599979999983599e+000	 1.045153769283230e+001
0	 4.800020000011599e+000	 3.666649999985417e+000	 1.044358947048499e+001
0	 4.800020000011599e+000	 3.733319999987733e+000	 1.043585630828707e+001
0	 4.800020000011600e+000	 3.799989999990451e+000	 1.042830386065746e+001
0	 4.800020000011599e+000	 3.866659999993466e+000	 1.042089778201508e+001
0	 4.800020000011600e+000	 3.933329999996684e+000	 1.041360372677883e+001
0	 4.800020000011600e+000	 4.000000000000000e+000	 1.040638734936763e+001
0	 4.866680000008066e+000	 3.333299999983333e+000	 1.047647635812850e+001
0	 4.866680000008066e+000	 3.399969999982150e+000	 1.046782533153526e+001
0	 4.866680000008066e+000	 3.466639999981866e+000	 1.045947051815233e+001
0	 4.866680000008066e+000	 3.533309999982382e+000	 1.045138787363793e+001
0	 4.866680000008066e+000	 3.599979999983599e+000	 1.044355335365029e+001
0	 4.866680000008067e+000	 3.666649999985417e+000	 1.043594291384765e+001
0	 4.866680000008068e+000	 3.733319999987734e+000	 1.042853250988820e+001
0	 4.866680000008066e+000	 3.799989999990450e+000	 1.042129809743019e+001
0	 4.866680000008066e+000	 3.866659999993467e+000	 1.041421563213182e+001
0	 4.866680000008066e+000	 3.933329999996684e+000	 1.040726106965133e+001
0	 4.866680000008067e+000	 4.000000000000001e+000	 1.040041036564691e+001
0	 4.933340000004134e+000	 3.333299999983334e+000	 1.046608530400072e+001
0	 4.933340000004133e+000	 3.399969999982149e+000	 1.045815972343211e+001
0	 4.933340000004134e+000	 3.466639999981867e+000	 1.045044700448778e+001
0	 4.933340000004134e+000	 3.533309999982384e+000	 1.044293168770196e+001
0	 4.933340000004135e+000	 3.599979999983600e+000	 1.043559831360887e+001
0	 4.933340000004133e+000	 3.666649999985416e+000	 1.042843142274275e+001
0	 4.933340000004134e+000	 3.733319999987733e+000	 1.042141555563778e+001
0	 4.933340000004133e+000	 3.799989999990450e+000	 1.041453525282821e+001
0	 4.933340000004135e+000	 3.866659999993468e+000	 1.040777505484824e+001
0	 4.933340000004135e+000	 3.933329999996684e+000	 1.040111950223209e+001
0	 4.933340000004135e+000	 4.000000000000001e+000	 1.039455313551397e+001
0	 4.999999999999999e+000	 3.333299999983334e+000	 1.045516349304308e+001
0	 5.000000000000000e+000	 3.399969999982150e+000	 1.044812281363845e+001
0	 5.000000000000000e+000	 3.466639999981867e+000	 1.044119385956950e+001
0	 5.000000000000000e+000	 3.533309999982383e+000	 1.043436803988313e+001
0	 5.000000000000001e+000	 3.599979999983600e+000	 1.042763676362626e+001
0	 4.999999999999999e+000	 3.666649999985416e+000	 1.042099143984580e+001
0	 5.000000000000002e+000	 3.733319999987733e+000	 1.041442347758864e+001
0	 5.000000000000002e+000	 3.799989999990450e+000	 1.040792428590168e+001
0	 5.000000000000001e+000	 3.866659999993467e+000	 1.040148527383183e+001
0	 5.000000000000002e+000	 3.933329999996685e+000	 1.039509785042596e+001
0	 5.000000000000000e+000	 4.000000000000001e+000	 1.038875342473100e+001
0	 5.066659999995866e+000	 3.333299999983334e+000	 1.044387948534469e+001
0	 5.066659999995867e+000	 3.399969999982150e+000	 1.043781806352065e+001
0	 5.066659999995867e+000	 3.466639999981866e+000	 1.043175878366111e+001
0	 5.066659999995866e+000	 3.533309999982384e+000	 1.042569820696235e+001
0	 5.066659999995868e+000	 3.599979999983600e+000	 1.041963289462067e+001
0	 5.066659999995867e+000	 3.666649999985416e+000	 1.041355940783233e+001
0	 5.066659999995867e+000	 3.733319999987733e+000	 1.040747430779360e+001
0	 5.066659999995869e+000	 3.799989999990451e+000	 1.040137415570077e+001
0	 5.066659999995866e+000	 3.866659999993466e+000	 1.039525551275007e+001
0	 5.066659999995867e+000	 3.933329999996685e+000	 1.038911494013780e+001
0	 5.066659999995867e+000	 4.000000000000000e+000	 1.038294899906022e+001
0	 5.133319999991931e+000	 3.333299999983333e+000	 1.043240184099468e+001
0	 5.133319999991933e+000	 3.399969999982150e+000	 1.042734893444508e+001
0	 5.133319999991933e+000	 3.466639999981867e+000	 1.042218947702625e+001
0	 5.133319999991932e+000	 3.533309999982383e+000	 1.041692346572055e+001
0	 5.133319999991933e+000	 3.599979999983600e+000	 1.041155089751030e+001
0	 5.133319999991934e+000	 3.666649999985416e+000	 1.040607176937783e+001
0	 5.133319999991934e+000	 3.733319999987733e+000	 1.040048607830549e+001
0	 5.133319999991934e+000	 3.799989999990450e+000	 1.039479382127559e+001
0	 5.133319999991933e+000	 3.866659999993467e+000	 1.038899499527047e+001
0	 5.133319999991932e+000	 3.933329999996683e+000	 1.038308959727246e+001
0	 5.133319999991932e+000	 4.000000000000001e+000	 1.037707762426383e+001
0	 5.199979999988399e+000	 3.333299999983334e+000	 1.042089912008217e+001
0	 5.199979999988398e+000	 3.399969999982150e+000	 1.041681888777813e+001
0	 5.199979999988400e+000	 3.466639999981868e+000	 1.041253363992858e+001
0	 5.199979999988400e+000	 3.533309999982383e+000	 1.040804509293864e+001
0	 5.199979999988400e+000	 3.599979999983599e+000	 1.040335496321336e+001
0	 5.199979999988400e+000	 3.666649999985417e+000	 1.039846496715784e+001
0	 5.199979999988400e+000	 3.733319999987733e+000	 1.039337682117715e+001
0	 5.199979999988400e+000	 3.799989999990451e+000	 1.038809224167635e+001
0	 5.199979999988399e+000	 3.866659999993466e+000	 1.038261294506054e+001
0	 5.199979999988399e+000	 3.933329999996684e+000	 1.037694064773474e+001
0	 5.199979999988400e+000	 4.000000000000001e+000	 1.037107706610404e+001
0	 5.266639999985465e+000	 3.333299999983333e+000	 1.040953988269630e+001
0	 5.266639999985467e+000	 3.399969999982150e+000	 1.040633138488617e+001
0	 5.266639999985465e+000	 3.466639999981867e+000	 1.040283897263175e+001
0	 5.266639999985467e+000	 3.533309999982383e+000	 1.039906436539754e+001
0	 5.266639999985466e+000	 3.599979999983600e+000	 1.039500928264808e+001
0	 5.266639999985466e+000	 3.666649999985417e+000	 1.039067544384787e+001
0	 5.266639999985467e+000	 3.733319999987733e+000	 1.038606456846141e+001
0	 5.266639999985466e+000	 3.799989999990450e+000	 1.038117837595320e+001
0	 5.266639999985466e+000	 3.866659999993467e+000	 1.037601858578774e+001
0	 5.266639999985466e+000	 3.933329999996684e+000	 1.037058691742953e+001
0	 5.266639999985465e+000	 4.000000000000000e+000	 1.036488509034305e+001
0	 5.333299999983335e+000	 3.333299999983334e+000	 1.039849268892619e+001
0	 5.333299999983331e+000	 3.399969999982149e+000	 1.039598988713559e+001
0	 5.333299999983335e+000	 3.466639999981866e+000	 1.039315317539938e+001
0	 5.333299999983334e+000	 3.533309999982383e+000	 1.038998255987820e+001
0	 5.333299999983335e+000	 3.599979999983600e+000	 1.038647804673267e+001
0	 5.333299999983335e+000	 3.666649999985416e+000	 1.038263964212342e+001
0	 5.333299999983334e+000	 3.733319999987733e+000	 1.037846735221109e+001
0	 5.333299999983333e+000	 3.799989999990450e+000	 1.037396118315627e+001
0	 5.333299999983334e+000	 3.866659999993467e+000	 1.036912114111959e+001
0	 5.333299999983335e+000	 3.933329999996684e+000	 1.036394723226165e+001
0	 5.333299999983334e+000	 4.000000000000000e+000	 1.035843946274305e+001
0	 4.666700000016667e+000	 4.000000000000001e+000	 1.041894951452358e+001
0	 4.666700000016666e+000	 4.066670000003317e+000	 1.041055821477930e+001
0	 4.666700000016666e+000	 4.133340000006535e+000	 1.040209891450327e+001
0	 4.666700000016667e+000	 4.200010000009550e+000	 1.039357904846729e+001
0	 4.666700000016666e+000	 4.266680000012268e+000	 1.038500605144319e+001
0	 4.666700000016665e+000	 4.333350000014583e+000	 1.037638735820277e+001
0	 4.666700000016665e+000	 4.400020000016400e+000	 1.036773040351785e+001
0	 4.666700000016667e+000	 4.466690000017618e+000	 1.035904262216025e+001
0	 4.666700000016666e+000	 4.533360000018134e+000	 1.035033144890177e+001
0	 4.666700000016668e+000	 4.600030000017852e+000	 1.034160431851424e+001
0	 4.666700000016666e+000	 4.666700000016666e+000	 1.033286866576944e+001
0	 4.733360000014533e+000	 4.000000000000000e+000	 1.041254632091392e+001
0	 4.733360000014532e+000	 4.066670000003317e+000	 1.040480157126527e+001
0	 4.733360000014533e+000	 4.133340000006534e+000	 1.039696370256312e+001
0	 4.733360000014532e+000	 4.200010000009551e+000	 1.038903590108918e+001
0	 4.733360000014533e+000	 4.266680000012268e+000	 1.038102135312521e+001
0	 4.733360000014534e+000	 4.333350000014584e+000	 1.037292324495295e+001
0	 4.733360000014533e+000	 4.400020000016402e+000	 1.036474476285411e+001
0	 4.733360000014533e+000	 4.466690000017618e+000	 1.035648909311046e+001
0	 4.733360000014533e+000	 4.533360000018131e+000	 1.034815942200370e+001
0	 4.733360000014534e+000	 4.600030000017852e+000	 1.033975893581559e+001
0	 4.733360000014533e+000	 4.666700000016665e+000	 1.033129082082783e+001
0	 4.800020000011600e+000	 4.000000000000000e+000	 1.040638734936763e+001
0	 4.800020000011599e+000	 4.066670000003316e+000	 1.039914619713219e+001
0	 4.800020000011600e+000	 4.133340000006532e+000	 1.039180032069105e+001
0	 4.800020000011601e+000	 4.200010000009550e+000	 1.038434912936480e+001
0	 4.800020000011600e+000	 4.266680000012267e+000	 1.037679203247404e+001
0	 4.800020000011600e+000	 4.333350000014584e+000	 1.036912843933941e+001
0	 4.800020000011600e+000	 4.400020000016401e+000	 1.036135775928147e+001
0	 4.800020000011600e+000	 4.466690000017619e+000	 1.035347940162086e+001
0	 4.800020000011598e+000	 4.533360000018132e+000	 1.034549277567816e+001
0	 4.800020000011601e+000	 4.600030000017850e+000	 1.033739729077395e+001
0	 4.800020000011601e+000	 4.666700000016666e+000	 1.032919235622886e+001
0	 4.866680000008067e+000	 4.000000000000001e+000	 1.040041036564691e+001
0	 4.866680000008067e+000	 4.066670000003319e+000	 1.039355223875345e+001
0	 4.866680000008066e+000	 4.133340000006533e+000	 1.038658883975928e+001
0	 4.866680000008065e+000	 4.200010000009550e+000	 1.037951627255285e+001
0	 4.866680000008066e+000	 4.266680000012268e+000	 1.037233064102252e+001
0	 4.866680000008068e+000	 4.333350000014586e+000	 1.036502804905676e+001
0	 4.866680000008066e+000	 4.400020000016400e+000	 1.035760460054398e+001
0	 4.866680000008068e+000	 4.466690000017619e+000	 1.035005639937255e+001
0	 4.866680000008067e+000	 4.533360000018135e+000	 1.034237954943093e+001
0	 4.866680000008065e+000	 4.600030000017850e+000	 1.033457015460749e+001
0	 4.866680000008067e+000	 4.666700000016666e+000	 1.032662431879066e+001
0	 4.933340000004135e+000	 4.000000000000001e+000	 1.039455313551397e+001
0	 4.933340000004134e+000	 4.066670000003317e+000	 1.038797984250245e+001
0	 4.933340000004133e+000	 4.133340000006534e+000	 1.038130933064008e+001
0	 4.933340000004134e+000	 4.200010000009550e+000	 1.037453486991203e+001
0	 4.933340000004133e+000	 4.266680000012266e+000	 1.036764973030349e+001
0	 4.933340000004133e+000	 4.333350000014583e+000	 1.036064718179963e+001
0	 4.933340000004133e+000	 4.400020000016400e+000	 1.035352049438562e+001
0	 4.933340000004134e+000	 4.466690000017618e+000	 1.034626293804662e+001
0	 4.933340000004134e+000	 4.533360000018133e+000	 1.033886778276781e+001
0	 4.933340000004132e+000	 4.600030000017849e+000	 1.033132829853434e+001
0	 4.933340000004135e+000	 4.666700000016668e+000	 1.032363775533137e+001
0	 5.000000000000000e+000	 4.000000000000001e+000	 1.038875342473100e+001
0	 5.000000000000002e+000	 4.066670000003318e+000	 1.038238915475257e+001
0	 5.000000000000001e+000	 4.133340000006534e+000	 1.037594186420563e+001
0	 5.000000000000002e+000	 4.200010000009551e+000	 1.036940246070107e+001
0	 5.000000000000001e+000	 4.266680000012268e+000	 1.036276185184978e+001
0	 5.000000000000000e+000	 4.333350000014583e+000	 1.035601094526261e+001
0	 5.000000000000001e+000	 4.400020000016402e+000	 1.034914064855044e+001
0	 5.000000000000000e+000	 4.466690000017617e+000	 1.034214186932414e+001
0	 5.000000000000001e+000	 4.533360000018135e+000	 1.033500551519459e+001
0	 4.999999999999999e+000	 4.600030000017849e+000	 1.032772249377264e+001
0	 5.000000000000000e+000	 4.666700000016665e+000	 1.032028371266916e+001
0	 5.066659999995867e+000	 4.000000000000000e+000	 1.038294899906022e+001
0	 5.066659999995867e+000	 4.066670000003318e+000	 1.037674032187722e+001
0	 5.066659999995867e+000	 4.133340000006535e+000	 1.037046651132819e+001
0	 5.066659999995866e+000	 4.200010000009550e+000	 1.036411658417868e+001
0	 5.066659999995867e+000	 4.266680000012268e+000	 1.035767955719422e+001
0	 5.066659999995866e+000	 4.333350000014584e+000	 1.035114444714030e+001
0	 5.066659999995868e+000	 4.400020000016403e+000	 1.034450027078246e+001
0	 5.066659999995866e+000	 4.466690000017617e+000	 1.033773604488621e+001
0	 5.066659999995868e+000	 4.533360000018134e+000	 1.033084078621707e+001
0	 5.066659999995866e+000	 4.600030000017851e+000	 1.032380351154054e+001
0	 5.066659999995866e+000	 4.666700000016666e+000	 1.031661323762214e+001
0	 5.133319999991932e+000	 4.000000000000001e+000	 1.037707762426383e+001
0	 5.133319999991933e+000	 4.066670000003318e+000	 1.037099349024978e+001
0	 5.133319999991933e+000	 4.133340000006535e+000	 1.036486334287998e+001
0	 5.133319999991935e+000	 4.200010000009552e+000	 1.035867477960357e+001
0	 5.133319999991933e+000	 4.266680000012268e+000	 1.035241539786965e+001
0	 5.133319999991934e+000	 4.333350000014585e+000	 1.034607279512731e+001
0	 5.133319999991934e+000	 4.400020000016400e+000	 1.033963456882569e+001
0	 5.133319999991933e+000	 4.466690000017619e+000	 1.033308831641390e+001
0	 5.133319999991932e+000	 4.533360000018133e+000	 1.032642163534103e+001
0	 5.133319999991933e+000	 4.600030000017851e+000	 1.031962212305619e+001
0	 5.133319999991934e+000	 4.666700000016666e+000	 1.031267737700847e+001
0	 5.199979999988400e+000	 4.000000000000001e+000	 1.037107706610404e+001
0	 5.199979999988399e+000	 4.066670000003317e+000	 1.036510880624366e+001
0	 5.199979999988398e+000	 4.133340000006534e+000	 1.035911242973324e+001
0	 5.199979999988399e+000	 4.200010000009550e+000	 1.035307458623443e+001
0	 5.199979999988400e+000	 4.266680000012268e+000	 1.034698192540888e+001
0	 5.199979999988401e+000	 4.333350000014585e+000	 1.034082109691824e+001
0	 5.199979999988400e+000	 4.400020000016402e+000	 1.033457875042417e+001
0	 5.199979999988399e+000	 4.466690000017616e+000	 1.032824153558830e+001
0	 5.199979999988400e+000	 4.533360000018133e+000	 1.032179610207226e+001
0	 5.199979999988399e+000	 4.600030000017850e+000	 1.031522909953772e+001
0	 5.199979999988399e+000	 4.666700000016666e+000	 1.030852717764629e+001
0	 5.266639999985465e+000	 4.000000000000000e+000	 1.036488509034304e+001
0	 5.266639999985466e+000	 4.066670000003318e+000	 1.035904641623224e+001
0	 5.266639999985465e+000	 4.133340000006534e+000	 1.035319384276017e+001
0	 5.266639999985465e+000	 4.200010000009550e+000	 1.034731354332996e+001
0	 5.266639999985466e+000	 4.266680000012267e+000	 1.034139169134477e+001
0	 5.266639999985467e+000	 4.333350000014584e+000	 1.033541446020770e+001
0	 5.266639999985466e+000	 4.400020000016401e+000	 1.032936802332189e+001
0	 5.266639999985466e+000	 4.466690000017618e+000	 1.032323855409047e+001
0	 5.266639999985466e+000	 4.533360000018134e+000	 1.031701222591656e+001
0	 5.266639999985466e+000	 4.600030000017851e+000	 1.031067521220328e+001
0	 5.266639999985466e+000	 4.666700000016667e+000	 1.030421368635374e+001
0	 5.333299999983334e+000	 4.000000000000000e+000	 1.035843946274305e+001
0	 5.333299999983332e+000	 4.066670000003316e+000	 1.035276646658891e+001
0	 5.333299999983334e+000	 4.133340000006534e+000	 1.034708765283301e+001
0	 5.333299999983336e+000	 4.200010000009550e+000	 1.034138919014890e+001
0	 5.333299999983333e+000	 4.266680000012268e+000	 1.033565724721014e+001
0	 5.333299999983335e+000	 4.333350000014584e+000	 1.032987799269028e+001
0	 5.333299999983333e+000	 4.400020000016401e+000	 1.032403759526289e+001
0	 5.333299999983334e+000	 4.466690000017618e+000	 1.031812222360150e+001
0	 5.333299999983334e+000	 4.533360000018134e+000	 1.031211804637970e+001
0	 5.333299999983333e+000	 4.600030000017851e+000	 1.030601123227099e+001
0	 5.333299999983335e+000	 4.666700000016667e+000	 1.029978794994894e+001
0	 4.666700000016666e+000	 4.666700000016666e+000	 1.033286866576944e+001
0	 4.666700000016666e+000	 4.733360000014534e+000	 1.032421788991134e+001
0	 4.666700000016665e+000	 4.800020000011599e+000	 1.031572531404322e+001
0	 4.666700000016666e+000	 4.866680000008067e+000	 1.030737219037539e+001
0	 4.666700000016667e+000	 4.933340000004135e+000	 1.029913977111810e+001
0	 4.666700000016666e+000	 5.000000000000001e+000	 1.029100930848164e+001
0	 4.666700000016667e+000	 5.066659999995867e+000	 1.028296205467629e+001
0	 4.666700000016666e+000	 5.133319999991935e+000	 1.027497926191234e+001
0	 4.666700000016665e+000	 5.199979999988400e+000	 1.026704218240005e+001
0	 4.666700000016667e+000	 5.266639999985468e+000	 1.025913206834971e+001
0	 4.666700000016667e+000	 5.333299999983335e+000	 1.025123017197161e+001
0	 4.733360000014533e+000	 4.666700000016665e+000	 1.033129082082783e+001
0	 4.733360000014534e+000	 4.733360000014534e+000	 1.032286879800688e+001
0	 4.733360000014533e+000	 4.800020000011600e+000	 1.031459021677187e+001
0	 4.733360000014534e+000	 4.866680000008067e+000	 1.030643753128268e+001
0	 4.733360000014534e+000	 4.933340000004135e+000	 1.029839319569914e+001
0	 4.733360000014534e+000	 4.999999999999999e+000	 1.029043966418110e+001
0	 4.733360000014534e+000	 5.066659999995867e+000	 1.028255939088841e+001
0	 4.733360000014534e+000	 5.133319999991935e+000	 1.027473482998091e+001
0	 4.733360000014534e+000	 5.199979999988400e+000	 1.026694843561845e+001
0	 4.733360000014534e+000	 5.266639999985467e+000	 1.025918266196088e+001
0	 4.733360000014534e+000	 5.333299999983335e+000	 1.025141996316805e+001
0	 4.800020000011601e+000	 4.666700000016666e+000	 1.032919235622886e+001
0	 4.800020000011601e+000	 4.733360000014534e+000	 1.032100450728196e+001
0	 4.800020000011601e+000	 4.800020000011601e+000	 1.031294728816629e+001
0	 4.800020000011601e+000	 4.866680000008067e+000	 1.030500433844282e+001
0	 4.800020000011599e+000	 4.933340000004133e+000	 1.029715929767246e+001
0	 4.800020000011601e+000	 5.000000000000001e+000	 1.028939580541618e+001
0	 4.800020000011600e+000	 5.066659999995867e+000	 1.028169750123493e+001
0	 4.800020000011601e+000	 5.133319999991934e+000	 1.027404802468967e+001
0	 4.800020000011600e+000	 5.199979999988400e+000	 1.026643101534134e+001
0	 4.800020000011601e+000	 5.266639999985467e+000	 1.025883011275090e+001
0	 4.800020000011600e+000	 5.333299999983335e+000	 1.025122895647928e+001
0	 4.866680000008067e+000	 4.666700000016666e+000	 1.032662431879066e+001
0	 4.866680000008067e+000	 4.733360000014534e+000	 1.031867494265605e+001
0	 4.866680000008068e+000	 4.800020000011600e+000	 1.031084499207650e+001
0	 4.866680000008065e+000	 4.866680000008067e+000	 1.030311927546557e+001
0	 4.866680000008066e+000	 4.933340000004133e+000	 1.029548260123687e+001
0	 4.866680000008067e+000	 4.999999999999999e+000	 1.028791977780399e+001
0	 4.866680000008066e+000	 5.066659999995866e+000	 1.028041561358050e+001
0	 4.866680000008066e+000	 5.133319999991934e+000	 1.027295491698001e+001
0	 4.866680000008067e+000	 5.199979999988401e+000	 1.026552249641611e+001
0	 4.866680000008067e+000	 5.266639999985467e+000	 1.025810316030238e+001
0	 4.866680000008066e+000	 5.333299999983334e+000	 1.025068171705242e+001
0	 4.933340000004135e+000	 4.666700000016668e+000	 1.032363775533137e+001
0	 4.933340000004135e+000	 4.733360000014533e+000	 1.031593002904859e+001
0	 4.933340000004132e+000	 4.800020000011599e+000	 1.030833179235246e+001
0	 4.933340000004134e+000	 4.866680000008067e+000	 1.030082900596074e+001
0	 4.933340000004135e+000	 4.933340000004134e+000	 1.029340763059120e+001
0	 4.933340000004134e+000	 5.000000000000000e+000	 1.028605362696159e+001
0	 4.933340000004134e+000	 5.066659999995868e+000	 1.027875295578970e+001
0	 4.933340000004134e+000	 5.133319999991934e+000	 1.027149157779328e+001
0	 4.933340000004132e+000	 5.199979999988400e+000	 1.026425545369011e+001
0	 4.933340000004136e+000	 5.266639999985469e+000	 1.025703054419794e+001
0	 4.933340000004134e+000	 5.333299999983335e+000	 1.024980281003457e+001
0	 5.000000000000000e+000	 4.666700000016665e+000	 1.032028371266916e+001
0	 5.000000000000001e+000	 4.733360000014534e+000	 1.031281969137904e+001
0	 5.000000000000001e+000	 4.800020000011600e+000	 1.030545615284419e+001
0	 5.000000000000001e+000	 4.866680000008067e+000	 1.029818019353810e+001
0	 5.000000000000001e+000	 4.933340000004134e+000	 1.029097890993424e+001
0	 5.000000000000001e+000	 5.000000000000000e+000	 1.028383939850610e+001
0	 5.000000000000001e+000	 5.066659999995866e+000	 1.027674875572714e+001
0	 5.000000000000001e+000	 5.133319999991935e+000	 1.026969407807085e+001
0	 5.000000000000001e+000	 5.199979999988400e+000	 1.026266246201070e+001
0	 5.000000000000001e+000	 5.266639999985467e+000	 1.025564100402021e+001
0	 5.000000000000000e+000	 5.333299999983333e+000	 1.024861680057281e+001
0	 5.066659999995866e+000	 4.666700000016666e+000	 1.031661323762214e+001
0	 5.066659999995868e+000	 4.733360000014535e+000	 1.030939385456682e+001
0	 5.066659999995868e+000	 4.800020000011601e+000	 1.030226653740167e+001
0	 5.066659999995866e+000	 4.866680000008067e+000	 1.029521950180743e+001
0	 5.066659999995868e+000	 4.933340000004136e+000	 1.028824096346482e+001
0	 5.066659999995867e+000	 5.000000000000001e+000	 1.028131913805458e+001
0	 5.066659999995867e+000	 5.066659999995867e+000	 1.027444224125742e+001
0	 5.066659999995868e+000	 5.133319999991935e+000	 1.026759848875407e+001
0	 5.066659999995868e+000	 5.199979999988401e+000	 1.026077609622528e+001
0	 5.066659999995868e+000	 5.266639999985467e+000	 1.025396327935176e+001
0	 5.066659999995866e+000	 5.333299999983335e+000	 1.024714825381425e+001
0	 5.133319999991934e+000	 4.666700000016666e+000	 1.031267737700847e+001
0	 5.133319999991934e+000	 4.733360000014534e+000	 1.030570244353139e+001
0	 5.133319999991933e+000	 4.800020000011601e+000	 1.029881140987490e+001
0	 5.133319999991933e+000	 4.866680000008067e+000	 1.029199359437852e+001
0	 5.133319999991934e+000	 4.933340000004135e+000	 1.028523831538176e+001
0	 5.133319999991934e+000	 5.000000000000000e+000	 1.027853489122413e+001
0	 5.133319999991933e+000	 5.066659999995866e+000	 1.027187264024515e+001
0	 5.133319999991933e+000	 5.133319999991934e+000	 1.026524088078432e+001
0	 5.133319999991933e+000	 5.199979999988400e+000	 1.025862893118118e+001
0	 5.133319999991934e+000	 5.266639999985468e+000	 1.025202610977523e+001
0	 5.133319999991933e+000	 5.333299999983334e+000	 1.024542173490599e+001
0	 5.199979999988399e+000	 4.666700000016666e+000	 1.030852717764629e+001
0	 5.199979999988399e+000	 4.733360000014533e+000	 1.030179538319219e+001
0	 5.199979999988399e+000	 4.800020000011600e+000	 1.029513923411387e+001
0	 5.199979999988400e+000	 4.866680000008068e+000	 1.028854913486114e+001
0	 5.199979999988400e+000	 4.933340000004134e+000	 1.028201548988386e+001
0	 5.199979999988400e+000	 5.000000000000000e+000	 1.027552870363183e+001
0	 5.199979999988400e+000	 5.066659999995867e+000	 1.026907918055493e+001
0	 5.199979999988399e+000	 5.133319999991934e+000	 1.026265732510296e+001
0	 5.199979999988400e+000	 5.199979999988401e+000	 1.025625354172578e+001
0	 5.199979999988400e+000	 5.266639999985467e+000	 1.024985823487321e+001
0	 5.199979999988400e+000	 5.333299999983335e+000	 1.024346180899510e+001
0	 5.266639999985466e+000	 4.666700000016667e+000	 1.030421368635374e+001
0	 5.266639999985465e+000	 4.733360000014534e+000	 1.029772259846868e+001
0	 5.266639999985467e+000	 4.800020000011601e+000	 1.029129847396856e+001
0	 5.266639999985467e+000	 4.866680000008067e+000	 1.028493278686507e+001
0	 5.266639999985465e+000	 4.933340000004133e+000	 1.027861701116991e+001
0	 5.266639999985465e+000	 4.999999999999999e+000	 1.027234262089478e+001
0	 5.266639999985465e+000	 5.066659999995867e+000	 1.026610109005135e+001
0	 5.266639999985467e+000	 5.133319999991935e+000	 1.025988389265133e+001
0	 5.266639999985467e+000	 5.199979999988401e+000	 1.025368250270643e+001
0	 5.266639999985466e+000	 5.266639999985468e+000	 1.024748839422832e+001
0	 5.266639999985465e+000	 5.333299999983333e+000	 1.024129304122871e+001
0	 5.333299999983335e+000	 4.666700000016667e+000	 1.029978794994894e+001
0	 5.333299999983333e+000	 4.733360000014533e+000	 1.029353401428027e+001
0	 5.333299999983335e+000	 4.800020000011600e+000	 1.028733759328896e+001
0	 5.333299999983335e+000	 4.866680000008068e+000	 1.028119121400009e+001
0	 5.333299999983335e+000	 4.933340000004134e+000	 1.027508740343875e+001
0	 5.333299999983333e+000	 5.000000000000000e+000	 1.026901868863003e+001
0	 5.333299999983334e+000	 5.066659999995866e+000	 1.026297759659901e+001
0	 5.333299999983335e+000	 5.133319999991934e+000	 1.025695665437080e+001
0	 5.333299999983333e+000	 5.199979999988400e+000	 1.025094838897048e+001
0	 5.333299999983334e+000	 5.266639999985467e+000	 1.024494532742314e+001
0	 5.333299999983333e+000	 5.333299999983333e+000	 1.023893999675388e+001
0	 4.666700000016667e+000	 5.333299999983335e+000	 1.025123017197161e+001
0	 4.666700000016665e+000	 5.399969999982150e+000	 1.024341740016573e+001
0	 4.666700000016666e+000	 5.466639999981867e+000	 1.023578875591147e+001
0	 4.666700000016665e+000	 5.533309999982382e+000	 1.022834307836596e+001
0	 4.666700000016666e+000	 5.599979999983599e+000	 1.022107920668632e+001
0	 4.666700000016665e+000	 5.666649999985416e+000	 1.021399598002966e+001
0	 4.666700000016666e+000	 5.733319999987732e+000	 1.020709223755312e+001
0	 4.666700000016666e+000	 5.799989999990449e+000	 1.020036681841381e+001
0	 4.666700000016666e+000	 5.866659999993467e+000	 1.019381856176886e+001
0	 4.666700000016667e+000	 5.933329999996684e+000	 1.018744630677542e+001
0	 4.666700000016666e+000	 6.000000000000000e+000	 1.018124889259059e+001
0	 4.733360000014534e+000	 5.333299999983335e+000	 1.025141996316805e+001
0	 4.733360000014534e+000	 5.399969999982151e+000	 1.024374058752963e+001
0	 4.733360000014533e+000	 5.466639999981866e+000	 1.023623792605102e+001
0	 4.733360000014532e+000	 5.533309999982382e+000	 1.022891065146157e+001
0	 4.733360000014534e+000	 5.599979999983600e+000	 1.022175743649063e+001
0	 4.733360000014534e+000	 5.666649999985416e+000	 1.021477695386758e+001
0	 4.733360000014534e+000	 5.733319999987733e+000	 1.020796787632178e+001
0	 4.733360000014533e+000	 5.799989999990449e+000	 1.020132887658258e+001
0	 4.733360000014533e+000	 5.866659999993466e+000	 1.019485862737936e+001
0	 4.733360000014533e+000	 5.933329999996683e+000	 1.018855580144149e+001
0	 4.733360000014533e+000	 5.999999999999999e+000	 1.018241907149832e+001
0	 4.800020000011600e+000	 5.333299999983335e+000	 1.025122895647928e+001
0	 4.800020000011600e+000	 5.399969999982150e+000	 1.024370490665300e+001
0	 4.800020000011599e+000	 5.466639999981864e+000	 1.023634749002883e+001
0	 4.800020000011600e+000	 5.533309999982384e+000	 1.022915517273938e+001
0	 4.800020000011600e+000	 5.599979999983599e+000	 1.022212642091724e+001
0	 4.800020000011600e+000	 5.666649999985417e+000	 1.021525970069500e+001
0	 4.800020000011599e+000	 5.733319999987732e+000	 1.020855347820526e+001
0	 4.800020000011600e+000	 5.799989999990451e+000	 1.020200621958062e+001
0	 4.800020000011599e+000	 5.866659999993465e+000	 1.019561639095367e+001
0	 4.800020000011599e+000	 5.933329999996684e+000	 1.018938245845703e+001
0	 4.800020000011601e+000	 6.000000000000000e+000	 1.018330288822329e+001
0	 4.866680000008066e+000	 5.333299999983334e+000	 1.025068171705242e+001
0	 4.866680000008065e+000	 5.399969999982148e+000	 1.024333088958670e+001
0	 4.866680000008066e+000	 5.466639999981866e+000	 1.023613456995222e+001
0	 4.866680000008067e+000	 5.533309999982384e+000	 1.022909097751580e+001
0	 4.866680000008066e+000	 5.599979999983598e+000	 1.022219833164427e+001
0	 4.866680000008066e+000	 5.666649999985416e+000	 1.021545485170445e+001
0	 4.866680000008067e+000	 5.733319999987733e+000	 1.020885875706316e+001
0	 4.866680000008067e+000	 5.799989999990451e+000	 1.020240826708724e+001
0	 4.866680000008065e+000	 5.866659999993467e+000	 1.019610160114350e+001
0	 4.866680000008065e+000	 5.933329999996684e+000	 1.018993697859880e+001
0	 4.866680000008067e+000	 6.000000000000002e+000	 1.018391261881994e+001
0	 4.933340000004134e+000	 5.333299999983335e+000	 1.024980281003456e+001
0	 4.933340000004133e+000	 5.399969999982149e+000	 1.024263906838160e+001
0	 4.933340000004134e+000	 5.466639999981867e+000	 1.023561628792847e+001
0	 4.933340000004134e+000	 5.533309999982382e+000	 1.022873240110720e+001
0	 4.933340000004135e+000	 5.599979999983601e+000	 1.022198534034986e+001
0	 4.933340000004133e+000	 5.666649999985416e+000	 1.021537303808847e+001
0	 4.933340000004133e+000	 5.733319999987733e+000	 1.020889342675508e+001
0	 4.933340000004134e+000	 5.799989999990450e+000	 1.020254443878177e+001
0	 4.933340000004133e+000	 5.866659999993466e+000	 1.019632400660057e+001
0	 4.933340000004134e+000	 5.933329999996683e+000	 1.019023006264354e+001
0	 4.933340000004133e+000	 5.999999999999998e+000	 1.018426053934271e+001
0	 5.000000000000000e+000	 5.333299999983333e+000	 1.024861680057281e+001
0	 5.000000000000000e+000	 5.399969999982149e+000	 1.024164997508857e+001
0	 5.000000000000001e+000	 5.466639999981866e+000	 1.023480976606487e+001
0	 5.000000000000001e+000	 5.533309999982384e+000	 1.022809377882997e+001
0	 5.000000000000000e+000	 5.599979999983601e+000	 1.022149961871211e+001
0	 4.999999999999999e+000	 5.666649999985416e+000	 1.021502489103959e+001
0	 5.000000000000001e+000	 5.733319999987733e+000	 1.020866720114063e+001
0	 5.000000000000001e+000	 5.799989999990450e+000	 1.020242415434354e+001
0	 5.000000000000001e+000	 5.866659999993466e+000	 1.019629335597656e+001
0	 5.000000000000002e+000	 5.933329999996683e+000	 1.019027241136797e+001
0	 5.000000000000001e+000	 6.000000000000000e+000	 1.018435892584603e+001
0	 5.066659999995866e+000	 5.333299999983335e+000	 1.024714825381425e+001
0	 5.066659999995867e+000	 5.399969999982150e+000	 1.024038414175849e+001
0	 5.066659999995867e+000	 5.466639999981866e+000	 1.023373212646875e+001
0	 5.066659999995865e+000	 5.533309999982381e+000	 1.022718944600049e+001
0	 5.066659999995867e+000	 5.599979999983598e+000	 1.022075333840919e+001
0	 5.066659999995866e+000	 5.666649999985416e+000	 1.021442104175033e+001
0	 5.066659999995866e+000	 5.733319999987733e+000	 1.020818979407940e+001
0	 5.066659999995869e+000	 5.799989999990451e+000	 1.020205683345184e+001
0	 5.066659999995866e+000	 5.866659999993466e+000	 1.019601939792316e+001
0	 5.066659999995867e+000	 5.933329999996683e+000	 1.019007472554885e+001
0	 5.066659999995866e+000	 5.999999999999999e+000	 1.018422005438435e+001
0	 5.133319999991933e+000	 5.333299999983334e+000	 1.024542173490599e+001
0	 5.133319999991933e+000	 5.399969999982150e+000	 1.023886210044221e+001
0	 5.133319999991932e+000	 5.466639999981866e+000	 1.023240049124737e+001
0	 5.133319999991933e+000	 5.533309999982383e+000	 1.022603373793515e+001
0	 5.133319999991934e+000	 5.599979999983600e+000	 1.021975867111921e+001
0	 5.133319999991934e+000	 5.666649999985416e+000	 1.021357212141327e+001
0	 5.133319999991934e+000	 5.733319999987732e+000	 1.020747091943097e+001
0	 5.133319999991933e+000	 5.799989999990447e+000	 1.020145189578602e+001
0	 5.133319999991934e+000	 5.866659999993467e+000	 1.019551188109210e+001
0	 5.133319999991933e+000	 5.933329999996683e+000	 1.018964770596290e+001
0	 5.133319999991934e+000	 6.000000000000001e+000	 1.018385620101210e+001
0	 5.199979999988400e+000	 5.333299999983335e+000	 1.024346180899510e+001
0	 5.199979999988400e+000	 5.399969999982149e+000	 1.023710438319060e+001
0	 5.199979999988400e+000	 5.466639999981865e+000	 1.023083198250804e+001
0	 5.199979999988400e+000	 5.533309999982384e+000	 1.022464098995030e+001
0	 5.199979999988398e+000	 5.599979999983598e+000	 1.021852778852029e+001
0	 5.199979999988401e+000	 5.666649999985417e+000	 1.021248876122088e+001
0	 5.199979999988400e+000	 5.733319999987733e+000	 1.020652029105494e+001
0	 5.199979999988399e+000	 5.799989999990449e+000	 1.020061876102536e+001
0	 5.199979999988400e+000	 5.866659999993467e+000	 1.019478055413505e+001
0	 5.199979999988400e+000	 5.933329999996683e+000	 1.018900205338687e+001
0	 5.199979999988400e+000	 6.000000000000002e+000	 1.018327964178370e+001
0	 5.266639999985465e+000	 5.333299999983333e+000	 1.024129304122871e+001
0	 5.266639999985466e+000	 5.399969999982151e+000	 1.023513152205451e+001
0	 5.266639999985467e+000	 5.466639999981866e+000	 1.022904372235803e+001
0	 5.266639999985465e+000	 5.533309999982384e+000	 1.022302553736236e+001
0	 5.266639999985466e+000	 5.599979999983599e+000	 1.021707286229056e+001
0	 5.266639999985466e+000	 5.666649999985417e+000	 1.021118159236572e+001
0	 5.266639999985467e+000	 5.733319999987733e+000	 1.020534762281091e+001
0	 5.266639999985466e+000	 5.799989999990451e+000	 1.019956684884921e+001
0	 5.266639999985466e+000	 5.866659999993466e+000	 1.019383516570371e+001
0	 5.266639999985466e+000	 5.933329999996684e+000	 1.018814846859747e+001
0	 5.266639999985465e+000	 5.999999999999998e+000	 1.018250265275358e+001
0	 5.333299999983333e+000	 5.333299999983333e+000	 1.023893999675388e+001
0	 5.333299999983333e+000	 5.399969999982149e+000	 1.023296404908480e+001
0	 5.333299999983334e+000	 5.466639999981867e+000	 1.022705283290465e+001
0	 5.333299999983334e+000	 5.533309999982384e+000	 1.022120171548767e+001
0	 5.333299999983334e+000	 5.599979999983600e+000	 1.021540606410813e+001
0	 5.333299999983334e+000	 5.666649999985415e+000	 1.020966124604030e+001
0	 5.333299999983335e+000	 5.733319999987733e+000	 1.020396262855846e+001
0	 5.333299999983334e+000	 5.799989999990448e+000	 1.019830557893684e+001
0	 5.333299999983333e+000	 5.866659999993467e+000	 1.019268546444975e+001
0	 5.333299999983335e+000	 5.933329999996684e+000	 1.018709765237145e+001
0	 5.333299999983333e+000	 5.999999999999998e+000	 1.018153750997618e+001
0	 4.666700000016666e+000	 6.000000000000000e+000	 1.018124889259059e+001
0	 4.666700000016665e+000	 6.066670000003318e+000	 1.017519974662271e+001
0	 4.666700000016667e+000	 6.133340000006533e+000	 1.016927129222422e+001
0	 4.666700000016666e+000	 6.200010000009551e+000	 1.016346086246838e+001
0	 4.666700000016667e+000	 6.266680000012267e+000	 1.015776579042854e+001
0	 4.666700000016667e+000	 6.333350000014587e+000	 1.015218340917795e+001
0	 4.666700000016666e+000	 6.400020000016402e+000	 1.014671105178993e+001
0	 4.666700000016667e+000	 6.466690000017617e+000	 1.014134605133778e+001
0	 4.666700000016666e+000	 6.533360000018133e+000	 1.013608574089480e+001
0	 4.666700000016666e+000	 6.600030000017847e+000	 1.013092745353433e+001
0	 4.666700000016666e+000	 6.666700000016667e+000	 1.012586852232962e+001
0	 4.733360000014533e+000	 5.999999999999999e+000	 1.018241907149832e+001
0	 4.733360000014531e+000	 6.066670000003316e+000	 1.017642338970405e+001
0	 4.733360000014533e+000	 6.133340000006532e+000	 1.017054262458558e+001
0	 4.733360000014532e+000	 6.200010000009550e+000	 1.016477382343144e+001
0	 4.733360000014534e+000	 6.266680000012268e+000	 1.015911403353010e+001
0	 4.733360000014533e+000	 6.333350000014584e+000	 1.015356030217010e+001
0	 4.733360000014533e+000	 6.400020000016400e+000	 1.014810967663993e+001
0	 4.733360000014533e+000	 6.466690000017619e+000	 1.014275920422806e+001
0	 4.733360000014533e+000	 6.533360000018132e+000	 1.013750593222304e+001
0	 4.733360000014534e+000	 6.600030000017850e+000	 1.013234690791336e+001
0	 4.733360000014534e+000	 6.666700000016669e+000	 1.012727917858753e+001
0	 4.800020000011601e+000	 6.000000000000000e+000	 1.018330288822329e+001
0	 4.800020000011599e+000	 6.066670000003315e+000	 1.017735655663935e+001
0	 4.800020000011597e+000	 6.133340000006532e+000	 1.017152123442561e+001
0	 4.800020000011599e+000	 6.200010000009551e+000	 1.016579372921489e+001
0	 4.800020000011599e+000	 6.266680000012264e+000	 1.016017084864005e+001
0	 4.800020000011600e+000	 6.333350000014585e+000	 1.015464940033390e+001
0	 4.800020000011601e+000	 6.400020000016402e+000	 1.014922619192929e+001
0	 4.800020000011600e+000	 6.466690000017618e+000	 1.014389803105906e+001
0	 4.800020000011599e+000	 6.533360000018134e+000	 1.013866172535607e+001
0	 4.800020000011601e+000	 6.600030000017850e+000	 1.013351408245312e+001
0	 4.800020000011601e+000	 6.666700000016667e+000	 1.012845190998311e+001
0	 4.866680000008067e+000	 6.000000000000002e+000	 1.018391261881994e+001
0	 4.866680000008066e+000	 6.066670000003316e+000	 1.017801321971133e+001
0	 4.866680000008066e+000	 6.133340000006532e+000	 1.017222240900369e+001
0	 4.866680000008067e+000	 6.200010000009551e+000	 1.016653680080331e+001
0	 4.866680000008067e+000	 6.266680000012268e+000	 1.016095300921650e+001
0	 4.866680000008067e+000	 6.333350000014585e+000	 1.015546764834957e+001
0	 4.866680000008066e+000	 6.400020000016401e+000	 1.015007733230880e+001
0	 4.866680000008068e+000	 6.466690000017618e+000	 1.014477867520053e+001
0	 4.866680000008066e+000	 6.533360000018134e+000	 1.013956829113104e+001
0	 4.866680000008065e+000	 6.600030000017849e+000	 1.013444279420664e+001
0	 4.866680000008068e+000	 6.666700000016667e+000	 1.012939879853365e+001
0	 4.933340000004133e+000	 5.999999999999998e+000	 1.018426053934271e+001
0	 4.933340000004134e+000	 6.066670000003318e+000	 1.017840735120267e+001
0	 4.933340000004133e+000	 6.133340000006531e+000	 1.017266143557921e+001
0	 4.933340000004134e+000	 6.200010000009551e+000	 1.016701925918122e+001
0	 4.933340000004134e+000	 6.266680000012268e+000	 1.016147728871763e+001
0	 4.933340000004135e+000	 6.333350000014584e+000	 1.015603199089732e+001
0	 4.933340000004135e+000	 6.400020000016403e+000	 1.015067983242918e+001
0	 4.933340000004134e+000	 6.466690000017617e+000	 1.014541728002213e+001
0	 4.933340000004133e+000	 6.533360000018134e+000	 1.014024080038505e+001
0	 4.933340000004134e+000	 6.600030000017849e+000	 1.013514686022686e+001
0	 4.933340000004135e+000	 6.666700000016668e+000	 1.013013192625647e+001
0	 5.000000000000001e+000	 6.000000000000000e+000	 1.018435892584603e+001
0	 5.000000000000003e+000	 6.066670000003318e+000	 1.017855292339606e+001
0	 5.000000000000000e+000	 6.133340000006531e+000	 1.017285360141158e+001
0	 5.000000000000002e+000	 6.200010000009551e+000	 1.016725732533322e+001
0	 5.000000000000001e+000	 6.266680000012268e+000	 1.016176046060162e+001
0	 5.000000000000000e+000	 6.333350000014584e+000	 1.015635937265738e+001
0	 5.000000000000001e+000	 6.400020000016401e+000	 1.015105042694115e+001
0	 4.999999999999999e+000	 6.466690000017617e+000	 1.014582998889356e+001
0	 5.000000000000000e+000	 6.533360000018134e+000	 1.014069442395523e+001
0	 4.999999999999998e+000	 6.600030000017848e+000	 1.013564009756681e+001
0	 4.999999999999999e+000	 6.666700000016665e+000	 1.013066337516892e+001
0	 5.066659999995866e+000	 5.999999999999999e+000	 1.018422005438435e+001
0	 5.066659999995866e+000	 6.066670000003317e+000	 1.017846390857418e+001
0	 5.066659999995866e+000	 6.133340000006534e+000	 1.017281419376019e+001
0	 5.066659999995867e+000	 6.200010000009553e+000	 1.016726722024383e+001
0	 5.066659999995867e+000	 6.266680000012268e+000	 1.016181929832660e+001
0	 5.066659999995866e+000	 6.333350000014583e+000	 1.015646673830998e+001
0	 5.066659999995868e+000	 6.400020000016402e+000	 1.015120585049547e+001
0	 5.066659999995866e+000	 6.466690000017616e+000	 1.014603294518457e+001
0	 5.066659999995868e+000	 6.533360000018134e+000	 1.014094433267873e+001
0	 5.066659999995866e+000	 6.600030000017849e+000	 1.013593632327946e+001
0	 5.066659999995866e+000	 6.666700000016666e+000	 1.013100522728825e+001
0	 5.133319999991934e+000	 6.000000000000001e+000	 1.018385620101210e+001
0	 5.133319999991932e+000	 6.066670000003318e+000	 1.017815427901975e+001
0	 5.133319999991935e+000	 6.133340000006536e+000	 1.017255849988442e+001
0	 5.133319999991934e+000	 6.200010000009552e+000	 1.016706516489759e+001
0	 5.133319999991933e+000	 6.266680000012267e+000	 1.016167057535075e+001
0	 5.133319999991933e+000	 6.333350000014583e+000	 1.015637103253533e+001
0	 5.133319999991933e+000	 6.400020000016400e+000	 1.015116283774288e+001
0	 5.133319999991933e+000	 6.466690000017620e+000	 1.014604229226480e+001
0	 5.133319999991932e+000	 6.533360000018132e+000	 1.014100569739262e+001
0	 5.133319999991933e+000	 6.600030000017851e+000	 1.013604935441779e+001
0	 5.133319999991932e+000	 6.666700000016667e+000	 1.013116956463182e+001
0	 5.199979999988400e+000	 6.000000000000002e+000	 1.018327964178370e+001
0	 5.199979999988400e+000	 6.066670000003317e+000	 1.017763800701541e+001
0	 5.199979999988400e+000	 6.133340000006535e+000	 1.017210180704367e+001
0	 5.199979999988400e+000	 6.200010000009552e+000	 1.016666738027907e+001
0	 5.199979999988400e+000	 6.266680000012268e+000	 1.016133106513222e+001
0	 5.199979999988400e+000	 6.333350000014584e+000	 1.015608920001367e+001
0	 5.199979999988400e+000	 6.400020000016402e+000	 1.015093812333406e+001
0	 5.199979999988400e+000	 6.466690000017617e+000	 1.014587417350398e+001
0	 5.199979999988400e+000	 6.533360000018134e+000	 1.014089368893403e+001
0	 5.199979999988398e+000	 6.600030000017849e+000	 1.013599300803480e+001
0	 5.199979999988400e+000	 6.666700000016667e+000	 1.013116846921689e+001
0	 5.266639999985465e+000	 5.999999999999998e+000	 1.018250265275358e+001
0	 5.266639999985466e+000	 6.066670000003317e+000	 1.017692906484387e+001
0	 5.266639999985466e+000	 6.133340000006534e+000	 1.017145940249733e+001
0	 5.266639999985466e+000	 6.200010000009551e+000	 1.016609008737280e+001
0	 5.266639999985467e+000	 6.266680000012267e+000	 1.016081754112914e+001
0	 5.266639999985467e+000	 6.333350000014585e+000	 1.015563818542519e+001
0	 5.266639999985464e+000	 6.400020000016398e+000	 1.015054844191980e+001
0	 5.266639999985466e+000	 6.466690000017616e+000	 1.014554473227180e+001
0	 5.266639999985466e+000	 6.533360000018135e+000	 1.014062347814008e+001
0	 5.266639999985466e+000	 6.600030000017850e+000	 1.013578110118344e+001
0	 5.266639999985466e+000	 6.666700000016667e+000	 1.013101402306078e+001
0	 5.333299999983333e+000	 5.999999999999998e+000	 1.018153750997618e+001
0	 5.333299999983334e+000	 6.066670000003317e+000	 1.017604142478781e+001
0	 5.333299999983333e+000	 6.133340000006530e+000	 1.017064657350478e+001
0	 5.333299999983334e+000	 6.200010000009550e+000	 1.016534950716334e+001
0	 5.333299999983335e+000	 6.266680000012268e+000	 1.016014677679971e+001
0	 5.333299999983334e+000	 6.333350000014584e+000	 1.015503493345011e+001
0	 5.333299999983335e+000	 6.400020000016401e+000	 1.015001052815079e+001
0	 5.333299999983334e+000	 6.466690000017618e+000	 1.014507011193796e+001
0	 5.333299999983333e+000	 6.533360000018132e+000	 1.014021023584787e+001
0	 5.333299999983333e+000	 6.600030000017849e+000	 1.013542745091674e+001
0	 5.333299999983334e+000	 6.666700000016665e+000	 1.013071830818080e+001
0	 4.666700000016666e+000	 6.666700000016667e+000	 1.012586852232962e+001
0	 4.666700000016666e+000	 6.733360000014533e+000	 1.012092247199382e+001
0	 4.666700000016665e+000	 6.800020000011599e+000	 1.011610265670548e+001
0	 4.666700000016666e+000	 6.866680000008066e+000	 1.011140840818723e+001
0	 4.666700000016666e+000	 6.933340000004132e+000	 1.010683905816173e+001
0	 4.666700000016666e+000	 6.999999999999999e+000	 1.010239393835163e+001
0	 4.666700000016666e+000	 7.066659999995867e+000	 1.009807238047958e+001
0	 4.666700000016667e+000	 7.133319999991935e+000	 1.009387371626820e+001
0	 4.666700000016666e+000	 7.199979999988400e+000	 1.008979727744013e+001
0	 4.666700000016667e+000	 7.266639999985467e+000	 1.008584239571801e+001
0	 4.666700000016665e+000	 7.333299999983333e+000	 1.008200840282446e+001
0	 4.733360000014534e+000	 6.666700000016669e+000	 1.012727917858753e+001
0	 4.733360000014534e+000	 6.733360000014533e+000	 1.012231941950473e+001
0	 4.733360000014533e+000	 6.800020000011599e+000	 1.011748427685843e+001
0	 4.733360000014535e+000	 6.866680000008067e+000	 1.011277301460529e+001
0	 4.733360000014534e+000	 6.933340000004134e+000	 1.010818489670197e+001
0	 4.733360000014534e+000	 6.999999999999999e+000	 1.010371918710512e+001
0	 4.733360000014534e+000	 7.066659999995869e+000	 1.009937514977138e+001
0	 4.733360000014534e+000	 7.133319999991936e+000	 1.009515204865740e+001
0	 4.733360000014533e+000	 7.199979999988400e+000	 1.009104914771981e+001
0	 4.733360000014534e+000	 7.266639999985467e+000	 1.008706571091527e+001
0	 4.733360000014534e+000	 7.333299999983334e+000	 1.008320100220042e+001
0	 4.800020000011601e+000	 6.666700000016667e+000	 1.012845190998311e+001
0	 4.800020000011602e+000	 6.733360000014534e+000	 1.012349333777354e+001
0	 4.800020000011601e+000	 6.800020000011601e+000	 1.011865657571335e+001
0	 4.800020000011601e+000	 6.866680000008066e+000	 1.011394081063992e+001
0	 4.800020000011600e+000	 6.933340000004134e+000	 1.010934522939066e+001
0	 4.800020000011601e+000	 7.000000000000001e+000	 1.010486901880299e+001
0	 4.800020000011600e+000	 7.066659999995865e+000	 1.010051136571429e+001
0	 4.800020000011600e+000	 7.133319999991935e+000	 1.009627145696201e+001
0	 4.800020000011601e+000	 7.199979999988401e+000	 1.009214847938351e+001
0	 4.800020000011600e+000	 7.266639999985466e+000	 1.008814161981620e+001
0	 4.800020000011600e+000	 7.333299999983334e+000	 1.008425006509748e+001
0	 4.866680000008068e+000	 6.666700000016667e+000	 1.012939879853365e+001
0	 4.866680000008067e+000	 6.733360000014533e+000	 1.012445449613096e+001
0	 4.866680000008068e+000	 6.800020000011601e+000	 1.011962823528621e+001
0	 4.866680000008068e+000	 6.866680000008069e+000	 1.011491911636429e+001
0	 4.866680000008067e+000	 6.933340000004133e+000	 1.011032623973015e+001
0	 4.866680000008066e+000	 6.999999999999997e+000	 1.010584870574869e+001
0	 4.866680000008066e+000	 7.066659999995866e+000	 1.010148561478483e+001
0	 4.866680000008066e+000	 7.133319999991934e+000	 1.009723606720349e+001
0	 4.866680000008067e+000	 7.199979999988402e+000	 1.009309916336956e+001
0	 4.866680000008068e+000	 7.266639999985467e+000	 1.008907400364796e+001
0	 4.866680000008069e+000	 7.333299999983334e+000	 1.008515968840360e+001
0	 4.933340000004135e+000	 6.666700000016668e+000	 1.013013192625648e+001
0	 4.933340000004136e+000	 6.733360000014533e+000	 1.012521316390762e+001
0	 4.933340000004133e+000	 6.800020000011601e+000	 1.012040793759294e+001
0	 4.933340000004134e+000	 6.866680000008068e+000	 1.011571525185158e+001
0	 4.933340000004133e+000	 6.933340000004134e+000	 1.011113411122276e+001
0	 4.933340000004135e+000	 7.000000000000001e+000	 1.010666352024566e+001
0	 4.933340000004134e+000	 7.066659999995870e+000	 1.010230248345942e+001
0	 4.933340000004133e+000	 7.133319999991933e+000	 1.009805000540326e+001
0	 4.933340000004133e+000	 7.199979999988400e+000	 1.009390509061631e+001
0	 4.933340000004136e+000	 7.266639999985467e+000	 1.008986674363776e+001
0	 4.933340000004134e+000	 7.333299999983335e+000	 1.008593396900676e+001
0	 4.999999999999999e+000	 6.666700000016665e+000	 1.013066337516892e+001
0	 5.000000000000002e+000	 6.733360000014533e+000	 1.012577961043418e+001
0	 5.000000000000001e+000	 6.800020000011600e+000	 1.012100436464946e+001
0	 5.000000000000000e+000	 6.866680000008067e+000	 1.011633653717495e+001
0	 5.000000000000002e+000	 6.933340000004133e+000	 1.011177502737084e+001
0	 5.000000000000000e+000	 7.000000000000000e+000	 1.010731873459733e+001
0	 5.000000000000001e+000	 7.066659999995868e+000	 1.010296655821457e+001
0	 5.000000000000002e+000	 7.133319999991935e+000	 1.009871739758278e+001
0	 5.000000000000001e+000	 7.199979999988400e+000	 1.009457015206212e+001
0	 5.000000000000003e+000	 7.266639999985468e+000	 1.009052372101277e+001
0	 5.000000000000000e+000	 7.333299999983335e+000	 1.008657700379493e+001
0	 5.066659999995866e+000	 6.666700000016666e+000	 1.013100522728825e+001
0	 5.066659999995868e+000	 6.733360000014533e+000	 1.012616410504131e+001
0	 5.066659999995868e+000	 6.800020000011601e+000	 1.012142619847176e+001
0	 5.066659999995868e+000	 6.866680000008066e+000	 1.011679029240758e+001
0	 5.066659999995868e+000	 6.933340000004133e+000	 1.011225517167672e+001
0	 5.066659999995868e+000	 7.000000000000001e+000	 1.010781962110711e+001
0	 5.066659999995867e+000	 7.066659999995867e+000	 1.010348242552672e+001
0	 5.066659999995867e+000	 7.133319999991936e+000	 1.009924236976347e+001
0	 5.066659999995867e+000	 7.199979999988400e+000	 1.009509823864534e+001
0	 5.066659999995867e+000	 7.266639999985467e+000	 1.009104881700022e+001
0	 5.066659999995866e+000	 7.333299999983335e+000	 1.008709288965610e+001
0	 5.133319999991932e+000	 6.666700000016667e+000	 1.013116956463182e+001
0	 5.133319999991935e+000	 6.733360000014533e+000	 1.012637691705966e+001
0	 5.133319999991933e+000	 6.800020000011601e+000	 1.012168212107579e+001
0	 5.133319999991932e+000	 6.866680000008067e+000	 1.011708383762264e+001
0	 5.133319999991933e+000	 6.933340000004133e+000	 1.011258072764271e+001
0	 5.133319999991935e+000	 7.000000000000000e+000	 1.010817145207846e+001
0	 5.133319999991934e+000	 7.066659999995866e+000	 1.010385467187233e+001
0	 5.133319999991933e+000	 7.133319999991934e+000	 1.009962904796679e+001
0	 5.133319999991932e+000	 7.199979999988401e+000	 1.009549324130429e+001
0	 5.133319999991934e+000	 7.266639999985467e+000	 1.009144591282728e+001
0	 5.133319999991932e+000	 7.333299999983334e+000	 1.008748572347822e+001
0	 5.199979999988400e+000	 6.666700000016667e+000	 1.013116846921689e+001
0	 5.199979999988399e+000	 6.733360000014533e+000	 1.012642831581989e+001
0	 5.199979999988400e+000	 6.800020000011601e+000	 1.012178081447744e+001
0	 5.199979999988399e+000	 6.866680000008066e+000	 1.011722449289330e+001
0	 5.199979999988399e+000	 6.933340000004133e+000	 1.011275787877117e+001
0	 5.199979999988399e+000	 6.999999999999998e+000	 1.010837949981478e+001
0	 5.199979999988399e+000	 7.066659999995867e+000	 1.010408788372787e+001
0	 5.199979999988399e+000	 7.133319999991933e+000	 1.009988155821414e+001
0	 5.199979999988400e+000	 7.199979999988400e+000	 1.009575905097732e+001
0	 5.199979999988399e+000	 7.266639999985465e+000	 1.009171888972112e+001
0	 5.199979999988399e+000	 7.333299999983332e+000	 1.008775960214927e+001
0	 5.266639999985466e+000	 6.666700000016667e+000	 1.013101402306078e+001
0	 5.266639999985465e+000	 6.733360000014532e+000	 1.012632857065266e+001
0	 5.266639999985467e+000	 6.800020000011600e+000	 1.012173096069271e+001
0	 5.266639999985466e+000	 6.866680000008068e+000	 1.011721957829271e+001
0	 5.266639999985466e+000	 6.933340000004134e+000	 1.011279280856440e+001
0	 5.266639999985466e+000	 7.000000000000000e+000	 1.010844903661950e+001
0	 5.266639999985467e+000	 7.066659999995866e+000	 1.010418664756979e+001
0	 5.266639999985466e+000	 7.133319999991934e+000	 1.010000402652697e+001
0	 5.266639999985467e+000	 7.199979999988402e+000	 1.009589955860279e+001
0	 5.266639999985466e+000	 7.266639999985467e+000	 1.009187162890896e+001
0	 5.266639999985465e+000	 7.333299999983333e+000	 1.008791862255723e+001
0	 5.333299999983334e+000	 6.666700000016665e+000	 1.013071830818081e+001
0	 5.333299999983335e+000	 6.733360000014533e+000	 1.012608795088860e+001
0	 5.333299999983335e+000	 6.800020000011599e+000	 1.012154124173751e+001
0	 5.333299999983333e+000	 6.866680000008065e+000	 1.011707641389405e+001
0	 5.333299999983336e+000	 6.933340000004135e+000	 1.011269170052475e+001
0	 5.333299999983333e+000	 6.999999999999998e+000	 1.010838533479608e+001
0	 5.333299999983335e+000	 7.066659999995868e+000	 1.010415554987458e+001
0	 5.333299999983334e+000	 7.133319999991935e+000	 1.010000057892671e+001
0	 5.333299999983335e+000	 7.199979999988400e+000	 1.009591865511902e+001
0	 5.333299999983336e+000	 7.266639999985467e+000	 1.009190801161797e+001
0	 5.333299999983334e+000	 7.333299999983334e+000	 1.008796688159005e+001
0	 4.666700000016665e+000	 7.333299999983333e+000	 1.008200840282446e+001
0	 4.666700000016665e+000	 7.399969999982149e+000	 1.007827790647889e+001
0	 4.666700000016666e+000	 7.466639999981866e+000	 1.007463463933486e+001
0	 4.666700000016665e+000	 7.533309999982382e+000	 1.007107792214930e+001
0	 4.666700000016666e+000	 7.599979999983599e+000	 1.006760707567918e+001
0	 4.666700000016667e+000	 7.666649999985417e+000	 1.006422142068144e+001
0	 4.666700000016667e+000	 7.733319999987733e+000	 1.006092027791300e+001
0	 4.666700000016665e+000	 7.799989999990450e+000	 1.005770296813084e+001
0	 4.666700000016665e+000	 7.866659999993466e+000	 1.005456881209190e+001
0	 4.666700000016666e+000	 7.933329999996682e+000	 1.005151713055313e+001
0	 4.666700000016665e+000	 7.999999999999998e+000	 1.004854724427149e+001
0	 4.733360000014534e+000	 7.333299999983334e+000	 1.008320100220042e+001
0	 4.733360000014534e+000	 7.399969999982149e+000	 1.007943851042679e+001
0	 4.733360000014534e+000	 7.466639999981867e+000	 1.007576276474137e+001
0	 4.733360000014533e+000	 7.533309999982382e+000	 1.007217287685718e+001
0	 4.733360000014534e+000	 7.599979999983600e+000	 1.006866795848721e+001
0	 4.733360000014534e+000	 7.666649999985416e+000	 1.006524712134447e+001
0	 4.733360000014534e+000	 7.733319999987734e+000	 1.006190947714199e+001
0	 4.733360000014532e+000	 7.799989999990450e+000	 1.005865413759275e+001
0	 4.733360000014533e+000	 7.866659999993467e+000	 1.005548021440979e+001
0	 4.733360000014532e+000	 7.933329999996682e+000	 1.005238681930613e+001
0	 4.733360000014533e+000	 8.000000000000000e+000	 1.004937306399474e+001
0	 4.800020000011600e+000	 7.333299999983334e+000	 1.008425006509748e+001
0	 4.800020000011601e+000	 7.399969999982149e+000	 1.008045896280959e+001
0	 4.800020000011600e+000	 7.466639999981866e+000	 1.007675443122730e+001
0	 4.800020000011601e+000	 7.533309999982384e+000	 1.007313538767625e+001
0	 4.800020000011599e+000	 7.599979999983602e+000	 1.006960074948206e+001
0	 4.800020000011599e+000	 7.666649999985416e+000	 1.006614943397037e+001
0	 4.800020000011600e+000	 7.733319999987733e+000	 1.006278035846679e+001
0	 4.800020000011601e+000	 7.799989999990450e+000	 1.005949244029695e+001
0	 4.800020000011600e+000	 7.866659999993466e+000	 1.005628459678650e+001
0	 4.800020000011601e+000	 7.933329999996683e+000	 1.005315574526106e+001
0	 4.800020000011601e+000	 8.000000000000002e+000	 1.005010480304627e+001
0	 4.866680000008069e+000	 7.333299999983334e+000	 1.008515968840360e+001
0	 4.866680000008065e+000	 7.399969999982149e+000	 1.008134364887421e+001
0	 4.866680000008067e+000	 7.466639999981865e+000	 1.007761423232449e+001
0	 4.866680000008067e+000	 7.533309999982384e+000	 1.007397017634924e+001
0	 4.866680000008066e+000	 7.599979999983600e+000	 1.007041021854324e+001
0	 4.866680000008067e+000	 7.666649999985417e+000	 1.006693309650132e+001
0	 4.866680000008068e+000	 7.733319999987733e+000	 1.006353754781827e+001
0	 4.866680000008066e+000	 7.799989999990448e+000	 1.006022231008889e+001
0	 4.866680000008066e+000	 7.866659999993466e+000	 1.005698612090800e+001
0	 4.866680000008067e+000	 7.933329999996682e+000	 1.005382771787041e+001
0	 4.866680000008066e+000	 8.000000000000000e+000	 1.005074583857093e+001
0	 4.933340000004134e+000	 7.333299999983335e+000	 1.008593396900675e+001
0	 4.933340000004133e+000	 7.399969999982149e+000	 1.008209695386764e+001
0	 4.933340000004133e+000	 7.466639999981867e+000	 1.007834676156483e+001
0	 4.933340000004134e+000	 7.533309999982383e+000	 1.007468196461884e+001
0	 4.933340000004135e+000	 7.599979999983601e+000	 1.007110113555024e+001
0	 4.933340000004134e+000	 7.666649999985417e+000	 1.006760284687953e+001
0	 4.933340000004134e+000	 7.733319999987733e+000	 1.006418567112728e+001
0	 4.933340000004134e+000	 7.799989999990447e+000	 1.006084818081401e+001
0	 4.933340000004133e+000	 7.866659999993469e+000	 1.005758894846027e+001
0	 4.933340000004135e+000	 7.933329999996683e+000	 1.005440654658660e+001
0	 4.933340000004134e+000	 7.999999999999999e+000	 1.005129954771352e+001
0	 5.000000000000000e+000	 7.333299999983335e+000	 1.008657700379493e+001
0	 5.000000000000001e+000	 7.399969999982150e+000	 1.008272326303680e+001
0	 5.000000000000000e+000	 7.466639999981868e+000	 1.007895661248014e+001
0	 5.000000000000000e+000	 7.533309999982383e+000	 1.007527547422778e+001
0	 5.000000000000000e+000	 7.599979999983600e+000	 1.007167827038252e+001
0	 4.999999999999999e+000	 7.666649999985415e+000	 1.006816342304722e+001
0	 5.000000000000001e+000	 7.733319999987733e+000	 1.006472935432469e+001
0	 5.000000000000000e+000	 7.799989999990450e+000	 1.006137448631777e+001
0	 5.000000000000002e+000	 7.866659999993467e+000	 1.005809724112927e+001
0	 5.000000000000001e+000	 7.933329999996683e+000	 1.005489604086205e+001
0	 5.000000000000001e+000	 8.000000000000000e+000	 1.005176930761892e+001
0	 5.066659999995866e+000	 7.333299999983335e+000	 1.008709288965609e+001
0	 5.066659999995867e+000	 7.399969999982150e+000	 1.008322696162865e+001
0	 5.066659999995867e+000	 7.466639999981866e+000	 1.007944837860230e+001
0	 5.066659999995865e+000	 7.533309999982383e+000	 1.007575542691875e+001
0	 5.066659999995868e+000	 7.599979999983601e+000	 1.007214639291961e+001
0	 5.066659999995867e+000	 7.666649999985416e+000	 1.006861956294659e+001
0	 5.066659999995867e+000	 7.733319999987733e+000	 1.006517322334138e+001
0	 5.066659999995869e+000	 7.799989999990449e+000	 1.006180566044564e+001
0	 5.066659999995867e+000	 7.866659999993466e+000	 1.005851516060102e+001
0	 5.066659999995867e+000	 7.933329999996684e+000	 1.005530001014923e+001
0	 5.066659999995867e+000	 8.000000000000000e+000	 1.005215849543193e+001
0	 5.133319999991932e+000	 7.333299999983334e+000	 1.008748572347822e+001
0	 5.133319999991933e+000	 7.399969999982151e+000	 1.008361243489015e+001
0	 5.133319999991933e+000	 7.466639999981866e+000	 1.007982665346319e+001
0	 5.133319999991933e+000	 7.533309999982384e+000	 1.007612654443444e+001
0	 5.133319999991933e+000	 7.599979999983600e+000	 1.007251027304097e+001
0	 5.133319999991934e+000	 7.666649999985417e+000	 1.006897600451988e+001
0	 5.133319999991933e+000	 7.733319999987732e+000	 1.006552190410820e+001
0	 5.133319999991934e+000	 7.799989999990449e+000	 1.006214613704303e+001
0	 5.133319999991933e+000	 7.866659999993467e+000	 1.005884686856146e+001
0	 5.133319999991933e+000	 7.933329999996683e+000	 1.005562226390055e+001
0	 5.133319999991933e+000	 8.000000000000000e+000	 1.005247048829741e+001
0	 5.199979999988399e+000	 7.333299999983332e+000	 1.008775960214927e+001
0	 5.199979999988399e+000	 7.399969999982150e+000	 1.008388406806821e+001
0	 5.199979999988400e+000	 7.466639999981866e+000	 1.008009603059464e+001
0	 5.199979999988400e+000	 7.533309999982384e+000	 1.007639354851759e+001
0	 5.199979999988399e+000	 7.599979999983598e+000	 1.007277468062610e+001
0	 5.199979999988400e+000	 7.666649999985417e+000	 1.006923748570923e+001
0	 5.199979999988400e+000	 7.733319999987733e+000	 1.006578002255600e+001
0	 5.199979999988399e+000	 7.799989999990448e+000	 1.006240034995542e+001
0	 5.199979999988400e+000	 7.866659999993468e+000	 1.005909652669658e+001
0	 5.199979999988400e+000	 7.933329999996683e+000	 1.005586661156848e+001
0	 5.199979999988399e+000	 7.999999999999999e+000	 1.005270866336018e+001
0	 5.266639999985465e+000	 7.333299999983333e+000	 1.008791862255723e+001
0	 5.266639999985466e+000	 7.399969999982149e+000	 1.008404624640981e+001
0	 5.266639999985466e+000	 7.466639999981866e+000	 1.008026110352850e+001
0	 5.266639999985465e+000	 7.533309999982383e+000	 1.007656116091090e+001
0	 5.266639999985466e+000	 7.599979999983600e+000	 1.007294438555451e+001
0	 5.266639999985466e+000	 7.666649999985416e+000	 1.006940874445689e+001
0	 5.266639999985467e+000	 7.733319999987731e+000	 1.006595220461563e+001
0	 5.266639999985466e+000	 7.799989999990449e+000	 1.006257273302826e+001
0	 5.266639999985466e+000	 7.866659999993467e+000	 1.005926829669234e+001
0	 5.266639999985467e+000	 7.933329999996684e+000	 1.005603686260543e+001
0	 5.266639999985466e+000	 8.000000000000000e+000	 1.005287639776507e+001
0	 5.333299999983334e+000	 7.333299999983334e+000	 1.008796688159005e+001
0	 5.333299999983332e+000	 7.399969999982149e+000	 1.008410335516188e+001
0	 5.333299999983333e+000	 7.466639999981864e+000	 1.008032646579666e+001
0	 5.333299999983333e+000	 7.533309999982383e+000	 1.007663410335704e+001
0	 5.333299999983335e+000	 7.599979999983600e+000	 1.007302415770563e+001
0	 5.333299999983334e+000	 7.666649999985416e+000	 1.006949451870505e+001
0	 5.333299999983334e+000	 7.733319999987733e+000	 1.006604307621797e+001
0	 5.333299999983334e+000	 7.799989999990449e+000	 1.006266772010698e+001
0	 5.333299999983333e+000	 7.866659999993466e+000	 1.005936634023472e+001
0	 5.333299999983335e+000	 7.933329999996684e+000	 1.005613682646382e+001
0	 5.333299999983334e+000	 8.000000000000000e+000	 1.005297706865692e+001
0	 4.666700000016665e+000	 7.999999999999998e+000	 1.004854724427149e+001
0	 4.666700000016665e+000	 8.066670000003317e+000	 1.004566278708231e+001
0	 4.666700000016666e+000	 8.133340000006532e+000	 1.004286647151109e+001
0	 4.666700000016666e+000	 8.200010000009549e+000	 1.004015623635007e+001
0	 4.666700000016666e+000	 8.266680000012268e+000	 1.003753002039148e+001
0	 4.666700000016667e+000	 8.333350000014585e+000	 1.003498576242757e+001
0	 4.666700000016666e+000	 8.400020000016399e+000	 1.003252140125056e+001
0	 4.666700000016666e+000	 8.466690000017616e+000	 1.003013487565269e+001
0	 4.666700000016666e+000	 8.533360000018133e+000	 1.002782412442624e+001
0	 4.666700000016667e+000	 8.600030000017853e+000	 1.002558708636340e+001
0	 4.666700000016665e+000	 8.666700000016666e+000	 1.002342170025645e+001
0	 4.733360000014533e+000	 8.000000000000000e+000	 1.004937306399474e+001
0	 4.733360000014532e+000	 8.066670000003317e+000	 1.004644401520436e+001
0	 4.733360000014532e+000	 8.133340000006532e+000	 1.004360392352466e+001
0	 4.733360000014533e+000	 8.200010000009552e+000	 1.004085067646013e+001
0	 4.733360000014534e+000	 8.266680000012268e+000	 1.003818216151528e+001
0	 4.733360000014533e+000	 8.333350000014582e+000	 1.003559626619463e+001
0	 4.733360000014534e+000	 8.400020000016403e+000	 1.003309087800268e+001
0	 4.733360000014533e+000	 8.466690000017618e+000	 1.003066388444394e+001
0	 4.733360000014533e+000	 8.533360000018133e+000	 1.002831317302293e+001
0	 4.733360000014534e+000	 8.600030000017853e+000	 1.002603663124415e+001
0	 4.733360000014534e+000	 8.666700000016665e+000	 1.002383214661212e+001
0	 4.800020000011601e+000	 8.000000000000002e+000	 1.005010480304627e+001
0	 4.800020000011598e+000	 8.066670000003315e+000	 1.004713791303310e+001
0	 4.800020000011598e+000	 8.133340000006532e+000	 1.004426049626501e+001
0	 4.800020000011601e+000	 8.200010000009552e+000	 1.004147038729656e+001
0	 4.800020000011600e+000	 8.266680000012265e+000	 1.003876542068224e+001
0	 4.800020000011601e+000	 8.333350000014585e+000	 1.003614343097656e+001
0	 4.800020000011599e+000	 8.400020000016397e+000	 1.003360225273401e+001
0	 4.800020000011600e+000	 8.466690000017618e+000	 1.003113972050910e+001
0	 4.800020000011600e+000	 8.533360000018135e+000	 1.002875366885637e+001
0	 4.800020000011601e+000	 8.600030000017851e+000	 1.002644193233031e+001
0	 4.800020000011600e+000	 8.666700000016668e+000	 1.002420234548542e+001
0	 4.866680000008066e+000	 8.000000000000000e+000	 1.005074583857093e+001
0	 4.866680000008067e+000	 8.066670000003320e+000	 1.004774740462327e+001
0	 4.866680000008066e+000	 8.133340000006532e+000	 1.004483869920611e+001
0	 4.866680000008066e+000	 8.200010000009547e+000	 1.004201750226169e+001
0	 4.866680000008067e+000	 8.266680000012265e+000	 1.003928159373221e+001
0	 4.866680000008066e+000	 8.333350000014585e+000	 1.003662875355995e+001
0	 4.866680000008066e+000	 8.400020000016401e+000	 1.003405676168709e+001
0	 4.866680000008069e+000	 8.466690000017620e+000	 1.003156339805588e+001
0	 4.866680000008067e+000	 8.533360000018133e+000	 1.002914644260859e+001
0	 4.866680000008065e+000	 8.600030000017851e+000	 1.002680367528742e+001
0	 4.866680000008067e+000	 8.666700000016663e+000	 1.002453287603463e+001
0	 4.933340000004134e+000	 7.999999999999999e+000	 1.005129954771352e+001
0	 4.933340000004135e+000	 8.066670000003319e+000	 1.004827541402972e+001
0	 4.933340000004133e+000	 8.133340000006534e+000	 1.004534104182193e+001
0	 4.933340000004135e+000	 8.200010000009550e+000	 1.004249415475781e+001
0	 4.933340000004134e+000	 8.266680000012267e+000	 1.003973247650507e+001
0	 4.933340000004135e+000	 8.333350000014585e+000	 1.003705373073140e+001
0	 4.933340000004132e+000	 8.400020000016399e+000	 1.003445564110447e+001
0	 4.933340000004135e+000	 8.466690000017618e+000	 1.003193593129197e+001
0	 4.933340000004134e+000	 8.533360000018133e+000	 1.002949232496161e+001
0	 4.933340000004133e+000	 8.600030000017851e+000	 1.002712254578108e+001
0	 4.933340000004134e+000	 8.666700000016668e+000	 1.002482431741804e+001
0	 5.000000000000001e+000	 8.000000000000000e+000	 1.005176930761892e+001
0	 5.000000000000001e+000	 8.066670000003319e+000	 1.004872486530724e+001
0	 5.000000000000001e+000	 8.133340000006532e+000	 1.004577003358639e+001
0	 5.000000000000001e+000	 8.200010000009552e+000	 1.004290247818725e+001
0	 5.000000000000001e+000	 8.266680000012267e+000	 1.004011986484068e+001
0	 5.000000000000000e+000	 8.333350000014582e+000	 1.003741985927756e+001
0	 5.000000000000002e+000	 8.400020000016403e+000	 1.003480012722872e+001
0	 5.000000000000000e+000	 8.466690000017616e+000	 1.003225833442508e+001
0	 4.999999999999999e+000	 8.533360000018131e+000	 1.002979214659747e+001
0	 4.999999999999999e+000	 8.600030000017847e+000	 1.002739922947681e+001
0	 4.999999999999999e+000	 8.666700000016665e+000	 1.002507724879395e+001
0	 5.066659999995867e+000	 8.000000000000000e+000	 1.005215849543193e+001
0	 5.066659999995866e+000	 8.066670000003319e+000	 1.004909868251062e+001
0	 5.066659999995867e+000	 8.133340000006532e+000	 1.004612818397349e+001
0	 5.066659999995868e+000	 8.200010000009552e+000	 1.004324460595233e+001
0	 5.066659999995866e+000	 8.266680000012268e+000	 1.004044555457889e+001
0	 5.066659999995865e+000	 8.333350000014585e+000	 1.003772863598499e+001
0	 5.066659999995867e+000	 8.400020000016401e+000	 1.003509145630239e+001
0	 5.066659999995866e+000	 8.466690000017618e+000	 1.003253162166286e+001
0	 5.066659999995867e+000	 8.533360000018133e+000	 1.003004673819820e+001
0	 5.066659999995866e+000	 8.600030000017849e+000	 1.002763441204021e+001
0	 5.066659999995866e+000	 8.666700000016666e+000	 1.002529224932064e+001
0	 5.133319999991933e+000	 8.000000000000000e+000	 1.005247048829741e+001
0	 5.133319999991933e+000	 8.066670000003317e+000	 1.004939978969466e+001
0	 5.133319999991933e+000	 8.133340000006534e+000	 1.004641800245715e+001
0	 5.133319999991933e+000	 8.200010000009550e+000	 1.004352267145533e+001
0	 5.133319999991934e+000	 8.266680000012267e+000	 1.004071134155958e+001
0	 5.133319999991933e+000	 8.333350000014583e+000	 1.003798155764033e+001
0	 5.133319999991935e+000	 8.400020000016403e+000	 1.003533086456801e+001
0	 5.133319999991933e+000	 8.466690000017618e+000	 1.003275680721305e+001
0	 5.133319999991932e+000	 8.533360000018131e+000	 1.003025693044583e+001
0	 5.133319999991934e+000	 8.600030000017853e+000	 1.002782877913681e+001
0	 5.133319999991932e+000	 8.666700000016668e+000	 1.002546989815641e+001
0	 5.199979999988399e+000	 7.999999999999999e+000	 1.005270866336018e+001
0	 5.199979999988400e+000	 8.066670000003315e+000	 1.004963111091416e+001
0	 5.199979999988400e+000	 8.133340000006532e+000	 1.004664199851136e+001
0	 5.199979999988399e+000	 8.200010000009552e+000	 1.004373880809859e+001
0	 5.199979999988399e+000	 8.266680000012268e+000	 1.004091902162260e+001
0	 5.199979999988400e+000	 8.333350000014585e+000	 1.003818012103020e+001
0	 5.199979999988399e+000	 8.400020000016401e+000	 1.003551958826817e+001
0	 5.199979999988399e+000	 8.466690000017616e+000	 1.003293490528330e+001
0	 5.199979999988400e+000	 8.533360000018131e+000	 1.003042355402237e+001
0	 5.199979999988399e+000	 8.600030000017849e+000	 1.002798301643219e+001
0	 5.199979999988400e+000	 8.666700000016665e+000	 1.002561077445953e+001
0	 5.266639999985466e+000	 8.000000000000000e+000	 1.005287639776507e+001
0	 5.266639999985466e+000	 8.066670000003319e+000	 1.004979557022391e+001
0	 5.266639999985466e+000	 8.133340000006532e+000	 1.004680268161005e+001
0	 5.266639999985465e+000	 8.200010000009552e+000	 1.004389514928440e+001
0	 5.266639999985467e+000	 8.266680000012270e+000	 1.004107039060780e+001
0	 5.266639999985466e+000	 8.333350000014583e+000	 1.003832582294118e+001
0	 5.266639999985466e+000	 8.400020000016401e+000	 1.003565886364540e+001
0	 5.266639999985466e+000	 8.466690000017618e+000	 1.003306693008133e+001
0	 5.266639999985467e+000	 8.533360000018133e+000	 1.003054743960986e+001
0	 5.266639999985466e+000	 8.600030000017849e+000	 1.002809780959189e+001
0	 5.266639999985465e+000	 8.666700000016665e+000	 1.002571545738830e+001
0	 5.333299999983334e+000	 8.000000000000000e+000	 1.005297706865692e+001
0	 5.333299999983333e+000	 8.066670000003317e+000	 1.004989609167869e+001
0	 5.333299999983333e+000	 8.133340000006532e+000	 1.004690256122718e+001
0	 5.333299999983335e+000	 8.200010000009550e+000	 1.004399382841506e+001
0	 5.333299999983336e+000	 8.266680000012268e+000	 1.004116724435508e+001
0	 5.333299999983334e+000	 8.333350000014585e+000	 1.003842016015989e+001
0	 5.333299999983333e+000	 8.400020000016399e+000	 1.003574992694224e+001
0	 5.333299999983332e+000	 8.466690000017616e+000	 1.003315389581481e+001
0	 5.333299999983334e+000	 8.533360000018135e+000	 1.003062941789033e+001
0	 5.333299999983335e+000	 8.600030000017851e+000	 1.002817384428149e+001
0	 5.333299999983334e+000	 8.666700000016666e+000	 1.002578452610099e+001
0	 4.666700000016665e+000	 8.666700000016666e+000	 1.002342170025645e+001
0	 4.666700000016665e+000	 8.733360002791901e+000	 1.002134209870267e+001
0	 4.666700000016665e+000	 8.800020022230555e+000	 1.001936064234854e+001
0	 4.666700000016666e+000	 8.866680074997040e+000	 1.001747357041970e+001
0	 4.666700000016666e+000	 8.933340177755778e+000	 1.001567712187027e+001
0	 4.666700000016666e+000	 9.000000347171181e+000	 1.001396753538284e+001
0	 4.666700000016667e+000	 9.066660599907669e+000	 1.001234104936841e+001
0	 4.666700000016666e+000	 9.133320952629655e+000	 1.001079390196646e+001
0	 4.666700000016666e+000	 9.199981422001557e+000	 1.000932233104486e+001
0	 4.666700000016667e+000	 9.266642024687798e+000	 1.000792257419995e+001
0	 4.666700000016665e+000	 9.333302777352781e+000	 1.000659086875655e+001
0	 4.733360000014534e+000	 8.666700000016665e+000	 1.002383214661212e+001
0	 4.733360000014534e+000	 8.733360002791903e+000	 1.002171476119181e+001
0	 4.733360000014533e+000	 8.800020022230553e+000	 1.001969766470839e+001
0	 4.733360000014534e+000	 8.866680074997042e+000	 1.001777694202226e+001
0	 4.733360000014534e+000	 8.933340177755778e+000	 1.001594867771685e+001
0	 4.733360000014532e+000	 9.000000347171181e+000	 1.001420895609863e+001
0	 4.733360000014533e+000	 9.066660599907667e+000	 1.001255386119709e+001
0	 4.733360000014534e+000	 9.133320952629655e+000	 1.001097947676472e+001
0	 4.733360000014533e+000	 9.199981422001558e+000	 1.000948188627706e+001
0	 4.733360000014534e+000	 9.266642024687798e+000	 1.000805717293261e+001
0	 4.733360000014534e+000	 9.333302777352785e+000	 1.000670141965295e+001
0	 4.800020000011600e+000	 8.666700000016668e+000	 1.002420234548542e+001
0	 4.800020000011601e+000	 8.733360002791903e+000	 1.002205091225465e+001
0	 4.800020000011601e+000	 8.800020022230557e+000	 1.002000171598012e+001
0	 4.800020000011601e+000	 8.866680074997042e+000	 1.001805070197416e+001
0	 4.800020000011601e+000	 8.933340177755781e+000	 1.001619381526724e+001
0	 4.800020000011601e+000	 9.000000347171183e+000	 1.001442700060786e+001
0	 4.800020000011600e+000	 9.066660599907667e+000	 1.001274620246259e+001
0	 4.800020000011601e+000	 9.133320952629655e+000	 1.001114736501611e+001
0	 4.800020000011601e+000	 9.199981422001558e+000	 1.000962643217107e+001
0	 4.800020000011600e+000	 9.266642024687796e+000	 1.000817934754826e+001
0	 4.800020000011601e+000	 9.333302777352783e+000	 1.000680205448646e+001
0	 4.866680000008067e+000	 8.666700000016663e+000	 1.002453287603462e+001
0	 4.866680000008065e+000	 8.733360002791903e+000	 1.002235104500803e+001
0	 4.866680000008068e+000	 8.800020022230555e+000	 1.002027320563522e+001
0	 4.866680000008066e+000	 8.866680074997040e+000	 1.001829517849784e+001
0	 4.866680000008066e+000	 8.933340177755779e+000	 1.001641278389111e+001
0	 4.866680000008067e+000	 9.000000347171183e+000	 1.001462184182381e+001
0	 4.866680000008068e+000	 9.066660599907669e+000	 1.001291817201830e+001
0	 4.866680000008068e+000	 9.133320952629656e+000	 1.001129759391048e+001
0	 4.866680000008067e+000	 9.199981422001558e+000	 1.000975592664983e+001
0	 4.866680000008066e+000	 9.266642024687796e+000	 1.000828898909935e+001
0	 4.866680000008067e+000	 9.333302777352781e+000	 1.000689259983568e+001
0	 4.933340000004134e+000	 8.666700000016668e+000	 1.002482431741804e+001
0	 4.933340000004135e+000	 8.733360002791905e+000	 1.002261565256867e+001
0	 4.933340000004133e+000	 8.800020022230559e+000	 1.002051254314514e+001
0	 4.933340000004134e+000	 8.866680074997044e+000	 1.001851069981571e+001
0	 4.933340000004133e+000	 8.933340177755776e+000	 1.001660583295817e+001
0	 4.933340000004134e+000	 9.000000347171181e+000	 1.001479365265986e+001
0	 4.933340000004131e+000	 9.066660599907666e+000	 1.001306986871758e+001
0	 4.933340000004132e+000	 9.133320952629653e+000	 1.001143019063774e+001
0	 4.933340000004131e+000	 9.199981422001557e+000	 1.000987032763623e+001
0	 4.933340000004134e+000	 9.266642024687796e+000	 1.000838598863844e+001
0	 4.933340000004134e+000	 9.333302777352783e+000	 1.000697288227930e+001
0	 4.999999999999999e+000	 8.666700000016665e+000	 1.002507724879395e+001
0	 5.000000000000001e+000	 8.733360002791901e+000	 1.002284522805338e+001
0	 5.000000000000001e+000	 8.800020022230555e+000	 1.002072013798138e+001
0	 5.000000000000002e+000	 8.866680074997042e+000	 1.001869759415021e+001
0	 5.000000000000000e+000	 8.933340177755776e+000	 1.001677321183810e+001
0	 4.999999999999999e+000	 9.000000347171181e+000	 1.001494260602928e+001
0	 5.000000000000001e+000	 9.066660599907666e+000	 1.001320139141381e+001
0	 5.000000000000001e+000	 9.133320952629656e+000	 1.001154518238778e+001
0	 5.000000000000001e+000	 9.199981422001558e+000	 1.000996959305319e+001
0	 5.000000000000001e+000	 9.266642024687794e+000	 1.000847023721794e+001
0	 5.000000000000000e+000	 9.333302777352783e+000	 1.000704272839589e+001
0	 5.066659999995866e+000	 8.666700000016666e+000	 1.002529224932064e+001
0	 5.066659999995867e+000	 8.733360002791903e+000	 1.002304026457895e+001
0	 5.066659999995868e+000	 8.800020022230557e+000	 1.002089639961539e+001
0	 5.066659999995868e+000	 8.866680074997040e+000	 1.001885618972374e+001
0	 5.066659999995866e+000	 8.933340177755779e+000	 1.001691516990061e+001
0	 5.066659999995865e+000	 9.000000347171179e+000	 1.001506887484542e+001
0	 5.066659999995866e+000	 9.066660599907666e+000	 1.001331283896038e+001
0	 5.066659999995866e+000	 9.133320952629655e+000	 1.001164259635051e+001
0	 5.066659999995867e+000	 9.199981422001558e+000	 1.001005368082363e+001
0	 5.066659999995867e+000	 9.266642024687796e+000	 1.000854162589036e+001
0	 5.066659999995866e+000	 9.333302777352785e+000	 1.000710196476410e+001
0	 5.133319999991932e+000	 8.666700000016668e+000	 1.002546989815641e+001
0	 5.133319999991934e+000	 8.733360002791903e+000	 1.002320125526213e+001
0	 5.133319999991934e+000	 8.800020022230557e+000	 1.002104173751863e+001
0	 5.133319999991933e+000	 8.866680074997040e+000	 1.001898681475872e+001
0	 5.133319999991933e+000	 8.933340177755778e+000	 1.001703195651536e+001
0	 5.133319999991935e+000	 9.000000347171181e+000	 1.001517263202160e+001
0	 5.133319999991933e+000	 9.066660599907667e+000	 1.001340431021065e+001
0	 5.133319999991934e+000	 9.133320952629656e+000	 1.001172245971580e+001
0	 5.133319999991931e+000	 9.199981422001555e+000	 1.001012254887047e+001
0	 5.133319999991933e+000	 9.266642024687794e+000	 1.000860004570817e+001
0	 5.133319999991933e+000	 9.333302777352785e+000	 1.000715041796256e+001
0	 5.199979999988400e+000	 8.666700000016665e+000	 1.002561077445953e+001
0	 5.199979999988400e+000	 8.733360002791905e+000	 1.002332869321972e+001
0	 5.199979999988400e+000	 8.800020022230555e+000	 1.002115656116261e+001
0	 5.199979999988400e+000	 8.866680074997042e+000	 1.001908979747759e+001
0	 5.199979999988399e+000	 8.933340177755778e+000	 1.001712382105203e+001
0	 5.199979999988400e+000	 9.000000347171183e+000	 1.001525405047115e+001
0	 5.199979999988399e+000	 9.066660599907667e+000	 1.001347590401799e+001
0	 5.199979999988399e+000	 9.133320952629653e+000	 1.001178479967354e+001
0	 5.199979999988400e+000	 9.199981422001560e+000	 1.001017615511660e+001
0	 5.199979999988399e+000	 9.266642024687794e+000	 1.000864538772385e+001
0	 5.199979999988399e+000	 9.333302777352783e+000	 1.000718791456988e+001
0	 5.266639999985465e+000	 8.666700000016665e+000	 1.002571545738830e+001
0	 5.266639999985465e+000	 8.733360002791901e+000	 1.002342307156850e+001
0	 5.266639999985467e+000	 8.800020022230555e+000	 1.002124128001875e+001
0	 5.266639999985465e+000	 8.866680074997042e+000	 1.001916546610275e+001
0	 5.266639999985465e+000	 8.933340177755778e+000	 1.001719101288033e+001
0	 5.266639999985466e+000	 9.000000347171183e+000	 1.001531330310735e+001
0	 5.266639999985465e+000	 9.066660599907667e+000	 1.001352771923578e+001
0	 5.266639999985466e+000	 9.133320952629656e+000	 1.001182964341363e+001
0	 5.266639999985466e+000	 9.199981422001558e+000	 1.001021445748495e+001
0	 5.266639999985466e+000	 9.266642024687796e+000	 1.000867754298990e+001
0	 5.266639999985466e+000	 9.333302777352781e+000	 1.000721428116469e+001
0	 5.333299999983334e+000	 8.666700000016666e+000	 1.002578452610099e+001
0	 5.333299999983334e+000	 8.733360002791903e+000	 1.002348488342524e+001
0	 5.333299999983332e+000	 8.800020022230553e+000	 1.002129630355855e+001
0	 5.333299999983335e+000	 8.866680074997040e+000	 1.001921414885664e+001
0	 5.333299999983334e+000	 8.933340177755779e+000	 1.001723378136994e+001
0	 5.333299999983332e+000	 9.000000347171179e+000	 1.001535056284357e+001
0	 5.333299999983335e+000	 9.066660599907667e+000	 1.001355985471742e+001
0	 5.333299999983334e+000	 9.133320952629655e+000	 1.001185701812594e+001
0	 5.333299999983334e+000	 9.199981422001560e+000	 1.001023741389842e+001
0	 5.333299999983335e+000	 9.266642024687798e+000	 1.000869640255876e+001
0	 5.333299999983335e+000	 9.333302777352785e+000	 1.000722934432558e+001
0	 4.666700000016665e+000	 9.333302777352781e+000	 1.000659086875655e+001
0	 4.666700000016666e+000	 9.399973674588177e+000	 1.000536546037851e+001
0	 4.666700000016667e+000	 9.466644621844621e+000	 1.000428243448576e+001
0	 4.666700000016667e+000	 9.533315502450000e+000	 1.000333420535535e+001
0	 4.666700000016666e+000	 9.599986199732197e+000	 1.000251319006487e+001
0	 4.666700000016666e+000	 9.666656597019095e+000	 1.000181180849234e+001
0	 4.666700000016666e+000	 9.733326577638573e+000	 1.000122248331609e+001
0	 4.666700000016665e+000	 9.799996024918521e+000	 1.000073764001469e+001
0	 4.666700000016666e+000	 9.866664822186822e+000	 1.000034970686701e+001
0	 4.666700000016666e+000	 9.933332852771352e+000	 1.000005111495240e+001
0	 4.666700000016666e+000	 1.000000000000000e+001	 9.999834298150692e+000
0	 4.733360000014534e+000	 9.333302777352785e+000	 1.000670141965295e+001
0	 4.733360000014533e+000	 9.399973674588173e+000	 1.000545345976657e+001
0	 4.733360000014533e+000	 9.466644621844621e+000	 1.000435010965851e+001
0	 4.733360000014532e+000	 9.533315502450000e+000	 1.000338383354746e+001
0	 4.733360000014533e+000	 9.599986199732197e+000	 1.000254709850562e+001
0	 4.733360000014534e+000	 9.666656597019095e+000	 1.000183237445858e+001
0	 4.733360000014534e+000	 9.733326577638577e+000	 1.000123213418517e+001
0	 4.733360000014533e+000	 9.799996024918524e+000	 1.000073885331733e+001
0	 4.733360000014533e+000	 9.866664822186822e+000	 1.000034501034056e+001
0	 4.733360000014534e+000	 9.933332852771356e+000	 1.000004308659336e+001
0	 4.733360000014534e+000	 1.000000000000000e+001	 9.999825566268211e+000
0	 4.800020000011601e+000	 9.333302777352783e+000	 1.000680205448645e+001
0	 4.800020000011600e+000	 9.399973674588173e+000	 1.000553392645332e+001
0	 4.800020000011599e+000	 9.466644621844619e+000	 1.000441245016757e+001
0	 4.800020000011599e+000	 9.533315502450000e+000	 1.000343013606197e+001
0	 4.800020000011600e+000	 9.599986199732195e+000	 1.000257949747117e+001
0	 4.800020000011601e+000	 9.666656597019093e+000	 1.000185305063154e+001
0	 4.800020000011600e+000	 9.733326577638577e+000	 1.000124331468127e+001
0	 4.800020000011601e+000	 9.799996024918523e+000	 1.000074281166012e+001
0	 4.800020000011601e+000	 9.866664822186820e+000	 1.000034406650963e+001
0	 4.800020000011599e+000	 9.933332852771352e+000	 1.000003960707321e+001
0	 4.800020000011600e+000	 1.000000000000000e+001	 9.999821964096334e+000
0	 4.866680000008067e+000	 9.333302777352781e+000	 1.000689259983568e+001
0	 4.866680000008065e+000	 9.399973674588177e+000	 1.000560662239609e+001
0	 4.866680000008066e+000	 9.466644621844619e+000	 1.000446915067650e+001
0	 4.866680000008066e+000	 9.533315502450002e+000	 1.000347273759559e+001
0	 4.866680000008068e+000	 9.599986199732198e+000	 1.000260993901793e+001
0	 4.866680000008067e+000	 9.666656597019093e+000	 1.000187331375374e+001
0	 4.866680000008065e+000	 9.733326577638573e+000	 1.000125542355882e+001
0	 4.866680000008068e+000	 9.799996024918524e+000	 1.000074883313451e+001
0	 4.866680000008066e+000	 9.866664822186824e+000	 1.000034611012791e+001
0	 4.866680000008065e+000	 9.933332852771352e+000	 1.000003982513178e+001
0	 4.866680000008066e+000	 1.000000000000000e+001	 9.999822551685105e+000
0	 4.933340000004134e+000	 9.333302777352783e+000	 1.000697288227930e+001
0	 4.933340000004132e+000	 9.399973674588177e+000	 1.000567130955230e+001
0	 4.933340000004132e+000	 9.466644621844619e+000	 1.000451990584875e+001
0	 4.933340000004132e+000	 9.533315502450002e+000	 1.000351126284499e+001
0	 4.933340000004134e+000	 9.599986199732195e+000	 1.000263797520250e+001
0	 4.933340000004134e+000	 9.666656597019095e+000	 1.000189264056779e+001
0	 4.933340000004133e+000	 9.733326577638575e+000	 1.000126785957220e+001
0	 4.933340000004134e+000	 9.799996024918523e+000	 1.000075623583213e+001
0	 4.933340000004133e+000	 9.866664822186822e+000	 1.000035037594889e+001
0	 4.933340000004134e+000	 9.933332852771354e+000	 1.000004288950901e+001
0	 4.933340000004134e+000	 1.000000000000000e+001	 9.999826389084454e+000
0	 5.000000000000000e+000	 9.333302777352783e+000	 1.000704272839588e+001
0	 5.000000000000001e+000	 9.399973674588180e+000	 1.000572774987933e+001
0	 5.000000000000000e+000	 9.466644621844619e+000	 1.000456441034790e+001
0	 4.999999999999999e+000	 9.533315502450000e+000	 1.000354533650687e+001
0	 5.000000000000001e+000	 9.599986199732198e+000	 1.000266315808132e+001
0	 5.000000000000000e+000	 9.666656597019092e+000	 1.000191050781615e+001
0	 5.000000000000000e+000	 9.733326577638575e+000	 1.000128002147578e+001
0	 5.000000000000000e+000	 9.799996024918523e+000	 1.000076433784451e+001
0	 5.000000000000001e+000	 9.866664822186824e+000	 1.000035609872620e+001
0	 5.000000000000002e+000	 9.933332852771352e+000	 1.000004794894479e+001
0	 5.000000000000000e+000	 1.000000000000000e+001	 9.999832536344330e+000
0	 5.066659999995866e+000	 9.333302777352785e+000	 1.000710196476410e+001
0	 5.066659999995867e+000	 9.399973674588178e+000	 1.000577570533455e+001
0	 5.066659999995866e+000	 9.466644621844619e+000	 1.000460235883744e+001
0	 5.066659999995865e+000	 9.533315502449998e+000	 1.000357458327791e+001
0	 5.066659999995866e+000	 9.599986199732197e+000	 1.000268503971091e+001
0	 5.066659999995866e+000	 9.666656597019095e+000	 1.000192639224139e+001
0	 5.066659999995866e+000	 9.733326577638577e+000	 1.000129130802403e+001
0	 5.066659999995867e+000	 9.799996024918524e+000	 1.000077245726319e+001
0	 5.066659999995867e+000	 9.866664822186824e+000	 1.000036251321339e+001
0	 5.066659999995866e+000	 9.933332852771354e+000	 1.000005415217894e+001
0	 5.066659999995866e+000	 1.000000000000000e+001	 9.999840053514728e+000
0	 5.133319999991933e+000	 9.333302777352785e+000	 1.000715041796256e+001
0	 5.133319999991931e+000	 9.399973674588177e+000	 1.000581493787534e+001
0	 5.133319999991932e+000	 9.466644621844619e+000	 1.000463344598090e+001
0	 5.133319999991932e+000	 9.533315502450002e+000	 1.000359862785474e+001
0	 5.133319999991934e+000	 9.599986199732197e+000	 1.000270317214775e+001
0	 5.133319999991933e+000	 9.666656597019095e+000	 1.000193977058610e+001
0	 5.133319999991932e+000	 9.733326577638575e+000	 1.000130111797120e+001
0	 5.133319999991933e+000	 9.799996024918521e+000	 1.000077991217981e+001
0	 5.133319999991934e+000	 9.866664822186822e+000	 1.000036885416396e+001
0	 5.133319999991933e+000	 9.933332852771358e+000	 1.000006064795144e+001
0	 5.133319999991932e+000	 1.000000000000000e+001	 9.999848000645756e+000
0	 5.199979999988399e+000	 9.333302777352783e+000	 1.000718791456988e+001
0	 5.199979999988400e+000	 9.399973674588175e+000	 1.000584520945904e+001
0	 5.199979999988399e+000	 9.466644621844617e+000	 1.000465736644179e+001
0	 5.199979999988400e+000	 9.533315502450002e+000	 1.000361709493413e+001
0	 5.199979999988397e+000	 9.599986199732193e+000	 1.000271710744832e+001
0	 5.199979999988399e+000	 9.666656597019092e+000	 1.000195011959274e+001
0	 5.199979999988400e+000	 9.733326577638573e+000	 1.000130885007175e+001
0	 5.199979999988400e+000	 9.799996024918523e+000	 1.000078602068582e+001
0	 5.199979999988400e+000	 9.866664822186822e+000	 1.000037435633156e+001
0	 5.199979999988400e+000	 9.933332852771354e+000	 1.000006658500210e+001
0	 5.199979999988400e+000	 1.000000000000000e+001	 9.999855437787133e+000
0	 5.266639999985466e+000	 9.333302777352781e+000	 1.000721428116469e+001
0	 5.266639999985467e+000	 9.399973674588178e+000	 1.000586628204309e+001
0	 5.266639999985467e+000	 9.466644621844619e+000	 1.000467381488359e+001
0	 5.266639999985466e+000	 9.533315502450002e+000	 1.000362960921267e+001
0	 5.266639999985467e+000	 9.599986199732197e+000	 1.000272639766915e+001
0	 5.266639999985465e+000	 9.666656597019097e+000	 1.000195691600389e+001
0	 5.266639999985467e+000	 9.733326577638577e+000	 1.000131390308005e+001
0	 5.266639999985466e+000	 9.799996024918524e+000	 1.000079010087284e+001
0	 5.266639999985466e+000	 9.866664822186822e+000	 1.000037825446974e+001
0	 5.266639999985466e+000	 9.933332852771354e+000	 1.000007111207090e+001
0	 5.266639999985466e+000	 1.000000000000000e+001	 9.999861424989085e+000
0	 5.333299999983335e+000	 9.333302777352785e+000	 1.000722934432558e+001
0	 5.333299999983335e+000	 9.399973674588175e+000	 1.000587791758484e+001
0	 5.333299999983333e+000	 9.466644621844619e+000	 1.000468248596984e+001
0	 5.333299999983335e+000	 9.533315502450002e+000	 1.000363579538712e+001
0	 5.333299999983334e+000	 9.599986199732197e+000	 1.000273059486666e+001
0	 5.333299999983335e+000	 9.666656597019097e+000	 1.000195963656209e+001
0	 5.333299999983334e+000	 9.733326577638577e+000	 1.000131567575047e+001
0	 5.333299999983334e+000	 9.799996024918524e+000	 1.000079147083239e+001
0	 5.333299999983334e+000	 9.866664822186822e+000	 1.000037978333204e+001
0	 5.333299999983334e+000	 9.933332852771354e+000	 1.000007337789761e+001
0	 5.333299999983334e+000	 1.000000000000000e+001	 9.999865022301400e+000
0	 5.333299999983334e+000	 0.000000000000000e+000	 1.026099053444941e+001
0	 5.333299999983336e+000	 6.666714722864757e-002	 1.026084969828268e+001
0	 5.333299999983333e+000	 1.333351778131789e-001	 1.026181477604359e+001
0	 5.333299999983336e+000	 2.000039750814772e-001	 1.026376166742656e+001
0	 5.333299999983334e+000	 2.666734223614255e-001	 1.026656628186243e+001
0	 5.333299999983334e+000	 3.333434029809068e-001	 1.027010453851770e+001
0	 5.333299999983334e+000	 4.000138002678044e-001	 1.027425236629397e+001
0	 5.333299999983334e+000	 4.666844975500011e-001	 1.027888570382759e+001
0	 5.333299999983333e+000	 5.333553781553803e-001	 1.028388049948960e+001
0	 5.333299999983335e+000	 6.000263254118248e-001	 1.028911271138599e+001
0	 5.333299999983334e+000	 6.666972226472175e-001	 1.029445830735804e+001
0	 5.399969999982149e+000	 0.000000000000000e+000	 1.026123834103634e+001
0	 5.399969999982148e+000	 6.666714722864756e-002	 1.026076560911165e+001
0	 5.399969999982151e+000	 1.333351778131789e-001	 1.026112307820763e+001
0	 5.399969999982150e+000	 2.000039750814772e-001	 1.026223561780505e+001
0	 5.399969999982148e+000	 2.666734223614254e-001	 1.026402810723066e+001
0	 5.399969999982150e+000	 3.333434029809069e-001	 1.026642543565613e+001
0	 5.399969999982151e+000	 4.000138002678045e-001	 1.026935250209756e+001
0	 5.399969999982149e+000	 4.666844975500012e-001	 1.027273421541504e+001
0	 5.399969999982152e+000	 5.333553781553801e-001	 1.027649549431256e+001
0	 5.399969999982148e+000	 6.000263254118247e-001	 1.028056126733814e+001
0	 5.399969999982150e+000	 6.666972226472177e-001	 1.028485647288426e+001
0	 5.466639999981866e+000	 0.000000000000000e+000	 1.025970505556068e+001
0	 5.466639999981866e+000	 6.666714722864756e-002	 1.025910461381487e+001
0	 5.466639999981866e+000	 1.333351778131789e-001	 1.025909004741800e+001
0	 5.466639999981866e+000	 2.000039750814772e-001	 1.025962818666436e+001
0	 5.466639999981865e+000	 2.666734223614255e-001	 1.026068587166568e+001
0	 5.466639999981866e+000	 3.333434029809069e-001	 1.026222995235030e+001
0	 5.466639999981865e+000	 4.000138002678044e-001	 1.026422728846247e+001
0	 5.466639999981866e+000	 4.666844975500011e-001	 1.026664474956192e+001
0	 5.466639999981867e+000	 5.333553781553804e-001	 1.026944921502377e+001
0	 5.466639999981865e+000	 6.000263254118247e-001	 1.027260757403862e+001
0	 5.466639999981865e+000	 6.666972226472178e-001	 1.027608672561292e+001
0	 5.533309999982383e+000	 0.000000000000000e+000	 1.025652670422667e+001
0	 5.533309999982382e+000	 6.666714722864757e-002	 1.025596326521149e+001
0	 5.533309999982382e+000	 1.333351778131789e-001	 1.025577464866597e+001
0	 5.533309999982384e+000	 2.000039750814772e-001	 1.025596263645754e+001
0	 5.533309999982381e+000	 2.666734223614256e-001	 1.025652902012471e+001
0	 5.533309999982382e+000	 3.333434029809069e-001	 1.025747560087612e+001
0	 5.533309999982384e+000	 4.000138002678045e-001	 1.025880418958987e+001
0	 5.533309999982382e+000	 4.666844975500011e-001	 1.026051660681315e+001
0	 5.533309999982382e+000	 5.333553781553803e-001	 1.026261468276205e+001
0	 5.533309999982383e+000	 6.000263254118247e-001	 1.026510025732168e+001
0	 5.533309999982381e+000	 6.666972226472175e-001	 1.026797518004650e+001
0	 5.599979999983598e+000	 0.000000000000000e+000	 1.025183931323857e+001
0	 5.599979999983598e+000	 6.666714722864756e-002	 1.025143811612072e+001
0	 5.599979999983597e+000	 1.333351778131789e-001	 1.025123584694277e+001
0	 5.599979999983599e+000	 2.000039750814772e-001	 1.025126222963773e+001
0	 5.599979999983599e+000	 2.666734223614256e-001	 1.025154699756499e+001
0	 5.599979999983599e+000	 3.333434029809068e-001	 1.025211989350947e+001
0	 5.599979999983598e+000	 4.000138002678044e-001	 1.025301066968094e+001
0	 5.599979999983598e+000	 4.666844975500013e-001	 1.025424908771365e+001
0	 5.599979999983598e+000	 5.333553781553804e-001	 1.025586491866619e+001
0	 5.599979999983598e+000	 6.000263254118246e-001	 1.025788794302153e+001
0	 5.599979999983600e+000	 6.666972226472177e-001	 1.026034795068746e+001
0	 5.666649999985415e+000	 0.000000000000000e+000	 1.024577890880062e+001
0	 5.666649999985414e+000	 6.666714722864756e-002	 1.024562571936169e+001
0	 5.666649999985417e+000	 1.333351778131789e-001	 1.024553260723963e+001
0	 5.666649999985416e+000	 2.000039750814772e-001	 1.024555022865799e+001
0	 5.666649999985414e+000	 2.666734223614254e-001	 1.024572924894372e+001
0	 5.666649999985414e+000	 3.333434029809069e-001	 1.024612034252623e+001
0	 5.666649999985414e+000	 4.000138002678043e-001	 1.024677419293683e+001
0	 5.666649999985415e+000	 4.666844975500012e-001	 1.024774149280833e+001
0	 5.666649999985416e+000	 5.333553781553803e-001	 1.024907294387496e+001
0	 5.666649999985415e+000	 6.000263254118247e-001	 1.025081925697240e+001
0	 5.666649999985415e+000	 6.666972226472177e-001	 1.025303115203822e+001
0	 5.733319999987732e+000	 0.000000000000000e+000	 1.023848151711704e+001
0	 5.733319999987730e+000	 6.666714722864754e-002	 1.023862262775358e+001
0	 5.733319999987733e+000	 1.333351778131789e-001	 1.023872389454774e+001
0	 5.733319999987733e+000	 2.000039750814772e-001	 1.023884989597140e+001
0	 5.733319999987731e+000	 2.666734223614255e-001	 1.023906521921811e+001
0	 5.733319999987730e+000	 3.333434029809068e-001	 1.023943446020228e+001
0	 5.733319999987731e+000	 4.000138002678044e-001	 1.024002222355868e+001
0	 5.733319999987732e+000	 4.666844975500011e-001	 1.024089312264209e+001
0	 5.733319999987732e+000	 5.333553781553803e-001	 1.024211177952714e+001
0	 5.733319999987731e+000	 6.000263254118247e-001	 1.024374282500851e+001
0	 5.733319999987732e+000	 6.666972226472178e-001	 1.024585089860127e+001
0	 5.799989999990449e+000	 0.000000000000000e+000	 1.023008316439205e+001
0	 5.799989999990448e+000	 6.666714722864756e-002	 1.023052539411551e+001
0	 5.799989999990449e+000	 1.333351778131790e-001	 1.023086867385834e+001
0	 5.799989999990448e+000	 2.000039750814772e-001	 1.023118449403105e+001
0	 5.799989999990447e+000	 2.666734223614255e-001	 1.023154435334534e+001
0	 5.799989999990451e+000	 3.333434029809069e-001	 1.023201975881347e+001
0	 5.799989999990449e+000	 4.000138002678044e-001	 1.023268222574766e+001
0	 5.799989999990448e+000	 4.666844975500012e-001	 1.023360327775982e+001
0	 5.799989999990448e+000	 5.333553781553804e-001	 1.023485444676151e+001
0	 5.799989999990448e+000	 6.000263254118247e-001	 1.023650727296409e+001
0	 5.799989999990448e+000	 6.666972226472177e-001	 1.023863330487902e+001
0	 5.866659999993464e+000	 0.000000000000000e+000	 1.022071987682986e+001
0	 5.866659999993465e+000	 6.666714722864756e-002	 1.022143057126663e+001
0	 5.866659999993465e+000	 1.333351778131789e-001	 1.022202591016262e+001
0	 5.866659999993463e+000	 2.000039750814772e-001	 1.022257728528996e+001
0	 5.866659999993466e+000	 2.666734223614256e-001	 1.022315609628263e+001
0	 5.866659999993464e+000	 3.333434029809069e-001	 1.022383375063568e+001
0	 5.866659999993465e+000	 4.000138002678045e-001	 1.022468166370489e+001
0	 5.866659999993464e+000	 4.666844975500011e-001	 1.022577125870642e+001
0	 5.866659999993465e+000	 5.333553781553801e-001	 1.022717396671686e+001
0	 5.866659999993465e+000	 6.000263254118248e-001	 1.022896122667333e+001
0	 5.866659999993466e+000	 6.666972226472178e-001	 1.023120448537393e+001
0	 5.933329999996681e+000	 0.000000000000000e+000	 1.021052768063468e+001
0	 5.933329999996681e+000	 6.666714722864756e-002	 1.021143471202607e+001
0	 5.933329999996682e+000	 1.333351778131789e-001	 1.021225456845175e+001
0	 5.933329999996682e+000	 2.000039750814773e-001	 1.021305153220121e+001
0	 5.933329999996681e+000	 2.666734223614256e-001	 1.021388989298713e+001
0	 5.933329999996682e+000	 3.333434029809069e-001	 1.021483394794475e+001
0	 5.933329999996681e+000	 4.000138002678044e-001	 1.021594800163149e+001
0	 5.933329999996681e+000	 4.666844975500012e-001	 1.021729636602677e+001
0	 5.933329999996682e+000	 5.333553781553803e-001	 1.021894336053192e+001
0	 5.933329999996682e+000	 6.000263254118248e-001	 1.022095331197047e+001
0	 5.933329999996681e+000	 6.666972226472175e-001	 1.022339055458845e+001
0	 6.000000000000000e+000	 0.000000000000000e+000	 1.019964260201069e+001
0	 6.000000000000001e+000	 6.666714722864757e-002	 1.020063436921294e+001
0	 6.000000000000000e+000	 1.333351778131789e-001	 1.020161361371692e+001
0	 6.000000000000000e+000	 2.000039750814772e-001	 1.020263049721782e+001
0	 6.000000000000001e+000	 2.666734223614256e-001	 1.020373518841601e+001
0	 6.000000000000000e+000	 3.333434029809069e-001	 1.020497786301651e+001
0	 6.000000000000001e+000	 4.000138002678044e-001	 1.020640870372861e+001
0	 5.999999999999998e+000	 4.666844975500010e-001	 1.020807790026575e+001
0	 6.000000000000000e+000	 5.333553781553804e-001	 1.021003564934548e+001
0	 6.000000000000000e+000	 6.000263254118248e-001	 1.021233215468970e+001
0	 6.000000000000000e+000	 6.666972226472177e-001	 1.021501762702500e+001
0	 5.333299999983334e+000	 6.666972226472175e-001	 1.029445830735804e+001
0	 5.333299999983334e+000	 7.333579753122048e-001	 1.029973012483424e+001
0	 5.333299999983334e+000	 8.000185779984417e-001	 1.030488027030352e+001
0	 5.333299999983334e+000	 8.666790473703453e-001	 1.030999120936942e+001
0	 5.333299999983335e+000	 9.333394000923322e-001	 1.031514540653517e+001
0	 5.333299999983333e+000	 9.999996528288189e-001	 1.032042532520383e+001
0	 5.333299999983334e+000	 1.066659822244222e+000	 1.032591342767818e+001
0	 5.333299999983335e+000	 1.133319925002959e+000	 1.033169217516077e+001
0	 5.333299999983334e+000	 1.199979977769445e+000	 1.033784402775394e+001
0	 5.333299999983333e+000	 1.266639997208098e+000	 1.034445144445985e+001
0	 5.333299999983335e+000	 1.333299999983334e+000	 1.035159688318044e+001
0	 5.399969999982150e+000	 6.666972226472177e-001	 1.028485647288425e+001
0	 5.399969999982149e+000	 7.333579753122046e-001	 1.028925568467366e+001
0	 5.399969999982150e+000	 8.000185779984418e-001	 1.029372899129123e+001
0	 5.399969999982149e+000	 8.666790473703453e-001	 1.029834263680856e+001
0	 5.399969999982148e+000	 9.333394000923320e-001	 1.030316286411090e+001
0	 5.399969999982149e+000	 9.999996528288190e-001	 1.030825591489718e+001
0	 5.399969999982151e+000	 1.066659822244222e+000	 1.031368802967999e+001
0	 5.399969999982148e+000	 1.133319925002958e+000	 1.031952544778559e+001
0	 5.399969999982149e+000	 1.199979977769445e+000	 1.032583440735392e+001
0	 5.399969999982150e+000	 1.266639997208098e+000	 1.033268114533862e+001
0	 5.399969999982150e+000	 1.333299999983334e+000	 1.034013189750705e+001
0	 5.466639999981865e+000	 6.666972226472178e-001	 1.027608672561292e+001
0	 5.466639999981867e+000	 7.333579753122050e-001	 1.027980083468774e+001
0	 5.466639999981864e+000	 8.000185779984415e-001	 1.028372190622269e+001
0	 5.466639999981866e+000	 8.666790473703452e-001	 1.028790197296126e+001
0	 5.466639999981865e+000	 9.333394000923321e-001	 1.029239306644396e+001
0	 5.466639999981866e+000	 9.999996528288188e-001	 1.029724721700838e+001
0	 5.466639999981865e+000	 1.066659822244222e+000	 1.030251645378917e+001
0	 5.466639999981866e+000	 1.133319925002959e+000	 1.030825280471803e+001
0	 5.466639999981867e+000	 1.199979977769445e+000	 1.031450829652374e+001
0	 5.466639999981866e+000	 1.266639997208098e+000	 1.032133495473219e+001
0	 5.466639999981866e+000	 1.333299999983334e+000	 1.032878480366634e+001
0	 5.533309999982381e+000	 6.666972226472175e-001	 1.026797518004650e+001
0	 5.533309999982381e+000	 7.333579753122048e-001	 1.027117419164150e+001
0	 5.533309999982382e+000	 8.000185779984415e-001	 1.027465827099221e+001
0	 5.533309999982384e+000	 8.666790473703456e-001	 1.027846724977668e+001
0	 5.533309999982382e+000	 9.333394000923322e-001	 1.028264095851067e+001
0	 5.533309999982383e+000	 9.999996528288191e-001	 1.028721922654768e+001
0	 5.533309999982382e+000	 1.066659822244222e+000	 1.029224188207892e+001
0	 5.533309999982381e+000	 1.133319925002958e+000	 1.029774875213339e+001
0	 5.533309999982381e+000	 1.199979977769445e+000	 1.030377966257782e+001
0	 5.533309999982383e+000	 1.266639997208098e+000	 1.031037443811668e+001
0	 5.533309999982381e+000	 1.333299999983334e+000	 1.031757290229225e+001
0	 5.599979999983600e+000	 6.666972226472177e-001	 1.026034795068746e+001
0	 5.599979999983598e+000	 7.333579753122048e-001	 1.026318437229995e+001
0	 5.599979999983598e+000	 8.000185779984416e-001	 1.026633734149407e+001
0	 5.599979999983598e+000	 8.666790473703452e-001	 1.026983649920399e+001
0	 5.599979999983597e+000	 9.333394000923319e-001	 1.027371148528736e+001
0	 5.599979999983599e+000	 9.999996528288191e-001	 1.027799193852531e+001
0	 5.599979999983598e+000	 1.066659822244222e+000	 1.028270749662249e+001
0	 5.599979999983600e+000	 1.133319925002959e+000	 1.028788779620701e+001
0	 5.599979999983598e+000	 1.199979977769445e+000	 1.029356247283053e+001
0	 5.599979999983599e+000	 1.266639997208098e+000	 1.029976116096820e+001
0	 5.599979999983598e+000	 1.333299999983334e+000	 1.030651349401872e+001
0	 5.666649999985415e+000	 6.666972226472177e-001	 1.025303115203822e+001
0	 5.666649999985416e+000	 7.333579753122049e-001	 1.025563999342809e+001
0	 5.666649999985413e+000	 8.000185779984415e-001	 1.025855837362256e+001
0	 5.666649999985414e+000	 8.666790473703451e-001	 1.026180775319234e+001
0	 5.666649999985414e+000	 9.333394000923319e-001	 1.026540959175034e+001
0	 5.666649999985416e+000	 9.999996528288189e-001	 1.026938534795156e+001
0	 5.666649999985416e+000	 1.066659822244222e+000	 1.027375647949309e+001
0	 5.666649999985414e+000	 1.133319925002959e+000	 1.027854444311421e+001
0	 5.666649999985418e+000	 1.199979977769445e+000	 1.028377069459629e+001
0	 5.666649999985416e+000	 1.266639997208098e+000	 1.028945668876289e+001
0	 5.666649999985414e+000	 1.333299999983334e+000	 1.029562387947970e+001
0	 5.733319999987732e+000	 6.666972226472178e-001	 1.024585089860127e+001
0	 5.733319999987732e+000	 7.333579753122048e-001	 1.024834967179097e+001
0	 5.733319999987729e+000	 8.000185779984415e-001	 1.025112062327195e+001
0	 5.733319999987730e+000	 8.666790473703452e-001	 1.025417904369089e+001
0	 5.733319999987731e+000	 9.333394000923322e-001	 1.025754022287594e+001
0	 5.733319999987732e+000	 9.999996528288190e-001	 1.026121944983664e+001
0	 5.733319999987732e+000	 1.066659822244222e+000	 1.026523201276396e+001
0	 5.733319999987732e+000	 1.133319925002959e+000	 1.026959319903030e+001
0	 5.733319999987732e+000	 1.199979977769445e+000	 1.027431829518951e+001
0	 5.733319999987731e+000	 1.266639997208098e+000	 1.027942258697686e+001
0	 5.733319999987731e+000	 1.333299999983334e+000	 1.028492135930912e+001
0	 5.799989999990448e+000	 6.666972226472177e-001	 1.023863330487902e+001
0	 5.799989999990448e+000	 7.333579753122048e-001	 1.024112202415357e+001
0	 5.799989999990449e+000	 8.000185779984417e-001	 1.024382334633652e+001
0	 5.799989999990448e+000	 8.666790473703451e-001	 1.024674840264879e+001
0	 5.799989999990448e+000	 9.333394000923323e-001	 1.024990832364047e+001
0	 5.799989999990447e+000	 9.999996528288188e-001	 1.025331423919083e+001
0	 5.799989999990448e+000	 1.066659822244222e+000	 1.025697727850833e+001
0	 5.799989999990448e+000	 1.133319925002958e+000	 1.026090857013062e+001
0	 5.799989999990449e+000	 1.199979977769445e+000	 1.026511924192456e+001
0	 5.799989999990447e+000	 1.266639997208098e+000	 1.026962042108624e+001
0	 5.799989999990449e+000	 1.333299999983334e+000	 1.027442323414095e+001
0	 5.866659999993466e+000	 6.666972226472178e-001	 1.023120448537394e+001
0	 5.866659999993463e+000	 7.333579753122048e-001	 1.023376566728090e+001
0	 5.866659999993465e+000	 8.000185779984417e-001	 1.023646579871057e+001
0	 5.866659999993464e+000	 8.666790473703452e-001	 1.023931386201520e+001
0	 5.866659999993464e+000	 9.333394000923323e-001	 1.024231883902025e+001
0	 5.866659999993464e+000	 9.999996528288189e-001	 1.024548971102438e+001
0	 5.866659999993465e+000	 1.066659822244222e+000	 1.024883545879943e+001
0	 5.866659999993465e+000	 1.133319925002959e+000	 1.025236506259050e+001
0	 5.866659999993466e+000	 1.199979977769445e+000	 1.025608750211588e+001
0	 5.866659999993464e+000	 1.266639997208098e+000	 1.026001175656715e+001
0	 5.866659999993464e+000	 1.333299999983334e+000	 1.026414680460912e+001
0	 5.933329999996681e+000	 6.666972226472175e-001	 1.022339055458845e+001
0	 5.933329999996681e+000	 7.333579753122046e-001	 1.022608921793796e+001
0	 5.933329999996682e+000	 8.000185779984416e-001	 1.022884723628835e+001
0	 5.933329999996682e+000	 8.666790473703454e-001	 1.023167345373927e+001
0	 5.933329999996682e+000	 9.333394000923322e-001	 1.023457671399161e+001
0	 5.933329999996681e+000	 9.999996528288190e-001	 1.023756586034752e+001
0	 5.933329999996681e+000	 1.066659822244222e+000	 1.024064973571048e+001
0	 5.933329999996682e+000	 1.133319925002959e+000	 1.024383718258523e+001
0	 5.933329999996682e+000	 1.199979977769445e+000	 1.024713704307785e+001
0	 5.933329999996682e+000	 1.266639997208098e+000	 1.025055815889573e+001
0	 5.933329999996681e+000	 1.333299999983334e+000	 1.025410937134758e+001
0	 6.000000000000000e+000	 6.666972226472177e-001	 1.021501762702500e+001
0	 6.000000000000000e+000	 7.333579753122046e-001	 1.021790129288975e+001
0	 6.000000000000000e+000	 8.000185779984417e-001	 1.022076691496416e+001
0	 6.000000000000002e+000	 8.666790473703454e-001	 1.022362520977017e+001
0	 6.000000000000000e+000	 9.333394000923323e-001	 1.022648689353085e+001
0	 5.999999999999999e+000	 9.999996528288190e-001	 1.022936268217053e+001
0	 6.000000000000000e+000	 1.066659822244222e+000	 1.023226329131472e+001
0	 6.000000000000001e+000	 1.133319925002959e+000	 1.023519943629017e+001
0	 6.000000000000000e+000	 1.199979977769445e+000	 1.023818183212487e+001
0	 6.000000000000000e+000	 1.266639997208098e+000	 1.024122119354807e+001
0	 6.000000000000000e+000	 1.333299999983334e+000	 1.024432823499028e+001
0	 5.333299999983335e+000	 1.333299999983334e+000	 1.035159688318044e+001
0	 5.333299999983333e+000	 1.399969999982150e+000	 1.035877638824803e+001
0	 5.333299999983335e+000	 1.466639999981867e+000	 1.036544559063136e+001
0	 5.333299999983333e+000	 1.533309999982383e+000	 1.037162967656771e+001
0	 5.333299999983335e+000	 1.599979999983599e+000	 1.037735383229438e+001
0	 5.333299999983334e+000	 1.666649999985416e+000	 1.038264324404866e+001
0	 5.333299999983334e+000	 1.733319999987733e+000	 1.038752309806784e+001
0	 5.333299999983333e+000	 1.799989999990449e+000	 1.039201858058918e+001
0	 5.333299999983334e+000	 1.866659999993466e+000	 1.039615487784997e+001
0	 5.333299999983334e+000	 1.933329999996684e+000	 1.039995717608748e+001
0	 5.333299999983333e+000	 2.000000000000000e+000	 1.040345066153899e+001
0	 5.399969999982150e+000	 1.333299999983334e+000	 1.034013189750705e+001
0	 5.399969999982148e+000	 1.399969999982150e+000	 1.034759896557647e+001
0	 5.399969999982150e+000	 1.466639999981866e+000	 1.035446848330040e+001
0	 5.399969999982149e+000	 1.533309999982383e+000	 1.036077093263771e+001
0	 5.399969999982148e+000	 1.599979999983599e+000	 1.036653679554726e+001
0	 5.399969999982151e+000	 1.666649999985416e+000	 1.037179655398792e+001
0	 5.399969999982149e+000	 1.733319999987733e+000	 1.037658068991856e+001
0	 5.399969999982148e+000	 1.799989999990450e+000	 1.038091968529800e+001
0	 5.399969999982151e+000	 1.866659999993466e+000	 1.038484402208511e+001
0	 5.399969999982151e+000	 1.933329999996683e+000	 1.038838418223872e+001
0	 5.399969999982148e+000	 2.000000000000000e+000	 1.039157064771769e+001
0	 5.466639999981866e+000	 1.333299999983334e+000	 1.032878480366635e+001
0	 5.466639999981865e+000	 1.399969999982150e+000	 1.033623730495413e+001
0	 5.466639999981866e+000	 1.466639999981867e+000	 1.034305798105653e+001
0	 5.466639999981866e+000	 1.533309999982383e+000	 1.034928144744745e+001
0	 5.466639999981867e+000	 1.599979999983599e+000	 1.035494231960084e+001
0	 5.466639999981866e+000	 1.666649999985416e+000	 1.036007521299061e+001
0	 5.466639999981864e+000	 1.733319999987733e+000	 1.036471474309067e+001
0	 5.466639999981867e+000	 1.799989999990450e+000	 1.036889552537492e+001
0	 5.466639999981866e+000	 1.866659999993466e+000	 1.037265217531727e+001
0	 5.466639999981868e+000	 1.933329999996684e+000	 1.037601930839162e+001
0	 5.466639999981868e+000	 2.000000000000000e+000	 1.037903154007187e+001
0	 5.533309999982381e+000	 1.333299999983334e+000	 1.031757290229225e+001
0	 5.533309999982382e+000	 1.399969999982150e+000	 1.032476414773518e+001
0	 5.533309999982381e+000	 1.466639999981866e+000	 1.033133352218375e+001
0	 5.533309999982382e+000	 1.533309999982383e+000	 1.033731861242044e+001
0	 5.533309999982382e+000	 1.599979999983600e+000	 1.034275700522769e+001
0	 5.533309999982382e+000	 1.666649999985416e+000	 1.034768628738798e+001
0	 5.533309999982383e+000	 1.733319999987733e+000	 1.035214404568376e+001
0	 5.533309999982381e+000	 1.799989999990450e+000	 1.035616786689747e+001
0	 5.533309999982381e+000	 1.866659999993466e+000	 1.035979533781157e+001
0	 5.533309999982383e+000	 1.933329999996683e+000	 1.036306404520848e+001
0	 5.533309999982382e+000	 2.000000000000000e+000	 1.036601157587066e+001
0	 5.599979999983598e+000	 1.333299999983334e+000	 1.030651349401872e+001
0	 5.599979999983598e+000	 1.399969999982150e+000	 1.031325223527380e+001
0	 5.599979999983599e+000	 1.466639999981866e+000	 1.031941454496610e+001
0	 5.599979999983599e+000	 1.533309999982383e+000	 1.032503981898013e+001
0	 5.599979999983598e+000	 1.599979999983599e+000	 1.033016745320037e+001
0	 5.599979999983598e+000	 1.666649999985416e+000	 1.033483684351131e+001
0	 5.599979999983598e+000	 1.733319999987733e+000	 1.033908738579743e+001
0	 5.599979999983598e+000	 1.799989999990449e+000	 1.034295847594321e+001
0	 5.599979999983598e+000	 1.866659999993467e+000	 1.034648950983312e+001
0	 5.599979999983598e+000	 1.933329999996683e+000	 1.034971988335161e+001
0	 5.599979999983599e+000	 2.000000000000000e+000	 1.035268899238318e+001
0	 5.666649999985414e+000	 1.333299999983334e+000	 1.029562387947970e+001
0	 5.666649999985417e+000	 1.399969999982150e+000	 1.030177430892414e+001
0	 5.666649999985416e+000	 1.466639999981867e+000	 1.030742048768758e+001
0	 5.666649999985414e+000	 1.533309999982383e+000	 1.031260245855001e+001
0	 5.666649999985414e+000	 1.599979999983599e+000	 1.031736026429144e+001
0	 5.666649999985415e+000	 1.666649999985416e+000	 1.032173394769187e+001
0	 5.666649999985414e+000	 1.733319999987733e+000	 1.032576355153128e+001
0	 5.666649999985415e+000	 1.799989999990449e+000	 1.032948911858967e+001
0	 5.666649999985417e+000	 1.866659999993466e+000	 1.033295069164702e+001
0	 5.666649999985414e+000	 1.933329999996683e+000	 1.033618831348331e+001
0	 5.666649999985415e+000	 2.000000000000000e+000	 1.033924202687853e+001
0	 5.733319999987731e+000	 1.333299999983334e+000	 1.028492135930912e+001
0	 5.733319999987732e+000	 1.399969999982150e+000	 1.029040311004039e+001
0	 5.733319999987733e+000	 1.466639999981866e+000	 1.029547078863220e+001
0	 5.733319999987733e+000	 1.533309999982383e+000	 1.030016392255356e+001
0	 5.733319999987730e+000	 1.599979999983600e+000	 1.030452203927347e+001
0	 5.733319999987731e+000	 1.666649999985416e+000	 1.030858466626092e+001
0	 5.733319999987731e+000	 1.733319999987733e+000	 1.031239133098490e+001
0	 5.733319999987732e+000	 1.799989999990450e+000	 1.031598156091440e+001
0	 5.733319999987731e+000	 1.866659999993466e+000	 1.031939488351840e+001
0	 5.733319999987733e+000	 1.933329999996683e+000	 1.032267082626589e+001
0	 5.733319999987732e+000	 2.000000000000000e+000	 1.032584891662584e+001
0	 5.799989999990449e+000	 1.333299999983334e+000	 1.027442323414095e+001
0	 5.799989999990447e+000	 1.399969999982150e+000	 1.027921137997671e+001
0	 5.799989999990447e+000	 1.466639999981866e+000	 1.028368488608399e+001
0	 5.799989999990448e+000	 1.533309999982383e+000	 1.028788160241427e+001
0	 5.799989999990448e+000	 1.599979999983600e+000	 1.029183937891903e+001
0	 5.799989999990449e+000	 1.666649999985416e+000	 1.029559606554975e+001
0	 5.799989999990448e+000	 1.733319999987733e+000	 1.029918951225789e+001
0	 5.799989999990449e+000	 1.799989999990450e+000	 1.030265756899495e+001
0	 5.799989999990447e+000	 1.866659999993466e+000	 1.030603808571237e+001
0	 5.799989999990449e+000	 1.933329999996683e+000	 1.030936891236163e+001
0	 5.799989999990447e+000	 2.000000000000000e+000	 1.031268789889421e+001
0	 5.866659999993464e+000	 1.333299999983334e+000	 1.026414680460912e+001
0	 5.866659999993464e+000	 1.399969999982150e+000	 1.026827186008728e+001
0	 5.866659999993465e+000	 1.466639999981866e+000	 1.027218221832695e+001
0	 5.866659999993463e+000	 1.533309999982383e+000	 1.027591288955560e+001
0	 5.866659999993464e+000	 1.599979999983599e+000	 1.027949888400067e+001
0	 5.866659999993466e+000	 1.666649999985416e+000	 1.028297521188961e+001
0	 5.866659999993465e+000	 1.733319999987733e+000	 1.028637688344985e+001
0	 5.866659999993464e+000	 1.799989999990449e+000	 1.028973890890885e+001
0	 5.866659999993465e+000	 1.866659999993466e+000	 1.029309629849404e+001
0	 5.866659999993464e+000	 1.933329999996683e+000	 1.029648406243287e+001
0	 5.866659999993463e+000	 2.000000000000000e+000	 1.029993721095277e+001
0	 5.933329999996681e+000	 1.333299999983334e+000	 1.025410937134758e+001
0	 5.933329999996681e+000	 1.399969999982150e+000	 1.025765729172626e+001
0	 5.933329999996682e+000	 1.466639999981866e+000	 1.026108222364513e+001
0	 5.933329999996682e+000	 1.533309999982383e+000	 1.026441517540107e+001
0	 5.933329999996680e+000	 1.599979999983600e+000	 1.026768715529099e+001
0	 5.933329999996681e+000	 1.666649999985416e+000	 1.027092917161180e+001
0	 5.933329999996680e+000	 1.733319999987733e+000	 1.027417223266039e+001
0	 5.933329999996682e+000	 1.799989999990450e+000	 1.027744734673367e+001
0	 5.933329999996682e+000	 1.866659999993466e+000	 1.028078552212853e+001
0	 5.933329999996682e+000	 1.933329999996683e+000	 1.028421776714189e+001
0	 5.933329999996681e+000	 2.000000000000000e+000	 1.028777509007064e+001
0	 6.000000000000000e+000	 1.333299999983334e+000	 1.024432823499028e+001
0	 5.999999999999999e+000	 1.399969999982150e+000	 1.024744041624784e+001
0	 6.000000000000000e+000	 1.466639999981866e+000	 1.025050434032251e+001
0	 6.000000000000000e+000	 1.533309999982383e+000	 1.025354585137413e+001
0	 6.000000000000001e+000	 1.599979999983600e+000	 1.025659079356254e+001
0	 6.000000000000000e+000	 1.666649999985416e+000	 1.025966501104758e+001
0	 6.000000000000002e+000	 1.733319999987733e+000	 1.026279434798910e+001
0	 6.000000000000000e+000	 1.799989999990450e+000	 1.026600464854695e+001
0	 5.999999999999998e+000	 1.866659999993466e+000	 1.026932175688097e+001
0	 6.000000000000000e+000	 1.933329999996683e+000	 1.027277151715102e+001
0	 5.999999999999999e+000	 2.000000000000000e+000	 1.027637977351693e+001
0	 5.333299999983333e+000	 2.000000000000000e+000	 1.040345066153899e+001
0	 5.333299999983333e+000	 2.066670000003317e+000	 1.040650608168962e+001
0	 5.333299999983333e+000	 2.133340000006534e+000	 1.040900028064844e+001
0	 5.333299999983335e+000	 2.200010000009550e+000	 1.041096758958861e+001
0	 5.333299999983333e+000	 2.266680000012268e+000	 1.041244233968330e+001
0	 5.333299999983335e+000	 2.333350000014584e+000	 1.041345886210564e+001
0	 5.333299999983334e+000	 2.400020000016401e+000	 1.041405148802881e+001
0	 5.333299999983334e+000	 2.466690000017617e+000	 1.041425454862593e+001
0	 5.333299999983335e+000	 2.533360000018134e+000	 1.041410237507014e+001
0	 5.333299999983333e+000	 2.600030000017851e+000	 1.041362929853455e+001
0	 5.333299999983334e+000	 2.666700000016666e+000	 1.041286965019231e+001
0	 5.399969999982148e+000	 2.000000000000000e+000	 1.039157064771769e+001
0	 5.399969999982150e+000	 2.066670000003317e+000	 1.039434686178867e+001
0	 5.399969999982151e+000	 2.133340000006534e+000	 1.039664978902046e+001
0	 5.399969999982150e+000	 2.200010000009551e+000	 1.039850019332506e+001
0	 5.399969999982149e+000	 2.266680000012267e+000	 1.039991883861442e+001
0	 5.399969999982151e+000	 2.333350000014584e+000	 1.040092648880052e+001
0	 5.399969999982149e+000	 2.400020000016401e+000	 1.040154390779533e+001
0	 5.399969999982149e+000	 2.466690000017617e+000	 1.040179185951081e+001
0	 5.399969999982150e+000	 2.533360000018133e+000	 1.040169110785892e+001
0	 5.399969999982149e+000	 2.600030000017851e+000	 1.040126241675159e+001
0	 5.399969999982149e+000	 2.666700000016667e+000	 1.040052655010078e+001
0	 5.466639999981868e+000	 2.000000000000000e+000	 1.037903154007187e+001
0	 5.466639999981867e+000	 2.066670000003318e+000	 1.038167594313106e+001
0	 5.466639999981867e+000	 2.133340000006534e+000	 1.038392283283647e+001
0	 5.466639999981867e+000	 2.200010000009550e+000	 1.038578168840323e+001
0	 5.466639999981865e+000	 2.266680000012267e+000	 1.038726198904653e+001
0	 5.466639999981867e+000	 2.333350000014584e+000	 1.038837321398151e+001
0	 5.466639999981866e+000	 2.400020000016401e+000	 1.038912484242331e+001
0	 5.466639999981866e+000	 2.466690000017617e+000	 1.038952635358708e+001
0	 5.466639999981864e+000	 2.533360000018134e+000	 1.038958722668795e+001
0	 5.466639999981865e+000	 2.600030000017849e+000	 1.038931694094107e+001
0	 5.466639999981866e+000	 2.666700000016666e+000	 1.038872497556156e+001
0	 5.533309999982382e+000	 2.000000000000000e+000	 1.036601157587066e+001
0	 5.533309999982382e+000	 2.066670000003316e+000	 1.036864404620312e+001
0	 5.533309999982381e+000	 2.133340000006534e+000	 1.037094283281110e+001
0	 5.533309999982383e+000	 2.200010000009550e+000	 1.037290841277730e+001
0	 5.533309999982383e+000	 2.266680000012267e+000	 1.037454126318442e+001
0	 5.533309999982382e+000	 2.333350000014584e+000	 1.037584186111515e+001
0	 5.533309999982384e+000	 2.400020000016401e+000	 1.037681068365221e+001
0	 5.533309999982381e+000	 2.466690000017617e+000	 1.037744820787826e+001
0	 5.533309999982381e+000	 2.533360000018134e+000	 1.037775491087600e+001
0	 5.533309999982381e+000	 2.600030000017849e+000	 1.037773126972810e+001
0	 5.533309999982382e+000	 2.666700000016666e+000	 1.037737776151723e+001
0	 5.599979999983599e+000	 2.000000000000000e+000	 1.035268899238318e+001
0	 5.599979999983598e+000	 2.066670000003316e+000	 1.035540189149115e+001
0	 5.599979999983598e+000	 2.133340000006534e+000	 1.035783320965901e+001
0	 5.599979999983598e+000	 2.200010000009550e+000	 1.035997670440137e+001
0	 5.599979999983598e+000	 2.266680000012268e+000	 1.036182613323284e+001
0	 5.599979999983599e+000	 2.333350000014584e+000	 1.036337525366801e+001
0	 5.599979999983599e+000	 2.400020000016400e+000	 1.036461782322151e+001
0	 5.599979999983598e+000	 2.466690000017617e+000	 1.036554759940790e+001
0	 5.599979999983598e+000	 2.533360000018133e+000	 1.036615833974180e+001
0	 5.599979999983598e+000	 2.600030000017850e+000	 1.036644380173777e+001
0	 5.599979999983598e+000	 2.666700000016666e+000	 1.036639774291040e+001
0	 5.666649999985415e+000	 2.000000000000000e+000	 1.033924202687853e+001
0	 5.666649999985413e+000	 2.066670000003316e+000	 1.034210019948146e+001
0	 5.666649999985417e+000	 2.133340000006535e+000	 1.034471738409486e+001
0	 5.666649999985415e+000	 2.200010000009550e+000	 1.034708290122961e+001
0	 5.666649999985414e+000	 2.266680000012267e+000	 1.034918607139658e+001
0	 5.666649999985415e+000	 2.333350000014583e+000	 1.035101621510665e+001
0	 5.666649999985416e+000	 2.400020000016401e+000	 1.035256265287068e+001
0	 5.666649999985415e+000	 2.466690000017617e+000	 1.035381470519954e+001
0	 5.666649999985417e+000	 2.533360000018134e+000	 1.035476169260409e+001
0	 5.666649999985416e+000	 2.600030000017851e+000	 1.035539293559518e+001
0	 5.666649999985415e+000	 2.666700000016666e+000	 1.035569775468368e+001
0	 5.733319999987732e+000	 2.000000000000000e+000	 1.032584891662584e+001
0	 5.733319999987732e+000	 2.066670000003317e+000	 1.032888969066037e+001
0	 5.733319999987731e+000	 2.133340000006534e+000	 1.033171877683330e+001
0	 5.733319999987732e+000	 2.200010000009550e+000	 1.033432334121613e+001
0	 5.733319999987730e+000	 2.266680000012267e+000	 1.033669054988039e+001
0	 5.733319999987731e+000	 2.333350000014583e+000	 1.033880756889757e+001
0	 5.733319999987730e+000	 2.400020000016400e+000	 1.034066156433917e+001
0	 5.733319999987733e+000	 2.466690000017617e+000	 1.034223970227670e+001
0	 5.733319999987733e+000	 2.533360000018134e+000	 1.034352914878162e+001
0	 5.733319999987732e+000	 2.600030000017851e+000	 1.034451706992544e+001
0	 5.733319999987732e+000	 2.666700000016666e+000	 1.034519063177964e+001
0	 5.799989999990447e+000	 2.000000000000000e+000	 1.031268789889421e+001
0	 5.799989999990448e+000	 2.066670000003317e+000	 1.031592108551417e+001
0	 5.799989999990448e+000	 2.133340000006534e+000	 1.031896080858896e+001
0	 5.799989999990450e+000	 2.200010000009551e+000	 1.032179436231509e+001
0	 5.799989999990448e+000	 2.266680000012268e+000	 1.032440904088906e+001
0	 5.799989999990449e+000	 2.333350000014584e+000	 1.032679213850735e+001
0	 5.799989999990449e+000	 2.400020000016400e+000	 1.032893094936647e+001
0	 5.799989999990449e+000	 2.466690000017618e+000	 1.033081276766290e+001
0	 5.799989999990448e+000	 2.533360000018134e+000	 1.033242488759312e+001
0	 5.799989999990447e+000	 2.600030000017850e+000	 1.033375460335363e+001
0	 5.799989999990448e+000	 2.666700000016666e+000	 1.033478920914089e+001
0	 5.866659999993463e+000	 2.000000000000000e+000	 1.029993721095277e+001
0	 5.866659999993463e+000	 2.066670000003316e+000	 1.030334510452919e+001
0	 5.866659999993465e+000	 2.133340000006534e+000	 1.030656690007652e+001
0	 5.866659999993464e+000	 2.200010000009550e+000	 1.030959230248062e+001
0	 5.866659999993466e+000	 2.266680000012267e+000	 1.031241101662733e+001
0	 5.866659999993466e+000	 2.333350000014584e+000	 1.031501274740252e+001
0	 5.866659999993464e+000	 2.400020000016400e+000	 1.031738719969201e+001
0	 5.866659999993464e+000	 2.466690000017618e+000	 1.031952407838168e+001
0	 5.866659999993464e+000	 2.533360000018133e+000	 1.032141308835734e+001
0	 5.866659999993465e+000	 2.600030000017850e+000	 1.032304393450484e+001
0	 5.866659999993464e+000	 2.666700000016666e+000	 1.032440632171001e+001
0	 5.933329999996681e+000	 2.000000000000000e+000	 1.028777509007064e+001
0	 5.933329999996682e+000	 2.066670000003318e+000	 1.029131246819174e+001
0	 5.933329999996681e+000	 2.133340000006534e+000	 1.029466047201062e+001
0	 5.933329999996682e+000	 2.200010000009550e+000	 1.029781349966684e+001
0	 5.933329999996681e+000	 2.266680000012267e+000	 1.030076594929999e+001
0	 5.933329999996681e+000	 2.333350000014583e+000	 1.030351221904962e+001
0	 5.933329999996680e+000	 2.400020000016401e+000	 1.030604670705529e+001
0	 5.933329999996681e+000	 2.466690000017616e+000	 1.030836381145656e+001
0	 5.933329999996681e+000	 2.533360000018134e+000	 1.031045793039301e+001
0	 5.933329999996681e+000	 2.600030000017850e+000	 1.031232346200416e+001
0	 5.933329999996681e+000	 2.666700000016666e+000	 1.031395480442958e+001
0	 5.999999999999999e+000	 2.000000000000000e+000	 1.027637977351693e+001
0	 6.000000000000000e+000	 2.066670000003318e+000	 1.027997389698813e+001
0	 5.999999999999999e+000	 2.133340000006534e+000	 1.028336494510591e+001
0	 6.000000000000001e+000	 2.200010000009551e+000	 1.028655429182791e+001
0	 6.000000000000002e+000	 2.266680000012268e+000	 1.028954331111179e+001
0	 6.000000000000000e+000	 2.333350000014584e+000	 1.029233337691519e+001
0	 6.000000000000000e+000	 2.400020000016401e+000	 1.029492586319574e+001
0	 6.000000000000000e+000	 2.466690000017617e+000	 1.029732214391108e+001
0	 6.000000000000001e+000	 2.533360000018133e+000	 1.029952359301884e+001
0	 5.999999999999998e+000	 2.600030000017850e+000	 1.030153158447667e+001
0	 6.000000000000000e+000	 2.666700000016666e+000	 1.030334749224219e+001
0	 5.333299999983334e+000	 2.666700000016666e+000	 1.041286965019231e+001
0	 5.333299999983334e+000	 2.733360000014532e+000	 1.041195529076185e+001
0	 5.333299999983334e+000	 2.800020000011599e+000	 1.041098086772082e+001
0	 5.333299999983334e+000	 2.866680000008067e+000	 1.040992529353184e+001
0	 5.333299999983335e+000	 2.933340000004133e+000	 1.040876748065749e+001
0	 5.333299999983333e+000	 3.000000000000000e+000	 1.040748634156041e+001
0	 5.333299999983334e+000	 3.066659999995867e+000	 1.040606078870321e+001
0	 5.333299999983334e+000	 3.133319999991934e+000	 1.040446973454854e+001
0	 5.333299999983333e+000	 3.199979999988401e+000	 1.040269209155904e+001
0	 5.333299999983334e+000	 3.266639999985468e+000	 1.040070677219737e+001
0	 5.333299999983335e+000	 3.333299999983334e+000	 1.039849268892619e+001
0	 5.399969999982149e+000	 2.666700000016667e+000	 1.040052655010078e+001
0	 5.399969999982151e+000	 2.733360000014533e+000	 1.039962144073694e+001
0	 5.399969999982148e+000	 2.800020000011598e+000	 1.039866403719890e+001
0	 5.399969999982149e+000	 2.866680000008067e+000	 1.039764402408119e+001
0	 5.399969999982151e+000	 2.933340000004134e+000	 1.039655108597839e+001
0	 5.399969999982150e+000	 3.000000000000000e+000	 1.039537490748505e+001
0	 5.399969999982149e+000	 3.066659999995868e+000	 1.039410517319574e+001
0	 5.399969999982148e+000	 3.133319999991934e+000	 1.039273156770502e+001
0	 5.399969999982150e+000	 3.199979999988400e+000	 1.039124377560749e+001
0	 5.399969999982151e+000	 3.266639999985468e+000	 1.038963148149776e+001
0	 5.399969999982149e+000	 3.333299999983333e+000	 1.038788436997039e+001
0	 5.466639999981866e+000	 2.666700000016666e+000	 1.038872497556155e+001
0	 5.466639999981867e+000	 2.733360000014533e+000	 1.038794189533635e+001
0	 5.466639999981864e+000	 2.800020000011599e+000	 1.038709090076633e+001
0	 5.466639999981865e+000	 2.866680000008066e+000	 1.038617076196107e+001
0	 5.466639999981865e+000	 2.933340000004133e+000	 1.038518024903016e+001
0	 5.466639999981864e+000	 2.999999999999999e+000	 1.038411813208319e+001
0	 5.466639999981865e+000	 3.066659999995866e+000	 1.038298318122976e+001
0	 5.466639999981866e+000	 3.133319999991934e+000	 1.038177416657947e+001
0	 5.466639999981865e+000	 3.199979999988400e+000	 1.038048985824194e+001
0	 5.466639999981867e+000	 3.266639999985467e+000	 1.037912902632680e+001
0	 5.466639999981866e+000	 3.333299999983334e+000	 1.037769044094367e+001
0	 5.533309999982382e+000	 2.666700000016666e+000	 1.037737776151723e+001
0	 5.533309999982382e+000	 2.733360000014533e+000	 1.037680682202763e+001
0	 5.533309999982382e+000	 2.800020000011600e+000	 1.037613452618317e+001
0	 5.533309999982384e+000	 2.866680000008067e+000	 1.037536704299158e+001
0	 5.533309999982381e+000	 2.933340000004133e+000	 1.037451054146054e+001
0	 5.533309999982381e+000	 3.000000000000000e+000	 1.037357119059778e+001
0	 5.533309999982382e+000	 3.066659999995867e+000	 1.037255515941100e+001
0	 5.533309999982383e+000	 3.133319999991935e+000	 1.037146861690795e+001
0	 5.533309999982382e+000	 3.199979999988400e+000	 1.037031773209637e+001
0	 5.533309999982382e+000	 3.266639999985468e+000	 1.036910867398396e+001
0	 5.533309999982383e+000	 3.333299999983334e+000	 1.036784761157849e+001
0	 5.599979999983598e+000	 2.666700000016666e+000	 1.036639774291040e+001
0	 5.599979999983598e+000	 2.733360000014533e+000	 1.036610638827829e+001
0	 5.599979999983598e+000	 2.800020000011600e+000	 1.036566798120947e+001
0	 5.599979999983598e+000	 2.866680000008066e+000	 1.036509440299283e+001
0	 5.599979999983598e+000	 2.933340000004133e+000	 1.036439753491728e+001
0	 5.599979999983598e+000	 3.000000000000000e+000	 1.036358925827176e+001
0	 5.599979999983598e+000	 3.066659999995866e+000	 1.036268145434519e+001
0	 5.599979999983598e+000	 3.133319999991934e+000	 1.036168600442654e+001
0	 5.599979999983598e+000	 3.199979999988401e+000	 1.036061478980469e+001
0	 5.599979999983598e+000	 3.266639999985467e+000	 1.035947969176863e+001
0	 5.599979999983598e+000	 3.333299999983334e+000	 1.035829259160732e+001
0	 5.666649999985415e+000	 2.666700000016666e+000	 1.035569775468368e+001
0	 5.666649999985416e+000	 2.733360000014533e+000	 1.035573076155591e+001
0	 5.666649999985415e+000	 2.800020000011600e+000	 1.035556433360525e+001
0	 5.666649999985414e+000	 2.866680000008066e+000	 1.035521437778493e+001
0	 5.666649999985416e+000	 2.933340000004133e+000	 1.035469680104813e+001
0	 5.666649999985417e+000	 3.000000000000000e+000	 1.035402751034809e+001
0	 5.666649999985416e+000	 3.066659999995867e+000	 1.035322241263805e+001
0	 5.666649999985415e+000	 3.133319999991934e+000	 1.035229741487124e+001
0	 5.666649999985415e+000	 3.199979999988401e+000	 1.035126842400090e+001
0	 5.666649999985416e+000	 3.266639999985468e+000	 1.035015134698027e+001
0	 5.666649999985415e+000	 3.333299999983333e+000	 1.034896209076262e+001
0	 5.733319999987732e+000	 2.666700000016666e+000	 1.034519063177964e+001
0	 5.733319999987731e+000	 2.733360000014533e+000	 1.034557010932799e+001
0	 5.733319999987731e+000	 2.800020000011599e+000	 1.034569665113056e+001
0	 5.733319999987731e+000	 2.866680000008067e+000	 1.034558850318797e+001
0	 5.733319999987730e+000	 2.933340000004133e+000	 1.034526391150083e+001
0	 5.733319999987732e+000	 2.999999999999999e+000	 1.034474112206972e+001
0	 5.733319999987732e+000	 3.066659999995868e+000	 1.034403838089529e+001
0	 5.733319999987731e+000	 3.133319999991933e+000	 1.034317393397815e+001
0	 5.733319999987732e+000	 3.199979999988401e+000	 1.034216602731893e+001
0	 5.733319999987732e+000	 3.266639999985467e+000	 1.034103290691828e+001
0	 5.733319999987731e+000	 3.333299999983334e+000	 1.033979281877685e+001
0	 5.799989999990448e+000	 2.666700000016666e+000	 1.033478920914089e+001
0	 5.799989999990447e+000	 2.733360000014533e+000	 1.033551459906206e+001
0	 5.799989999990448e+000	 2.800020000011600e+000	 1.033593800154544e+001
0	 5.799989999990449e+000	 2.866680000008066e+000	 1.033607831502209e+001
0	 5.799989999990449e+000	 2.933340000004134e+000	 1.033595443792311e+001
0	 5.799989999990447e+000	 3.000000000000000e+000	 1.033558526867959e+001
0	 5.799989999990448e+000	 3.066659999995867e+000	 1.033498970572262e+001
0	 5.799989999990449e+000	 3.133319999991934e+000	 1.033418664748330e+001
0	 5.799989999990448e+000	 3.199979999988400e+000	 1.033319499239275e+001
0	 5.799989999990448e+000	 3.266639999985468e+000	 1.033203363888210e+001
0	 5.799989999990448e+000	 3.333299999983334e+000	 1.033072148538247e+001
0	 5.866659999993464e+000	 2.666700000016666e+000	 1.032440632171001e+001
0	 5.866659999993464e+000	 2.733360000014533e+000	 1.032545439822565e+001
0	 5.866659999993467e+000	 2.800020000011601e+000	 1.032616145260989e+001
0	 5.866659999993463e+000	 2.866680000008066e+000	 1.032654534910737e+001
0	 5.866659999993464e+000	 2.933340000004133e+000	 1.032662395196273e+001
0	 5.866659999993466e+000	 3.000000000000000e+000	 1.032641512542063e+001
0	 5.866659999993465e+000	 3.066659999995867e+000	 1.032593673372575e+001
0	 5.866659999993465e+000	 3.133319999991934e+000	 1.032520664112274e+001
0	 5.866659999993464e+000	 3.199979999988400e+000	 1.032424271185631e+001
0	 5.866659999993464e+000	 3.266639999985467e+000	 1.032306281017114e+001
0	 5.866659999993464e+000	 3.333299999983334e+000	 1.032168480031192e+001
0	 5.933329999996681e+000	 2.666700000016666e+000	 1.031395480442958e+001
0	 5.933329999996680e+000	 2.733360000014533e+000	 1.031527967428629e+001
0	 5.933329999996682e+000	 2.800020000011600e+000	 1.031624007208396e+001
0	 5.933329999996683e+000	 2.866680000008067e+000	 1.031685114126390e+001
0	 5.933329999996681e+000	 2.933340000004134e+000	 1.031712802526740e+001
0	 5.933329999996681e+000	 3.000000000000000e+000	 1.031708586753579e+001
0	 5.933329999996680e+000	 3.066659999995866e+000	 1.031673981151038e+001
0	 5.933329999996682e+000	 3.133319999991933e+000	 1.031610500063252e+001
0	 5.933329999996682e+000	 3.199979999988401e+000	 1.031519657834356e+001
0	 5.933329999996682e+000	 3.266639999985468e+000	 1.031402968808482e+001
0	 5.933329999996681e+000	 3.333299999983334e+000	 1.031261947329769e+001
0	 6.000000000000000e+000	 2.666700000016666e+000	 1.030334749224219e+001
0	 6.000000000000000e+000	 2.733360000014533e+000	 1.030488059471150e+001
0	 5.999999999999998e+000	 2.800020000011600e+000	 1.030604692772768e+001
0	 6.000000000000002e+000	 2.866680000008067e+000	 1.030685722731178e+001
0	 5.999999999999998e+000	 2.933340000004133e+000	 1.030732222948487e+001
0	 6.000000000000003e+000	 3.000000000000000e+000	 1.030745267026799e+001
0	 5.999999999999998e+000	 3.066659999995867e+000	 1.030725928568224e+001
0	 6.000000000000001e+000	 3.133319999991934e+000	 1.030675281174869e+001
0	 5.999999999999999e+000	 3.199979999988400e+000	 1.030594398448842e+001
0	 6.000000000000000e+000	 3.266639999985467e+000	 1.030484353992257e+001
0	 6.000000000000000e+000	 3.333299999983334e+000	 1.030346221407222e+001
0	 5.333299999983335e+000	 3.333299999983334e+000	 1.039849268892619e+001
0	 5.333299999983331e+000	 3.399969999982149e+000	 1.039598988713559e+001
0	 5.333299999983335e+000	 3.466639999981866e+000	 1.039315317539938e+001
0	 5.333299999983334e+000	 3.533309999982383e+000	 1.038998255987820e+001
0	 5.333299999983335e+000	 3.599979999983600e+000	 1.038647804673267e+001
0	 5.333299999983335e+000	 3.666649999985416e+000	 1.038263964212342e+001
0	 5.333299999983334e+000	 3.733319999987733e+000	 1.037846735221109e+001
0	 5.333299999983333e+000	 3.799989999990450e+000	 1.037396118315627e+001
0	 5.333299999983334e+000	 3.866659999993467e+000	 1.036912114111959e+001
0	 5.333299999983335e+000	 3.933329999996684e+000	 1.036394723226165e+001
0	 5.333299999983334e+000	 4.000000000000000e+000	 1.035843946274305e+001
0	 5.399969999982149e+000	 3.333299999983333e+000	 1.038788436997039e+001
0	 5.399969999982149e+000	 3.399969999982150e+000	 1.038588933876375e+001
0	 5.399969999982149e+000	 3.466639999981867e+000	 1.038353912504864e+001
0	 5.399969999982150e+000	 3.533309999982384e+000	 1.038083135440513e+001
0	 5.399969999982149e+000	 3.599979999983601e+000	 1.037776365241328e+001
0	 5.399969999982151e+000	 3.666649999985416e+000	 1.037433364465315e+001
0	 5.399969999982150e+000	 3.733319999987733e+000	 1.037053895670480e+001
0	 5.399969999982150e+000	 3.799989999990450e+000	 1.036637721414824e+001
0	 5.399969999982151e+000	 3.866659999993466e+000	 1.036184604256354e+001
0	 5.399969999982150e+000	 3.933329999996684e+000	 1.035694306753074e+001
0	 5.399969999982149e+000	 4.000000000000000e+000	 1.035166591462983e+001
0	 5.466639999981866e+000	 3.333299999983334e+000	 1.037769044094367e+001
0	 5.466639999981866e+000	 3.399969999982150e+000	 1.037603548116610e+001
0	 5.466639999981866e+000	 3.466639999981867e+000	 1.037402387445450e+001
0	 5.466639999981865e+000	 3.533309999982383e+000	 1.037165124838984e+001
0	 5.466639999981867e+000	 3.599979999983600e+000	 1.036891323055306e+001
0	 5.466639999981866e+000	 3.666649999985417e+000	 1.036580544852511e+001
0	 5.466639999981865e+000	 3.733319999987733e+000	 1.036232352988694e+001
0	 5.466639999981866e+000	 3.799989999990451e+000	 1.035846310221947e+001
0	 5.466639999981866e+000	 3.866659999993466e+000	 1.035421979310364e+001
0	 5.466639999981868e+000	 3.933329999996684e+000	 1.034958923012038e+001
0	 5.466639999981867e+000	 4.000000000000001e+000	 1.034456704085060e+001
0	 5.533309999982383e+000	 3.333299999983334e+000	 1.036784761157849e+001
0	 5.533309999982381e+000	 3.399969999982151e+000	 1.036639336568196e+001
0	 5.533309999982382e+000	 3.466639999981867e+000	 1.036459703807441e+001
0	 5.533309999982382e+000	 3.533309999982383e+000	 1.036245264091916e+001
0	 5.533309999982382e+000	 3.599979999983599e+000	 1.035995418637952e+001
0	 5.533309999982381e+000	 3.666649999985415e+000	 1.035709568661878e+001
0	 5.533309999982382e+000	 3.733319999987733e+000	 1.035387115380024e+001
0	 5.533309999982382e+000	 3.799989999990451e+000	 1.035027460008719e+001
0	 5.533309999982382e+000	 3.866659999993467e+000	 1.034630003764292e+001
0	 5.533309999982385e+000	 3.933329999996684e+000	 1.034194147863069e+001
0	 5.533309999982381e+000	 4.000000000000001e+000	 1.033719293521379e+001
0	 5.599979999983598e+000	 3.333299999983334e+000	 1.035829259160732e+001
0	 5.599979999983598e+000	 3.399969999982150e+000	 1.035692804365065e+001
0	 5.599979999983599e+000	 3.466639999981867e+000	 1.035524823036583e+001
0	 5.599979999983598e+000	 3.533309999982383e+000	 1.035324593107997e+001
0	 5.599979999983598e+000	 3.599979999983600e+000	 1.035091392512022e+001
0	 5.599979999983599e+000	 3.666649999985416e+000	 1.034824499181368e+001
0	 5.599979999983598e+000	 3.733319999987733e+000	 1.034523191048745e+001
0	 5.599979999983598e+000	 3.799989999990449e+000	 1.034186746046866e+001
0	 5.599979999983599e+000	 3.866659999993468e+000	 1.033814442108439e+001
0	 5.599979999983598e+000	 3.933329999996684e+000	 1.033405557166174e+001
0	 5.599979999983599e+000	 4.000000000000000e+000	 1.032959369152780e+001
0	 5.666649999985415e+000	 3.333299999983333e+000	 1.034896209076262e+001
0	 5.666649999985417e+000	 3.399969999982150e+000	 1.034760456641150e+001
0	 5.666649999985416e+000	 3.466639999981867e+000	 1.034596706578620e+001
0	 5.666649999985415e+000	 3.533309999982382e+000	 1.034404151795913e+001
0	 5.666649999985416e+000	 3.599979999983600e+000	 1.034181985200270e+001
0	 5.666649999985414e+000	 3.666649999985416e+000	 1.033929399698929e+001
0	 5.666649999985413e+000	 3.733319999987733e+000	 1.033645588199129e+001
0	 5.666649999985415e+000	 3.799989999990450e+000	 1.033329743608110e+001
0	 5.666649999985416e+000	 3.866659999993467e+000	 1.032981058833107e+001
0	 5.666649999985415e+000	 3.933329999996684e+000	 1.032598726781361e+001
0	 5.666649999985415e+000	 4.000000000000001e+000	 1.032181940360105e+001
0	 5.733319999987731e+000	 3.333299999983334e+000	 1.033979281877685e+001
0	 5.733319999987733e+000	 3.399969999982150e+000	 1.033838798530381e+001
0	 5.733319999987733e+000	 3.466639999981867e+000	 1.033674315879297e+001
0	 5.733319999987732e+000	 3.533309999982382e+000	 1.033484980064348e+001
0	 5.733319999987732e+000	 3.599979999983600e+000	 1.033269937225448e+001
0	 5.733319999987730e+000	 3.666649999985416e+000	 1.033028333502511e+001
0	 5.733319999987731e+000	 3.733319999987733e+000	 1.032759315035449e+001
0	 5.733319999987732e+000	 3.799989999990450e+000	 1.032462027964174e+001
0	 5.733319999987731e+000	 3.866659999993465e+000	 1.032135618428601e+001
0	 5.733319999987732e+000	 3.933329999996684e+000	 1.031779232568638e+001
0	 5.733319999987731e+000	 4.000000000000000e+000	 1.031392016524197e+001
0	 5.799989999990448e+000	 3.333299999983334e+000	 1.033072148538247e+001
0	 5.799989999990447e+000	 3.399969999982150e+000	 1.032924335166690e+001
0	 5.799989999990447e+000	 3.466639999981866e+000	 1.032756612384359e+001
0	 5.799989999990448e+000	 3.533309999982383e+000	 1.032568117821988e+001
0	 5.799989999990448e+000	 3.599979999983600e+000	 1.032357989110312e+001
0	 5.799989999990448e+000	 3.666649999985417e+000	 1.032125363880064e+001
0	 5.799989999990447e+000	 3.733319999987733e+000	 1.031869379761977e+001
0	 5.799989999990449e+000	 3.799989999990450e+000	 1.031589174386784e+001
0	 5.799989999990448e+000	 3.866659999993467e+000	 1.031283885385219e+001
0	 5.799989999990449e+000	 3.933329999996684e+000	 1.030952650388013e+001
0	 5.799989999990448e+000	 4.000000000000000e+000	 1.030594607025897e+001
0	 5.866659999993464e+000	 3.333299999983334e+000	 1.032168480031192e+001
0	 5.866659999993465e+000	 3.399969999982150e+000	 1.032013571684010e+001
0	 5.866659999993464e+000	 3.466639999981866e+000	 1.031842557539551e+001
0	 5.866659999993464e+000	 3.533309999982384e+000	 1.031654604977520e+001
0	 5.866659999993466e+000	 3.599979999983601e+000	 1.031448881377614e+001
0	 5.866659999993465e+000	 3.666649999985416e+000	 1.031224554119537e+001
0	 5.866659999993465e+000	 3.733319999987733e+000	 1.030980790582986e+001
0	 5.866659999993464e+000	 3.799989999990450e+000	 1.030716758147662e+001
0	 5.866659999993464e+000	 3.866659999993466e+000	 1.030431624193266e+001
0	 5.866659999993464e+000	 3.933329999996684e+000	 1.030124556099494e+001
0	 5.866659999993464e+000	 4.000000000000001e+000	 1.029794721246047e+001
0	 5.933329999996681e+000	 3.333299999983334e+000	 1.031261947329769e+001
0	 5.933329999996682e+000	 3.399969999982150e+000	 1.031103013216271e+001
0	 5.933329999996681e+000	 3.466639999981867e+000	 1.030931112790619e+001
0	 5.933329999996682e+000	 3.533309999982383e+000	 1.030745481439626e+001
0	 5.933329999996682e+000	 3.599979999983600e+000	 1.030545354550109e+001
0	 5.933329999996681e+000	 3.666649999985416e+000	 1.030329967508879e+001
0	 5.933329999996681e+000	 3.733319999987733e+000	 1.030098555702749e+001
0	 5.933329999996683e+000	 3.799989999990450e+000	 1.029850354518532e+001
0	 5.933329999996681e+000	 3.866659999993466e+000	 1.029584599343043e+001
0	 5.933329999996681e+000	 3.933329999996684e+000	 1.029300525563091e+001
0	 5.933329999996682e+000	 4.000000000000001e+000	 1.028997368565489e+001
0	 6.000000000000000e+000	 3.333299999983334e+000	 1.030346221407222e+001
0	 6.000000000000001e+000	 3.399969999982151e+000	 1.030189164897405e+001
0	 6.000000000000000e+000	 3.466639999981866e+000	 1.030021239583304e+001
0	 6.000000000000000e+000	 3.533309999982383e+000	 1.029841787116995e+001
0	 6.000000000000001e+000	 3.599979999983601e+000	 1.029650149150548e+001
0	 6.000000000000000e+000	 3.666649999985416e+000	 1.029445667336039e+001
0	 6.000000000000000e+000	 3.733319999987733e+000	 1.029227683325538e+001
0	 5.999999999999998e+000	 3.799989999990450e+000	 1.028995538771118e+001
0	 6.000000000000001e+000	 3.866659999993467e+000	 1.028748575324851e+001
0	 6.000000000000000e+000	 3.933329999996683e+000	 1.028486134638809e+001
0	 6.000000000000001e+000	 4.000000000000000e+000	 1.028207558365063e+001
0	 5.333299999983334e+000	 4.000000000000000e+000	 1.035843946274305e+001
0	 5.333299999983332e+000	 4.066670000003316e+000	 1.035276646658891e+001
0	 5.333299999983334e+000	 4.133340000006534e+000	 1.034708765283301e+001
0	 5.333299999983336e+000	 4.200010000009550e+000	 1.034138919014890e+001
0	 5.333299999983333e+000	 4.266680000012268e+000	 1.033565724721014e+001
0	 5.333299999983335e+000	 4.333350000014584e+000	 1.032987799269028e+001
0	 5.333299999983333e+000	 4.400020000016401e+000	 1.032403759526289e+001
0	 5.333299999983334e+000	 4.466690000017618e+000	 1.031812222360150e+001
0	 5.333299999983334e+000	 4.533360000018134e+000	 1.031211804637970e+001
0	 5.333299999983333e+000	 4.600030000017851e+000	 1.030601123227099e+001
0	 5.333299999983335e+000	 4.666700000016667e+000	 1.029978794994894e+001
0	 5.399969999982149e+000	 4.000000000000000e+000	 1.035166591462983e+001
0	 5.399969999982150e+000	 4.066670000003317e+000	 1.034620345842424e+001
0	 5.399969999982150e+000	 4.133340000006534e+000	 1.034073712422602e+001
0	 5.399969999982151e+000	 4.200010000009551e+000	 1.033525336373826e+001
0	 5.399969999982150e+000	 4.266680000012268e+000	 1.032973862866397e+001
0	 5.399969999982150e+000	 4.333350000014584e+000	 1.032417937070624e+001
0	 5.399969999982149e+000	 4.400020000016402e+000	 1.031856204156810e+001
0	 5.399969999982148e+000	 4.466690000017615e+000	 1.031287309295260e+001
0	 5.399969999982148e+000	 4.533360000018132e+000	 1.030709897656279e+001
0	 5.399969999982148e+000	 4.600030000017850e+000	 1.030122614410172e+001
0	 5.399969999982150e+000	 4.666700000016666e+000	 1.029524104727244e+001
0	 5.466639999981867e+000	 4.000000000000001e+000	 1.034456704085060e+001
0	 5.466639999981868e+000	 4.066670000003319e+000	 1.033934896265376e+001
0	 5.466639999981866e+000	 4.133340000006534e+000	 1.033412487360366e+001
0	 5.466639999981866e+000	 4.200010000009551e+000	 1.032888161235271e+001
0	 5.466639999981866e+000	 4.266680000012267e+000	 1.032360601755336e+001
0	 5.466639999981865e+000	 4.333350000014583e+000	 1.031828492785802e+001
0	 5.466639999981866e+000	 4.400020000016403e+000	 1.031290518191911e+001
0	 5.466639999981867e+000	 4.466690000017618e+000	 1.030745361838908e+001
0	 5.466639999981865e+000	 4.533360000018134e+000	 1.030191707592033e+001
0	 5.466639999981866e+000	 4.600030000017851e+000	 1.029628239316527e+001
0	 5.466639999981866e+000	 4.666700000016666e+000	 1.029053640877632e+001
0	 5.533309999982381e+000	 4.000000000000001e+000	 1.033719293521379e+001
0	 5.533309999982383e+000	 4.066670000003317e+000	 1.033224584916396e+001
0	 5.533309999982382e+000	 4.133340000006534e+000	 1.032728720715854e+001
0	 5.533309999982382e+000	 4.200010000009551e+000	 1.032230433871923e+001
0	 5.533309999982382e+000	 4.266680000012267e+000	 1.031728457336770e+001
0	 5.533309999982381e+000	 4.333350000014583e+000	 1.031221524062563e+001
0	 5.533309999982384e+000	 4.400020000016402e+000	 1.030708367001469e+001
0	 5.533309999982382e+000	 4.466690000017616e+000	 1.030187719105655e+001
0	 5.533309999982382e+000	 4.533360000018134e+000	 1.029658313327289e+001
0	 5.533309999982381e+000	 4.600030000017849e+000	 1.029118882618537e+001
0	 5.533309999982381e+000	 4.666700000016666e+000	 1.028568159931566e+001
0	 5.599979999983599e+000	 4.000000000000000e+000	 1.032959369152780e+001
0	 5.599979999983598e+000	 4.066670000003317e+000	 1.032493698784126e+001
0	 5.599979999983600e+000	 4.133340000006534e+000	 1.032026043108332e+001
0	 5.599979999983598e+000	 4.200010000009550e+000	 1.031555194556477e+001
0	 5.599979999983598e+000	 4.266680000012268e+000	 1.031079945559643e+001
0	 5.599979999983599e+000	 4.333350000014583e+000	 1.030599088548908e+001
0	 5.599979999983598e+000	 4.400020000016402e+000	 1.030111415955356e+001
0	 5.599979999983598e+000	 4.466690000017617e+000	 1.029615720210064e+001
0	 5.599979999983598e+000	 4.533360000018133e+000	 1.029110793744112e+001
0	 5.599979999983598e+000	 4.600030000017853e+000	 1.028595428988581e+001
0	 5.599979999983598e+000	 4.666700000016667e+000	 1.028068418374550e+001
0	 5.666649999985415e+000	 4.000000000000001e+000	 1.032181940360105e+001
0	 5.666649999985413e+000	 4.066670000003317e+000	 1.031746524857217e+001
0	 5.666649999985416e+000	 4.133340000006534e+000	 1.031308085157064e+001
0	 5.666649999985415e+000	 4.200010000009551e+000	 1.030865483561630e+001
0	 5.666649999985415e+000	 4.266680000012268e+000	 1.030417582372895e+001
0	 5.666649999985415e+000	 4.333350000014582e+000	 1.029963243892841e+001
0	 5.666649999985415e+000	 4.400020000016400e+000	 1.029501330423447e+001
0	 5.666649999985414e+000	 4.466690000017616e+000	 1.029030704266695e+001
0	 5.666649999985417e+000	 4.533360000018134e+000	 1.028550227724564e+001
0	 5.666649999985416e+000	 4.600030000017851e+000	 1.028058763099035e+001
0	 5.666649999985415e+000	 4.666700000016666e+000	 1.027555172692088e+001
0	 5.733319999987731e+000	 4.000000000000000e+000	 1.031392016524197e+001
0	 5.733319999987732e+000	 4.066670000003318e+000	 1.030987350124311e+001
0	 5.733319999987733e+000	 4.133340000006535e+000	 1.030578477481314e+001
0	 5.733319999987732e+000	 4.200010000009550e+000	 1.030164341160076e+001
0	 5.733319999987731e+000	 4.266680000012268e+000	 1.029743883725469e+001
0	 5.733319999987731e+000	 4.333350000014583e+000	 1.029316047742360e+001
0	 5.733319999987731e+000	 4.400020000016402e+000	 1.028879775775616e+001
0	 5.733319999987733e+000	 4.466690000017617e+000	 1.028434010390110e+001
0	 5.733319999987733e+000	 4.533360000018135e+000	 1.027977694150706e+001
0	 5.733319999987733e+000	 4.600030000017851e+000	 1.027509769622276e+001
0	 5.733319999987732e+000	 4.666700000016667e+000	 1.027029179369685e+001
0	 5.799989999990448e+000	 4.000000000000000e+000	 1.030594607025897e+001
0	 5.799989999990449e+000	 4.066670000003317e+000	 1.030220461574055e+001
0	 5.799989999990448e+000	 4.133340000006534e+000	 1.029840850700346e+001
0	 5.799989999990450e+000	 4.200010000009551e+000	 1.029454807624514e+001
0	 5.799989999990448e+000	 4.266680000012268e+000	 1.029061365566305e+001
0	 5.799989999990448e+000	 4.333350000014583e+000	 1.028659557745466e+001
0	 5.799989999990448e+000	 4.400020000016401e+000	 1.028248417381739e+001
0	 5.799989999990448e+000	 4.466690000017618e+000	 1.027826977694868e+001
0	 5.799989999990448e+000	 4.533360000018133e+000	 1.027394271904601e+001
0	 5.799989999990447e+000	 4.600030000017850e+000	 1.026949333230679e+001
0	 5.799989999990448e+000	 4.666700000016667e+000	 1.026491194892847e+001
0	 5.866659999993464e+000	 4.000000000000001e+000	 1.029794721246047e+001
0	 5.866659999993464e+000	 4.066670000003317e+000	 1.029450146195097e+001
0	 5.866659999993464e+000	 4.133340000006535e+000	 1.029098835433424e+001
0	 5.866659999993464e+000	 4.200010000009551e+000	 1.028739923227638e+001
0	 5.866659999993465e+000	 4.266680000012268e+000	 1.028372543844348e+001
0	 5.866659999993466e+000	 4.333350000014585e+000	 1.027995831550162e+001
0	 5.866659999993464e+000	 4.400020000016401e+000	 1.027608920611687e+001
0	 5.866659999993464e+000	 4.466690000017617e+000	 1.027210945295535e+001
0	 5.866659999993464e+000	 4.533360000018132e+000	 1.026801039868310e+001
0	 5.866659999993463e+000	 4.600030000017850e+000	 1.026378338596622e+001
0	 5.866659999993464e+000	 4.666700000016665e+000	 1.025941975747078e+001
0	 5.933329999996682e+000	 4.000000000000001e+000	 1.028997368565489e+001
0	 5.933329999996681e+000	 4.066670000003317e+000	 1.028680690976082e+001
0	 5.933329999996682e+000	 4.133340000006534e+000	 1.028356062299813e+001
0	 5.933329999996682e+000	 4.200010000009550e+000	 1.028022728242145e+001
0	 5.933329999996681e+000	 4.266680000012268e+000	 1.027679934508536e+001
0	 5.933329999996681e+000	 4.333350000014584e+000	 1.027326926804447e+001
0	 5.933329999996680e+000	 4.400020000016400e+000	 1.026962950835338e+001
0	 5.933329999996682e+000	 4.466690000017618e+000	 1.026587252306668e+001
0	 5.933329999996681e+000	 4.533360000018133e+000	 1.026199076923896e+001
0	 5.933329999996682e+000	 4.600030000017850e+000	 1.025797670392482e+001
0	 5.933329999996681e+000	 4.666700000016667e+000	 1.025382278417884e+001
0	 6.000000000000001e+000	 4.000000000000000e+000	 1.028207558365063e+001
0	 6.000000000000001e+000	 4.066670000003318e+000	 1.027916382905655e+001
0	 6.000000000000000e+000	 4.133340000006534e+000	 1.027616161918776e+001
0	 6.000000000000000e+000	 4.200010000009550e+000	 1.027306262940730e+001
0	 6.000000000000002e+000	 4.266680000012268e+000	 1.026986053507812e+001
0	 6.000000000000000e+000	 4.333350000014584e+000	 1.026654901156325e+001
0	 5.999999999999998e+000	 4.400020000016401e+000	 1.026312173422564e+001
0	 5.999999999999999e+000	 4.466690000017617e+000	 1.025957237842829e+001
0	 6.000000000000001e+000	 4.533360000018134e+000	 1.025589461953420e+001
0	 6.000000000000000e+000	 4.600030000017850e+000	 1.025208213290634e+001
0	 6.000000000000000e+000	 4.666700000016666e+000	 1.024812859390767e+001
0	 5.333299999983335e+000	 4.666700000016667e+000	 1.029978794994894e+001
0	 5.333299999983333e+000	 4.733360000014533e+000	 1.029353401428027e+001
0	 5.333299999983335e+000	 4.800020000011600e+000	 1.028733759328896e+001
0	 5.333299999983335e+000	 4.866680000008068e+000	 1.028119121400009e+001
0	 5.333299999983335e+000	 4.933340000004134e+000	 1.027508740343874e+001
0	 5.333299999983333e+000	 5.000000000000000e+000	 1.026901868863003e+001
0	 5.333299999983334e+000	 5.066659999995866e+000	 1.026297759659901e+001
0	 5.333299999983335e+000	 5.133319999991934e+000	 1.025695665437080e+001
0	 5.333299999983333e+000	 5.199979999988400e+000	 1.025094838897048e+001
0	 5.333299999983334e+000	 5.266639999985467e+000	 1.024494532742314e+001
0	 5.333299999983333e+000	 5.333299999983333e+000	 1.023893999675388e+001
0	 5.399969999982150e+000	 4.666700000016666e+000	 1.029524104727244e+001
0	 5.399969999982150e+000	 4.733360000014534e+000	 1.028922201239303e+001
0	 5.399969999982149e+000	 4.800020000011600e+000	 1.028325024446549e+001
0	 5.399969999982148e+000	 4.866680000008066e+000	 1.027731923366792e+001
0	 5.399969999982149e+000	 4.933340000004132e+000	 1.027142247017842e+001
0	 5.399969999982150e+000	 5.000000000000000e+000	 1.026555344417510e+001
0	 5.399969999982148e+000	 5.066659999995867e+000	 1.025970564583604e+001
0	 5.399969999982150e+000	 5.133319999991936e+000	 1.025387256533939e+001
0	 5.399969999982151e+000	 5.199979999988400e+000	 1.024804769286323e+001
0	 5.399969999982150e+000	 5.266639999985468e+000	 1.024222451858567e+001
0	 5.399969999982150e+000	 5.333299999983332e+000	 1.023639653268484e+001
0	 5.466639999981866e+000	 4.666700000016666e+000	 1.029053640877633e+001
0	 5.466639999981866e+000	 4.733360000014533e+000	 1.028475146853085e+001
0	 5.466639999981865e+000	 4.800020000011599e+000	 1.027900314394858e+001
0	 5.466639999981865e+000	 4.866680000008065e+000	 1.027328572487488e+001
0	 5.466639999981867e+000	 4.933340000004135e+000	 1.026759350115512e+001
0	 5.466639999981863e+000	 4.999999999999999e+000	 1.026192076263469e+001
0	 5.466639999981865e+000	 5.066659999995865e+000	 1.025626179915894e+001
0	 5.466639999981865e+000	 5.133319999991933e+000	 1.025061090057325e+001
0	 5.466639999981866e+000	 5.199979999988402e+000	 1.024496235672302e+001
0	 5.466639999981867e+000	 5.266639999985468e+000	 1.023931045745362e+001
0	 5.466639999981866e+000	 5.333299999983335e+000	 1.023364949261042e+001
0	 5.533309999982381e+000	 4.666700000016666e+000	 1.028568159931566e+001
0	 5.533309999982381e+000	 4.733360000014533e+000	 1.028012914493056e+001
0	 5.533309999982382e+000	 4.800020000011600e+000	 1.027460254934413e+001
0	 5.533309999982383e+000	 4.866680000008068e+000	 1.026909673858326e+001
0	 5.533309999982381e+000	 4.933340000004133e+000	 1.026360663867486e+001
0	 5.533309999982383e+000	 5.000000000000000e+000	 1.025812717564582e+001
0	 5.533309999982381e+000	 5.066659999995867e+000	 1.025265327552304e+001
0	 5.533309999982384e+000	 5.133319999991935e+000	 1.024717986433340e+001
0	 5.533309999982381e+000	 5.199979999988400e+000	 1.024170186810383e+001
0	 5.533309999982382e+000	 5.266639999985468e+000	 1.023621421286121e+001
0	 5.533309999982382e+000	 5.333299999983334e+000	 1.023071182463247e+001
0	 5.599979999983598e+000	 4.666700000016667e+000	 1.028068418374550e+001
0	 5.599979999983598e+000	 4.733360000014533e+000	 1.027536180382896e+001
0	 5.599979999983598e+000	 4.800020000011600e+000	 1.027005471825802e+001
0	 5.599979999983598e+000	 4.866680000008065e+000	 1.026475832575535e+001
0	 5.599979999983598e+000	 4.933340000004134e+000	 1.025946802504362e+001
0	 5.599979999983599e+000	 5.000000000000000e+000	 1.025417921484550e+001
0	 5.599979999983597e+000	 5.066659999995865e+000	 1.024888729388368e+001
0	 5.599979999983598e+000	 5.133319999991935e+000	 1.024358766088082e+001
0	 5.599979999983598e+000	 5.199979999988400e+000	 1.023827571455959e+001
0	 5.599979999983598e+000	 5.266639999985467e+000	 1.023294685364270e+001
0	 5.599979999983598e+000	 5.333299999983333e+000	 1.022759647685280e+001
0	 5.666649999985415e+000	 4.666700000016666e+000	 1.027555172692088e+001
0	 5.666649999985414e+000	 4.733360000014534e+000	 1.027045620746286e+001
0	 5.666649999985416e+000	 4.800020000011601e+000	 1.026536590829615e+001
0	 5.666649999985415e+000	 4.866680000008066e+000	 1.026027653735342e+001
0	 5.666649999985416e+000	 4.933340000004134e+000	 1.025518380256739e+001
0	 5.666649999985416e+000	 5.000000000000001e+000	 1.025008341187076e+001
0	 5.666649999985416e+000	 5.066659999995865e+000	 1.024497107319623e+001
0	 5.666649999985417e+000	 5.133319999991937e+000	 1.023984249447650e+001
0	 5.666649999985415e+000	 5.199979999988400e+000	 1.023469338364429e+001
0	 5.666649999985416e+000	 5.266639999985468e+000	 1.022951944863230e+001
0	 5.666649999985413e+000	 5.333299999983332e+000	 1.022431639737324e+001
0	 5.733319999987732e+000	 4.666700000016667e+000	 1.027029179369685e+001
0	 5.733319999987731e+000	 4.733360000014532e+000	 1.026541911806909e+001
0	 5.733319999987730e+000	 4.800020000011599e+000	 1.026054237706441e+001
0	 5.733319999987731e+000	 4.866680000008066e+000	 1.025565742433977e+001
0	 5.733319999987730e+000	 4.933340000004131e+000	 1.025076011355218e+001
0	 5.733319999987733e+000	 5.000000000000000e+000	 1.024584629835860e+001
0	 5.733319999987731e+000	 5.066659999995867e+000	 1.024091183241603e+001
0	 5.733319999987730e+000	 5.133319999991935e+000	 1.023595256938145e+001
0	 5.733319999987732e+000	 5.199979999988402e+000	 1.023096436291186e+001
0	 5.733319999987732e+000	 5.266639999985467e+000	 1.022594306666425e+001
0	 5.733319999987732e+000	 5.333299999983335e+000	 1.022088453429562e+001
0	 5.799989999990448e+000	 4.666700000016667e+000	 1.026491194892847e+001
0	 5.799989999990448e+000	 4.733360000014532e+000	 1.026025729788445e+001
0	 5.799989999990448e+000	 4.800020000011599e+000	 1.025559038216870e+001
0	 5.799989999990448e+000	 4.866680000008066e+000	 1.025090703767669e+001
0	 5.799989999990450e+000	 4.933340000004135e+000	 1.024620310030397e+001
0	 5.799989999990448e+000	 5.000000000000000e+000	 1.024147440594603e+001
0	 5.799989999990448e+000	 5.066659999995866e+000	 1.023671679049843e+001
0	 5.799989999990448e+000	 5.133319999991935e+000	 1.023192608985667e+001
0	 5.799989999990447e+000	 5.199979999988400e+000	 1.022709813991629e+001
0	 5.799989999990449e+000	 5.266639999985468e+000	 1.022222877657282e+001
0	 5.799989999990448e+000	 5.333299999983334e+000	 1.021731383572178e+001
0	 5.866659999993464e+000	 4.666700000016665e+000	 1.025941975747078e+001
0	 5.866659999993464e+000	 4.733360000014534e+000	 1.025497750914578e+001
0	 5.866659999993465e+000	 4.800020000011601e+000	 1.025051618121490e+001
0	 5.866659999993464e+000	 4.866680000008066e+000	 1.024603142832645e+001
0	 5.866659999993464e+000	 4.933340000004132e+000	 1.024151890512875e+001
0	 5.866659999993465e+000	 4.999999999999999e+000	 1.023697426627009e+001
0	 5.866659999993465e+000	 5.066659999995866e+000	 1.023239316639880e+001
0	 5.866659999993465e+000	 5.133319999991936e+000	 1.022777126016316e+001
0	 5.866659999993465e+000	 5.199979999988400e+000	 1.022310420221154e+001
0	 5.866659999993464e+000	 5.266639999985467e+000	 1.021838764719222e+001
0	 5.866659999993464e+000	 5.333299999983334e+000	 1.021361724975353e+001
0	 5.933329999996681e+000	 4.666700000016667e+000	 1.025382278417884e+001
0	 5.933329999996682e+000	 4.733360000014532e+000	 1.024958651408986e+001
0	 5.933329999996681e+000	 4.800020000011600e+000	 1.024532603180892e+001
0	 5.933329999996682e+000	 4.866680000008066e+000	 1.024103664725135e+001
0	 5.933329999996680e+000	 4.933340000004133e+000	 1.023671367033252e+001
0	 5.933329999996682e+000	 5.000000000000000e+000	 1.023235241096777e+001
0	 5.933329999996681e+000	 5.066659999995866e+000	 1.022794817907245e+001
0	 5.933329999996680e+000	 5.133319999991933e+000	 1.022349628456192e+001
0	 5.933329999996682e+000	 5.199979999988400e+000	 1.021899203735155e+001
0	 5.933329999996682e+000	 5.266639999985468e+000	 1.021443074735669e+001
0	 5.933329999996682e+000	 5.333299999983334e+000	 1.020980772449271e+001
0	 6.000000000000000e+000	 4.666700000016666e+000	 1.024812859390767e+001
0	 5.999999999999998e+000	 4.733360000014531e+000	 1.024409107495353e+001
0	 5.999999999999998e+000	 4.800020000011600e+000	 1.024002619155665e+001
0	 6.000000000000002e+000	 4.866680000008068e+000	 1.023592874541368e+001
0	 5.999999999999998e+000	 4.933340000004132e+000	 1.023179353822128e+001
0	 6.000000000000002e+000	 5.000000000000002e+000	 1.022761537167609e+001
0	 5.999999999999999e+000	 5.066659999995866e+000	 1.022338904747476e+001
0	 6.000000000000000e+000	 5.133319999991934e+000	 1.021910936731395e+001
0	 5.999999999999998e+000	 5.199979999988400e+000	 1.021477113289030e+001
0	 6.000000000000000e+000	 5.266639999985468e+000	 1.021036914590048e+001
0	 6.000000000000000e+000	 5.333299999983334e+000	 1.020589820804115e+001
0	 5.333299999983333e+000	 5.333299999983333e+000	 1.023893999675388e+001
0	 5.333299999983333e+000	 5.399969999982149e+000	 1.023296404908480e+001
0	 5.333299999983334e+000	 5.466639999981867e+000	 1.022705283290465e+001
0	 5.333299999983334e+000	 5.533309999982384e+000	 1.022120171548767e+001
0	 5.333299999983334e+000	 5.599979999983600e+000	 1.021540606410813e+001
0	 5.333299999983334e+000	 5.666649999985415e+000	 1.020966124604030e+001
0	 5.333299999983335e+000	 5.733319999987733e+000	 1.020396262855846e+001
0	 5.333299999983334e+000	 5.799989999990448e+000	 1.019830557893684e+001
0	 5.333299999983333e+000	 5.866659999993467e+000	 1.019268546444975e+001
0	 5.333299999983335e+000	 5.933329999996684e+000	 1.018709765237145e+001
0	 5.333299999983333e+000	 5.999999999999998e+000	 1.018153750997618e+001
0	 5.399969999982150e+000	 5.333299999983332e+000	 1.023639653268484e+001
0	 5.399969999982149e+000	 5.399969999982149e+000	 1.023059387081237e+001
0	 5.399969999982148e+000	 5.466639999981865e+000	 1.022484933847898e+001
0	 5.399969999982151e+000	 5.533309999982383e+000	 1.021915780573610e+001
0	 5.399969999982149e+000	 5.599979999983599e+000	 1.021351414263520e+001
0	 5.399969999982151e+000	 5.666649999985417e+000	 1.020791321922768e+001
0	 5.399969999982152e+000	 5.733319999987733e+000	 1.020234990556503e+001
0	 5.399969999982149e+000	 5.799989999990448e+000	 1.019681907169868e+001
0	 5.399969999982151e+000	 5.866659999993467e+000	 1.019131558768006e+001
0	 5.399969999982149e+000	 5.933329999996683e+000	 1.018583432356063e+001
0	 5.399969999982150e+000	 6.000000000000000e+000	 1.018037014939183e+001
0	 5.466639999981866e+000	 5.333299999983335e+000	 1.023364949261042e+001
0	 5.466639999981866e+000	 5.399969999982149e+000	 1.022800974324181e+001
0	 5.466639999981865e+000	 5.466639999981866e+000	 1.022242331396558e+001
0	 5.466639999981866e+000	 5.533309999982382e+000	 1.021688467939576e+001
0	 5.466639999981865e+000	 5.599979999983598e+000	 1.021138831414639e+001
0	 5.466639999981866e+000	 5.666649999985416e+000	 1.020592869283150e+001
0	 5.466639999981867e+000	 5.733319999987733e+000	 1.020050029006514e+001
0	 5.466639999981866e+000	 5.799989999990450e+000	 1.019509758046130e+001
0	 5.466639999981866e+000	 5.866659999993467e+000	 1.018971503863405e+001
0	 5.466639999981869e+000	 5.933329999996686e+000	 1.018434713919739e+001
0	 5.466639999981868e+000	 6.000000000000002e+000	 1.017898835676539e+001
0	 5.533309999982382e+000	 5.333299999983334e+000	 1.023071182463247e+001
0	 5.533309999982382e+000	 5.399969999982149e+000	 1.022522645646226e+001
0	 5.533309999982382e+000	 5.466639999981866e+000	 1.021979101828447e+001
0	 5.533309999982382e+000	 5.533309999982383e+000	 1.021439969106114e+001
0	 5.533309999982383e+000	 5.599979999983600e+000	 1.020904665575433e+001
0	 5.533309999982383e+000	 5.666649999985417e+000	 1.020372609332600e+001
0	 5.533309999982382e+000	 5.733319999987732e+000	 1.019843218473824e+001
0	 5.533309999982382e+000	 5.799989999990451e+000	 1.019315911095305e+001
0	 5.533309999982382e+000	 5.866659999993466e+000	 1.018790105293246e+001
0	 5.533309999982383e+000	 5.933329999996683e+000	 1.018265219163850e+001
0	 5.533309999982382e+000	 6.000000000000001e+000	 1.017740670803319e+001
0	 5.599979999983598e+000	 5.333299999983333e+000	 1.022759647685280e+001
0	 5.599979999983598e+000	 5.399969999982149e+000	 1.022225880056284e+001
0	 5.599979999983598e+000	 5.466639999981866e+000	 1.021696871035569e+001
0	 5.599979999983598e+000	 5.533309999982382e+000	 1.021172019532680e+001
0	 5.599979999983598e+000	 5.599979999983599e+000	 1.020650724457156e+001
0	 5.599979999983598e+000	 5.666649999985416e+000	 1.020132384718544e+001
0	 5.599979999983597e+000	 5.733319999987733e+000	 1.019616399226385e+001
0	 5.599979999983598e+000	 5.799989999990449e+000	 1.019102166890224e+001
0	 5.599979999983598e+000	 5.866659999993467e+000	 1.018589086619603e+001
0	 5.599979999983598e+000	 5.933329999996684e+000	 1.018076557324067e+001
0	 5.599979999983600e+000	 6.000000000000002e+000	 1.017563977913156e+001
0	 5.666649999985413e+000	 5.333299999983332e+000	 1.022431639737324e+001
0	 5.666649999985417e+000	 5.399969999982151e+000	 1.021912156563272e+001
0	 5.666649999985415e+000	 5.466639999981865e+000	 1.021397264909929e+001
0	 5.666649999985416e+000	 5.533309999982385e+000	 1.020886354678721e+001
0	 5.666649999985415e+000	 5.599979999983600e+000	 1.020378815771070e+001
0	 5.666649999985415e+000	 5.666649999985415e+000	 1.019874038088404e+001
0	 5.666649999985413e+000	 5.733319999987733e+000	 1.019371411532145e+001
0	 5.666649999985415e+000	 5.799989999990450e+000	 1.018870326003720e+001
0	 5.666649999985414e+000	 5.866659999993467e+000	 1.018370171404551e+001
0	 5.666649999985415e+000	 5.933329999996685e+000	 1.017870337636065e+001
0	 5.666649999985415e+000	 5.999999999999998e+000	 1.017370214599684e+001
0	 5.733319999987732e+000	 5.333299999983335e+000	 1.022088453429562e+001
0	 5.733319999987731e+000	 5.399969999982148e+000	 1.021582954176103e+001
0	 5.733319999987733e+000	 5.466639999981866e+000	 1.021081909343529e+001
0	 5.733319999987733e+000	 5.533309999982385e+000	 1.020584710003691e+001
0	 5.733319999987730e+000	 5.599979999983598e+000	 1.020090747228434e+001
0	 5.733319999987731e+000	 5.666649999985414e+000	 1.019599412089606e+001
0	 5.733319999987731e+000	 5.733319999987733e+000	 1.019110095659053e+001
0	 5.733319999987732e+000	 5.799989999990450e+000	 1.018622189008623e+001
0	 5.733319999987731e+000	 5.866659999993467e+000	 1.018135083210162e+001
0	 5.733319999987733e+000	 5.933329999996685e+000	 1.017648169335518e+001
0	 5.733319999987731e+000	 6.000000000000000e+000	 1.017160838456536e+001
0	 5.799989999990448e+000	 5.333299999983334e+000	 1.021731383572177e+001
0	 5.799989999990448e+000	 5.399969999982149e+000	 1.021239751903690e+001
0	 5.799989999990449e+000	 5.466639999981866e+000	 1.020752430228374e+001
0	 5.799989999990448e+000	 5.533309999982382e+000	 1.020268820967044e+001
0	 5.799989999990449e+000	 5.599979999983600e+000	 1.019788326540508e+001
0	 5.799989999990448e+000	 5.666649999985417e+000	 1.019310349369576e+001
0	 5.799989999990447e+000	 5.733319999987733e+000	 1.018834291875059e+001
0	 5.799989999990449e+000	 5.799989999990448e+000	 1.018359556477766e+001
0	 5.799989999990448e+000	 5.866659999993467e+000	 1.017885545598511e+001
0	 5.799989999990450e+000	 5.933329999996684e+000	 1.017411661658100e+001
0	 5.799989999990447e+000	 5.999999999999999e+000	 1.016937307077343e+001
0	 5.866659999993464e+000	 5.333299999983334e+000	 1.021361724975353e+001
0	 5.866659999993465e+000	 5.399969999982149e+000	 1.020884028754946e+001
0	 5.866659999993465e+000	 5.466639999981866e+000	 1.020410453456467e+001
0	 5.866659999993466e+000	 5.533309999982383e+000	 1.019940423028229e+001
0	 5.866659999993465e+000	 5.599979999983599e+000	 1.019473361418548e+001
0	 5.866659999993466e+000	 5.666649999985418e+000	 1.019008692575736e+001
0	 5.866659999993465e+000	 5.733319999987733e+000	 1.018545840448111e+001
0	 5.866659999993463e+000	 5.799989999990449e+000	 1.018084228983984e+001
0	 5.866659999993465e+000	 5.866659999993467e+000	 1.017623282131670e+001
0	 5.866659999993465e+000	 5.933329999996685e+000	 1.017162423839485e+001
0	 5.866659999993464e+000	 6.000000000000000e+000	 1.016701078055742e+001
0	 5.933329999996682e+000	 5.333299999983334e+000	 1.020980772449270e+001
0	 5.933329999996682e+000	 5.399969999982150e+000	 1.020517263738787e+001
0	 5.933329999996681e+000	 5.466639999981866e+000	 1.020057604919811e+001
0	 5.933329999996682e+000	 5.533309999982383e+000	 1.019601251646700e+001
0	 5.933329999996682e+000	 5.599979999983599e+000	 1.019147659573815e+001
0	 5.933329999996681e+000	 5.666649999985418e+000	 1.018696284355514e+001
0	 5.933329999996682e+000	 5.733319999987733e+000	 1.018246581646157e+001
0	 5.933329999996681e+000	 5.799989999990450e+000	 1.017798007100106e+001
0	 5.933329999996682e+000	 5.866659999993467e+000	 1.017350016371717e+001
0	 5.933329999996682e+000	 5.933329999996683e+000	 1.016902065115349e+001
0	 5.933329999996680e+000	 5.999999999999998e+000	 1.016453608985365e+001
0	 6.000000000000000e+000	 5.333299999983334e+000	 1.020589820804115e+001
0	 6.000000000000000e+000	 5.399969999982150e+000	 1.020140935864128e+001
0	 6.000000000000001e+000	 5.466639999981868e+000	 1.019695510510411e+001
0	 6.000000000000000e+000	 5.533309999982383e+000	 1.019253042281909e+001
0	 6.000000000000000e+000	 5.599979999983598e+000	 1.018813028717568e+001
0	 5.999999999999998e+000	 5.666649999985416e+000	 1.018374967356333e+001
0	 5.999999999999998e+000	 5.733319999987732e+000	 1.017938355737151e+001
0	 5.999999999999999e+000	 5.799989999990449e+000	 1.017502691398964e+001
0	 5.999999999999998e+000	 5.866659999993467e+000	 1.017067471880721e+001
0	 6.000000000000000e+000	 5.933329999996683e+000	 1.016632194721366e+001
0	 5.999999999999999e+000	 5.999999999999999e+000	 1.016196357459843e+001
0	 5.333299999983333e+000	 5.999999999999998e+000	 1.018153750997618e+001
0	 5.333299999983334e+000	 6.066670000003317e+000	 1.017604142478781e+001
0	 5.333299999983333e+000	 6.133340000006530e+000	 1.017064657350478e+001
0	 5.333299999983334e+000	 6.200010000009550e+000	 1.016534950716334e+001
0	 5.333299999983335e+000	 6.266680000012268e+000	 1.016014677679971e+001
0	 5.333299999983334e+000	 6.333350000014584e+000	 1.015503493345011e+001
0	 5.333299999983335e+000	 6.400020000016401e+000	 1.015001052815079e+001
0	 5.333299999983334e+000	 6.466690000017618e+000	 1.014507011193796e+001
0	 5.333299999983333e+000	 6.533360000018132e+000	 1.014021023584787e+001
0	 5.333299999983333e+000	 6.600030000017849e+000	 1.013542745091674e+001
0	 5.333299999983334e+000	 6.666700000016665e+000	 1.013071830818081e+001
0	 5.399969999982150e+000	 6.000000000000000e+000	 1.018037014939183e+001
0	 5.399969999982148e+000	 6.066670000003314e+000	 1.017496255891630e+001
0	 5.399969999982149e+000	 6.133340000006533e+000	 1.016965225993589e+001
0	 5.399969999982150e+000	 6.200010000009552e+000	 1.016443594359091e+001
0	 5.399969999982151e+000	 6.266680000012269e+000	 1.015931030102168e+001
0	 5.399969999982150e+000	 6.333350000014584e+000	 1.015427202336849e+001
0	 5.399969999982149e+000	 6.400020000016399e+000	 1.014931780177164e+001
0	 5.399969999982151e+000	 6.466690000017619e+000	 1.014444432737147e+001
0	 5.399969999982148e+000	 6.533360000018132e+000	 1.013964829130826e+001
0	 5.399969999982149e+000	 6.600030000017852e+000	 1.013492638472234e+001
0	 5.399969999982151e+000	 6.666700000016668e+000	 1.013027529875400e+001
0	 5.466639999981868e+000	 6.000000000000002e+000	 1.017898835676539e+001
0	 5.466639999981866e+000	 6.066670000003318e+000	 1.017367956758314e+001
0	 5.466639999981866e+000	 6.133340000006531e+000	 1.016846320250168e+001
0	 5.466639999981867e+000	 6.200010000009551e+000	 1.016333606804392e+001
0	 5.466639999981865e+000	 6.266680000012267e+000	 1.015829497073276e+001
0	 5.466639999981865e+000	 6.333350000014584e+000	 1.015333671709110e+001
0	 5.466639999981866e+000	 6.400020000016399e+000	 1.014845811364185e+001
0	 5.466639999981867e+000	 6.466690000017617e+000	 1.014365596690793e+001
0	 5.466639999981864e+000	 6.533360000018134e+000	 1.013892708341223e+001
0	 5.466639999981865e+000	 6.600030000017852e+000	 1.013426826967767e+001
0	 5.466639999981866e+000	 6.666700000016667e+000	 1.012967633222714e+001
0	 5.533309999982382e+000	 6.000000000000001e+000	 1.017740670803319e+001
0	 5.533309999982383e+000	 6.066670000003317e+000	 1.017220542790516e+001
0	 5.533309999982381e+000	 6.133340000006533e+000	 1.016709098785768e+001
0	 5.533309999982382e+000	 6.200010000009551e+000	 1.016206028507478e+001
0	 5.533309999982383e+000	 6.266680000012268e+000	 1.015711021674050e+001
0	 5.533309999982382e+000	 6.333350000014585e+000	 1.015223768003884e+001
0	 5.533309999982381e+000	 6.400020000016398e+000	 1.014743957215385e+001
0	 5.533309999982381e+000	 6.466690000017614e+000	 1.014271279026954e+001
0	 5.533309999982381e+000	 6.533360000018135e+000	 1.013805423156995e+001
0	 5.533309999982381e+000	 6.600030000017847e+000	 1.013346079323909e+001
0	 5.533309999982382e+000	 6.666700000016665e+000	 1.012892937246100e+001
0	 5.599979999983600e+000	 6.000000000000002e+000	 1.017563977913156e+001
0	 5.599979999983598e+000	 6.066670000003318e+000	 1.017055311699917e+001
0	 5.599979999983598e+000	 6.133340000006532e+000	 1.016554720265941e+001
0	 5.599979999983599e+000	 6.200010000009551e+000	 1.016061899923595e+001
0	 5.599979999983598e+000	 6.266680000012267e+000	 1.015576546985247e+001
0	 5.599979999983599e+000	 6.333350000014585e+000	 1.015098357763263e+001
0	 5.599979999983598e+000	 6.400020000016400e+000	 1.014627028570008e+001
0	 5.599979999983598e+000	 6.466690000017618e+000	 1.014162255717852e+001
0	 5.599979999983598e+000	 6.533360000018133e+000	 1.013703735519159e+001
0	 5.599979999983598e+000	 6.600030000017851e+000	 1.013251164286297e+001
0	 5.599979999983598e+000	 6.666700000016666e+000	 1.012804238331633e+001
0	 5.666649999985415e+000	 5.999999999999998e+000	 1.017370214599684e+001
0	 5.666649999985414e+000	 6.066670000003317e+000	 1.016873561198199e+001
0	 5.666649999985415e+000	 6.133340000006534e+000	 1.016384343356240e+001
0	 5.666649999985414e+000	 6.200010000009551e+000	 1.015902261507988e+001
0	 5.666649999985414e+000	 6.266680000012268e+000	 1.015427016087624e+001
0	 5.666649999985415e+000	 6.333350000014585e+000	 1.014958307529334e+001
0	 5.666649999985415e+000	 6.400020000016399e+000	 1.014495836267300e+001
0	 5.666649999985415e+000	 6.466690000017617e+000	 1.014039302735706e+001
0	 5.666649999985415e+000	 6.533360000018133e+000	 1.013588407368734e+001
0	 5.666649999985415e+000	 6.600030000017850e+000	 1.013142850600568e+001
0	 5.666649999985415e+000	 6.666700000016665e+000	 1.012702332865392e+001
0	 5.733319999987731e+000	 6.000000000000000e+000	 1.017160838456536e+001
0	 5.733319999987733e+000	 6.066670000003317e+000	 1.016676588997047e+001
0	 5.733319999987732e+000	 6.133340000006533e+000	 1.016199126722216e+001
0	 5.733319999987733e+000	 6.200010000009552e+000	 1.015728153715895e+001
0	 5.733319999987731e+000	 6.266680000012267e+000	 1.015263372061935e+001
0	 5.733319999987731e+000	 6.333350000014584e+000	 1.014804483844188e+001
0	 5.733319999987732e+000	 6.400020000016402e+000	 1.014351191146505e+001
0	 5.733319999987733e+000	 6.466690000017618e+000	 1.013903196052739e+001
0	 5.733319999987733e+000	 6.533360000018135e+000	 1.013460200646740e+001
0	 5.733319999987731e+000	 6.600030000017848e+000	 1.013021907012360e+001
0	 5.733319999987732e+000	 6.666700000016666e+000	 1.012588017233452e+001
0	 5.799989999990447e+000	 5.999999999999999e+000	 1.016937307077343e+001
0	 5.799989999990450e+000	 6.066670000003319e+000	 1.016465692808140e+001
0	 5.799989999990447e+000	 6.133340000006533e+000	 1.016000229029422e+001
0	 5.799989999990449e+000	 6.200010000009551e+000	 1.015540617002564e+001
0	 5.799989999990447e+000	 6.266680000012269e+000	 1.015086557988937e+001
0	 5.799989999990449e+000	 6.333350000014585e+000	 1.014637753249914e+001
0	 5.799989999990448e+000	 6.400020000016403e+000	 1.014193904046868e+001
0	 5.799989999990448e+000	 6.466690000017615e+000	 1.013754711641170e+001
0	 5.799989999990449e+000	 6.533360000018136e+000	 1.013319877294192e+001
0	 5.799989999990448e+000	 6.600030000017851e+000	 1.012889102267307e+001
0	 5.799989999990448e+000	 6.666700000016665e+000	 1.012462087821888e+001
0	 5.866659999993464e+000	 6.000000000000000e+000	 1.016701078055742e+001
0	 5.866659999993464e+000	 6.066670000003316e+000	 1.016242170343160e+001
0	 5.866659999993465e+000	 6.133340000006532e+000	 1.015788808943410e+001
0	 5.866659999993465e+000	 6.200010000009550e+000	 1.015340691823237e+001
0	 5.866659999993465e+000	 6.266680000012269e+000	 1.014897516949387e+001
0	 5.866659999993465e+000	 6.333350000014585e+000	 1.014458982288604e+001
0	 5.866659999993465e+000	 6.400020000016402e+000	 1.014024785807633e+001
0	 5.866659999993464e+000	 6.466690000017616e+000	 1.013594625473220e+001
0	 5.866659999993466e+000	 6.533360000018134e+000	 1.013168199252110e+001
0	 5.866659999993464e+000	 6.600030000017848e+000	 1.012745205111048e+001
0	 5.866659999993465e+000	 6.666700000016666e+000	 1.012325341016778e+001
0	 5.933329999996680e+000	 5.999999999999998e+000	 1.016453608985365e+001
0	 5.933329999996682e+000	 6.066670000003318e+000	 1.016007319313791e+001
0	 5.933329999996680e+000	 6.133340000006534e+000	 1.015566025129733e+001
0	 5.933329999996681e+000	 6.200010000009551e+000	 1.015129418633160e+001
0	 5.933329999996682e+000	 6.266680000012268e+000	 1.014697192024040e+001
0	 5.933329999996682e+000	 6.333350000014585e+000	 1.014269037502346e+001
0	 5.933329999996682e+000	 6.400020000016402e+000	 1.013844647268046e+001
0	 5.933329999996682e+000	 6.466690000017616e+000	 1.013423713521112e+001
0	 5.933329999996681e+000	 6.533360000018134e+000	 1.013005928461513e+001
0	 5.933329999996681e+000	 6.600030000017850e+000	 1.012590984289219e+001
0	 5.933329999996682e+000	 6.666700000016665e+000	 1.012178573204201e+001
0	 5.999999999999999e+000	 5.999999999999999e+000	 1.016196357459843e+001
0	 6.000000000000000e+000	 6.066670000003318e+000	 1.015762437431714e+001
0	 6.000000000000000e+000	 6.133340000006533e+000	 1.015333036253942e+001
0	 5.999999999999996e+000	 6.200010000009550e+000	 1.014907837887571e+001
0	 5.999999999999998e+000	 6.266680000012267e+000	 1.014486526293652e+001
0	 6.000000000000000e+000	 6.333350000014585e+000	 1.014068785433229e+001
0	 5.999999999999998e+000	 6.400020000016399e+000	 1.013654299267352e+001
0	 6.000000000000001e+000	 6.466690000017618e+000	 1.013242751757065e+001
0	 6.000000000000002e+000	 6.533360000018136e+000	 1.012833826863419e+001
0	 6.000000000000001e+000	 6.600030000017850e+000	 1.012427208547458e+001
0	 6.000000000000002e+000	 6.666700000016668e+000	 1.012022580770230e+001
0	 5.333299999983334e+000	 6.666700000016665e+000	 1.013071830818081e+001
0	 5.333299999983335e+000	 6.733360000014533e+000	 1.012608795088860e+001
0	 5.333299999983335e+000	 6.800020000011599e+000	 1.012154124173751e+001
0	 5.333299999983333e+000	 6.866680000008065e+000	 1.011707641389405e+001
0	 5.333299999983336e+000	 6.933340000004135e+000	 1.011269170052475e+001
0	 5.333299999983333e+000	 6.999999999999998e+000	 1.010838533479608e+001
0	 5.333299999983335e+000	 7.066659999995868e+000	 1.010415554987458e+001
0	 5.333299999983334e+000	 7.133319999991935e+000	 1.010000057892671e+001
0	 5.333299999983335e+000	 7.199979999988400e+000	 1.009591865511902e+001
0	 5.333299999983336e+000	 7.266639999985467e+000	 1.009190801161797e+001
0	 5.333299999983334e+000	 7.333299999983334e+000	 1.008796688159005e+001
0	 5.399969999982151e+000	 6.666700000016668e+000	 1.013027529875400e+001
0	 5.399969999982152e+000	 6.733360000014532e+000	 1.012569992551744e+001
0	 5.399969999982149e+000	 6.800020000011599e+000	 1.012120470042106e+001
0	 5.399969999982149e+000	 6.866680000008067e+000	 1.011678770699290e+001
0	 5.399969999982148e+000	 6.933340000004132e+000	 1.011244702876108e+001
0	 5.399969999982149e+000	 6.999999999999999e+000	 1.010818074925368e+001
0	 5.399969999982149e+000	 7.066659999995866e+000	 1.010398695199876e+001
0	 5.399969999982148e+000	 7.133319999991933e+000	 1.009986372052443e+001
0	 5.399969999982150e+000	 7.199979999988400e+000	 1.009580913835873e+001
0	 5.399969999982151e+000	 7.266639999985467e+000	 1.009182128902975e+001
0	 5.399969999982150e+000	 7.333299999983335e+000	 1.008789825606558e+001
0	 5.466639999981866e+000	 6.666700000016667e+000	 1.012967633222714e+001
0	 5.466639999981865e+000	 6.733360000014533e+000	 1.012515673936295e+001
0	 5.466639999981865e+000	 6.800020000011599e+000	 1.012071435250704e+001
0	 5.466639999981865e+000	 6.866680000008066e+000	 1.011634711956291e+001
0	 5.466639999981867e+000	 6.933340000004134e+000	 1.011205298843414e+001
0	 5.466639999981865e+000	 6.999999999999997e+000	 1.010782990702419e+001
0	 5.466639999981864e+000	 7.066659999995866e+000	 1.010367582323662e+001
0	 5.466639999981865e+000	 7.133319999991934e+000	 1.009958868497492e+001
0	 5.466639999981865e+000	 7.199979999988400e+000	 1.009556644014263e+001
0	 5.466639999981866e+000	 7.266639999985466e+000	 1.009160703664324e+001
0	 5.466639999981865e+000	 7.333299999983331e+000	 1.008770842238028e+001
0	 5.533309999982382e+000	 6.666700000016665e+000	 1.012892937246100e+001
0	 5.533309999982382e+000	 6.733360000014533e+000	 1.012446668705768e+001
0	 5.533309999982381e+000	 6.800020000011600e+000	 1.012007872389066e+001
0	 5.533309999982383e+000	 6.866680000008068e+000	 1.011576330925277e+001
0	 5.533309999982382e+000	 6.933340000004133e+000	 1.011151826943680e+001
0	 5.533309999982384e+000	 7.000000000000001e+000	 1.010734143073561e+001
0	 5.533309999982381e+000	 7.066659999995866e+000	 1.010323061944198e+001
0	 5.533309999982383e+000	 7.133319999991936e+000	 1.009918366184876e+001
0	 5.533309999982381e+000	 7.199979999988400e+000	 1.009519838424876e+001
0	 5.533309999982381e+000	 7.266639999985467e+000	 1.009127261293479e+001
0	 5.533309999982383e+000	 7.333299999983335e+000	 1.008740417419965e+001
0	 5.599979999983598e+000	 6.666700000016666e+000	 1.012804238331634e+001
0	 5.599979999983598e+000	 6.733360000014533e+000	 1.012363806323426e+001
0	 5.599979999983598e+000	 6.800020000011600e+000	 1.011930634046718e+001
0	 5.599979999983598e+000	 6.866680000008066e+000	 1.011504493371111e+001
0	 5.599979999983595e+000	 6.933340000004131e+000	 1.011085156166202e+001
0	 5.599979999983598e+000	 6.999999999999997e+000	 1.010672394301589e+001
0	 5.599979999983596e+000	 7.066659999995864e+000	 1.010265979646873e+001
0	 5.599979999983599e+000	 7.133319999991935e+000	 1.009865684071650e+001
0	 5.599979999983598e+000	 7.199979999988400e+000	 1.009471279445517e+001
0	 5.599979999983598e+000	 7.266639999985468e+000	 1.009082537638074e+001
0	 5.599979999983599e+000	 7.333299999983335e+000	 1.008699230518917e+001
0	 5.666649999985415e+000	 6.666700000016665e+000	 1.012702332865392e+001
0	 5.666649999985416e+000	 6.733360000014533e+000	 1.012267916252525e+001
0	 5.666649999985417e+000	 6.800020000011601e+000	 1.011840572813181e+001
0	 5.666649999985415e+000	 6.866680000008065e+000	 1.011420065058663e+001
0	 5.666649999985417e+000	 6.933340000004132e+000	 1.011006155500272e+001
0	 5.666649999985416e+000	 6.999999999999998e+000	 1.010598606649308e+001
0	 5.666649999985416e+000	 7.066659999995867e+000	 1.010197181017074e+001
0	 5.666649999985415e+000	 7.133319999991937e+000	 1.009801641114866e+001
0	 5.666649999985417e+000	 7.199979999988401e+000	 1.009411749453990e+001
0	 5.666649999985416e+000	 7.266639999985468e+000	 1.009027268545745e+001
0	 5.666649999985413e+000	 7.333299999983332e+000	 1.008647960901431e+001
0	 5.733319999987732e+000	 6.666700000016666e+000	 1.012588017233452e+001
0	 5.733319999987732e+000	 6.733360000014533e+000	 1.012159827956324e+001
0	 5.733319999987730e+000	 6.800020000011598e+000	 1.011738541277977e+001
0	 5.733319999987731e+000	 6.866680000008068e+000	 1.011323911752798e+001
0	 5.733319999987731e+000	 6.933340000004134e+000	 1.010915693935180e+001
0	 5.733319999987733e+000	 6.999999999999998e+000	 1.010513642379512e+001
0	 5.733319999987733e+000	 7.066659999995868e+000	 1.010117511640184e+001
0	 5.733319999987730e+000	 7.133319999991933e+000	 1.009727056271584e+001
0	 5.733319999987731e+000	 7.199979999988401e+000	 1.009342030828103e+001
0	 5.733319999987731e+000	 7.266639999985466e+000	 1.008962189864131e+001
0	 5.733319999987732e+000	 7.333299999983334e+000	 1.008587287934055e+001
0	 5.799989999990448e+000	 6.666700000016665e+000	 1.012462087821889e+001
0	 5.799989999990449e+000	 6.733360000014534e+000	 1.012040370898083e+001
0	 5.799989999990448e+000	 6.800020000011601e+000	 1.011625392030627e+001
0	 5.799989999990448e+000	 6.866680000008067e+000	 1.011216899218384e+001
0	 5.799989999990449e+000	 6.933340000004134e+000	 1.010814640460222e+001
0	 5.799989999990447e+000	 7.000000000000000e+000	 1.010418363755003e+001
0	 5.799989999990448e+000	 7.066659999995869e+000	 1.010027817101592e+001
0	 5.799989999990450e+000	 7.133319999991936e+000	 1.009642748498857e+001
0	 5.799989999990448e+000	 7.199979999988400e+000	 1.009262905945660e+001
0	 5.799989999990448e+000	 7.266639999985467e+000	 1.008888037440865e+001
0	 5.799989999990449e+000	 7.333299999983336e+000	 1.008517890983337e+001
0	 5.866659999993465e+000	 6.666700000016666e+000	 1.012325341016779e+001
0	 5.866659999993465e+000	 6.733360000014533e+000	 1.011910374541061e+001
0	 5.866659999993465e+000	 6.800020000011599e+000	 1.011501977660655e+001
0	 5.866659999993464e+000	 6.866680000008067e+000	 1.011099893220288e+001
0	 5.866659999993464e+000	 6.933340000004133e+000	 1.010703864064687e+001
0	 5.866659999993465e+000	 6.999999999999999e+000	 1.010313633038579e+001
0	 5.866659999993464e+000	 7.066659999995867e+000	 1.009928942986688e+001
0	 5.866659999993463e+000	 7.133319999991936e+000	 1.009549536753742e+001
0	 5.866659999993465e+000	 7.199979999988400e+000	 1.009175157184465e+001
0	 5.866659999993465e+000	 7.266639999985465e+000	 1.008805547123584e+001
0	 5.866659999993466e+000	 7.333299999983335e+000	 1.008440449415824e+001
0	 5.933329999996682e+000	 6.666700000016665e+000	 1.012178573204201e+001
0	 5.933329999996681e+000	 6.733360000014534e+000	 1.011770668348516e+001
0	 5.933329999996681e+000	 6.800020000011600e+000	 1.011369150757582e+001
0	 5.933329999996682e+000	 6.866680000008067e+000	 1.010973759523376e+001
0	 5.933329999996681e+000	 6.933340000004132e+000	 1.010584233737871e+001
0	 5.933329999996682e+000	 7.000000000000000e+000	 1.010200312493038e+001
0	 5.933329999996680e+000	 7.066659999995866e+000	 1.009821734880855e+001
0	 5.933329999996681e+000	 7.133319999991934e+000	 1.009448239993292e+001
0	 5.933329999996682e+000	 7.199979999988401e+000	 1.009079566922324e+001
0	 5.933329999996683e+000	 7.266639999985467e+000	 1.008715454759925e+001
0	 5.933329999996682e+000	 7.333299999983334e+000	 1.008355642598066e+001
0	 6.000000000000002e+000	 6.666700000016668e+000	 1.012022580770230e+001
0	 6.000000000000000e+000	 6.733360000014532e+000	 1.011622081783706e+001
0	 6.000000000000000e+000	 6.800020000011600e+000	 1.011227763910932e+001
0	 6.000000000000000e+000	 6.866680000008066e+000	 1.010839363892515e+001
0	 6.000000000000001e+000	 6.933340000004134e+000	 1.010456618469062e+001
0	 6.000000000000000e+000	 6.999999999999998e+000	 1.010079264381182e+001
0	 6.000000000000001e+000	 7.066659999995868e+000	 1.009707038369481e+001
0	 6.000000000000000e+000	 7.133319999991935e+000	 1.009339677174565e+001
0	 6.000000000000000e+000	 7.199979999988401e+000	 1.008976917537044e+001
0	 6.000000000000000e+000	 7.266639999985465e+000	 1.008618496197523e+001
0	 6.000000000000000e+000	 7.333299999983332e+000	 1.008264149896610e+001
0	 5.333299999983334e+000	 7.333299999983334e+000	 1.008796688159005e+001
0	 5.333299999983332e+000	 7.399969999982149e+000	 1.008410335516188e+001
0	 5.333299999983333e+000	 7.466639999981864e+000	 1.008032646579666e+001
0	 5.333299999983333e+000	 7.533309999982383e+000	 1.007663410335704e+001
0	 5.333299999983335e+000	 7.599979999983600e+000	 1.007302415770563e+001
0	 5.333299999983334e+000	 7.666649999985416e+000	 1.006949451870505e+001
0	 5.333299999983334e+000	 7.733319999987733e+000	 1.006604307621797e+001
0	 5.333299999983334e+000	 7.799989999990449e+000	 1.006266772010698e+001
0	 5.333299999983333e+000	 7.866659999993466e+000	 1.005936634023472e+001
0	 5.333299999983335e+000	 7.933329999996684e+000	 1.005613682646382e+001
0	 5.333299999983334e+000	 8.000000000000000e+000	 1.005297706865692e+001
0	 5.399969999982150e+000	 7.333299999983335e+000	 1.008789825606558e+001
0	 5.399969999982147e+000	 7.399969999982148e+000	 1.008404996377064e+001
0	 5.399969999982148e+000	 7.466639999981865e+000	 1.008028733033136e+001
0	 5.399969999982152e+000	 7.533309999982385e+000	 1.007660817885506e+001
0	 5.399969999982149e+000	 7.599979999983599e+000	 1.007301033244904e+001
0	 5.399969999982150e+000	 7.666649999985416e+000	 1.006949161422062e+001
0	 5.399969999982150e+000	 7.733319999987732e+000	 1.006604984727709e+001
0	 5.399969999982150e+000	 7.799989999990451e+000	 1.006268285472577e+001
0	 5.399969999982151e+000	 7.866659999993468e+000	 1.005938845967398e+001
0	 5.399969999982149e+000	 7.933329999996682e+000	 1.005616448522900e+001
0	 5.399969999982149e+000	 8.000000000000000e+000	 1.005300875449817e+001
0	 5.466639999981865e+000	 7.333299999983331e+000	 1.008770842238029e+001
0	 5.466639999981865e+000	 7.399969999982149e+000	 1.008388185299005e+001
0	 5.466639999981866e+000	 7.466639999981866e+000	 1.008013962127744e+001
0	 5.466639999981866e+000	 7.533309999982383e+000	 1.007647948971803e+001
0	 5.466639999981866e+000	 7.599979999983600e+000	 1.007289922078741e+001
0	 5.466639999981866e+000	 7.666649999985416e+000	 1.006939657696114e+001
0	 5.466639999981866e+000	 7.733319999987733e+000	 1.006596932071484e+001
0	 5.466639999981868e+000	 7.799989999990451e+000	 1.006261521452406e+001
0	 5.466639999981866e+000	 7.866659999993467e+000	 1.005933202086442e+001
0	 5.466639999981867e+000	 7.933329999996683e+000	 1.005611750221151e+001
0	 5.466639999981868e+000	 8.000000000000000e+000	 1.005296942104092e+001
0	 5.533309999982383e+000	 7.333299999983335e+000	 1.008740417419965e+001
0	 5.533309999982381e+000	 7.399969999982148e+000	 1.008360522774509e+001
0	 5.533309999982381e+000	 7.466639999981865e+000	 1.007988900665359e+001
0	 5.533309999982381e+000	 7.533309999982384e+000	 1.007625321889258e+001
0	 5.533309999982382e+000	 7.599979999983598e+000	 1.007269557242955e+001
0	 5.533309999982382e+000	 7.666649999985417e+000	 1.006921377523195e+001
0	 5.533309999982382e+000	 7.733319999987733e+000	 1.006580553526725e+001
0	 5.533309999982381e+000	 7.799989999990448e+000	 1.006246856050291e+001
0	 5.533309999982382e+000	 7.866659999993467e+000	 1.005920055890640e+001
0	 5.533309999982383e+000	 7.933329999996684e+000	 1.005599923844518e+001
0	 5.533309999982382e+000	 8.000000000000000e+000	 1.005286230708672e+001
0	 5.599979999983599e+000	 7.333299999983335e+000	 1.008699230518917e+001
0	 5.599979999983598e+000	 7.399969999982151e+000	 1.008322629296067e+001
0	 5.599979999983600e+000	 7.466639999981866e+000	 1.007954115447842e+001
0	 5.599979999983599e+000	 7.533309999982384e+000	 1.007593454932532e+001
0	 5.599979999983598e+000	 7.599979999983600e+000	 1.007240413708432e+001
0	 5.599979999983599e+000	 7.666649999985416e+000	 1.006894757733839e+001
0	 5.599979999983598e+000	 7.733319999987733e+000	 1.006556252967041e+001
0	 5.599979999983598e+000	 7.799989999990450e+000	 1.006224665366337e+001
0	 5.599979999983598e+000	 7.866659999993465e+000	 1.005899760890018e+001
0	 5.599979999983598e+000	 7.933329999996682e+000	 1.005581305496379e+001
0	 5.599979999983598e+000	 8.000000000000004e+000	 1.005269065143714e+001
0	 5.666649999985413e+000	 7.333299999983332e+000	 1.008647960901431e+001
0	 5.666649999985415e+000	 7.399969999982151e+000	 1.008275125356173e+001
0	 5.666649999985415e+000	 7.466639999981866e+000	 1.007910173277058e+001
0	 5.666649999985415e+000	 7.533309999982384e+000	 1.007552866396286e+001
0	 5.666649999985415e+000	 7.599979999983599e+000	 1.007202966446058e+001
0	 5.666649999985414e+000	 7.666649999985416e+000	 1.006860235158574e+001
0	 5.666649999985414e+000	 7.733319999987733e+000	 1.006524434266038e+001
0	 5.666649999985415e+000	 7.799989999990449e+000	 1.006195325500648e+001
0	 5.666649999985416e+000	 7.866659999993467e+000	 1.005872670594606e+001
0	 5.666649999985415e+000	 7.933329999996682e+000	 1.005556231280115e+001
0	 5.666649999985415e+000	 7.999999999999998e+000	 1.005245769289376e+001
0	 5.733319999987732e+000	 7.333299999983334e+000	 1.008587287934054e+001
0	 5.733319999987732e+000	 7.399969999982150e+000	 1.008218631447322e+001
0	 5.733319999987732e+000	 7.466639999981866e+000	 1.007857640954875e+001
0	 5.733319999987732e+000	 7.533309999982384e+000	 1.007504074575184e+001
0	 5.733319999987732e+000	 7.599979999983599e+000	 1.007157690426716e+001
0	 5.733319999987731e+000	 7.666649999985417e+000	 1.006818246627938e+001
0	 5.733319999987732e+000	 7.733319999987733e+000	 1.006485501297319e+001
0	 5.733319999987732e+000	 7.799989999990451e+000	 1.006159212553329e+001
0	 5.733319999987731e+000	 7.866659999993466e+000	 1.005839138514436e+001
0	 5.733319999987733e+000	 7.933329999996683e+000	 1.005525037299108e+001
0	 5.733319999987732e+000	 8.000000000000000e+000	 1.005216667025815e+001
0	 5.799989999990449e+000	 7.333299999983336e+000	 1.008517890983336e+001
0	 5.799989999990448e+000	 7.399969999982151e+000	 1.008153768062005e+001
0	 5.799989999990448e+000	 7.466639999981866e+000	 1.007797085283157e+001
0	 5.799989999990449e+000	 7.533309999982384e+000	 1.007447597763887e+001
0	 5.799989999990448e+000	 7.599979999983599e+000	 1.007105060621290e+001
0	 5.799989999990448e+000	 7.666649999985416e+000	 1.006769228972461e+001
0	 5.799989999990447e+000	 7.733319999987733e+000	 1.006439857934494e+001
0	 5.799989999990448e+000	 7.799989999990451e+000	 1.006116702624489e+001
0	 5.799989999990448e+000	 7.866659999993467e+000	 1.005799518159539e+001
0	 5.799989999990449e+000	 7.933329999996683e+000	 1.005488059656740e+001
0	 5.799989999990447e+000	 8.000000000000000e+000	 1.005182082233186e+001
0	 5.866659999993466e+000	 7.333299999983335e+000	 1.008440449415823e+001
0	 5.866659999993464e+000	 7.399969999982149e+000	 1.008081155692719e+001
0	 5.866659999993466e+000	 7.466639999981867e+000	 1.007729073063769e+001
0	 5.866659999993464e+000	 7.533309999982382e+000	 1.007383954257057e+001
0	 5.866659999993466e+000	 7.599979999983601e+000	 1.007045552000664e+001
0	 5.866659999993466e+000	 7.666649999985418e+000	 1.006713619022675e+001
0	 5.866659999993465e+000	 7.733319999987734e+000	 1.006387908051170e+001
0	 5.866659999993463e+000	 7.799989999990448e+000	 1.006068171814232e+001
0	 5.866659999993465e+000	 7.866659999993467e+000	 1.005754163039944e+001
0	 5.866659999993464e+000	 7.933329999996683e+000	 1.005445634456389e+001
0	 5.866659999993464e+000	 8.000000000000002e+000	 1.005142338791648e+001
0	 5.933329999996682e+000	 7.333299999983334e+000	 1.008355642598065e+001
0	 5.933329999996681e+000	 7.399969999982150e+000	 1.008001414831954e+001
0	 5.933329999996681e+000	 7.466639999981865e+000	 1.007654171098575e+001
0	 5.933329999996682e+000	 7.533309999982383e+000	 1.007313662349357e+001
0	 5.933329999996683e+000	 7.599979999983601e+000	 1.006979639535727e+001
0	 5.933329999996681e+000	 7.666649999985416e+000	 1.006651853609115e+001
0	 5.933329999996682e+000	 7.733319999987733e+000	 1.006330055520952e+001
0	 5.933329999996681e+000	 7.799989999990449e+000	 1.006013996222665e+001
0	 5.933329999996681e+000	 7.866659999993468e+000	 1.005703426665683e+001
0	 5.933329999996682e+000	 7.933329999996685e+000	 1.005398097801438e+001
0	 5.933329999996681e+000	 8.000000000000000e+000	 1.005097760581355e+001
0	 6.000000000000000e+000	 7.333299999983332e+000	 1.008264149896610e+001
0	 6.000000000000001e+000	 7.399969999982152e+000	 1.007915165972208e+001
0	 6.000000000000002e+000	 7.466639999981867e+000	 1.007572946189442e+001
0	 6.000000000000001e+000	 7.533309999982384e+000	 1.007237240335448e+001
0	 6.000000000000000e+000	 7.599979999983600e+000	 1.006907798197359e+001
0	 6.000000000000000e+000	 7.666649999985416e+000	 1.006584369562313e+001
0	 6.000000000000000e+000	 7.733319999987733e+000	 1.006266704217445e+001
0	 5.999999999999998e+000	 7.799989999990449e+000	 1.005954551949890e+001
0	 5.999999999999998e+000	 7.866659999993466e+000	 1.005647662546786e+001
0	 6.000000000000000e+000	 7.933329999996684e+000	 1.005345785795267e+001
0	 6.000000000000000e+000	 8.000000000000000e+000	 1.005048671482469e+001
0	 5.333299999983334e+000	 8.000000000000000e+000	 1.005297706865692e+001
0	 5.333299999983333e+000	 8.066670000003317e+000	 1.004989609167869e+001
0	 5.333299999983333e+000	 8.133340000006532e+000	 1.004690256122718e+001
0	 5.333299999983335e+000	 8.200010000009550e+000	 1.004399382841506e+001
0	 5.333299999983336e+000	 8.266680000012268e+000	 1.004116724435508e+001
0	 5.333299999983334e+000	 8.333350000014585e+000	 1.003842016015989e+001
0	 5.333299999983333e+000	 8.400020000016399e+000	 1.003574992694224e+001
0	 5.333299999983332e+000	 8.466690000017616e+000	 1.003315389581481e+001
0	 5.333299999983334e+000	 8.533360000018135e+000	 1.003062941789033e+001
0	 5.333299999983335e+000	 8.600030000017851e+000	 1.002817384428149e+001
0	 5.333299999983334e+000	 8.666700000016666e+000	 1.002578452610099e+001
0	 5.399969999982149e+000	 8.000000000000000e+000	 1.005300875449817e+001
0	 5.399969999982150e+000	 8.066670000003317e+000	 1.004993080814867e+001
0	 5.399969999982149e+000	 8.133340000006530e+000	 1.004693982876706e+001
0	 5.399969999982149e+000	 8.200010000009549e+000	 1.004403310233979e+001
0	 5.399969999982151e+000	 8.266680000012267e+000	 1.004120791485326e+001
0	 5.399969999982150e+000	 8.333350000014583e+000	 1.003846155229396e+001
0	 5.399969999982149e+000	 8.400020000016401e+000	 1.003579130064828e+001
0	 5.399969999982149e+000	 8.466690000017614e+000	 1.003319444590266e+001
0	 5.399969999982149e+000	 8.533360000018133e+000	 1.003066827404357e+001
0	 5.399969999982150e+000	 8.600030000017853e+000	 1.002821007105741e+001
0	 5.399969999982150e+000	 8.666700000016668e+000	 1.002581712293062e+001
0	 5.466639999981868e+000	 8.000000000000000e+000	 1.005296942104092e+001
0	 5.466639999981866e+000	 8.066670000003319e+000	 1.004989797445668e+001
0	 5.466639999981867e+000	 8.133340000006532e+000	 1.004691300110337e+001
0	 5.466639999981867e+000	 8.200010000009554e+000	 1.004401172576740e+001
0	 5.466639999981865e+000	 8.266680000012265e+000	 1.004119137323511e+001
0	 5.466639999981867e+000	 8.333350000014583e+000	 1.003844916829289e+001
0	 5.466639999981865e+000	 8.400020000016401e+000	 1.003578233572708e+001
0	 5.466639999981864e+000	 8.466690000017616e+000	 1.003318810032409e+001
0	 5.466639999981867e+000	 8.533360000018137e+000	 1.003066368687028e+001
0	 5.466639999981865e+000	 8.600030000017849e+000	 1.002820632015204e+001
0	 5.466639999981867e+000	 8.666700000016668e+000	 1.002581322495575e+001
0	 5.533309999982382e+000	 8.000000000000000e+000	 1.005286230708672e+001
0	 5.533309999982385e+000	 8.066670000003317e+000	 1.004980072887702e+001
0	 5.533309999982381e+000	 8.133340000006529e+000	 1.004682510755884e+001
0	 5.533309999982381e+000	 8.200010000009552e+000	 1.004393261064464e+001
0	 5.533309999982382e+000	 8.266680000012267e+000	 1.004112040564701e+001
0	 5.533309999982383e+000	 8.333350000014583e+000	 1.003838566007843e+001
0	 5.533309999982383e+000	 8.400020000016401e+000	 1.003572554145142e+001
0	 5.533309999982383e+000	 8.466690000017616e+000	 1.003313721727853e+001
0	 5.533309999982382e+000	 8.533360000018138e+000	 1.003061785507227e+001
0	 5.533309999982381e+000	 8.600030000017851e+000	 1.002816462234518e+001
0	 5.533309999982382e+000	 8.666700000016668e+000	 1.002577468660977e+001
0	 5.599979999983598e+000	 8.000000000000004e+000	 1.005269065143714e+001
0	 5.599979999983599e+000	 8.066670000003315e+000	 1.004964220968399e+001
0	 5.599979999983598e+000	 8.133340000006534e+000	 1.004667917745607e+001
0	 5.599979999983598e+000	 8.200010000009550e+000	 1.004379866891822e+001
0	 5.599979999983598e+000	 8.266680000012265e+000	 1.004099779823534e+001
0	 5.599979999983599e+000	 8.333350000014587e+000	 1.003827367957234e+001
0	 5.599979999983597e+000	 8.400020000016401e+000	 1.003562342709407e+001
0	 5.599979999983598e+000	 8.466690000017616e+000	 1.003304415496543e+001
0	 5.599979999983599e+000	 8.533360000018133e+000	 1.003053297735130e+001
0	 5.599979999983598e+000	 8.600030000017851e+000	 1.002808700841657e+001
0	 5.599979999983599e+000	 8.666700000016668e+000	 1.002570336232614e+001
0	 5.666649999985415e+000	 7.999999999999998e+000	 1.005245769289376e+001
0	 5.666649999985414e+000	 8.066670000003315e+000	 1.004942555515186e+001
0	 5.666649999985417e+000	 8.133340000006536e+000	 1.004647824011773e+001
0	 5.666649999985415e+000	 8.200010000009550e+000	 1.004361281253480e+001
0	 5.666649999985414e+000	 8.266680000012268e+000	 1.004082633714653e+001
0	 5.666649999985415e+000	 8.333350000014583e+000	 1.003811587869638e+001
0	 5.666649999985415e+000	 8.400020000016403e+000	 1.003547850192778e+001
0	 5.666649999985415e+000	 8.466690000017618e+000	 1.003291127158423e+001
0	 5.666649999985415e+000	 8.533360000018135e+000	 1.003041125240916e+001
0	 5.666649999985416e+000	 8.600030000017851e+000	 1.002797550914603e+001
0	 5.666649999985415e+000	 8.666700000016666e+000	 1.002560110653831e+001
0	 5.733319999987732e+000	 8.000000000000000e+000	 1.005216667025815e+001
0	 5.733319999987732e+000	 8.066670000003317e+000	 1.004915390355492e+001
0	 5.733319999987731e+000	 8.133340000006532e+000	 1.004622532486649e+001
0	 5.733319999987732e+000	 8.200010000009552e+000	 1.004337795344110e+001
0	 5.733319999987731e+000	 8.266680000012268e+000	 1.004060880852693e+001
0	 5.733319999987731e+000	 8.333350000014583e+000	 1.003791490937228e+001
0	 5.733319999987732e+000	 8.400020000016399e+000	 1.003529327522535e+001
0	 5.733319999987732e+000	 8.466690000017616e+000	 1.003274092533438e+001
0	 5.733319999987732e+000	 8.533360000018131e+000	 1.003025487894762e+001
0	 5.733319999987732e+000	 8.600030000017849e+000	 1.002783215531331e+001
0	 5.733319999987731e+000	 8.666700000016666e+000	 1.002546977367967e+001
0	 5.799989999990447e+000	 8.000000000000000e+000	 1.005182082233186e+001
0	 5.799989999990449e+000	 8.066670000003317e+000	 1.004883039316746e+001
0	 5.799989999990448e+000	 8.133340000006534e+000	 1.004592346102504e+001
0	 5.799989999990450e+000	 8.200010000009554e+000	 1.004309700358381e+001
0	 5.799989999990447e+000	 8.266680000012267e+000	 1.004034799852299e+001
0	 5.799989999990449e+000	 8.333350000014585e+000	 1.003767342352183e+001
0	 5.799989999990448e+000	 8.400020000016403e+000	 1.003507025625953e+001
0	 5.799989999990448e+000	 8.466690000017616e+000	 1.003253547441535e+001
0	 5.799989999990448e+000	 8.533360000018133e+000	 1.003006605566849e+001
0	 5.799989999990447e+000	 8.600030000017851e+000	 1.002765897769820e+001
0	 5.799989999990448e+000	 8.666700000016668e+000	 1.002531121818371e+001
0	 5.866659999993464e+000	 8.000000000000002e+000	 1.005142338791648e+001
0	 5.866659999993464e+000	 8.066670000003317e+000	 1.004845816226375e+001
0	 5.866659999993464e+000	 8.133340000006532e+000	 1.004557567791601e+001
0	 5.866659999993465e+000	 8.200010000009550e+000	 1.004277287490965e+001
0	 5.866659999993464e+000	 8.266680000012268e+000	 1.004004669328108e+001
0	 5.866659999993465e+000	 8.333350000014585e+000	 1.003739407306677e+001
0	 5.866659999993465e+000	 8.400020000016401e+000	 1.003481195430310e+001
0	 5.866659999993464e+000	 8.466690000017618e+000	 1.003229727702656e+001
0	 5.866659999993463e+000	 8.533360000018133e+000	 1.002984698127354e+001
0	 5.866659999993464e+000	 8.600030000017851e+000	 1.002745800708048e+001
0	 5.866659999993464e+000	 8.666700000016668e+000	 1.002512729448382e+001
0	 5.933329999996681e+000	 8.000000000000000e+000	 1.005097760581355e+001
0	 5.933329999996682e+000	 8.066670000003317e+000	 1.004804034911810e+001
0	 5.933329999996680e+000	 8.133340000006532e+000	 1.004518500486207e+001
0	 5.933329999996682e+000	 8.200010000009550e+000	 1.004240847936529e+001
0	 5.933329999996681e+000	 8.266680000012267e+000	 1.003970767894758e+001
0	 5.933329999996681e+000	 8.333350000014585e+000	 1.003707950992883e+001
0	 5.933329999996680e+000	 8.400020000016397e+000	 1.003452087862885e+001
0	 5.933329999996682e+000	 8.466690000017616e+000	 1.003202869136747e+001
0	 5.933329999996681e+000	 8.533360000018135e+000	 1.002959985446455e+001
0	 5.933329999996681e+000	 8.600030000017849e+000	 1.002723127423995e+001
0	 5.933329999996682e+000	 8.666700000016666e+000	 1.002491985701349e+001
0	 6.000000000000000e+000	 8.000000000000000e+000	 1.005048671482469e+001
0	 5.999999999999999e+000	 8.066670000003319e+000	 1.004758009200480e+001
0	 6.000000000000001e+000	 8.133340000006534e+000	 1.004475447118590e+001
0	 5.999999999999998e+000	 8.200010000009549e+000	 1.004200672889745e+001
0	 6.000000000000000e+000	 8.266680000012267e+000	 1.003933374166894e+001
0	 6.000000000000001e+000	 8.333350000014583e+000	 1.003673238602980e+001
0	 6.000000000000000e+000	 8.400020000016401e+000	 1.003419953850952e+001
0	 6.000000000000000e+000	 8.466690000017616e+000	 1.003173207563753e+001
0	 6.000000000000000e+000	 8.533360000018133e+000	 1.002932687394333e+001
0	 5.999999999999998e+000	 8.600030000017849e+000	 1.002698080995638e+001
0	 6.000000000000000e+000	 8.666700000016666e+000	 1.002469076020612e+001
0	 5.333299999983334e+000	 8.666700000016666e+000	 1.002578452610099e+001
0	 5.333299999983334e+000	 8.733360002791903e+000	 1.002348488342524e+001
0	 5.333299999983332e+000	 8.800020022230553e+000	 1.002129630355855e+001
0	 5.333299999983335e+000	 8.866680074997040e+000	 1.001921414885664e+001
0	 5.333299999983334e+000	 8.933340177755779e+000	 1.001723378136994e+001
0	 5.333299999983332e+000	 9.000000347171179e+000	 1.001535056284357e+001
0	 5.333299999983335e+000	 9.066660599907667e+000	 1.001355985471742e+001
0	 5.333299999983334e+000	 9.133320952629655e+000	 1.001185701812594e+001
0	 5.333299999983334e+000	 9.199981422001560e+000	 1.001023741389842e+001
0	 5.333299999983335e+000	 9.266642024687798e+000	 1.000869640255876e+001
0	 5.333299999983335e+000	 9.333302777352785e+000	 1.000722934432558e+001
0	 5.399969999982150e+000	 8.666700000016668e+000	 1.002581712293062e+001
0	 5.399969999982150e+000	 8.733360002791905e+000	 1.002351347742035e+001
0	 5.399969999982150e+000	 8.800020022230559e+000	 1.002132118456955e+001
0	 5.399969999982150e+000	 8.866680074997046e+000	 1.001923559606205e+001
0	 5.399969999982150e+000	 8.933340177755778e+000	 1.001725206327553e+001
0	 5.399969999982149e+000	 9.000000347171181e+000	 1.001536593728135e+001
0	 5.399969999982149e+000	 9.066660599907667e+000	 1.001357256884471e+001
0	 5.399969999982148e+000	 9.133320952629653e+000	 1.001186730842450e+001
0	 5.399969999982150e+000	 9.199981422001560e+000	 1.001024550617344e+001
0	 5.399969999982149e+000	 9.266642024687794e+000	 1.000870251193797e+001
0	 5.399969999982151e+000	 9.333302777352785e+000	 1.000723367525826e+001
0	 5.466639999981867e+000	 8.666700000016668e+000	 1.002581322495575e+001
0	 5.466639999981866e+000	 8.733360002791901e+000	 1.002350897898333e+001
0	 5.466639999981866e+000	 8.800020022230552e+000	 1.002131619961635e+001
0	 5.466639999981867e+000	 8.866680074997040e+000	 1.001923023372554e+001
0	 5.466639999981868e+000	 8.933340177755783e+000	 1.001724642787484e+001
0	 5.466639999981866e+000	 9.000000347171183e+000	 1.001536012832148e+001
0	 5.466639999981865e+000	 9.066660599907667e+000	 1.001356668101592e+001
0	 5.466639999981866e+000	 9.133320952629653e+000	 1.001186143160182e+001
0	 5.466639999981864e+000	 9.199981422001557e+000	 1.001023972541620e+001
0	 5.466639999981865e+000	 9.266642024687798e+000	 1.000869690748917e+001
0	 5.466639999981866e+000	 9.333302777352785e+000	 1.000722832254420e+001
0	 5.533309999982382e+000	 8.666700000016668e+000	 1.002577468660977e+001
0	 5.533309999982381e+000	 8.733360002791899e+000	 1.002347306699332e+001
0	 5.533309999982382e+000	 8.800020022230557e+000	 1.002128286197834e+001
0	 5.533309999982382e+000	 8.866680074997042e+000	 1.001919941948124e+001
0	 5.533309999982383e+000	 8.933340177755779e+000	 1.001721808711149e+001
0	 5.533309999982382e+000	 9.000000347171184e+000	 1.001533421217177e+001
0	 5.533309999982382e+000	 9.066660599907669e+000	 1.001354314165783e+001
0	 5.533309999982383e+000	 9.133320952629658e+000	 1.001184022225861e+001
0	 5.533309999982384e+000	 9.199981422001558e+000	 1.001022080035613e+001
0	 5.533309999982381e+000	 9.266642024687794e+000	 1.000868022202554e+001
0	 5.533309999982381e+000	 9.333302777352785e+000	 1.000721383303513e+001
0	 5.599979999983599e+000	 8.666700000016668e+000	 1.002570336232614e+001
0	 5.599979999983598e+000	 8.733360002791901e+000	 1.002340742032953e+001
0	 5.599979999983597e+000	 8.800020022230555e+000	 1.002122268493495e+001
0	 5.599979999983598e+000	 8.866680074997040e+000	 1.001914451096333e+001
0	 5.599979999983597e+000	 8.933340177755779e+000	 1.001716825292908e+001
0	 5.599979999983598e+000	 9.000000347171183e+000	 1.001528926504001e+001
0	 5.599979999983598e+000	 9.066660599907666e+000	 1.001350290119729e+001
0	 5.599979999983599e+000	 9.133320952629658e+000	 1.001180451499552e+001
0	 5.599979999983598e+000	 9.199981422001558e+000	 1.001018945972272e+001
0	 5.599979999983600e+000	 9.266642024687799e+000	 1.000865308836025e+001
0	 5.599979999983599e+000	 9.333302777352785e+000	 1.000719075358296e+001
0	 5.666649999985415e+000	 8.666700000016666e+000	 1.002560110653831e+001
0	 5.666649999985416e+000	 8.733360002791903e+000	 1.002331371787117e+001
0	 5.666649999985416e+000	 8.800020022230557e+000	 1.002113718176553e+001
0	 5.666649999985415e+000	 8.866680074997044e+000	 1.001906686580599e+001
0	 5.666649999985416e+000	 8.933340177755778e+000	 1.001709813727124e+001
0	 5.666649999985416e+000	 9.000000347171183e+000	 1.001522636313401e+001
0	 5.666649999985415e+000	 9.066660599907667e+000	 1.001344691006105e+001
0	 5.666649999985417e+000	 9.133320952629656e+000	 1.001175514441324e+001
0	 5.666649999985414e+000	 9.199981422001560e+000	 1.001014643224540e+001
0	 5.666649999985415e+000	 9.266642024687796e+000	 1.000861613930651e+001
0	 5.666649999985415e+000	 9.333302777352783e+000	 1.000715963103946e+001
0	 5.733319999987731e+000	 8.666700000016666e+000	 1.002546977367967e+001
0	 5.733319999987731e+000	 8.733360002791903e+000	 1.002319363849740e+001
0	 5.733319999987732e+000	 8.800020022230555e+000	 1.002102786574951e+001
0	 5.733319999987732e+000	 8.866680074997042e+000	 1.001896784164340e+001
0	 5.733319999987732e+000	 8.933340177755776e+000	 1.001700895208156e+001
0	 5.733319999987733e+000	 9.000000347171181e+000	 1.001514658266156e+001
0	 5.733319999987732e+000	 9.066660599907671e+000	 1.001337611867597e+001
0	 5.733319999987732e+000	 9.133320952629656e+000	 1.001169294511243e+001
0	 5.733319999987731e+000	 9.199981422001558e+000	 1.001009244665367e+001
0	 5.733319999987732e+000	 9.266642024687796e+000	 1.000857000767741e+001
0	 5.733319999987731e+000	 9.333302777352783e+000	 1.000712101225647e+001
0	 5.799989999990448e+000	 8.666700000016668e+000	 1.002531121818371e+001
0	 5.799989999990447e+000	 8.733360002791901e+000	 1.002304886108743e+001
0	 5.799989999990448e+000	 8.800020022230555e+000	 1.002089625016628e+001
0	 5.799989999990448e+000	 8.866680074997042e+000	 1.001884879610974e+001
0	 5.799989999990448e+000	 8.933340177755779e+000	 1.001690190930370e+001
0	 5.799989999990448e+000	 9.000000347171177e+000	 1.001505099983049e+001
0	 5.799989999990449e+000	 9.066660599907667e+000	 1.001329147746882e+001
0	 5.799989999990448e+000	 9.133320952629656e+000	 1.001161875169380e+001
0	 5.799989999990449e+000	 9.199981422001558e+000	 1.001002823167697e+001
0	 5.799989999990449e+000	 9.266642024687796e+000	 1.000851532628620e+001
0	 5.799989999990448e+000	 9.333302777352783e+000	 1.000707544408583e+001
0	 5.866659999993464e+000	 8.666700000016668e+000	 1.002512729448382e+001
0	 5.866659999993465e+000	 8.733360002791903e+000	 1.002288106452046e+001
0	 5.866659999993465e+000	 8.800020022230553e+000	 1.002074384829525e+001
0	 5.866659999993465e+000	 8.866680074997042e+000	 1.001871108683915e+001
0	 5.866659999993464e+000	 8.933340177755778e+000	 1.001677822088121e+001
0	 5.866659999993465e+000	 9.000000347171184e+000	 1.001494069084856e+001
0	 5.866659999993465e+000	 9.066660599907669e+000	 1.001319393686640e+001
0	 5.866659999993464e+000	 9.133320952629656e+000	 1.001153339875802e+001
0	 5.866659999993465e+000	 9.199981422001558e+000	 1.000995451604475e+001
0	 5.866659999993464e+000	 9.266642024687796e+000	 1.000845272794602e+001
0	 5.866659999993465e+000	 9.333302777352783e+000	 1.000702347337936e+001
0	 5.933329999996682e+000	 8.666700000016666e+000	 1.002491985701349e+001
0	 5.933329999996682e+000	 8.733360002791901e+000	 1.002269192767567e+001
0	 5.933329999996682e+000	 8.800020022230557e+000	 1.002057217341582e+001
0	 5.933329999996681e+000	 8.866680074997040e+000	 1.001855607146585e+001
0	 5.933329999996682e+000	 8.933340177755778e+000	 1.001663909875776e+001
0	 5.933329999996682e+000	 9.000000347171183e+000	 1.001481673192362e+001
0	 5.933329999996681e+000	 9.066660599907667e+000	 1.001308444729556e+001
0	 5.933329999996681e+000	 9.133320952629655e+000	 1.001143772090574e+001
0	 5.933329999996682e+000	 9.199981422001558e+000	 1.000987202848647e+001
0	 5.933329999996682e+000	 9.266642024687796e+000	 1.000838284547005e+001
0	 5.933329999996681e+000	 9.333302777352781e+000	 1.000696564698887e+001
0	 6.000000000000000e+000	 8.666700000016666e+000	 1.002469076020612e+001
0	 6.000000000000000e+000	 8.733360002791903e+000	 1.002248312943224e+001
0	 6.000000000000000e+000	 8.800020022230555e+000	 1.002038273880738e+001
0	 6.000000000000000e+000	 8.866680074997040e+000	 1.001838510762398e+001
0	 6.000000000000000e+000	 8.933340177755781e+000	 1.001648575487694e+001
0	 6.000000000000000e+000	 9.000000347171181e+000	 1.001468019926345e+001
0	 6.000000000000001e+000	 9.066660599907667e+000	 1.001296395918306e+001
0	 5.999999999999998e+000	 9.133320952629655e+000	 1.001133255273770e+001
0	 6.000000000000000e+000	 9.199981422001558e+000	 1.000978149773163e+001
0	 5.999999999999998e+000	 9.266642024687796e+000	 1.000830631167147e+001
0	 6.000000000000000e+000	 9.333302777352783e+000	 1.000690251176620e+001
0	 5.333299999983335e+000	 9.333302777352785e+000	 1.000722934432558e+001
0	 5.333299999983335e+000	 9.399973674588175e+000	 1.000587791758484e+001
0	 5.333299999983333e+000	 9.466644621844619e+000	 1.000468248596984e+001
0	 5.333299999983335e+000	 9.533315502450002e+000	 1.000363579538712e+001
0	 5.333299999983334e+000	 9.599986199732197e+000	 1.000273059486666e+001
0	 5.333299999983335e+000	 9.666656597019097e+000	 1.000195963656209e+001
0	 5.333299999983334e+000	 9.733326577638577e+000	 1.000131567575047e+001
0	 5.333299999983334e+000	 9.799996024918524e+000	 1.000079147083239e+001
0	 5.333299999983334e+000	 9.866664822186822e+000	 1.000037978333204e+001
0	 5.333299999983334e+000	 9.933332852771354e+000	 1.000007337789761e+001
0	 5.333299999983334e+000	 1.000000000000000e+001	 9.999865022301400e+000
0	 5.399969999982151e+000	 9.333302777352785e+000	 1.000723367525826e+001
0	 5.399969999982150e+000	 9.399973674588175e+000	 1.000588067121378e+001
0	 5.399969999982151e+000	 9.466644621844621e+000	 1.000468388120940e+001
0	 5.399969999982151e+000	 9.533315502449996e+000	 1.000363607133867e+001
0	 5.399969999982152e+000	 9.599986199732198e+000	 1.000273001082531e+001
0	 5.399969999982150e+000	 9.666656597019093e+000	 1.000195847202323e+001
0	 5.399969999982148e+000	 9.733326577638573e+000	 1.000131423041636e+001
0	 5.399969999982150e+000	 9.799996024918521e+000	 1.000079006461893e+001
0	 5.399969999982150e+000	 9.866664822186824e+000	 1.000037875637533e+001
0	 5.399969999982150e+000	 9.933332852771352e+000	 1.000007309056052e+001
0	 5.399969999982149e+000	 1.000000000000000e+001	 9.999865855180344e+000
0	 5.466639999981866e+000	 9.333302777352785e+000	 1.000722832254419e+001
0	 5.466639999981865e+000	 9.399973674588175e+000	 1.000587557187623e+001
0	 5.466639999981866e+000	 9.466644621844617e+000	 1.000467898724833e+001
0	 5.466639999981866e+000	 9.533315502449996e+000	 1.000363136628137e+001
0	 5.466639999981865e+000	 9.599986199732198e+000	 1.000272550972865e+001
0	 5.466639999981867e+000	 9.666656597019093e+000	 1.000195422147569e+001
0	 5.466639999981867e+000	 9.733326577638577e+000	 1.000131030854008e+001
0	 5.466639999981867e+000	 9.799996024918523e+000	 1.000078658107178e+001
0	 5.466639999981866e+000	 9.866664822186820e+000	 1.000037585235307e+001
0	 5.466639999981867e+000	 9.933332852771352e+000	 1.000007093879883e+001
0	 5.466639999981866e+000	 1.000000000000000e+001	 9.999864659956986e+000
0	 5.533309999982381e+000	 9.333302777352785e+000	 1.000721383303513e+001
0	 5.533309999982384e+000	 9.399973674588178e+000	 1.000586309533217e+001
0	 5.533309999982383e+000	 9.466644621844624e+000	 1.000466822856254e+001
0	 5.533309999982382e+000	 9.533315502450002e+000	 1.000362207321480e+001
0	 5.533309999982383e+000	 9.599986199732197e+000	 1.000271747290760e+001
0	 5.533309999982381e+000	 9.666656597019092e+000	 1.000194727438949e+001
0	 5.533309999982381e+000	 9.733326577638572e+000	 1.000130432753890e+001
0	 5.533309999982383e+000	 9.799996024918526e+000	 1.000078148536420e+001
0	 5.533309999982384e+000	 9.866664822186825e+000	 1.000037160400400e+001
0	 5.533309999982382e+000	 9.933332852771352e+000	 1.000006754272719e+001
0	 5.533309999982383e+000	 1.000000000000000e+001	 9.999862163933313e+000
0	 5.599979999983599e+000	 9.333302777352785e+000	 1.000719075358296e+001
0	 5.599979999983598e+000	 9.399973674588177e+000	 1.000584371734147e+001
0	 5.599979999983598e+000	 9.466644621844619e+000	 1.000465202962801e+001
0	 5.599979999983598e+000	 9.533315502450002e+000	 1.000360858513864e+001
0	 5.599979999983598e+000	 9.599986199732197e+000	 1.000270628169316e+001
0	 5.599979999983598e+000	 9.666656597019093e+000	 1.000193802023472e+001
0	 5.599979999983599e+000	 9.733326577638577e+000	 1.000129670483005e+001
0	 5.599979999983598e+000	 9.799996024918526e+000	 1.000077524266940e+001
0	 5.599979999983600e+000	 9.866664822186820e+000	 1.000036654406678e+001
0	 5.599979999983598e+000	 9.933332852771351e+000	 1.000006352246010e+001
0	 5.599979999983598e+000	 1.000000000000000e+001	 9.999859094411626e+000
0	 5.666649999985415e+000	 9.333302777352783e+000	 1.000715963103946e+001
0	 5.666649999985416e+000	 9.399973674588177e+000	 1.000581791366401e+001
0	 5.666649999985415e+000	 9.466644621844619e+000	 1.000463081492060e+001
0	 5.666649999985415e+000	 9.533315502450000e+000	 1.000359129505249e+001
0	 5.666649999985414e+000	 9.599986199732197e+000	 1.000269231741620e+001
0	 5.666649999985413e+000	 9.666656597019092e+000	 1.000192684848141e+001
0	 5.666649999985414e+000	 9.733326577638577e+000	 1.000128785783086e+001
0	 5.666649999985416e+000	 9.799996024918523e+000	 1.000076831816058e+001
0	 5.666649999985417e+000	 9.866664822186827e+000	 1.000036120528002e+001
0	 5.666649999985414e+000	 9.933332852771354e+000	 1.000005949811217e+001
0	 5.666649999985415e+000	 1.000000000000000e+001	 9.999856178694040e+000
0	 5.733319999987731e+000	 9.333302777352783e+000	 1.000712101225647e+001
0	 5.733319999987730e+000	 9.399973674588175e+000	 1.000578616005970e+001
0	 5.733319999987733e+000	 9.466644621844621e+000	 1.000460500891629e+001
0	 5.733319999987731e+000	 9.533315502449998e+000	 1.000357059595598e+001
0	 5.733319999987731e+000	 9.599986199732197e+000	 1.000267596140775e+001
0	 5.733319999987731e+000	 9.666656597019093e+000	 1.000191414859958e+001
0	 5.733319999987730e+000	 9.733326577638575e+000	 1.000127820395858e+001
0	 5.733319999987732e+000	 9.799996024918523e+000	 1.000076117701103e+001
0	 5.733319999987732e+000	 9.866664822186822e+000	 1.000035612038245e+001
0	 5.733319999987733e+000	 9.933332852771356e+000	 1.000005608979801e+001
0	 5.733319999987732e+000	 1.000000000000000e+001	 9.999854144082711e+000
0	 5.799989999990448e+000	 9.333302777352783e+000	 1.000707544408583e+001
0	 5.799989999990448e+000	 9.399973674588178e+000	 1.000574893228847e+001
0	 5.799989999990448e+000	 9.466644621844621e+000	 1.000457503609097e+001
0	 5.799989999990449e+000	 9.533315502450002e+000	 1.000354688084872e+001
0	 5.799989999990450e+000	 9.599986199732200e+000	 1.000265759499867e+001
0	 5.799989999990449e+000	 9.666656597019097e+000	 1.000190031005934e+001
0	 5.799989999990448e+000	 9.733326577638575e+000	 1.000126816063055e+001
0	 5.799989999990448e+000	 9.799996024918526e+000	 1.000075428439394e+001
0	 5.799989999990448e+000	 9.866664822186824e+000	 1.000035182211269e+001
0	 5.799989999990448e+000	 9.933332852771352e+000	 1.000005391763210e+001
0	 5.799989999990449e+000	 1.000000000000000e+001	 9.999853717879743e+000
0	 5.866659999993465e+000	 9.333302777352783e+000	 1.000702347337936e+001
0	 5.866659999993463e+000	 9.399973674588175e+000	 1.000570670611022e+001
0	 5.866659999993466e+000	 9.466644621844624e+000	 1.000454132092057e+001
0	 5.866659999993463e+000	 9.533315502450002e+000	 1.000352054273032e+001
0	 5.866659999993465e+000	 9.599986199732197e+000	 1.000263759951998e+001
0	 5.866659999993464e+000	 9.666656597019095e+000	 1.000188572233062e+001
0	 5.866659999993464e+000	 9.733326577638575e+000	 1.000125814526403e+001
0	 5.866659999993464e+000	 9.799996024918523e+000	 1.000074810548255e+001
0	 5.866659999993464e+000	 9.866664822186822e+000	 1.000034884320949e+001
0	 5.866659999993464e+000	 9.933332852771354e+000	 1.000005360172915e+001
0	 5.866659999993464e+000	 1.000000000000000e+001	 9.999855627387385e+000
0	 5.933329999996681e+000	 9.333302777352781e+000	 1.000696564698887e+001
0	 5.933329999996682e+000	 9.399973674588177e+000	 1.000565995728485e+001
0	 5.933329999996681e+000	 9.466644621844619e+000	 1.000450428788106e+001
0	 5.933329999996681e+000	 9.533315502450000e+000	 1.000349197460046e+001
0	 5.933329999996682e+000	 9.599986199732197e+000	 1.000261635630255e+001
0	 5.933329999996682e+000	 9.666656597019093e+000	 1.000187077488360e+001
0	 5.933329999996681e+000	 9.733326577638575e+000	 1.000124857527629e+001
0	 5.933329999996681e+000	 9.799996024918523e+000	 1.000074310545014e+001
0	 5.933329999996682e+000	 9.866664822186820e+000	 1.000034771641145e+001
0	 5.933329999996682e+000	 9.933332852771354e+000	 1.000005576220371e+001
0	 5.933329999996681e+000	 9.999999999999998e+000	 9.999860599907784e+000
0	 6.000000000000000e+000	 9.333302777352783e+000	 1.000690251176620e+001
0	 6.000000000000002e+000	 9.399973674588175e+000	 1.000560916157225e+001
0	 5.999999999999998e+000	 9.466644621844619e+000	 1.000446436144834e+001
0	 6.000000000000001e+000	 9.533315502450000e+000	 1.000346156945870e+001
0	 6.000000000000001e+000	 9.599986199732197e+000	 1.000259424667743e+001
0	 6.000000000000001e+000	 9.666656597019093e+000	 1.000185585718825e+001
0	 6.000000000000002e+000	 9.733326577638577e+000	 1.000123986808464e+001
0	 6.000000000000000e+000	 9.799996024918523e+000	 1.000073974946988e+001
0	 6.000000000000000e+000	 9.866664822186824e+000	 1.000034897445726e+001
0	 6.000000000000000e+000	 9.933332852771352e+000	 1.000006101917023e+001
0	 6.000000000000000e+000	 1.000000000000000e+001	 9.999869362743036e+000
0	 6.000000000000000e+000	 0.000000000000000e+000	 1.019964260201069e+001
0	 6.000000000000001e+000	 6.666714722864757e-002	 1.020063436921294e+001
0	 6.000000000000000e+000	 1.333351778131789e-001	 1.020161361371692e+001
0	 6.000000000000000e+000	 2.000039750814772e-001	 1.020263049721782e+001
0	 6.000000000000001e+000	 2.666734223614256e-001	 1.020373518841601e+001
0	 6.000000000000000e+000	 3.333434029809069e-001	 1.020497786301651e+001
0	 6.000000000000001e+000	 4.000138002678044e-001	 1.020640870372861e+001
0	 5.999999999999998e+000	 4.666844975500010e-001	 1.020807790026575e+001
0	 6.000000000000000e+000	 5.333553781553804e-001	 1.021003564934548e+001
0	 6.000000000000000e+000	 6.000263254118248e-001	 1.021233215468970e+001
0	 6.000000000000000e+000	 6.666972226472177e-001	 1.021501762702500e+001
0	 6.066670000003317e+000	 0.000000000000000e+000	 1.018893881647245e+001
0	 6.066670000003317e+000	 6.666714722864756e-002	 1.018990635676460e+001
0	 6.066670000003318e+000	 1.333351778131789e-001	 1.019095335013418e+001
0	 6.066670000003317e+000	 2.000039750814773e-001	 1.019211349077316e+001
0	 6.066670000003315e+000	 2.666734223614255e-001	 1.019342047949724e+001
0	 6.066670000003317e+000	 3.333434029809069e-001	 1.019490802374538e+001
0	 6.066670000003316e+000	 4.000138002678045e-001	 1.019660983757947e+001
0	 6.066670000003315e+000	 4.666844975500010e-001	 1.019855964168416e+001
0	 6.066670000003319e+000	 5.333553781553804e-001	 1.020079116336693e+001
0	 6.066670000003317e+000	 6.000263254118247e-001	 1.020333813655825e+001
0	 6.066670000003317e+000	 6.666972226472177e-001	 1.020623430181199e+001
0	 6.133340000006534e+000	 0.000000000000000e+000	 1.017913789751239e+001
0	 6.133340000006531e+000	 6.666714722864754e-002	 1.018001223630184e+001
0	 6.133340000006535e+000	 1.333351778131790e-001	 1.018104469769140e+001
0	 6.133340000006532e+000	 2.000039750814772e-001	 1.018225482590700e+001
0	 6.133340000006532e+000	 2.666734223614256e-001	 1.018366217145373e+001
0	 6.133340000006531e+000	 3.333434029809068e-001	 1.018528629111542e+001
0	 6.133340000006532e+000	 4.000138002678043e-001	 1.018714674795434e+001
0	 6.133340000006533e+000	 4.666844975500012e-001	 1.018926311131108e+001
0	 6.133340000006534e+000	 5.333553781553803e-001	 1.019165495680454e+001
0	 6.133340000006532e+000	 6.000263254118246e-001	 1.019434186633220e+001
0	 6.133340000006532e+000	 6.666972226472175e-001	 1.019734342807041e+001
0	 6.200010000009550e+000	 0.000000000000000e+000	 1.017014696830150e+001
0	 6.200010000009550e+000	 6.666714722864758e-002	 1.017087568216886e+001
0	 6.200010000009550e+000	 1.333351778131789e-001	 1.017182754509750e+001
0	 6.200010000009549e+000	 2.000039750814772e-001	 1.017301026898201e+001
0	 6.200010000009550e+000	 2.666734223614256e-001	 1.017443157168506e+001
0	 6.200010000009550e+000	 3.333434029809069e-001	 1.017609917703686e+001
0	 6.200010000009551e+000	 4.000138002678044e-001	 1.017802081483488e+001
0	 6.200010000009549e+000	 4.666844975500010e-001	 1.018020422084378e+001
0	 6.200010000009550e+000	 5.333553781553801e-001	 1.018265713679542e+001
0	 6.200010000009551e+000	 6.000263254118248e-001	 1.018538731038902e+001
0	 6.200010000009549e+000	 6.666972226472177e-001	 1.018840249529157e+001
0	 6.266680000012268e+000	 0.000000000000000e+000	 1.016187315201081e+001
0	 6.266680000012266e+000	 6.666714722864753e-002	 1.016242036870992e+001
0	 6.266680000012265e+000	 1.333351778131789e-001	 1.016324178106135e+001
0	 6.266680000012266e+000	 2.000039750814772e-001	 1.016433558636087e+001
0	 6.266680000012265e+000	 2.666734223614255e-001	 1.016569998759087e+001
0	 6.266680000012265e+000	 3.333434029809068e-001	 1.016733319341998e+001
0	 6.266680000012268e+000	 4.000138002678045e-001	 1.016923341820275e+001
0	 6.266680000012266e+000	 4.666844975500011e-001	 1.017139888197957e+001
0	 6.266680000012268e+000	 5.333553781553803e-001	 1.017382781047664e+001
0	 6.266680000012265e+000	 6.000263254118247e-001	 1.017651843510619e+001
0	 6.266680000012268e+000	 6.666972226472177e-001	 1.017946899296678e+001
0	 6.333350000014583e+000	 0.000000000000000e+000	 1.015422357181133e+001
0	 6.333350000014582e+000	 6.666714722864756e-002	 1.015456997026925e+001
0	 6.333350000014583e+000	 1.333351778131790e-001	 1.015522729429191e+001
0	 6.333350000014582e+000	 2.000039750814773e-001	 1.015618654440624e+001
0	 6.333350000014582e+000	 2.666734223614257e-001	 1.015743872657074e+001
0	 6.333350000014582e+000	 3.333434029809068e-001	 1.015897485217504e+001
0	 6.333350000014582e+000	 4.000138002678044e-001	 1.016078593803964e+001
0	 6.333350000014582e+000	 4.666844975500012e-001	 1.016286300641574e+001
0	 6.333350000014582e+000	 5.333553781553800e-001	 1.016519708498529e+001
0	 6.333350000014583e+000	 6.000263254118248e-001	 1.016777920686116e+001
0	 6.333350000014584e+000	 6.666972226472179e-001	 1.017060041058740e+001
0	 6.400020000016400e+000	 0.000000000000000e+000	 1.014710535087408e+001
0	 6.400020000016401e+000	 6.666714722864756e-002	 1.014724816119110e+001
0	 6.400020000016398e+000	 1.333351778131789e-001	 1.014772397349807e+001
0	 6.400020000016401e+000	 2.000039750814772e-001	 1.014851890948080e+001
0	 6.400020000016400e+000	 2.666734223614256e-001	 1.014961909602430e+001
0	 6.400020000016399e+000	 3.333434029809069e-001	 1.015101066521233e+001
0	 6.400020000016401e+000	 4.000138002678044e-001	 1.015267975432722e+001
0	 6.400020000016400e+000	 4.666844975500012e-001	 1.015461250584959e+001
0	 6.400020000016396e+000	 5.333553781553801e-001	 1.015679506745849e+001
0	 6.400020000016400e+000	 6.000263254118248e-001	 1.015921359203144e+001
0	 6.400020000016400e+000	 6.666972226472179e-001	 1.016185423764475e+001
0	 6.466690000017615e+000	 0.000000000000000e+000	 1.014042561237008e+001
0	 6.466690000017613e+000	 6.666714722864756e-002	 1.014037861581969e+001
0	 6.466690000017615e+000	 1.333351778131790e-001	 1.014067170738875e+001
0	 6.466690000017614e+000	 2.000039750814772e-001	 1.014128844794724e+001
0	 6.466690000017617e+000	 2.666734223614255e-001	 1.014221240335115e+001
0	 6.466690000017617e+000	 3.333434029809070e-001	 1.014342714444213e+001
0	 6.466690000017615e+000	 4.000138002678044e-001	 1.014491624704716e+001
0	 6.466690000017615e+000	 4.666844975500011e-001	 1.014666329197843e+001
0	 6.466690000017615e+000	 5.333553781553801e-001	 1.014865186503331e+001
0	 6.466690000017616e+000	 6.000263254118248e-001	 1.015086555699448e+001
0	 6.466690000017614e+000	 6.666972226472175e-001	 1.015328796363015e+001
0	 6.533360000018132e+000	 0.000000000000000e+000	 1.013409147947037e+001
0	 6.533360000018130e+000	 6.666714722864756e-002	 1.013388500849929e+001
0	 6.533360000018132e+000	 1.333351778131789e-001	 1.013401038467290e+001
0	 6.533360000018132e+000	 2.000039750814772e-001	 1.013445092616824e+001
0	 6.533360000018133e+000	 2.666734223614256e-001	 1.013518995595093e+001
0	 6.533360000018132e+000	 3.333434029809069e-001	 1.013621080177470e+001
0	 6.533360000018131e+000	 4.000138002678044e-001	 1.013749679618115e+001
0	 6.533360000018132e+000	 4.666844975500012e-001	 1.013903127649956e+001
0	 6.533360000018133e+000	 5.333553781553801e-001	 1.014079758484687e+001
0	 6.533360000018131e+000	 6.000263254118248e-001	 1.014277906812778e+001
0	 6.533360000018131e+000	 6.666972226472177e-001	 1.014495907803495e+001
0	 6.600030000017848e+000	 0.000000000000000e+000	 1.012801007534597e+001
0	 6.600030000017849e+000	 6.666714722864757e-002	 1.012769101357418e+001
0	 6.600030000017847e+000	 1.333351778131789e-001	 1.012767989405945e+001
0	 6.600030000017847e+000	 2.000039750814772e-001	 1.012796211050651e+001
0	 6.600030000017848e+000	 2.666734223614255e-001	 1.012852306122326e+001
0	 6.600030000017847e+000	 3.333434029809069e-001	 1.012934814912034e+001
0	 6.600030000017848e+000	 4.000138002678044e-001	 1.013042278171088e+001
0	 6.600030000017848e+000	 4.666844975500012e-001	 1.013173237111029e+001
0	 6.600030000017847e+000	 5.333553781553803e-001	 1.013326233403627e+001
0	 6.600030000017847e+000	 6.000263254118248e-001	 1.013499809180882e+001
0	 6.600030000017847e+000	 6.666972226472178e-001	 1.013692507035048e+001
0	 6.666700000016666e+000	 0.000000000000000e+000	 1.012208852316793e+001
0	 6.666700000016668e+000	 6.666714722864757e-002	 1.012172030538858e+001
0	 6.666700000016666e+000	 1.333351778131790e-001	 1.012162012425732e+001
0	 6.666700000016665e+000	 2.000039750814772e-001	 1.012177776732473e+001
0	 6.666700000016667e+000	 2.666734223614256e-001	 1.012218302656777e+001
0	 6.666700000016667e+000	 3.333434029809069e-001	 1.012282569838934e+001
0	 6.666700000016666e+000	 4.000138002678044e-001	 1.012369558361804e+001
0	 6.666700000016665e+000	 4.666844975500010e-001	 1.012478248750794e+001
0	 6.666700000016668e+000	 5.333553781553803e-001	 1.012607621973861e+001
0	 6.666700000016667e+000	 6.000263254118248e-001	 1.012756659441507e+001
0	 6.666700000016666e+000	 6.666972226472178e-001	 1.012924343006807e+001
0	 6.000000000000000e+000	 6.666972226472177e-001	 1.021501762702500e+001
0	 6.000000000000000e+000	 7.333579753122046e-001	 1.021790129288975e+001
0	 6.000000000000000e+000	 8.000185779984417e-001	 1.022076691496416e+001
0	 6.000000000000002e+000	 8.666790473703454e-001	 1.022362520977017e+001
0	 6.000000000000000e+000	 9.333394000923323e-001	 1.022648689353085e+001
0	 5.999999999999999e+000	 9.999996528288190e-001	 1.022936268217053e+001
0	 6.000000000000000e+000	 1.066659822244222e+000	 1.023226329131472e+001
0	 6.000000000000001e+000	 1.133319925002959e+000	 1.023519943629017e+001
0	 6.000000000000000e+000	 1.199979977769445e+000	 1.023818183212487e+001
0	 6.000000000000000e+000	 1.266639997208098e+000	 1.024122119354807e+001
0	 6.000000000000000e+000	 1.333299999983334e+000	 1.024432823499028e+001
0	 6.066670000003317e+000	 6.666972226472177e-001	 1.020623430181199e+001
0	 6.066670000003316e+000	 7.333579753122046e-001	 1.020927286563652e+001
0	 6.066670000003316e+000	 8.000185779984416e-001	 1.021223436379464e+001
0	 6.066670000003316e+000	 8.666790473703451e-001	 1.021513214867762e+001
0	 6.066670000003317e+000	 9.333394000923321e-001	 1.021797957244049e+001
0	 6.066670000003318e+000	 9.999996528288190e-001	 1.022078998700212e+001
0	 6.066670000003317e+000	 1.066659822244222e+000	 1.022357674404520e+001
0	 6.066670000003319e+000	 1.133319925002959e+000	 1.022635319501623e+001
0	 6.066670000003316e+000	 1.199979977769445e+000	 1.022913269112559e+001
0	 6.066670000003317e+000	 1.266639997208098e+000	 1.023192858334749e+001
0	 6.066670000003319e+000	 1.333299999983334e+000	 1.023475422242001e+001
0	 6.133340000006532e+000	 6.666972226472175e-001	 1.019734342807041e+001
0	 6.133340000006531e+000	 7.333579753122045e-001	 1.020044839646888e+001
0	 6.133340000006534e+000	 8.000185779984415e-001	 1.020344375001547e+001
0	 6.133340000006532e+000	 8.666790473703452e-001	 1.020634499313012e+001
0	 6.133340000006530e+000	 9.333394000923321e-001	 1.020916763002472e+001
0	 6.133340000006535e+000	 9.999996528288190e-001	 1.021192716470330e+001
0	 6.133340000006534e+000	 1.066659822244222e+000	 1.021463910096187e+001
0	 6.133340000006535e+000	 1.133319925002959e+000	 1.021731894238855e+001
0	 6.133340000006535e+000	 1.199979977769445e+000	 1.021998219236354e+001
0	 6.133340000006533e+000	 1.266639997208098e+000	 1.022264435405911e+001
0	 6.133340000006530e+000	 1.333299999983334e+000	 1.022532093043968e+001
0	 6.200010000009549e+000	 6.666972226472177e-001	 1.018840249529156e+001
0	 6.200010000009550e+000	 7.333579753122048e-001	 1.019149673233734e+001
0	 6.200010000009550e+000	 8.000185779984417e-001	 1.019447128678952e+001
0	 6.200010000009550e+000	 8.666790473703455e-001	 1.019734333122497e+001
0	 6.200010000009551e+000	 9.333394000923322e-001	 1.020013003801249e+001
0	 6.200010000009550e+000	 9.999996528288186e-001	 1.020284857931273e+001
0	 6.200010000009550e+000	 1.066659822244222e+000	 1.020551612707831e+001
0	 6.200010000009550e+000	 1.133319925002959e+000	 1.020814985305373e+001
0	 6.200010000009549e+000	 1.199979977769445e+000	 1.021076692877547e+001
0	 6.200010000009551e+000	 1.266639997208098e+000	 1.021338452557190e+001
0	 6.200010000009550e+000	 1.333299999983334e+000	 1.021601981456340e+001
0	 6.266680000012268e+000	 6.666972226472177e-001	 1.017946899296678e+001
0	 6.266680000012268e+000	 7.333579753122048e-001	 1.018248672019247e+001
0	 6.266680000012267e+000	 8.000185779984417e-001	 1.018539318727962e+001
0	 6.266680000012267e+000	 8.666790473703454e-001	 1.018820675105948e+001
0	 6.266680000012265e+000	 9.333394000923319e-001	 1.019094576813265e+001
0	 6.266680000012265e+000	 9.999996528288190e-001	 1.019362859486908e+001
0	 6.266680000012266e+000	 1.066659822244222e+000	 1.019627358740809e+001
0	 6.266680000012266e+000	 1.133319925002959e+000	 1.019889910165841e+001
0	 6.266680000012266e+000	 1.199979977769445e+000	 1.020152349329813e+001
0	 6.266680000012266e+000	 1.266639997208098e+000	 1.020416511777480e+001
0	 6.266680000012264e+000	 1.333299999983334e+000	 1.020684233030531e+001
0	 6.333350000014584e+000	 6.666972226472179e-001	 1.017060041058740e+001
0	 6.333350000014582e+000	 7.333579753122047e-001	 1.017348720698478e+001
0	 6.333350000014582e+000	 8.000185779984416e-001	 1.017628566464863e+001
0	 6.333350000014582e+000	 8.666790473703452e-001	 1.017901484073095e+001
0	 6.333350000014582e+000	 9.333394000923322e-001	 1.018169379211414e+001
0	 6.333350000014582e+000	 9.999996528288190e-001	 1.018434157541101e+001
0	 6.333350000014582e+000	 1.066659822244222e+000	 1.018697724696480e+001
0	 6.333350000014585e+000	 1.133319925002959e+000	 1.018961986284919e+001
0	 6.333350000014584e+000	 1.199979977769445e+000	 1.019228847886832e+001
0	 6.333350000014583e+000	 1.266639997208098e+000	 1.019500215055675e+001
0	 6.333350000014582e+000	 1.333299999983334e+000	 1.019777993317952e+001
0	 6.400020000016400e+000	 6.666972226472179e-001	 1.016185423764475e+001
0	 6.400020000016400e+000	 7.333579753122049e-001	 1.016456703966482e+001
0	 6.400020000016401e+000	 8.000185779984418e-001	 1.016722493205940e+001
0	 6.400020000016400e+000	 8.666790473703454e-001	 1.016984718833668e+001
0	 6.400020000016401e+000	 9.333394000923323e-001	 1.017245308168583e+001
0	 6.400020000016400e+000	 9.999996528288190e-001	 1.017506188497717e+001
0	 6.400020000016400e+000	 1.066659822244222e+000	 1.017769287076200e+001
0	 6.400020000016401e+000	 1.133319925002959e+000	 1.018036531127270e+001
0	 6.400020000016400e+000	 1.199979977769445e+000	 1.018309847842275e+001
0	 6.400020000016399e+000	 1.266639997208098e+000	 1.018591164380669e+001
0	 6.400020000016399e+000	 1.333299999983334e+000	 1.018882407870014e+001
0	 6.466690000017614e+000	 6.666972226472175e-001	 1.015328796363014e+001
0	 6.466690000017617e+000	 7.333579753122049e-001	 1.015579506518315e+001
0	 6.466690000017615e+000	 8.000185779984416e-001	 1.015828720267480e+001
0	 6.466690000017614e+000	 8.666790473703451e-001	 1.016078338197396e+001
0	 6.466690000017615e+000	 9.333394000923321e-001	 1.016330260857667e+001
0	 6.466690000017617e+000	 9.999996528288190e-001	 1.016586388760624e+001
0	 6.466690000017616e+000	 1.066659822244222e+000	 1.016848622381327e+001
0	 6.466690000017616e+000	 1.133319925002959e+000	 1.017118862157554e+001
0	 6.466690000017617e+000	 1.199979977769445e+000	 1.017399008489819e+001
0	 6.466690000017614e+000	 1.266639997208098e+000	 1.017690961741356e+001
0	 6.466690000017616e+000	 1.333299999983334e+000	 1.017996622238130e+001
0	 6.533360000018131e+000	 6.666972226472177e-001	 1.014495907803495e+001
0	 6.533360000018132e+000	 7.333579753122047e-001	 1.014724013049029e+001
0	 6.533360000018133e+000	 8.000185779984416e-001	 1.014954868965768e+001
0	 6.533360000018130e+000	 8.666790473703452e-001	 1.015190300974010e+001
0	 6.533360000018132e+000	 9.333394000923322e-001	 1.015432134451552e+001
0	 6.533360000018133e+000	 9.999996528288193e-001	 1.015682194733689e+001
0	 6.533360000018132e+000	 1.066659822244222e+000	 1.015942307113219e+001
0	 6.533360000018131e+000	 1.133319925002959e+000	 1.016214296840436e+001
0	 6.533360000018132e+000	 1.199979977769445e+000	 1.016499989123141e+001
0	 6.533360000018132e+000	 1.266639997208098e+000	 1.016801209126632e+001
0	 6.533360000018132e+000	 1.333299999983334e+000	 1.017119781973712e+001
0	 6.600030000017847e+000	 6.666972226472178e-001	 1.013692507035048e+001
0	 6.600030000017847e+000	 7.333579753122049e-001	 1.013897108253680e+001
0	 6.600030000017847e+000	 8.000185779984416e-001	 1.014108560617090e+001
0	 6.600030000017847e+000	 8.666790473703452e-001	 1.014328565973243e+001
0	 6.600030000017847e+000	 9.333394000923322e-001	 1.014558826123131e+001
0	 6.600030000017849e+000	 9.999996528288190e-001	 1.014801042820778e+001
0	 6.600030000017849e+000	 1.066659822244222e+000	 1.015056917773233e+001
0	 6.600030000017849e+000	 1.133319925002959e+000	 1.015328152640576e+001
0	 6.600030000017847e+000	 1.199979977769445e+000	 1.015616449035915e+001
0	 6.600030000017848e+000	 1.266639997208098e+000	 1.015923508525390e+001
0	 6.600030000017847e+000	 1.333299999983334e+000	 1.016251032628171e+001
0	 6.666700000016666e+000	 6.666972226472178e-001	 1.012924343006807e+001
0	 6.666700000016667e+000	 7.333579753122047e-001	 1.013105676827323e+001
0	 6.666700000016665e+000	 8.000185779984416e-001	 1.013297416537732e+001
0	 6.666700000016667e+000	 8.666790473703454e-001	 1.013501092004823e+001
0	 6.666700000016666e+000	 9.333394000923321e-001	 1.013718233045295e+001
0	 6.666700000016667e+000	 9.999996528288189e-001	 1.013950369425758e+001
0	 6.666700000016666e+000	 1.066659822244222e+000	 1.014199030862729e+001
0	 6.666700000016666e+000	 1.133319925002959e+000	 1.014465747022636e+001
0	 6.666700000016666e+000	 1.199979977769445e+000	 1.014752047521819e+001
0	 6.666700000016665e+000	 1.266639997208098e+000	 1.015059461926526e+001
0	 6.666700000016665e+000	 1.333299999983334e+000	 1.015389519752918e+001
0	 6.000000000000000e+000	 1.333299999983334e+000	 1.024432823499028e+001
0	 5.999999999999999e+000	 1.399969999982150e+000	 1.024744041624784e+001
0	 6.000000000000000e+000	 1.466639999981866e+000	 1.025050434032251e+001
0	 6.000000000000000e+000	 1.533309999982383e+000	 1.025354585137413e+001
0	 6.000000000000001e+000	 1.599979999983600e+000	 1.025659079356254e+001
0	 6.000000000000000e+000	 1.666649999985416e+000	 1.025966501104758e+001
0	 6.000000000000002e+000	 1.733319999987733e+000	 1.026279434798910e+001
0	 6.000000000000000e+000	 1.799989999990450e+000	 1.026600464854695e+001
0	 5.999999999999998e+000	 1.866659999993466e+000	 1.026932175688097e+001
0	 6.000000000000000e+000	 1.933329999996683e+000	 1.027277151715102e+001
0	 5.999999999999999e+000	 2.000000000000000e+000	 1.027637977351693e+001
0	 6.066670000003319e+000	 1.333299999983334e+000	 1.023475422242001e+001
0	 6.066670000003316e+000	 1.399969999982150e+000	 1.023759409721765e+001
0	 6.066670000003318e+000	 1.466639999981867e+000	 1.024043660998508e+001
0	 6.066670000003318e+000	 1.533309999982383e+000	 1.024330226169982e+001
0	 6.066670000003317e+000	 1.599979999983599e+000	 1.024621155333939e+001
0	 6.066670000003314e+000	 1.666649999985416e+000	 1.024918498588131e+001
0	 6.066670000003318e+000	 1.733319999987733e+000	 1.025224306030312e+001
0	 6.066670000003318e+000	 1.799989999990450e+000	 1.025540627758230e+001
0	 6.066670000003316e+000	 1.866659999993467e+000	 1.025869513869642e+001
0	 6.066670000003319e+000	 1.933329999996683e+000	 1.026213014462299e+001
0	 6.066670000003317e+000	 2.000000000000000e+000	 1.026573179633954e+001
0	 6.133340000006530e+000	 1.333299999983334e+000	 1.022532093043968e+001
0	 6.133340000006534e+000	 1.399969999982150e+000	 1.022802050796028e+001
0	 6.133340000006535e+000	 1.466639999981866e+000	 1.023075117237834e+001
0	 6.133340000006532e+000	 1.533309999982383e+000	 1.023352888560506e+001
0	 6.133340000006532e+000	 1.599979999983599e+000	 1.023636960955160e+001
0	 6.133340000006535e+000	 1.666649999985416e+000	 1.023928930612914e+001
0	 6.133340000006533e+000	 1.733319999987733e+000	 1.024230393724886e+001
0	 6.133340000006532e+000	 1.799989999990450e+000	 1.024542946482193e+001
0	 6.133340000006534e+000	 1.866659999993467e+000	 1.024868185075956e+001
0	 6.133340000006535e+000	 1.933329999996683e+000	 1.025207705697290e+001
0	 6.133340000006534e+000	 2.000000000000000e+000	 1.025563104537316e+001
0	 6.200010000009550e+000	 1.333299999983334e+000	 1.021601981456340e+001
0	 6.200010000009550e+000	 1.399969999982150e+000	 1.021868635446837e+001
0	 6.200010000009550e+000	 1.466639999981866e+000	 1.022139361296570e+001
0	 6.200010000009551e+000	 1.533309999982383e+000	 1.022415381701620e+001
0	 6.200010000009549e+000	 1.599979999983599e+000	 1.022697919358070e+001
0	 6.200010000009550e+000	 1.666649999985416e+000	 1.022988196961999e+001
0	 6.200010000009550e+000	 1.733319999987733e+000	 1.023287437209491e+001
0	 6.200010000009550e+000	 1.799989999990450e+000	 1.023596862796625e+001
0	 6.200010000009550e+000	 1.866659999993467e+000	 1.023917696419484e+001
0	 6.200010000009549e+000	 1.933329999996683e+000	 1.024251160774151e+001
0	 6.200010000009550e+000	 2.000000000000000e+000	 1.024598478556707e+001
0	 6.266680000012264e+000	 1.333299999983334e+000	 1.020684233030531e+001
0	 6.266680000012269e+000	 1.399969999982150e+000	 1.020955834273456e+001
0	 6.266680000012268e+000	 1.466639999981866e+000	 1.021230951721050e+001
0	 6.266680000012267e+000	 1.533309999982383e+000	 1.021510514985958e+001
0	 6.266680000012265e+000	 1.599979999983599e+000	 1.021795453680821e+001
0	 6.266680000012267e+000	 1.666649999985416e+000	 1.022086697418282e+001
0	 6.266680000012267e+000	 1.733319999987733e+000	 1.022385175810983e+001
0	 6.266680000012267e+000	 1.799989999990450e+000	 1.022691818471568e+001
0	 6.266680000012267e+000	 1.866659999993466e+000	 1.023007555012680e+001
0	 6.266680000012268e+000	 1.933329999996683e+000	 1.023333315046961e+001
0	 6.266680000012268e+000	 2.000000000000000e+000	 1.023670028187056e+001
0	 6.333350000014582e+000	 1.333299999983334e+000	 1.019777993317952e+001
0	 6.333350000014584e+000	 1.399969999982150e+000	 1.020060317875150e+001
0	 6.333350000014583e+000	 1.466639999981867e+000	 1.020344447057617e+001
0	 6.333350000014582e+000	 1.533309999982383e+000	 1.020631097806156e+001
0	 6.333350000014583e+000	 1.599979999983599e+000	 1.020920987061567e+001
0	 6.333350000014582e+000	 1.666649999985416e+000	 1.021214831764655e+001
0	 6.333350000014583e+000	 1.733319999987733e+000	 1.021513348856219e+001
0	 6.333350000014583e+000	 1.799989999990449e+000	 1.021817255277063e+001
0	 6.333350000014583e+000	 1.866659999993466e+000	 1.022127267967988e+001
0	 6.333350000014583e+000	 1.933329999996683e+000	 1.022444103869798e+001
0	 6.333350000014583e+000	 2.000000000000000e+000	 1.022768479923294e+001
0	 6.400020000016399e+000	 1.333299999983334e+000	 1.018882407870014e+001
0	 6.400020000016400e+000	 1.399969999982150e+000	 1.019178756851181e+001
0	 6.400020000016400e+000	 1.466639999981866e+000	 1.019474405852606e+001
0	 6.400020000016397e+000	 1.533309999982382e+000	 1.019769939554846e+001
0	 6.400020000016400e+000	 1.599979999983600e+000	 1.020065942638462e+001
0	 6.400020000016399e+000	 1.666649999985416e+000	 1.020362999784013e+001
0	 6.400020000016400e+000	 1.733319999987733e+000	 1.020661695672055e+001
0	 6.400020000016399e+000	 1.799989999990449e+000	 1.020962614983151e+001
0	 6.400020000016399e+000	 1.866659999993466e+000	 1.021266342397859e+001
0	 6.400020000016398e+000	 1.933329999996683e+000	 1.021573462596738e+001
0	 6.400020000016399e+000	 2.000000000000000e+000	 1.021884560260347e+001
0	 6.466690000017616e+000	 1.333299999983334e+000	 1.017996622238130e+001
0	 6.466690000017616e+000	 1.399969999982150e+000	 1.018307821800815e+001
0	 6.466690000017615e+000	 1.466639999981867e+000	 1.018615386652355e+001
0	 6.466690000017616e+000	 1.533309999982383e+000	 1.018919849624664e+001
0	 6.466690000017615e+000	 1.599979999983599e+000	 1.019221743549656e+001
0	 6.466690000017615e+000	 1.666649999985416e+000	 1.019521601259246e+001
0	 6.466690000017618e+000	 1.733319999987733e+000	 1.019819955585347e+001
0	 6.466690000017617e+000	 1.799989999990450e+000	 1.020117339359873e+001
0	 6.466690000017615e+000	 1.866659999993466e+000	 1.020414285414739e+001
0	 6.466690000017616e+000	 1.933329999996683e+000	 1.020711326581858e+001
0	 6.466690000017616e+000	 2.000000000000000e+000	 1.021008995693145e+001
0	 6.533360000018132e+000	 1.333299999983334e+000	 1.017119781973712e+001
0	 6.533360000018130e+000	 1.399969999982150e+000	 1.017444183323314e+001
0	 6.533360000018133e+000	 1.466639999981867e+000	 1.017761948003203e+001
0	 6.533360000018131e+000	 1.533309999982383e+000	 1.018073637408244e+001
0	 6.533360000018132e+000	 1.599979999983600e+000	 1.018379812933304e+001
0	 6.533360000018132e+000	 1.666649999985416e+000	 1.018681035973251e+001
0	 6.533360000018131e+000	 1.733319999987733e+000	 1.018977867922951e+001
0	 6.533360000018131e+000	 1.799989999990449e+000	 1.019270870177270e+001
0	 6.533360000018131e+000	 1.866659999993466e+000	 1.019560604131076e+001
0	 6.533360000018131e+000	 1.933329999996683e+000	 1.019847631179236e+001
0	 6.533360000018132e+000	 2.000000000000000e+000	 1.020132512716616e+001
0	 6.600030000017847e+000	 1.333299999983334e+000	 1.016251032628171e+001
0	 6.600030000017847e+000	 1.399969999982150e+000	 1.016584512017943e+001
0	 6.600030000017849e+000	 1.466639999981867e+000	 1.016908648451487e+001
0	 6.600030000017848e+000	 1.533309999982383e+000	 1.017224112298219e+001
0	 6.600030000017848e+000	 1.599979999983599e+000	 1.017531573927558e+001
0	 6.600030000017847e+000	 1.666649999985416e+000	 1.017831703708920e+001
0	 6.600030000017850e+000	 1.733319999987733e+000	 1.018125172011722e+001
0	 6.600030000017847e+000	 1.799989999990449e+000	 1.018412649205383e+001
0	 6.600030000017849e+000	 1.866659999993467e+000	 1.018694805659320e+001
0	 6.600030000017848e+000	 1.933329999996683e+000	 1.018972311742949e+001
0	 6.600030000017847e+000	 2.000000000000000e+000	 1.019245837825688e+001
0	 6.666700000016665e+000	 1.333299999983334e+000	 1.015389519752918e+001
0	 6.666700000016666e+000	 1.399969999982150e+000	 1.015725478483964e+001
0	 6.666700000016666e+000	 1.466639999981866e+000	 1.016050046543544e+001
0	 6.666700000016667e+000	 1.533309999982383e+000	 1.016364083687223e+001
0	 6.666700000016667e+000	 1.599979999983599e+000	 1.016668449670569e+001
0	 6.666700000016665e+000	 1.666649999985416e+000	 1.016964004249144e+001
0	 6.666700000016667e+000	 1.733319999987733e+000	 1.017251607178518e+001
0	 6.666700000016665e+000	 1.799989999990449e+000	 1.017532118214253e+001
0	 6.666700000016665e+000	 1.866659999993466e+000	 1.017806397111916e+001
0	 6.666700000016666e+000	 1.933329999996683e+000	 1.018075303627072e+001
0	 6.666700000016668e+000	 2.000000000000000e+000	 1.018339697515288e+001
0	 5.999999999999999e+000	 2.000000000000000e+000	 1.027637977351693e+001
0	 6.000000000000000e+000	 2.066670000003318e+000	 1.027997389698813e+001
0	 5.999999999999999e+000	 2.133340000006534e+000	 1.028336494510591e+001
0	 6.000000000000001e+000	 2.200010000009551e+000	 1.028655429182791e+001
0	 6.000000000000002e+000	 2.266680000012268e+000	 1.028954331111179e+001
0	 6.000000000000000e+000	 2.333350000014584e+000	 1.029233337691519e+001
0	 6.000000000000000e+000	 2.400020000016401e+000	 1.029492586319574e+001
0	 6.000000000000000e+000	 2.466690000017617e+000	 1.029732214391108e+001
0	 6.000000000000001e+000	 2.533360000018133e+000	 1.029952359301884e+001
0	 5.999999999999998e+000	 2.600030000017850e+000	 1.030153158447667e+001
0	 6.000000000000000e+000	 2.666700000016666e+000	 1.030334749224219e+001
0	 6.066670000003317e+000	 2.000000000000000e+000	 1.026573179633954e+001
0	 6.066670000003316e+000	 2.066670000003317e+000	 1.026931060386319e+001
0	 6.066670000003318e+000	 2.133340000006534e+000	 1.027266929376448e+001
0	 6.066670000003319e+000	 2.200010000009550e+000	 1.027581669185101e+001
0	 6.066670000003318e+000	 2.266680000012268e+000	 1.027876162393043e+001
0	 6.066670000003313e+000	 2.333350000014583e+000	 1.028151291581033e+001
0	 6.066670000003317e+000	 2.400020000016401e+000	 1.028407939329834e+001
0	 6.066670000003317e+000	 2.466690000017616e+000	 1.028646988220208e+001
0	 6.066670000003316e+000	 2.533360000018133e+000	 1.028869320832914e+001
0	 6.066670000003317e+000	 2.600030000017851e+000	 1.029075819748715e+001
0	 6.066670000003318e+000	 2.666700000016666e+000	 1.029267367548369e+001
0	 6.133340000006534e+000	 2.000000000000000e+000	 1.025563104537316e+001
0	 6.133340000006535e+000	 2.066670000003317e+000	 1.025914805752983e+001
0	 6.133340000006534e+000	 2.133340000006535e+000	 1.026243165850969e+001
0	 6.133340000006531e+000	 2.200010000009551e+000	 1.026549679546976e+001
0	 6.133340000006531e+000	 2.266680000012267e+000	 1.026835841556707e+001
0	 6.133340000006535e+000	 2.333350000014585e+000	 1.027103146595864e+001
0	 6.133340000006533e+000	 2.400020000016401e+000	 1.027353089380150e+001
0	 6.133340000006533e+000	 2.466690000017617e+000	 1.027587164625268e+001
0	 6.133340000006535e+000	 2.533360000018134e+000	 1.027806867046918e+001
0	 6.133340000006532e+000	 2.600030000017850e+000	 1.028013691360804e+001
0	 6.133340000006530e+000	 2.666700000016666e+000	 1.028209132282625e+001
0	 6.200010000009550e+000	 2.000000000000000e+000	 1.024598478556707e+001
0	 6.200010000009549e+000	 2.066670000003317e+000	 1.024940336212650e+001
0	 6.200010000009550e+000	 2.133340000006534e+000	 1.025257920923818e+001
0	 6.200010000009550e+000	 2.200010000009550e+000	 1.025553206490797e+001
0	 6.200010000009550e+000	 2.266680000012268e+000	 1.025828166714176e+001
0	 6.200010000009550e+000	 2.333350000014584e+000	 1.026084775394540e+001
0	 6.200010000009548e+000	 2.400020000016400e+000	 1.026325006332480e+001
0	 6.200010000009550e+000	 2.466690000017618e+000	 1.026550833328577e+001
0	 6.200010000009550e+000	 2.533360000018134e+000	 1.026764230183422e+001
0	 6.200010000009550e+000	 2.600030000017851e+000	 1.026967170697598e+001
0	 6.200010000009550e+000	 2.666700000016666e+000	 1.027161628671691e+001
0	 6.266680000012268e+000	 2.000000000000000e+000	 1.023670028187056e+001
0	 6.266680000012266e+000	 2.066670000003317e+000	 1.023999362179161e+001
0	 6.266680000012266e+000	 2.133340000006534e+000	 1.024303911584651e+001
0	 6.266680000012267e+000	 2.200010000009550e+000	 1.024585996238943e+001
0	 6.266680000012266e+000	 2.266680000012267e+000	 1.024847935977452e+001
0	 6.266680000012267e+000	 2.333350000014584e+000	 1.025092050635592e+001
0	 6.266680000012267e+000	 2.400020000016401e+000	 1.025320660048779e+001
0	 6.266680000012265e+000	 2.466690000017617e+000	 1.025536084052427e+001
0	 6.266680000012268e+000	 2.533360000018133e+000	 1.025740642481948e+001
0	 6.266680000012268e+000	 2.600030000017851e+000	 1.025936655172760e+001
0	 6.266680000012267e+000	 2.666700000016667e+000	 1.026126441960273e+001
0	 6.333350000014583e+000	 2.000000000000000e+000	 1.022768479923294e+001
0	 6.333350000014582e+000	 2.066670000003317e+000	 1.023083594066358e+001
0	 6.333350000014583e+000	 2.133340000006534e+000	 1.023373854823130e+001
0	 6.333350000014583e+000	 2.200010000009551e+000	 1.023641795013793e+001
0	 6.333350000014583e+000	 2.266680000012267e+000	 1.023889947458537e+001
0	 6.333350000014582e+000	 2.333350000014584e+000	 1.024120844977545e+001
0	 6.333350000014583e+000	 2.400020000016401e+000	 1.024337020391006e+001
0	 6.333350000014583e+000	 2.466690000017617e+000	 1.024541006519104e+001
0	 6.333350000014582e+000	 2.533360000018133e+000	 1.024735336182025e+001
0	 6.333350000014584e+000	 2.600030000017851e+000	 1.024922542199952e+001
0	 6.333350000014584e+000	 2.666700000016667e+000	 1.025105157393073e+001
0	 6.400020000016399e+000	 2.000000000000000e+000	 1.021884560260347e+001
0	 6.400020000016398e+000	 2.066670000003317e+000	 1.022184742288085e+001
0	 6.400020000016399e+000	 2.133340000006534e+000	 1.022460467628912e+001
0	 6.400020000016400e+000	 2.200010000009550e+000	 1.022714349037727e+001
0	 6.400020000016399e+000	 2.266680000012267e+000	 1.022948999269433e+001
0	 6.400020000016397e+000	 2.333350000014584e+000	 1.023167031078930e+001
0	 6.400020000016397e+000	 2.400020000016401e+000	 1.023371057221118e+001
0	 6.400020000016400e+000	 2.466690000017618e+000	 1.023563690450899e+001
0	 6.400020000016399e+000	 2.533360000018134e+000	 1.023747543523172e+001
0	 6.400020000016399e+000	 2.600030000017851e+000	 1.023925229192837e+001
0	 6.400020000016399e+000	 2.666700000016666e+000	 1.024099360214795e+001
0	 6.466690000017616e+000	 2.000000000000000e+000	 1.021008995693145e+001
0	 6.466690000017614e+000	 2.066670000003316e+000	 1.021294517258184e+001
0	 6.466690000017615e+000	 2.133340000006533e+000	 1.021556466991658e+001
0	 6.466690000017617e+000	 2.200010000009551e+000	 1.021797404533124e+001
0	 6.466690000017618e+000	 2.266680000012268e+000	 1.022019889522143e+001
0	 6.466690000017616e+000	 2.333350000014585e+000	 1.022226481598273e+001
0	 6.466690000017616e+000	 2.400020000016400e+000	 1.022419740401073e+001
0	 6.466690000017617e+000	 2.466690000017617e+000	 1.022602225570102e+001
0	 6.466690000017615e+000	 2.533360000018134e+000	 1.022776496744918e+001
0	 6.466690000017615e+000	 2.600030000017850e+000	 1.022945113565079e+001
0	 6.466690000017616e+000	 2.666700000016667e+000	 1.023110635670144e+001
0	 6.533360000018132e+000	 2.000000000000000e+000	 1.020132512716616e+001
0	 6.533360000018130e+000	 2.066670000003317e+000	 1.020404629390497e+001
0	 6.533360000018131e+000	 2.133340000006534e+000	 1.020654569901026e+001
0	 6.533360000018130e+000	 2.200010000009550e+000	 1.020884707722363e+001
0	 6.533360000018131e+000	 2.266680000012267e+000	 1.021097416328668e+001
0	 6.533360000018132e+000	 2.333350000014583e+000	 1.021295069194103e+001
0	 6.533360000018133e+000	 2.400020000016401e+000	 1.021480039792827e+001
0	 6.533360000018133e+000	 2.466690000017617e+000	 1.021654701599002e+001
0	 6.533360000018132e+000	 2.533360000018134e+000	 1.021821428086785e+001
0	 6.533360000018133e+000	 2.600030000017850e+000	 1.021982592730338e+001
0	 6.533360000018133e+000	 2.666700000016666e+000	 1.022140569003823e+001
0	 6.600030000017847e+000	 2.000000000000000e+000	 1.019245837825688e+001
0	 6.600030000017847e+000	 2.066670000003317e+000	 1.019506789098866e+001
0	 6.600030000017849e+000	 2.133340000006534e+000	 1.019747493346676e+001
0	 6.600030000017848e+000	 2.200010000009550e+000	 1.019970004827822e+001
0	 6.600030000017849e+000	 2.266680000012268e+000	 1.020176377801011e+001
0	 6.600030000017848e+000	 2.333350000014584e+000	 1.020368666524947e+001
0	 6.600030000017849e+000	 2.400020000016400e+000	 1.020548925258337e+001
0	 6.600030000017847e+000	 2.466690000017618e+000	 1.020719208259885e+001
0	 6.600030000017847e+000	 2.533360000018134e+000	 1.020881569788298e+001
0	 6.600030000017849e+000	 2.600030000017851e+000	 1.021038064102280e+001
0	 6.600030000017847e+000	 2.666700000016666e+000	 1.021190745460536e+001
0	 6.666700000016668e+000	 2.000000000000000e+000	 1.018339697515288e+001
0	 6.666700000016665e+000	 2.066670000003317e+000	 1.018592706797133e+001
0	 6.666700000016665e+000	 2.133340000006534e+000	 1.018827954318266e+001
0	 6.666700000016666e+000	 2.200010000009551e+000	 1.019047042071880e+001
0	 6.666700000016668e+000	 2.266680000012268e+000	 1.019251572051172e+001
0	 6.666700000016666e+000	 2.333350000014584e+000	 1.019443146249333e+001
0	 6.666700000016667e+000	 2.400020000016400e+000	 1.019623366659559e+001
0	 6.666700000016665e+000	 2.466690000017617e+000	 1.019793835275045e+001
0	 6.666700000016667e+000	 2.533360000018134e+000	 1.019956154088981e+001
0	 6.666700000016666e+000	 2.600030000017851e+000	 1.020111925094564e+001
0	 6.666700000016667e+000	 2.666700000016667e+000	 1.020262750284986e+001
0	 6.000000000000000e+000	 2.666700000016666e+000	 1.030334749224219e+001
0	 6.000000000000000e+000	 2.733360000014533e+000	 1.030488059471150e+001
0	 5.999999999999998e+000	 2.800020000011600e+000	 1.030604692772768e+001
0	 6.000000000000002e+000	 2.866680000008067e+000	 1.030685722731178e+001
0	 5.999999999999998e+000	 2.933340000004133e+000	 1.030732222948487e+001
0	 6.000000000000003e+000	 3.000000000000000e+000	 1.030745267026799e+001
0	 5.999999999999998e+000	 3.066659999995867e+000	 1.030725928568224e+001
0	 6.000000000000001e+000	 3.133319999991934e+000	 1.030675281174869e+001
0	 5.999999999999999e+000	 3.199979999988400e+000	 1.030594398448842e+001
0	 6.000000000000000e+000	 3.266639999985467e+000	 1.030484353992257e+001
0	 6.000000000000000e+000	 3.333299999983334e+000	 1.030346221407222e+001
0	 6.066670000003318e+000	 2.666700000016666e+000	 1.029267367548369e+001
0	 6.066670000003317e+000	 2.733360000014534e+000	 1.029433920441685e+001
0	 6.066670000003313e+000	 2.800020000011600e+000	 1.029565294289023e+001
0	 6.066670000003318e+000	 2.866680000008067e+000	 1.029662078186219e+001
0	 6.066670000003319e+000	 2.933340000004133e+000	 1.029724861229115e+001
0	 6.066670000003320e+000	 3.000000000000000e+000	 1.029754232513550e+001
0	 6.066670000003319e+000	 3.066659999995867e+000	 1.029750781135368e+001
0	 6.066670000003319e+000	 3.133319999991934e+000	 1.029715096190407e+001
0	 6.066670000003313e+000	 3.199979999988400e+000	 1.029647766774515e+001
0	 6.066670000003318e+000	 3.266639999985467e+000	 1.029549381983533e+001
0	 6.066670000003317e+000	 3.333299999983333e+000	 1.029420530913308e+001
0	 6.133340000006530e+000	 2.666700000016666e+000	 1.028209132282625e+001
0	 6.133340000006534e+000	 2.733360000014533e+000	 1.028382858368432e+001
0	 6.133340000006532e+000	 2.800020000011599e+000	 1.028523722583715e+001
0	 6.133340000006533e+000	 2.866680000008067e+000	 1.028631910651254e+001
0	 6.133340000006531e+000	 2.933340000004133e+000	 1.028707608293834e+001
0	 6.133340000006533e+000	 3.000000000000000e+000	 1.028751001234238e+001
0	 6.133340000006534e+000	 3.066659999995868e+000	 1.028762275195252e+001
0	 6.133340000006533e+000	 3.133319999991933e+000	 1.028741615899662e+001
0	 6.133340000006533e+000	 3.199979999988400e+000	 1.028689209070253e+001
0	 6.133340000006532e+000	 3.266639999985467e+000	 1.028605240429814e+001
0	 6.133340000006530e+000	 3.333299999983333e+000	 1.028489895701137e+001
0	 6.200010000009550e+000	 2.666700000016666e+000	 1.027161628671692e+001
0	 6.200010000009550e+000	 2.733360000014533e+000	 1.027337545303096e+001
0	 6.200010000009552e+000	 2.800020000011600e+000	 1.027483512170296e+001
0	 6.200010000009550e+000	 2.866680000008067e+000	 1.027599392756227e+001
0	 6.200010000009551e+000	 2.933340000004133e+000	 1.027685050543826e+001
0	 6.200010000009550e+000	 3.000000000000000e+000	 1.027740349016029e+001
0	 6.200010000009550e+000	 3.066659999995867e+000	 1.027765151655774e+001
0	 6.200010000009550e+000	 3.133319999991933e+000	 1.027759321946001e+001
0	 6.200010000009551e+000	 3.199979999988401e+000	 1.027722723369650e+001
0	 6.200010000009550e+000	 3.266639999985467e+000	 1.027655219409660e+001
0	 6.200010000009550e+000	 3.333299999983333e+000	 1.027556673548974e+001
0	 6.266680000012267e+000	 2.666700000016667e+000	 1.026126441960273e+001
0	 6.266680000012268e+000	 2.733360000014533e+000	 1.026300653297381e+001
0	 6.266680000012265e+000	 2.800020000011599e+000	 1.026448197562217e+001
0	 6.266680000012266e+000	 2.866680000008067e+000	 1.026568697131080e+001
0	 6.266680000012265e+000	 2.933340000004133e+000	 1.026661774380269e+001
0	 6.266680000012264e+000	 2.999999999999999e+000	 1.026727051686086e+001
0	 6.266680000012267e+000	 3.066659999995866e+000	 1.026764151424826e+001
0	 6.266680000012267e+000	 3.133319999991934e+000	 1.026772695972795e+001
0	 6.266680000012266e+000	 3.199979999988401e+000	 1.026752307706294e+001
0	 6.266680000012268e+000	 3.266639999985467e+000	 1.026702609001624e+001
0	 6.266680000012265e+000	 3.333299999983333e+000	 1.026623222235092e+001
0	 6.333350000014584e+000	 2.666700000016667e+000	 1.025105157393073e+001
0	 6.333350000014584e+000	 2.733360000014533e+000	 1.025274854402990e+001
0	 6.333350000014582e+000	 2.800020000011599e+000	 1.025421313272928e+001
0	 6.333350000014581e+000	 2.866680000008066e+000	 1.025543996405758e+001
0	 6.333350000014582e+000	 2.933340000004133e+000	 1.025642366204349e+001
0	 6.333350000014582e+000	 3.000000000000000e+000	 1.025715885071574e+001
0	 6.333350000014583e+000	 3.066659999995867e+000	 1.025764015410304e+001
0	 6.333350000014582e+000	 3.133319999991934e+000	 1.025786219623413e+001
0	 6.333350000014582e+000	 3.199979999988400e+000	 1.025781960113775e+001
0	 6.333350000014583e+000	 3.266639999985467e+000	 1.025750699284263e+001
0	 6.333350000014582e+000	 3.333299999983334e+000	 1.025691899537756e+001
0	 6.400020000016399e+000	 2.666700000016666e+000	 1.024099360214795e+001
0	 6.400020000016400e+000	 2.733360000014533e+000	 1.024262820671630e+001
0	 6.400020000016399e+000	 2.800020000011600e+000	 1.024406393815882e+001
0	 6.400020000016400e+000	 2.866680000008067e+000	 1.024529463210203e+001
0	 6.400020000016400e+000	 2.933340000004134e+000	 1.024631412417244e+001
0	 6.400020000016399e+000	 2.999999999999999e+000	 1.024711624999659e+001
0	 6.400020000016399e+000	 3.066659999995868e+000	 1.024769484520100e+001
0	 6.400020000016401e+000	 3.133319999991935e+000	 1.024804374541224e+001
0	 6.400020000016401e+000	 3.199979999988401e+000	 1.024815678625683e+001
0	 6.400020000016401e+000	 3.266639999985467e+000	 1.024802780336135e+001
0	 6.400020000016399e+000	 3.333299999983334e+000	 1.024765063235236e+001
0	 6.466690000017616e+000	 2.666700000016667e+000	 1.023110635670144e+001
0	 6.466690000017616e+000	 2.733360000014533e+000	 1.023267224155006e+001
0	 6.466690000017616e+000	 2.800020000011600e+000	 1.023406973704530e+001
0	 6.466690000017616e+000	 2.866680000008067e+000	 1.023529270174359e+001
0	 6.466690000017616e+000	 2.933340000004134e+000	 1.023633499420137e+001
0	 6.466690000017615e+000	 3.000000000000000e+000	 1.023719047297506e+001
0	 6.466690000017616e+000	 3.066659999995867e+000	 1.023785299662110e+001
0	 6.466690000017617e+000	 3.133319999991933e+000	 1.023831642369597e+001
0	 6.466690000017616e+000	 3.199979999988400e+000	 1.023857461275608e+001
0	 6.466690000017614e+000	 3.266639999985467e+000	 1.023862142235793e+001
0	 6.466690000017617e+000	 3.333299999983334e+000	 1.023845071105799e+001
0	 6.533360000018133e+000	 2.666700000016666e+000	 1.022140569003823e+001
0	 6.533360000018132e+000	 2.733360000014533e+000	 1.022290736904820e+001
0	 6.533360000018133e+000	 2.800020000011600e+000	 1.022426587452321e+001
0	 6.533360000018132e+000	 2.866680000008067e+000	 1.022547589928170e+001
0	 6.533360000018133e+000	 2.933340000004134e+000	 1.022653213614208e+001
0	 6.533360000018132e+000	 3.000000000000000e+000	 1.022742927792278e+001
0	 6.533360000018132e+000	 3.066659999995866e+000	 1.022816201744227e+001
0	 6.533360000018133e+000	 3.133319999991934e+000	 1.022872504751899e+001
0	 6.533360000018130e+000	 3.199979999988400e+000	 1.022911306097140e+001
0	 6.533360000018132e+000	 3.266639999985468e+000	 1.022932075061796e+001
0	 6.533360000018132e+000	 3.333299999983333e+000	 1.022934280927716e+001
0	 6.600030000017847e+000	 2.666700000016666e+000	 1.021190745460536e+001
0	 6.600030000017849e+000	 2.733360000014533e+000	 1.021336030972779e+001
0	 6.600030000017847e+000	 2.800020000011599e+000	 1.021468769572709e+001
0	 6.600030000017847e+000	 2.866680000008066e+000	 1.021588595101576e+001
0	 6.600030000017848e+000	 2.933340000004134e+000	 1.021695141400637e+001
0	 6.600030000017850e+000	 3.000000000000000e+000	 1.021788042311141e+001
0	 6.600030000017848e+000	 3.066659999995868e+000	 1.021866931674344e+001
0	 6.600030000017849e+000	 3.133319999991934e+000	 1.021931443331502e+001
0	 6.600030000017849e+000	 3.199979999988401e+000	 1.021981211123868e+001
0	 6.600030000017848e+000	 3.266639999985468e+000	 1.022015868892699e+001
0	 6.600030000017847e+000	 3.333299999983333e+000	 1.022035050479252e+001
0	 6.666700000016667e+000	 2.666700000016667e+000	 1.020262750284986e+001
0	 6.666700000016668e+000	 2.733360000014533e+000	 1.020405778410587e+001
0	 6.666700000016665e+000	 2.800020000011599e+000	 1.020537054579143e+001
0	 6.666700000016666e+000	 2.866680000008067e+000	 1.020656458324526e+001
0	 6.666700000016667e+000	 2.933340000004133e+000	 1.020763869180606e+001
0	 6.666700000016666e+000	 3.000000000000000e+000	 1.020859166681261e+001
0	 6.666700000016667e+000	 3.066659999995868e+000	 1.020942230360357e+001
0	 6.666700000016665e+000	 3.133319999991933e+000	 1.021012939751773e+001
0	 6.666700000016665e+000	 3.199979999988401e+000	 1.021071174389382e+001
0	 6.666700000016668e+000	 3.266639999985468e+000	 1.021116813807058e+001
0	 6.666700000016665e+000	 3.333299999983333e+000	 1.021149737538675e+001
0	 6.000000000000000e+000	 3.333299999983334e+000	 1.030346221407222e+001
0	 6.000000000000001e+000	 3.399969999982151e+000	 1.030189164897405e+001
0	 6.000000000000000e+000	 3.466639999981866e+000	 1.030021239583304e+001
0	 6.000000000000000e+000	 3.533309999982383e+000	 1.029841787116995e+001
0	 6.000000000000001e+000	 3.599979999983601e+000	 1.029650149150548e+001
0	 6.000000000000000e+000	 3.666649999985416e+000	 1.029445667336039e+001
0	 6.000000000000000e+000	 3.733319999987733e+000	 1.029227683325538e+001
0	 5.999999999999998e+000	 3.799989999990450e+000	 1.028995538771118e+001
0	 6.000000000000001e+000	 3.866659999993467e+000	 1.028748575324851e+001
0	 6.000000000000000e+000	 3.933329999996683e+000	 1.028486134638809e+001
0	 6.000000000000001e+000	 4.000000000000000e+000	 1.028207558365063e+001
0	 6.066670000003317e+000	 3.333299999983333e+000	 1.029420530913308e+001
0	 6.066670000003315e+000	 3.399969999982150e+000	 1.029271891016131e+001
0	 6.066670000003318e+000	 3.466639999981867e+000	 1.029113430695253e+001
0	 6.066670000003316e+000	 3.533309999982382e+000	 1.028944610716961e+001
0	 6.066670000003319e+000	 3.599979999983600e+000	 1.028764891847535e+001
0	 6.066670000003315e+000	 3.666649999985415e+000	 1.028573734853260e+001
0	 6.066670000003318e+000	 3.733319999987733e+000	 1.028370600500419e+001
0	 6.066670000003318e+000	 3.799989999990450e+000	 1.028154949555293e+001
0	 6.066670000003317e+000	 3.866659999993467e+000	 1.027926242784166e+001
0	 6.066670000003318e+000	 3.933329999996685e+000	 1.027683940953318e+001
0	 6.066670000003318e+000	 4.000000000000001e+000	 1.027427504829031e+001
0	 6.133340000006530e+000	 3.333299999983333e+000	 1.028489895701136e+001
0	 6.133340000006534e+000	 3.399969999982150e+000	 1.028354307539440e+001
0	 6.133340000006533e+000	 3.466639999981866e+000	 1.028209235626780e+001
0	 6.133340000006531e+000	 3.533309999982382e+000	 1.028054247283405e+001
0	 6.133340000006531e+000	 3.599979999983600e+000	 1.027888909829564e+001
0	 6.133340000006534e+000	 3.666649999985416e+000	 1.027712790585507e+001
0	 6.133340000006533e+000	 3.733319999987733e+000	 1.027525456871480e+001
0	 6.133340000006531e+000	 3.799989999990449e+000	 1.027326476007733e+001
0	 6.133340000006533e+000	 3.866659999993467e+000	 1.027115415314514e+001
0	 6.133340000006535e+000	 3.933329999996684e+000	 1.026891842112069e+001
0	 6.133340000006534e+000	 4.000000000000001e+000	 1.026655323720646e+001
0	 6.200010000009550e+000	 3.333299999983333e+000	 1.027556673548974e+001
0	 6.200010000009550e+000	 3.399969999982150e+000	 1.027437797118671e+001
0	 6.200010000009550e+000	 3.466639999981867e+000	 1.027309200907632e+001
0	 6.200010000009552e+000	 3.533309999982383e+000	 1.027170546229829e+001
0	 6.200010000009550e+000	 3.599979999983600e+000	 1.027021494399232e+001
0	 6.200010000009550e+000	 3.666649999985416e+000	 1.026861706729809e+001
0	 6.200010000009550e+000	 3.733319999987733e+000	 1.026690844535531e+001
0	 6.200010000009550e+000	 3.799989999990450e+000	 1.026508569130366e+001
0	 6.200010000009550e+000	 3.866659999993467e+000	 1.026314541828284e+001
0	 6.200010000009550e+000	 3.933329999996684e+000	 1.026108423943253e+001
0	 6.200010000009550e+000	 4.000000000000000e+000	 1.025889876789243e+001
0	 6.266680000012265e+000	 3.333299999983333e+000	 1.026623222235091e+001
0	 6.266680000012268e+000	 3.399969999982150e+000	 1.026523742405161e+001
0	 6.266680000012268e+000	 3.466639999981867e+000	 1.026413873067560e+001
0	 6.266680000012268e+000	 3.533309999982383e+000	 1.026293356969734e+001
0	 6.266680000012268e+000	 3.599979999983600e+000	 1.026161936859131e+001
0	 6.266680000012267e+000	 3.666649999985417e+000	 1.026019355483197e+001
0	 6.266680000012268e+000	 3.733319999987733e+000	 1.025865355589378e+001
0	 6.266680000012268e+000	 3.799989999990450e+000	 1.025699679925118e+001
0	 6.266680000012266e+000	 3.866659999993466e+000	 1.025522071237864e+001
0	 6.266680000012267e+000	 3.933329999996684e+000	 1.025332272275063e+001
0	 6.266680000012268e+000	 4.000000000000001e+000	 1.025130025784155e+001
0	 6.333350000014582e+000	 3.333299999983334e+000	 1.025691899537756e+001
0	 6.333350000014582e+000	 3.399969999982149e+000	 1.025613526050248e+001
0	 6.333350000014582e+000	 3.466639999981866e+000	 1.025523798636311e+001
0	 6.333350000014582e+000	 3.533309999982383e+000	 1.025422528916621e+001
0	 6.333350000014582e+000	 3.599979999983599e+000	 1.025309528511860e+001
0	 6.333350000014583e+000	 3.666649999985416e+000	 1.025184609042703e+001
0	 6.333350000014582e+000	 3.733319999987732e+000	 1.025047582129831e+001
0	 6.333350000014585e+000	 3.799989999990451e+000	 1.024898259393918e+001
0	 6.333350000014585e+000	 3.866659999993467e+000	 1.024736452455643e+001
0	 6.333350000014584e+000	 3.933329999996684e+000	 1.024561972935685e+001
0	 6.333350000014583e+000	 4.000000000000001e+000	 1.024374632454718e+001
0	 6.400020000016399e+000	 3.333299999983334e+000	 1.024765063235235e+001
0	 6.400020000016400e+000	 3.399969999982150e+000	 1.024708530705270e+001
0	 6.400020000016400e+000	 3.466639999981867e+000	 1.024639524143634e+001
0	 6.400020000016398e+000	 3.533309999982383e+000	 1.024557911483992e+001
0	 6.400020000016401e+000	 3.599979999983600e+000	 1.024463560660012e+001
0	 6.400020000016398e+000	 3.666649999985415e+000	 1.024356339605359e+001
0	 6.400020000016398e+000	 3.733319999987733e+000	 1.024236116253697e+001
0	 6.400020000016401e+000	 3.799989999990450e+000	 1.024102758538692e+001
0	 6.400020000016398e+000	 3.866659999993467e+000	 1.023956134394009e+001
0	 6.400020000016400e+000	 3.933329999996683e+000	 1.023796111753311e+001
0	 6.400020000016398e+000	 4.000000000000000e+000	 1.023622558550263e+001
0	 6.466690000017617e+000	 3.333299999983334e+000	 1.023845071105799e+001
0	 6.466690000017614e+000	 3.399969999982150e+000	 1.023810139021562e+001
0	 6.466690000017615e+000	 3.466639999981867e+000	 1.023761596119276e+001
0	 6.466690000017614e+000	 3.533309999982382e+000	 1.023699354085346e+001
0	 6.466690000017614e+000	 3.599979999983599e+000	 1.023623324606183e+001
0	 6.466690000017616e+000	 3.666649999985417e+000	 1.023533419368193e+001
0	 6.466690000017617e+000	 3.733319999987733e+000	 1.023429550057786e+001
0	 6.466690000017617e+000	 3.799989999990451e+000	 1.023311628361368e+001
0	 6.466690000017615e+000	 3.866659999993467e+000	 1.023179565965348e+001
0	 6.466690000017617e+000	 3.933329999996683e+000	 1.023033274556131e+001
0	 6.466690000017615e+000	 4.000000000000000e+000	 1.022872665820126e+001
0	 6.533360000018132e+000	 3.333299999983333e+000	 1.022934280927715e+001
0	 6.533360000018129e+000	 3.399969999982149e+000	 1.022919733650466e+001
0	 6.533360000018133e+000	 3.466639999981867e+000	 1.022890561092987e+001
0	 6.533360000018133e+000	 3.533309999982382e+000	 1.022846706134185e+001
0	 6.533360000018132e+000	 3.599979999983600e+000	 1.022788111652967e+001
0	 6.533360000018132e+000	 3.666649999985416e+000	 1.022714720528239e+001
0	 6.533360000018130e+000	 3.733319999987733e+000	 1.022626475638906e+001
0	 6.533360000018132e+000	 3.799989999990450e+000	 1.022523319863874e+001
0	 6.533360000018131e+000	 3.866659999993466e+000	 1.022405196082049e+001
0	 6.533360000018132e+000	 3.933329999996684e+000	 1.022272047172336e+001
0	 6.533360000018133e+000	 4.000000000000001e+000	 1.022123816013640e+001
0	 6.600030000017847e+000	 3.333299999983333e+000	 1.022035050479251e+001
0	 6.600030000017847e+000	 3.399969999982150e+000	 1.022038697243315e+001
0	 6.600030000017848e+000	 3.466639999981867e+000	 1.022026965594515e+001
0	 6.600030000017849e+000	 3.533309999982384e+000	 1.021999817044010e+001
0	 6.600030000017847e+000	 3.599979999983599e+000	 1.021957213102960e+001
0	 6.600030000017847e+000	 3.666649999985415e+000	 1.021899115282524e+001
0	 6.600030000017848e+000	 3.733319999987733e+000	 1.021825485093863e+001
0	 6.600030000017847e+000	 3.799989999990450e+000	 1.021736284048135e+001
0	 6.600030000017847e+000	 3.866659999993466e+000	 1.021631473656499e+001
0	 6.600030000017847e+000	 3.933329999996684e+000	 1.021511015430114e+001
0	 6.600030000017847e+000	 4.000000000000000e+000	 1.021374870880137e+001
0	 6.666700000016665e+000	 3.333299999983333e+000	 1.021149737538675e+001
0	 6.666700000016666e+000	 3.399969999982149e+000	 1.021168412451450e+001
0	 6.666700000016666e+000	 3.466639999981866e+000	 1.021171356153609e+001
0	 6.666700000016665e+000	 3.533309999982383e+000	 1.021158536228322e+001
0	 6.666700000016665e+000	 3.599979999983599e+000	 1.021129920258757e+001
0	 6.666700000016665e+000	 3.666649999985415e+000	 1.021085475828082e+001
0	 6.666700000016666e+000	 3.733319999987733e+000	 1.021025170519467e+001
0	 6.666700000016665e+000	 3.799989999990449e+000	 1.020948971916079e+001
0	 6.666700000016668e+000	 3.866659999993467e+000	 1.020856847601086e+001
0	 6.666700000016665e+000	 3.933329999996683e+000	 1.020748765157655e+001
0	 6.666700000016667e+000	 4.000000000000001e+000	 1.020624692168954e+001
0	 6.000000000000001e+000	 4.000000000000000e+000	 1.028207558365063e+001
0	 6.000000000000001e+000	 4.066670000003318e+000	 1.027916382905655e+001
0	 6.000000000000000e+000	 4.133340000006534e+000	 1.027616161918776e+001
0	 6.000000000000000e+000	 4.200010000009550e+000	 1.027306262940730e+001
0	 6.000000000000002e+000	 4.266680000012268e+000	 1.026986053507812e+001
0	 6.000000000000000e+000	 4.333350000014584e+000	 1.026654901156325e+001
0	 5.999999999999998e+000	 4.400020000016401e+000	 1.026312173422564e+001
0	 5.999999999999999e+000	 4.466690000017617e+000	 1.025957237842829e+001
0	 6.000000000000001e+000	 4.533360000018134e+000	 1.025589461953420e+001
0	 6.000000000000000e+000	 4.600030000017850e+000	 1.025208213290634e+001
0	 6.000000000000000e+000	 4.666700000016666e+000	 1.024812859390767e+001
0	 6.066670000003318e+000	 4.000000000000001e+000	 1.027427504829031e+001
0	 6.066670000003318e+000	 4.066670000003318e+000	 1.027159030160903e+001
0	 6.066670000003317e+000	 4.133340000006533e+000	 1.026880629355571e+001
0	 6.066670000003319e+000	 4.200010000009550e+000	 1.026591788164882e+001
0	 6.066670000003318e+000	 4.266680000012268e+000	 1.026291992340686e+001
0	 6.066670000003317e+000	 4.333350000014584e+000	 1.025980727634823e+001
0	 6.066670000003318e+000	 4.400020000016401e+000	 1.025657479799143e+001
0	 6.066670000003319e+000	 4.466690000017619e+000	 1.025321734585491e+001
0	 6.066670000003318e+000	 4.533360000018135e+000	 1.024972977745710e+001
0	 6.066670000003316e+000	 4.600030000017850e+000	 1.024610695031647e+001
0	 6.066670000003319e+000	 4.666700000016667e+000	 1.024234372195146e+001
0	 6.133340000006534e+000	 4.000000000000001e+000	 1.026655323720646e+001
0	 6.133340000006535e+000	 4.066670000003317e+000	 1.026407046395056e+001
0	 6.133340000006535e+000	 4.133340000006536e+000	 1.026148209073157e+001
0	 6.133340000006531e+000	 4.200010000009550e+000	 1.025878398099771e+001
0	 6.133340000006533e+000	 4.266680000012269e+000	 1.025597199819717e+001
0	 6.133340000006533e+000	 4.333350000014584e+000	 1.025304200577819e+001
0	 6.133340000006532e+000	 4.400020000016402e+000	 1.024998986718897e+001
0	 6.133340000006533e+000	 4.466690000017618e+000	 1.024681144587769e+001
0	 6.133340000006535e+000	 4.533360000018134e+000	 1.024350260529258e+001
0	 6.133340000006534e+000	 4.600030000017852e+000	 1.024005920888181e+001
0	 6.133340000006533e+000	 4.666700000016667e+000	 1.023647712009361e+001
0	 6.200010000009550e+000	 4.000000000000000e+000	 1.025889876789243e+001
0	 6.200010000009549e+000	 4.066670000003317e+000	 1.025659626810978e+001
0	 6.200010000009551e+000	 4.133340000006534e+000	 1.025418405787355e+001
0	 6.200010000009551e+000	 4.200010000009550e+000	 1.025165883033596e+001
0	 6.200010000009550e+000	 4.266680000012268e+000	 1.024901727864928e+001
0	 6.200010000009550e+000	 4.333350000014582e+000	 1.024625609596572e+001
0	 6.200010000009550e+000	 4.400020000016402e+000	 1.024337197543753e+001
0	 6.200010000009550e+000	 4.466690000017619e+000	 1.024036161021696e+001
0	 6.200010000009551e+000	 4.533360000018135e+000	 1.023722169345621e+001
0	 6.200010000009550e+000	 4.600030000017851e+000	 1.023394891830751e+001
0	 6.200010000009550e+000	 4.666700000016666e+000	 1.023053997792311e+001
0	 6.266680000012268e+000	 4.000000000000001e+000	 1.025130025784155e+001
0	 6.266680000012268e+000	 4.066670000003317e+000	 1.024915966611532e+001
0	 6.266680000012265e+000	 4.133340000006533e+000	 1.024690724213983e+001
0	 6.266680000012266e+000	 4.200010000009551e+000	 1.024454033254566e+001
0	 6.266680000012266e+000	 4.266680000012268e+000	 1.024205628396335e+001
0	 6.266680000012267e+000	 4.333350000014584e+000	 1.023945244302344e+001
0	 6.266680000012267e+000	 4.400020000016402e+000	 1.023672615635648e+001
0	 6.266680000012265e+000	 4.466690000017618e+000	 1.023387477059301e+001
0	 6.266680000012268e+000	 4.533360000018134e+000	 1.023089563236357e+001
0	 6.266680000012268e+000	 4.600030000017851e+000	 1.022778608829870e+001
0	 6.266680000012267e+000	 4.666700000016667e+000	 1.022454348502894e+001
0	 6.333350000014583e+000	 4.000000000000001e+000	 1.024374632454718e+001
0	 6.333350000014582e+000	 4.066670000003318e+000	 1.024175260999579e+001
0	 6.333350000014582e+000	 4.133340000006534e+000	 1.023964669068865e+001
0	 6.333350000014584e+000	 4.200010000009551e+000	 1.023742639050886e+001
0	 6.333350000014583e+000	 4.266680000012268e+000	 1.023508953333958e+001
0	 6.333350000014582e+000	 4.333350000014584e+000	 1.023263394306396e+001
0	 6.333350000014582e+000	 4.400020000016402e+000	 1.023005744356510e+001
0	 6.333350000014582e+000	 4.466690000017616e+000	 1.022735785872616e+001
0	 6.333350000014583e+000	 4.533360000018133e+000	 1.022453301243027e+001
0	 6.333350000014582e+000	 4.600030000017850e+000	 1.022158072856052e+001
0	 6.333350000014582e+000	 4.666700000016666e+000	 1.021849883100007e+001
0	 6.400020000016398e+000	 4.000000000000000e+000	 1.023622558550263e+001
0	 6.400020000016399e+000	 4.066670000003317e+000	 1.023436705177983e+001
0	 6.400020000016399e+000	 4.133340000006534e+000	 1.023239745067816e+001
0	 6.400020000016399e+000	 4.200010000009550e+000	 1.023031490710760e+001
0	 6.400020000016398e+000	 4.266680000012267e+000	 1.022811754597817e+001
0	 6.400020000016401e+000	 4.333350000014583e+000	 1.022580349219989e+001
0	 6.400020000016398e+000	 4.400020000016401e+000	 1.022337087068274e+001
0	 6.400020000016399e+000	 4.466690000017618e+000	 1.022081780633673e+001
0	 6.400020000016400e+000	 4.533360000018134e+000	 1.021814242407185e+001
0	 6.400020000016400e+000	 4.600030000017852e+000	 1.021534284879811e+001
0	 6.400020000016399e+000	 4.666700000016666e+000	 1.021241720542549e+001
0	 6.466690000017615e+000	 4.000000000000000e+000	 1.022872665820126e+001
0	 6.466690000017616e+000	 4.066670000003317e+000	 1.022699494349607e+001
0	 6.466690000017616e+000	 4.133340000006535e+000	 1.022515456926659e+001
0	 6.466690000017614e+000	 4.200010000009551e+000	 1.022320378522394e+001
0	 6.466690000017617e+000	 4.266680000012267e+000	 1.022114084107931e+001
0	 6.466690000017614e+000	 4.333350000014582e+000	 1.021896398654385e+001
0	 6.466690000017616e+000	 4.400020000016400e+000	 1.021667147132870e+001
0	 6.466690000017616e+000	 4.466690000017618e+000	 1.021426154514501e+001
0	 6.466690000017615e+000	 4.533360000018133e+000	 1.021173245770394e+001
0	 6.466690000017615e+000	 4.600030000017848e+000	 1.020908245871660e+001
0	 6.466690000017616e+000	 4.666700000016667e+000	 1.020630979789418e+001
0	 6.533360000018133e+000	 4.000000000000001e+000	 1.022123816013640e+001
0	 6.533360000018131e+000	 4.066670000003318e+000	 1.021962823717313e+001
0	 6.533360000018133e+000	 4.133340000006535e+000	 1.021791309361211e+001
0	 6.533360000018130e+000	 4.200010000009551e+000	 1.021609092773994e+001
0	 6.533360000018131e+000	 4.266680000012267e+000	 1.021415993784319e+001
0	 6.533360000018130e+000	 4.333350000014582e+000	 1.021211832220844e+001
0	 6.533360000018132e+000	 4.400020000016402e+000	 1.020996427912230e+001
0	 6.533360000018133e+000	 4.466690000017618e+000	 1.020769600687131e+001
0	 6.533360000018133e+000	 4.533360000018134e+000	 1.020531170374207e+001
0	 6.533360000018131e+000	 4.600030000017850e+000	 1.020280956802114e+001
0	 6.533360000018133e+000	 4.666700000016666e+000	 1.020018779799511e+001
0	 6.600030000017847e+000	 4.000000000000000e+000	 1.021374870880137e+001
0	 6.600030000017848e+000	 4.066670000003318e+000	 1.021225888483962e+001
0	 6.600030000017847e+000	 4.133340000006534e+000	 1.021066807087295e+001
0	 6.600030000017849e+000	 4.200010000009551e+000	 1.020897423753763e+001
0	 6.600030000017849e+000	 4.266680000012268e+000	 1.020717535547000e+001
0	 6.600030000017847e+000	 4.333350000014583e+000	 1.020526939530631e+001
0	 6.600030000017848e+000	 4.400020000016402e+000	 1.020325432768285e+001
0	 6.600030000017849e+000	 4.466690000017619e+000	 1.020112812323595e+001
0	 6.600030000017851e+000	 4.533360000018134e+000	 1.019888875260186e+001
0	 6.600030000017849e+000	 4.600030000017851e+000	 1.019653418641687e+001
0	 6.600030000017847e+000	 4.666700000016665e+000	 1.019406239531727e+001
0	 6.666700000016667e+000	 4.000000000000001e+000	 1.020624692168954e+001
0	 6.666700000016666e+000	 4.066670000003316e+000	 1.020487883852418e+001
0	 6.666700000016667e+000	 4.133340000006536e+000	 1.020341454820727e+001
0	 6.666700000016667e+000	 4.200010000009551e+000	 1.020185161749907e+001
0	 6.666700000016667e+000	 4.266680000012268e+000	 1.020018761315991e+001
0	 6.666700000016665e+000	 4.333350000014583e+000	 1.019842010195001e+001
0	 6.666700000016665e+000	 4.400020000016400e+000	 1.019654665062970e+001
0	 6.666700000016667e+000	 4.466690000017618e+000	 1.019456482595923e+001
0	 6.666700000016667e+000	 4.533360000018134e+000	 1.019247219469888e+001
0	 6.666700000016666e+000	 4.600030000017851e+000	 1.019026632360892e+001
0	 6.666700000016667e+000	 4.666700000016667e+000	 1.018794477944962e+001
0	 6.000000000000000e+000	 4.666700000016666e+000	 1.024812859390767e+001
0	 5.999999999999998e+000	 4.733360000014531e+000	 1.024409107495353e+001
0	 5.999999999999998e+000	 4.800020000011600e+000	 1.024002619155665e+001
0	 6.000000000000002e+000	 4.866680000008068e+000	 1.023592874541368e+001
0	 5.999999999999998e+000	 4.933340000004132e+000	 1.023179353822128e+001
0	 6.000000000000002e+000	 5.000000000000002e+000	 1.022761537167609e+001
0	 5.999999999999999e+000	 5.066659999995866e+000	 1.022338904747476e+001
0	 6.000000000000000e+000	 5.133319999991934e+000	 1.021910936731395e+001
0	 5.999999999999998e+000	 5.199979999988400e+000	 1.021477113289030e+001
0	 6.000000000000000e+000	 5.266639999985468e+000	 1.021036914590048e+001
0	 6.000000000000000e+000	 5.333299999983334e+000	 1.020589820804115e+001
0	 6.066670000003319e+000	 4.666700000016667e+000	 1.024234372195146e+001
0	 6.066670000003315e+000	 4.733360000014533e+000	 1.023849655293764e+001
0	 6.066670000003315e+000	 4.800020000011599e+000	 1.023462036589333e+001
0	 6.066670000003317e+000	 4.866680000008066e+000	 1.023070943712924e+001
0	 6.066670000003319e+000	 4.933340000004134e+000	 1.022675804295611e+001
0	 6.066670000003320e+000	 5.000000000000000e+000	 1.022276045968463e+001
0	 6.066670000003319e+000	 5.066659999995867e+000	 1.021871096362553e+001
0	 6.066670000003319e+000	 5.133319999991934e+000	 1.021460383108954e+001
0	 6.066670000003314e+000	 5.199979999988400e+000	 1.021043333838739e+001
0	 6.066670000003316e+000	 5.266639999985467e+000	 1.020619376182981e+001
0	 6.066670000003317e+000	 5.333299999983335e+000	 1.020187937772753e+001
0	 6.133340000006533e+000	 4.666700000016667e+000	 1.023647712009361e+001
0	 6.133340000006535e+000	 4.733360000014534e+000	 1.023281189834193e+001
0	 6.133340000006534e+000	 4.800020000011599e+000	 1.022911668500331e+001
0	 6.133340000006533e+000	 4.866680000008066e+000	 1.022538536015385e+001
0	 6.133340000006533e+000	 4.933340000004134e+000	 1.022161180386961e+001
0	 6.133340000006535e+000	 5.000000000000002e+000	 1.021778989622671e+001
0	 6.133340000006533e+000	 5.066659999995866e+000	 1.021391351730122e+001
0	 6.133340000006534e+000	 5.133319999991934e+000	 1.020997654716924e+001
0	 6.133340000006533e+000	 5.199979999988400e+000	 1.020597286590686e+001
0	 6.133340000006531e+000	 5.266639999985468e+000	 1.020189635359020e+001
0	 6.133340000006531e+000	 5.333299999983334e+000	 1.019774089029535e+001
0	 6.200010000009550e+000	 4.666700000016666e+000	 1.023053997792311e+001
0	 6.200010000009550e+000	 4.733360000014532e+000	 1.022704925705150e+001
0	 6.200010000009551e+000	 4.800020000011600e+000	 1.022352804361612e+001
0	 6.200010000009550e+000	 4.866680000008065e+000	 1.021996995060975e+001
0	 6.200010000009551e+000	 4.933340000004134e+000	 1.021636859102513e+001
0	 6.200010000009551e+000	 5.000000000000000e+000	 1.021271757785499e+001
0	 6.200010000009550e+000	 5.066659999995867e+000	 1.020901052409213e+001
0	 6.200010000009549e+000	 5.133319999991935e+000	 1.020524104272931e+001
0	 6.200010000009551e+000	 5.199979999988400e+000	 1.020140274675926e+001
0	 6.200010000009550e+000	 5.266639999985468e+000	 1.019748924917479e+001
0	 6.200010000009550e+000	 5.333299999983334e+000	 1.019349416296865e+001
0	 6.266680000012267e+000	 4.666700000016667e+000	 1.022454348502894e+001
0	 6.266680000012268e+000	 4.733360000014534e+000	 1.022122077495144e+001
0	 6.266680000012265e+000	 4.800020000011599e+000	 1.021786733646129e+001
0	 6.266680000012268e+000	 4.866680000008066e+000	 1.021447664461921e+001
0	 6.266680000012266e+000	 4.933340000004133e+000	 1.021104217448592e+001
0	 6.266680000012265e+000	 4.999999999999999e+000	 1.020755740112213e+001
0	 6.266680000012267e+000	 5.066659999995865e+000	 1.020401579958860e+001
0	 6.266680000012267e+000	 5.133319999991934e+000	 1.020041084494602e+001
0	 6.266680000012267e+000	 5.199979999988400e+000	 1.019673601225515e+001
0	 6.266680000012266e+000	 5.266639999985468e+000	 1.019298477657673e+001
0	 6.266680000012265e+000	 5.333299999983333e+000	 1.018915061297149e+001
0	 6.333350000014582e+000	 4.666700000016666e+000	 1.021849883100007e+001
0	 6.333350000014584e+000	 4.733360000014533e+000	 1.021533859792686e+001
0	 6.333350000014582e+000	 4.800020000011600e+000	 1.021214745826833e+001
0	 6.333350000014582e+000	 4.866680000008067e+000	 1.020891887830449e+001
0	 6.333350000014580e+000	 4.933340000004133e+000	 1.020564632431530e+001
0	 6.333350000014582e+000	 4.999999999999999e+000	 1.020232326258079e+001
0	 6.333350000014583e+000	 5.066659999995868e+000	 1.019894315938091e+001
0	 6.333350000014582e+000	 5.133319999991935e+000	 1.019549948099569e+001
0	 6.333350000014582e+000	 5.199979999988400e+000	 1.019198569370511e+001
0	 6.333350000014583e+000	 5.266639999985467e+000	 1.018839526378917e+001
0	 6.333350000014584e+000	 5.333299999983334e+000	 1.018472165752789e+001
0	 6.400020000016399e+000	 4.666700000016666e+000	 1.021241720542549e+001
0	 6.400020000016401e+000	 4.733360000014534e+000	 1.020941487186282e+001
0	 6.400020000016399e+000	 4.800020000011601e+000	 1.020638130376676e+001
0	 6.400020000016401e+000	 4.866680000008067e+000	 1.020331008778783e+001
0	 6.400020000016399e+000	 4.933340000004133e+000	 1.020019481057659e+001
0	 6.400020000016398e+000	 5.000000000000000e+000	 1.019702905878359e+001
0	 6.400020000016399e+000	 5.066659999995868e+000	 1.019380641905940e+001
0	 6.400020000016401e+000	 5.133319999991935e+000	 1.019052047805458e+001
0	 6.400020000016400e+000	 5.199979999988400e+000	 1.018716482241966e+001
0	 6.400020000016401e+000	 5.266639999985467e+000	 1.018373303880527e+001
0	 6.400020000016398e+000	 5.333299999983333e+000	 1.018021871386193e+001
0	 6.466690000017616e+000	 4.666700000016667e+000	 1.020630979789418e+001
0	 6.466690000017616e+000	 4.733360000014533e+000	 1.020346174264447e+001
0	 6.466690000017616e+000	 4.800020000011600e+000	 1.020058176768610e+001
0	 6.466690000017617e+000	 4.866680000008068e+000	 1.019766370919150e+001
0	 6.466690000017615e+000	 4.933340000004133e+000	 1.019470140333306e+001
0	 6.466690000017616e+000	 5.000000000000001e+000	 1.019168868628321e+001
0	 6.466690000017614e+000	 5.066659999995867e+000	 1.018861939421438e+001
0	 6.466690000017617e+000	 5.133319999991934e+000	 1.018548736329897e+001
0	 6.466690000017614e+000	 5.199979999988400e+000	 1.018228642970944e+001
0	 6.466690000017617e+000	 5.266639999985468e+000	 1.017901042961817e+001
0	 6.466690000017616e+000	 5.333299999983333e+000	 1.017565319919763e+001
0	 6.533360000018133e+000	 4.666700000016666e+000	 1.020018779799511e+001
0	 6.533360000018132e+000	 4.733360000014533e+000	 1.019749135615687e+001
0	 6.533360000018134e+000	 4.800020000011601e+000	 1.019476174475589e+001
0	 6.533360000018132e+000	 4.866680000008067e+000	 1.019199317863775e+001
0	 6.533360000018132e+000	 4.933340000004135e+000	 1.018917987264803e+001
0	 6.533360000018133e+000	 5.000000000000001e+000	 1.018631604163231e+001
0	 6.533360000018131e+000	 5.066659999995865e+000	 1.018339590043616e+001
0	 6.533360000018133e+000	 5.133319999991936e+000	 1.018041366390517e+001
0	 6.533360000018130e+000	 5.199979999988400e+000	 1.017736354688492e+001
0	 6.533360000018131e+000	 5.266639999985467e+000	 1.017423976422102e+001
0	 6.533360000018134e+000	 5.333299999983335e+000	 1.017103653075904e+001
0	 6.600030000017847e+000	 4.666700000016665e+000	 1.019406239531727e+001
0	 6.600030000017849e+000	 4.733360000014534e+000	 1.019151585828511e+001
0	 6.600030000017847e+000	 4.800020000011600e+000	 1.018893412970564e+001
0	 6.600030000017848e+000	 4.866680000008065e+000	 1.018631193224885e+001
0	 6.600030000017847e+000	 4.933340000004133e+000	 1.018364398858480e+001
0	 6.600030000017849e+000	 4.999999999999999e+000	 1.018092502138352e+001
0	 6.600030000017847e+000	 5.066659999995868e+000	 1.017814975331506e+001
0	 6.600030000017848e+000	 5.133319999991934e+000	 1.017531290704945e+001
0	 6.600030000017849e+000	 5.199979999988400e+000	 1.017240920525673e+001
0	 6.600030000017848e+000	 5.266639999985467e+000	 1.016943337060698e+001
0	 6.600030000017847e+000	 5.333299999983335e+000	 1.016638012577021e+001
0	 6.666700000016667e+000	 4.666700000016667e+000	 1.018794477944963e+001
0	 6.666700000016668e+000	 4.733360000014534e+000	 1.018554739491432e+001
0	 6.666700000016665e+000	 4.800020000011600e+000	 1.018311181726488e+001
0	 6.666700000016667e+000	 4.866680000008067e+000	 1.018063340614706e+001
0	 6.666700000016669e+000	 4.933340000004135e+000	 1.017810752120668e+001
0	 6.666700000016666e+000	 5.000000000000001e+000	 1.017552952208953e+001
0	 6.666700000016667e+000	 5.066659999995867e+000	 1.017289476844139e+001
0	 6.666700000016666e+000	 5.133319999991935e+000	 1.017019861990809e+001
0	 6.666700000016666e+000	 5.199979999988400e+000	 1.016743643613542e+001
0	 6.666700000016665e+000	 5.266639999985468e+000	 1.016460357676919e+001
0	 6.666700000016665e+000	 5.333299999983334e+000	 1.016169540145521e+001
0	 6.000000000000000e+000	 5.333299999983334e+000	 1.020589820804115e+001
0	 6.000000000000000e+000	 5.399969999982150e+000	 1.020140935864128e+001
0	 6.000000000000001e+000	 5.466639999981868e+000	 1.019695510510411e+001
0	 6.000000000000000e+000	 5.533309999982383e+000	 1.019253042281909e+001
0	 6.000000000000000e+000	 5.599979999983598e+000	 1.018813028717568e+001
0	 5.999999999999998e+000	 5.666649999985416e+000	 1.018374967356333e+001
0	 5.999999999999998e+000	 5.733319999987732e+000	 1.017938355737151e+001
0	 5.999999999999999e+000	 5.799989999990449e+000	 1.017502691398964e+001
0	 5.999999999999998e+000	 5.866659999993467e+000	 1.017067471880721e+001
0	 6.000000000000000e+000	 5.933329999996683e+000	 1.016632194721366e+001
0	 5.999999999999999e+000	 5.999999999999999e+000	 1.016196357459843e+001
0	 6.066670000003317e+000	 5.333299999983335e+000	 1.020187937772753e+001
0	 6.066670000003316e+000	 5.399969999982148e+000	 1.019754143422081e+001
0	 6.066670000003318e+000	 5.466639999981866e+000	 1.019323324556928e+001
0	 6.066670000003319e+000	 5.533309999982384e+000	 1.018895022790367e+001
0	 6.066670000003316e+000	 5.599979999983599e+000	 1.018468779735471e+001
0	 6.066670000003313e+000	 5.666649999985414e+000	 1.018044137005313e+001
0	 6.066670000003316e+000	 5.733319999987732e+000	 1.017620636212963e+001
0	 6.066670000003319e+000	 5.799989999990450e+000	 1.017197818971497e+001
0	 6.066670000003316e+000	 5.866659999993466e+000	 1.016775226893983e+001
0	 6.066670000003319e+000	 5.933329999996684e+000	 1.016352401593500e+001
0	 6.066670000003318e+000	 6.000000000000000e+000	 1.015928884683116e+001
0	 6.133340000006531e+000	 5.333299999983334e+000	 1.019774089029535e+001
0	 6.133340000006536e+000	 5.399969999982150e+000	 1.019355697005613e+001
0	 6.133340000006532e+000	 5.466639999981864e+000	 1.018939762532683e+001
0	 6.133340000006530e+000	 5.533309999982381e+000	 1.018525865498484e+001
0	 6.133340000006533e+000	 5.599979999983601e+000	 1.018113585790756e+001
0	 6.133340000006535e+000	 5.666649999985417e+000	 1.017702503297244e+001
0	 6.133340000006533e+000	 5.733319999987734e+000	 1.017292197905686e+001
0	 6.133340000006533e+000	 5.799989999990449e+000	 1.016882249503823e+001
0	 6.133340000006534e+000	 5.866659999993467e+000	 1.016472237979400e+001
0	 6.133340000006535e+000	 5.933329999996684e+000	 1.016061743220153e+001
0	 6.133340000006534e+000	 6.000000000000000e+000	 1.015650345113827e+001
0	 6.200010000009550e+000	 5.333299999983334e+000	 1.019349416296865e+001
0	 6.200010000009550e+000	 5.399969999982150e+000	 1.018946644076421e+001
0	 6.200010000009551e+000	 5.466639999981866e+000	 1.018545792046669e+001
0	 6.200010000009551e+000	 5.533309999982384e+000	 1.018146472570559e+001
0	 6.200010000009550e+000	 5.599979999983599e+000	 1.017748298011043e+001
0	 6.200010000009550e+000	 5.666649999985416e+000	 1.017350880731071e+001
0	 6.200010000009550e+000	 5.733319999987734e+000	 1.016953833093594e+001
0	 6.200010000009550e+000	 5.799989999990450e+000	 1.016556767461565e+001
0	 6.200010000009551e+000	 5.866659999993467e+000	 1.016159296197934e+001
0	 6.200010000009550e+000	 5.933329999996683e+000	 1.015761031665650e+001
0	 6.200010000009550e+000	 6.000000000000001e+000	 1.015361586227667e+001
0	 6.266680000012265e+000	 5.333299999983333e+000	 1.018915061297149e+001
0	 6.266680000012268e+000	 5.399969999982151e+000	 1.018528032096200e+001
0	 6.266680000012266e+000	 5.466639999981866e+000	 1.018142380707880e+001
0	 6.266680000012264e+000	 5.533309999982383e+000	 1.017757746170895e+001
0	 6.266680000012267e+000	 5.599979999983600e+000	 1.017373767523947e+001
0	 6.266680000012268e+000	 5.666649999985417e+000	 1.016990083805735e+001
0	 6.266680000012268e+000	 5.733319999987733e+000	 1.016606334054963e+001
0	 6.266680000012266e+000	 5.799989999990450e+000	 1.016222157310335e+001
0	 6.266680000012265e+000	 5.866659999993466e+000	 1.015837192610553e+001
0	 6.266680000012268e+000	 5.933329999996684e+000	 1.015451078994317e+001
0	 6.266680000012266e+000	 5.999999999999998e+000	 1.015063455500330e+001
0	 6.333350000014584e+000	 5.333299999983334e+000	 1.018472165752789e+001
0	 6.333350000014582e+000	 5.399969999982148e+000	 1.018100908526642e+001
0	 6.333350000014584e+000	 5.466639999981868e+000	 1.017730496125313e+001
0	 6.333350000014582e+000	 5.533309999982383e+000	 1.017360588463795e+001
0	 6.333350000014582e+000	 5.599979999983598e+000	 1.016990845457086e+001
0	 6.333350000014582e+000	 5.666649999985416e+000	 1.016620927020178e+001
0	 6.333350000014583e+000	 5.733319999987734e+000	 1.016250493068069e+001
0	 6.333350000014585e+000	 5.799989999990450e+000	 1.015879203515753e+001
0	 6.333350000014583e+000	 5.866659999993468e+000	 1.015506718278224e+001
0	 6.333350000014582e+000	 5.933329999996683e+000	 1.015132697270478e+001
0	 6.333350000014583e+000	 6.000000000000000e+000	 1.014756800407509e+001
0	 6.400020000016398e+000	 5.333299999983333e+000	 1.018021871386192e+001
0	 6.400020000016399e+000	 5.399969999982150e+000	 1.017666320829445e+001
0	 6.400020000016398e+000	 5.466639999981866e+000	 1.017311105907957e+001
0	 6.400020000016401e+000	 5.533309999982384e+000	 1.016955901613558e+001
0	 6.400020000016400e+000	 5.599979999983600e+000	 1.016600382938077e+001
0	 6.400020000016397e+000	 5.666649999985414e+000	 1.016244224873343e+001
0	 6.400020000016398e+000	 5.733319999987731e+000	 1.015887102411186e+001
0	 6.400020000016399e+000	 5.799989999990449e+000	 1.015528690543432e+001
0	 6.400020000016399e+000	 5.866659999993467e+000	 1.015168664261915e+001
0	 6.400020000016398e+000	 5.933329999996683e+000	 1.014806698558459e+001
0	 6.400020000016399e+000	 6.000000000000000e+000	 1.014442468424896e+001
0	 6.466690000017616e+000	 5.333299999983333e+000	 1.017565319919763e+001
0	 6.466690000017615e+000	 5.399969999982149e+000	 1.017225316466304e+001
0	 6.466690000017614e+000	 5.466639999981866e+000	 1.016885177664809e+001
0	 6.466690000017616e+000	 5.533309999982383e+000	 1.016544587784486e+001
0	 6.466690000017615e+000	 5.599979999983599e+000	 1.016203231094538e+001
0	 6.466690000017614e+000	 5.666649999985416e+000	 1.015860791864169e+001
0	 6.466690000017617e+000	 5.733319999987733e+000	 1.015516954362586e+001
0	 6.466690000017616e+000	 5.799989999990450e+000	 1.015171402858990e+001
0	 6.466690000017615e+000	 5.866659999993465e+000	 1.014823821622589e+001
0	 6.466690000017618e+000	 5.933329999996684e+000	 1.014473894922586e+001
0	 6.466690000017616e+000	 6.000000000000001e+000	 1.014121307028183e+001
0	 6.533360000018134e+000	 5.333299999983335e+000	 1.017103653075904e+001
0	 6.533360000018129e+000	 5.399969999982148e+000	 1.016778942898911e+001
0	 6.533360000018130e+000	 5.466639999981864e+000	 1.016453679004863e+001
0	 6.533360000018132e+000	 5.533309999982382e+000	 1.016127549140881e+001
0	 6.533360000018130e+000	 5.599979999983598e+000	 1.015800241054087e+001
0	 6.533360000018132e+000	 5.666649999985417e+000	 1.015471442491602e+001
0	 6.533360000018130e+000	 5.733319999987733e+000	 1.015140841200549e+001
0	 6.533360000018131e+000	 5.799989999990448e+000	 1.014808124928045e+001
0	 6.533360000018131e+000	 5.866659999993468e+000	 1.014472981421216e+001
0	 6.533360000018129e+000	 5.933329999996682e+000	 1.014135098427182e+001
0	 6.533360000018134e+000	 6.000000000000001e+000	 1.013794163693064e+001
0	 6.600030000017847e+000	 5.333299999983335e+000	 1.016638012577021e+001
0	 6.600030000017848e+000	 5.399969999982150e+000	 1.016328247588964e+001
0	 6.600030000017849e+000	 5.466639999981868e+000	 1.016017577537111e+001
0	 6.600030000017848e+000	 5.533309999982385e+000	 1.015705687847042e+001
0	 6.600030000017847e+000	 5.599979999983598e+000	 1.015392263944339e+001
0	 6.600030000017847e+000	 5.666649999985416e+000	 1.015076991254579e+001
0	 6.600030000017850e+000	 5.733319999987733e+000	 1.014759555203344e+001
0	 6.600030000017848e+000	 5.799989999990450e+000	 1.014439641216211e+001
0	 6.600030000017848e+000	 5.866659999993467e+000	 1.014116934718763e+001
0	 6.600030000017847e+000	 5.933329999996683e+000	 1.013791121136575e+001
0	 6.600030000017847e+000	 5.999999999999998e+000	 1.013461885895229e+001
0	 6.666700000016665e+000	 5.333299999983334e+000	 1.016169540145520e+001
0	 6.666700000016668e+000	 5.399969999982151e+000	 1.015874277998158e+001
0	 6.666700000016667e+000	 5.466639999981866e+000	 1.015577840870548e+001
0	 6.666700000016667e+000	 5.533309999982384e+000	 1.015279906067273e+001
0	 6.666700000016667e+000	 5.599979999983600e+000	 1.014980150892914e+001
0	 6.666700000016665e+000	 5.666649999985416e+000	 1.014678252652047e+001
0	 6.666700000016665e+000	 5.733319999987732e+000	 1.014373888649251e+001
0	 6.666700000016665e+000	 5.799989999990448e+000	 1.014066736189107e+001
0	 6.666700000016665e+000	 5.866659999993468e+000	 1.013756472576193e+001
0	 6.666700000016665e+000	 5.933329999996682e+000	 1.013442775115089e+001
0	 6.666700000016668e+000	 6.000000000000002e+000	 1.013125321110372e+001
0	 5.999999999999999e+000	 5.999999999999999e+000	 1.016196357459843e+001
0	 6.000000000000000e+000	 6.066670000003318e+000	 1.015762437431714e+001
0	 6.000000000000000e+000	 6.133340000006533e+000	 1.015333036253942e+001
0	 5.999999999999996e+000	 6.200010000009550e+000	 1.014907837887571e+001
0	 5.999999999999998e+000	 6.266680000012267e+000	 1.014486526293652e+001
0	 6.000000000000000e+000	 6.333350000014585e+000	 1.014068785433229e+001
0	 5.999999999999998e+000	 6.400020000016399e+000	 1.013654299267352e+001
0	 6.000000000000001e+000	 6.466690000017618e+000	 1.013242751757065e+001
0	 6.000000000000002e+000	 6.533360000018136e+000	 1.012833826863419e+001
0	 6.000000000000001e+000	 6.600030000017850e+000	 1.012427208547458e+001
0	 6.000000000000002e+000	 6.666700000016668e+000	 1.012022580770230e+001
0	 6.066670000003318e+000	 6.000000000000000e+000	 1.015928884683116e+001
0	 6.066670000003316e+000	 6.066670000003316e+000	 1.015507035717121e+001
0	 6.066670000003316e+000	 6.133340000006532e+000	 1.015089303514413e+001
0	 6.066670000003319e+000	 6.200010000009550e+000	 1.014675363584974e+001
0	 6.066670000003319e+000	 6.266680000012269e+000	 1.014264891438789e+001
0	 6.066670000003316e+000	 6.333350000014583e+000	 1.013857562585841e+001
0	 6.066670000003319e+000	 6.400020000016401e+000	 1.013453052536115e+001
0	 6.066670000003318e+000	 6.466690000017617e+000	 1.013051036799591e+001
0	 6.066670000003316e+000	 6.533360000018132e+000	 1.012651190886257e+001
0	 6.066670000003317e+000	 6.600030000017850e+000	 1.012253190306093e+001
0	 6.066670000003319e+000	 6.666700000016667e+000	 1.011856710569087e+001
0	 6.133340000006534e+000	 6.000000000000000e+000	 1.015650345113827e+001
0	 6.133340000006535e+000	 6.066670000003318e+000	 1.015240350373927e+001
0	 6.133340000006534e+000	 6.133340000006534e+000	 1.014834125193328e+001
0	 6.133340000006533e+000	 6.200010000009551e+000	 1.014431338678814e+001
0	 6.133340000006533e+000	 6.266680000012268e+000	 1.014031659937174e+001
0	 6.133340000006533e+000	 6.333350000014583e+000	 1.013634758075192e+001
0	 6.133340000006533e+000	 6.400020000016401e+000	 1.013240302199658e+001
0	 6.133340000006532e+000	 6.466690000017617e+000	 1.012847961417354e+001
0	 6.133340000006533e+000	 6.533360000018134e+000	 1.012457404835072e+001
0	 6.133340000006534e+000	 6.600030000017851e+000	 1.012068301559593e+001
0	 6.133340000006531e+000	 6.666700000016665e+000	 1.011680320697708e+001
0	 6.200010000009550e+000	 6.000000000000001e+000	 1.015361586227667e+001
0	 6.200010000009550e+000	 6.066670000003318e+000	 1.014963266889404e+001
0	 6.200010000009551e+000	 6.133340000006533e+000	 1.014568415581952e+001
0	 6.200010000009551e+000	 6.200010000009551e+000	 1.014176697056766e+001
0	 6.200010000009550e+000	 6.266680000012268e+000	 1.013787776065304e+001
0	 6.200010000009550e+000	 6.333350000014583e+000	 1.013401317359020e+001
0	 6.200010000009549e+000	 6.400020000016401e+000	 1.013016985689371e+001
0	 6.200010000009552e+000	 6.466690000017619e+000	 1.012634445807813e+001
0	 6.200010000009551e+000	 6.533360000018135e+000	 1.012253362465802e+001
0	 6.200010000009549e+000	 6.600030000017850e+000	 1.011873400414792e+001
0	 6.200010000009550e+000	 6.666700000016667e+000	 1.011494224406241e+001
0	 6.266680000012266e+000	 5.999999999999998e+000	 1.015063455500330e+001
0	 6.266680000012268e+000	 6.066670000003319e+000	 1.014676670750824e+001
0	 6.266680000012265e+000	 6.133340000006531e+000	 1.014293088971551e+001
0	 6.266680000012265e+000	 6.200010000009550e+000	 1.013912372606506e+001
0	 6.266680000012268e+000	 6.266680000012268e+000	 1.013534184099678e+001
0	 6.266680000012267e+000	 6.333350000014585e+000	 1.013158185895060e+001
0	 6.266680000012268e+000	 6.400020000016402e+000	 1.012784040436643e+001
0	 6.266680000012265e+000	 6.466690000017616e+000	 1.012411410168422e+001
0	 6.266680000012266e+000	 6.533360000018133e+000	 1.012039957534385e+001
0	 6.266680000012267e+000	 6.600030000017852e+000	 1.011669344978525e+001
0	 6.266680000012268e+000	 6.666700000016667e+000	 1.011299234944835e+001
0	 6.333350000014583e+000	 6.000000000000000e+000	 1.014756800407509e+001
0	 6.333350000014582e+000	 6.066670000003317e+000	 1.014381447445456e+001
0	 6.333350000014582e+000	 6.133340000006532e+000	 1.014009059653390e+001
0	 6.333350000014584e+000	 6.200010000009550e+000	 1.013639299215702e+001
0	 6.333350000014582e+000	 6.266680000012268e+000	 1.013271828316789e+001
0	 6.333350000014583e+000	 6.333350000014583e+000	 1.012906309141044e+001
0	 6.333350000014584e+000	 6.400020000016402e+000	 1.012542403872863e+001
0	 6.333350000014582e+000	 6.466690000017616e+000	 1.012179774696636e+001
0	 6.333350000014582e+000	 6.533360000018134e+000	 1.011818083796761e+001
0	 6.333350000014582e+000	 6.600030000017848e+000	 1.011456993357630e+001
0	 6.333350000014583e+000	 6.666700000016667e+000	 1.011096165563639e+001
0	 6.400020000016399e+000	 6.000000000000000e+000	 1.014442468424896e+001
0	 6.400020000016399e+000	 6.066670000003318e+000	 1.014078482460575e+001
0	 6.400020000016398e+000	 6.133340000006531e+000	 1.013717241918733e+001
0	 6.400020000016399e+000	 6.200010000009551e+000	 1.013358410772034e+001
0	 6.400020000016400e+000	 6.266680000012267e+000	 1.013001652993137e+001
0	 6.400020000016400e+000	 6.333350000014583e+000	 1.012646632554711e+001
0	 6.400020000016401e+000	 6.400020000016402e+000	 1.012293013429416e+001
0	 6.400020000016401e+000	 6.466690000017618e+000	 1.011940459589914e+001
0	 6.400020000016399e+000	 6.533360000018136e+000	 1.011588635008868e+001
0	 6.400020000016400e+000	 6.600030000017852e+000	 1.011237203658942e+001
0	 6.400020000016401e+000	 6.666700000016666e+000	 1.010885829512799e+001
0	 6.466690000017616e+000	 6.000000000000001e+000	 1.014121307028183e+001
0	 6.466690000017617e+000	 6.066670000003318e+000	 1.013768661283449e+001
0	 6.466690000017616e+000	 6.133340000006533e+000	 1.013418550058846e+001
0	 6.466690000017615e+000	 6.200010000009551e+000	 1.013070641163169e+001
0	 6.466690000017616e+000	 6.266680000012268e+000	 1.012724602405220e+001
0	 6.466690000017617e+000	 6.333350000014584e+000	 1.012380101593794e+001
0	 6.466690000017616e+000	 6.400020000016400e+000	 1.012036806537692e+001
0	 6.466690000017617e+000	 6.466690000017617e+000	 1.011694385045709e+001
0	 6.466690000017615e+000	 6.533360000018134e+000	 1.011352504926645e+001
0	 6.466690000017616e+000	 6.600030000017850e+000	 1.011010833989299e+001
0	 6.466690000017615e+000	 6.666700000016666e+000	 1.010669040042466e+001
0	 6.533360000018134e+000	 6.000000000000001e+000	 1.013794163693064e+001
0	 6.533360000018130e+000	 6.066670000003315e+000	 1.013452869401352e+001
0	 6.533360000018130e+000	 6.133340000006532e+000	 1.013113898364994e+001
0	 6.533360000018132e+000	 6.200010000009550e+000	 1.012776924276786e+001
0	 6.533360000018130e+000	 6.266680000012266e+000	 1.012441620829533e+001
0	 6.533360000018132e+000	 6.333350000014583e+000	 1.012107661716030e+001
0	 6.533360000018132e+000	 6.400020000016400e+000	 1.011774720629079e+001
0	 6.533360000018130e+000	 6.466690000017617e+000	 1.011442471261479e+001
0	 6.533360000018131e+000	 6.533360000018136e+000	 1.011110587306030e+001
0	 6.533360000018131e+000	 6.600030000017850e+000	 1.010778742455533e+001
0	 6.533360000018131e+000	 6.666700000016665e+000	 1.010446610402788e+001
0	 6.600030000017847e+000	 5.999999999999998e+000	 1.013461885895229e+001
0	 6.600030000017847e+000	 6.066670000003319e+000	 1.013131992301555e+001
0	 6.600030000017850e+000	 6.133340000006535e+000	 1.012804201128441e+001
0	 6.600030000017848e+000	 6.200010000009552e+000	 1.012478194000559e+001
0	 6.600030000017848e+000	 6.266680000012269e+000	 1.012153652542573e+001
0	 6.600030000017848e+000	 6.333350000014584e+000	 1.011830258379152e+001
0	 6.600030000017847e+000	 6.400020000016398e+000	 1.011507693134966e+001
0	 6.600030000017849e+000	 6.466690000017618e+000	 1.011185638434679e+001
0	 6.600030000017847e+000	 6.533360000018134e+000	 1.010863775902964e+001
0	 6.600030000017847e+000	 6.600030000017849e+000	 1.010541787164485e+001
0	 6.600030000017847e+000	 6.666700000016665e+000	 1.010219353843912e+001
0	 6.666700000016668e+000	 6.000000000000002e+000	 1.013125321110372e+001
0	 6.666700000016667e+000	 6.066670000003318e+000	 1.012806915471327e+001
0	 6.666700000016665e+000	 6.133340000006532e+000	 1.012490372640455e+001
0	 6.666700000016666e+000	 6.200010000009550e+000	 1.012175384222158e+001
0	 6.666700000016666e+000	 6.266680000012267e+000	 1.011861641820838e+001
0	 6.666700000016667e+000	 6.333350000014586e+000	 1.011548837040897e+001
0	 6.666700000016667e+000	 6.400020000016401e+000	 1.011236661486740e+001
0	 6.666700000016667e+000	 6.466690000017616e+000	 1.010924806762766e+001
0	 6.666700000016666e+000	 6.533360000018132e+000	 1.010612964473382e+001
0	 6.666700000016667e+000	 6.600030000017851e+000	 1.010300826222989e+001
0	 6.666700000016666e+000	 6.666700000016667e+000	 1.009988083615987e+001
0	 6.000000000000002e+000	 6.666700000016668e+000	 1.012022580770230e+001
0	 6.000000000000000e+000	 6.733360000014532e+000	 1.011622081783706e+001
0	 6.000000000000000e+000	 6.800020000011600e+000	 1.011227763910932e+001
0	 6.000000000000000e+000	 6.866680000008066e+000	 1.010839363892515e+001
0	 6.000000000000001e+000	 6.933340000004134e+000	 1.010456618469062e+001
0	 6.000000000000000e+000	 6.999999999999998e+000	 1.010079264381182e+001
0	 6.000000000000001e+000	 7.066659999995868e+000	 1.009707038369481e+001
0	 6.000000000000000e+000	 7.133319999991935e+000	 1.009339677174565e+001
0	 6.000000000000000e+000	 7.199979999988401e+000	 1.008976917537044e+001
0	 6.000000000000000e+000	 7.266639999985465e+000	 1.008618496197523e+001
0	 6.000000000000000e+000	 7.333299999983332e+000	 1.008264149896610e+001
0	 6.066670000003319e+000	 6.666700000016667e+000	 1.011856710569088e+001
0	 6.066670000003317e+000	 6.733360000014534e+000	 1.011464004664048e+001
0	 6.066670000003314e+000	 6.800020000011598e+000	 1.011077246712906e+001
0	 6.066670000003317e+000	 6.866680000008065e+000	 1.010696172038786e+001
0	 6.066670000003320e+000	 6.933340000004136e+000	 1.010320515964810e+001
0	 6.066670000003319e+000	 7.000000000000000e+000	 1.009950013814099e+001
0	 6.066670000003319e+000	 7.066659999995868e+000	 1.009584400909777e+001
0	 6.066670000003319e+000	 7.133319999991935e+000	 1.009223412574964e+001
0	 6.066670000003317e+000	 7.199979999988400e+000	 1.008866784132782e+001
0	 6.066670000003315e+000	 7.266639999985465e+000	 1.008514250906355e+001
0	 6.066670000003317e+000	 7.333299999983333e+000	 1.008165548218802e+001
0	 6.133340000006531e+000	 6.666700000016665e+000	 1.011680320697708e+001
0	 6.133340000006534e+000	 6.733360000014532e+000	 1.011295784428676e+001
0	 6.133340000006533e+000	 6.800020000011599e+000	 1.010916942188737e+001
0	 6.133340000006533e+000	 6.866680000008065e+000	 1.010543528349904e+001
0	 6.133340000006531e+000	 6.933340000004131e+000	 1.010175277284190e+001
0	 6.133340000006532e+000	 6.999999999999997e+000	 1.009811923363607e+001
0	 6.133340000006534e+000	 7.066659999995868e+000	 1.009453200960168e+001
0	 6.133340000006535e+000	 7.133319999991934e+000	 1.009098844445886e+001
0	 6.133340000006535e+000	 7.199979999988401e+000	 1.008748588192774e+001
0	 6.133340000006532e+000	 7.266639999985466e+000	 1.008402166572841e+001
0	 6.133340000006531e+000	 7.333299999983332e+000	 1.008059313958103e+001
0	 6.200010000009550e+000	 6.666700000016667e+000	 1.011494224406241e+001
0	 6.200010000009550e+000	 6.733360000014531e+000	 1.011118186973442e+001
0	 6.200010000009551e+000	 6.800020000011601e+000	 1.010747573077498e+001
0	 6.200010000009551e+000	 6.866680000008067e+000	 1.010382116605689e+001
0	 6.200010000009551e+000	 6.933340000004134e+000	 1.010021551445294e+001
0	 6.200010000009552e+000	 7.000000000000000e+000	 1.009665611483592e+001
0	 6.200010000009551e+000	 7.066659999995867e+000	 1.009314030607860e+001
0	 6.200010000009551e+000	 7.133319999991936e+000	 1.008966542705380e+001
0	 6.200010000009552e+000	 7.199979999988400e+000	 1.008622881663431e+001
0	 6.200010000009550e+000	 7.266639999985466e+000	 1.008282781369289e+001
0	 6.200010000009550e+000	 7.333299999983334e+000	 1.007945975710234e+001
0	 6.266680000012268e+000	 6.666700000016667e+000	 1.011299234944835e+001
0	 6.266680000012267e+000	 6.733360000014534e+000	 1.010931978194194e+001
0	 6.266680000012267e+000	 6.800020000011600e+000	 1.010569862118262e+001
0	 6.266680000012268e+000	 6.866680000008067e+000	 1.010212620585962e+001
0	 6.266680000012267e+000	 6.933340000004133e+000	 1.009859987466215e+001
0	 6.266680000012264e+000	 6.999999999999997e+000	 1.009511696627940e+001
0	 6.266680000012265e+000	 7.066659999995864e+000	 1.009167481940062e+001
0	 6.266680000012267e+000	 7.133319999991935e+000	 1.008827077271499e+001
0	 6.266680000012266e+000	 7.199979999988402e+000	 1.008490216491172e+001
0	 6.266680000012268e+000	 7.266639999985467e+000	 1.008156633468003e+001
0	 6.266680000012266e+000	 7.333299999983333e+000	 1.007826062070914e+001
0	 6.333350000014583e+000	 6.666700000016667e+000	 1.011096165563639e+001
0	 6.333350000014583e+000	 6.733360000014533e+000	 1.010737923986780e+001
0	 6.333350000014582e+000	 6.800020000011598e+000	 1.010384532050101e+001
0	 6.333350000014583e+000	 6.866680000008065e+000	 1.010035724070543e+001
0	 6.333350000014582e+000	 6.933340000004131e+000	 1.009691234365044e+001
0	 6.333350000014583e+000	 7.000000000000000e+000	 1.009350797250542e+001
0	 6.333350000014582e+000	 7.066659999995867e+000	 1.009014147043977e+001
0	 6.333350000014583e+000	 7.133319999991935e+000	 1.008681018062287e+001
0	 6.333350000014583e+000	 7.199979999988400e+000	 1.008351144622412e+001
0	 6.333350000014583e+000	 7.266639999985467e+000	 1.008024261041290e+001
0	 6.333350000014582e+000	 7.333299999983334e+000	 1.007700101635860e+001
0	 6.400020000016401e+000	 6.666700000016666e+000	 1.010885829512799e+001
0	 6.400020000016401e+000	 6.733360000014534e+000	 1.010536790247050e+001
0	 6.400020000016399e+000	 6.800020000011600e+000	 1.010192305612090e+001
0	 6.400020000016398e+000	 6.866680000008065e+000	 1.009852110839254e+001
0	 6.400020000016401e+000	 6.933340000004134e+000	 1.009515941159873e+001
0	 6.400020000016398e+000	 6.999999999999998e+000	 1.009183531805283e+001
0	 6.400020000016400e+000	 7.066659999995867e+000	 1.008854618006812e+001
0	 6.400020000016399e+000	 7.133319999991935e+000	 1.008528934995797e+001
0	 6.400020000016401e+000	 7.199979999988401e+000	 1.008206218003566e+001
0	 6.400020000016401e+000	 7.266639999985468e+000	 1.007886202261455e+001
0	 6.400020000016400e+000	 7.333299999983335e+000	 1.007568623000798e+001
0	 6.466690000017615e+000	 6.666700000016666e+000	 1.010669040042466e+001
0	 6.466690000017616e+000	 6.733360000014533e+000	 1.010329342870850e+001
0	 6.466690000017616e+000	 6.800020000011600e+000	 1.009993905543299e+001
0	 6.466690000017616e+000	 6.866680000008067e+000	 1.009662464671913e+001
0	 6.466690000017615e+000	 6.933340000004134e+000	 1.009334756868795e+001
0	 6.466690000017616e+000	 7.000000000000001e+000	 1.009010518746048e+001
0	 6.466690000017614e+000	 7.066659999995867e+000	 1.008689486915773e+001
0	 6.466690000017618e+000	 7.133319999991935e+000	 1.008371397990075e+001
0	 6.466690000017618e+000	 7.199979999988401e+000	 1.008055988581052e+001
0	 6.466690000017615e+000	 7.266639999985467e+000	 1.007742995300807e+001
0	 6.466690000017615e+000	 7.333299999983335e+000	 1.007432154761444e+001
0	 6.533360000018131e+000	 6.666700000016665e+000	 1.010446610402788e+001
0	 6.533360000018131e+000	 6.733360000014533e+000	 1.010116347754033e+001
0	 6.533360000018133e+000	 6.800020000011599e+000	 1.009790054582802e+001
0	 6.533360000018133e+000	 6.866680000008068e+000	 1.009467469348343e+001
0	 6.533360000018132e+000	 6.933340000004133e+000	 1.009148330509903e+001
0	 6.533360000018133e+000	 7.000000000000001e+000	 1.008832376526728e+001
0	 6.533360000018132e+000	 7.066659999995867e+000	 1.008519345858069e+001
0	 6.533360000018132e+000	 7.133319999991934e+000	 1.008208976963171e+001
0	 6.533360000018132e+000	 7.199979999988400e+000	 1.007901008301282e+001
0	 6.533360000018131e+000	 7.266639999985466e+000	 1.007595178331648e+001
0	 6.533360000018132e+000	 7.333299999983335e+000	 1.007291225513519e+001
0	 6.600030000017847e+000	 6.666700000016665e+000	 1.010219353843912e+001
0	 6.600030000017850e+000	 6.733360000014533e+000	 1.009898570792444e+001
0	 6.600030000017847e+000	 6.800020000011597e+000	 1.009581475469673e+001
0	 6.600030000017847e+000	 6.866680000008067e+000	 1.009267808648364e+001
0	 6.600030000017847e+000	 6.933340000004133e+000	 1.008957311101288e+001
0	 6.600030000017847e+000	 6.999999999999998e+000	 1.008649723601211e+001
0	 6.600030000017849e+000	 7.066659999995868e+000	 1.008344786920905e+001
0	 6.600030000017849e+000	 7.133319999991934e+000	 1.008042241833136e+001
0	 6.600030000017849e+000	 7.199979999988401e+000	 1.007741829110675e+001
0	 6.600030000017849e+000	 7.266639999985467e+000	 1.007443289526287e+001
0	 6.600030000017847e+000	 7.333299999983334e+000	 1.007146363852742e+001
0	 6.666700000016666e+000	 6.666700000016667e+000	 1.009988083615987e+001
0	 6.666700000016667e+000	 6.733360000014533e+000	 1.009676777881934e+001
0	 6.666700000016665e+000	 6.800020000011598e+000	 1.009368890942982e+001
0	 6.666700000016666e+000	 6.866680000008067e+000	 1.009064166351795e+001
0	 6.666700000016667e+000	 6.933340000004133e+000	 1.008762347661041e+001
0	 6.666700000016665e+000	 6.999999999999999e+000	 1.008463178423383e+001
0	 6.666700000016667e+000	 7.066659999995868e+000	 1.008166402191487e+001
0	 6.666700000016665e+000	 7.133319999991936e+000	 1.007871762518020e+001
0	 6.666700000016666e+000	 7.199979999988400e+000	 1.007579002955646e+001
0	 6.666700000016666e+000	 7.266639999985467e+000	 1.007287867057028e+001
0	 6.666700000016665e+000	 7.333299999983333e+000	 1.006998098374833e+001
0	 6.000000000000000e+000	 7.333299999983332e+000	 1.008264149896610e+001
0	 6.000000000000001e+000	 7.399969999982152e+000	 1.007915165972208e+001
0	 6.000000000000002e+000	 7.466639999981867e+000	 1.007572946189442e+001
0	 6.000000000000001e+000	 7.533309999982384e+000	 1.007237240335448e+001
0	 6.000000000000000e+000	 7.599979999983600e+000	 1.006907798197359e+001
0	 6.000000000000000e+000	 7.666649999985416e+000	 1.006584369562313e+001
0	 6.000000000000000e+000	 7.733319999987733e+000	 1.006266704217445e+001
0	 5.999999999999998e+000	 7.799989999990449e+000	 1.005954551949890e+001
0	 5.999999999999998e+000	 7.866659999993466e+000	 1.005647662546786e+001
0	 6.000000000000000e+000	 7.933329999996684e+000	 1.005345785795267e+001
0	 6.000000000000000e+000	 8.000000000000000e+000	 1.005048671482469e+001
0	 6.066670000003317e+000	 7.333299999983333e+000	 1.008165548218802e+001
0	 6.066670000003317e+000	 7.399969999982152e+000	 1.007821981918007e+001
0	 6.066670000003316e+000	 7.466639999981865e+000	 1.007484971019599e+001
0	 6.066670000003319e+000	 7.533309999982385e+000	 1.007154264488667e+001
0	 6.066670000003319e+000	 7.599979999983599e+000	 1.006829611290298e+001
0	 6.066670000003317e+000	 7.666649999985416e+000	 1.006510760389580e+001
0	 6.066670000003318e+000	 7.733319999987733e+000	 1.006197460751603e+001
0	 6.066670000003319e+000	 7.799989999990449e+000	 1.005889461341456e+001
0	 6.066670000003318e+000	 7.866659999993468e+000	 1.005586511124226e+001
0	 6.066670000003319e+000	 7.933329999996684e+000	 1.005288359065004e+001
0	 6.066670000003318e+000	 8.000000000000002e+000	 1.004994754128878e+001
0	 6.133340000006531e+000	 7.333299999983332e+000	 1.008059313958103e+001
0	 6.133340000006534e+000	 7.399969999982149e+000	 1.007721368693716e+001
0	 6.133340000006534e+000	 7.466639999981867e+000	 1.007389780710845e+001
0	 6.133340000006530e+000	 7.533309999982381e+000	 1.007064298224664e+001
0	 6.133340000006533e+000	 7.599979999983598e+000	 1.006744669450345e+001
0	 6.133340000006534e+000	 7.666649999985415e+000	 1.006430642603065e+001
0	 6.133340000006534e+000	 7.733319999987733e+000	 1.006121965897997e+001
0	 6.133340000006533e+000	 7.799989999990449e+000	 1.005818387550317e+001
0	 6.133340000006534e+000	 7.866659999993468e+000	 1.005519655775199e+001
0	 6.133340000006535e+000	 7.933329999996683e+000	 1.005225518787817e+001
0	 6.133340000006534e+000	 7.999999999999999e+000	 1.004935724803345e+001
0	 6.200010000009550e+000	 7.333299999983334e+000	 1.007945975710234e+001
0	 6.200010000009547e+000	 7.399969999982147e+000	 1.007613846621581e+001
0	 6.200010000009551e+000	 7.466639999981868e+000	 1.007287885722894e+001
0	 6.200010000009551e+000	 7.533309999982385e+000	 1.006967840551567e+001
0	 6.200010000009549e+000	 7.599979999983599e+000	 1.006653458644991e+001
0	 6.200010000009550e+000	 7.666649999985415e+000	 1.006344487540559e+001
0	 6.200010000009549e+000	 7.733319999987732e+000	 1.006040674775666e+001
0	 6.200010000009550e+000	 7.799989999990451e+000	 1.005741767887703e+001
0	 6.200010000009550e+000	 7.866659999993466e+000	 1.005447514414064e+001
0	 6.200010000009550e+000	 7.933329999996684e+000	 1.005157661892143e+001
0	 6.200010000009550e+000	 8.000000000000000e+000	 1.004871957859334e+001
0	 6.266680000012266e+000	 7.333299999983333e+000	 1.007826062070913e+001
0	 6.266680000012268e+000	 7.399969999982152e+000	 1.007499936023847e+001
0	 6.266680000012267e+000	 7.466639999981866e+000	 1.007179796515464e+001
0	 6.266680000012265e+000	 7.533309999982382e+000	 1.006865390477507e+001
0	 6.266680000012268e+000	 7.599979999983600e+000	 1.006556464841722e+001
0	 6.266680000012267e+000	 7.666649999985416e+000	 1.006252766539854e+001
0	 6.266680000012268e+000	 7.733319999987733e+000	 1.005954042503643e+001
0	 6.266680000012266e+000	 7.799989999990449e+000	 1.005660039664839e+001
0	 6.266680000012265e+000	 7.866659999993466e+000	 1.005370504955185e+001
0	 6.266680000012268e+000	 7.933329999996685e+000	 1.005085185306423e+001
0	 6.266680000012268e+000	 8.000000000000000e+000	 1.004803827650300e+001
0	 6.333350000014582e+000	 7.333299999983334e+000	 1.007700101635860e+001
0	 6.333350000014582e+000	 7.399969999982148e+000	 1.007380157222761e+001
0	 6.333350000014582e+000	 7.466639999981865e+000	 1.007066023548269e+001
0	 6.333350000014583e+000	 7.533309999982384e+000	 1.006757447010615e+001
0	 6.333350000014582e+000	 7.599979999983599e+000	 1.006454174008028e+001
0	 6.333350000014583e+000	 7.666649999985416e+000	 1.006155950938737e+001
0	 6.333350000014583e+000	 7.733319999987733e+000	 1.005862524200967e+001
0	 6.333350000014584e+000	 7.799989999990449e+000	 1.005573640192952e+001
0	 6.333350000014584e+000	 7.866659999993467e+000	 1.005289045312918e+001
0	 6.333350000014583e+000	 7.933329999996684e+000	 1.005008485959094e+001
0	 6.333350000014584e+000	 8.000000000000000e+000	 1.004731708529710e+001
0	 6.400020000016400e+000	 7.333299999983335e+000	 1.007568623000798e+001
0	 6.400020000016399e+000	 7.399969999982150e+000	 1.007255030540568e+001
0	 6.400020000016399e+000	 7.466639999981867e+000	 1.006947077281026e+001
0	 6.400020000016400e+000	 7.533309999982382e+000	 1.006644509159020e+001
0	 6.400020000016401e+000	 7.599979999983601e+000	 1.006347072111398e+001
0	 6.400020000016400e+000	 7.666649999985417e+000	 1.006054512075000e+001
0	 6.400020000016399e+000	 7.733319999987734e+000	 1.005766574986675e+001
0	 6.400020000016400e+000	 7.799989999990449e+000	 1.005483006783269e+001
0	 6.400020000016398e+000	 7.866659999993465e+000	 1.005203553401628e+001
0	 6.400020000016398e+000	 7.933329999996682e+000	 1.004927960778595e+001
0	 6.400020000016399e+000	 8.000000000000000e+000	 1.004655974851021e+001
0	 6.466690000017615e+000	 7.333299999983335e+000	 1.007432154761444e+001
0	 6.466690000017614e+000	 7.399969999982149e+000	 1.007125076299515e+001
0	 6.466690000017614e+000	 7.466639999981864e+000	 1.006823468173453e+001
0	 6.466690000017617e+000	 7.533309999982384e+000	 1.006527075930855e+001
0	 6.466690000017613e+000	 7.599979999983598e+000	 1.006235645119316e+001
0	 6.466690000017616e+000	 7.666649999985416e+000	 1.005948921286435e+001
0	 6.466690000017616e+000	 7.733319999987733e+000	 1.005666649979802e+001
0	 6.466690000017615e+000	 7.799989999990448e+000	 1.005388576747016e+001
0	 6.466690000017616e+000	 7.866659999993468e+000	 1.005114447135673e+001
0	 6.466690000017618e+000	 7.933329999996683e+000	 1.004844006693367e+001
0	 6.466690000017616e+000	 8.000000000000000e+000	 1.004577000967697e+001
0	 6.533360000018132e+000	 7.333299999983335e+000	 1.007291225513519e+001
0	 6.533360000018130e+000	 7.399969999982148e+000	 1.006990814821846e+001
0	 6.533360000018130e+000	 7.466639999981864e+000	 1.006695706685263e+001
0	 6.533360000018131e+000	 7.533309999982383e+000	 1.006405646334247e+001
0	 6.533360000018132e+000	 7.599979999983599e+000	 1.006120378999278e+001
0	 6.533360000018132e+000	 7.666649999985417e+000	 1.005839649910830e+001
0	 6.533360000018132e+000	 7.733319999987733e+000	 1.005563204299385e+001
0	 6.533360000018131e+000	 7.799989999990448e+000	 1.005290787395421e+001
0	 6.533360000018131e+000	 7.866659999993466e+000	 1.005022144429416e+001
0	 6.533360000018132e+000	 7.933329999996684e+000	 1.004757020631848e+001
0	 6.533360000018131e+000	 7.999999999999999e+000	 1.004495161233197e+001
0	 6.600030000017847e+000	 7.333299999983334e+000	 1.007146363852741e+001
0	 6.600030000017848e+000	 7.399969999982151e+000	 1.006852766429812e+001
0	 6.600030000017848e+000	 7.466639999981866e+000	 1.006564303276175e+001
0	 6.600030000017849e+000	 7.533309999982385e+000	 1.006280719377329e+001
0	 6.600030000017847e+000	 7.599979999983599e+000	 1.006001759718765e+001
0	 6.600030000017847e+000	 7.666649999985415e+000	 1.005727169285978e+001
0	 6.600030000017848e+000	 7.733319999987733e+000	 1.005456693064461e+001
0	 6.600030000017847e+000	 7.799989999990449e+000	 1.005190076039709e+001
0	 6.600030000017847e+000	 7.866659999993465e+000	 1.004927063197216e+001
0	 6.600030000017846e+000	 7.933329999996682e+000	 1.004667399522477e+001
0	 6.600030000017848e+000	 8.000000000000000e+000	 1.004410830000983e+001
0	 6.666700000016665e+000	 7.333299999983333e+000	 1.006998098374833e+001
0	 6.666700000016665e+000	 7.399969999982150e+000	 1.006711451445654e+001
0	 6.666700000016668e+000	 7.466639999981867e+000	 1.006429768405905e+001
0	 6.666700000016667e+000	 7.533309999982384e+000	 1.006152794068228e+001
0	 6.666700000016665e+000	 7.599979999983599e+000	 1.005880273245269e+001
0	 6.666700000016666e+000	 7.666649999985416e+000	 1.005611950749668e+001
0	 6.666700000016665e+000	 7.733319999987731e+000	 1.005347571394067e+001
0	 6.666700000016665e+000	 7.799989999990450e+000	 1.005086879991109e+001
0	 6.666700000016665e+000	 7.866659999993465e+000	 1.004829621353436e+001
0	 6.666700000016666e+000	 7.933329999996684e+000	 1.004575540293692e+001
0	 6.666700000016668e+000	 8.000000000000000e+000	 1.004324381624517e+001
0	 6.000000000000000e+000	 8.000000000000000e+000	 1.005048671482469e+001
0	 5.999999999999999e+000	 8.066670000003319e+000	 1.004758009200480e+001
0	 6.000000000000001e+000	 8.133340000006534e+000	 1.004475447118590e+001
0	 5.999999999999998e+000	 8.200010000009549e+000	 1.004200672889745e+001
0	 6.000000000000000e+000	 8.266680000012267e+000	 1.003933374166894e+001
0	 6.000000000000001e+000	 8.333350000014583e+000	 1.003673238602980e+001
0	 6.000000000000000e+000	 8.400020000016401e+000	 1.003419953850952e+001
0	 6.000000000000000e+000	 8.466690000017616e+000	 1.003173207563753e+001
0	 6.000000000000000e+000	 8.533360000018133e+000	 1.002932687394333e+001
0	 5.999999999999998e+000	 8.600030000017849e+000	 1.002698080995638e+001
0	 6.000000000000000e+000	 8.666700000016666e+000	 1.002469076020612e+001
0	 6.066670000003318e+000	 8.000000000000002e+000	 1.004994754128878e+001
0	 6.066670000003318e+000	 8.066670000003317e+000	 1.004707443077317e+001
0	 6.066670000003315e+000	 8.133340000006532e+000	 1.004428130187182e+001
0	 6.066670000003318e+000	 8.200010000009552e+000	 1.004156500696653e+001
0	 6.066670000003316e+000	 8.266680000012267e+000	 1.003892239843918e+001
0	 6.066670000003314e+000	 8.333350000014582e+000	 1.003635032867152e+001
0	 6.066670000003317e+000	 8.400020000016399e+000	 1.003384565004538e+001
0	 6.066670000003319e+000	 8.466690000017620e+000	 1.003140521494259e+001
0	 6.066670000003316e+000	 8.533360000018133e+000	 1.002902587574496e+001
0	 6.066670000003317e+000	 8.600030000017849e+000	 1.002670448483432e+001
0	 6.066670000003318e+000	 8.666700000016668e+000	 1.002443789459247e+001
0	 6.133340000006534e+000	 7.999999999999999e+000	 1.004935724803345e+001
0	 6.133340000006533e+000	 8.066670000003315e+000	 1.004652065692302e+001
0	 6.133340000006532e+000	 8.133340000006534e+000	 1.004376290221314e+001
0	 6.133340000006533e+000	 8.200010000009549e+000	 1.004108081949724e+001
0	 6.133340000006532e+000	 8.266680000012268e+000	 1.003847124436871e+001
0	 6.133340000006535e+000	 8.333350000014583e+000	 1.003593101242099e+001
0	 6.133340000006534e+000	 8.400020000016401e+000	 1.003345695924748e+001
0	 6.133340000006533e+000	 8.466690000017618e+000	 1.003104592044164e+001
0	 6.133340000006533e+000	 8.533360000018135e+000	 1.002869473159687e+001
0	 6.133340000006536e+000	 8.600030000017849e+000	 1.002640022830658e+001
0	 6.133340000006533e+000	 8.666700000016665e+000	 1.002415924616420e+001
0	 6.200010000009550e+000	 8.000000000000000e+000	 1.004871957859334e+001
0	 6.200010000009549e+000	 8.066670000003319e+000	 1.004592228620433e+001
0	 6.200010000009550e+000	 8.133340000006536e+000	 1.004320257199600e+001
0	 6.200010000009550e+000	 8.200010000009550e+000	 1.004055726213261e+001
0	 6.200010000009550e+000	 8.266680000012267e+000	 1.003798318277842e+001
0	 6.200010000009550e+000	 8.333350000014583e+000	 1.003547716009772e+001
0	 6.200010000009549e+000	 8.400020000016403e+000	 1.003303602025479e+001
0	 6.200010000009550e+000	 8.466690000017618e+000	 1.003065658941388e+001
0	 6.200010000009550e+000	 8.533360000018137e+000	 1.002833569373929e+001
0	 6.200010000009551e+000	 8.600030000017851e+000	 1.002607015939530e+001
0	 6.200010000009551e+000	 8.666700000016666e+000	 1.002385681254617e+001
0	 6.266680000012268e+000	 8.000000000000000e+000	 1.004803827650300e+001
0	 6.266680000012268e+000	 8.066670000003315e+000	 1.004528283436704e+001
0	 6.266680000012265e+000	 8.133340000006532e+000	 1.004260361100650e+001
0	 6.266680000012265e+000	 8.200010000009550e+000	 1.003999743051578e+001
0	 6.266680000012267e+000	 8.266680000012268e+000	 1.003746111698924e+001
0	 6.266680000012267e+000	 8.333350000014582e+000	 1.003499149452126e+001
0	 6.266680000012267e+000	 8.400020000016401e+000	 1.003258538720622e+001
0	 6.266680000012266e+000	 8.466690000017616e+000	 1.003023961913852e+001
0	 6.266680000012268e+000	 8.533360000018135e+000	 1.002795101441251e+001
0	 6.266680000012266e+000	 8.600030000017849e+000	 1.002571639712263e+001
0	 6.266680000012265e+000	 8.666700000016666e+000	 1.002353259136322e+001
0	 6.333350000014584e+000	 8.000000000000000e+000	 1.004731708529710e+001
0	 6.333350000014583e+000	 8.066670000003317e+000	 1.004460581716111e+001
0	 6.333350000014583e+000	 8.133340000006534e+000	 1.004196931903081e+001
0	 6.333350000014583e+000	 8.200010000009552e+000	 1.003940442028987e+001
0	 6.333350000014582e+000	 8.266680000012268e+000	 1.003690795032206e+001
0	 6.333350000014583e+000	 8.333350000014583e+000	 1.003447673851110e+001
0	 6.333350000014582e+000	 8.400020000016401e+000	 1.003210761424074e+001
0	 6.333350000014583e+000	 8.466690000017620e+000	 1.002979740689473e+001
0	 6.333350000014582e+000	 8.533360000018133e+000	 1.002754294585680e+001
0	 6.333350000014584e+000	 8.600030000017851e+000	 1.002534106051070e+001
0	 6.333350000014583e+000	 8.666700000016668e+000	 1.002318858024018e+001
0	 6.400020000016399e+000	 8.000000000000000e+000	 1.004655974851021e+001
0	 6.400020000016400e+000	 8.066670000003319e+000	 1.004389475033653e+001
0	 6.400020000016399e+000	 8.133340000006534e+000	 1.004130299585501e+001
0	 6.400020000016399e+000	 8.200010000009550e+000	 1.003878132709797e+001
0	 6.400020000016399e+000	 8.266680000012267e+000	 1.003632658609778e+001
0	 6.400020000016397e+000	 8.333350000014582e+000	 1.003393561488680e+001
0	 6.400020000016399e+000	 8.400020000016399e+000	 1.003160525549732e+001
0	 6.400020000016399e+000	 8.466690000017618e+000	 1.002933234996176e+001
0	 6.400020000016397e+000	 8.533360000018133e+000	 1.002711374031243e+001
0	 6.400020000016400e+000	 8.600030000017851e+000	 1.002494626858169e+001
0	 6.400020000016399e+000	 8.666700000016666e+000	 1.002282677680189e+001
0	 6.466690000017616e+000	 8.000000000000000e+000	 1.004577000967697e+001
0	 6.466690000017618e+000	 8.066670000003319e+000	 1.004315314964324e+001
0	 6.466690000017615e+000	 8.133340000006532e+000	 1.004060794126523e+001
0	 6.466690000017614e+000	 8.200010000009552e+000	 1.003813124658321e+001
0	 6.466690000017617e+000	 8.266680000012268e+000	 1.003571992763733e+001
0	 6.466690000017615e+000	 8.333350000014587e+000	 1.003337084646782e+001
0	 6.466690000017616e+000	 8.400020000016401e+000	 1.003108086511490e+001
0	 6.466690000017616e+000	 8.466690000017618e+000	 1.002884684561877e+001
0	 6.466690000017614e+000	 8.533360000018133e+000	 1.002666565001963e+001
0	 6.466690000017617e+000	 8.600030000017853e+000	 1.002453414035770e+001
0	 6.466690000017617e+000	 8.666700000016666e+000	 1.002244917867319e+001
0	 6.533360000018131e+000	 7.999999999999999e+000	 1.004495161233197e+001
0	 6.533360000018131e+000	 8.066670000003317e+000	 1.004238453083116e+001
0	 6.533360000018131e+000	 8.133340000006534e+000	 1.003988745504762e+001
0	 6.533360000018131e+000	 8.200010000009549e+000	 1.003745727438866e+001
0	 6.533360000018132e+000	 8.266680000012265e+000	 1.003509087826161e+001
0	 6.533360000018132e+000	 8.333350000014585e+000	 1.003278515607375e+001
0	 6.533360000018132e+000	 8.400020000016399e+000	 1.003053699723245e+001
0	 6.533360000018133e+000	 8.466690000017616e+000	 1.002834329114498e+001
0	 6.533360000018130e+000	 8.533360000018133e+000	 1.002620092721869e+001
0	 6.533360000018130e+000	 8.600030000017849e+000	 1.002410679486091e+001
0	 6.533360000018133e+000	 8.666700000016665e+000	 1.002205778347895e+001
0	 6.600030000017848e+000	 8.000000000000000e+000	 1.004410830000983e+001
0	 6.600030000017848e+000	 8.066670000003317e+000	 1.004159240965032e+001
0	 6.600030000017850e+000	 8.133340000006534e+000	 1.003914483698830e+001
0	 6.600030000017847e+000	 8.200010000009550e+000	 1.003676250615747e+001
0	 6.600030000017848e+000	 8.266680000012267e+000	 1.003444234129151e+001
0	 6.600030000017848e+000	 8.333350000014583e+000	 1.003218126652408e+001
0	 6.600030000017848e+000	 8.400020000016399e+000	 1.002997620598887e+001
0	 6.600030000017849e+000	 8.466690000017620e+000	 1.002782408381958e+001
0	 6.600030000017848e+000	 8.533360000018135e+000	 1.002572182414988e+001
0	 6.600030000017847e+000	 8.600030000017849e+000	 1.002366635111346e+001
0	 6.600030000017849e+000	 8.666700000016666e+000	 1.002165458884400e+001
0	 6.666700000016668e+000	 8.000000000000000e+000	 1.004324381624517e+001
0	 6.666700000016666e+000	 8.066670000003317e+000	 1.004078030185063e+001
0	 6.666700000016665e+000	 8.133340000006532e+000	 1.003838338687339e+001
0	 6.666700000016666e+000	 8.200010000009550e+000	 1.003605003753273e+001
0	 6.666700000016665e+000	 8.266680000012267e+000	 1.003377722004795e+001
0	 6.666700000016666e+000	 8.333350000014583e+000	 1.003156190063833e+001
0	 6.666700000016667e+000	 8.400020000016401e+000	 1.002940104552319e+001
0	 6.666700000016667e+000	 8.466690000017618e+000	 1.002729162092180e+001
0	 6.666700000016665e+000	 8.533360000018133e+000	 1.002523059305345e+001
0	 6.666700000016666e+000	 8.600030000017851e+000	 1.002321492813749e+001
0	 6.666700000016666e+000	 8.666700000016666e+000	 1.002124159239317e+001
0	 6.000000000000000e+000	 8.666700000016666e+000	 1.002469076020612e+001
0	 6.000000000000000e+000	 8.733360002791903e+000	 1.002248312943224e+001
0	 6.000000000000000e+000	 8.800020022230555e+000	 1.002038273880738e+001
0	 6.000000000000000e+000	 8.866680074997040e+000	 1.001838510762398e+001
0	 6.000000000000000e+000	 8.933340177755781e+000	 1.001648575487694e+001
0	 6.000000000000000e+000	 9.000000347171181e+000	 1.001468019926345e+001
0	 6.000000000000001e+000	 9.066660599907667e+000	 1.001296395918306e+001
0	 5.999999999999998e+000	 9.133320952629655e+000	 1.001133255273770e+001
0	 6.000000000000000e+000	 9.199981422001558e+000	 1.000978149773163e+001
0	 5.999999999999998e+000	 9.266642024687796e+000	 1.000830631167147e+001
0	 6.000000000000000e+000	 9.333302777352783e+000	 1.000690251176620e+001
0	 6.066670000003318e+000	 8.666700000016668e+000	 1.002443789459247e+001
0	 6.066670000003316e+000	 8.733360002791903e+000	 1.002225257393843e+001
0	 6.066670000003314e+000	 8.800020022230555e+000	 1.002017346181219e+001
0	 6.066670000003318e+000	 8.866680074997040e+000	 1.001819612346311e+001
0	 6.066670000003318e+000	 8.933340177755778e+000	 1.001631612384535e+001
0	 6.066670000003319e+000	 9.000000347171183e+000	 1.001452902761810e+001
0	 6.066670000003319e+000	 9.066660599907669e+000	 1.001283039914543e+001
0	 6.066670000003317e+000	 9.133320952629656e+000	 1.001121580249638e+001
0	 6.066670000003318e+000	 9.199981422001562e+000	 1.000968080144484e+001
0	 6.066670000003316e+000	 9.266642024687796e+000	 1.000822095946969e+001
0	 6.066670000003316e+000	 9.333302777352783e+000	 1.000683183975475e+001
0	 6.133340000006533e+000	 8.666700000016665e+000	 1.002415924616420e+001
0	 6.133340000006531e+000	 8.733360002791903e+000	 1.002199830309764e+001
0	 6.133340000006533e+000	 8.800020022230553e+000	 1.001994243766147e+001
0	 6.133340000006534e+000	 8.866680074997040e+000	 1.001798726299464e+001
0	 6.133340000006534e+000	 8.933340177755776e+000	 1.001612839194386e+001
0	 6.133340000006535e+000	 9.000000347171183e+000	 1.001436143706360e+001
0	 6.133340000006532e+000	 9.066660599907666e+000	 1.001268201061615e+001
0	 6.133340000006534e+000	 9.133320952629656e+000	 1.001108572457154e+001
0	 6.133340000006534e+000	 9.199981422001560e+000	 1.000956819060754e+001
0	 6.133340000006532e+000	 9.266642024687798e+000	 1.000812502010978e+001
0	 6.133340000006533e+000	 9.333302777352783e+000	 1.000675182417154e+001
0	 6.200010000009551e+000	 8.666700000016666e+000	 1.002385681254617e+001
0	 6.200010000009551e+000	 8.733360002791905e+000	 1.002172220242188e+001
0	 6.200010000009549e+000	 8.800020022230555e+000	 1.001969144646787e+001
0	 6.200010000009550e+000	 8.866680074997042e+000	 1.001776020764562e+001
0	 6.200010000009550e+000	 8.933340177755779e+000	 1.001592414862749e+001
0	 6.200010000009550e+000	 9.000000347171179e+000	 1.001417893179674e+001
0	 6.200010000009551e+000	 9.066660599907669e+000	 1.001252021924749e+001
0	 6.200010000009549e+000	 9.133320952629655e+000	 1.001094367278476e+001
0	 6.200010000009550e+000	 9.199981422001558e+000	 1.000944495392442e+001
0	 6.200010000009550e+000	 9.266642024687799e+000	 1.000801972389329e+001
0	 6.200010000009550e+000	 9.333302777352781e+000	 1.000666364362899e+001
0	 6.266680000012265e+000	 8.666700000016666e+000	 1.002353259136322e+001
0	 6.266680000012266e+000	 8.733360002791901e+000	 1.002142615742319e+001
0	 6.266680000012265e+000	 8.800020022230552e+000	 1.001942226834415e+001
0	 6.266680000012267e+000	 8.866680074997042e+000	 1.001751663884312e+001
0	 6.266680000012268e+000	 8.933340177755781e+000	 1.001570498335134e+001
0	 6.266680000012267e+000	 9.000000347171183e+000	 1.001398301601429e+001
0	 6.266680000012264e+000	 9.066660599907666e+000	 1.001234645069169e+001
0	 6.266680000012266e+000	 9.133320952629656e+000	 1.001079100095756e+001
0	 6.266680000012265e+000	 9.199981422001558e+000	 1.000931238010011e+001
0	 6.266680000012268e+000	 9.266642024687798e+000	 1.000790630112185e+001
0	 6.266680000012267e+000	 9.333302777352783e+000	 1.000656847673942e+001
0	 6.333350000014583e+000	 8.666700000016668e+000	 1.002318858024018e+001
0	 6.333350000014584e+000	 8.733360002791903e+000	 1.002111205361357e+001
0	 6.333350000014582e+000	 8.800020022230555e+000	 1.001913668340305e+001
0	 6.333350000014583e+000	 8.866680074997040e+000	 1.001725823801420e+001
0	 6.333350000014582e+000	 8.933340177755781e+000	 1.001547248557042e+001
0	 6.333350000014583e+000	 9.000000347171183e+000	 1.001377519391299e+001
0	 6.333350000014582e+000	 9.066660599907669e+000	 1.001216213060102e+001
0	 6.333350000014582e+000	 9.133320952629653e+000	 1.001062906291151e+001
0	 6.333350000014582e+000	 9.199981422001558e+000	 1.000917175783927e+001
0	 6.333350000014584e+000	 9.266642024687798e+000	 1.000778598209700e+001
0	 6.333350000014585e+000	 9.333302777352783e+000	 1.000646750211519e+001
0	 6.400020000016399e+000	 8.666700000016666e+000	 1.002282677680189e+001
0	 6.400020000016399e+000	 8.733360002791903e+000	 1.002078177650503e+001
0	 6.400020000016400e+000	 8.800020022230557e+000	 1.001883647175728e+001
0	 6.400020000016401e+000	 8.866680074997042e+000	 1.001698668658589e+001
0	 6.400020000016399e+000	 8.933340177755779e+000	 1.001522824473979e+001
0	 6.400020000016397e+000	 9.000000347171179e+000	 1.001355696968964e+001
0	 6.400020000016400e+000	 9.066660599907669e+000	 1.001196868462774e+001
0	 6.400020000016400e+000	 9.133320952629656e+000	 1.001045921246816e+001
0	 6.400020000016399e+000	 9.199981422001558e+000	 1.000902437584655e+001
0	 6.400020000016398e+000	 9.266642024687796e+000	 1.000765999712037e+001
0	 6.400020000016399e+000	 9.333302777352783e+000	 1.000636189836866e+001
0	 6.466690000017617e+000	 8.666700000016666e+000	 1.002244917867319e+001
0	 6.466690000017616e+000	 8.733360002791899e+000	 1.002043721160958e+001
0	 6.466690000017617e+000	 8.800020022230559e+000	 1.001852341351957e+001
0	 6.466690000017616e+000	 8.866680074997042e+000	 1.001670366598524e+001
0	 6.466690000017613e+000	 8.933340177755776e+000	 1.001497385031451e+001
0	 6.466690000017617e+000	 9.000000347171181e+000	 1.001332984754100e+001
0	 6.466690000017615e+000	 9.066660599907673e+000	 1.001176753842413e+001
0	 6.466690000017614e+000	 9.133320952629656e+000	 1.001028280344903e+001
0	 6.466690000017616e+000	 9.199981422001557e+000	 1.000887152282661e+001
0	 6.466690000017616e+000	 9.266642024687796e+000	 1.000752957649353e+001
0	 6.466690000017616e+000	 9.333302777352783e+000	 1.000625284411219e+001
0	 6.533360000018133e+000	 8.666700000016665e+000	 1.002205778347895e+001
0	 6.533360000018132e+000	 8.733360002791901e+000	 1.002008024443926e+001
0	 6.533360000018132e+000	 8.800020022230555e+000	 1.001819928880262e+001
0	 6.533360000018132e+000	 8.866680074997044e+000	 1.001641085763931e+001
0	 6.533360000018130e+000	 8.933340177755779e+000	 1.001471089174960e+001
0	 6.533360000018133e+000	 9.000000347171184e+000	 1.001309533166385e+001
0	 6.533360000018130e+000	 9.066660599907664e+000	 1.001156011764243e+001
0	 6.533360000018132e+000	 9.133320952629655e+000	 1.001010118967569e+001
0	 6.533360000018130e+000	 9.199981422001557e+000	 1.000871448748409e+001
0	 6.533360000018131e+000	 9.266642024687796e+000	 1.000739595051809e+001
0	 6.533360000018131e+000	 9.333302777352781e+000	 1.000614151795814e+001
0	 6.600030000017849e+000	 8.666700000016666e+000	 1.002165458884399e+001
0	 6.600030000017848e+000	 8.733360002791901e+000	 1.001971276050607e+001
0	 6.600030000017847e+000	 8.800020022230555e+000	 1.001786587771920e+001
0	 6.600030000017849e+000	 8.866680074997040e+000	 1.001610994297516e+001
0	 6.600030000017848e+000	 8.933340177755778e+000	 1.001444095850017e+001
0	 6.600030000017850e+000	 9.000000347171184e+000	 1.001285492625497e+001
0	 6.600030000017849e+000	 9.066660599907669e+000	 1.001134784793491e+001
0	 6.600030000017847e+000	 9.133320952629655e+000	 1.000991572496970e+001
0	 6.600030000017847e+000	 9.199981422001558e+000	 1.000855455852367e+001
0	 6.600030000017847e+000	 9.266642024687796e+000	 1.000726034949561e+001
0	 6.600030000017848e+000	 9.333302777352783e+000	 1.000602909851884e+001
0	 6.666700000016666e+000	 8.666700000016666e+000	 1.002124159239317e+001
0	 6.666700000016665e+000	 8.733360002791899e+000	 1.001933664532201e+001
0	 6.666700000016665e+000	 8.800020022230555e+000	 1.001752496038202e+001
0	 6.666700000016666e+000	 8.866680074997040e+000	 1.001580260341981e+001
0	 6.666700000016667e+000	 8.933340177755779e+000	 1.001416564002119e+001
0	 6.666700000016666e+000	 9.000000347171179e+000	 1.001261013551114e+001
0	 6.666700000016667e+000	 9.066660599907669e+000	 1.001113215495381e+001
0	 6.666700000016666e+000	 9.133320952629658e+000	 1.000972776315259e+001
0	 6.666700000016665e+000	 9.199981422001558e+000	 1.000839302464999e+001
0	 6.666700000016667e+000	 9.266642024687796e+000	 1.000712400372771e+001
0	 6.666700000016665e+000	 9.333302777352781e+000	 1.000591676440669e+001
0	 6.000000000000000e+000	 9.333302777352783e+000	 1.000690251176620e+001
0	 6.000000000000002e+000	 9.399973674588175e+000	 1.000560916157225e+001
0	 5.999999999999998e+000	 9.466644621844619e+000	 1.000446436144834e+001
0	 6.000000000000001e+000	 9.533315502450000e+000	 1.000346156945870e+001
0	 6.000000000000001e+000	 9.599986199732197e+000	 1.000259424667743e+001
0	 6.000000000000001e+000	 9.666656597019093e+000	 1.000185585718825e+001
0	 6.000000000000002e+000	 9.733326577638577e+000	 1.000123986808464e+001
0	 6.000000000000000e+000	 9.799996024918523e+000	 1.000073974946988e+001
0	 6.000000000000000e+000	 9.866664822186824e+000	 1.000034897445726e+001
0	 6.000000000000000e+000	 9.933332852771352e+000	 1.000006101917023e+001
0	 6.000000000000000e+000	 1.000000000000000e+001	 9.999869362743036e+000
0	 6.066670000003316e+000	 9.333302777352783e+000	 1.000683183975475e+001
0	 6.066670000003318e+000	 9.399973674588177e+000	 1.000555201596465e+001
0	 6.066670000003318e+000	 9.466644621844623e+000	 1.000441914966624e+001
0	 6.066670000003317e+000	 9.533315502450000e+000	 1.000342682799239e+001
0	 6.066670000003315e+000	 9.599986199732195e+000	 1.000256864105617e+001
0	 6.066670000003318e+000	 9.666656597019097e+000	 1.000183818195077e+001
0	 6.066670000003316e+000	 9.733326577638573e+000	 1.000122904674942e+001
0	 6.066670000003315e+000	 9.799996024918524e+000	 1.000073483450577e+001
0	 6.066670000003316e+000	 9.866664822186820e+000	 1.000034914725363e+001
0	 6.066670000003318e+000	 9.933332852771354e+000	 1.000006559000769e+001
0	 6.066670000003317e+000	 1.000000000000000e+001	 9.999877770763645e+000
0	 6.133340000006533e+000	 9.333302777352783e+000	 1.000675182417154e+001
0	 6.133340000006534e+000	 9.399973674588177e+000	 1.000548665704497e+001
0	 6.133340000006533e+000	 9.466644621844623e+000	 1.000436671187879e+001
0	 6.133340000006535e+000	 9.533315502450003e+000	 1.000338570719077e+001
0	 6.133340000006533e+000	 9.599986199732195e+000	 1.000253736444657e+001
0	 6.133340000006532e+000	 9.666656597019093e+000	 1.000181540805985e+001
0	 6.133340000006534e+000	 9.733326577638575e+000	 1.000121356539223e+001
0	 6.133340000006531e+000	 9.799996024918521e+000	 1.000072556675332e+001
0	 6.133340000006532e+000	 9.866664822186820e+000	 1.000034514540112e+001
0	 6.133340000006532e+000	 9.933332852771351e+000	 1.000006603754201e+001
0	 6.133340000006534e+000	 1.000000000000000e+001	 9.999881982331278e+000
0	 6.200010000009550e+000	 9.333302777352781e+000	 1.000666364362899e+001
0	 6.200010000009551e+000	 9.399973674588177e+000	 1.000541421995928e+001
0	 6.200010000009549e+000	 9.466644621844621e+000	 1.000430814951222e+001
0	 6.200010000009549e+000	 9.533315502450000e+000	 1.000333928450643e+001
0	 6.200010000009550e+000	 9.599986199732197e+000	 1.000250148007378e+001
0	 6.200010000009551e+000	 9.666656597019095e+000	 1.000178859425946e+001
0	 6.200010000009550e+000	 9.733326577638575e+000	 1.000119448802200e+001
0	 6.200010000009550e+000	 9.799996024918523e+000	 1.000071302523331e+001
0	 6.200010000009550e+000	 9.866664822186822e+000	 1.000033807267895e+001
0	 6.200010000009550e+000	 9.933332852771352e+000	 1.000006350005824e+001
0	 6.200010000009550e+000	 1.000000000000000e+001	 9.999883179984863e+000
0	 6.266680000012267e+000	 9.333302777352783e+000	 1.000656847673942e+001
0	 6.266680000012266e+000	 9.399973674588173e+000	 1.000533583985366e+001
0	 6.266680000012268e+000	 9.466644621844623e+000	 1.000424456399276e+001
0	 6.266680000012266e+000	 9.533315502450000e+000	 1.000328863739199e+001
0	 6.266680000012265e+000	 9.599986199732197e+000	 1.000246205116297e+001
0	 6.266680000012267e+000	 9.666656597019092e+000	 1.000175879929352e+001
0	 6.266680000012268e+000	 9.733326577638573e+000	 1.000117287864783e+001
0	 6.266680000012267e+000	 9.799996024918524e+000	 1.000069828896638e+001
0	 6.266680000012265e+000	 9.866664822186824e+000	 1.000032903286634e+001
0	 6.266680000012268e+000	 9.933332852771356e+000	 1.000005911584170e+001
0	 6.266680000012268e+000	 1.000000000000000e+001	 9.999882546263573e+000
0	 6.333350000014585e+000	 9.333302777352783e+000	 1.000646750211519e+001
0	 6.333350000014582e+000	 9.399973674588177e+000	 1.000525265187421e+001
0	 6.333350000014581e+000	 9.466644621844619e+000	 1.000417705674660e+001
0	 6.333350000014582e+000	 9.533315502449998e+000	 1.000323484330005e+001
0	 6.333350000014584e+000	 9.599986199732195e+000	 1.000242014093927e+001
0	 6.333350000014583e+000	 9.666656597019095e+000	 1.000172708190595e+001
0	 6.333350000014583e+000	 9.733326577638575e+000	 1.000114980127868e+001
0	 6.333350000014583e+000	 9.799996024918524e+000	 1.000068243697325e+001
0	 6.333350000014582e+000	 9.866664822186822e+000	 1.000031912974270e+001
0	 6.333350000014581e+000	 9.933332852771352e+000	 1.000005402317755e+001
0	 6.333350000014583e+000	 1.000000000000000e+001	 9.999881263706406e+000
0	 6.400020000016399e+000	 9.333302777352783e+000	 1.000636189836867e+001
0	 6.400020000016398e+000	 9.399973674588177e+000	 1.000516579116698e+001
0	 6.400020000016398e+000	 9.466644621844623e+000	 1.000410672919993e+001
0	 6.400020000016399e+000	 9.533315502449998e+000	 1.000317897968318e+001
0	 6.400020000016401e+000	 9.599986199732197e+000	 1.000237681262788e+001
0	 6.400020000016398e+000	 9.666656597019092e+000	 1.000169450084060e+001
0	 6.400020000016398e+000	 9.733326577638573e+000	 1.000112631992357e+001
0	 6.400020000016400e+000	 9.799996024918523e+000	 1.000066654827459e+001
0	 6.400020000016398e+000	 9.866664822186820e+000	 1.000030946708719e+001
0	 6.400020000016398e+000	 9.933332852771351e+000	 1.000004936035109e+001
0	 6.400020000016400e+000	 1.000000000000000e+001	 9.999880514852462e+000
0	 6.466690000017616e+000	 9.333302777352783e+000	 1.000625284411219e+001
0	 6.466690000017616e+000	 9.399973674588178e+000	 1.000507639287807e+001
0	 6.466690000017616e+000	 9.466644621844623e+000	 1.000403468277904e+001
0	 6.466690000017616e+000	 9.533315502450002e+000	 1.000312212399402e+001
0	 6.466690000017615e+000	 9.599986199732195e+000	 1.000233312945388e+001
0	 6.466690000017615e+000	 9.666656597019095e+000	 1.000166211484147e+001
0	 6.466690000017617e+000	 9.733326577638577e+000	 1.000110349859158e+001
0	 6.466690000017616e+000	 9.799996024918526e+000	 1.000065170189106e+001
0	 6.466690000017615e+000	 9.866664822186818e+000	 1.000030114867913e+001
0	 6.466690000017617e+000	 9.933332852771354e+000	 1.000004626564751e+001
0	 6.466690000017615e+000	 1.000000000000000e+001	 9.999881482240710e+000
0	 6.533360000018131e+000	 9.333302777352781e+000	 1.000614151795814e+001
0	 6.533360000018132e+000	 9.399973674588177e+000	 1.000498559215355e+001
0	 6.533360000018130e+000	 9.466644621844619e+000	 1.000396201891008e+001
0	 6.533360000018132e+000	 9.533315502450000e+000	 1.000306535368514e+001
0	 6.533360000018130e+000	 9.599986199732195e+000	 1.000229015464253e+001
0	 6.533360000018132e+000	 9.666656597019093e+000	 1.000163098265245e+001
0	 6.533360000018133e+000	 9.733326577638575e+000	 1.000108240129165e+001
0	 6.533360000018131e+000	 9.799996024918521e+000	 1.000063897684345e+001
0	 6.533360000018132e+000	 9.866664822186822e+000	 1.000029527829786e+001
0	 6.533360000018130e+000	 9.933332852771352e+000	 1.000004587735201e+001
0	 6.533360000018132e+000	 1.000000000000000e+001	 9.999885348410361e+000
0	 6.600030000017848e+000	 9.333302777352783e+000	 1.000602909851884e+001
0	 6.600030000017847e+000	 9.399973674588177e+000	 1.000489452413946e+001
0	 6.600030000017848e+000	 9.466644621844621e+000	 1.000388983901931e+001
0	 6.600030000017849e+000	 9.533315502450003e+000	 1.000300974620917e+001
0	 6.600030000017847e+000	 9.599986199732198e+000	 1.000224895141890e+001
0	 6.600030000017849e+000	 9.666656597019093e+000	 1.000160216301746e+001
0	 6.600030000017850e+000	 9.733326577638577e+000	 1.000106409203283e+001
0	 6.600030000017848e+000	 9.799996024918523e+000	 1.000062945215232e+001
0	 6.600030000017848e+000	 9.866664822186824e+000	 1.000029295972252e+001
0	 6.600030000017847e+000	 9.933332852771352e+000	 1.000004933374977e+001
0	 6.600030000017848e+000	 1.000000000000000e+001	 9.999893295900337e+000
0	 6.666700000016665e+000	 9.333302777352781e+000	 1.000591676440669e+001
0	 6.666700000016666e+000	 9.399973674588177e+000	 1.000480432398195e+001
0	 6.666700000016665e+000	 9.466644621844619e+000	 1.000381924453292e+001
0	 6.666700000016667e+000	 9.533315502449998e+000	 1.000295637901870e+001
0	 6.666700000016666e+000	 9.599986199732198e+000	 1.000221058300820e+001
0	 6.666700000016665e+000	 9.666656597019093e+000	 1.000157671468038e+001
0	 6.666700000016666e+000	 9.733326577638575e+000	 1.000104963482417e+001
0	 6.666700000016666e+000	 9.799996024918521e+000	 1.000062420683848e+001
0	 6.666700000016666e+000	 9.866664822186822e+000	 1.000029529673254e+001
0	 6.666700000016665e+000	 9.933332852771352e+000	 1.000005777312613e+001
0	 6.666700000016666e+000	 1.000000000000000e+001	 9.999906507249731e+000
0	 6.666700000016666e+000	 0.000000000000000e+000	 1.012208852316793e+001
0	 6.666700000016668e+000	 6.666714722864757e-002	 1.012172030538858e+001
0	 6.666700000016666e+000	 1.333351778131790e-001	 1.012162012425732e+001
0	 6.666700000016665e+000	 2.000039750814772e-001	 1.012177776732473e+001
0	 6.666700000016667e+000	 2.666734223614256e-001	 1.012218302656777e+001
0	 6.666700000016667e+000	 3.333434029809069e-001	 1.012282569838933e+001
0	 6.666700000016666e+000	 4.000138002678044e-001	 1.012369558361804e+001
0	 6.666700000016665e+000	 4.666844975500010e-001	 1.012478248750794e+001
0	 6.666700000016668e+000	 5.333553781553803e-001	 1.012607621973861e+001
0	 6.666700000016667e+000	 6.000263254118248e-001	 1.012756659441507e+001
0	 6.666700000016666e+000	 6.666972226472178e-001	 1.012924343006807e+001
0	 6.733360000014533e+000	 0.000000000000000e+000	 1.011597931684177e+001
0	 6.733360000014532e+000	 6.666714722864756e-002	 1.011562003667934e+001
0	 6.733360000014533e+000	 1.333351778131789e-001	 1.011548373075252e+001
0	 6.733360000014533e+000	 2.000039750814772e-001	 1.011556536531254e+001
0	 6.733360000014531e+000	 2.666734223614255e-001	 1.011585991086588e+001
0	 6.733360000014531e+000	 3.333434029809069e-001	 1.011636234217390e+001
0	 6.733360000014531e+000	 4.000138002678044e-001	 1.011706763825250e+001
0	 6.733360000014534e+000	 4.666844975500011e-001	 1.011797078237200e+001
0	 6.733360000014532e+000	 5.333553781553803e-001	 1.011906676205704e+001
0	 6.733360000014532e+000	 6.000263254118247e-001	 1.012035056908667e+001
0	 6.733360000014532e+000	 6.666972226472175e-001	 1.012181719949448e+001
0	 6.800020000011600e+000	 0.000000000000000e+000	 1.010943047364050e+001
0	 6.800020000011600e+000	 6.666714722864754e-002	 1.010911615011458e+001
0	 6.800020000011601e+000	 1.333351778131790e-001	 1.010898564663221e+001
0	 6.800020000011600e+000	 2.000039750814772e-001	 1.010903836110717e+001
0	 6.800020000011599e+000	 2.666734223614255e-001	 1.010927369554256e+001
0	 6.800020000011599e+000	 3.333434029809069e-001	 1.010969105603049e+001
0	 6.800020000011600e+000	 4.000138002678044e-001	 1.011028985275172e+001
0	 6.800020000011601e+000	 4.666844975500012e-001	 1.011106949997553e+001
0	 6.800020000011601e+000	 5.333553781553804e-001	 1.011202941605965e+001
0	 6.800020000011600e+000	 6.000263254118249e-001	 1.011316902345036e+001
0	 6.800020000011598e+000	 6.666972226472175e-001	 1.011448774868254e+001
0	 6.866680000008066e+000	 0.000000000000000e+000	 1.010249504431753e+001
0	 6.866680000008066e+000	 6.666714722864754e-002	 1.010225315283110e+001
0	 6.866680000008065e+000	 1.333351778131790e-001	 1.010216185187426e+001
0	 6.866680000008067e+000	 2.000039750814773e-001	 1.010222422393986e+001
0	 6.866680000008067e+000	 2.666734223614256e-001	 1.010244335544953e+001
0	 6.866680000008066e+000	 3.333434029809069e-001	 1.010282233675338e+001
0	 6.866680000008066e+000	 4.000138002678044e-001	 1.010336426212970e+001
0	 6.866680000008067e+000	 4.666844975500010e-001	 1.010407222978484e+001
0	 6.866680000008068e+000	 5.333553781553801e-001	 1.010494934185307e+001
0	 6.866680000008068e+000	 6.000263254118248e-001	 1.010599870439675e+001
0	 6.866680000008065e+000	 6.666972226472177e-001	 1.010722342740635e+001
0	 6.933340000004134e+000	 0.000000000000000e+000	 1.009522607962631e+001
0	 6.933340000004134e+000	 6.666714722864757e-002	 1.009507555196570e+001
0	 6.933340000004135e+000	 1.333351778131790e-001	 1.009504832645654e+001
0	 6.933340000004134e+000	 2.000039750814772e-001	 1.009515042304186e+001
0	 6.933340000004135e+000	 2.666734223614256e-001	 1.009538786543850e+001
0	 6.933340000004135e+000	 3.333434029809069e-001	 1.009576668113684e+001
0	 6.933340000004135e+000	 4.000138002678044e-001	 1.009629290140052e+001
0	 6.933340000004134e+000	 4.666844975500011e-001	 1.009697256126628e+001
0	 6.933340000004135e+000	 5.333553781553804e-001	 1.009781169954395e+001
0	 6.933340000004135e+000	 6.000263254118247e-001	 1.009881635881644e+001
0	 6.933340000004136e+000	 6.666972226472178e-001	 1.009999258543998e+001
0	 7.000000000000002e+000	 0.000000000000000e+000	 1.008767663032027e+001
0	 7.000000000000000e+000	 6.666714722864756e-002	 1.008762785465519e+001
0	 7.000000000000001e+000	 1.333351778131789e-001	 1.008768105035693e+001
0	 7.000000000000003e+000	 2.000039750814773e-001	 1.008784442764441e+001
0	 7.000000000000002e+000	 2.666734223614256e-001	 1.008812620036119e+001
0	 7.000000000000001e+000	 3.333434029809069e-001	 1.008853458597515e+001
0	 7.000000000000003e+000	 4.000138002678044e-001	 1.008907780557818e+001
0	 7.000000000000002e+000	 4.666844975500011e-001	 1.008976408388617e+001
0	 7.000000000000003e+000	 5.333553781553801e-001	 1.009060164923892e+001
0	 7.000000000000001e+000	 6.000263254118248e-001	 1.009159873360010e+001
0	 7.000000000000001e+000	 6.666972226472177e-001	 1.009276357255753e+001
0	 7.066659999995869e+000	 0.000000000000000e+000	 1.007989974715283e+001
0	 7.066659999995870e+000	 6.666714722864757e-002	 1.007995456803638e+001
0	 7.066659999995870e+000	 1.333351778131789e-001	 1.008009600355330e+001
0	 7.066659999995871e+000	 2.000039750814773e-001	 1.008033370697877e+001
0	 7.066659999995869e+000	 2.666734223614255e-001	 1.008067733506936e+001
0	 7.066659999995869e+000	 3.333434029809068e-001	 1.008113654806255e+001
0	 7.066659999995870e+000	 4.000138002678044e-001	 1.008172100967673e+001
0	 7.066659999995869e+000	 4.666844975500011e-001	 1.008244038711086e+001
0	 7.066659999995869e+000	 5.333553781553803e-001	 1.008330435104461e+001
0	 7.066659999995870e+000	 6.000263254118247e-001	 1.008432257563830e+001
0	 7.066659999995869e+000	 6.666972226472177e-001	 1.008550473853309e+001
0	 7.133319999991937e+000	 0.000000000000000e+000	 1.007194848087744e+001
0	 7.133319999991938e+000	 6.666714722864754e-002	 1.007210019924610e+001
0	 7.133319999991937e+000	 1.333351778131790e-001	 1.007232916602352e+001
0	 7.133319999991937e+000	 2.000039750814772e-001	 1.007264573027618e+001
0	 7.133319999991936e+000	 2.666734223614257e-001	 1.007306024441467e+001
0	 7.133319999991937e+000	 3.333434029809069e-001	 1.007358306419336e+001
0	 7.133319999991937e+000	 4.000138002678044e-001	 1.007422454871021e+001
0	 7.133319999991937e+000	 4.666844975500012e-001	 1.007499506040669e+001
0	 7.133319999991937e+000	 5.333553781553801e-001	 1.007590496506768e+001
0	 7.133319999991937e+000	 6.000263254118247e-001	 1.007696463182167e+001
0	 7.133319999991937e+000	 6.666972226472178e-001	 1.007818443314075e+001
0	 7.199979999988405e+000	 0.000000000000000e+000	 1.006387588224752e+001
0	 7.199979999988403e+000	 6.666714722864756e-002	 1.006410925542114e+001
0	 7.199979999988405e+000	 1.333351778131790e-001	 1.006441651774547e+001
0	 7.199979999988403e+000	 2.000039750814772e-001	 1.006480796676790e+001
0	 7.199979999988404e+000	 2.666734223614256e-001	 1.006529390324891e+001
0	 7.199979999988404e+000	 3.333434029809069e-001	 1.006588463116185e+001
0	 7.199979999988404e+000	 4.000138002678045e-001	 1.006659045769268e+001
0	 7.199979999988404e+000	 4.666844975500012e-001	 1.006742169323996e+001
0	 7.199979999988404e+000	 5.333553781553803e-001	 1.006838865141478e+001
0	 7.199979999988405e+000	 6.000263254118248e-001	 1.006950164904083e+001
0	 7.199979999988403e+000	 6.666972226472177e-001	 1.007077100615458e+001
0	 7.266639999985471e+000	 0.000000000000000e+000	 1.005573500201652e+001
0	 7.266639999985472e+000	 6.666714722864757e-002	 1.005602624369832e+001
0	 7.266639999985472e+000	 1.333351778131790e-001	 1.005639403869703e+001
0	 7.266639999985470e+000	 2.000039750814772e-001	 1.005684788568517e+001
0	 7.266639999985472e+000	 2.666734223614256e-001	 1.005739728642379e+001
0	 7.266639999985472e+000	 3.333434029809068e-001	 1.005805174576227e+001
0	 7.266639999985471e+000	 4.000138002678044e-001	 1.005882077163817e+001
0	 7.266639999985472e+000	 4.666844975500011e-001	 1.005971387507703e+001
0	 7.266639999985471e+000	 5.333553781553803e-001	 1.006074057019253e+001
0	 7.266639999985472e+000	 6.000263254118248e-001	 1.006191037418640e+001
0	 7.266639999985470e+000	 6.666972226472175e-001	 1.006323280734871e+001
0	 7.333299999983335e+000	 0.000000000000000e+000	 1.004757889093788e+001
0	 7.333299999983334e+000	 6.666714722864756e-002	 1.004789567121446e+001
0	 7.333299999983334e+000	 1.333351778131789e-001	 1.004829770885609e+001
0	 7.333299999983335e+000	 2.000039750814772e-001	 1.004879295625924e+001
0	 7.333299999983333e+000	 2.666734223614256e-001	 1.004938936879102e+001
0	 7.333299999983336e+000	 3.333434029809069e-001	 1.005009490478893e+001
0	 7.333299999983335e+000	 4.000138002678045e-001	 1.005091752556071e+001
0	 7.333299999983333e+000	 4.666844975500011e-001	 1.005186519538424e+001
0	 7.333299999983335e+000	 5.333553781553803e-001	 1.005294588150758e+001
0	 7.333299999983335e+000	 6.000263254118248e-001	 1.005416755414901e+001
0	 7.333299999983332e+000	 6.666972226472178e-001	 1.005553818649721e+001
0	 6.666700000016666e+000	 6.666972226472178e-001	 1.012924343006807e+001
0	 6.666700000016667e+000	 7.333579753122047e-001	 1.013105676827323e+001
0	 6.666700000016665e+000	 8.000185779984416e-001	 1.013297416537732e+001
0	 6.666700000016667e+000	 8.666790473703454e-001	 1.013501092004823e+001
0	 6.666700000016666e+000	 9.333394000923321e-001	 1.013718233045295e+001
0	 6.666700000016667e+000	 9.999996528288189e-001	 1.013950369425758e+001
0	 6.666700000016666e+000	 1.066659822244222e+000	 1.014199030862729e+001
0	 6.666700000016666e+000	 1.133319925002959e+000	 1.014465747022636e+001
0	 6.666700000016666e+000	 1.199979977769445e+000	 1.014752047521819e+001
0	 6.666700000016665e+000	 1.266639997208098e+000	 1.015059461926526e+001
0	 6.666700000016665e+000	 1.333299999983334e+000	 1.015389519752918e+001
0	 6.733360000014532e+000	 6.666972226472175e-001	 1.012181719949448e+001
0	 6.733360000014534e+000	 7.333579753122049e-001	 1.012343326603442e+001
0	 6.733360000014532e+000	 8.000185779984417e-001	 1.012517813759131e+001
0	 6.733360000014532e+000	 8.666790473703452e-001	 1.012706524686684e+001
0	 6.733360000014532e+000	 9.333394000923321e-001	 1.012910802604857e+001
0	 6.733360000014531e+000	 9.999996528288191e-001	 1.013131990681004e+001
0	 6.733360000014534e+000	 1.066659822244222e+000	 1.013371432031069e+001
0	 6.733360000014533e+000	 1.133319925002959e+000	 1.013630469719589e+001
0	 6.733360000014534e+000	 1.199979977769445e+000	 1.013910446759699e+001
0	 6.733360000014533e+000	 1.266639997208098e+000	 1.014212706113122e+001
0	 6.733360000014534e+000	 1.333299999983334e+000	 1.014538590690182e+001
0	 6.800020000011598e+000	 6.666972226472175e-001	 1.011448774868254e+001
0	 6.800020000011600e+000	 7.333579753122048e-001	 1.011596240189900e+001
0	 6.800020000011600e+000	 8.000185779984418e-001	 1.011757843480926e+001
0	 6.800020000011600e+000	 8.666790473703454e-001	 1.011934760537135e+001
0	 6.800020000011602e+000	 9.333394000923323e-001	 1.012128167103265e+001
0	 6.800020000011599e+000	 9.999996528288190e-001	 1.012339238872986e+001
0	 6.800020000011600e+000	 1.066659822244222e+000	 1.012569151488902e+001
0	 6.800020000011600e+000	 1.133319925002959e+000	 1.012819080542555e+001
0	 6.800020000011600e+000	 1.199979977769445e+000	 1.013090201574415e+001
0	 6.800020000011600e+000	 1.266639997208098e+000	 1.013383690073895e+001
0	 6.800020000011600e+000	 1.333299999983334e+000	 1.013700721479335e+001
0	 6.866680000008065e+000	 6.666972226472177e-001	 1.010722342740635e+001
0	 6.866680000008068e+000	 7.333579753122048e-001	 1.010860511555902e+001
0	 6.866680000008066e+000	 8.000185779984417e-001	 1.011013054213582e+001
0	 6.866680000008067e+000	 8.666790473703454e-001	 1.011180998159031e+001
0	 6.866680000008066e+000	 9.333394000923324e-001	 1.011365370788249e+001
0	 6.866680000008068e+000	 9.999996528288190e-001	 1.011567199447868e+001
0	 6.866680000008066e+000	 1.066659822244222e+000	 1.011787511435164e+001
0	 6.866680000008066e+000	 1.133319925002958e+000	 1.012027333998048e+001
0	 6.866680000008067e+000	 1.199979977769445e+000	 1.012287694335073e+001
0	 6.866680000008067e+000	 1.266639997208098e+000	 1.012569619595432e+001
0	 6.866680000008065e+000	 1.333299999983334e+000	 1.012874136878955e+001
0	 6.933340000004136e+000	 6.666972226472178e-001	 1.009999258543998e+001
0	 6.933340000004135e+000	 7.333579753122047e-001	 1.010132234670649e+001
0	 6.933340000004135e+000	 8.000185779984417e-001	 1.010278994467563e+001
0	 6.933340000004134e+000	 8.666790473703454e-001	 1.010440436155228e+001
0	 6.933340000004134e+000	 9.333394000923324e-001	 1.010617457907543e+001
0	 6.933340000004131e+000	 9.999996528288186e-001	 1.010810957851819e+001
0	 6.933340000004134e+000	 1.066659822244222e+000	 1.011021834068786e+001
0	 6.933340000004136e+000	 1.133319925002959e+000	 1.011250984592586e+001
0	 6.933340000004134e+000	 1.199979977769445e+000	 1.011499307410774e+001
0	 6.933340000004135e+000	 1.266639997208098e+000	 1.011767700464323e+001
0	 6.933340000004135e+000	 1.333299999983334e+000	 1.012057061647621e+001
0	 7.000000000000001e+000	 6.666972226472177e-001	 1.009276357255753e+001
0	 7.000000000000003e+000	 7.333579753122048e-001	 1.009407503503343e+001
0	 7.000000000000003e+000	 8.000185779984418e-001	 1.009551212753338e+001
0	 7.000000000000002e+000	 8.666790473703454e-001	 1.009708273128580e+001
0	 7.000000000000000e+000	 9.333394000923321e-001	 1.009879472708877e+001
0	 7.000000000000003e+000	 9.999996528288190e-001	 1.010065599531004e+001
0	 7.000000000000001e+000	 1.066659822244222e+000	 1.010267441588703e+001
0	 7.000000000000000e+000	 1.133319925002959e+000	 1.010485786832684e+001
0	 7.000000000000003e+000	 1.199979977769445e+000	 1.010721423170620e+001
0	 7.000000000000002e+000	 1.266639997208098e+000	 1.010975138467159e+001
0	 7.000000000000002e+000	 1.333299999983334e+000	 1.011247720543910e+001
0	 7.066659999995869e+000	 6.666972226472177e-001	 1.008550473853309e+001
0	 7.066659999995871e+000	 7.333579753122049e-001	 1.008682412023187e+001
0	 7.066659999995869e+000	 8.000185779984417e-001	 1.008825257581369e+001
0	 7.066659999995869e+000	 8.666790473703454e-001	 1.008979707681941e+001
0	 7.066659999995870e+000	 9.333394000923322e-001	 1.009146459439984e+001
0	 7.066659999995870e+000	 9.999996528288188e-001	 1.009326209931589e+001
0	 7.066659999995870e+000	 1.066659822244222e+000	 1.009519656193848e+001
0	 7.066659999995870e+000	 1.133319925002959e+000	 1.009727495224856e+001
0	 7.066659999995870e+000	 1.199979977769445e+000	 1.009950423983714e+001
0	 7.066659999995869e+000	 1.266639997208098e+000	 1.010189139390525e+001
0	 7.066659999995870e+000	 1.333299999983334e+000	 1.010444338326400e+001
0	 7.133319999991937e+000	 6.666972226472178e-001	 1.007818443314075e+001
0	 7.133319999991937e+000	 7.333579753122049e-001	 1.007953054199383e+001
0	 7.133319999991937e+000	 8.000185779984416e-001	 1.008096677462126e+001
0	 7.133319999991935e+000	 8.666790473703451e-001	 1.008249938418167e+001
0	 7.133319999991937e+000	 9.333394000923323e-001	 1.008413462348596e+001
0	 7.133319999991937e+000	 9.999996528288189e-001	 1.008587874499740e+001
0	 7.133319999991935e+000	 1.066659822244222e+000	 1.008773800083153e+001
0	 7.133319999991937e+000	 1.133319925002959e+000	 1.008971864275619e+001
0	 7.133319999991937e+000	 1.199979977769445e+000	 1.009182692219155e+001
0	 7.133319999991936e+000	 1.266639997208098e+000	 1.009406909021011e+001
0	 7.133319999991937e+000	 1.333299999983334e+000	 1.009645139753669e+001
0	 7.199979999988403e+000	 6.666972226472177e-001	 1.007077100615458e+001
0	 7.199979999988404e+000	 7.333579753122048e-001	 1.007215524001134e+001
0	 7.199979999988403e+000	 8.000185779984418e-001	 1.007361020906071e+001
0	 7.199979999988404e+000	 8.666790473703453e-001	 1.007514163940111e+001
0	 7.199979999988403e+000	 9.333394000923321e-001	 1.007675525682446e+001
0	 7.199979999988403e+000	 9.999996528288186e-001	 1.007845678681626e+001
0	 7.199979999988403e+000	 1.066659822244222e+000	 1.008025195455553e+001
0	 7.199979999988403e+000	 1.133319925002958e+000	 1.008214648491489e+001
0	 7.199979999988404e+000	 1.199979977769445e+000	 1.008414610246047e+001
0	 7.199979999988404e+000	 1.266639997208098e+000	 1.008625653145206e+001
0	 7.199979999988404e+000	 1.333299999983334e+000	 1.008848349584293e+001
0	 7.266639999985470e+000	 6.666972226472175e-001	 1.006323280734871e+001
0	 7.266639999985471e+000	 7.333579753122049e-001	 1.006465915397640e+001
0	 7.266639999985471e+000	 8.000185779984417e-001	 1.006613836423673e+001
0	 7.266639999985471e+000	 8.666790473703456e-001	 1.006767582850631e+001
0	 7.266639999985471e+000	 9.333394000923323e-001	 1.006927693689266e+001
0	 7.266639999985471e+000	 9.999996528288189e-001	 1.007094707923410e+001
0	 7.266639999985469e+000	 1.066659822244222e+000	 1.007269164509980e+001
0	 7.266639999985471e+000	 1.133319925002958e+000	 1.007451602378980e+001
0	 7.266639999985471e+000	 1.199979977769445e+000	 1.007642560433494e+001
0	 7.266639999985470e+000	 1.266639997208098e+000	 1.007842577549699e+001
0	 7.266639999985472e+000	 1.333299999983334e+000	 1.008052192576851e+001
0	 7.333299999983332e+000	 6.666972226472178e-001	 1.005553818649721e+001
0	 7.333299999983334e+000	 7.333579753122048e-001	 1.005700322358108e+001
0	 7.333299999983334e+000	 8.000185779984417e-001	 1.005850672525393e+001
0	 7.333299999983334e+000	 8.666790473703454e-001	 1.006005393752580e+001
0	 7.333299999983335e+000	 9.333394000923323e-001	 1.006165010616786e+001
0	 7.333299999983334e+000	 9.999996528288190e-001	 1.006330047671259e+001
0	 7.333299999983335e+000	 1.066659822244222e+000	 1.006501029445368e+001
0	 7.333299999983335e+000	 1.133319925002959e+000	 1.006678480444607e+001
0	 7.333299999983333e+000	 1.199979977769445e+000	 1.006862925150595e+001
0	 7.333299999983335e+000	 1.266639997208098e+000	 1.007054888021076e+001
0	 7.333299999983335e+000	 1.333299999983334e+000	 1.007254893489921e+001
0	 6.666700000016665e+000	 1.333299999983334e+000	 1.015389519752918e+001
0	 6.666700000016666e+000	 1.399969999982150e+000	 1.015725478483964e+001
0	 6.666700000016666e+000	 1.466639999981866e+000	 1.016050046543544e+001
0	 6.666700000016667e+000	 1.533309999982383e+000	 1.016364083687223e+001
0	 6.666700000016667e+000	 1.599979999983599e+000	 1.016668449670569e+001
0	 6.666700000016665e+000	 1.666649999985416e+000	 1.016964004249144e+001
0	 6.666700000016667e+000	 1.733319999987733e+000	 1.017251607178518e+001
0	 6.666700000016665e+000	 1.799989999990449e+000	 1.017532118214253e+001
0	 6.666700000016665e+000	 1.866659999993466e+000	 1.017806397111916e+001
0	 6.666700000016666e+000	 1.933329999996683e+000	 1.018075303627072e+001
0	 6.666700000016668e+000	 2.000000000000000e+000	 1.018339697515288e+001
0	 6.733360000014534e+000	 1.333299999983334e+000	 1.014538590690182e+001
0	 6.733360000014531e+000	 1.399969999982150e+000	 1.014870183405270e+001
0	 6.733360000014534e+000	 1.466639999981867e+000	 1.015189282292779e+001
0	 6.733360000014534e+000	 1.533309999982383e+000	 1.015496955084861e+001
0	 6.733360000014534e+000	 1.599979999983600e+000	 1.015794269513672e+001
0	 6.733360000014533e+000	 1.666649999985416e+000	 1.016082293311363e+001
0	 6.733360000014533e+000	 1.733319999987733e+000	 1.016362094210090e+001
0	 6.733360000014533e+000	 1.799989999990450e+000	 1.016634739942005e+001
0	 6.733360000014532e+000	 1.866659999993466e+000	 1.016901298239262e+001
0	 6.733360000014534e+000	 1.933329999996684e+000	 1.017162836834014e+001
0	 6.733360000014532e+000	 2.000000000000000e+000	 1.017420423458415e+001
0	 6.800020000011600e+000	 1.333299999983334e+000	 1.013700721479335e+001
0	 6.800020000011600e+000	 1.399969999982150e+000	 1.014023201188508e+001
0	 6.800020000011600e+000	 1.466639999981866e+000	 1.014332973928810e+001
0	 6.800020000011601e+000	 1.533309999982383e+000	 1.014631272247139e+001
0	 6.800020000011600e+000	 1.599979999983599e+000	 1.014919328690391e+001
0	 6.800020000011599e+000	 1.666649999985416e+000	 1.015198375805464e+001
0	 6.800020000011598e+000	 1.733319999987733e+000	 1.015469646139254e+001
0	 6.800020000011601e+000	 1.799989999990450e+000	 1.015734372238659e+001
0	 6.800020000011601e+000	 1.866659999993466e+000	 1.015993786650576e+001
0	 6.800020000011599e+000	 1.933329999996683e+000	 1.016249121921903e+001
0	 6.800020000011601e+000	 2.000000000000000e+000	 1.016501610599536e+001
0	 6.866680000008065e+000	 1.333299999983334e+000	 1.012874136878956e+001
0	 6.866680000008068e+000	 1.399969999982150e+000	 1.013183799918732e+001
0	 6.866680000008068e+000	 1.466639999981866e+000	 1.013481285682991e+001
0	 6.866680000008064e+000	 1.533309999982382e+000	 1.013767948371528e+001
0	 6.866680000008065e+000	 1.599979999983599e+000	 1.014045142184139e+001
0	 6.866680000008067e+000	 1.666649999985416e+000	 1.014314221320625e+001
0	 6.866680000008066e+000	 1.733319999987733e+000	 1.014576539980777e+001
0	 6.866680000008067e+000	 1.799989999990450e+000	 1.014833452364394e+001
0	 6.866680000008068e+000	 1.866659999993466e+000	 1.015086312671272e+001
0	 6.866680000008067e+000	 1.933329999996683e+000	 1.015336475101207e+001
0	 6.866680000008066e+000	 2.000000000000000e+000	 1.015585293853997e+001
0	 6.933340000004135e+000	 1.333299999983334e+000	 1.012057061647621e+001
0	 6.933340000004133e+000	 1.399969999982150e+000	 1.012351247680993e+001
0	 6.933340000004135e+000	 1.466639999981867e+000	 1.012634381786670e+001
0	 6.933340000004135e+000	 1.533309999982383e+000	 1.012907896655498e+001
0	 6.933340000004135e+000	 1.599979999983599e+000	 1.013173224978332e+001
0	 6.933340000004134e+000	 1.666649999985416e+000	 1.013431799446024e+001
0	 6.933340000004134e+000	 1.733319999987733e+000	 1.013685052749424e+001
0	 6.933340000004133e+000	 1.799989999990449e+000	 1.013934417579385e+001
0	 6.933340000004134e+000	 1.866659999993467e+000	 1.014181326626757e+001
0	 6.933340000004135e+000	 1.933329999996683e+000	 1.014427212582391e+001
0	 6.933340000004134e+000	 2.000000000000000e+000	 1.014673508137139e+001
0	 7.000000000000002e+000	 1.333299999983334e+000	 1.011247720543910e+001
0	 7.000000000000001e+000	 1.399969999982150e+000	 1.011524812560346e+001
0	 7.000000000000000e+000	 1.466639999981866e+000	 1.011792426471195e+001
0	 7.000000000000003e+000	 1.533309999982383e+000	 1.012052030296519e+001
0	 7.000000000000002e+000	 1.599979999983599e+000	 1.012305092056380e+001
0	 7.000000000000004e+000	 1.666649999985416e+000	 1.012553079770841e+001
0	 7.000000000000002e+000	 1.733319999987733e+000	 1.012797461459964e+001
0	 7.000000000000004e+000	 1.799989999990450e+000	 1.013039705143809e+001
0	 7.000000000000002e+000	 1.866659999993466e+000	 1.013281278842441e+001
0	 7.000000000000001e+000	 1.933329999996683e+000	 1.013523650575919e+001
0	 7.000000000000003e+000	 2.000000000000000e+000	 1.013768288364308e+001
0	 7.066659999995870e+000	 1.333299999983334e+000	 1.010444338326400e+001
0	 7.066659999995870e+000	 1.399969999982150e+000	 1.010703762641841e+001
0	 7.066659999995870e+000	 1.466639999981866e+000	 1.010955583967919e+001
0	 7.066659999995869e+000	 1.533309999982383e+000	 1.011201262492061e+001
0	 7.066659999995869e+000	 1.599979999983599e+000	 1.011442258401696e+001
0	 7.066659999995869e+000	 1.666649999985416e+000	 1.011680031884252e+001
0	 7.066659999995870e+000	 1.733319999987733e+000	 1.011916043127158e+001
0	 7.066659999995869e+000	 1.799989999990450e+000	 1.012151752317843e+001
0	 7.066659999995870e+000	 1.866659999993466e+000	 1.012388619643732e+001
0	 7.066659999995869e+000	 1.933329999996683e+000	 1.012628105292257e+001
0	 7.066659999995870e+000	 2.000000000000000e+000	 1.012871669450844e+001
0	 7.133319999991937e+000	 1.333299999983334e+000	 1.009645139753669e+001
0	 7.133319999991937e+000	 1.399969999982150e+000	 1.009887366010532e+001
0	 7.133319999991937e+000	 1.466639999981866e+000	 1.010124018508191e+001
0	 7.133319999991937e+000	 1.533309999982383e+000	 1.010356506439594e+001
0	 7.133319999991936e+000	 1.599979999983599e+000	 1.010586238997692e+001
0	 7.133319999991937e+000	 1.666649999985416e+000	 1.010814625375436e+001
0	 7.133319999991937e+000	 1.733319999987733e+000	 1.011043074765776e+001
0	 7.133319999991936e+000	 1.799989999990449e+000	 1.011272996361661e+001
0	 7.133319999991937e+000	 1.866659999993467e+000	 1.011505799356042e+001
0	 7.133319999991937e+000	 1.933329999996683e+000	 1.011742892941870e+001
0	 7.133319999991936e+000	 2.000000000000000e+000	 1.011985686312094e+001
0	 7.199979999988404e+000	 1.333299999983334e+000	 1.008848349584293e+001
0	 7.199979999988403e+000	 1.399969999982150e+000	 1.009074890751472e+001
0	 7.199979999988404e+000	 1.466639999981867e+000	 1.009297894323361e+001
0	 7.199979999988404e+000	 1.533309999982383e+000	 1.009518675336588e+001
0	 7.199979999988405e+000	 1.599979999983600e+000	 1.009738548827782e+001
0	 7.199979999988403e+000	 1.666649999985416e+000	 1.009958829833571e+001
0	 7.199979999988405e+000	 1.733319999987733e+000	 1.010180833390581e+001
0	 7.199979999988403e+000	 1.799989999990449e+000	 1.010405874535441e+001
0	 7.199979999988405e+000	 1.866659999993466e+000	 1.010635268304779e+001
0	 7.199979999988404e+000	 1.933329999996683e+000	 1.010870329735222e+001
0	 7.199979999988403e+000	 2.000000000000000e+000	 1.011112373863399e+001
0	 7.266639999985472e+000	 1.333299999983334e+000	 1.008052192576851e+001
0	 7.266639999985471e+000	 1.399969999982150e+000	 1.008265604949711e+001
0	 7.266639999985469e+000	 1.466639999981866e+000	 1.008477375644779e+001
0	 7.266639999985472e+000	 1.533309999982383e+000	 1.008688682380515e+001
0	 7.266639999985470e+000	 1.599979999983599e+000	 1.008900702875379e+001
0	 7.266639999985471e+000	 1.666649999985416e+000	 1.009114614847833e+001
0	 7.266639999985470e+000	 1.733319999987733e+000	 1.009331596016340e+001
0	 7.266639999985471e+000	 1.799989999990450e+000	 1.009552824099358e+001
0	 7.266639999985470e+000	 1.866659999993466e+000	 1.009779476815351e+001
0	 7.266639999985471e+000	 1.933329999996683e+000	 1.010012731882779e+001
0	 7.266639999985471e+000	 2.000000000000000e+000	 1.010253767020103e+001
0	 7.333299999983335e+000	 1.333299999983334e+000	 1.007254893489921e+001
0	 7.333299999983334e+000	 1.399969999982150e+000	 1.007458776690305e+001
0	 7.333299999983335e+000	 1.466639999981867e+000	 1.007662626703795e+001
0	 7.333299999983334e+000	 1.533309999982383e+000	 1.007867440768841e+001
0	 7.333299999983334e+000	 1.599979999983599e+000	 1.008074216123893e+001
0	 7.333299999983334e+000	 1.666649999985416e+000	 1.008283950007401e+001
0	 7.333299999983335e+000	 1.733319999987733e+000	 1.008497639657817e+001
0	 7.333299999983335e+000	 1.799989999990450e+000	 1.008716282313589e+001
0	 7.333299999983334e+000	 1.866659999993466e+000	 1.008940875213168e+001
0	 7.333299999983335e+000	 1.933329999996683e+000	 1.009172415595004e+001
0	 7.333299999983335e+000	 2.000000000000000e+000	 1.009411900697548e+001
0	 6.666700000016668e+000	 2.000000000000000e+000	 1.018339697515288e+001
0	 6.666700000016665e+000	 2.066670000003317e+000	 1.018592706797133e+001
0	 6.666700000016665e+000	 2.133340000006534e+000	 1.018827954318266e+001
0	 6.666700000016666e+000	 2.200010000009551e+000	 1.019047042071880e+001
0	 6.666700000016668e+000	 2.266680000012268e+000	 1.019251572051172e+001
0	 6.666700000016666e+000	 2.333350000014584e+000	 1.019443146249333e+001
0	 6.666700000016667e+000	 2.400020000016400e+000	 1.019623366659559e+001
0	 6.666700000016665e+000	 2.466690000017617e+000	 1.019793835275045e+001
0	 6.666700000016667e+000	 2.533360000018134e+000	 1.019956154088981e+001
0	 6.666700000016666e+000	 2.600030000017851e+000	 1.020111925094564e+001
0	 6.666700000016667e+000	 2.666700000016667e+000	 1.020262750284986e+001
0	 6.733360000014532e+000	 2.000000000000000e+000	 1.017420423458415e+001
0	 6.733360000014533e+000	 2.066670000003317e+000	 1.017668443163915e+001
0	 6.733360000014532e+000	 2.133340000006534e+000	 1.017901316461649e+001
0	 6.733360000014533e+000	 2.200010000009550e+000	 1.018120164273287e+001
0	 6.733360000014533e+000	 2.266680000012267e+000	 1.018326107520503e+001
0	 6.733360000014531e+000	 2.333350000014584e+000	 1.018520267124970e+001
0	 6.733360000014534e+000	 2.400020000016401e+000	 1.018703764008360e+001
0	 6.733360000014533e+000	 2.466690000017618e+000	 1.018877719092347e+001
0	 6.733360000014532e+000	 2.533360000018134e+000	 1.019043253298602e+001
0	 6.733360000014532e+000	 2.600030000017851e+000	 1.019201487548797e+001
0	 6.733360000014533e+000	 2.666700000016666e+000	 1.019353542764605e+001
0	 6.800020000011601e+000	 2.000000000000000e+000	 1.016501610599536e+001
0	 6.800020000011599e+000	 2.066670000003316e+000	 1.016746426599614e+001
0	 6.800020000011601e+000	 2.133340000006534e+000	 1.016978398895383e+001
0	 6.800020000011599e+000	 2.200010000009550e+000	 1.017198242619403e+001
0	 6.800020000011599e+000	 2.266680000012266e+000	 1.017406672904232e+001
0	 6.800020000011600e+000	 2.333350000014585e+000	 1.017604404882430e+001
0	 6.800020000011601e+000	 2.400020000016400e+000	 1.017792153686555e+001
0	 6.800020000011600e+000	 2.466690000017617e+000	 1.017970634449165e+001
0	 6.800020000011601e+000	 2.533360000018134e+000	 1.018140562302819e+001
0	 6.800020000011601e+000	 2.600030000017851e+000	 1.018302652380075e+001
0	 6.800020000011599e+000	 2.666700000016666e+000	 1.018457619813491e+001
0	 6.866680000008066e+000	 2.000000000000000e+000	 1.015585293853997e+001
0	 6.866680000008067e+000	 2.066670000003316e+000	 1.015828335314856e+001
0	 6.866680000008067e+000	 2.133340000006534e+000	 1.016060519486372e+001
0	 6.866680000008067e+000	 2.200010000009550e+000	 1.016282230994396e+001
0	 6.866680000008067e+000	 2.266680000012267e+000	 1.016493854464781e+001
0	 6.866680000008067e+000	 2.333350000014585e+000	 1.016695774523381e+001
0	 6.866680000008066e+000	 2.400020000016400e+000	 1.016888375796045e+001
0	 6.866680000008067e+000	 2.466690000017617e+000	 1.017072042908626e+001
0	 6.866680000008067e+000	 2.533360000018134e+000	 1.017247160486976e+001
0	 6.866680000008067e+000	 2.600030000017850e+000	 1.017414113156946e+001
0	 6.866680000008067e+000	 2.666700000016666e+000	 1.017573285544388e+001
0	 6.933340000004134e+000	 2.000000000000000e+000	 1.014673508137139e+001
0	 6.933340000004135e+000	 2.066670000003317e+000	 1.014915847520269e+001
0	 6.933340000004133e+000	 2.133340000006534e+000	 1.015148996101516e+001
0	 6.933340000004134e+000	 2.200010000009550e+000	 1.015373083282433e+001
0	 6.933340000004136e+000	 2.266680000012268e+000	 1.015588238464573e+001
0	 6.933340000004134e+000	 2.333350000014584e+000	 1.015794591049489e+001
0	 6.933340000004134e+000	 2.400020000016401e+000	 1.015992270438732e+001
0	 6.933340000004135e+000	 2.466690000017617e+000	 1.016181406033857e+001
0	 6.933340000004135e+000	 2.533360000018134e+000	 1.016362127236415e+001
0	 6.933340000004134e+000	 2.600030000017851e+000	 1.016534563447959e+001
0	 6.933340000004134e+000	 2.666700000016666e+000	 1.016698844070039e+001
0	 7.000000000000003e+000	 2.000000000000000e+000	 1.013768288364308e+001
0	 7.000000000000002e+000	 2.066670000003317e+000	 1.014010641426482e+001
0	 7.000000000000001e+000	 2.133340000006534e+000	 1.014245146607720e+001
0	 7.000000000000003e+000	 2.200010000009551e+000	 1.014471753367682e+001
0	 7.000000000000002e+000	 2.266680000012267e+000	 1.014690411166029e+001
0	 7.000000000000000e+000	 2.333350000014584e+000	 1.014901069462423e+001
0	 7.000000000000003e+000	 2.400020000016401e+000	 1.015103677716522e+001
0	 7.000000000000002e+000	 2.466690000017617e+000	 1.015298185387987e+001
0	 7.000000000000002e+000	 2.533360000018134e+000	 1.015484541936480e+001
0	 7.000000000000002e+000	 2.600030000017851e+000	 1.015662696821660e+001
0	 7.000000000000002e+000	 2.666700000016666e+000	 1.015832599503189e+001
0	 7.066659999995870e+000	 2.000000000000000e+000	 1.012871669450844e+001
0	 7.066659999995870e+000	 2.066670000003317e+000	 1.013114395244124e+001
0	 7.066659999995869e+000	 2.133340000006534e+000	 1.013350288871888e+001
0	 7.066659999995870e+000	 2.200010000009550e+000	 1.013579195134311e+001
0	 7.066659999995871e+000	 2.266680000012267e+000	 1.013800958831573e+001
0	 7.066659999995871e+000	 2.333350000014583e+000	 1.014015424763849e+001
0	 7.066659999995870e+000	 2.400020000016401e+000	 1.014222437731314e+001
0	 7.066659999995870e+000	 2.466690000017617e+000	 1.014421842534144e+001
0	 7.066659999995870e+000	 2.533360000018134e+000	 1.014613483972514e+001
0	 7.066659999995869e+000	 2.600030000017851e+000	 1.014797206846602e+001
0	 7.066659999995871e+000	 2.666700000016666e+000	 1.014972855956582e+001
0	 7.133319999991936e+000	 2.000000000000000e+000	 1.011985686312094e+001
0	 7.133319999991937e+000	 2.066670000003317e+000	 1.012228787183821e+001
0	 7.133319999991937e+000	 2.133340000006534e+000	 1.012465740760918e+001
0	 7.133319999991936e+000	 2.200010000009551e+000	 1.012696362466488e+001
0	 7.133319999991936e+000	 2.266680000012267e+000	 1.012920467723628e+001
0	 7.133319999991937e+000	 2.333350000014584e+000	 1.013137871955435e+001
0	 7.133319999991937e+000	 2.400020000016401e+000	 1.013348390585013e+001
0	 7.133319999991936e+000	 2.466690000017617e+000	 1.013551839035454e+001
0	 7.133319999991937e+000	 2.533360000018133e+000	 1.013748032729862e+001
0	 7.133319999991937e+000	 2.600030000017850e+000	 1.013936787091331e+001
0	 7.133319999991937e+000	 2.666700000016667e+000	 1.014117917542962e+001
0	 7.199979999988403e+000	 2.000000000000000e+000	 1.011112373863399e+001
0	 7.199979999988404e+000	 2.066670000003317e+000	 1.011355495456201e+001
0	 7.199979999988404e+000	 2.133340000006534e+000	 1.011592820141718e+001
0	 7.199979999988404e+000	 2.200010000009550e+000	 1.011824209248380e+001
0	 7.199979999988404e+000	 2.266680000012267e+000	 1.012049524104615e+001
0	 7.199979999988405e+000	 2.333350000014585e+000	 1.012268626038852e+001
0	 7.199979999988405e+000	 2.400020000016401e+000	 1.012481376379520e+001
0	 7.199979999988404e+000	 2.466690000017618e+000	 1.012687636455049e+001
0	 7.199979999988403e+000	 2.533360000018134e+000	 1.012887267593866e+001
0	 7.199979999988405e+000	 2.600030000017851e+000	 1.013080131124398e+001
0	 7.199979999988404e+000	 2.666700000016666e+000	 1.013266088375076e+001
0	 7.266639999985471e+000	 2.000000000000000e+000	 1.010253767020103e+001
0	 7.266639999985470e+000	 2.066670000003317e+000	 1.010496198271894e+001
0	 7.266639999985471e+000	 2.133340000006534e+000	 1.010732844881188e+001
0	 7.266639999985472e+000	 2.200010000009550e+000	 1.010963689364154e+001
0	 7.266639999985470e+000	 2.266680000012267e+000	 1.011188714236958e+001
0	 7.266639999985471e+000	 2.333350000014583e+000	 1.011407902015765e+001
0	 7.266639999985471e+000	 2.400020000016401e+000	 1.011621235216742e+001
0	 7.266639999985471e+000	 2.466690000017617e+000	 1.011828696356055e+001
0	 7.266639999985473e+000	 2.533360000018134e+000	 1.012030267949869e+001
0	 7.266639999985472e+000	 2.600030000017851e+000	 1.012225932514351e+001
0	 7.266639999985470e+000	 2.666700000016666e+000	 1.012415672565666e+001
0	 7.333299999983335e+000	 2.000000000000000e+000	 1.009411900697548e+001
0	 7.333299999983334e+000	 2.066670000003317e+000	 1.009652573841525e+001
0	 7.333299999983335e+000	 2.133340000006534e+000	 1.009887132846231e+001
0	 7.333299999983334e+000	 2.200010000009550e+000	 1.010115756697979e+001
0	 7.333299999983333e+000	 2.266680000012267e+000	 1.010338624383079e+001
0	 7.333299999983335e+000	 2.333350000014584e+000	 1.010555914887843e+001
0	 7.333299999983335e+000	 2.400020000016401e+000	 1.010767807198579e+001
0	 7.333299999983333e+000	 2.466690000017616e+000	 1.010974480301601e+001
0	 7.333299999983334e+000	 2.533360000018134e+000	 1.011176113183217e+001
0	 7.333299999983335e+000	 2.600030000017851e+000	 1.011372884829740e+001
0	 7.333299999983335e+000	 2.666700000016666e+000	 1.011564974227479e+001
0	 6.666700000016667e+000	 2.666700000016667e+000	 1.020262750284986e+001
0	 6.666700000016668e+000	 2.733360000014533e+000	 1.020405778410587e+001
0	 6.666700000016665e+000	 2.800020000011599e+000	 1.020537054579143e+001
0	 6.666700000016666e+000	 2.866680000008067e+000	 1.020656458324526e+001
0	 6.666700000016667e+000	 2.933340000004133e+000	 1.020763869180606e+001
0	 6.666700000016666e+000	 3.000000000000000e+000	 1.020859166681261e+001
0	 6.666700000016667e+000	 3.066659999995868e+000	 1.020942230360357e+001
0	 6.666700000016665e+000	 3.133319999991933e+000	 1.021012939751773e+001
0	 6.666700000016665e+000	 3.199979999988401e+000	 1.021071174389382e+001
0	 6.666700000016668e+000	 3.266639999985468e+000	 1.021116813807058e+001
0	 6.666700000016665e+000	 3.333299999983333e+000	 1.021149737538675e+001
0	 6.733360000014533e+000	 2.666700000016666e+000	 1.019353542764605e+001
0	 6.733360000014532e+000	 2.733360000014533e+000	 1.019496974438923e+001
0	 6.733360000014534e+000	 2.800020000011600e+000	 1.019628731447659e+001
0	 6.733360000014534e+000	 2.866680000008067e+000	 1.019748957587654e+001
0	 6.733360000014532e+000	 2.933340000004133e+000	 1.019857796655759e+001
0	 6.733360000014532e+000	 3.000000000000000e+000	 1.019955392448814e+001
0	 6.733360000014531e+000	 3.066659999995867e+000	 1.020041888763669e+001
0	 6.733360000014533e+000	 3.133319999991935e+000	 1.020117429397169e+001
0	 6.733360000014533e+000	 3.199979999988400e+000	 1.020182158146160e+001
0	 6.733360000014532e+000	 3.266639999985468e+000	 1.020236218807492e+001
0	 6.733360000014533e+000	 3.333299999983333e+000	 1.020279755178010e+001
0	 6.800020000011599e+000	 2.666700000016666e+000	 1.018457619813492e+001
0	 6.800020000011598e+000	 2.733360000014533e+000	 1.018603193943089e+001
0	 6.800020000011598e+000	 2.800020000011599e+000	 1.018736915613717e+001
0	 6.800020000011601e+000	 2.866680000008066e+000	 1.018859148978564e+001
0	 6.800020000011600e+000	 2.933340000004135e+000	 1.018970258190820e+001
0	 6.800020000011600e+000	 3.000000000000000e+000	 1.019070607403674e+001
0	 6.800020000011600e+000	 3.066659999995867e+000	 1.019160560770318e+001
0	 6.800020000011600e+000	 3.133319999991933e+000	 1.019240482443943e+001
0	 6.800020000011600e+000	 3.199979999988401e+000	 1.019310736577740e+001
0	 6.800020000011597e+000	 3.266639999985466e+000	 1.019371687324900e+001
0	 6.800020000011600e+000	 3.333299999983334e+000	 1.019423698838617e+001
0	 6.866680000008067e+000	 2.666700000016666e+000	 1.017573285544389e+001
0	 6.866680000008068e+000	 2.733360000014533e+000	 1.017722391161925e+001
0	 6.866680000008068e+000	 2.800020000011600e+000	 1.017859294127690e+001
0	 6.866680000008065e+000	 2.866680000008066e+000	 1.017984535044587e+001
0	 6.866680000008068e+000	 2.933340000004134e+000	 1.018098654515523e+001
0	 6.866680000008066e+000	 3.000000000000000e+000	 1.018202193143405e+001
0	 6.866680000008067e+000	 3.066659999995867e+000	 1.018295691531140e+001
0	 6.866680000008068e+000	 3.133319999991934e+000	 1.018379690281632e+001
0	 6.866680000008067e+000	 3.199979999988401e+000	 1.018454729997793e+001
0	 6.866680000008069e+000	 3.266639999985468e+000	 1.018521351282529e+001
0	 6.866680000008067e+000	 3.333299999983333e+000	 1.018580094738748e+001
0	 6.933340000004134e+000	 2.666700000016666e+000	 1.016698844070040e+001
0	 6.933340000004135e+000	 2.733360000014533e+000	 1.016852520334271e+001
0	 6.933340000004135e+000	 2.800020000011600e+000	 1.016993554039947e+001
0	 6.933340000004134e+000	 2.866680000008067e+000	 1.017122618333060e+001
0	 6.933340000004133e+000	 2.933340000004133e+000	 1.017240386359605e+001
0	 6.933340000004134e+000	 3.000000000000000e+000	 1.017347531265577e+001
0	 6.933340000004135e+000	 3.066659999995867e+000	 1.017444726196969e+001
0	 6.933340000004134e+000	 3.133319999991934e+000	 1.017532644299777e+001
0	 6.933340000004135e+000	 3.199979999988400e+000	 1.017611958719996e+001
0	 6.933340000004135e+000	 3.266639999985468e+000	 1.017683342603623e+001
0	 6.933340000004135e+000	 3.333299999983334e+000	 1.017747469096655e+001
0	 7.000000000000002e+000	 2.666700000016666e+000	 1.015832599503189e+001
0	 7.000000000000003e+000	 2.733360000014534e+000	 1.015991535698967e+001
0	 7.000000000000002e+000	 2.800020000011599e+000	 1.016137382400859e+001
0	 7.000000000000000e+000	 2.866680000008066e+000	 1.016270901391319e+001
0	 7.000000000000002e+000	 2.933340000004133e+000	 1.016392854452801e+001
0	 7.000000000000003e+000	 3.000000000000000e+000	 1.016504003367757e+001
0	 7.000000000000002e+000	 3.066659999995866e+000	 1.016605109918644e+001
0	 7.000000000000001e+000	 3.133319999991934e+000	 1.016696935887915e+001
0	 7.000000000000003e+000	 3.199979999988400e+000	 1.016780243058026e+001
0	 7.000000000000001e+000	 3.266639999985467e+000	 1.016855793211432e+001
0	 7.000000000000003e+000	 3.333299999983334e+000	 1.016924348130591e+001
0	 7.066659999995871e+000	 2.666700000016666e+000	 1.014972855956582e+001
0	 7.066659999995871e+000	 2.733360000014533e+000	 1.015137391494853e+001
0	 7.066659999995870e+000	 2.800020000011600e+000	 1.015288466260798e+001
0	 7.066659999995869e+000	 2.866680000008066e+000	 1.015426886766699e+001
0	 7.066659999995870e+000	 2.933340000004133e+000	 1.015553459524843e+001
0	 7.066659999995869e+000	 3.000000000000000e+000	 1.015668991047516e+001
0	 7.066659999995869e+000	 3.066659999995866e+000	 1.015774287847000e+001
0	 7.066659999995870e+000	 3.133319999991933e+000	 1.015870156435586e+001
0	 7.066659999995870e+000	 3.199979999988400e+000	 1.015957403325557e+001
0	 7.066659999995870e+000	 3.266639999985467e+000	 1.016036835029201e+001
0	 7.066659999995870e+000	 3.333299999983334e+000	 1.016109258058805e+001
0	 7.133319999991937e+000	 2.666700000016667e+000	 1.014117917542962e+001
0	 7.133319999991937e+000	 2.733360000014533e+000	 1.014288041960771e+001
0	 7.133319999991937e+000	 2.800020000011599e+000	 1.014444492670133e+001
0	 7.133319999991936e+000	 2.866680000008067e+000	 1.014588077006536e+001
0	 7.133319999991936e+000	 2.933340000004133e+000	 1.014719602305468e+001
0	 7.133319999991936e+000	 3.000000000000000e+000	 1.014839875902420e+001
0	 7.133319999991937e+000	 3.066659999995867e+000	 1.014949705132875e+001
0	 7.133319999991937e+000	 3.133319999991934e+000	 1.015049897332328e+001
0	 7.133319999991937e+000	 3.199979999988400e+000	 1.015141259836265e+001
0	 7.133319999991935e+000	 3.266639999985468e+000	 1.015224599980177e+001
0	 7.133319999991937e+000	 3.333299999983333e+000	 1.015300725099553e+001
0	 7.199979999988404e+000	 2.666700000016666e+000	 1.013266088375076e+001
0	 7.199979999988404e+000	 2.733360000014533e+000	 1.013441441335561e+001
0	 7.199979999988403e+000	 2.800020000011599e+000	 1.013603148679238e+001
0	 7.199979999988404e+000	 2.866680000008067e+000	 1.013751974658168e+001
0	 7.199979999988402e+000	 2.933340000004133e+000	 1.013888683524414e+001
0	 7.199979999988404e+000	 3.000000000000000e+000	 1.014014039530039e+001
0	 7.199979999988406e+000	 3.066659999995867e+000	 1.014128806927108e+001
0	 7.199979999988406e+000	 3.133319999991933e+000	 1.014233749967681e+001
0	 7.199979999988405e+000	 3.199979999988401e+000	 1.014329632903826e+001
0	 7.199979999988403e+000	 3.266639999985467e+000	 1.014417219987606e+001
0	 7.199979999988403e+000	 3.333299999983333e+000	 1.014497275471087e+001
0	 7.266639999985470e+000	 2.666700000016666e+000	 1.012415672565666e+001
0	 7.266639999985471e+000	 2.733360000014533e+000	 1.012595543858065e+001
0	 7.266639999985471e+000	 2.800020000011600e+000	 1.012762121338483e+001
0	 7.266639999985470e+000	 2.866680000008067e+000	 1.012916082268930e+001
0	 7.266639999985473e+000	 2.933340000004134e+000	 1.013058103911413e+001
0	 7.266639999985472e+000	 3.000000000000000e+000	 1.013188863527944e+001
0	 7.266639999985471e+000	 3.066659999995866e+000	 1.013309038380531e+001
0	 7.266639999985470e+000	 3.133319999991934e+000	 1.013419305731185e+001
0	 7.266639999985471e+000	 3.199979999988400e+000	 1.013520342841918e+001
0	 7.266639999985470e+000	 3.266639999985468e+000	 1.013612826974738e+001
0	 7.266639999985472e+000	 3.333299999983335e+000	 1.013697435391657e+001
0	 7.333299999983335e+000	 2.666700000016666e+000	 1.011564974227479e+001
0	 7.333299999983334e+000	 2.733360000014533e+000	 1.011748303767124e+001
0	 7.333299999983333e+000	 2.800020000011599e+000	 1.011919097698240e+001
0	 7.333299999983333e+000	 2.866680000008067e+000	 1.012077902386159e+001
0	 7.333299999983334e+000	 2.933340000004133e+000	 1.012225264196203e+001
0	 7.333299999983333e+000	 2.999999999999999e+000	 1.012361729493703e+001
0	 7.333299999983335e+000	 3.066659999995867e+000	 1.012487844643986e+001
0	 7.333299999983335e+000	 3.133319999991934e+000	 1.012604156012380e+001
0	 7.333299999983334e+000	 3.199979999988400e+000	 1.012711209964215e+001
0	 7.333299999983334e+000	 3.266639999985468e+000	 1.012809552864818e+001
0	 7.333299999983335e+000	 3.333299999983335e+000	 1.012899731079519e+001
0	 6.666700000016665e+000	 3.333299999983333e+000	 1.021149737538675e+001
0	 6.666700000016666e+000	 3.399969999982149e+000	 1.021168412451450e+001
0	 6.666700000016666e+000	 3.466639999981866e+000	 1.021171356153609e+001
0	 6.666700000016665e+000	 3.533309999982383e+000	 1.021158536228322e+001
0	 6.666700000016665e+000	 3.599979999983599e+000	 1.021129920258757e+001
0	 6.666700000016665e+000	 3.666649999985415e+000	 1.021085475828082e+001
0	 6.666700000016666e+000	 3.733319999987733e+000	 1.021025170519467e+001
0	 6.666700000016665e+000	 3.799989999990449e+000	 1.020948971916079e+001
0	 6.666700000016668e+000	 3.866659999993467e+000	 1.020856847601086e+001
0	 6.666700000016665e+000	 3.933329999996683e+000	 1.020748765157655e+001
0	 6.666700000016667e+000	 4.000000000000001e+000	 1.020624692168954e+001
0	 6.733360000014533e+000	 3.333299999983333e+000	 1.020279755178010e+001
0	 6.733360000014531e+000	 3.399969999982150e+000	 1.020310243472308e+001
0	 6.733360000014534e+000	 3.466639999981868e+000	 1.020325031132429e+001
0	 6.733360000014531e+000	 3.533309999982382e+000	 1.020324086043087e+001
0	 6.733360000014532e+000	 3.599979999983600e+000	 1.020307376088999e+001
0	 6.733360000014532e+000	 3.666649999985416e+000	 1.020274869154877e+001
0	 6.733360000014533e+000	 3.733319999987733e+000	 1.020226533125441e+001
0	 6.733360000014533e+000	 3.799989999990450e+000	 1.020162335885403e+001
0	 6.733360000014533e+000	 3.866659999993467e+000	 1.020082245319476e+001
0	 6.733360000014529e+000	 3.933329999996683e+000	 1.019986229312377e+001
0	 6.733360000014530e+000	 4.000000000000000e+000	 1.019874255748819e+001
0	 6.800020000011600e+000	 3.333299999983334e+000	 1.019423698838617e+001
0	 6.800020000011599e+000	 3.399969999982150e+000	 1.019463665836629e+001
0	 6.800020000011600e+000	 3.466639999981867e+000	 1.019488205437816e+001
0	 6.800020000011601e+000	 3.533309999982383e+000	 1.019497286847698e+001
0	 6.800020000011600e+000	 3.599979999983600e+000	 1.019490879271794e+001
0	 6.800020000011599e+000	 3.666649999985417e+000	 1.019468951915624e+001
0	 6.800020000011599e+000	 3.733319999987733e+000	 1.019431473984710e+001
0	 6.800020000011601e+000	 3.799989999990451e+000	 1.019378414684568e+001
0	 6.800020000011601e+000	 3.866659999993467e+000	 1.019309743220721e+001
0	 6.800020000011601e+000	 3.933329999996684e+000	 1.019225428798684e+001
0	 6.800020000011598e+000	 4.000000000000000e+000	 1.019125440623979e+001
0	 6.866680000008067e+000	 3.333299999983333e+000	 1.018580094738748e+001
0	 6.866680000008066e+000	 3.399969999982150e+000	 1.018627618177895e+001
0	 6.866680000008067e+000	 3.466639999981866e+000	 1.018660183542791e+001
0	 6.866680000008064e+000	 3.533309999982382e+000	 1.018677762379018e+001
0	 6.866680000008065e+000	 3.599979999983599e+000	 1.018680326232161e+001
0	 6.866680000008068e+000	 3.666649999985417e+000	 1.018667846647802e+001
0	 6.866680000008068e+000	 3.733319999987733e+000	 1.018640295171523e+001
0	 6.866680000008066e+000	 3.799989999990449e+000	 1.018597643348906e+001
0	 6.866680000008067e+000	 3.866659999993467e+000	 1.018539862725535e+001
0	 6.866680000008067e+000	 3.933329999996684e+000	 1.018466924846989e+001
0	 6.866680000008067e+000	 4.000000000000000e+000	 1.018378801258850e+001
0	 6.933340000004135e+000	 3.333299999983334e+000	 1.017747469096655e+001
0	 6.933340000004134e+000	 3.399969999982150e+000	 1.017801039129584e+001
0	 6.933340000004135e+000	 3.466639999981867e+000	 1.017840269920368e+001
0	 6.933340000004136e+000	 3.533309999982383e+000	 1.017865136373912e+001
0	 6.933340000004135e+000	 3.599979999983600e+000	 1.017875613395118e+001
0	 6.933340000004135e+000	 3.666649999985416e+000	 1.017871675888890e+001
0	 6.933340000004134e+000	 3.733319999987733e+000	 1.017853298760133e+001
0	 6.933340000004134e+000	 3.799989999990449e+000	 1.017820456913747e+001
0	 6.933340000004135e+000	 3.866659999993467e+000	 1.017773125254636e+001
0	 6.933340000004134e+000	 3.933329999996683e+000	 1.017711278687703e+001
0	 6.933340000004133e+000	 4.000000000000000e+000	 1.017634892117848e+001
0	 7.000000000000003e+000	 3.333299999983334e+000	 1.016924348130590e+001
0	 7.000000000000002e+000	 3.399969999982150e+000	 1.016982867325179e+001
0	 7.000000000000001e+000	 3.466639999981866e+000	 1.017027769043569e+001
0	 7.000000000000001e+000	 3.533309999982382e+000	 1.017059032569243e+001
0	 7.000000000000003e+000	 3.599979999983601e+000	 1.017076637185682e+001
0	 7.000000000000000e+000	 3.666649999985416e+000	 1.017080562176370e+001
0	 7.000000000000001e+000	 3.733319999987733e+000	 1.017070786824788e+001
0	 7.000000000000001e+000	 3.799989999990450e+000	 1.017047290414418e+001
0	 7.000000000000002e+000	 3.866659999993466e+000	 1.017010052228741e+001
0	 7.000000000000003e+000	 3.933329999996684e+000	 1.016959051551238e+001
0	 7.000000000000001e+000	 4.000000000000000e+000	 1.016894267665393e+001
0	 7.066659999995870e+000	 3.333299999983334e+000	 1.016109258058805e+001
0	 7.066659999995869e+000	 3.399969999982150e+000	 1.016172041398161e+001
0	 7.066659999995869e+000	 3.466639999981866e+000	 1.016221985385410e+001
0	 7.066659999995870e+000	 3.533309999982383e+000	 1.016259074701874e+001
0	 7.066659999995867e+000	 3.599979999983599e+000	 1.016283294028871e+001
0	 7.066659999995870e+000	 3.666649999985417e+000	 1.016294628047721e+001
0	 7.066659999995868e+000	 3.733319999987732e+000	 1.016293061439741e+001
0	 7.066659999995868e+000	 3.799989999990450e+000	 1.016278578886250e+001
0	 7.066659999995869e+000	 3.866659999993466e+000	 1.016251165068567e+001
0	 7.066659999995870e+000	 3.933329999996685e+000	 1.016210804668010e+001
0	 7.066659999995869e+000	 4.000000000000000e+000	 1.016157482365896e+001
0	 7.133319999991937e+000	 3.333299999983333e+000	 1.015300725099553e+001
0	 7.133319999991937e+000	 3.399969999982150e+000	 1.015367499982010e+001
0	 7.133319999991937e+000	 3.466639999981867e+000	 1.015422223418912e+001
0	 7.133319999991935e+000	 3.533309999982383e+000	 1.015464886508671e+001
0	 7.133319999991937e+000	 3.599979999983600e+000	 1.015495480349704e+001
0	 7.133319999991936e+000	 3.666649999985417e+000	 1.015513996040422e+001
0	 7.133319999991936e+000	 3.733319999987733e+000	 1.015520424679242e+001
0	 7.133319999991937e+000	 3.799989999990450e+000	 1.015514757364573e+001
0	 7.133319999991937e+000	 3.866659999993467e+000	 1.015496985194832e+001
0	 7.133319999991937e+000	 3.933329999996684e+000	 1.015467099268428e+001
0	 7.133319999991937e+000	 4.000000000000000e+000	 1.015425090683778e+001
0	 7.199979999988403e+000	 3.333299999983333e+000	 1.014497275471087e+001
0	 7.199979999988402e+000	 3.399969999982149e+000	 1.014568181710209e+001
0	 7.199979999988406e+000	 3.466639999981867e+000	 1.014627787617091e+001
0	 7.199979999988402e+000	 3.533309999982383e+000	 1.014676091726497e+001
0	 7.199979999988403e+000	 3.599979999983599e+000	 1.014713092573197e+001
0	 7.199979999988404e+000	 3.666649999985416e+000	 1.014738788691957e+001
0	 7.199979999988404e+000	 3.733319999987733e+000	 1.014753178617541e+001
0	 7.199979999988401e+000	 3.799989999990448e+000	 1.014756260884718e+001
0	 7.199979999988404e+000	 3.866659999993466e+000	 1.014748034028251e+001
0	 7.199979999988405e+000	 3.933329999996684e+000	 1.014728496582908e+001
0	 7.199979999988402e+000	 4.000000000000000e+000	 1.014697647083453e+001
0	 7.266639999985472e+000	 3.333299999983335e+000	 1.013697435391657e+001
0	 7.266639999985469e+000	 3.399969999982150e+000	 1.013773025216239e+001
0	 7.266639999985470e+000	 3.466639999981866e+000	 1.013837982452966e+001
0	 7.266639999985471e+000	 3.533309999982383e+000	 1.013892314092218e+001
0	 7.266639999985471e+000	 3.599979999983601e+000	 1.013936027124372e+001
0	 7.266639999985471e+000	 3.666649999985415e+000	 1.013969128539803e+001
0	 7.266639999985471e+000	 3.733319999987733e+000	 1.013991625328892e+001
0	 7.266639999985472e+000	 3.799989999990451e+000	 1.014003524482012e+001
0	 7.266639999985470e+000	 3.866659999993466e+000	 1.014004832989543e+001
0	 7.266639999985471e+000	 3.933329999996683e+000	 1.013995557841860e+001
0	 7.266639999985472e+000	 4.000000000000001e+000	 1.013975706029341e+001
0	 7.333299999983335e+000	 3.333299999983335e+000	 1.012899731079519e+001
0	 7.333299999983333e+000	 3.399969999982149e+000	 1.012980969133581e+001
0	 7.333299999983333e+000	 3.466639999981866e+000	 1.013052112399559e+001
0	 7.333299999983333e+000	 3.533309999982382e+000	 1.013113177342697e+001
0	 7.333299999983335e+000	 3.599979999983599e+000	 1.013164180428243e+001
0	 7.333299999983335e+000	 3.666649999985416e+000	 1.013205138121444e+001
0	 7.333299999983335e+000	 3.733319999987733e+000	 1.013236066887544e+001
0	 7.333299999983334e+000	 3.799989999990450e+000	 1.013256983191789e+001
0	 7.333299999983336e+000	 3.866659999993467e+000	 1.013267903499425e+001
0	 7.333299999983332e+000	 3.933329999996682e+000	 1.013268844275699e+001
0	 7.333299999983335e+000	 4.000000000000001e+000	 1.013259821985855e+001
0	 6.666700000016667e+000	 4.000000000000001e+000	 1.020624692168954e+001
0	 6.666700000016666e+000	 4.066670000003316e+000	 1.020487883852418e+001
0	 6.666700000016667e+000	 4.133340000006536e+000	 1.020341454820727e+001
0	 6.666700000016667e+000	 4.200010000009551e+000	 1.020185161749907e+001
0	 6.666700000016667e+000	 4.266680000012268e+000	 1.020018761315991e+001
0	 6.666700000016665e+000	 4.333350000014583e+000	 1.019842010195001e+001
0	 6.666700000016665e+000	 4.400020000016400e+000	 1.019654665062970e+001
0	 6.666700000016667e+000	 4.466690000017618e+000	 1.019456482595923e+001
0	 6.666700000016667e+000	 4.533360000018134e+000	 1.019247219469888e+001
0	 6.666700000016666e+000	 4.600030000017851e+000	 1.019026632360892e+001
0	 6.666700000016667e+000	 4.666700000016667e+000	 1.018794477944962e+001
0	 6.733360000014530e+000	 4.000000000000000e+000	 1.019874255748819e+001
0	 6.733360000014534e+000	 4.066670000003317e+000	 1.019749810060187e+001
0	 6.733360000014532e+000	 4.133340000006534e+000	 1.019616207484101e+001
0	 6.733360000014532e+000	 4.200010000009551e+000	 1.019473160614627e+001
0	 6.733360000014534e+000	 4.266680000012269e+000	 1.019320382045833e+001
0	 6.733360000014532e+000	 4.333350000014584e+000	 1.019157584371785e+001
0	 6.733360000014534e+000	 4.400020000016402e+000	 1.018984480186545e+001
0	 6.733360000014533e+000	 4.466690000017618e+000	 1.018800782084184e+001
0	 6.733360000014533e+000	 4.533360000018133e+000	 1.018606202658762e+001
0	 6.733360000014532e+000	 4.600030000017851e+000	 1.018400454504348e+001
0	 6.733360000014534e+000	 4.666700000016666e+000	 1.018183250215004e+001
0	 6.800020000011598e+000	 4.000000000000000e+000	 1.019125440623979e+001
0	 6.800020000011600e+000	 4.066670000003316e+000	 1.019013332468224e+001
0	 6.800020000011599e+000	 4.133340000006532e+000	 1.018892464453494e+001
0	 6.800020000011601e+000	 4.200010000009550e+000	 1.018762515310980e+001
0	 6.800020000011601e+000	 4.266680000012267e+000	 1.018623163771879e+001
0	 6.800020000011600e+000	 4.333350000014584e+000	 1.018474088567386e+001
0	 6.800020000011601e+000	 4.400020000016401e+000	 1.018314968428694e+001
0	 6.800020000011601e+000	 4.466690000017618e+000	 1.018145482086998e+001
0	 6.800020000011600e+000	 4.533360000018133e+000	 1.017965308273491e+001
0	 6.800020000011598e+000	 4.600030000017850e+000	 1.017774125719367e+001
0	 6.800020000011601e+000	 4.666700000016666e+000	 1.017571613155821e+001
0	 6.866680000008067e+000	 4.000000000000000e+000	 1.018378801258850e+001
0	 6.866680000008068e+000	 4.066670000003318e+000	 1.018278976411369e+001
0	 6.866680000008065e+000	 4.133340000006533e+000	 1.018170723782682e+001
0	 6.866680000008065e+000	 4.200010000009550e+000	 1.018053698460206e+001
0	 6.866680000008067e+000	 4.266680000012268e+000	 1.017927555531353e+001
0	 6.866680000008066e+000	 4.333350000014585e+000	 1.017791950083538e+001
0	 6.866680000008067e+000	 4.400020000016401e+000	 1.017646537204174e+001
0	 6.866680000008065e+000	 4.466690000017615e+000	 1.017490971980676e+001
0	 6.866680000008066e+000	 4.533360000018134e+000	 1.017324909500457e+001
0	 6.866680000008069e+000	 4.600030000017852e+000	 1.017148004850930e+001
0	 6.866680000008066e+000	 4.666700000016666e+000	 1.016959913119507e+001
0	 6.933340000004133e+000	 4.000000000000000e+000	 1.017634892117849e+001
0	 6.933340000004135e+000	 4.066670000003316e+000	 1.017547267224454e+001
0	 6.933340000004135e+000	 4.133340000006534e+000	 1.017451483525444e+001
0	 6.933340000004133e+000	 4.200010000009550e+000	 1.017347182683544e+001
0	 6.933340000004136e+000	 4.266680000012268e+000	 1.017234006361478e+001
0	 6.933340000004135e+000	 4.333350000014584e+000	 1.017111596221971e+001
0	 6.933340000004136e+000	 4.400020000016401e+000	 1.016979593927748e+001
0	 6.933340000004135e+000	 4.466690000017618e+000	 1.016837641141530e+001
0	 6.933340000004135e+000	 4.533360000018134e+000	 1.016685379526045e+001
0	 6.933340000004133e+000	 4.600030000017850e+000	 1.016522450744013e+001
0	 6.933340000004136e+000	 4.666700000016667e+000	 1.016348496458159e+001
0	 7.000000000000001e+000	 4.000000000000000e+000	 1.016894267665393e+001
0	 7.000000000000003e+000	 4.066670000003317e+000	 1.016818730242316e+001
0	 7.000000000000000e+000	 4.133340000006533e+000	 1.016735241735555e+001
0	 7.000000000000001e+000	 4.200010000009551e+000	 1.016643440602234e+001
0	 7.000000000000002e+000	 4.266680000012267e+000	 1.016542965299480e+001
0	 7.000000000000001e+000	 4.333350000014583e+000	 1.016433454284418e+001
0	 7.000000000000004e+000	 4.400020000016402e+000	 1.016314546014173e+001
0	 7.000000000000003e+000	 4.466690000017617e+000	 1.016185878945871e+001
0	 7.000000000000001e+000	 4.533360000018133e+000	 1.016047091536637e+001
0	 7.000000000000001e+000	 4.600030000017851e+000	 1.015897822243595e+001
0	 7.000000000000001e+000	 4.666700000016665e+000	 1.015737709523869e+001
0	 7.066659999995869e+000	 4.000000000000000e+000	 1.016157482365896e+001
0	 7.066659999995870e+000	 4.066670000003318e+000	 1.016093890799791e+001
0	 7.066659999995870e+000	 4.133340000006536e+000	 1.016022496466790e+001
0	 7.066659999995870e+000	 4.200010000009551e+000	 1.015942944837516e+001
0	 7.066659999995870e+000	 4.266680000012267e+000	 1.015854881382582e+001
0	 7.066659999995870e+000	 4.333350000014582e+000	 1.015757951572608e+001
0	 7.066659999995871e+000	 4.400020000016401e+000	 1.015651800878212e+001
0	 7.066659999995868e+000	 4.466690000017617e+000	 1.015536074770008e+001
0	 7.066659999995869e+000	 4.533360000018133e+000	 1.015410418718616e+001
0	 7.066659999995869e+000	 4.600030000017850e+000	 1.015274478194654e+001
0	 7.066659999995868e+000	 4.666700000016665e+000	 1.015127898668734e+001
0	 7.133319999991937e+000	 4.000000000000000e+000	 1.015425090683778e+001
0	 7.133319999991937e+000	 4.066670000003317e+000	 1.015373274231714e+001
0	 7.133319999991935e+000	 4.133340000006533e+000	 1.015313745772930e+001
0	 7.133319999991937e+000	 4.200010000009550e+000	 1.015246168010629e+001
0	 7.133319999991936e+000	 4.266680000012267e+000	 1.015170203648011e+001
0	 7.133319999991936e+000	 4.333350000014584e+000	 1.015085515388275e+001
0	 7.133319999991937e+000	 4.400020000016400e+000	 1.014991765934623e+001
0	 7.133319999991937e+000	 4.466690000017618e+000	 1.014888617990254e+001
0	 7.133319999991936e+000	 4.533360000018132e+000	 1.014775734258369e+001
0	 7.133319999991937e+000	 4.600030000017851e+000	 1.014652777442167e+001
0	 7.133319999991937e+000	 4.666700000016667e+000	 1.014519410244848e+001
0	 7.199979999988402e+000	 4.000000000000000e+000	 1.014697647083453e+001
0	 7.199979999988405e+000	 4.066670000003319e+000	 1.014657405872922e+001
0	 7.199979999988404e+000	 4.133340000006535e+000	 1.014609487707748e+001
0	 7.199979999988403e+000	 4.200010000009551e+000	 1.014553582742814e+001
0	 7.199979999988405e+000	 4.266680000012268e+000	 1.014489381132989e+001
0	 7.199979999988403e+000	 4.333350000014583e+000	 1.014416573033149e+001
0	 7.199979999988403e+000	 4.400020000016400e+000	 1.014334848598167e+001
0	 7.199979999988401e+000	 4.466690000017618e+000	 1.014243897982919e+001
0	 7.199979999988402e+000	 4.533360000018133e+000	 1.014143411342277e+001
0	 7.199979999988404e+000	 4.600030000017850e+000	 1.014033078831115e+001
0	 7.199979999988404e+000	 4.666700000016666e+000	 1.013912590604307e+001
0	 7.266639999985472e+000	 4.000000000000001e+000	 1.013975706029341e+001
0	 7.266639999985472e+000	 4.066670000003318e+000	 1.013946811058248e+001
0	 7.266639999985469e+000	 4.133340000006534e+000	 1.013910220325026e+001
0	 7.266639999985470e+000	 4.200010000009550e+000	 1.013865661655311e+001
0	 7.266639999985470e+000	 4.266680000012267e+000	 1.013812862874744e+001
0	 7.266639999985471e+000	 4.333350000014583e+000	 1.013751551808963e+001
0	 7.266639999985472e+000	 4.400020000016402e+000	 1.013681456283608e+001
0	 7.266639999985471e+000	 4.466690000017617e+000	 1.013602304124315e+001
0	 7.266639999985470e+000	 4.533360000018134e+000	 1.013513823156725e+001
0	 7.266639999985471e+000	 4.600030000017850e+000	 1.013415741206475e+001
0	 7.266639999985471e+000	 4.666700000016665e+000	 1.013307786099204e+001
0	 7.333299999983335e+000	 4.000000000000001e+000	 1.013259821985855e+001
0	 7.333299999983335e+000	 4.066670000003317e+000	 1.013242015122533e+001
0	 7.333299999983334e+000	 4.133340000006534e+000	 1.013216441678535e+001
0	 7.333299999983335e+000	 4.200010000009550e+000	 1.013182877369360e+001
0	 7.333299999983333e+000	 4.266680000012268e+000	 1.013141097910500e+001
0	 7.333299999983333e+000	 4.333350000014583e+000	 1.013090879017449e+001
0	 7.333299999983334e+000	 4.400020000016402e+000	 1.013031996405702e+001
0	 7.333299999983334e+000	 4.466690000017617e+000	 1.012964225790754e+001
0	 7.333299999983334e+000	 4.533360000018134e+000	 1.012887342888098e+001
0	 7.333299999983334e+000	 4.600030000017849e+000	 1.012801123413226e+001
0	 7.333299999983333e+000	 4.666700000016665e+000	 1.012705343081636e+001
0	 6.666700000016667e+000	 4.666700000016667e+000	 1.018794477944963e+001
0	 6.666700000016668e+000	 4.733360000014534e+000	 1.018554739491432e+001
0	 6.666700000016665e+000	 4.800020000011600e+000	 1.018311181726488e+001
0	 6.666700000016667e+000	 4.866680000008067e+000	 1.018063340614706e+001
0	 6.666700000016669e+000	 4.933340000004135e+000	 1.017810752120668e+001
0	 6.666700000016666e+000	 5.000000000000001e+000	 1.017552952208953e+001
0	 6.666700000016667e+000	 5.066659999995867e+000	 1.017289476844138e+001
0	 6.666700000016666e+000	 5.133319999991935e+000	 1.017019861990809e+001
0	 6.666700000016666e+000	 5.199979999988400e+000	 1.016743643613542e+001
0	 6.666700000016665e+000	 5.266639999985468e+000	 1.016460357676919e+001
0	 6.666700000016665e+000	 5.333299999983334e+000	 1.016169540145521e+001
0	 6.733360000014534e+000	 4.666700000016666e+000	 1.018183250215004e+001
0	 6.733360000014531e+000	 4.733360000014534e+000	 1.017958303713325e+001
0	 6.733360000014534e+000	 4.800020000011601e+000	 1.017729188183957e+001
0	 6.733360000014533e+000	 4.866680000008067e+000	 1.017495505471690e+001
0	 6.733360000014532e+000	 4.933340000004134e+000	 1.017256857421316e+001
0	 6.733360000014532e+000	 5.000000000000000e+000	 1.017012845877631e+001
0	 6.733360000014532e+000	 5.066659999995868e+000	 1.016763072685426e+001
0	 6.733360000014533e+000	 5.133319999991935e+000	 1.016507139689495e+001
0	 6.733360000014534e+000	 5.199979999988400e+000	 1.016244648734631e+001
0	 6.733360000014534e+000	 5.266639999985468e+000	 1.015975201665628e+001
0	 6.733360000014532e+000	 5.333299999983334e+000	 1.015698400327282e+001
0	 6.800020000011601e+000	 4.666700000016666e+000	 1.017571613155821e+001
0	 6.800020000011600e+000	 4.733360000014534e+000	 1.017361222361368e+001
0	 6.800020000011599e+000	 4.800020000011600e+000	 1.017146329608922e+001
0	 6.800020000011601e+000	 4.866680000008067e+000	 1.016926594094679e+001
0	 6.800020000011601e+000	 4.933340000004133e+000	 1.016701675014837e+001
0	 6.800020000011601e+000	 5.000000000000001e+000	 1.016471231565591e+001
0	 6.800020000011600e+000	 5.066659999995867e+000	 1.016234922943139e+001
0	 6.800020000011602e+000	 5.133319999991935e+000	 1.015992408343678e+001
0	 6.800020000011599e+000	 5.199979999988400e+000	 1.015743346963406e+001
0	 6.800020000011597e+000	 5.266639999985467e+000	 1.015487397998521e+001
0	 6.800020000011599e+000	 5.333299999983335e+000	 1.015224220645220e+001
0	 6.866680000008066e+000	 4.666700000016666e+000	 1.016959913119507e+001
0	 6.866680000008068e+000	 4.733360000014534e+000	 1.016763833388494e+001
0	 6.866680000008068e+000	 4.800020000011600e+000	 1.016562941890611e+001
0	 6.866680000008068e+000	 4.866680000008068e+000	 1.016356946644651e+001
0	 6.866680000008067e+000	 4.933340000004132e+000	 1.016145555669406e+001
0	 6.866680000008067e+000	 4.999999999999999e+000	 1.015928476983663e+001
0	 6.866680000008067e+000	 5.066659999995867e+000	 1.015705418606219e+001
0	 6.866680000008066e+000	 5.133319999991933e+000	 1.015476088555862e+001
0	 6.866680000008066e+000	 5.199979999988400e+000	 1.015240194851386e+001
0	 6.866680000008068e+000	 5.266639999985467e+000	 1.014997445511582e+001
0	 6.866680000008065e+000	 5.333299999983332e+000	 1.014747548555243e+001
0	 6.933340000004136e+000	 4.666700000016667e+000	 1.016348496458159e+001
0	 6.933340000004135e+000	 4.733360000014534e+000	 1.016166474747637e+001
0	 6.933340000004135e+000	 4.800020000011599e+000	 1.015979360918251e+001
0	 6.933340000004135e+000	 4.866680000008066e+000	 1.015786903282579e+001
0	 6.933340000004132e+000	 4.933340000004131e+000	 1.015588850153196e+001
0	 6.933340000004133e+000	 4.999999999999999e+000	 1.015384949842678e+001
0	 6.933340000004135e+000	 5.066659999995867e+000	 1.015174950663602e+001
0	 6.933340000004135e+000	 5.133319999991935e+000	 1.014958600928545e+001
0	 6.933340000004136e+000	 5.199979999988400e+000	 1.014735648950084e+001
0	 6.933340000004133e+000	 5.266639999985467e+000	 1.014505843040798e+001
0	 6.933340000004134e+000	 5.333299999983333e+000	 1.014268931513263e+001
0	 7.000000000000001e+000	 4.666700000016665e+000	 1.015737709523870e+001
0	 7.000000000000002e+000	 4.733360000014534e+000	 1.015569484391733e+001
0	 7.000000000000002e+000	 4.800020000011600e+000	 1.015395922581071e+001
0	 7.000000000000000e+000	 4.866680000008066e+000	 1.015216804169438e+001
0	 7.000000000000001e+000	 4.933340000004132e+000	 1.015031909234385e+001
0	 7.000000000000002e+000	 4.999999999999999e+000	 1.014841017853464e+001
0	 7.000000000000002e+000	 5.066659999995867e+000	 1.014643910104228e+001
0	 7.000000000000002e+000	 5.133319999991934e+000	 1.014440366064229e+001
0	 7.000000000000003e+000	 5.199979999988400e+000	 1.014230165811020e+001
0	 7.000000000000001e+000	 5.266639999985467e+000	 1.014013089422156e+001
0	 7.000000000000002e+000	 5.333299999983335e+000	 1.013788916975188e+001
0	 7.066659999995868e+000	 4.666700000016665e+000	 1.015127898668734e+001
0	 7.066659999995870e+000	 4.733360000014534e+000	 1.014973200273713e+001
0	 7.066659999995871e+000	 4.800020000011601e+000	 1.014812962768296e+001
0	 7.066659999995870e+000	 4.866680000008066e+000	 1.014646989466202e+001
0	 7.066659999995871e+000	 4.933340000004133e+000	 1.014475083681148e+001
0	 7.066659999995870e+000	 5.000000000000000e+000	 1.014297048726853e+001
0	 7.066659999995869e+000	 5.066659999995866e+000	 1.014112687917035e+001
0	 7.066659999995869e+000	 5.133319999991935e+000	 1.013921804565414e+001
0	 7.066659999995871e+000	 5.199979999988401e+000	 1.013724201985709e+001
0	 7.066659999995870e+000	 5.266639999985467e+000	 1.013519683491641e+001
0	 7.066659999995871e+000	 5.333299999983334e+000	 1.013308052396928e+001
0	 7.133319999991937e+000	 4.666700000016667e+000	 1.014519410244848e+001
0	 7.133319999991937e+000	 4.733360000014534e+000	 1.014377960346516e+001
0	 7.133319999991937e+000	 4.800020000011600e+000	 1.014230817369158e+001
0	 7.133319999991936e+000	 4.866680000008067e+000	 1.014077799333847e+001
0	 7.133319999991937e+000	 4.933340000004133e+000	 1.013918724261661e+001
0	 7.133319999991937e+000	 4.999999999999999e+000	 1.013753410173674e+001
0	 7.133319999991937e+000	 5.066659999995867e+000	 1.013581675090963e+001
0	 7.133319999991937e+000	 5.133319999991935e+000	 1.013403337034603e+001
0	 7.133319999991937e+000	 5.199979999988400e+000	 1.013218214025669e+001
0	 7.133319999991937e+000	 5.266639999985468e+000	 1.013026124085241e+001
0	 7.133319999991937e+000	 5.333299999983334e+000	 1.012826885234392e+001
0	 7.199979999988404e+000	 4.666700000016666e+000	 1.013912590604307e+001
0	 7.199979999988404e+000	 4.733360000014532e+000	 1.013784102563073e+001
0	 7.199979999988403e+000	 4.800020000011600e+000	 1.013649822272879e+001
0	 7.199979999988404e+000	 4.866680000008066e+000	 1.013509573933348e+001
0	 7.199979999988403e+000	 4.933340000004133e+000	 1.013363181744100e+001
0	 7.199979999988403e+000	 4.999999999999999e+000	 1.013210469904759e+001
0	 7.199979999988406e+000	 5.066659999995866e+000	 1.013051262614949e+001
0	 7.199979999988405e+000	 5.133319999991934e+000	 1.012885384074294e+001
0	 7.199979999988405e+000	 5.199979999988401e+000	 1.012712658482417e+001
0	 7.199979999988403e+000	 5.266639999985467e+000	 1.012532910038940e+001
0	 7.199979999988404e+000	 5.333299999983335e+000	 1.012345962943490e+001
0	 7.266639999985471e+000	 4.666700000016665e+000	 1.013307786099204e+001
0	 7.266639999985471e+000	 4.733360000014534e+000	 1.013191964876321e+001
0	 7.266639999985471e+000	 4.800020000011601e+000	 1.013070313368693e+001
0	 7.266639999985471e+000	 4.866680000008067e+000	 1.012942653425680e+001
0	 7.266639999985473e+000	 4.933340000004134e+000	 1.012808806896640e+001
0	 7.266639999985472e+000	 5.000000000000000e+000	 1.012668595630938e+001
0	 7.266639999985472e+000	 5.066659999995866e+000	 1.012521841477934e+001
0	 7.266639999985470e+000	 5.133319999991934e+000	 1.012368366286989e+001
0	 7.266639999985471e+000	 5.199979999988400e+000	 1.012207991907466e+001
0	 7.266639999985471e+000	 5.266639999985467e+000	 1.012040540188727e+001
0	 7.266639999985469e+000	 5.333299999983333e+000	 1.011865832980133e+001
0	 7.333299999983333e+000	 4.666700000016665e+000	 1.012705343081636e+001
0	 7.333299999983334e+000	 4.733360000014534e+000	 1.012601885239193e+001
0	 7.333299999983334e+000	 4.800020000011600e+000	 1.012492626545823e+001
0	 7.333299999983334e+000	 4.866680000008068e+000	 1.012377377971816e+001
0	 7.333299999983335e+000	 4.933340000004134e+000	 1.012255950487459e+001
0	 7.333299999983335e+000	 4.999999999999999e+000	 1.012128155063041e+001
0	 7.333299999983336e+000	 5.066659999995867e+000	 1.011993802668856e+001
0	 7.333299999983335e+000	 5.133319999991935e+000	 1.011852704275190e+001
0	 7.333299999983335e+000	 5.199979999988400e+000	 1.011704670852337e+001
0	 7.333299999983333e+000	 5.266639999985469e+000	 1.011549513370587e+001
0	 7.333299999983334e+000	 5.333299999983333e+000	 1.011387042800230e+001
0	 6.666700000016665e+000	 5.333299999983334e+000	 1.016169540145520e+001
0	 6.666700000016668e+000	 5.399969999982151e+000	 1.015874277998158e+001
0	 6.666700000016667e+000	 5.466639999981866e+000	 1.015577840870548e+001
0	 6.666700000016667e+000	 5.533309999982384e+000	 1.015279906067273e+001
0	 6.666700000016667e+000	 5.599979999983600e+000	 1.014980150892914e+001
0	 6.666700000016665e+000	 5.666649999985416e+000	 1.014678252652047e+001
0	 6.666700000016665e+000	 5.733319999987732e+000	 1.014373888649251e+001
0	 6.666700000016665e+000	 5.799989999990448e+000	 1.014066736189107e+001
0	 6.666700000016665e+000	 5.866659999993468e+000	 1.013756472576193e+001
0	 6.666700000016665e+000	 5.933329999996682e+000	 1.013442775115089e+001
0	 6.666700000016668e+000	 6.000000000000002e+000	 1.013125321110372e+001
0	 6.733360000014532e+000	 5.333299999983334e+000	 1.015698400327282e+001
0	 6.733360000014532e+000	 5.399969999982151e+000	 1.015417167698060e+001
0	 6.733360000014532e+000	 5.466639999981866e+000	 1.015134554987193e+001
0	 6.733360000014530e+000	 5.533309999982382e+000	 1.014850230097949e+001
0	 6.733360000014530e+000	 5.599979999983599e+000	 1.014563860933599e+001
0	 6.733360000014532e+000	 5.666649999985415e+000	 1.014275115397412e+001
0	 6.733360000014531e+000	 5.733319999987733e+000	 1.013983661392659e+001
0	 6.733360000014533e+000	 5.799989999990450e+000	 1.013689166822607e+001
0	 6.733360000014533e+000	 5.866659999993468e+000	 1.013391299590528e+001
0	 6.733360000014532e+000	 5.933329999996683e+000	 1.013089727599690e+001
0	 6.733360000014532e+000	 6.000000000000000e+000	 1.012784118753362e+001
0	 6.800020000011599e+000	 5.333299999983335e+000	 1.015224220645220e+001
0	 6.800020000011599e+000	 5.399969999982150e+000	 1.014956612428677e+001
0	 6.800020000011599e+000	 5.466639999981864e+000	 1.014687452647819e+001
0	 6.800020000011601e+000	 5.533309999982385e+000	 1.014416403040137e+001
0	 6.800020000011601e+000	 5.599979999983599e+000	 1.014143125343128e+001
0	 6.800020000011599e+000	 5.666649999985417e+000	 1.013867281294285e+001
0	 6.800020000011601e+000	 5.733319999987733e+000	 1.013588532631103e+001
0	 6.800020000011600e+000	 5.799989999990451e+000	 1.013306541091075e+001
0	 6.800020000011601e+000	 5.866659999993466e+000	 1.013020968411696e+001
0	 6.800020000011601e+000	 5.933329999996684e+000	 1.012731476330461e+001
0	 6.800020000011599e+000	 6.000000000000000e+000	 1.012437726584863e+001
0	 6.866680000008065e+000	 5.333299999983332e+000	 1.014747548555243e+001
0	 6.866680000008067e+000	 5.399969999982150e+000	 1.014493207760021e+001
0	 6.866680000008067e+000	 5.466639999981866e+000	 1.014237170173905e+001
0	 6.866680000008065e+000	 5.533309999982381e+000	 1.013979094604150e+001
0	 6.866680000008065e+000	 5.599979999983598e+000	 1.013718639858008e+001
0	 6.866680000008067e+000	 5.666649999985416e+000	 1.013455464742736e+001
0	 6.866680000008067e+000	 5.733319999987732e+000	 1.013189228065582e+001
0	 6.866680000008067e+000	 5.799989999990450e+000	 1.012919588633804e+001
0	 6.866680000008065e+000	 5.866659999993467e+000	 1.012646205254653e+001
0	 6.866680000008066e+000	 5.933329999996683e+000	 1.012368736735384e+001
0	 6.866680000008067e+000	 6.000000000000000e+000	 1.012086841883246e+001
0	 6.933340000004134e+000	 5.333299999983333e+000	 1.014268931513263e+001
0	 6.933340000004134e+000	 5.399969999982148e+000	 1.014027549262100e+001
0	 6.933340000004135e+000	 5.466639999981866e+000	 1.013784343886929e+001
0	 6.933340000004135e+000	 5.533309999982381e+000	 1.013538974500298e+001
0	 6.933340000004136e+000	 5.599979999983600e+000	 1.013291100214753e+001
0	 6.933340000004135e+000	 5.666649999985418e+000	 1.013040380142838e+001
0	 6.933340000004135e+000	 5.733319999987732e+000	 1.012786473397104e+001
0	 6.933340000004135e+000	 5.799989999990449e+000	 1.012529039090094e+001
0	 6.933340000004134e+000	 5.866659999993468e+000	 1.012267736334358e+001
0	 6.933340000004136e+000	 5.933329999996682e+000	 1.012002224242440e+001
0	 6.933340000004135e+000	 5.999999999999999e+000	 1.011732161926886e+001
0	 7.000000000000002e+000	 5.333299999983335e+000	 1.013788916975188e+001
0	 7.000000000000003e+000	 5.399969999982150e+000	 1.013560232504928e+001
0	 7.000000000000001e+000	 5.466639999981865e+000	 1.013329610108372e+001
0	 7.000000000000002e+000	 5.533309999982384e+000	 1.013096712438893e+001
0	 7.000000000000002e+000	 5.599979999983599e+000	 1.012861202149867e+001
0	 7.000000000000002e+000	 5.666649999985417e+000	 1.012622741894667e+001
0	 7.000000000000002e+000	 5.733319999987733e+000	 1.012380994326666e+001
0	 7.000000000000003e+000	 5.799989999990449e+000	 1.012135622099242e+001
0	 7.000000000000002e+000	 5.866659999993467e+000	 1.011886287865765e+001
0	 7.000000000000002e+000	 5.933329999996682e+000	 1.011632654279611e+001
0	 7.000000000000002e+000	 6.000000000000000e+000	 1.011374383994155e+001
0	 7.066659999995871e+000	 5.333299999983334e+000	 1.013308052396928e+001
0	 7.066659999995871e+000	 5.399969999982151e+000	 1.013091853058516e+001
0	 7.066659999995870e+000	 5.466639999981867e+000	 1.012873605159711e+001
0	 7.066659999995869e+000	 5.533309999982382e+000	 1.012652978130248e+001
0	 7.066659999995868e+000	 5.599979999983598e+000	 1.012429641399864e+001
0	 7.066659999995871e+000	 5.666649999985417e+000	 1.012203264398293e+001
0	 7.066659999995869e+000	 5.733319999987732e+000	 1.011973516555275e+001
0	 7.066659999995869e+000	 5.799989999990451e+000	 1.011740067300542e+001
0	 7.066659999995870e+000	 5.866659999993467e+000	 1.011502586063832e+001
0	 7.066659999995871e+000	 5.933329999996683e+000	 1.011260742274881e+001
0	 7.066659999995868e+000	 5.999999999999998e+000	 1.011014205363424e+001
0	 7.133319999991937e+000	 5.333299999983334e+000	 1.012826885234392e+001
0	 7.133319999991936e+000	 5.399969999982148e+000	 1.012623006492876e+001
0	 7.133319999991937e+000	 5.466639999981866e+000	 1.012416965362425e+001
0	 7.133319999991937e+000	 5.533309999982383e+000	 1.012208441284674e+001
0	 7.133319999991936e+000	 5.599979999983598e+000	 1.011997113701252e+001
0	 7.133319999991937e+000	 5.666649999985417e+000	 1.011782662053794e+001
0	 7.133319999991935e+000	 5.733319999987732e+000	 1.011564765783931e+001
0	 7.133319999991938e+000	 5.799989999990449e+000	 1.011343104333294e+001
0	 7.133319999991937e+000	 5.866659999993467e+000	 1.011117357143517e+001
0	 7.133319999991937e+000	 5.933329999996683e+000	 1.010887203656230e+001
0	 7.133319999991937e+000	 6.000000000000000e+000	 1.010652323313067e+001
0	 7.199979999988404e+000	 5.333299999983335e+000	 1.012345962943490e+001
0	 7.199979999988404e+000	 5.399969999982150e+000	 1.012154288378019e+001
0	 7.199979999988403e+000	 5.466639999981866e+000	 1.011960327037995e+001
0	 7.199979999988404e+000	 5.533309999982383e+000	 1.011763771612482e+001
0	 7.199979999988405e+000	 5.599979999983601e+000	 1.011564314790543e+001
0	 7.199979999988403e+000	 5.666649999985415e+000	 1.011361649261240e+001
0	 7.199979999988403e+000	 5.733319999987732e+000	 1.011155467713635e+001
0	 7.199979999988404e+000	 5.799989999990449e+000	 1.010945462836792e+001
0	 7.199979999988404e+000	 5.866659999993468e+000	 1.010731327319773e+001
0	 7.199979999988405e+000	 5.933329999996684e+000	 1.010512753851641e+001
0	 7.199979999988402e+000	 6.000000000000000e+000	 1.010289435121457e+001
0	 7.266639999985469e+000	 5.333299999983333e+000	 1.011865832980133e+001
0	 7.266639999985471e+000	 5.399969999982150e+000	 1.011686294283956e+001
0	 7.266639999985472e+000	 5.466639999981868e+000	 1.011504326507898e+001
0	 7.266639999985470e+000	 5.533309999982383e+000	 1.011319638823983e+001
0	 7.266639999985471e+000	 5.599979999983599e+000	 1.011131940404243e+001
0	 7.266639999985472e+000	 5.666649999985416e+000	 1.010940940420703e+001
0	 7.266639999985471e+000	 5.733319999987733e+000	 1.010746348045391e+001
0	 7.266639999985471e+000	 5.799989999990450e+000	 1.010547872450334e+001
0	 7.266639999985471e+000	 5.866659999993466e+000	 1.010345222807559e+001
0	 7.266639999985472e+000	 5.933329999996683e+000	 1.010138108289095e+001
0	 7.266639999985472e+000	 6.000000000000001e+000	 1.009926238066966e+001
0	 7.333299999983334e+000	 5.333299999983333e+000	 1.011387042800230e+001
0	 7.333299999983335e+000	 5.399969999982150e+000	 1.011219619780700e+001
0	 7.333299999983333e+000	 5.466639999981867e+000	 1.011049600093612e+001
0	 7.333299999983334e+000	 5.533309999982385e+000	 1.010876712629492e+001
0	 7.333299999983335e+000	 5.599979999983599e+000	 1.010700686278866e+001
0	 7.333299999983334e+000	 5.666649999985417e+000	 1.010521249932259e+001
0	 7.333299999983336e+000	 5.733319999987733e+000	 1.010338132480202e+001
0	 7.333299999983334e+000	 5.799989999990449e+000	 1.010151062813217e+001
0	 7.333299999983333e+000	 5.866659999993468e+000	 1.009959769821833e+001
0	 7.333299999983334e+000	 5.933329999996684e+000	 1.009763982396574e+001
0	 7.333299999983334e+000	 6.000000000000002e+000	 1.009563429427968e+001
0	 6.666700000016668e+000	 6.000000000000002e+000	 1.013125321110372e+001
0	 6.666700000016667e+000	 6.066670000003318e+000	 1.012806915471327e+001
0	 6.666700000016665e+000	 6.133340000006532e+000	 1.012490372640455e+001
0	 6.666700000016666e+000	 6.200010000009550e+000	 1.012175384222158e+001
0	 6.666700000016666e+000	 6.266680000012267e+000	 1.011861641820838e+001
0	 6.666700000016667e+000	 6.333350000014586e+000	 1.011548837040897e+001
0	 6.666700000016667e+000	 6.400020000016401e+000	 1.011236661486740e+001
0	 6.666700000016667e+000	 6.466690000017616e+000	 1.010924806762766e+001
0	 6.666700000016666e+000	 6.533360000018132e+000	 1.010612964473382e+001
0	 6.666700000016667e+000	 6.600030000017851e+000	 1.010300826222989e+001
0	 6.666700000016666e+000	 6.666700000016667e+000	 1.009988083615987e+001
0	 6.733360000014532e+000	 6.000000000000000e+000	 1.012784118753362e+001
0	 6.733360000014534e+000	 6.066670000003316e+000	 1.012477284528596e+001
0	 6.733360000014533e+000	 6.133340000006534e+000	 1.012172059337770e+001
0	 6.733360000014533e+000	 6.200010000009552e+000	 1.011868145487142e+001
0	 6.733360000014532e+000	 6.266680000012268e+000	 1.011565245282974e+001
0	 6.733360000014531e+000	 6.333350000014582e+000	 1.011263061031525e+001
0	 6.733360000014532e+000	 6.400020000016401e+000	 1.010961295039057e+001
0	 6.733360000014532e+000	 6.466690000017618e+000	 1.010659649611826e+001
0	 6.733360000014531e+000	 6.533360000018131e+000	 1.010357827056096e+001
0	 6.733360000014532e+000	 6.600030000017852e+000	 1.010055529678124e+001
0	 6.733360000014532e+000	 6.666700000016667e+000	 1.009752459784170e+001
0	 6.800020000011599e+000	 6.000000000000000e+000	 1.012437726584863e+001
0	 6.800020000011599e+000	 6.066670000003315e+000	 1.012142507675130e+001
0	 6.800020000011600e+000	 6.133340000006532e+000	 1.011848641881695e+001
0	 6.800020000011601e+000	 6.200010000009552e+000	 1.011555841612352e+001
0	 6.800020000011598e+000	 6.266680000012264e+000	 1.011263819274902e+001
0	 6.800020000011599e+000	 6.333350000014585e+000	 1.010972287277139e+001
0	 6.800020000011601e+000	 6.400020000016402e+000	 1.010680958026861e+001
0	 6.800020000011601e+000	 6.466690000017619e+000	 1.010389543931866e+001
0	 6.800020000011600e+000	 6.533360000018136e+000	 1.010097757399948e+001
0	 6.800020000011600e+000	 6.600030000017851e+000	 1.009805310838909e+001
0	 6.800020000011599e+000	 6.666700000016666e+000	 1.009511916656541e+001
0	 6.866680000008067e+000	 6.000000000000000e+000	 1.012086841883246e+001
0	 6.866680000008066e+000	 6.066670000003317e+000	 1.011803261363305e+001
0	 6.866680000008067e+000	 6.133340000006534e+000	 1.011520777908467e+001
0	 6.866680000008067e+000	 6.200010000009553e+000	 1.011239113427742e+001
0	 6.866680000008067e+000	 6.266680000012267e+000	 1.010957989830148e+001
0	 6.866680000008068e+000	 6.333350000014585e+000	 1.010677129024696e+001
0	 6.866680000008067e+000	 6.400020000016401e+000	 1.010396252920401e+001
0	 6.866680000008068e+000	 6.466690000017618e+000	 1.010115083426278e+001
0	 6.866680000008065e+000	 6.533360000018133e+000	 1.009833342451341e+001
0	 6.866680000008067e+000	 6.600030000017850e+000	 1.009550751904603e+001
0	 6.866680000008066e+000	 6.666700000016666e+000	 1.009267033695080e+001
0	 6.933340000004135e+000	 5.999999999999999e+000	 1.011732161926886e+001
0	 6.933340000004135e+000	 6.066670000003317e+000	 1.011460222045498e+001
0	 6.933340000004134e+000	 6.133340000006533e+000	 1.011189125054321e+001
0	 6.933340000004134e+000	 6.200010000009551e+000	 1.010918601763261e+001
0	 6.933340000004134e+000	 6.266680000012267e+000	 1.010648382982237e+001
0	 6.933340000004135e+000	 6.333350000014587e+000	 1.010378199521153e+001
0	 6.933340000004134e+000	 6.400020000016400e+000	 1.010107782189924e+001
0	 6.933340000004135e+000	 6.466690000017616e+000	 1.009836861798459e+001
0	 6.933340000004133e+000	 6.533360000018133e+000	 1.009565169156670e+001
0	 6.933340000004133e+000	 6.600030000017850e+000	 1.009292435074469e+001
0	 6.933340000004135e+000	 6.666700000016667e+000	 1.009018390361765e+001
0	 7.000000000000002e+000	 6.000000000000000e+000	 1.011374383994155e+001
0	 7.000000000000001e+000	 6.066670000003315e+000	 1.011114066174081e+001
0	 7.000000000000001e+000	 6.133340000006533e+000	 1.010854340955488e+001
0	 7.000000000000002e+000	 6.200010000009550e+000	 1.010594947448864e+001
0	 7.000000000000001e+000	 6.266680000012267e+000	 1.010335624764695e+001
0	 6.999999999999999e+000	 6.333350000014583e+000	 1.010076112013470e+001
0	 7.000000000000003e+000	 6.400020000016401e+000	 1.009816148305677e+001
0	 7.000000000000001e+000	 6.466690000017617e+000	 1.009555472751804e+001
0	 7.000000000000003e+000	 6.533360000018134e+000	 1.009293824462339e+001
0	 6.999999999999999e+000	 6.600030000017848e+000	 1.009030942547767e+001
0	 7.000000000000003e+000	 6.666700000016667e+000	 1.008766566118579e+001
0	 7.066659999995868e+000	 5.999999999999998e+000	 1.011014205363424e+001
0	 7.066659999995870e+000	 6.066670000003318e+000	 1.010765470201431e+001
0	 7.066659999995870e+000	 6.133340000006535e+000	 1.010517083248206e+001
0	 7.066659999995870e+000	 6.200010000009553e+000	 1.010268791314498e+001
0	 7.066659999995871e+000	 6.266680000012268e+000	 1.010020341211049e+001
0	 7.066659999995869e+000	 6.333350000014583e+000	 1.009771479748605e+001
0	 7.066659999995869e+000	 6.400020000016400e+000	 1.009521953737909e+001
0	 7.066659999995870e+000	 6.466690000017619e+000	 1.009271509989708e+001
0	 7.066659999995870e+000	 6.533360000018135e+000	 1.009019895314742e+001
0	 7.066659999995870e+000	 6.600030000017852e+000	 1.008766856523759e+001
0	 7.066659999995870e+000	 6.666700000016668e+000	 1.008512140427502e+001
0	 7.133319999991937e+000	 6.000000000000000e+000	 1.010652323313067e+001
0	 7.133319999991937e+000	 6.066670000003318e+000	 1.010415110579919e+001
0	 7.133319999991937e+000	 6.133340000006534e+000	 1.010178009568708e+001
0	 7.133319999991937e+000	 6.200010000009551e+000	 1.009940774190117e+001
0	 7.133319999991937e+000	 6.266680000012268e+000	 1.009703158354825e+001
0	 7.133319999991937e+000	 6.333350000014583e+000	 1.009464915973516e+001
0	 7.133319999991937e+000	 6.400020000016401e+000	 1.009225800956868e+001
0	 7.133319999991937e+000	 6.466690000017618e+000	 1.008985567215563e+001
0	 7.133319999991936e+000	 6.533360000018134e+000	 1.008743968660282e+001
0	 7.133319999991937e+000	 6.600030000017851e+000	 1.008500759201704e+001
0	 7.133319999991937e+000	 6.666700000016666e+000	 1.008255692750513e+001
0	 7.199979999988402e+000	 6.000000000000000e+000	 1.010289435121457e+001
0	 7.199979999988403e+000	 6.066670000003315e+000	 1.010063663761924e+001
0	 7.199979999988403e+000	 6.133340000006532e+000	 1.009837777553229e+001
0	 7.199979999988404e+000	 6.200010000009550e+000	 1.009611536905672e+001
0	 7.199979999988403e+000	 6.266680000012268e+000	 1.009384702229550e+001
0	 7.199979999988404e+000	 6.333350000014582e+000	 1.009157033935161e+001
0	 7.199979999988403e+000	 6.400020000016398e+000	 1.008928292432800e+001
0	 7.199979999988405e+000	 6.466690000017617e+000	 1.008698238132766e+001
0	 7.199979999988401e+000	 6.533360000018133e+000	 1.008466631445355e+001
0	 7.199979999988405e+000	 6.600030000017851e+000	 1.008233232780867e+001
0	 7.199979999988403e+000	 6.666700000016665e+000	 1.007997802549595e+001
0	 7.266639999985472e+000	 6.000000000000001e+000	 1.009926238066966e+001
0	 7.266639999985472e+000	 6.066670000003317e+000	 1.009711806199818e+001
0	 7.266639999985470e+000	 6.133340000006532e+000	 1.009497044838003e+001
0	 7.266639999985472e+000	 6.200010000009552e+000	 1.009281720291117e+001
0	 7.266639999985471e+000	 6.266680000012268e+000	 1.009065598868749e+001
0	 7.266639999985471e+000	 6.333350000014582e+000	 1.008848446880499e+001
0	 7.266639999985472e+000	 6.400020000016402e+000	 1.008630030635955e+001
0	 7.266639999985471e+000	 6.466690000017617e+000	 1.008410116444711e+001
0	 7.266639999985472e+000	 6.533360000018135e+000	 1.008188470616364e+001
0	 7.266639999985471e+000	 6.600030000017851e+000	 1.007964859460504e+001
0	 7.266639999985470e+000	 6.666700000016665e+000	 1.007739049286725e+001
0	 7.333299999983334e+000	 6.000000000000002e+000	 1.009563429427968e+001
0	 7.333299999983334e+000	 6.066670000003316e+000	 1.009360214345977e+001
0	 7.333299999983332e+000	 6.133340000006531e+000	 1.009156469059266e+001
0	 7.333299999983334e+000	 6.200010000009550e+000	 1.008951965176400e+001
0	 7.333299999983334e+000	 6.266680000012268e+000	 1.008746474305951e+001
0	 7.333299999983335e+000	 6.333350000014586e+000	 1.008539768056486e+001
0	 7.333299999983336e+000	 6.400020000016400e+000	 1.008331618036580e+001
0	 7.333299999983333e+000	 6.466690000017615e+000	 1.008121795854795e+001
0	 7.333299999983334e+000	 6.533360000018135e+000	 1.007910073119706e+001
0	 7.333299999983335e+000	 6.600030000017851e+000	 1.007696221439880e+001
0	 7.333299999983333e+000	 6.666700000016665e+000	 1.007480012423886e+001
0	 6.666700000016666e+000	 6.666700000016667e+000	 1.009988083615987e+001
0	 6.666700000016667e+000	 6.733360000014533e+000	 1.009676777881934e+001
0	 6.666700000016665e+000	 6.800020000011598e+000	 1.009368890942982e+001
0	 6.666700000016666e+000	 6.866680000008067e+000	 1.009064166351795e+001
0	 6.666700000016667e+000	 6.933340000004133e+000	 1.008762347661041e+001
0	 6.666700000016665e+000	 6.999999999999999e+000	 1.008463178423383e+001
0	 6.666700000016667e+000	 7.066659999995868e+000	 1.008166402191487e+001
0	 6.666700000016665e+000	 7.133319999991936e+000	 1.007871762518020e+001
0	 6.666700000016666e+000	 7.199979999988400e+000	 1.007579002955646e+001
0	 6.666700000016666e+000	 7.266639999985467e+000	 1.007287867057028e+001
0	 6.666700000016665e+000	 7.333299999983333e+000	 1.006998098374833e+001
0	 6.733360000014532e+000	 6.666700000016667e+000	 1.009752459784170e+001
0	 6.733360000014534e+000	 6.733360000014534e+000	 1.009450617263436e+001
0	 6.733360000014534e+000	 6.800020000011599e+000	 1.009151940503771e+001
0	 6.733360000014532e+000	 6.866680000008068e+000	 1.008856176152515e+001
0	 6.733360000014532e+000	 6.933340000004133e+000	 1.008563070857003e+001
0	 6.733360000014533e+000	 7.000000000000000e+000	 1.008272371264573e+001
0	 6.733360000014532e+000	 7.066659999995870e+000	 1.007983824022559e+001
0	 6.733360000014534e+000	 7.133319999991937e+000	 1.007697175778298e+001
0	 6.733360000014534e+000	 7.199979999988401e+000	 1.007412173179127e+001
0	 6.733360000014532e+000	 7.266639999985467e+000	 1.007128562872380e+001
0	 6.733360000014532e+000	 7.333299999983334e+000	 1.006846091505395e+001
0	 6.800020000011599e+000	 6.666700000016666e+000	 1.009511916656542e+001
0	 6.800020000011600e+000	 6.733360000014534e+000	 1.009219544079930e+001
0	 6.800020000011600e+000	 6.800020000011601e+000	 1.008930099150265e+001
0	 6.800020000011601e+000	 6.866680000008067e+000	 1.008643331773629e+001
0	 6.800020000011600e+000	 6.933340000004134e+000	 1.008358991856108e+001
0	 6.800020000011599e+000	 7.000000000000001e+000	 1.008076829303784e+001
0	 6.800020000011599e+000	 7.066659999995865e+000	 1.007796594022739e+001
0	 6.800020000011600e+000	 7.133319999991935e+000	 1.007518035919060e+001
0	 6.800020000011601e+000	 7.199979999988401e+000	 1.007240904898827e+001
0	 6.800020000011598e+000	 7.266639999985466e+000	 1.006964950868125e+001
0	 6.800020000011599e+000	 7.333299999983334e+000	 1.006689923733034e+001
0	 6.866680000008066e+000	 6.666700000016666e+000	 1.009267033695080e+001
0	 6.866680000008067e+000	 6.733360000014532e+000	 1.008984135170825e+001
0	 6.866680000008068e+000	 6.800020000011601e+000	 1.008703939318331e+001
0	 6.866680000008065e+000	 6.866680000008065e+000	 1.008426199466507e+001
0	 6.866680000008067e+000	 6.933340000004134e+000	 1.008150668944260e+001
0	 6.866680000008066e+000	 6.999999999999998e+000	 1.007877101080494e+001
0	 6.866680000008067e+000	 7.066659999995866e+000	 1.007605249204119e+001
0	 6.866680000008067e+000	 7.133319999991934e+000	 1.007334866644039e+001
0	 6.866680000008066e+000	 7.199979999988402e+000	 1.007065706729162e+001
0	 6.866680000008068e+000	 7.266639999985467e+000	 1.006797522788395e+001
0	 6.866680000008064e+000	 7.333299999983331e+000	 1.006530068150645e+001
0	 6.933340000004135e+000	 6.666700000016667e+000	 1.009018390361766e+001
0	 6.933340000004135e+000	 6.733360000014533e+000	 1.008744967375526e+001
0	 6.933340000004135e+000	 6.800020000011600e+000	 1.008474033443841e+001
0	 6.933340000004135e+000	 6.866680000008066e+000	 1.008205345482517e+001
0	 6.933340000004134e+000	 6.933340000004133e+000	 1.007938660407363e+001
0	 6.933340000004135e+000	 6.999999999999999e+000	 1.007673735134184e+001
0	 6.933340000004134e+000	 7.066659999995865e+000	 1.007410326578784e+001
0	 6.933340000004136e+000	 7.133319999991936e+000	 1.007148191656972e+001
0	 6.933340000004134e+000	 7.199979999988400e+000	 1.006887087284552e+001
0	 6.933340000004135e+000	 7.266639999985467e+000	 1.006626770377333e+001
0	 6.933340000004135e+000	 7.333299999983335e+000	 1.006366997851119e+001
0	 7.000000000000003e+000	 6.666700000016667e+000	 1.008766566118579e+001
0	 7.000000000000003e+000	 6.733360000014531e+000	 1.008502617533440e+001
0	 7.000000000000002e+000	 6.800020000011599e+000	 1.008240953962663e+001
0	 7.000000000000002e+000	 6.866680000008066e+000	 1.007981336073030e+001
0	 7.000000000000002e+000	 6.933340000004133e+000	 1.007723524531325e+001
0	 7.000000000000004e+000	 7.000000000000000e+000	 1.007467280004329e+001
0	 7.000000000000002e+000	 7.066659999995866e+000	 1.007212363158823e+001
0	 7.000000000000003e+000	 7.133319999991936e+000	 1.006958534661592e+001
0	 7.000000000000001e+000	 7.199979999988400e+000	 1.006705555179415e+001
0	 7.000000000000001e+000	 7.266639999985466e+000	 1.006453185379075e+001
0	 7.000000000000001e+000	 7.333299999983334e+000	 1.006201185927356e+001
0	 7.066659999995870e+000	 6.666700000016668e+000	 1.008512140427502e+001
0	 7.066659999995871e+000	 6.733360000014533e+000	 1.008257662483975e+001
0	 7.066659999995871e+000	 6.800020000011601e+000	 1.008005273310669e+001
0	 7.066659999995869e+000	 6.866680000008066e+000	 1.007754737489415e+001
0	 7.066659999995870e+000	 6.933340000004133e+000	 1.007505819602054e+001
0	 7.066659999995870e+000	 7.000000000000000e+000	 1.007258284230412e+001
0	 7.066659999995870e+000	 7.066659999995866e+000	 1.007011895956328e+001
0	 7.066659999995870e+000	 7.133319999991935e+000	 1.006766419361635e+001
0	 7.066659999995869e+000	 7.199979999988401e+000	 1.006521619028169e+001
0	 7.066659999995869e+000	 7.266639999985467e+000	 1.006277259537760e+001
0	 7.066659999995870e+000	 7.333299999983335e+000	 1.006033105472246e+001
0	 7.133319999991937e+000	 6.666700000016666e+000	 1.008255692750513e+001
0	 7.133319999991937e+000	 6.733360000014534e+000	 1.008010679066537e+001
0	 7.133319999991937e+000	 6.800020000011600e+000	 1.007767563923726e+001
0	 7.133319999991936e+000	 6.866680000008067e+000	 1.007526115983042e+001
0	 7.133319999991937e+000	 6.933340000004133e+000	 1.007286103905449e+001
0	 7.133319999991937e+000	 6.999999999999999e+000	 1.007047296351910e+001
0	 7.133319999991937e+000	 7.066659999995865e+000	 1.006809461983384e+001
0	 7.133319999991937e+000	 7.133319999991935e+000	 1.006572369460837e+001
0	 7.133319999991937e+000	 7.199979999988401e+000	 1.006335787445230e+001
0	 7.133319999991937e+000	 7.266639999985466e+000	 1.006099484597526e+001
0	 7.133319999991937e+000	 7.333299999983333e+000	 1.005863229578686e+001
0	 7.199979999988403e+000	 6.666700000016665e+000	 1.007997802549594e+001
0	 7.199979999988403e+000	 6.733360000014533e+000	 1.007762244120532e+001
0	 7.199979999988404e+000	 6.800020000011600e+000	 1.007528398237705e+001
0	 7.199979999988404e+000	 6.866680000008068e+000	 1.007296037805280e+001
0	 7.199979999988404e+000	 6.933340000004134e+000	 1.007064935727423e+001
0	 7.199979999988402e+000	 6.999999999999997e+000	 1.006834864908301e+001
0	 7.199979999988404e+000	 7.066659999995867e+000	 1.006605598252081e+001
0	 7.199979999988404e+000	 7.133319999991935e+000	 1.006376908662932e+001
0	 7.199979999988404e+000	 7.199979999988401e+000	 1.006148569045019e+001
0	 7.199979999988406e+000	 7.266639999985467e+000	 1.005920352302509e+001
0	 7.199979999988405e+000	 7.333299999983335e+000	 1.005692031339570e+001
0	 7.266639999985470e+000	 6.666700000016665e+000	 1.007739049286725e+001
0	 7.266639999985472e+000	 6.733360000014533e+000	 1.007512934485368e+001
0	 7.266639999985471e+000	 6.800020000011600e+000	 1.007288348688477e+001
0	 7.266639999985471e+000	 6.866680000008067e+000	 1.007065069207498e+001
0	 7.266639999985471e+000	 6.933340000004134e+000	 1.006842873353877e+001
0	 7.266639999985470e+000	 7.000000000000000e+000	 1.006621538439065e+001
0	 7.266639999985470e+000	 7.066659999995866e+000	 1.006400841774508e+001
0	 7.266639999985471e+000	 7.133319999991934e+000	 1.006180560671655e+001
0	 7.266639999985471e+000	 7.199979999988401e+000	 1.005960472441953e+001
0	 7.266639999985470e+000	 7.266639999985465e+000	 1.005740354396848e+001
0	 7.266639999985471e+000	 7.333299999983332e+000	 1.005519983847791e+001
0	 7.333299999983333e+000	 6.666700000016665e+000	 1.007480012423886e+001
0	 7.333299999983335e+000	 6.733360000014533e+000	 1.007263327000451e+001
0	 7.333299999983334e+000	 6.800020000011600e+000	 1.007047987711909e+001
0	 7.333299999983332e+000	 6.866680000008064e+000	 1.006833776441063e+001
0	 7.333299999983334e+000	 6.933340000004134e+000	 1.006620475070719e+001
0	 7.333299999983332e+000	 6.999999999999998e+000	 1.006407865483680e+001
0	 7.333299999983334e+000	 7.066659999995866e+000	 1.006195729562754e+001
0	 7.333299999983333e+000	 7.133319999991934e+000	 1.005983849190742e+001
0	 7.333299999983334e+000	 7.199979999988401e+000	 1.005772006250450e+001
0	 7.333299999983335e+000	 7.266639999985467e+000	 1.005559982624682e+001
0	 7.333299999983336e+000	 7.333299999983336e+000	 1.005347560196244e+001
0	 6.666700000016665e+000	 7.333299999983333e+000	 1.006998098374833e+001
0	 6.666700000016665e+000	 7.399969999982150e+000	 1.006711451445654e+001
0	 6.666700000016668e+000	 7.466639999981867e+000	 1.006429768405905e+001
0	 6.666700000016667e+000	 7.533309999982384e+000	 1.006152794068228e+001
0	 6.666700000016665e+000	 7.599979999983599e+000	 1.005880273245269e+001
0	 6.666700000016666e+000	 7.666649999985416e+000	 1.005611950749668e+001
0	 6.666700000016665e+000	 7.733319999987731e+000	 1.005347571394067e+001
0	 6.666700000016665e+000	 7.799989999990450e+000	 1.005086879991109e+001
0	 6.666700000016665e+000	 7.866659999993465e+000	 1.004829621353436e+001
0	 6.666700000016666e+000	 7.933329999996684e+000	 1.004575540293692e+001
0	 6.666700000016668e+000	 8.000000000000000e+000	 1.004324381624517e+001
0	 6.733360000014532e+000	 7.333299999983334e+000	 1.006846091505395e+001
0	 6.733360000014531e+000	 7.399969999982149e+000	 1.006566542365424e+001
0	 6.733360000014531e+000	 7.466639999981864e+000	 1.006291782227134e+001
0	 6.733360000014533e+000	 7.533309999982383e+000	 1.006021556062450e+001
0	 6.733360000014532e+000	 7.599979999983601e+000	 1.005755608843295e+001
0	 6.733360000014532e+000	 7.666649999985416e+000	 1.005493685541586e+001
0	 6.733360000014533e+000	 7.733319999987734e+000	 1.005235531129249e+001
0	 6.733360000014532e+000	 7.799989999990450e+000	 1.004980890578204e+001
0	 6.733360000014533e+000	 7.866659999993466e+000	 1.004729508860371e+001
0	 6.733360000014531e+000	 7.933329999996682e+000	 1.004481130947675e+001
0	 6.733360000014532e+000	 7.999999999999999e+000	 1.004235501812035e+001
0	 6.800020000011599e+000	 7.333299999983334e+000	 1.006689923733034e+001
0	 6.800020000011598e+000	 7.399969999982149e+000	 1.006417624614118e+001
0	 6.800020000011598e+000	 7.466639999981866e+000	 1.006149934245759e+001
0	 6.800020000011601e+000	 7.533309999982384e+000	 1.005886598351249e+001
0	 6.800020000011600e+000	 7.599979999983600e+000	 1.005627362653875e+001
0	 6.800020000011599e+000	 7.666649999985415e+000	 1.005371972876924e+001
0	 6.800020000011600e+000	 7.733319999987733e+000	 1.005120174743689e+001
0	 6.800020000011601e+000	 7.799989999990449e+000	 1.004871713977455e+001
0	 6.800020000011600e+000	 7.866659999993466e+000	 1.004626336301513e+001
0	 6.800020000011600e+000	 7.933329999996683e+000	 1.004383787439152e+001
0	 6.800020000011600e+000	 8.000000000000000e+000	 1.004143813113661e+001
0	 6.866680000008064e+000	 7.333299999983331e+000	 1.006530068150645e+001
0	 6.866680000008066e+000	 7.399969999982150e+000	 1.006265152152876e+001
0	 6.866680000008066e+000	 7.466639999981864e+000	 1.006004660116962e+001
0	 6.866680000008067e+000	 7.533309999982383e+000	 1.005748339109647e+001
0	 6.866680000008068e+000	 7.599979999983600e+000	 1.005495936197673e+001
0	 6.866680000008068e+000	 7.666649999985416e+000	 1.005247198447784e+001
0	 6.866680000008067e+000	 7.733319999987733e+000	 1.005001872926725e+001
0	 6.866680000008067e+000	 7.799989999990450e+000	 1.004759706701242e+001
0	 6.866680000008065e+000	 7.866659999993466e+000	 1.004520446838077e+001
0	 6.866680000008067e+000	 7.933329999996683e+000	 1.004283840403974e+001
0	 6.866680000008066e+000	 7.999999999999999e+000	 1.004049634465678e+001
0	 6.933340000004135e+000	 7.333299999983335e+000	 1.006366997851119e+001
0	 6.933340000004134e+000	 7.399969999982151e+000	 1.006109578942834e+001
0	 6.933340000004134e+000	 7.466639999981865e+000	 1.005856395495921e+001
0	 6.933340000004135e+000	 7.533309999982382e+000	 1.005607196512663e+001
0	 6.933340000004136e+000	 7.599979999983599e+000	 1.005361730995348e+001
0	 6.933340000004136e+000	 7.666649999985417e+000	 1.005119747946266e+001
0	 6.933340000004135e+000	 7.733319999987733e+000	 1.004880996367702e+001
0	 6.933340000004134e+000	 7.799989999990448e+000	 1.004645225261943e+001
0	 6.933340000004134e+000	 7.866659999993467e+000	 1.004412183631278e+001
0	 6.933340000004135e+000	 7.933329999996683e+000	 1.004181620477993e+001
0	 6.933340000004137e+000	 8.000000000000000e+000	 1.003953284804377e+001
0	 7.000000000000001e+000	 7.333299999983334e+000	 1.006201185927356e+001
0	 7.000000000000003e+000	 7.399969999982150e+000	 1.005951358945132e+001
0	 7.000000000000002e+000	 7.466639999981865e+000	 1.005705576037813e+001
0	 7.000000000000002e+000	 7.533309999982384e+000	 1.005463588735318e+001
0	 7.000000000000003e+000	 7.599979999983599e+000	 1.005225148567565e+001
0	 7.000000000000002e+000	 7.666649999985417e+000	 1.004990007064470e+001
0	 7.000000000000003e+000	 7.733319999987733e+000	 1.004757915755956e+001
0	 7.000000000000002e+000	 7.799989999990450e+000	 1.004528626171937e+001
0	 7.000000000000002e+000	 7.866659999993466e+000	 1.004301889842333e+001
0	 7.000000000000002e+000	 7.933329999996682e+000	 1.004077458297063e+001
0	 7.000000000000002e+000	 8.000000000000000e+000	 1.003855083066046e+001
0	 7.066659999995870e+000	 7.333299999983335e+000	 1.006033105472246e+001
0	 7.066659999995869e+000	 7.399969999982151e+000	 1.005790946120905e+001
0	 7.066659999995868e+000	 7.466639999981865e+000	 1.005552637397821e+001
0	 7.066659999995871e+000	 7.533309999982383e+000	 1.005317933952634e+001
0	 7.066659999995867e+000	 7.599979999983598e+000	 1.005086590434983e+001
0	 7.066659999995870e+000	 7.666649999985416e+000	 1.004858361494502e+001
0	 7.066659999995870e+000	 7.733319999987732e+000	 1.004633001780829e+001
0	 7.066659999995869e+000	 7.799989999990450e+000	 1.004410265943600e+001
0	 7.066659999995868e+000	 7.866659999993466e+000	 1.004189908632458e+001
0	 7.066659999995870e+000	 7.933329999996683e+000	 1.003971684497037e+001
0	 7.066659999995870e+000	 7.999999999999999e+000	 1.003755348186973e+001
0	 7.133319999991937e+000	 7.333299999983333e+000	 1.005863229578686e+001
0	 7.133319999991937e+000	 7.399969999982150e+000	 1.005628794431289e+001
0	 7.133319999991937e+000	 7.466639999981867e+000	 1.005398015231124e+001
0	 7.133319999991937e+000	 7.533309999982383e+000	 1.005170650339634e+001
0	 7.133319999991937e+000	 7.599979999983598e+000	 1.004946458118263e+001
0	 7.133319999991936e+000	 7.666649999985416e+000	 1.004725196928457e+001
0	 7.133319999991937e+000	 7.733319999987733e+000	 1.004506625131660e+001
0	 7.133319999991937e+000	 7.799989999990448e+000	 1.004290501089316e+001
0	 7.133319999991935e+000	 7.866659999993466e+000	 1.004076583162869e+001
0	 7.133319999991937e+000	 7.933329999996682e+000	 1.003864629713765e+001
0	 7.133319999991937e+000	 7.999999999999999e+000	 1.003654399103447e+001
0	 7.199979999988405e+000	 7.333299999983335e+000	 1.005692031339570e+001
0	 7.199979999988402e+000	 7.399969999982148e+000	 1.005465357837424e+001
0	 7.199979999988403e+000	 7.466639999981866e+000	 1.005242145192900e+001
0	 7.199979999988403e+000	 7.533309999982382e+000	 1.005022156071334e+001
0	 7.199979999988403e+000	 7.599979999983599e+000	 1.004805153138068e+001
0	 7.199979999988404e+000	 7.666649999985416e+000	 1.004590899058440e+001
0	 7.199979999988405e+000	 7.733319999987733e+000	 1.004379156497790e+001
0	 7.199979999988404e+000	 7.799989999990448e+000	 1.004169688121456e+001
0	 7.199979999988403e+000	 7.866659999993466e+000	 1.003962256594780e+001
0	 7.199979999988405e+000	 7.933329999996683e+000	 1.003756624583100e+001
0	 7.199979999988405e+000	 8.000000000000000e+000	 1.003552554751756e+001
0	 7.266639999985471e+000	 7.333299999983332e+000	 1.005519983847790e+001
0	 7.266639999985469e+000	 7.399969999982150e+000	 1.005301090300447e+001
0	 7.266639999985471e+000	 7.466639999981865e+000	 1.005085462938328e+001
0	 7.266639999985471e+000	 7.533309999982383e+000	 1.004872869322759e+001
0	 7.266639999985471e+000	 7.599979999983600e+000	 1.004663077015058e+001
0	 7.266639999985471e+000	 7.666649999985413e+000	 1.004455853576551e+001
0	 7.266639999985471e+000	 7.733319999987733e+000	 1.004250966568559e+001
0	 7.266639999985471e+000	 7.799989999990449e+000	 1.004048183552404e+001
0	 7.266639999985472e+000	 7.866659999993468e+000	 1.003847272089409e+001
0	 7.266639999985471e+000	 7.933329999996683e+000	 1.003647999740896e+001
0	 7.266639999985470e+000	 8.000000000000000e+000	 1.003450134068188e+001
0	 7.333299999983336e+000	 7.333299999983336e+000	 1.005347560196244e+001
0	 7.333299999983333e+000	 7.399969999982150e+000	 1.005136445781493e+001
0	 7.333299999983334e+000	 7.466639999981866e+000	 1.004928404122589e+001
0	 7.333299999983335e+000	 7.533309999982384e+000	 1.004723208268925e+001
0	 7.333299999983334e+000	 7.599979999983599e+000	 1.004520631269896e+001
0	 7.333299999983335e+000	 7.666649999985417e+000	 1.004320446174891e+001
0	 7.333299999983335e+000	 7.733319999987733e+000	 1.004122426033306e+001
0	 7.333299999983334e+000	 7.799989999990448e+000	 1.003926343894534e+001
0	 7.333299999983332e+000	 7.866659999993465e+000	 1.003731972807969e+001
0	 7.333299999983333e+000	 7.933329999996682e+000	 1.003539085823004e+001
0	 7.333299999983335e+000	 8.000000000000000e+000	 1.003347455989031e+001
0	 6.666700000016668e+000	 8.000000000000000e+000	 1.004324381624517e+001
0	 6.666700000016666e+000	 8.066670000003317e+000	 1.004078030185063e+001
0	 6.666700000016665e+000	 8.133340000006532e+000	 1.003838338687339e+001
0	 6.666700000016666e+000	 8.200010000009550e+000	 1.003605003753273e+001
0	 6.666700000016665e+000	 8.266680000012267e+000	 1.003377722004795e+001
0	 6.666700000016666e+000	 8.333350000014583e+000	 1.003156190063833e+001
0	 6.666700000016667e+000	 8.400020000016401e+000	 1.002940104552319e+001
0	 6.666700000016667e+000	 8.466690000017618e+000	 1.002729162092180e+001
0	 6.666700000016665e+000	 8.533360000018133e+000	 1.002523059305345e+001
0	 6.666700000016666e+000	 8.600030000017851e+000	 1.002321492813749e+001
0	 6.666700000016666e+000	 8.666700000016666e+000	 1.002124159239317e+001
0	 6.733360000014532e+000	 7.999999999999999e+000	 1.004235501812035e+001
0	 6.733360000014533e+000	 8.066670000003317e+000	 1.003994505067149e+001
0	 6.733360000014531e+000	 8.133340000006530e+000	 1.003759995141586e+001
0	 6.733360000014533e+000	 8.200010000009550e+000	 1.003531673229588e+001
0	 6.733360000014531e+000	 8.266680000012268e+000	 1.003309240525394e+001
0	 6.733360000014533e+000	 8.333350000014582e+000	 1.003092398223246e+001
0	 6.733360000014533e+000	 8.400020000016401e+000	 1.002880847517383e+001
0	 6.733360000014534e+000	 8.466690000017616e+000	 1.002674289602047e+001
0	 6.733360000014533e+000	 8.533360000018133e+000	 1.002472425671479e+001
0	 6.733360000014533e+000	 8.600030000017853e+000	 1.002274956919919e+001
0	 6.733360000014533e+000	 8.666700000016666e+000	 1.002081584541610e+001
0	 6.800020000011600e+000	 8.000000000000000e+000	 1.004143813113661e+001
0	 6.800020000011600e+000	 8.066670000003317e+000	 1.003908296035875e+001
0	 6.800020000011599e+000	 8.133340000006530e+000	 1.003679092274104e+001
0	 6.800020000011601e+000	 8.200010000009554e+000	 1.003455907587846e+001
0	 6.800020000011601e+000	 8.266680000012265e+000	 1.003238447736598e+001
0	 6.800020000011600e+000	 8.333350000014585e+000	 1.003026418479861e+001
0	 6.800020000011599e+000	 8.400020000016397e+000	 1.002819525577132e+001
0	 6.800020000011599e+000	 8.466690000017618e+000	 1.002617474787913e+001
0	 6.800020000011601e+000	 8.533360000018135e+000	 1.002419971871699e+001
0	 6.800020000011600e+000	 8.600030000017853e+000	 1.002226722587992e+001
0	 6.800020000011599e+000	 8.666700000016668e+000	 1.002037432696289e+001
0	 6.866680000008066e+000	 7.999999999999999e+000	 1.004049634465678e+001
0	 6.866680000008068e+000	 8.066670000003319e+000	 1.003819710757179e+001
0	 6.866680000008069e+000	 8.133340000006536e+000	 1.003595926513107e+001
0	 6.866680000008066e+000	 8.200010000009549e+000	 1.003377992051168e+001
0	 6.866680000008067e+000	 8.266680000012268e+000	 1.003165617689061e+001
0	 6.866680000008067e+000	 8.333350000014585e+000	 1.002958513744494e+001
0	 6.866680000008067e+000	 8.400020000016399e+000	 1.002756390535171e+001
0	 6.866680000008066e+000	 8.466690000017614e+000	 1.002558958378795e+001
0	 6.866680000008068e+000	 8.533360000018133e+000	 1.002365927593071e+001
0	 6.866680000008067e+000	 8.600030000017849e+000	 1.002177008495702e+001
0	 6.866680000008068e+000	 8.666700000016668e+000	 1.001991911404395e+001
0	 6.933340000004137e+000	 8.000000000000000e+000	 1.003953284804377e+001
0	 6.933340000004134e+000	 8.066670000003317e+000	 1.003729056897000e+001
0	 6.933340000004132e+000	 8.133340000006532e+000	 1.003510794286813e+001
0	 6.933340000004134e+000	 8.200010000009550e+000	 1.003298211842673e+001
0	 6.933340000004134e+000	 8.266680000012267e+000	 1.003091024433437e+001
0	 6.933340000004133e+000	 8.333350000014583e+000	 1.002888946927961e+001
0	 6.933340000004135e+000	 8.400020000016401e+000	 1.002691694195101e+001
0	 6.933340000004134e+000	 8.466690000017616e+000	 1.002498981103715e+001
0	 6.933340000004134e+000	 8.533360000018133e+000	 1.002310522522659e+001
0	 6.933340000004134e+000	 8.600030000017851e+000	 1.002126033320790e+001
0	 6.933340000004135e+000	 8.666700000016666e+000	 1.001945228366965e+001
0	 7.000000000000002e+000	 8.000000000000000e+000	 1.003855083066046e+001
0	 7.000000000000002e+000	 8.066670000003315e+000	 1.003636642121274e+001
0	 7.000000000000000e+000	 8.133340000006530e+000	 1.003423992023435e+001
0	 7.000000000000002e+000	 8.200010000009554e+000	 1.003216852185485e+001
0	 7.000000000000000e+000	 8.266680000012265e+000	 1.003014942020377e+001
0	 7.000000000000002e+000	 8.333350000014585e+000	 1.002817980941075e+001
0	 7.000000000000003e+000	 8.400020000016401e+000	 1.002625688360526e+001
0	 7.000000000000002e+000	 8.466690000017616e+000	 1.002437783691692e+001
0	 7.000000000000002e+000	 8.533360000018133e+000	 1.002253986347530e+001
0	 7.000000000000000e+000	 8.600030000017851e+000	 1.002074015740992e+001
0	 7.000000000000003e+000	 8.666700000016666e+000	 1.001897591285039e+001
0	 7.066659999995870e+000	 7.999999999999999e+000	 1.003755348186973e+001
0	 7.066659999995869e+000	 8.066670000003317e+000	 1.003542774095941e+001
0	 7.066659999995871e+000	 8.133340000006534e+000	 1.003335816151190e+001
0	 7.066659999995870e+000	 8.200010000009554e+000	 1.003134198302722e+001
0	 7.066659999995870e+000	 8.266680000012267e+000	 1.002937644500541e+001
0	 7.066659999995871e+000	 8.333350000014583e+000	 1.002745878694650e+001
0	 7.066659999995869e+000	 8.400020000016399e+000	 1.002558624835052e+001
0	 7.066659999995870e+000	 8.466690000017618e+000	 1.002375606871749e+001
0	 7.066659999995870e+000	 8.533360000018137e+000	 1.002196548754747e+001
0	 7.066659999995870e+000	 8.600030000017851e+000	 1.002021174434048e+001
0	 7.066659999995869e+000	 8.666700000016668e+000	 1.001849207859656e+001
0	 7.133319999991937e+000	 7.999999999999999e+000	 1.003654399103447e+001
0	 7.133319999991937e+000	 8.066670000003319e+000	 1.003447760486937e+001
0	 7.133319999991937e+000	 8.133340000006534e+000	 1.003246563098291e+001
0	 7.133319999991937e+000	 8.200010000009554e+000	 1.003050535417504e+001
0	 7.133319999991937e+000	 8.266680000012268e+000	 1.002859405924575e+001
0	 7.133319999991937e+000	 8.333350000014583e+000	 1.002672903099502e+001
0	 7.133319999991937e+000	 8.400020000016403e+000	 1.002490755422278e+001
0	 7.133319999991935e+000	 8.466690000017620e+000	 1.002312691372905e+001
0	 7.133319999991937e+000	 8.533360000018135e+000	 1.002138439431378e+001
0	 7.133319999991937e+000	 8.600030000017851e+000	 1.001967728077695e+001
0	 7.133319999991937e+000	 8.666700000016668e+000	 1.001800285791853e+001
0	 7.199979999988405e+000	 8.000000000000000e+000	 1.003552554751756e+001
0	 7.199979999988403e+000	 8.066670000003315e+000	 1.003351908960200e+001
0	 7.199979999988404e+000	 8.133340000006532e+000	 1.003156529292954e+001
0	 7.199979999988405e+000	 8.200010000009550e+000	 1.002966148752953e+001
0	 7.199979999988405e+000	 8.266680000012267e+000	 1.002780500343138e+001
0	 7.199979999988406e+000	 8.333350000014583e+000	 1.002599317066444e+001
0	 7.199979999988403e+000	 8.400020000016399e+000	 1.002422331925812e+001
0	 7.199979999988404e+000	 8.466690000017616e+000	 1.002249277924179e+001
0	 7.199979999988404e+000	 8.533360000018135e+000	 1.002079888064487e+001
0	 7.199979999988404e+000	 8.600030000017851e+000	 1.001913895349670e+001
0	 7.199979999988403e+000	 8.666700000016666e+000	 1.001751032782670e+001
0	 7.266639999985470e+000	 8.000000000000000e+000	 1.003450134068188e+001
0	 7.266639999985472e+000	 8.066670000003319e+000	 1.003255527181670e+001
0	 7.266639999985471e+000	 8.133340000006534e+000	 1.003066011163394e+001
0	 7.266639999985472e+000	 8.200010000009552e+000	 1.002881323532189e+001
0	 7.266639999985472e+000	 8.266680000012267e+000	 1.002701201806879e+001
0	 7.266639999985473e+000	 8.333350000014585e+000	 1.002525383506292e+001
0	 7.266639999985472e+000	 8.400020000016403e+000	 1.002353606149256e+001
0	 7.266639999985472e+000	 8.466690000017618e+000	 1.002185607254595e+001
0	 7.266639999985470e+000	 8.533360000018133e+000	 1.002021124341139e+001
0	 7.266639999985472e+000	 8.600030000017851e+000	 1.001859894927712e+001
0	 7.266639999985471e+000	 8.666700000016668e+000	 1.001701656533144e+001
0	 7.333299999983335e+000	 8.000000000000000e+000	 1.003347455989031e+001
0	 7.333299999983335e+000	 8.066670000003317e+000	 1.003158922817281e+001
0	 7.333299999983332e+000	 8.133340000006532e+000	 1.002975305137826e+001
0	 7.333299999983334e+000	 8.200010000009550e+000	 1.002796344978331e+001
0	 7.333299999983334e+000	 8.266680000012268e+000	 1.002621784366455e+001
0	 7.333299999983335e+000	 8.333350000014585e+000	 1.002451365329861e+001
0	 7.333299999983333e+000	 8.400020000016399e+000	 1.002284829896212e+001
0	 7.333299999983334e+000	 8.466690000017620e+000	 1.002121920093171e+001
0	 7.333299999983332e+000	 8.533360000018135e+000	 1.001962377948398e+001
0	 7.333299999983335e+000	 8.600030000017853e+000	 1.001805945489559e+001
0	 7.333299999983334e+000	 8.666700000016665e+000	 1.001652364744313e+001
0	 6.666700000016666e+000	 8.666700000016666e+000	 1.002124159239317e+001
0	 6.666700000016665e+000	 8.733360002791899e+000	 1.001933664532201e+001
0	 6.666700000016665e+000	 8.800020022230555e+000	 1.001752496038202e+001
0	 6.666700000016666e+000	 8.866680074997040e+000	 1.001580260341981e+001
0	 6.666700000016667e+000	 8.933340177755779e+000	 1.001416564002119e+001
0	 6.666700000016666e+000	 9.000000347171179e+000	 1.001261013551114e+001
0	 6.666700000016667e+000	 9.066660599907669e+000	 1.001113215495381e+001
0	 6.666700000016666e+000	 9.133320952629658e+000	 1.000972776315259e+001
0	 6.666700000016665e+000	 9.199981422001558e+000	 1.000839302464999e+001
0	 6.666700000016667e+000	 9.266642024687796e+000	 1.000712400372771e+001
0	 6.666700000016665e+000	 9.333302777352781e+000	 1.000591676440669e+001
0	 6.733360000014533e+000	 8.666700000016666e+000	 1.002081584541610e+001
0	 6.733360000014534e+000	 8.733360002791903e+000	 1.001894894131414e+001
0	 6.733360000014534e+000	 8.800020022230553e+000	 1.001717355185840e+001
0	 6.733360000014532e+000	 8.866680074997042e+000	 1.001548580868790e+001
0	 6.733360000014532e+000	 8.933340177755776e+000	 1.001388184318570e+001
0	 6.733360000014532e+000	 9.000000347171183e+000	 1.001235778647891e+001
0	 6.733360000014532e+000	 9.066660599907669e+000	 1.001090976943868e+001
0	 6.733360000014533e+000	 9.133320952629656e+000	 1.000953392268020e+001
0	 6.733360000014533e+000	 9.199981422001558e+000	 1.000822637656269e+001
0	 6.733360000014532e+000	 9.266642024687798e+000	 1.000698326118938e+001
0	 6.733360000014532e+000	 9.333302777352783e+000	 1.000580070640759e+001
0	 6.800020000011599e+000	 8.666700000016668e+000	 1.002037432696289e+001
0	 6.800020000011601e+000	 8.733360002791905e+000	 1.001854663438108e+001
0	 6.800020000011600e+000	 8.800020022230557e+000	 1.001680862701000e+001
0	 6.800020000011601e+000	 8.866680074997042e+000	 1.001515650524207e+001
0	 6.800020000011600e+000	 8.933340177755781e+000	 1.001358646921875e+001
0	 6.800020000011600e+000	 9.000000347171183e+000	 1.001209471883058e+001
0	 6.800020000011601e+000	 9.066660599907669e+000	 1.001067745371712e+001
0	 6.800020000011601e+000	 9.133320952629655e+000	 1.000933087326704e+001
0	 6.800020000011601e+000	 9.199981422001558e+000	 1.000805117661807e+001
0	 6.800020000011599e+000	 9.266642024687796e+000	 1.000683456265695e+001
0	 6.800020000011601e+000	 9.333302777352783e+000	 1.000567723001956e+001
0	 6.866680000008068e+000	 8.666700000016668e+000	 1.001991911404395e+001
0	 6.866680000008066e+000	 8.733360002791903e+000	 1.001813169614467e+001
0	 6.866680000008068e+000	 8.800020022230553e+000	 1.001643206046800e+001
0	 6.866680000008067e+000	 8.866680074997044e+000	 1.001481647912070e+001
0	 6.866680000008067e+000	 8.933340177755781e+000	 1.001328122396384e+001
0	 6.866680000008067e+000	 9.000000347171181e+000	 1.001182256661269e+001
0	 6.866680000008067e+000	 9.066660599907667e+000	 1.001043677843680e+001
0	 6.866680000008067e+000	 9.133320952629655e+000	 1.000912013055994e+001
0	 6.866680000008067e+000	 9.199981422001557e+000	 1.000786889386011e+001
0	 6.866680000008068e+000	 9.266642024687796e+000	 1.000667933896959e+001
0	 6.866680000008068e+000	 9.333302777352783e+000	 1.000554773627489e+001
0	 6.933340000004135e+000	 8.666700000016666e+000	 1.001945228366965e+001
0	 6.933340000004134e+000	 8.733360002791901e+000	 1.001770609822679e+001
0	 6.933340000004134e+000	 8.800020022230557e+000	 1.001604572686353e+001
0	 6.933340000004135e+000	 8.866680074997042e+000	 1.001446751636214e+001
0	 6.933340000004134e+000	 8.933340177755776e+000	 1.001296781326444e+001
0	 6.933340000004135e+000	 9.000000347171181e+000	 1.001154296387189e+001
0	 6.933340000004135e+000	 9.066660599907667e+000	 1.001018931424547e+001
0	 6.933340000004135e+000	 9.133320952629655e+000	 1.000890321020575e+001
0	 6.933340000004134e+000	 9.199981422001558e+000	 1.000768099733284e+001
0	 6.933340000004133e+000	 9.266642024687796e+000	 1.000651902096647e+001
0	 6.933340000004136e+000	 9.333302777352786e+000	 1.000541362620591e+001
0	 7.000000000000003e+000	 8.666700000016666e+000	 1.001897591285039e+001
0	 7.000000000000002e+000	 8.733360002791903e+000	 1.001727181224931e+001
0	 7.000000000000003e+000	 8.800020022230557e+000	 1.001565150082777e+001
0	 7.000000000000002e+000	 8.866680074997042e+000	 1.001411140300472e+001
0	 7.000000000000004e+000	 8.933340177755778e+000	 1.001264794296406e+001
0	 7.000000000000003e+000	 9.000000347171181e+000	 1.001125754465477e+001
0	 7.000000000000002e+000	 9.066660599907667e+000	 1.000993663179086e+001
0	 7.000000000000002e+000	 9.133320952629658e+000	 1.000868162785133e+001
0	 7.000000000000002e+000	 9.199981422001558e+000	 1.000748895608029e+001
0	 7.000000000000004e+000	 9.266642024687796e+000	 1.000635503948677e+001
0	 7.000000000000002e+000	 9.333302777352783e+000	 1.000527630084492e+001
0	 7.066659999995869e+000	 8.666700000016668e+000	 1.001849207859656e+001
0	 7.066659999995869e+000	 8.733360002791901e+000	 1.001683080983407e+001
0	 7.066659999995870e+000	 8.800020022230555e+000	 1.001525125699191e+001
0	 7.066659999995870e+000	 8.866680074997042e+000	 1.001374992508681e+001
0	 7.066659999995870e+000	 8.933340177755781e+000	 1.001232331890617e+001
0	 7.066659999995869e+000	 9.000000347171181e+000	 1.001096794300791e+001
0	 7.066659999995871e+000	 9.066660599907667e+000	 1.000968030172065e+001
0	 7.066659999995871e+000	 9.133320952629656e+000	 1.000845689914356e+001
0	 7.066659999995870e+000	 9.199981422001558e+000	 1.000729423914642e+001
0	 7.066659999995869e+000	 9.266642024687794e+000	 1.000618882536962e+001
0	 7.066659999995870e+000	 9.333302777352783e+000	 1.000513716122423e+001
0	 7.133319999991937e+000	 8.666700000016668e+000	 1.001800285791853e+001
0	 7.133319999991937e+000	 8.733360002791903e+000	 1.001638506260293e+001
0	 7.133319999991937e+000	 8.800020022230553e+000	 1.001484686998705e+001
0	 7.133319999991937e+000	 8.866680074997039e+000	 1.001338486864679e+001
0	 7.133319999991936e+000	 8.933340177755776e+000	 1.001199564693427e+001
0	 7.133319999991937e+000	 9.000000347171181e+000	 1.001067579297794e+001
0	 7.133319999991936e+000	 9.066660599907671e+000	 1.000942189468262e+001
0	 7.133319999991936e+000	 9.133320952629656e+000	 1.000823053972925e+001
0	 7.133319999991937e+000	 9.199981422001560e+000	 1.000709831557526e+001
0	 7.133319999991937e+000	 9.266642024687801e+000	 1.000602180945423e+001
0	 7.133319999991937e+000	 9.333302777352781e+000	 1.000499760837613e+001
0	 7.199979999988403e+000	 8.666700000016666e+000	 1.001751032782670e+001
0	 7.199979999988404e+000	 8.733360002791903e+000	 1.001593654217776e+001
0	 7.199979999988405e+000	 8.800020022230557e+000	 1.001444021444440e+001
0	 7.199979999988404e+000	 8.866680074997042e+000	 1.001301801972298e+001
0	 7.199979999988404e+000	 8.933340177755779e+000	 1.001166663289183e+001
0	 7.199979999988405e+000	 9.000000347171183e+000	 1.001038272861146e+001
0	 7.199979999988404e+000	 9.066660599907666e+000	 1.000916298132441e+001
0	 7.199979999988404e+000	 9.133320952629655e+000	 1.000800406525529e+001
0	 7.199979999988404e+000	 9.199981422001560e+000	 1.000690265441081e+001
0	 7.199979999988403e+000	 9.266642024687796e+000	 1.000585542257974e+001
0	 7.199979999988404e+000	 9.333302777352785e+000	 1.000485904333294e+001
0	 7.266639999985471e+000	 8.666700000016668e+000	 1.001701656533144e+001
0	 7.266639999985470e+000	 8.733360002791899e+000	 1.001548722018041e+001
0	 7.266639999985471e+000	 8.800020022230555e+000	 1.001403316499513e+001
0	 7.266639999985473e+000	 8.866680074997042e+000	 1.001265116435374e+001
0	 7.266639999985470e+000	 8.933340177755778e+000	 1.001133798262236e+001
0	 7.266639999985471e+000	 9.000000347171179e+000	 1.001009038395504e+001
0	 7.266639999985472e+000	 9.066660599907667e+000	 1.000890513229379e+001
0	 7.266639999985472e+000	 9.133320952629658e+000	 1.000777899136851e+001
0	 7.266639999985472e+000	 9.199981422001558e+000	 1.000670872469709e+001
0	 7.266639999985473e+000	 9.266642024687798e+000	 1.000569109558533e+001
0	 7.266639999985471e+000	 9.333302777352783e+000	 1.000472286712698e+001
0	 7.333299999983334e+000	 8.666700000016665e+000	 1.001652364744313e+001
0	 7.333299999983335e+000	 8.733360002791903e+000	 1.001503906823273e+001
0	 7.333299999983333e+000	 8.800020022230555e+000	 1.001362759627035e+001
0	 7.333299999983335e+000	 8.866680074997040e+000	 1.001228608857742e+001
0	 7.333299999983334e+000	 8.933340177755779e+000	 1.001101140196934e+001
0	 7.333299999983333e+000	 9.000000347171179e+000	 1.000980039305532e+001
0	 7.333299999983335e+000	 9.066660599907667e+000	 1.000864991823847e+001
0	 7.333299999983334e+000	 9.133320952629655e+000	 1.000755683371578e+001
0	 7.333299999983333e+000	 9.199981422001558e+000	 1.000651799547809e+001
0	 7.333299999983333e+000	 9.266642024687794e+000	 1.000553025931014e+001
0	 7.333299999983334e+000	 9.333302777352781e+000	 1.000459048079053e+001
0	 6.666700000016665e+000	 9.333302777352781e+000	 1.000591676440669e+001
0	 6.666700000016666e+000	 9.399973674588177e+000	 1.000480432398195e+001
0	 6.666700000016665e+000	 9.466644621844619e+000	 1.000381924453292e+001
0	 6.666700000016667e+000	 9.533315502449998e+000	 1.000295637901870e+001
0	 6.666700000016666e+000	 9.599986199732198e+000	 1.000221058300820e+001
0	 6.666700000016665e+000	 9.666656597019093e+000	 1.000157671468038e+001
0	 6.666700000016666e+000	 9.733326577638575e+000	 1.000104963482417e+001
0	 6.666700000016666e+000	 9.799996024918521e+000	 1.000062420683848e+001
0	 6.666700000016666e+000	 9.866664822186822e+000	 1.000029529673254e+001
0	 6.666700000016665e+000	 9.933332852771352e+000	 1.000005777312613e+001
0	 6.666700000016666e+000	 1.000000000000000e+001	 9.999906507249731e+000
0	 6.733360000014532e+000	 9.333302777352783e+000	 1.000580070640759e+001
0	 6.733360000014532e+000	 9.399973674588175e+000	 1.000471101266298e+001
0	 6.733360000014532e+000	 9.466644621844621e+000	 1.000374607480461e+001
0	 6.733360000014534e+000	 9.533315502450002e+000	 1.000290089685629e+001
0	 6.733360000014530e+000	 9.599986199732195e+000	 1.000217048540098e+001
0	 6.733360000014533e+000	 9.666656597019095e+000	 1.000154984958075e+001
0	 6.733360000014531e+000	 9.733326577638575e+000	 1.000103400109688e+001
0	 6.733360000014533e+000	 9.799996024918523e+000	 1.000061795420992e+001
0	 6.733360000014532e+000	 9.866664822186824e+000	 1.000029672573990e+001
0	 6.733360000014534e+000	 9.933332852771352e+000	 1.000006533506664e+001
0	 6.733360000014533e+000	 1.000000000000000e+001	 9.999918804129884e+000
0	 6.800020000011601e+000	 9.333302777352783e+000	 1.000567723001956e+001
0	 6.800020000011597e+000	 9.399973674588173e+000	 1.000461074839264e+001
0	 6.800020000011599e+000	 9.466644621844619e+000	 1.000366632938750e+001
0	 6.800020000011599e+000	 9.533315502450000e+000	 1.000283912813623e+001
0	 6.800020000011599e+000	 9.599986199732195e+000	 1.000212430227770e+001
0	 6.800020000011601e+000	 9.666656597019093e+000	 1.000151701195768e+001
0	 6.800020000011600e+000	 9.733326577638577e+000	 1.000101241982874e+001
0	 6.800020000011601e+000	 9.799996024918523e+000	 1.000060569105040e+001
0	 6.800020000011600e+000	 9.866664822186820e+000	 1.000029199328939e+001
0	 6.800020000011599e+000	 9.933332852771351e+000	 1.000006649671975e+001
0	 6.800020000011600e+000	 1.000000000000000e+001	 9.999924374023467e+000
0	 6.866680000008068e+000	 9.333302777352783e+000	 1.000554773627489e+001
0	 6.866680000008066e+000	 9.399973674588178e+000	 1.000450491238171e+001
0	 6.866680000008066e+000	 9.466644621844617e+000	 1.000358138125107e+001
0	 6.866680000008067e+000	 9.533315502450000e+000	 1.000277244916686e+001
0	 6.866680000008065e+000	 9.599986199732195e+000	 1.000207342486601e+001
0	 6.866680000008066e+000	 9.666656597019095e+000	 1.000147961953857e+001
0	 6.866680000008066e+000	 9.733326577638573e+000	 1.000098634682773e+001
0	 6.866680000008066e+000	 9.799996024918523e+000	 1.000058892282974e+001
0	 6.866680000008066e+000	 9.866664822186824e+000	 1.000028266609448e+001
0	 6.866680000008068e+000	 9.933332852771352e+000	 1.000006289762532e+001
0	 6.866680000008066e+000	 9.999999999999998e+000	 9.999924940879698e+000
0	 6.933340000004136e+000	 9.333302777352786e+000	 1.000541362620591e+001
0	 6.933340000004133e+000	 9.399973674588173e+000	 1.000439488584093e+001
0	 6.933340000004133e+000	 9.466644621844619e+000	 1.000349260336478e+001
0	 6.933340000004132e+000	 9.533315502449998e+000	 1.000270223625663e+001
0	 6.933340000004134e+000	 9.599986199732197e+000	 1.000201924439359e+001
0	 6.933340000004136e+000	 9.666656597019095e+000	 1.000143909005090e+001
0	 6.933340000004136e+000	 9.733326577638575e+000	 1.000095723790182e+001
0	 6.933340000004134e+000	 9.799996024918521e+000	 1.000056915501782e+001
0	 6.933340000004135e+000	 9.866664822186822e+000	 1.000027031086878e+001
0	 6.933340000004135e+000	 9.933332852771352e+000	 1.000005617732309e+001
0	 6.933340000004134e+000	 9.999999999999998e+000	 9.999922228648195e+000
0	 7.000000000000002e+000	 9.333302777352783e+000	 1.000527630084492e+001
0	 7.000000000000002e+000	 9.399973674588177e+000	 1.000428204998108e+001
0	 7.000000000000003e+000	 9.466644621844621e+000	 1.000340136869815e+001
0	 7.000000000000002e+000	 9.533315502449998e+000	 1.000262986571392e+001
0	 7.000000000000000e+000	 9.599986199732197e+000	 1.000196315208805e+001
0	 7.000000000000001e+000	 9.666656597019093e+000	 1.000139684122194e+001
0	 7.000000000000003e+000	 9.733326577638577e+000	 1.000092654885898e+001
0	 7.000000000000001e+000	 9.799996024918524e+000	 1.000054789308443e+001
0	 7.000000000000003e+000	 9.866664822186825e+000	 1.000025649432582e+001
0	 7.000000000000001e+000	 9.933332852771354e+000	 1.000004797535294e+001
0	 7.000000000000002e+000	 1.000000000000000e+001	 9.999917961278388e+000
0	 7.066659999995870e+000	 9.333302777352783e+000	 1.000513716122422e+001
0	 7.066659999995868e+000	 9.399973674588175e+000	 1.000416778601291e+001
0	 7.066659999995871e+000	 9.466644621844621e+000	 1.000330905022057e+001
0	 7.066659999995871e+000	 9.533315502450002e+000	 1.000255671384715e+001
0	 7.066659999995870e+000	 9.599986199732197e+000	 1.000190653917700e+001
0	 7.066659999995869e+000	 9.666656597019095e+000	 1.000135429077914e+001
0	 7.066659999995870e+000	 9.733326577638573e+000	 1.000089573550720e+001
0	 7.066659999995870e+000	 9.799996024918524e+000	 1.000052664249949e+001
0	 7.066659999995870e+000	 9.866664822186824e+000	 1.000024278317918e+001
0	 7.066659999995870e+000	 9.933332852771356e+000	 1.000003993125463e+001
0	 7.066659999995869e+000	 9.999999999999998e+000	 9.999913862719669e+000
0	 7.133319999991937e+000	 9.333302777352781e+000	 1.000499760837613e+001
0	 7.133319999991936e+000	 9.399973674588177e+000	 1.000405347514716e+001
0	 7.133319999991937e+000	 9.466644621844619e+000	 1.000321702090160e+001
0	 7.133319999991936e+000	 9.533315502450002e+000	 1.000248415696471e+001
0	 7.133319999991937e+000	 9.599986199732202e+000	 1.000185079688816e+001
0	 7.133319999991937e+000	 9.666656597019095e+000	 1.000131285644993e+001
0	 7.133319999991936e+000	 9.733326577638577e+000	 1.000086625365449e+001
0	 7.133319999991937e+000	 9.799996024918523e+000	 1.000050690873271e+001
0	 7.133319999991937e+000	 9.866664822186824e+000	 1.000023074414236e+001
0	 7.133319999991937e+000	 9.933332852771354e+000	 1.000003368456802e+001
0	 7.133319999991937e+000	 1.000000000000000e+001	 9.999911656921388e+000
0	 7.199979999988404e+000	 9.333302777352785e+000	 1.000485904333294e+001
0	 7.199979999988403e+000	 9.399973674588175e+000	 1.000394049859461e+001
0	 7.199979999988403e+000	 9.466644621844617e+000	 1.000312665371064e+001
0	 7.199979999988404e+000	 9.533315502450000e+000	 1.000241357137501e+001
0	 7.199979999988403e+000	 9.599986199732197e+000	 1.000179731644911e+001
0	 7.199979999988402e+000	 9.666656597019093e+000	 1.000127395596163e+001
0	 7.199979999988403e+000	 9.733326577638575e+000	 1.000083955910871e+001
0	 7.199979999988405e+000	 9.799996024918523e+000	 1.000049019725404e+001
0	 7.199979999988403e+000	 9.866664822186822e+000	 1.000022194392902e+001
0	 7.199979999988404e+000	 9.933332852771354e+000	 1.000003087483288e+001
0	 7.199979999988405e+000	 1.000000000000000e+001	 9.999913067833116e+000
0	 7.266639999985471e+000	 9.333302777352783e+000	 1.000472286712698e+001
0	 7.266639999985473e+000	 9.399973674588177e+000	 1.000383023756602e+001
0	 7.266639999985470e+000	 9.466644621844619e+000	 1.000303932161718e+001
0	 7.266639999985472e+000	 9.533315502449998e+000	 1.000234633338646e+001
0	 7.266639999985472e+000	 9.599986199732197e+000	 1.000174748908750e+001
0	 7.266639999985471e+000	 9.666656597019095e+000	 1.000123900704165e+001
0	 7.266639999985470e+000	 9.733326577638575e+000	 1.000081710767795e+001
0	 7.266639999985471e+000	 9.799996024918524e+000	 1.000047801353331e+001
0	 7.266639999985471e+000	 9.866664822186822e+000	 1.000021794925261e+001
0	 7.266639999985471e+000	 9.933332852771352e+000	 1.000003314158900e+001
0	 7.266639999985471e+000	 1.000000000000000e+001	 9.999919819404056e+000
0	 7.333299999983334e+000	 9.333302777352781e+000	 1.000459048079053e+001
0	 7.333299999983336e+000	 9.399973674588173e+000	 1.000372407327212e+001
0	 7.333299999983334e+000	 9.466644621844624e+000	 1.000295639759071e+001
0	 7.333299999983333e+000	 9.533315502449998e+000	 1.000228381930746e+001
0	 7.333299999983335e+000	 9.599986199732195e+000	 1.000170270603100e+001
0	 7.333299999983334e+000	 9.666656597019097e+000	 1.000120942741739e+001
0	 7.333299999983333e+000	 9.733326577638573e+000	 1.000080035517014e+001
0	 7.333299999983335e+000	 9.799996024918523e+000	 1.000047186304031e+001
0	 7.333299999983333e+000	 9.866664822186822e+000	 1.000022032682675e+001
0	 7.333299999983333e+000	 9.933332852771354e+000	 1.000004212437625e+001
0	 7.333299999983335e+000	 1.000000000000000e+001	 9.999933635583947e+000
0	 7.333299999983335e+000	 0.000000000000000e+000	 1.004757889093788e+001
0	 7.333299999983334e+000	 6.666714722864756e-002	 1.004789567121446e+001
0	 7.333299999983334e+000	 1.333351778131789e-001	 1.004829770885609e+001
0	 7.333299999983335e+000	 2.000039750814772e-001	 1.004879295625924e+001
0	 7.333299999983333e+000	 2.666734223614256e-001	 1.004938936879103e+001
0	 7.333299999983336e+000	 3.333434029809069e-001	 1.005009490478893e+001
0	 7.333299999983335e+000	 4.000138002678045e-001	 1.005091752556071e+001
0	 7.333299999983333e+000	 4.666844975500011e-001	 1.005186519538424e+001
0	 7.333299999983335e+000	 5.333553781553803e-001	 1.005294588150758e+001
0	 7.333299999983335e+000	 6.000263254118248e-001	 1.005416755414901e+001
0	 7.333299999983332e+000	 6.666972226472178e-001	 1.005553818649721e+001
0	 7.399969999982150e+000	 0.000000000000000e+000	 1.003953598455634e+001
0	 7.399969999982149e+000	 6.666714722864757e-002	 1.003984868789837e+001
0	 7.399969999982151e+000	 1.333351778131789e-001	 1.004025756167831e+001
0	 7.399969999982151e+000	 2.000039750814772e-001	 1.004076874995922e+001
0	 7.399969999982151e+000	 2.666734223614254e-001	 1.004138839966359e+001
0	 7.399969999982149e+000	 3.333434029809069e-001	 1.004212266057304e+001
0	 7.399969999982150e+000	 4.000138002678045e-001	 1.004297768532825e+001
0	 7.399969999982149e+000	 4.666844975500011e-001	 1.004395962942886e+001
0	 7.399969999982151e+000	 5.333553781553801e-001	 1.004507465123344e+001
0	 7.399969999982150e+000	 6.000263254118246e-001	 1.004632891195963e+001
0	 7.399969999982150e+000	 6.666972226472177e-001	 1.004772857568426e+001
0	 7.466639999981865e+000	 0.000000000000000e+000	 1.003167661307450e+001
0	 7.466639999981864e+000	 6.666714722864756e-002	 1.003196688376457e+001
0	 7.466639999981866e+000	 1.333351778131789e-001	 1.003236259116678e+001
0	 7.466639999981867e+000	 2.000039750814773e-001	 1.003286829491875e+001
0	 7.466639999981864e+000	 2.666734223614254e-001	 1.003348855741295e+001
0	 7.466639999981866e+000	 3.333434029809069e-001	 1.003422794379639e+001
0	 7.466639999981865e+000	 4.000138002678043e-001	 1.003509102197050e+001
0	 7.466639999981865e+000	 4.666844975500011e-001	 1.003608236259107e+001
0	 7.466639999981864e+000	 5.333553781553803e-001	 1.003720653906833e+001
0	 7.466639999981865e+000	 6.000263254118248e-001	 1.003846812756687e+001
0	 7.466639999981865e+000	 6.666972226472177e-001	 1.003987170700593e+001
0	 7.533309999982381e+000	 0.000000000000000e+000	 1.002396300314667e+001
0	 7.533309999982382e+000	 6.666714722864756e-002	 1.002421676292945e+001
0	 7.533309999982382e+000	 1.333351778131790e-001	 1.002458356318716e+001
0	 7.533309999982382e+000	 2.000039750814773e-001	 1.002506660306296e+001
0	 7.533309999982383e+000	 2.666734223614256e-001	 1.002566908435667e+001
0	 7.533309999982381e+000	 3.333434029809068e-001	 1.002639421152452e+001
0	 7.533309999982381e+000	 4.000138002678044e-001	 1.002724519167901e+001
0	 7.533309999982382e+000	 4.666844975500011e-001	 1.002822523458888e+001
0	 7.533309999982384e+000	 5.333553781553801e-001	 1.002933755267908e+001
0	 7.533309999982381e+000	 6.000263254118246e-001	 1.003058536103085e+001
0	 7.533309999982381e+000	 6.666972226472175e-001	 1.003197187738191e+001
0	 7.599979999983598e+000	 0.000000000000000e+000	 1.001635738142715e+001
0	 7.599979999983597e+000	 6.666714722864754e-002	 1.001656482950940e+001
0	 7.599979999983598e+000	 1.333351778131789e-001	 1.001689124360512e+001
0	 7.599979999983599e+000	 2.000039750814772e-001	 1.001733868631695e+001
0	 7.599979999983599e+000	 2.666734223614256e-001	 1.001790922281225e+001
0	 7.599979999983598e+000	 3.333434029809069e-001	 1.001860492082294e+001
0	 7.599979999983601e+000	 4.000138002678044e-001	 1.001942785064537e+001
0	 7.599979999983598e+000	 4.666844975500011e-001	 1.002038008514020e+001
0	 7.599979999983599e+000	 5.333553781553801e-001	 1.002146369973250e+001
0	 7.599979999983598e+000	 6.000263254118244e-001	 1.002268077241172e+001
0	 7.599979999983598e+000	 6.666972226472177e-001	 1.002403338373191e+001
0	 7.666649999985414e+000	 0.000000000000000e+000	 1.000882197457024e+001
0	 7.666649999985414e+000	 6.666714722864756e-002	 1.000897758762077e+001
0	 7.666649999985416e+000	 1.333351778131789e-001	 1.000925639828633e+001
0	 7.666649999985417e+000	 2.000039750814773e-001	 1.000965955660584e+001
0	 7.666649999985414e+000	 2.666734223614254e-001	 1.001018821509722e+001
0	 7.666649999985414e+000	 3.333434029809068e-001	 1.001084352875720e+001
0	 7.666649999985417e+000	 4.000138002678044e-001	 1.001162665506114e+001
0	 7.666649999985415e+000	 4.666844975500012e-001	 1.001253875396303e+001
0	 7.666649999985415e+000	 5.333553781553803e-001	 1.001358098789544e+001
0	 7.666649999985413e+000	 6.000263254118246e-001	 1.001475452176964e+001
0	 7.666649999985416e+000	 6.666972226472177e-001	 1.001606052297563e+001
0	 7.733319999987730e+000	 0.000000000000000e+000	 1.000131900923025e+001
0	 7.733319999987733e+000	 6.666714722864756e-002	 1.000142154137996e+001
0	 7.733319999987733e+000	 1.333351778131789e-001	 1.000164979309644e+001
0	 7.733319999987730e+000	 2.000039750814772e-001	 1.000200422585474e+001
0	 7.733319999987731e+000	 2.666734223614256e-001	 1.000248530352912e+001
0	 7.733319999987732e+000	 3.333434029809069e-001	 1.000309349239280e+001
0	 7.733319999987733e+000	 4.000138002678044e-001	 1.000382926111790e+001
0	 7.733319999987730e+000	 4.666844975500011e-001	 1.000469308077531e+001
0	 7.733319999987731e+000	 5.333553781553803e-001	 1.000568542483473e+001
0	 7.733319999987732e+000	 6.000263254118247e-001	 1.000680676916472e+001
0	 7.733319999987733e+000	 6.666972226472177e-001	 1.000805759203280e+001
0	 7.799989999990447e+000	 0.000000000000000e+000	 9.993810712061485e+000
0	 7.799989999990450e+000	 6.666714722864757e-002	 9.993863194903346e+000
0	 7.799989999990449e+000	 1.333351778131790e-001	 9.994042193901128e+000
0	 7.799989999990447e+000	 2.000039750814772e-001	 9.994347705988794e+000
0	 7.799989999990448e+000	 2.666734223614256e-001	 9.994779730425480e+000
0	 7.799989999990450e+000	 3.333434029809069e-001	 9.995338268795303e+000
0	 7.799989999990448e+000	 4.000138002678043e-001	 9.996023325007224e+000
0	 7.799989999990447e+000	 4.666844975500011e-001	 9.996834905295017e+000
0	 7.799989999990449e+000	 5.333553781553804e-001	 9.997773018217188e+000
0	 7.799989999990449e+000	 6.000263254118248e-001	 9.998837674657134e+000
0	 7.799989999990450e+000	 6.666972226472179e-001	 1.000002888782312e+001
0	 7.866659999993463e+000	 0.000000000000000e+000	 9.986259309718253e+000
0	 7.866659999993464e+000	 6.666714722864754e-002	 9.986269052307314e+000
0	 7.866659999993464e+000	 1.333351778131789e-001	 9.986404366566067e+000
0	 7.866659999993465e+000	 2.000039750814773e-001	 9.986665008933105e+000
0	 7.866659999993465e+000	 2.666734223614255e-001	 9.987050738103825e+000
0	 7.866659999993464e+000	 3.333434029809069e-001	 9.987561315030204e+000
0	 7.866659999993463e+000	 4.000138002678044e-001	 9.988196502920687e+000
0	 7.866659999993464e+000	 4.666844975500012e-001	 9.988956067240109e+000
0	 7.866659999993464e+000	 5.333553781553801e-001	 9.989839775709664e+000
0	 7.866659999993465e+000	 6.000263254118247e-001	 9.990847398307000e+000
0	 7.866659999993464e+000	 6.666972226472177e-001	 9.991978707266291e+000
0	 7.933329999996681e+000	 0.000000000000000e+000	 9.978627028854852e+000
0	 7.933329999996681e+000	 6.666714722864756e-002	 9.978605617708240e+000
0	 7.933329999996682e+000	 1.333351778131790e-001	 9.978707076956908e+000
0	 7.933329999996682e+000	 2.000039750814772e-001	 9.978931146612803e+000
0	 7.933329999996683e+000	 2.666734223614256e-001	 9.979277568881701e+000
0	 7.933329999996680e+000	 3.333434029809068e-001	 9.979746088163067e+000
0	 7.933329999996681e+000	 4.000138002678044e-001	 9.980336451049869e+000
0	 7.933329999996680e+000	 4.666844975500011e-001	 9.981048406328551e+000
0	 7.933329999996679e+000	 5.333553781553800e-001	 9.981881704978980e+000
0	 7.933329999996682e+000	 6.000263254118248e-001	 9.982836100174493e+000
0	 7.933329999996682e+000	 6.666972226472177e-001	 9.983911347282032e+000
0	 8.000000000000000e+000	 0.000000000000000e+000	 9.970876096125604e+000
0	 8.000000000000002e+000	 6.666714722864757e-002	 9.970839395222519e+000
0	 8.000000000000000e+000	 1.333351778131789e-001	 9.970921090939337e+000
0	 8.000000000000000e+000	 2.000039750814773e-001	 9.971121130952984e+000
0	 8.000000000000002e+000	 2.666734223614256e-001	 9.971439465076628e+000
0	 8.000000000000000e+000	 3.333434029809069e-001	 9.971876045259403e+000
0	 8.000000000000000e+000	 4.000138002678044e-001	 9.972430825586351e+000
0	 8.000000000000000e+000	 4.666844975500011e-001	 9.973103762278328e+000
0	 7.999999999999999e+000	 5.333553781553803e-001	 9.973894813691965e+000
0	 8.000000000000000e+000	 6.000263254118246e-001	 9.974803940319745e+000
0	 7.999999999999999e+000	 6.666972226472177e-001	 9.975831104790068e+000
0	 7.333299999983332e+000	 6.666972226472178e-001	 1.005553818649721e+001
0	 7.333299999983334e+000	 7.333579753122048e-001	 1.005700322358108e+001
0	 7.333299999983334e+000	 8.000185779984417e-001	 1.005850672525394e+001
0	 7.333299999983334e+000	 8.666790473703454e-001	 1.006005393752580e+001
0	 7.333299999983335e+000	 9.333394000923323e-001	 1.006165010616786e+001
0	 7.333299999983334e+000	 9.999996528288190e-001	 1.006330047671259e+001
0	 7.333299999983335e+000	 1.066659822244222e+000	 1.006501029445368e+001
0	 7.333299999983335e+000	 1.133319925002959e+000	 1.006678480444607e+001
0	 7.333299999983333e+000	 1.199979977769445e+000	 1.006862925150595e+001
0	 7.333299999983335e+000	 1.266639997208098e+000	 1.007054888021076e+001
0	 7.333299999983335e+000	 1.333299999983334e+000	 1.007254893489921e+001
0	 7.399969999982150e+000	 6.666972226472177e-001	 1.004772857568426e+001
0	 7.399969999982151e+000	 7.333579753122047e-001	 1.004921576453781e+001
0	 7.399969999982151e+000	 8.000185779984417e-001	 1.005073239100689e+001
0	 7.399969999982151e+000	 8.666790473703451e-001	 1.005228364322792e+001
0	 7.399969999982150e+000	 9.333394000923321e-001	 1.005387470911979e+001
0	 7.399969999982149e+000	 9.999996528288190e-001	 1.005551077638394e+001
0	 7.399969999982150e+000	 1.066659822244222e+000	 1.005719703250434e+001
0	 7.399969999982148e+000	 1.133319925002958e+000	 1.005893866474749e+001
0	 7.399969999982151e+000	 1.199979977769445e+000	 1.006074086016241e+001
0	 7.399969999982150e+000	 1.266639997208098e+000	 1.006260880558067e+001
0	 7.399969999982149e+000	 1.333299999983334e+000	 1.006454768761643e+001
0	 7.466639999981865e+000	 6.666972226472177e-001	 1.003987170700593e+001
0	 7.466639999981864e+000	 7.333579753122048e-001	 1.004135877186722e+001
0	 7.466639999981866e+000	 8.000185779984416e-001	 1.004287161348112e+001
0	 7.466639999981865e+000	 8.666790473703453e-001	 1.004441534373984e+001
0	 7.466639999981867e+000	 9.333394000923321e-001	 1.004599507433088e+001
0	 7.466639999981865e+000	 9.999996528288189e-001	 1.004761591673711e+001
0	 7.466639999981866e+000	 1.066659822244222e+000	 1.004928298223677e+001
0	 7.466639999981866e+000	 1.133319925002959e+000	 1.005100138190343e+001
0	 7.466639999981865e+000	 1.199979977769445e+000	 1.005277622660604e+001
0	 7.466639999981866e+000	 1.266639997208098e+000	 1.005461262700890e+001
0	 7.466639999981866e+000	 1.333299999983334e+000	 1.005651569357167e+001
0	 7.533309999982381e+000	 6.666972226472175e-001	 1.003197187738191e+001
0	 7.533309999982382e+000	 7.333579753122047e-001	 1.003344021688213e+001
0	 7.533309999982382e+000	 8.000185779984415e-001	 1.003493513020167e+001
0	 7.533309999982384e+000	 8.666790473703456e-001	 1.003646163461004e+001
0	 7.533309999982383e+000	 9.333394000923321e-001	 1.003802474717781e+001
0	 7.533309999982382e+000	 9.999996528288192e-001	 1.003962948477660e+001
0	 7.533309999982381e+000	 1.066659822244222e+000	 1.004128086407911e+001
0	 7.533309999982384e+000	 1.133319925002959e+000	 1.004298390155912e+001
0	 7.533309999982384e+000	 1.199979977769445e+000	 1.004474361349149e+001
0	 7.533309999982383e+000	 1.266639997208098e+000	 1.004656501595216e+001
0	 7.533309999982382e+000	 1.333299999983334e+000	 1.004845312481812e+001
0	 7.599979999983598e+000	 6.666972226472177e-001	 1.002403338373191e+001
0	 7.599979999983600e+000	 7.333579753122048e-001	 1.002546807089535e+001
0	 7.599979999983599e+000	 8.000185779984416e-001	 1.002693367869355e+001
0	 7.599979999983598e+000	 8.666790473703451e-001	 1.002843511138702e+001
0	 7.599979999983598e+000	 9.333394000923319e-001	 1.002997727303729e+001
0	 7.599979999983598e+000	 9.999996528288191e-001	 1.003156506750691e+001
0	 7.599979999983599e+000	 1.066659822244222e+000	 1.003320339845952e+001
0	 7.599979999983598e+000	 1.133319925002959e+000	 1.003489716935979e+001
0	 7.599979999983599e+000	 1.199979977769445e+000	 1.003665128347341e+001
0	 7.599979999983598e+000	 1.266639997208098e+000	 1.003847064386719e+001
0	 7.599979999983598e+000	 1.333299999983334e+000	 1.004036015340894e+001
0	 7.666649999985416e+000	 6.666972226472177e-001	 1.001606052297564e+001
0	 7.666649999985416e+000	 7.333579753122048e-001	 1.001745030521967e+001
0	 7.666649999985414e+000	 8.000185779984416e-001	 1.001887799648179e+001
0	 7.666649999985416e+000	 8.666790473703452e-001	 1.002034836961926e+001
0	 7.666649999985413e+000	 9.333394000923320e-001	 1.002186619728602e+001
0	 7.666649999985415e+000	 9.999996528288189e-001	 1.002343625193259e+001
0	 7.666649999985413e+000	 1.066659822244222e+000	 1.002506330580618e+001
0	 7.666649999985415e+000	 1.133319925002959e+000	 1.002675213095062e+001
0	 7.666649999985416e+000	 1.199979977769445e+000	 1.002850749920644e+001
0	 7.666649999985416e+000	 1.266639997208098e+000	 1.003033418221073e+001
0	 7.666649999985415e+000	 1.333299999983333e+000	 1.003223695139730e+001
0	 7.733319999987733e+000	 6.666972226472177e-001	 1.000805759203280e+001
0	 7.733319999987730e+000	 7.333579753122047e-001	 1.000939489116793e+001
0	 7.733319999987730e+000	 8.000185779984415e-001	 1.001077882109141e+001
0	 7.733319999987731e+000	 8.666790473703452e-001	 1.001221400485526e+001
0	 7.733319999987733e+000	 9.333394000923324e-001	 1.001370506530069e+001
0	 7.733319999987733e+000	 9.999996528288190e-001	 1.001525662505812e+001
0	 7.733319999987731e+000	 1.066659822244222e+000	 1.001687330654723e+001
0	 7.733319999987731e+000	 1.133319925002959e+000	 1.001855973197689e+001
0	 7.733319999987731e+000	 1.199979977769445e+000	 1.002032052334520e+001
0	 7.733319999987731e+000	 1.266639997208098e+000	 1.002216030243950e+001
0	 7.733319999987732e+000	 1.333299999983334e+000	 1.002408369083636e+001
0	 7.799989999990450e+000	 6.666972226472179e-001	 1.000002888782312e+001
0	 7.799989999990447e+000	 7.333579753122047e-001	 1.000130980005292e+001
0	 7.799989999990447e+000	 8.000185779984416e-001	 1.000264689004744e+001
0	 7.799989999990449e+000	 8.666790473703453e-001	 1.000404461264349e+001
0	 7.799989999990447e+000	 9.333394000923323e-001	 1.000550742245799e+001
0	 7.799989999990448e+000	 9.999996528288188e-001	 1.000703977388803e+001
0	 7.799989999990447e+000	 1.066659822244222e+000	 1.000864612111084e+001
0	 7.799989999990448e+000	 1.133319925002959e+000	 1.001033091808376e+001
0	 7.799989999990447e+000	 1.199979977769445e+000	 1.001209861854434e+001
0	 7.799989999990448e+000	 1.266639997208098e+000	 1.001395367601025e+001
0	 7.799989999990448e+000	 1.333299999983334e+000	 1.001590054377930e+001
0	 7.866659999993464e+000	 6.666972226472177e-001	 9.991978707266291e+000
0	 7.866659999993464e+000	 7.333579753122048e-001	 9.993203003187455e+000
0	 7.866659999993465e+000	 8.000185779984416e-001	 9.994492940874901e+000
0	 7.866659999993465e+000	 8.666790473703451e-001	 9.995852788532448e+000
0	 7.866659999993466e+000	 9.333394000923324e-001	 9.997286814134643e+000
0	 7.866659999993465e+000	 9.999996528288190e-001	 9.998799285426841e+000
0	 7.866659999993464e+000	 1.066659822244222e+000	 1.000039446992516e+001
0	 7.866659999993465e+000	 1.133319925002959e+000	 1.000207663491649e+001
0	 7.866659999993465e+000	 1.199979977769445e+000	 1.000385004745852e+001
0	 7.866659999993463e+000	 1.266639997208098e+000	 1.000571897437969e+001
0	 7.866659999993465e+000	 1.333299999983334e+000	 1.000768768227928e+001
0	 7.933329999996682e+000	 6.666972226472177e-001	 9.983911347282032e+000
0	 7.933329999996680e+000	 7.333579753122045e-001	 9.985082471884359e+000
0	 7.933329999996681e+000	 8.000185779984416e-001	 9.986327711098840e+000
0	 7.933329999996682e+000	 8.666790473703456e-001	 9.987651128070626e+000
0	 7.933329999996682e+000	 9.333394000923321e-001	 9.989056785707337e+000
0	 7.933329999996682e+000	 9.999996528288190e-001	 9.990548746679057e+000
0	 7.933329999996682e+000	 1.066659822244222e+000	 9.992131073418358e+000
0	 7.933329999996681e+000	 1.133319925002959e+000	 9.993807828120284e+000
0	 7.933329999996680e+000	 1.199979977769445e+000	 9.995583072742361e+000
0	 7.933329999996682e+000	 1.266639997208098e+000	 9.997460869004588e+000
0	 7.933329999996682e+000	 1.333299999983334e+000	 9.999445278389468e+000
0	 7.999999999999999e+000	 6.666972226472177e-001	 9.975831104790066e+000
0	 8.000000000000000e+000	 7.333579753122049e-001	 9.976956177456437e+000
0	 8.000000000000000e+000	 8.000185779984418e-001	 9.978161938244266e+000
0	 8.000000000000000e+000	 8.666790473703454e-001	 9.979452226806519e+000
0	 8.000000000000000e+000	 9.333394000923323e-001	 9.980830882552770e+000
0	 8.000000000000000e+000	 9.999996528288189e-001	 9.982301744649194e+000
0	 8.000000000000000e+000	 1.066659822244222e+000	 9.983868652018590e+000
0	 8.000000000000000e+000	 1.133319925002959e+000	 9.985535443340362e+000
0	 8.000000000000000e+000	 1.199979977769445e+000	 9.987305957050506e+000
0	 7.999999999999999e+000	 1.266639997208097e+000	 9.989184031341653e+000
0	 8.000000000000000e+000	 1.333299999983334e+000	 9.991173504163040e+000
0	 7.333299999983335e+000	 1.333299999983334e+000	 1.007254893489921e+001
0	 7.333299999983334e+000	 1.399969999982150e+000	 1.007458776690305e+001
0	 7.333299999983335e+000	 1.466639999981867e+000	 1.007662626703795e+001
0	 7.333299999983334e+000	 1.533309999982383e+000	 1.007867440768841e+001
0	 7.333299999983334e+000	 1.599979999983599e+000	 1.008074216123893e+001
0	 7.333299999983334e+000	 1.666649999985416e+000	 1.008283950007401e+001
0	 7.333299999983335e+000	 1.733319999987733e+000	 1.008497639657817e+001
0	 7.333299999983335e+000	 1.799989999990450e+000	 1.008716282313589e+001
0	 7.333299999983334e+000	 1.866659999993466e+000	 1.008940875213168e+001
0	 7.333299999983335e+000	 1.933329999996683e+000	 1.009172415595004e+001
0	 7.333299999983335e+000	 2.000000000000000e+000	 1.009411900697548e+001
0	 7.399969999982149e+000	 1.333299999983334e+000	 1.006454768761643e+001
0	 7.399969999982150e+000	 1.399969999982150e+000	 1.006652716052463e+001
0	 7.399969999982151e+000	 1.466639999981866e+000	 1.006851821727876e+001
0	 7.399969999982149e+000	 1.533309999982383e+000	 1.007052894173215e+001
0	 7.399969999982150e+000	 1.599979999983600e+000	 1.007256741773811e+001
0	 7.399969999982150e+000	 1.666649999985416e+000	 1.007464172914999e+001
0	 7.399969999982149e+000	 1.733319999987733e+000	 1.007675995982110e+001
0	 7.399969999982149e+000	 1.799989999990450e+000	 1.007893019360477e+001
0	 7.399969999982149e+000	 1.866659999993466e+000	 1.008116051435435e+001
0	 7.399969999982151e+000	 1.933329999996683e+000	 1.008345900592314e+001
0	 7.399969999982152e+000	 2.000000000000000e+000	 1.008583375216449e+001
0	 7.466639999981866e+000	 1.333299999983334e+000	 1.005651569357167e+001
0	 7.466639999981865e+000	 1.399969999982150e+000	 1.005846164770902e+001
0	 7.466639999981867e+000	 1.466639999981867e+000	 1.006042702919888e+001
0	 7.466639999981864e+000	 1.533309999982383e+000	 1.006241829812595e+001
0	 7.466639999981866e+000	 1.599979999983599e+000	 1.006444191457493e+001
0	 7.466639999981867e+000	 1.666649999985416e+000	 1.006650433863055e+001
0	 7.466639999981865e+000	 1.733319999987733e+000	 1.006861203037753e+001
0	 7.466639999981867e+000	 1.799989999990450e+000	 1.007077144990056e+001
0	 7.466639999981866e+000	 1.866659999993466e+000	 1.007298905728437e+001
0	 7.466639999981868e+000	 1.933329999996684e+000	 1.007527131261367e+001
0	 7.466639999981866e+000	 2.000000000000000e+000	 1.007762467597317e+001
0	 7.533309999982382e+000	 1.333299999983334e+000	 1.004845312481812e+001
0	 7.533309999982383e+000	 1.399969999982150e+000	 1.005038675748109e+001
0	 7.533309999982383e+000	 1.466639999981866e+000	 1.005234421123541e+001
0	 7.533309999982382e+000	 1.533309999982383e+000	 1.005433058715974e+001
0	 7.533309999982381e+000	 1.599979999983600e+000	 1.005635098633272e+001
0	 7.533309999982382e+000	 1.666649999985415e+000	 1.005841050983302e+001
0	 7.533309999982382e+000	 1.733319999987733e+000	 1.006051425873930e+001
0	 7.533309999982382e+000	 1.799989999990450e+000	 1.006266733413020e+001
0	 7.533309999982382e+000	 1.866659999993466e+000	 1.006487483708437e+001
0	 7.533309999982383e+000	 1.933329999996683e+000	 1.006714186868050e+001
0	 7.533309999982381e+000	 2.000000000000000e+000	 1.006947352999723e+001
0	 7.599979999983598e+000	 1.333299999983334e+000	 1.004036015340894e+001
0	 7.599979999983599e+000	 1.399969999982150e+000	 1.004229801886569e+001
0	 7.599979999983599e+000	 1.466639999981866e+000	 1.004426127182548e+001
0	 7.599979999983599e+000	 1.533309999982383e+000	 1.004625391912348e+001
0	 7.599979999983598e+000	 1.599979999983599e+000	 1.004827996759483e+001
0	 7.599979999983598e+000	 1.666649999985416e+000	 1.005034342407470e+001
0	 7.599979999983598e+000	 1.733319999987733e+000	 1.005244829539825e+001
0	 7.599979999983597e+000	 1.799989999990449e+000	 1.005459858840062e+001
0	 7.599979999983598e+000	 1.866659999993466e+000	 1.005679830991699e+001
0	 7.599979999983600e+000	 1.933329999996683e+000	 1.005905146678251e+001
0	 7.599979999983599e+000	 2.000000000000001e+000	 1.006136206583235e+001
0	 7.666649999985415e+000	 1.333299999983333e+000	 1.003223695139730e+001
0	 7.666649999985414e+000	 1.399969999982150e+000	 1.003419096088767e+001
0	 7.666649999985416e+000	 1.466639999981867e+000	 1.003616971940620e+001
0	 7.666649999985417e+000	 1.533309999982383e+000	 1.003817640430710e+001
0	 7.666649999985416e+000	 1.599979999983600e+000	 1.004021419294459e+001
0	 7.666649999985415e+000	 1.666649999985416e+000	 1.004228626267290e+001
0	 7.666649999985414e+000	 1.733319999987733e+000	 1.004439579084623e+001
0	 7.666649999985416e+000	 1.799989999990449e+000	 1.004654595481881e+001
0	 7.666649999985415e+000	 1.866659999993466e+000	 1.004873993194486e+001
0	 7.666649999985415e+000	 1.933329999996683e+000	 1.005098089957859e+001
0	 7.666649999985416e+000	 2.000000000000000e+000	 1.005327203507422e+001
0	 7.733319999987732e+000	 1.333299999983334e+000	 1.002408369083636e+001
0	 7.733319999987731e+000	 1.399969999982150e+000	 1.002606111257190e+001
0	 7.733319999987732e+000	 1.466639999981867e+000	 1.002806106241468e+001
0	 7.733319999987732e+000	 1.533309999982383e+000	 1.003008615300056e+001
0	 7.733319999987731e+000	 1.599979999983599e+000	 1.003213899696536e+001
0	 7.733319999987731e+000	 1.666649999985416e+000	 1.003422220694493e+001
0	 7.733319999987733e+000	 1.733319999987733e+000	 1.003633839557510e+001
0	 7.733319999987732e+000	 1.799989999990450e+000	 1.003849017549170e+001
0	 7.733319999987732e+000	 1.866659999993466e+000	 1.004068015933060e+001
0	 7.733319999987732e+000	 1.933329999996683e+000	 1.004291095972759e+001
0	 7.733319999987731e+000	 2.000000000000000e+000	 1.004518518931856e+001
0	 7.799989999990448e+000	 1.333299999983334e+000	 1.001590054377930e+001
0	 7.799989999990449e+000	 1.399969999982150e+000	 1.001790400294321e+001
0	 7.799989999990445e+000	 1.466639999981866e+000	 1.001992680928804e+001
0	 7.799989999990447e+000	 1.533309999982383e+000	 1.002197127549379e+001
0	 7.799989999990447e+000	 1.599979999983600e+000	 1.002403971424047e+001
0	 7.799989999990449e+000	 1.666649999985416e+000	 1.002613443820810e+001
0	 7.799989999990449e+000	 1.733319999987733e+000	 1.002825776007669e+001
0	 7.799989999990448e+000	 1.799989999990450e+000	 1.003041199252627e+001
0	 7.799989999990448e+000	 1.866659999993466e+000	 1.003259944823684e+001
0	 7.799989999990448e+000	 1.933329999996683e+000	 1.003482243988842e+001
0	 7.799989999990449e+000	 2.000000000000000e+000	 1.003708328016103e+001
0	 7.866659999993465e+000	 1.333299999983334e+000	 1.000768768227928e+001
0	 7.866659999993465e+000	 1.399969999982150e+000	 1.000971516102649e+001
0	 7.866659999993464e+000	 1.466639999981866e+000	 1.001175846846339e+001
0	 7.866659999993463e+000	 1.533309999982383e+000	 1.001381988207673e+001
0	 7.866659999993463e+000	 1.599979999983599e+000	 1.001590167935325e+001
0	 7.866659999993463e+000	 1.666649999985416e+000	 1.001800613777971e+001
0	 7.866659999993466e+000	 1.733319999987733e+000	 1.002013553484286e+001
0	 7.866659999993464e+000	 1.799989999990449e+000	 1.002229214802944e+001
0	 7.866659999993464e+000	 1.866659999993467e+000	 1.002447825482622e+001
0	 7.866659999993464e+000	 1.933329999996683e+000	 1.002669613271993e+001
0	 7.866659999993465e+000	 2.000000000000000e+000	 1.002894805919734e+001
0	 7.933329999996682e+000	 1.333299999983334e+000	 9.999445278389468e+000
0	 7.933329999996682e+000	 1.399969999982150e+000	 1.000149011584658e+001
0	 7.933329999996681e+000	 1.466639999981866e+000	 1.000354754837785e+001
0	 7.933329999996682e+000	 1.533309999982383e+000	 1.000562008303933e+001
0	 7.933329999996680e+000	 1.599979999983600e+000	 1.000771022688707e+001
0	 7.933329999996682e+000	 1.666649999985416e+000	 1.000982048697709e+001
0	 7.933329999996682e+000	 1.733319999987733e+000	 1.001195337036545e+001
0	 7.933329999996682e+000	 1.799989999990449e+000	 1.001411138410819e+001
0	 7.933329999996680e+000	 1.866659999993466e+000	 1.001629703526137e+001
0	 7.933329999996680e+000	 1.933329999996683e+000	 1.001851283088101e+001
0	 7.933329999996680e+000	 2.000000000000000e+000	 1.002076127802318e+001
0	 8.000000000000000e+000	 1.333299999983334e+000	 9.991173504163040e+000
0	 8.000000000000000e+000	 1.399969999982150e+000	 9.993224396428337e+000
0	 8.000000000000000e+000	 1.466639999981866e+000	 9.995285557468540e+000
0	 8.000000000000000e+000	 1.533309999982383e+000	 9.997359988671542e+000
0	 8.000000000000000e+000	 1.599979999983599e+000	 9.999450691425237e+000
0	 8.000000000000000e+000	 1.666649999985416e+000	 1.000156066711753e+001
0	 7.999999999999999e+000	 1.733319999987733e+000	 1.000369291713630e+001
0	 8.000000000000000e+000	 1.799989999990450e+000	 1.000585044286946e+001
0	 8.000000000000000e+000	 1.866659999993466e+000	 1.000803624570490e+001
0	 8.000000000000000e+000	 1.933329999996683e+000	 1.001025332703053e+001
0	 7.999999999999999e+000	 2.000000000000000e+000	 1.001250468823424e+001
0	 7.333299999983335e+000	 2.000000000000000e+000	 1.009411900697548e+001
0	 7.333299999983334e+000	 2.066670000003317e+000	 1.009652573841525e+001
0	 7.333299999983335e+000	 2.133340000006534e+000	 1.009887132846231e+001
0	 7.333299999983334e+000	 2.200010000009550e+000	 1.010115756697979e+001
0	 7.333299999983333e+000	 2.266680000012267e+000	 1.010338624383079e+001
0	 7.333299999983335e+000	 2.333350000014584e+000	 1.010555914887843e+001
0	 7.333299999983335e+000	 2.400020000016401e+000	 1.010767807198579e+001
0	 7.333299999983333e+000	 2.466690000017616e+000	 1.010974480301601e+001
0	 7.333299999983334e+000	 2.533360000018134e+000	 1.011176113183217e+001
0	 7.333299999983335e+000	 2.600030000017851e+000	 1.011372884829740e+001
0	 7.333299999983335e+000	 2.666700000016666e+000	 1.011564974227479e+001
0	 7.399969999982152e+000	 2.000000000000000e+000	 1.008583375216449e+001
0	 7.399969999982149e+000	 2.066670000003317e+000	 1.008821526253352e+001
0	 7.399969999982150e+000	 2.133340000006534e+000	 1.009053128321083e+001
0	 7.399969999982152e+000	 2.200010000009551e+000	 1.009278575313801e+001
0	 7.399969999982150e+000	 2.266680000012267e+000	 1.009498261125661e+001
0	 7.399969999982150e+000	 2.333350000014584e+000	 1.009712579650821e+001
0	 7.399969999982150e+000	 2.400020000016400e+000	 1.009921924783435e+001
0	 7.399969999982150e+000	 2.466690000017617e+000	 1.010126690417663e+001
0	 7.399969999982149e+000	 2.533360000018133e+000	 1.010327270447660e+001
0	 7.399969999982148e+000	 2.600030000017851e+000	 1.010524058767580e+001
0	 7.399969999982151e+000	 2.666700000016667e+000	 1.010717449271582e+001
0	 7.466639999981866e+000	 2.000000000000000e+000	 1.007762467597317e+001
0	 7.466639999981865e+000	 2.066670000003317e+000	 1.007997960325564e+001
0	 7.466639999981867e+000	 2.133340000006534e+000	 1.008226604579573e+001
0	 7.466639999981867e+000	 2.200010000009550e+000	 1.008448970684099e+001
0	 7.466639999981863e+000	 2.266680000012266e+000	 1.008665628963903e+001
0	 7.466639999981866e+000	 2.333350000014584e+000	 1.008877149743737e+001
0	 7.466639999981866e+000	 2.400020000016401e+000	 1.009084103348359e+001
0	 7.466639999981866e+000	 2.466690000017617e+000	 1.009287060102527e+001
0	 7.466639999981866e+000	 2.533360000018134e+000	 1.009486590330995e+001
0	 7.466639999981865e+000	 2.600030000017849e+000	 1.009683264358522e+001
0	 7.466639999981866e+000	 2.666700000016666e+000	 1.009877652509863e+001
0	 7.533309999982381e+000	 2.000000000000000e+000	 1.006947352999723e+001
0	 7.533309999982384e+000	 2.066670000003317e+000	 1.007180179473209e+001
0	 7.533309999982381e+000	 2.133340000006534e+000	 1.007405995771760e+001
0	 7.533309999982381e+000	 2.200010000009551e+000	 1.007625510173485e+001
0	 7.533309999982384e+000	 2.266680000012267e+000	 1.007839430956497e+001
0	 7.533309999982382e+000	 2.333350000014584e+000	 1.008048466398903e+001
0	 7.533309999982381e+000	 2.400020000016401e+000	 1.008253324778819e+001
0	 7.533309999982381e+000	 2.466690000017617e+000	 1.008454714374354e+001
0	 7.533309999982383e+000	 2.533360000018134e+000	 1.008653343463617e+001
0	 7.533309999982381e+000	 2.600030000017850e+000	 1.008849920324720e+001
0	 7.533309999982381e+000	 2.666700000016666e+000	 1.009045153235774e+001
0	 7.599979999983599e+000	 2.000000000000001e+000	 1.006136206583235e+001
0	 7.599979999983598e+000	 2.066670000003316e+000	 1.006366487111335e+001
0	 7.599979999983598e+000	 2.133340000006534e+000	 1.006589736047706e+001
0	 7.599979999983598e+000	 2.200010000009550e+000	 1.006806761146568e+001
0	 7.599979999983597e+000	 2.266680000012267e+000	 1.007018370162139e+001
0	 7.599979999983598e+000	 2.333350000014584e+000	 1.007225370848640e+001
0	 7.599979999983599e+000	 2.400020000016401e+000	 1.007428570960290e+001
0	 7.599979999983598e+000	 2.466690000017617e+000	 1.007628778251308e+001
0	 7.599979999983598e+000	 2.533360000018134e+000	 1.007826800475914e+001
0	 7.599979999983599e+000	 2.600030000017850e+000	 1.008023445388328e+001
0	 7.599979999983599e+000	 2.666700000016667e+000	 1.008219520742767e+001
0	 7.666649999985416e+000	 2.000000000000000e+000	 1.005327203507422e+001
0	 7.666649999985413e+000	 2.066670000003316e+000	 1.005555186654988e+001
0	 7.666649999985416e+000	 2.133340000006534e+000	 1.005776259557472e+001
0	 7.666649999985416e+000	 2.200010000009550e+000	 1.005991290967956e+001
0	 7.666649999985416e+000	 2.266680000012267e+000	 1.006201149639525e+001
0	 7.666649999985416e+000	 2.333350000014583e+000	 1.006406704325259e+001
0	 7.666649999985417e+000	 2.400020000016400e+000	 1.006608823778240e+001
0	 7.666649999985416e+000	 2.466690000017617e+000	 1.006808376751554e+001
0	 7.666649999985415e+000	 2.533360000018134e+000	 1.007006231998278e+001
0	 7.666649999985414e+000	 2.600030000017851e+000	 1.007203258271498e+001
0	 7.666649999985415e+000	 2.666700000016666e+000	 1.007400324324295e+001
0	 7.733319999987731e+000	 2.000000000000000e+000	 1.004518518931856e+001
0	 7.733319999987733e+000	 2.066670000003317e+000	 1.004744581519216e+001
0	 7.733319999987733e+000	 2.133340000006533e+000	 1.004964000451119e+001
0	 7.733319999987732e+000	 2.200010000009551e+000	 1.005177667002262e+001
0	 7.733319999987733e+000	 2.266680000012267e+000	 1.005386472447349e+001
0	 7.733319999987732e+000	 2.333350000014584e+000	 1.005591308061076e+001
0	 7.733319999987731e+000	 2.400020000016401e+000	 1.005793065118144e+001
0	 7.733319999987732e+000	 2.466690000017617e+000	 1.005992634893252e+001
0	 7.733319999987732e+000	 2.533360000018134e+000	 1.006190908661101e+001
0	 7.733319999987732e+000	 2.600030000017851e+000	 1.006388777696387e+001
0	 7.733319999987731e+000	 2.666700000016666e+000	 1.006587133273812e+001
0	 7.799989999990449e+000	 2.000000000000000e+000	 1.003708328016103e+001
0	 7.799989999990449e+000	 2.066670000003317e+000	 1.003932975119065e+001
0	 7.799989999990448e+000	 2.133340000006534e+000	 1.004151392878705e+001
0	 7.799989999990448e+000	 2.200010000009550e+000	 1.004364456614095e+001
0	 7.799989999990448e+000	 2.266680000012268e+000	 1.004573041644305e+001
0	 7.799989999990449e+000	 2.333350000014584e+000	 1.004778023288408e+001
0	 7.799989999990448e+000	 2.400020000016400e+000	 1.004980276865470e+001
0	 7.799989999990447e+000	 2.466690000017617e+000	 1.005180677694568e+001
0	 7.799989999990449e+000	 2.533360000018133e+000	 1.005380101094769e+001
0	 7.799989999990450e+000	 2.600030000017851e+000	 1.005579422385146e+001
0	 7.799989999990448e+000	 2.666700000016666e+000	 1.005779516884768e+001
0	 7.866659999993465e+000	 2.000000000000000e+000	 1.002894805919734e+001
0	 7.866659999993463e+000	 2.066670000003317e+000	 1.003118670869583e+001
0	 7.866659999993464e+000	 2.133340000006534e+000	 1.003336870990295e+001
0	 7.866659999993465e+000	 2.200010000009550e+000	 1.003550227168064e+001
0	 7.866659999993466e+000	 2.266680000012268e+000	 1.003759560289089e+001
0	 7.866659999993463e+000	 2.333350000014583e+000	 1.003965691239567e+001
0	 7.866659999993465e+000	 2.400020000016401e+000	 1.004169440905692e+001
0	 7.866659999993465e+000	 2.466690000017618e+000	 1.004371630173664e+001
0	 7.866659999993463e+000	 2.533360000018133e+000	 1.004573079929678e+001
0	 7.866659999993465e+000	 2.600030000017850e+000	 1.004774611059929e+001
0	 7.866659999993463e+000	 2.666700000016666e+000	 1.004977044450618e+001
0	 7.933329999996680e+000	 2.000000000000000e+000	 1.002076127802318e+001
0	 7.933329999996682e+000	 2.066670000003318e+000	 1.002299972185818e+001
0	 7.933329999996680e+000	 2.133340000006534e+000	 1.002518868935946e+001
0	 7.933329999996682e+000	 2.200010000009550e+000	 1.002733546028780e+001
0	 7.933329999996682e+000	 2.266680000012267e+000	 1.002944731440395e+001
0	 7.933329999996679e+000	 2.333350000014583e+000	 1.003153153146871e+001
0	 7.933329999996682e+000	 2.400020000016401e+000	 1.003359539124281e+001
0	 7.933329999996681e+000	 2.466690000017617e+000	 1.003564617348703e+001
0	 7.933329999996680e+000	 2.533360000018134e+000	 1.003769115796216e+001
0	 7.933329999996682e+000	 2.600030000017850e+000	 1.003973762442894e+001
0	 7.933329999996682e+000	 2.666700000016666e+000	 1.004179285264814e+001
0	 7.999999999999999e+000	 2.000000000000000e+000	 1.001250468823424e+001
0	 8.000000000000000e+000	 2.066670000003318e+000	 1.001475182482815e+001
0	 8.000000000000000e+000	 2.133340000006534e+000	 1.001695820865721e+001
0	 8.000000000000000e+000	 2.200010000009551e+000	 1.001912980560852e+001
0	 8.000000000000000e+000	 2.266680000012267e+000	 1.002127258156918e+001
0	 7.999999999999999e+000	 2.333350000014584e+000	 1.002339250242633e+001
0	 8.000000000000000e+000	 2.400020000016401e+000	 1.002549553406706e+001
0	 8.000000000000000e+000	 2.466690000017617e+000	 1.002758764237849e+001
0	 8.000000000000000e+000	 2.533360000018134e+000	 1.002967479324773e+001
0	 8.000000000000000e+000	 2.600030000017851e+000	 1.003176295256188e+001
0	 7.999999999999999e+000	 2.666700000016666e+000	 1.003385808620807e+001
0	 7.333299999983335e+000	 2.666700000016666e+000	 1.011564974227479e+001
0	 7.333299999983334e+000	 2.733360000014533e+000	 1.011748303767124e+001
0	 7.333299999983333e+000	 2.800020000011599e+000	 1.011919097698240e+001
0	 7.333299999983333e+000	 2.866680000008067e+000	 1.012077902386159e+001
0	 7.333299999983334e+000	 2.933340000004133e+000	 1.012225264196203e+001
0	 7.333299999983333e+000	 2.999999999999999e+000	 1.012361729493704e+001
0	 7.333299999983335e+000	 3.066659999995867e+000	 1.012487844643986e+001
0	 7.333299999983335e+000	 3.133319999991934e+000	 1.012604156012380e+001
0	 7.333299999983334e+000	 3.199979999988400e+000	 1.012711209964215e+001
0	 7.333299999983334e+000	 3.266639999985468e+000	 1.012809552864818e+001
0	 7.333299999983335e+000	 3.333299999983335e+000	 1.012899731079519e+001
0	 7.399969999982151e+000	 2.666700000016667e+000	 1.010717449271582e+001
0	 7.399969999982150e+000	 2.733360000014533e+000	 1.010903335927709e+001
0	 7.399969999982147e+000	 2.800020000011598e+000	 1.011077677203936e+001
0	 7.399969999982149e+000	 2.866680000008067e+000	 1.011240877428331e+001
0	 7.399969999982150e+000	 2.933340000004134e+000	 1.011393340928961e+001
0	 7.399969999982149e+000	 2.999999999999999e+000	 1.011535472033894e+001
0	 7.399969999982150e+000	 3.066659999995866e+000	 1.011667675071199e+001
0	 7.399969999982149e+000	 3.133319999991933e+000	 1.011790354368944e+001
0	 7.399969999982150e+000	 3.199979999988400e+000	 1.011903914255199e+001
0	 7.399969999982149e+000	 3.266639999985467e+000	 1.012008759058030e+001
0	 7.399969999982150e+000	 3.333299999983333e+000	 1.012105293105507e+001
0	 7.466639999981866e+000	 2.666700000016666e+000	 1.009877652509863e+001
0	 7.466639999981864e+000	 2.733360000014533e+000	 1.010065680639935e+001
0	 7.466639999981865e+000	 2.800020000011599e+000	 1.010243141722940e+001
0	 7.466639999981866e+000	 2.866680000008067e+000	 1.010410319721019e+001
0	 7.466639999981867e+000	 2.933340000004133e+000	 1.010567498596310e+001
0	 7.466639999981863e+000	 2.999999999999999e+000	 1.010714962310955e+001
0	 7.466639999981865e+000	 3.066659999995866e+000	 1.010852994827094e+001
0	 7.466639999981867e+000	 3.133319999991934e+000	 1.010981880106867e+001
0	 7.466639999981867e+000	 3.199979999988400e+000	 1.011101902112418e+001
0	 7.466639999981866e+000	 3.266639999985468e+000	 1.011213344805885e+001
0	 7.466639999981866e+000	 3.333299999983334e+000	 1.011316492149413e+001
0	 7.533309999982381e+000	 2.666700000016666e+000	 1.009045153235774e+001
0	 7.533309999982383e+000	 2.733360000014533e+000	 1.009235048390169e+001
0	 7.533309999982382e+000	 2.800020000011600e+000	 1.009415321743776e+001
0	 7.533309999982384e+000	 2.866680000008067e+000	 1.009586158564136e+001
0	 7.533309999982381e+000	 2.933340000004133e+000	 1.009747744118797e+001
0	 7.533309999982383e+000	 3.000000000000000e+000	 1.009900263675301e+001
0	 7.533309999982383e+000	 3.066659999995867e+000	 1.010043902501195e+001
0	 7.533309999982384e+000	 3.133319999991935e+000	 1.010178845864025e+001
0	 7.533309999982383e+000	 3.199979999988400e+000	 1.010305279031335e+001
0	 7.533309999982383e+000	 3.266639999985467e+000	 1.010423387270674e+001
0	 7.533309999982381e+000	 3.333299999983334e+000	 1.010533355849585e+001
0	 7.599979999983599e+000	 2.666700000016667e+000	 1.008219520742767e+001
0	 7.599979999983599e+000	 2.733360000014533e+000	 1.008411149664780e+001
0	 7.599979999983599e+000	 2.800020000011600e+000	 1.008594047754964e+001
0	 7.599979999983599e+000	 2.866680000008067e+000	 1.008768323257600e+001
0	 7.599979999983598e+000	 2.933340000004133e+000	 1.008934084416968e+001
0	 7.599979999983597e+000	 3.000000000000000e+000	 1.009091439477351e+001
0	 7.599979999983597e+000	 3.066659999995866e+000	 1.009240496683031e+001
0	 7.599979999983598e+000	 3.133319999991933e+000	 1.009381364278292e+001
0	 7.599979999983599e+000	 3.199979999988400e+000	 1.009514150507414e+001
0	 7.599979999983598e+000	 3.266639999985467e+000	 1.009638963614679e+001
0	 7.599979999983598e+000	 3.333299999983333e+000	 1.009755911844373e+001
0	 7.666649999985415e+000	 2.666700000016666e+000	 1.007400324324295e+001
0	 7.666649999985416e+000	 2.733360000014533e+000	 1.007593694950135e+001
0	 7.666649999985414e+000	 2.800020000011600e+000	 1.007779150245027e+001
0	 7.666649999985414e+000	 2.866680000008065e+000	 1.007956743101322e+001
0	 7.666649999985415e+000	 2.933340000004133e+000	 1.008126526411370e+001
0	 7.666649999985414e+000	 3.000000000000000e+000	 1.008288553067522e+001
0	 7.666649999985415e+000	 3.066659999995867e+000	 1.008442875962128e+001
0	 7.666649999985415e+000	 3.133319999991934e+000	 1.008589547987540e+001
0	 7.666649999985416e+000	 3.199979999988401e+000	 1.008728622036110e+001
0	 7.666649999985416e+000	 3.266639999985468e+000	 1.008860151000189e+001
0	 7.666649999985415e+000	 3.333299999983334e+000	 1.008984187772129e+001
0	 7.733319999987731e+000	 2.666700000016666e+000	 1.006587133273812e+001
0	 7.733319999987730e+000	 2.733360000014533e+000	 1.006782394732603e+001
0	 7.733319999987730e+000	 2.800020000011599e+000	 1.006970459702489e+001
0	 7.733319999987732e+000	 2.866680000008066e+000	 1.007151347395221e+001
0	 7.733319999987731e+000	 2.933340000004133e+000	 1.007325077022550e+001
0	 7.733319999987732e+000	 3.000000000000000e+000	 1.007491667796229e+001
0	 7.733319999987733e+000	 3.066659999995868e+000	 1.007651138928011e+001
0	 7.733319999987731e+000	 3.133319999991933e+000	 1.007803509629646e+001
0	 7.733319999987732e+000	 3.199979999988401e+000	 1.007948799112886e+001
0	 7.733319999987732e+000	 3.266639999985467e+000	 1.008087026589488e+001
0	 7.733319999987730e+000	 3.333299999983333e+000	 1.008218211271201e+001
0	 7.799989999990448e+000	 2.666700000016666e+000	 1.005779516884768e+001
0	 7.799989999990447e+000	 2.733360000014533e+000	 1.005976959498552e+001
0	 7.799989999990447e+000	 2.800020000011600e+000	 1.006167806615871e+001
0	 7.799989999990448e+000	 2.866680000008066e+000	 1.006352065439210e+001
0	 7.799989999990446e+000	 2.933340000004133e+000	 1.006529743171056e+001
0	 7.799989999990447e+000	 3.000000000000000e+000	 1.006700847013892e+001
0	 7.799989999990447e+000	 3.066659999995866e+000	 1.006865384170206e+001
0	 7.799989999990449e+000	 3.133319999991934e+000	 1.007023361842481e+001
0	 7.799989999990449e+000	 3.199979999988400e+000	 1.007174787233204e+001
0	 7.799989999990448e+000	 3.266639999985467e+000	 1.007319667544861e+001
0	 7.799989999990447e+000	 3.333299999983334e+000	 1.007458009979939e+001
0	 7.866659999993463e+000	 2.666700000016666e+000	 1.004977044450618e+001
0	 7.866659999993464e+000	 2.733360000014533e+000	 1.005177099734348e+001
0	 7.866659999993466e+000	 2.800020000011601e+000	 1.005371021473694e+001
0	 7.866659999993464e+000	 2.866680000008067e+000	 1.005558826533205e+001
0	 7.866659999993465e+000	 2.933340000004133e+000	 1.005740531777433e+001
0	 7.866659999993466e+000	 3.000000000000000e+000	 1.005916154070927e+001
0	 7.866659999993467e+000	 3.066659999995867e+000	 1.006085710278239e+001
0	 7.866659999993465e+000	 3.133319999991934e+000	 1.006249217263921e+001
0	 7.866659999993463e+000	 3.199979999988400e+000	 1.006406691892523e+001
0	 7.866659999993463e+000	 3.266639999985467e+000	 1.006558151028598e+001
0	 7.866659999993463e+000	 3.333299999983334e+000	 1.006703611536694e+001
0	 7.933329999996682e+000	 2.666700000016666e+000	 1.004179285264814e+001
0	 7.933329999996680e+000	 2.733360000014532e+000	 1.004382525926362e+001
0	 7.933329999996681e+000	 2.800020000011600e+000	 1.004579934764482e+001
0	 7.933329999996682e+000	 2.866680000008067e+000	 1.004771559977121e+001
0	 7.933329999996681e+000	 2.933340000004133e+000	 1.004957449762228e+001
0	 7.933329999996682e+000	 3.000000000000000e+000	 1.005137652317752e+001
0	 7.933329999996682e+000	 3.066659999995867e+000	 1.005312215841639e+001
0	 7.933329999996681e+000	 3.133319999991933e+000	 1.005481188531840e+001
0	 7.933329999996680e+000	 3.199979999988400e+000	 1.005644618586304e+001
0	 7.933329999996682e+000	 3.266639999985468e+000	 1.005802554202979e+001
0	 7.933329999996682e+000	 3.333299999983334e+000	 1.005955043579816e+001
0	 7.999999999999999e+000	 2.666700000016666e+000	 1.003385808620807e+001
0	 8.000000000000000e+000	 2.733360000014533e+000	 1.003592948560960e+001
0	 7.999999999999998e+000	 2.800020000011599e+000	 1.003794376976756e+001
0	 7.999999999999999e+000	 2.866680000008067e+000	 1.003990195070873e+001
0	 8.000000000000000e+000	 2.933340000004133e+000	 1.004180504045988e+001
0	 8.000000000000000e+000	 3.000000000000000e+000	 1.004365405104780e+001
0	 8.000000000000000e+000	 3.066659999995867e+000	 1.004544999449929e+001
0	 7.999999999999999e+000	 3.133319999991933e+000	 1.004719388284111e+001
0	 7.999999999999999e+000	 3.199979999988401e+000	 1.004888672810007e+001
0	 8.000000000000000e+000	 3.266639999985468e+000	 1.005052954230293e+001
0	 7.999999999999999e+000	 3.333299999983334e+000	 1.005212333747651e+001
0	 7.333299999983335e+000	 3.333299999983335e+000	 1.012899731079519e+001
0	 7.333299999983333e+000	 3.399969999982149e+000	 1.012980969133581e+001
0	 7.333299999983333e+000	 3.466639999981866e+000	 1.013052112399559e+001
0	 7.333299999983333e+000	 3.533309999982382e+000	 1.013113177342697e+001
0	 7.333299999983335e+000	 3.599979999983599e+000	 1.013164180428243e+001
0	 7.333299999983335e+000	 3.666649999985416e+000	 1.013205138121444e+001
0	 7.333299999983335e+000	 3.733319999987733e+000	 1.013236066887544e+001
0	 7.333299999983334e+000	 3.799989999990450e+000	 1.013256983191789e+001
0	 7.333299999983336e+000	 3.866659999993467e+000	 1.013267903499425e+001
0	 7.333299999983332e+000	 3.933329999996682e+000	 1.013268844275699e+001
0	 7.333299999983335e+000	 4.000000000000001e+000	 1.013259821985855e+001
0	 7.399969999982150e+000	 3.333299999983333e+000	 1.012105293105507e+001
0	 7.399969999982148e+000	 3.399969999982150e+000	 1.012192976813837e+001
0	 7.399969999982148e+000	 3.466639999981866e+000	 1.012270990570506e+001
0	 7.399969999982150e+000	 3.533309999982384e+000	 1.012339360295723e+001
0	 7.399969999982151e+000	 3.599979999983601e+000	 1.012398111909698e+001
0	 7.399969999982150e+000	 3.666649999985416e+000	 1.012447271332641e+001
0	 7.399969999982150e+000	 3.733319999987733e+000	 1.012486864484761e+001
0	 7.399969999982149e+000	 3.799989999990449e+000	 1.012516917286268e+001
0	 7.399969999982150e+000	 3.866659999993467e+000	 1.012537455657369e+001
0	 7.399969999982152e+000	 3.933329999996683e+000	 1.012548505518274e+001
0	 7.399969999982151e+000	 4.000000000000001e+000	 1.012550092789191e+001
0	 7.466639999981866e+000	 3.333299999983334e+000	 1.011316492149413e+001
0	 7.466639999981866e+000	 3.399969999982150e+000	 1.011410937976523e+001
0	 7.466639999981867e+000	 3.466639999981867e+000	 1.011496079956785e+001
0	 7.466639999981864e+000	 3.533309999982383e+000	 1.011571952403302e+001
0	 7.466639999981867e+000	 3.599979999983600e+000	 1.011638589629186e+001
0	 7.466639999981867e+000	 3.666649999985417e+000	 1.011696025947544e+001
0	 7.466639999981864e+000	 3.733319999987733e+000	 1.011744295671482e+001
0	 7.466639999981865e+000	 3.799989999990450e+000	 1.011783433114111e+001
0	 7.466639999981868e+000	 3.866659999993466e+000	 1.011813472588537e+001
0	 7.466639999981867e+000	 3.933329999996683e+000	 1.011834448407869e+001
0	 7.466639999981866e+000	 4.000000000000000e+000	 1.011846394885210e+001
0	 7.533309999982381e+000	 3.333299999983334e+000	 1.010533355849585e+001
0	 7.533309999982383e+000	 3.399969999982150e+000	 1.010634824884556e+001
0	 7.533309999982381e+000	 3.466639999981866e+000	 1.010727306951673e+001
0	 7.533309999982383e+000	 3.533309999982383e+000	 1.010810843694879e+001
0	 7.533309999982381e+000	 3.599979999983600e+000	 1.010885476758118e+001
0	 7.533309999982381e+000	 3.666649999985415e+000	 1.010951247785328e+001
0	 7.533309999982384e+000	 3.733319999987733e+000	 1.011008198420454e+001
0	 7.533309999982383e+000	 3.799989999990450e+000	 1.011056370307435e+001
0	 7.533309999982383e+000	 3.866659999993467e+000	 1.011095805090215e+001
0	 7.533309999982383e+000	 3.933329999996684e+000	 1.011126544412734e+001
0	 7.533309999982381e+000	 4.000000000000000e+000	 1.011148629918935e+001
0	 7.599979999983598e+000	 3.333299999983333e+000	 1.009755911844373e+001
0	 7.599979999983599e+000	 3.399969999982149e+000	 1.009864609800848e+001
0	 7.599979999983600e+000	 3.466639999981867e+000	 1.009964597948454e+001
0	 7.599979999983598e+000	 3.533309999982383e+000	 1.010055924199903e+001
0	 7.599979999983599e+000	 3.599979999983600e+000	 1.010138636467908e+001
0	 7.599979999983598e+000	 3.666649999985416e+000	 1.010212782665177e+001
0	 7.599979999983599e+000	 3.733319999987733e+000	 1.010278410704422e+001
0	 7.599979999983597e+000	 3.799989999990449e+000	 1.010335568498357e+001
0	 7.599979999983598e+000	 3.866659999993467e+000	 1.010384303959688e+001
0	 7.599979999983600e+000	 3.933329999996684e+000	 1.010424665001128e+001
0	 7.599979999983598e+000	 4.000000000000000e+000	 1.010456699535388e+001
0	 7.666649999985415e+000	 3.333299999983334e+000	 1.008984187772129e+001
0	 7.666649999985414e+000	 3.399969999982150e+000	 1.009100264988315e+001
0	 7.666649999985416e+000	 3.466639999981867e+000	 1.009207879340406e+001
0	 7.666649999985417e+000	 3.533309999982384e+000	 1.009307083947818e+001
0	 7.666649999985416e+000	 3.599979999983600e+000	 1.009397931929966e+001
0	 7.666649999985415e+000	 3.666649999985416e+000	 1.009480476406268e+001
0	 7.666649999985415e+000	 3.733319999987733e+000	 1.009554770496137e+001
0	 7.666649999985414e+000	 3.799989999990450e+000	 1.009620867318989e+001
0	 7.666649999985416e+000	 3.866659999993467e+000	 1.009678819994240e+001
0	 7.666649999985414e+000	 3.933329999996683e+000	 1.009728681641305e+001
0	 7.666649999985416e+000	 4.000000000000000e+000	 1.009770505379598e+001
0	 7.733319999987730e+000	 3.333299999983333e+000	 1.008218211271201e+001
0	 7.733319999987732e+000	 3.399969999982150e+000	 1.008341762709872e+001
0	 7.733319999987733e+000	 3.466639999981866e+000	 1.008457077520811e+001
0	 7.733319999987733e+000	 3.533309999982383e+000	 1.008564212968071e+001
0	 7.733319999987733e+000	 3.599979999983600e+000	 1.008663226315709e+001
0	 7.733319999987732e+000	 3.666649999985416e+000	 1.008754174827782e+001
0	 7.733319999987731e+000	 3.733319999987732e+000	 1.008837115768344e+001
0	 7.733319999987733e+000	 3.799989999990450e+000	 1.008912106401450e+001
0	 7.733319999987732e+000	 3.866659999993466e+000	 1.008979203991156e+001
0	 7.733319999987731e+000	 3.933329999996684e+000	 1.009038465801516e+001
0	 7.733319999987732e+000	 4.000000000000000e+000	 1.009089949096584e+001
0	 7.799989999990447e+000	 3.333299999983334e+000	 1.007458009979939e+001
0	 7.799989999990449e+000	 3.399969999982150e+000	 1.007589075228433e+001
0	 7.799989999990445e+000	 3.466639999981866e+000	 1.007712118882946e+001
0	 7.799989999990447e+000	 3.533309999982383e+000	 1.007827201290107e+001
0	 7.799989999990448e+000	 3.599979999983600e+000	 1.007934382796547e+001
0	 7.799989999990450e+000	 3.666649999985417e+000	 1.008033723748899e+001
0	 7.799989999990446e+000	 3.733319999987732e+000	 1.008125284493791e+001
0	 7.799989999990448e+000	 3.799989999990450e+000	 1.008209125377855e+001
0	 7.799989999990447e+000	 3.866659999993467e+000	 1.008285306747720e+001
0	 7.799989999990448e+000	 3.933329999996683e+000	 1.008353888950017e+001
0	 7.799989999990450e+000	 4.000000000000001e+000	 1.008414932331375e+001
0	 7.866659999993463e+000	 3.333299999983334e+000	 1.006703611536694e+001
0	 7.866659999993464e+000	 3.399969999982150e+000	 1.006842174806913e+001
0	 7.866659999993463e+000	 3.466639999981866e+000	 1.006972929820092e+001
0	 7.866659999993463e+000	 3.533309999982383e+000	 1.007095938943372e+001
0	 7.866659999993462e+000	 3.599979999983600e+000	 1.007211264543894e+001
0	 7.866659999993464e+000	 3.666649999985417e+000	 1.007318968988798e+001
0	 7.866659999993464e+000	 3.733319999987732e+000	 1.007419114645227e+001
0	 7.866659999993464e+000	 3.799989999990450e+000	 1.007511763880320e+001
0	 7.866659999993463e+000	 3.866659999993466e+000	 1.007596979061217e+001
0	 7.866659999993465e+000	 3.933329999996684e+000	 1.007674822555061e+001
0	 7.866659999993466e+000	 4.000000000000001e+000	 1.007745356728989e+001
0	 7.933329999996682e+000	 3.333299999983334e+000	 1.005955043579816e+001
0	 7.933329999996682e+000	 3.399969999982150e+000	 1.006101033708228e+001
0	 7.933329999996681e+000	 3.466639999981867e+000	 1.006239436725532e+001
0	 7.933329999996682e+000	 3.533309999982382e+000	 1.006370315957313e+001
0	 7.933329999996681e+000	 3.599979999983600e+000	 1.006493734729161e+001
0	 7.933329999996682e+000	 3.666649999985416e+000	 1.006609756366659e+001
0	 7.933329999996682e+000	 3.733319999987733e+000	 1.006718444195397e+001
0	 7.933329999996682e+000	 3.799989999990450e+000	 1.006819861540959e+001
0	 7.933329999996682e+000	 3.866659999993467e+000	 1.006914071728932e+001
0	 7.933329999996682e+000	 3.933329999996684e+000	 1.007001138084903e+001
0	 7.933329999996681e+000	 4.000000000000000e+000	 1.007081123934455e+001
0	 7.999999999999999e+000	 3.333299999983334e+000	 1.005212333747651e+001
0	 8.000000000000000e+000	 3.399969999982150e+000	 1.005365624195289e+001
0	 8.000000000000002e+000	 3.466639999981866e+000	 1.005511565992541e+001
0	 8.000000000000000e+000	 3.533309999982383e+000	 1.005650222361375e+001
0	 8.000000000000000e+000	 3.599979999983600e+000	 1.005781656523760e+001
0	 7.999999999999999e+000	 3.666649999985416e+000	 1.005905931701662e+001
0	 7.999999999999999e+000	 3.733319999987733e+000	 1.006023111117050e+001
0	 8.000000000000000e+000	 3.799989999990450e+000	 1.006133257991889e+001
0	 7.999999999999999e+000	 3.866659999993467e+000	 1.006236435548149e+001
0	 8.000000000000000e+000	 3.933329999996683e+000	 1.006332707007795e+001
0	 8.000000000000000e+000	 4.000000000000001e+000	 1.006422135592794e+001
0	 7.333299999983335e+000	 4.000000000000001e+000	 1.013259821985855e+001
0	 7.333299999983335e+000	 4.066670000003317e+000	 1.013242015122533e+001
0	 7.333299999983334e+000	 4.133340000006534e+000	 1.013216441678535e+001
0	 7.333299999983335e+000	 4.200010000009550e+000	 1.013182877369360e+001
0	 7.333299999983333e+000	 4.266680000012268e+000	 1.013141097910500e+001
0	 7.333299999983333e+000	 4.333350000014583e+000	 1.013090879017449e+001
0	 7.333299999983334e+000	 4.400020000016402e+000	 1.013031996405702e+001
0	 7.333299999983334e+000	 4.466690000017617e+000	 1.012964225790754e+001
0	 7.333299999983334e+000	 4.533360000018134e+000	 1.012887342888098e+001
0	 7.333299999983334e+000	 4.600030000017849e+000	 1.012801123413226e+001
0	 7.333299999983333e+000	 4.666700000016665e+000	 1.012705343081636e+001
0	 7.399969999982151e+000	 4.000000000000001e+000	 1.012550092789191e+001
0	 7.399969999982151e+000	 4.066670000003318e+000	 1.012543089938468e+001
0	 7.399969999982150e+000	 4.133340000006534e+000	 1.012528235787937e+001
0	 7.399969999982151e+000	 4.200010000009550e+000	 1.012505355788041e+001
0	 7.399969999982151e+000	 4.266680000012267e+000	 1.012474275389220e+001
0	 7.399969999982149e+000	 4.333350000014584e+000	 1.012434820041915e+001
0	 7.399969999982148e+000	 4.400020000016401e+000	 1.012386815196568e+001
0	 7.399969999982149e+000	 4.466690000017616e+000	 1.012330086303618e+001
0	 7.399969999982149e+000	 4.533360000018132e+000	 1.012264458813506e+001
0	 7.399969999982148e+000	 4.600030000017850e+000	 1.012189758176674e+001
0	 7.399969999982151e+000	 4.666700000016666e+000	 1.012105809843560e+001
0	 7.466639999981866e+000	 4.000000000000000e+000	 1.011846394885210e+001
0	 7.466639999981867e+000	 4.066670000003319e+000	 1.011849925759187e+001
0	 7.466639999981867e+000	 4.133340000006534e+000	 1.011845544320070e+001
0	 7.466639999981865e+000	 4.200010000009550e+000	 1.011833119208436e+001
0	 7.466639999981864e+000	 4.266680000012267e+000	 1.011812519064862e+001
0	 7.466639999981867e+000	 4.333350000014584e+000	 1.011783612529929e+001
0	 7.466639999981866e+000	 4.400020000016403e+000	 1.011746268244210e+001
0	 7.466639999981864e+000	 4.466690000017618e+000	 1.011700354848285e+001
0	 7.466639999981865e+000	 4.533360000018133e+000	 1.011645740982731e+001
0	 7.466639999981865e+000	 4.600030000017849e+000	 1.011582295288125e+001
0	 7.466639999981866e+000	 4.666700000016666e+000	 1.011509886405042e+001
0	 7.533309999982381e+000	 4.000000000000000e+000	 1.011148629918935e+001
0	 7.533309999982384e+000	 4.066670000003318e+000	 1.011162459683978e+001
0	 7.533309999982381e+000	 4.133340000006534e+000	 1.011168340877674e+001
0	 7.533309999982381e+000	 4.200010000009550e+000	 1.011166178785926e+001
0	 7.533309999982384e+000	 4.266680000012267e+000	 1.011155878694639e+001
0	 7.533309999982383e+000	 4.333350000014584e+000	 1.011137345889716e+001
0	 7.533309999982381e+000	 4.400020000016403e+000	 1.011110485657062e+001
0	 7.533309999982381e+000	 4.466690000017615e+000	 1.011075203282581e+001
0	 7.533309999982384e+000	 4.533360000018134e+000	 1.011031404052177e+001
0	 7.533309999982381e+000	 4.600030000017848e+000	 1.010978993251753e+001
0	 7.533309999982381e+000	 4.666700000016665e+000	 1.010917876167213e+001
0	 7.599979999983598e+000	 4.000000000000000e+000	 1.010456699535388e+001
0	 7.599979999983598e+000	 4.066670000003316e+000	 1.010480628812130e+001
0	 7.599979999983598e+000	 4.133340000006532e+000	 1.010496599063492e+001
0	 7.599979999983599e+000	 4.200010000009550e+000	 1.010504545675894e+001
0	 7.599979999983597e+000	 4.266680000012268e+000	 1.010504404035757e+001
0	 7.599979999983598e+000	 4.333350000014583e+000	 1.010496109529503e+001
0	 7.599979999983599e+000	 4.400020000016402e+000	 1.010479597543553e+001
0	 7.599979999983598e+000	 4.466690000017616e+000	 1.010454803464327e+001
0	 7.599979999983598e+000	 4.533360000018133e+000	 1.010421662678245e+001
0	 7.599979999983600e+000	 4.600030000017852e+000	 1.010380110571730e+001
0	 7.599979999983598e+000	 4.666700000016666e+000	 1.010330082531201e+001
0	 7.666649999985416e+000	 4.000000000000000e+000	 1.009770505379598e+001
0	 7.666649999985415e+000	 4.066670000003317e+000	 1.009804370242932e+001
0	 7.666649999985415e+000	 4.133340000006534e+000	 1.009830292480263e+001
0	 7.666649999985417e+000	 4.200010000009551e+000	 1.009848231033720e+001
0	 7.666649999985416e+000	 4.266680000012268e+000	 1.009858144845427e+001
0	 7.666649999985415e+000	 4.333350000014582e+000	 1.009859992857517e+001
0	 7.666649999985417e+000	 4.400020000016401e+000	 1.009853734012114e+001
0	 7.666649999985417e+000	 4.466690000017618e+000	 1.009839327251348e+001
0	 7.666649999985414e+000	 4.533360000018133e+000	 1.009816731517343e+001
0	 7.666649999985416e+000	 4.600030000017850e+000	 1.009785905752230e+001
0	 7.666649999985415e+000	 4.666700000016665e+000	 1.009746808898135e+001
0	 7.733319999987732e+000	 4.000000000000000e+000	 1.009089949096584e+001
0	 7.733319999987733e+000	 4.066670000003318e+000	 1.009133621075671e+001
0	 7.733319999987733e+000	 4.133340000006535e+000	 1.009169394730728e+001
0	 7.733319999987731e+000	 4.200010000009550e+000	 1.009197246014783e+001
0	 7.733319999987732e+000	 4.266680000012267e+000	 1.009217150880859e+001
0	 7.733319999987731e+000	 4.333350000014582e+000	 1.009229085281982e+001
0	 7.733319999987731e+000	 4.400020000016401e+000	 1.009233025171175e+001
0	 7.733319999987733e+000	 4.466690000017618e+000	 1.009228946501464e+001
0	 7.733319999987733e+000	 4.533360000018136e+000	 1.009216825225873e+001
0	 7.733319999987732e+000	 4.600030000017851e+000	 1.009196637297425e+001
0	 7.733319999987733e+000	 4.666700000016667e+000	 1.009168358669146e+001
0	 7.799989999990450e+000	 4.000000000000001e+000	 1.008414932331374e+001
0	 7.799989999990448e+000	 4.066670000003316e+000	 1.008468318409634e+001
0	 7.799989999990448e+000	 4.133340000006534e+000	 1.008513879417628e+001
0	 7.799989999990448e+000	 4.200010000009551e+000	 1.008551601774467e+001
0	 7.799989999990448e+000	 4.266680000012268e+000	 1.008581471899262e+001
0	 7.799989999990449e+000	 4.333350000014583e+000	 1.008603476211126e+001
0	 7.799989999990447e+000	 4.400020000016400e+000	 1.008617601129169e+001
0	 7.799989999990448e+000	 4.466690000017618e+000	 1.008623833072503e+001
0	 7.799989999990446e+000	 4.533360000018133e+000	 1.008622158460240e+001
0	 7.799989999990449e+000	 4.600030000017850e+000	 1.008612563711490e+001
0	 7.799989999990448e+000	 4.666700000016666e+000	 1.008595035245363e+001
0	 7.866659999993466e+000	 4.000000000000001e+000	 1.007745356728989e+001
0	 7.866659999993463e+000	 4.066670000003317e+000	 1.007808399344112e+001
0	 7.866659999993464e+000	 4.133340000006534e+000	 1.007863720143704e+001
0	 7.866659999993464e+000	 4.200010000009551e+000	 1.007911309468151e+001
0	 7.866659999993466e+000	 4.266680000012268e+000	 1.007951157657845e+001
0	 7.866659999993464e+000	 4.333350000014585e+000	 1.007983255053174e+001
0	 7.866659999993465e+000	 4.400020000016402e+000	 1.008007591994523e+001
0	 7.866659999993463e+000	 4.466690000017616e+000	 1.008024158822286e+001
0	 7.866659999993464e+000	 4.533360000018132e+000	 1.008032945876846e+001
0	 7.866659999993463e+000	 4.600030000017849e+000	 1.008033943498593e+001
0	 7.866659999993464e+000	 4.666700000016665e+000	 1.008027142027916e+001
0	 7.933329999996681e+000	 4.000000000000000e+000	 1.007081123934455e+001
0	 7.933329999996682e+000	 4.066670000003316e+000	 1.007153800978392e+001
0	 7.933329999996681e+000	 4.133340000006535e+000	 1.007218890511695e+001
0	 7.933329999996682e+000	 4.200010000009550e+000	 1.007276380251219e+001
0	 7.933329999996682e+000	 4.266680000012268e+000	 1.007326257913819e+001
0	 7.933329999996682e+000	 4.333350000014584e+000	 1.007368511216352e+001
0	 7.933329999996682e+000	 4.400020000016402e+000	 1.007403127875672e+001
0	 7.933329999996681e+000	 4.466690000017618e+000	 1.007430095608635e+001
0	 7.933329999996680e+000	 4.533360000018133e+000	 1.007449402132097e+001
0	 7.933329999996682e+000	 4.600030000017851e+000	 1.007461035162911e+001
0	 7.933329999996681e+000	 4.666700000016665e+000	 1.007464982417935e+001
0	 8.000000000000000e+000	 4.000000000000001e+000	 1.006422135592794e+001
0	 7.999999999999999e+000	 4.066670000003318e+000	 1.006504460411762e+001
0	 8.000000000000000e+000	 4.133340000006534e+000	 1.006579364124343e+001
0	 7.999999999999998e+000	 4.200010000009550e+000	 1.006646825279048e+001
0	 8.000000000000000e+000	 4.266680000012268e+000	 1.006706822424392e+001
0	 7.999999999999998e+000	 4.333350000014583e+000	 1.006759334108885e+001
0	 8.000000000000000e+000	 4.400020000016401e+000	 1.006804338881043e+001
0	 8.000000000000000e+000	 4.466690000017618e+000	 1.006841815289375e+001
0	 8.000000000000000e+000	 4.533360000018135e+000	 1.006871741882395e+001
0	 8.000000000000000e+000	 4.600030000017850e+000	 1.006894097208615e+001
0	 7.999999999999998e+000	 4.666700000016665e+000	 1.006908859816545e+001
0	 7.333299999983333e+000	 4.666700000016665e+000	 1.012705343081636e+001
0	 7.333299999983334e+000	 4.733360000014534e+000	 1.012601885239193e+001
0	 7.333299999983334e+000	 4.800020000011600e+000	 1.012492626545823e+001
0	 7.333299999983334e+000	 4.866680000008068e+000	 1.012377377971816e+001
0	 7.333299999983335e+000	 4.933340000004134e+000	 1.012255950487459e+001
0	 7.333299999983335e+000	 4.999999999999999e+000	 1.012128155063041e+001
0	 7.333299999983336e+000	 5.066659999995867e+000	 1.011993802668856e+001
0	 7.333299999983335e+000	 5.133319999991935e+000	 1.011852704275190e+001
0	 7.333299999983335e+000	 5.199979999988400e+000	 1.011704670852337e+001
0	 7.333299999983333e+000	 5.266639999985469e+000	 1.011549513370587e+001
0	 7.333299999983334e+000	 5.333299999983333e+000	 1.011387042800230e+001
0	 7.399969999982151e+000	 4.666700000016666e+000	 1.012105809843560e+001
0	 7.399969999982150e+000	 4.733360000014534e+000	 1.012014394041435e+001
0	 7.399969999982147e+000	 4.800020000011599e+000	 1.011917245884333e+001
0	 7.399969999982149e+000	 4.866680000008066e+000	 1.011814163034506e+001
0	 7.399969999982149e+000	 4.933340000004132e+000	 1.011704943154206e+001
0	 7.399969999982149e+000	 5.000000000000001e+000	 1.011589383905689e+001
0	 7.399969999982151e+000	 5.066659999995867e+000	 1.011467282951206e+001
0	 7.399969999982150e+000	 5.133319999991935e+000	 1.011338437953015e+001
0	 7.399969999982150e+000	 5.199979999988400e+000	 1.011202646573366e+001
0	 7.399969999982148e+000	 5.266639999985467e+000	 1.011059706474515e+001
0	 7.399969999982149e+000	 5.333299999983333e+000	 1.010909415318717e+001
0	 7.466639999981866e+000	 4.666700000016666e+000	 1.011509886405043e+001
0	 7.466639999981866e+000	 4.733360000014533e+000	 1.011430204036298e+001
0	 7.466639999981867e+000	 4.800020000011599e+000	 1.011344861064955e+001
0	 7.466639999981865e+000	 4.866680000008066e+000	 1.011253645520652e+001
0	 7.466639999981868e+000	 4.933340000004134e+000	 1.011156345433028e+001
0	 7.466639999981863e+000	 4.999999999999999e+000	 1.011052748831725e+001
0	 7.466639999981866e+000	 5.066659999995866e+000	 1.010942643746381e+001
0	 7.466639999981867e+000	 5.133319999991933e+000	 1.010825818206637e+001
0	 7.466639999981867e+000	 5.199979999988400e+000	 1.010702060242131e+001
0	 7.466639999981866e+000	 5.266639999985468e+000	 1.010571157882507e+001
0	 7.466639999981864e+000	 5.333299999983334e+000	 1.010432899157404e+001
0	 7.533309999982381e+000	 4.666700000016665e+000	 1.010917876167213e+001
0	 7.533309999982383e+000	 4.733360000014533e+000	 1.010849661673391e+001
0	 7.533309999982383e+000	 4.800020000011601e+000	 1.010775856853263e+001
0	 7.533309999982384e+000	 4.866680000008067e+000	 1.010696243779277e+001
0	 7.533309999982382e+000	 4.933340000004134e+000	 1.010610604523879e+001
0	 7.533309999982381e+000	 4.999999999999998e+000	 1.010518721159519e+001
0	 7.533309999982382e+000	 5.066659999995867e+000	 1.010420375758645e+001
0	 7.533309999982384e+000	 5.133319999991936e+000	 1.010315350393706e+001
0	 7.533309999982383e+000	 5.199979999988401e+000	 1.010203427137151e+001
0	 7.533309999982383e+000	 5.266639999985468e+000	 1.010084388061431e+001
0	 7.533309999982382e+000	 5.333299999983334e+000	 1.009958015238993e+001
0	 7.599979999983598e+000	 4.666700000016666e+000	 1.010330082531201e+001
0	 7.599979999983599e+000	 4.733360000014533e+000	 1.010273113402326e+001
0	 7.599979999983599e+000	 4.800020000011600e+000	 1.010210618014833e+001
0	 7.599979999983598e+000	 4.866680000008065e+000	 1.010142376159400e+001
0	 7.599979999983598e+000	 4.933340000004134e+000	 1.010068167626708e+001
0	 7.599979999983598e+000	 5.000000000000000e+000	 1.009987772207436e+001
0	 7.599979999983598e+000	 5.066659999995866e+000	 1.009900969692264e+001
0	 7.599979999983598e+000	 5.133319999991934e+000	 1.009807539871872e+001
0	 7.599979999983598e+000	 5.199979999988399e+000	 1.009707262536942e+001
0	 7.599979999983600e+000	 5.266639999985468e+000	 1.009599917478152e+001
0	 7.599979999983598e+000	 5.333299999983333e+000	 1.009485284486185e+001
0	 7.666649999985415e+000	 4.666700000016665e+000	 1.009746808898135e+001
0	 7.666649999985417e+000	 4.733360000014534e+000	 1.009700905672711e+001
0	 7.666649999985415e+000	 4.800020000011601e+000	 1.009649529315235e+001
0	 7.666649999985417e+000	 4.866680000008066e+000	 1.009592461010043e+001
0	 7.666649999985413e+000	 4.933340000004133e+000	 1.009529481941469e+001
0	 7.666649999985414e+000	 5.000000000000001e+000	 1.009460373293844e+001
0	 7.666649999985415e+000	 5.066659999995867e+000	 1.009384916251504e+001
0	 7.666649999985415e+000	 5.133319999991935e+000	 1.009302891998784e+001
0	 7.666649999985416e+000	 5.199979999988400e+000	 1.009214081720016e+001
0	 7.666649999985416e+000	 5.266639999985467e+000	 1.009118266599537e+001
0	 7.666649999985414e+000	 5.333299999983333e+000	 1.009015227821680e+001
0	 7.733319999987733e+000	 4.666700000016667e+000	 1.009168358669146e+001
0	 7.733319999987731e+000	 4.733360000014533e+000	 1.009133384934153e+001
0	 7.733319999987731e+000	 4.800020000011599e+000	 1.009092975520043e+001
0	 7.733319999987729e+000	 4.866680000008065e+000	 1.009046916680226e+001
0	 7.733319999987732e+000	 4.933340000004131e+000	 1.008994994668112e+001
0	 7.733319999987732e+000	 5.000000000000000e+000	 1.008936995737111e+001
0	 7.733319999987733e+000	 5.066659999995868e+000	 1.008872706140633e+001
0	 7.733319999987731e+000	 5.133319999991935e+000	 1.008801912132091e+001
0	 7.733319999987732e+000	 5.199979999988402e+000	 1.008724399964893e+001
0	 7.733319999987733e+000	 5.266639999985467e+000	 1.008639955892452e+001
0	 7.733319999987731e+000	 5.333299999983334e+000	 1.008548366168179e+001
0	 7.799989999990448e+000	 4.666700000016666e+000	 1.008595035245363e+001
0	 7.799989999990449e+000	 4.733360000014533e+000	 1.008570897636266e+001
0	 7.799989999990447e+000	 4.800020000011599e+000	 1.008541341394830e+001
0	 7.799989999990449e+000	 4.866680000008068e+000	 1.008506161518969e+001
0	 7.799989999990446e+000	 4.933340000004133e+000	 1.008465153006591e+001
0	 7.799989999990446e+000	 4.999999999999999e+000	 1.008418110855603e+001
0	 7.799989999990448e+000	 5.066659999995868e+000	 1.008364830063916e+001
0	 7.799989999990449e+000	 5.133319999991935e+000	 1.008305105629441e+001
0	 7.799989999990448e+000	 5.199979999988400e+000	 1.008238732550086e+001
0	 7.799989999990449e+000	 5.266639999985468e+000	 1.008165505823763e+001
0	 7.799989999990448e+000	 5.333299999983334e+000	 1.008085220448381e+001
0	 7.866659999993464e+000	 4.666700000016665e+000	 1.008027142027916e+001
0	 7.866659999993464e+000	 4.733360000014533e+000	 1.008013790228655e+001
0	 7.866659999993465e+000	 4.800020000011601e+000	 1.007995011705171e+001
0	 7.866659999993464e+000	 4.866680000008065e+000	 1.007970613875295e+001
0	 7.866659999993466e+000	 4.933340000004133e+000	 1.007940404156856e+001
0	 7.866659999993465e+000	 5.000000000000000e+000	 1.007904189967688e+001
0	 7.866659999993466e+000	 5.066659999995866e+000	 1.007861778725620e+001
0	 7.866659999993465e+000	 5.133319999991935e+000	 1.007812977848485e+001
0	 7.866659999993464e+000	 5.199979999988399e+000	 1.007757594754113e+001
0	 7.866659999993465e+000	 5.266639999985468e+000	 1.007695436860338e+001
0	 7.866659999993464e+000	 5.333299999983334e+000	 1.007626311584991e+001
0	 7.933329999996681e+000	 4.666700000016665e+000	 1.007464982417935e+001
0	 7.933329999996682e+000	 4.733360000014533e+000	 1.007462409160933e+001
0	 7.933329999996680e+000	 4.800020000011600e+000	 1.007454371216637e+001
0	 7.933329999996682e+000	 4.866680000008067e+000	 1.007440692098222e+001
0	 7.933329999996682e+000	 4.933340000004134e+000	 1.007421195318862e+001
0	 7.933329999996682e+000	 5.000000000000000e+000	 1.007395704391732e+001
0	 7.933329999996679e+000	 5.066659999995866e+000	 1.007364042830009e+001
0	 7.933329999996681e+000	 5.133319999991934e+000	 1.007326034146870e+001
0	 7.933329999996682e+000	 5.199979999988400e+000	 1.007281501855488e+001
0	 7.933329999996682e+000	 5.266639999985468e+000	 1.007230269469041e+001
0	 7.933329999996682e+000	 5.333299999983334e+000	 1.007172160500706e+001
0	 7.999999999999998e+000	 4.666700000016665e+000	 1.006908859816546e+001
0	 8.000000000000000e+000	 4.733360000014532e+000	 1.006917100882707e+001
0	 8.000000000000000e+000	 4.800020000011601e+000	 1.006919804694801e+001
0	 8.000000000000000e+000	 4.866680000008068e+000	 1.006916814536771e+001
0	 7.999999999999998e+000	 4.933340000004133e+000	 1.006907973692557e+001
0	 7.999999999999999e+000	 5.000000000000000e+000	 1.006893125446104e+001
0	 8.000000000000000e+000	 5.066659999995867e+000	 1.006872113081353e+001
0	 8.000000000000000e+000	 5.133319999991934e+000	 1.006844779882246e+001
0	 8.000000000000000e+000	 5.199979999988400e+000	 1.006810969132729e+001
0	 8.000000000000000e+000	 5.266639999985468e+000	 1.006770524116741e+001
0	 8.000000000000000e+000	 5.333299999983333e+000	 1.006723288118227e+001
0	 7.333299999983334e+000	 5.333299999983333e+000	 1.011387042800230e+001
0	 7.333299999983335e+000	 5.399969999982150e+000	 1.011219619780700e+001
0	 7.333299999983333e+000	 5.466639999981867e+000	 1.011049600093612e+001
0	 7.333299999983334e+000	 5.533309999982385e+000	 1.010876712629492e+001
0	 7.333299999983335e+000	 5.599979999983599e+000	 1.010700686278866e+001
0	 7.333299999983334e+000	 5.666649999985417e+000	 1.010521249932259e+001
0	 7.333299999983336e+000	 5.733319999987733e+000	 1.010338132480202e+001
0	 7.333299999983334e+000	 5.799989999990449e+000	 1.010151062813217e+001
0	 7.333299999983333e+000	 5.866659999993468e+000	 1.009959769821833e+001
0	 7.333299999983334e+000	 5.933329999996684e+000	 1.009763982396574e+001
0	 7.333299999983334e+000	 6.000000000000002e+000	 1.009563429427968e+001
0	 7.399969999982149e+000	 5.333299999983333e+000	 1.010909415318717e+001
0	 7.399969999982148e+000	 5.399969999982149e+000	 1.010754053575201e+001
0	 7.399969999982151e+000	 5.466639999981865e+000	 1.010595915711202e+001
0	 7.399969999982149e+000	 5.533309999982383e+000	 1.010434751063697e+001
0	 7.399969999982151e+000	 5.599979999983600e+000	 1.010270308969653e+001
0	 7.399969999982151e+000	 5.666649999985418e+000	 1.010102338766046e+001
0	 7.399969999982151e+000	 5.733319999987733e+000	 1.009930589789847e+001
0	 7.399969999982151e+000	 5.799989999990448e+000	 1.009754811378031e+001
0	 7.399969999982150e+000	 5.866659999993467e+000	 1.009574752867572e+001
0	 7.399969999982151e+000	 5.933329999996684e+000	 1.009390163595438e+001
0	 7.399969999982151e+000	 6.000000000000000e+000	 1.009200792898603e+001
0	 7.466639999981864e+000	 5.333299999983334e+000	 1.010432899157405e+001
0	 7.466639999981866e+000	 5.399969999982150e+000	 1.010289473250896e+001
0	 7.466639999981867e+000	 5.466639999981868e+000	 1.010143098598745e+001
0	 7.466639999981864e+000	 5.533309999982382e+000	 1.009993543198330e+001
0	 7.466639999981867e+000	 5.599979999983601e+000	 1.009840575047028e+001
0	 7.466639999981866e+000	 5.666649999985418e+000	 1.009683962142216e+001
0	 7.466639999981866e+000	 5.733319999987732e+000	 1.009523472481276e+001
0	 7.466639999981867e+000	 5.799989999990450e+000	 1.009358874061583e+001
0	 7.466639999981867e+000	 5.866659999993467e+000	 1.009189934880515e+001
0	 7.466639999981867e+000	 5.933329999996684e+000	 1.009016422935451e+001
0	 7.466639999981866e+000	 6.000000000000001e+000	 1.008838106223767e+001
0	 7.533309999982382e+000	 5.333299999983334e+000	 1.009958015238993e+001
0	 7.533309999982384e+000	 5.399969999982148e+000	 1.009826398054283e+001
0	 7.533309999982382e+000	 5.466639999981865e+000	 1.009691666795548e+001
0	 7.533309999982381e+000	 5.533309999982382e+000	 1.009553606334525e+001
0	 7.533309999982381e+000	 5.599979999983599e+000	 1.009412001542960e+001
0	 7.533309999982383e+000	 5.666649999985416e+000	 1.009266637292596e+001
0	 7.533309999982381e+000	 5.733319999987733e+000	 1.009117298455174e+001
0	 7.533309999982381e+000	 5.799989999990449e+000	 1.008963769902434e+001
0	 7.533309999982383e+000	 5.866659999993466e+000	 1.008805836506123e+001
0	 7.533309999982384e+000	 5.933329999996682e+000	 1.008643283137978e+001
0	 7.533309999982382e+000	 6.000000000000000e+000	 1.008475894669744e+001
0	 7.599979999983598e+000	 5.333299999983333e+000	 1.009485284486185e+001
0	 7.599979999983598e+000	 5.399969999982149e+000	 1.009365347231861e+001
0	 7.599979999983599e+000	 5.466639999981866e+000	 1.009242138340916e+001
0	 7.599979999983599e+000	 5.533309999982384e+000	 1.009115457773414e+001
0	 7.599979999983599e+000	 5.599979999983600e+000	 1.008985105489423e+001
0	 7.599979999983598e+000	 5.666649999985417e+000	 1.008850881449006e+001
0	 7.599979999983599e+000	 5.733319999987733e+000	 1.008712585612230e+001
0	 7.599979999983598e+000	 5.799989999990449e+000	 1.008570017939157e+001
0	 7.599979999983598e+000	 5.866659999993469e+000	 1.008422978389856e+001
0	 7.599979999983599e+000	 5.933329999996683e+000	 1.008271266924390e+001
0	 7.599979999983598e+000	 6.000000000000001e+000	 1.008114683502824e+001
0	 7.666649999985414e+000	 5.333299999983333e+000	 1.009015227821679e+001
0	 7.666649999985414e+000	 5.399969999982151e+000	 1.008906840030126e+001
0	 7.666649999985415e+000	 5.466639999981864e+000	 1.008795031274158e+001
0	 7.666649999985416e+000	 5.533309999982385e+000	 1.008679614816128e+001
0	 7.666649999985417e+000	 5.599979999983601e+000	 1.008560403918382e+001
0	 7.666649999985415e+000	 5.666649999985416e+000	 1.008437211843266e+001
0	 7.666649999985416e+000	 5.733319999987733e+000	 1.008309851853128e+001
0	 7.666649999985416e+000	 5.799989999990450e+000	 1.008178137210314e+001
0	 7.666649999985416e+000	 5.866659999993467e+000	 1.008041881177174e+001
0	 7.666649999985415e+000	 5.933329999996684e+000	 1.007900897016051e+001
0	 7.666649999985416e+000	 6.000000000000000e+000	 1.007754997989293e+001
0	 7.733319999987731e+000	 5.333299999983334e+000	 1.008548366168179e+001
0	 7.733319999987731e+000	 5.399969999982149e+000	 1.008451395695573e+001
0	 7.733319999987730e+000	 5.466639999981866e+000	 1.008350863634585e+001
0	 7.733319999987733e+000	 5.533309999982385e+000	 1.008246594763801e+001
0	 7.733319999987733e+000	 5.599979999983599e+000	 1.008138413861810e+001
0	 7.733319999987731e+000	 5.666649999985415e+000	 1.008026145707200e+001
0	 7.733319999987731e+000	 5.733319999987733e+000	 1.007909615078559e+001
0	 7.733319999987732e+000	 5.799989999990450e+000	 1.007788646754474e+001
0	 7.733319999987732e+000	 5.866659999993466e+000	 1.007663065513535e+001
0	 7.733319999987732e+000	 5.933329999996685e+000	 1.007532696134327e+001
0	 7.733319999987733e+000	 6.000000000000000e+000	 1.007397363395442e+001
0	 7.799989999990448e+000	 5.333299999983334e+000	 1.008085220448381e+001
0	 7.799989999990450e+000	 5.399969999982149e+000	 1.007999533474704e+001
0	 7.799989999990448e+000	 5.466639999981866e+000	 1.007910153461502e+001
0	 7.799989999990447e+000	 5.533309999982382e+000	 1.007816914917562e+001
0	 7.799989999990447e+000	 5.599979999983600e+000	 1.007719652351676e+001
0	 7.799989999990449e+000	 5.666649999985417e+000	 1.007618200272629e+001
0	 7.799989999990448e+000	 5.733319999987732e+000	 1.007512393189209e+001
0	 7.799989999990449e+000	 5.799989999990448e+000	 1.007402065610204e+001
0	 7.799989999990447e+000	 5.866659999993467e+000	 1.007287052044402e+001
0	 7.799989999990449e+000	 5.933329999996684e+000	 1.007167187000588e+001
0	 7.799989999990450e+000	 6.000000000000001e+000	 1.007042304987554e+001
0	 7.866659999993464e+000	 5.333299999983334e+000	 1.007626311584991e+001
0	 7.866659999993464e+000	 5.399969999982150e+000	 1.007551772614012e+001
0	 7.866659999993465e+000	 5.466639999981866e+000	 1.007473418794215e+001
0	 7.866659999993464e+000	 5.533309999982383e+000	 1.007391092578545e+001
0	 7.866659999993463e+000	 5.599979999983600e+000	 1.007304636419950e+001
0	 7.866659999993463e+000	 5.666649999985416e+000	 1.007213892771374e+001
0	 7.866659999993465e+000	 5.733319999987733e+000	 1.007118704085766e+001
0	 7.866659999993464e+000	 5.799989999990450e+000	 1.007018912816068e+001
0	 7.866659999993464e+000	 5.866659999993467e+000	 1.006914361415232e+001
0	 7.866659999993464e+000	 5.933329999996685e+000	 1.006804892336200e+001
0	 7.866659999993464e+000	 6.000000000000000e+000	 1.006690348031920e+001
0	 7.933329999996682e+000	 5.333299999983334e+000	 1.007172160500706e+001
0	 7.933329999996682e+000	 5.399969999982150e+000	 1.007108632359998e+001
0	 7.933329999996680e+000	 5.466639999981867e+000	 1.007041177672036e+001
0	 7.933329999996681e+000	 5.533309999982383e+000	 1.006969645047882e+001
0	 7.933329999996682e+000	 5.599979999983599e+000	 1.006893883098602e+001
0	 7.933329999996682e+000	 5.666649999985417e+000	 1.006813740435259e+001
0	 7.933329999996680e+000	 5.733319999987732e+000	 1.006729065668915e+001
0	 7.933329999996682e+000	 5.799989999990449e+000	 1.006639707410637e+001
0	 7.933329999996682e+000	 5.866659999993467e+000	 1.006545514271487e+001
0	 7.933329999996682e+000	 5.933329999996683e+000	 1.006446334862529e+001
0	 7.933329999996681e+000	 5.999999999999999e+000	 1.006342017794826e+001
0	 8.000000000000000e+000	 5.333299999983333e+000	 1.006723288118227e+001
0	 8.000000000000000e+000	 5.399969999982149e+000	 1.006670631959157e+001
0	 8.000000000000000e+000	 5.466639999981868e+000	 1.006613948134269e+001
0	 8.000000000000000e+000	 5.533309999982382e+000	 1.006553089626704e+001
0	 8.000000000000000e+000	 5.599979999983600e+000	 1.006487909419601e+001
0	 8.000000000000000e+000	 5.666649999985416e+000	 1.006418260496102e+001
0	 7.999999999999999e+000	 5.733319999987732e+000	 1.006343995839347e+001
0	 8.000000000000000e+000	 5.799989999990449e+000	 1.006264968432475e+001
0	 7.999999999999998e+000	 5.866659999993466e+000	 1.006181031258625e+001
0	 8.000000000000000e+000	 5.933329999996682e+000	 1.006092037300941e+001
0	 8.000000000000000e+000	 6.000000000000001e+000	 1.005997839542560e+001
0	 7.333299999983334e+000	 6.000000000000002e+000	 1.009563429427968e+001
0	 7.333299999983334e+000	 6.066670000003316e+000	 1.009360214345977e+001
0	 7.333299999983332e+000	 6.133340000006531e+000	 1.009156469059266e+001
0	 7.333299999983334e+000	 6.200010000009550e+000	 1.008951965176401e+001
0	 7.333299999983334e+000	 6.266680000012268e+000	 1.008746474305951e+001
0	 7.333299999983335e+000	 6.333350000014586e+000	 1.008539768056486e+001
0	 7.333299999983336e+000	 6.400020000016400e+000	 1.008331618036580e+001
0	 7.333299999983333e+000	 6.466690000017615e+000	 1.008121795854795e+001
0	 7.333299999983334e+000	 6.533360000018135e+000	 1.007910073119706e+001
0	 7.333299999983335e+000	 6.600030000017851e+000	 1.007696221439880e+001
0	 7.333299999983333e+000	 6.666700000016665e+000	 1.007480012423886e+001
0	 7.399969999982151e+000	 6.000000000000000e+000	 1.009200792898603e+001
0	 7.399969999982151e+000	 6.066670000003316e+000	 1.009008663244715e+001
0	 7.399969999982148e+000	 6.133340000006533e+000	 1.008815815380124e+001
0	 7.399969999982151e+000	 6.200010000009551e+000	 1.008622026059862e+001
0	 7.399969999982151e+000	 6.266680000012269e+000	 1.008427072038962e+001
0	 7.399969999982151e+000	 6.333350000014585e+000	 1.008230730072458e+001
0	 7.399969999982150e+000	 6.400020000016400e+000	 1.008032776915381e+001
0	 7.399969999982149e+000	 6.466690000017618e+000	 1.007832989322762e+001
0	 7.399969999982149e+000	 6.533360000018133e+000	 1.007631144049637e+001
0	 7.399969999982149e+000	 6.600030000017851e+000	 1.007427017851035e+001
0	 7.399969999982152e+000	 6.666700000016668e+000	 1.007220387481991e+001
0	 7.466639999981866e+000	 6.000000000000001e+000	 1.008838106223767e+001
0	 7.466639999981865e+000	 6.066670000003317e+000	 1.008656933918890e+001
0	 7.466639999981867e+000	 6.133340000006534e+000	 1.008474864659522e+001
0	 7.466639999981867e+000	 6.200010000009551e+000	 1.008291680640952e+001
0	 7.466639999981864e+000	 6.266680000012266e+000	 1.008107164058471e+001
0	 7.466639999981867e+000	 6.333350000014584e+000	 1.007921097107366e+001
0	 7.466639999981866e+000	 6.400020000016401e+000	 1.007733261982926e+001
0	 7.466639999981867e+000	 6.466690000017618e+000	 1.007543440880443e+001
0	 7.466639999981866e+000	 6.533360000018133e+000	 1.007351415995206e+001
0	 7.466639999981867e+000	 6.600030000017850e+000	 1.007156969522503e+001
0	 7.466639999981867e+000	 6.666700000016668e+000	 1.006959883657622e+001
0	 7.533309999982382e+000	 6.000000000000000e+000	 1.008475894669744e+001
0	 7.533309999982384e+000	 6.066670000003317e+000	 1.008305553717818e+001
0	 7.533309999982382e+000	 6.133340000006532e+000	 1.008134144936998e+001
0	 7.533309999982381e+000	 6.200010000009550e+000	 1.007961456256624e+001
0	 7.533309999982384e+000	 6.266680000012268e+000	 1.007787275606037e+001
0	 7.533309999982381e+000	 6.333350000014584e+000	 1.007611390914580e+001
0	 7.533309999982381e+000	 6.400020000016402e+000	 1.007433590111592e+001
0	 7.533309999982381e+000	 6.466690000017616e+000	 1.007253661126412e+001
0	 7.533309999982383e+000	 6.533360000018137e+000	 1.007071391888384e+001
0	 7.533309999982382e+000	 6.600030000017848e+000	 1.006886570326847e+001
0	 7.533309999982381e+000	 6.666700000016665e+000	 1.006698984371140e+001
0	 7.599979999983598e+000	 6.000000000000001e+000	 1.008114683502824e+001
0	 7.599979999983598e+000	 6.066670000003317e+000	 1.007955049990811e+001
0	 7.599979999983597e+000	 6.133340000006532e+000	 1.007794184252084e+001
0	 7.599979999983599e+000	 6.200010000009550e+000	 1.007631880243828e+001
0	 7.599979999983598e+000	 6.266680000012266e+000	 1.007467931923232e+001
0	 7.599979999983599e+000	 6.333350000014585e+000	 1.007302133247480e+001
0	 7.599979999983599e+000	 6.400020000016399e+000	 1.007134278173758e+001
0	 7.599979999983599e+000	 6.466690000017617e+000	 1.006964160659252e+001
0	 7.599979999983598e+000	 6.533360000018133e+000	 1.006791574661149e+001
0	 7.599979999983601e+000	 6.600030000017851e+000	 1.006616314136635e+001
0	 7.599979999983599e+000	 6.666700000016667e+000	 1.006438173042893e+001
0	 7.666649999985416e+000	 6.000000000000000e+000	 1.007754997989293e+001
0	 7.666649999985414e+000	 6.066670000003318e+000	 1.007605950087182e+001
0	 7.666649999985415e+000	 6.133340000006533e+000	 1.007455510644315e+001
0	 7.666649999985415e+000	 6.200010000009550e+000	 1.007303479939518e+001
0	 7.666649999985415e+000	 6.266680000012267e+000	 1.007149658251617e+001
0	 7.666649999985416e+000	 6.333350000014584e+000	 1.006993845859435e+001
0	 7.666649999985417e+000	 6.400020000016401e+000	 1.006835843041802e+001
0	 7.666649999985417e+000	 6.466690000017619e+000	 1.006675450077540e+001
0	 7.666649999985417e+000	 6.533360000018135e+000	 1.006512467245475e+001
0	 7.666649999985414e+000	 6.600030000017851e+000	 1.006346694824434e+001
0	 7.666649999985416e+000	 6.666700000016666e+000	 1.006177933093242e+001
0	 7.733319999987733e+000	 6.000000000000000e+000	 1.007397363395442e+001
0	 7.733319999987733e+000	 6.066670000003317e+000	 1.007258781356246e+001
0	 7.733319999987733e+000	 6.133340000006533e+000	 1.007118652153226e+001
0	 7.733319999987732e+000	 6.200010000009552e+000	 1.006976782680644e+001
0	 7.733319999987732e+000	 6.266680000012268e+000	 1.006832979832756e+001
0	 7.733319999987732e+000	 6.333350000014586e+000	 1.006687050503821e+001
0	 7.733319999987733e+000	 6.400020000016401e+000	 1.006538801588101e+001
0	 7.733319999987733e+000	 6.466690000017619e+000	 1.006388039979854e+001
0	 7.733319999987731e+000	 6.533360000018133e+000	 1.006234572573338e+001
0	 7.733319999987731e+000	 6.600030000017849e+000	 1.006078206262813e+001
0	 7.733319999987732e+000	 6.666700000016666e+000	 1.005918747942537e+001
0	 7.799989999990450e+000	 6.000000000000001e+000	 1.007042304987554e+001
0	 7.799989999990448e+000	 6.066670000003319e+000	 1.006914071147314e+001
0	 7.799989999990447e+000	 6.133340000006533e+000	 1.006784136818353e+001
0	 7.799989999990450e+000	 6.200010000009552e+000	 1.006652315804157e+001
0	 7.799989999990449e+000	 6.266680000012268e+000	 1.006518421908214e+001
0	 7.799989999990449e+000	 6.333350000014584e+000	 1.006382268934013e+001
0	 7.799989999990448e+000	 6.400020000016402e+000	 1.006243670685035e+001
0	 7.799989999990448e+000	 6.466690000017616e+000	 1.006102440964774e+001
0	 7.799989999990449e+000	 6.533360000018136e+000	 1.005958393576711e+001
0	 7.799989999990449e+000	 6.600030000017850e+000	 1.005811342324336e+001
0	 7.799989999990447e+000	 6.666700000016665e+000	 1.005661101011135e+001
0	 7.866659999993464e+000	 6.000000000000000e+000	 1.006690348031920e+001
0	 7.866659999993465e+000	 6.066670000003317e+000	 1.006572346809701e+001
0	 7.866659999993463e+000	 6.133340000006531e+000	 1.006452492679228e+001
0	 7.866659999993464e+000	 6.200010000009551e+000	 1.006330606647010e+001
0	 7.866659999993466e+000	 6.266680000012268e+000	 1.006206509719559e+001
0	 7.866659999993464e+000	 6.333350000014584e+000	 1.006080022903380e+001
0	 7.866659999993464e+000	 6.400020000016402e+000	 1.005950967204982e+001
0	 7.866659999993465e+000	 6.466690000017617e+000	 1.005819163630877e+001
0	 7.866659999993464e+000	 6.533360000018133e+000	 1.005684433187572e+001
0	 7.866659999993463e+000	 6.600030000017848e+000	 1.005546596881573e+001
0	 7.866659999993463e+000	 6.666700000016666e+000	 1.005405475719394e+001
0	 7.933329999996681e+000	 5.999999999999999e+000	 1.006342017794826e+001
0	 7.933329999996682e+000	 6.066670000003318e+000	 1.006234135692718e+001
0	 7.933329999996681e+000	 6.133340000006533e+000	 1.006124247775387e+001
0	 7.933329999996682e+000	 6.200010000009551e+000	 1.006012182546157e+001
0	 7.933329999996681e+000	 6.266680000012267e+000	 1.005897768508351e+001
0	 7.933329999996682e+000	 6.333350000014584e+000	 1.005780834165299e+001
0	 7.933329999996681e+000	 6.400020000016401e+000	 1.005661208020321e+001
0	 7.933329999996681e+000	 6.466690000017616e+000	 1.005538718576744e+001
0	 7.933329999996681e+000	 6.533360000018135e+000	 1.005413194337892e+001
0	 7.933329999996682e+000	 6.600030000017850e+000	 1.005284463807090e+001
0	 7.933329999996682e+000	 6.666700000016667e+000	 1.005152355487664e+001
0	 8.000000000000000e+000	 6.000000000000001e+000	 1.005997839542560e+001
0	 8.000000000000002e+000	 6.066670000003317e+000	 1.005899965145679e+001
0	 7.999999999999999e+000	 6.133340000006534e+000	 1.005799930146362e+001
0	 7.999999999999999e+000	 6.200010000009551e+000	 1.005697570838545e+001
0	 7.999999999999997e+000	 6.266680000012266e+000	 1.005592723516159e+001
0	 7.999999999999999e+000	 6.333350000014583e+000	 1.005485224473142e+001
0	 8.000000000000000e+000	 6.400020000016401e+000	 1.005374910003427e+001
0	 8.000000000000000e+000	 6.466690000017617e+000	 1.005261616400951e+001
0	 8.000000000000000e+000	 6.533360000018136e+000	 1.005145179959649e+001
0	 7.999999999999998e+000	 6.600030000017848e+000	 1.005025436973453e+001
0	 8.000000000000000e+000	 6.666700000016668e+000	 1.004902223736302e+001
0	 7.333299999983333e+000	 6.666700000016665e+000	 1.007480012423886e+001
0	 7.333299999983335e+000	 6.733360000014533e+000	 1.007263327000452e+001
0	 7.333299999983334e+000	 6.800020000011600e+000	 1.007047987711909e+001
0	 7.333299999983332e+000	 6.866680000008064e+000	 1.006833776441063e+001
0	 7.333299999983334e+000	 6.933340000004134e+000	 1.006620475070719e+001
0	 7.333299999983332e+000	 6.999999999999998e+000	 1.006407865483680e+001
0	 7.333299999983334e+000	 7.066659999995866e+000	 1.006195729562754e+001
0	 7.333299999983333e+000	 7.133319999991934e+000	 1.005983849190742e+001
0	 7.333299999983334e+000	 7.199979999988401e+000	 1.005772006250450e+001
0	 7.333299999983335e+000	 7.266639999985467e+000	 1.005559982624682e+001
0	 7.333299999983336e+000	 7.333299999983336e+000	 1.005347560196244e+001
0	 7.399969999982152e+000	 6.666700000016668e+000	 1.007220387481991e+001
0	 7.399969999982149e+000	 6.733360000014531e+000	 1.007013114838226e+001
0	 7.399969999982147e+000	 6.800020000011596e+000	 1.006807006013082e+001
0	 7.399969999982151e+000	 6.866680000008066e+000	 1.006601847633932e+001
0	 7.399969999982150e+000	 6.933340000004133e+000	 1.006397426328151e+001
0	 7.399969999982149e+000	 6.999999999999999e+000	 1.006193528723111e+001
0	 7.399969999982151e+000	 7.066659999995867e+000	 1.005989941446184e+001
0	 7.399969999982149e+000	 7.133319999991933e+000	 1.005786451124744e+001
0	 7.399969999982150e+000	 7.199979999988400e+000	 1.005582844386163e+001
0	 7.399969999982149e+000	 7.266639999985467e+000	 1.005378907857816e+001
0	 7.399969999982149e+000	 7.333299999983334e+000	 1.005174428167072e+001
0	 7.466639999981867e+000	 6.666700000016668e+000	 1.006959883657622e+001
0	 7.466639999981863e+000	 6.733360000014532e+000	 1.006761996353403e+001
0	 7.466639999981866e+000	 6.800020000011599e+000	 1.006565092260603e+001
0	 7.466639999981866e+000	 6.866680000008068e+000	 1.006368962932116e+001
0	 7.466639999981868e+000	 6.933340000004134e+000	 1.006173399920834e+001
0	 7.466639999981863e+000	 6.999999999999998e+000	 1.005978194779648e+001
0	 7.466639999981865e+000	 7.066659999995866e+000	 1.005783139061450e+001
0	 7.466639999981865e+000	 7.133319999991935e+000	 1.005588024319132e+001
0	 7.466639999981868e+000	 7.199979999988401e+000	 1.005392642105585e+001
0	 7.466639999981866e+000	 7.266639999985468e+000	 1.005196783973700e+001
0	 7.466639999981864e+000	 7.333299999983332e+000	 1.005000241476370e+001
0	 7.533309999982381e+000	 6.666700000016665e+000	 1.006698984371140e+001
0	 7.533309999982382e+000	 6.733360000014530e+000	 1.006510443843704e+001
0	 7.533309999982383e+000	 6.800020000011599e+000	 1.006322707678175e+001
0	 7.533309999982383e+000	 6.866680000008068e+000	 1.006135572533917e+001
0	 7.533309999982382e+000	 6.933340000004133e+000	 1.005948835070285e+001
0	 7.533309999982384e+000	 7.000000000000001e+000	 1.005762291946642e+001
0	 7.533309999982381e+000	 7.066659999995867e+000	 1.005575739822348e+001
0	 7.533309999982384e+000	 7.133319999991936e+000	 1.005388975356767e+001
0	 7.533309999982383e+000	 7.199979999988400e+000	 1.005201795209253e+001
0	 7.533309999982384e+000	 7.266639999985466e+000	 1.005013996039173e+001
0	 7.533309999982382e+000	 7.333299999983334e+000	 1.004825374505884e+001
0	 7.599979999983599e+000	 6.666700000016667e+000	 1.006438173042893e+001
0	 7.599979999983599e+000	 6.733360000014532e+000	 1.006258929606852e+001
0	 7.599979999983599e+000	 6.800020000011599e+000	 1.006080313489505e+001
0	 7.599979999983598e+000	 6.866680000008066e+000	 1.005902126637634e+001
0	 7.599979999983598e+000	 6.933340000004133e+000	 1.005724170998019e+001
0	 7.599979999983597e+000	 6.999999999999998e+000	 1.005546248517437e+001
0	 7.599979999983598e+000	 7.066659999995864e+000	 1.005368161142672e+001
0	 7.599979999983599e+000	 7.133319999991936e+000	 1.005189710820502e+001
0	 7.599979999983599e+000	 7.199979999988399e+000	 1.005010699497706e+001
0	 7.599979999983599e+000	 7.266639999985468e+000	 1.004830929121068e+001
0	 7.599979999983598e+000	 7.333299999983333e+000	 1.004650201637361e+001
0	 7.666649999985416e+000	 6.666700000016666e+000	 1.006177933093242e+001
0	 7.666649999985415e+000	 6.733360000014532e+000	 1.006007925940566e+001
0	 7.666649999985415e+000	 6.800020000011600e+000	 1.005838370918293e+001
0	 7.666649999985414e+000	 6.866680000008066e+000	 1.005669075441573e+001
0	 7.666649999985412e+000	 6.933340000004129e+000	 1.005499846925553e+001
0	 7.666649999985414e+000	 6.999999999999999e+000	 1.005330492785385e+001
0	 7.666649999985414e+000	 7.066659999995866e+000	 1.005160820436217e+001
0	 7.666649999985417e+000	 7.133319999991936e+000	 1.004990637293201e+001
0	 7.666649999985416e+000	 7.199979999988400e+000	 1.004819750771484e+001
0	 7.666649999985416e+000	 7.266639999985468e+000	 1.004647968286216e+001
0	 7.666649999985414e+000	 7.333299999983332e+000	 1.004475097252548e+001
0	 7.733319999987732e+000	 6.666700000016666e+000	 1.005918747942537e+001
0	 7.733319999987732e+000	 6.733360000014532e+000	 1.005757905142568e+001
0	 7.733319999987731e+000	 6.800020000011599e+000	 1.005597341188243e+001
0	 7.733319999987731e+000	 6.866680000008067e+000	 1.005436869144032e+001
0	 7.733319999987733e+000	 6.933340000004134e+000	 1.005276302074405e+001
0	 7.733319999987732e+000	 7.000000000000000e+000	 1.005115453043831e+001
0	 7.733319999987733e+000	 7.066659999995867e+000	 1.004954135116778e+001
0	 7.733319999987730e+000	 7.133319999991934e+000	 1.004792161357720e+001
0	 7.733319999987730e+000	 7.199979999988400e+000	 1.004629344831122e+001
0	 7.733319999987732e+000	 7.266639999985467e+000	 1.004465498601456e+001
0	 7.733319999987732e+000	 7.333299999983334e+000	 1.004300435733190e+001
0	 7.799989999990447e+000	 6.666700000016665e+000	 1.005661101011135e+001
0	 7.799989999990448e+000	 6.733360000014533e+000	 1.005509339510579e+001
0	 7.799989999990447e+000	 6.800020000011601e+000	 1.005357685523060e+001
0	 7.799989999990448e+000	 6.866680000008068e+000	 1.005205957943317e+001
0	 7.799989999990447e+000	 6.933340000004134e+000	 1.005053975666091e+001
0	 7.799989999990448e+000	 7.000000000000000e+000	 1.004901557586123e+001
0	 7.799989999990447e+000	 7.066659999995868e+000	 1.004748522598151e+001
0	 7.799989999990448e+000	 7.133319999991935e+000	 1.004594689596917e+001
0	 7.799989999990447e+000	 7.199979999988400e+000	 1.004439877477159e+001
0	 7.799989999990449e+000	 7.266639999985467e+000	 1.004283905133620e+001
0	 7.799989999990448e+000	 7.333299999983335e+000	 1.004126591461034e+001
0	 7.866659999993463e+000	 6.666700000016666e+000	 1.005405475719394e+001
0	 7.866659999993466e+000	 6.733360000014533e+000	 1.005262701342321e+001
0	 7.866659999993466e+000	 6.800020000011601e+000	 1.005119865146444e+001
0	 7.866659999993463e+000	 6.866680000008066e+000	 1.004976792037727e+001
0	 7.866659999993465e+000	 6.933340000004134e+000	 1.004833306922129e+001
0	 7.866659999993464e+000	 6.999999999999999e+000	 1.004689234705609e+001
0	 7.866659999993464e+000	 7.066659999995867e+000	 1.004544400294130e+001
0	 7.866659999993463e+000	 7.133319999991933e+000	 1.004398628593653e+001
0	 7.866659999993464e+000	 7.199979999988400e+000	 1.004251744510135e+001
0	 7.866659999993463e+000	 7.266639999985466e+000	 1.004103572949540e+001
0	 7.866659999993464e+000	 7.333299999983334e+000	 1.003953938817826e+001
0	 7.933329999996682e+000	 6.666700000016667e+000	 1.005152355487664e+001
0	 7.933329999996681e+000	 6.733360000014533e+000	 1.005018462935514e+001
0	 7.933329999996680e+000	 6.800020000011600e+000	 1.004884341282103e+001
0	 7.933329999996682e+000	 6.866680000008068e+000	 1.004749821625567e+001
0	 7.933329999996681e+000	 6.933340000004133e+000	 1.004614735064035e+001
0	 7.933329999996682e+000	 7.000000000000000e+000	 1.004478912695640e+001
0	 7.933329999996681e+000	 7.066659999995865e+000	 1.004342185618511e+001
0	 7.933329999996682e+000	 7.133319999991935e+000	 1.004204384930783e+001
0	 7.933329999996681e+000	 7.199979999988401e+000	 1.004065341730585e+001
0	 7.933329999996681e+000	 7.266639999985467e+000	 1.003924887116053e+001
0	 7.933329999996682e+000	 7.333299999983334e+000	 1.003782852185314e+001
0	 8.000000000000000e+000	 6.666700000016668e+000	 1.004902223736302e+001
0	 7.999999999999999e+000	 6.733360000014532e+000	 1.004777096587877e+001
0	 8.000000000000000e+000	 6.800020000011601e+000	 1.004651575153737e+001
0	 7.999999999999999e+000	 6.866680000008068e+000	 1.004525496905135e+001
0	 8.000000000000000e+000	 6.933340000004133e+000	 1.004398699313324e+001
0	 8.000000000000000e+000	 7.000000000000000e+000	 1.004271019849557e+001
0	 7.999999999999999e+000	 7.066659999995867e+000	 1.004142295985088e+001
0	 8.000000000000000e+000	 7.133319999991934e+000	 1.004012365191170e+001
0	 8.000000000000000e+000	 7.199979999988400e+000	 1.003881064939053e+001
0	 8.000000000000000e+000	 7.266639999985467e+000	 1.003748232699993e+001
0	 8.000000000000000e+000	 7.333299999983335e+000	 1.003613705945243e+001
0	 7.333299999983336e+000	 7.333299999983336e+000	 1.005347560196244e+001
0	 7.333299999983333e+000	 7.399969999982150e+000	 1.005136445781493e+001
0	 7.333299999983334e+000	 7.466639999981866e+000	 1.004928404122589e+001
0	 7.333299999983335e+000	 7.533309999982384e+000	 1.004723208268925e+001
0	 7.333299999983334e+000	 7.599979999983599e+000	 1.004520631269896e+001
0	 7.333299999983335e+000	 7.666649999985417e+000	 1.004320446174891e+001
0	 7.333299999983335e+000	 7.733319999987733e+000	 1.004122426033306e+001
0	 7.333299999983334e+000	 7.799989999990448e+000	 1.003926343894534e+001
0	 7.333299999983332e+000	 7.866659999993465e+000	 1.003731972807969e+001
0	 7.333299999983333e+000	 7.933329999996682e+000	 1.003539085823004e+001
0	 7.333299999983335e+000	 8.000000000000000e+000	 1.003347455989031e+001
0	 7.399969999982149e+000	 7.333299999983334e+000	 1.005174428167072e+001
0	 7.399969999982149e+000	 7.399969999982149e+000	 1.004971089944593e+001
0	 7.399969999982149e+000	 7.466639999981866e+000	 1.004770634057184e+001
0	 7.399969999982149e+000	 7.533309999982385e+000	 1.004572839307148e+001
0	 7.399969999982151e+000	 7.599979999983598e+000	 1.004377484496786e+001
0	 7.399969999982151e+000	 7.666649999985417e+000	 1.004184348428400e+001
0	 7.399969999982150e+000	 7.733319999987732e+000	 1.003993209904290e+001
0	 7.399969999982150e+000	 7.799989999990451e+000	 1.003803847726759e+001
0	 7.399969999982150e+000	 7.866659999993467e+000	 1.003616040698111e+001
0	 7.399969999982151e+000	 7.933329999996683e+000	 1.003429567620642e+001
0	 7.399969999982150e+000	 8.000000000000000e+000	 1.003244207296659e+001
0	 7.466639999981864e+000	 7.333299999983332e+000	 1.005000241476370e+001
0	 7.466639999981866e+000	 7.399969999982149e+000	 1.004804677648590e+001
0	 7.466639999981866e+000	 7.466639999981866e+000	 1.004611809909625e+001
0	 7.466639999981864e+000	 7.533309999982383e+000	 1.004421422750538e+001
0	 7.466639999981866e+000	 7.599979999983601e+000	 1.004233300662390e+001
0	 7.466639999981867e+000	 7.666649999985418e+000	 1.004047228136242e+001
0	 7.466639999981866e+000	 7.733319999987733e+000	 1.003862989663157e+001
0	 7.466639999981867e+000	 7.799989999990451e+000	 1.003680369734197e+001
0	 7.466639999981867e+000	 7.866659999993466e+000	 1.003499152840422e+001
0	 7.466639999981868e+000	 7.933329999996684e+000	 1.003319123472894e+001
0	 7.466639999981866e+000	 8.000000000000000e+000	 1.003140066122675e+001
0	 7.533309999982382e+000	 7.333299999983334e+000	 1.004825374505884e+001
0	 7.533309999982382e+000	 7.399969999982148e+000	 1.004637572532674e+001
0	 7.533309999982383e+000	 7.466639999981866e+000	 1.004452284416194e+001
0	 7.533309999982382e+000	 7.533309999982384e+000	 1.004269300272116e+001
0	 7.533309999982381e+000	 7.599979999983600e+000	 1.004088410216115e+001
0	 7.533309999982382e+000	 7.666649999985416e+000	 1.003909404363860e+001
0	 7.533309999982383e+000	 7.733319999987733e+000	 1.003732072831028e+001
0	 7.533309999982382e+000	 7.799989999990448e+000	 1.003556205733292e+001
0	 7.533309999982383e+000	 7.866659999993468e+000	 1.003381593186322e+001
0	 7.533309999982383e+000	 7.933329999996684e+000	 1.003208025305794e+001
0	 7.533309999982381e+000	 8.000000000000000e+000	 1.003035292207380e+001
0	 7.599979999983598e+000	 7.333299999983333e+000	 1.004650201637361e+001
0	 7.599979999983599e+000	 7.399969999982149e+000	 1.004470138236039e+001
0	 7.599979999983599e+000	 7.466639999981867e+000	 1.004292410313176e+001
0	 7.599979999983599e+000	 7.533309999982382e+000	 1.004116813544905e+001
0	 7.599979999983599e+000	 7.599979999983599e+000	 1.003943143607364e+001
0	 7.599979999983598e+000	 7.666649999985414e+000	 1.003771196176690e+001
0	 7.599979999983599e+000	 7.733319999987732e+000	 1.003600766929018e+001
0	 7.599979999983597e+000	 7.799989999990448e+000	 1.003431651540485e+001
0	 7.599979999983597e+000	 7.866659999993466e+000	 1.003263645687225e+001
0	 7.599979999983599e+000	 7.933329999996683e+000	 1.003096545045377e+001
0	 7.599979999983599e+000	 8.000000000000002e+000	 1.002930145291077e+001
0	 7.666649999985414e+000	 7.333299999983332e+000	 1.004475097252549e+001
0	 7.666649999985414e+000	 7.399969999982150e+000	 1.004302738397876e+001
0	 7.666649999985416e+000	 7.466639999981868e+000	 1.004132540336850e+001
0	 7.666649999985416e+000	 7.533309999982385e+000	 1.003964304241924e+001
0	 7.666649999985416e+000	 7.599979999983599e+000	 1.003797831285546e+001
0	 7.666649999985414e+000	 7.666649999985416e+000	 1.003632922640169e+001
0	 7.666649999985415e+000	 7.733319999987731e+000	 1.003469379478245e+001
0	 7.666649999985415e+000	 7.799989999990449e+000	 1.003307002972222e+001
0	 7.666649999985415e+000	 7.866659999993464e+000	 1.003145594294551e+001
0	 7.666649999985415e+000	 7.933329999996682e+000	 1.002984954617685e+001
0	 7.666649999985416e+000	 8.000000000000000e+000	 1.002824885114073e+001
0	 7.733319999987732e+000	 7.333299999983334e+000	 1.004300435733190e+001
0	 7.733319999987732e+000	 7.399969999982149e+000	 1.004135736657372e+001
0	 7.733319999987731e+000	 7.466639999981865e+000	 1.003973027223501e+001
0	 7.733319999987733e+000	 7.533309999982383e+000	 1.003812114036194e+001
0	 7.733319999987733e+000	 7.599979999983600e+000	 1.003652803700065e+001
0	 7.733319999987731e+000	 7.666649999985416e+000	 1.003494902819737e+001
0	 7.733319999987733e+000	 7.733319999987733e+000	 1.003338217999825e+001
0	 7.733319999987732e+000	 7.799989999990451e+000	 1.003182555844943e+001
0	 7.733319999987731e+000	 7.866659999993465e+000	 1.003027722959712e+001
0	 7.733319999987732e+000	 7.933329999996683e+000	 1.002873525948747e+001
0	 7.733319999987733e+000	 8.000000000000000e+000	 1.002719771416666e+001
0	 7.799989999990448e+000	 7.333299999983335e+000	 1.004126591461034e+001
0	 7.799989999990448e+000	 7.399969999982151e+000	 1.003969496653720e+001
0	 7.799989999990449e+000	 7.466639999981866e+000	 1.003814223709409e+001
0	 7.799989999990447e+000	 7.533309999982383e+000	 1.003660584600734e+001
0	 7.799989999990448e+000	 7.599979999983599e+000	 1.003508391300329e+001
0	 7.799989999990450e+000	 7.666649999985416e+000	 1.003357455780832e+001
0	 7.799989999990449e+000	 7.733319999987733e+000	 1.003207590014875e+001
0	 7.799989999990450e+000	 7.799989999990451e+000	 1.003058605975095e+001
0	 7.799989999990447e+000	 7.866659999993467e+000	 1.002910315634126e+001
0	 7.799989999990449e+000	 7.933329999996683e+000	 1.002762530964603e+001
0	 7.799989999990449e+000	 8.000000000000000e+000	 1.002615063939165e+001
0	 7.866659999993464e+000	 7.333299999983334e+000	 1.003953938817826e+001
0	 7.866659999993463e+000	 7.399969999982149e+000	 1.003804382026114e+001
0	 7.866659999993464e+000	 7.466639999981867e+000	 1.003656482530858e+001
0	 7.866659999993465e+000	 7.533309999982383e+000	 1.003510057608566e+001
0	 7.866659999993463e+000	 7.599979999983600e+000	 1.003364924535742e+001
0	 7.866659999993464e+000	 7.666649999985419e+000	 1.003220900588890e+001
0	 7.866659999993466e+000	 7.733319999987733e+000	 1.003077803044514e+001
0	 7.866659999993465e+000	 7.799989999990449e+000	 1.002935449179120e+001
0	 7.866659999993465e+000	 7.866659999993468e+000	 1.002793656269211e+001
0	 7.866659999993465e+000	 7.933329999996684e+000	 1.002652241591291e+001
0	 7.866659999993464e+000	 8.000000000000000e+000	 1.002511022421867e+001
0	 7.933329999996682e+000	 7.333299999983334e+000	 1.003782852185314e+001
0	 7.933329999996682e+000	 7.399969999982150e+000	 1.003640756413738e+001
0	 7.933329999996682e+000	 7.466639999981866e+000	 1.003500156424130e+001
0	 7.933329999996681e+000	 7.533309999982383e+000	 1.003360874732712e+001
0	 7.933329999996681e+000	 7.599979999983600e+000	 1.003222733855711e+001
0	 7.933329999996682e+000	 7.666649999985416e+000	 1.003085556309351e+001
0	 7.933329999996682e+000	 7.733319999987733e+000	 1.002949164609859e+001
0	 7.933329999996682e+000	 7.799989999990450e+000	 1.002813381273462e+001
0	 7.933329999996681e+000	 7.866659999993467e+000	 1.002678028816380e+001
0	 7.933329999996682e+000	 7.933329999996685e+000	 1.002542929754844e+001
0	 7.933329999996680e+000	 8.000000000000000e+000	 1.002407906605077e+001
0	 8.000000000000000e+000	 7.333299999983335e+000	 1.003613705945243e+001
0	 8.000000000000000e+000	 7.399969999982151e+000	 1.003478983455790e+001
0	 8.000000000000000e+000	 7.466639999981867e+000	 1.003345598125507e+001
0	 8.000000000000000e+000	 7.533309999982385e+000	 1.003213377646192e+001
0	 8.000000000000000e+000	 7.599979999983599e+000	 1.003082149709640e+001
0	 7.999999999999999e+000	 7.666649999985416e+000	 1.002951742007653e+001
0	 7.999999999999999e+000	 7.733319999987732e+000	 1.002821982232028e+001
0	 7.999999999999999e+000	 7.799989999990448e+000	 1.002692698074561e+001
0	 7.999999999999998e+000	 7.866659999993465e+000	 1.002563717227051e+001
0	 8.000000000000000e+000	 7.933329999996684e+000	 1.002434867381299e+001
0	 7.999999999999999e+000	 7.999999999999999e+000	 1.002305976229100e+001
0	 7.333299999983335e+000	 8.000000000000000e+000	 1.003347455989031e+001
0	 7.333299999983335e+000	 8.066670000003317e+000	 1.003158922817281e+001
0	 7.333299999983332e+000	 8.133340000006532e+000	 1.002975305137826e+001
0	 7.333299999983334e+000	 8.200010000009550e+000	 1.002796344978331e+001
0	 7.333299999983334e+000	 8.266680000012268e+000	 1.002621784366455e+001
0	 7.333299999983335e+000	 8.333350000014585e+000	 1.002451365329861e+001
0	 7.333299999983333e+000	 8.400020000016399e+000	 1.002284829896212e+001
0	 7.333299999983334e+000	 8.466690000017620e+000	 1.002121920093171e+001
0	 7.333299999983332e+000	 8.533360000018135e+000	 1.001962377948398e+001
0	 7.333299999983335e+000	 8.600030000017853e+000	 1.001805945489559e+001
0	 7.333299999983334e+000	 8.666700000016665e+000	 1.001652364744313e+001
0	 7.399969999982150e+000	 8.000000000000000e+000	 1.003244207296659e+001
0	 7.399969999982151e+000	 8.066670000003315e+000	 1.003061783279234e+001
0	 7.399969999982150e+000	 8.133340000006532e+000	 1.002884097709284e+001
0	 7.399969999982151e+000	 8.200010000009549e+000	 1.002710897270875e+001
0	 7.399969999982152e+000	 8.266680000012268e+000	 1.002541928648078e+001
0	 7.399969999982150e+000	 8.333350000014583e+000	 1.002376938524960e+001
0	 7.399969999982150e+000	 8.400020000016399e+000	 1.002215673585590e+001
0	 7.399969999982149e+000	 8.466690000017612e+000	 1.002057880514037e+001
0	 7.399969999982150e+000	 8.533360000018133e+000	 1.001903305994368e+001
0	 7.399969999982149e+000	 8.600030000017851e+000	 1.001751696710651e+001
0	 7.399969999982150e+000	 8.666700000016668e+000	 1.001602799346955e+001
0	 7.466639999981866e+000	 8.000000000000000e+000	 1.003140066122675e+001
0	 7.466639999981865e+000	 8.066670000003317e+000	 1.002963785073544e+001
0	 7.466639999981867e+000	 8.133340000006532e+000	 1.002792062709450e+001
0	 7.466639999981867e+000	 8.200010000009552e+000	 1.002624650671710e+001
0	 7.466639999981864e+000	 8.266680000012267e+000	 1.002461300601641e+001
0	 7.466639999981866e+000	 8.333350000014583e+000	 1.002301764140557e+001
0	 7.466639999981867e+000	 8.400020000016401e+000	 1.002145792929776e+001
0	 7.466639999981865e+000	 8.466690000017618e+000	 1.001993138610617e+001
0	 7.466639999981866e+000	 8.533360000018135e+000	 1.001843552824393e+001
0	 7.466639999981865e+000	 8.600030000017849e+000	 1.001696787212423e+001
0	 7.466639999981866e+000	 8.666700000016668e+000	 1.001552593416021e+001
0	 7.533309999982381e+000	 8.000000000000000e+000	 1.003035292207380e+001
0	 7.533309999982383e+000	 8.066670000003311e+000	 1.002865176026631e+001
0	 7.533309999982381e+000	 8.133340000006529e+000	 1.002699436754921e+001
0	 7.533309999982382e+000	 8.200010000009550e+000	 1.002537831291655e+001
0	 7.533309999982383e+000	 8.266680000012267e+000	 1.002380116536243e+001
0	 7.533309999982383e+000	 8.333350000014583e+000	 1.002226049388088e+001
0	 7.533309999982381e+000	 8.400020000016401e+000	 1.002075386746600e+001
0	 7.533309999982381e+000	 8.466690000017614e+000	 1.001927885511185e+001
0	 7.533309999982384e+000	 8.533360000018137e+000	 1.001783302581250e+001
0	 7.533309999982381e+000	 8.600030000017851e+000	 1.001641394856200e+001
0	 7.533309999982382e+000	 8.666700000016668e+000	 1.001501919235445e+001
0	 7.599979999983599e+000	 8.000000000000002e+000	 1.002930145291077e+001
0	 7.599979999983598e+000	 8.066670000003315e+000	 1.002766203964916e+001
0	 7.599979999983598e+000	 8.133340000006532e+000	 1.002606456462287e+001
0	 7.599979999983599e+000	 8.200010000009552e+000	 1.002450665241531e+001
0	 7.599979999983597e+000	 8.266680000012265e+000	 1.002298592760986e+001
0	 7.599979999983600e+000	 8.333350000014585e+000	 1.002150001478991e+001
0	 7.599979999983599e+000	 8.400020000016401e+000	 1.002004653853887e+001
0	 7.599979999983598e+000	 8.466690000017614e+000	 1.001862312344012e+001
0	 7.599979999983598e+000	 8.533360000018133e+000	 1.001722739407708e+001
0	 7.599979999983599e+000	 8.600030000017849e+000	 1.001585697503311e+001
0	 7.599979999983598e+000	 8.666700000016666e+000	 1.001450949089164e+001
0	 7.666649999985416e+000	 8.000000000000000e+000	 1.002824885114073e+001
0	 7.666649999985414e+000	 8.066670000003315e+000	 1.002667116714822e+001
0	 7.666649999985416e+000	 8.133340000006538e+000	 1.002513358448145e+001
0	 7.666649999985417e+000	 8.200010000009550e+000	 1.002363378632157e+001
0	 7.666649999985415e+000	 8.266680000012270e+000	 1.002216945584972e+001
0	 7.666649999985416e+000	 8.333350000014583e+000	 1.002073827624701e+001
0	 7.666649999985417e+000	 8.400020000016403e+000	 1.001933793069463e+001
0	 7.666649999985417e+000	 8.466690000017618e+000	 1.001796610237372e+001
0	 7.666649999985415e+000	 8.533360000018135e+000	 1.001662047446539e+001
0	 7.666649999985415e+000	 8.600030000017851e+000	 1.001529873015081e+001
0	 7.666649999985416e+000	 8.666700000016666e+000	 1.001399855261114e+001
0	 7.733319999987733e+000	 8.000000000000000e+000	 1.002719771416666e+001
0	 7.733319999987732e+000	 8.066670000003317e+000	 1.002568162102766e+001
0	 7.733319999987733e+000	 8.133340000006534e+000	 1.002420379329084e+001
0	 7.733319999987732e+000	 8.200010000009552e+000	 1.002276197574351e+001
0	 7.733319999987731e+000	 8.266680000012267e+000	 1.002135391317298e+001
0	 7.733319999987732e+000	 8.333350000014585e+000	 1.001997735036657e+001
0	 7.733319999987732e+000	 8.400020000016399e+000	 1.001863003211160e+001
0	 7.733319999987732e+000	 8.466690000017616e+000	 1.001730970319537e+001
0	 7.733319999987731e+000	 8.533360000018131e+000	 1.001601410840519e+001
0	 7.733319999987731e+000	 8.600030000017851e+000	 1.001474099252837e+001
0	 7.733319999987731e+000	 8.666700000016666e+000	 1.001348810035226e+001
0	 7.799989999990449e+000	 8.000000000000000e+000	 1.002615063939165e+001
0	 7.799989999990448e+000	 8.066670000003317e+000	 1.002469587955172e+001
0	 7.799989999990447e+000	 8.133340000006534e+000	 1.002327755721698e+001
0	 7.799989999990449e+000	 8.200010000009554e+000	 1.002189348178935e+001
0	 7.799989999990448e+000	 8.266680000012267e+000	 1.002054146267070e+001
0	 7.799989999990448e+000	 8.333350000014583e+000	 1.001921930926296e+001
0	 7.799989999990448e+000	 8.400020000016403e+000	 1.001792483096802e+001
0	 7.799989999990447e+000	 8.466690000017618e+000	 1.001665583718779e+001
0	 7.799989999990449e+000	 8.533360000018135e+000	 1.001541013732418e+001
0	 7.799989999990450e+000	 8.600030000017851e+000	 1.001418554077909e+001
0	 7.799989999990448e+000	 8.666700000016668e+000	 1.001297985695442e+001
0	 7.866659999993464e+000	 8.000000000000000e+000	 1.002511022421867e+001
0	 7.866659999993463e+000	 8.066670000003315e+000	 1.002371642098460e+001
0	 7.866659999993464e+000	 8.133340000006532e+000	 1.002235724242583e+001
0	 7.866659999993466e+000	 8.200010000009550e+000	 1.002103056556728e+001
0	 7.866659999993466e+000	 8.266680000012268e+000	 1.001973426743388e+001
0	 7.866659999993464e+000	 8.333350000014585e+000	 1.001846622505054e+001
0	 7.866659999993465e+000	 8.400020000016401e+000	 1.001722431544217e+001
0	 7.866659999993463e+000	 8.466690000017618e+000	 1.001600641563373e+001
0	 7.866659999993466e+000	 8.533360000018133e+000	 1.001481040265007e+001
0	 7.866659999993464e+000	 8.600030000017851e+000	 1.001363415351617e+001
0	 7.866659999993464e+000	 8.666700000016666e+000	 1.001247554525693e+001
0	 7.933329999996680e+000	 8.000000000000000e+000	 1.002407906605077e+001
0	 7.933329999996682e+000	 8.066670000003317e+000	 1.002274572359046e+001
0	 7.933329999996682e+000	 8.133340000006534e+000	 1.002144521508325e+001
0	 7.933329999996682e+000	 8.200010000009552e+000	 1.002017548818549e+001
0	 7.933329999996682e+000	 8.266680000012268e+000	 1.001893449055352e+001
0	 7.933329999996681e+000	 8.333350000014583e+000	 1.001772016984368e+001
0	 7.933329999996680e+000	 8.400020000016399e+000	 1.001653047371237e+001
0	 7.933329999996681e+000	 8.466690000017616e+000	 1.001536334981589e+001
0	 7.933329999996680e+000	 8.533360000018133e+000	 1.001421674581064e+001
0	 7.933329999996681e+000	 8.600030000017849e+000	 1.001308860935295e+001
0	 7.933329999996682e+000	 8.666700000016668e+000	 1.001197688809920e+001
0	 7.999999999999999e+000	 7.999999999999999e+000	 1.002305976229100e+001
0	 7.999999999999998e+000	 8.066670000003319e+000	 1.002178626563358e+001
0	 8.000000000000000e+000	 8.133340000006534e+000	 1.002054384135524e+001
0	 7.999999999999999e+000	 8.200010000009550e+000	 1.001933051075218e+001
0	 7.999999999999999e+000	 8.266680000012268e+000	 1.001814429512062e+001
0	 8.000000000000000e+000	 8.333350000014585e+000	 1.001698321575676e+001
0	 7.999999999999998e+000	 8.400020000016397e+000	 1.001584529395683e+001
0	 8.000000000000000e+000	 8.466690000017618e+000	 1.001472855101703e+001
0	 7.999999999999998e+000	 8.533360000018131e+000	 1.001363100823357e+001
0	 8.000000000000000e+000	 8.600030000017851e+000	 1.001255068690267e+001
0	 8.000000000000000e+000	 8.666700000016666e+000	 1.001148560832054e+001
0	 7.333299999983334e+000	 8.666700000016665e+000	 1.001652364744313e+001
0	 7.333299999983335e+000	 8.733360002791903e+000	 1.001503906823273e+001
0	 7.333299999983333e+000	 8.800020022230555e+000	 1.001362759627035e+001
0	 7.333299999983335e+000	 8.866680074997040e+000	 1.001228608857742e+001
0	 7.333299999983334e+000	 8.933340177755779e+000	 1.001101140196934e+001
0	 7.333299999983333e+000	 9.000000347171179e+000	 1.000980039305532e+001
0	 7.333299999983335e+000	 9.066660599907667e+000	 1.000864991823847e+001
0	 7.333299999983334e+000	 9.133320952629655e+000	 1.000755683371578e+001
0	 7.333299999983333e+000	 9.199981422001558e+000	 1.000651799547809e+001
0	 7.333299999983333e+000	 9.266642024687794e+000	 1.000553025931014e+001
0	 7.333299999983334e+000	 9.333302777352781e+000	 1.000459048079053e+001
0	 7.399969999982150e+000	 8.666700000016668e+000	 1.001602799346955e+001
0	 7.399969999982152e+000	 8.733360002791905e+000	 1.001458842902878e+001
0	 7.399969999982151e+000	 8.800020022230557e+000	 1.001321977674518e+001
0	 7.399969999982150e+000	 8.866680074997044e+000	 1.001191898704003e+001
0	 7.399969999982151e+000	 8.933340177755779e+000	 1.001068301013448e+001
0	 7.399969999982149e+000	 9.000000347171181e+000	 1.000950879604954e+001
0	 7.399969999982152e+000	 9.066660599907667e+000	 1.000839329460607e+001
0	 7.399969999982149e+000	 9.133320952629655e+000	 1.000733345542482e+001
0	 7.399969999982152e+000	 9.199981422001560e+000	 1.000632622792638e+001
0	 7.399969999982149e+000	 9.266642024687798e+000	 1.000536856133127e+001
0	 7.399969999982149e+000	 9.333302777352783e+000	 1.000445740465979e+001
0	 7.466639999981866e+000	 8.666700000016668e+000	 1.001552593416021e+001
0	 7.466639999981866e+000	 8.733360002791901e+000	 1.001413157978541e+001
0	 7.466639999981867e+000	 8.800020022230555e+000	 1.001280592980054e+001
0	 7.466639999981867e+000	 8.866680074997042e+000	 1.001154602694997e+001
0	 7.466639999981868e+000	 8.933340177755783e+000	 1.001034891378397e+001
0	 7.466639999981867e+000	 9.000000347171183e+000	 1.000921163265867e+001
0	 7.466639999981866e+000	 9.066660599907666e+000	 1.000813122573618e+001
0	 7.466639999981865e+000	 9.133320952629653e+000	 1.000710473498451e+001
0	 7.466639999981867e+000	 9.199981422001560e+000	 1.000612920217755e+001
0	 7.466639999981866e+000	 9.266642024687799e+000	 1.000520166889509e+001
0	 7.466639999981866e+000	 9.333302777352785e+000	 1.000431917652289e+001
0	 7.533309999982382e+000	 8.666700000016668e+000	 1.001501919235445e+001
0	 7.533309999982383e+000	 8.733360002791901e+000	 1.001367019277928e+001
0	 7.533309999982384e+000	 8.800020022230555e+000	 1.001238768051655e+001
0	 7.533309999982383e+000	 8.866680074997040e+000	 1.001116878955705e+001
0	 7.533309999982381e+000	 8.933340177755778e+000	 1.001001065370350e+001
0	 7.533309999982383e+000	 9.000000347171184e+000	 1.000891040657064e+001
0	 7.533309999982382e+000	 9.066660599907669e+000	 1.000786518158525e+001
0	 7.533309999982384e+000	 9.133320952629660e+000	 1.000687211198605e+001
0	 7.533309999982383e+000	 9.199981422001558e+000	 1.000592833082381e+001
0	 7.533309999982383e+000	 9.266642024687794e+000	 1.000503097096127e+001
0	 7.533309999982382e+000	 9.333302777352783e+000	 1.000417716507320e+001
0	 7.599979999983598e+000	 8.666700000016666e+000	 1.001450949089164e+001
0	 7.599979999983599e+000	 8.733360002791901e+000	 1.001320594028699e+001
0	 7.599979999983599e+000	 8.800020022230555e+000	 1.001196665397330e+001
0	 7.599979999983599e+000	 8.866680074997040e+000	 1.001078885611103e+001
0	 7.599979999983599e+000	 8.933340177755781e+000	 1.000966977067882e+001
0	 7.599979999983598e+000	 9.000000347171183e+000	 1.000860662147341e+001
0	 7.599979999983599e+000	 9.066660599907667e+000	 1.000759663210967e+001
0	 7.599979999983598e+000	 9.133320952629656e+000	 1.000663702602064e+001
0	 7.599979999983598e+000	 9.199981422001558e+000	 1.000572502645749e+001
0	 7.599979999983599e+000	 9.266642024687798e+000	 1.000485785648948e+001
0	 7.599979999983600e+000	 9.333302777352783e+000	 1.000403273900405e+001
0	 7.666649999985416e+000	 8.666700000016666e+000	 1.001399855261114e+001
0	 7.666649999985416e+000	 8.733360002791903e+000	 1.001274049458524e+001
0	 7.666649999985416e+000	 8.800020022230557e+000	 1.001154447525090e+001
0	 7.666649999985414e+000	 8.866680074997042e+000	 1.001040780786173e+001
0	 7.666649999985414e+000	 8.933340177755778e+000	 1.000932780549567e+001
0	 7.666649999985416e+000	 9.000000347171184e+000	 1.000830178105487e+001
0	 7.666649999985416e+000	 9.066660599907667e+000	 1.000732704726587e+001
0	 7.666649999985417e+000	 9.133320952629656e+000	 1.000640091667951e+001
0	 7.666649999985415e+000	 9.199981422001560e+000	 1.000552070167086e+001
0	 7.666649999985415e+000	 9.266642024687796e+000	 1.000468371443939e+001
0	 7.666649999985414e+000	 9.333302777352781e+000	 1.000388726700881e+001
0	 7.733319999987731e+000	 8.666700000016666e+000	 1.001348810035226e+001
0	 7.733319999987732e+000	 8.733360002791903e+000	 1.001227552795060e+001
0	 7.733319999987732e+000	 8.800020022230553e+000	 1.001112276942946e+001
0	 7.733319999987728e+000	 8.866680074997039e+000	 1.001002722605897e+001
0	 7.733319999987732e+000	 8.933340177755776e+000	 1.000898629893976e+001
0	 7.733319999987731e+000	 9.000000347171181e+000	 1.000799738900298e+001
0	 7.733319999987733e+000	 9.066660599907671e+000	 1.000705789701029e+001
0	 7.733319999987730e+000	 9.133320952629655e+000	 1.000616522355380e+001
0	 7.733319999987730e+000	 9.199981422001558e+000	 1.000531676905620e+001
0	 7.733319999987730e+000	 9.266642024687796e+000	 1.000450993377066e+001
0	 7.733319999987732e+000	 9.333302777352783e+000	 1.000374211778080e+001
0	 7.799989999990448e+000	 8.666700000016668e+000	 1.001297985695442e+001
0	 7.799989999990449e+000	 8.733360002791901e+000	 1.001181271265975e+001
0	 7.799989999990448e+000	 8.800020022230555e+000	 1.001070316158908e+001
0	 7.799989999990448e+000	 8.866680074997042e+000	 1.000964869195252e+001
0	 7.799989999990448e+000	 8.933340177755778e+000	 1.000864679179685e+001
0	 7.799989999990448e+000	 9.000000347171177e+000	 1.000769494900569e+001
0	 7.799989999990449e+000	 9.066660599907667e+000	 1.000679065129931e+001
0	 7.799989999990448e+000	 9.133320952629656e+000	 1.000593138623476e+001
0	 7.799989999990447e+000	 9.199981422001557e+000	 1.000511464120581e+001
0	 7.799989999990448e+000	 9.266642024687796e+000	 1.000433790344294e+001
0	 7.799989999990449e+000	 9.333302777352783e+000	 1.000359866001341e+001
0	 7.866659999993464e+000	 8.666700000016666e+000	 1.001247554525693e+001
0	 7.866659999993465e+000	 8.733360002791903e+000	 1.001135372098934e+001
0	 7.866659999993463e+000	 8.800020022230555e+000	 1.001028727680990e+001
0	 7.866659999993464e+000	 8.866680074997042e+000	 1.000927378679216e+001
0	 7.866659999993463e+000	 8.933340177755778e+000	 1.000831082485266e+001
0	 7.866659999993466e+000	 9.000000347171183e+000	 1.000739596475091e+001
0	 7.866659999993466e+000	 9.066660599907667e+000	 1.000652678008938e+001
0	 7.866659999993464e+000	 9.133320952629655e+000	 1.000570084431359e+001
0	 7.866659999993464e+000	 9.199981422001558e+000	 1.000491573071194e+001
0	 7.866659999993464e+000	 9.266642024687796e+000	 1.000416901241594e+001
0	 7.866659999993464e+000	 9.333302777352783e+000	 1.000345826239996e+001
0	 7.933329999996682e+000	 8.666700000016668e+000	 1.001197688809920e+001
0	 7.933329999996679e+000	 8.733360002791898e+000	 1.001090022521599e+001
0	 7.933329999996682e+000	 8.800020022230557e+000	 1.000987674017201e+001
0	 7.933329999996681e+000	 8.866680074997040e+000	 1.000890409182775e+001
0	 7.933329999996681e+000	 8.933340177755778e+000	 1.000797993889293e+001
0	 7.933329999996682e+000	 9.000000347171183e+000	 1.000710193992658e+001
0	 7.933329999996679e+000	 9.066660599907664e+000	 1.000626775333692e+001
0	 7.933329999996680e+000	 9.133320952629655e+000	 1.000547503738147e+001
0	 7.933329999996682e+000	 9.199981422001557e+000	 1.000472145016693e+001
0	 7.933329999996682e+000	 9.266642024687796e+000	 1.000400464964931e+001
0	 7.933329999996682e+000	 9.333302777352783e+000	 1.000332229363383e+001
0	 8.000000000000000e+000	 8.666700000016666e+000	 1.001148560832054e+001
0	 8.000000000000000e+000	 8.733360002791905e+000	 1.001045389761635e+001
0	 7.999999999999999e+000	 8.800020022230555e+000	 1.000947317675552e+001
0	 8.000000000000002e+000	 8.866680074997042e+000	 1.000854118830903e+001
0	 8.000000000000002e+000	 8.933340177755778e+000	 1.000765567470340e+001
0	 8.000000000000002e+000	 9.000000347171184e+000	 1.000681437822065e+001
0	 8.000000000000000e+000	 9.066660599907667e+000	 1.000601504099837e+001
0	 8.000000000000000e+000	 9.133320952629655e+000	 1.000525540502962e+001
0	 7.999999999999999e+000	 9.199981422001558e+000	 1.000453321216302e+001
0	 8.000000000000000e+000	 9.266642024687796e+000	 1.000384620410273e+001
0	 7.999999999999999e+000	 9.333302777352781e+000	 1.000319212240840e+001
0	 7.333299999983334e+000	 9.333302777352781e+000	 1.000459048079053e+001
0	 7.333299999983336e+000	 9.399973674588173e+000	 1.000372407327212e+001
0	 7.333299999983334e+000	 9.466644621844624e+000	 1.000295639759071e+001
0	 7.333299999983333e+000	 9.533315502449998e+000	 1.000228381930746e+001
0	 7.333299999983335e+000	 9.599986199732195e+000	 1.000170270603100e+001
0	 7.333299999983334e+000	 9.666656597019097e+000	 1.000120942741739e+001
0	 7.333299999983333e+000	 9.733326577638573e+000	 1.000080035517014e+001
0	 7.333299999983335e+000	 9.799996024918523e+000	 1.000047186304031e+001
0	 7.333299999983333e+000	 9.866664822186822e+000	 1.000022032682675e+001
0	 7.333299999983333e+000	 9.933332852771354e+000	 1.000004212437625e+001
0	 7.333299999983335e+000	 1.000000000000000e+001	 9.999933635583947e+000
0	 7.399969999982149e+000	 9.333302777352783e+000	 1.000445740465979e+001
0	 7.399969999982149e+000	 9.399973674588175e+000	 1.000361738464278e+001
0	 7.399969999982151e+000	 9.466644621844621e+000	 1.000287310400521e+001
0	 7.399969999982150e+000	 9.533315502449998e+000	 1.000222107704528e+001
0	 7.399969999982151e+000	 9.599986199732200e+000	 1.000165782004788e+001
0	 7.399969999982150e+000	 9.666656597019095e+000	 1.000117985128454e+001
0	 7.399969999982149e+000	 9.733326577638572e+000	 1.000078369101365e+001
0	 7.399969999982151e+000	 9.799996024918524e+000	 1.000046586148043e+001
0	 7.399969999982151e+000	 9.866664822186824e+000	 1.000022288691713e+001
0	 7.399969999982149e+000	 9.933332852771351e+000	 1.000005129354323e+001
0	 7.399969999982150e+000	 1.000000000000000e+001	 9.999947609565716e+000
0	 7.466639999981866e+000	 9.333302777352785e+000	 1.000431917652289e+001
0	 7.466639999981864e+000	 9.399973674588175e+000	 1.000350556386592e+001
0	 7.466639999981864e+000	 9.466644621844617e+000	 1.000278467125936e+001
0	 7.466639999981866e+000	 9.533315502449998e+000	 1.000215315621328e+001
0	 7.466639999981864e+000	 9.599986199732195e+000	 1.000160767816330e+001
0	 7.466639999981867e+000	 9.666656597019093e+000	 1.000114489847069e+001
0	 7.466639999981865e+000	 9.733326577638575e+000	 1.000076148042244e+001
0	 7.466639999981867e+000	 9.799996024918523e+000	 1.000045408923132e+001
0	 7.466639999981867e+000	 9.866664822186822e+000	 1.000021939203608e+001
0	 7.466639999981866e+000	 9.933332852771354e+000	 1.000005405790167e+001
0	 7.466639999981865e+000	 1.000000000000000e+001	 9.999954757819360e+000
0	 7.533309999982382e+000	 9.333302777352783e+000	 1.000417716507320e+001
0	 7.533309999982383e+000	 9.399973674588177e+000	 1.000338996538975e+001
0	 7.533309999982384e+000	 9.466644621844623e+000	 1.000269244823787e+001
0	 7.533309999982381e+000	 9.533315502450003e+000	 1.000208140881425e+001
0	 7.533309999982382e+000	 9.599986199732195e+000	 1.000155364417984e+001
0	 7.533309999982382e+000	 9.666656597019092e+000	 1.000110595325990e+001
0	 7.533309999982382e+000	 9.733326577638575e+000	 1.000073513684411e+001
0	 7.533309999982382e+000	 9.799996024918523e+000	 1.000043799758656e+001
0	 7.533309999982383e+000	 9.866664822186824e+000	 1.000021134000602e+001
0	 7.533309999982383e+000	 9.933332852771351e+000	 1.000005197048617e+001
0	 7.533309999982381e+000	 1.000000000000000e+001	 9.999956697275614e+000
0	 7.599979999983600e+000	 9.333302777352783e+000	 1.000403273900404e+001
0	 7.599979999983598e+000	 9.399973674588177e+000	 1.000327194366255e+001
0	 7.599979999983600e+000	 9.466644621844619e+000	 1.000259778382547e+001
0	 7.599979999983599e+000	 9.533315502450002e+000	 1.000200718685098e+001
0	 7.599979999983599e+000	 9.599986199732197e+000	 1.000149708189998e+001
0	 7.599979999983598e+000	 9.666656597019093e+000	 1.000106439993618e+001
0	 7.599979999983598e+000	 9.733326577638575e+000	 1.000070607372620e+001
0	 7.599979999983598e+000	 9.799996024918524e+000	 1.000041903783970e+001
0	 7.599979999983598e+000	 9.866664822186820e+000	 1.000020022864935e+001
0	 7.599979999983598e+000	 9.933332852771352e+000	 1.000004658433120e+001
0	 7.599979999983598e+000	 1.000000000000000e+001	 9.999955044864874e+000
0	 7.666649999985414e+000	 9.333302777352781e+000	 1.000388726700881e+001
0	 7.666649999985415e+000	 9.399973674588175e+000	 1.000315285313250e+001
0	 7.666649999985416e+000	 9.466644621844621e+000	 1.000250202690690e+001
0	 7.666649999985415e+000	 9.533315502450000e+000	 1.000193184232625e+001
0	 7.666649999985416e+000	 9.599986199732197e+000	 1.000143935512623e+001
0	 7.666649999985413e+000	 9.666656597019092e+000	 1.000102162278360e+001
0	 7.666649999985415e+000	 9.733326577638577e+000	 1.000067570451646e+001
0	 7.666649999985416e+000	 9.799996024918523e+000	 1.000039866128440e+001
0	 7.666649999985416e+000	 9.866664822186825e+000	 1.000018755578839e+001
0	 7.666649999985415e+000	 9.933332852771354e+000	 1.000003945247133e+001
0	 7.666649999985414e+000	 9.999999999999998e+000	 9.999951417517909e+000
0	 7.733319999987732e+000	 9.333302777352783e+000	 1.000374211778080e+001
0	 7.733319999987731e+000	 9.399973674588173e+000	 1.000303404824787e+001
0	 7.733319999987732e+000	 9.466644621844621e+000	 1.000240652636681e+001
0	 7.733319999987730e+000	 9.533315502450000e+000	 1.000185672724290e+001
0	 7.733319999987731e+000	 9.599986199732197e+000	 1.000138182766114e+001
0	 7.733319999987732e+000	 9.666656597019093e+000	 1.000097900608618e+001
0	 7.733319999987730e+000	 9.733326577638575e+000	 1.000064544266247e+001
0	 7.733319999987732e+000	 9.799996024918523e+000	 1.000037831921418e+001
0	 7.733319999987733e+000	 9.866664822186822e+000	 1.000017481924558e+001
0	 7.733319999987733e+000	 9.933332852771356e+000	 1.000003212794102e+001
0	 7.733319999987730e+000	 9.999999999999998e+000	 9.999947432165229e+000
0	 7.799989999990449e+000	 9.333302777352783e+000	 1.000359866001340e+001
0	 7.799989999990450e+000	 9.399973674588177e+000	 1.000291688345689e+001
0	 7.799989999990447e+000	 9.466644621844619e+000	 1.000231263109001e+001
0	 7.799989999990448e+000	 9.533315502450002e+000	 1.000178319360370e+001
0	 7.799989999990447e+000	 9.599986199732198e+000	 1.000132586330722e+001
0	 7.799989999990448e+000	 9.666656597019095e+000	 1.000093793412804e+001
0	 7.799989999990448e+000	 9.733326577638575e+000	 1.000061670161183e+001
0	 7.799989999990449e+000	 9.799996024918524e+000	 1.000035946292273e+001
0	 7.799989999990447e+000	 9.866664822186824e+000	 1.000016351684333e+001
0	 7.799989999990449e+000	 9.933332852771354e+000	 1.000002616377482e+001
0	 7.799989999990447e+000	 9.999999999999998e+000	 9.999944705737537e+000
0	 7.866659999993464e+000	 9.333302777352783e+000	 1.000345826239996e+001
0	 7.866659999993463e+000	 9.399973674588175e+000	 1.000280271320780e+001
0	 7.866659999993465e+000	 9.466644621844623e+000	 1.000222168996113e+001
0	 7.866659999993464e+000	 9.533315502450002e+000	 1.000171259341143e+001
0	 7.866659999993463e+000	 9.599986199732197e+000	 1.000127282586699e+001
0	 7.866659999993463e+000	 9.666656597019093e+000	 1.000089979119314e+001
0	 7.866659999993464e+000	 9.733326577638573e+000	 1.000059089481219e+001
0	 7.866659999993464e+000	 9.799996024918523e+000	 1.000034354370358e+001
0	 7.866659999993463e+000	 9.866664822186820e+000	 1.000015514640392e+001
0	 7.866659999993463e+000	 9.933332852771352e+000	 1.000002311300732e+001
0	 7.866659999993463e+000	 1.000000000000000e+001	 9.999944855165417e+000
0	 7.933329999996682e+000	 9.333302777352783e+000	 1.000332229363383e+001
0	 7.933329999996681e+000	 9.399973674588175e+000	 1.000269289194879e+001
0	 7.933329999996682e+000	 9.466644621844621e+000	 1.000213505186500e+001
0	 7.933329999996682e+000	 9.533315502449998e+000	 1.000164627866890e+001
0	 7.933329999996682e+000	 9.599986199732197e+000	 1.000122407914295e+001
0	 7.933329999996682e+000	 9.666656597019095e+000	 1.000086596156555e+001
0	 7.933329999996682e+000	 9.733326577638577e+000	 1.000056943571115e+001
0	 7.933329999996682e+000	 9.799996024918523e+000	 1.000033201285032e+001
0	 7.933329999996681e+000	 9.866664822186824e+000	 1.000015120574989e+001
0	 7.933329999996682e+000	 9.933332852771354e+000	 1.000002452867295e+001
0	 7.933329999996681e+000	 1.000000000000000e+001	 9.999949497379427e+000
0	 7.999999999999999e+000	 9.333302777352781e+000	 1.000319212240840e+001
0	 8.000000000000000e+000	 9.399973674588175e+000	 1.000258877412815e+001
0	 8.000000000000000e+000	 9.466644621844621e+000	 1.000205406568626e+001
0	 8.000000000000000e+000	 9.533315502449998e+000	 1.000158560137890e+001
0	 8.000000000000000e+000	 9.599986199732197e+000	 1.000118098693761e+001
0	 8.000000000000000e+000	 9.666656597019093e+000	 1.000083782952933e+001
0	 8.000000000000000e+000	 9.733326577638575e+000	 1.000055373775639e+001
0	 8.000000000000000e+000	 9.799996024918524e+000	 1.000032632165664e+001
0	 7.999999999999997e+000	 9.866664822186822e+000	 1.000015319270354e+001
0	 8.000000000000000e+000	 9.933332852771352e+000	 1.000003196380634e+001
0	 8.000000000000000e+000	 1.000000000000000e+001	 9.999960249310298e+000
0	 8.000000000000000e+000	 0.000000000000000e+000	 9.970876096125604e+000
0	 8.000000000000002e+000	 6.666714722864757e-002	 9.970839395222519e+000
0	 8.000000000000000e+000	 1.333351778131789e-001	 9.970921090939337e+000
0	 8.000000000000000e+000	 2.000039750814773e-001	 9.971121130952984e+000
0	 8.000000000000002e+000	 2.666734223614256e-001	 9.971439465076628e+000
0	 8.000000000000000e+000	 3.333434029809069e-001	 9.971876045259403e+000
0	 8.000000000000000e+000	 4.000138002678044e-001	 9.972430825586351e+000
0	 8.000000000000000e+000	 4.666844975500011e-001	 9.973103762278328e+000
0	 7.999999999999999e+000	 5.333553781553803e-001	 9.973894813691965e+000
0	 8.000000000000000e+000	 6.000263254118246e-001	 9.974803940319745e+000
0	 7.999999999999999e+000	 6.666972226472177e-001	 9.975831104790068e+000
0	 8.066670000003317e+000	 0.000000000000000e+000	 9.962950578149593e+000
0	 8.066670000003313e+000	 6.666714722864754e-002	 9.962912918504493e+000
0	 8.066670000003317e+000	 1.333351778131789e-001	 9.962988752868286e+000
0	 8.066670000003317e+000	 2.000039750814772e-001	 9.963178328066121e+000
0	 8.066670000003315e+000	 2.666734223614256e-001	 9.963481893006881e+000
0	 8.066670000003319e+000	 3.333434029809069e-001	 9.963899698682932e+000
0	 8.066670000003315e+000	 4.000138002678044e-001	 9.964431998170044e+000
0	 8.066670000003317e+000	 4.666844975500010e-001	 9.965079046627256e+000
0	 8.066670000003320e+000	 5.333553781553803e-001	 9.965841101296931e+000
0	 8.066670000003317e+000	 6.000263254118247e-001	 9.966718421504741e+000
0	 8.066670000003317e+000	 6.666972226472177e-001	 9.967711268659755e+000
0	 8.133340000006534e+000	 0.000000000000000e+000	 9.954824417721021e+000
0	 8.133340000006532e+000	 6.666714722864753e-002	 9.954794422947053e+000
0	 8.133340000006534e+000	 1.333351778131789e-001	 9.954873938857784e+000
0	 8.133340000006534e+000	 2.000039750814772e-001	 9.955063470279400e+000
0	 8.133340000006530e+000	 2.666734223614255e-001	 9.955363524074295e+000
0	 8.133340000006534e+000	 3.333434029809068e-001	 9.955774609140887e+000
0	 8.133340000006532e+000	 4.000138002678044e-001	 9.956297236413519e+000
0	 8.133340000006538e+000	 4.666844975500012e-001	 9.956931918862361e+000
0	 8.133340000006534e+000	 5.333553781553803e-001	 9.957679171493394e+000
0	 8.133340000006534e+000	 6.000263254118247e-001	 9.958539511348453e+000
0	 8.133340000006532e+000	 6.666972226472178e-001	 9.959513457505306e+000
0	 8.200010000009550e+000	 0.000000000000000e+000	 9.946504655756867e+000
0	 8.200010000009552e+000	 6.666714722864757e-002	 9.946488965274345e+000
0	 8.200010000009550e+000	 1.333351778131790e-001	 9.946579712412161e+000
0	 8.200010000009550e+000	 2.000039750814773e-001	 9.946777618840132e+000
0	 8.200010000009547e+000	 2.666734223614256e-001	 9.947083408221769e+000
0	 8.200010000009549e+000	 3.333434029809069e-001	 9.947497806214054e+000
0	 8.200010000009550e+000	 4.000138002678044e-001	 9.948021540467357e+000
0	 8.200010000009549e+000	 4.666844975500011e-001	 9.948655340625347e+000
0	 8.200010000009550e+000	 5.333553781553800e-001	 9.949399938324984e+000
0	 8.200010000009549e+000	 6.000263254118246e-001	 9.950256067196523e+000
0	 8.200010000009550e+000	 6.666972226472175e-001	 9.951224462863635e+000
0	 8.266680000012267e+000	 0.000000000000000e+000	 9.937998333174114e+000
0	 8.266680000012267e+000	 6.666714722864753e-002	 9.938001602210537e+000
0	 8.266680000012268e+000	 1.333351778131790e-001	 9.938109137035713e+000
0	 8.266680000012263e+000	 2.000039750814772e-001	 9.938321834995614e+000
0	 8.266680000012267e+000	 2.666734223614256e-001	 9.938640595392197e+000
0	 8.266680000012265e+000	 3.333434029809068e-001	 9.939066319483217e+000
0	 8.266680000012265e+000	 4.000138002678043e-001	 9.939599910482126e+000
0	 8.266680000012267e+000	 4.666844975500011e-001	 9.940242273557965e+000
0	 8.266680000012268e+000	 5.333553781553803e-001	 9.940994315835370e+000
0	 8.266680000012265e+000	 6.000263254118247e-001	 9.941856946394612e+000
0	 8.266680000012265e+000	 6.666972226472178e-001	 9.942831076271681e+000
0	 8.333350000014583e+000	 0.000000000000000e+000	 9.929312490889753e+000
0	 8.333350000014583e+000	 6.666714722864756e-002	 9.929337390479800e+000
0	 8.333350000014582e+000	 1.333351778131790e-001	 9.929465276232762e+000
0	 8.333350000014582e+000	 2.000039750814773e-001	 9.929697179993131e+000
0	 8.333350000014582e+000	 2.666734223614256e-001	 9.930034135528475e+000
0	 8.333350000014585e+000	 3.333434029809069e-001	 9.930477178529184e+000
0	 8.333350000014582e+000	 4.000138002678043e-001	 9.931027346608401e+000
0	 8.333350000014582e+000	 4.666844975500012e-001	 9.931685679301916e+000
0	 8.333350000014583e+000	 5.333553781553800e-001	 9.932453218068192e+000
0	 8.333350000014582e+000	 6.000263254118247e-001	 9.933331006288364e+000
0	 8.333350000014583e+000	 6.666972226472178e-001	 9.934320089266349e+000
0	 8.400020000016399e+000	 0.000000000000000e+000	 9.920454169820763e+000
0	 8.400020000016397e+000	 6.666714722864754e-002	 9.920501386806302e+000
0	 8.400020000016399e+000	 1.333351778131789e-001	 9.920651193507602e+000
0	 8.400020000016401e+000	 2.000039750814772e-001	 9.920904715079994e+000
0	 8.400020000016401e+000	 2.666734223614255e-001	 9.921263078573503e+000
0	 8.400020000016399e+000	 3.333434029809069e-001	 9.921727412932746e+000
0	 8.400020000016399e+000	 4.000138002678044e-001	 9.922298848996745e+000
0	 8.400020000016401e+000	 4.666844975500011e-001	 9.922978519498942e+000
0	 8.400020000016399e+000	 5.333553781553803e-001	 9.923767559067107e+000
0	 8.400020000016399e+000	 6.000263254118247e-001	 9.924667104223435e+000
0	 8.400020000016399e+000	 6.666972226472177e-001	 9.925678293384594e+000
0	 8.466690000017616e+000	 0.000000000000000e+000	 9.911430410884137e+000
0	 8.466690000017616e+000	 6.666714722864756e-002	 9.911498647914188e+000
0	 8.466690000017616e+000	 1.333351778131790e-001	 9.911669952364564e+000
0	 8.466690000017616e+000	 2.000039750814772e-001	 9.911945501503487e+000
0	 8.466690000017614e+000	 2.666734223614254e-001	 9.912326474470181e+000
0	 8.466690000017616e+000	 3.333434029809069e-001	 9.912814052274682e+000
0	 8.466690000017616e+000	 4.000138002678044e-001	 9.913409417797737e+000
0	 8.466690000017616e+000	 4.666844975500011e-001	 9.914113755790758e+000
0	 8.466690000017618e+000	 5.333553781553803e-001	 9.914928252875768e+000
0	 8.466690000017618e+000	 6.000263254118248e-001	 9.915854097545463e+000
0	 8.466690000017614e+000	 6.666972226472175e-001	 9.916892480163329e+000
0	 8.533360000018131e+000	 0.000000000000000e+000	 9.902248254996861e+000
0	 8.533360000018131e+000	 6.666714722864756e-002	 9.902334230527654e+000
0	 8.533360000018131e+000	 1.333351778131789e-001	 9.902524616307954e+000
0	 8.533360000018131e+000	 2.000039750814772e-001	 9.902820600510921e+000
0	 8.533360000018131e+000	 2.666734223614256e-001	 9.903223373161397e+000
0	 8.533360000018131e+000	 3.333434029809069e-001	 9.903734126135793e+000
0	 8.533360000018135e+000	 4.000138002678044e-001	 9.904354053161962e+000
0	 8.533360000018130e+000	 4.666844975500010e-001	 9.905084349819100e+000
0	 8.533360000018131e+000	 5.333553781553803e-001	 9.905926213537825e+000
0	 8.533360000018133e+000	 6.000263254118247e-001	 9.906880843600112e+000
0	 8.533360000018133e+000	 6.666972226472177e-001	 9.907949441139470e+000
0	 8.600030000017849e+000	 0.000000000000000e+000	 9.892914743075910e+000
0	 8.600030000017847e+000	 6.666714722864754e-002	 9.893013191370834e+000
0	 8.600030000017849e+000	 1.333351778131790e-001	 9.893218248842082e+000
0	 8.600030000017851e+000	 2.000039750814772e-001	 9.893531073349587e+000
0	 8.600030000017849e+000	 2.666734223614255e-001	 9.893952824590064e+000
0	 8.600030000017849e+000	 3.333434029809069e-001	 9.894484664096884e+000
0	 8.600030000017847e+000	 4.000138002678044e-001	 9.895127755239983e+000
0	 8.600030000017851e+000	 4.666844975500012e-001	 9.895883263225697e+000
0	 8.600030000017849e+000	 5.333553781553803e-001	 9.896752355096925e+000
0	 8.600030000017849e+000	 6.000263254118248e-001	 9.897736199733020e+000
0	 8.600030000017851e+000	 6.666972226472178e-001	 9.898835967849967e+000
0	 8.666700000016666e+000	 0.000000000000000e+000	 9.883436916038288e+000
0	 8.666700000016668e+000	 6.666714722864757e-002	 9.883540587167925e+000
0	 8.666700000016665e+000	 1.333351778131789e-001	 9.883753913471278e+000
0	 8.666700000016668e+000	 2.000039750814772e-001	 9.884077981266790e+000
0	 8.666700000016666e+000	 2.666734223614256e-001	 9.884513878699073e+000
0	 8.666700000016666e+000	 3.333434029809069e-001	 9.885062695738757e+000
0	 8.666700000016668e+000	 4.000138002678044e-001	 9.885725524182362e+000
0	 8.666700000016665e+000	 4.666844975500011e-001	 9.886503457652271e+000
0	 8.666700000016666e+000	 5.333553781553801e-001	 9.887397591596734e+000
0	 8.666700000016666e+000	 6.000263254118248e-001	 9.888409023289860e+000
0	 8.666700000016668e+000	 6.666972226472177e-001	 9.889538851831732e+000
0	 7.999999999999999e+000	 6.666972226472177e-001	 9.975831104790066e+000
0	 8.000000000000000e+000	 7.333579753122049e-001	 9.976956177456437e+000
0	 8.000000000000000e+000	 8.000185779984418e-001	 9.978161938244266e+000
0	 8.000000000000000e+000	 8.666790473703454e-001	 9.979452226806519e+000
0	 8.000000000000000e+000	 9.333394000923323e-001	 9.980830882552770e+000
0	 8.000000000000000e+000	 9.999996528288189e-001	 9.982301744649194e+000
0	 8.000000000000000e+000	 1.066659822244222e+000	 9.983868652018590e+000
0	 8.000000000000000e+000	 1.133319925002959e+000	 9.985535443340362e+000
0	 8.000000000000000e+000	 1.199979977769445e+000	 9.987305957050506e+000
0	 7.999999999999999e+000	 1.266639997208097e+000	 9.989184031341653e+000
0	 8.000000000000000e+000	 1.333299999983334e+000	 9.991173504163040e+000
0	 8.066670000003317e+000	 6.666972226472177e-001	 9.967711268659755e+000
0	 8.066670000003317e+000	 7.333579753122047e-001	 9.968803031459000e+000
0	 8.066670000003317e+000	 8.000185779984416e-001	 9.969979645909637e+000
0	 8.066670000003317e+000	 8.666790473703450e-001	 9.971244722973690e+000
0	 8.066670000003317e+000	 9.333394000923323e-001	 9.972601873367390e+000
0	 8.066670000003319e+000	 9.999996528288189e-001	 9.974054707561164e+000
0	 8.066670000003317e+000	 1.066659822244222e+000	 9.975606835779647e+000
0	 8.066670000003317e+000	 1.133319925002959e+000	 9.977261868001669e+000
0	 8.066670000003317e+000	 1.199979977769445e+000	 9.979023413960274e+000
0	 8.066670000003319e+000	 1.266639997208098e+000	 9.980895083142707e+000
0	 8.066670000003317e+000	 1.333299999983334e+000	 9.982880484790433e+000
0	 8.133340000006532e+000	 6.666972226472178e-001	 9.959513457505304e+000
0	 8.133340000006532e+000	 7.333579753122046e-001	 9.960586582262140e+000
0	 8.133340000006532e+000	 8.000185779984416e-001	 9.961746680440994e+000
0	 8.133340000006536e+000	 8.666790473703453e-001	 9.962997142356658e+000
0	 8.133340000006532e+000	 9.333394000923319e-001	 9.964341358078857e+000
0	 8.133340000006534e+000	 9.999996528288190e-001	 9.965782717432321e+000
0	 8.133340000006532e+000	 1.066659822244222e+000	 9.967324609996728e+000
0	 8.133340000006532e+000	 1.133319925002959e+000	 9.968970425106777e+000
0	 8.133340000006530e+000	 1.199979977769445e+000	 9.970723551852089e+000
0	 8.133340000006534e+000	 1.266639997208098e+000	 9.972587379077336e+000
0	 8.133340000006532e+000	 1.333299999983334e+000	 9.974565295382101e+000
0	 8.200010000009550e+000	 6.666972226472175e-001	 9.951224462863635e+000
0	 8.200010000009552e+000	 7.333579753122049e-001	 9.952291756400893e+000
0	 8.200010000009550e+000	 8.000185779984418e-001	 9.953446513484833e+000
0	 8.200010000009552e+000	 8.666790473703453e-001	 9.954691911830366e+000
0	 8.200010000009550e+000	 9.333394000923322e-001	 9.956031128910704e+000
0	 8.200010000009549e+000	 9.999996528288189e-001	 9.957467341957369e+000
0	 8.200010000009549e+000	 1.066659822244222e+000	 9.959003727960216e+000
0	 8.200010000009552e+000	 1.133319925002958e+000	 9.960643463667374e+000
0	 8.200010000009550e+000	 1.199979977769445e+000	 9.962389725585343e+000
0	 8.200010000009550e+000	 1.266639997208098e+000	 9.964245689978911e+000
0	 8.200010000009549e+000	 1.333299999983334e+000	 9.966214532871197e+000
0	 8.266680000012265e+000	 6.666972226472178e-001	 9.942831076271681e+000
0	 8.266680000012268e+000	 7.333579753122048e-001	 9.943903480410310e+000
0	 8.266680000012268e+000	 8.000185779984418e-001	 9.945062616687611e+000
0	 8.266680000012265e+000	 8.666790473703452e-001	 9.946311458269744e+000
0	 8.266680000012265e+000	 9.333394000923319e-001	 9.947652978086444e+000
0	 8.266680000012267e+000	 9.999996528288188e-001	 9.949090148831019e+000
0	 8.266680000012265e+000	 1.066659822244222e+000	 9.950625942960411e+000
0	 8.266680000012265e+000	 1.133319925002959e+000	 9.952263332695166e+000
0	 8.266680000012265e+000	 1.199979977769445e+000	 9.954005290019392e+000
0	 8.266680000012268e+000	 1.266639997208098e+000	 9.955854786680847e+000
0	 8.266680000012265e+000	 1.333299999983334e+000	 9.957814794190877e+000
0	 8.333350000014583e+000	 6.666972226472178e-001	 9.934320089266350e+000
0	 8.333350000014583e+000	 7.333579753122048e-001	 9.935406680825398e+000
0	 8.333350000014583e+000	 8.000185779984418e-001	 9.936578461695806e+000
0	 8.333350000014582e+000	 8.666790473703451e-001	 9.937838208549740e+000
0	 8.333350000014582e+000	 9.333394000923323e-001	 9.939188697829593e+000
0	 8.333350000014583e+000	 9.999996528288189e-001	 9.940632705747973e+000
0	 8.333350000014583e+000	 1.066659822244222e+000	 9.942173008287712e+000
0	 8.333350000014582e+000	 1.133319925002959e+000	 9.943812381201829e+000
0	 8.333350000014583e+000	 1.199979977769445e+000	 9.945553600013605e+000
0	 8.333350000014583e+000	 1.266639997208098e+000	 9.947399440016524e+000
0	 8.333350000014585e+000	 1.333299999983334e+000	 9.949352676274284e+000
0	 8.400020000016399e+000	 6.666972226472177e-001	 9.925678293384594e+000
0	 8.400020000016401e+000	 7.333579753122049e-001	 9.926786284181210e+000
0	 8.400020000016401e+000	 8.000185779984418e-001	 9.927977520155864e+000
0	 8.400020000016399e+000	 8.666790473703454e-001	 9.929254589545268e+000
0	 8.400020000016403e+000	 9.333394000923324e-001	 9.930620080363696e+000
0	 8.400020000016401e+000	 9.999996528288190e-001	 9.932076580402956e+000
0	 8.400020000016401e+000	 1.066659822244222e+000	 9.933626677232448e+000
0	 8.400020000016401e+000	 1.133319925002959e+000	 9.935272958199077e+000
0	 8.400020000016401e+000	 1.199979977769445e+000	 9.937018010427352e+000
0	 8.400020000016397e+000	 1.266639997208098e+000	 9.938864420819330e+000
0	 8.400020000016399e+000	 1.333299999983334e+000	 9.940814776054594e+000
0	 8.466690000017614e+000	 6.666972226472175e-001	 9.916892480163329e+000
0	 8.466690000017618e+000	 7.333579753122048e-001	 9.918027217012792e+000
0	 8.466690000017614e+000	 8.000185779984416e-001	 9.919243263714277e+000
0	 8.466690000017616e+000	 8.666790473703455e-001	 9.920543028131277e+000
0	 8.466690000017614e+000	 9.333394000923322e-001	 9.921928917912245e+000
0	 8.466690000017614e+000	 9.999996528288188e-001	 9.923403340490662e+000
0	 8.466690000017614e+000	 1.066659822244222e+000	 9.924968703084955e+000
0	 8.466690000017614e+000	 1.133319925002958e+000	 9.926627412698593e+000
0	 8.466690000017616e+000	 1.199979977769445e+000	 9.928381876120005e+000
0	 8.466690000017616e+000	 1.266639997208098e+000	 9.930234499922653e+000
0	 8.466690000017614e+000	 1.333299999983334e+000	 9.932187690464971e+000
0	 8.533360000018133e+000	 6.666972226472177e-001	 9.907949441139470e+000
0	 8.533360000018130e+000	 7.333579753122048e-001	 9.909114405855153e+000
0	 8.533360000018131e+000	 8.000185779984416e-001	 9.910359164017507e+000
0	 8.533360000018131e+000	 8.666790473703453e-001	 9.911685951182701e+000
0	 8.533360000018133e+000	 9.333394000923322e-001	 9.913097002698796e+000
0	 8.533360000018130e+000	 9.999996528288189e-001	 9.914594553705797e+000
0	 8.533360000018133e+000	 1.066659822244223e+000	 9.916180839135608e+000
0	 8.533360000018133e+000	 1.133319925002959e+000	 9.917858093712070e+000
0	 8.533360000018131e+000	 1.199979977769445e+000	 9.919628551950932e+000
0	 8.533360000018130e+000	 1.266639997208098e+000	 9.921494448159892e+000
0	 8.533360000018131e+000	 1.333299999983334e+000	 9.923458016438557e+000
0	 8.600030000017851e+000	 6.666972226472178e-001	 9.898835967849967e+000
0	 8.600030000017849e+000	 7.333579753122049e-001	 9.900032777243357e+000
0	 8.600030000017851e+000	 8.000185779984420e-001	 9.901308692712034e+000
0	 8.600030000017847e+000	 8.666790473703452e-001	 9.902665785574474e+000
0	 8.600030000017847e+000	 9.333394000923322e-001	 9.904106126946855e+000
0	 8.600030000017847e+000	 9.999996528288190e-001	 9.905631787743074e+000
0	 8.600030000017847e+000	 1.066659822244222e+000	 9.907244838674737e+000
0	 8.600030000017851e+000	 1.133319925002959e+000	 9.908947350251200e+000
0	 8.600030000017846e+000	 1.199979977769445e+000	 9.910741392779503e+000
0	 8.600030000017847e+000	 1.266639997208098e+000	 9.912629036364443e+000
0	 8.600030000017849e+000	 1.333299999983334e+000	 9.914612350908527e+000
0	 8.666700000016668e+000	 6.666972226472177e-001	 9.889538851831734e+000
0	 8.666700000016666e+000	 7.333579753122049e-001	 9.890767257712421e+000
0	 8.666700000016668e+000	 8.000185779984418e-001	 9.892075321444322e+000
0	 8.666700000016666e+000	 8.666790473703454e-001	 9.893464958181543e+000
0	 8.666700000016666e+000	 9.333394000923322e-001	 9.894938082879959e+000
0	 8.666700000016665e+000	 9.999996528288188e-001	 9.896496610297211e+000
0	 8.666700000016665e+000	 1.066659822244222e+000	 9.898142454992716e+000
0	 8.666700000016668e+000	 1.133319925002959e+000	 9.899877531327686e+000
0	 8.666700000016666e+000	 1.199979977769445e+000	 9.901703753465084e+000
0	 8.666700000016666e+000	 1.266639997208098e+000	 9.903623035369682e+000
0	 8.666700000016668e+000	 1.333299999983334e+000	 9.905637290808032e+000
0	 8.000000000000000e+000	 1.333299999983334e+000	 9.991173504163040e+000
0	 8.000000000000000e+000	 1.399969999982150e+000	 9.993224396428337e+000
0	 8.000000000000000e+000	 1.466639999981866e+000	 9.995285557468540e+000
0	 8.000000000000000e+000	 1.533309999982383e+000	 9.997359988671542e+000
0	 8.000000000000000e+000	 1.599979999983599e+000	 9.999450691425237e+000
0	 8.000000000000000e+000	 1.666649999985416e+000	 1.000156066711753e+001
0	 7.999999999999999e+000	 1.733319999987733e+000	 1.000369291713630e+001
0	 8.000000000000000e+000	 1.799989999990450e+000	 1.000585044286946e+001
0	 8.000000000000000e+000	 1.866659999993466e+000	 1.000803624570490e+001
0	 8.000000000000000e+000	 1.933329999996683e+000	 1.001025332703053e+001
0	 7.999999999999999e+000	 2.000000000000000e+000	 1.001250468823424e+001
0	 8.066670000003317e+000	 1.333299999983334e+000	 9.982880484790433e+000
0	 8.066670000003317e+000	 1.399969999982150e+000	 9.984927791024823e+000
0	 8.066670000003317e+000	 1.466639999981867e+000	 9.986984532839193e+000
0	 8.066670000003315e+000	 1.533309999982383e+000	 9.989054277252476e+000
0	 8.066670000003319e+000	 1.599979999983599e+000	 9.991140591283619e+000
0	 8.066670000003319e+000	 1.666649999985416e+000	 9.993247041951562e+000
0	 8.066670000003319e+000	 1.733319999987733e+000	 9.995377196275260e+000
0	 8.066670000003317e+000	 1.799989999990450e+000	 9.997534621273626e+000
0	 8.066670000003317e+000	 1.866659999993467e+000	 9.999722883965633e+000
0	 8.066670000003317e+000	 1.933329999996683e+000	 1.000194555137021e+001
0	 8.066670000003319e+000	 2.000000000000000e+000	 1.000420619050630e+001
0	 8.133340000006532e+000	 1.333299999983334e+000	 9.974565295382101e+000
0	 8.133340000006530e+000	 1.399969999982150e+000	 9.976605414419195e+000
0	 8.133340000006534e+000	 1.466639999981866e+000	 9.978655653666515e+000
0	 8.133340000006530e+000	 1.533309999982382e+000	 9.980720023609848e+000
0	 8.133340000006530e+000	 1.599979999983599e+000	 9.982802534735034e+000
0	 8.133340000006532e+000	 1.666649999985416e+000	 9.984907197527875e+000
0	 8.133340000006534e+000	 1.733319999987733e+000	 9.987038022474179e+000
0	 8.133340000006532e+000	 1.799989999990449e+000	 9.989199020059782e+000
0	 8.133340000006536e+000	 1.866659999993467e+000	 9.991394200770484e+000
0	 8.133340000006534e+000	 1.933329999996683e+000	 9.993627575092102e+000
0	 8.133340000006532e+000	 2.000000000000000e+000	 9.995903153510469e+000
0	 8.200010000009549e+000	 1.333299999983334e+000	 9.966214532871199e+000
0	 8.200010000009549e+000	 1.399969999982150e+000	 9.968245785431463e+000
0	 8.200010000009552e+000	 1.466639999981866e+000	 9.970289141497055e+000
0	 8.200010000009550e+000	 1.533309999982383e+000	 9.972348932856498e+000
0	 8.200010000009545e+000	 1.599979999983599e+000	 9.974429491298292e+000
0	 8.200010000009549e+000	 1.666649999985416e+000	 9.976535148610951e+000
0	 8.200010000009550e+000	 1.733319999987733e+000	 9.978670236583008e+000
0	 8.200010000009552e+000	 1.799989999990450e+000	 9.980839087002948e+000
0	 8.200010000009550e+000	 1.866659999993466e+000	 9.983046031659317e+000
0	 8.200010000009549e+000	 1.933329999996683e+000	 9.985295402340626e+000
0	 8.200010000009550e+000	 2.000000000000000e+000	 9.987591530835378e+000
0	 8.266680000012265e+000	 1.333299999983334e+000	 9.957814794190876e+000
0	 8.266680000012265e+000	 1.399969999982150e+000	 9.959837422881623e+000
0	 8.266680000012263e+000	 1.466639999981866e+000	 9.961875217877397e+000
0	 8.266680000012267e+000	 1.533309999982383e+000	 9.963932710105246e+000
0	 8.266680000012265e+000	 1.599979999983599e+000	 9.966014430492214e+000
0	 8.266680000012267e+000	 1.666649999985416e+000	 9.968124909965333e+000
0	 8.266680000012267e+000	 1.733319999987733e+000	 9.970268679451637e+000
0	 8.266680000012263e+000	 1.799989999990449e+000	 9.972450269878186e+000
0	 8.266680000012267e+000	 1.866659999993466e+000	 9.974674212172019e+000
0	 8.266680000012263e+000	 1.933329999996683e+000	 9.976945037260174e+000
0	 8.266680000012267e+000	 2.000000000000000e+000	 9.979267276069695e+000
0	 8.333350000014585e+000	 1.333299999983334e+000	 9.949352676274284e+000
0	 8.333350000014582e+000	 1.399969999982150e+000	 9.951368845589675e+000
0	 8.333350000014582e+000	 1.466639999981866e+000	 9.953404104354096e+000
0	 8.333350000014585e+000	 1.533309999982383e+000	 9.955463060468945e+000
0	 8.333350000014582e+000	 1.599979999983599e+000	 9.957550321835612e+000
0	 8.333350000014583e+000	 1.666649999985416e+000	 9.959670496355500e+000
0	 8.333350000014582e+000	 1.733319999987733e+000	 9.961828191929996e+000
0	 8.333350000014582e+000	 1.799989999990450e+000	 9.964028016460500e+000
0	 8.333350000014583e+000	 1.866659999993466e+000	 9.966274577848422e+000
0	 8.333350000014585e+000	 1.933329999996683e+000	 9.968572483995150e+000
0	 8.333350000014582e+000	 2.000000000000000e+000	 9.970926342802088e+000
0	 8.400020000016399e+000	 1.333299999983334e+000	 9.940814776054594e+000
0	 8.400020000016397e+000	 1.399969999982150e+000	 9.942828572375642e+000
0	 8.400020000016401e+000	 1.466639999981866e+000	 9.944866022473724e+000
0	 8.400020000016401e+000	 1.533309999982383e+000	 9.946931689060419e+000
0	 8.400020000016399e+000	 1.599979999983599e+000	 9.949030134847307e+000
0	 8.400020000016397e+000	 1.666649999985415e+000	 9.951165922545975e+000
0	 8.400020000016401e+000	 1.733319999987733e+000	 9.953343614867997e+000
0	 8.400020000016397e+000	 1.799989999990449e+000	 9.955567774524951e+000
0	 8.400020000016395e+000	 1.866659999993466e+000	 9.957842964228409e+000
0	 8.400020000016399e+000	 1.933329999996683e+000	 9.960173746689957e+000
0	 8.400020000016399e+000	 2.000000000000000e+000	 9.962564684621198e+000
0	 8.466690000017614e+000	 1.333299999983334e+000	 9.932187690464973e+000
0	 8.466690000017616e+000	 1.399969999982150e+000	 9.934205122059511e+000
0	 8.466690000017614e+000	 1.466639999981867e+000	 9.936251193782832e+000
0	 8.466690000017618e+000	 1.533309999982383e+000	 9.938330300992503e+000
0	 8.466690000017614e+000	 1.599979999983600e+000	 9.940446839046125e+000
0	 8.466690000017616e+000	 1.666649999985416e+000	 9.942605203301282e+000
0	 8.466690000017614e+000	 1.733319999987733e+000	 9.944809789115555e+000
0	 8.466690000017614e+000	 1.799989999990450e+000	 9.947064991846547e+000
0	 8.466690000017616e+000	 1.866659999993466e+000	 9.949375206851830e+000
0	 8.466690000017614e+000	 1.933329999996683e+000	 9.951744829489014e+000
0	 8.466690000017618e+000	 2.000000000000000e+000	 9.954178255115682e+000
0	 8.533360000018131e+000	 1.333299999983334e+000	 9.923458016438557e+000
0	 8.533360000018130e+000	 1.399969999982150e+000	 9.925487013461309e+000
0	 8.533360000018131e+000	 1.466639999981867e+000	 9.927549839827996e+000
0	 8.533360000018131e+000	 1.533309999982383e+000	 9.929650601378043e+000
0	 8.533360000018133e+000	 1.599979999983599e+000	 9.931793403950866e+000
0	 8.533360000018135e+000	 1.666649999985417e+000	 9.933982353385909e+000
0	 8.533360000018133e+000	 1.733319999987733e+000	 9.936221555522595e+000
0	 8.533360000018133e+000	 1.799989999990449e+000	 9.938515116200342e+000
0	 8.533360000018131e+000	 1.866659999993466e+000	 9.940867141258565e+000
0	 8.533360000018131e+000	 1.933329999996683e+000	 9.943281736536708e+000
0	 8.533360000018131e+000	 2.000000000000000e+000	 9.945763007874206e+000
0	 8.600030000017849e+000	 1.333299999983334e+000	 9.914612350908527e+000
0	 8.600030000017846e+000	 1.399969999982150e+000	 9.916662765401030e+000
0	 8.600030000017847e+000	 1.466639999981866e+000	 9.918752182155775e+000
0	 8.600030000017849e+000	 1.533309999982383e+000	 9.920884295329859e+000
0	 8.600030000017849e+000	 1.599979999983599e+000	 9.923062799080368e+000
0	 8.600030000017847e+000	 1.666649999985416e+000	 9.925291387564386e+000
0	 8.600030000017847e+000	 1.733319999987733e+000	 9.927573754939026e+000
0	 8.600030000017847e+000	 1.799989999990449e+000	 9.929913595361347e+000
0	 8.600030000017847e+000	 1.866659999993466e+000	 9.932314602988464e+000
0	 8.600030000017847e+000	 1.933329999996683e+000	 9.934780471977454e+000
0	 8.600030000017847e+000	 2.000000000000000e+000	 9.937314896485425e+000
0	 8.666700000016668e+000	 1.333299999983334e+000	 9.905637290808036e+000
0	 8.666700000016668e+000	 1.399969999982150e+000	 9.907720896698681e+000
0	 8.666700000016666e+000	 1.466639999981866e+000	 9.909848442312745e+000
0	 8.666700000016666e+000	 1.533309999982383e+000	 9.912023087960803e+000
0	 8.666700000016665e+000	 1.599979999983599e+000	 9.914247993953442e+000
0	 8.666700000016665e+000	 1.666649999985416e+000	 9.916526320601230e+000
0	 8.666700000016666e+000	 1.733319999987733e+000	 9.918861228214768e+000
0	 8.666700000016665e+000	 1.799989999990450e+000	 9.921255877104626e+000
0	 8.666700000016666e+000	 1.866659999993466e+000	 9.923713427581392e+000
0	 8.666700000016665e+000	 1.933329999996683e+000	 9.926237039955657e+000
0	 8.666700000016668e+000	 2.000000000000000e+000	 9.928829874537991e+000
0	 7.999999999999999e+000	 2.000000000000000e+000	 1.001250468823424e+001
0	 8.000000000000000e+000	 2.066670000003318e+000	 1.001475182482815e+001
0	 8.000000000000000e+000	 2.133340000006534e+000	 1.001695820865721e+001
0	 8.000000000000000e+000	 2.200010000009551e+000	 1.001912980560852e+001
0	 8.000000000000000e+000	 2.266680000012267e+000	 1.002127258156918e+001
0	 7.999999999999999e+000	 2.333350000014584e+000	 1.002339250242633e+001
0	 8.000000000000000e+000	 2.400020000016401e+000	 1.002549553406706e+001
0	 8.000000000000000e+000	 2.466690000017617e+000	 1.002758764237849e+001
0	 8.000000000000000e+000	 2.533360000018134e+000	 1.002967479324773e+001
0	 8.000000000000000e+000	 2.600030000017851e+000	 1.003176295256188e+001
0	 7.999999999999999e+000	 2.666700000016666e+000	 1.003385808620807e+001
0	 8.066670000003319e+000	 2.000000000000000e+000	 1.000420619050630e+001
0	 8.066670000003317e+000	 2.066670000003317e+000	 1.000646958625019e+001
0	 8.066670000003317e+000	 2.133340000006534e+000	 1.000870118720283e+001
0	 8.066670000003315e+000	 2.200010000009551e+000	 1.001090555597019e+001
0	 8.066670000003319e+000	 2.266680000012268e+000	 1.001308725515825e+001
0	 8.066670000003317e+000	 2.333350000014584e+000	 1.001525084737296e+001
0	 8.066670000003317e+000	 2.400020000016401e+000	 1.001740089522033e+001
0	 8.066670000003315e+000	 2.466690000017617e+000	 1.001954196130629e+001
0	 8.066670000003319e+000	 2.533360000018134e+000	 1.002167860823684e+001
0	 8.066670000003317e+000	 2.600030000017850e+000	 1.002381539861793e+001
0	 8.066670000003315e+000	 2.666700000016666e+000	 1.002595689505554e+001
0	 8.133340000006532e+000	 2.000000000000000e+000	 9.995903153510469e+000
0	 8.133340000006536e+000	 2.066670000003317e+000	 9.998188089613805e+000
0	 8.133340000006536e+000	 2.133340000006534e+000	 1.000044910685471e+001
0	 8.133340000006532e+000	 2.200010000009550e+000	 1.000268957051551e+001
0	 8.133340000006534e+000	 2.266680000012267e+000	 1.000491284587850e+001
0	 8.133340000006532e+000	 2.333350000014585e+000	 1.000712229822601e+001
0	 8.133340000006530e+000	 2.400020000016401e+000	 1.000932129284037e+001
0	 8.133340000006532e+000	 2.466690000017616e+000	 1.001151319500390e+001
0	 8.133340000006532e+000	 2.533360000018134e+000	 1.001370136999890e+001
0	 8.133340000006534e+000	 2.600030000017851e+000	 1.001588918310769e+001
0	 8.133340000006532e+000	 2.666700000016665e+000	 1.001807999961260e+001
0	 8.200010000009550e+000	 2.000000000000000e+000	 9.987591530835378e+000
0	 8.200010000009550e+000	 2.066670000003318e+000	 9.989903141337095e+000
0	 8.200010000009549e+000	 2.133340000006534e+000	 9.992197652791070e+000
0	 8.200010000009550e+000	 2.200010000009551e+000	 9.994477439113457e+000
0	 8.200010000009549e+000	 2.266680000012268e+000	 9.996744874220399e+000
0	 8.200010000009547e+000	 2.333350000014584e+000	 9.999002332028057e+000
0	 8.200010000009549e+000	 2.400020000016401e+000	 1.000125218645260e+001
0	 8.200010000009549e+000	 2.466690000017617e+000	 1.000349681141017e+001
0	 8.200010000009550e+000	 2.533360000018134e+000	 1.000573858081693e+001
0	 8.200010000009549e+000	 2.600030000017850e+000	 1.000797986858903e+001
0	 8.200010000009549e+000	 2.666700000016666e+000	 1.001022304864263e+001
0	 8.266680000012267e+000	 2.000000000000000e+000	 9.979267276069695e+000
0	 8.266680000012265e+000	 2.066670000003317e+000	 9.981610547838178e+000
0	 8.266680000012267e+000	 2.133340000006534e+000	 9.983942510190124e+000
0	 8.266680000012265e+000	 2.200010000009550e+000	 9.986264751633037e+000
0	 8.266680000012265e+000	 2.266680000012267e+000	 9.988578860674405e+000
0	 8.266680000012263e+000	 2.333350000014583e+000	 9.990886425821687e+000
0	 8.266680000012268e+000	 2.400020000016401e+000	 9.993189035582393e+000
0	 8.266680000012265e+000	 2.466690000017617e+000	 9.995488278463986e+000
0	 8.266680000012268e+000	 2.533360000018134e+000	 9.997785742973944e+000
0	 8.266680000012267e+000	 2.600030000017851e+000	 1.000008301761976e+001
0	 8.266680000012267e+000	 2.666700000016667e+000	 1.000238169090892e+001
0	 8.333350000014582e+000	 2.000000000000000e+000	 9.970926342802088e+000
0	 8.333350000014583e+000	 2.066670000003317e+000	 9.973306115535120e+000
0	 8.333350000014583e+000	 2.133340000006534e+000	 9.975679364230082e+000
0	 8.333350000014583e+000	 2.200010000009550e+000	 9.978047097943273e+000
0	 8.333350000014582e+000	 2.266680000012267e+000	 9.980410325730990e+000
0	 8.333350000014583e+000	 2.333350000014584e+000	 9.982770056649510e+000
0	 8.333350000014583e+000	 2.400020000016401e+000	 9.985127299755154e+000
0	 8.333350000014585e+000	 2.466690000017617e+000	 9.987483064104209e+000
0	 8.333350000014583e+000	 2.533360000018133e+000	 9.989838358752966e+000
0	 8.333350000014582e+000	 2.600030000017850e+000	 9.992194192757728e+000
0	 8.333350000014583e+000	 2.666700000016667e+000	 9.994551575174782e+000
0	 8.400020000016399e+000	 2.000000000000000e+000	 9.962564684621198e+000
0	 8.400020000016397e+000	 2.066670000003317e+000	 9.964985650846051e+000
0	 8.400020000016395e+000	 2.133340000006534e+000	 9.967403900089177e+000
0	 8.400020000016399e+000	 2.200010000009550e+000	 9.969820067913165e+000
0	 8.400020000016401e+000	 2.266680000012267e+000	 9.972234789880600e+000
0	 8.400020000016399e+000	 2.333350000014584e+000	 9.974648701554116e+000
0	 8.400020000016397e+000	 2.400020000016401e+000	 9.977062438496278e+000
0	 8.400020000016401e+000	 2.466690000017617e+000	 9.979476636269714e+000
0	 8.400020000016399e+000	 2.533360000018133e+000	 9.981891930437010e+000
0	 8.400020000016399e+000	 2.600030000017851e+000	 9.984308956560756e+000
0	 8.400020000016399e+000	 2.666700000016666e+000	 9.986728350203574e+000
0	 8.466690000017618e+000	 2.000000000000000e+000	 9.954178255115682e+000
0	 8.466690000017614e+000	 2.066670000003316e+000	 9.956644960189069e+000
0	 8.466690000017614e+000	 2.133340000006533e+000	 9.959111802945603e+000
0	 8.466690000017614e+000	 2.200010000009550e+000	 9.961579251411692e+000
0	 8.466690000017616e+000	 2.266680000012267e+000	 9.964047773613729e+000
0	 8.466690000017618e+000	 2.333350000014584e+000	 9.966517837578088e+000
0	 8.466690000017618e+000	 2.400020000016401e+000	 9.968989911331176e+000
0	 8.466690000017616e+000	 2.466690000017618e+000	 9.971464462899375e+000
0	 8.466690000017616e+000	 2.533360000018133e+000	 9.973941960309082e+000
0	 8.466690000017616e+000	 2.600030000017851e+000	 9.976422871586694e+000
0	 8.466690000017618e+000	 2.666700000016667e+000	 9.978907664758596e+000
0	 8.533360000018131e+000	 2.000000000000000e+000	 9.945763007874206e+000
0	 8.533360000018131e+000	 2.066670000003317e+000	 9.948279849982267e+000
0	 8.533360000018133e+000	 2.133340000006534e+000	 9.950798757977600e+000
0	 8.533360000018131e+000	 2.200010000009550e+000	 9.953320238307901e+000
0	 8.533360000018131e+000	 2.266680000012267e+000	 9.955844797420820e+000
0	 8.533360000018131e+000	 2.333350000014584e+000	 9.958372941764027e+000
0	 8.533360000018133e+000	 2.400020000016401e+000	 9.960905177785225e+000
0	 8.533360000018131e+000	 2.466690000017617e+000	 9.963442011932065e+000
0	 8.533360000018131e+000	 2.533360000018134e+000	 9.965983950652225e+000
0	 8.533360000018133e+000	 2.600030000017850e+000	 9.968531500393373e+000
0	 8.533360000018131e+000	 2.666700000016666e+000	 9.971085167603183e+000
0	 8.600030000017847e+000	 2.000000000000000e+000	 9.937314896485425e+000
0	 8.600030000017847e+000	 2.066670000003317e+000	 9.939886126643749e+000
0	 8.600030000017849e+000	 2.133340000006534e+000	 9.942460450363370e+000
0	 8.600030000017847e+000	 2.200010000009550e+000	 9.945038618470758e+000
0	 8.600030000017847e+000	 2.266680000012267e+000	 9.947621381792342e+000
0	 8.600030000017847e+000	 2.333350000014584e+000	 9.950209491154551e+000
0	 8.600030000017847e+000	 2.400020000016401e+000	 9.952803697383843e+000
0	 8.600030000017846e+000	 2.466690000017617e+000	 9.955404751306650e+000
0	 8.600030000017849e+000	 2.533360000018134e+000	 9.958013403749437e+000
0	 8.600030000017847e+000	 2.600030000017851e+000	 9.960630405538618e+000
0	 8.600030000017849e+000	 2.666700000016666e+000	 9.963256507500656e+000
0	 8.666700000016668e+000	 2.000000000000000e+000	 9.928829874537991e+000
0	 8.666700000016665e+000	 2.066670000003317e+000	 9.931459596591619e+000
0	 8.666700000016666e+000	 2.133340000006534e+000	 9.934092565281150e+000
0	 8.666700000016666e+000	 2.200010000009550e+000	 9.936729981769288e+000
0	 8.666700000016666e+000	 2.266680000012268e+000	 9.939373047218751e+000
0	 8.666700000016665e+000	 2.333350000014584e+000	 9.942022962792219e+000
0	 8.666700000016666e+000	 2.400020000016401e+000	 9.944680929652405e+000
0	 8.666700000016666e+000	 2.466690000017618e+000	 9.947348148962004e+000
0	 8.666700000016668e+000	 2.533360000018134e+000	 9.950025821883738e+000
0	 8.666700000016666e+000	 2.600030000017850e+000	 9.952715149580275e+000
0	 8.666700000016668e+000	 2.666700000016667e+000	 9.955417333214339e+000
0	 7.999999999999999e+000	 2.666700000016666e+000	 1.003385808620807e+001
0	 8.000000000000000e+000	 2.733360000014533e+000	 1.003592948560960e+001
0	 7.999999999999998e+000	 2.800020000011599e+000	 1.003794376976756e+001
0	 7.999999999999999e+000	 2.866680000008067e+000	 1.003990195070873e+001
0	 8.000000000000000e+000	 2.933340000004133e+000	 1.004180504045988e+001
0	 8.000000000000000e+000	 3.000000000000000e+000	 1.004365405104780e+001
0	 8.000000000000000e+000	 3.066659999995867e+000	 1.004544999449929e+001
0	 7.999999999999999e+000	 3.133319999991933e+000	 1.004719388284111e+001
0	 7.999999999999999e+000	 3.199979999988401e+000	 1.004888672810007e+001
0	 8.000000000000000e+000	 3.266639999985468e+000	 1.005052954230293e+001
0	 7.999999999999999e+000	 3.333299999983334e+000	 1.005212333747651e+001
0	 8.066670000003315e+000	 2.666700000016666e+000	 1.002595689505554e+001
0	 8.066670000003320e+000	 2.733360000014534e+000	 1.002807303848593e+001
0	 8.066670000003317e+000	 2.800020000011600e+000	 1.003013243689662e+001
0	 8.066670000003319e+000	 2.866680000008066e+000	 1.003213668810204e+001
0	 8.066670000003317e+000	 2.933340000004133e+000	 1.003408738991664e+001
0	 8.066670000003319e+000	 3.000000000000000e+000	 1.003598614015487e+001
0	 8.066670000003319e+000	 3.066659999995867e+000	 1.003783453663116e+001
0	 8.066670000003319e+000	 3.133319999991933e+000	 1.003963417715998e+001
0	 8.066670000003317e+000	 3.199979999988401e+000	 1.004138665955576e+001
0	 8.066670000003320e+000	 3.266639999985468e+000	 1.004309358163297e+001
0	 8.066670000003315e+000	 3.333299999983334e+000	 1.004475654120604e+001
0	 8.133340000006532e+000	 2.666700000016665e+000	 1.001807999961260e+001
0	 8.133340000006536e+000	 2.733360000014534e+000	 1.002024438199883e+001
0	 8.133340000006530e+000	 2.800020000011600e+000	 1.002235269280874e+001
0	 8.133340000006534e+000	 2.866680000008066e+000	 1.002440701041187e+001
0	 8.133340000006534e+000	 2.933340000004133e+000	 1.002640941317772e+001
0	 8.133340000006534e+000	 3.000000000000000e+000	 1.002836197947580e+001
0	 8.133340000006532e+000	 3.066659999995867e+000	 1.003026678767565e+001
0	 8.133340000006536e+000	 3.133319999991934e+000	 1.003212591614676e+001
0	 8.133340000006532e+000	 3.199979999988401e+000	 1.003394144325864e+001
0	 8.133340000006536e+000	 3.266639999985467e+000	 1.003571544738083e+001
0	 8.133340000006532e+000	 3.333299999983333e+000	 1.003745000688285e+001
0	 8.200010000009549e+000	 2.666700000016666e+000	 1.001022304864263e+001
0	 8.200010000009550e+000	 2.733360000014532e+000	 1.001243927401456e+001
0	 8.200010000009552e+000	 2.800020000011600e+000	 1.001460042436712e+001
0	 8.200010000009550e+000	 2.866680000008066e+000	 1.001670895339229e+001
0	 8.200010000009549e+000	 2.933340000004133e+000	 1.001876731478206e+001
0	 8.200010000009550e+000	 3.000000000000000e+000	 1.002077796222841e+001
0	 8.200010000009549e+000	 3.066659999995867e+000	 1.002274334942335e+001
0	 8.200010000009550e+000	 3.133319999991933e+000	 1.002466593005885e+001
0	 8.200010000009552e+000	 3.199979999988400e+000	 1.002654815782690e+001
0	 8.200010000009550e+000	 3.266639999985467e+000	 1.002839248641951e+001
0	 8.200010000009550e+000	 3.333299999983334e+000	 1.003020136952867e+001
0	 8.266680000012267e+000	 2.666700000016667e+000	 1.000238169090892e+001
0	 8.266680000012270e+000	 2.733360000014533e+000	 1.000465347239940e+001
0	 8.266680000012265e+000	 2.800020000011599e+000	 1.000687151843493e+001
0	 8.266680000012267e+000	 2.866680000008067e+000	 1.000903855279737e+001
0	 8.266680000012263e+000	 2.933340000004133e+000	 1.001115729926861e+001
0	 8.266680000012263e+000	 2.999999999999999e+000	 1.001323048163049e+001
0	 8.266680000012265e+000	 3.066659999995866e+000	 1.001526082366490e+001
0	 8.266680000012267e+000	 3.133319999991934e+000	 1.001725104915369e+001
0	 8.266680000012265e+000	 3.199979999988401e+000	 1.001920388187876e+001
0	 8.266680000012270e+000	 3.266639999985468e+000	 1.002112204562195e+001
0	 8.266680000012265e+000	 3.333299999983333e+000	 1.002300826416517e+001
0	 8.333350000014583e+000	 2.666700000016667e+000	 9.994551575174782e+000
0	 8.333350000014583e+000	 2.733360000014533e+000	 9.996882735019591e+000
0	 8.333350000014582e+000	 2.800020000011600e+000	 9.999161861875335e+000
0	 8.333350000014583e+000	 2.866680000008067e+000	 1.000139184438120e+001
0	 8.333350000014580e+000	 2.933340000004133e+000	 1.000357557117630e+001
0	 8.333350000014582e+000	 3.000000000000000e+000	 1.000571593089983e+001
0	 8.333350000014583e+000	 3.066659999995867e+000	 1.000781581219091e+001
0	 8.333350000014583e+000	 3.133319999991935e+000	 1.000987810368872e+001
0	 8.333350000014582e+000	 3.199979999988400e+000	 1.001190569403241e+001
0	 8.333350000014585e+000	 3.266639999985468e+000	 1.001390147186115e+001
0	 8.333350000014585e+000	 3.333299999983335e+000	 1.001586832581407e+001
0	 8.400020000016399e+000	 2.666700000016666e+000	 9.986728350203574e+000
0	 8.400020000016401e+000	 2.733360000014533e+000	 9.989122819741420e+000
0	 8.400020000016399e+000	 2.800020000011600e+000	 9.991467341551550e+000
0	 8.400020000016399e+000	 2.866680000008067e+000	 9.993764863897837e+000
0	 8.400020000016401e+000	 2.933340000004133e+000	 9.996018335044115e+000
0	 8.400020000016399e+000	 2.999999999999999e+000	 9.998230703254222e+000
0	 8.400020000016403e+000	 3.066659999995867e+000	 1.000040491679202e+001
0	 8.400020000016401e+000	 3.133319999991934e+000	 1.000254392392135e+001
0	 8.400020000016397e+000	 3.199979999988401e+000	 1.000465067290607e+001
0	 8.400020000016401e+000	 3.266639999985467e+000	 1.000672811201002e+001
0	 8.400020000016399e+000	 3.333299999983334e+000	 1.000877918949707e+001
0	 8.466690000017618e+000	 2.666700000016667e+000	 9.978907664758596e+000
0	 8.466690000017618e+000	 2.733360000014533e+000	 9.981369484431120e+000
0	 8.466690000017614e+000	 2.800020000011600e+000	 9.983783844326739e+000
0	 8.466690000017616e+000	 2.866680000008066e+000	 9.986153647101363e+000
0	 8.466690000017614e+000	 2.933340000004133e+000	 9.988481795410955e+000
0	 8.466690000017616e+000	 3.000000000000000e+000	 9.990771191911458e+000
0	 8.466690000017616e+000	 3.066659999995868e+000	 9.993024739258818e+000
0	 8.466690000017612e+000	 3.133319999991933e+000	 9.995245340109003e+000
0	 8.466690000017614e+000	 3.199979999988400e+000	 9.997435897117931e+000
0	 8.466690000017618e+000	 3.266639999985468e+000	 9.999599312941568e+000
0	 8.466690000017616e+000	 3.333299999983334e+000	 1.000173849023587e+001
0	 8.533360000018131e+000	 2.666700000016666e+000	 9.971085167603183e+000
0	 8.533360000018131e+000	 2.733360000014533e+000	 9.973618486954999e+000
0	 8.533360000018131e+000	 2.800020000011600e+000	 9.976107257064065e+000
0	 8.533360000018131e+000	 2.866680000008067e+000	 9.978554229745837e+000
0	 8.533360000018130e+000	 2.933340000004133e+000	 9.980962156815787e+000
0	 8.533360000018131e+000	 3.000000000000000e+000	 9.983333790089347e+000
0	 8.533360000018131e+000	 3.066659999995867e+000	 9.985671881381965e+000
0	 8.533360000018131e+000	 3.133319999991934e+000	 9.987979182509095e+000
0	 8.533360000018130e+000	 3.199979999988400e+000	 9.990258445286210e+000
0	 8.533360000018131e+000	 3.266639999985467e+000	 9.992512421528740e+000
0	 8.533360000018131e+000	 3.333299999983334e+000	 9.994743863052163e+000
0	 8.600030000017849e+000	 2.666700000016666e+000	 9.963256507500658e+000
0	 8.600030000017851e+000	 2.733360000014533e+000	 9.965865585179282e+000
0	 8.600030000017847e+000	 2.800020000011599e+000	 9.968433466626724e+000
0	 8.600030000017847e+000	 2.866680000008066e+000	 9.970962647585367e+000
0	 8.600030000017847e+000	 2.933340000004133e+000	 9.973455623797555e+000
0	 8.600030000017849e+000	 3.000000000000000e+000	 9.975914891005667e+000
0	 8.600030000017846e+000	 3.066659999995866e+000	 9.978342944952045e+000
0	 8.600030000017849e+000	 3.133319999991933e+000	 9.980742281379069e+000
0	 8.600030000017849e+000	 3.199979999988400e+000	 9.983115396029103e+000
0	 8.600030000017847e+000	 3.266639999985467e+000	 9.985464784644504e+000
0	 8.600030000017847e+000	 3.333299999983333e+000	 9.987792942967642e+000
0	 8.666700000016668e+000	 2.666700000016667e+000	 9.955417333214339e+000
0	 8.666700000016666e+000	 2.733360000014533e+000	 9.958106536970238e+000
0	 8.666700000016668e+000	 2.800020000011600e+000	 9.960758359877895e+000
0	 8.666700000016665e+000	 2.866680000008067e+000	 9.963374936373995e+000
0	 8.666700000016665e+000	 2.933340000004133e+000	 9.965958400895207e+000
0	 8.666700000016666e+000	 3.000000000000000e+000	 9.968510887878210e+000
0	 8.666700000016666e+000	 3.066659999995867e+000	 9.971034531759694e+000
0	 8.666700000016666e+000	 3.133319999991933e+000	 9.973531466976336e+000
0	 8.666700000016668e+000	 3.199979999988400e+000	 9.976003827964815e+000
0	 8.666700000016666e+000	 3.266639999985468e+000	 9.978453749161819e+000
0	 8.666700000016668e+000	 3.333299999983334e+000	 9.980883365004026e+000
0	 7.999999999999999e+000	 3.333299999983334e+000	 1.005212333747651e+001
0	 8.000000000000000e+000	 3.399969999982150e+000	 1.005365624195289e+001
0	 8.000000000000002e+000	 3.466639999981866e+000	 1.005511565992541e+001
0	 8.000000000000000e+000	 3.533309999982383e+000	 1.005650222361375e+001
0	 8.000000000000000e+000	 3.599979999983600e+000	 1.005781656523760e+001
0	 7.999999999999999e+000	 3.666649999985416e+000	 1.005905931701662e+001
0	 7.999999999999999e+000	 3.733319999987733e+000	 1.006023111117050e+001
0	 8.000000000000000e+000	 3.799989999990450e+000	 1.006133257991889e+001
0	 7.999999999999999e+000	 3.866659999993467e+000	 1.006236435548149e+001
0	 8.000000000000000e+000	 3.933329999996683e+000	 1.006332707007795e+001
0	 8.000000000000000e+000	 4.000000000000001e+000	 1.006422135592794e+001
0	 8.066670000003315e+000	 3.333299999983334e+000	 1.004475654120604e+001
0	 8.066670000003319e+000	 3.399969999982150e+000	 1.004636252244404e+001
0	 8.066670000003319e+000	 3.466639999981866e+000	 1.004789736992683e+001
0	 8.066670000003313e+000	 3.533309999982382e+000	 1.004936171083890e+001
0	 8.066670000003319e+000	 3.599979999983600e+000	 1.005075617236470e+001
0	 8.066670000003317e+000	 3.666649999985416e+000	 1.005208138168869e+001
0	 8.066670000003317e+000	 3.733319999987733e+000	 1.005333796599537e+001
0	 8.066670000003317e+000	 3.799989999990450e+000	 1.005452655246919e+001
0	 8.066670000003319e+000	 3.866659999993467e+000	 1.005564776829461e+001
0	 8.066670000003319e+000	 3.933329999996684e+000	 1.005670224065609e+001
0	 8.066670000003319e+000	 4.000000000000001e+000	 1.005769059673810e+001
0	 8.133340000006532e+000	 3.333299999983333e+000	 1.003745000688285e+001
0	 8.133340000006532e+000	 3.399969999982150e+000	 1.003913105189217e+001
0	 8.133340000006534e+000	 3.466639999981867e+000	 1.004074302876070e+001
0	 8.133340000006530e+000	 3.533309999982381e+000	 1.004228656226030e+001
0	 8.133340000006530e+000	 3.599979999983600e+000	 1.004376227716287e+001
0	 8.133340000006532e+000	 3.666649999985416e+000	 1.004517079824026e+001
0	 8.133340000006534e+000	 3.733319999987732e+000	 1.004651275026438e+001
0	 8.133340000006536e+000	 3.799989999990451e+000	 1.004778875800707e+001
0	 8.133340000006532e+000	 3.866659999993467e+000	 1.004899944624019e+001
0	 8.133340000006534e+000	 3.933329999996684e+000	 1.005014543973565e+001
0	 8.133340000006536e+000	 4.000000000000001e+000	 1.005122736326528e+001
0	 8.200010000009550e+000	 3.333299999983334e+000	 1.003020136952867e+001
0	 8.200010000009547e+000	 3.399969999982150e+000	 1.003195977328656e+001
0	 8.200010000009552e+000	 3.466639999981867e+000	 1.003365090703808e+001
0	 8.200010000009550e+000	 3.533309999982383e+000	 1.003527539576513e+001
0	 8.200010000009549e+000	 3.599979999983601e+000	 1.003683386444961e+001
0	 8.200010000009549e+000	 3.666649999985416e+000	 1.003832693807338e+001
0	 8.200010000009552e+000	 3.733319999987733e+000	 1.003975524161837e+001
0	 8.200010000009550e+000	 3.799989999990450e+000	 1.004111940006645e+001
0	 8.200010000009550e+000	 3.866659999993467e+000	 1.004242003839952e+001
0	 8.200010000009550e+000	 3.933329999996683e+000	 1.004365778159945e+001
0	 8.200010000009550e+000	 4.000000000000000e+000	 1.004483325464816e+001
0	 8.266680000012265e+000	 3.333299999983333e+000	 1.002300826416517e+001
0	 8.266680000012265e+000	 3.399969999982150e+000	 1.002484662961647e+001
0	 8.266680000012263e+000	 3.466639999981866e+000	 1.002661927537010e+001
0	 8.266680000012267e+000	 3.533309999982382e+000	 1.002832682924056e+001
0	 8.266680000012268e+000	 3.599979999983600e+000	 1.002996991904239e+001
0	 8.266680000012265e+000	 3.666649999985416e+000	 1.003154917259010e+001
0	 8.266680000012267e+000	 3.733319999987733e+000	 1.003306521769824e+001
0	 8.266680000012265e+000	 3.799989999990450e+000	 1.003451868218130e+001
0	 8.266680000012267e+000	 3.866659999993466e+000	 1.003591019385383e+001
0	 8.266680000012265e+000	 3.933329999996684e+000	 1.003724038053033e+001
0	 8.266680000012265e+000	 3.999999999999999e+000	 1.003850987002534e+001
0	 8.333350000014585e+000	 3.333299999983335e+000	 1.001586832581407e+001
0	 8.333350000014582e+000	 3.399969999982150e+000	 1.001778956387120e+001
0	 8.333350000014582e+000	 3.466639999981866e+000	 1.001964640436782e+001
0	 8.333350000014583e+000	 3.533309999982383e+000	 1.002143948057373e+001
0	 8.333350000014582e+000	 3.599979999983599e+000	 1.002316942575868e+001
0	 8.333350000014582e+000	 3.666649999985416e+000	 1.002483687319245e+001
0	 8.333350000014583e+000	 3.733319999987733e+000	 1.002644245614481e+001
0	 8.333350000014583e+000	 3.799989999990450e+000	 1.002798680788553e+001
0	 8.333350000014583e+000	 3.866659999993467e+000	 1.002947056168437e+001
0	 8.333350000014585e+000	 3.933329999996683e+000	 1.003089435081110e+001
0	 8.333350000014582e+000	 4.000000000000000e+000	 1.003225880853548e+001
0	 8.400020000016399e+000	 3.333299999983334e+000	 1.000877918949707e+001
0	 8.400020000016397e+000	 3.399969999982150e+000	 1.001078651903998e+001
0	 8.400020000016397e+000	 3.466639999981866e+000	 1.001273056464234e+001
0	 8.400020000016401e+000	 3.533309999982383e+000	 1.001461196765179e+001
0	 8.400020000016401e+000	 3.599979999983600e+000	 1.001643136941597e+001
0	 8.400020000016397e+000	 3.666649999985415e+000	 1.001818941128249e+001
0	 8.400020000016399e+000	 3.733319999987732e+000	 1.001988673459897e+001
0	 8.400020000016399e+000	 3.799989999990450e+000	 1.002152398071307e+001
0	 8.400020000016401e+000	 3.866659999993467e+000	 1.002310179097240e+001
0	 8.400020000016399e+000	 3.933329999996684e+000	 1.002462080672458e+001
0	 8.400020000016399e+000	 4.000000000000000e+000	 1.002608166931722e+001
0	 8.466690000017616e+000	 3.333299999983334e+000	 1.000173849023587e+001
0	 8.466690000017616e+000	 3.399969999982150e+000	 1.000383543811209e+001
0	 8.466690000017614e+000	 3.466639999981867e+000	 1.000587002680473e+001
0	 8.466690000017618e+000	 3.533309999982383e+000	 1.000784290836191e+001
0	 8.466690000017614e+000	 3.599979999983599e+000	 1.000975473483171e+001
0	 8.466690000017616e+000	 3.666649999985417e+000	 1.001160615826224e+001
0	 8.466690000017616e+000	 3.733319999987733e+000	 1.001339783070158e+001
0	 8.466690000017616e+000	 3.799989999990451e+000	 1.001513040419787e+001
0	 8.466690000017616e+000	 3.866659999993467e+000	 1.001680453079915e+001
0	 8.466690000017616e+000	 3.933329999996684e+000	 1.001842086255357e+001
0	 8.466690000017618e+000	 4.000000000000001e+000	 1.001998005150919e+001
0	 8.533360000018131e+000	 3.333299999983334e+000	 9.994743863052163e+000
0	 8.533360000018130e+000	 3.399969999982149e+000	 9.996934264076808e+000
0	 8.533360000018131e+000	 3.466639999981866e+000	 9.999063061466103e+000
0	 8.533360000018131e+000	 3.533309999982382e+000	 1.000113092059124e+001
0	 8.533360000018131e+000	 3.599979999983599e+000	 1.000313850682339e+001
0	 8.533360000018133e+000	 3.666649999985417e+000	 1.000508648553376e+001
0	 8.533360000018131e+000	 3.733319999987733e+000	 1.000697552209351e+001
0	 8.533360000018133e+000	 3.799989999990450e+000	 1.000880628187382e+001
0	 8.533360000018131e+000	 3.866659999993467e+000	 1.001057943024590e+001
0	 8.533360000018131e+000	 3.933329999996683e+000	 1.001229563258092e+001
0	 8.533360000018131e+000	 4.000000000000001e+000	 1.001395555425004e+001
0	 8.600030000017847e+000	 3.333299999983333e+000	 9.987792942967642e+000
0	 8.600030000017847e+000	 3.399969999982150e+000	 9.990080939923390e+000
0	 8.600030000017847e+000	 3.466639999981866e+000	 9.992307939237529e+000
0	 8.600030000017849e+000	 3.533309999982383e+000	 9.994474622226935e+000
0	 8.600030000017847e+000	 3.599979999983600e+000	 9.996581670208485e+000
0	 8.600030000017847e+000	 3.666649999985415e+000	 9.998629764499079e+000
0	 8.600030000017846e+000	 3.733319999987732e+000	 1.000061958641559e+001
0	 8.600030000017847e+000	 3.799989999990450e+000	 1.000255181727489e+001
0	 8.600030000017849e+000	 3.866659999993467e+000	 1.000442713839388e+001
0	 8.600030000017847e+000	 3.933329999996684e+000	 1.000624623108942e+001
0	 8.600030000017846e+000	 3.999999999999999e+000	 1.000800977667839e+001
0	 8.666700000016668e+000	 3.333299999983334e+000	 9.980883365004026e+000
0	 8.666700000016665e+000	 3.399969999982149e+000	 9.983273408641121e+000
0	 8.666700000016665e+000	 3.466639999981867e+000	 9.985602930730094e+000
0	 8.666700000016666e+000	 3.533309999982384e+000	 9.987872631156142e+000
0	 8.666700000016666e+000	 3.599979999983600e+000	 9.990083209804466e+000
0	 8.666700000016665e+000	 3.666649999985415e+000	 9.992235366560259e+000
0	 8.666700000016666e+000	 3.733319999987733e+000	 9.994329801308709e+000
0	 8.666700000016665e+000	 3.799989999990450e+000	 9.996367213935010e+000
0	 8.666700000016668e+000	 3.866659999993467e+000	 9.998348304324342e+000
0	 8.666700000016666e+000	 3.933329999996683e+000	 1.000027377236192e+001
0	 8.666700000016668e+000	 4.000000000000000e+000	 1.000214431793290e+001
0	 8.000000000000000e+000	 4.000000000000001e+000	 1.006422135592794e+001
0	 7.999999999999999e+000	 4.066670000003318e+000	 1.006504460411762e+001
0	 8.000000000000000e+000	 4.133340000006534e+000	 1.006579364124343e+001
0	 7.999999999999998e+000	 4.200010000009550e+000	 1.006646825279048e+001
0	 8.000000000000000e+000	 4.266680000012268e+000	 1.006706822424392e+001
0	 7.999999999999998e+000	 4.333350000014583e+000	 1.006759334108885e+001
0	 8.000000000000000e+000	 4.400020000016401e+000	 1.006804338881043e+001
0	 8.000000000000000e+000	 4.466690000017618e+000	 1.006841815289375e+001
0	 8.000000000000000e+000	 4.533360000018135e+000	 1.006871741882395e+001
0	 8.000000000000000e+000	 4.600030000017850e+000	 1.006894097208615e+001
0	 7.999999999999998e+000	 4.666700000016665e+000	 1.006908859816545e+001
0	 8.066670000003319e+000	 4.000000000000001e+000	 1.005769059673810e+001
0	 8.066670000003319e+000	 4.066670000003319e+000	 1.005861000893428e+001
0	 8.066670000003315e+000	 4.133340000006533e+000	 1.005945701361783e+001
0	 8.066670000003313e+000	 4.200010000009549e+000	 1.006023128394255e+001
0	 8.066670000003319e+000	 4.266680000012268e+000	 1.006093249306224e+001
0	 8.066670000003317e+000	 4.333350000014583e+000	 1.006156031413069e+001
0	 8.066670000003317e+000	 4.400020000016401e+000	 1.006211442030170e+001
0	 8.066670000003313e+000	 4.466690000017617e+000	 1.006259448472906e+001
0	 8.066670000003319e+000	 4.533360000018134e+000	 1.006300018056659e+001
0	 8.066670000003317e+000	 4.600030000017849e+000	 1.006333118096805e+001
0	 8.066670000003315e+000	 4.666700000016666e+000	 1.006358715908725e+001
0	 8.133340000006536e+000	 4.000000000000001e+000	 1.005122736326528e+001
0	 8.133340000006536e+000	 4.066670000003317e+000	 1.005224225769382e+001
0	 8.133340000006534e+000	 4.133340000006534e+000	 1.005318647068789e+001
0	 8.133340000006534e+000	 4.200010000009550e+000	 1.005405958722227e+001
0	 8.133340000006534e+000	 4.266680000012268e+000	 1.005486119227174e+001
0	 8.133340000006532e+000	 4.333350000014584e+000	 1.005559087081107e+001
0	 8.133340000006532e+000	 4.400020000016403e+000	 1.005624820781502e+001
0	 8.133340000006532e+000	 4.466690000017618e+000	 1.005683278825838e+001
0	 8.133340000006532e+000	 4.533360000018134e+000	 1.005734419711589e+001
0	 8.133340000006532e+000	 4.600030000017851e+000	 1.005778201936236e+001
0	 8.133340000006534e+000	 4.666700000016668e+000	 1.005814583997251e+001
0	 8.200010000009550e+000	 4.000000000000000e+000	 1.004483325464816e+001
0	 8.200010000009550e+000	 4.066670000003317e+000	 1.004594342284093e+001
0	 8.200010000009550e+000	 4.133340000006535e+000	 1.004698451545055e+001
0	 8.200010000009550e+000	 4.200010000009550e+000	 1.004795605342506e+001
0	 8.200010000009550e+000	 4.266680000012268e+000	 1.004885755771251e+001
0	 8.200010000009547e+000	 4.333350000014582e+000	 1.004968854926096e+001
0	 8.200010000009547e+000	 4.400020000016402e+000	 1.005044854901844e+001
0	 8.200010000009550e+000	 4.466690000017619e+000	 1.005113707793301e+001
0	 8.200010000009550e+000	 4.533360000018134e+000	 1.005175365695272e+001
0	 8.200010000009549e+000	 4.600030000017851e+000	 1.005229780702562e+001
0	 8.200010000009550e+000	 4.666700000016667e+000	 1.005276904909972e+001
0	 8.266680000012265e+000	 3.999999999999999e+000	 1.003850987002534e+001
0	 8.266680000012267e+000	 4.066670000003318e+000	 1.003971557682031e+001
0	 8.266680000012268e+000	 4.133340000006534e+000	 1.004085365090275e+001
0	 8.266680000012265e+000	 4.200010000009550e+000	 1.004192357334631e+001
0	 8.266680000012265e+000	 4.266680000012268e+000	 1.004292482522462e+001
0	 8.266680000012265e+000	 4.333350000014584e+000	 1.004385688761131e+001
0	 8.266680000012267e+000	 4.400020000016401e+000	 1.004471924158000e+001
0	 8.266680000012267e+000	 4.466690000017618e+000	 1.004551136820432e+001
0	 8.266680000012265e+000	 4.533360000018133e+000	 1.004623274855789e+001
0	 8.266680000012267e+000	 4.600030000017851e+000	 1.004688286371435e+001
0	 8.266680000012267e+000	 4.666700000016667e+000	 1.004746119474733e+001
0	 8.333350000014582e+000	 4.000000000000000e+000	 1.003225880853548e+001
0	 8.333350000014583e+000	 4.066670000003319e+000	 1.003356079207662e+001
0	 8.333350000014582e+000	 4.133340000006534e+000	 1.003479638004143e+001
0	 8.333350000014583e+000	 4.200010000009550e+000	 1.003596503778143e+001
0	 8.333350000014582e+000	 4.266680000012268e+000	 1.003706623064814e+001
0	 8.333350000014583e+000	 4.333350000014584e+000	 1.003809942399307e+001
0	 8.333350000014582e+000	 4.400020000016401e+000	 1.003906408316772e+001
0	 8.333350000014585e+000	 4.466690000017616e+000	 1.003995967352360e+001
0	 8.333350000014583e+000	 4.533360000018132e+000	 1.004078566041224e+001
0	 8.333350000014582e+000	 4.600030000017849e+000	 1.004154150918512e+001
0	 8.333350000014585e+000	 4.666700000016668e+000	 1.004222668519377e+001
0	 8.400020000016399e+000	 4.000000000000000e+000	 1.002608166931722e+001
0	 8.400020000016399e+000	 4.066670000003316e+000	 1.002748114105457e+001
0	 8.400020000016397e+000	 4.133340000006535e+000	 1.002881520586354e+001
0	 8.400020000016399e+000	 4.200010000009550e+000	 1.003008333752583e+001
0	 8.400020000016401e+000	 4.266680000012267e+000	 1.003128500982314e+001
0	 8.400020000016401e+000	 4.333350000014584e+000	 1.003241969653718e+001
0	 8.400020000016397e+000	 4.400020000016402e+000	 1.003348687144963e+001
0	 8.400020000016401e+000	 4.466690000017616e+000	 1.003448600834220e+001
0	 8.400020000016395e+000	 4.533360000018133e+000	 1.003541658099657e+001
0	 8.400020000016399e+000	 4.600030000017850e+000	 1.003627806319444e+001
0	 8.400020000016399e+000	 4.666700000016666e+000	 1.003706992871750e+001
0	 8.466690000017618e+000	 4.000000000000001e+000	 1.001998005150920e+001
0	 8.466690000017614e+000	 4.066670000003316e+000	 1.002147869619884e+001
0	 8.466690000017614e+000	 4.133340000006533e+000	 1.002291263136601e+001
0	 8.466690000017614e+000	 4.200010000009550e+000	 1.002428136337490e+001
0	 8.466690000017616e+000	 4.266680000012268e+000	 1.002558439858971e+001
0	 8.466690000017616e+000	 4.333350000014582e+000	 1.002682124337462e+001
0	 8.466690000017618e+000	 4.400020000016401e+000	 1.002799140409380e+001
0	 8.466690000017618e+000	 4.466690000017619e+000	 1.002909438711144e+001
0	 8.466690000017614e+000	 4.533360000018133e+000	 1.003012969879173e+001
0	 8.466690000017618e+000	 4.600030000017850e+000	 1.003109684549885e+001
0	 8.466690000017616e+000	 4.666700000016666e+000	 1.003199533359696e+001
0	 8.533360000018131e+000	 4.000000000000001e+000	 1.001395555425004e+001
0	 8.533360000018131e+000	 4.066670000003317e+000	 1.001555552995411e+001
0	 8.533360000018133e+000	 4.133340000006534e+000	 1.001709115954579e+001
0	 8.533360000018131e+000	 4.200010000009550e+000	 1.001856200612406e+001
0	 8.533360000018131e+000	 4.266680000012268e+000	 1.001996763278792e+001
0	 8.533360000018131e+000	 4.333350000014583e+000	 1.002130760263632e+001
0	 8.533360000018131e+000	 4.400020000016402e+000	 1.002258147876823e+001
0	 8.533360000018131e+000	 4.466690000017617e+000	 1.002378882428266e+001
0	 8.533360000018133e+000	 4.533360000018134e+000	 1.002492920227855e+001
0	 8.533360000018133e+000	 4.600030000017851e+000	 1.002600217585488e+001
0	 8.533360000018131e+000	 4.666700000016666e+000	 1.002700730811064e+001
0	 8.600030000017846e+000	 3.999999999999999e+000	 1.000800977667840e+001
0	 8.600030000017849e+000	 4.066670000003319e+000	 1.000971371476506e+001
0	 8.600030000017849e+000	 4.133340000006535e+000	 1.001135329339982e+001
0	 8.600030000017847e+000	 4.200010000009550e+000	 1.001292815656871e+001
0	 8.600030000017847e+000	 4.266680000012268e+000	 1.001443794825782e+001
0	 8.600030000017847e+000	 4.333350000014583e+000	 1.001588231245323e+001
0	 8.600030000017847e+000	 4.400020000016401e+000	 1.001726089314099e+001
0	 8.600030000017846e+000	 4.466690000017617e+000	 1.001857333430717e+001
0	 8.600030000017849e+000	 4.533360000018132e+000	 1.001981927993785e+001
0	 8.600030000017849e+000	 4.600030000017850e+000	 1.002099837401907e+001
0	 8.600030000017847e+000	 4.666700000016666e+000	 1.002211026053691e+001
0	 8.666700000016668e+000	 4.000000000000000e+000	 1.000214431793290e+001
0	 8.666700000016666e+000	 4.066670000003317e+000	 1.000395532307640e+001
0	 8.666700000016666e+000	 4.133340000006535e+000	 1.000570153592501e+001
0	 8.666700000016668e+000	 4.200010000009551e+000	 1.000738270550423e+001
0	 8.666700000016666e+000	 4.266680000012268e+000	 1.000899858083951e+001
0	 8.666700000016666e+000	 4.333350000014585e+000	 1.001054891095630e+001
0	 8.666700000016666e+000	 4.400020000016401e+000	 1.001203344488009e+001
0	 8.666700000016666e+000	 4.466690000017618e+000	 1.001345193163631e+001
0	 8.666700000016668e+000	 4.533360000018134e+000	 1.001480412025046e+001
0	 8.666700000016666e+000	 4.600030000017851e+000	 1.001608975974796e+001
0	 8.666700000016668e+000	 4.666700000016666e+000	 1.001730859915430e+001
0	 7.999999999999998e+000	 4.666700000016665e+000	 1.006908859816546e+001
0	 8.000000000000000e+000	 4.733360000014532e+000	 1.006917100882707e+001
0	 8.000000000000000e+000	 4.800020000011601e+000	 1.006919804694801e+001
0	 8.000000000000000e+000	 4.866680000008068e+000	 1.006916814536771e+001
0	 7.999999999999998e+000	 4.933340000004133e+000	 1.006907973692557e+001
0	 7.999999999999999e+000	 5.000000000000000e+000	 1.006893125446104e+001
0	 8.000000000000000e+000	 5.066659999995867e+000	 1.006872113081353e+001
0	 8.000000000000000e+000	 5.133319999991934e+000	 1.006844779882246e+001
0	 8.000000000000000e+000	 5.199979999988400e+000	 1.006810969132729e+001
0	 8.000000000000000e+000	 5.266639999985468e+000	 1.006770524116741e+001
0	 8.000000000000000e+000	 5.333299999983333e+000	 1.006723288118227e+001
0	 8.066670000003315e+000	 4.666700000016666e+000	 1.006358715908725e+001
0	 8.066670000003319e+000	 4.733360000014533e+000	 1.006377779208128e+001
0	 8.066670000003313e+000	 4.800020000011598e+000	 1.006391213271184e+001
0	 8.066670000003320e+000	 4.866680000008067e+000	 1.006398881928339e+001
0	 8.066670000003319e+000	 4.933340000004134e+000	 1.006400649010039e+001
0	 8.066670000003320e+000	 5.000000000000001e+000	 1.006396378346731e+001
0	 8.066670000003319e+000	 5.066659999995867e+000	 1.006385933768864e+001
0	 8.066670000003319e+000	 5.133319999991934e+000	 1.006369179106884e+001
0	 8.066670000003317e+000	 5.199979999988400e+000	 1.006345978191238e+001
0	 8.066670000003319e+000	 5.266639999985468e+000	 1.006316194852376e+001
0	 8.066670000003313e+000	 5.333299999983333e+000	 1.006279692920744e+001
0	 8.133340000006534e+000	 4.666700000016668e+000	 1.005814583997251e+001
0	 8.133340000006536e+000	 4.733360000014532e+000	 1.005844425402420e+001
0	 8.133340000006530e+000	 4.800020000011599e+000	 1.005868544629830e+001
0	 8.133340000006534e+000	 4.866680000008065e+000	 1.005886823932486e+001
0	 8.133340000006534e+000	 4.933340000004134e+000	 1.005899145563389e+001
0	 8.133340000006536e+000	 5.000000000000002e+000	 1.005905391775547e+001
0	 8.133340000006532e+000	 5.066659999995866e+000	 1.005905444821965e+001
0	 8.133340000006536e+000	 5.133319999991933e+000	 1.005899186955646e+001
0	 8.133340000006530e+000	 5.199979999988400e+000	 1.005886500429596e+001
0	 8.133340000006534e+000	 5.266639999985468e+000	 1.005867267496819e+001
0	 8.133340000006532e+000	 5.333299999983334e+000	 1.005841370410323e+001
0	 8.200010000009550e+000	 4.666700000016667e+000	 1.005276904909972e+001
0	 8.200010000009550e+000	 4.733360000014533e+000	 1.005317487091807e+001
0	 8.200010000009554e+000	 4.800020000011601e+000	 1.005352253365105e+001
0	 8.200010000009550e+000	 4.866680000008065e+000	 1.005381102281481e+001
0	 8.200010000009550e+000	 4.933340000004133e+000	 1.005403932392552e+001
0	 8.200010000009550e+000	 5.000000000000001e+000	 1.005420642249930e+001
0	 8.200010000009549e+000	 5.066659999995867e+000	 1.005431130405232e+001
0	 8.200010000009550e+000	 5.133319999991934e+000	 1.005435295410072e+001
0	 8.200010000009552e+000	 5.199979999988400e+000	 1.005433035816068e+001
0	 8.200010000009550e+000	 5.266639999985467e+000	 1.005424250174833e+001
0	 8.200010000009550e+000	 5.333299999983333e+000	 1.005408837037986e+001
0	 8.266680000012267e+000	 4.666700000016667e+000	 1.004746119474733e+001
0	 8.266680000012268e+000	 4.733360000014534e+000	 1.004797411902510e+001
0	 8.266680000012263e+000	 4.800020000011599e+000	 1.004842794071372e+001
0	 8.266680000012265e+000	 4.866680000008066e+000	 1.004882178707597e+001
0	 8.266680000012265e+000	 4.933340000004133e+000	 1.004915478537465e+001
0	 8.266680000012265e+000	 5.000000000000000e+000	 1.004942606287253e+001
0	 8.266680000012267e+000	 5.066659999995867e+000	 1.004963474683239e+001
0	 8.266680000012267e+000	 5.133319999991935e+000	 1.004977996451702e+001
0	 8.266680000012265e+000	 5.199979999988400e+000	 1.004986084318923e+001
0	 8.266680000012268e+000	 5.266639999985468e+000	 1.004987651011179e+001
0	 8.266680000012265e+000	 5.333299999983334e+000	 1.004982609254751e+001
0	 8.333350000014585e+000	 4.666700000016668e+000	 1.004222668519377e+001
0	 8.333350000014585e+000	 4.733360000014534e+000	 1.004284647460750e+001
0	 8.333350000014580e+000	 4.800020000011601e+000	 1.004340621342994e+001
0	 8.333350000014580e+000	 4.866680000008065e+000	 1.004390514943102e+001
0	 8.333350000014578e+000	 4.933340000004132e+000	 1.004434253038069e+001
0	 8.333350000014582e+000	 4.999999999999998e+000	 1.004471760404890e+001
0	 8.333350000014582e+000	 5.066659999995868e+000	 1.004502961820562e+001
0	 8.333350000014580e+000	 5.133319999991934e+000	 1.004527782062077e+001
0	 8.333350000014580e+000	 5.199979999988400e+000	 1.004546145906431e+001
0	 8.333350000014583e+000	 5.266639999985467e+000	 1.004557978130619e+001
0	 8.333350000014585e+000	 5.333299999983336e+000	 1.004563203511638e+001
0	 8.400020000016399e+000	 4.666700000016666e+000	 1.003706992871750e+001
0	 8.400020000016401e+000	 4.733360000014534e+000	 1.003779641392750e+001
0	 8.400020000016399e+000	 4.800020000011600e+000	 1.003846189774333e+001
0	 8.400020000016399e+000	 4.866680000008065e+000	 1.003906572720264e+001
0	 8.400020000016401e+000	 4.933340000004133e+000	 1.003960724934305e+001
0	 8.400020000016401e+000	 4.999999999999999e+000	 1.004008581120222e+001
0	 8.400020000016403e+000	 5.066659999995867e+000	 1.004050075981777e+001
0	 8.400020000016399e+000	 5.133319999991934e+000	 1.004085144222734e+001
0	 8.400020000016397e+000	 5.199979999988400e+000	 1.004113720546858e+001
0	 8.400020000016401e+000	 5.266639999985468e+000	 1.004135739657916e+001
0	 8.400020000016397e+000	 5.333299999983332e+000	 1.004151136259670e+001
0	 8.466690000017616e+000	 4.666700000016666e+000	 1.003199533359697e+001
0	 8.466690000017618e+000	 4.733360000014533e+000	 1.003282841324732e+001
0	 8.466690000017614e+000	 4.800020000011601e+000	 1.003359953959756e+001
0	 8.466690000017618e+000	 4.866680000008068e+000	 1.003430813771355e+001
0	 8.466690000017616e+000	 4.933340000004134e+000	 1.003495363266113e+001
0	 8.466690000017618e+000	 5.000000000000000e+000	 1.003553544950619e+001
0	 8.466690000017614e+000	 5.066659999995866e+000	 1.003605301331457e+001
0	 8.466690000017616e+000	 5.133319999991934e+000	 1.003650574915213e+001
0	 8.466690000017612e+000	 5.199979999988399e+000	 1.003689308208476e+001
0	 8.466690000017616e+000	 5.266639999985467e+000	 1.003721443717831e+001
0	 8.466690000017618e+000	 5.333299999983334e+000	 1.003746923949864e+001
0	 8.533360000018131e+000	 4.666700000016666e+000	 1.002700730811064e+001
0	 8.533360000018130e+000	 4.733360000014534e+000	 1.002794694882917e+001
0	 8.533360000018135e+000	 4.800020000011601e+000	 1.002882368493624e+001
0	 8.533360000018131e+000	 4.866680000008066e+000	 1.002963699828642e+001
0	 8.533360000018133e+000	 4.933340000004134e+000	 1.003038637073433e+001
0	 8.533360000018133e+000	 5.000000000000001e+000	 1.003107128413458e+001
0	 8.533360000018133e+000	 5.066659999995866e+000	 1.003169122034180e+001
0	 8.533360000018131e+000	 5.133319999991934e+000	 1.003224566121057e+001
0	 8.533360000018131e+000	 5.199979999988400e+000	 1.003273408859552e+001
0	 8.533360000018133e+000	 5.266639999985468e+000	 1.003315598435126e+001
0	 8.533360000018131e+000	 5.333299999983332e+000	 1.003351083033241e+001
0	 8.600030000017847e+000	 4.666700000016666e+000	 1.002211026053691e+001
0	 8.600030000017849e+000	 4.733360000014534e+000	 1.002315649693529e+001
0	 8.600030000017849e+000	 4.800020000011600e+000	 1.002413887970301e+001
0	 8.600030000017846e+000	 4.866680000008065e+000	 1.002505692624397e+001
0	 8.600030000017846e+000	 4.933340000004134e+000	 1.002591015396206e+001
0	 8.600030000017849e+000	 4.999999999999999e+000	 1.002669808026117e+001
0	 8.600030000017847e+000	 5.066659999995866e+000	 1.002742022254519e+001
0	 8.600030000017849e+000	 5.133319999991934e+000	 1.002807609821801e+001
0	 8.600030000017849e+000	 5.199979999988401e+000	 1.002866522468353e+001
0	 8.600030000017846e+000	 5.266639999985467e+000	 1.002918711934564e+001
0	 8.600030000017849e+000	 5.333299999983334e+000	 1.002964129960824e+001
0	 8.666700000016668e+000	 4.666700000016666e+000	 1.001730859915430e+001
0	 8.666700000016666e+000	 4.733360000014534e+000	 1.001846153382786e+001
0	 8.666700000016668e+000	 4.800020000011600e+000	 1.001954966984150e+001
0	 8.666700000016665e+000	 4.866680000008067e+000	 1.002057253890888e+001
0	 8.666700000016666e+000	 4.933340000004133e+000	 1.002152967274371e+001
0	 8.666700000016666e+000	 5.000000000000000e+000	 1.002242060305968e+001
0	 8.666700000016666e+000	 5.066659999995867e+000	 1.002324486157050e+001
0	 8.666700000016666e+000	 5.133319999991934e+000	 1.002400197998986e+001
0	 8.666700000016666e+000	 5.199979999988400e+000	 1.002469149003149e+001
0	 8.666700000016666e+000	 5.266639999985468e+000	 1.002531292340905e+001
0	 8.666700000016668e+000	 5.333299999983335e+000	 1.002586581183629e+001
0	 8.000000000000000e+000	 5.333299999983333e+000	 1.006723288118227e+001
0	 8.000000000000000e+000	 5.399969999982149e+000	 1.006670631959157e+001
0	 8.000000000000000e+000	 5.466639999981868e+000	 1.006613948134269e+001
0	 8.000000000000000e+000	 5.533309999982382e+000	 1.006553089626704e+001
0	 8.000000000000000e+000	 5.599979999983600e+000	 1.006487909419601e+001
0	 8.000000000000000e+000	 5.666649999985416e+000	 1.006418260496102e+001
0	 7.999999999999999e+000	 5.733319999987732e+000	 1.006343995839347e+001
0	 8.000000000000000e+000	 5.799989999990449e+000	 1.006264968432475e+001
0	 7.999999999999998e+000	 5.866659999993466e+000	 1.006181031258625e+001
0	 8.000000000000000e+000	 5.933329999996682e+000	 1.006092037300941e+001
0	 8.000000000000000e+000	 6.000000000000001e+000	 1.005997839542560e+001
0	 8.066670000003313e+000	 5.333299999983333e+000	 1.006279692920744e+001
0	 8.066670000003319e+000	 5.399969999982149e+000	 1.006237766122649e+001
0	 8.066670000003317e+000	 5.466639999981866e+000	 1.006191715379655e+001
0	 8.066670000003315e+000	 5.533309999982384e+000	 1.006141397355317e+001
0	 8.066670000003317e+000	 5.599979999983599e+000	 1.006086668713194e+001
0	 8.066670000003319e+000	 5.666649999985415e+000	 1.006027386116840e+001
0	 8.066670000003319e+000	 5.733319999987732e+000	 1.005963406229813e+001
0	 8.066670000003315e+000	 5.799989999990451e+000	 1.005894585715672e+001
0	 8.066670000003315e+000	 5.866659999993466e+000	 1.005820781237969e+001
0	 8.066670000003317e+000	 5.933329999996684e+000	 1.005741849460263e+001
0	 8.066670000003319e+000	 5.999999999999999e+000	 1.005657647046110e+001
0	 8.133340000006532e+000	 5.333299999983334e+000	 1.005841370410323e+001
0	 8.133340000006530e+000	 5.399969999982149e+000	 1.005810032846217e+001
0	 8.133340000006532e+000	 5.466639999981865e+000	 1.005774472924472e+001
0	 8.133340000006530e+000	 5.533309999982382e+000	 1.005734551391783e+001
0	 8.133340000006532e+000	 5.599979999983600e+000	 1.005690128994845e+001
0	 8.133340000006532e+000	 5.666649999985416e+000	 1.005641066480352e+001
0	 8.133340000006534e+000	 5.733319999987733e+000	 1.005587224594998e+001
0	 8.133340000006532e+000	 5.799989999990447e+000	 1.005528464085478e+001
0	 8.133340000006534e+000	 5.866659999993466e+000	 1.005464645698487e+001
0	 8.133340000006532e+000	 5.933329999996683e+000	 1.005395630180717e+001
0	 8.133340000006532e+000	 5.999999999999998e+000	 1.005321278278863e+001
0	 8.200010000009550e+000	 5.333299999983333e+000	 1.005408837037986e+001
0	 8.200010000009547e+000	 5.399969999982151e+000	 1.005387956303230e+001
0	 8.200010000009554e+000	 5.466639999981866e+000	 1.005362751284338e+001
0	 8.200010000009550e+000	 5.533309999982383e+000	 1.005333087213863e+001
0	 8.200010000009547e+000	 5.599979999983600e+000	 1.005298829324360e+001
0	 8.200010000009547e+000	 5.666649999985416e+000	 1.005259842848380e+001
0	 8.200010000009552e+000	 5.733319999987733e+000	 1.005215993018478e+001
0	 8.200010000009550e+000	 5.799989999990449e+000	 1.005167145067204e+001
0	 8.200010000009552e+000	 5.866659999993468e+000	 1.005113164227115e+001
0	 8.200010000009550e+000	 5.933329999996684e+000	 1.005053915730763e+001
0	 8.200010000009552e+000	 6.000000000000000e+000	 1.004989264810700e+001
0	 8.266680000012265e+000	 5.333299999983334e+000	 1.004982609254751e+001
0	 8.266680000012265e+000	 5.399969999982150e+000	 1.004972060667059e+001
0	 8.266680000012265e+000	 5.466639999981866e+000	 1.004957080974872e+001
0	 8.266680000012267e+000	 5.533309999982383e+000	 1.004937540299321e+001
0	 8.266680000012270e+000	 5.599979999983600e+000	 1.004913308761541e+001
0	 8.266680000012267e+000	 5.666649999985417e+000	 1.004884256482664e+001
0	 8.266680000012268e+000	 5.733319999987733e+000	 1.004850253583825e+001
0	 8.266680000012263e+000	 5.799989999990449e+000	 1.004811170186157e+001
0	 8.266680000012267e+000	 5.866659999993467e+000	 1.004766876410792e+001
0	 8.266680000012265e+000	 5.933329999996683e+000	 1.004717242378864e+001
0	 8.266680000012267e+000	 6.000000000000001e+000	 1.004662138211505e+001
0	 8.333350000014585e+000	 5.333299999983336e+000	 1.004563203511638e+001
0	 8.333350000014583e+000	 5.399969999982149e+000	 1.004562870111075e+001
0	 8.333350000014582e+000	 5.466639999981867e+000	 1.004557992511690e+001
0	 8.333350000014583e+000	 5.533309999982384e+000	 1.004548446125917e+001
0	 8.333350000014582e+000	 5.599979999983598e+000	 1.004534106366191e+001
0	 8.333350000014583e+000	 5.666649999985417e+000	 1.004514848644946e+001
0	 8.333350000014580e+000	 5.733319999987733e+000	 1.004490548374618e+001
0	 8.333350000014582e+000	 5.799989999990449e+000	 1.004461080967640e+001
0	 8.333350000014583e+000	 5.866659999993468e+000	 1.004426321836448e+001
0	 8.333350000014585e+000	 5.933329999996683e+000	 1.004386146393476e+001
0	 8.333350000014582e+000	 6.000000000000001e+000	 1.004340430051160e+001
0	 8.400020000016397e+000	 5.333299999983332e+000	 1.004151136259670e+001
0	 8.400020000016401e+000	 5.399969999982150e+000	 1.004160908808651e+001
0	 8.400020000016399e+000	 5.466639999981866e+000	 1.004166016410413e+001
0	 8.400020000016399e+000	 5.533309999982381e+000	 1.004166340171414e+001
0	 8.400020000016399e+000	 5.599979999983600e+000	 1.004161761198113e+001
0	 8.400020000016397e+000	 5.666649999985415e+000	 1.004152160596967e+001
0	 8.400020000016401e+000	 5.733319999987732e+000	 1.004137419474431e+001
0	 8.400020000016401e+000	 5.799989999990450e+000	 1.004117418936964e+001
0	 8.400020000016399e+000	 5.866659999993468e+000	 1.004092040091024e+001
0	 8.400020000016399e+000	 5.933329999996684e+000	 1.004061164043064e+001
0	 8.400020000016399e+000	 6.000000000000001e+000	 1.004024671899546e+001
0	 8.466690000017618e+000	 5.333299999983334e+000	 1.003746923949864e+001
0	 8.466690000017616e+000	 5.399969999982151e+000	 1.003766700933152e+001
0	 8.466690000017614e+000	 5.466639999981866e+000	 1.003781683186656e+001
0	 8.466690000017616e+000	 5.533309999982383e+000	 1.003791757913576e+001
0	 8.466690000017614e+000	 5.599979999983598e+000	 1.003796812317112e+001
0	 8.466690000017616e+000	 5.666649999985417e+000	 1.003796733600467e+001
0	 8.466690000017616e+000	 5.733319999987733e+000	 1.003791408966840e+001
0	 8.466690000017616e+000	 5.799989999990450e+000	 1.003780725619435e+001
0	 8.466690000017614e+000	 5.866659999993465e+000	 1.003764570761450e+001
0	 8.466690000017614e+000	 5.933329999996682e+000	 1.003742831596087e+001
0	 8.466690000017618e+000	 6.000000000000000e+000	 1.003715395326546e+001
0	 8.533360000018131e+000	 5.333299999983332e+000	 1.003351083033241e+001
0	 8.533360000018131e+000	 5.399969999982149e+000	 1.003380770657955e+001
0	 8.533360000018131e+000	 5.466639999981866e+000	 1.003405523356040e+001
0	 8.533360000018133e+000	 5.533309999982382e+000	 1.003425234830162e+001
0	 8.533360000018131e+000	 5.599979999983598e+000	 1.003439798782990e+001
0	 8.533360000018135e+000	 5.666649999985418e+000	 1.003449108917189e+001
0	 8.533360000018131e+000	 5.733319999987733e+000	 1.003453058935422e+001
0	 8.533360000018133e+000	 5.799989999990448e+000	 1.003451542540359e+001
0	 8.533360000018131e+000	 5.866659999993468e+000	 1.003444453434664e+001
0	 8.533360000018131e+000	 5.933329999996682e+000	 1.003431685321005e+001
0	 8.533360000018130e+000	 5.999999999999998e+000	 1.003413131902044e+001
0	 8.600030000017849e+000	 5.333299999983334e+000	 1.002964129960824e+001
0	 8.600030000017846e+000	 5.399969999982150e+000	 1.003003642156426e+001
0	 8.600030000017849e+000	 5.466639999981867e+000	 1.003038067434179e+001
0	 8.600030000017849e+000	 5.533309999982384e+000	 1.003067306398937e+001
0	 8.600030000017847e+000	 5.599979999983599e+000	 1.003091259655549e+001
0	 8.600030000017847e+000	 5.666649999985416e+000	 1.003109827808869e+001
0	 8.600030000017846e+000	 5.733319999987732e+000	 1.003122911463751e+001
0	 8.600030000017849e+000	 5.799989999990449e+000	 1.003130411225044e+001
0	 8.600030000017851e+000	 5.866659999993467e+000	 1.003132227697603e+001
0	 8.600030000017847e+000	 5.933329999996682e+000	 1.003128261486277e+001
0	 8.600030000017847e+000	 6.000000000000000e+000	 1.003118413195921e+001
0	 8.666700000016668e+000	 5.333299999983335e+000	 1.002586581183629e+001
0	 8.666700000016668e+000	 5.399969999982151e+000	 1.002635839601937e+001
0	 8.666700000016668e+000	 5.466639999981867e+000	 1.002679845936694e+001
0	 8.666700000016668e+000	 5.533309999982384e+000	 1.002718508097659e+001
0	 8.666700000016668e+000	 5.599979999983600e+000	 1.002751733994593e+001
0	 8.666700000016665e+000	 5.666649999985414e+000	 1.002779431537254e+001
0	 8.666700000016666e+000	 5.733319999987733e+000	 1.002801508635402e+001
0	 8.666700000016666e+000	 5.799989999990448e+000	 1.002817873198796e+001
0	 8.666700000016665e+000	 5.866659999993467e+000	 1.002828433137198e+001
0	 8.666700000016665e+000	 5.933329999996682e+000	 1.002833096360366e+001
0	 8.666700000016666e+000	 6.000000000000001e+000	 1.002831770778058e+001
0	 8.000000000000000e+000	 6.000000000000001e+000	 1.005997839542560e+001
0	 8.000000000000002e+000	 6.066670000003317e+000	 1.005899965145679e+001
0	 7.999999999999999e+000	 6.133340000006534e+000	 1.005799930146362e+001
0	 7.999999999999999e+000	 6.200010000009551e+000	 1.005697570838545e+001
0	 7.999999999999997e+000	 6.266680000012266e+000	 1.005592723516159e+001
0	 7.999999999999999e+000	 6.333350000014583e+000	 1.005485224473142e+001
0	 8.000000000000000e+000	 6.400020000016401e+000	 1.005374910003427e+001
0	 8.000000000000000e+000	 6.466690000017617e+000	 1.005261616400951e+001
0	 8.000000000000000e+000	 6.533360000018136e+000	 1.005145179959649e+001
0	 7.999999999999998e+000	 6.600030000017848e+000	 1.005025436973453e+001
0	 8.000000000000000e+000	 6.666700000016668e+000	 1.004902223736302e+001
0	 8.066670000003319e+000	 5.999999999999999e+000	 1.005657647046110e+001
0	 8.066670000003317e+000	 6.066670000003317e+000	 1.005569656048039e+001
0	 8.066670000003315e+000	 6.133340000006531e+000	 1.005479350131657e+001
0	 8.066670000003317e+000	 6.200010000009550e+000	 1.005386573380141e+001
0	 8.066670000003317e+000	 6.266680000012268e+000	 1.005291169876667e+001
0	 8.066670000003317e+000	 6.333350000014583e+000	 1.005192983704410e+001
0	 8.066670000003317e+000	 6.400020000016400e+000	 1.005091858946547e+001
0	 8.066670000003317e+000	 6.466690000017618e+000	 1.004987639686255e+001
0	 8.066670000003315e+000	 6.533360000018133e+000	 1.004880170006707e+001
0	 8.066670000003317e+000	 6.600030000017851e+000	 1.004769293991085e+001
0	 8.066670000003315e+000	 6.666700000016666e+000	 1.004654855722557e+001
0	 8.133340000006532e+000	 5.999999999999998e+000	 1.005321278278863e+001
0	 8.133340000006532e+000	 6.066670000003315e+000	 1.005243028218951e+001
0	 8.133340000006534e+000	 6.133340000006532e+000	 1.005162312113135e+001
0	 8.133340000006532e+000	 6.200010000009550e+000	 1.005078981537299e+001
0	 8.133340000006536e+000	 6.266680000012268e+000	 1.004992888067329e+001
0	 8.133340000006532e+000	 6.333350000014582e+000	 1.004903883279107e+001
0	 8.133340000006532e+000	 6.400020000016401e+000	 1.004811818748524e+001
0	 8.133340000006532e+000	 6.466690000017616e+000	 1.004716546051457e+001
0	 8.133340000006534e+000	 6.533360000018134e+000	 1.004617916763795e+001
0	 8.133340000006534e+000	 6.600030000017848e+000	 1.004515782461422e+001
0	 8.133340000006532e+000	 6.666700000016665e+000	 1.004409994720222e+001
0	 8.200010000009552e+000	 6.000000000000000e+000	 1.004989264810700e+001
0	 8.200010000009550e+000	 6.066670000003316e+000	 1.004920607417286e+001
0	 8.200010000009550e+000	 6.133340000006533e+000	 1.004849335193883e+001
0	 8.200010000009549e+000	 6.200010000009551e+000	 1.004775306912557e+001
0	 8.200010000009552e+000	 6.266680000012268e+000	 1.004698381345365e+001
0	 8.200010000009547e+000	 6.333350000014582e+000	 1.004618417264368e+001
0	 8.200010000009549e+000	 6.400020000016402e+000	 1.004535273441632e+001
0	 8.200010000009552e+000	 6.466690000017618e+000	 1.004448808649213e+001
0	 8.200010000009552e+000	 6.533360000018135e+000	 1.004358881659173e+001
0	 8.200010000009549e+000	 6.600030000017852e+000	 1.004265351243573e+001
0	 8.200010000009550e+000	 6.666700000016667e+000	 1.004168076174476e+001
0	 8.266680000012267e+000	 6.000000000000001e+000	 1.004662138211505e+001
0	 8.266680000012267e+000	 6.066670000003319e+000	 1.004602919401912e+001
0	 8.266680000012270e+000	 6.133340000006534e+000	 1.004540938476991e+001
0	 8.266680000012265e+000	 6.200010000009550e+000	 1.004476061108450e+001
0	 8.266680000012268e+000	 6.266680000012268e+000	 1.004408152967994e+001
0	 8.266680000012265e+000	 6.333350000014584e+000	 1.004337079727324e+001
0	 8.266680000012268e+000	 6.400020000016401e+000	 1.004262707058151e+001
0	 8.266680000012265e+000	 6.466690000017615e+000	 1.004184900632177e+001
0	 8.266680000012267e+000	 6.533360000018136e+000	 1.004103526121106e+001
0	 8.266680000012265e+000	 6.600030000017849e+000	 1.004018449196646e+001
0	 8.266680000012267e+000	 6.666700000016666e+000	 1.003929535530497e+001
0	 8.333350000014582e+000	 6.000000000000001e+000	 1.004340430051160e+001
0	 8.333350000014583e+000	 6.066670000003317e+000	 1.004290489931698e+001
0	 8.333350000014583e+000	 6.133340000006533e+000	 1.004237641065544e+001
0	 8.333350000014582e+000	 6.200010000009551e+000	 1.004181755727516e+001
0	 8.333350000014580e+000	 6.266680000012267e+000	 1.004122706192432e+001
0	 8.333350000014583e+000	 6.333350000014583e+000	 1.004060364735108e+001
0	 8.333350000014583e+000	 6.400020000016401e+000	 1.003994603630359e+001
0	 8.333350000014582e+000	 6.466690000017616e+000	 1.003925295153004e+001
0	 8.333350000014583e+000	 6.533360000018131e+000	 1.003852311577859e+001
0	 8.333350000014582e+000	 6.600030000017849e+000	 1.003775525179739e+001
0	 8.333350000014585e+000	 6.666700000016668e+000	 1.003694808233463e+001
0	 8.400020000016399e+000	 6.000000000000001e+000	 1.004024671899546e+001
0	 8.400020000016399e+000	 6.066670000003318e+000	 1.003983844765510e+001
0	 8.400020000016399e+000	 6.133340000006534e+000	 1.003939962062627e+001
0	 8.400020000016401e+000	 6.200010000009551e+000	 1.003892902372290e+001
0	 8.400020000016399e+000	 6.266680000012268e+000	 1.003842544275898e+001
0	 8.400020000016399e+000	 6.333350000014584e+000	 1.003788766354847e+001
0	 8.400020000016401e+000	 6.400020000016401e+000	 1.003731447190532e+001
0	 8.400020000016401e+000	 6.466690000017617e+000	 1.003670465364347e+001
0	 8.400020000016397e+000	 6.533360000018134e+000	 1.003605699457693e+001
0	 8.400020000016399e+000	 6.600030000017850e+000	 1.003537028051962e+001
0	 8.400020000016399e+000	 6.666700000016666e+000	 1.003464329728548e+001
0	 8.466690000017618e+000	 6.000000000000000e+000	 1.003715395326546e+001
0	 8.466690000017614e+000	 6.066670000003315e+000	 1.003683509662220e+001
0	 8.466690000017616e+000	 6.133340000006535e+000	 1.003648420571327e+001
0	 8.466690000017616e+000	 6.200010000009552e+000	 1.003610012645309e+001
0	 8.466690000017618e+000	 6.266680000012268e+000	 1.003568170475613e+001
0	 8.466690000017616e+000	 6.333350000014583e+000	 1.003522778653677e+001
0	 8.466690000017616e+000	 6.400020000016399e+000	 1.003473721770946e+001
0	 8.466690000017616e+000	 6.466690000017615e+000	 1.003420884418864e+001
0	 8.466690000017616e+000	 6.533360000018133e+000	 1.003364151188873e+001
0	 8.466690000017616e+000	 6.600030000017851e+000	 1.003303406672415e+001
0	 8.466690000017614e+000	 6.666700000016665e+000	 1.003238535460933e+001
0	 8.533360000018130e+000	 5.999999999999998e+000	 1.003413131902044e+001
0	 8.533360000018131e+000	 6.066670000003316e+000	 1.003390010380694e+001
0	 8.533360000018133e+000	 6.133340000006533e+000	 1.003363535694732e+001
0	 8.533360000018131e+000	 6.200010000009550e+000	 1.003333598149112e+001
0	 8.533360000018131e+000	 6.266680000012267e+000	 1.003300088048792e+001
0	 8.533360000018133e+000	 6.333350000014584e+000	 1.003262895698729e+001
0	 8.533360000018131e+000	 6.400020000016400e+000	 1.003221911403882e+001
0	 8.533360000018130e+000	 6.466690000017616e+000	 1.003177025469207e+001
0	 8.533360000018135e+000	 6.533360000018137e+000	 1.003128128199662e+001
0	 8.533360000018133e+000	 6.600030000017853e+000	 1.003075109900204e+001
0	 8.533360000018130e+000	 6.666700000016665e+000	 1.003017860875793e+001
0	 8.600030000017847e+000	 6.000000000000000e+000	 1.003118413195921e+001
0	 8.600030000017847e+000	 6.066670000003317e+000	 1.003103872679806e+001
0	 8.600030000017847e+000	 6.133340000006535e+000	 1.003085826535930e+001
0	 8.600030000017849e+000	 6.200010000009550e+000	 1.003064170486233e+001
0	 8.600030000017849e+000	 6.266680000012268e+000	 1.003038800252655e+001
0	 8.600030000017847e+000	 6.333350000014583e+000	 1.003009611557136e+001
0	 8.600030000017847e+000	 6.400020000016401e+000	 1.002976500121614e+001
0	 8.600030000017849e+000	 6.466690000017617e+000	 1.002939361668032e+001
0	 8.600030000017849e+000	 6.533360000018135e+000	 1.002898091918326e+001
0	 8.600030000017849e+000	 6.600030000017851e+000	 1.002852586594436e+001
0	 8.600030000017847e+000	 6.666700000016666e+000	 1.002802741418304e+001
0	 8.666700000016666e+000	 6.000000000000001e+000	 1.002831770778058e+001
0	 8.666700000016666e+000	 6.066670000003318e+000	 1.002825622318418e+001
0	 8.666700000016666e+000	 6.133340000006533e+000	 1.002815812198004e+001
0	 8.666700000016666e+000	 6.200010000009550e+000	 1.002802241259208e+001
0	 8.666700000016666e+000	 6.266680000012268e+000	 1.002784810344419e+001
0	 8.666700000016666e+000	 6.333350000014585e+000	 1.002763420296027e+001
0	 8.666700000016668e+000	 6.400020000016401e+000	 1.002737971956421e+001
0	 8.666700000016668e+000	 6.466690000017617e+000	 1.002708366167991e+001
0	 8.666700000016668e+000	 6.533360000018135e+000	 1.002674503773125e+001
0	 8.666700000016666e+000	 6.600030000017850e+000	 1.002636285614214e+001
0	 8.666700000016666e+000	 6.666700000016665e+000	 1.002593612533645e+001
0	 8.000000000000000e+000	 6.666700000016668e+000	 1.004902223736302e+001
0	 7.999999999999999e+000	 6.733360000014532e+000	 1.004777096587877e+001
0	 8.000000000000000e+000	 6.800020000011601e+000	 1.004651575153737e+001
0	 7.999999999999999e+000	 6.866680000008068e+000	 1.004525496905135e+001
0	 8.000000000000000e+000	 6.933340000004133e+000	 1.004398699313324e+001
0	 8.000000000000000e+000	 7.000000000000000e+000	 1.004271019849557e+001
0	 7.999999999999999e+000	 7.066659999995867e+000	 1.004142295985088e+001
0	 8.000000000000000e+000	 7.133319999991934e+000	 1.004012365191170e+001
0	 8.000000000000000e+000	 7.199979999988400e+000	 1.003881064939053e+001
0	 8.000000000000000e+000	 7.266639999985467e+000	 1.003748232699993e+001
0	 8.000000000000000e+000	 7.333299999983335e+000	 1.003613705945243e+001
0	 8.066670000003315e+000	 6.666700000016666e+000	 1.004654855722557e+001
0	 8.066670000003317e+000	 6.733360000014533e+000	 1.004538375575755e+001
0	 8.066670000003315e+000	 6.800020000011600e+000	 1.004421338890935e+001
0	 8.066670000003320e+000	 6.866680000008067e+000	 1.004303589519217e+001
0	 8.066670000003317e+000	 6.933340000004135e+000	 1.004184971311718e+001
0	 8.066670000003319e+000	 7.000000000000001e+000	 1.004065328119558e+001
0	 8.066670000003319e+000	 7.066659999995868e+000	 1.003944503793856e+001
0	 8.066670000003320e+000	 7.133319999991935e+000	 1.003822342185730e+001
0	 8.066670000003317e+000	 7.199979999988400e+000	 1.003698687146298e+001
0	 8.066670000003319e+000	 7.266639999985467e+000	 1.003573382526682e+001
0	 8.066670000003315e+000	 7.333299999983334e+000	 1.003446272177997e+001
0	 8.133340000006532e+000	 6.666700000016665e+000	 1.004409994720222e+001
0	 8.133340000006532e+000	 6.733360000014531e+000	 1.004302039327433e+001
0	 8.133340000006530e+000	 6.800020000011598e+000	 1.004193368764488e+001
0	 8.133340000006538e+000	 6.866680000008069e+000	 1.004083833094907e+001
0	 8.133340000006532e+000	 6.933340000004131e+000	 1.003973282382216e+001
0	 8.133340000006532e+000	 6.999999999999998e+000	 1.003861566689938e+001
0	 8.133340000006534e+000	 7.066659999995868e+000	 1.003748536081593e+001
0	 8.133340000006538e+000	 7.133319999991936e+000	 1.003634040620708e+001
0	 8.133340000006530e+000	 7.199979999988400e+000	 1.003517930370803e+001
0	 8.133340000006534e+000	 7.266639999985466e+000	 1.003400055395403e+001
0	 8.133340000006534e+000	 7.333299999983332e+000	 1.003280265758032e+001
0	 8.200010000009550e+000	 6.666700000016667e+000	 1.004168076174476e+001
0	 8.200010000009550e+000	 6.733360000014532e+000	 1.004068509368555e+001
0	 8.200010000009554e+000	 6.800020000011600e+000	 1.003968072209901e+001
0	 8.200010000009550e+000	 6.866680000008068e+000	 1.003866620806980e+001
0	 8.200010000009550e+000	 6.933340000004135e+000	 1.003764011268258e+001
0	 8.200010000009550e+000	 7.000000000000001e+000	 1.003660099702201e+001
0	 8.200010000009549e+000	 7.066659999995867e+000	 1.003554742217275e+001
0	 8.200010000009550e+000	 7.133319999991934e+000	 1.003447794921945e+001
0	 8.200010000009552e+000	 7.199979999988400e+000	 1.003339113924679e+001
0	 8.200010000009549e+000	 7.266639999985465e+000	 1.003228555333942e+001
0	 8.200010000009549e+000	 7.333299999983334e+000	 1.003115975258202e+001
0	 8.266680000012267e+000	 6.666700000016666e+000	 1.003929535530498e+001
0	 8.266680000012268e+000	 6.733360000014533e+000	 1.003838207224762e+001
0	 8.266680000012263e+000	 6.800020000011598e+000	 1.003745856662684e+001
0	 8.266680000012263e+000	 6.866680000008066e+000	 1.003652345830207e+001
0	 8.266680000012267e+000	 6.933340000004133e+000	 1.003557536713282e+001
0	 8.266680000012265e+000	 6.999999999999997e+000	 1.003461291297856e+001
0	 8.266680000012263e+000	 7.066659999995864e+000	 1.003363471569874e+001
0	 8.266680000012263e+000	 7.133319999991934e+000	 1.003263939515287e+001
0	 8.266680000012263e+000	 7.199979999988400e+000	 1.003162557120040e+001
0	 8.266680000012270e+000	 7.266639999985468e+000	 1.003059186370083e+001
0	 8.266680000012265e+000	 7.333299999983333e+000	 1.002953689251361e+001
0	 8.333350000014585e+000	 6.666700000016668e+000	 1.003694808233463e+001
0	 8.333350000014583e+000	 6.733360000014532e+000	 1.003611554421696e+001
0	 8.333350000014582e+000	 6.800020000011600e+000	 1.003527129558339e+001
0	 8.333350000014582e+000	 6.866680000008068e+000	 1.003441401339360e+001
0	 8.333350000014582e+000	 6.933340000004134e+000	 1.003354237460727e+001
0	 8.333350000014582e+000	 6.999999999999999e+000	 1.003265505618407e+001
0	 8.333350000014582e+000	 7.066659999995867e+000	 1.003175073508368e+001
0	 8.333350000014580e+000	 7.133319999991932e+000	 1.003082808826576e+001
0	 8.333350000014583e+000	 7.199979999988400e+000	 1.002988579268999e+001
0	 8.333350000014583e+000	 7.266639999985467e+000	 1.002892252531606e+001
0	 8.333350000014585e+000	 7.333299999983335e+000	 1.002793696310362e+001
0	 8.400020000016399e+000	 6.666700000016666e+000	 1.003464329728548e+001
0	 8.400020000016399e+000	 6.733360000014533e+000	 1.003388972484997e+001
0	 8.400020000016399e+000	 6.800020000011600e+000	 1.003312298332376e+001
0	 8.400020000016401e+000	 6.866680000008066e+000	 1.003234180509213e+001
0	 8.400020000016403e+000	 6.933340000004135e+000	 1.003154492254034e+001
0	 8.400020000016399e+000	 6.999999999999998e+000	 1.003073106805364e+001
0	 8.400020000016399e+000	 7.066659999995868e+000	 1.002989897401728e+001
0	 8.400020000016401e+000	 7.133319999991935e+000	 1.002904737281654e+001
0	 8.400020000016399e+000	 7.199979999988401e+000	 1.002817499683668e+001
0	 8.400020000016399e+000	 7.266639999985467e+000	 1.002728057846296e+001
0	 8.400020000016397e+000	 7.333299999983333e+000	 1.002636285008061e+001
0	 8.466690000017614e+000	 6.666700000016665e+000	 1.003238535460933e+001
0	 8.466690000017618e+000	 6.733360000014533e+000	 1.003170882940308e+001
0	 8.466690000017614e+000	 6.800020000011599e+000	 1.003101770420301e+001
0	 8.466690000017616e+000	 6.866680000008067e+000	 1.003031076514539e+001
0	 8.466690000017616e+000	 6.933340000004133e+000	 1.002958679836640e+001
0	 8.466690000017614e+000	 6.999999999999999e+000	 1.002884459000231e+001
0	 8.466690000017616e+000	 7.066659999995867e+000	 1.002808292618932e+001
0	 8.466690000017616e+000	 7.133319999991935e+000	 1.002730059306367e+001
0	 8.466690000017614e+000	 7.199979999988400e+000	 1.002649637676161e+001
0	 8.466690000017618e+000	 7.266639999985467e+000	 1.002566906341935e+001
0	 8.466690000017616e+000	 7.333299999983335e+000	 1.002481743917312e+001
0	 8.533360000018130e+000	 6.666700000016665e+000	 1.003017860875793e+001
0	 8.533360000018133e+000	 6.733360000014534e+000	 1.002957707313270e+001
0	 8.533360000018133e+000	 6.800020000011600e+000	 1.002895953257621e+001
0	 8.533360000018130e+000	 6.866680000008066e+000	 1.002832482530107e+001
0	 8.533360000018131e+000	 6.933340000004133e+000	 1.002767178951986e+001
0	 8.533360000018131e+000	 6.999999999999998e+000	 1.002699926344513e+001
0	 8.533360000018133e+000	 7.066659999995868e+000	 1.002630608528951e+001
0	 8.533360000018133e+000	 7.133319999991935e+000	 1.002559109326558e+001
0	 8.533360000018130e+000	 7.199979999988400e+000	 1.002485312558589e+001
0	 8.533360000018131e+000	 7.266639999985467e+000	 1.002409102046307e+001
0	 8.533360000018133e+000	 7.333299999983334e+000	 1.002330361610968e+001
0	 8.600030000017847e+000	 6.666700000016666e+000	 1.002802741418304e+001
0	 8.600030000017849e+000	 6.733360000014533e+000	 1.002749867129523e+001
0	 8.600030000017849e+000	 6.800020000011600e+000	 1.002695254279843e+001
0	 8.600030000017847e+000	 6.866680000008065e+000	 1.002638791730693e+001
0	 8.600030000017849e+000	 6.933340000004136e+000	 1.002580368343509e+001
0	 8.600030000017849e+000	 7.000000000000001e+000	 1.002519872979721e+001
0	 8.600030000017849e+000	 7.066659999995869e+000	 1.002457194500763e+001
0	 8.600030000017849e+000	 7.133319999991936e+000	 1.002392221768067e+001
0	 8.600030000017847e+000	 7.199979999988400e+000	 1.002324843643067e+001
0	 8.600030000017849e+000	 7.266639999985468e+000	 1.002254948987194e+001
0	 8.600030000017849e+000	 7.333299999983335e+000	 1.002182426661884e+001
0	 8.666700000016666e+000	 6.666700000016665e+000	 1.002593612533645e+001
0	 8.666700000016666e+000	 6.733360000014533e+000	 1.002547783914712e+001
0	 8.666700000016668e+000	 6.800020000011599e+000	 1.002500080922471e+001
0	 8.666700000016668e+000	 6.866680000008068e+000	 1.002450397291068e+001
0	 8.666700000016666e+000	 6.933340000004133e+000	 1.002398626754648e+001
0	 8.666700000016666e+000	 7.000000000000001e+000	 1.002344663047357e+001
0	 8.666700000016665e+000	 7.066659999995867e+000	 1.002288399903338e+001
0	 8.666700000016665e+000	 7.133319999991934e+000	 1.002229731056739e+001
0	 8.666700000016668e+000	 7.199979999988400e+000	 1.002168550241704e+001
0	 8.666700000016666e+000	 7.266639999985467e+000	 1.002104751192381e+001
0	 8.666700000016665e+000	 7.333299999983335e+000	 1.002038227642911e+001
0	 8.000000000000000e+000	 7.333299999983335e+000	 1.003613705945243e+001
0	 8.000000000000000e+000	 7.399969999982151e+000	 1.003478983455790e+001
0	 8.000000000000000e+000	 7.466639999981867e+000	 1.003345598125507e+001
0	 8.000000000000000e+000	 7.533309999982385e+000	 1.003213377646192e+001
0	 8.000000000000000e+000	 7.599979999983599e+000	 1.003082149709640e+001
0	 7.999999999999999e+000	 7.666649999985416e+000	 1.002951742007653e+001
0	 7.999999999999999e+000	 7.733319999987732e+000	 1.002821982232028e+001
0	 7.999999999999999e+000	 7.799989999990448e+000	 1.002692698074561e+001
0	 7.999999999999998e+000	 7.866659999993465e+000	 1.002563717227051e+001
0	 8.000000000000000e+000	 7.933329999996684e+000	 1.002434867381299e+001
0	 7.999999999999999e+000	 7.999999999999999e+000	 1.002305976229100e+001
0	 8.066670000003315e+000	 7.333299999983334e+000	 1.003446272177997e+001
0	 8.066670000003315e+000	 7.399969999982151e+000	 1.003318833771343e+001
0	 8.066670000003315e+000	 7.466639999981865e+000	 1.003192576094836e+001
0	 8.066670000003315e+000	 7.533309999982385e+000	 1.003067332039992e+001
0	 8.066670000003319e+000	 7.599979999983599e+000	 1.002942934498324e+001
0	 8.066670000003317e+000	 7.666649999985415e+000	 1.002819216361348e+001
0	 8.066670000003319e+000	 7.733319999987733e+000	 1.002696010520582e+001
0	 8.066670000003315e+000	 7.799989999990450e+000	 1.002573149867540e+001
0	 8.066670000003317e+000	 7.866659999993467e+000	 1.002450467293735e+001
0	 8.066670000003317e+000	 7.933329999996682e+000	 1.002327795690685e+001
0	 8.066670000003319e+000	 7.999999999999998e+000	 1.002204967949906e+001
0	 8.133340000006534e+000	 7.333299999983332e+000	 1.003280265758032e+001
0	 8.133340000006532e+000	 7.399969999982148e+000	 1.003160017760373e+001
0	 8.133340000006530e+000	 7.466639999981864e+000	 1.003040796040255e+001
0	 8.133340000006532e+000	 7.533309999982381e+000	 1.002922438801344e+001
0	 8.133340000006532e+000	 7.599979999983599e+000	 1.002804784247316e+001
0	 8.133340000006532e+000	 7.666649999985415e+000	 1.002687670581838e+001
0	 8.133340000006536e+000	 7.733319999987734e+000	 1.002570936008579e+001
0	 8.133340000006532e+000	 7.799989999990449e+000	 1.002454418731214e+001
0	 8.133340000006532e+000	 7.866659999993466e+000	 1.002337956953410e+001
0	 8.133340000006532e+000	 7.933329999996682e+000	 1.002221388878841e+001
0	 8.133340000006532e+000	 7.999999999999997e+000	 1.002104552711175e+001
0	 8.200010000009549e+000	 7.333299999983334e+000	 1.003115975258202e+001
0	 8.200010000009547e+000	 7.399969999982149e+000	 1.003002808733422e+001
0	 8.200010000009552e+000	 7.466639999981867e+000	 1.002890516570483e+001
0	 8.200010000009550e+000	 7.533309999982384e+000	 1.002778942397644e+001
0	 8.200010000009549e+000	 7.599979999983600e+000	 1.002667929843171e+001
0	 8.200010000009549e+000	 7.666649999985415e+000	 1.002557322535327e+001
0	 8.200010000009552e+000	 7.733319999987732e+000	 1.002446964102376e+001
0	 8.200010000009549e+000	 7.799989999990451e+000	 1.002336698172582e+001
0	 8.200010000009550e+000	 7.866659999993467e+000	 1.002226368374207e+001
0	 8.200010000009550e+000	 7.933329999996683e+000	 1.002115818335517e+001
0	 8.200010000009550e+000	 8.000000000000002e+000	 1.002004891684777e+001
0	 8.266680000012265e+000	 7.333299999983333e+000	 1.002953689251361e+001
0	 8.266680000012265e+000	 7.399969999982149e+000	 1.002847480001030e+001
0	 8.266680000012265e+000	 7.466639999981865e+000	 1.002741996294237e+001
0	 8.266680000012267e+000	 7.533309999982384e+000	 1.002637087296274e+001
0	 8.266680000012268e+000	 7.599979999983600e+000	 1.002532602172440e+001
0	 8.266680000012265e+000	 7.666649999985415e+000	 1.002428390088025e+001
0	 8.266680000012267e+000	 7.733319999987733e+000	 1.002324300208326e+001
0	 8.266680000012263e+000	 7.799989999990447e+000	 1.002220181698636e+001
0	 8.266680000012268e+000	 7.866659999993467e+000	 1.002115883724253e+001
0	 8.266680000012265e+000	 7.933329999996682e+000	 1.002011255450469e+001
0	 8.266680000012265e+000	 8.000000000000002e+000	 1.001906146042580e+001
0	 8.333350000014585e+000	 7.333299999983335e+000	 1.002793696310362e+001
0	 8.333350000014582e+000	 7.399969999982149e+000	 1.002694304873737e+001
0	 8.333350000014583e+000	 7.466639999981867e+000	 1.002595493820239e+001
0	 8.333350000014583e+000	 7.533309999982384e+000	 1.002497117964630e+001
0	 8.333350000014582e+000	 7.599979999983598e+000	 1.002399032121676e+001
0	 8.333350000014582e+000	 7.666649999985415e+000	 1.002301091106141e+001
0	 8.333350000014582e+000	 7.733319999987732e+000	 1.002203149732786e+001
0	 8.333350000014582e+000	 7.799989999990450e+000	 1.002105062816376e+001
0	 8.333350000014583e+000	 7.866659999993467e+000	 1.002006685171675e+001
0	 8.333350000014585e+000	 7.933329999996684e+000	 1.001907871613447e+001
0	 8.333350000014580e+000	 7.999999999999999e+000	 1.001808476956454e+001
0	 8.400020000016397e+000	 7.333299999983333e+000	 1.002636285008061e+001
0	 8.400020000016397e+000	 7.399969999982148e+000	 1.002543556662083e+001
0	 8.400020000016399e+000	 7.466639999981867e+000	 1.002451267757205e+001
0	 8.400020000016399e+000	 7.533309999982381e+000	 1.002359278870099e+001
0	 8.400020000016401e+000	 7.599979999983600e+000	 1.002267450577434e+001
0	 8.400020000016397e+000	 7.666649999985414e+000	 1.002175643455882e+001
0	 8.400020000016401e+000	 7.733319999987733e+000	 1.002083718082112e+001
0	 8.400020000016399e+000	 7.799989999990449e+000	 1.001991535032795e+001
0	 8.400020000016399e+000	 7.866659999993467e+000	 1.001898954884602e+001
0	 8.400020000016397e+000	 7.933329999996681e+000	 1.001805838214203e+001
0	 8.400020000016399e+000	 7.999999999999999e+000	 1.001712045598267e+001
0	 8.466690000017616e+000	 7.333299999983335e+000	 1.002481743917312e+001
0	 8.466690000017614e+000	 7.399969999982150e+000	 1.002395508676608e+001
0	 8.466690000017614e+000	 7.466639999981866e+000	 1.002309576713857e+001
0	 8.466690000017616e+000	 7.533309999982383e+000	 1.002223814480070e+001
0	 8.466690000017614e+000	 7.599979999983599e+000	 1.002138088426266e+001
0	 8.466690000017616e+000	 7.666649999985416e+000	 1.002052265003457e+001
0	 8.466690000017614e+000	 7.733319999987732e+000	 1.001966210662659e+001
0	 8.466690000017614e+000	 7.799989999990449e+000	 1.001879791854890e+001
0	 8.466690000017616e+000	 7.866659999993467e+000	 1.001792875031160e+001
0	 8.466690000017612e+000	 7.933329999996682e+000	 1.001705326642489e+001
0	 8.466690000017618e+000	 8.000000000000000e+000	 1.001617013139889e+001
0	 8.533360000018133e+000	 7.333299999983334e+000	 1.002330361610968e+001
0	 8.533360000018130e+000	 7.399969999982149e+000	 1.002250434227854e+001
0	 8.533360000018131e+000	 7.466639999981865e+000	 1.002170679298909e+001
0	 8.533360000018133e+000	 7.533309999982383e+000	 1.002090969261933e+001
0	 8.533360000018131e+000	 7.599979999983598e+000	 1.002011176554721e+001
0	 8.533360000018133e+000	 7.666649999985419e+000	 1.001931173615073e+001
0	 8.533360000018131e+000	 7.733319999987732e+000	 1.001850832880784e+001
0	 8.533360000018135e+000	 7.799989999990450e+000	 1.001770026789655e+001
0	 8.533360000018131e+000	 7.866659999993466e+000	 1.001688627779481e+001
0	 8.533360000018131e+000	 7.933329999996683e+000	 1.001606508288058e+001
0	 8.533360000018131e+000	 8.000000000000000e+000	 1.001523540753189e+001
0	 8.600030000017849e+000	 7.333299999983335e+000	 1.002182426661884e+001
0	 8.600030000017847e+000	 7.399969999982150e+000	 1.002108606626360e+001
0	 8.600030000017847e+000	 7.466639999981864e+000	 1.002034834121084e+001
0	 8.600030000017849e+000	 7.533309999982384e+000	 1.001960987683079e+001
0	 8.600030000017847e+000	 7.599979999983599e+000	 1.001886945849358e+001
0	 8.600030000017847e+000	 7.666649999985414e+000	 1.001812587156939e+001
0	 8.600030000017847e+000	 7.733319999987733e+000	 1.001737790142843e+001
0	 8.600030000017849e+000	 7.799989999990448e+000	 1.001662433344087e+001
0	 8.600030000017851e+000	 7.866659999993467e+000	 1.001586395297687e+001
0	 8.600030000017846e+000	 7.933329999996683e+000	 1.001509554540663e+001
0	 8.600030000017847e+000	 8.000000000000000e+000	 1.001431789610034e+001
0	 8.666700000016665e+000	 7.333299999983335e+000	 1.002038227642911e+001
0	 8.666700000016666e+000	 7.399969999982151e+000	 1.001970299182666e+001
0	 8.666700000016668e+000	 7.466639999981867e+000	 1.001902299789102e+001
0	 8.666700000016668e+000	 7.533309999982383e+000	 1.001834114210897e+001
0	 8.666700000016668e+000	 7.599979999983599e+000	 1.001765627196724e+001
0	 8.666700000016666e+000	 7.666649999985415e+000	 1.001696723495264e+001
0	 8.666700000016666e+000	 7.733319999987733e+000	 1.001627287855190e+001
0	 8.666700000016666e+000	 7.799989999990450e+000	 1.001557205025180e+001
0	 8.666700000016663e+000	 7.866659999993464e+000	 1.001486359753910e+001
0	 8.666700000016666e+000	 7.933329999996683e+000	 1.001414636790056e+001
0	 8.666700000016666e+000	 7.999999999999999e+000	 1.001341920882295e+001
0	 7.999999999999999e+000	 7.999999999999999e+000	 1.002305976229100e+001
0	 7.999999999999998e+000	 8.066670000003319e+000	 1.002178626563358e+001
0	 8.000000000000000e+000	 8.133340000006534e+000	 1.002054384135524e+001
0	 7.999999999999999e+000	 8.200010000009550e+000	 1.001933051075218e+001
0	 7.999999999999999e+000	 8.266680000012268e+000	 1.001814429512062e+001
0	 8.000000000000000e+000	 8.333350000014585e+000	 1.001698321575676e+001
0	 7.999999999999998e+000	 8.400020000016397e+000	 1.001584529395683e+001
0	 8.000000000000000e+000	 8.466690000017618e+000	 1.001472855101703e+001
0	 7.999999999999998e+000	 8.533360000018131e+000	 1.001363100823357e+001
0	 8.000000000000000e+000	 8.600030000017851e+000	 1.001255068690267e+001
0	 8.000000000000000e+000	 8.666700000016666e+000	 1.001148560832054e+001
0	 8.066670000003319e+000	 7.999999999999998e+000	 1.002204967949906e+001
0	 8.066670000003319e+000	 8.066670000003319e+000	 1.002083537195878e+001
0	 8.066670000003315e+000	 8.133340000006532e+000	 1.001965040993856e+001
0	 8.066670000003317e+000	 8.200010000009550e+000	 1.001849288896515e+001
0	 8.066670000003317e+000	 8.266680000012270e+000	 1.001736090456532e+001
0	 8.066670000003315e+000	 8.333350000014583e+000	 1.001625255226582e+001
0	 8.066670000003317e+000	 8.400020000016401e+000	 1.001516592759340e+001
0	 8.066670000003317e+000	 8.466690000017618e+000	 1.001409912607484e+001
0	 8.066670000003317e+000	 8.533360000018133e+000	 1.001305024323688e+001
0	 8.066670000003315e+000	 8.600030000017851e+000	 1.001201737460628e+001
0	 8.066670000003313e+000	 8.666700000016666e+000	 1.001099861570981e+001
0	 8.133340000006532e+000	 7.999999999999997e+000	 1.002104552711175e+001
0	 8.133340000006532e+000	 8.066670000003315e+000	 1.001988972495924e+001
0	 8.133340000006534e+000	 8.133340000006534e+000	 1.001876158004835e+001
0	 8.133340000006532e+000	 8.200010000009549e+000	 1.001765926030933e+001
0	 8.133340000006534e+000	 8.266680000012267e+000	 1.001658093367245e+001
0	 8.133340000006532e+000	 8.333350000014583e+000	 1.001552476806796e+001
0	 8.133340000006530e+000	 8.400020000016401e+000	 1.001448893142613e+001
0	 8.133340000006534e+000	 8.466690000017616e+000	 1.001347159167722e+001
0	 8.133340000006534e+000	 8.533360000018135e+000	 1.001247091675149e+001
0	 8.133340000006534e+000	 8.600030000017849e+000	 1.001148507457920e+001
0	 8.133340000006532e+000	 8.666700000016665e+000	 1.001051223309062e+001
0	 8.200010000009550e+000	 8.000000000000002e+000	 1.002004891684777e+001
0	 8.200010000009550e+000	 8.066670000003319e+000	 1.001895083922165e+001
0	 8.200010000009549e+000	 8.133340000006534e+000	 1.001787877362802e+001
0	 8.200010000009552e+000	 8.200010000009552e+000	 1.001683095857356e+001
0	 8.200010000009552e+000	 8.266680000012267e+000	 1.001580563256506e+001
0	 8.200010000009547e+000	 8.333350000014583e+000	 1.001480103410917e+001
0	 8.200010000009549e+000	 8.400020000016403e+000	 1.001381540171266e+001
0	 8.200010000009550e+000	 8.466690000017618e+000	 1.001284697388221e+001
0	 8.200010000009552e+000	 8.533360000018137e+000	 1.001189398912457e+001
0	 8.200010000009549e+000	 8.600030000017851e+000	 1.001095468594643e+001
0	 8.200010000009550e+000	 8.666700000016666e+000	 1.001002730285453e+001
0	 8.266680000012265e+000	 8.000000000000002e+000	 1.001906146042580e+001
0	 8.266680000012267e+000	 8.066670000003317e+000	 1.001802022933268e+001
0	 8.266680000012267e+000	 8.133340000006534e+000	 1.001700341262096e+001
0	 8.266680000012267e+000	 8.200010000009550e+000	 1.001600931754676e+001
0	 8.266680000012267e+000	 8.266680000012268e+000	 1.001503625136619e+001
0	 8.266680000012265e+000	 8.333350000014582e+000	 1.001408252133544e+001
0	 8.266680000012267e+000	 8.400020000016401e+000	 1.001314643471058e+001
0	 8.266680000012267e+000	 8.466690000017616e+000	 1.001222629874780e+001
0	 8.266680000012263e+000	 8.533360000018133e+000	 1.001132042070320e+001
0	 8.266680000012267e+000	 8.600030000017851e+000	 1.001042710783293e+001
0	 8.266680000012265e+000	 8.666700000016668e+000	 1.000954466739311e+001
0	 8.333350000014580e+000	 7.999999999999999e+000	 1.001808476956454e+001
0	 8.333350000014583e+000	 8.066670000003319e+000	 1.001709940987903e+001
0	 8.333350000014583e+000	 8.133340000006534e+000	 1.001613691897060e+001
0	 8.333350000014582e+000	 8.200010000009552e+000	 1.001519567101773e+001
0	 8.333350000014583e+000	 8.266680000012270e+000	 1.001427404019893e+001
0	 8.333350000014583e+000	 8.333350000014583e+000	 1.001337040069271e+001
0	 8.333350000014582e+000	 8.400020000016397e+000	 1.001248312667757e+001
0	 8.333350000014585e+000	 8.466690000017618e+000	 1.001161059233201e+001
0	 8.333350000014583e+000	 8.533360000018133e+000	 1.001075117183454e+001
0	 8.333350000014580e+000	 8.600030000017851e+000	 1.000990323936366e+001
0	 8.333350000014583e+000	 8.666700000016668e+000	 1.000906516909790e+001
0	 8.400020000016399e+000	 7.999999999999999e+000	 1.001712045598267e+001
0	 8.400020000016397e+000	 8.066670000003317e+000	 1.001618989544739e+001
0	 8.400020000016397e+000	 8.133340000006532e+000	 1.001528071462035e+001
0	 8.400020000016401e+000	 8.200010000009552e+000	 1.001439135277539e+001
0	 8.400020000016399e+000	 8.266680000012267e+000	 1.001352024918632e+001
0	 8.400020000016399e+000	 8.333350000014582e+000	 1.001266584312699e+001
0	 8.400020000016397e+000	 8.400020000016399e+000	 1.001182657387122e+001
0	 8.400020000016403e+000	 8.466690000017620e+000	 1.001100088069286e+001
0	 8.400020000016397e+000	 8.533360000018133e+000	 1.001018720286572e+001
0	 8.400020000016403e+000	 8.600030000017851e+000	 1.000938397966364e+001
0	 8.400020000016401e+000	 8.666700000016666e+000	 1.000858965036046e+001
0	 8.466690000017618e+000	 8.000000000000000e+000	 1.001617013139889e+001
0	 8.466690000017614e+000	 8.066670000003317e+000	 1.001529320062442e+001
0	 8.466690000017618e+000	 8.133340000006536e+000	 1.001443622151361e+001
0	 8.466690000017616e+000	 8.200010000009552e+000	 1.001359769660857e+001
0	 8.466690000017616e+000	 8.266680000012268e+000	 1.001277612845141e+001
0	 8.466690000017618e+000	 8.333350000014585e+000	 1.001197001958425e+001
0	 8.466690000017616e+000	 8.400020000016401e+000	 1.001117787254918e+001
0	 8.466690000017616e+000	 8.466690000017618e+000	 1.001039818988836e+001
0	 8.466690000017614e+000	 8.533360000018133e+000	 1.000962947414386e+001
0	 8.466690000017614e+000	 8.600030000017849e+000	 1.000887022785781e+001
0	 8.466690000017616e+000	 8.666700000016668e+000	 1.000811895357235e+001
0	 8.533360000018131e+000	 8.000000000000000e+000	 1.001523540753189e+001
0	 8.533360000018131e+000	 8.066670000003317e+000	 1.001441083999683e+001
0	 8.533360000018133e+000	 8.133340000006532e+000	 1.001360486159380e+001
0	 8.533360000018130e+000	 8.200010000009549e+000	 1.001281603630617e+001
0	 8.533360000018130e+000	 8.266680000012267e+000	 1.001204292811726e+001
0	 8.533360000018133e+000	 8.333350000014585e+000	 1.001128410101045e+001
0	 8.533360000018131e+000	 8.400020000016403e+000	 1.001053811896907e+001
0	 8.533360000018131e+000	 8.466690000017616e+000	 1.000980354597651e+001
0	 8.533360000018131e+000	 8.533360000018131e+000	 1.000907894601608e+001
0	 8.533360000018133e+000	 8.600030000017849e+000	 1.000836288307117e+001
0	 8.533360000018131e+000	 8.666700000016665e+000	 1.000765392112511e+001
0	 8.600030000017847e+000	 8.000000000000000e+000	 1.001431789610034e+001
0	 8.600030000017847e+000	 8.066670000003315e+000	 1.001354432815128e+001
0	 8.600030000017847e+000	 8.133340000006534e+000	 1.001278805680433e+001
0	 8.600030000017847e+000	 8.200010000009550e+000	 1.001204770565704e+001
0	 8.600030000017851e+000	 8.266680000012268e+000	 1.001132189830694e+001
0	 8.600030000017847e+000	 8.333350000014583e+000	 1.001060925835159e+001
0	 8.600030000017847e+000	 8.400020000016399e+000	 1.000990840938853e+001
0	 8.600030000017851e+000	 8.466690000017620e+000	 1.000921797501534e+001
0	 8.600030000017847e+000	 8.533360000018135e+000	 1.000853657882955e+001
0	 8.600030000017847e+000	 8.600030000017847e+000	 1.000786284442869e+001
0	 8.600030000017847e+000	 8.666700000016668e+000	 1.000719539541032e+001
0	 8.666700000016666e+000	 7.999999999999999e+000	 1.001341920882295e+001
0	 8.666700000016666e+000	 8.066670000003317e+000	 1.001269517967448e+001
0	 8.666700000016666e+000	 8.133340000006534e+000	 1.001198722908859e+001
0	 8.666700000016666e+000	 8.200010000009550e+000	 1.001129403845004e+001
0	 8.666700000016666e+000	 8.266680000012268e+000	 1.001061428914348e+001
0	 8.666700000016666e+000	 8.333350000014585e+000	 1.000994666255365e+001
0	 8.666700000016668e+000	 8.400020000016401e+000	 1.000928984006520e+001
0	 8.666700000016666e+000	 8.466690000017618e+000	 1.000864250306287e+001
0	 8.666700000016665e+000	 8.533360000018133e+000	 1.000800333293135e+001
0	 8.666700000016666e+000	 8.600030000017851e+000	 1.000737101105533e+001
0	 8.666700000016666e+000	 8.666700000016666e+000	 1.000674421881951e+001
0	 8.000000000000000e+000	 8.666700000016666e+000	 1.001148560832054e+001
0	 8.000000000000000e+000	 8.733360002791905e+000	 1.001045389761635e+001
0	 7.999999999999999e+000	 8.800020022230555e+000	 1.000947317675552e+001
0	 8.000000000000002e+000	 8.866680074997042e+000	 1.000854118830903e+001
0	 8.000000000000002e+000	 8.933340177755778e+000	 1.000765567470340e+001
0	 8.000000000000002e+000	 9.000000347171184e+000	 1.000681437822065e+001
0	 8.000000000000000e+000	 9.066660599907667e+000	 1.000601504099837e+001
0	 8.000000000000000e+000	 9.133320952629655e+000	 1.000525540502962e+001
0	 7.999999999999999e+000	 9.199981422001558e+000	 1.000453321216302e+001
0	 8.000000000000000e+000	 9.266642024687796e+000	 1.000384620410273e+001
0	 7.999999999999999e+000	 9.333302777352781e+000	 1.000319212240840e+001
0	 8.066670000003313e+000	 8.666700000016666e+000	 1.001099861570981e+001
0	 8.066670000003317e+000	 8.733360002791903e+000	 1.001001155309137e+001
0	 8.066670000003317e+000	 8.800020022230557e+000	 1.000907329024861e+001
0	 8.066670000003317e+000	 8.866680074997042e+000	 1.000818165356499e+001
0	 8.066670000003317e+000	 8.933340177755778e+000	 1.000733446928578e+001
0	 8.066670000003319e+000	 9.000000347171184e+000	 1.000652956351806e+001
0	 8.066670000003317e+000	 9.066660599907669e+000	 1.000576476223071e+001
0	 8.066670000003319e+000	 9.133320952629656e+000	 1.000503789125438e+001
0	 8.066670000003319e+000	 9.199981422001562e+000	 1.000434677628162e+001
0	 8.066670000003317e+000	 9.266642024687796e+000	 1.000368924286670e+001
0	 8.066670000003317e+000	 9.333302777352781e+000	 1.000306311642571e+001
0	 8.133340000006532e+000	 8.666700000016665e+000	 1.001051223309062e+001
0	 8.133340000006532e+000	 8.733360002791903e+000	 1.000956942195014e+001
0	 8.133340000006530e+000	 8.800020022230552e+000	 1.000867320984780e+001
0	 8.133340000006534e+000	 8.866680074997040e+000	 1.000782150825994e+001
0	 8.133340000006534e+000	 8.933340177755776e+000	 1.000701222853101e+001
0	 8.133340000006534e+000	 9.000000347171183e+000	 1.000624328187349e+001
0	 8.133340000006534e+000	 9.066660599907667e+000	 1.000551257936796e+001
0	 8.133340000006534e+000	 9.133320952629655e+000	 1.000481803196305e+001
0	 8.133340000006532e+000	 9.199981422001560e+000	 1.000415755047545e+001
0	 8.133340000006534e+000	 9.266642024687798e+000	 1.000352904558998e+001
0	 8.133340000006532e+000	 9.333302777352783e+000	 1.000293042785949e+001
0	 8.200010000009550e+000	 8.666700000016666e+000	 1.001002730285453e+001
0	 8.200010000009549e+000	 8.733360002791905e+000	 1.000912829958156e+001
0	 8.200010000009549e+000	 8.800020022230557e+000	 1.000827369889573e+001
0	 8.200010000009554e+000	 8.866680074997042e+000	 1.000746149864675e+001
0	 8.200010000009552e+000	 8.933340177755779e+000	 1.000668969655856e+001
0	 8.200010000009550e+000	 9.000000347171181e+000	 1.000595629022945e+001
0	 8.200010000009549e+000	 9.066660599907669e+000	 1.000525927713199e+001
0	 8.200010000009550e+000	 9.133320952629656e+000	 1.000459665461302e+001
0	 8.200010000009552e+000	 9.199981422001558e+000	 1.000396641989373e+001
0	 8.200010000009547e+000	 9.266642024687796e+000	 1.000336657006957e+001
0	 8.200010000009550e+000	 9.333302777352781e+000	 1.000279510211031e+001
0	 8.266680000012265e+000	 8.666700000016668e+000	 1.000954466739311e+001
0	 8.266680000012267e+000	 8.733360002791901e+000	 1.000868898137450e+001
0	 8.266680000012267e+000	 8.800020022230553e+000	 1.000787552073508e+001
0	 8.266680000012267e+000	 8.866680074997042e+000	 1.000710237097826e+001
0	 8.266680000012268e+000	 8.933340177755783e+000	 1.000636761748795e+001
0	 8.266680000012267e+000	 9.000000347171183e+000	 1.000566934552849e+001
0	 8.266680000012265e+000	 9.066660599907666e+000	 1.000500564024470e+001
0	 8.266680000012265e+000	 9.133320952629655e+000	 1.000437458666186e+001
0	 8.266680000012265e+000	 9.199981422001560e+000	 1.000377426968574e+001
0	 8.266680000012268e+000	 9.266642024687798e+000	 1.000320277410249e+001
0	 8.266680000012265e+000	 9.333302777352779e+000	 1.000265818457886e+001
0	 8.333350000014583e+000	 8.666700000016668e+000	 1.000906516909790e+001
0	 8.333350000014583e+000	 8.733360002791903e+000	 1.000825226271786e+001
0	 8.333350000014585e+000	 8.800020022230557e+000	 1.000747943870847e+001
0	 8.333350000014580e+000	 8.866680074997040e+000	 1.000674487150735e+001
0	 8.333350000014582e+000	 8.933340177755781e+000	 1.000604673543865e+001
0	 8.333350000014582e+000	 9.000000347171181e+000	 1.000538320471311e+001
0	 8.333350000014582e+000	 9.066660599907667e+000	 1.000475245342798e+001
0	 8.333350000014585e+000	 9.133320952629660e+000	 1.000415265556704e+001
0	 8.333350000014582e+000	 9.199981422001557e+000	 1.000358198500069e+001
0	 8.333350000014585e+000	 9.266642024687798e+000	 1.000303861548577e+001
0	 8.333350000014583e+000	 9.333302777352783e+000	 1.000252072066577e+001
0	 8.400020000016401e+000	 8.666700000016666e+000	 1.000858965036046e+001
0	 8.400020000016397e+000	 8.733360002791903e+000	 1.000781893900051e+001
0	 8.400020000016401e+000	 8.800020022230555e+000	 1.000708621615855e+001
0	 8.400020000016399e+000	 8.866680074997042e+000	 1.000638974648684e+001
0	 8.400020000016401e+000	 8.933340177755779e+000	 1.000572779453017e+001
0	 8.400020000016399e+000	 9.000000347171179e+000	 1.000509862472583e+001
0	 8.400020000016401e+000	 9.066660599907667e+000	 1.000450050140368e+001
0	 8.400020000016401e+000	 9.133320952629656e+000	 1.000393168878606e+001
0	 8.400020000016401e+000	 9.199981422001558e+000	 1.000339045098784e+001
0	 8.400020000016401e+000	 9.266642024687794e+000	 1.000287505201637e+001
0	 8.400020000016401e+000	 9.333302777352785e+000	 1.000238375577168e+001
0	 8.466690000017616e+000	 8.666700000016668e+000	 1.000811895357235e+001
0	 8.466690000017616e+000	 8.733360002791903e+000	 1.000738980561134e+001
0	 8.466690000017616e+000	 8.800020022230559e+000	 1.000669661642798e+001
0	 8.466690000017618e+000	 8.866680074997040e+000	 1.000603774216962e+001
0	 8.466690000017618e+000	 8.933340177755779e+000	 1.000541153888200e+001
0	 8.466690000017614e+000	 9.000000347171177e+000	 1.000481636250922e+001
0	 8.466690000017618e+000	 9.066660599907669e+000	 1.000425056889372e+001
0	 8.466690000017616e+000	 9.133320952629656e+000	 1.000371251377639e+001
0	 8.466690000017616e+000	 9.199981422001557e+000	 1.000320055279640e+001
0	 8.466690000017616e+000	 9.266642024687799e+000	 1.000271304149137e+001
0	 8.466690000017616e+000	 9.333302777352785e+000	 1.000224833529725e+001
0	 8.533360000018131e+000	 8.666700000016665e+000	 1.000765392112511e+001
0	 8.533360000018131e+000	 8.733360002791899e+000	 1.000696565793923e+001
0	 8.533360000018131e+000	 8.800020022230557e+000	 1.000631140285941e+001
0	 8.533360000018133e+000	 8.866680074997042e+000	 1.000568960480855e+001
0	 8.533360000018133e+000	 8.933340177755781e+000	 1.000509871261364e+001
0	 8.533360000018131e+000	 9.000000347171181e+000	 1.000453717500574e+001
0	 8.533360000018131e+000	 9.066660599907666e+000	 1.000400344061998e+001
0	 8.533360000018131e+000	 9.133320952629658e+000	 1.000349595799552e+001
0	 8.533360000018131e+000	 9.199981422001558e+000	 1.000301317557566e+001
0	 8.533360000018131e+000	 9.266642024687798e+000	 1.000255354170772e+001
0	 8.533360000018133e+000	 9.333302777352781e+000	 1.000211550464310e+001
0	 8.600030000017847e+000	 8.666700000016668e+000	 1.000719539541032e+001
0	 8.600030000017851e+000	 8.733360002791905e+000	 1.000654729137308e+001
0	 8.600030000017849e+000	 8.800020022230555e+000	 1.000593133879548e+001
0	 8.600030000017849e+000	 8.866680074997042e+000	 1.000534608065646e+001
0	 8.600030000017849e+000	 8.933340177755779e+000	 1.000479005984459e+001
0	 8.600030000017847e+000	 9.000000347171183e+000	 1.000426181915796e+001
0	 8.600030000017846e+000	 9.066660599907667e+000	 1.000375990130430e+001
0	 8.600030000017849e+000	 9.133320952629656e+000	 1.000328284890098e+001
0	 8.600030000017847e+000	 9.199981422001558e+000	 1.000282920447486e+001
0	 8.600030000017847e+000	 9.266642024687796e+000	 1.000239751046246e+001
0	 8.600030000017849e+000	 9.333302777352783e+000	 1.000198630920991e+001
0	 8.666700000016666e+000	 8.666700000016666e+000	 1.000674421881951e+001
0	 8.666700000016666e+000	 8.733360002791901e+000	 1.000613550130175e+001
0	 8.666700000016665e+000	 8.800020022230553e+000	 1.000555718757884e+001
0	 8.666700000016666e+000	 8.866680074997039e+000	 1.000500791596625e+001
0	 8.666700000016665e+000	 8.933340177755778e+000	 1.000448632469431e+001
0	 8.666700000016665e+000	 9.000000347171181e+000	 1.000399105190838e+001
0	 8.666700000016666e+000	 9.066660599907667e+000	 1.000352073566863e+001
0	 8.666700000016666e+000	 9.133320952629655e+000	 1.000307401395021e+001
0	 8.666700000016668e+000	 9.199981422001558e+000	 1.000264952464321e+001
0	 8.666700000016668e+000	 9.266642024687798e+000	 1.000224590555259e+001
0	 8.666700000016666e+000	 9.333302777352783e+000	 1.000186179439831e+001
0	 7.999999999999999e+000	 9.333302777352781e+000	 1.000319212240840e+001
0	 8.000000000000000e+000	 9.399973674588175e+000	 1.000258877412815e+001
0	 8.000000000000000e+000	 9.466644621844621e+000	 1.000205406568626e+001
0	 8.000000000000000e+000	 9.533315502449998e+000	 1.000158560137890e+001
0	 8.000000000000000e+000	 9.599986199732197e+000	 1.000118098693761e+001
0	 8.000000000000000e+000	 9.666656597019093e+000	 1.000083782952933e+001
0	 8.000000000000000e+000	 9.733326577638575e+000	 1.000055373775639e+001
0	 8.000000000000000e+000	 9.799996024918524e+000	 1.000032632165664e+001
0	 7.999999999999997e+000	 9.866664822186822e+000	 1.000015319270354e+001
0	 8.000000000000000e+000	 9.933332852771352e+000	 1.000003196380634e+001
0	 8.000000000000000e+000	 1.000000000000000e+001	 9.999960249310298e+000
0	 8.066670000003317e+000	 9.333302777352781e+000	 1.000306311642571e+001
0	 8.066670000003319e+000	 9.399973674588175e+000	 1.000248552316953e+001
0	 8.066670000003319e+000	 9.466644621844621e+000	 1.000197368988881e+001
0	 8.066670000003317e+000	 9.533315502449998e+000	 1.000152531875331e+001
0	 8.066670000003317e+000	 9.599986199732198e+000	 1.000113811330790e+001
0	 8.066670000003319e+000	 9.666656597019097e+000	 1.000080977847268e+001
0	 8.066670000003315e+000	 9.733326577638573e+000	 1.000053802054302e+001
0	 8.066670000003319e+000	 9.799996024918523e+000	 1.000032054718960e+001
0	 8.066670000003315e+000	 9.866664822186820e+000	 1.000015506745853e+001
0	 8.066670000003313e+000	 9.933332852771352e+000	 1.000003929177159e+001
0	 8.066670000003317e+000	 1.000000000000000e+001	 9.999970931926358e+000
0	 8.133340000006532e+000	 9.333302777352783e+000	 1.000293042785948e+001
0	 8.133340000006536e+000	 9.399973674588177e+000	 1.000237815729225e+001
0	 8.133340000006532e+000	 9.466644621844621e+000	 1.000188879712926e+001
0	 8.133340000006538e+000	 9.533315502450003e+000	 1.000146015066706e+001
0	 8.133340000006530e+000	 9.599986199732193e+000	 1.000109002251746e+001
0	 8.133340000006530e+000	 9.666656597019093e+000	 1.000077621860785e+001
0	 8.133340000006530e+000	 9.733326577638573e+000	 1.000051654618099e+001
0	 8.133340000006532e+000	 9.799996024918523e+000	 1.000030881379523e+001
0	 8.133340000006532e+000	 9.866664822186820e+000	 1.000015083132454e+001
0	 8.133340000006532e+000	 9.933332852771351e+000	 1.000004040995881e+001
0	 8.133340000006534e+000	 1.000000000000000e+001	 9.999975362203754e+000
0	 8.200010000009550e+000	 9.333302777352781e+000	 1.000279510211031e+001
0	 8.200010000009549e+000	 9.399973674588175e+000	 1.000226781313806e+001
0	 8.200010000009550e+000	 9.466644621844621e+000	 1.000180060758150e+001
0	 8.200010000009550e+000	 9.533315502450000e+000	 1.000139139311752e+001
0	 8.200010000009550e+000	 9.599986199732198e+000	 1.000103807867909e+001
0	 8.200010000009549e+000	 9.666656597019093e+000	 1.000073857445496e+001
0	 8.200010000009550e+000	 9.733326577638573e+000	 1.000049079189009e+001
0	 8.200010000009550e+000	 9.799996024918524e+000	 1.000029264368531e+001
0	 8.200010000009550e+000	 9.866664822186824e+000	 1.000014204379778e+001
0	 8.200010000009549e+000	 9.933332852771352e+000	 1.000003690744085e+001
0	 8.200010000009550e+000	 1.000000000000000e+001	 9.999975151084488e+000
0	 8.266680000012265e+000	 9.333302777352779e+000	 1.000265818457886e+001
0	 8.266680000012265e+000	 9.399973674588175e+000	 1.000215562734877e+001
0	 8.266680000012270e+000	 9.466644621844624e+000	 1.000171034141936e+001
0	 8.266680000012268e+000	 9.533315502450002e+000	 1.000132034210216e+001
0	 8.266680000012268e+000	 9.599986199732197e+000	 1.000098364590548e+001
0	 8.266680000012265e+000	 9.666656597019090e+000	 1.000069827053424e+001
0	 8.266680000012267e+000	 9.733326577638577e+000	 1.000046223489012e+001
0	 8.266680000012265e+000	 9.799996024918521e+000	 1.000027355907172e+001
0	 8.266680000012267e+000	 9.866664822186824e+000	 1.000013026437445e+001
0	 8.266680000012268e+000	 9.933332852771356e+000	 1.000003037329076e+001
0	 8.266680000012267e+000	 1.000000000000000e+001	 9.999971909510521e+000
0	 8.333350000014583e+000	 9.333302777352783e+000	 1.000252072066576e+001
0	 8.333350000014582e+000	 9.399973674588175e+000	 1.000204273656609e+001
0	 8.333350000014582e+000	 9.466644621844619e+000	 1.000161921881672e+001
0	 8.333350000014583e+000	 9.533315502449998e+000	 1.000124829361836e+001
0	 8.333350000014582e+000	 9.599986199732195e+000	 1.000092808830940e+001
0	 8.333350000014585e+000	 9.666656597019093e+000	 1.000065673136572e+001
0	 8.333350000014582e+000	 9.733326577638572e+000	 1.000043235240091e+001
0	 8.333350000014583e+000	 9.799996024918523e+000	 1.000025308216626e+001
0	 8.333350000014582e+000	 9.866664822186824e+000	 1.000011705255083e+001
0	 8.333350000014583e+000	 9.933332852771356e+000	 1.000002239658167e+001
0	 8.333350000014583e+000	 1.000000000000000e+001	 9.999967248423888e+000
0	 8.400020000016401e+000	 9.333302777352785e+000	 1.000238375577168e+001
0	 8.400020000016401e+000	 9.399973674588177e+000	 1.000193027743177e+001
0	 8.400020000016399e+000	 9.466644621844623e+000	 1.000152845994742e+001
0	 8.400020000016401e+000	 9.533315502450000e+000	 1.000117654366355e+001
0	 8.400020000016397e+000	 9.599986199732197e+000	 1.000087277000360e+001
0	 8.400020000016401e+000	 9.666656597019093e+000	 1.000061538146963e+001
0	 8.400020000016399e+000	 9.733326577638575e+000	 1.000040262164224e+001
0	 8.400020000016401e+000	 9.799996024918524e+000	 1.000023273518074e+001
0	 8.400020000016399e+000	 9.866664822186820e+000	 1.000010396782316e+001
0	 8.400020000016399e+000	 9.933332852771351e+000	 1.000001456638647e+001
0	 8.400020000016399e+000	 1.000000000000000e+001	 9.999962778766612e+000
0	 8.466690000017616e+000	 9.333302777352785e+000	 1.000224833529724e+001
0	 8.466690000017620e+000	 9.399973674588177e+000	 1.000181938658762e+001
0	 8.466690000017616e+000	 9.466644621844623e+000	 1.000143928498539e+001
0	 8.466690000017614e+000	 9.533315502450002e+000	 1.000110638823508e+001
0	 8.466690000017612e+000	 9.599986199732195e+000	 1.000081905510081e+001
0	 8.466690000017614e+000	 9.666656597019093e+000	 1.000057564536603e+001
0	 8.466690000017616e+000	 9.733326577638575e+000	 1.000037451983388e+001
0	 8.466690000017616e+000	 9.799996024918524e+000	 1.000021404032700e+001
0	 8.466690000017612e+000	 9.866664822186820e+000	 1.000009256968775e+001
0	 8.466690000017616e+000	 9.933332852771352e+000	 1.000000847177824e+001
0	 8.466690000017616e+000	 1.000000000000000e+001	 9.999960111480659e+000
0	 8.533360000018133e+000	 9.333302777352781e+000	 1.000211550464310e+001
0	 8.533360000018131e+000	 9.399973674588177e+000	 1.000171120067532e+001
0	 8.533360000018131e+000	 9.466644621844617e+000	 1.000135291410442e+001
0	 8.533360000018131e+000	 9.533315502450000e+000	 1.000103912333043e+001
0	 8.533360000018131e+000	 9.599986199732197e+000	 1.000076830771377e+001
0	 8.533360000018131e+000	 9.666656597019093e+000	 1.000053894757514e+001
0	 8.533360000018135e+000	 9.733326577638573e+000	 1.000034952419568e+001
0	 8.533360000018133e+000	 9.799996024918524e+000	 1.000019851981683e+001
0	 8.533360000018130e+000	 9.866664822186822e+000	 1.000008441764075e+001
0	 8.533360000018131e+000	 9.933332852771356e+000	 1.000000570183004e+001
0	 8.533360000018131e+000	 1.000000000000000e+001	 9.999960857508192e+000
0	 8.600030000017849e+000	 9.333302777352783e+000	 1.000198630920990e+001
0	 8.600030000017847e+000	 9.399973674588178e+000	 1.000160685633668e+001
0	 8.600030000017849e+000	 9.466644621844621e+000	 1.000127056747841e+001
0	 8.600030000017849e+000	 9.533315502450003e+000	 1.000097604494695e+001
0	 8.600030000017849e+000	 9.599986199732197e+000	 1.000072189195524e+001
0	 8.600030000017847e+000	 9.666656597019093e+000	 1.000050671261708e+001
0	 8.600030000017847e+000	 9.733326577638575e+000	 1.000032911194735e+001
0	 8.600030000017849e+000	 9.799996024918521e+000	 1.000018769586209e+001
0	 8.600030000017849e+000	 9.866664822186822e+000	 1.000008107117844e+001
0	 8.600030000017846e+000	 9.933332852771352e+000	 1.000000784561478e+001
0	 8.600030000017849e+000	 1.000000000000000e+001	 9.999966627791009e+000
0	 8.666700000016666e+000	 9.333302777352783e+000	 1.000186179439831e+001
0	 8.666700000016668e+000	 9.399973674588178e+000	 1.000150749021342e+001
0	 8.666700000016666e+000	 9.466644621844619e+000	 1.000119346528122e+001
0	 8.666700000016668e+000	 9.533315502450000e+000	 1.000091844908211e+001
0	 8.666700000016665e+000	 9.599986199732197e+000	 1.000068117193796e+001
0	 8.666700000016666e+000	 9.666656597019095e+000	 1.000048036501195e+001
0	 8.666700000016668e+000	 9.733326577638577e+000	 1.000031476030881e+001
0	 8.666700000016668e+000	 9.799996024918521e+000	 1.000018309067459e+001
0	 8.666700000016666e+000	 9.866664822186822e+000	 1.000008408979705e+001
0	 8.666700000016666e+000	 9.933332852771352e+000	 1.000001649220557e+001
0	 8.666700000016666e+000	 1.000000000000000e+001	 9.999979033271172e+000
0	 8.666700000016666e+000	 0.000000000000000e+000	 9.883436916038288e+000
0	 8.666700000016668e+000	 6.666714722864757e-002	 9.883540587167925e+000
0	 8.666700000016665e+000	 1.333351778131789e-001	 9.883753913471278e+000
0	 8.666700000016668e+000	 2.000039750814772e-001	 9.884077981266790e+000
0	 8.666700000016666e+000	 2.666734223614256e-001	 9.884513878699073e+000
0	 8.666700000016666e+000	 3.333434029809069e-001	 9.885062695738759e+000
0	 8.666700000016668e+000	 4.000138002678044e-001	 9.885725524182362e+000
0	 8.666700000016665e+000	 4.666844975500011e-001	 9.886503457652271e+000
0	 8.666700000016666e+000	 5.333553781553801e-001	 9.887397591596734e+000
0	 8.666700000016666e+000	 6.000263254118248e-001	 9.888409023289860e+000
0	 8.666700000016668e+000	 6.666972226472177e-001	 9.889538851831732e+000
0	 8.733360002791903e+000	 0.000000000000000e+000	 9.873840733768503e+000
0	 8.733360002791903e+000	 6.666714722864754e-002	 9.873943568987118e+000
0	 8.733360002791905e+000	 1.333351778131790e-001	 9.874159509445738e+000
0	 8.733360002791903e+000	 2.000039750814772e-001	 9.874489551934564e+000
0	 8.733360002791899e+000	 2.666734223614254e-001	 9.874934695063617e+000
0	 8.733360002791903e+000	 3.333434029809069e-001	 9.875495939262557e+000
0	 8.733360002791901e+000	 4.000138002678044e-001	 9.876174286780607e+000
0	 8.733360002791903e+000	 4.666844975500011e-001	 9.876970741686492e+000
0	 8.733360002791903e+000	 5.333553781553803e-001	 9.877886309868403e+000
0	 8.733360002791903e+000	 6.000263254118247e-001	 9.878921999034093e+000
0	 8.733360002791901e+000	 6.666972226472175e-001	 9.880078818710928e+000
0	 8.800020022230555e+000	 0.000000000000000e+000	 9.864128298693661e+000
0	 8.800020022230559e+000	 6.666714722864756e-002	 9.864227338536985e+000
0	 8.800020022230555e+000	 1.333351778131790e-001	 9.864442930779283e+000
0	 8.800020022230553e+000	 2.000039750814773e-001	 9.864775987918566e+000
0	 8.800020022230553e+000	 2.666734223614256e-001	 9.865227424270957e+000
0	 8.800020022230555e+000	 3.333434029809069e-001	 9.865798155970479e+000
0	 8.800020022230555e+000	 4.000138002678044e-001	 9.866489100968991e+000
0	 8.800020022230553e+000	 4.666844975500011e-001	 9.867301179036156e+000
0	 8.800020022230555e+000	 5.333553781553803e-001	 9.868235311759372e+000
0	 8.800020022230557e+000	 6.000263254118248e-001	 9.869292422543861e+000
0	 8.800020022230555e+000	 6.666972226472178e-001	 9.870473436612759e+000
0	 8.866680074997039e+000	 0.000000000000000e+000	 9.854275161632321e+000
0	 8.866680074997042e+000	 6.666714722864756e-002	 9.854368324166330e+000
0	 8.866680074997039e+000	 1.333351778131790e-001	 9.854581526802793e+000
0	 8.866680074997039e+000	 2.000039750814772e-001	 9.854915602986866e+000
0	 8.866680074997042e+000	 2.666734223614256e-001	 9.855371387985185e+000
0	 8.866680074997037e+000	 3.333434029809068e-001	 9.855949718885666e+000
0	 8.866680074997040e+000	 4.000138002678043e-001	 9.856651434597449e+000
0	 8.866680074997037e+000	 4.666844975500011e-001	 9.857477375850760e+000
0	 8.866680074997040e+000	 5.333553781553804e-001	 9.858428385197025e+000
0	 8.866680074997040e+000	 6.000263254118248e-001	 9.859505307008819e+000
0	 8.866680074997040e+000	 6.666972226472177e-001	 9.860708987479976e+000
0	 8.933340177755776e+000	 0.000000000000000e+000	 9.844256873223779e+000
0	 8.933340177755774e+000	 6.666714722864754e-002	 9.844342954041771e+000
0	 8.933340177755776e+000	 1.333351778131789e-001	 9.844552646662717e+000
0	 8.933340177755778e+000	 2.000039750814772e-001	 9.844886710721516e+000
0	 8.933340177755778e+000	 2.666734223614256e-001	 9.845345907683477e+000
0	 8.933340177755776e+000	 3.333434029809069e-001	 9.845931000844098e+000
0	 8.933340177755779e+000	 4.000138002678044e-001	 9.846642755329002e+000
0	 8.933340177755776e+000	 4.666844975500011e-001	 9.847481938093866e+000
0	 8.933340177755774e+000	 5.333553781553801e-001	 9.848449317924413e+000
0	 8.933340177755778e+000	 6.000263254118247e-001	 9.849545665436454e+000
0	 8.933340177755774e+000	 6.666972226472175e-001	 9.850771753076005e+000
0	 9.000000347171181e+000	 0.000000000000000e+000	 9.834048983928071e+000
0	 9.000000347171181e+000	 6.666714722864757e-002	 9.834127656147794e+000
0	 9.000000347171179e+000	 1.333351778131790e-001	 9.834333639321113e+000
0	 9.000000347171177e+000	 2.000039750814772e-001	 9.834667624518593e+000
0	 9.000000347171177e+000	 2.666734223614256e-001	 9.835130304656056e+000
0	 9.000000347171181e+000	 3.333434029809069e-001	 9.835722374494470e+000
0	 9.000000347171177e+000	 4.000138002678043e-001	 9.836444530639835e+000
0	 9.000000347171177e+000	 4.666844975500010e-001	 9.837297471543129e+000
0	 9.000000347171181e+000	 5.333553781553801e-001	 9.838281897500259e+000
0	 9.000000347171179e+000	 6.000263254118249e-001	 9.839398510652201e+000
0	 9.000000347171181e+000	 6.666972226472179e-001	 9.840648014984975e+000
0	 9.066660599907666e+000	 0.000000000000000e+000	 9.823627044025997e+000
0	 9.066660599907666e+000	 6.666714722864754e-002	 9.823698858286688e+000
0	 9.066660599907666e+000	 1.333351778131789e-001	 9.823901853555643e+000
0	 9.066660599907667e+000	 2.000039750814773e-001	 9.824236657588173e+000
0	 9.066660599907667e+000	 2.666734223614256e-001	 9.824703900006234e+000
0	 9.066660599907666e+000	 3.333434029809069e-001	 9.825304212298299e+000
0	 9.066660599907666e+000	 4.000138002678044e-001	 9.826038227819241e+000
0	 9.066660599907666e+000	 4.666844975500011e-001	 9.826906581790286e+000
0	 9.066660599907666e+000	 5.333553781553800e-001	 9.827909911299001e+000
0	 9.066660599907667e+000	 6.000263254118249e-001	 9.829048855299323e+000
0	 9.066660599907666e+000	 6.666972226472179e-001	 9.830324054611660e+000
0	 9.133320952629653e+000	 0.000000000000000e+000	 9.812966603619099e+000
0	 9.133320952629653e+000	 6.666714722864756e-002	 9.813032988078602e+000
0	 9.133320952629653e+000	 1.333351778131790e-001	 9.813234637959550e+000
0	 9.133320952629653e+000	 2.000039750814772e-001	 9.813572122954360e+000
0	 9.133320952629651e+000	 2.666734223614255e-001	 9.814046014650407e+000
0	 9.133320952629653e+000	 3.333434029809069e-001	 9.814656886529878e+000
0	 9.133320952629655e+000	 4.000138002678045e-001	 9.815405313969629e+000
0	 9.133320952629655e+000	 4.666844975500011e-001	 9.816291874241193e+000
0	 9.133320952629653e+000	 5.333553781553803e-001	 9.817317146510698e+000
0	 9.133320952629653e+000	 6.000263254118247e-001	 9.818481711838965e+000
0	 9.133320952629653e+000	 6.666972226472175e-001	 9.819786153181552e+000
0	 9.199981422001557e+000	 0.000000000000000e+000	 9.802043212629691e+000
0	 9.199981422001557e+000	 6.666714722864754e-002	 9.802106472961549e+000
0	 9.199981422001555e+000	 1.333351778131789e-001	 9.802309340941694e+000
0	 9.199981422001557e+000	 2.000039750814773e-001	 9.802652333455262e+000
0	 9.199981422001557e+000	 2.666734223614256e-001	 9.803135969318040e+000
0	 9.199981422001553e+000	 3.333434029809068e-001	 9.803760769276268e+000
0	 9.199981422001555e+000	 4.000138002678044e-001	 9.804527256006548e+000
0	 9.199981422001553e+000	 4.666844975500012e-001	 9.805435954115792e+000
0	 9.199981422001557e+000	 5.333553781553803e-001	 9.806487390141157e+000
0	 9.199981422001553e+000	 6.000263254118247e-001	 9.807682092550186e+000
0	 9.199981422001555e+000	 6.666972226472177e-001	 9.809020591740790e+000
0	 9.266642024687792e+000	 0.000000000000000e+000	 9.790832420800834e+000
0	 9.266642024687792e+000	 6.666714722864757e-002	 9.790895740191356e+000
0	 9.266642024687791e+000	 1.333351778131789e-001	 9.791103310726522e+000
0	 9.266642024687792e+000	 2.000039750814772e-001	 9.791455601743012e+000
0	 9.266642024687792e+000	 2.666734223614256e-001	 9.791953084551697e+000
0	 9.266642024687791e+000	 3.333434029809069e-001	 9.792596232437372e+000
0	 9.266642024687792e+000	 4.000138002678044e-001	 9.793385520658704e+000
0	 9.266642024687792e+000	 4.666844975500012e-001	 9.794321426448127e+000
0	 9.266642024687791e+000	 5.333553781553803e-001	 9.795404429011859e+000
0	 9.266642024687792e+000	 6.000263254118247e-001	 9.796635009529917e+000
0	 9.266642024687791e+000	 6.666972226472177e-001	 9.798013651156252e+000
0	 9.333302777352781e+000	 0.000000000000000e+000	 9.779309777696367e+000
0	 9.333302777352785e+000	 6.666714722864757e-002	 9.779377216841766e+000
0	 9.333302777352785e+000	 1.333351778131789e-001	 9.779593895354111e+000
0	 9.333302777352783e+000	 2.000039750814772e-001	 9.779960240283783e+000
0	 9.333302777352779e+000	 2.666734223614256e-001	 9.780476680707027e+000
0	 9.333302777352783e+000	 3.333434029809070e-001	 9.781143647725846e+000
0	 9.333302777352783e+000	 4.000138002678045e-001	 9.781961574467903e+000
0	 9.333302777352783e+000	 4.666844975500011e-001	 9.782930896086359e+000
0	 9.333302777352781e+000	 5.333553781553801e-001	 9.784052049759954e+000
0	 9.333302777352785e+000	 6.000263254118248e-001	 9.785325474693005e+000
0	 9.333302777352783e+000	 6.666972226472177e-001	 9.786751612115499e+000
0	 8.666700000016668e+000	 6.666972226472177e-001	 9.889538851831734e+000
0	 8.666700000016666e+000	 7.333579753122049e-001	 9.890767257712421e+000
0	 8.666700000016668e+000	 8.000185779984418e-001	 9.892075321444324e+000
0	 8.666700000016666e+000	 8.666790473703454e-001	 9.893464958181545e+000
0	 8.666700000016666e+000	 9.333394000923322e-001	 9.894938082879959e+000
0	 8.666700000016665e+000	 9.999996528288188e-001	 9.896496610297211e+000
0	 8.666700000016665e+000	 1.066659822244222e+000	 9.898142454992716e+000
0	 8.666700000016668e+000	 1.133319925002959e+000	 9.899877531327686e+000
0	 8.666700000016666e+000	 1.199979977769445e+000	 9.901703753465084e+000
0	 8.666700000016666e+000	 1.266639997208098e+000	 9.903623035369682e+000
0	 8.666700000016668e+000	 1.333299999983334e+000	 9.905637290808034e+000
0	 8.733360002791901e+000	 6.666972226472175e-001	 9.880078818710929e+000
0	 8.733360002791901e+000	 7.333579753122047e-001	 9.881336534181546e+000
0	 8.733360002791903e+000	 8.000185779984418e-001	 9.882675782494344e+000
0	 8.733360002791901e+000	 8.666790473703453e-001	 9.884098334095446e+000
0	 8.733360002791901e+000	 9.333394000923322e-001	 9.885605959234557e+000
0	 8.733360002791901e+000	 9.999996528288190e-001	 9.887200427965041e+000
0	 8.733360002791901e+000	 1.066659822244222e+000	 9.888883510143829e+000
0	 8.733360002791899e+000	 1.133319925002958e+000	 9.890656975431512e+000
0	 8.733360002791903e+000	 1.199979977769445e+000	 9.892522593292295e+000
0	 8.733360002791901e+000	 1.266639997208098e+000	 9.894482132994002e+000
0	 8.733360002791901e+000	 1.333299999983334e+000	 9.896537363608074e+000
0	 8.800020022230555e+000	 6.666972226472178e-001	 9.870473436612759e+000
0	 8.800020022230553e+000	 7.333579753122048e-001	 9.871758193527041e+000
0	 8.800020022230557e+000	 8.000185779984420e-001	 9.873127381870816e+000
0	 8.800020022230553e+000	 8.666790473703454e-001	 9.874582642172344e+000
0	 8.800020022230559e+000	 9.333394000923323e-001	 9.876125614763243e+000
0	 8.800020022230557e+000	 9.999996528288190e-001	 9.877757939778471e+000
0	 8.800020022230553e+000	 1.066659822244222e+000	 9.879481257156344e+000
0	 8.800020022230553e+000	 1.133319925002959e+000	 9.881297206638545e+000
0	 8.800020022230555e+000	 1.199979977769445e+000	 9.883207427770083e+000
0	 8.800020022230555e+000	 1.266639997208098e+000	 9.885213559899361e+000
0	 8.800020022230553e+000	 1.333299999983334e+000	 9.887317242178105e+000
0	 8.866680074997040e+000	 6.666972226472177e-001	 9.860708987479976e+000
0	 8.866680074997040e+000	 7.333579753122049e-001	 9.862019724997289e+000
0	 8.866680074997040e+000	 8.000185779984416e-001	 9.863418650123219e+000
0	 8.866680074997040e+000	 8.666790473703453e-001	 9.864907288256571e+000
0	 8.866680074997044e+000	 9.333394000923324e-001	 9.866487164597363e+000
0	 8.866680074997040e+000	 9.999996528288191e-001	 9.868159804146872e+000
0	 8.866680074997039e+000	 1.066659822244222e+000	 9.869926731707572e+000
0	 8.866680074997040e+000	 1.133319925002959e+000	 9.871789471883176e+000
0	 8.866680074997040e+000	 1.199979977769445e+000	 9.873749549078628e+000
0	 8.866680074997040e+000	 1.266639997208098e+000	 9.875808487500121e+000
0	 8.866680074997042e+000	 1.333299999983334e+000	 9.877967811155061e+000
0	 8.933340177755774e+000	 6.666972226472175e-001	 9.850771753076005e+000
0	 8.933340177755776e+000	 7.333579753122049e-001	 9.852108617664744e+000
0	 8.933340177755776e+000	 8.000185779984416e-001	 9.853538117629084e+000
0	 8.933340177755776e+000	 8.666790473703450e-001	 9.855061678024999e+000
0	 8.933340177755776e+000	 9.333394000923323e-001	 9.856680723705898e+000
0	 8.933340177755774e+000	 9.999996528288190e-001	 9.858396679322754e+000
0	 8.933340177755778e+000	 1.066659822244222e+000	 9.860210969323978e+000
0	 8.933340177755778e+000	 1.133319925002959e+000	 9.862125017955503e+000
0	 8.933340177755776e+000	 1.199979977769445e+000	 9.864140249260752e+000
0	 8.933340177755778e+000	 1.266639997208098e+000	 9.866258087080636e+000
0	 8.933340177755778e+000	 1.333299999983334e+000	 9.868479955053600e+000
0	 9.000000347171181e+000	 6.666972226472179e-001	 9.840648014984975e+000
0	 9.000000347171177e+000	 7.333579753122046e-001	 9.842012360425937e+000
0	 9.000000347171181e+000	 8.000185779984416e-001	 9.843474314593992e+000
0	 9.000000347171179e+000	 8.666790473703456e-001	 9.845035216987037e+000
0	 9.000000347171177e+000	 9.333394000923322e-001	 9.846696406895404e+000
0	 9.000000347171179e+000	 9.999996528288189e-001	 9.848459223401767e+000
0	 9.000000347171179e+000	 1.066659822244222e+000	 9.850325005381237e+000
0	 9.000000347171181e+000	 1.133319925002959e+000	 9.852295091501308e+000
0	 9.000000347171175e+000	 1.199979977769445e+000	 9.854370820221867e+000
0	 9.000000347171181e+000	 1.266639997208098e+000	 9.856553529795239e+000
0	 9.000000347171179e+000	 1.333299999983334e+000	 9.858844558266112e+000
0	 9.066660599907666e+000	 6.666972226472179e-001	 9.830324054611660e+000
0	 9.066660599907667e+000	 7.333579753122049e-001	 9.831718442001455e+000
0	 9.066660599907667e+000	 8.000185779984419e-001	 9.833215771051519e+000
0	 9.066660599907667e+000	 8.666790473703456e-001	 9.834817310484702e+000
0	 9.066660599907664e+000	 9.333394000923322e-001	 9.836524328810038e+000
0	 9.066660599907666e+000	 9.999996528288190e-001	 9.838338094322737e+000
0	 9.066660599907667e+000	 1.066659822244222e+000	 9.840259875104209e+000
0	 9.066660599907664e+000	 1.133319925002959e+000	 9.842290939022048e+000
0	 9.066660599907667e+000	 1.199979977769445e+000	 9.844432553730067e+000
0	 9.066660599907666e+000	 1.266639997208098e+000	 9.846685986668225e+000
0	 9.066660599907666e+000	 1.333299999983334e+000	 9.849052505062728e+000
0	 9.133320952629653e+000	 6.666972226472175e-001	 9.819786153181552e+000
0	 9.133320952629651e+000	 7.333579753122048e-001	 9.821214350935984e+000
0	 9.133320952629651e+000	 8.000185779984417e-001	 9.822751016863336e+000
0	 9.133320952629649e+000	 8.666790473703453e-001	 9.824397363692535e+000
0	 9.133320952629655e+000	 9.333394000923322e-001	 9.826154603931583e+000
0	 9.133320952629653e+000	 9.999996528288191e-001	 9.828023949867635e+000
0	 9.133320952629649e+000	 1.066659822244222e+000	 9.830006613566955e+000
0	 9.133320952629653e+000	 1.133319925002959e+000	 9.832103806874915e+000
0	 9.133320952629651e+000	 1.199979977769445e+000	 9.834316741416027e+000
0	 9.133320952629651e+000	 1.266639997208098e+000	 9.836646628593906e+000
0	 9.133320952629653e+000	 1.333299999983334e+000	 9.839094679591323e+000
0	 9.199981422001555e+000	 6.666972226472177e-001	 9.809020591740788e+000
0	 9.199981422001560e+000	 7.333579753122049e-001	 9.810487575598275e+000
0	 9.199981422001557e+000	 8.000185779984418e-001	 9.812068581719149e+000
0	 9.199981422001553e+000	 8.666790473703452e-001	 9.813764781617646e+000
0	 9.199981422001557e+000	 9.333394000923324e-001	 9.815577346579429e+000
0	 9.199981422001555e+000	 9.999996528288189e-001	 9.817507447661617e+000
0	 9.199981422001555e+000	 1.066659822244222e+000	 9.819556255692742e+000
0	 9.199981422001557e+000	 1.133319925002959e+000	 9.821724941272754e+000
0	 9.199981422001557e+000	 1.199979977769445e+000	 9.824014674773084e+000
0	 9.199981422001553e+000	 1.266639997208097e+000	 9.826426626336570e+000
0	 9.199981422001555e+000	 1.333299999983334e+000	 9.828961965877497e+000
0	 9.266642024687791e+000	 6.666972226472177e-001	 9.798013651156252e+000
0	 9.266642024687791e+000	 7.333579753122047e-001	 9.799525604181190e+000
0	 9.266642024687792e+000	 8.000185779984417e-001	 9.801156995136708e+000
0	 9.266642024687791e+000	 8.666790473703453e-001	 9.802908969099724e+000
0	 9.266642024687792e+000	 9.333394000923320e-001	 9.804782670910582e+000
0	 9.266642024687792e+000	 9.999996528288190e-001	 9.806779245172992e+000
0	 9.266642024687794e+000	 1.066659822244222e+000	 9.808899836254019e+000
0	 9.266642024687789e+000	 1.133319925002959e+000	 9.811145588284136e+000
0	 9.266642024687791e+000	 1.199979977769445e+000	 9.813517645157214e+000
0	 9.266642024687794e+000	 1.266639997208098e+000	 9.816017150530497e+000
0	 9.266642024687792e+000	 1.333299999983334e+000	 9.818645247824616e+000
0	 9.333302777352783e+000	 6.666972226472177e-001	 9.786751612115497e+000
0	 9.333302777352783e+000	 7.333579753122046e-001	 9.788315924701665e+000
0	 9.333302777352783e+000	 8.000185779984417e-001	 9.790004786461818e+000
0	 9.333302777352781e+000	 8.666790473703453e-001	 9.791819330811048e+000
0	 9.333302777352781e+000	 9.333394000923320e-001	 9.793760690919680e+000
0	 9.333302777352783e+000	 9.999996528288190e-001	 9.795829999713238e+000
0	 9.333302777352785e+000	 1.066659822244222e+000	 9.798028389872478e+000
0	 9.333302777352785e+000	 1.133319925002959e+000	 9.800356993833356e+000
0	 9.333302777352785e+000	 1.199979977769445e+000	 9.802816943787063e+000
0	 9.333302777352785e+000	 1.266639997208098e+000	 9.805409371679996e+000
0	 9.333302777352785e+000	 1.333299999983334e+000	 9.808135409213790e+000
0	 8.666700000016668e+000	 1.333299999983334e+000	 9.905637290808036e+000
0	 8.666700000016668e+000	 1.399969999982150e+000	 9.907720896698681e+000
0	 8.666700000016666e+000	 1.466639999981866e+000	 9.909848442312745e+000
0	 8.666700000016666e+000	 1.533309999982383e+000	 9.912023087960803e+000
0	 8.666700000016665e+000	 1.599979999983599e+000	 9.914247993953444e+000
0	 8.666700000016665e+000	 1.666649999985416e+000	 9.916526320601230e+000
0	 8.666700000016666e+000	 1.733319999987733e+000	 9.918861228214768e+000
0	 8.666700000016665e+000	 1.799989999990450e+000	 9.921255877104626e+000
0	 8.666700000016666e+000	 1.866659999993466e+000	 9.923713427581392e+000
0	 8.666700000016665e+000	 1.933329999996683e+000	 9.926237039955657e+000
0	 8.666700000016668e+000	 2.000000000000000e+000	 9.928829874537991e+000
0	 8.733360002791901e+000	 1.333299999983334e+000	 9.896537363608074e+000
0	 8.733360002791901e+000	 1.399969999982150e+000	 9.898664664560938e+000
0	 8.733360002791901e+000	 1.466639999981867e+000	 9.900840342645772e+000
0	 8.733360002791901e+000	 1.533309999982383e+000	 9.903067004581081e+000
0	 8.733360002791901e+000	 1.599979999983600e+000	 9.905347257085419e+000
0	 8.733360002791905e+000	 1.666649999985416e+000	 9.907683706877338e+000
0	 8.733360002791901e+000	 1.733319999987733e+000	 9.910078960675357e+000
0	 8.733360002791905e+000	 1.799989999990450e+000	 9.912535625198032e+000
0	 8.733360002791903e+000	 1.866659999993466e+000	 9.915056307163891e+000
0	 8.733360002791903e+000	 1.933329999996684e+000	 9.917643613291499e+000
0	 8.733360002791905e+000	 2.000000000000000e+000	 9.920300150299378e+000
0	 8.800020022230553e+000	 1.333299999983334e+000	 9.887317242178105e+000
0	 8.800020022230555e+000	 1.399969999982150e+000	 9.889495987257492e+000
0	 8.800020022230555e+000	 1.466639999981866e+000	 9.891726992900971e+000
0	 8.800020022230555e+000	 1.533309999982383e+000	 9.894012394729957e+000
0	 8.800020022230557e+000	 1.599979999983600e+000	 9.896354328365787e+000
0	 8.800020022230555e+000	 1.666649999985416e+000	 9.898754929429840e+000
0	 8.800020022230557e+000	 1.733319999987733e+000	 9.901216333543475e+000
0	 8.800020022230553e+000	 1.799989999990450e+000	 9.903740676328086e+000
0	 8.800020022230553e+000	 1.866659999993466e+000	 9.906330093405021e+000
0	 8.800020022230555e+000	 1.933329999996683e+000	 9.908986720395669e+000
0	 8.800020022230555e+000	 2.000000000000000e+000	 9.911712692921382e+000
0	 8.866680074997042e+000	 1.333299999983334e+000	 9.877967811155065e+000
0	 8.866680074997042e+000	 1.399969999982150e+000	 9.880205426942297e+000
0	 8.866680074997040e+000	 1.466639999981867e+000	 9.882498727461071e+000
0	 8.866680074997040e+000	 1.533309999982383e+000	 9.884849459730702e+000
0	 8.866680074997042e+000	 1.599979999983599e+000	 9.887259370770504e+000
0	 8.866680074997040e+000	 1.666649999985416e+000	 9.889730207599852e+000
0	 8.866680074997042e+000	 1.733319999987733e+000	 9.892263717238039e+000
0	 8.866680074997044e+000	 1.799989999990450e+000	 9.894861646704412e+000
0	 8.866680074997042e+000	 1.866659999993466e+000	 9.897525743018294e+000
0	 8.866680074997040e+000	 1.933329999996683e+000	 9.900257753199021e+000
0	 8.866680074997044e+000	 2.000000000000000e+000	 9.903059424265921e+000
0	 8.933340177755778e+000	 1.333299999983334e+000	 9.868479955053600e+000
0	 8.933340177755774e+000	 1.399969999982150e+000	 9.870783545655222e+000
0	 8.933340177755776e+000	 1.466639999981867e+000	 9.873145880602909e+000
0	 8.933340177755776e+000	 1.533309999982383e+000	 9.875568400809234e+000
0	 8.933340177755778e+000	 1.599979999983600e+000	 9.878052547186758e+000
0	 8.933340177755778e+000	 1.666649999985416e+000	 9.880599760648019e+000
0	 8.933340177755776e+000	 1.733319999987733e+000	 9.883211482105585e+000
0	 8.933340177755776e+000	 1.799989999990450e+000	 9.885889152472014e+000
0	 8.933340177755772e+000	 1.866659999993466e+000	 9.888634212659875e+000
0	 8.933340177755774e+000	 1.933329999996683e+000	 9.891448103581720e+000
0	 8.933340177755776e+000	 2.000000000000000e+000	 9.894332266150125e+000
0	 9.000000347171179e+000	 1.333299999983334e+000	 9.858844558266110e+000
0	 9.000000347171181e+000	 1.399969999982150e+000	 9.861220905321929e+000
0	 9.000000347171179e+000	 1.466639999981866e+000	 9.863658786497609e+000
0	 9.000000347171181e+000	 1.533309999982383e+000	 9.866159419094222e+000
0	 9.000000347171179e+000	 1.599979999983600e+000	 9.868724020412826e+000
0	 9.000000347171175e+000	 1.666649999985416e+000	 9.871353807754497e+000
0	 9.000000347171181e+000	 1.733319999987733e+000	 9.874049998420309e+000
0	 9.000000347171177e+000	 1.799989999990449e+000	 9.876813809711322e+000
0	 9.000000347171177e+000	 1.866659999993466e+000	 9.879646458928606e+000
0	 9.000000347171179e+000	 1.933329999996683e+000	 9.882549163373239e+000
0	 9.000000347171177e+000	 2.000000000000000e+000	 9.885523140346294e+000
0	 9.066660599907666e+000	 1.333299999983334e+000	 9.849052505062730e+000
0	 9.066660599907664e+000	 1.399969999982150e+000	 9.851508067753947e+000
0	 9.066660599907664e+000	 1.466639999981866e+000	 9.854027779210433e+000
0	 9.066660599907667e+000	 1.533309999982383e+000	 9.856612715616944e+000
0	 9.066660599907664e+000	 1.599979999983599e+000	 9.859263953158219e+000
0	 9.066660599907666e+000	 1.666649999985416e+000	 9.861982568019013e+000
0	 9.066660599907666e+000	 1.733319999987733e+000	 9.864769636384066e+000
0	 9.066660599907666e+000	 1.799989999990450e+000	 9.867626234438141e+000
0	 9.066660599907667e+000	 1.866659999993466e+000	 9.870553438365974e+000
0	 9.066660599907666e+000	 1.933329999996683e+000	 9.873552324352332e+000
0	 9.066660599907667e+000	 2.000000000000000e+000	 9.876623968581956e+000
0	 9.133320952629653e+000	 1.333299999983334e+000	 9.839094679591325e+000
0	 9.133320952629651e+000	 1.399969999982150e+000	 9.841635594648651e+000
0	 9.133320952629651e+000	 1.466639999981867e+000	 9.844243192700890e+000
0	 9.133320952629653e+000	 1.533309999982383e+000	 9.846918491311428e+000
0	 9.133320952629655e+000	 1.599979999983600e+000	 9.849662508043604e+000
0	 9.133320952629651e+000	 1.666649999985416e+000	 9.852476260460792e+000
0	 9.133320952629655e+000	 1.733319999987733e+000	 9.855360766126369e+000
0	 9.133320952629651e+000	 1.799989999990450e+000	 9.858317042603700e+000
0	 9.133320952629655e+000	 1.866659999993466e+000	 9.861346107456138e+000
0	 9.133320952629653e+000	 1.933329999996683e+000	 9.864448978247063e+000
0	 9.133320952629653e+000	 2.000000000000000e+000	 9.867626672539839e+000
0	 9.199981422001555e+000	 1.333299999983334e+000	 9.828961965877493e+000
0	 9.199981422001555e+000	 1.399969999982150e+000	 9.831594047589238e+000
0	 9.199981422001557e+000	 1.466639999981867e+000	 9.834295360822674e+000
0	 9.199981422001555e+000	 1.533309999982383e+000	 9.837066947014346e+000
0	 9.199981422001557e+000	 1.599979999983600e+000	 9.839909847600815e+000
0	 9.199981422001553e+000	 1.666649999985416e+000	 9.842825104018651e+000
0	 9.199981422001557e+000	 1.733319999987733e+000	 9.845813757704407e+000
0	 9.199981422001558e+000	 1.799989999990450e+000	 9.848876850094651e+000
0	 9.199981422001555e+000	 1.866659999993466e+000	 9.852015422625932e+000
0	 9.199981422001555e+000	 1.933329999996683e+000	 9.855230516734824e+000
0	 9.199981422001553e+000	 2.000000000000000e+000	 9.858523173857902e+000
0	 9.266642024687792e+000	 1.333299999983334e+000	 9.818645247824616e+000
0	 9.266642024687792e+000	 1.399969999982150e+000	 9.821373988044819e+000
0	 9.266642024687792e+000	 1.466639999981866e+000	 9.824174617323708e+000
0	 9.266642024687791e+000	 1.533309999982383e+000	 9.827048283465114e+000
0	 9.266642024687794e+000	 1.599979999983600e+000	 9.829996134272898e+000
0	 9.266642024687791e+000	 1.666649999985416e+000	 9.833019317550910e+000
0	 9.266642024687792e+000	 1.733319999987733e+000	 9.836118981103004e+000
0	 9.266642024687789e+000	 1.799989999990449e+000	 9.839296272733042e+000
0	 9.266642024687792e+000	 1.866659999993466e+000	 9.842552340244856e+000
0	 9.266642024687789e+000	 1.933329999996683e+000	 9.845888331442316e+000
0	 9.266642024687794e+000	 2.000000000000000e+000	 9.849305394129283e+000
0	 9.333302777352785e+000	 1.333299999983334e+000	 9.808135409213794e+000
0	 9.333302777352783e+000	 1.399969999982150e+000	 9.810965977370310e+000
0	 9.333302777352785e+000	 1.466639999981866e+000	 9.813871295846100e+000
0	 9.333302777352783e+000	 1.533309999982383e+000	 9.816852701305809e+000
0	 9.333302777352783e+000	 1.599979999983600e+000	 9.819911530414064e+000
0	 9.333302777352783e+000	 1.666649999985416e+000	 9.823049119835481e+000
0	 9.333302777352783e+000	 1.733319999987733e+000	 9.826266806234703e+000
0	 9.333302777352781e+000	 1.799989999990450e+000	 9.829565926276359e+000
0	 9.333302777352783e+000	 1.866659999993466e+000	 9.832947816625106e+000
0	 9.333302777352783e+000	 1.933329999996683e+000	 9.836413813945555e+000
0	 9.333302777352783e+000	 2.000000000000000e+000	 9.839965254902360e+000
0	 8.666700000016668e+000	 2.000000000000000e+000	 9.928829874537991e+000
0	 8.666700000016665e+000	 2.066670000003317e+000	 9.931459596591619e+000
0	 8.666700000016666e+000	 2.133340000006534e+000	 9.934092565281150e+000
0	 8.666700000016666e+000	 2.200010000009550e+000	 9.936729981769290e+000
0	 8.666700000016666e+000	 2.266680000012268e+000	 9.939373047218751e+000
0	 8.666700000016665e+000	 2.333350000014584e+000	 9.942022962792219e+000
0	 8.666700000016666e+000	 2.400020000016401e+000	 9.944680929652407e+000
0	 8.666700000016666e+000	 2.466690000017618e+000	 9.947348148962004e+000
0	 8.666700000016668e+000	 2.533360000018134e+000	 9.950025821883738e+000
0	 8.666700000016666e+000	 2.600030000017850e+000	 9.952715149580275e+000
0	 8.666700000016668e+000	 2.666700000016667e+000	 9.955417333214339e+000
0	 8.733360002791905e+000	 2.000000000000000e+000	 9.920300150299378e+000
0	 8.733360002791903e+000	 2.066670000003317e+000	 9.922993210819758e+000
0	 8.733360002791901e+000	 2.133340000006534e+000	 9.925689486957806e+000
0	 8.733360002791905e+000	 2.200010000009550e+000	 9.928390684641450e+000
0	 8.733360002791901e+000	 2.266680000012268e+000	 9.931098509798671e+000
0	 8.733360002791905e+000	 2.333350000014584e+000	 9.933814668357389e+000
0	 8.733360002791901e+000	 2.400020000016400e+000	 9.936540866245563e+000
0	 8.733360002791899e+000	 2.466690000017616e+000	 9.939278809391148e+000
0	 8.733360002791898e+000	 2.533360000018133e+000	 9.942030203722087e+000
0	 8.733360002791901e+000	 2.600030000017850e+000	 9.944796755166324e+000
0	 8.733360002791903e+000	 2.666700000016666e+000	 9.947580169651815e+000
0	 8.800020022230555e+000	 2.000000000000000e+000	 9.911712692921382e+000
0	 8.800020022230557e+000	 2.066670000003317e+000	 9.914475175219216e+000
0	 8.800020022230552e+000	 2.133340000006534e+000	 9.917241316951573e+000
0	 8.800020022230553e+000	 2.200010000009550e+000	 9.920013231877947e+000
0	 8.800020022230557e+000	 2.266680000012268e+000	 9.922793033757797e+000
0	 8.800020022230552e+000	 2.333350000014584e+000	 9.925582836350580e+000
0	 8.800020022230557e+000	 2.400020000016401e+000	 9.928384753415786e+000
0	 8.800020022230553e+000	 2.466690000017618e+000	 9.931200898712856e+000
0	 8.800020022230553e+000	 2.533360000018134e+000	 9.934033386001277e+000
0	 8.800020022230555e+000	 2.600030000017851e+000	 9.936884329040504e+000
0	 8.800020022230557e+000	 2.666700000016667e+000	 9.939755841590014e+000
0	 8.866680074997044e+000	 2.000000000000000e+000	 9.903059424265921e+000
0	 8.866680074997042e+000	 2.066670000003318e+000	 9.905897978283072e+000
0	 8.866680074997042e+000	 2.133340000006534e+000	 9.908741089072999e+000
0	 8.866680074997042e+000	 2.200010000009551e+000	 9.911591181292767e+000
0	 8.866680074997042e+000	 2.266680000012267e+000	 9.914450679599446e+000
0	 8.866680074997039e+000	 2.333350000014582e+000	 9.917322008650086e+000
0	 8.866680074997042e+000	 2.400020000016402e+000	 9.920207593101749e+000
0	 8.866680074997040e+000	 2.466690000017617e+000	 9.923109857611498e+000
0	 8.866680074997039e+000	 2.533360000018133e+000	 9.926031226836392e+000
0	 8.866680074997040e+000	 2.600030000017850e+000	 9.928974125433497e+000
0	 8.866680074997040e+000	 2.666700000016667e+000	 9.931940978059867e+000
0	 8.933340177755776e+000	 2.000000000000000e+000	 9.894332266150125e+000
0	 8.933340177755776e+000	 2.066670000003317e+000	 9.897254108464715e+000
0	 8.933340177755774e+000	 2.133340000006533e+000	 9.900181837097223e+000
0	 8.933340177755774e+000	 2.200010000009550e+000	 9.903118090668325e+000
0	 8.933340177755776e+000	 2.266680000012267e+000	 9.906065507798701e+000
0	 8.933340177755779e+000	 2.333350000014585e+000	 9.909026727109023e+000
0	 8.933340177755778e+000	 2.400020000016401e+000	 9.912004387219968e+000
0	 8.933340177755776e+000	 2.466690000017617e+000	 9.915001126752200e+000
0	 8.933340177755774e+000	 2.533360000018134e+000	 9.918019584326403e+000
0	 8.933340177755774e+000	 2.600030000017850e+000	 9.921062398563263e+000
0	 8.933340177755776e+000	 2.666700000016666e+000	 9.924132208083453e+000
0	 9.000000347171177e+000	 2.000000000000000e+000	 9.885523140346294e+000
0	 9.000000347171179e+000	 2.066670000003316e+000	 9.888536054177816e+000
0	 9.000000347171177e+000	 2.133340000006534e+000	 9.891556594764076e+000
0	 9.000000347171179e+000	 2.200010000009550e+000	 9.894587517755500e+000
0	 9.000000347171179e+000	 2.266680000012268e+000	 9.897631578802470e+000
0	 9.000000347171175e+000	 2.333350000014584e+000	 9.900691533555420e+000
0	 9.000000347171179e+000	 2.400020000016401e+000	 9.903770137664738e+000
0	 9.000000347171181e+000	 2.466690000017618e+000	 9.906870146780838e+000
0	 9.000000347171179e+000	 2.533360000018133e+000	 9.909994316554139e+000
0	 9.000000347171181e+000	 2.600030000017850e+000	 9.913145402635037e+000
0	 9.000000347171183e+000	 2.666700000016666e+000	 9.916326160673947e+000
0	 9.066660599907667e+000	 2.000000000000000e+000	 9.876623968581956e+000
0	 9.066660599907666e+000	 2.066670000003317e+000	 9.879736303796317e+000
0	 9.066660599907667e+000	 2.133340000006534e+000	 9.882858395778012e+000
0	 9.066660599907666e+000	 2.200010000009551e+000	 9.885993020273558e+000
0	 9.066660599907666e+000	 2.266680000012267e+000	 9.889142953029444e+000
0	 9.066660599907667e+000	 2.333350000014585e+000	 9.892310969792161e+000
0	 9.066660599907664e+000	 2.400020000016400e+000	 9.895499846308212e+000
0	 9.066660599907667e+000	 2.466690000017617e+000	 9.898712358324092e+000
0	 9.066660599907666e+000	 2.533360000018133e+000	 9.901951281586305e+000
0	 9.066660599907666e+000	 2.600030000017851e+000	 9.905219391841332e+000
0	 9.066660599907666e+000	 2.666700000016667e+000	 9.908519464835678e+000
0	 9.133320952629653e+000	 2.000000000000000e+000	 9.867626672539839e+000
0	 9.133320952629653e+000	 2.066670000003317e+000	 9.870847345654443e+000
0	 9.133320952629653e+000	 2.133340000006534e+000	 9.874080273808149e+000
0	 9.133320952629653e+000	 2.200010000009550e+000	 9.877328155910252e+000
0	 9.133320952629653e+000	 2.266680000012268e+000	 9.880593690870109e+000
0	 9.133320952629651e+000	 2.333350000014584e+000	 9.883879577597025e+000
0	 9.133320952629655e+000	 2.400020000016400e+000	 9.887188515000350e+000
0	 9.133320952629653e+000	 2.466690000017617e+000	 9.890523201989387e+000
0	 9.133320952629651e+000	 2.533360000018134e+000	 9.893886337473475e+000
0	 9.133320952629651e+000	 2.600030000017851e+000	 9.897280620361928e+000
0	 9.133320952629653e+000	 2.666700000016667e+000	 9.900708749564092e+000
0	 9.199981422001553e+000	 2.000000000000000e+000	 9.858523173857902e+000
0	 9.199981422001553e+000	 2.066670000003317e+000	 9.861861668046752e+000
0	 9.199981422001557e+000	 2.133340000006534e+000	 9.865215262488226e+000
0	 9.199981422001555e+000	 2.200010000009551e+000	 9.868586482321760e+000
0	 9.199981422001557e+000	 2.266680000012267e+000	 9.871977852686776e+000
0	 9.199981422001555e+000	 2.333350000014584e+000	 9.875391898722677e+000
0	 9.199981422001557e+000	 2.400020000016401e+000	 9.878831145568926e+000
0	 9.199981422001553e+000	 2.466690000017617e+000	 9.882298118364925e+000
0	 9.199981422001557e+000	 2.533360000018134e+000	 9.885795342250114e+000
0	 9.199981422001558e+000	 2.600030000017851e+000	 9.889325342363916e+000
0	 9.199981422001555e+000	 2.666700000016667e+000	 9.892890643845746e+000
0	 9.266642024687794e+000	 2.000000000000000e+000	 9.849305394129283e+000
0	 9.266642024687792e+000	 2.066670000003317e+000	 9.852771759228046e+000
0	 9.266642024687791e+000	 2.133340000006534e+000	 9.856256395416708e+000
0	 9.266642024687792e+000	 2.200010000009550e+000	 9.859761557132710e+000
0	 9.266642024687792e+000	 2.266680000012267e+000	 9.863289498813538e+000
0	 9.266642024687791e+000	 2.333350000014584e+000	 9.866842474896673e+000
0	 9.266642024687792e+000	 2.400020000016401e+000	 9.870422739819567e+000
0	 9.266642024687792e+000	 2.466690000017618e+000	 9.874032548019709e+000
0	 9.266642024687791e+000	 2.533360000018133e+000	 9.877674153934576e+000
0	 9.266642024687791e+000	 2.600030000017850e+000	 9.881349812001632e+000
0	 9.266642024687791e+000	 2.666700000016666e+000	 9.885061776658358e+000
0	 9.333302777352783e+000	 2.000000000000000e+000	 9.839965254902360e+000
0	 9.333302777352783e+000	 2.066670000003318e+000	 9.843570107413466e+000
0	 9.333302777352783e+000	 2.133340000006534e+000	 9.847196706156645e+000
0	 9.333302777352785e+000	 2.200010000009550e+000	 9.850846937936174e+000
0	 9.333302777352781e+000	 2.266680000012267e+000	 9.854522689556333e+000
0	 9.333302777352783e+000	 2.333350000014584e+000	 9.858225847821428e+000
0	 9.333302777352781e+000	 2.400020000016401e+000	 9.861958299535715e+000
0	 9.333302777352785e+000	 2.466690000017617e+000	 9.865721931503515e+000
0	 9.333302777352781e+000	 2.533360000018134e+000	 9.869518630529097e+000
0	 9.333302777352783e+000	 2.600030000017850e+000	 9.873350283416759e+000
0	 9.333302777352785e+000	 2.666700000016666e+000	 9.877218776970789e+000
0	 8.666700000016668e+000	 2.666700000016667e+000	 9.955417333214339e+000
0	 8.666700000016666e+000	 2.733360000014533e+000	 9.958106536970238e+000
0	 8.666700000016668e+000	 2.800020000011600e+000	 9.960758359877895e+000
0	 8.666700000016665e+000	 2.866680000008067e+000	 9.963374936373995e+000
0	 8.666700000016665e+000	 2.933340000004133e+000	 9.965958400895207e+000
0	 8.666700000016666e+000	 3.000000000000000e+000	 9.968510887878210e+000
0	 8.666700000016666e+000	 3.066659999995867e+000	 9.971034531759694e+000
0	 8.666700000016666e+000	 3.133319999991933e+000	 9.973531466976336e+000
0	 8.666700000016668e+000	 3.199979999988400e+000	 9.976003827964815e+000
0	 8.666700000016666e+000	 3.266639999985468e+000	 9.978453749161819e+000
0	 8.666700000016668e+000	 3.333299999983334e+000	 9.980883365004026e+000
0	 8.733360002791903e+000	 2.666700000016666e+000	 9.947580169651815e+000
0	 8.733360002791901e+000	 2.733360000014534e+000	 9.950354737966411e+000
0	 8.733360002791905e+000	 2.800020000011600e+000	 9.953095618819235e+000
0	 8.733360002791901e+000	 2.866680000008066e+000	 9.955804563496459e+000
0	 8.733360002791903e+000	 2.933340000004133e+000	 9.958483323284204e+000
0	 8.733360002791905e+000	 3.000000000000001e+000	 9.961133649468625e+000
0	 8.733360002791901e+000	 3.066659999995867e+000	 9.963757293335886e+000
0	 8.733360002791905e+000	 3.133319999991934e+000	 9.966356006172124e+000
0	 8.733360002791903e+000	 3.199979999988400e+000	 9.968931539263485e+000
0	 8.733360002791903e+000	 3.266639999985467e+000	 9.971485643896127e+000
0	 8.733360002791901e+000	 3.333299999983334e+000	 9.974020071356197e+000
0	 8.800020022230557e+000	 2.666700000016667e+000	 9.939755841590014e+000
0	 8.800020022230552e+000	 2.733360000014533e+000	 9.942622091700251e+000
0	 8.800020022230555e+000	 2.800020000011599e+000	 9.945457655992364e+000
0	 8.800020022230553e+000	 2.866680000008067e+000	 9.948263964020851e+000
0	 8.800020022230557e+000	 2.933340000004133e+000	 9.951042445340207e+000
0	 8.800020022230557e+000	 3.000000000000000e+000	 9.953794529504933e+000
0	 8.800020022230557e+000	 3.066659999995867e+000	 9.956521646069522e+000
0	 8.800020022230552e+000	 3.133319999991933e+000	 9.959225224588497e+000
0	 8.800020022230555e+000	 3.199979999988401e+000	 9.961906694616342e+000
0	 8.800020022230555e+000	 3.266639999985467e+000	 9.964567485707562e+000
0	 8.800020022230555e+000	 3.333299999983333e+000	 9.967209027416651e+000
0	 8.866680074997040e+000	 2.666700000016667e+000	 9.931940978059863e+000
0	 8.866680074997040e+000	 2.733360000014533e+000	 9.934905611291880e+000
0	 8.866680074997040e+000	 2.800020000011600e+000	 9.937841908609165e+000
0	 8.866680074997039e+000	 2.866680000008066e+000	 9.940751039253621e+000
0	 8.866680074997040e+000	 2.933340000004133e+000	 9.943634172467167e+000
0	 8.866680074997040e+000	 3.000000000000000e+000	 9.946492477491701e+000
0	 8.866680074997042e+000	 3.066659999995867e+000	 9.949327123569145e+000
0	 8.866680074997040e+000	 3.133319999991934e+000	 9.952139279941402e+000
0	 8.866680074997039e+000	 3.199979999988400e+000	 9.954930115850390e+000
0	 8.866680074997042e+000	 3.266639999985468e+000	 9.957700800538033e+000
0	 8.866680074997040e+000	 3.333299999983334e+000	 9.960452503246222e+000
0	 8.933340177755776e+000	 2.666700000016666e+000	 9.924132208083453e+000
0	 8.933340177755778e+000	 2.733360000014533e+000	 9.927202309856922e+000
0	 8.933340177755778e+000	 2.800020000011599e+000	 9.930245813881935e+000
0	 8.933340177755778e+000	 2.866680000008067e+000	 9.933263690506930e+000
0	 8.933340177755776e+000	 2.933340000004133e+000	 9.936256910080363e+000
0	 8.933340177755774e+000	 3.000000000000000e+000	 9.939226442950703e+000
0	 8.933340177755778e+000	 3.066659999995867e+000	 9.942173259466424e+000
0	 8.933340177755776e+000	 3.133319999991933e+000	 9.945098329975956e+000
0	 8.933340177755778e+000	 3.199979999988401e+000	 9.948002624827769e+000
0	 8.933340177755776e+000	 3.266639999985468e+000	 9.950887114370344e+000
0	 8.933340177755778e+000	 3.333299999983335e+000	 9.953752768952123e+000
0	 9.000000347171183e+000	 2.666700000016666e+000	 9.916326160673947e+000
0	 9.000000347171181e+000	 2.733360000014533e+000	 9.919509200506512e+000
0	 9.000000347171177e+000	 2.800020000011600e+000	 9.922666809023367e+000
0	 9.000000347171179e+000	 2.866680000008067e+000	 9.925799819098613e+000
0	 9.000000347171177e+000	 2.933340000004133e+000	 9.928909063606414e+000
0	 9.000000347171177e+000	 3.000000000000000e+000	 9.931995375420883e+000
0	 9.000000347171179e+000	 3.066659999995866e+000	 9.935059587416156e+000
0	 9.000000347171179e+000	 3.133319999991934e+000	 9.938102532466370e+000
0	 9.000000347171179e+000	 3.199979999988401e+000	 9.941125043445663e+000
0	 9.000000347171181e+000	 3.266639999985467e+000	 9.944127953228156e+000
0	 9.000000347171181e+000	 3.333299999983333e+000	 9.947112094688020e+000
0	 9.066660599907666e+000	 2.666700000016667e+000	 9.908519464835678e+000
0	 9.066660599907667e+000	 2.733360000014533e+000	 9.911823296347329e+000
0	 9.066660599907666e+000	 2.800020000011601e+000	 9.915102331246587e+000
0	 9.066660599907667e+000	 2.866680000008067e+000	 9.918357326352279e+000
0	 9.066660599907666e+000	 2.933340000004133e+000	 9.921589038483237e+000
0	 9.066660599907669e+000	 3.000000000000000e+000	 9.924798224458280e+000
0	 9.066660599907664e+000	 3.066659999995866e+000	 9.927985641096269e+000
0	 9.066660599907667e+000	 3.133319999991934e+000	 9.931152045215997e+000
0	 9.066660599907667e+000	 3.199979999988401e+000	 9.934298193636314e+000
0	 9.066660599907667e+000	 3.266639999985468e+000	 9.937424843176038e+000
0	 9.066660599907666e+000	 3.333299999983334e+000	 9.940532750654020e+000
0	 9.133320952629653e+000	 2.666700000016667e+000	 9.900708749564089e+000
0	 9.133320952629653e+000	 2.733360000014534e+000	 9.904141610481547e+000
0	 9.133320952629651e+000	 2.800020000011600e+000	 9.907549817765128e+000
0	 9.133320952629651e+000	 2.866680000008067e+000	 9.910934113597206e+000
0	 9.133320952629653e+000	 2.933340000004133e+000	 9.914295240160117e+000
0	 9.133320952629651e+000	 2.999999999999999e+000	 9.917633939636209e+000
0	 9.133320952629653e+000	 3.066659999995867e+000	 9.920950954207839e+000
0	 9.133320952629651e+000	 3.133319999991934e+000	 9.924247026057337e+000
0	 9.133320952629651e+000	 3.199979999988401e+000	 9.927522897367071e+000
0	 9.133320952629651e+000	 3.266639999985467e+000	 9.930779310319398e+000
0	 9.133320952629651e+000	 3.333299999983334e+000	 9.934017007096644e+000
0	 9.199981422001555e+000	 2.666700000016667e+000	 9.892890643845750e+000
0	 9.199981422001558e+000	 2.733360000014533e+000	 9.896461156006888e+000
0	 9.199981422001555e+000	 2.800020000011599e+000	 9.900006705792983e+000
0	 9.199981422001555e+000	 2.866680000008067e+000	 9.903528082168444e+000
0	 9.199981422001555e+000	 2.933340000004133e+000	 9.907026074097670e+000
0	 9.199981422001553e+000	 3.000000000000000e+000	 9.910501470545070e+000
0	 9.199981422001555e+000	 3.066659999995866e+000	 9.913955060475042e+000
0	 9.199981422001553e+000	 3.133319999991933e+000	 9.917387632852009e+000
0	 9.199981422001553e+000	 3.199979999988400e+000	 9.920799976640371e+000
0	 9.199981422001557e+000	 3.266639999985467e+000	 9.924192880804529e+000
0	 9.199981422001555e+000	 3.333299999983333e+000	 9.927567134308898e+000
0	 9.266642024687791e+000	 2.666700000016666e+000	 9.885061776658358e+000
0	 9.266642024687791e+000	 2.733360000014533e+000	 9.888778946016609e+000
0	 9.266642024687791e+000	 2.800020000011599e+000	 9.892470432544538e+000
0	 9.266642024687789e+000	 2.866680000008066e+000	 9.896137133406729e+000
0	 9.266642024687792e+000	 2.933340000004134e+000	 9.899779945767849e+000
0	 9.266642024687791e+000	 3.000000000000000e+000	 9.903399766792488e+000
0	 9.266642024687792e+000	 3.066659999995866e+000	 9.906997493645259e+000
0	 9.266642024687794e+000	 3.133319999991934e+000	 9.910574023490785e+000
0	 9.266642024687794e+000	 3.199979999988401e+000	 9.914130253493731e+000
0	 9.266642024687792e+000	 3.266639999985467e+000	 9.917667080818648e+000
0	 9.266642024687794e+000	 3.333299999983335e+000	 9.921185402630202e+000
0	 9.333302777352785e+000	 2.666700000016666e+000	 9.877218776970787e+000
0	 9.333302777352783e+000	 2.733360000014533e+000	 9.881091993599512e+000
0	 9.333302777352781e+000	 2.800020000011600e+000	 9.884938435234597e+000
0	 9.333302777352783e+000	 2.866680000008067e+000	 9.888759168658565e+000
0	 9.333302777352781e+000	 2.933340000004133e+000	 9.892555260653941e+000
0	 9.333302777352785e+000	 3.000000000000000e+000	 9.896327778003224e+000
0	 9.333302777352783e+000	 3.066659999995867e+000	 9.900077787488941e+000
0	 9.333302777352781e+000	 3.133319999991933e+000	 9.903806355893597e+000
0	 9.333302777352783e+000	 3.199979999988400e+000	 9.907514549999714e+000
0	 9.333302777352783e+000	 3.266639999985467e+000	 9.911203436589821e+000
0	 9.333302777352785e+000	 3.333299999983334e+000	 9.914874082446435e+000
0	 8.666700000016668e+000	 3.333299999983334e+000	 9.980883365004026e+000
0	 8.666700000016665e+000	 3.399969999982149e+000	 9.983273408641121e+000
0	 8.666700000016665e+000	 3.466639999981867e+000	 9.985602930730094e+000
0	 8.666700000016666e+000	 3.533309999982384e+000	 9.987872631156144e+000
0	 8.666700000016666e+000	 3.599979999983600e+000	 9.990083209804466e+000
0	 8.666700000016665e+000	 3.666649999985415e+000	 9.992235366560259e+000
0	 8.666700000016666e+000	 3.733319999987733e+000	 9.994329801308709e+000
0	 8.666700000016665e+000	 3.799989999990450e+000	 9.996367213935010e+000
0	 8.666700000016668e+000	 3.866659999993467e+000	 9.998348304324344e+000
0	 8.666700000016666e+000	 3.933329999996683e+000	 1.000027377236192e+001
0	 8.666700000016668e+000	 4.000000000000000e+000	 1.000214431793290e+001
0	 8.733360002791901e+000	 3.333299999983334e+000	 9.974020071356197e+000
0	 8.733360002791899e+000	 3.399969999982150e+000	 9.976515367927426e+000
0	 8.733360002791901e+000	 3.466639999981867e+000	 9.978950633533154e+000
0	 8.733360002791901e+000	 3.533309999982384e+000	 9.981326586360272e+000
0	 8.733360002791901e+000	 3.599979999983600e+000	 9.983643944595652e+000
0	 8.733360002791905e+000	 3.666649999985417e+000	 9.985903426426161e+000
0	 8.733360002791899e+000	 3.733319999987733e+000	 9.988105750038690e+000
0	 8.733360002791901e+000	 3.799989999990450e+000	 9.990251633620105e+000
0	 8.733360002791905e+000	 3.866659999993467e+000	 9.992341795357302e+000
0	 8.733360002791903e+000	 3.933329999996684e+000	 9.994376953437122e+000
0	 8.733360002791901e+000	 4.000000000000000e+000	 9.996357826046470e+000
0	 8.800020022230555e+000	 3.333299999983333e+000	 9.967209027416653e+000
0	 8.800020022230555e+000	 3.399969999982150e+000	 9.969811850252775e+000
0	 8.800020022230555e+000	 3.466639999981866e+000	 9.972355230784125e+000
0	 8.800020022230557e+000	 3.533309999982383e+000	 9.974839902349347e+000
0	 8.800020022230557e+000	 3.599979999983600e+000	 9.977266598287107e+000
0	 8.800020022230553e+000	 3.666649999985417e+000	 9.979636051936044e+000
0	 8.800020022230553e+000	 3.733319999987733e+000	 9.981948996634831e+000
0	 8.800020022230553e+000	 3.799989999990449e+000	 9.984206165722100e+000
0	 8.800020022230552e+000	 3.866659999993466e+000	 9.986408292536531e+000
0	 8.800020022230555e+000	 3.933329999996684e+000	 9.988556110416756e+000
0	 8.800020022230553e+000	 4.000000000000000e+000	 9.990650352701421e+000
0	 8.866680074997040e+000	 3.333299999983334e+000	 9.960452503246218e+000
0	 8.866680074997044e+000	 3.399969999982150e+000	 9.963165854046293e+000
0	 8.866680074997040e+000	 3.466639999981867e+000	 9.965820377545894e+000
0	 8.866680074997039e+000	 3.533309999982382e+000	 9.968416819085544e+000
0	 8.866680074997042e+000	 3.599979999983600e+000	 9.970955924005764e+000
0	 8.866680074997044e+000	 3.666649999985417e+000	 9.973438437647067e+000
0	 8.866680074997042e+000	 3.733319999987733e+000	 9.975865105349968e+000
0	 8.866680074997044e+000	 3.799989999990451e+000	 9.978236672454974e+000
0	 8.866680074997042e+000	 3.866659999993467e+000	 9.980553884302607e+000
0	 8.866680074997039e+000	 3.933329999996683e+000	 9.982817486233381e+000
0	 8.866680074997040e+000	 4.000000000000000e+000	 9.985028223587795e+000
0	 8.933340177755778e+000	 3.333299999983335e+000	 9.953752768952123e+000
0	 8.933340177755774e+000	 3.399969999982150e+000	 9.956580377788740e+000
0	 8.933340177755778e+000	 3.466639999981867e+000	 9.959349728937964e+000
0	 8.933340177755776e+000	 3.533309999982384e+000	 9.962061576592262e+000
0	 8.933340177755774e+000	 3.599979999983600e+000	 9.964716674944061e+000
0	 8.933340177755779e+000	 3.666649999985416e+000	 9.967315778185837e+000
0	 8.933340177755778e+000	 3.733319999987733e+000	 9.969859640510054e+000
0	 8.933340177755778e+000	 3.799989999990450e+000	 9.972349016109149e+000
0	 8.933340177755774e+000	 3.866659999993466e+000	 9.974784659175599e+000
0	 8.933340177755776e+000	 3.933329999996685e+000	 9.977167323901831e+000
0	 8.933340177755772e+000	 4.000000000000000e+000	 9.979497764480323e+000
0	 9.000000347171181e+000	 3.333299999983333e+000	 9.947112094688018e+000
0	 9.000000347171179e+000	 3.399969999982150e+000	 9.950058420012597e+000
0	 9.000000347171179e+000	 3.466639999981867e+000	 9.952946940136442e+000
0	 9.000000347171179e+000	 3.533309999982383e+000	 9.955778414954034e+000
0	 9.000000347171177e+000	 3.599979999983600e+000	 9.958553604359876e+000
0	 9.000000347171177e+000	 3.666649999985416e+000	 9.961273268248400e+000
0	 9.000000347171177e+000	 3.733319999987732e+000	 9.963938166514133e+000
0	 9.000000347171177e+000	 3.799989999990450e+000	 9.966549059051525e+000
0	 9.000000347171179e+000	 3.866659999993467e+000	 9.969106705755078e+000
0	 9.000000347171177e+000	 3.933329999996683e+000	 9.971611866519243e+000
0	 9.000000347171179e+000	 4.000000000000000e+000	 9.974065301238515e+000
0	 9.066660599907666e+000	 3.333299999983334e+000	 9.940532750654016e+000
0	 9.066660599907666e+000	 3.399969999982150e+000	 9.943602979301993e+000
0	 9.066660599907666e+000	 3.466639999981866e+000	 9.946615666374019e+000
0	 9.066660599907666e+000	 3.533309999982382e+000	 9.949571574316670e+000
0	 9.066660599907667e+000	 3.599979999983600e+000	 9.952471465576549e+000
0	 9.066660599907666e+000	 3.666649999985416e+000	 9.955316102600238e+000
0	 9.066660599907664e+000	 3.733319999987733e+000	 9.958106247834337e+000
0	 9.066660599907664e+000	 3.799989999990450e+000	 9.960842663725426e+000
0	 9.066660599907667e+000	 3.866659999993467e+000	 9.963526112720121e+000
0	 9.066660599907664e+000	 3.933329999996684e+000	 9.966157357264981e+000
0	 9.066660599907666e+000	 4.000000000000001e+000	 9.968737159806620e+000
0	 9.133320952629651e+000	 3.333299999983334e+000	 9.934017007096644e+000
0	 9.133320952629649e+000	 3.399969999982149e+000	 9.937217054292770e+000
0	 9.133320952629653e+000	 3.466639999981867e+000	 9.940359562939987e+000
0	 9.133320952629653e+000	 3.533309999982383e+000	 9.943445294887106e+000
0	 9.133320952629648e+000	 3.599979999983599e+000	 9.946475011982928e+000
0	 9.133320952629651e+000	 3.666649999985416e+000	 9.949449476076252e+000
0	 9.133320952629653e+000	 3.733319999987732e+000	 9.952369449015896e+000
0	 9.133320952629651e+000	 3.799989999990450e+000	 9.955235692650641e+000
0	 9.133320952629653e+000	 3.866659999993467e+000	 9.958048968829317e+000
0	 9.133320952629651e+000	 3.933329999996683e+000	 9.960810039400718e+000
0	 9.133320952629651e+000	 3.999999999999999e+000	 9.963519666213623e+000
0	 9.199981422001555e+000	 3.333299999983333e+000	 9.927567134308898e+000
0	 9.199981422001557e+000	 3.399969999982150e+000	 9.930903643672442e+000
0	 9.199981422001555e+000	 3.466639999981866e+000	 9.934182285180270e+000
0	 9.199981422001557e+000	 3.533309999982383e+000	 9.937403816933518e+000
0	 9.199981422001553e+000	 3.599979999983600e+000	 9.940568997033321e+000
0	 9.199981422001555e+000	 3.666649999985417e+000	 9.943678583580825e+000
0	 9.199981422001555e+000	 3.733319999987733e+000	 9.946733334677143e+000
0	 9.199981422001557e+000	 3.799989999990451e+000	 9.949734008423418e+000
0	 9.199981422001555e+000	 3.866659999993466e+000	 9.952681362920762e+000
0	 9.199981422001557e+000	 3.933329999996684e+000	 9.955576156270341e+000
0	 9.199981422001557e+000	 4.000000000000000e+000	 9.958419146573259e+000
0	 9.266642024687794e+000	 3.333299999983335e+000	 9.921185402630204e+000
0	 9.266642024687792e+000	 3.399969999982150e+000	 9.924665746180201e+000
0	 9.266642024687791e+000	 3.466639999981866e+000	 9.928087488497347e+000
0	 9.266642024687789e+000	 3.533309999982383e+000	 9.931451380785266e+000
0	 9.266642024687792e+000	 3.599979999983601e+000	 9.934758174247525e+000
0	 9.266642024687792e+000	 3.666649999985417e+000	 9.938008620087750e+000
0	 9.266642024687791e+000	 3.733319999987733e+000	 9.941203469509517e+000
0	 9.266642024687791e+000	 3.799989999990450e+000	 9.944343473716439e+000
0	 9.266642024687794e+000	 3.866659999993467e+000	 9.947429383912089e+000
0	 9.266642024687791e+000	 3.933329999996684e+000	 9.950461951300071e+000
0	 9.266642024687791e+000	 4.000000000000000e+000	 9.953441927083992e+000
0	 9.333302777352785e+000	 3.333299999983334e+000	 9.914874082446437e+000
0	 9.333302777352781e+000	 3.399969999982149e+000	 9.918506360606946e+000
0	 9.333302777352785e+000	 3.466639999981867e+000	 9.922078828350358e+000
0	 9.333302777352783e+000	 3.533309999982383e+000	 9.925592226832910e+000
0	 9.333302777352785e+000	 3.599979999983600e+000	 9.929047297210818e+000
0	 9.333302777352783e+000	 3.666649999985417e+000	 9.932444780640298e+000
0	 9.333302777352783e+000	 3.733319999987733e+000	 9.935785418277568e+000
0	 9.333302777352783e+000	 3.799989999990450e+000	 9.939069951278871e+000
0	 9.333302777352783e+000	 3.866659999993466e+000	 9.942299120800399e+000
0	 9.333302777352783e+000	 3.933329999996683e+000	 9.945473667998382e+000
0	 9.333302777352785e+000	 4.000000000000000e+000	 9.948594334029053e+000
0	 8.666700000016668e+000	 4.000000000000000e+000	 1.000214431793290e+001
0	 8.666700000016666e+000	 4.066670000003317e+000	 1.000395532307640e+001
0	 8.666700000016666e+000	 4.133340000006535e+000	 1.000570153592501e+001
0	 8.666700000016668e+000	 4.200010000009551e+000	 1.000738270550423e+001
0	 8.666700000016666e+000	 4.266680000012268e+000	 1.000899858083951e+001
0	 8.666700000016666e+000	 4.333350000014585e+000	 1.001054891095630e+001
0	 8.666700000016666e+000	 4.400020000016401e+000	 1.001203344488009e+001
0	 8.666700000016666e+000	 4.466690000017618e+000	 1.001345193163631e+001
0	 8.666700000016668e+000	 4.533360000018134e+000	 1.001480412025046e+001
0	 8.666700000016666e+000	 4.600030000017851e+000	 1.001608975974796e+001
0	 8.666700000016668e+000	 4.666700000016666e+000	 1.001730859915430e+001
0	 8.733360002791901e+000	 4.000000000000000e+000	 9.996357826046472e+000
0	 8.733360002791905e+000	 4.066670000003317e+000	 9.998279051164669e+000
0	 8.733360002791903e+000	 4.133340000006535e+000	 1.000013469466782e+001
0	 8.733360002791907e+000	 4.200010000009552e+000	 1.000192461658799e+001
0	 8.733360002791901e+000	 4.266680000012268e+000	 1.000364867695723e+001
0	 8.733360002791903e+000	 4.333350000014583e+000	 1.000530673580761e+001
0	 8.733360002791901e+000	 4.400020000016400e+000	 1.000689865317115e+001
0	 8.733360002791903e+000	 4.466690000017617e+000	 1.000842428907993e+001
0	 8.733360002791899e+000	 4.533360000018133e+000	 1.000988350356598e+001
0	 8.733360002791901e+000	 4.600030000017850e+000	 1.001127615666136e+001
0	 8.733360002791901e+000	 4.666700000016666e+000	 1.001260210839810e+001
0	 8.800020022230553e+000	 4.000000000000000e+000	 9.990650352701422e+000
0	 8.800020022230557e+000	 4.066670000003318e+000	 9.992684752529986e+000
0	 8.800020022230555e+000	 4.133340000006535e+000	 9.994652526719962e+000
0	 8.800020022230555e+000	 4.200010000009550e+000	 9.996553634127169e+000
0	 8.800020022230557e+000	 4.266680000012268e+000	 9.998388033607418e+000
0	 8.800020022230550e+000	 4.333350000014582e+000	 1.000015568401651e+001
0	 8.800020022230557e+000	 4.400020000016401e+000	 1.000185654421026e+001
0	 8.800020022230557e+000	 4.466690000017618e+000	 1.000349057304448e+001
0	 8.800020022230553e+000	 4.533360000018134e+000	 1.000505772937496e+001
0	 8.800020022230555e+000	 4.600030000017849e+000	 1.000655797205751e+001
0	 8.800020022230555e+000	 4.666700000016666e+000	 1.000799125994795e+001
0	 8.866680074997040e+000	 4.000000000000000e+000	 9.985028223587792e+000
0	 8.866680074997040e+000	 4.066670000003317e+000	 9.987178807584055e+000
0	 8.866680074997040e+000	 4.133340000006534e+000	 9.989261482877847e+000
0	 8.866680074997042e+000	 4.200010000009551e+000	 9.991276294965813e+000
0	 8.866680074997044e+000	 4.266680000012267e+000	 9.993223289344620e+000
0	 8.866680074997040e+000	 4.333350000014582e+000	 9.995102511510950e+000
0	 8.866680074997044e+000	 4.400020000016403e+000	 9.996914006961481e+000
0	 8.866680074997040e+000	 4.466690000017617e+000	 9.998657821192877e+000
0	 8.866680074997040e+000	 4.533360000018134e+000	 1.000033399970179e+001
0	 8.866680074997039e+000	 4.600030000017850e+000	 1.000194258798489e+001
0	 8.866680074997040e+000	 4.666700000016667e+000	 1.000348363153886e+001
0	 8.933340177755772e+000	 4.000000000000000e+000	 9.979497764480323e+000
0	 8.933340177755776e+000	 4.066670000003318e+000	 9.981767596825533e+000
0	 8.933340177755774e+000	 4.133340000006534e+000	 9.983968014026713e+000
0	 8.933340177755776e+000	 4.200010000009550e+000	 9.986099136038481e+000
0	 8.933340177755778e+000	 4.266680000012268e+000	 9.988161082815390e+000
0	 8.933340177755778e+000	 4.333350000014584e+000	 9.990153974312086e+000
0	 8.933340177755778e+000	 4.400020000016402e+000	 9.992077930483125e+000
0	 8.933340177755778e+000	 4.466690000017618e+000	 9.993933071283117e+000
0	 8.933340177755778e+000	 4.533360000018132e+000	 9.995719516666654e+000
0	 8.933340177755774e+000	 4.600030000017851e+000	 9.997437386588334e+000
0	 8.933340177755776e+000	 4.666700000016665e+000	 9.999086801002747e+000
0	 9.000000347171179e+000	 4.000000000000000e+000	 9.974065301238516e+000
0	 9.000000347171181e+000	 4.066670000003316e+000	 9.976457500839958e+000
0	 9.000000347171177e+000	 4.133340000006533e+000	 9.978778571140669e+000
0	 9.000000347171179e+000	 4.200010000009550e+000	 9.981028694370263e+000
0	 9.000000347171179e+000	 4.266680000012268e+000	 9.983208052758254e+000
0	 9.000000347171177e+000	 4.333350000014584e+000	 9.985316828534220e+000
0	 9.000000347171177e+000	 4.400020000016402e+000	 9.987355203927745e+000
0	 9.000000347171179e+000	 4.466690000017617e+000	 9.989323361168347e+000
0	 9.000000347171177e+000	 4.533360000018133e+000	 9.991221482485624e+000
0	 9.000000347171181e+000	 4.600030000017850e+000	 9.993049750109108e+000
0	 9.000000347171181e+000	 4.666700000016666e+000	 9.994808346268380e+000
0	 9.066660599907666e+000	 4.000000000000001e+000	 9.968737159806619e+000
0	 9.066660599907666e+000	 4.066670000003317e+000	 9.971254900299826e+000
0	 9.066660599907666e+000	 4.133340000006535e+000	 9.973699605282690e+000
0	 9.066660599907667e+000	 4.200010000009551e+000	 9.976071507076787e+000
0	 9.066660599907664e+000	 4.266680000012268e+000	 9.978370838003695e+000
0	 9.066660599907666e+000	 4.333350000014584e+000	 9.980597830384959e+000
0	 9.066660599907667e+000	 4.400020000016403e+000	 9.982752716542155e+000
0	 9.066660599907669e+000	 4.466690000017618e+000	 9.984835728796842e+000
0	 9.066660599907664e+000	 4.533360000018132e+000	 9.986847099470554e+000
0	 9.066660599907666e+000	 4.600030000017850e+000	 9.988787060884892e+000
0	 9.066660599907664e+000	 4.666700000016666e+000	 9.990655845361379e+000
0	 9.133320952629651e+000	 3.999999999999999e+000	 9.963519666213619e+000
0	 9.133320952629653e+000	 4.066670000003317e+000	 9.966166175964560e+000
0	 9.133320952629656e+000	 4.133340000006536e+000	 9.968737567604560e+000
0	 9.133320952629653e+000	 4.200010000009550e+000	 9.971234111364243e+000
0	 9.133320952629653e+000	 4.266680000012268e+000	 9.973656077474209e+000
0	 9.133320952629653e+000	 4.333350000014585e+000	 9.976003736165072e+000
0	 9.133320952629653e+000	 4.400020000016401e+000	 9.978277357667459e+000
0	 9.133320952629651e+000	 4.466690000017618e+000	 9.980477212211957e+000
0	 9.133320952629653e+000	 4.533360000018133e+000	 9.982603570029186e+000
0	 9.133320952629651e+000	 4.600030000017850e+000	 9.984656701349763e+000
0	 9.133320952629655e+000	 4.666700000016668e+000	 9.986636876404271e+000
0	 9.199981422001557e+000	 4.000000000000000e+000	 9.958419146573259e+000
0	 9.199981422001555e+000	 4.066670000003317e+000	 9.961197708680549e+000
0	 9.199981422001555e+000	 4.133340000006534e+000	 9.963898909346986e+000
0	 9.199981422001555e+000	 4.200010000009550e+000	 9.966523044529311e+000
0	 9.199981422001557e+000	 4.266680000012267e+000	 9.969070410184260e+000
0	 9.199981422001553e+000	 4.333350000014583e+000	 9.971541302268582e+000
0	 9.199981422001553e+000	 4.400020000016400e+000	 9.973936016738989e+000
0	 9.199981422001553e+000	 4.466690000017617e+000	 9.976254849552259e+000
0	 9.199981422001555e+000	 4.533360000018133e+000	 9.978498096665094e+000
0	 9.199981422001555e+000	 4.600030000017850e+000	 9.980666054034233e+000
0	 9.199981422001555e+000	 4.666700000016666e+000	 9.982759017616420e+000
0	 9.266642024687791e+000	 4.000000000000000e+000	 9.953441927083992e+000
0	 9.266642024687791e+000	 4.066670000003318e+000	 9.956355879381063e+000
0	 9.266642024687791e+000	 4.133340000006534e+000	 9.959190081839479e+000
0	 9.266642024687794e+000	 4.200010000009551e+000	 9.961944843959230e+000
0	 9.266642024687791e+000	 4.266680000012268e+000	 9.964620475240295e+000
0	 9.266642024687792e+000	 4.333350000014584e+000	 9.967217285182690e+000
0	 9.266642024687792e+000	 4.400020000016402e+000	 9.969735583286392e+000
0	 9.266642024687794e+000	 4.466690000017618e+000	 9.972175679051382e+000
0	 9.266642024687791e+000	 4.533360000018134e+000	 9.974537881977673e+000
0	 9.266642024687794e+000	 4.600030000017851e+000	 9.976822501565238e+000
0	 9.266642024687791e+000	 4.666700000016667e+000	 9.979029847314070e+000
0	 9.333302777352785e+000	 4.000000000000000e+000	 9.948594334029053e+000
0	 9.333302777352783e+000	 4.066670000003317e+000	 9.951647069086375e+000
0	 9.333302777352783e+000	 4.133340000006534e+000	 9.954617536500470e+000
0	 9.333302777352783e+000	 4.200010000009550e+000	 9.957506047131792e+000
0	 9.333302777352779e+000	 4.266680000012268e+000	 9.960312911840781e+000
0	 9.333302777352783e+000	 4.333350000014584e+000	 9.963038441487871e+000
0	 9.333302777352783e+000	 4.400020000016402e+000	 9.965682946933518e+000
0	 9.333302777352783e+000	 4.466690000017617e+000	 9.968246739038143e+000
0	 9.333302777352785e+000	 4.533360000018134e+000	 9.970730128662197e+000
0	 9.333302777352783e+000	 4.600030000017850e+000	 9.973133426666131e+000
0	 9.333302777352785e+000	 4.666700000016667e+000	 9.975456943910363e+000
0	 8.666700000016668e+000	 4.666700000016666e+000	 1.001730859915430e+001
0	 8.666700000016666e+000	 4.733360000014534e+000	 1.001846153382786e+001
0	 8.666700000016668e+000	 4.800020000011600e+000	 1.001954966984150e+001
0	 8.666700000016665e+000	 4.866680000008067e+000	 1.002057253890888e+001
0	 8.666700000016666e+000	 4.933340000004133e+000	 1.002152967274371e+001
0	 8.666700000016666e+000	 5.000000000000000e+000	 1.002242060305968e+001
0	 8.666700000016666e+000	 5.066659999995867e+000	 1.002324486157050e+001
0	 8.666700000016666e+000	 5.133319999991934e+000	 1.002400197998986e+001
0	 8.666700000016666e+000	 5.199979999988400e+000	 1.002469149003149e+001
0	 8.666700000016666e+000	 5.266639999985468e+000	 1.002531292340905e+001
0	 8.666700000016668e+000	 5.333299999983335e+000	 1.002586581183629e+001
0	 8.733360002791901e+000	 4.666700000016666e+000	 1.001260210839810e+001
0	 8.733360002791903e+000	 4.733360000014534e+000	 1.001386172438623e+001
0	 8.733360002791905e+000	 4.800020000011601e+000	 1.001505554294906e+001
0	 8.733360002791903e+000	 4.866680000008066e+000	 1.001618310156823e+001
0	 8.733360002791901e+000	 4.933340000004134e+000	 1.001724393772538e+001
0	 8.733360002791905e+000	 5.000000000000000e+000	 1.001823758890222e+001
0	 8.733360002791901e+000	 5.066659999995867e+000	 1.001916359258035e+001
0	 8.733360002791903e+000	 5.133319999991935e+000	 1.002002148624144e+001
0	 8.733360002791903e+000	 5.199979999988400e+000	 1.002081080736716e+001
0	 8.733360002791903e+000	 5.266639999985468e+000	 1.002153109343917e+001
0	 8.733360002791903e+000	 5.333299999983334e+000	 1.002218188193912e+001
0	 8.800020022230555e+000	 4.666700000016666e+000	 1.000799125994795e+001
0	 8.800020022230553e+000	 4.733360000014534e+000	 1.000935753430510e+001
0	 8.800020022230553e+000	 4.800020000011600e+000	 1.001065688200626e+001
0	 8.800020022230553e+000	 4.866680000008068e+000	 1.001188885045794e+001
0	 8.800020022230557e+000	 4.933340000004133e+000	 1.001305298706659e+001
0	 8.800020022230559e+000	 5.000000000000000e+000	 1.001414883923872e+001
0	 8.800020022230557e+000	 5.066659999995866e+000	 1.001517595438076e+001
0	 8.800020022230553e+000	 5.133319999991935e+000	 1.001613387989923e+001
0	 8.800020022230555e+000	 5.199979999988400e+000	 1.001702216320060e+001
0	 8.800020022230553e+000	 5.266639999985467e+000	 1.001784035169135e+001
0	 8.800020022230555e+000	 5.333299999983335e+000	 1.001858799277798e+001
0	 8.866680074997040e+000	 4.666700000016667e+000	 1.000348363153886e+001
0	 8.866680074997039e+000	 4.733360000014534e+000	 1.000495673161515e+001
0	 8.866680074997042e+000	 4.800020000011601e+000	 1.000636161895616e+001
0	 8.866680074997039e+000	 4.866680000008067e+000	 1.000769785505006e+001
0	 8.866680074997044e+000	 4.933340000004133e+000	 1.000896500138500e+001
0	 8.866680074997039e+000	 5.000000000000000e+000	 1.001016261944915e+001
0	 8.866680074997042e+000	 5.066659999995866e+000	 1.001129027073065e+001
0	 8.866680074997039e+000	 5.133319999991935e+000	 1.001234751671767e+001
0	 8.866680074997039e+000	 5.199979999988399e+000	 1.001333391889838e+001
0	 8.866680074997042e+000	 5.266639999985469e+000	 1.001424903876093e+001
0	 8.866680074997040e+000	 5.333299999983334e+000	 1.001509243779349e+001
0	 8.933340177755776e+000	 4.666700000016665e+000	 9.999086801002747e+000
0	 8.933340177755778e+000	 4.733360000014533e+000	 1.000066708444430e+001
0	 8.933340177755776e+000	 4.800020000011599e+000	 1.000217768583922e+001
0	 8.933340177755778e+000	 4.866680000008067e+000	 1.000361818491419e+001
0	 8.933340177755776e+000	 4.933340000004134e+000	 1.000498816139588e+001
0	 8.933340177755776e+000	 5.000000000000001e+000	 1.000628719501095e+001
0	 8.933340177755778e+000	 5.066659999995866e+000	 1.000751486548611e+001
0	 8.933340177755778e+000	 5.133319999991936e+000	 1.000867075254799e+001
0	 8.933340177755779e+000	 5.199979999988400e+000	 1.000975443592332e+001
0	 8.933340177755778e+000	 5.266639999985468e+000	 1.001076549533876e+001
0	 8.933340177755776e+000	 5.333299999983334e+000	 1.001170351052098e+001
0	 9.000000347171181e+000	 4.666700000016666e+000	 9.994808346268382e+000
0	 9.000000347171181e+000	 4.733360000014534e+000	 9.996496361017668e+000
0	 9.000000347171179e+000	 4.800020000011601e+000	 9.998113014793390e+000
0	 9.000000347171181e+000	 4.866680000008067e+000	 9.999657909717515e+000
0	 9.000000347171179e+000	 4.933340000004135e+000	 1.000113064791206e+001
0	 9.000000347171175e+000	 5.000000000000000e+000	 1.000253083149903e+001
0	 9.000000347171179e+000	 5.066659999995867e+000	 1.000385806260043e+001
0	 9.000000347171181e+000	 5.133319999991935e+000	 1.000511194333827e+001
0	 9.000000347171179e+000	 5.199979999988401e+000	 1.000629207583456e+001
0	 9.000000347171183e+000	 5.266639999985468e+000	 1.000739806221131e+001
0	 9.000000347171179e+000	 5.333299999983334e+000	 1.000842950459054e+001
0	 9.066660599907664e+000	 4.666700000016666e+000	 9.990655845361381e+000
0	 9.066660599907667e+000	 4.733360000014533e+000	 9.992452329657606e+000
0	 9.066660599907667e+000	 4.800020000011600e+000	 9.994175538054057e+000
0	 9.066660599907666e+000	 4.866680000008067e+000	 9.995825099224806e+000
0	 9.066660599907666e+000	 4.933340000004132e+000	 9.997400641843999e+000
0	 9.066660599907669e+000	 5.000000000000001e+000	 9.998901794585750e+000
0	 9.066660599907664e+000	 5.066659999995865e+000	 1.000032818612417e+001
0	 9.066660599907666e+000	 5.133319999991935e+000	 1.000167944513338e+001
0	 9.066660599907667e+000	 5.199979999988401e+000	 1.000295520028751e+001
0	 9.066660599907664e+000	 5.266639999985467e+000	 1.000415508026068e+001
0	 9.066660599907666e+000	 5.333299999983335e+000	 1.000527871372703e+001
0	 9.133320952629655e+000	 4.666700000016668e+000	 9.986636876404273e+000
0	 9.133320952629653e+000	 4.733360000014533e+000	 9.988542758783662e+000
0	 9.133320952629649e+000	 4.800020000011599e+000	 9.990373187954058e+000
0	 9.133320952629651e+000	 4.866680000008066e+000	 9.992127823298405e+000
0	 9.133320952629653e+000	 4.933340000004134e+000	 9.993806324199706e+000
0	 9.133320952629651e+000	 4.999999999999999e+000	 9.995408350040925e+000
0	 9.133320952629651e+000	 5.066659999995867e+000	 9.996933560205036e+000
0	 9.133320952629653e+000	 5.133319999991934e+000	 9.998381614075035e+000
0	 9.133320952629653e+000	 5.199979999988401e+000	 9.999752171033864e+000
0	 9.133320952629651e+000	 5.266639999985467e+000	 1.000104489046453e+001
0	 9.133320952629653e+000	 5.333299999983335e+000	 1.000225943175003e+001
0	 9.199981422001555e+000	 4.666700000016666e+000	 9.982759017616420e+000
0	 9.199981422001557e+000	 4.733360000014533e+000	 9.984775416912603e+000
0	 9.199981422001553e+000	 4.800020000011599e+000	 9.986713896923714e+000
0	 9.199981422001557e+000	 4.866680000008066e+000	 9.988574151898270e+000
0	 9.199981422001553e+000	 4.933340000004133e+000	 9.990355876084823e+000
0	 9.199981422001555e+000	 4.999999999999999e+000	 9.992058763731890e+000
0	 9.199981422001558e+000	 5.066659999995867e+000	 9.993682509088009e+000
0	 9.199981422001557e+000	 5.133319999991934e+000	 9.995226806401726e+000
0	 9.199981422001555e+000	 5.199979999988400e+000	 9.996691349921591e+000
0	 9.199981422001555e+000	 5.266639999985469e+000	 9.998075833896120e+000
0	 9.199981422001555e+000	 5.333299999983333e+000	 9.999379952573865e+000
0	 9.266642024687791e+000	 4.666700000016667e+000	 9.979029847314072e+000
0	 9.266642024687792e+000	 4.733360000014534e+000	 9.981158072658424e+000
0	 9.266642024687791e+000	 4.800020000011601e+000	 9.983205597490809e+000
0	 9.266642024687791e+000	 4.866680000008067e+000	 9.985172155081916e+000
0	 9.266642024687792e+000	 4.933340000004133e+000	 9.987057478702544e+000
0	 9.266642024687791e+000	 4.999999999999999e+000	 9.988861301623407e+000
0	 9.266642024687792e+000	 5.066659999995867e+000	 9.990583357115268e+000
0	 9.266642024687791e+000	 5.133319999991934e+000	 9.992223378448857e+000
0	 9.266642024687792e+000	 5.199979999988401e+000	 9.993781098894962e+000
0	 9.266642024687792e+000	 5.266639999985468e+000	 9.995256251724305e+000
0	 9.266642024687792e+000	 5.333299999983334e+000	 9.996648570207650e+000
0	 9.333302777352785e+000	 4.666700000016667e+000	 9.975456943910363e+000
0	 9.333302777352783e+000	 4.733360000014533e+000	 9.977698494732355e+000
0	 9.333302777352783e+000	 4.800020000011600e+000	 9.979856222280535e+000
0	 9.333302777352781e+000	 4.866680000008067e+000	 9.981929903004460e+000
0	 9.333302777352781e+000	 4.933340000004134e+000	 9.983919313353677e+000
0	 9.333302777352783e+000	 5.000000000000000e+000	 9.985824229777723e+000
0	 9.333302777352785e+000	 5.066659999995867e+000	 9.987644428726190e+000
0	 9.333302777352783e+000	 5.133319999991935e+000	 9.989379686648610e+000
0	 9.333302777352783e+000	 5.199979999988400e+000	 9.991029779994550e+000
0	 9.333302777352781e+000	 5.266639999985467e+000	 9.992594485213559e+000
0	 9.333302777352785e+000	 5.333299999983335e+000	 9.994073578755224e+000
0	 8.666700000016668e+000	 5.333299999983335e+000	 1.002586581183629e+001
0	 8.666700000016668e+000	 5.399969999982151e+000	 1.002635839601937e+001
0	 8.666700000016668e+000	 5.466639999981867e+000	 1.002679845936694e+001
0	 8.666700000016668e+000	 5.533309999982384e+000	 1.002718508097659e+001
0	 8.666700000016668e+000	 5.599979999983600e+000	 1.002751733994593e+001
0	 8.666700000016665e+000	 5.666649999985414e+000	 1.002779431537254e+001
0	 8.666700000016666e+000	 5.733319999987733e+000	 1.002801508635402e+001
0	 8.666700000016666e+000	 5.799989999990448e+000	 1.002817873198796e+001
0	 8.666700000016665e+000	 5.866659999993467e+000	 1.002828433137198e+001
0	 8.666700000016665e+000	 5.933329999996682e+000	 1.002833096360366e+001
0	 8.666700000016666e+000	 6.000000000000001e+000	 1.002831770778058e+001
0	 8.733360002791903e+000	 5.333299999983334e+000	 1.002218188193912e+001
0	 8.733360002791901e+000	 5.399969999982150e+000	 1.002277101101613e+001
0	 8.733360002791901e+000	 5.466639999981867e+000	 1.002330587644551e+001
0	 8.733360002791898e+000	 5.533309999982383e+000	 1.002378562932450e+001
0	 8.733360002791901e+000	 5.599979999983601e+000	 1.002420942075027e+001
0	 8.733360002791905e+000	 5.666649999985417e+000	 1.002457640182005e+001
0	 8.733360002791901e+000	 5.733319999987733e+000	 1.002488572363101e+001
0	 8.733360002791903e+000	 5.799989999990450e+000	 1.002513653728041e+001
0	 8.733360002791903e+000	 5.866659999993467e+000	 1.002532799386537e+001
0	 8.733360002791903e+000	 5.933329999996683e+000	 1.002545924448317e+001
0	 8.733360002791903e+000	 6.000000000000001e+000	 1.002552944023095e+001
0	 8.800020022230555e+000	 5.333299999983335e+000	 1.001858799277798e+001
0	 8.800020022230553e+000	 5.399969999982150e+000	 1.001927254794604e+001
0	 8.800020022230555e+000	 5.466639999981866e+000	 1.001990104471919e+001
0	 8.800020022230555e+000	 5.533309999982383e+000	 1.002047270009060e+001
0	 8.800020022230557e+000	 5.599979999983599e+000	 1.002098673105340e+001
0	 8.800020022230553e+000	 5.666649999985416e+000	 1.002144235460074e+001
0	 8.800020022230555e+000	 5.733319999987733e+000	 1.002183878772575e+001
0	 8.800020022230555e+000	 5.799989999990449e+000	 1.002217524742158e+001
0	 8.800020022230557e+000	 5.866659999993468e+000	 1.002245095068138e+001
0	 8.800020022230553e+000	 5.933329999996682e+000	 1.002266511449829e+001
0	 8.800020022230555e+000	 6.000000000000001e+000	 1.002281695586543e+001
0	 8.866680074997040e+000	 5.333299999983334e+000	 1.001509243779349e+001
0	 8.866680074997042e+000	 5.399969999982152e+000	 1.001587123235377e+001
0	 8.866680074997039e+000	 5.466639999981867e+000	 1.001659210675564e+001
0	 8.866680074997040e+000	 5.533309999982382e+000	 1.001725433778450e+001
0	 8.866680074997042e+000	 5.599979999983600e+000	 1.001785720222571e+001
0	 8.866680074997042e+000	 5.666649999985416e+000	 1.001839997686465e+001
0	 8.866680074997044e+000	 5.733319999987733e+000	 1.001888193848669e+001
0	 8.866680074997042e+000	 5.799989999990451e+000	 1.001930236387722e+001
0	 8.866680074997042e+000	 5.866659999993469e+000	 1.001966052982161e+001
0	 8.866680074997040e+000	 5.933329999996684e+000	 1.001995571310522e+001
0	 8.866680074997040e+000	 6.000000000000000e+000	 1.002018719051342e+001
0	 8.933340177755776e+000	 5.333299999983334e+000	 1.001170351052097e+001
0	 8.933340177755772e+000	 5.399969999982149e+000	 1.001257528987768e+001
0	 8.933340177755778e+000	 5.466639999981867e+000	 1.001338720521508e+001
0	 8.933340177755776e+000	 5.533309999982383e+000	 1.001413858700703e+001
0	 8.933340177755778e+000	 5.599979999983600e+000	 1.001482876572741e+001
0	 8.933340177755778e+000	 5.666649999985417e+000	 1.001545707185007e+001
0	 8.933340177755774e+000	 5.733319999987733e+000	 1.001602283584891e+001
0	 8.933340177755778e+000	 5.799989999990450e+000	 1.001652538819777e+001
0	 8.933340177755774e+000	 5.866659999993467e+000	 1.001696405937050e+001
0	 8.933340177755778e+000	 5.933329999996684e+000	 1.001733817984100e+001
0	 8.933340177755772e+000	 6.000000000000000e+000	 1.001764708008311e+001
0	 9.000000347171179e+000	 5.333299999983334e+000	 1.000842950459054e+001
0	 9.000000347171179e+000	 5.399969999982150e+000	 1.000939294624991e+001
0	 9.000000347171177e+000	 5.466639999981867e+000	 1.001029448285029e+001
0	 9.000000347171179e+000	 5.533309999982383e+000	 1.001113349245030e+001
0	 9.000000347171177e+000	 5.599979999983599e+000	 1.001190935310853e+001
0	 9.000000347171175e+000	 5.666649999985416e+000	 1.001262144288356e+001
0	 9.000000347171181e+000	 5.733319999987733e+000	 1.001326913983398e+001
0	 9.000000347171177e+000	 5.799989999990448e+000	 1.001385182201840e+001
0	 9.000000347171179e+000	 5.866659999993467e+000	 1.001436886749540e+001
0	 9.000000347171179e+000	 5.933329999996683e+000	 1.001481965432355e+001
0	 9.000000347171179e+000	 6.000000000000002e+000	 1.001520356056148e+001
0	 9.066660599907666e+000	 5.333299999983335e+000	 1.000527871372703e+001
0	 9.066660599907666e+000	 5.399969999982150e+000	 1.000633242729629e+001
0	 9.066660599907669e+000	 5.466639999981866e+000	 1.000732208250667e+001
0	 9.066660599907667e+000	 5.533309999982383e+000	 1.000824709889770e+001
0	 9.066660599907667e+000	 5.599979999983600e+000	 1.000910689600891e+001
0	 9.066660599907667e+000	 5.666649999985417e+000	 1.000990089337987e+001
0	 9.066660599907666e+000	 5.733319999987734e+000	 1.001062851055008e+001
0	 9.066660599907667e+000	 5.799989999990450e+000	 1.001128916705909e+001
0	 9.066660599907666e+000	 5.866659999993467e+000	 1.001188228244644e+001
0	 9.066660599907664e+000	 5.933329999996684e+000	 1.001240727625166e+001
0	 9.066660599907664e+000	 5.999999999999998e+000	 1.001286356801429e+001
0	 9.133320952629653e+000	 5.333299999983335e+000	 1.000225943175002e+001
0	 9.133320952629651e+000	 5.399969999982150e+000	 1.000340195893643e+001
0	 9.133320952629651e+000	 5.466639999981865e+000	 1.000447814712215e+001
0	 9.133320952629653e+000	 5.533309999982384e+000	 1.000548745122386e+001
0	 9.133320952629649e+000	 5.599979999983599e+000	 1.000642932615826e+001
0	 9.133320952629653e+000	 5.666649999985417e+000	 1.000730322684205e+001
0	 9.133320952629653e+000	 5.733319999987733e+000	 1.000810860819192e+001
0	 9.133320952629651e+000	 5.799989999990450e+000	 1.000884492512457e+001
0	 9.133320952629653e+000	 5.866659999993467e+000	 1.000951163255669e+001
0	 9.133320952629651e+000	 5.933329999996684e+000	 1.001010818540497e+001
0	 9.133320952629653e+000	 5.999999999999999e+000	 1.001063403858609e+001
0	 9.199981422001555e+000	 5.333299999983333e+000	 9.999379952573863e+000
0	 9.199981422001557e+000	 5.399969999982150e+000	 1.000060976718368e+001
0	 9.199981422001555e+000	 5.466639999981865e+000	 1.000177081972726e+001
0	 9.199981422001553e+000	 5.533309999982383e+000	 1.000286259439471e+001
0	 9.199981422001553e+000	 5.599979999983601e+000	 1.000388457537605e+001
0	 9.199981422001555e+000	 5.666649999985418e+000	 1.000483624686140e+001
0	 9.199981422001557e+000	 5.733319999987733e+000	 1.000571709304079e+001
0	 9.199981422001555e+000	 5.799989999990449e+000	 1.000652659810431e+001
0	 9.199981422001553e+000	 5.866659999993467e+000	 1.000726424624201e+001
0	 9.199981422001557e+000	 5.933329999996684e+000	 1.000792952164400e+001
0	 9.199981422001555e+000	 6.000000000000000e+000	 1.000852190850029e+001
0	 9.266642024687792e+000	 5.333299999983334e+000	 9.996648570207650e+000
0	 9.266642024687794e+000	 5.399969999982150e+000	 9.997964078145115e+000
0	 9.266642024687791e+000	 5.466639999981865e+000	 9.999208243445139e+000
0	 9.266642024687789e+000	 5.533309999982384e+000	 1.000038057346742e+001
0	 9.266642024687789e+000	 5.599979999983599e+000	 1.000148057557163e+001
0	 9.266642024687791e+000	 5.666649999985417e+000	 1.000250775711743e+001
0	 9.266642024687792e+000	 5.733319999987733e+000	 1.000346162546451e+001
0	 9.266642024687791e+000	 5.799989999990449e+000	 1.000434168797254e+001
0	 9.266642024687794e+000	 5.866659999993468e+000	 1.000514745200119e+001
0	 9.266642024687791e+000	 5.933329999996684e+000	 1.000587842491012e+001
0	 9.266642024687791e+000	 6.000000000000000e+000	 1.000653411405902e+001
0	 9.333302777352785e+000	 5.333299999983335e+000	 9.994073578755222e+000
0	 9.333302777352783e+000	 5.399969999982150e+000	 9.995473118021543e+000
0	 9.333302777352785e+000	 5.466639999981866e+000	 9.996798561491447e+000
0	 9.333302777352781e+000	 5.533309999982382e+000	 9.998049433590460e+000
0	 9.333302777352783e+000	 5.599979999983600e+000	 9.999225258744129e+000
0	 9.333302777352781e+000	 5.666649999985415e+000	 1.000032556137797e+001
0	 9.333302777352783e+000	 5.733319999987732e+000	 1.000134986591751e+001
0	 9.333302777352783e+000	 5.799989999990450e+000	 1.000229769678829e+001
0	 9.333302777352781e+000	 5.866659999993467e+000	 1.000316857841581e+001
0	 9.333302777352783e+000	 5.933329999996682e+000	 1.000396203522563e+001
0	 9.333302777352785e+000	 6.000000000000001e+000	 1.000467759164324e+001
0	 8.666700000016666e+000	 6.000000000000001e+000	 1.002831770778058e+001
0	 8.666700000016666e+000	 6.066670000003318e+000	 1.002825622318418e+001
0	 8.666700000016666e+000	 6.133340000006533e+000	 1.002815812198004e+001
0	 8.666700000016666e+000	 6.200010000009550e+000	 1.002802241259208e+001
0	 8.666700000016666e+000	 6.266680000012268e+000	 1.002784810344419e+001
0	 8.666700000016666e+000	 6.333350000014585e+000	 1.002763420296027e+001
0	 8.666700000016668e+000	 6.400020000016401e+000	 1.002737971956421e+001
0	 8.666700000016668e+000	 6.466690000017617e+000	 1.002708366167991e+001
0	 8.666700000016668e+000	 6.533360000018135e+000	 1.002674503773125e+001
0	 8.666700000016666e+000	 6.600030000017850e+000	 1.002636285614214e+001
0	 8.666700000016666e+000	 6.666700000016665e+000	 1.002593612533645e+001
0	 8.733360002791903e+000	 6.000000000000001e+000	 1.002552944023095e+001
0	 8.733360002791901e+000	 6.066670000003316e+000	 1.002555003418937e+001
0	 8.733360002791903e+000	 6.133340000006531e+000	 1.002553241631149e+001
0	 8.733360002791905e+000	 6.200010000009552e+000	 1.002547564300316e+001
0	 8.733360002791899e+000	 6.266680000012267e+000	 1.002537877067023e+001
0	 8.733360002791903e+000	 6.333350000014586e+000	 1.002524085571855e+001
0	 8.733360002791901e+000	 6.400020000016400e+000	 1.002506095455399e+001
0	 8.733360002791901e+000	 6.466690000017617e+000	 1.002483812358234e+001
0	 8.733360002791899e+000	 6.533360000018134e+000	 1.002457141920947e+001
0	 8.733360002791899e+000	 6.600030000017851e+000	 1.002425989784126e+001
0	 8.733360002791901e+000	 6.666700000016667e+000	 1.002390261588353e+001
0	 8.800020022230555e+000	 6.000000000000001e+000	 1.002281695586543e+001
0	 8.800020022230555e+000	 6.066670000003318e+000	 1.002291775490637e+001
0	 8.800020022230555e+000	 6.133340000006534e+000	 1.002297871436453e+001
0	 8.800020022230553e+000	 6.200010000009550e+000	 1.002299893516281e+001
0	 8.800020022230555e+000	 6.266680000012268e+000	 1.002297751822417e+001
0	 8.800020022230553e+000	 6.333350000014582e+000	 1.002291356447153e+001
0	 8.800020022230555e+000	 6.400020000016401e+000	 1.002280617482780e+001
0	 8.800020022230553e+000	 6.466690000017617e+000	 1.002265445021592e+001
0	 8.800020022230553e+000	 6.533360000018133e+000	 1.002245749155880e+001
0	 8.800020022230557e+000	 6.600030000017851e+000	 1.002221439977937e+001
0	 8.800020022230555e+000	 6.666700000016666e+000	 1.002192427580058e+001
0	 8.866680074997040e+000	 6.000000000000000e+000	 1.002018719051342e+001
0	 8.866680074997040e+000	 6.066670000003319e+000	 1.002036610731419e+001
0	 8.866680074997040e+000	 6.133340000006534e+000	 1.002050351890197e+001
0	 8.866680074997042e+000	 6.200010000009552e+000	 1.002059856725186e+001
0	 8.866680074997046e+000	 6.266680000012268e+000	 1.002065039433895e+001
0	 8.866680074997040e+000	 6.333350000014583e+000	 1.002065814213838e+001
0	 8.866680074997042e+000	 6.400020000016400e+000	 1.002062095262521e+001
0	 8.866680074997040e+000	 6.466690000017616e+000	 1.002053796777454e+001
0	 8.866680074997039e+000	 6.533360000018133e+000	 1.002040832956150e+001
0	 8.866680074997042e+000	 6.600030000017850e+000	 1.002023117996115e+001
0	 8.866680074997042e+000	 6.666700000016669e+000	 1.002000566094863e+001
0	 8.933340177755772e+000	 6.000000000000000e+000	 1.001764708008311e+001
0	 8.933340177755776e+000	 6.066670000003318e+000	 1.001790181346848e+001
0	 8.933340177755774e+000	 6.133340000006532e+000	 1.001811333276107e+001
0	 8.933340177755776e+000	 6.200010000009550e+000	 1.001828081752326e+001
0	 8.933340177755774e+000	 6.266680000012266e+000	 1.001840344731735e+001
0	 8.933340177755778e+000	 6.333350000014584e+000	 1.001848040170571e+001
0	 8.933340177755774e+000	 6.400020000016401e+000	 1.001851086025070e+001
0	 8.933340177755779e+000	 6.466690000017618e+000	 1.001849400251464e+001
0	 8.933340177755774e+000	 6.533360000018132e+000	 1.001842900805988e+001
0	 8.933340177755776e+000	 6.600030000017850e+000	 1.001831505644876e+001
0	 8.933340177755774e+000	 6.666700000016665e+000	 1.001815132724365e+001
0	 9.000000347171179e+000	 6.000000000000002e+000	 1.001520356056148e+001
0	 9.000000347171181e+000	 6.066670000003318e+000	 1.001553159550155e+001
0	 9.000000347171177e+000	 6.133340000006533e+000	 1.001581465885356e+001
0	 9.000000347171174e+000	 6.200010000009550e+000	 1.001605196430215e+001
0	 9.000000347171179e+000	 6.266680000012268e+000	 1.001624272553195e+001
0	 9.000000347171175e+000	 6.333350000014583e+000	 1.001638615622763e+001
0	 9.000000347171177e+000	 6.400020000016401e+000	 1.001648147007381e+001
0	 9.000000347171179e+000	 6.466690000017616e+000	 1.001652788075516e+001
0	 9.000000347171179e+000	 6.533360000018135e+000	 1.001652460195630e+001
0	 9.000000347171179e+000	 6.600030000017849e+000	 1.001647084736189e+001
0	 9.000000347171181e+000	 6.666700000016665e+000	 1.001636583065655e+001
0	 9.066660599907664e+000	 5.999999999999998e+000	 1.001286356801429e+001
0	 9.066660599907664e+000	 6.066670000003315e+000	 1.001326217562235e+001
0	 9.066660599907666e+000	 6.133340000006532e+000	 1.001361400016553e+001
0	 9.066660599907667e+000	 6.200010000009553e+000	 1.001391828598582e+001
0	 9.066660599907666e+000	 6.266680000012268e+000	 1.001417427742520e+001
0	 9.066660599907664e+000	 6.333350000014582e+000	 1.001438121882564e+001
0	 9.066660599907666e+000	 6.400020000016402e+000	 1.001453835452912e+001
0	 9.066660599907666e+000	 6.466690000017617e+000	 1.001464492887765e+001
0	 9.066660599907666e+000	 6.533360000018134e+000	 1.001470018621318e+001
0	 9.066660599907666e+000	 6.600030000017851e+000	 1.001470337087770e+001
0	 9.066660599907664e+000	 6.666700000016666e+000	 1.001465372721319e+001
0	 9.133320952629653e+000	 5.999999999999999e+000	 1.001063403858609e+001
0	 9.133320952629651e+000	 6.066670000003315e+000	 1.001110027611646e+001
0	 9.133320952629651e+000	 6.133340000006532e+000	 1.001151785975755e+001
0	 9.133320952629651e+000	 6.200010000009550e+000	 1.001188606104373e+001
0	 9.133320952629655e+000	 6.266680000012268e+000	 1.001220415150933e+001
0	 9.133320952629651e+000	 6.333350000014585e+000	 1.001247140268869e+001
0	 9.133320952629649e+000	 6.400020000016400e+000	 1.001268708611619e+001
0	 9.133320952629655e+000	 6.466690000017618e+000	 1.001285047332616e+001
0	 9.133320952629653e+000	 6.533360000018135e+000	 1.001296083585294e+001
0	 9.133320952629649e+000	 6.600030000017851e+000	 1.001301744523089e+001
0	 9.133320952629653e+000	 6.666700000016665e+000	 1.001301957299434e+001
0	 9.199981422001555e+000	 6.000000000000000e+000	 1.000852190850029e+001
0	 9.199981422001555e+000	 6.066670000003318e+000	 1.000905261934615e+001
0	 9.199981422001551e+000	 6.133340000006533e+000	 1.000953274076465e+001
0	 9.199981422001557e+000	 6.200010000009553e+000	 1.000996156801749e+001
0	 9.199981422001557e+000	 6.266680000012268e+000	 1.001033839636645e+001
0	 9.199981422001555e+000	 6.333350000014585e+000	 1.001066252107323e+001
0	 9.199981422001558e+000	 6.400020000016402e+000	 1.001093323739961e+001
0	 9.199981422001555e+000	 6.466690000017617e+000	 1.001114984060730e+001
0	 9.199981422001555e+000	 6.533360000018134e+000	 1.001131162595806e+001
0	 9.199981422001555e+000	 6.600030000017848e+000	 1.001141788871365e+001
0	 9.199981422001555e+000	 6.666700000016665e+000	 1.001146792413574e+001
0	 9.266642024687791e+000	 6.000000000000000e+000	 1.000653411405902e+001
0	 9.266642024687792e+000	 6.066670000003316e+000	 1.000712592775034e+001
0	 9.266642024687792e+000	 6.133340000006531e+000	 1.000766514639625e+001
0	 9.266642024687791e+000	 6.200010000009550e+000	 1.000815108552091e+001
0	 9.266642024687789e+000	 6.266680000012267e+000	 1.000858306064846e+001
0	 9.266642024687792e+000	 6.333350000014586e+000	 1.000896038730310e+001
0	 9.266642024687791e+000	 6.400020000016402e+000	 1.000928238100898e+001
0	 9.266642024687791e+000	 6.466690000017617e+000	 1.000954835729026e+001
0	 9.266642024687791e+000	 6.533360000018133e+000	 1.000975763167108e+001
0	 9.266642024687796e+000	 6.600030000017851e+000	 1.000990951967563e+001
0	 9.266642024687791e+000	 6.666700000016667e+000	 1.001000333682806e+001
0	 9.333302777352785e+000	 6.000000000000001e+000	 1.000467759164324e+001
0	 9.333302777352781e+000	 6.066670000003315e+000	 1.000532692384456e+001
0	 9.333302777352783e+000	 6.133340000006534e+000	 1.000592157993625e+001
0	 9.333302777352783e+000	 6.200010000009552e+000	 1.000646089223991e+001
0	 9.333302777352781e+000	 6.266680000012266e+000	 1.000694419307716e+001
0	 9.333302777352783e+000	 6.333350000014586e+000	 1.000737081476964e+001
0	 9.333302777352783e+000	 6.400020000016400e+000	 1.000774008963893e+001
0	 9.333302777352783e+000	 6.466690000017617e+000	 1.000805135000670e+001
0	 9.333302777352785e+000	 6.533360000018136e+000	 1.000830392819453e+001
0	 9.333302777352783e+000	 6.600030000017850e+000	 1.000849715652406e+001
0	 9.333302777352783e+000	 6.666700000016666e+000	 1.000863036731689e+001
0	 8.666700000016666e+000	 6.666700000016665e+000	 1.002593612533645e+001
0	 8.666700000016666e+000	 6.733360000014533e+000	 1.002547783914712e+001
0	 8.666700000016668e+000	 6.800020000011599e+000	 1.002500080922471e+001
0	 8.666700000016668e+000	 6.866680000008068e+000	 1.002450397291068e+001
0	 8.666700000016666e+000	 6.933340000004133e+000	 1.002398626754648e+001
0	 8.666700000016666e+000	 7.000000000000001e+000	 1.002344663047357e+001
0	 8.666700000016665e+000	 7.066659999995867e+000	 1.002288399903338e+001
0	 8.666700000016665e+000	 7.133319999991934e+000	 1.002229731056739e+001
0	 8.666700000016668e+000	 7.199979999988400e+000	 1.002168550241704e+001
0	 8.666700000016666e+000	 7.266639999985467e+000	 1.002104751192381e+001
0	 8.666700000016665e+000	 7.333299999983335e+000	 1.002038227642911e+001
0	 8.733360002791901e+000	 6.666700000016667e+000	 1.002390261588353e+001
0	 8.733360002791903e+000	 6.733360000014534e+000	 1.002351249731514e+001
0	 8.733360002791905e+000	 6.800020000011600e+000	 1.002310230346651e+001
0	 8.733360002791903e+000	 6.866680000008067e+000	 1.002267101797684e+001
0	 8.733360002791901e+000	 6.933340000004133e+000	 1.002221762448533e+001
0	 8.733360002791903e+000	 6.999999999999999e+000	 1.002174110663117e+001
0	 8.733360002791899e+000	 7.066659999995866e+000	 1.002124044805355e+001
0	 8.733360002791905e+000	 7.133319999991935e+000	 1.002071463239170e+001
0	 8.733360002791905e+000	 7.199979999988400e+000	 1.002016264328479e+001
0	 8.733360002791901e+000	 7.266639999985468e+000	 1.001958346437202e+001
0	 8.733360002791903e+000	 7.333299999983335e+000	 1.001897607929260e+001
0	 8.800020022230555e+000	 6.666700000016666e+000	 1.002192427580058e+001
0	 8.800020022230555e+000	 6.733360000014533e+000	 1.002160001929616e+001
0	 8.800020022230555e+000	 6.800020000011600e+000	 1.002125438632545e+001
0	 8.800020022230553e+000	 6.866680000008066e+000	 1.002088640365562e+001
0	 8.800020022230559e+000	 6.933340000004135e+000	 1.002049509805377e+001
0	 8.800020022230557e+000	 7.000000000000001e+000	 1.002007949628705e+001
0	 8.800020022230557e+000	 7.066659999995866e+000	 1.001963862512260e+001
0	 8.800020022230553e+000	 7.133319999991935e+000	 1.001917151132754e+001
0	 8.800020022230555e+000	 7.199979999988401e+000	 1.001867718166899e+001
0	 8.800020022230553e+000	 7.266639999985467e+000	 1.001815466291412e+001
0	 8.800020022230557e+000	 7.333299999983335e+000	 1.001760298183006e+001
0	 8.866680074997042e+000	 6.666700000016669e+000	 1.002000566094863e+001
0	 8.866680074997040e+000	 6.733360000014534e+000	 1.001974469543518e+001
0	 8.866680074997042e+000	 6.800020000011601e+000	 1.001946108117234e+001
0	 8.866680074997040e+000	 6.866680000008069e+000	 1.001915388488533e+001
0	 8.866680074997044e+000	 6.933340000004134e+000	 1.001882217329941e+001
0	 8.866680074997042e+000	 7.000000000000002e+000	 1.001846501313980e+001
0	 8.866680074997042e+000	 7.066659999995867e+000	 1.001808147113174e+001
0	 8.866680074997042e+000	 7.133319999991934e+000	 1.001767061400046e+001
0	 8.866680074997042e+000	 7.199979999988402e+000	 1.001723150847119e+001
0	 8.866680074997042e+000	 7.266639999985468e+000	 1.001676322126919e+001
0	 8.866680074997042e+000	 7.333299999983335e+000	 1.001626481911968e+001
0	 8.933340177755774e+000	 6.666700000016665e+000	 1.001815132724365e+001
0	 8.933340177755776e+000	 6.733360000014533e+000	 1.001795081612955e+001
0	 8.933340177755774e+000	 6.800020000011598e+000	 1.001772641142766e+001
0	 8.933340177755776e+000	 6.866680000008067e+000	 1.001747721665142e+001
0	 8.933340177755776e+000	 6.933340000004134e+000	 1.001720233531434e+001
0	 8.933340177755774e+000	 6.999999999999998e+000	 1.001690087092987e+001
0	 8.933340177755776e+000	 7.066659999995867e+000	 1.001657192701152e+001
0	 8.933340177755778e+000	 7.133319999991936e+000	 1.001621460707274e+001
0	 8.933340177755778e+000	 7.199979999988400e+000	 1.001582801462701e+001
0	 8.933340177755778e+000	 7.266639999985468e+000	 1.001541125318781e+001
0	 8.933340177755776e+000	 7.333299999983334e+000	 1.001496342626864e+001
0	 9.000000347171181e+000	 6.666700000016665e+000	 1.001636583065655e+001
0	 9.000000347171183e+000	 6.733360000014532e+000	 1.001622267182899e+001
0	 9.000000347171177e+000	 6.800020000011598e+000	 1.001605440056168e+001
0	 9.000000347171177e+000	 6.866680000008066e+000	 1.001586015398646e+001
0	 9.000000347171181e+000	 6.933340000004135e+000	 1.001563906923517e+001
0	 9.000000347171177e+000	 6.999999999999999e+000	 1.001539028343966e+001
0	 9.000000347171181e+000	 7.066659999995868e+000	 1.001511293373175e+001
0	 9.000000347171181e+000	 7.133319999991935e+000	 1.001480615724331e+001
0	 9.000000347171179e+000	 7.199979999988400e+000	 1.001446909110613e+001
0	 9.000000347171183e+000	 7.266639999985467e+000	 1.001410087245210e+001
0	 9.000000347171181e+000	 7.333299999983333e+000	 1.001370063841305e+001
0	 9.066660599907664e+000	 6.666700000016666e+000	 1.001465372721319e+001
0	 9.066660599907666e+000	 6.733360000014534e+000	 1.001456455303553e+001
0	 9.066660599907667e+000	 6.800020000011601e+000	 1.001444907209443e+001
0	 9.066660599907666e+000	 6.866680000008066e+000	 1.001430645197016e+001
0	 9.066660599907666e+000	 6.933340000004134e+000	 1.001413586024307e+001
0	 9.066660599907669e+000	 6.999999999999999e+000	 1.001393646449344e+001
0	 9.066660599907667e+000	 7.066659999995868e+000	 1.001370743230158e+001
0	 9.066660599907666e+000	 7.133319999991934e+000	 1.001344793124780e+001
0	 9.066660599907667e+000	 7.199979999988400e+000	 1.001315712891240e+001
0	 9.066660599907666e+000	 7.266639999985467e+000	 1.001283419287571e+001
0	 9.066660599907664e+000	 7.333299999983335e+000	 1.001247829071805e+001
0	 9.133320952629653e+000	 6.666700000016665e+000	 1.001301957299434e+001
0	 9.133320952629653e+000	 6.733360000014534e+000	 1.001298075030363e+001
0	 9.133320952629649e+000	 6.800020000011600e+000	 1.001291444959571e+001
0	 9.133320952629653e+000	 6.866680000008066e+000	 1.001281986572944e+001
0	 9.133320952629651e+000	 6.933340000004134e+000	 1.001269619356372e+001
0	 9.133320952629651e+000	 6.999999999999999e+000	 1.001254262795740e+001
0	 9.133320952629651e+000	 7.066659999995866e+000	 1.001235836376939e+001
0	 9.133320952629653e+000	 7.133319999991934e+000	 1.001214259585852e+001
0	 9.133320952629651e+000	 7.199979999988401e+000	 1.001189451908370e+001
0	 9.133320952629653e+000	 7.266639999985467e+000	 1.001161332830378e+001
0	 9.133320952629655e+000	 7.333299999983335e+000	 1.001129821837766e+001
0	 9.199981422001555e+000	 6.666700000016665e+000	 1.001146792413574e+001
0	 9.199981422001558e+000	 6.733360000014534e+000	 1.001147555424002e+001
0	 9.199981422001553e+000	 6.800020000011599e+000	 1.001145455668502e+001
0	 9.199981422001555e+000	 6.866680000008067e+000	 1.001140415043829e+001
0	 9.199981422001555e+000	 6.933340000004133e+000	 1.001132355446734e+001
0	 9.199981422001555e+000	 7.000000000000000e+000	 1.001121198773970e+001
0	 9.199981422001557e+000	 7.066659999995869e+000	 1.001106866922291e+001
0	 9.199981422001555e+000	 7.133319999991935e+000	 1.001089281788450e+001
0	 9.199981422001553e+000	 7.199979999988400e+000	 1.001068365269202e+001
0	 9.199981422001555e+000	 7.266639999985466e+000	 1.001044039261299e+001
0	 9.199981422001555e+000	 7.333299999983335e+000	 1.001016225661494e+001
0	 9.266642024687791e+000	 6.666700000016667e+000	 1.001000333682806e+001
0	 9.266642024687791e+000	 6.733360000014530e+000	 1.001005325550385e+001
0	 9.266642024687791e+000	 6.800020000011600e+000	 1.001007341703171e+001
0	 9.266642024687794e+000	 6.866680000008067e+000	 1.001006306131789e+001
0	 9.266642024687794e+000	 6.933340000004134e+000	 1.001002142826865e+001
0	 9.266642024687789e+000	 6.999999999999998e+000	 1.000994775779033e+001
0	 9.266642024687792e+000	 7.066659999995867e+000	 1.000984128978916e+001
0	 9.266642024687794e+000	 7.133319999991936e+000	 1.000970126417145e+001
0	 9.266642024687792e+000	 7.199979999988400e+000	 1.000952692084349e+001
0	 9.266642024687792e+000	 7.266639999985467e+000	 1.000931749971152e+001
0	 9.266642024687791e+000	 7.333299999983332e+000	 1.000907224068188e+001
0	 9.333302777352783e+000	 6.666700000016666e+000	 1.000863036731689e+001
0	 9.333302777352783e+000	 6.733360000014532e+000	 1.000871814480661e+001
0	 9.333302777352783e+000	 6.800020000011600e+000	 1.000877505435478e+001
0	 9.333302777352783e+000	 6.866680000008068e+000	 1.000880035363653e+001
0	 9.333302777352781e+000	 6.933340000004135e+000	 1.000879330032696e+001
0	 9.333302777352781e+000	 6.999999999999999e+000	 1.000875315210123e+001
0	 9.333302777352783e+000	 7.066659999995867e+000	 1.000867916663446e+001
0	 9.333302777352783e+000	 7.133319999991934e+000	 1.000857060160176e+001
0	 9.333302777352783e+000	 7.199979999988400e+000	 1.000842671467826e+001
0	 9.333302777352783e+000	 7.266639999985467e+000	 1.000824676353912e+001
0	 9.333302777352785e+000	 7.333299999983335e+000	 1.000803000585943e+001
0	 8.666700000016665e+000	 7.333299999983335e+000	 1.002038227642911e+001
0	 8.666700000016666e+000	 7.399969999982151e+000	 1.001970299182666e+001
0	 8.666700000016668e+000	 7.466639999981867e+000	 1.001902299789102e+001
0	 8.666700000016668e+000	 7.533309999982383e+000	 1.001834114210897e+001
0	 8.666700000016668e+000	 7.599979999983599e+000	 1.001765627196724e+001
0	 8.666700000016666e+000	 7.666649999985415e+000	 1.001696723495264e+001
0	 8.666700000016666e+000	 7.733319999987733e+000	 1.001627287855190e+001
0	 8.666700000016666e+000	 7.799989999990450e+000	 1.001557205025180e+001
0	 8.666700000016663e+000	 7.866659999993464e+000	 1.001486359753909e+001
0	 8.666700000016666e+000	 7.933329999996683e+000	 1.001414636790056e+001
0	 8.666700000016666e+000	 7.999999999999999e+000	 1.001341920882295e+001
0	 8.733360002791903e+000	 7.333299999983335e+000	 1.001897607929260e+001
0	 8.733360002791899e+000	 7.399969999982149e+000	 1.001835360965875e+001
0	 8.733360002791899e+000	 7.466639999981866e+000	 1.001772931332797e+001
0	 8.733360002791898e+000	 7.533309999982383e+000	 1.001710209845733e+001
0	 8.733360002791901e+000	 7.599979999983598e+000	 1.001647087320391e+001
0	 8.733360002791905e+000	 7.666649999985416e+000	 1.001583454572475e+001
0	 8.733360002791901e+000	 7.733319999987733e+000	 1.001519202417693e+001
0	 8.733360002791905e+000	 7.799989999990449e+000	 1.001454221671748e+001
0	 8.733360002791903e+000	 7.866659999993466e+000	 1.001388403150350e+001
0	 8.733360002791903e+000	 7.933329999996683e+000	 1.001321637669203e+001
0	 8.733360002791903e+000	 7.999999999999999e+000	 1.001253816044011e+001
0	 8.800020022230557e+000	 7.333299999983335e+000	 1.001760298183006e+001
0	 8.800020022230555e+000	 7.399969999982151e+000	 1.001703521940710e+001
0	 8.800020022230555e+000	 7.466639999981867e+000	 1.001646458533662e+001
0	 8.800020022230553e+000	 7.533309999982382e+000	 1.001589004444780e+001
0	 8.800020022230557e+000	 7.599979999983601e+000	 1.001531056156981e+001
0	 8.800020022230553e+000	 7.666649999985416e+000	 1.001472510153181e+001
0	 8.800020022230555e+000	 7.733319999987734e+000	 1.001413262916301e+001
0	 8.800020022230555e+000	 7.799989999990451e+000	 1.001353210929258e+001
0	 8.800020022230555e+000	 7.866659999993468e+000	 1.001292250674971e+001
0	 8.800020022230555e+000	 7.933329999996682e+000	 1.001230278636358e+001
0	 8.800020022230557e+000	 8.000000000000004e+000	 1.001167191296336e+001
0	 8.866680074997042e+000	 7.333299999983335e+000	 1.001626481911968e+001
0	 8.866680074997042e+000	 7.399969999982151e+000	 1.001574938165384e+001
0	 8.866680074997040e+000	 7.466639999981867e+000	 1.001523010983475e+001
0	 8.866680074997039e+000	 7.533309999982383e+000	 1.001470602116545e+001
0	 8.866680074997040e+000	 7.599979999983600e+000	 1.001417613314907e+001
0	 8.866680074997044e+000	 7.666649999985416e+000	 1.001363946328869e+001
0	 8.866680074997044e+000	 7.733319999987732e+000	 1.001309502908737e+001
0	 8.866680074997042e+000	 7.799989999990450e+000	 1.001254184804821e+001
0	 8.866680074997040e+000	 7.866659999993467e+000	 1.001197893767431e+001
0	 8.866680074997039e+000	 7.933329999996683e+000	 1.001140531546874e+001
0	 8.866680074997044e+000	 8.000000000000002e+000	 1.001081999893460e+001
0	 8.933340177755776e+000	 7.333299999983334e+000	 1.001496342626863e+001
0	 8.933340177755774e+000	 7.399969999982150e+000	 1.001449765700747e+001
0	 8.933340177755778e+000	 7.466639999981866e+000	 1.001402718276398e+001
0	 8.933340177755778e+000	 7.533309999982384e+000	 1.001355106971692e+001
0	 8.933340177755774e+000	 7.599979999983599e+000	 1.001306838404500e+001
0	 8.933340177755779e+000	 7.666649999985416e+000	 1.001257819192699e+001
0	 8.933340177755776e+000	 7.733319999987733e+000	 1.001207955954163e+001
0	 8.933340177755778e+000	 7.799989999990448e+000	 1.001157155306768e+001
0	 8.933340177755774e+000	 7.866659999993465e+000	 1.001105323868385e+001
0	 8.933340177755776e+000	 7.933329999996684e+000	 1.001052368256892e+001
0	 8.933340177755776e+000	 8.000000000000000e+000	 1.000998195090160e+001
0	 9.000000347171181e+000	 7.333299999983333e+000	 1.001370063841305e+001
0	 9.000000347171177e+000	 7.399969999982148e+000	 1.001328160610297e+001
0	 9.000000347171181e+000	 7.466639999981867e+000	 1.001285710009000e+001
0	 9.000000347171183e+000	 7.533309999982383e+000	 1.001242623123028e+001
0	 9.000000347171179e+000	 7.599979999983600e+000	 1.001198811037993e+001
0	 9.000000347171175e+000	 7.666649999985415e+000	 1.001154184839509e+001
0	 9.000000347171179e+000	 7.733319999987732e+000	 1.001108655613189e+001
0	 9.000000347171177e+000	 7.799989999990450e+000	 1.001062134444645e+001
0	 9.000000347171179e+000	 7.866659999993466e+000	 1.001014532419493e+001
0	 9.000000347171179e+000	 7.933329999996682e+000	 1.000965760623345e+001
0	 9.000000347171179e+000	 8.000000000000000e+000	 1.000915730141810e+001
0	 9.066660599907664e+000	 7.333299999983335e+000	 1.001247829071805e+001
0	 9.066660599907664e+000	 7.399969999982150e+000	 1.001210278960172e+001
0	 9.066660599907667e+000	 7.466639999981867e+000	 1.001172115780233e+001
0	 9.066660599907667e+000	 7.533309999982382e+000	 1.001133254685510e+001
0	 9.066660599907667e+000	 7.599979999983600e+000	 1.001093610829526e+001
0	 9.066660599907666e+000	 7.666649999985417e+000	 1.001053099365801e+001
0	 9.066660599907666e+000	 7.733319999987734e+000	 1.001011635447860e+001
0	 9.066660599907667e+000	 7.799989999990448e+000	 1.000969134229224e+001
0	 9.066660599907666e+000	 7.866659999993467e+000	 1.000925510863417e+001
0	 9.066660599907664e+000	 7.933329999996683e+000	 1.000880680503957e+001
0	 9.066660599907669e+000	 8.000000000000000e+000	 1.000834558304372e+001
0	 9.133320952629655e+000	 7.333299999983335e+000	 1.001129821837766e+001
0	 9.133320952629649e+000	 7.399969999982150e+000	 1.001096276819158e+001
0	 9.133320952629649e+000	 7.466639999981865e+000	 1.001062065191452e+001
0	 9.133320952629655e+000	 7.533309999982383e+000	 1.001027105776248e+001
0	 9.133320952629649e+000	 7.599979999983599e+000	 1.000991317395148e+001
0	 9.133320952629653e+000	 7.666649999985417e+000	 1.000954618869755e+001
0	 9.133320952629653e+000	 7.733319999987733e+000	 1.000916929021667e+001
0	 9.133320952629651e+000	 7.799989999990449e+000	 1.000878166672486e+001
0	 9.133320952629653e+000	 7.866659999993467e+000	 1.000838250643813e+001
0	 9.133320952629651e+000	 7.933329999996684e+000	 1.000797099757249e+001
0	 9.133320952629651e+000	 8.000000000000000e+000	 1.000754632834395e+001
0	 9.199981422001555e+000	 7.333299999983335e+000	 1.001016225661494e+001
0	 9.199981422001557e+000	 7.399969999982152e+000	 1.000986310258681e+001
0	 9.199981422001555e+000	 7.466639999981866e+000	 1.000955687846400e+001
0	 9.199981422001555e+000	 7.533309999982385e+000	 1.000924280514496e+001
0	 9.199981422001553e+000	 7.599979999983598e+000	 1.000892010352822e+001
0	 9.199981422001555e+000	 7.666649999985417e+000	 1.000858799451220e+001
0	 9.199981422001555e+000	 7.733319999987733e+000	 1.000824569899542e+001
0	 9.199981422001555e+000	 7.799989999990450e+000	 1.000789243787636e+001
0	 9.199981422001553e+000	 7.866659999993467e+000	 1.000752743205349e+001
0	 9.199981422001555e+000	 7.933329999996682e+000	 1.000714990242528e+001
0	 9.199981422001553e+000	 8.000000000000000e+000	 1.000675906989024e+001
0	 9.266642024687791e+000	 7.333299999983332e+000	 1.000907224068188e+001
0	 9.266642024687792e+000	 7.399969999982150e+000	 1.000880535352816e+001
0	 9.266642024687791e+000	 7.466639999981865e+000	 1.000853113351220e+001
0	 9.266642024687791e+000	 7.533309999982384e+000	 1.000824883021663e+001
0	 9.266642024687792e+000	 7.599979999983600e+000	 1.000795769322408e+001
0	 9.266642024687794e+000	 7.666649999985417e+000	 1.000765697211720e+001
0	 9.266642024687791e+000	 7.733319999987732e+000	 1.000734591647861e+001
0	 9.266642024687792e+000	 7.799989999990449e+000	 1.000702377589096e+001
0	 9.266642024687792e+000	 7.866659999993466e+000	 1.000668979993687e+001
0	 9.266642024687792e+000	 7.933329999996682e+000	 1.000634323819896e+001
0	 9.266642024687792e+000	 8.000000000000000e+000	 1.000598334025989e+001
0	 9.333302777352785e+000	 7.333299999983335e+000	 1.000803000585943e+001
0	 9.333302777352781e+000	 7.399969999982150e+000	 1.000779108178276e+001
0	 9.333302777352783e+000	 7.466639999981866e+000	 1.000754471314446e+001
0	 9.333302777352783e+000	 7.533309999982383e+000	 1.000729017421299e+001
0	 9.333302777352785e+000	 7.599979999983600e+000	 1.000702673925684e+001
0	 9.333302777352783e+000	 7.666649999985418e+000	 1.000675368254448e+001
0	 9.333302777352783e+000	 7.733319999987732e+000	 1.000647027834438e+001
0	 9.333302777352783e+000	 7.799989999990449e+000	 1.000617580092504e+001
0	 9.333302777352781e+000	 7.866659999993466e+000	 1.000586952455489e+001
0	 9.333302777352781e+000	 7.933329999996683e+000	 1.000555072350244e+001
0	 9.333302777352783e+000	 8.000000000000000e+000	 1.000521867203616e+001
0	 8.666700000016666e+000	 7.999999999999999e+000	 1.001341920882295e+001
0	 8.666700000016666e+000	 8.066670000003317e+000	 1.001269517967448e+001
0	 8.666700000016666e+000	 8.133340000006534e+000	 1.001198722908859e+001
0	 8.666700000016666e+000	 8.200010000009550e+000	 1.001129403845004e+001
0	 8.666700000016666e+000	 8.266680000012268e+000	 1.001061428914348e+001
0	 8.666700000016666e+000	 8.333350000014585e+000	 1.000994666255365e+001
0	 8.666700000016668e+000	 8.400020000016401e+000	 1.000928984006520e+001
0	 8.666700000016666e+000	 8.466690000017618e+000	 1.000864250306287e+001
0	 8.666700000016665e+000	 8.533360000018133e+000	 1.000800333293135e+001
0	 8.666700000016666e+000	 8.600030000017851e+000	 1.000737101105533e+001
0	 8.666700000016666e+000	 8.666700000016666e+000	 1.000674421881951e+001
0	 8.733360002791903e+000	 7.999999999999999e+000	 1.001253816044011e+001
0	 8.733360002791899e+000	 8.066670000003315e+000	 1.001186217865353e+001
0	 8.733360002791903e+000	 8.133340000006530e+000	 1.001120111469955e+001
0	 8.733360002791903e+000	 8.200010000009552e+000	 1.001055370792751e+001
0	 8.733360002791901e+000	 8.266680000012267e+000	 1.000991869768680e+001
0	 8.733360002791903e+000	 8.333350000014583e+000	 1.000929482332679e+001
0	 8.733360002791901e+000	 8.400020000016399e+000	 1.000868082419684e+001
0	 8.733360002791901e+000	 8.466690000017618e+000	 1.000807543964631e+001
0	 8.733360002791899e+000	 8.533360000018131e+000	 1.000747740902457e+001
0	 8.733360002791899e+000	 8.600030000017851e+000	 1.000688547168094e+001
0	 8.733360002791903e+000	 8.666700000016666e+000	 1.000629836696485e+001
0	 8.800020022230557e+000	 8.000000000000004e+000	 1.001167191296336e+001
0	 8.800020022230557e+000	 8.066670000003315e+000	 1.001104242261066e+001
0	 8.800020022230555e+000	 8.133340000006536e+000	 1.001042674115632e+001
0	 8.800020022230553e+000	 8.200010000009547e+000	 1.000982366811350e+001
0	 8.800020022230555e+000	 8.266680000012268e+000	 1.000923200299533e+001
0	 8.800020022230552e+000	 8.333350000014582e+000	 1.000865054531495e+001
0	 8.800020022230555e+000	 8.400020000016401e+000	 1.000807809458548e+001
0	 8.800020022230557e+000	 8.466690000017618e+000	 1.000751345032006e+001
0	 8.800020022230557e+000	 8.533360000018135e+000	 1.000695541203183e+001
0	 8.800020022230553e+000	 8.600030000017849e+000	 1.000640277923392e+001
0	 8.800020022230553e+000	 8.666700000016666e+000	 1.000585435143946e+001
0	 8.866680074997044e+000	 8.000000000000002e+000	 1.001081999893460e+001
0	 8.866680074997039e+000	 8.066670000003317e+000	 1.001023527425203e+001
0	 8.866680074997042e+000	 8.133340000006534e+000	 1.000966332384979e+001
0	 8.866680074997040e+000	 8.200010000009550e+000	 1.000910300960382e+001
0	 8.866680074997044e+000	 8.266680000012270e+000	 1.000855319339009e+001
0	 8.866680074997039e+000	 8.333350000014582e+000	 1.000801273708455e+001
0	 8.866680074997040e+000	 8.400020000016401e+000	 1.000748050256317e+001
0	 8.866680074997040e+000	 8.466690000017618e+000	 1.000695535170190e+001
0	 8.866680074997037e+000	 8.533360000018131e+000	 1.000643614637670e+001
0	 8.866680074997040e+000	 8.600030000017851e+000	 1.000592174846351e+001
0	 8.866680074997042e+000	 8.666700000016670e+000	 1.000541101983832e+001
0	 8.933340177755776e+000	 8.000000000000000e+000	 1.000998195090160e+001
0	 8.933340177755778e+000	 8.066670000003319e+000	 1.000944009628785e+001
0	 8.933340177755774e+000	 8.133340000006532e+000	 1.000891007817295e+001
0	 8.933340177755778e+000	 8.200010000009550e+000	 1.000839082299466e+001
0	 8.933340177755776e+000	 8.266680000012267e+000	 1.000788125719080e+001
0	 8.933340177755778e+000	 8.333350000014585e+000	 1.000738030719914e+001
0	 8.933340177755776e+000	 8.400020000016403e+000	 1.000688689945747e+001
0	 8.933340177755778e+000	 8.466690000017618e+000	 1.000639996040357e+001
0	 8.933340177755776e+000	 8.533360000018133e+000	 1.000591841647525e+001
0	 8.933340177755774e+000	 8.600030000017849e+000	 1.000544119411027e+001
0	 8.933340177755776e+000	 8.666700000016665e+000	 1.000496721974644e+001
0	 9.000000347171179e+000	 8.000000000000000e+000	 1.000915730141810e+001
0	 9.000000347171179e+000	 8.066670000003315e+000	 1.000865625143227e+001
0	 9.000000347171179e+000	 8.133340000006534e+000	 1.000816621952092e+001
0	 9.000000347171175e+000	 8.200010000009549e+000	 1.000768619888258e+001
0	 9.000000347171179e+000	 8.266680000012267e+000	 1.000721518271585e+001
0	 9.000000347171175e+000	 8.333350000014583e+000	 1.000675216421928e+001
0	 9.000000347171175e+000	 8.400020000016401e+000	 1.000629613659146e+001
0	 9.000000347171181e+000	 8.466690000017618e+000	 1.000584609303094e+001
0	 9.000000347171177e+000	 8.533360000018133e+000	 1.000540102673628e+001
0	 9.000000347171179e+000	 8.600030000017851e+000	 1.000495993090604e+001
0	 9.000000347171181e+000	 8.666700000016665e+000	 1.000452179873884e+001
0	 9.066660599907669e+000	 8.000000000000000e+000	 1.000834558304372e+001
0	 9.066660599907666e+000	 8.066670000003315e+000	 1.000788310240344e+001
0	 9.066660599907667e+000	 8.133340000006534e+000	 1.000743096329096e+001
0	 9.066660599907667e+000	 8.200010000009552e+000	 1.000698822786452e+001
0	 9.066660599907666e+000	 8.266680000012268e+000	 1.000655395828233e+001
0	 9.066660599907667e+000	 8.333350000014585e+000	 1.000612721670268e+001
0	 9.066660599907667e+000	 8.400020000016399e+000	 1.000570706528377e+001
0	 9.066660599907666e+000	 8.466690000017618e+000	 1.000529256618387e+001
0	 9.066660599907667e+000	 8.533360000018135e+000	 1.000488278156119e+001
0	 9.066660599907664e+000	 8.600030000017849e+000	 1.000447677357400e+001
0	 9.066660599907666e+000	 8.666700000016668e+000	 1.000407360438054e+001
0	 9.133320952629651e+000	 8.000000000000000e+000	 1.000754632834395e+001
0	 9.133320952629651e+000	 8.066670000003317e+000	 1.000712001192347e+001
0	 9.133320952629653e+000	 8.133340000006532e+000	 1.000670352488248e+001
0	 9.133320952629651e+000	 8.200010000009550e+000	 1.000629600053777e+001
0	 9.133320952629653e+000	 8.266680000012268e+000	 1.000589657220605e+001
0	 9.133320952629649e+000	 8.333350000014585e+000	 1.000550437320405e+001
0	 9.133320952629651e+000	 8.400020000016401e+000	 1.000511853684857e+001
0	 9.133320952629653e+000	 8.466690000017618e+000	 1.000473819645632e+001
0	 9.133320952629653e+000	 8.533360000018137e+000	 1.000436248534408e+001
0	 9.133320952629651e+000	 8.600030000017849e+000	 1.000399053682856e+001
0	 9.133320952629653e+000	 8.666700000016666e+000	 1.000362148422653e+001
0	 9.199981422001553e+000	 8.000000000000000e+000	 1.000675906989024e+001
0	 9.199981422001555e+000	 8.066670000003317e+000	 1.000636634271842e+001
0	 9.199981422001555e+000	 8.133340000006532e+000	 1.000598311969701e+001
0	 9.199981422001555e+000	 8.200010000009550e+000	 1.000560860749999e+001
0	 9.199981422001557e+000	 8.266680000012268e+000	 1.000524201280139e+001
0	 9.199981422001553e+000	 8.333350000014583e+000	 1.000488254227522e+001
0	 9.199981422001555e+000	 8.400020000016399e+000	 1.000452940259553e+001
0	 9.199981422001553e+000	 8.466690000017616e+000	 1.000418180043632e+001
0	 9.199981422001555e+000	 8.533360000018135e+000	 1.000383894247163e+001
0	 9.199981422001555e+000	 8.600030000017849e+000	 1.000350003537546e+001
0	 9.199981422001557e+000	 8.666700000016666e+000	 1.000316428582184e+001
0	 9.266642024687792e+000	 8.000000000000000e+000	 1.000598334025989e+001
0	 9.266642024687792e+000	 8.066670000003317e+000	 1.000562145751842e+001
0	 9.266642024687792e+000	 8.133340000006534e+000	 1.000526896313820e+001
0	 9.266642024687791e+000	 8.200010000009550e+000	 1.000492513934925e+001
0	 9.266642024687791e+000	 8.266680000012267e+000	 1.000458926838154e+001
0	 9.266642024687792e+000	 8.333350000014583e+000	 1.000426063246508e+001
0	 9.266642024687794e+000	 8.400020000016403e+000	 1.000393851382987e+001
0	 9.266642024687792e+000	 8.466690000017616e+000	 1.000362219470592e+001
0	 9.266642024687791e+000	 8.533360000018131e+000	 1.000331095732320e+001
0	 9.266642024687791e+000	 8.600030000017851e+000	 1.000300408391174e+001
0	 9.266642024687794e+000	 8.666700000016668e+000	 1.000270085670151e+001
0	 9.333302777352783e+000	 8.000000000000000e+000	 1.000521867203616e+001
0	 9.333302777352783e+000	 8.066670000003319e+000	 1.000488471905747e+001
0	 9.333302777352783e+000	 8.133340000006532e+000	 1.000456027061185e+001
0	 9.333302777352783e+000	 8.200010000009552e+000	 1.000424468668393e+001
0	 9.333302777352783e+000	 8.266680000012267e+000	 1.000393732725830e+001
0	 9.333302777352783e+000	 8.333350000014585e+000	 1.000363755231957e+001
0	 9.333302777352785e+000	 8.400020000016403e+000	 1.000334472185235e+001
0	 9.333302777352785e+000	 8.466690000017618e+000	 1.000305819584122e+001
0	 9.333302777352783e+000	 8.533360000018135e+000	 1.000277733427081e+001
0	 9.333302777352783e+000	 8.600030000017849e+000	 1.000250149712571e+001
0	 9.333302777352783e+000	 8.666700000016666e+000	 1.000223004439052e+001
0	 8.666700000016666e+000	 8.666700000016666e+000	 1.000674421881951e+001
0	 8.666700000016666e+000	 8.733360002791901e+000	 1.000613550130175e+001
0	 8.666700000016665e+000	 8.800020022230553e+000	 1.000555718757884e+001
0	 8.666700000016666e+000	 8.866680074997039e+000	 1.000500791596625e+001
0	 8.666700000016665e+000	 8.933340177755778e+000	 1.000448632469431e+001
0	 8.666700000016665e+000	 9.000000347171181e+000	 1.000399105190838e+001
0	 8.666700000016666e+000	 9.066660599907667e+000	 1.000352073566863e+001
0	 8.666700000016666e+000	 9.133320952629655e+000	 1.000307401395021e+001
0	 8.666700000016668e+000	 9.199981422001558e+000	 1.000264952464321e+001
0	 8.666700000016668e+000	 9.266642024687798e+000	 1.000224590555259e+001
0	 8.666700000016666e+000	 9.333302777352783e+000	 1.000186179439831e+001
0	 8.733360002791903e+000	 8.666700000016666e+000	 1.000629836696485e+001
0	 8.733360002791903e+000	 8.733360002791901e+000	 1.000572815313954e+001
0	 8.733360002791905e+000	 8.800020022230559e+000	 1.000518670784639e+001
0	 8.733360002791901e+000	 8.866680074997040e+000	 1.000467276272780e+001
0	 8.733360002791903e+000	 8.933340177755776e+000	 1.000418504934616e+001
0	 8.733360002791903e+000	 9.000000347171183e+000	 1.000372229918390e+001
0	 8.733360002791901e+000	 9.066660599907667e+000	 1.000328324364349e+001
0	 8.733360002791901e+000	 9.133320952629655e+000	 1.000286661404746e+001
0	 8.733360002791901e+000	 9.199981422001557e+000	 1.000247114163837e+001
0	 8.733360002791901e+000	 9.266642024687796e+000	 1.000209555757877e+001
0	 8.733360002791899e+000	 9.333302777352781e+000	 1.000173859295134e+001
0	 8.800020022230553e+000	 8.666700000016666e+000	 1.000585435143945e+001
0	 8.800020022230555e+000	 8.733360002791903e+000	 1.000532172215200e+001
0	 8.800020022230553e+000	 8.800020022230553e+000	 1.000481633436000e+001
0	 8.800020022230553e+000	 8.866680074997040e+000	 1.000433700776179e+001
0	 8.800020022230552e+000	 8.933340177755778e+000	 1.000388256198067e+001
0	 8.800020022230555e+000	 9.000000347171181e+000	 1.000345181656477e+001
0	 8.800020022230557e+000	 9.066660599907671e+000	 1.000304359098726e+001
0	 8.800020022230553e+000	 9.133320952629656e+000	 1.000265670464617e+001
0	 8.800020022230555e+000	 9.199981422001558e+000	 1.000228997686446e+001
0	 8.800020022230553e+000	 9.266642024687796e+000	 1.000194222689005e+001
0	 8.800020022230553e+000	 9.333302777352781e+000	 1.000161227389574e+001
0	 8.866680074997042e+000	 8.666700000016670e+000	 1.000541101983832e+001
0	 8.866680074997039e+000	 8.733360002791899e+000	 1.000491510219387e+001
0	 8.866680074997040e+000	 8.800020022230555e+000	 1.000444501155526e+001
0	 8.866680074997040e+000	 8.866680074997044e+000	 1.000399965040579e+001
0	 8.866680074997042e+000	 8.933340177755781e+000	 1.000357792115830e+001
0	 8.866680074997039e+000	 9.000000347171181e+000	 1.000317872615523e+001
0	 8.866680074997040e+000	 9.066660599907667e+000	 1.000280096766864e+001
0	 8.866680074997039e+000	 9.133320952629656e+000	 1.000244354790008e+001
0	 8.866680074997039e+000	 9.199981422001557e+000	 1.000210536898078e+001
0	 8.866680074997040e+000	 9.266642024687794e+000	 1.000178533297153e+001
0	 8.866680074997042e+000	 9.333302777352785e+000	 1.000148234186263e+001
0	 8.933340177755776e+000	 8.666700000016665e+000	 1.000496721974644e+001
0	 8.933340177755778e+000	 8.733360002791903e+000	 1.000450718710858e+001
0	 8.933340177755774e+000	 8.800020022230553e+000	 1.000407168385537e+001
0	 8.933340177755778e+000	 8.866680074997044e+000	 1.000365968998382e+001
0	 8.933340177755776e+000	 8.933340177755779e+000	 1.000327018542503e+001
0	 8.933340177755774e+000	 9.000000347171181e+000	 1.000290215004406e+001
0	 8.933340177755778e+000	 9.066660599907667e+000	 1.000255456364000e+001
0	 8.933340177755778e+000	 9.133320952629656e+000	 1.000222640594592e+001
0	 8.933340177755779e+000	 9.199981422001560e+000	 1.000191665662892e+001
0	 8.933340177755776e+000	 9.266642024687796e+000	 1.000162429529009e+001
0	 8.933340177755776e+000	 9.333302777352781e+000	 1.000134830146455e+001
0	 9.000000347171181e+000	 8.666700000016665e+000	 1.000452179873884e+001
0	 9.000000347171183e+000	 8.733360002791901e+000	 1.000409687072846e+001
0	 9.000000347171177e+000	 8.800020022230553e+000	 1.000369529567111e+001
0	 9.000000347171183e+000	 8.866680074997042e+000	 1.000331612580644e+001
0	 9.000000347171181e+000	 8.933340177755779e+000	 1.000295841331223e+001
0	 9.000000347171177e+000	 9.000000347171183e+000	 1.000262121030448e+001
0	 9.000000347171179e+000	 9.066660599907666e+000	 1.000230356883739e+001
0	 9.000000347171181e+000	 9.133320952629653e+000	 1.000200454090330e+001
0	 9.000000347171181e+000	 9.199981422001560e+000	 1.000172317843275e+001
0	 9.000000347171181e+000	 9.266642024687796e+000	 1.000145853329447e+001
0	 9.000000347171181e+000	 9.333302777352785e+000	 1.000120965729540e+001
0	 9.066660599907666e+000	 8.666700000016668e+000	 1.000407360438054e+001
0	 9.066660599907666e+000	 8.733360002791903e+000	 1.000368304687448e+001
0	 9.066660599907667e+000	 8.800020022230555e+000	 1.000331479140089e+001
0	 9.066660599907664e+000	 8.866680074997044e+000	 1.000296795717066e+001
0	 9.066660599907666e+000	 8.933340177755779e+000	 1.000264166333677e+001
0	 9.066660599907667e+000	 9.000000347171183e+000	 1.000233502899431e+001
0	 9.066660599907664e+000	 9.066660599907666e+000	 1.000204717318053e+001
0	 9.066660599907666e+000	 9.133320952629656e+000	 1.000177721487477e+001
0	 9.066660599907666e+000	 9.199981422001558e+000	 1.000152427299844e+001
0	 9.066660599907664e+000	 9.266642024687794e+000	 1.000128746641508e+001
0	 9.066660599907667e+000	 9.333302777352783e+000	 1.000106591393041e+001
0	 9.133320952629653e+000	 8.666700000016666e+000	 1.000362148422653e+001
0	 9.133320952629651e+000	 8.733360002791903e+000	 1.000326460935645e+001
0	 9.133320952629653e+000	 8.800020022230555e+000	 1.000292911543068e+001
0	 9.133320952629653e+000	 8.866680074997042e+000	 1.000261418335998e+001
0	 9.133320952629653e+000	 8.933340177755779e+000	 1.000231899400094e+001
0	 9.133320952629655e+000	 9.000000347171181e+000	 1.000204272815584e+001
0	 9.133320952629653e+000	 9.066660599907671e+000	 1.000178456657285e+001
0	 9.133320952629651e+000	 9.133320952629655e+000	 1.000154368994581e+001
0	 9.133320952629651e+000	 9.199981422001560e+000	 1.000131927891444e+001
0	 9.133320952629653e+000	 9.266642024687796e+000	 1.000111051406420e+001
0	 9.133320952629651e+000	 9.333302777352785e+000	 1.000091657592630e+001
0	 9.199981422001557e+000	 8.666700000016666e+000	 1.000316428582184e+001
0	 9.199981422001553e+000	 8.733360002791901e+000	 1.000284045197289e+001
0	 9.199981422001553e+000	 8.800020022230555e+000	 1.000253721213402e+001
0	 9.199981422001555e+000	 8.866680074997040e+000	 1.000225380364441e+001
0	 9.199981422001558e+000	 8.933340177755781e+000	 1.000198946379252e+001
0	 9.199981422001557e+000	 9.000000347171183e+000	 1.000174342981591e+001
0	 9.199981422001555e+000	 9.066660599907667e+000	 1.000151493890136e+001
0	 9.199981422001557e+000	 9.133320952629653e+000	 1.000130322818486e+001
0	 9.199981422001557e+000	 9.199981422001558e+000	 1.000110753475153e+001
0	 9.199981422001555e+000	 9.266642024687798e+000	 1.000092709563574e+001
0	 9.199981422001553e+000	 9.333302777352779e+000	 1.000076114782105e+001
0	 9.266642024687794e+000	 8.666700000016668e+000	 1.000270085670151e+001
0	 9.266642024687791e+000	 8.733360002791901e+000	 1.000240946851115e+001
0	 9.266642024687791e+000	 8.800020022230555e+000	 1.000213802587206e+001
0	 9.266642024687791e+000	 8.866680074997042e+000	 1.000188581728045e+001
0	 9.266642024687791e+000	 8.933340177755778e+000	 1.000165213118476e+001
0	 9.266642024687792e+000	 9.000000347171181e+000	 1.000143625598586e+001
0	 9.266642024687794e+000	 9.066660599907669e+000	 1.000123748003685e+001
0	 9.266642024687792e+000	 9.133320952629655e+000	 1.000105509164320e+001
0	 9.266642024687794e+000	 9.199981422001558e+000	 1.000088837906273e+001
0	 9.266642024687794e+000	 9.266642024687798e+000	 1.000073663050552e+001
0	 9.266642024687792e+000	 9.333302777352785e+000	 1.000059913413407e+001
0	 9.333302777352783e+000	 8.666700000016666e+000	 1.000223004439052e+001
0	 9.333302777352781e+000	 8.733360002791901e+000	 1.000197055274727e+001
0	 9.333302777352783e+000	 8.800020022230557e+000	 1.000173050099360e+001
0	 9.333302777352781e+000	 8.866680074997039e+000	 1.000150922351105e+001
0	 9.333302777352781e+000	 8.933340177755778e+000	 1.000130605463636e+001
0	 9.333302777352783e+000	 9.000000347171181e+000	 1.000112032866155e+001
0	 9.333302777352785e+000	 9.066660599907667e+000	 1.000095137983369e+001
0	 9.333302777352781e+000	 9.133320952629655e+000	 1.000079854235513e+001
0	 9.333302777352781e+000	 9.199981422001558e+000	 1.000066115038335e+001
0	 9.333302777352781e+000	 9.266642024687794e+000	 1.000053853803106e+001
0	 9.333302777352785e+000	 9.333302777352785e+000	 1.000043003936614e+001
0	 8.666700000016666e+000	 9.333302777352783e+000	 1.000186179439831e+001
0	 8.666700000016668e+000	 9.399973674588178e+000	 1.000150749021342e+001
0	 8.666700000016666e+000	 9.466644621844619e+000	 1.000119346528122e+001
0	 8.666700000016668e+000	 9.533315502450000e+000	 1.000091844908211e+001
0	 8.666700000016665e+000	 9.599986199732197e+000	 1.000068117193796e+001
0	 8.666700000016666e+000	 9.666656597019095e+000	 1.000048036501195e+001
0	 8.666700000016668e+000	 9.733326577638577e+000	 1.000031476030881e+001
0	 8.666700000016668e+000	 9.799996024918521e+000	 1.000018309067459e+001
0	 8.666700000016666e+000	 9.866664822186822e+000	 1.000008408979705e+001
0	 8.666700000016666e+000	 9.933332852771352e+000	 1.000001649220557e+001
0	 8.666700000016666e+000	 1.000000000000000e+001	 9.999979033271172e+000
0	 8.733360002791899e+000	 9.333302777352781e+000	 1.000173859295134e+001
0	 8.733360002791905e+000	 9.399973674588177e+000	 1.000140950546854e+001
0	 8.733360002791903e+000	 9.466644621844621e+000	 1.000111774921898e+001
0	 8.733360002791903e+000	 9.533315502450002e+000	 1.000086219372484e+001
0	 8.733360002791901e+000	 9.599986199732197e+000	 1.000064170928994e+001
0	 8.733360002791905e+000	 9.666656597019095e+000	 1.000045516699945e+001
0	 8.733360002791899e+000	 9.733326577638575e+000	 1.000030143872024e+001
0	 8.733360002791905e+000	 9.799996024918524e+000	 1.000017939710067e+001
0	 8.733360002791903e+000	 9.866664822186824e+000	 1.000008791557086e+001
0	 8.733360002791903e+000	 9.933332852771354e+000	 1.000002586834267e+001
0	 8.733360002791903e+000	 1.000000000000000e+001	 9.999992130409664e+000
0	 8.800020022230553e+000	 9.333302777352781e+000	 1.000161227389574e+001
0	 8.800020022230555e+000	 9.399973674588175e+000	 1.000130825445078e+001
0	 8.800020022230555e+000	 9.466644621844623e+000	 1.000103854319163e+001
0	 8.800020022230553e+000	 9.533315502450000e+000	 1.000080217221071e+001
0	 8.800020022230555e+000	 9.599986199732195e+000	 1.000059817432188e+001
0	 8.800020022230557e+000	 9.666656597019097e+000	 1.000042558306072e+001
0	 8.800020022230552e+000	 9.733326577638577e+000	 1.000028343268418e+001
0	 8.800020022230553e+000	 9.799996024918524e+000	 1.000017075817107e+001
0	 8.800020022230555e+000	 9.866664822186822e+000	 1.000008659522170e+001
0	 8.800020022230557e+000	 9.933332852771356e+000	 1.000002998025828e+001
0	 8.800020022230555e+000	 1.000000000000000e+001	 9.999999950424767e+000
0	 8.866680074997042e+000	 9.333302777352785e+000	 1.000148234186263e+001
0	 8.866680074997042e+000	 9.399973674588178e+000	 1.000120334098845e+001
0	 8.866680074997039e+000	 9.466644621844617e+000	 1.000095557398088e+001
0	 8.866680074997039e+000	 9.533315502449998e+000	 1.000073825803138e+001
0	 8.866680074997042e+000	 9.599986199732197e+000	 1.000055061099315e+001
0	 8.866680074997037e+000	 9.666656597019092e+000	 1.000039185138110e+001
0	 8.866680074997040e+000	 9.733326577638575e+000	 1.000026119837191e+001
0	 8.866680074997037e+000	 9.799996024918519e+000	 1.000015787180412e+001
0	 8.866680074997039e+000	 9.866664822186820e+000	 1.000008109217801e+001
0	 8.866680074997040e+000	 9.933332852771352e+000	 1.000003008065607e+001
0	 8.866680074997039e+000	 1.000000000000000e+001	 1.000000405906245e+001
0	 8.933340177755776e+000	 9.333302777352781e+000	 1.000134830146455e+001
0	 8.933340177755778e+000	 9.399973674588175e+000	 1.000109436889092e+001
0	 8.933340177755776e+000	 9.466644621844619e+000	 1.000086856834926e+001
0	 8.933340177755778e+000	 9.533315502450002e+000	 1.000067032465951e+001
0	 8.933340177755779e+000	 9.599986199732198e+000	 1.000049906324384e+001
0	 8.933340177755776e+000	 9.666656597019092e+000	 1.000035421012680e+001
0	 8.933340177755776e+000	 9.733326577638570e+000	 1.000023519193528e+001
0	 8.933340177755778e+000	 9.799996024918524e+000	 1.000014143589863e+001
0	 8.933340177755776e+000	 9.866664822186822e+000	 1.000007236984853e+001
0	 8.933340177755778e+000	 9.933332852771354e+000	 1.000002742221933e+001
0	 8.933340177755776e+000	 1.000000000000000e+001	 1.000000602204785e+001
0	 9.000000347171181e+000	 9.333302777352785e+000	 1.000120965729540e+001
0	 9.000000347171181e+000	 9.399973674588178e+000	 1.000098094194871e+001
0	 9.000000347171179e+000	 9.466644621844619e+000	 1.000077725304035e+001
0	 9.000000347171179e+000	 9.533315502450000e+000	 1.000059824554851e+001
0	 9.000000347171181e+000	 9.599986199732200e+000	 1.000044357499481e+001
0	 9.000000347171179e+000	 9.666656597019093e+000	 1.000031289744458e+001
0	 9.000000347171181e+000	 9.733326577638575e+000	 1.000020586950673e+001
0	 9.000000347171177e+000	 9.799996024918521e+000	 1.000012214833374e+001
0	 9.000000347171179e+000	 9.866664822186824e+000	 1.000006139162188e+001
0	 9.000000347171181e+000	 9.933332852771352e+000	 1.000002325761109e+001
0	 9.000000347171181e+000	 1.000000000000000e+001	 1.000000740508530e+001
0	 9.066660599907667e+000	 9.333302777352783e+000	 1.000106591393041e+001
0	 9.066660599907666e+000	 9.399973674588175e+000	 1.000086266393341e+001
0	 9.066660599907666e+000	 9.466644621844619e+000	 1.000068135477862e+001
0	 9.066660599907664e+000	 9.533315502449998e+000	 1.000052189413261e+001
0	 9.066660599907666e+000	 9.599986199732195e+000	 1.000038419014775e+001
0	 9.066660599907664e+000	 9.666656597019095e+000	 1.000026815146203e+001
0	 9.066660599907666e+000	 9.733326577638577e+000	 1.000017368719925e+001
0	 9.066660599907664e+000	 9.799996024918521e+000	 1.000010070696909e+001
0	 9.066660599907666e+000	 9.866664822186824e+000	 1.000004912086692e+001
0	 9.066660599907662e+000	 9.933332852771352e+000	 1.000001883947415e+001
0	 9.066660599907666e+000	 1.000000000000000e+001	 1.000000977385804e+001
0	 9.133320952629651e+000	 9.333302777352785e+000	 1.000091657592629e+001
0	 9.133320952629649e+000	 9.399973674588173e+000	 1.000073913859777e+001
0	 9.133320952629653e+000	 9.466644621844623e+000	 1.000058060026946e+001
0	 9.133320952629651e+000	 9.533315502450002e+000	 1.000044114382702e+001
0	 9.133320952629653e+000	 9.599986199732197e+000	 1.000032095258504e+001
0	 9.133320952629653e+000	 9.666656597019093e+000	 1.000022021028731e+001
0	 9.133320952629653e+000	 9.733326577638573e+000	 1.000013910110656e+001
0	 9.133320952629651e+000	 9.799996024918526e+000	 1.000007780964467e+001
0	 9.133320952629651e+000	 9.866664822186822e+000	 1.000003652093272e+001
0	 9.133320952629649e+000	 9.933332852771351e+000	 1.000001542043089e+001
0	 9.133320952629653e+000	 1.000000000000000e+001	 1.000001469402866e+001
0	 9.199981422001553e+000	 9.333302777352779e+000	 1.000076114782105e+001
0	 9.199981422001555e+000	 9.399973674588175e+000	 1.000060996967560e+001
0	 9.199981422001555e+000	 9.466644621844619e+000	 1.000047471619926e+001
0	 9.199981422001555e+000	 9.533315502450002e+000	 1.000035586802756e+001
0	 9.199981422001555e+000	 9.599986199732198e+000	 1.000025390616987e+001
0	 9.199981422001555e+000	 9.666656597019095e+000	 1.000016931200934e+001
0	 9.199981422001557e+000	 9.733326577638577e+000	 1.000010256730276e+001
0	 9.199981422001555e+000	 9.799996024918524e+000	 1.000005415418091e+001
0	 9.199981422001551e+000	 9.866664822186820e+000	 1.000002455514832e+001
0	 9.199981422001555e+000	 9.933332852771352e+000	 1.000001425308341e+001
0	 9.199981422001557e+000	 1.000000000000000e+001	 1.000002373123866e+001
0	 9.266642024687792e+000	 9.333302777352785e+000	 1.000059913413407e+001
0	 9.266642024687792e+000	 9.399973674588177e+000	 1.000047476088185e+001
0	 9.266642024687792e+000	 9.466644621844623e+000	 1.000036342923527e+001
0	 9.266642024687791e+000	 9.533315502450000e+000	 1.000026594011110e+001
0	 9.266642024687792e+000	 9.599986199732195e+000	 1.000018309474623e+001
0	 9.266642024687792e+000	 9.666656597019093e+000	 1.000011569469771e+001
0	 9.266642024687792e+000	 9.733326577638575e+000	 1.000006454184271e+001
0	 9.266642024687794e+000	 9.799996024918526e+000	 1.000003043837858e+001
0	 9.266642024687792e+000	 9.866664822186820e+000	 1.000001418682298e+001
0	 9.266642024687791e+000	 9.933332852771352e+000	 1.000001659001371e+001
0	 9.266642024687792e+000	 1.000000000000000e+001	 1.000003845110883e+001
0	 9.333302777352785e+000	 9.333302777352785e+000	 1.000043003936613e+001
0	 9.333302777352781e+000	 9.399973674588177e+000	 1.000033311591258e+001
0	 9.333302777352785e+000	 9.466644621844621e+000	 1.000024646602579e+001
0	 9.333302777352783e+000	 9.533315502450002e+000	 1.000017123343526e+001
0	 9.333302777352783e+000	 9.599986199732197e+000	 1.000010856213882e+001
0	 9.333302777352781e+000	 9.666656597019095e+000	 1.000005959640275e+001
0	 9.333302777352783e+000	 9.733326577638573e+000	 1.000002548076174e+001
0	 9.333302777352779e+000	 9.799996024918521e+000	 1.000000736001900e+001
0	 9.333302777352783e+000	 9.866664822186822e+000	 1.000000637924612e+001
0	 9.333302777352783e+000	 9.933332852771356e+000	 1.000002368378322e+001
0	 9.333302777352781e+000	 9.999999999999998e+000	 1.000006041923902e+001
0	 9.333302777352781e+000	 0.000000000000000e+000	 9.779309777696367e+000
0	 9.333302777352785e+000	 6.666714722864757e-002	 9.779377216841766e+000
0	 9.333302777352785e+000	 1.333351778131789e-001	 9.779593895354111e+000
0	 9.333302777352783e+000	 2.000039750814772e-001	 9.779960240283781e+000
0	 9.333302777352779e+000	 2.666734223614256e-001	 9.780476680707027e+000
0	 9.333302777352783e+000	 3.333434029809070e-001	 9.781143647725846e+000
0	 9.333302777352783e+000	 4.000138002678045e-001	 9.781961574467903e+000
0	 9.333302777352783e+000	 4.666844975500011e-001	 9.782930896086359e+000
0	 9.333302777352781e+000	 5.333553781553801e-001	 9.784052049759954e+000
0	 9.333302777352785e+000	 6.000263254118248e-001	 9.785325474693005e+000
0	 9.333302777352783e+000	 6.666972226472177e-001	 9.786751612115499e+000
0	 9.399973674588175e+000	 0.000000000000000e+000	 9.767480231488614e+000
0	 9.399973674588173e+000	 6.666714722864754e-002	 9.767554475300603e+000
0	 9.399973674588175e+000	 1.333351778131789e-001	 9.767783475678604e+000
0	 9.399973674588175e+000	 2.000039750814772e-001	 9.768167625296178e+000
0	 9.399973674588175e+000	 2.666734223614256e-001	 9.768707318913199e+000
0	 9.399973674588173e+000	 3.333434029809069e-001	 9.769402953375789e+000
0	 9.399973674588177e+000	 4.000138002678044e-001	 9.770254927616062e+000
0	 9.399973674588175e+000	 4.666844975500012e-001	 9.771263642652174e+000
0	 9.399973674588175e+000	 5.333553781553803e-001	 9.772429501588231e+000
0	 9.399973674588177e+000	 6.000263254118246e-001	 9.773752909614379e+000
0	 9.399973674588177e+000	 6.666972226472175e-001	 9.775234274006875e+000
0	 9.466644621844621e+000	 0.000000000000000e+000	 9.755354755972281e+000
0	 9.466644621844621e+000	 6.666714722864757e-002	 9.755436289400622e+000
0	 9.466644621844623e+000	 1.333351778131789e-001	 9.755678775971841e+000
0	 9.466644621844623e+000	 2.000039750814773e-001	 9.756082584548187e+000
0	 9.466644621844619e+000	 2.666734223614255e-001	 9.756648086147360e+000
0	 9.466644621844621e+000	 3.333434029809069e-001	 9.757375653942400e+000
0	 9.466644621844621e+000	 4.000138002678044e-001	 9.758265663261554e+000
0	 9.466644621844617e+000	 4.666844975500012e-001	 9.759318491588168e+000
0	 9.466644621844623e+000	 5.333553781553805e-001	 9.760534518560688e+000
0	 9.466644621844621e+000	 6.000263254118248e-001	 9.761914125972757e+000
0	 9.466644621844619e+000	 6.666972226472178e-001	 9.763457697773204e+000
0	 9.533315502450000e+000	 0.000000000000000e+000	 9.742912680883801e+000
0	 9.533315502450000e+000	 6.666714722864757e-002	 9.743001633002201e+000
0	 9.533315502450002e+000	 1.333351778131790e-001	 9.743258409228462e+000
0	 9.533315502449998e+000	 2.000039750814772e-001	 9.743683365177164e+000
0	 9.533315502450002e+000	 2.666734223614256e-001	 9.744276858696171e+000
0	 9.533315502449995e+000	 3.333434029809068e-001	 9.745039249866426e+000
0	 9.533315502449998e+000	 4.000138002678043e-001	 9.745970901001829e+000
0	 9.533315502449998e+000	 4.666844975500012e-001	 9.747072176649187e+000
0	 9.533315502450000e+000	 5.333553781553803e-001	 9.748343443588150e+000
0	 9.533315502449996e+000	 6.000263254118247e-001	 9.749785070831290e+000
0	 9.533315502449996e+000	 6.666972226472177e-001	 9.751397429624243e+000
0	 9.599986199732195e+000	 0.000000000000000e+000	 9.730133337856957e+000
0	 9.599986199732195e+000	 6.666714722864756e-002	 9.730229481840363e+000
0	 9.599986199732193e+000	 1.333351778131789e-001	 9.730500990293509e+000
0	 9.599986199732197e+000	 2.000039750814773e-001	 9.730948216145265e+000
0	 9.599986199732198e+000	 2.666734223614256e-001	 9.731571514644154e+000
0	 9.599986199732195e+000	 3.333434029809068e-001	 9.732371243358180e+000
0	 9.599986199732197e+000	 4.000138002678044e-001	 9.733347762174617e+000
0	 9.599986199732197e+000	 4.666844975500011e-001	 9.734501433300009e+000
0	 9.599986199732195e+000	 5.333553781553804e-001	 9.735832621260093e+000
0	 9.599986199732197e+000	 6.000263254118247e-001	 9.737341692899873e+000
0	 9.599986199732195e+000	 6.666972226472177e-001	 9.739029017383759e+000
0	 9.666656597019093e+000	 0.000000000000000e+000	 9.716996060423069e+000
0	 9.666656597019095e+000	 6.666714722864757e-002	 9.717098813525038e+000
0	 9.666656597019090e+000	 1.333351778131789e-001	 9.717385135862690e+000
0	 9.666656597019093e+000	 2.000039750814772e-001	 9.717855388239604e+000
0	 9.666656597019093e+000	 2.666734223614256e-001	 9.718509933873838e+000
0	 9.666656597019093e+000	 3.333434029809069e-001	 9.719349138397803e+000
0	 9.666656597019092e+000	 4.000138002678044e-001	 9.720373369858121e+000
0	 9.666656597019092e+000	 4.666844975500011e-001	 9.721582998715558e+000
0	 9.666656597019092e+000	 5.333553781553803e-001	 9.722978397844916e+000
0	 9.666656597019092e+000	 6.000263254118247e-001	 9.724559942535233e+000
0	 9.666656597019092e+000	 6.666972226472177e-001	 9.726328010489773e+000
0	 9.733326577638573e+000	 0.000000000000000e+000	 9.703480184011294e+000
0	 9.733326577638575e+000	 6.666714722864754e-002	 9.703588607541319e+000
0	 9.733326577638575e+000	 1.333351778131790e-001	 9.703889464482787e+000
0	 9.733326577638575e+000	 2.000039750814773e-001	 9.704383134072689e+000
0	 9.733326577638573e+000	 2.666734223614256e-001	 9.705069998066028e+000
0	 9.733326577638572e+000	 3.333434029809069e-001	 9.705950440735471e+000
0	 9.733326577638573e+000	 4.000138002678044e-001	 9.707024848871262e+000
0	 9.733326577638575e+000	 4.666844975500012e-001	 9.708293611781109e+000
0	 9.733326577638572e+000	 5.333553781553801e-001	 9.709757121290224e+000
0	 9.733326577638575e+000	 6.000263254118249e-001	 9.711415771741322e+000
0	 9.733326577638573e+000	 6.666972226472175e-001	 9.713269959994756e+000
0	 9.799996024918521e+000	 0.000000000000000e+000	 9.689565045948935e+000
0	 9.799996024918521e+000	 6.666714722864756e-002	 9.689677845249811e+000
0	 9.799996024918524e+000	 1.333351778131790e-001	 9.689992596551706e+000
0	 9.799996024918523e+000	 2.000039750814772e-001	 9.690509708082590e+000
0	 9.799996024918521e+000	 2.666734223614255e-001	 9.691229590700203e+000
0	 9.799996024918521e+000	 3.333434029809069e-001	 9.692152657891802e+000
0	 9.799996024918524e+000	 4.000138002678044e-001	 9.693279325774025e+000
0	 9.799996024918521e+000	 4.666844975500012e-001	 9.694610013092712e+000
0	 9.799996024918523e+000	 5.333553781553803e-001	 9.696145141223074e+000
0	 9.799996024918523e+000	 6.000263254118248e-001	 9.697885134169534e+000
0	 9.799996024918523e+000	 6.666972226472177e-001	 9.699830418566039e+000
0	 9.866664822186820e+000	 0.000000000000000e+000	 9.675229985461790e+000
0	 9.866664822186818e+000	 6.666714722864756e-002	 9.675345509886942e+000
0	 9.866664822186818e+000	 1.333351778131789e-001	 9.675673154319082e+000
0	 9.866664822186818e+000	 2.000039750814772e-001	 9.676213366533325e+000
0	 9.866664822186822e+000	 2.666734223614256e-001	 9.676966597054742e+000
0	 9.866664822186820e+000	 3.333434029809069e-001	 9.677933299158145e+000
0	 9.866664822186818e+000	 4.000138002678044e-001	 9.679113928867798e+000
0	 9.866664822186820e+000	 4.666844975500011e-001	 9.680508944957470e+000
0	 9.866664822186820e+000	 5.333553781553803e-001	 9.682118808950349e+000
0	 9.866664822186818e+000	 6.000263254118247e-001	 9.683943985119109e+000
0	 9.866664822186820e+000	 6.666972226472175e-001	 9.685984940486032e+000
0	 9.933332852771351e+000	 0.000000000000000e+000	 9.660454343674628e+000
0	 9.933332852771354e+000	 6.666714722864757e-002	 9.660570586565456e+000
0	 9.933332852771352e+000	 1.333351778131790e-001	 9.660909761886586e+000
0	 9.933332852771351e+000	 2.000039750814772e-001	 9.661472367515334e+000
0	 9.933332852771351e+000	 2.666734223614256e-001	 9.662258904207471e+000
0	 9.933332852771352e+000	 3.333434029809069e-001	 9.663269875596964e+000
0	 9.933332852771351e+000	 4.000138002678044e-001	 9.664505788195790e+000
0	 9.933332852771352e+000	 4.666844975500012e-001	 9.665967151393931e+000
0	 9.933332852771351e+000	 5.333553781553803e-001	 9.667654477459186e+000
0	 9.933332852771352e+000	 6.000263254118247e-001	 9.669568281537456e+000
0	 9.933332852771351e+000	 6.666972226472177e-001	 9.671709081652686e+000
0	 1.000000000000000e+001	 0.000000000000000e+000	 9.645217463611623e+000
0	 1.000000000000000e+001	 6.666714722864756e-002	 9.645332062274802e+000
0	 9.999999999999998e+000	 1.333351778131789e-001	 9.645681045208383e+000
0	 1.000000000000000e+001	 2.000039750814772e-001	 9.646264970945893e+000
0	 1.000000000000000e+001	 2.666734223614256e-001	 9.647084401036000e+000
0	 1.000000000000000e+001	 3.333434029809069e-001	 9.648139900042379e+000
0	 1.000000000000000e+001	 4.000138002678044e-001	 9.649432035543507e+000
0	 1.000000000000000e+001	 4.666844975500011e-001	 9.650961378132553e+000
0	 1.000000000000000e+001	 5.333553781553803e-001	 9.652728501417409e+000
0	 1.000000000000000e+001	 6.000263254118248e-001	 9.654733982020685e+000
0	 1.000000000000000e+001	 6.666972226472175e-001	 9.656978399579902e+000
0	 9.333302777352783e+000	 6.666972226472177e-001	 9.786751612115497e+000
0	 9.333302777352783e+000	 7.333579753122046e-001	 9.788315924701664e+000
0	 9.333302777352783e+000	 8.000185779984417e-001	 9.790004786461818e+000
0	 9.333302777352781e+000	 8.666790473703453e-001	 9.791819330811048e+000
0	 9.333302777352781e+000	 9.333394000923320e-001	 9.793760690919681e+000
0	 9.333302777352783e+000	 9.999996528288190e-001	 9.795829999713238e+000
0	 9.333302777352785e+000	 1.066659822244222e+000	 9.798028389872478e+000
0	 9.333302777352785e+000	 1.133319925002959e+000	 9.800356993833356e+000
0	 9.333302777352785e+000	 1.199979977769445e+000	 9.802816943787061e+000
0	 9.333302777352785e+000	 1.266639997208098e+000	 9.805409371679996e+000
0	 9.333302777352785e+000	 1.333299999983334e+000	 9.808135409213790e+000
0	 9.399973674588177e+000	 6.666972226472175e-001	 9.775234274006872e+000
0	 9.399973674588173e+000	 7.333579753122048e-001	 9.776858847401140e+000
0	 9.399973674588175e+000	 8.000185779984415e-001	 9.778612831539125e+000
0	 9.399973674588178e+000	 8.666790473703453e-001	 9.780497356551528e+000
0	 9.399973674588178e+000	 9.333394000923323e-001	 9.782513552316164e+000
0	 9.399973674588178e+000	 9.999996528288191e-001	 9.784662548457934e+000
0	 9.399973674588173e+000	 1.066659822244222e+000	 9.786945474348835e+000
0	 9.399973674588177e+000	 1.133319925002959e+000	 9.789363459107957e+000
0	 9.399973674588177e+000	 1.199979977769445e+000	 9.791917631601539e+000
0	 9.399973674588173e+000	 1.266639997208098e+000	 9.794609120442855e+000
0	 9.399973674588177e+000	 1.333299999983334e+000	 9.797439053992331e+000
0	 9.466644621844619e+000	 6.666972226472178e-001	 9.763457697773204e+000
0	 9.466644621844619e+000	 7.333579753122046e-001	 9.765149907365135e+000
0	 9.466644621844621e+000	 8.000185779984417e-001	 9.766976411471671e+000
0	 9.466644621844619e+000	 8.666790473703452e-001	 9.768938338921883e+000
0	 9.466644621844619e+000	 9.333394000923322e-001	 9.771036818283692e+000
0	 9.466644621844619e+000	 9.999996528288189e-001	 9.773272977863920e+000
0	 9.466644621844621e+000	 1.066659822244223e+000	 9.775647945708219e+000
0	 9.466644621844621e+000	 1.133319925002958e+000	 9.778162849601154e+000
0	 9.466644621844619e+000	 1.199979977769445e+000	 9.780818817066146e+000
0	 9.466644621844623e+000	 1.266639997208098e+000	 9.783616975365506e+000
0	 9.466644621844617e+000	 1.333299999983334e+000	 9.786558451500397e+000
0	 9.533315502449996e+000	 6.666972226472177e-001	 9.751397429624246e+000
0	 9.533315502450000e+000	 7.333579753122048e-001	 9.753164328453149e+000
0	 9.533315502450002e+000	 8.000185779984417e-001	 9.755070589662166e+000
0	 9.533315502450002e+000	 8.666790473703454e-001	 9.757117342762612e+000
0	 9.533315502450000e+000	 9.333394000923322e-001	 9.759305716996066e+000
0	 9.533315502449998e+000	 9.999996528288190e-001	 9.761636841334452e+000
0	 9.533315502449996e+000	 1.066659822244222e+000	 9.764111844479956e+000
0	 9.533315502450000e+000	 1.133319925002959e+000	 9.766731854865061e+000
0	 9.533315502449998e+000	 1.199979977769445e+000	 9.769498000652529e+000
0	 9.533315502450000e+000	 1.266639997208098e+000	 9.772411409735472e+000
0	 9.533315502450002e+000	 1.333299999983334e+000	 9.775473209737234e+000
0	 9.599986199732195e+000	 6.666972226472177e-001	 9.739029017383759e+000
0	 9.599986199732195e+000	 7.333579753122048e-001	 9.740877336105474e+000
0	 9.599986199732195e+000	 8.000185779984415e-001	 9.742870431060316e+000
0	 9.599986199732195e+000	 8.666790473703452e-001	 9.745009434426903e+000
0	 9.599986199732197e+000	 9.333394000923321e-001	 9.747295478105006e+000
0	 9.599986199732195e+000	 9.999996528288190e-001	 9.749729693715475e+000
0	 9.599986199732195e+000	 1.066659822244222e+000	 9.752313212600306e+000
0	 9.599986199732193e+000	 1.133319925002958e+000	 9.755047165822578e+000
0	 9.599986199732197e+000	 1.199979977769445e+000	 9.757932684166534e+000
0	 9.599986199732195e+000	 1.266639997208098e+000	 9.760970898137511e+000
0	 9.599986199732197e+000	 1.333299999983334e+000	 9.764162937961970e+000
0	 9.666656597019092e+000	 6.666972226472177e-001	 9.726328010489773e+000
0	 9.666656597019092e+000	 7.333579753122046e-001	 9.728264157343363e+000
0	 9.666656597019092e+000	 8.000185779984415e-001	 9.730351002163019e+000
0	 9.666656597019095e+000	 8.666790473703454e-001	 9.732589681780889e+000
0	 9.666656597019093e+000	 9.333394000923323e-001	 9.734981332740347e+000
0	 9.666656597019088e+000	 9.999996528288189e-001	 9.737527091295746e+000
0	 9.666656597019093e+000	 1.066659822244222e+000	 9.740228093412640e+000
0	 9.666656597019093e+000	 1.133319925002959e+000	 9.743085474767625e+000
0	 9.666656597019093e+000	 1.199979977769445e+000	 9.746100370748442e+000
0	 9.666656597019092e+000	 1.266639997208098e+000	 9.749273916453895e+000
0	 9.666656597019092e+000	 1.333299999983334e+000	 9.752607246693961e+000
0	 9.733326577638573e+000	 6.666972226472175e-001	 9.713269959994756e+000
0	 9.733326577638575e+000	 7.333579753122048e-001	 9.715300020769352e+000
0	 9.733326577638575e+000	 8.000185779984417e-001	 9.717487371014624e+000
0	 9.733326577638573e+000	 8.666790473703451e-001	 9.719833154203874e+000
0	 9.733326577638575e+000	 9.333394000923323e-001	 9.722338513510289e+000
0	 9.733326577638573e+000	 9.999996528288189e-001	 9.725004591807174e+000
0	 9.733326577638573e+000	 1.066659822244222e+000	 9.727832531667767e+000
0	 9.733326577638572e+000	 1.133319925002959e+000	 9.730823475365332e+000
0	 9.733326577638573e+000	 1.199979977769445e+000	 9.733978564873187e+000
0	 9.733326577638575e+000	 1.266639997208098e+000	 9.737298941864605e+000
0	 9.733326577638575e+000	 1.333299999983334e+000	 9.740785747712886e+000
0	 9.799996024918523e+000	 6.666972226472177e-001	 9.699830418566039e+000
0	 9.799996024918521e+000	 7.333579753122048e-001	 9.701960156567475e+000
0	 9.799996024918521e+000	 8.000185779984413e-001	 9.704254607207316e+000
0	 9.799996024918523e+000	 8.666790473703451e-001	 9.706714922588560e+000
0	 9.799996024918521e+000	 9.333394000923320e-001	 9.709342254501740e+000
0	 9.799996024918523e+000	 9.999996528288189e-001	 9.712137754425015e+000
0	 9.799996024918521e+000	 1.066659822244222e+000	 9.715102573524121e+000
0	 9.799996024918519e+000	 1.133319925002958e+000	 9.718237862652378e+000
0	 9.799996024918523e+000	 1.199979977769445e+000	 9.721544772350699e+000
0	 9.799996024918523e+000	 1.266639997208098e+000	 9.725024452847565e+000
0	 9.799996024918523e+000	 1.333299999983334e+000	 9.728678054059120e+000
0	 9.866664822186820e+000	 6.666972226472175e-001	 9.685984940486032e+000
0	 9.866664822186820e+000	 7.333579753122048e-001	 9.688219796503681e+000
0	 9.866664822186820e+000	 8.000185779984417e-001	 9.690627781881263e+000
0	 9.866664822186818e+000	 8.666790473703451e-001	 9.693210059341494e+000
0	 9.866664822186818e+000	 9.333394000923320e-001	 9.695967791280543e+000
0	 9.866664822186820e+000	 9.999996528288190e-001	 9.698902139768276e+000
0	 9.866664822186820e+000	 1.066659822244222e+000	 9.702014266548154e+000
0	 9.866664822186820e+000	 1.133319925002959e+000	 9.705305333037225e+000
0	 9.866664822186820e+000	 1.199979977769445e+000	 9.708776500326122e+000
0	 9.866664822186820e+000	 1.266639997208098e+000	 9.712428929179076e+000
0	 9.866664822186818e+000	 1.333299999983334e+000	 9.716263780034023e+000
0	 9.933332852771351e+000	 6.666972226472177e-001	 9.671709081652686e+000
0	 9.933332852771352e+000	 7.333579753122047e-001	 9.674054173926180e+000
0	 9.933332852771351e+000	 8.000185779984418e-001	 9.676581967725243e+000
0	 9.933332852771352e+000	 8.666790473703454e-001	 9.679293638383390e+000
0	 9.933332852771352e+000	 9.333394000923323e-001	 9.682190360891941e+000
0	 9.933332852771351e+000	 9.999996528288190e-001	 9.685273309900079e+000
0	 9.933332852771349e+000	 1.066659822244222e+000	 9.688543659714691e+000
0	 9.933332852771351e+000	 1.133319925002958e+000	 9.692002584300555e+000
0	 9.933332852771352e+000	 1.199979977769445e+000	 9.695651257280202e+000
0	 9.933332852771352e+000	 1.266639997208098e+000	 9.699490851934042e+000
0	 9.933332852771351e+000	 1.333299999983334e+000	 9.703522541200265e+000
0	 1.000000000000000e+001	 6.666972226472175e-001	 9.656978399579902e+000
0	 1.000000000000000e+001	 7.333579753122049e-001	 9.659438523765896e+000
0	 1.000000000000000e+001	 8.000185779984417e-001	 9.662092238976797e+000
0	 1.000000000000000e+001	 8.666790473703454e-001	 9.664940735149541e+000
0	 1.000000000000000e+001	 9.333394000923322e-001	 9.667985201860969e+000
0	 1.000000000000000e+001	 9.999996528288191e-001	 9.671226828327937e+000
0	 1.000000000000000e+001	 1.066659822244222e+000	 9.674666803407241e+000
0	 1.000000000000000e+001	 1.133319925002959e+000	 9.678306315595609e+000
0	 1.000000000000000e+001	 1.199979977769445e+000	 9.682146553029771e+000
0	 1.000000000000000e+001	 1.266639997208098e+000	 9.686188703486392e+000
0	 1.000000000000000e+001	 1.333299999983334e+000	 9.690433954382089e+000
0	 9.333302777352785e+000	 1.333299999983334e+000	 9.808135409213792e+000
0	 9.333302777352783e+000	 1.399969999982150e+000	 9.810965977370310e+000
0	 9.333302777352785e+000	 1.466639999981866e+000	 9.813871295846100e+000
0	 9.333302777352783e+000	 1.533309999982383e+000	 9.816852701305809e+000
0	 9.333302777352783e+000	 1.599979999983600e+000	 9.819911530414064e+000
0	 9.333302777352783e+000	 1.666649999985416e+000	 9.823049119835481e+000
0	 9.333302777352783e+000	 1.733319999987733e+000	 9.826266806234703e+000
0	 9.333302777352781e+000	 1.799989999990450e+000	 9.829565926276359e+000
0	 9.333302777352783e+000	 1.866659999993466e+000	 9.832947816625106e+000
0	 9.333302777352783e+000	 1.933329999996683e+000	 9.836413813945555e+000
0	 9.333302777352783e+000	 2.000000000000000e+000	 9.839965254902360e+000
0	 9.399973674588177e+000	 1.333299999983334e+000	 9.797439053992335e+000
0	 9.399973674588177e+000	 1.399969999982150e+000	 9.800377473195372e+000
0	 9.399973674588177e+000	 1.466639999981866e+000	 9.803393825642720e+000
0	 9.399973674588177e+000	 1.533309999982383e+000	 9.806489654392991e+000
0	 9.399973674588175e+000	 1.599979999983600e+000	 9.809666502504813e+000
0	 9.399973674588175e+000	 1.666649999985416e+000	 9.812925913036803e+000
0	 9.399973674588175e+000	 1.733319999987733e+000	 9.816269429047612e+000
0	 9.399973674588180e+000	 1.799989999990450e+000	 9.819698593595856e+000
0	 9.399973674588175e+000	 1.866659999993466e+000	 9.823214949740152e+000
0	 9.399973674588180e+000	 1.933329999996684e+000	 9.826820040539149e+000
0	 9.399973674588177e+000	 2.000000000000000e+000	 9.830515409051465e+000
0	 9.466644621844617e+000	 1.333299999983334e+000	 9.786558451500397e+000
0	 9.466644621844623e+000	 1.399969999982150e+000	 9.789612584055512e+000
0	 9.466644621844619e+000	 1.466639999981867e+000	 9.792748190906833e+000
0	 9.466644621844623e+000	 1.533309999982383e+000	 9.795966974012160e+000
0	 9.466644621844619e+000	 1.599979999983599e+000	 9.799270635329242e+000
0	 9.466644621844619e+000	 1.666649999985416e+000	 9.802660876815871e+000
0	 9.466644621844621e+000	 1.733319999987733e+000	 9.806139400429808e+000
0	 9.466644621844621e+000	 1.799989999990450e+000	 9.809707908128887e+000
0	 9.466644621844621e+000	 1.866659999993466e+000	 9.813368101870841e+000
0	 9.466644621844621e+000	 1.933329999996683e+000	 9.817121683613468e+000
0	 9.466644621844623e+000	 2.000000000000000e+000	 9.820970355314547e+000
0	 9.533315502450002e+000	 1.333299999983334e+000	 9.775473209737234e+000
0	 9.533315502449998e+000	 1.399969999982150e+000	 9.778652120712982e+000
0	 9.533315502449996e+000	 1.466639999981866e+000	 9.781916379006908e+000
0	 9.533315502450002e+000	 1.533309999982383e+000	 9.785267797981939e+000
0	 9.533315502450000e+000	 1.599979999983600e+000	 9.788708191000946e+000
0	 9.533315502449998e+000	 1.666649999985416e+000	 9.792239371426843e+000
0	 9.533315502449998e+000	 1.733319999987733e+000	 9.795863152622525e+000
0	 9.533315502450000e+000	 1.799989999990450e+000	 9.799581347950920e+000
0	 9.533315502450000e+000	 1.866659999993466e+000	 9.803395770774920e+000
0	 9.533315502449998e+000	 1.933329999996683e+000	 9.807308234457437e+000
0	 9.533315502450000e+000	 2.000000000000000e+000	 9.811320552361377e+000
0	 9.599986199732197e+000	 1.333299999983334e+000	 9.764162937961970e+000
0	 9.599986199732193e+000	 1.399969999982150e+000	 9.767476895152235e+000
0	 9.599986199732198e+000	 1.466639999981867e+000	 9.770880378495015e+000
0	 9.599986199732198e+000	 1.533309999982383e+000	 9.774375265264631e+000
0	 9.599986199732193e+000	 1.599979999983599e+000	 9.777963432735376e+000
0	 9.599986199732195e+000	 1.666649999985416e+000	 9.781646758181619e+000
0	 9.599986199732197e+000	 1.733319999987733e+000	 9.785427118877630e+000
0	 9.599986199732195e+000	 1.799989999990449e+000	 9.789306392097760e+000
0	 9.599986199732197e+000	 1.866659999993466e+000	 9.793286455116347e+000
0	 9.599986199732197e+000	 1.933329999996683e+000	 9.797369185207682e+000
0	 9.599986199732198e+000	 2.000000000000000e+000	 9.801556459646115e+000
0	 9.666656597019092e+000	 1.333299999983334e+000	 9.752607246693959e+000
0	 9.666656597019092e+000	 1.399969999982150e+000	 9.756067720580120e+000
0	 9.666656597019093e+000	 1.466639999981867e+000	 9.759622179106954e+000
0	 9.666656597019090e+000	 1.533309999982383e+000	 9.763272515966303e+000
0	 9.666656597019095e+000	 1.599979999983600e+000	 9.767020624850012e+000
0	 9.666656597019092e+000	 1.666649999985416e+000	 9.770868399449933e+000
0	 9.666656597019092e+000	 1.733319999987733e+000	 9.774817733457919e+000
0	 9.666656597019092e+000	 1.799989999990450e+000	 9.778870520565818e+000
0	 9.666656597019095e+000	 1.866659999993466e+000	 9.783028654465463e+000
0	 9.666656597019093e+000	 1.933329999996684e+000	 9.787294028848743e+000
0	 9.666656597019092e+000	 2.000000000000000e+000	 9.791668537407471e+000
0	 9.733326577638575e+000	 1.333299999983334e+000	 9.740785747712886e+000
0	 9.733326577638570e+000	 1.399969999982150e+000	 9.744405411426087e+000
0	 9.733326577638575e+000	 1.466639999981866e+000	 9.748123771762561e+000
0	 9.733326577638572e+000	 1.533309999982383e+000	 9.751942691337121e+000
0	 9.733326577638573e+000	 1.599979999983599e+000	 9.755864032764556e+000
0	 9.733326577638573e+000	 1.666649999985416e+000	 9.759889658659672e+000
0	 9.733326577638575e+000	 1.733319999987733e+000	 9.764021431637307e+000
0	 9.733326577638572e+000	 1.799989999990450e+000	 9.768261214312229e+000
0	 9.733326577638573e+000	 1.866659999993466e+000	 9.772610869299268e+000
0	 9.733326577638572e+000	 1.933329999996683e+000	 9.777072259213220e+000
0	 9.733326577638573e+000	 2.000000000000000e+000	 9.781647246668916e+000
0	 9.799996024918523e+000	 1.333299999983334e+000	 9.728678054059122e+000
0	 9.799996024918524e+000	 1.399969999982150e+000	 9.732470783342510e+000
0	 9.799996024918519e+000	 1.466639999981866e+000	 9.736367148565972e+000
0	 9.799996024918523e+000	 1.533309999982383e+000	 9.740368933771546e+000
0	 9.799996024918521e+000	 1.599979999983599e+000	 9.744477923001240e+000
0	 9.799996024918521e+000	 1.666649999985416e+000	 9.748695900297077e+000
0	 9.799996024918523e+000	 1.733319999987733e+000	 9.753024649701054e+000
0	 9.799996024918523e+000	 1.799989999990450e+000	 9.757465955255196e+000
0	 9.799996024918519e+000	 1.866659999993466e+000	 9.762021601001544e+000
0	 9.799996024918521e+000	 1.933329999996683e+000	 9.766693370982102e+000
0	 9.799996024918524e+000	 2.000000000000000e+000	 9.771483049238894e+000
0	 9.866664822186818e+000	 1.333299999983334e+000	 9.716263780034023e+000
0	 9.866664822186822e+000	 1.399969999982150e+000	 9.720244653204928e+000
0	 9.866664822186817e+000	 1.466639999981866e+000	 9.724334302805893e+000
0	 9.866664822186820e+000	 1.533309999982383e+000	 9.728534386808661e+000
0	 9.866664822186818e+000	 1.599979999983599e+000	 9.732846563185072e+000
0	 9.866664822186820e+000	 1.666649999985416e+000	 9.737272489906951e+000
0	 9.866664822186820e+000	 1.733319999987733e+000	 9.741813824946071e+000
0	 9.866664822186820e+000	 1.799989999990450e+000	 9.746472226274220e+000
0	 9.866664822186820e+000	 1.866659999993466e+000	 9.751249351863230e+000
0	 9.866664822186820e+000	 1.933329999996683e+000	 9.756146859684924e+000
0	 9.866664822186820e+000	 2.000000000000000e+000	 9.761166407711080e+000
0	 9.933332852771351e+000	 1.333299999983334e+000	 9.703522541200265e+000
0	 9.933332852771351e+000	 1.399969999982150e+000	 9.707707839112457e+000
0	 9.933332852771351e+000	 1.466639999981866e+000	 9.712007228955880e+000
0	 9.933332852771352e+000	 1.533309999982383e+000	 9.716422195132454e+000
0	 9.933332852771351e+000	 1.599979999983599e+000	 9.720954222044208e+000
0	 9.933332852771351e+000	 1.666649999985416e+000	 9.725604794093117e+000
0	 9.933332852771352e+000	 1.733319999987733e+000	 9.730375395681170e+000
0	 9.933332852771351e+000	 1.799989999990450e+000	 9.735267511210347e+000
0	 9.933332852771351e+000	 1.866659999993466e+000	 9.740282625082660e+000
0	 9.933332852771351e+000	 1.933329999996683e+000	 9.745422221700087e+000
0	 9.933332852771352e+000	 2.000000000000000e+000	 9.750687785464644e+000
0	 1.000000000000000e+001	 1.333299999983334e+000	 9.690433954382089e+000
0	 1.000000000000000e+001	 1.399969999982150e+000	 9.694841160388068e+000
0	 1.000000000000000e+001	 1.466639999981866e+000	 9.699367922674769e+000
0	 1.000000000000000e+001	 1.533309999982383e+000	 9.704015504572190e+000
0	 9.999999999999998e+000	 1.599979999983599e+000	 9.708785169410177e+000
0	 1.000000000000000e+001	 1.666649999985416e+000	 9.713678180518658e+000
0	 1.000000000000000e+001	 1.733319999987733e+000	 9.718695801227474e+000
0	 1.000000000000000e+001	 1.799989999990450e+000	 9.723839294866592e+000
0	 1.000000000000000e+001	 1.866659999993466e+000	 9.729109924765865e+000
0	 1.000000000000000e+001	 1.933329999996683e+000	 9.734508954255214e+000
0	 1.000000000000000e+001	 2.000000000000000e+000	 9.740037646664543e+000
0	 9.333302777352783e+000	 2.000000000000000e+000	 9.839965254902360e+000
0	 9.333302777352783e+000	 2.066670000003318e+000	 9.843570107413466e+000
0	 9.333302777352783e+000	 2.133340000006534e+000	 9.847196706156643e+000
0	 9.333302777352785e+000	 2.200010000009550e+000	 9.850846937936174e+000
0	 9.333302777352781e+000	 2.266680000012267e+000	 9.854522689556335e+000
0	 9.333302777352783e+000	 2.333350000014584e+000	 9.858225847821428e+000
0	 9.333302777352781e+000	 2.400020000016401e+000	 9.861958299535715e+000
0	 9.333302777352785e+000	 2.466690000017617e+000	 9.865721931503515e+000
0	 9.333302777352781e+000	 2.533360000018134e+000	 9.869518630529097e+000
0	 9.333302777352783e+000	 2.600030000017850e+000	 9.873350283416759e+000
0	 9.333302777352785e+000	 2.666700000016666e+000	 9.877218776970789e+000
0	 9.399973674588177e+000	 2.000000000000000e+000	 9.830515409051465e+000
0	 9.399973674588180e+000	 2.066670000003318e+000	 9.834268458582921e+000
0	 9.399973674588177e+000	 2.133340000006534e+000	 9.838046576301251e+000
0	 9.399973674588177e+000	 2.200010000009550e+000	 9.841851281058053e+000
0	 9.399973674588177e+000	 2.266680000012267e+000	 9.845684091704916e+000
0	 9.399973674588173e+000	 2.333350000014584e+000	 9.849546527093398e+000
0	 9.399973674588173e+000	 2.400020000016400e+000	 9.853440106075087e+000
0	 9.399973674588175e+000	 2.466690000017618e+000	 9.857366347501564e+000
0	 9.399973674588178e+000	 2.533360000018134e+000	 9.861326770224387e+000
0	 9.399973674588177e+000	 2.600030000017851e+000	 9.865322893095170e+000
0	 9.399973674588178e+000	 2.666700000016666e+000	 9.869356234965482e+000
0	 9.466644621844623e+000	 2.000000000000000e+000	 9.820970355314547e+000
0	 9.466644621844621e+000	 2.066670000003317e+000	 9.824880630203113e+000
0	 9.466644621844621e+000	 2.133340000006534e+000	 9.828818718412256e+000
0	 9.466644621844621e+000	 2.200010000009550e+000	 9.832785867255815e+000
0	 9.466644621844621e+000	 2.266680000012267e+000	 9.836783324047637e+000
0	 9.466644621844621e+000	 2.333350000014584e+000	 9.840812336101553e+000
0	 9.466644621844621e+000	 2.400020000016400e+000	 9.844874150731428e+000
0	 9.466644621844621e+000	 2.466690000017617e+000	 9.848970015251092e+000
0	 9.466644621844619e+000	 2.533360000018134e+000	 9.853101176974368e+000
0	 9.466644621844621e+000	 2.600030000017851e+000	 9.857268883215145e+000
0	 9.466644621844617e+000	 2.666700000016666e+000	 9.861474381287241e+000
0	 9.533315502450000e+000	 2.000000000000000e+000	 9.811320552361377e+000
0	 9.533315502450000e+000	 2.066670000003318e+000	 9.815398050797514e+000
0	 9.533315502450002e+000	 2.133340000006534e+000	 9.819505561961154e+000
0	 9.533315502449998e+000	 2.200010000009550e+000	 9.823644158041985e+000
0	 9.533315502450000e+000	 2.266680000012267e+000	 9.827814911229687e+000
0	 9.533315502449998e+000	 2.333350000014585e+000	 9.832018893713975e+000
0	 9.533315502450000e+000	 2.400020000016401e+000	 9.836257177684521e+000
0	 9.533315502450002e+000	 2.466690000017618e+000	 9.840530835331046e+000
0	 9.533315502449998e+000	 2.533360000018134e+000	 9.844840938843225e+000
0	 9.533315502449998e+000	 2.600030000017851e+000	 9.849188560410745e+000
0	 9.533315502450000e+000	 2.666700000016667e+000	 9.853574772223318e+000
0	 9.599986199732198e+000	 2.000000000000000e+000	 9.801556459646115e+000
0	 9.599986199732198e+000	 2.066670000003318e+000	 9.805812149605481e+000
0	 9.599986199732197e+000	 2.133340000006534e+000	 9.810099537062598e+000
0	 9.599986199732197e+000	 2.200010000009550e+000	 9.814419615496187e+000
0	 9.599986199732197e+000	 2.266680000012267e+000	 9.818773378385023e+000
0	 9.599986199732195e+000	 2.333350000014584e+000	 9.823161819207840e+000
0	 9.599986199732193e+000	 2.400020000016400e+000	 9.827585931443407e+000
0	 9.599986199732195e+000	 2.466690000017617e+000	 9.832046708570443e+000
0	 9.599986199732197e+000	 2.533360000018134e+000	 9.836545144067740e+000
0	 9.599986199732195e+000	 2.600030000017850e+000	 9.841082231414012e+000
0	 9.599986199732198e+000	 2.666700000016667e+000	 9.845658964088035e+000
0	 9.666656597019092e+000	 2.000000000000000e+000	 9.791668537407471e+000
0	 9.666656597019093e+000	 2.066670000003317e+000	 9.796114356582544e+000
0	 9.666656597019093e+000	 2.133340000006534e+000	 9.800593074474632e+000
0	 9.666656597019090e+000	 2.200010000009550e+000	 9.805105702265433e+000
0	 9.666656597019093e+000	 2.266680000012267e+000	 9.809653251136552e+000
0	 9.666656597019092e+000	 2.333350000014585e+000	 9.814236732269661e+000
0	 9.666656597019092e+000	 2.400020000016401e+000	 9.818857156846431e+000
0	 9.666656597019092e+000	 2.466690000017617e+000	 9.823515536048483e+000
0	 9.666656597019092e+000	 2.533360000018133e+000	 9.828212881057487e+000
0	 9.666656597019090e+000	 2.600030000017851e+000	 9.832950203055063e+000
0	 9.666656597019093e+000	 2.666700000016666e+000	 9.837728513222912e+000
0	 9.733326577638573e+000	 2.000000000000000e+000	 9.781647246668916e+000
0	 9.733326577638577e+000	 2.066670000003318e+000	 9.786296102400478e+000
0	 9.733326577638575e+000	 2.133340000006534e+000	 9.790978605598895e+000
0	 9.733326577638575e+000	 2.200010000009550e+000	 9.795695881564141e+000
0	 9.733326577638573e+000	 2.266680000012267e+000	 9.800449055596333e+000
0	 9.733326577638575e+000	 2.333350000014584e+000	 9.805239252995458e+000
0	 9.733326577638575e+000	 2.400020000016401e+000	 9.810067599061586e+000
0	 9.733326577638575e+000	 2.466690000017617e+000	 9.814935219094753e+000
0	 9.733326577638573e+000	 2.533360000018134e+000	 9.819843238394979e+000
0	 9.733326577638577e+000	 2.600030000017851e+000	 9.824792782262325e+000
0	 9.733326577638575e+000	 2.666700000016667e+000	 9.829784975996850e+000
0	 9.799996024918524e+000	 2.000000000000000e+000	 9.771483049238894e+000
0	 9.799996024918519e+000	 2.066670000003317e+000	 9.776348818447710e+000
0	 9.799996024918524e+000	 2.133340000006534e+000	 9.781248562480762e+000
0	 9.799996024918524e+000	 2.200010000009551e+000	 9.786183617174583e+000
0	 9.799996024918521e+000	 2.266680000012267e+000	 9.791155318365780e+000
0	 9.799996024918523e+000	 2.333350000014584e+000	 9.796165001890918e+000
0	 9.799996024918521e+000	 2.400020000016401e+000	 9.801214003586601e+000
0	 9.799996024918523e+000	 2.466690000017617e+000	 9.806303659289405e+000
0	 9.799996024918523e+000	 2.533360000018134e+000	 9.811435304835895e+000
0	 9.799996024918523e+000	 2.600030000017850e+000	 9.816610276062656e+000
0	 9.799996024918523e+000	 2.666700000016667e+000	 9.821829908806308e+000
0	 9.866664822186820e+000	 2.000000000000000e+000	 9.761166407711080e+000
0	 9.866664822186820e+000	 2.066670000003317e+000	 9.766263936829384e+000
0	 9.866664822186820e+000	 2.133340000006534e+000	 9.771395377809670e+000
0	 9.866664822186820e+000	 2.200010000009550e+000	 9.776562373446831e+000
0	 9.866664822186822e+000	 2.266680000012267e+000	 9.781766566535829e+000
0	 9.866664822186820e+000	 2.333350000014584e+000	 9.787009599871643e+000
0	 9.866664822186820e+000	 2.400020000016400e+000	 9.792293116249160e+000
0	 9.866664822186820e+000	 2.466690000017617e+000	 9.797618758463351e+000
0	 9.866664822186822e+000	 2.533360000018134e+000	 9.802988169309179e+000
0	 9.866664822186820e+000	 2.600030000017851e+000	 9.808402991581545e+000
0	 9.866664822186820e+000	 2.666700000016666e+000	 9.813864868075436e+000
0	 9.933332852771352e+000	 2.000000000000000e+000	 9.750687785464644e+000
0	 9.933332852771352e+000	 2.066670000003317e+000	 9.756032890367704e+000
0	 9.933332852771351e+000	 2.133340000006534e+000	 9.761411484919305e+000
0	 9.933332852771351e+000	 2.200010000009550e+000	 9.766825615299229e+000
0	 9.933332852771349e+000	 2.266680000012267e+000	 9.772277327687293e+000
0	 9.933332852771351e+000	 2.333350000014584e+000	 9.777768668263311e+000
0	 9.933332852771351e+000	 2.400020000016401e+000	 9.783301683207119e+000
0	 9.933332852771351e+000	 2.466690000017617e+000	 9.788878418698465e+000
0	 9.933332852771352e+000	 2.533360000018134e+000	 9.794500920917255e+000
0	 9.933332852771351e+000	 2.600030000017851e+000	 9.800171236043264e+000
0	 9.933332852771352e+000	 2.666700000016666e+000	 9.805891410256290e+000
0	 1.000000000000000e+001	 2.000000000000000e+000	 9.740037646664543e+000
0	 9.999999999999998e+000	 2.066670000003316e+000	 9.745647112602212e+000
0	 1.000000000000000e+001	 2.133340000006534e+000	 9.751289317787904e+000
0	 9.999999999999998e+000	 2.200010000009550e+000	 9.756966808218504e+000
0	 1.000000000000000e+001	 2.266680000012268e+000	 9.762682129890893e+000
0	 1.000000000000000e+001	 2.333350000014584e+000	 9.768437828801980e+000
0	 1.000000000000000e+001	 2.400020000016401e+000	 9.774236450948656e+000
0	 1.000000000000000e+001	 2.466690000017617e+000	 9.780080542327777e+000
0	 1.000000000000000e+001	 2.533360000018134e+000	 9.785972648936300e+000
0	 1.000000000000000e+001	 2.600030000017850e+000	 9.791915316771039e+000
0	 1.000000000000000e+001	 2.666700000016666e+000	 9.797911091829006e+000
0	 9.333302777352785e+000	 2.666700000016666e+000	 9.877218776970787e+000
0	 9.333302777352783e+000	 2.733360000014533e+000	 9.881091993599510e+000
0	 9.333302777352781e+000	 2.800020000011600e+000	 9.884938435234597e+000
0	 9.333302777352783e+000	 2.866680000008067e+000	 9.888759168658565e+000
0	 9.333302777352781e+000	 2.933340000004133e+000	 9.892555260653941e+000
0	 9.333302777352785e+000	 3.000000000000000e+000	 9.896327778003224e+000
0	 9.333302777352783e+000	 3.066659999995867e+000	 9.900077787488941e+000
0	 9.333302777352781e+000	 3.133319999991933e+000	 9.903806355893599e+000
0	 9.333302777352783e+000	 3.199979999988400e+000	 9.907514549999714e+000
0	 9.333302777352783e+000	 3.266639999985467e+000	 9.911203436589821e+000
0	 9.333302777352785e+000	 3.333299999983334e+000	 9.914874082446435e+000
0	 9.399973674588178e+000	 2.666700000016666e+000	 9.869356234965478e+000
0	 9.399973674588177e+000	 2.733360000014532e+000	 9.873393743027789e+000
0	 9.399973674588175e+000	 2.800020000011600e+000	 9.877403399678736e+000
0	 9.399973674588178e+000	 2.866680000008067e+000	 9.881386453061410e+000
0	 9.399973674588180e+000	 2.933340000004134e+000	 9.885344151318897e+000
0	 9.399973674588180e+000	 3.000000000000000e+000	 9.889277742594240e+000
0	 9.399973674588178e+000	 3.066659999995867e+000	 9.893188475030529e+000
0	 9.399973674588177e+000	 3.133319999991933e+000	 9.897077596770849e+000
0	 9.399973674588175e+000	 3.199979999988400e+000	 9.900946355958254e+000
0	 9.399973674588175e+000	 3.266639999985467e+000	 9.904796000735836e+000
0	 9.399973674588178e+000	 3.333299999983334e+000	 9.908627779246670e+000
0	 9.466644621844617e+000	 2.666700000016666e+000	 9.861474381287241e+000
0	 9.466644621844617e+000	 2.733360000014533e+000	 9.865683777050601e+000
0	 9.466644621844617e+000	 2.800020000011600e+000	 9.869864539877005e+000
0	 9.466644621844621e+000	 2.866680000008067e+000	 9.874018061278656e+000
0	 9.466644621844617e+000	 2.933340000004133e+000	 9.878145732767797e+000
0	 9.466644621844623e+000	 3.000000000000000e+000	 9.882248945856610e+000
0	 9.466644621844621e+000	 3.066659999995868e+000	 9.886329092057336e+000
0	 9.466644621844619e+000	 3.133319999991933e+000	 9.890387562882211e+000
0	 9.466644621844621e+000	 3.199979999988400e+000	 9.894425749843434e+000
0	 9.466644621844619e+000	 3.266639999985467e+000	 9.898445044453245e+000
0	 9.466644621844619e+000	 3.333299999983334e+000	 9.902446838223840e+000
0	 9.533315502450000e+000	 2.666700000016667e+000	 9.853574772223318e+000
0	 9.533315502450000e+000	 2.733360000014533e+000	 9.857964855449556e+000
0	 9.533315502449998e+000	 2.800020000011599e+000	 9.862325696085289e+000
0	 9.533315502450002e+000	 2.866680000008067e+000	 9.866658791021203e+000
0	 9.533315502450000e+000	 2.933340000004133e+000	 9.870965637147986e+000
0	 9.533315502449998e+000	 3.000000000000000e+000	 9.875247731356366e+000
0	 9.533315502449996e+000	 3.066659999995867e+000	 9.879506570536989e+000
0	 9.533315502450000e+000	 3.133319999991933e+000	 9.883743651580579e+000
0	 9.533315502450000e+000	 3.199979999988401e+000	 9.887960471377827e+000
0	 9.533315502449998e+000	 3.266639999985467e+000	 9.892158526819424e+000
0	 9.533315502450000e+000	 3.333299999983334e+000	 9.896339314796064e+000
0	 9.599986199732198e+000	 2.666700000016667e+000	 9.845658964088036e+000
0	 9.599986199732197e+000	 2.733360000014533e+000	 9.850239737966941e+000
0	 9.599986199732195e+000	 2.800020000011600e+000	 9.854790708458243e+000
0	 9.599986199732197e+000	 2.866680000008067e+000	 9.859313439840761e+000
0	 9.599986199732195e+000	 2.933340000004133e+000	 9.863809496393339e+000
0	 9.599986199732195e+000	 3.000000000000000e+000	 9.868280442394820e+000
0	 9.599986199732195e+000	 3.066659999995868e+000	 9.872727842124027e+000
0	 9.599986199732193e+000	 3.133319999991933e+000	 9.877153259859792e+000
0	 9.599986199732193e+000	 3.199979999988400e+000	 9.881558259880954e+000
0	 9.599986199732193e+000	 3.266639999985467e+000	 9.885944406466331e+000
0	 9.599986199732197e+000	 3.333299999983334e+000	 9.890313263894782e+000
0	 9.666656597019093e+000	 2.666700000016666e+000	 9.837728513222912e+000
0	 9.666656597019093e+000	 2.733360000014534e+000	 9.842511184305931e+000
0	 9.666656597019090e+000	 2.800020000011600e+000	 9.847263417049456e+000
0	 9.666656597019093e+000	 2.866680000008067e+000	 9.851986805130061e+000
0	 9.666656597019092e+000	 2.933340000004133e+000	 9.856682942224314e+000
0	 9.666656597019093e+000	 3.000000000000000e+000	 9.861353422008786e+000
0	 9.666656597019095e+000	 3.066659999995866e+000	 9.865999838160088e+000
0	 9.666656597019093e+000	 3.133319999991933e+000	 9.870623784354756e+000
0	 9.666656597019092e+000	 3.199979999988400e+000	 9.875226854269412e+000
0	 9.666656597019093e+000	 3.266639999985468e+000	 9.879810641580612e+000
0	 9.666656597019092e+000	 3.333299999983333e+000	 9.884376739964937e+000
0	 9.733326577638575e+000	 2.666700000016667e+000	 9.829784975996848e+000
0	 9.733326577638575e+000	 2.733360000014533e+000	 9.834781954130788e+000
0	 9.733326577638575e+000	 2.800020000011600e+000	 9.839747661811671e+000
0	 9.733326577638572e+000	 2.866680000008066e+000	 9.844683684122975e+000
0	 9.733326577638575e+000	 2.933340000004133e+000	 9.849591606148119e+000
0	 9.733326577638577e+000	 3.000000000000000e+000	 9.854473012970642e+000
0	 9.733326577638575e+000	 3.066659999995866e+000	 9.859329489673977e+000
0	 9.733326577638572e+000	 3.133319999991933e+000	 9.864162621341620e+000
0	 9.733326577638575e+000	 3.199979999988400e+000	 9.868973993057018e+000
0	 9.733326577638573e+000	 3.266639999985468e+000	 9.873765189903676e+000
0	 9.733326577638575e+000	 3.333299999983335e+000	 9.878537796965059e+000
0	 9.799996024918523e+000	 2.666700000016667e+000	 9.821829908806308e+000
0	 9.799996024918521e+000	 2.733360000014533e+000	 9.827054807066954e+000
0	 9.799996024918521e+000	 2.800020000011599e+000	 9.832247282596846e+000
0	 9.799996024918521e+000	 2.866680000008066e+000	 9.837408873894628e+000
0	 9.799996024918523e+000	 2.933340000004133e+000	 9.842541119458964e+000
0	 9.799996024918519e+000	 3.000000000000000e+000	 9.847645557788502e+000
0	 9.799996024918523e+000	 3.066659999995867e+000	 9.852723727381894e+000
0	 9.799996024918521e+000	 3.133319999991933e+000	 9.857777166737835e+000
0	 9.799996024918524e+000	 3.199979999988401e+000	 9.862807414354956e+000
0	 9.799996024918521e+000	 3.266639999985468e+000	 9.867816008731936e+000
0	 9.799996024918523e+000	 3.333299999983334e+000	 9.872804488367414e+000
0	 9.866664822186820e+000	 2.666700000016666e+000	 9.813864868075436e+000
0	 9.866664822186820e+000	 2.733360000014533e+000	 9.819332502701238e+000
0	 9.866664822186818e+000	 2.800020000011599e+000	 9.824766119156330e+000
0	 9.866664822186820e+000	 2.866680000008067e+000	 9.830167171361646e+000
0	 9.866664822186820e+000	 2.933340000004133e+000	 9.835537113238015e+000
0	 9.866664822186818e+000	 2.999999999999999e+000	 9.840877398706327e+000
0	 9.866664822186820e+000	 3.066659999995868e+000	 9.846189481687482e+000
0	 9.866664822186822e+000	 3.133319999991933e+000	 9.851474816102348e+000
0	 9.866664822186820e+000	 3.199979999988400e+000	 9.856734855871817e+000
0	 9.866664822186818e+000	 3.266639999985467e+000	 9.861971054916770e+000
0	 9.866664822186818e+000	 3.333299999983333e+000	 9.867184867158075e+000
0	 9.933332852771352e+000	 2.666700000016666e+000	 9.805891410256290e+000
0	 9.933332852771352e+000	 2.733360000014533e+000	 9.811617800581939e+000
0	 9.933332852771349e+000	 2.800020000011600e+000	 9.817308011141064e+000
0	 9.933332852771352e+000	 2.866680000008067e+000	 9.822963373282134e+000
0	 9.933332852771352e+000	 2.933340000004133e+000	 9.828585218353640e+000
0	 9.933332852771349e+000	 2.999999999999999e+000	 9.834174877704070e+000
0	 9.933332852771351e+000	 3.066659999995866e+000	 9.839733682681910e+000
0	 9.933332852771351e+000	 3.133319999991934e+000	 9.845262964635662e+000
0	 9.933332852771352e+000	 3.199979999988400e+000	 9.850764054913766e+000
0	 9.933332852771351e+000	 3.266639999985467e+000	 9.856238284864698e+000
0	 9.933332852771351e+000	 3.333299999983334e+000	 9.861686985836998e+000
0	 1.000000000000000e+001	 2.666700000016666e+000	 9.797911091829006e+000
0	 1.000000000000000e+001	 2.733360000014533e+000	 9.803913460219105e+000
0	 1.000000000000000e+001	 2.800020000011600e+000	 9.809876798101653e+000
0	 1.000000000000000e+001	 2.866680000008067e+000	 9.815802276255997e+000
0	 1.000000000000000e+001	 2.933340000004133e+000	 9.821691065461582e+000
0	 1.000000000000000e+001	 3.000000000000000e+000	 9.827544336497846e+000
0	 1.000000000000000e+001	 3.066659999995867e+000	 9.833363260144141e+000
0	 9.999999999999998e+000	 3.133319999991933e+000	 9.839149007179914e+000
0	 1.000000000000000e+001	 3.199979999988401e+000	 9.844902748384579e+000
0	 1.000000000000000e+001	 3.266639999985467e+000	 9.850625654537545e+000
0	 1.000000000000000e+001	 3.333299999983334e+000	 9.856318896418186e+000
0	 9.333302777352785e+000	 3.333299999983334e+000	 9.914874082446437e+000
0	 9.333302777352781e+000	 3.399969999982149e+000	 9.918506360606946e+000
0	 9.333302777352785e+000	 3.466639999981867e+000	 9.922078828350358e+000
0	 9.333302777352783e+000	 3.533309999982383e+000	 9.925592226832910e+000
0	 9.333302777352785e+000	 3.599979999983600e+000	 9.929047297210818e+000
0	 9.333302777352783e+000	 3.666649999985417e+000	 9.932444780640298e+000
0	 9.333302777352783e+000	 3.733319999987733e+000	 9.935785418277568e+000
0	 9.333302777352783e+000	 3.799989999990450e+000	 9.939069951278871e+000
0	 9.333302777352783e+000	 3.866659999993466e+000	 9.942299120800399e+000
0	 9.333302777352783e+000	 3.933329999996683e+000	 9.945473667998382e+000
0	 9.333302777352785e+000	 4.000000000000000e+000	 9.948594334029053e+000
0	 9.399973674588178e+000	 3.333299999983334e+000	 9.908627779246672e+000
0	 9.399973674588177e+000	 3.399969999982150e+000	 9.912420564390310e+000
0	 9.399973674588177e+000	 3.466639999981866e+000	 9.916151739655184e+000
0	 9.399973674588178e+000	 3.533309999982383e+000	 9.919822039707313e+000
0	 9.399973674588175e+000	 3.599979999983600e+000	 9.923432199212707e+000
0	 9.399973674588175e+000	 3.666649999985416e+000	 9.926982952837401e+000
0	 9.399973674588175e+000	 3.733319999987732e+000	 9.930475035247417e+000
0	 9.399973674588178e+000	 3.799989999990450e+000	 9.933909181108783e+000
0	 9.399973674588177e+000	 3.866659999993467e+000	 9.937286125087518e+000
0	 9.399973674588177e+000	 3.933329999996684e+000	 9.940606601849654e+000
0	 9.399973674588175e+000	 4.000000000000000e+000	 9.943871346061192e+000
0	 9.466644621844619e+000	 3.333299999983334e+000	 9.902446838223840e+000
0	 9.466644621844623e+000	 3.399969999982150e+000	 9.906408688426904e+000
0	 9.466644621844619e+000	 3.466639999981867e+000	 9.910306518782905e+000
0	 9.466644621844623e+000	 3.533309999982383e+000	 9.914141067735343e+000
0	 9.466644621844617e+000	 3.599979999983598e+000	 9.917913073727611e+000
0	 9.466644621844619e+000	 3.666649999985417e+000	 9.921623275203219e+000
0	 9.466644621844621e+000	 3.733319999987733e+000	 9.925272410605592e+000
0	 9.466644621844621e+000	 3.799989999990450e+000	 9.928861218378163e+000
0	 9.466644621844621e+000	 3.866659999993467e+000	 9.932390436964408e+000
0	 9.466644621844619e+000	 3.933329999996684e+000	 9.935860804807776e+000
0	 9.466644621844621e+000	 4.000000000000000e+000	 9.939273060351706e+000
0	 9.533315502450000e+000	 3.333299999983334e+000	 9.896339314796064e+000
0	 9.533315502449996e+000	 3.399969999982150e+000	 9.900478857455594e+000
0	 9.533315502449998e+000	 3.466639999981866e+000	 9.904551428756593e+000
0	 9.533315502450003e+000	 3.533309999982384e+000	 9.908557781187605e+000
0	 9.533315502450002e+000	 3.599979999983600e+000	 9.912498667237143e+000
0	 9.533315502450000e+000	 3.666649999985416e+000	 9.916374839393722e+000
0	 9.533315502450000e+000	 3.733319999987733e+000	 9.920187050145900e+000
0	 9.533315502449996e+000	 3.799989999990449e+000	 9.923936051982185e+000
0	 9.533315502449998e+000	 3.866659999993467e+000	 9.927622597391109e+000
0	 9.533315502449998e+000	 3.933329999996684e+000	 9.931247438861174e+000
0	 9.533315502450000e+000	 4.000000000000001e+000	 9.934811328880922e+000
0	 9.599986199732197e+000	 3.333299999983334e+000	 9.890313263894782e+000
0	 9.599986199732195e+000	 3.399969999982149e+000	 9.894639195688329e+000
0	 9.599986199732195e+000	 3.466639999981866e+000	 9.898894732032909e+000
0	 9.599986199732198e+000	 3.533309999982384e+000	 9.903080649729922e+000
0	 9.599986199732193e+000	 3.599979999983599e+000	 9.907197725580744e+000
0	 9.599986199732195e+000	 3.666649999985415e+000	 9.911246736386755e+000
0	 9.599986199732195e+000	 3.733319999987732e+000	 9.915228458949319e+000
0	 9.599986199732197e+000	 3.799989999990450e+000	 9.919143670069850e+000
0	 9.599986199732197e+000	 3.866659999993467e+000	 9.922993146549697e+000
0	 9.599986199732197e+000	 3.933329999996684e+000	 9.926777665190254e+000
0	 9.599986199732198e+000	 4.000000000000001e+000	 9.930498002792907e+000
0	 9.666656597019092e+000	 3.333299999983333e+000	 9.884376739964937e+000
0	 9.666656597019092e+000	 3.399969999982151e+000	 9.888897826810167e+000
0	 9.666656597019093e+000	 3.466639999981867e+000	 9.893344690502250e+000
0	 9.666656597019092e+000	 3.533309999982383e+000	 9.897718142423424e+000
0	 9.666656597019095e+000	 3.599979999983600e+000	 9.902018993955954e+000
0	 9.666656597019088e+000	 3.666649999985415e+000	 9.906248056482083e+000
0	 9.666656597019093e+000	 3.733319999987733e+000	 9.910406141384055e+000
0	 9.666656597019090e+000	 3.799989999990450e+000	 9.914494060044166e+000
0	 9.666656597019092e+000	 3.866659999993467e+000	 9.918512623844624e+000
0	 9.666656597019093e+000	 3.933329999996684e+000	 9.922462644167686e+000
0	 9.666656597019092e+000	 4.000000000000001e+000	 9.926344932395631e+000
0	 9.733326577638575e+000	 3.333299999983335e+000	 9.878537796965059e+000
0	 9.733326577638575e+000	 3.399969999982150e+000	 9.883262873979490e+000
0	 9.733326577638575e+000	 3.466639999981867e+000	 9.887909565488851e+000
0	 9.733326577638575e+000	 3.533309999982383e+000	 9.892478727724658e+000
0	 9.733326577638573e+000	 3.599979999983600e+000	 9.896971216918413e+000
0	 9.733326577638573e+000	 3.666649999985416e+000	 9.901387889301574e+000
0	 9.733326577638573e+000	 3.733319999987732e+000	 9.905729601105675e+000
0	 9.733326577638573e+000	 3.799989999990450e+000	 9.909997208562167e+000
0	 9.733326577638575e+000	 3.866659999993467e+000	 9.914191567902583e+000
0	 9.733326577638573e+000	 3.933329999996684e+000	 9.918313535358358e+000
0	 9.733326577638573e+000	 4.000000000000000e+000	 9.922363967161026e+000
0	 9.799996024918523e+000	 3.333299999983334e+000	 9.872804488367416e+000
0	 9.799996024918521e+000	 3.399969999982150e+000	 9.877742459827990e+000
0	 9.799996024918519e+000	 3.466639999981865e+000	 9.882597617750923e+000
0	 9.799996024918519e+000	 3.533309999982382e+000	 9.887370873485729e+000
0	 9.799996024918523e+000	 3.599979999983601e+000	 9.892063138382026e+000
0	 9.799996024918521e+000	 3.666649999985417e+000	 9.896675323789319e+000
0	 9.799996024918524e+000	 3.733319999987733e+000	 9.901208341057178e+000
0	 9.799996024918523e+000	 3.799989999990450e+000	 9.905663101535126e+000
0	 9.799996024918523e+000	 3.866659999993467e+000	 9.910040516572719e+000
0	 9.799996024918523e+000	 3.933329999996684e+000	 9.914341497519548e+000
0	 9.799996024918521e+000	 4.000000000000000e+000	 9.918566955725085e+000
0	 9.866664822186818e+000	 3.333299999983333e+000	 9.867184867158075e+000
0	 9.866664822186820e+000	 3.399969999982150e+000	 9.872344706460918e+000
0	 9.866664822186818e+000	 3.466639999981866e+000	 9.877417107480694e+000
0	 9.866664822186822e+000	 3.533309999982383e+000	 9.882403046954416e+000
0	 9.866664822186820e+000	 3.599979999983600e+000	 9.887303501619030e+000
0	 9.866664822186822e+000	 3.666649999985416e+000	 9.892119448211590e+000
0	 9.866664822186820e+000	 3.733319999987733e+000	 9.896851863469053e+000
0	 9.866664822186818e+000	 3.799989999990450e+000	 9.901501724128440e+000
0	 9.866664822186820e+000	 3.866659999993466e+000	 9.906070006926683e+000
0	 9.866664822186818e+000	 3.933329999996683e+000	 9.910557688600841e+000
0	 9.866664822186820e+000	 4.000000000000001e+000	 9.914965745887860e+000
0	 9.933332852771351e+000	 3.333299999983334e+000	 9.861686985837000e+000
0	 9.933332852771354e+000	 3.399969999982150e+000	 9.867077735457023e+000
0	 9.933332852771351e+000	 3.466639999981867e+000	 9.872376294304516e+000
0	 9.933332852771352e+000	 3.533309999982383e+000	 9.877583714774001e+000
0	 9.933332852771352e+000	 3.599979999983600e+000	 9.882701049259993e+000
0	 9.933332852771352e+000	 3.666649999985416e+000	 9.887729350156960e+000
0	 9.933332852771349e+000	 3.733319999987733e+000	 9.892669669859384e+000
0	 9.933332852771351e+000	 3.799989999990450e+000	 9.897523060761795e+000
0	 9.933332852771351e+000	 3.866659999993466e+000	 9.902290575258606e+000
0	 9.933332852771351e+000	 3.933329999996684e+000	 9.906973265744327e+000
0	 9.933332852771351e+000	 4.000000000000000e+000	 9.911572184613512e+000
0	 1.000000000000000e+001	 3.333299999983334e+000	 9.856318896418186e+000
0	 1.000000000000000e+001	 3.399969999982150e+000	 9.861949667868645e+000
0	 1.000000000000000e+001	 3.466639999981866e+000	 9.867483437282873e+000
0	 1.000000000000000e+001	 3.533309999982383e+000	 9.872921342983672e+000
0	 1.000000000000000e+001	 3.599979999983600e+000	 9.878264523293890e+000
0	 1.000000000000000e+001	 3.666649999985416e+000	 9.883514116536322e+000
0	 1.000000000000000e+001	 3.733319999987733e+000	 9.888671261033794e+000
0	 1.000000000000000e+001	 3.799989999990449e+000	 9.893737095109097e+000
0	 1.000000000000000e+001	 3.866659999993467e+000	 9.898712757085072e+000
0	 1.000000000000000e+001	 3.933329999996684e+000	 9.903599385284517e+000
0	 1.000000000000000e+001	 4.000000000000000e+000	 9.908398118030283e+000
0	 9.333302777352785e+000	 4.000000000000000e+000	 9.948594334029053e+000
0	 9.333302777352783e+000	 4.066670000003317e+000	 9.951647069086375e+000
0	 9.333302777352783e+000	 4.133340000006534e+000	 9.954617536500470e+000
0	 9.333302777352783e+000	 4.200010000009550e+000	 9.957506047131790e+000
0	 9.333302777352779e+000	 4.266680000012268e+000	 9.960312911840781e+000
0	 9.333302777352783e+000	 4.333350000014584e+000	 9.963038441487871e+000
0	 9.333302777352783e+000	 4.400020000016402e+000	 9.965682946933518e+000
0	 9.333302777352783e+000	 4.466690000017617e+000	 9.968246739038143e+000
0	 9.333302777352785e+000	 4.533360000018134e+000	 9.970730128662197e+000
0	 9.333302777352783e+000	 4.600030000017850e+000	 9.973133426666131e+000
0	 9.333302777352785e+000	 4.666700000016667e+000	 9.975456943910363e+000
0	 9.399973674588175e+000	 4.000000000000000e+000	 9.943871346061192e+000
0	 9.399973674588178e+000	 4.066670000003318e+000	 9.947065909267900e+000
0	 9.399973674588177e+000	 4.133340000006535e+000	 9.950175558232099e+000
0	 9.399973674588177e+000	 4.200010000009550e+000	 9.953200600444662e+000
0	 9.399973674588177e+000	 4.266680000012267e+000	 9.956141343396451e+000
0	 9.399973674588175e+000	 4.333350000014584e+000	 9.958998094578346e+000
0	 9.399973674588175e+000	 4.400020000016400e+000	 9.961771161481199e+000
0	 9.399973674588177e+000	 4.466690000017619e+000	 9.964460851595900e+000
0	 9.399973674588178e+000	 4.533360000018135e+000	 9.967067472413309e+000
0	 9.399973674588177e+000	 4.600030000017850e+000	 9.969591331424285e+000
0	 9.399973674588175e+000	 4.666700000016666e+000	 9.972032736119690e+000
0	 9.466644621844621e+000	 4.000000000000000e+000	 9.939273060351708e+000
0	 9.466644621844621e+000	 4.066670000003317e+000	 9.942612526280195e+000
0	 9.466644621844621e+000	 4.133340000006535e+000	 9.945864237545230e+000
0	 9.466644621844621e+000	 4.200010000009550e+000	 9.949028500992190e+000
0	 9.466644621844621e+000	 4.266680000012267e+000	 9.952105623466521e+000
0	 9.466644621844619e+000	 4.333350000014583e+000	 9.955095911813599e+000
0	 9.466644621844621e+000	 4.400020000016401e+000	 9.957999672878874e+000
0	 9.466644621844623e+000	 4.466690000017619e+000	 9.960817213507703e+000
0	 9.466644621844619e+000	 4.533360000018133e+000	 9.963548840545508e+000
0	 9.466644621844623e+000	 4.600030000017850e+000	 9.966194860837728e+000
0	 9.466644621844619e+000	 4.666700000016665e+000	 9.968755581229727e+000
0	 9.533315502450000e+000	 4.000000000000001e+000	 9.934811328880922e+000
0	 9.533315502450000e+000	 4.066670000003318e+000	 9.938299454599331e+000
0	 9.533315502450002e+000	 4.133340000006534e+000	 9.941696707455693e+000
0	 9.533315502449998e+000	 4.200010000009551e+000	 9.945003396374091e+000
0	 9.533315502449998e+000	 4.266680000012266e+000	 9.948219830278594e+000
0	 9.533315502449996e+000	 4.333350000014584e+000	 9.951346318093229e+000
0	 9.533315502450000e+000	 4.400020000016401e+000	 9.954383168742082e+000
0	 9.533315502450000e+000	 4.466690000017619e+000	 9.957330691149178e+000
0	 9.533315502450000e+000	 4.533360000018133e+000	 9.960189194238588e+000
0	 9.533315502449996e+000	 4.600030000017851e+000	 9.962958986934380e+000
0	 9.533315502450000e+000	 4.666700000016667e+000	 9.965640378160563e+000
0	 9.599986199732198e+000	 4.000000000000001e+000	 9.930498002792909e+000
0	 9.599986199732198e+000	 4.066670000003319e+000	 9.934139227838653e+000
0	 9.599986199732193e+000	 4.133340000006534e+000	 9.937686100092179e+000
0	 9.599986199732198e+000	 4.200010000009551e+000	 9.941138933280316e+000
0	 9.599986199732197e+000	 4.266680000012268e+000	 9.944498041129886e+000
0	 9.599986199732197e+000	 4.333350000014584e+000	 9.947763737367762e+000
0	 9.599986199732197e+000	 4.400020000016402e+000	 9.950936335720771e+000
0	 9.599986199732197e+000	 4.466690000017617e+000	 9.954016149915738e+000
0	 9.599986199732198e+000	 4.533360000018133e+000	 9.957003493679522e+000
0	 9.599986199732197e+000	 4.600030000017851e+000	 9.959898680738958e+000
0	 9.599986199732193e+000	 4.666700000016665e+000	 9.962702024820867e+000
0	 9.666656597019092e+000	 4.000000000000001e+000	 9.926344932395631e+000
0	 9.666656597019095e+000	 4.066670000003319e+000	 9.930144378749032e+000
0	 9.666656597019092e+000	 4.133340000006534e+000	 9.933845546696242e+000
0	 9.666656597019092e+000	 4.200010000009552e+000	 9.937448757491055e+000
0	 9.666656597019093e+000	 4.266680000012268e+000	 9.940954332387284e+000
0	 9.666656597019090e+000	 4.333350000014583e+000	 9.944362592638738e+000
0	 9.666656597019093e+000	 4.400020000016402e+000	 9.947673859499249e+000
0	 9.666656597019090e+000	 4.466690000017617e+000	 9.950888454222616e+000
0	 9.666656597019092e+000	 4.533360000018133e+000	 9.954006698062658e+000
0	 9.666656597019092e+000	 4.600030000017851e+000	 9.957028912273158e+000
0	 9.666656597019092e+000	 4.666700000016665e+000	 9.959955418107940e+000
0	 9.733326577638573e+000	 4.000000000000000e+000	 9.922363967161026e+000
0	 9.733326577638577e+000	 4.066670000003318e+000	 9.926327439218856e+000
0	 9.733326577638575e+000	 4.133340000006535e+000	 9.930188177622474e+000
0	 9.733326577638575e+000	 4.200010000009550e+000	 9.933946513876984e+000
0	 9.733326577638575e+000	 4.266680000012268e+000	 9.937602779487417e+000
0	 9.733326577638573e+000	 4.333350000014585e+000	 9.941157305958839e+000
0	 9.733326577638573e+000	 4.400020000016402e+000	 9.944610424796323e+000
0	 9.733326577638575e+000	 4.466690000017617e+000	 9.947962467504903e+000
0	 9.733326577638573e+000	 4.533360000018134e+000	 9.951213765589653e+000
0	 9.733326577638577e+000	 4.600030000017851e+000	 9.954364650555615e+000
0	 9.733326577638575e+000	 4.666700000016666e+000	 9.957415453907858e+000
0	 9.799996024918521e+000	 4.000000000000000e+000	 9.918566955725085e+000
0	 9.799996024918523e+000	 4.066670000003319e+000	 9.922700940274043e+000
0	 9.799996024918523e+000	 4.133340000006534e+000	 9.926727122338519e+000
0	 9.799996024918523e+000	 4.200010000009551e+000	 9.930645846399189e+000
0	 9.799996024918521e+000	 4.266680000012268e+000	 9.934457456936743e+000
0	 9.799996024918521e+000	 4.333350000014583e+000	 9.938162298431866e+000
0	 9.799996024918523e+000	 4.400020000016402e+000	 9.941760715365286e+000
0	 9.799996024918523e+000	 4.466690000017618e+000	 9.945253052217657e+000
0	 9.799996024918523e+000	 4.533360000018134e+000	 9.948639653469671e+000
0	 9.799996024918523e+000	 4.600030000017851e+000	 9.951920863602012e+000
0	 9.799996024918523e+000	 4.666700000016666e+000	 9.955097027095370e+000
0	 9.866664822186820e+000	 4.000000000000001e+000	 9.914965745887860e+000
0	 9.866664822186820e+000	 4.066670000003317e+000	 9.919277412078253e+000
0	 9.866664822186820e+000	 4.133340000006534e+000	 9.923475509425099e+000
0	 9.866664822186818e+000	 4.200010000009550e+000	 9.927560398109252e+000
0	 9.866664822186822e+000	 4.266680000012268e+000	 9.931532438311541e+000
0	 9.866664822186818e+000	 4.333350000014583e+000	 9.935391990212839e+000
0	 9.866664822186818e+000	 4.400020000016401e+000	 9.939139413993999e+000
0	 9.866664822186820e+000	 4.466690000017617e+000	 9.942775069835868e+000
0	 9.866664822186820e+000	 4.533360000018134e+000	 9.946299317919266e+000
0	 9.866664822186818e+000	 4.600030000017850e+000	 9.949712518425011e+000
0	 9.866664822186822e+000	 4.666700000016667e+000	 9.953015031534019e+000
0	 9.933332852771351e+000	 4.000000000000000e+000	 9.911572184613510e+000
0	 9.933332852771352e+000	 4.066670000003317e+000	 9.916069383932696e+000
0	 9.933332852771352e+000	 4.133340000006534e+000	 9.920446466576035e+000
0	 9.933332852771349e+000	 4.200010000009551e+000	 9.924703811149223e+000
0	 9.933332852771349e+000	 4.266680000012266e+000	 9.928841796257943e+000
0	 9.933332852771351e+000	 4.333350000014583e+000	 9.932860800507918e+000
0	 9.933332852771351e+000	 4.400020000016402e+000	 9.936761202504865e+000
0	 9.933332852771351e+000	 4.466690000017617e+000	 9.940543380854445e+000
0	 9.933332852771351e+000	 4.533360000018134e+000	 9.944207714162374e+000
0	 9.933332852771351e+000	 4.600030000017850e+000	 9.947754581034351e+000
0	 9.933332852771351e+000	 4.666700000016666e+000	 9.951184360076075e+000
0	 1.000000000000000e+001	 4.000000000000000e+000	 9.908398118030283e+000
0	 1.000000000000000e+001	 4.066670000003317e+000	 9.913089384276278e+000
0	 1.000000000000000e+001	 4.133340000006535e+000	 9.917653120598239e+000
0	 9.999999999999998e+000	 4.200010000009550e+000	 9.922089726751606e+000
0	 1.000000000000000e+001	 4.266680000012268e+000	 9.926399602491857e+000
0	 1.000000000000000e+001	 4.333350000014584e+000	 9.930583147574408e+000
0	 1.000000000000000e+001	 4.400020000016401e+000	 9.934640761754709e+000
0	 1.000000000000000e+001	 4.466690000017617e+000	 9.938572844788249e+000
0	 1.000000000000000e+001	 4.533360000018134e+000	 9.942379796430398e+000
0	 9.999999999999998e+000	 4.600030000017850e+000	 9.946062016436647e+000
0	 1.000000000000000e+001	 4.666700000016666e+000	 9.949619904562429e+000
0	 9.333302777352785e+000	 4.666700000016667e+000	 9.975456943910363e+000
0	 9.333302777352783e+000	 4.733360000014533e+000	 9.977698494732355e+000
0	 9.333302777352783e+000	 4.800020000011600e+000	 9.979856222280535e+000
0	 9.333302777352781e+000	 4.866680000008067e+000	 9.981929903004460e+000
0	 9.333302777352781e+000	 4.933340000004134e+000	 9.983919313353677e+000
0	 9.333302777352783e+000	 5.000000000000000e+000	 9.985824229777723e+000
0	 9.333302777352785e+000	 5.066659999995867e+000	 9.987644428726190e+000
0	 9.333302777352783e+000	 5.133319999991935e+000	 9.989379686648610e+000
0	 9.333302777352783e+000	 5.199979999988400e+000	 9.991029779994550e+000
0	 9.333302777352781e+000	 5.266639999985467e+000	 9.992594485213559e+000
0	 9.333302777352785e+000	 5.333299999983335e+000	 9.994073578755224e+000
0	 9.399973674588175e+000	 4.666700000016666e+000	 9.972032736119690e+000
0	 9.399973674588171e+000	 4.733360000014533e+000	 9.974389092548606e+000
0	 9.399973674588175e+000	 4.800020000011601e+000	 9.976658200755070e+000
0	 9.399973674588180e+000	 4.866680000008066e+000	 9.978839879150510e+000
0	 9.399973674588180e+000	 4.933340000004133e+000	 9.980933946146255e+000
0	 9.399973674588180e+000	 5.000000000000001e+000	 9.982940220153706e+000
0	 9.399973674588178e+000	 5.066659999995868e+000	 9.984858519584245e+000
0	 9.399973674588178e+000	 5.133319999991933e+000	 9.986688662849259e+000
0	 9.399973674588175e+000	 5.199979999988400e+000	 9.988430468360130e+000
0	 9.399973674588177e+000	 5.266639999985467e+000	 9.990083754528252e+000
0	 9.399973674588177e+000	 5.333299999983334e+000	 9.991648339765016e+000
0	 9.466644621844619e+000	 4.666700000016665e+000	 9.968755581229729e+000
0	 9.466644621844619e+000	 4.733360000014534e+000	 9.971227962739393e+000
0	 9.466644621844617e+000	 4.800020000011598e+000	 9.973609419747861e+000
0	 9.466644621844619e+000	 4.866680000008067e+000	 9.975899806024414e+000
0	 9.466644621844619e+000	 4.933340000004132e+000	 9.978098975338282e+000
0	 9.466644621844621e+000	 5.000000000000000e+000	 9.980206781458747e+000
0	 9.466644621844621e+000	 5.066659999995867e+000	 9.982223078155085e+000
0	 9.466644621844621e+000	 5.133319999991936e+000	 9.984147719196576e+000
0	 9.466644621844619e+000	 5.199979999988400e+000	 9.985980558352464e+000
0	 9.466644621844619e+000	 5.266639999985467e+000	 9.987721449392041e+000
0	 9.466644621844617e+000	 5.333299999983333e+000	 9.989370246084581e+000
0	 9.533315502450000e+000	 4.666700000016667e+000	 9.965640378160563e+000
0	 9.533315502449998e+000	 4.733360000014534e+000	 9.968229883853242e+000
0	 9.533315502450000e+000	 4.800020000011601e+000	 9.970724526829843e+000
0	 9.533315502450000e+000	 4.866680000008066e+000	 9.973124189613740e+000
0	 9.533315502449998e+000	 4.933340000004134e+000	 9.975428754728357e+000
0	 9.533315502449998e+000	 5.000000000000000e+000	 9.977638104697068e+000
0	 9.533315502449996e+000	 5.066659999995867e+000	 9.979752122043283e+000
0	 9.533315502450003e+000	 5.133319999991934e+000	 9.981770689290382e+000
0	 9.533315502450000e+000	 5.199979999988401e+000	 9.983693688961782e+000
0	 9.533315502450002e+000	 5.266639999985467e+000	 9.985521003580882e+000
0	 9.533315502450000e+000	 5.333299999983334e+000	 9.987252515671090e+000
0	 9.599986199732193e+000	 4.666700000016665e+000	 9.962702024820869e+000
0	 9.599986199732197e+000	 4.733360000014533e+000	 9.965409633421112e+000
0	 9.599986199732197e+000	 4.800020000011600e+000	 9.968018168550382e+000
0	 9.599986199732197e+000	 4.866680000008067e+000	 9.970527534882551e+000
0	 9.599986199732195e+000	 4.933340000004134e+000	 9.972937637091492e+000
0	 9.599986199732195e+000	 5.000000000000000e+000	 9.975248379851101e+000
0	 9.599986199732193e+000	 5.066659999995867e+000	 9.977459667835248e+000
0	 9.599986199732195e+000	 5.133319999991934e+000	 9.979571405717813e+000
0	 9.599986199732195e+000	 5.199979999988400e+000	 9.981583498172682e+000
0	 9.599986199732197e+000	 5.266639999985468e+000	 9.983495849873735e+000
0	 9.599986199732197e+000	 5.333299999983335e+000	 9.985308365494889e+000
0	 9.666656597019092e+000	 4.666700000016665e+000	 9.959955418107942e+000
0	 9.666656597019093e+000	 4.733360000014534e+000	 9.962781987956506e+000
0	 9.666656597019092e+000	 4.800020000011599e+000	 9.965504990437376e+000
0	 9.666656597019092e+000	 4.866680000008065e+000	 9.968124345771333e+000
0	 9.666656597019093e+000	 4.933340000004134e+000	 9.970639974179134e+000
0	 9.666656597019095e+000	 5.000000000000001e+000	 9.973051795881537e+000
0	 9.666656597019095e+000	 5.066659999995866e+000	 9.975359731099305e+000
0	 9.666656597019093e+000	 5.133319999991934e+000	 9.977563700053237e+000
0	 9.666656597019092e+000	 5.199979999988400e+000	 9.979663622964068e+000
0	 9.666656597019093e+000	 5.266639999985467e+000	 9.981659420052612e+000
0	 9.666656597019092e+000	 5.333299999983335e+000	 9.983551011539595e+000
0	 9.733326577638575e+000	 4.666700000016666e+000	 9.957415453907862e+000
0	 9.733326577638575e+000	 4.733360000014533e+000	 9.960361722955511e+000
0	 9.733326577638573e+000	 4.800020000011599e+000	 9.963199636997253e+000
0	 9.733326577638573e+000	 4.866680000008066e+000	 9.965929125197146e+000
0	 9.733326577638575e+000	 4.933340000004135e+000	 9.968550116719184e+000
0	 9.733326577638573e+000	 5.000000000000000e+000	 9.971062540727392e+000
0	 9.733326577638575e+000	 5.066659999995866e+000	 9.973466326385788e+000
0	 9.733326577638572e+000	 5.133319999991933e+000	 9.975761402858433e+000
0	 9.733326577638575e+000	 5.199979999988400e+000	 9.977947699309345e+000
0	 9.733326577638575e+000	 5.266639999985469e+000	 9.980025144902545e+000
0	 9.733326577638575e+000	 5.333299999983334e+000	 9.981993668802103e+000
0	 9.799996024918523e+000	 4.666700000016666e+000	 9.955097027095373e+000
0	 9.799996024918519e+000	 4.733360000014532e+000	 9.958163612896854e+000
0	 9.799996024918521e+000	 4.800020000011600e+000	 9.961116751715080e+000
0	 9.799996024918523e+000	 4.866680000008067e+000	 9.963956375053639e+000
0	 9.799996024918521e+000	 4.933340000004134e+000	 9.966682414416097e+000
0	 9.799996024918521e+000	 5.000000000000000e+000	 9.969294801306027e+000
0	 9.799996024918523e+000	 5.066659999995867e+000	 9.971793467226981e+000
0	 9.799996024918523e+000	 5.133319999991935e+000	 9.974178343682535e+000
0	 9.799996024918523e+000	 5.199979999988400e+000	 9.976449362176259e+000
0	 9.799996024918523e+000	 5.266639999985467e+000	 9.978606454211763e+000
0	 9.799996024918523e+000	 5.333299999983334e+000	 9.980649551292586e+000
0	 9.866664822186822e+000	 4.666700000016667e+000	 9.953015031534019e+000
0	 9.866664822186822e+000	 4.733360000014533e+000	 9.956202431241836e+000
0	 9.866664822186822e+000	 4.800020000011601e+000	 9.959270977054443e+000
0	 9.866664822186820e+000	 4.866680000008067e+000	 9.962220596211010e+000
0	 9.866664822186818e+000	 4.933340000004133e+000	 9.965051215950862e+000
0	 9.866664822186820e+000	 4.999999999999999e+000	 9.967762763513131e+000
0	 9.866664822186820e+000	 5.066659999995866e+000	 9.970355166137091e+000
0	 9.866664822186820e+000	 5.133319999991935e+000	 9.972828351061976e+000
0	 9.866664822186822e+000	 5.199979999988400e+000	 9.975182245527016e+000
0	 9.866664822186822e+000	 5.266639999985468e+000	 9.977416776771454e+000
0	 9.866664822186820e+000	 5.333299999983334e+000	 9.979531872034558e+000
0	 9.933332852771351e+000	 4.666700000016666e+000	 9.951184360076075e+000
0	 9.933332852771351e+000	 4.733360000014533e+000	 9.954492950434400e+000
0	 9.933332852771349e+000	 4.800020000011599e+000	 9.957676954457448e+000
0	 9.933332852771352e+000	 4.866680000008067e+000	 9.960736288516028e+000
0	 9.933332852771351e+000	 4.933340000004133e+000	 9.963670868980834e+000
0	 9.933332852771351e+000	 5.000000000000000e+000	 9.966480612222679e+000
0	 9.933332852771351e+000	 5.066659999995868e+000	 9.969165434612336e+000
0	 9.933332852771352e+000	 5.133319999991934e+000	 9.971725252520585e+000
0	 9.933332852771351e+000	 5.199979999988401e+000	 9.974159982318200e+000
0	 9.933332852771351e+000	 5.266639999985467e+000	 9.976469540375993e+000
0	 9.933332852771351e+000	 5.333299999983335e+000	 9.978653843064725e+000
0	 1.000000000000000e+001	 4.666700000016666e+000	 9.949619904562431e+000
0	 1.000000000000000e+001	 4.733360000014534e+000	 9.953049941901035e+000
0	 1.000000000000000e+001	 4.800020000011600e+000	 9.956349324344886e+000
0	 1.000000000000000e+001	 4.866680000008066e+000	 9.959517950791879e+000
0	 1.000000000000000e+001	 4.933340000004134e+000	 9.962555720139902e+000
0	 1.000000000000000e+001	 5.000000000000000e+000	 9.965462531286914e+000
0	 1.000000000000000e+001	 5.066659999995866e+000	 9.968238283130759e+000
0	 9.999999999999998e+000	 5.133319999991934e+000	 9.970882874569385e+000
0	 1.000000000000000e+001	 5.199979999988400e+000	 9.973396204500681e+000
0	 1.000000000000000e+001	 5.266639999985467e+000	 9.975778171822594e+000
0	 1.000000000000000e+001	 5.333299999983334e+000	 9.978028675433013e+000
0	 9.333302777352785e+000	 5.333299999983335e+000	 9.994073578755222e+000
0	 9.333302777352783e+000	 5.399969999982150e+000	 9.995473118021543e+000
0	 9.333302777352785e+000	 5.466639999981866e+000	 9.996798561491447e+000
0	 9.333302777352781e+000	 5.533309999982382e+000	 9.998049433590460e+000
0	 9.333302777352783e+000	 5.599979999983600e+000	 9.999225258744128e+000
0	 9.333302777352781e+000	 5.666649999985415e+000	 1.000032556137797e+001
0	 9.333302777352783e+000	 5.733319999987732e+000	 1.000134986591751e+001
0	 9.333302777352783e+000	 5.799989999990450e+000	 1.000229769678829e+001
0	 9.333302777352781e+000	 5.866659999993467e+000	 1.000316857841581e+001
0	 9.333302777352783e+000	 5.933329999996682e+000	 1.000396203522563e+001
0	 9.333302777352785e+000	 6.000000000000001e+000	 1.000467759164324e+001
0	 9.399973674588177e+000	 5.333299999983334e+000	 9.991648339765012e+000
0	 9.399973674588177e+000	 5.399969999982148e+000	 9.993130385970918e+000
0	 9.399973674588177e+000	 5.466639999981865e+000	 9.994535410687570e+000
0	 9.399973674588175e+000	 5.533309999982382e+000	 9.995862949934805e+000
0	 9.399973674588175e+000	 5.599979999983599e+000	 9.997112539732491e+000
0	 9.399973674588175e+000	 5.666649999985416e+000	 9.998283716100463e+000
0	 9.399973674588175e+000	 5.733319999987733e+000	 9.999376015058578e+000
0	 9.399973674588177e+000	 5.799989999990449e+000	 1.000038897262668e+001
0	 9.399973674588175e+000	 5.866659999993465e+000	 1.000132212482460e+001
0	 9.399973674588177e+000	 5.933329999996684e+000	 1.000217500767221e+001
0	 9.399973674588177e+000	 6.000000000000002e+000	 1.000294715718932e+001
0	 9.466644621844617e+000	 5.333299999983333e+000	 9.989370246084580e+000
0	 9.466644621844621e+000	 5.399969999982151e+000	 9.990933279756384e+000
0	 9.466644621844619e+000	 5.466639999981867e+000	 9.992416193543024e+000
0	 9.466644621844621e+000	 5.533309999982384e+000	 9.993818530215203e+000
0	 9.466644621844619e+000	 5.599979999983598e+000	 9.995139832543559e+000
0	 9.466644621844623e+000	 5.666649999985418e+000	 9.996379643298772e+000
0	 9.466644621844619e+000	 5.733319999987733e+000	 9.997537505251527e+000
0	 9.466644621844621e+000	 5.799989999990449e+000	 9.998612961172482e+000
0	 9.466644621844619e+000	 5.866659999993467e+000	 9.999605553832286e+000
0	 9.466644621844617e+000	 5.933329999996683e+000	 1.000051482600164e+001
0	 9.466644621844619e+000	 5.999999999999998e+000	 1.000134032045119e+001
0	 9.533315502450000e+000	 5.333299999983334e+000	 9.987252515671088e+000
0	 9.533315502449996e+000	 5.399969999982149e+000	 9.988894787832901e+000
0	 9.533315502449998e+000	 5.466639999981865e+000	 9.990453652314598e+000
0	 9.533315502450003e+000	 5.533309999982383e+000	 9.991928653794190e+000
0	 9.533315502450000e+000	 5.599979999983599e+000	 9.993319336949712e+000
0	 9.533315502449998e+000	 5.666649999985416e+000	 9.994625246459208e+000
0	 9.533315502449998e+000	 5.733319999987733e+000	 9.995845927000687e+000
0	 9.533315502450002e+000	 5.799989999990449e+000	 9.996980923252201e+000
0	 9.533315502450002e+000	 5.866659999993469e+000	 9.998029779891763e+000
0	 9.533315502449998e+000	 5.933329999996682e+000	 9.998992041597401e+000
0	 9.533315502450000e+000	 6.000000000000000e+000	 9.999867253047155e+000
0	 9.599986199732197e+000	 5.333299999983335e+000	 9.985308365494889e+000
0	 9.599986199732195e+000	 5.399969999982151e+000	 9.987027897680337e+000
0	 9.599986199732197e+000	 5.466639999981865e+000	 9.988660528296961e+000
0	 9.599986199732197e+000	 5.533309999982383e+000	 9.990205799086734e+000
0	 9.599986199732193e+000	 5.599979999983598e+000	 9.991663251791545e+000
0	 9.599986199732195e+000	 5.666649999985415e+000	 9.993032428153301e+000
0	 9.599986199732195e+000	 5.733319999987731e+000	 9.994312869913925e+000
0	 9.599986199732198e+000	 5.799989999990449e+000	 9.995504118815322e+000
0	 9.599986199732195e+000	 5.866659999993466e+000	 9.996605716599367e+000
0	 9.599986199732195e+000	 5.933329999996682e+000	 9.997617205008007e+000
0	 9.599986199732197e+000	 5.999999999999998e+000	 9.998538125783151e+000
0	 9.666656597019092e+000	 5.333299999983335e+000	 9.983551011539593e+000
0	 9.666656597019093e+000	 5.399969999982152e+000	 9.985345595803407e+000
0	 9.666656597019095e+000	 5.466639999981866e+000	 9.987049561822909e+000
0	 9.666656597019093e+000	 5.533309999982384e+000	 9.988662443560342e+000
0	 9.666656597019095e+000	 5.599979999983598e+000	 9.990183774977966e+000
0	 9.666656597019090e+000	 5.666649999985415e+000	 9.991613090037998e+000
0	 9.666656597019093e+000	 5.733319999987732e+000	 9.992949922702694e+000
0	 9.666656597019092e+000	 5.799989999990450e+000	 9.994193806934289e+000
0	 9.666656597019095e+000	 5.866659999993467e+000	 9.995344276695031e+000
0	 9.666656597019093e+000	 5.933329999996684e+000	 9.996400865947143e+000
0	 9.666656597019092e+000	 6.000000000000001e+000	 9.997363108652889e+000
0	 9.733326577638575e+000	 5.333299999983334e+000	 9.981993668802101e+000
0	 9.733326577638577e+000	 5.399969999982150e+000	 9.983860867731899e+000
0	 9.733326577638575e+000	 5.466639999981868e+000	 9.985633492263242e+000
0	 9.733326577638575e+000	 5.533309999982384e+000	 9.987311063735014e+000
0	 9.733326577638572e+000	 5.599979999983598e+000	 9.988893103486134e+000
0	 9.733326577638573e+000	 5.666649999985416e+000	 9.990379132855503e+000
0	 9.733326577638575e+000	 5.733319999987732e+000	 9.991768673182037e+000
0	 9.733326577638572e+000	 5.799989999990449e+000	 9.993061245804634e+000
0	 9.733326577638573e+000	 5.866659999993466e+000	 9.994256372062194e+000
0	 9.733326577638573e+000	 5.933329999996683e+000	 9.995353573293640e+000
0	 9.733326577638575e+000	 6.000000000000001e+000	 9.996352370837862e+000
0	 9.799996024918523e+000	 5.333299999983334e+000	 9.980649551292585e+000
0	 9.799996024918523e+000	 5.399969999982150e+000	 9.982586698020530e+000
0	 9.799996024918519e+000	 5.466639999981864e+000	 9.984425058026847e+000
0	 9.799996024918521e+000	 5.533309999982383e+000	 9.986164135183294e+000
0	 9.799996024918523e+000	 5.599979999983600e+000	 9.987803433361576e+000
0	 9.799996024918521e+000	 5.666649999985416e+000	 9.989342456433461e+000
0	 9.799996024918521e+000	 5.733319999987734e+000	 9.990780708270641e+000
0	 9.799996024918523e+000	 5.799989999990450e+000	 9.992117692744897e+000
0	 9.799996024918523e+000	 5.866659999993468e+000	 9.993352913727939e+000
0	 9.799996024918521e+000	 5.933329999996682e+000	 9.994485875091501e+000
0	 9.799996024918521e+000	 6.000000000000000e+000	 9.995516080707319e+000
0	 9.866664822186820e+000	 5.333299999983334e+000	 9.979531872034558e+000
0	 9.866664822186820e+000	 5.399969999982150e+000	 9.981536070248986e+000
0	 9.866664822186822e+000	 5.466639999981866e+000	 9.983436996560716e+000
0	 9.866664822186820e+000	 5.533309999982383e+000	 9.985234132530220e+000
0	 9.866664822186820e+000	 5.599979999983600e+000	 9.986926959718080e+000
0	 9.866664822186822e+000	 5.666649999985417e+000	 9.988514959684764e+000
0	 9.866664822186820e+000	 5.733319999987732e+000	 9.989997613990797e+000
0	 9.866664822186820e+000	 5.799989999990449e+000	 9.991374404196629e+000
0	 9.866664822186820e+000	 5.866659999993466e+000	 9.992644811862839e+000
0	 9.866664822186822e+000	 5.933329999996684e+000	 9.993808318549858e+000
0	 9.866664822186820e+000	 5.999999999999998e+000	 9.994864405818232e+000
0	 9.933332852771351e+000	 5.333299999983335e+000	 9.978653843064725e+000
0	 9.933332852771351e+000	 5.399969999982150e+000	 9.980721967021838e+000
0	 9.933332852771351e+000	 5.466639999981866e+000	 9.982682044349746e+000
0	 9.933332852771351e+000	 5.533309999982383e+000	 9.984533529453401e+000
0	 9.933332852771351e+000	 5.599979999983599e+000	 9.986275876737761e+000
0	 9.933332852771352e+000	 5.666649999985417e+000	 9.987908540607720e+000
0	 9.933332852771351e+000	 5.733319999987733e+000	 9.989430975468292e+000
0	 9.933332852771352e+000	 5.799989999990449e+000	 9.990842635724398e+000
0	 9.933332852771351e+000	 5.866659999993467e+000	 9.992142975780993e+000
0	 9.933332852771352e+000	 5.933329999996684e+000	 9.993331450042957e+000
0	 9.933332852771349e+000	 5.999999999999998e+000	 9.994407512915348e+000
0	 1.000000000000000e+001	 5.333299999983334e+000	 9.978028675433009e+000
0	 1.000000000000000e+001	 5.399969999982149e+000	 9.980157369968632e+000
0	 1.000000000000000e+001	 5.466639999981866e+000	 9.982172936916914e+000
0	 9.999999999999998e+000	 5.533309999982383e+000	 9.984074798682730e+000
0	 1.000000000000000e+001	 5.599979999983600e+000	 9.985862377670784e+000
0	 1.000000000000000e+001	 5.666649999985417e+000	 9.987535096285784e+000
0	 1.000000000000000e+001	 5.733319999987733e+000	 9.989092376932492e+000
0	 1.000000000000000e+001	 5.799989999990450e+000	 9.990533642015610e+000
0	 1.000000000000000e+001	 5.866659999993467e+000	 9.991858313939904e+000
0	 1.000000000000000e+001	 5.933329999996683e+000	 9.993065815110137e+000
0	 1.000000000000000e+001	 6.000000000000000e+000	 9.994155567930974e+000
0	 9.333302777352785e+000	 6.000000000000001e+000	 1.000467759164324e+001
0	 9.333302777352781e+000	 6.066670000003315e+000	 1.000532692384456e+001
0	 9.333302777352783e+000	 6.133340000006534e+000	 1.000592157993625e+001
0	 9.333302777352783e+000	 6.200010000009552e+000	 1.000646089223991e+001
0	 9.333302777352781e+000	 6.266680000012266e+000	 1.000694419307716e+001
0	 9.333302777352783e+000	 6.333350000014586e+000	 1.000737081476964e+001
0	 9.333302777352783e+000	 6.400020000016400e+000	 1.000774008963893e+001
0	 9.333302777352783e+000	 6.466690000017617e+000	 1.000805135000670e+001
0	 9.333302777352785e+000	 6.533360000018136e+000	 1.000830392819453e+001
0	 9.333302777352783e+000	 6.600030000017850e+000	 1.000849715652406e+001
0	 9.333302777352783e+000	 6.666700000016666e+000	 1.000863036731689e+001
0	 9.399973674588177e+000	 6.000000000000002e+000	 1.000294715718932e+001
0	 9.399973674588178e+000	 6.066670000003318e+000	 1.000365059405377e+001
0	 9.399973674588177e+000	 6.133340000006533e+000	 1.000429721115781e+001
0	 9.399973674588177e+000	 6.200010000009551e+000	 1.000488635284297e+001
0	 9.399973674588175e+000	 6.266680000012268e+000	 1.000541736345075e+001
0	 9.399973674588173e+000	 6.333350000014582e+000	 1.000588958732268e+001
0	 9.399973674588175e+000	 6.400020000016401e+000	 1.000630236880027e+001
0	 9.399973674588178e+000	 6.466690000017617e+000	 1.000665505222505e+001
0	 9.399973674588177e+000	 6.533360000018133e+000	 1.000694698193849e+001
0	 9.399973674588177e+000	 6.600030000017849e+000	 1.000717750228214e+001
0	 9.399973674588177e+000	 6.666700000016666e+000	 1.000734595759751e+001
0	 9.466644621844619e+000	 5.999999999999998e+000	 1.000134032045119e+001
0	 9.466644621844619e+000	 6.066670000003318e+000	 1.000209448062084e+001
0	 9.466644621844621e+000	 6.133340000006534e+000	 1.000278962161461e+001
0	 9.466644621844621e+000	 6.200010000009551e+000	 1.000342509369921e+001
0	 9.466644621844619e+000	 6.266680000012267e+000	 1.000400024714147e+001
0	 9.466644621844621e+000	 6.333350000014584e+000	 1.000451443220815e+001
0	 9.466644621844619e+000	 6.400020000016399e+000	 1.000496699916603e+001
0	 9.466644621844623e+000	 6.466690000017619e+000	 1.000535729828190e+001
0	 9.466644621844619e+000	 6.533360000018135e+000	 1.000568467982250e+001
0	 9.466644621844621e+000	 6.600030000017852e+000	 1.000594849405463e+001
0	 9.466644621844617e+000	 6.666700000016665e+000	 1.000614809124506e+001
0	 9.533315502450000e+000	 6.000000000000000e+000	 9.999867253047155e+000
0	 9.533315502449998e+000	 6.066670000003316e+000	 1.000066835936265e+001
0	 9.533315502450003e+000	 6.133340000006533e+000	 1.000140817594516e+001
0	 9.533315502449998e+000	 6.200010000009551e+000	 1.000208605289210e+001
0	 9.533315502450000e+000	 6.266680000012266e+000	 1.000270134030093e+001
0	 9.533315502449996e+000	 6.333350000014583e+000	 1.000325338826906e+001
0	 9.533315502450000e+000	 6.400020000016399e+000	 1.000374154689395e+001
0	 9.533315502450002e+000	 6.466690000017616e+000	 1.000416516627300e+001
0	 9.533315502450000e+000	 6.533360000018135e+000	 1.000452359650369e+001
0	 9.533315502449998e+000	 6.600030000017851e+000	 1.000481618768342e+001
0	 9.533315502449998e+000	 6.666700000016666e+000	 1.000504228990961e+001
0	 9.599986199732197e+000	 5.999999999999998e+000	 9.998538125783151e+000
0	 9.599986199732195e+000	 6.066670000003315e+000	 9.999382005307220e+000
0	 9.599986199732193e+000	 6.133340000006532e+000	 1.000016223802371e+001
0	 9.599986199732197e+000	 6.200010000009550e+000	 1.000087816776608e+001
0	 9.599986199732195e+000	 6.266680000012268e+000	 1.000152913836779e+001
0	 9.599986199732195e+000	 6.333350000014583e+000	 1.000211449366226e+001
0	 9.599986199732195e+000	 6.400020000016402e+000	 1.000263357748298e+001
0	 9.599986199732195e+000	 6.466690000017614e+000	 1.000308573366338e+001
0	 9.599986199732197e+000	 6.533360000018133e+000	 1.000347030603691e+001
0	 9.599986199732195e+000	 6.600030000017851e+000	 1.000378663843700e+001
0	 9.599986199732197e+000	 6.666700000016666e+000	 1.000403407469716e+001
0	 9.666656597019092e+000	 6.000000000000001e+000	 9.997363108652889e+000
0	 9.666656597019092e+000	 6.066670000003316e+000	 9.998245192693927e+000
0	 9.666656597019093e+000	 6.133340000006532e+000	 9.999061170960276e+000
0	 9.666656597019092e+000	 6.200010000009553e+000	 9.999810374926685e+000
0	 9.666656597019093e+000	 6.266680000012268e+000	 1.000049213606783e+001
0	 9.666656597019092e+000	 6.333350000014583e+000	 1.000110578585848e+001
0	 9.666656597019092e+000	 6.400020000016398e+000	 1.000165065577335e+001
0	 9.666656597019093e+000	 6.466690000017618e+000	 1.000212607728721e+001
0	 9.666656597019095e+000	 6.533360000018133e+000	 1.000253138187473e+001
0	 9.666656597019092e+000	 6.600030000017852e+000	 1.000286590101067e+001
0	 9.666656597019092e+000	 6.666700000016666e+000	 1.000312896616975e+001
0	 9.733326577638575e+000	 6.000000000000001e+000	 9.996352370837862e+000
0	 9.733326577638573e+000	 6.066670000003315e+000	 9.997267694973491e+000
0	 9.733326577638573e+000	 6.133340000006532e+000	 9.998114337100652e+000
0	 9.733326577638573e+000	 6.200010000009551e+000	 9.998891610240444e+000
0	 9.733326577638575e+000	 6.266680000012268e+000	 9.999598827413962e+000
0	 9.733326577638573e+000	 6.333350000014583e+000	 1.000023530164235e+001
0	 9.733326577638575e+000	 6.400020000016400e+000	 1.000080034594665e+001
0	 9.733326577638572e+000	 6.466690000017618e+000	 1.000129327334802e+001
0	 9.733326577638573e+000	 6.533360000018132e+000	 1.000171339686753e+001
0	 9.733326577638573e+000	 6.600030000017850e+000	 1.000206002952630e+001
0	 9.733326577638573e+000	 6.666700000016666e+000	 1.000233248434545e+001
0	 9.799996024918521e+000	 6.000000000000000e+000	 9.995516080707319e+000
0	 9.799996024918521e+000	 6.066670000003315e+000	 9.996459284807960e+000
0	 9.799996024918523e+000	 6.133340000006534e+000	 9.997331098026434e+000
0	 9.799996024918523e+000	 6.200010000009552e+000	 9.998130808835075e+000
0	 9.799996024918523e+000	 6.266680000012268e+000	 9.998857705706286e+000
0	 9.799996024918523e+000	 6.333350000014585e+000	 9.999511077112341e+000
0	 9.799996024918524e+000	 6.400020000016402e+000	 1.000009021152566e+001
0	 9.799996024918524e+000	 6.466690000017619e+000	 1.000059439741857e+001
0	 9.799996024918521e+000	 6.533360000018133e+000	 1.000102292326340e+001
0	 9.799996024918523e+000	 6.600030000017851e+000	 1.000137507753253e+001
0	 9.799996024918523e+000	 6.666700000016667e+000	 1.000165014869830e+001
0	 9.866664822186820e+000	 5.999999999999998e+000	 9.994864405818232e+000
0	 9.866664822186820e+000	 6.066670000003317e+000	 9.995829734070670e+000
0	 9.866664822186820e+000	 6.133340000006533e+000	 9.996720814554969e+000
0	 9.866664822186820e+000	 6.200010000009551e+000	 9.997536905099304e+000
0	 9.866664822186818e+000	 6.266680000012266e+000	 9.998277263531929e+000
0	 9.866664822186822e+000	 6.333350000014584e+000	 9.998941147680910e+000
0	 9.866664822186820e+000	 6.400020000016402e+000	 9.999527815374549e+000
0	 9.866664822186820e+000	 6.466690000017616e+000	 1.000003652444088e+001
0	 9.866664822186822e+000	 6.533360000018135e+000	 1.000046653270820e+001
0	 9.866664822186818e+000	 6.600030000017849e+000	 1.000081709800465e+001
0	 9.866664822186820e+000	 6.666700000016667e+000	 1.000108747815841e+001
0	 9.933332852771349e+000	 5.999999999999998e+000	 9.994407512915348e+000
0	 9.933332852771352e+000	 6.066670000003317e+000	 9.995388813846232e+000
0	 9.933332852771352e+000	 6.133340000006535e+000	 9.996292846739323e+000
0	 9.933332852771351e+000	 6.200010000009550e+000	 9.997118832682927e+000
0	 9.933332852771351e+000	 6.266680000012268e+000	 9.997865992765160e+000
0	 9.933332852771351e+000	 6.333350000014584e+000	 9.998533548074317e+000
0	 9.933332852771352e+000	 6.400020000016401e+000	 9.999120719698631e+000
0	 9.933332852771352e+000	 6.466690000017617e+000	 9.999626728726307e+000
0	 9.933332852771351e+000	 6.533360000018134e+000	 1.000005079624559e+001
0	 9.933332852771352e+000	 6.600030000017851e+000	 1.000039214334467e+001
0	 9.933332852771351e+000	 6.666700000016665e+000	 1.000064999111180e+001
0	 1.000000000000000e+001	 6.000000000000000e+000	 9.994155567930974e+000
0	 1.000000000000000e+001	 6.066670000003317e+000	 9.995146294430510e+000
0	 1.000000000000000e+001	 6.133340000006534e+000	 9.996056553868330e+000
0	 1.000000000000000e+001	 6.200010000009551e+000	 9.996885524496610e+000
0	 1.000000000000000e+001	 6.266680000012268e+000	 9.997632384567325e+000
0	 1.000000000000000e+001	 6.333350000014584e+000	 9.998296312332593e+000
0	 1.000000000000000e+001	 6.400020000016401e+000	 9.998876486044557e+000
0	 1.000000000000000e+001	 6.466690000017618e+000	 9.999372083955237e+000
0	 1.000000000000000e+001	 6.533360000018134e+000	 9.999782284316774e+000
0	 1.000000000000000e+001	 6.600030000017850e+000	 1.000010626538118e+001
0	 1.000000000000000e+001	 6.666700000016666e+000	 1.000034320540055e+001
0	 9.333302777352783e+000	 6.666700000016666e+000	 1.000863036731689e+001
0	 9.333302777352783e+000	 6.733360000014532e+000	 1.000871814480661e+001
0	 9.333302777352783e+000	 6.800020000011600e+000	 1.000877505435478e+001
0	 9.333302777352783e+000	 6.866680000008068e+000	 1.000880035363653e+001
0	 9.333302777352781e+000	 6.933340000004135e+000	 1.000879330032696e+001
0	 9.333302777352781e+000	 6.999999999999999e+000	 1.000875315210123e+001
0	 9.333302777352783e+000	 7.066659999995867e+000	 1.000867916663446e+001
0	 9.333302777352783e+000	 7.133319999991934e+000	 1.000857060160176e+001
0	 9.333302777352783e+000	 7.199979999988400e+000	 1.000842671467826e+001
0	 9.333302777352783e+000	 7.266639999985467e+000	 1.000824676353912e+001
0	 9.333302777352785e+000	 7.333299999983335e+000	 1.000803000585943e+001
0	 9.399973674588177e+000	 6.666700000016666e+000	 1.000734595759751e+001
0	 9.399973674588177e+000	 6.733360000014532e+000	 1.000746740731848e+001
0	 9.399973674588175e+000	 6.800020000011598e+000	 1.000755690278662e+001
0	 9.399973674588178e+000	 6.866680000008066e+000	 1.000761371446615e+001
0	 9.399973674588177e+000	 6.933340000004134e+000	 1.000763711282124e+001
0	 9.399973674588178e+000	 6.999999999999999e+000	 1.000762636831613e+001
0	 9.399973674588177e+000	 7.066659999995868e+000	 1.000758075141502e+001
0	 9.399973674588178e+000	 7.133319999991935e+000	 1.000749953258211e+001
0	 9.399973674588175e+000	 7.199979999988399e+000	 1.000738198228161e+001
0	 9.399973674588177e+000	 7.266639999985468e+000	 1.000722737097773e+001
0	 9.399973674588177e+000	 7.333299999983336e+000	 1.000703496913467e+001
0	 9.466644621844617e+000	 6.666700000016665e+000	 1.000614809124506e+001
0	 9.466644621844619e+000	 6.733360000014531e+000	 1.000629907609999e+001
0	 9.466644621844617e+000	 6.800020000011599e+000	 1.000641705429946e+001
0	 9.466644621844619e+000	 6.866680000008065e+000	 1.000650130230233e+001
0	 9.466644621844621e+000	 6.933340000004134e+000	 1.000655109656741e+001
0	 9.466644621844623e+000	 7.000000000000001e+000	 1.000656571355360e+001
0	 9.466644621844619e+000	 7.066659999995867e+000	 1.000654442971971e+001
0	 9.466644621844619e+000	 7.133319999991933e+000	 1.000648652152461e+001
0	 9.466644621844617e+000	 7.199979999988400e+000	 1.000639126542717e+001
0	 9.466644621844619e+000	 7.266639999985466e+000	 1.000625793788620e+001
0	 9.466644621844619e+000	 7.333299999983332e+000	 1.000608581536060e+001
0	 9.533315502449998e+000	 6.666700000016666e+000	 1.000504228990961e+001
0	 9.533315502450000e+000	 6.733360000014534e+000	 1.000521813275464e+001
0	 9.533315502449998e+000	 6.800020000011600e+000	 1.000535995395475e+001
0	 9.533315502449998e+000	 6.866680000008068e+000	 1.000546702916905e+001
0	 9.533315502450000e+000	 6.933340000004133e+000	 1.000553863405662e+001
0	 9.533315502450000e+000	 7.000000000000000e+000	 1.000557404427651e+001
0	 9.533315502449995e+000	 7.066659999995866e+000	 1.000557253548789e+001
0	 9.533315502450002e+000	 7.133319999991934e+000	 1.000553338334978e+001
0	 9.533315502450000e+000	 7.199979999988401e+000	 1.000545586352127e+001
0	 9.533315502449998e+000	 7.266639999985468e+000	 1.000533925166152e+001
0	 9.533315502450000e+000	 7.333299999983334e+000	 1.000518282342955e+001
0	 9.599986199732197e+000	 6.666700000016666e+000	 1.000403407469716e+001
0	 9.599986199732198e+000	 6.733360000014532e+000	 1.000422955837148e+001
0	 9.599986199732197e+000	 6.800020000011600e+000	 1.000439004632943e+001
0	 9.599986199732197e+000	 6.866680000008067e+000	 1.000451480663589e+001
0	 9.599986199732195e+000	 6.933340000004133e+000	 1.000460310735570e+001
0	 9.599986199732197e+000	 7.000000000000000e+000	 1.000465421655377e+001
0	 9.599986199732198e+000	 7.066659999995867e+000	 1.000466740229499e+001
0	 9.599986199732197e+000	 7.133319999991935e+000	 1.000464193264421e+001
0	 9.599986199732198e+000	 7.199979999988402e+000	 1.000457707566635e+001
0	 9.599986199732195e+000	 7.266639999985467e+000	 1.000447209942625e+001
0	 9.599986199732195e+000	 7.333299999983333e+000	 1.000432627198884e+001
0	 9.666656597019092e+000	 6.666700000016666e+000	 1.000312896616976e+001
0	 9.666656597019092e+000	 6.733360000014531e+000	 1.000333833352527e+001
0	 9.666656597019090e+000	 6.800020000011601e+000	 1.000351177551595e+001
0	 9.666656597019090e+000	 6.866680000008066e+000	 1.000364854581792e+001
0	 9.666656597019095e+000	 6.933340000004134e+000	 1.000374789810729e+001
0	 9.666656597019093e+000	 6.999999999999998e+000	 1.000380908606014e+001
0	 9.666656597019093e+000	 7.066659999995867e+000	 1.000383136335259e+001
0	 9.666656597019095e+000	 7.133319999991933e+000	 1.000381398366075e+001
0	 9.666656597019092e+000	 7.199979999988401e+000	 1.000375620066074e+001
0	 9.666656597019093e+000	 7.266639999985467e+000	 1.000365726802868e+001
0	 9.666656597019093e+000	 7.333299999983336e+000	 1.000351643944066e+001
0	 9.733326577638573e+000	 6.666700000016666e+000	 1.000233248434545e+001
0	 9.733326577638575e+000	 6.733360000014534e+000	 1.000254943827637e+001
0	 9.733326577638575e+000	 6.800020000011601e+000	 1.000272958512231e+001
0	 9.733326577638570e+000	 6.866680000008064e+000	 1.000287215737590e+001
0	 9.733326577638573e+000	 6.933340000004133e+000	 1.000297638752972e+001
0	 9.733326577638573e+000	 6.999999999999998e+000	 1.000304150807633e+001
0	 9.733326577638573e+000	 7.066659999995866e+000	 1.000306675150835e+001
0	 9.733326577638573e+000	 7.133319999991934e+000	 1.000305135031836e+001
0	 9.733326577638573e+000	 7.199979999988399e+000	 1.000299453699893e+001
0	 9.733326577638577e+000	 7.266639999985469e+000	 1.000289554404268e+001
0	 9.733326577638575e+000	 7.333299999983334e+000	 1.000275360394222e+001
0	 9.799996024918523e+000	 6.666700000016667e+000	 1.000165014869830e+001
0	 9.799996024918523e+000	 6.733360000014534e+000	 1.000186785217079e+001
0	 9.799996024918523e+000	 6.800020000011600e+000	 1.000204791827204e+001
0	 9.799996024918523e+000	 6.866680000008066e+000	 1.000218955151611e+001
0	 9.799996024918523e+000	 6.933340000004132e+000	 1.000229195641710e+001
0	 9.799996024918523e+000	 7.000000000000001e+000	 1.000235433748905e+001
0	 9.799996024918523e+000	 7.066659999995867e+000	 1.000237589924603e+001
0	 9.799996024918523e+000	 7.133319999991935e+000	 1.000235584620211e+001
0	 9.799996024918521e+000	 7.199979999988400e+000	 1.000229338287139e+001
0	 9.799996024918523e+000	 7.266639999985467e+000	 1.000218771376787e+001
0	 9.799996024918523e+000	 7.333299999983336e+000	 1.000203804340569e+001
0	 9.866664822186820e+000	 6.666700000016667e+000	 1.000108747815841e+001
0	 9.866664822186822e+000	 6.733360000014534e+000	 1.000129855424023e+001
0	 9.866664822186818e+000	 6.800020000011598e+000	 1.000147121760415e+001
0	 9.866664822186818e+000	 6.866680000008067e+000	 1.000160463799046e+001
0	 9.866664822186820e+000	 6.933340000004133e+000	 1.000169798513932e+001
0	 9.866664822186822e+000	 7.000000000000000e+000	 1.000175042879095e+001
0	 9.866664822186818e+000	 7.066659999995866e+000	 1.000176113868559e+001
0	 9.866664822186818e+000	 7.133319999991934e+000	 1.000172928456339e+001
0	 9.866664822186820e+000	 7.199979999988400e+000	 1.000165403616464e+001
0	 9.866664822186818e+000	 7.266639999985466e+000	 1.000153456322952e+001
0	 9.866664822186820e+000	 7.333299999983333e+000	 1.000137003549824e+001
0	 9.933332852771351e+000	 6.666700000016665e+000	 1.000064999111180e+001
0	 9.933332852771351e+000	 6.733360000014533e+000	 1.000084652300195e+001
0	 9.933332852771349e+000	 6.800020000011599e+000	 1.000100392527328e+001
0	 9.933332852771351e+000	 6.866680000008066e+000	 1.000112132609645e+001
0	 9.933332852771351e+000	 6.933340000004132e+000	 1.000119785364198e+001
0	 9.933332852771351e+000	 6.999999999999998e+000	 1.000123263608063e+001
0	 9.933332852771351e+000	 7.066659999995867e+000	 1.000122480158299e+001
0	 9.933332852771351e+000	 7.133319999991935e+000	 1.000117347831967e+001
0	 9.933332852771352e+000	 7.199979999988401e+000	 1.000107779446129e+001
0	 9.933332852771352e+000	 7.266639999985467e+000	 1.000093687817850e+001
0	 9.933332852771352e+000	 7.333299999983335e+000	 1.000074985764197e+001
0	 1.000000000000000e+001	 6.666700000016666e+000	 1.000034320540055e+001
0	 1.000000000000000e+001	 6.733360000014533e+000	 1.000051673645890e+001
0	 1.000000000000000e+001	 6.800020000011600e+000	 1.000065048294944e+001
0	 9.999999999999998e+000	 6.866680000008066e+000	 1.000074352467701e+001
0	 1.000000000000000e+001	 6.933340000004133e+000	 1.000079494144647e+001
0	 1.000000000000000e+001	 7.000000000000000e+000	 1.000080381306262e+001
0	 9.999999999999998e+000	 7.066659999995865e+000	 1.000076921933039e+001
0	 9.999999999999998e+000	 7.133319999991934e+000	 1.000069024005456e+001
0	 1.000000000000000e+001	 7.199979999988400e+000	 1.000056595503994e+001
0	 1.000000000000000e+001	 7.266639999985467e+000	 1.000039544409152e+001
0	 1.000000000000000e+001	 7.333299999983335e+000	 1.000017778701401e+001
0	 9.333302777352785e+000	 7.333299999983335e+000	 1.000803000585943e+001
0	 9.333302777352781e+000	 7.399969999982150e+000	 1.000779108178276e+001
0	 9.333302777352783e+000	 7.466639999981866e+000	 1.000754471314446e+001
0	 9.333302777352783e+000	 7.533309999982383e+000	 1.000729017421299e+001
0	 9.333302777352785e+000	 7.599979999983600e+000	 1.000702673925684e+001
0	 9.333302777352783e+000	 7.666649999985418e+000	 1.000675368254448e+001
0	 9.333302777352783e+000	 7.733319999987732e+000	 1.000647027834438e+001
0	 9.333302777352783e+000	 7.799989999990449e+000	 1.000617580092504e+001
0	 9.333302777352781e+000	 7.866659999993466e+000	 1.000586952455489e+001
0	 9.333302777352781e+000	 7.933329999996683e+000	 1.000555072350244e+001
0	 9.333302777352783e+000	 8.000000000000000e+000	 1.000521867203616e+001
0	 9.399973674588177e+000	 7.333299999983336e+000	 1.000703496913467e+001
0	 9.399973674588177e+000	 7.399969999982148e+000	 1.000681992874356e+001
0	 9.399973674588177e+000	 7.466639999981865e+000	 1.000659748055426e+001
0	 9.399973674588177e+000	 7.533309999982385e+000	 1.000636691796653e+001
0	 9.399973674588175e+000	 7.599979999983599e+000	 1.000612753438011e+001
0	 9.399973674588175e+000	 7.666649999985417e+000	 1.000587862319472e+001
0	 9.399973674588175e+000	 7.733319999987731e+000	 1.000561947781014e+001
0	 9.399973674588177e+000	 7.799989999990449e+000	 1.000534939162608e+001
0	 9.399973674588173e+000	 7.866659999993465e+000	 1.000506765804228e+001
0	 9.399973674588178e+000	 7.933329999996685e+000	 1.000477357045850e+001
0	 9.399973674588175e+000	 8.000000000000000e+000	 1.000446642227447e+001
0	 9.466644621844619e+000	 7.333299999983332e+000	 1.000608581536060e+001
0	 9.466644621844623e+000	 7.399969999982151e+000	 1.000589064200208e+001
0	 9.466644621844619e+000	 7.466639999981865e+000	 1.000568823879953e+001
0	 9.466644621844624e+000	 7.533309999982385e+000	 1.000547791116642e+001
0	 9.466644621844619e+000	 7.599979999983599e+000	 1.000525896451615e+001
0	 9.466644621844619e+000	 7.666649999985416e+000	 1.000503070426217e+001
0	 9.466644621844619e+000	 7.733319999987729e+000	 1.000479243581792e+001
0	 9.466644621844621e+000	 7.799989999990450e+000	 1.000454346459682e+001
0	 9.466644621844619e+000	 7.866659999993466e+000	 1.000428309601229e+001
0	 9.466644621844617e+000	 7.933329999996682e+000	 1.000401063547781e+001
0	 9.466644621844623e+000	 8.000000000000000e+000	 1.000372538840676e+001
0	 9.533315502450000e+000	 7.333299999983334e+000	 1.000518282342955e+001
0	 9.533315502449995e+000	 7.399969999982148e+000	 1.000500299503071e+001
0	 9.533315502449998e+000	 7.466639999981865e+000	 1.000481625874932e+001
0	 9.533315502450000e+000	 7.533309999982383e+000	 1.000462192489498e+001
0	 9.533315502450002e+000	 7.599979999983598e+000	 1.000441930377731e+001
0	 9.533315502450000e+000	 7.666649999985416e+000	 1.000420770570593e+001
0	 9.533315502449998e+000	 7.733319999987731e+000	 1.000398644099045e+001
0	 9.533315502449998e+000	 7.799989999990450e+000	 1.000375481994049e+001
0	 9.533315502450000e+000	 7.866659999993467e+000	 1.000351215286565e+001
0	 9.533315502449998e+000	 7.933329999996683e+000	 1.000325775007554e+001
0	 9.533315502450000e+000	 8.000000000000000e+000	 1.000299092187980e+001
0	 9.599986199732195e+000	 7.333299999983333e+000	 1.000432627198883e+001
0	 9.599986199732195e+000	 7.399969999982148e+000	 1.000415676108572e+001
0	 9.599986199732195e+000	 7.466639999981865e+000	 1.000398081108492e+001
0	 9.599986199732198e+000	 7.533309999982382e+000	 1.000379773007471e+001
0	 9.599986199732193e+000	 7.599979999983598e+000	 1.000360682614337e+001
0	 9.599986199732195e+000	 7.666649999985415e+000	 1.000340740737915e+001
0	 9.599986199732195e+000	 7.733319999987733e+000	 1.000319878187033e+001
0	 9.599986199732198e+000	 7.799989999990449e+000	 1.000298025770517e+001
0	 9.599986199732195e+000	 7.866659999993467e+000	 1.000275114297194e+001
0	 9.599986199732197e+000	 7.933329999996682e+000	 1.000251074575890e+001
0	 9.599986199732198e+000	 8.000000000000000e+000	 1.000225837415434e+001
0	 9.666656597019093e+000	 7.333299999983336e+000	 1.000351643944065e+001
0	 9.666656597019092e+000	 7.399969999982150e+000	 1.000335171320715e+001
0	 9.666656597019093e+000	 7.466639999981865e+000	 1.000318116629994e+001
0	 9.666656597019092e+000	 7.533309999982384e+000	 1.000300409746830e+001
0	 9.666656597019095e+000	 7.599979999983599e+000	 1.000281980546157e+001
0	 9.666656597019088e+000	 7.666649999985415e+000	 1.000262758902904e+001
0	 9.666656597019092e+000	 7.733319999987733e+000	 1.000242674691999e+001
0	 9.666656597019093e+000	 7.799989999990451e+000	 1.000221657788380e+001
0	 9.666656597019095e+000	 7.866659999993466e+000	 1.000199638066969e+001
0	 9.666656597019093e+000	 7.933329999996684e+000	 1.000176545402704e+001
0	 9.666656597019092e+000	 8.000000000000002e+000	 1.000152309670512e+001
0	 9.733326577638575e+000	 7.333299999983334e+000	 1.000275360394222e+001
0	 9.733326577638573e+000	 7.399969999982149e+000	 1.000258762421901e+001
0	 9.733326577638573e+000	 7.466639999981865e+000	 1.000241659470030e+001
0	 9.733326577638573e+000	 7.533309999982383e+000	 1.000223979767866e+001
0	 9.733326577638573e+000	 7.599979999983600e+000	 1.000205651544667e+001
0	 9.733326577638573e+000	 7.666649999985415e+000	 1.000186603029687e+001
0	 9.733326577638573e+000	 7.733319999987731e+000	 1.000166762452187e+001
0	 9.733326577638572e+000	 7.799989999990449e+000	 1.000146058041417e+001
0	 9.733326577638573e+000	 7.866659999993466e+000	 1.000124418026640e+001
0	 9.733326577638575e+000	 7.933329999996683e+000	 1.000101770637111e+001
0	 9.733326577638573e+000	 8.000000000000000e+000	 1.000078044102084e+001
0	 9.799996024918523e+000	 7.333299999983336e+000	 1.000203804340569e+001
0	 9.799996024918523e+000	 7.399969999982151e+000	 1.000186426672911e+001
0	 9.799996024918521e+000	 7.466639999981865e+000	 1.000168636640426e+001
0	 9.799996024918524e+000	 7.533309999982384e+000	 1.000150360114891e+001
0	 9.799996024918523e+000	 7.599979999983601e+000	 1.000131522968092e+001
0	 9.799996024918521e+000	 7.666649999985417e+000	 1.000112051071806e+001
0	 9.799996024918521e+000	 7.733319999987733e+000	 1.000091870297817e+001
0	 9.799996024918524e+000	 7.799989999990450e+000	 1.000070906517904e+001
0	 9.799996024918523e+000	 7.866659999993467e+000	 1.000049085603846e+001
0	 9.799996024918523e+000	 7.933329999996683e+000	 1.000026333427428e+001
0	 9.799996024918521e+000	 8.000000000000002e+000	 1.000002575860427e+001
0	 9.866664822186820e+000	 7.333299999983333e+000	 1.000137003549824e+001
0	 9.866664822186818e+000	 7.399969999982149e+000	 1.000118141312922e+001
0	 9.866664822186822e+000	 7.466639999981867e+000	 1.000098975134241e+001
0	 9.866664822186818e+000	 7.533309999982384e+000	 1.000079427816243e+001
0	 9.866664822186820e+000	 7.599979999983600e+000	 1.000059422161410e+001
0	 9.866664822186820e+000	 7.666649999985417e+000	 1.000038880972212e+001
0	 9.866664822186820e+000	 7.733319999987733e+000	 1.000017727051115e+001
0	 9.866664822186820e+000	 7.799989999990449e+000	 9.999958832005953e+000
0	 9.866664822186818e+000	 7.866659999993466e+000	 9.999732722231244e+000
0	 9.866664822186820e+000	 7.933329999996683e+000	 9.999498169211742e+000
0	 9.866664822186820e+000	 8.000000000000000e+000	 9.999254400972159e+000
0	 9.933332852771352e+000	 7.333299999983335e+000	 1.000074985764197e+001
0	 9.933332852771352e+000	 7.399969999982150e+000	 1.000053883559500e+001
0	 9.933332852771351e+000	 7.466639999981866e+000	 1.000032601925761e+001
0	 9.933332852771352e+000	 7.533309999982384e+000	 1.000011059884284e+001
0	 9.933332852771352e+000	 7.599979999983600e+000	 9.999891764563509e+000
0	 9.933332852771352e+000	 7.666649999985416e+000	 9.999668706632571e+000
0	 9.933332852771349e+000	 7.733319999987732e+000	 9.999440615262925e+000
0	 9.933332852771351e+000	 7.799989999990449e+000	 9.999206680667466e+000
0	 9.933332852771351e+000	 7.866659999993466e+000	 9.998966093059091e+000
0	 9.933332852771352e+000	 7.933329999996684e+000	 9.998718042650779e+000
0	 9.933332852771352e+000	 8.000000000000000e+000	 9.998461719655362e+000
0	 1.000000000000000e+001	 7.333299999983335e+000	 1.000017778701401e+001
0	 1.000000000000000e+001	 7.399969999982150e+000	 9.999936306085887e+000
0	 1.000000000000000e+001	 7.466639999981865e+000	 9.999694439705200e+000
0	 1.000000000000000e+001	 7.533309999982385e+000	 9.999451333153914e+000
0	 1.000000000000000e+001	 7.599979999983599e+000	 9.999206131713940e+000
0	 1.000000000000000e+001	 7.666649999985417e+000	 9.998957980667171e+000
0	 1.000000000000000e+001	 7.733319999987733e+000	 9.998706025295551e+000
0	 1.000000000000000e+001	 7.799989999990449e+000	 9.998449410880937e+000
0	 1.000000000000000e+001	 7.866659999993465e+000	 9.998187282705342e+000
0	 1.000000000000000e+001	 7.933329999996683e+000	 9.997918786050629e+000
0	 1.000000000000000e+001	 8.000000000000000e+000	 9.997643066198751e+000
0	 9.333302777352783e+000	 8.000000000000000e+000	 1.000521867203616e+001
0	 9.333302777352783e+000	 8.066670000003319e+000	 1.000488471905747e+001
0	 9.333302777352783e+000	 8.133340000006532e+000	 1.000456027061185e+001
0	 9.333302777352783e+000	 8.200010000009552e+000	 1.000424468668393e+001
0	 9.333302777352783e+000	 8.266680000012267e+000	 1.000393732725830e+001
0	 9.333302777352783e+000	 8.333350000014585e+000	 1.000363755231957e+001
0	 9.333302777352785e+000	 8.400020000016403e+000	 1.000334472185235e+001
0	 9.333302777352785e+000	 8.466690000017618e+000	 1.000305819584122e+001
0	 9.333302777352783e+000	 8.533360000018135e+000	 1.000277733427081e+001
0	 9.333302777352783e+000	 8.600030000017849e+000	 1.000250149712571e+001
0	 9.333302777352783e+000	 8.666700000016666e+000	 1.000223004439052e+001
0	 9.399973674588175e+000	 8.000000000000000e+000	 1.000446642227447e+001
0	 9.399973674588177e+000	 8.066670000003319e+000	 1.000415762155034e+001
0	 9.399973674588177e+000	 8.133340000006538e+000	 1.000385866942034e+001
0	 9.399973674588178e+000	 8.200010000009552e+000	 1.000356899889527e+001
0	 9.399973674588175e+000	 8.266680000012267e+000	 1.000328804298590e+001
0	 9.399973674588173e+000	 8.333350000014583e+000	 1.000301523470306e+001
0	 9.399973674588175e+000	 8.400020000016399e+000	 1.000275000705752e+001
0	 9.399973674588177e+000	 8.466690000017618e+000	 1.000249179306010e+001
0	 9.399973674588178e+000	 8.533360000018137e+000	 1.000224002572160e+001
0	 9.399973674588175e+000	 8.600030000017849e+000	 1.000199413805281e+001
0	 9.399973674588177e+000	 8.666700000016668e+000	 1.000175356306452e+001
0	 9.466644621844623e+000	 8.000000000000000e+000	 1.000372538840676e+001
0	 9.466644621844619e+000	 8.066670000003317e+000	 1.000343890446925e+001
0	 9.466644621844621e+000	 8.133340000006532e+000	 1.000316285929850e+001
0	 9.466644621844623e+000	 8.200010000009552e+000	 1.000289674725273e+001
0	 9.466644621844619e+000	 8.266680000012267e+000	 1.000264006269016e+001
0	 9.466644621844621e+000	 8.333350000014585e+000	 1.000239229996900e+001
0	 9.466644621844621e+000	 8.400020000016399e+000	 1.000215295344744e+001
0	 9.466644621844623e+000	 8.466690000017621e+000	 1.000192151748366e+001
0	 9.466644621844619e+000	 8.533360000018133e+000	 1.000169748643591e+001
0	 9.466644621844621e+000	 8.600030000017851e+000	 1.000148035466236e+001
0	 9.466644621844619e+000	 8.666700000016665e+000	 1.000126961652125e+001
0	 9.533315502450000e+000	 8.000000000000000e+000	 1.000299092187980e+001
0	 9.533315502450000e+000	 8.066670000003319e+000	 1.000272346863550e+001
0	 9.533315502450000e+000	 8.133340000006532e+000	 1.000246734651142e+001
0	 9.533315502450000e+000	 8.200010000009550e+000	 1.000222209953470e+001
0	 9.533315502450002e+000	 8.266680000012268e+000	 1.000198727173247e+001
0	 9.533315502449996e+000	 8.333350000014583e+000	 1.000176240713188e+001
0	 9.533315502450000e+000	 8.400020000016399e+000	 1.000154704976010e+001
0	 9.533315502450000e+000	 8.466690000017618e+000	 1.000134074364423e+001
0	 9.533315502450000e+000	 8.533360000018135e+000	 1.000114303281139e+001
0	 9.533315502449998e+000	 8.600030000017849e+000	 1.000095346128880e+001
0	 9.533315502450000e+000	 8.666700000016666e+000	 1.000077157310354e+001
0	 9.599986199732198e+000	 8.000000000000000e+000	 1.000225837415434e+001
0	 9.599986199732197e+000	 8.066670000003315e+000	 1.000200621490534e+001
0	 9.599986199732193e+000	 8.133340000006532e+000	 1.000176663737867e+001
0	 9.599986199732197e+000	 8.200010000009549e+000	 1.000153922359211e+001
0	 9.599986199732197e+000	 8.266680000012270e+000	 1.000132355556349e+001
0	 9.599986199732195e+000	 8.333350000014583e+000	 1.000111921531059e+001
0	 9.599986199732195e+000	 8.400020000016399e+000	 1.000092578485123e+001
0	 9.599986199732200e+000	 8.466690000017618e+000	 1.000074284620322e+001
0	 9.599986199732197e+000	 8.533360000018133e+000	 1.000056998138433e+001
0	 9.599986199732195e+000	 8.600030000017851e+000	 1.000040677241239e+001
0	 9.599986199732197e+000	 8.666700000016666e+000	 1.000025280130517e+001
0	 9.666656597019092e+000	 8.000000000000002e+000	 1.000152309670512e+001
0	 9.666656597019093e+000	 8.066670000003317e+000	 1.000128204416977e+001
0	 9.666656597019092e+000	 8.133340000006532e+000	 1.000105523827414e+001
0	 9.666656597019092e+000	 8.200010000009550e+000	 1.000084228734854e+001
0	 9.666656597019092e+000	 8.266680000012268e+000	 1.000064279972320e+001
0	 9.666656597019095e+000	 8.333350000014587e+000	 1.000045638372833e+001
0	 9.666656597019093e+000	 8.400020000016399e+000	 1.000028264769426e+001
0	 9.666656597019092e+000	 8.466690000017614e+000	 1.000012119995120e+001
0	 9.666656597019093e+000	 8.533360000018135e+000	 9.999971648829432e+000
0	 9.666656597019090e+000	 8.600030000017849e+000	 9.999833602659212e+000
0	 9.666656597019093e+000	 8.666700000016666e+000	 9.999706669770829e+000
0	 9.733326577638573e+000	 8.000000000000000e+000	 1.000078044102084e+001
0	 9.733326577638575e+000	 8.066670000003320e+000	 1.000054585735470e+001
0	 9.733326577638573e+000	 8.133340000006532e+000	 1.000032765562635e+001
0	 9.733326577638573e+000	 8.200010000009552e+000	 1.000012545880027e+001
0	 9.733326577638575e+000	 8.266680000012270e+000	 9.999938889840919e+000
0	 9.733326577638575e+000	 8.333350000014583e+000	 9.999767571712754e+000
0	 9.733326577638573e+000	 8.400020000016403e+000	 9.999611127380250e+000
0	 9.733326577638575e+000	 8.466690000017620e+000	 9.999469179807882e+000
0	 9.733326577638573e+000	 8.533360000018135e+000	 9.999341351960071e+000
0	 9.733326577638573e+000	 8.600030000017851e+000	 9.999227266801324e+000
0	 9.733326577638575e+000	 8.666700000016668e+000	 9.999126547296083e+000
0	 9.799996024918521e+000	 8.000000000000002e+000	 1.000002575860427e+001
0	 9.799996024918523e+000	 8.066670000003319e+000	 9.999792555420832e+000
0	 9.799996024918523e+000	 8.133340000006532e+000	 9.999578395918057e+000
0	 9.799996024918523e+000	 8.200010000009552e+000	 9.999382906016134e+000
0	 9.799996024918523e+000	 8.266680000012268e+000	 9.999205711635348e+000
0	 9.799996024918524e+000	 8.333350000014585e+000	 9.999046438695899e+000
0	 9.799996024918524e+000	 8.400020000016403e+000	 9.998904713118044e+000
0	 9.799996024918524e+000	 8.466690000017616e+000	 9.998780160822038e+000
0	 9.799996024918521e+000	 8.533360000018133e+000	 9.998672407728124e+000
0	 9.799996024918521e+000	 8.600030000017851e+000	 9.998581079756516e+000
0	 9.799996024918521e+000	 8.666700000016666e+000	 9.998505802827502e+000
0	 9.866664822186820e+000	 8.000000000000000e+000	 9.999254400972159e+000
0	 9.866664822186818e+000	 8.066670000003315e+000	 9.999017039363867e+000
0	 9.866664822186820e+000	 8.133340000006532e+000	 9.998801965686642e+000
0	 9.866664822186818e+000	 8.200010000009552e+000	 9.998608797137745e+000
0	 9.866664822186820e+000	 8.266680000012270e+000	 9.998437150914537e+000
0	 9.866664822186820e+000	 8.333350000014583e+000	 9.998286644214222e+000
0	 9.866664822186818e+000	 8.400020000016401e+000	 9.998156894234183e+000
0	 9.866664822186818e+000	 8.466690000017616e+000	 9.998047518171711e+000
0	 9.866664822186822e+000	 8.533360000018133e+000	 9.997958133224078e+000
0	 9.866664822186820e+000	 8.600030000017849e+000	 9.997888356588570e+000
0	 9.866664822186818e+000	 8.666700000016666e+000	 9.997837805462527e+000
0	 9.933332852771352e+000	 8.000000000000000e+000	 9.998461719655362e+000
0	 9.933332852771351e+000	 8.066670000003317e+000	 9.998214210214307e+000
0	 9.933332852771351e+000	 8.133340000006532e+000	 9.997992871523877e+000
0	 9.933332852771351e+000	 8.200010000009550e+000	 9.997797300379329e+000
0	 9.933332852771352e+000	 8.266680000012267e+000	 9.997627093575868e+000
0	 9.933332852771349e+000	 8.333350000014582e+000	 9.997481847908661e+000
0	 9.933332852771352e+000	 8.400020000016401e+000	 9.997361160172966e+000
0	 9.933332852771351e+000	 8.466690000017616e+000	 9.997264627164007e+000
0	 9.933332852771351e+000	 8.533360000018135e+000	 9.997191845677000e+000
0	 9.933332852771351e+000	 8.600030000017849e+000	 9.997142412507145e+000
0	 9.933332852771352e+000	 8.666700000016668e+000	 9.997115924449672e+000
0	 1.000000000000000e+001	 8.000000000000000e+000	 9.997643066198751e+000
0	 1.000000000000000e+001	 8.066670000003317e+000	 9.997378969037589e+000
0	 1.000000000000000e+001	 8.133340000006534e+000	 9.997145620076134e+000
0	 9.999999999999998e+000	 8.200010000009550e+000	 9.996942584027854e+000
0	 1.000000000000000e+001	 8.266680000012267e+000	 9.996769425606175e+000
0	 1.000000000000000e+001	 8.333350000014583e+000	 9.996625709524579e+000
0	 1.000000000000000e+001	 8.400020000016401e+000	 9.996511000496481e+000
0	 1.000000000000000e+001	 8.466690000017616e+000	 9.996424863235372e+000
0	 1.000000000000000e+001	 8.533360000018133e+000	 9.996366862454666e+000
0	 1.000000000000000e+001	 8.600030000017851e+000	 9.996336562867812e+000
0	 1.000000000000000e+001	 8.666700000016666e+000	 9.996333529188336e+000
0	 9.333302777352783e+000	 8.666700000016666e+000	 1.000223004439052e+001
0	 9.333302777352781e+000	 8.733360002791901e+000	 1.000197055274727e+001
0	 9.333302777352783e+000	 8.800020022230557e+000	 1.000173050099359e+001
0	 9.333302777352781e+000	 8.866680074997039e+000	 1.000150922351105e+001
0	 9.333302777352781e+000	 8.933340177755778e+000	 1.000130605463636e+001
0	 9.333302777352783e+000	 9.000000347171181e+000	 1.000112032866155e+001
0	 9.333302777352785e+000	 9.066660599907667e+000	 1.000095137983369e+001
0	 9.333302777352781e+000	 9.133320952629655e+000	 1.000079854235513e+001
0	 9.333302777352781e+000	 9.199981422001558e+000	 1.000066115038335e+001
0	 9.333302777352781e+000	 9.266642024687794e+000	 1.000053853803106e+001
0	 9.333302777352785e+000	 9.333302777352785e+000	 1.000043003936614e+001
0	 9.399973674588177e+000	 8.666700000016668e+000	 1.000175356306452e+001
0	 9.399973674588177e+000	 8.733360002791901e+000	 1.000152520303367e+001
0	 9.399973674588175e+000	 8.800020022230557e+000	 1.000131585579494e+001
0	 9.399973674588177e+000	 8.866680074997040e+000	 1.000112490480717e+001
0	 9.399973674588175e+000	 8.933340177755779e+000	 1.000095173348695e+001
0	 9.399973674588177e+000	 9.000000347171181e+000	 1.000079572520857e+001
0	 9.399973674588178e+000	 9.066660599907671e+000	 1.000065626330410e+001
0	 9.399973674588180e+000	 9.133320952629655e+000	 1.000053273106334e+001
0	 9.399973674588173e+000	 9.199981422001558e+000	 1.000042451173381e+001
0	 9.399973674588177e+000	 9.266642024687796e+000	 1.000033098852078e+001
0	 9.399973674588175e+000	 9.333302777352783e+000	 1.000025154458730e+001
0	 9.466644621844619e+000	 8.666700000016665e+000	 1.000126961652124e+001
0	 9.466644621844621e+000	 8.733360002791905e+000	 1.000107145857294e+001
0	 9.466644621844621e+000	 8.800020022230555e+000	 1.000089197163481e+001
0	 9.466644621844623e+000	 8.866680074997044e+000	 1.000073059988527e+001
0	 9.466644621844619e+000	 8.933340177755778e+000	 1.000058678746248e+001
0	 9.466644621844617e+000	 9.000000347171179e+000	 1.000045997846450e+001
0	 9.466644621844624e+000	 9.066660599907671e+000	 1.000034961694924e+001
0	 9.466644621844621e+000	 9.133320952629656e+000	 1.000025514693441e+001
0	 9.466644621844623e+000	 9.199981422001560e+000	 1.000017601239762e+001
0	 9.466644621844619e+000	 9.266642024687794e+000	 1.000011165727628e+001
0	 9.466644621844619e+000	 9.333302777352785e+000	 1.000006152546765e+001
0	 9.533315502450000e+000	 8.666700000016666e+000	 1.000077157310354e+001
0	 9.533315502449998e+000	 8.733360002791905e+000	 1.000060282504052e+001
0	 9.533315502449995e+000	 8.800020022230552e+000	 1.000045260212245e+001
0	 9.533315502450002e+000	 8.866680074997042e+000	 1.000032042088950e+001
0	 9.533315502449996e+000	 8.933340177755778e+000	 1.000020579784312e+001
0	 9.533315502450000e+000	 9.000000347171184e+000	 1.000010824944618e+001
0	 9.533315502450000e+000	 9.066660599907667e+000	 1.000002729212283e+001
0	 9.533315502450000e+000	 9.133320952629653e+000	 9.999962442258553e+000
0	 9.533315502450003e+000	 9.199981422001562e+000	 9.999913216200209e+000
0	 9.533315502450000e+000	 9.266642024687792e+000	 9.999879130255932e+000
0	 9.533315502449996e+000	 9.333302777352783e+000	 9.999859700695213e+000
0	 9.599986199732197e+000	 8.666700000016666e+000	 1.000025280130517e+001
0	 9.599986199732195e+000	 8.733360002791901e+000	 1.000011280826558e+001
0	 9.599986199732197e+000	 8.800020022230557e+000	 9.999991501021251e+000
0	 9.599986199732195e+000	 8.866680074997042e+000	 9.999888480116541e+000
0	 9.599986199732197e+000	 8.933340177755779e+000	 9.999803346057934e+000
0	 9.599986199732195e+000	 9.000000347171181e+000	 9.999735699313829e+000
0	 9.599986199732197e+000	 9.066660599907669e+000	 9.999685140314718e+000
0	 9.599986199732195e+000	 9.133320952629655e+000	 9.999651269453198e+000
0	 9.599986199732197e+000	 9.199981422001558e+000	 9.999633687083790e+000
0	 9.599986199732198e+000	 9.266642024687798e+000	 9.999631993523151e+000
0	 9.599986199732197e+000	 9.333302777352785e+000	 9.999645789049954e+000
0	 9.666656597019093e+000	 8.666700000016666e+000	 9.999706669770829e+000
0	 9.666656597019092e+000	 8.733360002791903e+000	 9.999594914230821e+000
0	 9.666656597019093e+000	 8.800020022230557e+000	 9.999502422248698e+000
0	 9.666656597019093e+000	 8.866680074997042e+000	 9.999428890015674e+000
0	 9.666656597019095e+000	 8.933340177755779e+000	 9.999374013684825e+000
0	 9.666656597019092e+000	 9.000000347171181e+000	 9.999337489371001e+000
0	 9.666656597019092e+000	 9.066660599907666e+000	 9.999319013150867e+000
0	 9.666656597019093e+000	 9.133320952629655e+000	 9.999318281062907e+000
0	 9.666656597019093e+000	 9.199981422001558e+000	 9.999334989107366e+000
0	 9.666656597019093e+000	 9.266642024687798e+000	 9.999368833246361e+000
0	 9.666656597019093e+000	 9.333302777352783e+000	 9.999419509403724e+000
0	 9.733326577638575e+000	 8.666700000016668e+000	 9.999126547296083e+000
0	 9.733326577638573e+000	 8.733360002791901e+000	 9.999042649072710e+000
0	 9.733326577638575e+000	 8.800020022230557e+000	 9.998979119876472e+000
0	 9.733326577638573e+000	 8.866680074997039e+000	 9.998935763188555e+000
0	 9.733326577638575e+000	 8.933340177755778e+000	 9.998912382450605e+000
0	 9.733326577638575e+000	 9.000000347171183e+000	 9.998908781064687e+000
0	 9.733326577638573e+000	 9.066660599907667e+000	 9.998924762393317e+000
0	 9.733326577638575e+000	 9.133320952629655e+000	 9.998960129759530e+000
0	 9.733326577638575e+000	 9.199981422001558e+000	 9.999014686446749e+000
0	 9.733326577638573e+000	 9.266642024687796e+000	 9.999088235698867e+000
0	 9.733326577638575e+000	 9.333302777352783e+000	 9.999180580720285e+000
0	 9.799996024918521e+000	 8.666700000016666e+000	 9.998505802827502e+000
0	 9.799996024918524e+000	 8.733360002791903e+000	 9.998449519081294e+000
0	 9.799996024918523e+000	 8.800020022230555e+000	 9.998415348130411e+000
0	 9.799996024918521e+000	 8.866680074997040e+000	 9.998403212389457e+000
0	 9.799996024918521e+000	 8.933340177755776e+000	 9.998413034230945e+000
0	 9.799996024918521e+000	 9.000000347171181e+000	 9.998444735985148e+000
0	 9.799996024918523e+000	 9.066660599907667e+000	 9.998498239940220e+000
0	 9.799996024918524e+000	 9.133320952629655e+000	 9.998573468342066e+000
0	 9.799996024918521e+000	 9.199981422001557e+000	 9.998670343394517e+000
0	 9.799996024918523e+000	 9.266642024687798e+000	 9.998788787259148e+000
0	 9.799996024918519e+000	 9.333302777352781e+000	 9.998928722055428e+000
0	 9.866664822186818e+000	 8.666700000016666e+000	 9.997837805462527e+000
0	 9.866664822186818e+000	 8.733360002791901e+000	 9.997809030700378e+000
0	 9.866664822186818e+000	 8.800020022230555e+000	 9.997804861390501e+000
0	 9.866664822186820e+000	 8.866680074997040e+000	 9.997825350525188e+000
0	 9.866664822186820e+000	 8.933340177755779e+000	 9.997870551050481e+000
0	 9.866664822186820e+000	 9.000000347171183e+000	 9.997940515866183e+000
0	 9.866664822186820e+000	 9.066660599907667e+000	 9.998035297825851e+000
0	 9.866664822186822e+000	 9.133320952629656e+000	 9.998154949736790e+000
0	 9.866664822186820e+000	 9.199981422001558e+000	 9.998299524360105e+000
0	 9.866664822186818e+000	 9.266642024687796e+000	 9.998469074410574e+000
0	 9.866664822186820e+000	 9.333302777352781e+000	 9.998663652556790e+000
0	 9.933332852771352e+000	 8.666700000016668e+000	 9.997115924449672e+000
0	 9.933332852771351e+000	 8.733360002791903e+000	 9.997114690527416e+000
0	 9.933332852771352e+000	 8.800020022230555e+000	 9.997141414190931e+000
0	 9.933332852771351e+000	 8.866680074997040e+000	 9.997196290655042e+000
0	 9.933332852771351e+000	 8.933340177755778e+000	 9.997279515082703e+000
0	 9.933332852771349e+000	 9.000000347171179e+000	 9.997391282584875e+000
0	 9.933332852771351e+000	 9.066660599907667e+000	 9.997531788220686e+000
0	 9.933332852771351e+000	 9.133320952629656e+000	 9.997701226997210e+000
0	 9.933332852771352e+000	 9.199981422001558e+000	 9.997899793869751e+000
0	 9.933332852771352e+000	 9.266642024687798e+000	 9.998127683741576e+000
0	 9.933332852771351e+000	 9.333302777352783e+000	 9.998385091464039e+000
0	 1.000000000000000e+001	 8.666700000016666e+000	 9.996333529188336e+000
0	 1.000000000000000e+001	 8.733360002791903e+000	 9.996360005313651e+000
0	 1.000000000000000e+001	 8.800020022230555e+000	 9.996418761220118e+000
0	 1.000000000000000e+001	 8.866680074997042e+000	 9.996510145991008e+000
0	 1.000000000000000e+001	 8.933340177755779e+000	 9.996634508650113e+000
0	 1.000000000000000e+001	 9.000000347171183e+000	 9.996792198161863e+000
0	 1.000000000000000e+001	 9.066660599907667e+000	 9.996983563431291e+000
0	 1.000000000000000e+001	 9.133320952629655e+000	 9.997208953304130e+000
0	 1.000000000000000e+001	 9.199981422001557e+000	 9.997468716566603e+000
0	 1.000000000000000e+001	 9.266642024687796e+000	 9.997763201945665e+000
0	 9.999999999999998e+000	 9.333302777352781e+000	 9.998092758108852e+000
0	 9.333302777352785e+000	 9.333302777352785e+000	 1.000043003936613e+001
0	 9.333302777352781e+000	 9.399973674588177e+000	 1.000033311591258e+001
0	 9.333302777352785e+000	 9.466644621844621e+000	 1.000024646602579e+001
0	 9.333302777352783e+000	 9.533315502450002e+000	 1.000017123343526e+001
0	 9.333302777352783e+000	 9.599986199732197e+000	 1.000010856213882e+001
0	 9.333302777352781e+000	 9.666656597019095e+000	 1.000005959640276e+001
0	 9.333302777352783e+000	 9.733326577638573e+000	 1.000002548076174e+001
0	 9.333302777352779e+000	 9.799996024918521e+000	 1.000000736001900e+001
0	 9.333302777352783e+000	 9.866664822186822e+000	 1.000000637924613e+001
0	 9.333302777352783e+000	 9.933332852771356e+000	 1.000002368378322e+001
0	 9.333302777352781e+000	 9.999999999999998e+000	 1.000006041923902e+001
0	 9.399973674588175e+000	 9.333302777352783e+000	 1.000025154458730e+001
0	 9.399973674588175e+000	 9.399973674588173e+000	 1.000018222174237e+001
0	 9.399973674588175e+000	 9.466644621844619e+000	 1.000012048045132e+001
0	 9.399973674588177e+000	 9.533315502450002e+000	 1.000006779931610e+001
0	 9.399973674588177e+000	 9.599986199732197e+000	 1.000002565715720e+001
0	 9.399973674588175e+000	 9.666656597019095e+000	 9.999995533013793e+000
0	 9.399973674588175e+000	 9.733326577638572e+000	 9.999978906143637e+000
0	 9.399973674588177e+000	 9.799996024918524e+000	 9.999977256023167e+000
0	 9.399973674588175e+000	 9.866664822186820e+000	 9.999992062347355e+000
0	 9.399973674588177e+000	 9.933332852771354e+000	 1.000002480503005e+001
0	 9.399973674588175e+000	 1.000000000000000e+001	 1.000007696420373e+001
0	 9.466644621844619e+000	 9.333302777352785e+000	 1.000006152546765e+001
0	 9.466644621844623e+000	 9.399973674588175e+000	 1.000002014206848e+001
0	 9.466644621844623e+000	 9.466644621844624e+000	 9.999983599116048e+000
0	 9.466644621844617e+000	 9.533315502449998e+000	 9.999953671571236e+000
0	 9.466644621844617e+000	 9.599986199732193e+000	 9.999932134564862e+000
0	 9.466644621844621e+000	 9.666656597019093e+000	 9.999920763397382e+000
0	 9.466644621844619e+000	 9.733326577638573e+000	 9.999921333539284e+000
0	 9.466644621844623e+000	 9.799996024918524e+000	 9.999935620630820e+000
0	 9.466644621844621e+000	 9.866664822186822e+000	 9.999965400482184e+000
0	 9.466644621844621e+000	 9.933332852771354e+000	 1.000001244907343e+001
0	 9.466644621844621e+000	 1.000000000000000e+001	 1.000007854255457e+001
0	 9.533315502449996e+000	 9.333302777352783e+000	 9.999859700695211e+000
0	 9.533315502449995e+000	 9.399973674588173e+000	 9.999847730460694e+000
0	 9.533315502449998e+000	 9.466644621844617e+000	 9.999837703828794e+000
0	 9.533315502449996e+000	 9.533315502449998e+000	 9.999831653612793e+000
0	 9.533315502450000e+000	 9.599986199732197e+000	 9.999831612746936e+000
0	 9.533315502450000e+000	 9.666656597019095e+000	 9.999839614286447e+000
0	 9.533315502450000e+000	 9.733326577638573e+000	 9.999857691407517e+000
0	 9.533315502450000e+000	 9.799996024918524e+000	 9.999887877407394e+000
0	 9.533315502450002e+000	 9.866664822186822e+000	 9.999932205704262e+000
0	 9.533315502449998e+000	 9.933332852771352e+000	 9.999992709837413e+000
0	 9.533315502450000e+000	 1.000000000000000e+001	 1.000007142346715e+001
0	 9.599986199732197e+000	 9.333302777352785e+000	 9.999645789049955e+000
0	 9.599986199732197e+000	 9.399973674588175e+000	 9.999665840566408e+000
0	 9.599986199732197e+000	 9.466644621844623e+000	 9.999684676460161e+000
0	 9.599986199732197e+000	 9.533315502449998e+000	 9.999704548896675e+000
0	 9.599986199732198e+000	 9.599986199732198e+000	 9.999727710112444e+000
0	 9.599986199732195e+000	 9.666656597019093e+000	 9.999756412414810e+000
0	 9.599986199732198e+000	 9.733326577638577e+000	 9.999792908181993e+000
0	 9.599986199732197e+000	 9.799996024918521e+000	 9.999839449863236e+000
0	 9.599986199732193e+000	 9.866664822186822e+000	 9.999898289978695e+000
0	 9.599986199732197e+000	 9.933332852771352e+000	 9.999971681119479e+000
0	 9.599986199732195e+000	 1.000000000000000e+001	 1.000006187594768e+001
0	 9.666656597019093e+000	 9.333302777352783e+000	 9.999419509403724e+000
0	 9.666656597019092e+000	 9.399973674588175e+000	 9.999475326110680e+000
0	 9.666656597019093e+000	 9.466644621844621e+000	 9.999526398942495e+000
0	 9.666656597019090e+000	 9.533315502449998e+000	 9.999575160922898e+000
0	 9.666656597019093e+000	 9.599986199732198e+000	 9.999624045094208e+000
0	 9.666656597019093e+000	 9.666656597019092e+000	 9.999675484517189e+000
0	 9.666656597019092e+000	 9.733326577638577e+000	 9.999731912271177e+000
0	 9.666656597019090e+000	 9.799996024918519e+000	 9.999795761454061e+000
0	 9.666656597019093e+000	 9.866664822186822e+000	 9.999869465182234e+000
0	 9.666656597019095e+000	 9.933332852771356e+000	 9.999955456590788e+000
0	 9.666656597019093e+000	 1.000000000000000e+001	 1.000005616883322e+001
0	 9.733326577638575e+000	 9.333302777352783e+000	 9.999180580720285e+000
0	 9.733326577638575e+000	 9.399973674588177e+000	 9.999277040896139e+000
0	 9.733326577638573e+000	 9.466644621844621e+000	 9.999364753269965e+000
0	 9.733326577638577e+000	 9.533315502450002e+000	 9.999446293235428e+000
0	 9.733326577638575e+000	 9.599986199732197e+000	 9.999524236148831e+000
0	 9.733326577638575e+000	 9.666656597019095e+000	 9.999601157329225e+000
0	 9.733326577638573e+000	 9.733326577638575e+000	 9.999679632058339e+000
0	 9.733326577638573e+000	 9.799996024918523e+000	 9.999762235580578e+000
0	 9.733326577638573e+000	 9.866664822186822e+000	 9.999851543103107e+000
0	 9.733326577638573e+000	 9.933332852771352e+000	 9.999950129795790e+000
0	 9.733326577638573e+000	 1.000000000000000e+001	 1.000006057079129e+001
0	 9.799996024918519e+000	 9.333302777352781e+000	 9.998928722055428e+000
0	 9.799996024918519e+000	 9.399973674588173e+000	 9.999071838803143e+000
0	 9.799996024918519e+000	 9.466644621844617e+000	 9.999201621498536e+000
0	 9.799996024918523e+000	 9.533315502450002e+000	 9.999320749422173e+000
0	 9.799996024918524e+000	 9.599986199732198e+000	 9.999431901756799e+000
0	 9.799996024918523e+000	 9.666656597019093e+000	 9.999537757587452e+000
0	 9.799996024918523e+000	 9.733326577638575e+000	 9.999640995901546e+000
0	 9.799996024918521e+000	 9.799996024918523e+000	 9.999744295588704e+000
0	 9.799996024918521e+000	 9.866664822186822e+000	 9.999850335440991e+000
0	 9.799996024918521e+000	 9.933332852771352e+000	 9.999961794152682e+000
0	 9.799996024918521e+000	 1.000000000000000e+001	 1.000008135032042e+001
0	 9.866664822186820e+000	 9.333302777352781e+000	 9.998663652556791e+000
0	 9.866664822186818e+000	 9.399973674588175e+000	 9.998860573789571e+000
0	 9.866664822186818e+000	 9.466644621844619e+000	 9.999038885745968e+000
0	 9.866664822186820e+000	 9.533315502450000e+000	 9.999201333115130e+000
0	 9.866664822186818e+000	 9.599986199732195e+000	 9.999350660422373e+000
0	 9.866664822186820e+000	 9.666656597019093e+000	 9.999489612029329e+000
0	 9.866664822186820e+000	 9.733326577638575e+000	 9.999620932133723e+000
0	 9.866664822186820e+000	 9.799996024918524e+000	 9.999747364769579e+000
0	 9.866664822186820e+000	 9.866664822186822e+000	 9.999871653807096e+000
0	 9.866664822186820e+000	 9.933332852771354e+000	 9.999996542952868e+000
0	 9.866664822186820e+000	 1.000000000000000e+001	 1.000012477574946e+001
0	 9.933332852771351e+000	 9.333302777352783e+000	 9.998385091464039e+000
0	 9.933332852771349e+000	 9.399973674588175e+000	 9.998644099891122e+000
0	 9.933332852771351e+000	 9.466644621844619e+000	 9.998878428191778e+000
0	 9.933332852771352e+000	 9.533315502450000e+000	 9.999090847990187e+000
0	 9.933332852771351e+000	 9.599986199732197e+000	 9.999284130673775e+000
0	 9.933332852771351e+000	 9.666656597019093e+000	 9.999461047393211e+000
0	 9.933332852771349e+000	 9.733326577638573e+000	 9.999624369062632e+000
0	 9.933332852771351e+000	 9.799996024918523e+000	 9.999776866359412e+000
0	 9.933332852771351e+000	 9.866664822186822e+000	 9.999921309724282e+000
0	 9.933332852771352e+000	 9.933332852771354e+000	 1.000006046936149e+001
0	 9.933332852771351e+000	 1.000000000000000e+001	 1.000019711523830e+001
0	 9.999999999999998e+000	 9.333302777352781e+000	 9.998092758108854e+000
0	 1.000000000000000e+001	 9.399973674588175e+000	 9.998423271220993e+000
0	 1.000000000000000e+001	 9.466644621844621e+000	 9.998722131077365e+000
0	 1.000000000000000e+001	 9.533315502450000e+000	 9.998992097767369e+000
0	 1.000000000000000e+001	 9.599986199732198e+000	 9.999235931062913e+000
0	 1.000000000000000e+001	 9.666656597019093e+000	 9.999456390418382e+000
0	 1.000000000000000e+001	 9.733326577638575e+000	 9.999656234970798e+000
0	 1.000000000000000e+001	 9.799996024918523e+000	 9.999838223539587e+000
0	 1.000000000000000e+001	 9.866664822186824e+000	 1.000000511462682e+001
0	 1.000000000000000e+001	 9.933332852771354e+000	 1.000015966641703e+001
0	 1.000000000000000e+001	 1.000000000000000e+001	 1.000030463677742e+001
1	 1.000000000000000e+000	 0.000000000000000e+000	 3.110325345795425e+001
1	 9.999553790721549e-001	 9.446392261750536e-003	 3.109642233271917e+001
1	 9.998208276644109e-001	 1.892867080636967e-002	 3.107690731892300e+001
1	 9.995953221430520e-001	 2.844573836262591e-002	 3.104471513850698e+001
1	 9.992778519071311e-001	 3.799646941872217e-002	 3.099985039933966e+001
1	 9.988674201817245e-001	 4.757971027342477e-002	 3.094231543191443e+001
1	 9.983630448185402e-001	 5.719427911104237e-002	 3.087211012634397e+001
1	 9.977637591031844e-001	 6.683896610081597e-002	 3.078923177003149e+001
1	 9.970686125683426e-001	 7.651253352126189e-002	 3.069367488641499e+001
1	 9.962766718121099e-001	 8.621371590998764e-002	 3.058543107518977e+001
1	 9.953870213206724e-001	 9.594122023947824e-002	 3.046448885442917e+001
1	 1.026666858896873e+000	 0.000000000000000e+000	 2.930690233455417e+001
1	 1.026621048068823e+000	 9.698297869740000e-003	 2.930805977705807e+001
1	 1.026482908597070e+000	 1.943343899728710e-002	 2.929743403878585e+001
1	 1.026251389550869e+000	 2.920429685057105e-002	 2.927496796511674e+001
1	 1.025925453379797e+000	 3.900971590386779e-002	 2.924060332978866e+001
1	 1.025504076728145e+000	 4.884851169029192e-002	 2.919428079108163e+001
1	 1.024986251256887e+000	 5.871947087877486e-002	 2.913593984985367e+001
1	 1.024370984472468e+000	 6.862135137610566e-002	 2.906551880963673e+001
1	 1.023657300561674e+000	 7.855288245458952e-002	 2.898295473900402e+001
1	 1.022844241231782e+000	 8.851276490585899e-002	 2.888818343642351e+001
1	 1.021930866555178e+000	 9.849967122134781e-002	 2.878113939781493e+001
1	 1.053334071134978e+000	 0.000000000000000e+000	 2.780245592889856e+001
1	 1.053287070390996e+000	 9.950206815530270e-003	 2.780704209039061e+001
1	 1.053145342807795e+000	 1.993821387648614e-002	 2.780093748759276e+001
1	 1.052907810157237e+000	 2.996286538957084e-002	 2.778402880619148e+001
1	 1.052573407939045e+000	 4.002297581473556e-002	 2.775620194813117e+001
1	 1.052141086216367e+000	 5.011732991903531e-002	 2.771734207857387e+001
1	 1.051609810459081e+000	 6.024468285560676e-002	 2.766733367661128e+001
1	 1.050978562394118e+000	 7.040376026835926e-002	 2.760606058982573e+001
1	 1.050246340862016e+000	 8.059325842294959e-002	 2.753340609279233e+001
1	 1.049412162678889e+000	 9.081184436458797e-002	 2.744925294960982e+001
1	 1.048475063502990e+000	 1.010581561031999e-001	 2.735348348054244e+001
1	 1.080001590045551e+000	 0.000000000000000e+000	 2.655988684409407e+001
1	 1.079953399371986e+000	 1.020211865827080e-002	 2.656384454854388e+001
1	 1.079808083636172e+000	 2.044299456059085e-002	 2.655833463144543e+001
1	 1.079564537312246e+000	 3.072144265210019e-002	 2.654319464447449e+001
1	 1.079221668949764e+000	 4.103624737807987e-002	 2.651826092470915e+001
1	 1.078778402030408e+000	 5.138616273917135e-002	 2.648336870502418e+001
1	 1.078233675832652e+000	 6.176991237235381e-002	 2.643835223047455e+001
1	 1.077586446303606e+000	 7.218618965828590e-002	 2.638304488071342e+001
1	 1.076835686937252e+000	 8.263365785559590e-002	 2.631727929847978e+001
1	 1.075980389658250e+000	 9.311095026268368e-002	 2.624088752417850e+001
1	 1.075019565710423e+000	 1.036166704075697e-001	 2.615370113656436e+001
1	 1.106669368959824e+000	 0.000000000000000e+000	 2.555206094599581e+001
1	 1.106619988345106e+000	 1.045403295711104e-002	 2.555178724460083e+001
1	 1.106471084421780e+000	 2.094778016622530e-002	 2.554334468705743e+001
1	 1.106221524365987e+000	 3.148002731063400e-002	 2.552652809213703e+001
1	 1.105870189776840e+000	 4.204952882065516e-002	 2.550112994672682e+001
1	 1.105415977554288e+000	 5.265500793021637e-002	 2.546694055355341e+001
1	 1.104857800785134e+000	 6.329515675983194e-002	 2.542374818746226e+001
1	 1.104194589636403e+000	 7.396863642659464e-002	 2.537133926030601e+001
1	 1.103425292255272e+000	 8.467407718178245e-002	 2.530949849447831e+001
1	 1.102548875674684e+000	 9.541007857665527e-002	 2.523800910511248e+001
1	 1.101564326723789e+000	 1.061752096569922e-001	 2.515665299094689e+001
1	 1.133337361209029e+000	 0.000000000000000e+000	 2.475439708845627e+001
1	 1.133286790643667e+000	 1.070594927120045e-002	 2.474670051097603e+001
1	 1.133134298504202e+000	 2.145256981001351e-002	 2.473215954923532e+001
1	 1.132878724668551e+000	 3.223861803764715e-002	 2.471053212441334e+001
1	 1.132518923785160e+000	 4.306281836921582e-002	 2.468157205136406e+001
1	 1.132053766172025e+000	 5.392386327168684e-002	 2.464502919868254e+001
1	 1.131482138724057e+000	 6.482041334885690e-002	 2.460064966021886e+001
1	 1.130802945827984e+000	 7.575109745399460e-002	 2.454817593815566e+001
1	 1.130015110283960e+000	 8.671451283076302e-002	 2.448734713774521e+001
1	 1.129117574233009e+000	 9.770922528301183e-002	 2.441789917378063e+001
1	 1.128109300089399e+000	 1.087337693740023e-001	 2.433956498885250e+001
1	 1.160005520124402e+000	 0.000000000000000e+000	 2.414457374502251e+001
1	 1.159953759600982e+000	 1.095786715968847e-002	 2.412663646263910e+001
1	 1.159797679223019e+000	 2.195736260857955e-002	 2.410315964951816e+001
1	 1.159536091570028e+000	 3.299721350561456e-002	 2.407386965079631e+001
1	 1.159167824339611e+000	 4.407611425051633e-002	 2.403848630026668e+001
1	 1.158691721267636e+000	 5.519272654309909e-002	 2.399672306881841e+001
1	 1.158106643056953e+000	 6.634567947024450e-002	 2.394828722753417e+001
1	 1.157411468313821e+000	 7.753356962119486e-002	 2.389288002567991e+001
1	 1.156605094491205e+000	 8.875496123179154e-002	 2.383019688379772e+001
1	 1.155686438838045e+000	 1.000083863582625e-001	 2.375992760208783e+001
1	 1.154654439353568e+000	 1.112923450811353e-001	 2.368175658423888e+001
1	 1.186673799037173e+000	 0.000000000000000e+000	 2.370227517283999e+001
1	 1.186620848550362e+000	 1.120978618172458e-002	 2.367161941070267e+001
1	 1.186461179917815e+000	 2.246215767854747e-002	 2.363666810366744e+001
1	 1.186193578420510e+000	 3.375581238701111e-002	 2.359712087480586e+001
1	 1.185816844805080e+000	 4.508941469131111e-002	 2.355266782443203e+001
1	 1.185329796225141e+000	 5.646159552396950e-002	 2.350298964387037e+001
1	 1.184731267191354e+000	 6.787095245481060e-002	 2.344775774740590e+001
1	 1.184020110529385e+000	 7.931604980890453e-002	 2.338663442282287e+001
1	 1.183195198344893e+000	 9.079541881412187e-002	 2.331927300091139e+001
1	 1.182255422994611e+000	 1.023075577789163e-001	 2.324531804429456e+001
1	 1.181199698062607e+000	 1.138509323009261e-001	 2.316440555589929e+001
1	 1.213342151278578e+000	 0.000000000000000e+000	 2.340897103035278e+001
1	 1.213288010825120e+000	 1.146170589645821e-002	 2.336342916972836e+001
1	 1.213124753928167e+000	 2.296695413654130e-002	 2.331473726077290e+001
1	 1.212851138570086e+000	 3.451441335431171e-002	 2.326257263201784e+001
1	 1.212465938546455e+000	 4.610271791835455e-002	 2.320659949347559e+001
1	 1.211967944428558e+000	 5.773046799381450e-002	 2.314646899353326e+001
1	 1.211355964534790e+000	 6.939622963337105e-002	 2.308181929786450e+001
1	 1.210628825910150e+000	 8.109853489783273e-002	 2.301227569098626e+001
1	 1.209785375312910e+000	 9.283588200700788e-002	 2.293745070106304e+001
1	 1.208824480207525e+000	 1.046067355214826e-001	 2.285694424853061e+001
1	 1.207745029762831e+000	 1.164095265559097e-001	 2.277034381908082e+001
1	 1.240010530179849e+000	 0.000000000000000e+000	 2.324772441555346e+001
1	 1.239955199758569e+000	 1.171362586303883e-002	 2.318541230976976e+001
1	 1.239788354593661e+000	 2.347175109918509e-002	 2.312096277903197e+001
1	 1.239508725368846e+000	 3.527301507999124e-002	 2.305403489510646e+001
1	 1.239115058928623e+000	 4.711602215840111e-002	 2.298427045127395e+001
1	 1.238606119261905e+000	 5.899934173215044e-002	 2.291129394091828e+001
1	 1.237980688494794e+000	 7.092150833674160e-002	 2.283471256227381e+001
1	 1.237237567891589e+000	 8.288102176868853e-002	 2.275411625023177e+001
1	 1.236375578863144e+000	 9.487634723970345e-002	 2.266907773607991e+001
1	 1.235393563981607e+000	 1.069059155624702e-001	 2.257915263602092e+001
1	 1.234290388000549e+000	 1.189681233686213e-001	 2.248387956928184e+001
1	 1.266678889072220e+000	 0.000000000000000e+000	 2.320302413877734e+001
1	 1.266622368684020e+000	 1.196554564061589e-002	 2.312231723722872e+001
1	 1.266451935253877e+000	 2.397654768310291e-002	 2.304032117385490e+001
1	 1.266166292166884e+000	 3.603161623652462e-002	 2.295668044452541e+001
1	 1.265764159316470e+000	 4.812932563820523e-002	 2.287101756089028e+001
1	 1.265244274109201e+000	 6.026821451849370e-002	 2.278293292993785e+001
1	 1.264605392478897e+000	 7.244678589573809e-002	 2.269200476415411e+001
1	 1.263846289909173e+000	 8.466350730218103e-002	 2.259778902350601e+001
1	 1.262965762463481e+000	 9.691681094146248e-002	 2.249981939044584e+001
1	 1.261962627821675e+000	 1.092050938783884e-001	 2.239760727910529e+001
1	 1.260835726322077e+000	 1.215267182615958e-001	 2.229064187981508e+001
1	 9.953870213206724e-001	 9.594122023947824e-002	 3.046448885442916e+001
1	 9.943989199946589e-001	 1.056922649420928e-001	 3.033055142039358e+001
1	 9.933113650226917e-001	 1.154669775827053e-001	 3.018320532953086e+001
1	 9.921235000424145e-001	 1.252640057452699e-001	 3.002233139014096e+001
1	 9.908344898374512e-001	 1.350819710464206e-001	 2.984782734500894e+001
1	 9.894435211587168e-001	 1.449194694473043e-001	 2.965960840687815e+001
1	 9.879498035443918e-001	 1.547750715930050e-001	 2.945760778246568e+001
1	 9.863525701375676e-001	 1.646473231798204e-001	 2.924177718373838e+001
1	 9.846510785005697e-001	 1.745347453506194e-001	 2.901208732515120e+001
1	 9.828446114249161e-001	 1.844358351184653e-001	 2.876852840554263e+001
1	 9.809324777358747e-001	 1.943490658186562e-001	 2.851111057337463e+001
1	 1.021930866555178e+000	 9.849967122134781e-002	 2.878113939781493e+001
1	 1.020916415669762e+000	 1.085107456576842e-001	 2.866209724784759e+001
1	 1.019799859022319e+000	 1.185461191814804e-001	 2.853124311549448e+001
1	 1.018580317413973e+000	 1.286044033119972e-001	 2.838843876602799e+001
1	 1.017256933355725e+000	 1.386841829087085e-001	 2.823355978911547e+001
1	 1.015828871911665e+000	 1.487840164914495e-001	 2.806649609149770e+001
1	 1.014295321540812e+000	 1.589024365888926e-001	 2.788715238178789e+001
1	 1.012655494936566e+000	 1.690379501156183e-001	 2.769544864628121e+001
1	 1.010908629862745e+000	 1.791890387780153e-001	 2.749132061465008e+001
1	 1.009053989985139e+000	 1.893541595092008e-001	 2.727472021438655e+001
1	 1.007090865697531e+000	 1.995317449331146e-001	 2.704561601284433e+001
1	 1.048475063502990e+000	 1.010581561031999e-001	 2.735348348054243e+001
1	 1.047434262709218e+000	 1.113292637187003e-001	 2.724677632899651e+001
1	 1.046288704002161e+000	 1.216253015794872e-001	 2.712974429994516e+001
1	 1.045037485346122e+000	 1.319448451396527e-001	 2.700222421607768e+001
1	 1.043679726979181e+000	 1.422864425010265e-001	 2.686406370435393e+001
1	 1.042214572278316e+000	 1.526486147416389e-001	 2.671512165597314e+001
1	 1.040641188623105e+000	 1.630298562732486e-001	 2.655526868216800e+001
1	 1.038958768256984e+000	 1.734286352282083e-001	 2.638438756487412e+001
1	 1.037166529144998e+000	 1.838433938759065e-001	 2.620237370130525e+001
1	 1.035263715826961e+000	 1.942725490689864e-001	 2.600913554144745e+001
1	 1.033249600264920e+000	 2.047144927194935e-001	 2.580459501747129e+001
1	 1.075019565710423e+000	 1.036166704075697e-001	 2.615370113656435e+001
1	 1.073952414705431e+000	 1.141478141926027e-001	 2.605667538365286e+001
1	 1.072777853605359e+000	 1.247045193880078e-001	 2.595071728403317e+001
1	 1.071494957537422e+000	 1.352853253822968e-001	 2.583563313633050e+001
1	 1.070102824466526e+000	 1.458887435192349e-001	 2.571123710432863e+001
1	 1.068600576082287e+000	 1.565132574346200e-001	 2.557735165385182e+001
1	 1.066987358684599e+000	 1.671573234228618e-001	 2.543380798930670e+001
1	 1.065262344066698e+000	 1.778193708336415e-001	 2.528044648907817e+001
1	 1.063424730394631e+000	 1.884978024988976e-001	 2.511711713895178e+001
1	 1.061473743082011e+000	 1.991909951903410e-001	 2.494367996271110e+001
1	 1.059408635658941e+000	 2.098973001076576e-001	 2.476000544903940e+001
1	 1.101564326723789e+000	 1.061752096569922e-001	 2.515665299094689e+001
1	 1.100470825250804e+000	 1.169663921468526e-001	 2.506657073116470e+001
1	 1.099267261475050e+000	 1.277837672183244e-001	 2.496886763259207e+001
1	 1.097952687686433e+000	 1.386258381939897e-001	 2.486331417566168e+001
1	 1.096526179576468e+000	 1.494910796591940e-001	 2.474968583977259e+001
1	 1.094986837147195e+000	 1.603779378071404e-001	 2.462776352629184e+001
1	 1.093333785618622e+000	 1.712848308145205e-001	 2.449733398517989e+001
1	 1.091566176333586e+000	 1.822101492479693e-001	 2.435819024456594e+001
1	 1.089683187658943e+000	 1.931522565015935e-001	 2.421013204257199e+001
1	 1.087684025881921e+000	 2.041094892657834e-001	 2.405296626065524e+001
1	 1.085567926100498e+000	 2.150801580274720e-001	 2.388650735771288e+001
1	 1.128109300089399e+000	 1.087337693740023e-001	 2.433956498885250e+001
1	 1.126989447937741e+000	 1.197849926489115e-001	 2.425361195908560e+001
1	 1.125756881254374e+000	 1.308630396817190e-001	 2.416128085238767e+001
1	 1.124410629491716e+000	 1.419663777287919e-001	 2.406230129710744e+001
1	 1.122949746067712e+000	 1.530934446167641e-001	 2.395640511995488e+001
1	 1.121373309296657e+000	 1.642426490959474e-001	 2.384332676395147e+001
1	 1.119680423318503e+000	 1.754123712250134e-001	 2.372280371409855e+001
1	 1.117870219025528e+000	 1.866009627872430e-001	 2.359457693020940e+001
1	 1.115941854985237e+000	 1.978067477385986e-001	 2.345839128631610e+001
1	 1.113894518358322e+000	 2.090280226878327e-001	 2.331399601602811e+001
1	 1.111727425810493e+000	 2.202630574088016e-001	 2.316114516318608e+001
1	 1.154654439353568e+000	 1.112923450811353e-001	 2.368175658423888e+001
1	 1.153508236358646e+000	 1.226036107662409e-001	 2.359704919772329e+001
1	 1.152246666586472e+000	 1.339423313894738e-001	 2.350714889898979e+001
1	 1.150868736651832e+000	 1.453069381407635e-001	 2.341173966664178e+001
1	 1.149373477698965e+000	 1.566958320878054e-001	 2.331050493596572e+001
1	 1.147759946354290e+000	 1.681073845377886e-001	 2.320312802031601e+001
1	 1.146027225677570e+000	 1.795399374311290e-001	 2.308929254444401e+001
1	 1.144174426110399e+000	 1.909918037675140e-001	 2.296868288932298e+001
1	 1.142200686420812e+000	 2.024612680645178e-001	 2.284098464798008e+001
1	 1.140105174642845e+000	 2.139465868490073e-001	 2.270588509180554e+001
1	 1.137887089009828e+000	 2.254459891815113e-001	 2.256307364676795e+001
1	 1.181199698062607e+000	 1.138509323009261e-001	 2.316440555589930e+001
1	 1.180027144105923e+000	 1.254222415663019e-001	 2.307799714521479e+001
1	 1.178736571114482e+000	 1.370216369528710e-001	 2.298753353761710e+001
1	 1.177326962865341e+000	 1.486475135839651e-001	 2.289264847921658e+001
1	 1.175797328228936e+000	 1.602982357681785e-001	 2.279297248399161e+001
1	 1.174146702143711e+000	 1.719721373694114e-001	 2.268813326678286e+001
1	 1.172374146589153e+000	 1.836675222096557e-001	 2.257775619258923e+001
1	 1.170478751556079e+000	 1.953826645048333e-001	 2.246146474181186e+001
1	 1.168459636012969e+000	 2.071158093339556e-001	 2.233888099104509e+001
1	 1.166315948867122e+000	 2.188651731418263e-001	 2.220962610896428e+001
1	 1.164046869919403e+000	 2.306289442754662e-001	 2.207332086681136e+001
1	 1.207745029762831e+000	 1.164095265559097e-001	 2.277034381908083e+001
1	 1.206546124771974e+000	 1.282408801165561e-001	 2.267923019242315e+001
1	 1.205226548481543e+000	 1.401009509831926e-001	 2.258516089134533e+001
1	 1.203785261830803e+000	 1.519880982124569e-001	 2.248771504264884e+001
1	 1.202221251416331e+000	 1.639006493537434e-001	 2.238646589951954e+001
1	 1.200533530488537e+000	 1.758369008275634e-001	 2.228098129402137e+001
1	 1.198721139946579e+000	 1.877951183373822e-001	 2.217082411038173e+001
1	 1.196783149330445e+000	 1.997735373152525e-001	 2.205555277879819e+001
1	 1.194718657809009e+000	 2.117703634015168e-001	 2.193472178944076e+001
1	 1.192526795162783e+000	 2.237837729588086e-001	 2.180788222626724e+001
1	 1.190206722760122e+000	 2.358119136205312e-001	 2.167458232021111e+001
1	 1.234290388000549e+000	 1.189681233686213e-001	 2.248387956928184e+001
1	 1.233065131949204e+000	 1.310595214844649e-001	 2.238500396857388e+001
1	 1.231716552330795e+000	 1.431802680917210e-001	 2.228424248442481e+001
1	 1.230243587246780e+000	 1.553286861802993e-001	 2.218111541649680e+001
1	 1.228645201019855e+000	 1.675030665403604e-001	 2.207513459162578e+001
1	 1.226920385212384e+000	 1.797016681489920e-001	 2.196580384344548e+001
1	 1.225068159643175e+000	 1.919227185910969e-001	 2.185261951742532e+001
1	 1.223087573401376e+000	 2.041644145148226e-001	 2.173507100112505e+001
1	 1.220977705856232e+000	 2.164249221218061e-001	 2.161264127940386e+001
1	 1.218737667661458e+000	 2.287023776924730e-001	 2.148480751425697e+001
1	 1.216366601752886e+000	 2.409948881465710e-001	 2.135104164888499e+001
1	 1.260835726322077e+000	 1.215267182615958e-001	 2.229064187981508e+001
1	 1.259584119230017e+000	 1.338781607374896e-001	 2.218089941617300e+001
1	 1.258206536305377e+000	 1.462595828897382e-001	 2.207031887829676e+001
1	 1.256701892811832e+000	 1.586692716415527e-001	 2.195835769469434e+001
1	 1.255069130798217e+000	 1.711054810238902e-001	 2.184446225947643e+001
1	 1.253307220138871e+000	 1.835664325704446e-001	 2.172806844650336e+001
1	 1.251415159572273e+000	 1.960503157475885e-001	 2.160860215370171e+001
1	 1.249391977736748e+000	 2.085552884195949e-001	 2.148547987741535e+001
1	 1.247236734201940e+000	 2.210794773494281e-001	 2.135810931658188e+001
1	 1.244948520494780e+000	 2.336209787353382e-001	 2.122589000645056e+001
1	 1.242526461118596e+000	 2.461778587834510e-001	 2.108821398148079e+001
1	 9.809324777358747e-001	 1.943490658186562e-001	 2.851111057337463e+001
1	 9.789137024229728e-001	 2.042743766435053e-001	 2.824080761311418e+001
1	 9.767879280981021e-001	 2.142087061355223e-001	 2.795866103195609e+001
1	 9.745545470450379e-001	 2.241504565049763e-001	 2.766469232426030e+001
1	 9.722129807570792e-001	 2.340980083161345e-001	 2.735894129473911e+001
1	 9.697626806991601e-001	 2.440497210832210e-001	 2.704146644194265e+001
1	 9.672031290579123e-001	 2.540039338948809e-001	 2.671234532279657e+001
1	 9.645338394785437e-001	 2.639589660669880e-001	 2.637167489701446e+001
1	 9.617543577873684e-001	 2.739131178235835e-001	 2.601957185022217e+001
1	 9.588642626988490e-001	 2.838646710056856e-001	 2.565617289464687e+001
1	 9.558631665059840e-001	 2.938118898076575e-001	 2.528163504624504e+001
1	 1.007090865697531e+000	 1.995317449331146e-001	 2.704561601284433e+001
1	 1.005018255988954e+000	 2.097217326205241e-001	 2.680491604466539e+001
1	 1.002835793940865e+000	 2.199209794745262e-001	 2.655359830183815e+001
1	 1.000542855631143e+000	 2.301278450974099e-001	 2.629165583450471e+001
1	 9.981388471261151e-001	 2.403406668682315e-001	 2.601909899746860e+001
1	 9.956232052629930e-001	 2.505577605546663e-001	 2.573595584729263e+001
1	 9.929953984199389e-001	 2.607774209541257e-001	 2.544227252188276e+001
1	 9.902549272725891e-001	 2.709979225639719e-001	 2.513811360138617e+001
1	 9.874013255358587e-001	 2.812175202806164e-001	 2.482356244924156e+001
1	 9.844341606898323e-001	 2.914344501272308e-001	 2.449872153223149e+001
1	 9.813530346885656e-001	 3.016469300097511e-001	 2.416371271840682e+001
1	 1.033249600264920e+000	 2.047144927194935e-001	 2.580459501747129e+001
1	 1.031123155447073e+000	 2.151691607766280e-001	 2.558965191771425e+001
1	 1.028884004924326e+000	 2.256333285029850e-001	 2.536527819824243e+001
1	 1.026531508568457e+000	 2.361053128922975e-001	 2.513143176977456e+001
1	 1.024065057018631e+000	 2.465834081378281e-001	 2.488808684677934e+001
1	 1.021484072484157e+000	 2.570658862601133e-001	 2.463523436807006e+001
1	 1.018788009534555e+000	 2.675509977647321e-001	 2.437288240152899e+001
1	 1.015976355875734e+000	 2.780369723299311e-001	 2.410105653177900e+001
1	 1.013048633111059e+000	 2.885220195238799e-001	 2.381980022962572e+001
1	 1.010004397486102e+000	 2.990043295512846e-001	 2.352917520210372e+001
1	 1.006843240615852e+000	 3.094820740290298e-001	 2.322926172197337e+001
1	 1.059408635658941e+000	 2.098973001076576e-001	 2.476000544903940e+001
1	 1.057228355112487e+000	 2.206166515784633e-001	 2.456703637103286e+001
1	 1.054932515462900e+000	 2.313457432239041e-001	 2.436578991596752e+001
1	 1.052520460375683e+000	 2.420828494286582e-001	 2.415618251399178e+001
1	 1.049991565062670e+000	 2.528262211996881e-001	 2.393814590181578e+001
1	 1.047345237105108e+000	 2.635740868098780e-001	 2.371162757633779e+001
1	 1.044580917263728e+000	 2.743246524724556e-001	 2.347659123424708e+001
1	 1.041698080274572e+000	 2.850761030460262e-001	 2.323301719639578e+001
1	 1.038696235629327e+000	 2.958266027699860e-001	 2.298090281573513e+001
1	 1.035574928338934e+000	 3.065742960300392e-001	 2.272026286761608e+001
1	 1.032333739679205e+000	 3.173173081534752e-001	 2.245112992126275e+001
1	 1.085567926100498e+000	 2.150801580274720e-001	 2.388650735771288e+001
1	 1.083333809300356e+000	 2.260641954926754e-001	 2.371178665463931e+001
1	 1.080981279971006e+000	 2.370582136402892e-001	 2.352991222351621e+001
1	 1.078509665571524e+000	 2.480604442455112e-001	 2.334075299263127e+001
1	 1.075918325886272e+000	 2.590690951285747e-001	 2.314419220241398e+001
1	 1.073206653868300e+000	 2.700823508142762e-001	 2.294012790131287e+001
1	 1.070374076469423e+000	 2.810983732230515e-001	 2.272847342969287e+001
1	 1.067420055455696e+000	 2.921153023934179e-001	 2.250915789050899e+001
1	 1.064344088207020e+000	 3.031312572355475e-001	 2.228212660550851e+001
1	 1.061145708499603e+000	 3.141443363156863e-001	 2.204734155571350e+001
1	 1.057824487269989e+000	 3.251526186710684e-001	 2.180478180493902e+001
1	 1.111727425810493e+000	 2.202630574088016e-001	 2.316114516318608e+001
1	 1.109439472325838e+000	 2.315117829859109e-001	 2.300099902484810e+001
1	 1.107030252863060e+000	 2.427707297551455e-001	 2.283479712617660e+001
1	 1.104499078674683e+000	 2.540380868818758e-001	 2.266235516197645e+001
1	 1.101845294117478e+000	 2.653120189992516e-001	 2.248350214667790e+001
1	 1.099068277516187e+000	 2.765906668836241e-001	 2.229808096139602e+001
1	 1.096167442013604e+000	 2.878721481622747e-001	 2.210594889124845e+001
1	 1.093142236405699e+000	 2.991545580532664e-001	 2.190697815163685e+001
1	 1.089992145960496e+000	 3.104359701371768e-001	 2.170105640218841e+001
1	 1.086716693219385e+000	 3.217144371604181e-001	 2.148808724704639e+001
1	 1.083315438779566e+000	 3.329879918697909e-001	 2.126799072019617e+001
1	 1.137887089009828e+000	 2.254459891815113e-001	 2.256307364676795e+001
1	 1.135545298504095e+000	 2.369594045248153e-001	 2.241387535184551e+001
1	 1.133079388553482e+000	 2.484832815714788e-001	 2.225969713575610e+001
1	 1.130488654203866e+000	 2.600157668767713e-001	 2.210029599114138e+001
1	 1.127772424384331e+000	 2.715549818864824e-001	 2.193544123886870e+001
1	 1.124930062791226e+000	 2.830990236282377e-001	 2.176491513494484e+001
1	 1.121960968758237e+000	 2.946459654358806e-001	 2.158851347011510e+001
1	 1.118864578111176e+000	 3.061938577067329e-001	 2.140604616079114e+001
1	 1.115640364006114e+000	 3.177407286914862e-001	 2.121733782993399e+001
1	 1.112287837749558e+000	 3.292845853164264e-001	 2.102222837650475e+001
1	 1.108806549599299e+000	 3.408234140376239e-001	 2.082057353208554e+001
1	 1.164046869919403e+000	 2.306289442754662e-001	 2.207332086681136e+001
1	 1.161651242150283e+000	 2.424070505760348e-001	 2.193148656767070e+001
1	 1.159128641456689e+000	 2.541958590922946e-001	 2.178572929149421e+001
1	 1.156478346677774e+000	 2.659934737692165e-001	 2.163574209928873e+001
1	 1.153699671314873e+000	 2.777979728650303e-001	 2.148122938928809e+001
1	 1.150791964435869e+000	 2.896074096584329e-001	 2.132190757215565e+001
1	 1.147754611565289e+000	 3.014198131896246e-001	 2.115750574148591e+001
1	 1.144587035558720e+000	 3.132331890349774e-001	 2.098776633817374e+001
1	 1.141288697460231e+000	 3.250455201150880e-001	 2.081244580719445e+001
1	 1.137859097341395e+000	 3.368547675359032e-001	 2.063131524531764e+001
1	 1.134297775120553e+000	 3.486588714625484e-001	 2.044416103825875e+001
1	 1.190206722760122e+000	 2.358119136205312e-001	 2.167458232021111e+001
1	 1.187757257579563e+000	 2.478547116062153e-001	 2.153656729007963e+001
1	 1.185177965987098e+000	 2.599084523205985e-001	 2.139567028134984e+001
1	 1.182468110615112e+000	 2.719711970982310e-001	 2.125151541199864e+001
1	 1.179626989537143e+000	 2.840409810096590e-001	 2.110373714597805e+001
1	 1.176653937192574e+000	 2.961158135845260e-001	 2.095198104492576e+001
1	 1.173548325296723e+000	 3.081936795692618e-001	 2.079590451797134e+001
1	 1.170309563734924e+000	 3.202725397191609e-001	 2.063517756811937e+001
1	 1.166937101439205e+000	 3.323503316245950e-001	 2.046948353365802e+001
1	 1.163430427246173e+000	 3.444249705710406e-001	 2.029851982301156e+001
1	 1.159789070734689e+000	 3.564943504325457e-001	 2.012199864142913e+001
1	 1.216366601752886e+000	 2.409948881465710e-001	 2.135104164888499e+001
1	 1.213863299107094e+000	 2.533023780820027e-001	 2.121333693176523e+001
1	 1.211227316559127e+000	 2.656210512593958e-001	 2.107377798449769e+001
1	 1.208457900534584e+000	 2.779489264028339e-001	 2.093191516984248e+001
1	 1.205554333679185e+000	 2.902839953951322e-001	 2.078730820443147e+001
1	 1.202515935803794e+000	 3.026242240168329e-001	 2.063952699500920e+001
1	 1.199342064814506e+000	 3.149675527205473e-001	 2.048815247574537e+001
1	 1.196032117626381e+000	 3.273118974404437e-001	 2.033277744500212e+001
1	 1.192585531059394e+000	 3.396551504366193e-001	 2.017300739989677e+001
1	 1.189001782715169e+000	 3.519951811740304e-001	 2.000846136696153e+001
1	 1.185280391833071e+000	 3.643298372355973e-001	 1.983877272716651e+001
1	 1.242526461118596e+000	 2.461778587834510e-001	 2.108821398148078e+001
1	 1.239969321048035e+000	 2.587500404700431e-001	 2.094734339395974e+001
1	 1.237276647587192e+000	 2.713336459116922e-001	 2.080563554350749e+001
1	 1.234447670954891e+000	 2.839266512220444e-001	 2.066256240779932e+001
1	 1.231481658369039e+000	 2.965270050962132e-001	 2.051760432487899e+001
1	 1.228377915011984e+000	 3.091326295656696e-001	 2.037025092177186e+001
1	 1.225135784980603e+000	 3.217414207892365e-001	 2.022000204732246e+001
1	 1.221754652219686e+000	 3.343512498799867e-001	 2.006636870753061e+001
1	 1.218233941437156e+000	 3.469599637677736e-001	 1.990887400160603e+001
1	 1.214573118999657e+000	 3.595653860970647e-001	 1.974705405691397e+001
1	 1.210771693807061e+000	 3.721653181596841e-001	 1.958045896093847e+001
1	 9.558631665059840e-001	 2.938118898076575e-001	 2.528163504624504e+001
1	 9.527507155138414e-001	 3.037530213952426e-001	 2.489638798464121e+001
1	 9.495265899749483e-001	 3.136862962449286e-001	 2.450091290641598e+001
1	 9.461905054388915e-001	 3.236099293720238e-001	 2.409548504220209e+001
1	 9.427422136050960e-001	 3.335221213151299e-001	 2.368041395143927e+001
1	 9.391815029145866e-001	 3.434210590039753e-001	 2.325604379669361e+001
1	 9.355081991183116e-001	 3.533049166519174e-001	 2.282275356740029e+001
1	 9.317221658209343e-001	 3.631718566724364e-001	 2.238095725147379e+001
1	 9.278233049990163e-001	 3.730200306188906e-001	 2.193110395331881e+001
1	 9.238115574925392e-001	 3.828475801467559e-001	 2.147367795686855e+001
1	 9.196869034687286e-001	 3.926526379975133e-001	 2.100919873237939e+001
1	 9.813530346885656e-001	 3.016469300097511e-001	 2.416371271840682e+001
1	 9.781575844051821e-001	 3.118531603513708e-001	 2.381925835480976e+001
1	 9.748474815655586e-001	 3.220513244408870e-001	 2.346612109186282e+001
1	 9.714224341338947e-001	 3.322395896935919e-001	 2.310451995059019e+001
1	 9.678821871882342e-001	 3.424161086620216e-001	 2.273470349764482e+001
1	 9.642265235280022e-001	 3.525790199269325e-001	 2.235695010946168e+001
1	 9.604552642574868e-001	 3.627264490136036e-001	 2.197156819318593e+001
1	 9.565682693441295e-001	 3.728565093327700e-001	 2.157889636298382e+001
1	 9.525654381505310e-001	 3.829673031454391e-001	 2.117930357041961e+001
1	 9.484467099390737e-001	 3.930569225507893e-001	 2.077318918766079e+001
1	 9.442120643481219e-001	 4.031234504962961e-001	 2.036098304235947e+001
1	 1.006843240615852e+000	 3.094820740290298e-001	 2.322926172197337e+001
1	 1.003564789941372e+000	 3.199534066371333e-001	 2.292096845677704e+001
1	 1.000168708661770e+000	 3.304164634760867e-001	 2.260523783267775e+001
1	 9.966546971557494e-001	 3.408693643605512e-001	 2.228223397573050e+001
1	 9.930224938798730e-001	 3.513102138563777e-001	 2.195214672158182e+001
1	 9.892718759918836e-001	 3.617371021947264e-001	 2.161519188218265e+001
1	 9.854026599493357e-001	 3.721481062121692e-001	 2.127161147529728e+001
1	 9.814147020823928e-001	 3.825412903160630e-001	 2.092167391553217e+001
1	 9.773078991396468e-001	 3.929147074744280e-001	 2.056567416566811e+001
1	 9.730821888058523e-001	 4.032664002295056e-001	 2.020393384714878e+001
1	 9.687375501904938e-001	 4.135944017341220e-001	 1.983680130865017e+001
1	 1.032333739679205e+000	 3.173173081534752e-001	 2.245112992126275e+001
1	 1.028972287659047e+000	 3.280537460765929e-001	 2.217451715080752e+001
1	 1.025490226950689e+000	 3.387816987110449e-001	 2.189146933527201e+001
1	 1.021887250347247e+000	 3.494992382703296e-001	 2.160209690231005e+001
1	 1.018163089683721e+000	 3.602044213330747e-001	 2.130653304926777e+001
1	 1.014317516476093e+000	 3.708952897803031e-001	 2.100493402460740e+001
1	 1.010350342535127e+000	 3.815698717593335e-001	 2.069747937687910e+001
1	 1.006261420553655e+000	 3.922261826735969e-001	 2.038437217002856e+001
1	 1.002050644666225e+000	 4.028622261975743e-001	 2.006583916388151e+001
1	 9.977179509799359e-001	 4.134759953160150e-001	 1.974213095870267e+001
1	 9.932633180753755e-001	 4.240654733865391e-001	 1.941352210279006e+001
1	 1.057824487269989e+000	 3.251526186710684e-001	 2.180478180493902e+001
1	 1.054380033094837e+000	 3.361541644938118e-001	 2.155550538840885e+001
1	 1.050811992119420e+000	 3.471470155062801e-001	 2.130060393254714e+001
1	 1.047120049551180e+000	 3.581291963203556e-001	 2.104013525645084e+001
1	 1.043303930603482e+000	 3.690987155269895e-001	 2.077417785906308e+001
1	 1.039363401150493e+000	 3.800535666566078e-001	 2.050283122694311e+001
1	 1.035298268356127e+000	 3.909917291668158e-001	 2.022621611311634e+001
1	 1.031108381275849e+000	 4.019111694566532e-001	 1.994447478581213e+001
1	 1.026793631430127e+000	 4.128098419065946e-001	 1.965777124594144e+001
1	 1.022353953348383e+000	 4.236856899434282e-001	 1.936629141221634e+001
1	 1.017789325082299e+000	 4.345366471290957e-001	 1.907024327286721e+001
1	 1.083315438779566e+000	 3.329879918697909e-001	 2.126799072019617e+001
1	 1.079787981785381e+000	 3.442546477128530e-001	 2.104183015437556e+001
1	 1.076133959855069e+000	 3.555123992223094e-001	 2.081070837254620e+001
1	 1.072353050610339e+000	 3.667592234080572e-001	 2.057463157838098e+001
1	 1.068444972642865e+000	 3.779930808729982e-001	 2.033362537386347e+001
1	 1.064409486184943e+000	 3.892119167965864e-001	 2.008773510457024e+001
1	 1.060246393753604e+000	 4.004136619463352e-001	 1.983702617839380e+001
1	 1.055955540766905e+000	 4.115962337165134e-001	 1.958158435648888e+001
1	 1.051536816131212e+000	 4.227575371932062e-001	 1.932151601526317e+001
1	 1.046990152798253e+000	 4.338954662448556e-001	 1.905694837827758e+001
1	 1.042315528290796e+000	 4.450079046373393e-001	 1.878802971696881e+001
1	 1.108806549599299e+000	 3.408234140376239e-001	 2.082057353208554e+001
1	 1.105196089267310e+000	 3.523551815577792e-001	 2.061342059855080e+001
1	 1.101456085844741e+000	 3.638778352196508e-001	 2.040186597334685e+001
1	 1.097586209367518e+000	 3.753893044308631e-001	 2.018586515000545e+001
1	 1.093586171805575e+000	 3.868875018059776e-001	 1.996539250924556e+001
1	 1.089455727749307e+000	 3.983703241731845e-001	 1.974044171250846e+001
1	 1.085194675068824e+000	 4.098356536096109e-001	 1.951102607016567e+001
1	 1.080802855544754e+000	 4.212813585044585e-001	 1.927717888311468e+001
1	 1.076280155469341e+000	 4.327052946491252e-001	 1.903895375651042e+001
1	 1.071626506216607e+000	 4.441053063534078e-001	 1.879642488442187e+001
1	 1.066841884780397e+000	 4.554792275868185e-001	 1.854968730424639e+001
1	 1.134297775120553e+000	 3.486588714625484e-001	 2.044416103825875e+001
1	 1.130604311077259e+000	 3.604557518526529e-001	 2.025200972459005e+001
1	 1.126778325775542e+000	 3.722433088588220e-001	 2.005595006233449e+001
1	 1.122819481665506e+000	 3.840194242862013e-001	 1.985588766018193e+001
1	 1.118727484095319e+000	 3.957819627608041e-001	 1.965174723881201e+001
1	 1.114502082013446e+000	 4.075287727593477e-001	 1.944347308303482e+001
1	 1.110143068643055e+000	 4.192576876683624e-001	 1.923102946874883e+001
1	 1.105650282127328e+000	 4.309665268717704e-001	 1.901440106331869e+001
1	 1.101023606144375e+000	 4.426530968660690e-001	 1.879359329801018e+001
1	 1.096262970490503e+000	 4.543151924021958e-001	 1.856863271115571e+001
1	 1.091368351630633e+000	 4.659505976530814e-001	 1.833956726076876e+001
1	 1.159789070734689e+000	 3.564943504325457e-001	 2.012199864142913e+001
1	 1.156012602751863e+000	 3.685563444215371e-001	 1.994093616853711e+001
1	 1.152100635334577e+000	 3.806088055003410e-001	 1.975642727458361e+001
1	 1.148052823347096e+000	 3.926495678714999e-001	 1.956832843573406e+001
1	 1.143868865515805e+000	 4.046764481723542e-001	 1.937651616942409e+001
1	 1.139548505147221e+000	 4.166872465280218e-001	 1.918088755510699e+001
1	 1.135091530817564e+000	 4.286797476343087e-001	 1.898136072890812e+001
1	 1.130497777032559e+000	 4.406517218697299e-001	 1.877787535063820e+001
1	 1.125767124856174e+000	 4.526009264357540e-001	 1.857039304165120e+001
1	 1.120899502507002e+000	 4.645251065243294e-001	 1.835889779206956e+001
1	 1.115894885921037e+000	 4.764219965116759e-001	 1.814339633594382e+001
1	 1.185280391833071e+000	 3.643298372355973e-001	 1.983877272716651e+001
1	 1.181420919827755e+000	 3.766569450884943e-001	 1.966497154008927e+001
1	 1.177422970208952e+000	 3.889743105047254e-001	 1.948818621793461e+001
1	 1.173286190255080e+000	 4.012797200841873e-001	 1.930822478992744e+001
1	 1.169010272070738e+000	 4.135709424755045e-001	 1.912491693158677e+001
1	 1.164594953320496e+000	 4.258457294521522e-001	 1.893811456375784e+001
1	 1.160040017933619e+000	 4.381018170191692e-001	 1.874769242362027e+001
1	 1.155345296778378e+000	 4.503369265496192e-001	 1.855354860593381e+001
1	 1.150510668304600e+000	 4.625487659498976e-001	 1.835560507281812e+001
1	 1.145536059153163e+000	 4.747350308529197e-001	 1.815380813040238e+001
1	 1.140421444731140e+000	 4.868934058381502e-001	 1.794812887072687e+001
1	 1.210771693807061e+000	 3.721653181596841e-001	 1.958045896093847e+001
1	 1.206829217841571e+000	 3.847575396775871e-001	 1.941016956147477e+001
1	 1.202745286085772e+000	 3.973398092324930e-001	 1.923738776855622e+001
1	 1.198519538232249e+000	 4.099098658216918e-001	 1.906187378890867e+001
1	 1.194151659763825e+000	 4.224654301051314e-001	 1.888341173001232e+001
1	 1.189641382703130e+000	 4.350042055046847e-001	 1.870181028680155e+001
1	 1.184988486332486e+000	 4.475238793346628e-001	 1.851690339741881e+001
1	 1.180192797882715e+000	 4.600221239627187e-001	 1.832855086605528e+001
1	 1.175254193189512e+000	 4.724965980002161e-001	 1.813663895094904e+001
1	 1.170172597316046e+000	 4.849449475210771e-001	 1.794108091565411e+001
1	 1.164947985140473e+000	 4.973648073080526e-001	 1.774181754174535e+001
1	 9.196869034687286e-001	 3.926526379975133e-001	 2.100919873237939e+001
1	 9.154500070382964e-001	 4.024318639757796e-001	 2.053939789762355e+001
1	 9.111003186645378e-001	 4.121848497096857e-001	 2.006568715345754e+001
1	 9.066379396471510e-001	 4.219097086716465e-001	 1.958834792251570e+001
1	 9.020630121438826e-001	 4.316045495771123e-001	 1.910766816676538e+001
1	 8.973757194803052e-001	 4.412674774614075e-001	 1.862394229992026e+001
1	 8.925762864264074e-001	 4.508965947721493e-001	 1.813747109034795e+001
1	 8.876649794392210e-001	 4.604900024760815e-001	 1.764856155441109e+001
1	 8.826421068707412e-001	 4.700458011791232e-001	 1.715752684019931e+001
1	 8.775080191404553e-001	 4.795620922583880e-001	 1.666468610162790e+001
1	 8.722631088718381e-001	 4.890369790048946e-001	 1.617036436290176e+001
1	 9.442120643481219e-001	 4.031234504962961e-001	 2.036098304235947e+001
1	 9.398621831981485e-001	 4.131634577139968e-001	 1.994372403243597e+001
1	 9.353965022980482e-001	 4.231765249420750e-001	 1.952223861545929e+001
1	 9.308151256488799e-001	 4.331607153452563e-001	 1.909685567675370e+001
1	 9.261181991993086e-001	 4.431140872044483e-001	 1.866791477838344e+001
1	 9.213059111636404e-001	 4.530346950222970e-001	 1.823576599983534e+001
1	 9.163784923057911e-001	 4.629205906447350e-001	 1.780076976057142e+001
1	 9.113362161883818e-001	 4.727698243973318e-001	 1.736329662442923e+001
1	 9.061793993862046e-001	 4.825804462352117e-001	 1.692372708588845e+001
1	 9.009084016633495e-001	 4.923505069052576e-001	 1.648245133826591e+001
1	 8.955236261133457e-001	 5.020780591192977e-001	 1.603986902394313e+001
1	 9.687375501904938e-001	 4.135944017341220e-001	 1.983680130865017e+001
1	 9.642746828240307e-001	 4.238951936465678e-001	 1.946483397940268e+001
1	 9.596930078607578e-001	 4.341683458149260e-001	 1.908846495486366e+001
1	 9.549926320031290e-001	 4.444118710955526e-001	 1.870805344561258e+001
1	 9.501737049907746e-001	 4.546237773341320e-001	 1.832397309693176e+001
1	 9.452364199267954e-001	 4.648020684999468e-001	 1.793661178057888e+001
1	 9.401810135691121e-001	 4.749447458365617e-001	 1.754637136072634e+001
1	 9.350077665860249e-001	 4.850498090276872e-001	 1.715366743404934e+001
1	 9.297170037752286e-001	 4.951152573769659e-001	 1.675892904400833e+001
1	 9.243090942455402e-001	 5.051390910003677e-001	 1.636259836943190e+001
1	 9.187844515606748e-001	 5.151193120298432e-001	 1.596513038757067e+001
1	 9.932633180753755e-001	 4.240654733865391e-001	 1.941352210279006e+001
1	 9.886874631931889e-001	 4.346270529926760e-001	 1.908026105128936e+001
1	 9.839897928328978e-001	 4.451602930922763e-001	 1.874254208344610e+001
1	 9.791704163983789e-001	 4.556631562327355e-001	 1.840073892084452e+001
1	 9.742294874202677e-001	 4.661335998239209e-001	 1.805524312537933e+001
1	 9.691672038905157e-001	 4.765695773011598e-001	 1.770646386390871e+001
1	 9.639838085611113e-001	 4.869690393050530e-001	 1.735482764024335e+001
1	 9.586795892061150e-001	 4.973299348768570e-001	 1.700077799442671e+001
1	 9.532548788462155e-001	 5.076502126681390e-001	 1.664477516934161e+001
1	 9.477100559350589e-001	 5.179278221633580e-001	 1.628729574475722e+001
1	 9.420455445066669e-001	 5.281607149139946e-001	 1.592883223901254e+001
1	 1.017789325082299e+000	 4.345366471290957e-001	 1.907024327286721e+001
1	 1.013100481582870e+000	 4.453590169715063e-001	 1.876970378231412e+001
1	 1.008286814694700e+000	 4.561523475381651e-001	 1.846474921250094e+001
1	 1.003348436523110e+000	 4.669145510670051e-001	 1.815575317735477e+001
1	 9.982855043897772e-001	 4.776435345315741e-001	 1.784311020884396e+001
1	 9.930982211755461e-001	 4.883372008327391e-001	 1.752723551537213e+001
1	 9.877868356265308e-001	 4.989934500076330e-001	 1.720856470150602e+001
1	 9.823516426226164e-001	 5.096101804545525e-001	 1.688755344893465e+001
1	 9.767929834075642e-001	 5.201852901724832e-001	 1.656467715865040e+001
1	 9.711112457799381e-001	 5.307166780138687e-001	 1.624043055443778e+001
1	 9.653068642441641e-001	 5.412022449492143e-001	 1.591532724785223e+001
1	 1.042315528290796e+000	 4.450079046373393e-001	 1.878802971696881e+001
1	 1.037513695270321e+000	 4.560910668022424e-001	 1.851477123314750e+001
1	 1.032584030926394e+000	 4.671444899166304e-001	 1.823722143845776e+001
1	 1.027526650065803e+000	 4.781660359085613e-001	 1.795574030349208e+001
1	 1.022341713801290e+000	 4.891535613148496e-001	 1.767071148891455e+001
1	 1.017029429902632e+000	 5.001049185014880e-001	 1.738254211761275e+001
1	 1.011590053110111e+000	 5.110179569017253e-001	 1.709166250297150e+001
1	 1.006023885409494e+000	 5.218905242704837e-001	 1.679852583307643e+001
1	 1.000331276267676e+000	 5.327204679537507e-001	 1.650360781076144e+001
1	 9.945126228282096e-001	 5.435056361715400e-001	 1.620740624952153e+001
1	 9.885683700660080e-001	 5.542438793129652e-001	 1.591044062542226e+001
1	 1.066841884780397e+000	 4.554792275868185e-001	 1.854968730424638e+001
1	 1.061927061532788e+000	 4.668231837040687e-001	 1.829876340531300e+001
1	 1.056881399008212e+000	 4.781367009917106e-001	 1.804373643427324e+001
1	 1.051705014714938e+000	 4.894175910676042e-001	 1.778494016601511e+001
1	 1.046398073556794e+000	 5.006636600315061e-001	 1.752273455196506e+001
1	 1.040960788192517e+000	 5.118727097142092e-001	 1.725750552524994e+001
1	 1.035393419356594e+000	 5.230425389447538e-001	 1.698966475752217e+001
1	 1.029696276140712e+000	 5.341709448343606e-001	 1.671964936713739e+001
1	 1.023869716234950e+000	 5.452557240756947e-001	 1.644792157848961e+001
1	 1.017914146127906e+000	 5.562946742560117e-001	 1.617496833242699e+001
1	 1.011830021265040e+000	 5.672855951827097e-001	 1.590130084779201e+001
1	 1.091368351630633e+000	 4.659505976530814e-001	 1.833956726076876e+001
1	 1.086340537647517e+000	 4.775553488961693e-001	 1.810648124537962e+001
1	 1.081178876420385e+000	 4.891289615274444e-001	 1.786952988477282e+001
1	 1.075883488158995e+000	 5.006691968543336e-001	 1.762900910057664e+001
1	 1.070454541558279e+000	 5.121738105393018e-001	 1.738524321018819e+001
1	 1.064892254165948e+000	 5.236405538777059e-001	 1.713858478350168e+001
1	 1.059196892710721e+000	 5.350671750941420e-001	 1.688941444756178e+001
1	 1.053368773390236e+000	 5.464514206558941e-001	 1.663814063868392e+001
1	 1.047408262117787e+000	 5.577910366020672e-001	 1.638519930170661e+001
1	 1.041315774727059e+000	 5.690837698869241e-001	 1.613105353616693e+001
1	 1.035091777134104e+000	 5.803273697359112e-001	 1.587619318932027e+001
1	 1.115894885921037e+000	 4.764219965116759e-001	 1.814339633594382e+001
1	 1.110754080891756e+000	 4.882875435977283e-001	 1.792406168926523e+001
1	 1.105476420643145e+000	 5.001212522878700e-001	 1.770113524631585e+001
1	 1.100062028086456e+000	 5.119208335789502e-001	 1.747486423394043e+001
1	 1.094511075707730e+000	 5.236839926959949e-001	 1.724552624346283e+001
1	 1.088823785943670e+000	 5.354084303987813e-001	 1.701342915690182e+001
1	 1.083000431517234e+000	 5.470918443073142e-001	 1.677891101806457e+001
1	 1.077041335732030e+000	 5.587319302447943e-001	 1.654233984788460e+001
1	 1.070946872724587e+000	 5.703263835966207e-001	 1.630411340349854e+001
1	 1.064717467673700e+000	 5.818729006839174e-001	 1.606465888068870e+001
1	 1.058353596966040e+000	 5.933691801500316e-001	 1.582443255945491e+001
1	 1.140421444731140e+000	 4.868934058381502e-001	 1.794812887072687e+001
1	 1.135167648542750e+000	 4.990197490279299e-001	 1.773883397927353e+001
1	 1.129773989156722e+000	 5.111135540370256e-001	 1.752624417109939e+001
1	 1.124240592185799e+000	 5.231724815516531e-001	 1.731054788244876e+001
1	 1.118567633907137e+000	 5.351941863593439e-001	 1.709196564751311e+001
1	 1.112755341646426e+000	 5.471763186842383e-001	 1.687075011147530e+001
1	 1.106803994120874e+000	 5.591165255416938e-001	 1.664718598604861e+001
1	 1.100713921740058e+000	 5.710124521107712e-001	 1.642158994667310e+001
1	 1.094485506863751e+000	 5.828617431231077e-001	 1.619431047066420e+001
1	 1.088119184015863e+000	 5.946620442666314e-001	 1.596572761574485e+001
1	 1.081615440053690e+000	 6.064110036025346e-001	 1.573625273853317e+001
1	 1.164947985140473e+000	 4.973648073080526e-001	 1.774181754174535e+001
1	 1.159581197877747e+000	 5.097519464059583e-001	 1.753919412064603e+001
1	 1.154071539441347e+000	 5.221058475389500e-001	 1.733358455244783e+001
1	 1.148419138145507e+000	 5.344241210826426e-001	 1.712510906974998e+001
1	 1.142624174058487e+000	 5.467043713871074e-001	 1.691392151531523e+001
1	 1.136686879394964e+000	 5.589441981408801e-001	 1.670020945875341e+001
1	 1.130607538866382e+000	 5.711411977547047e-001	 1.648419425395446e+001
1	 1.124386489988285e+000	 5.832929647635357e-001	 1.626613103620420e+001
1	 1.118024123343679e+000	 5.953970932452810e-001	 1.604630865804844e+001
1	 1.111520882801578e+000	 6.074511782547065e-001	 1.582504956310988e+001
1	 1.104877265689896e+000	 6.194528172708822e-001	 1.560270959720607e+001
1	 8.722631088718381e-001	 4.890369790048946e-001	 1.617036436290176e+001
1	 8.669069994773564e-001	 4.984699794031350e-001	 1.567387583615426e+001
1	 8.614409475685219e-001	 5.078577791162043e-001	 1.517517526375119e+001
1	 8.558654737743154e-001	 5.171984938406529e-001	 1.467535715012937e+001
1	 8.501811411206635e-001	 5.264902458615942e-001	 1.417555120839804e+001
1	 8.443885549780590e-001	 5.357311652289508e-001	 1.367692111098707e+001
1	 8.384883629704415e-001	 5.449193909360232e-001	 1.318066316781671e+001
1	 8.324812548450976e-001	 5.540530720989082e-001	 1.268800493378700e+001
1	 8.263679623034136e-001	 5.631303691352767e-001	 1.220020374758098e+001
1	 8.201492587923700e-001	 5.721494549410070e-001	 1.171854520397212e+001
1	 8.138259592567364e-001	 5.811085160631598e-001	 1.124434156201910e+001
1	 8.955236261133457e-001	 5.020780591192977e-001	 1.603986902394314e+001
1	 8.900246861062579e-001	 5.117626080080405e-001	 1.559592036018922e+001
1	 8.844128717634382e-001	 5.214007508515945e-001	 1.515092820766111e+001
1	 8.786887175973517e-001	 5.309905530979979e-001	 1.470569387885317e+001
1	 8.728528016480038e-001	 5.405300869595506e-001	 1.426104495422541e+001
1	 8.669057454291611e-001	 5.500174326204224e-001	 1.381783441843138e+001
1	 8.608482138348055e-001	 5.594506794466541e-001	 1.337693974296242e+001
1	 8.546809150055599e-001	 5.688279271970237e-001	 1.293926191639075e+001
1	 8.484046001549335e-001	 5.781472872332618e-001	 1.250572442353878e+001
1	 8.420200633552514e-001	 5.874068837280613e-001	 1.207727217504605e+001
1	 8.355281412832462e-001	 5.966048548693306e-001	 1.165487038894606e+001
1	 9.187844515606748e-001	 5.151193120298432e-001	 1.596513038757067e+001
1	 9.131426790481644e-001	 5.250554127421397e-001	 1.556680780679942e+001
1	 9.073851003396591e-001	 5.349439020332116e-001	 1.516808832400146e+001
1	 9.015122638313120e-001	 5.447827951019330e-001	 1.476953448661570e+001
1	 8.955247625774229e-001	 5.545701140871350e-001	 1.437172812359624e+001
1	 8.894232342352665e-001	 5.643038893065866e-001	 1.397526980112135e+001
1	 8.832083609691115e-001	 5.739821604984207e-001	 1.358077823973923e+001
1	 8.768808693131817e-001	 5.836029780634552e-001	 1.318888969361906e+001
1	 8.704415299933851e-001	 5.931644043068414e-001	 1.280025729267520e+001
1	 8.638911577076851e-001	 6.026645146774508e-001	 1.241555034843639e+001
1	 8.572306108650805e-001	 6.121013990034107e-001	 1.203545362463187e+001
1	 9.420455445066669e-001	 5.281607149139946e-001	 1.592883223901255e+001
1	 9.362609378459224e-001	 5.383483703426760e-001	 1.556978232194364e+001
1	 9.303575930951712e-001	 5.484872089601938e-001	 1.521055759283118e+001
1	 9.243360725344286e-001	 5.585751957156878e-001	 1.485153245843680e+001
1	 9.181969842324795e-001	 5.686103026739566e-001	 1.449309546805649e+001
1	 9.119409819903062e-001	 5.785905102858034e-001	 1.413564902569497e+001
1	 9.055687652426796e-001	 5.885138086608936e-001	 1.377960907499416e+001
1	 8.990810789176518e-001	 5.983781988415262e-001	 1.342540475716363e+001
1	 8.924787132537713e-001	 6.081816940757199e-001	 1.307347804222664e+001
1	 8.857625035748910e-001	 6.179223210879754e-001	 1.272428333396868e+001
1	 8.789333300225429e-001	 6.275981213460914e-001	 1.237828704904374e+001
1	 9.653068642441641e-001	 5.412022449492143e-001	 1.591532724785223e+001
1	 9.593794220423776e-001	 5.516414575468932e-001	 1.558970292910825e+001
1	 9.533303098279591e-001	 5.620306479316777e-001	 1.526378946905673e+001
1	 9.471601037649345e-001	 5.723677308024932e-001	 1.493782032229092e+001
1	 9.408694269367316e-001	 5.826506281496252e-001	 1.461203969794066e+001
1	 9.344589492882121e-001	 5.928772705564345e-001	 1.428670246808241e+001
1	 9.279293875248308e-001	 6.030455985036434e-001	 1.396207405667074e+001
1	 9.212815049686621e-001	 6.131535636745614e-001	 1.363843030890756e+001
1	 9.145161113710950e-001	 6.231991302596035e-001	 1.331605734101007e+001
1	 9.076340626820888e-001	 6.331802762584340e-001	 1.299525137038964e+001
1	 9.006362607759364e-001	 6.430949947780623e-001	 1.267631852629890e+001
1	 9.885683700660080e-001	 5.542438793129652e-001	 1.591044062542226e+001
1	 9.824980911803788e-001	 5.649346510920354e-001	 1.561285353531885e+001
1	 9.763032103360101e-001	 5.755741952468014e-001	 1.531460634198442e+001
1	 9.699843175810624e-001	 5.861603762255794e-001	 1.501583562404799e+001
1	 9.635420510137376e-001	 5.966910659437502e-001	 1.471668699026354e+001
1	 9.569770967229156e-001	 6.071641451168405e-001	 1.441731512645035e+001
1	 9.502901886848859e-001	 6.175775045962409e-001	 1.411788382730918e+001
1	 9.434821086159001e-001	 6.279290467058839e-001	 1.381856601278742e+001
1	 9.365536857803576e-001	 6.382166865781973e-001	 1.351954372869808e+001
1	 9.295057967545002e-001	 6.484383534876271e-001	 1.322100813133453e+001
1	 9.223393651455634e-001	 6.585919921800144e-001	 1.292315945585925e+001
1	 1.011830021265040e+000	 5.672855951827097e-001	 1.590130084779201e+001
1	 1.005616904802770e+000	 5.782279277153465e-001	 1.562677912759640e+001
1	 9.992762544173094e-001	 5.891178272047021e-001	 1.535104215785646e+001
1	 9.928086740410455e-001	 5.999531078481775e-001	 1.507417089156227e+001
1	 9.862148167870557e-001	 6.107315914859411e-001	 1.479625517165402e+001
1	 9.794953848883495e-001	 6.214511089653824e-001	 1.451739386107875e+001
1	 9.726511295921650e-001	 6.321095015082566e-001	 1.423769495879050e+001
1	 9.656828510090559e-001	 6.427046220788176e-001	 1.395727570120755e+001
1	 9.585913979165628e-001	 6.532343367512070e-001	 1.367626264866976e+001
1	 9.513776675173451e-001	 6.636965260743545e-001	 1.339479175647106e+001
1	 9.440426051517269e-001	 6.740890864326373e-001	 1.311300843007484e+001
1	 1.035091777134104e+000	 5.803273697359112e-001	 1.587619318932027e+001
1	 1.028735822452400e+000	 5.915212641540699e-001	 1.562014404241275e+001
1	 1.022249401869843e+000	 6.026615201045174e-001	 1.536220624945333e+001
1	 1.015633133203116e+000	 6.137459015335169e-001	 1.510244381653194e+001
1	 1.008887684580245e+000	 6.247721802058077e-001	 1.484093101154633e+001
1	 1.002013774378445e+000	 6.357381371004209e-001	 1.457775252404681e+001
1	 9.950121711159885e-001	 6.466415638092610e-001	 1.431300360891837e+001
1	 9.878836932978198e-001	 6.574802639366864e-001	 1.404679021333761e+001
1	 9.806292092147125e-001	 6.682520544983372e-001	 1.377922908647525e+001
1	 9.732496366958434e-001	 6.789547673174153e-001	 1.351044787145190e+001
1	 9.657459428147288e-001	 6.895862504166215e-001	 1.324058517909263e+001
1	 1.058353596966040e+000	 5.933691801500316e-001	 1.582443255945491e+001
1	 1.051854803672116e+000	 6.048146371454501e-001	 1.558260891423425e+001
1	 1.045222612491598e+000	 6.162052502453843e-001	 1.533816511199598e+001
1	 1.038457655125506e+000	 6.275387331448290e-001	 1.509118454547552e+001
1	 1.031560614716861e+000	 6.388128075329591e-001	 1.484176368726465e+001
1	 1.024532225787134e+000	 6.500252045203179e-001	 1.459001222801637e+001
1	 1.017373274125678e+000	 6.611736660688250e-001	 1.433605319331293e+001
1	 1.010084596631881e+000	 6.722559464228142e-001	 1.408002303863706e+001
1	 1.002667081109809e+000	 6.832698135392944e-001	 1.382207172193299e+001
1	 9.951216660152161e-001	 6.942130505156094e-001	 1.356236275329299e+001
1	 9.874493401548727e-001	 7.050834570126574e-001	 1.330107322135816e+001
1	 1.081615440053690e+000	 6.064110036025346e-001	 1.573625273853317e+001
1	 1.074973808004762e+000	 6.181080234267304e-001	 1.550472349281426e+001
1	 1.068195846080558e+000	 6.297489939264407e-001	 1.526983942525871e+001
1	 1.061282199866449e+000	 6.413315785453437e-001	 1.503173750569327e+001
1	 1.054233567520466e+000	 6.528534488970053e-001	 1.479057198787739e+001
1	 1.047050699708348e+000	 6.643122862234333e-001	 1.454651447637785e+001
1	 1.039734399490552e+000	 6.757057828565188e-001	 1.429975396395934e+001
1	 1.032285522160929e+000	 6.870316436805244e-001	 1.405049683901011e+001
1	 1.024704975036855e+000	 6.982875875937834e-001	 1.379896686258974e+001
1	 1.016993717200683e+000	 7.094713489677370e-001	 1.354540511475848e+001
1	 1.009152759192461e+000	 7.205806791014351e-001	 1.329006990991904e+001
1	 1.104877265689896e+000	 6.194528172708822e-001	 1.560270959720607e+001
1	 1.098092794993187e+000	 6.314013997351550e-001	 1.537783299195717e+001
1	 1.091169062434710e+000	 6.432927274468235e-001	 1.514891407630841e+001
1	 1.084106727484178e+000	 6.551244135982918e-001	 1.491617562538361e+001
1	 1.076906503314615e+000	 6.668940797275553e-001	 1.467986323326398e+001
1	 1.069569156736019e+000	 6.785993572081285e-001	 1.444024526043283e+001
1	 1.062095508079932e+000	 6.902378887419132e-001	 1.419761274070267e+001
1	 1.054486431034654e+000	 7.018073298531413e-001	 1.395227924729763e+001
1	 1.046742852430854e+000	 7.133053503815100e-001	 1.370458071786287e+001
1	 1.038865751977465e+000	 7.247296359725971e-001	 1.345487523827322e+001
1	 1.030856161947795e+000	 7.360778895636447e-001	 1.320354278521468e+001
1	 8.138259592567364e-001	 5.811085160631598e-001	 1.124434156201910e+001
1	 8.073989196223579e-001	 5.900057536711100e-001	 1.077861380191760e+001
1	 8.008690357874088e-001	 5.988393841156299e-001	 1.032157842955407e+001
1	 7.942372439580684e-001	 6.076076406512598e-001	 9.873346944116410e+000
1	 7.875045204774031e-001	 6.163087747742401e-001	 9.434013639385420e+000
1	 7.806718813845675e-001	 6.249410573556360e-001	 9.003655891078065e+000
1	 7.737403819358265e-001	 6.335027797617577e-001	 8.582334475413763e+000
1	 7.667111160878265e-001	 6.419922549603809e-001	 8.170093918174011e+000
1	 7.595852159436007e-001	 6.504078186112841e-001	 7.766962873450032e+000
1	 7.523638511618763e-001	 6.587478301396494e-001	 7.372954531188495e+000
1	 7.450482283302942e-001	 6.670106737908847e-001	 6.988067052569527e+000
1	 8.355281412832462e-001	 5.966048548693306e-001	 1.165487038894606e+001
1	 8.289297126895775e-001	 6.057393538572367e-001	 1.123843380188491e+001
1	 8.222256973632530e-001	 6.148085494782434e-001	 1.082737348554462e+001
1	 8.154170564761907e-001	 6.238106278733666e-001	 1.042190757460476e+001
1	 8.085047924075216e-001	 6.327437939117713e-001	 1.002224611322715e+001
1	 8.014899482910344e-001	 6.416062723541129e-001	 9.628591158062358e+000
1	 7.943736075234262e-001	 6.503963090028356e-001	 9.241136896048269e+000
1	 7.871568932337913e-001	 6.591121718378924e-001	 8.860069776613168e+000
1	 7.798409677148595e-001	 6.677521521363643e-001	 8.485568657857035e+000
1	 7.724270318165429e-001	 6.763145655744852e-001	 8.117804966245513e+000
1	 7.649163243024476e-001	 6.847977533105901e-001	 7.756942869313757e+000
1	 8.572306108650805e-001	 6.121013990034107e-001	 1.203545362463188e+001
1	 8.504607910413642e-001	 6.214731625150546e-001	 1.165915072950967e+001
1	 8.435826419166745e-001	 6.307779264339034e-001	 1.128556700736244e+001
1	 8.365971496289765e-001	 6.400138297868191e-001	 1.091501059092131e+001
1	 8.295053425937876e-001	 6.491790308152675e-001	 1.054778907267849e+001
1	 8.223082910398663e-001	 6.582717081688778e-001	 1.018420944617209e+001
1	 8.150071065046908e-001	 6.672900620856198e-001	 9.824578048345281e+000
1	 8.076029412901695e-001	 6.762323155570230e-001	 9.469200502892464e+000
1	 8.000969878791011e-001	 6.850967154768765e-001	 9.118381664505284e+000
1	 7.924904783129740e-001	 6.938815337718781e-001	 8.772425563924196e+000
1	 7.847846835317627e-001	 7.025850685127173e-001	 8.431635353701065e+000
1	 8.789333300225429e-001	 6.275981213460914e-001	 1.237828704904374e+001
1	 8.719921169979256e-001	 6.372071521100241e-001	 1.203423756646537e+001
1	 8.649398320725696e-001	 6.467474870358032e-001	 1.169081903219016e+001
1	 8.577774863507546e-001	 6.562172180355882e-001	 1.134841451944818e+001
1	 8.505061342846643e-001	 6.656144567226070e-001	 1.100741263128516e+001
1	 8.431268731983189e-001	 6.749373356349260e-001	 1.066820730143064e+001
1	 8.356408427702822e-001	 6.841840094455123e-001	 1.033119758511033e+001
1	 8.280492244755902e-001	 6.933526561569474e-001	 9.996787439986230e+000
1	 8.203532409874395e-001	 7.024414782792147e-001	 9.665385497430210e+000
1	 8.125541555392345e-001	 7.114487039889694e-001	 9.337404824362178e+000
1	 8.046532712476672e-001	 7.203725882687514e-001	 9.013262675909678e+000
1	 9.006362607759364e-001	 6.430949947780623e-001	 1.267631852629889e+001
1	 8.935236528794699e-001	 6.529412951076056e-001	 1.235779627681295e+001
1	 8.862972304558356e-001	 6.627172033371349e-001	 1.203830416661775e+001
1	 8.789580295758553e-001	 6.724207642636473e-001	 1.171828657950122e+001
1	 8.715071307286160e-001	 6.820500428716689e-001	 1.139819809514709e+001
1	 8.639456583336481e-001	 6.916031255872529e-001	 1.107850316970304e+001
1	 8.562747802108592e-001	 7.010781215179124e-001	 1.075967579764810e+001
1	 8.484957070086822e-001	 7.104731636768402e-001	 1.044219915537383e+001
1	 8.406096915909896e-001	 7.197864101897744e-001	 1.012656522694233e+001
1	 8.326180283833888e-001	 7.290160454828978e-001	 9.813274412529848e+000
1	 8.245220526795862e-001	 7.381602814501764e-001	 9.502835120113238e+000
1	 9.223393651455634e-001	 6.585919921800144e-001	 1.292315945585925e+001
1	 9.150553610062056e-001	 6.686755639732592e-001	 1.262448373400159e+001
1	 9.076547996913685e-001	 6.786870473910930e-001	 1.232365096782191e+001
1	 9.001387422386069e-001	 6.886244401149673e-001	 1.202115451496100e+001
1	 8.925082951741051e-001	 6.984857605003322e-001	 1.171750126012691e+001
1	 8.847646100131097e-001	 7.082690488608533e-001	 1.141321119440831e+001
1	 8.769088827170830e-001	 7.179723687382210e-001	 1.110881696962400e+001
1	 8.689423531080759e-001	 7.275938081558755e-001	 1.080486342832394e+001
1	 8.608663042408664e-001	 7.371314808549521e-001	 1.050190711012355e+001
1	 8.526820617335016e-001	 7.465835275108047e-001	 1.020051573511426e+001
1	 8.443909930569482e-001	 7.559481169284779e-001	 9.901267665155771e+000
1	 9.440426051517269e-001	 6.740890864326373e-001	 1.311300843007484e+001
1	 9.365872036983388e-001	 6.844099311724453e-001	 1.282944785874591e+001
1	 9.290125024040664e-001	 6.946569912508703e-001	 1.254288968098001e+001
1	 9.213195872733394e-001	 7.048282172335207e-001	 1.225386506585739e+001
1	 9.135095908695964e-001	 7.149215808464764e-001	 1.196292076849788e+001
1	 9.055836918039592e-001	 7.249350762907215e-001	 1.167061862618864e+001
1	 8.975431141796130e-001	 7.348667215418383e-001	 1.137753502557828e+001
1	 8.893891269924004e-001	 7.447145596332283e-001	 1.108426034172420e+001
1	 8.811230434881836e-001	 7.544766599211421e-001	 1.079139834985585e+001
1	 8.727462204776373e-001	 7.641511193298295e-001	 1.049956561078883e+001
1	 8.642600576091790e-001	 7.737360635751406e-001	 1.020939083099741e+001
1	 9.657459428147288e-001	 6.895862504166215e-001	 1.324058517909264e+001
1	 9.581191432760791e-001	 7.001443691706241e-001	 1.296827236250787e+001
1	 9.503703012188257e-001	 7.106270069696601e-001	 1.269240701921645e+001
1	 9.425005276143821e-001	 7.210320672632804e-001	 1.241354803602663e+001
1	 9.345109810635532e-001	 7.313574751479801e-001	 1.213227072962262e+001
1	 9.264028672734521e-001	 7.416011787118533e-001	 1.184916627668872e+001
1	 9.181774384891096e-001	 7.517611503641648e-001	 1.156484111334241e+001
1	 9.098359928802851e-001	 7.618353881480728e-001	 1.127991630480496e+001
1	 9.013798738840571e-001	 7.718219170347401e-001	 1.099502688631847e+001
1	 8.928104695038603e-001	 7.817187901971132e-001	 1.071082117639606e+001
1	 8.841292115657057e-001	 7.915240902616486e-001	 1.042796006356825e+001
1	 9.874493401548727e-001	 7.050834570126574e-001	 1.330107322135816e+001
1	 9.796511420596337e-001	 7.158788504332553e-001	 1.303692877339487e+001
1	 9.717281587605429e-001	 7.265970666006559e-001	 1.276890690323069e+001
1	 9.636815261960641e-001	 7.372359618482176e-001	 1.249758509639463e+001
1	 9.555124290044385e-001	 7.477934146427221e-001	 1.222355694902935e+001
1	 9.472220999888442e-001	 7.582673269592433e-001	 1.194743154838487e+001
1	 9.388118195362328e-001	 7.686556256406014e-001	 1.166983282300078e+001
1	 9.302829149903598e-001	 7.789562637395833e-001	 1.139139886362067e+001
1	 9.216367599796002e-001	 7.891672218421419e-001	 1.111278121595952e+001
1	 9.128747737002358e-001	 7.992865093697955e-001	 1.083464414652405e+001
1	 9.039984201559549e-001	 8.093121658594877e-001	 1.055766388275878e+001
1	 1.009152759192461e+000	 7.205806791014351e-001	 1.329006990991904e+001
1	 1.001183162369211e+000	 7.316133474258008e-001	 1.303173464880546e+001
1	 9.930860376541154e-001	 7.425671421970512e-001	 1.276937626394676e+001
1	 9.848625459527152e-001	 7.534398726323051e-001	 1.250358261138994e+001
1	 9.765138979407163e-001	 7.642293705685814e-001	 1.223495622298578e+001
1	 9.680413535173916e-001	 7.749334918678867e-001	 1.196411365288418e+001
1	 9.594462212116428e-001	 7.855501178065477e-001	 1.169168479616944e+001
1	 9.507298575412535e-001	 7.960771564469348e-001	 1.141831218076409e+001
1	 9.418936663259282e-001	 8.065125439897427e-001	 1.114465023380389e+001
1	 9.329390979548276e-001	 8.168542461050162e-001	 1.087136452375776e+001
1	 9.238676486093538e-001	 8.271002592401421e-001	 1.059913097963373e+001
1	 1.030856161947795e+000	 7.360778895636447e-001	 1.320354278521468e+001
1	 1.022715166525019e+000	 7.473478326137195e-001	 1.294931706358637e+001
1	 1.014443900524439e+000	 7.585372058120380e-001	 1.269105516245931e+001
1	 1.006043549818665e+000	 7.696437712595147e-001	 1.242934789592529e+001
1	 9.975153511208504e-001	 7.806653141634373e-001	 1.216479824705563e+001
1	 9.888605914263493e-001	 7.915996442727785e-001	 1.189802069535474e+001
1	 9.800806074060003e-001	 8.024445972974047e-001	 1.162964052081195e+001
1	 9.711767847515960e-001	 8.131980363093015e-001	 1.136029308574054e+001
1	 9.621505574741556e-001	 8.238578531239378e-001	 1.109062309565686e+001
1	 9.530034071557008e-001	 8.344219696599167e-001	 1.082128384051027e+001
1	 9.437368621553292e-001	 8.448883392750972e-001	 1.055293641763239e+001
1	 7.450482283302942e-001	 6.670106737908847e-001	 6.988067052569523e+000
1	 7.376407085647760e-001	 6.751935382033578e-001	 6.611312127738945e+000
1	 7.301414800067997e-001	 6.832961067697868e-001	 6.241865858581286e+000
1	 7.225518559652614e-001	 6.913168456532408e-001	 5.880124564355010e+000
1	 7.148731837902085e-001	 6.992542498395045e-001	 5.526472984584107e+000
1	 7.071068440770070e-001	 7.071068440770069e-001	 5.181284158916174e+000
1	 6.992542498395046e-001	 7.148731837902086e-001	 4.844919326037026e+000
1	 6.913168456532407e-001	 7.225518559652614e-001	 4.517727841623932e+000
1	 6.832961067697868e-001	 7.301414800067997e-001	 4.200047115266848e+000
1	 6.751935382033579e-001	 7.376407085647760e-001	 3.892202566243698e+000
1	 6.670106737908847e-001	 7.450482283302943e-001	 3.594507597988775e+000
1	 7.649163243024476e-001	 6.847977533105901e-001	 7.756942869313759e+000
1	 7.573112692520885e-001	 6.931988290128908e-001	 7.402120775701929e+000
1	 7.496120598240782e-001	 7.015174676312072e-001	 7.052596861430791e+000
1	 7.418200443491130e-001	 7.097520944260171e-001	 6.708863651083289e+000
1	 7.339366061068124e-001	 7.179011642491269e-001	 6.371404399727709e+000
1	 7.259631625086618e-001	 7.259631625086618e-001	 6.040692790316266e+000
1	 7.179011642491264e-001	 7.339366061068126e-001	 5.717192646692413e+000
1	 7.097520944260168e-001	 7.418200443491130e-001	 5.401357662581683e+000
1	 7.015174676312068e-001	 7.496120598240780e-001	 5.093631146901379e+000
1	 6.931988290128908e-001	 7.573112692520886e-001	 4.794445785682863e+000
1	 6.847977533105903e-001	 7.649163243024477e-001	 4.504223420862124e+000
1	 7.847846835317627e-001	 7.025850685127173e-001	 8.431635353701065e+000
1	 7.769820905793919e-001	 7.112043583964481e-001	 8.095147132129215e+000
1	 7.690828976316781e-001	 7.197390699298709e-001	 7.762179884494499e+000
1	 7.610884880415944e-001	 7.281875874703213e-001	 7.433307497983032e+000
1	 7.530002810188171e-001	 7.365483257350832e-001	 7.109096755175071e+000
1	 7.448197307914483e-001	 7.448197307914483e-001	 6.790106871824401e+000
1	 7.365483257350833e-001	 7.530002810188171e-001	 6.476889046970440e+000
1	 7.281875874703212e-001	 7.610884880415944e-001	 6.169986026106387e+000
1	 7.197390699298712e-001	 7.690828976316783e-001	 5.869931678094360e+000
1	 7.112043583964484e-001	 7.769820905793919e-001	 5.577250586483181e+000
1	 7.025850685127173e-001	 7.847846835317627e-001	 5.292457655852195e+000
1	 8.046532712476672e-001	 7.203725882687514e-001	 9.013262675909674e+000
1	 7.966531381217792e-001	 7.292100948435913e-001	 8.691996291114373e+000
1	 7.885539593546564e-001	 7.379608817771644e-001	 8.372696163203880e+000
1	 7.803571533219557e-001	 7.466232925231846e-001	 8.056003903133890e+000
1	 7.720641751638337e-001	 7.551957016639452e-001	 7.742556044468101e+000
1	 7.636765159254422e-001	 7.636765159254418e-001	 7.432983443153396e+000
1	 7.551957016639452e-001	 7.720641751638339e-001	 7.127910686514388e+000
1	 7.466232925231846e-001	 7.803571533219557e-001	 6.827955512494954e+000
1	 7.379608817771644e-001	 7.885539593546562e-001	 6.533728240147146e+000
1	 7.292100948435912e-001	 7.966531381217792e-001	 6.245831212342550e+000
1	 7.203725882687513e-001	 8.046532712476668e-001	 5.964858251647940e+000
1	 8.245220526795862e-001	 7.381602814501764e-001	 9.502835120113238e+000
1	 8.163243774543456e-001	 7.472160068438808e-001	 9.194118529920059e+000
1	 8.080252109180682e-001	 7.561828712844724e-001	 8.886026224541123e+000
1	 7.996260064694477e-001	 7.650591773216392e-001	 8.579254987716361e+000
1	 7.911282551794755e-001	 7.738432594022843e-001	 8.274498422195912e+000
1	 7.825334849107183e-001	 7.825334849107182e-001	 7.972446232018486e+000
1	 7.738432594022845e-001	 7.911282551794753e-001	 7.673783511049602e+000
1	 7.650591773216392e-001	 7.996260064694477e-001	 7.379190039069366e+000
1	 7.561828712844722e-001	 8.080252109180682e-001	 7.089339586677374e+000
1	 7.472160068438808e-001	 8.163243774543455e-001	 6.804899230262133e+000
1	 7.381602814501764e-001	 8.245220526795862e-001	 6.526528678257852e+000
1	 8.443909930569482e-001	 7.559481169284779e-001	 9.901267665155768e+000
1	 8.359957741521835e-001	 7.652220628868781e-001	 9.602827409044613e+000
1	 8.274966182469707e-001	 7.744050065631816e-001	 9.303873384445147e+000
1	 8.188950137633203e-001	 7.834952096027164e-001	 9.005145982342944e+000
1	 8.101924877033535e-001	 7.924909663166712e-001	 8.707384184560423e+000
1	 8.013906047473510e-001	 8.013906047473510e-001	 8.411324748042029e+000
1	 7.924909663166713e-001	 8.101924877033534e-001	 8.117701392587245e+000
1	 7.834952096027162e-001	 8.188950137633202e-001	 7.827243993540026e+000
1	 7.744050065631813e-001	 8.274966182469704e-001	 7.540677780928506e+000
1	 7.652220628868780e-001	 8.359957741521834e-001	 7.258722546535314e+000
1	 7.559481169284781e-001	 8.443909930569481e-001	 6.982091860358190e+000
1	 8.642600576091790e-001	 7.737360635751406e-001	 1.020939083099741e+001
1	 8.556672937903875e-001	 7.832282314621443e-001	 9.919315377218664e+000
1	 8.469681472664187e-001	 7.926272557246766e-001	 9.627784006130652e+000
1	 8.381641414828237e-001	 8.019313571034474e-001	 9.335570045229616e+000
1	 8.292568393730803e-001	 8.111387897736772e-001	 9.043447065762159e+000
1	 8.202478424354156e-001	 8.202478424354154e-001	 8.752187987611197e+000
1	 8.111387897736770e-001	 8.292568393730803e-001	 8.462564184955758e+000
1	 8.019313571034478e-001	 8.381641414828240e-001	 8.175344594393975e+000
1	 7.926272557246764e-001	 8.469681472664185e-001	 7.891294827209482e+000
1	 7.832282314621443e-001	 8.556672937903874e-001	 7.611176287454548e+000
1	 7.737360635751404e-001	 8.642600576091787e-001	 7.335745297506111e+000
1	 8.841292115657057e-001	 7.915240902616486e-001	 1.042796006356825e+001
1	 8.753389019440514e-001	 8.012344810592407e-001	 1.014466727358091e+001
1	 8.664397639014685e-001	 8.108495868803437e-001	 9.859165028538095e+000
1	 8.574333559072089e-001	 8.203675875608653e-001	 9.572249736045000e+000
1	 8.483212768262674e-001	 8.297866971398730e-001	 9.284719586612393e+000
1	 8.391051649749869e-001	 8.391051649749869e-001	 8.997373596907350e+000
1	 8.297866971398730e-001	 8.483212768262672e-001	 8.711010651237347e+000
1	 8.203675875608647e-001	 8.574333559072087e-001	 8.426428543097396e+000
1	 8.108495868803441e-001	 8.664397639014688e-001	 8.144423018611420e+000
1	 8.012344810592408e-001	 8.753389019440514e-001	 7.865786823693076e+000
1	 7.915240902616488e-001	 8.841292115657058e-001	 7.591308756742867e+000
1	 9.039984201559549e-001	 8.093121658594877e-001	 1.055766388275879e+001
1	 8.950105641882689e-001	 8.192407801677287e-001	 1.027987205035635e+001
1	 8.859114340771768e-001	 8.290719681415687e-001	 9.999299184650958e+000
1	 8.767026233157251e-001	 8.388038687119999e-001	 9.716755659651346e+000
1	 8.673857667005268e-001	 8.484346557818302e-001	 9.433055062369817e+000
1	 8.579625393661392e-001	 8.579625393661392e-001	 9.149013191446624e+000
1	 8.484346557818305e-001	 8.673857667005271e-001	 8.865447051593202e+000
1	 8.388038687120000e-001	 8.767026233157254e-001	 8.583173845788357e+000
1	 8.290719681415686e-001	 8.859114340771765e-001	 8.303009967171796e+000
1	 8.192407801677285e-001	 8.950105641882691e-001	 8.025769992576628e+000
1	 8.093121658594878e-001	 9.039984201559550e-001	 7.752265679640208e+000
1	 9.238676486093538e-001	 8.271002592401421e-001	 1.059913097963373e+001
1	 9.146822460981339e-001	 8.372470972771690e-001	 1.032583298376504e+001
1	 9.053831237185985e-001	 8.472943676197365e-001	 1.004935825724508e+001
1	 8.959719099876236e-001	 8.572401682938835e-001	 9.770522705533260e+000
1	 8.864502756334715e-001	 8.670826330661203e-001	 9.490146772430418e+000
1	 8.768199326089481e-001	 8.768199326089481e-001	 9.209054410395320e+000
1	 8.670826330661202e-001	 8.864502756334713e-001	 8.928072044385052e+000
1	 8.572401682938836e-001	 8.959719099876237e-001	 8.648027531225175e+000
1	 8.472943676197366e-001	 9.053831237185989e-001	 8.369749116528748e+000
1	 8.372470972771690e-001	 9.146822460981339e-001	 8.094064391189200e+000
1	 8.271002592401424e-001	 9.238676486093539e-001	 7.821799249471674e+000
1	 9.437368621553292e-001	 8.448883392750972e-001	 1.055293641763239e+001
1	 9.343539132487400e-001	 8.552534008771232e-001	 1.028337659582308e+001
1	 9.248547987507910e-001	 8.655167534262337e-001	 1.001041466112872e+001
1	 9.152411822021542e-001	 8.756764540435483e-001	 9.734864237037423e+000
1	 9.055147702627122e-001	 8.857305963593138e-001	 9.457544709892158e+000
1	 8.956773117034881e-001	 8.956773117034879e-001	 9.179280186584979e+000
1	 8.857305963593135e-001	 9.055147702627118e-001	 8.900898443595667e+000
1	 8.756764540435483e-001	 9.152411822021546e-001	 8.623229869418388e+000
1	 8.655167534262336e-001	 9.248547987507910e-001	 8.347106402436323e+000
1	 8.552534008771232e-001	 9.343539132487404e-001	 8.073360466316830e+000
1	 8.448883392750972e-001	 9.437368621553289e-001	 7.802823905004641e+000
1	 6.670106737908847e-001	 7.450482283302943e-001	 3.594507597988776e+000
1	 6.587478301396494e-001	 7.523638511618765e-001	 3.307682697587545e+000
1	 6.504078186112842e-001	 7.595852159436007e-001	 3.032108313832610e+000
1	 6.419922549603809e-001	 7.667111160878266e-001	 2.767421379142207e+000
1	 6.335027797617576e-001	 7.737403819358266e-001	 2.513225439468813e+000
1	 6.249410573556360e-001	 7.806718813845673e-001	 2.269091879792673e+000
1	 6.163087747742402e-001	 7.875045204774029e-001	 2.034561199244834e+000
1	 6.076076406512597e-001	 7.942372439580682e-001	 1.809144332774767e+000
1	 5.988393841156297e-001	 8.008690357874089e-001	 1.592324016187817e+000
1	 5.900057536711102e-001	 8.073989196223580e-001	 1.383556191282391e+000
1	 5.811085160631598e-001	 8.138259592567366e-001	 1.182271447744434e+000
1	 6.847977533105903e-001	 7.649163243024477e-001	 4.504223420862125e+000
1	 6.763145655744852e-001	 7.724270318165427e-001	 4.223213329677951e+000
1	 6.677521521363645e-001	 7.798409677148591e-001	 3.951413035612296e+000
1	 6.591121718378921e-001	 7.871568932337911e-001	 3.688706925748774e+000
1	 6.503963090028354e-001	 7.943736075234261e-001	 3.434949283023058e+000
1	 6.416062723541127e-001	 8.014899482910342e-001	 3.189965084327922e+000
1	 6.327437939117713e-001	 8.085047924075214e-001	 2.953550845305621e+000
1	 6.238106278733668e-001	 8.154170564761906e-001	 2.725475509653389e+000
1	 6.148085494782432e-001	 8.222256973632529e-001	 2.505481380669901e+000
1	 6.057393538572367e-001	 8.289297126895776e-001	 2.293285092681708e+000
1	 5.966048548693305e-001	 8.355281412832460e-001	 2.088578619907438e+000
1	 7.025850685127173e-001	 7.847846835317627e-001	 5.292457655852195e+000
1	 6.938815337718784e-001	 7.924904783129741e-001	 5.015400891400474e+000
1	 6.850967154768765e-001	 8.000969878791007e-001	 4.745750901751686e+000
1	 6.762323155570231e-001	 8.076029412901697e-001	 4.483602242501869e+000
1	 6.672900620856199e-001	 8.150071065046909e-001	 4.229022517099892e+000
1	 6.582717081688777e-001	 8.223082910398660e-001	 3.982052803858583e+000
1	 6.491790308152675e-001	 8.295053425937875e-001	 3.742708126568873e+000
1	 6.400138297868191e-001	 8.365971496289766e-001	 3.510977967340122e+000
1	 6.307779264339032e-001	 8.435826419166744e-001	 3.286826820190751e+000
1	 6.214731625150546e-001	 8.504607910413643e-001	 3.070194783822563e+000
1	 6.121013990034108e-001	 8.572306108650805e-001	 2.860998191926571e+000
1	 7.203725882687513e-001	 8.046532712476668e-001	 5.964858251647942e+000
1	 7.114487039889692e-001	 8.125541555392345e-001	 5.690317613596028e+000
1	 7.024414782792146e-001	 8.203532409874392e-001	 5.421601533886577e+000
1	 6.933526561569472e-001	 8.280492244755902e-001	 5.158980305562216e+000
1	 6.841840094455125e-001	 8.356408427702823e-001	 4.902700300865054e+000
1	 6.749373356349260e-001	 8.431268731983186e-001	 4.652984080513763e+000
1	 6.656144567226071e-001	 8.505061342846643e-001	 4.410030543363170e+000
1	 6.562172180355884e-001	 8.577774863507547e-001	 4.174015115754131e+000
1	 6.467474870358031e-001	 8.649398320725701e-001	 3.945089979769293e+000
1	 6.372071521100242e-001	 8.719921169979257e-001	 3.723384339517074e+000
1	 6.275981213460913e-001	 8.789333300225430e-001	 3.509004724478563e+000
1	 7.381602814501764e-001	 8.245220526795862e-001	 6.526528678257852e+000
1	 7.290160454828978e-001	 8.326180283833887e-001	 6.253450354407740e+000
1	 7.197864101897744e-001	 8.406096915909893e-001	 5.984819914546078e+000
1	 7.104731636768403e-001	 8.484957070086823e-001	 5.721051537966922e+000
1	 7.010781215179122e-001	 8.562747802108590e-001	 5.462538402585407e+000
1	 6.916031255872529e-001	 8.639456583336480e-001	 5.209652527195225e+000
1	 6.820500428716689e-001	 8.715071307286159e-001	 4.962744650747982e+000
1	 6.724207642636472e-001	 8.789580295758553e-001	 4.722144148547243e+000
1	 6.627172033371349e-001	 8.862972304558358e-001	 4.488158985157955e+000
1	 6.529412951076056e-001	 8.935236528794698e-001	 4.261075703744123e+000
1	 6.430949947780623e-001	 9.006362607759364e-001	 4.041159451458603e+000
1	 7.559481169284781e-001	 8.443909930569481e-001	 6.982091860358191e+000
1	 7.465835275108046e-001	 8.526820617335015e-001	 6.709769343294857e+000
1	 7.371314808549523e-001	 8.608663042408662e-001	 6.440709750495411e+000
1	 7.275938081558755e-001	 8.689423531080758e-001	 6.175441633303465e+000
1	 7.179723687382209e-001	 8.769088827170829e-001	 5.914475357090923e+000
1	 7.082690488608531e-001	 8.847646100131094e-001	 5.658302724810759e+000
1	 6.984857605003324e-001	 8.925082951741054e-001	 5.407396634074116e+000
1	 6.886244401149672e-001	 9.001387422386068e-001	 5.162210768127873e+000
1	 6.786870473910929e-001	 9.076547996913688e-001	 4.923179321023420e+000
1	 6.686755639732592e-001	 9.150553610062054e-001	 4.690716757182330e+000
1	 6.585919921800143e-001	 9.223393651455637e-001	 4.465217605476065e+000
1	 7.737360635751404e-001	 8.642600576091787e-001	 7.335745297506107e+000
1	 7.641511193298297e-001	 8.727462204776373e-001	 7.063787448768060e+000
1	 7.544766599211421e-001	 8.811230434881837e-001	 6.794086723029797e+000
1	 7.447145596332284e-001	 8.893891269924004e-001	 6.527258651484123e+000
1	 7.348667215418384e-001	 8.975431141796132e-001	 6.263903297928945e+000
1	 7.249350762907216e-001	 9.055836918039592e-001	 6.004604709753328e+000
1	 7.149215808464765e-001	 9.135095908695964e-001	 5.749930398811650e+000
1	 7.048282172335211e-001	 9.213195872733393e-001	 5.500430852952554e+000
1	 6.946569912508702e-001	 9.290125024040665e-001	 5.256639078887837e+000
1	 6.844099311724451e-001	 9.365872036983388e-001	 5.019070177006797e+000
1	 6.740890864326371e-001	 9.440426051517269e-001	 4.788220948657735e+000
1	 7.915240902616488e-001	 8.841292115657058e-001	 7.591308756742866e+000
1	 7.817187901971133e-001	 8.928104695038603e-001	 7.319611459623496e+000
1	 7.718219170347404e-001	 9.013798738840566e-001	 7.049333215105784e+000
1	 7.618353881480726e-001	 9.098359928802852e-001	 6.781151073167581e+000
1	 7.517611503641647e-001	 9.181774384891093e-001	 6.515729244678115e+000
1	 7.416011787118532e-001	 9.264028672734520e-001	 6.253718423972848e+000
1	 7.313574751479801e-001	 9.345109810635528e-001	 5.995755137544319e+000
1	 7.210320672632805e-001	 9.425005276143821e-001	 5.742461119911470e+000
1	 7.106270069696604e-001	 9.503703012188259e-001	 5.494442717659880e+000
1	 7.001443691706238e-001	 9.581191432760791e-001	 5.252290322567554e+000
1	 6.895862504166215e-001	 9.657459428147289e-001	 5.016577834654626e+000
1	 8.093121658594878e-001	 9.039984201559550e-001	 7.752265679640208e+000
1	 7.992865093697956e-001	 9.128747737002357e-001	 7.480986607663721e+000
1	 7.891672218421421e-001	 9.216367599796003e-001	 7.210445825814617e+000
1	 7.789562637395834e-001	 9.302829149903599e-001	 6.941358203009222e+000
1	 7.686556256406014e-001	 9.388118195362331e-001	 6.674428313017367e+000
1	 7.582673269592434e-001	 9.472220999888442e-001	 6.410349670974861e+000
1	 7.477934146427221e-001	 9.555124290044386e-001	 6.149803992101655e+000
1	 7.372359618482176e-001	 9.636815261960642e-001	 5.893460473899840e+000
1	 7.265970666006560e-001	 9.717281587605431e-001	 5.641975103038710e+000
1	 7.158788504332554e-001	 9.796511420596339e-001	 5.395989988068251e+000
1	 7.050834570126574e-001	 9.874493401548725e-001	 5.156132719030556e+000
1	 8.271002592401424e-001	 9.238676486093539e-001	 7.821799249471674e+000
1	 8.168542461050162e-001	 9.329390979548276e-001	 7.551335348745253e+000
1	 8.065125439897430e-001	 9.418936663259283e-001	 7.281076757364303e+000
1	 7.960771564469348e-001	 9.507298575412534e-001	 7.011754072882359e+000
1	 7.855501178065477e-001	 9.594462212116431e-001	 6.744090062798900e+000
1	 7.749334918678870e-001	 9.680413535173917e-001	 6.478798855705759e+000
1	 7.642293705685817e-001	 9.765138979407164e-001	 6.216585150594405e+000
1	 7.534398726323051e-001	 9.848625459527152e-001	 5.958143445720202e+000
1	 7.425671421970508e-001	 9.930860376541151e-001	 5.704157288366280e+000
1	 7.316133474258006e-001	 1.001183162369211e+000	 5.455298546788160e+000
1	 7.205806791014349e-001	 1.009152759192461e+000	 5.212226705559894e+000
1	 8.448883392750972e-001	 9.437368621553289e-001	 7.802823905004641e+000
1	 8.344219696599167e-001	 9.530034071557008e-001	 7.533791247828511e+000
1	 8.238578531239381e-001	 9.621505574741556e-001	 7.264569977073411e+000
1	 8.131980363093013e-001	 9.711767847515960e-001	 6.995885802444137e+000
1	 8.024445972974045e-001	 9.800806074060000e-001	 6.728458994809679e+000
1	 7.915996442727785e-001	 9.888605914263495e-001	 6.463003571169415e+000
1	 7.806653141634374e-001	 9.975153511208504e-001	 6.200226493597543e+000
1	 7.696437712595143e-001	 1.006043549818665e+000	 5.940826883604881e+000
1	 7.585372058120381e-001	 1.014443900524439e+000	 5.685495253310614e+000
1	 7.473478326137194e-001	 1.022715166525019e+000	 5.434912754767579e+000
1	 7.360778895636446e-001	 1.030856161947795e+000	 5.189750448732553e+000
1	 5.811085160631598e-001	 8.138259592567366e-001	 1.182271447744434e+000
1	 5.721494549410069e-001	 8.201492587923700e-001	 9.882979490902606e-001
1	 5.631303691352768e-001	 8.263679623034137e-001	 8.022532145296215e-001
1	 5.540530720989082e-001	 8.324812548450976e-001	 6.247177082563873e-001
1	 5.449193909360233e-001	 8.384883629704416e-001	 4.562499691630804e-001
1	 5.357311652289508e-001	 8.443885549780590e-001	 2.973859507991691e-001
1	 5.264902458615941e-001	 8.501811411206632e-001	 1.486384040247870e-001
1	 5.171984938406530e-001	 8.558654737743153e-001	 1.049630319880459e-002
1	 5.078577791162044e-001	 8.614409475685220e-001	-1.165756833773237e-001
1	 4.984699794031350e-001	 8.669069994773565e-001	-2.321376781505262e-001
1	 4.890369790048946e-001	 8.722631088718381e-001	-3.357750336553949e-001
1	 5.966048548693305e-001	 8.355281412832460e-001	 2.088578619907438e+000
1	 5.874068837280612e-001	 8.420200633552515e-001	 1.891506153162556e+000
1	 5.781472872332619e-001	 8.484046001549332e-001	 1.702648294522067e+000
1	 5.688279271970236e-001	 8.546809150055600e-001	 1.522317337748256e+000
1	 5.594506794466541e-001	 8.608482138348056e-001	 1.350803496753405e+000
1	 5.500174326204225e-001	 8.669057454291612e-001	 1.188374713108255e+000
1	 5.405300869595506e-001	 8.728528016480037e-001	 1.035276501884462e+000
1	 5.309905530979980e-001	 8.786887175973518e-001	 8.917318357434951e-001
1	 5.214007508515943e-001	 8.844128717634381e-001	 7.579410670918978e-001
1	 5.117626080080407e-001	 8.900246861062580e-001	 6.340818880333551e-001
1	 5.020780591192976e-001	 8.955236261133456e-001	 5.203093277585736e-001
1	 6.121013990034108e-001	 8.572306108650805e-001	 2.860998191926571e+000
1	 6.026645146774508e-001	 8.638911577076851e-001	 2.659605998872685e+000
1	 5.931644043068414e-001	 8.704415299933851e-001	 2.466540367082792e+000
1	 5.836029780634551e-001	 8.768808693131815e-001	 2.281913267300665e+000
1	 5.739821604984206e-001	 8.832083609691114e-001	 2.105814451909927e+000
1	 5.643038893065867e-001	 8.894232342352666e-001	 1.938311624141720e+000
1	 5.545701140871351e-001	 8.955247625774229e-001	 1.779450642279427e+000
1	 5.447827951019328e-001	 9.015122638313119e-001	 1.629255758053212e+000
1	 5.349439020332116e-001	 9.073851003396593e-001	 1.487729888338931e+000
1	 5.250554127421397e-001	 9.131426790481644e-001	 1.354854919208396e+000
1	 5.151193120298434e-001	 9.187844515606746e-001	 1.230592041309073e+000
1	 6.275981213460913e-001	 8.789333300225430e-001	 3.509004724478563e+000
1	 6.179223210879753e-001	 8.857625035748911e-001	 3.302464028637480e+000
1	 6.081816940757200e-001	 8.924787132537714e-001	 3.104209728012348e+000
1	 5.983781988415263e-001	 8.990810789176523e-001	 2.914216424562904e+000
1	 5.885138086608936e-001	 9.055687652426796e-001	 2.732436382117694e+000
1	 5.785905102858034e-001	 9.119409819903062e-001	 2.558799956320021e+000
1	 5.686103026739566e-001	 9.181969842324796e-001	 2.393216057217189e+000
1	 5.585751957156880e-001	 9.243360725344287e-001	 2.235572643154798e+000
1	 5.484872089601938e-001	 9.303575930951712e-001	 2.085737244581541e+000
1	 5.383483703426760e-001	 9.362609378459221e-001	 1.943557516309611e+000
1	 5.281607149139947e-001	 9.420455445066668e-001	 1.808861816726616e+000
1	 6.430949947780623e-001	 9.006362607759364e-001	 4.041159451458603e+000
1	 6.331802762584339e-001	 9.076340626820887e-001	 3.828995671632502e+000
1	 6.231991302596035e-001	 9.145161113710947e-001	 3.624945674672784e+000
1	 6.131535636745613e-001	 9.212815049686620e-001	 3.428905226678957e+000
1	 6.030455985036434e-001	 9.279293875248309e-001	 3.240747657025305e+000
1	 5.928772705564346e-001	 9.344589492882121e-001	 3.060324452507730e+000
1	 5.826506281496252e-001	 9.408694269367316e-001	 2.887465882714891e+000
1	 5.723677308024933e-001	 9.471601037649344e-001	 2.721981654948703e+000
1	 5.620306479316777e-001	 9.533303098279593e-001	 2.563661596967585e+000
1	 5.516414575468932e-001	 9.593794220423780e-001	 2.412276365778364e+000
1	 5.412022449492145e-001	 9.653068642441643e-001	 2.267578180660630e+000
1	 6.585919921800143e-001	 9.223393651455637e-001	 4.465217605476065e+000
1	 6.484383534876271e-001	 9.295057967545003e-001	 4.247277014169568e+000
1	 6.382166865781973e-001	 9.365536857803575e-001	 4.037162967974304e+000
1	 6.279290467058838e-001	 9.434821086159000e-001	 3.834746925171136e+000
1	 6.175775045962408e-001	 9.502901886848859e-001	 3.639877832108065e+000
1	 6.071641451168404e-001	 9.569770967229155e-001	 3.452382789014147e+000
1	 5.966910659437502e-001	 9.635420510137375e-001	 3.272067746517738e+000
1	 5.861603762255796e-001	 9.699843175810625e-001	 3.098718231038519e+000
1	 5.755741952468013e-001	 9.763032103360099e-001	 2.932100097173111e+000
1	 5.649346510920354e-001	 9.824980911803787e-001	 2.771960305150942e+000
1	 5.542438793129650e-001	 9.885683700660078e-001	 2.618027721399912e+000
1	 6.740890864326371e-001	 9.440426051517269e-001	 4.788220948657735e+000
1	 6.636965260743544e-001	 9.513776675173450e-001	 4.564641162660323e+000
1	 6.532343367512071e-001	 9.585913979165628e-001	 4.348502240214955e+000
1	 6.427046220788175e-001	 9.656828510090558e-001	 4.139702223575732e+000
1	 6.321095015082566e-001	 9.726511295921652e-001	 3.938116593249115e+000
1	 6.214511089653824e-001	 9.794953848883493e-001	 3.743598916575933e+000
1	 6.107315914859413e-001	 9.862148167870557e-001	 3.555981527362829e+000
1	 5.999531078481774e-001	 9.928086740410452e-001	 3.375076234751236e+000
1	 5.891178272047021e-001	 9.992762544173094e-001	 3.200675059462388e+000
1	 5.782279277153465e-001	 1.005616904802770e+000	 3.032550995511062e+000
1	 5.672855951827097e-001	 1.011830021265040e+000	 2.870458795443433e+000
1	 6.895862504166215e-001	 9.657459428147289e-001	 5.016577834654626e+000
1	 6.789547673174153e-001	 9.732496366958434e-001	 4.787761621388338e+000
1	 6.682520544983374e-001	 9.806292092147124e-001	 4.565916872669939e+000
1	 6.574802639366865e-001	 9.878836932978199e-001	 4.351015797546102e+000
1	 6.466415638092610e-001	 9.950121711159885e-001	 4.143008020719851e+000
1	 6.357381371004210e-001	 1.002013774378445e+000	 3.941821128309814e+000
1	 6.247721802058078e-001	 1.008887684580245e+000	 3.747361245836658e+000
1	 6.137459015335171e-001	 1.015633133203115e+000	 3.559513646814273e+000
1	 6.026615201045172e-001	 1.022249401869843e+000	 3.378143390267515e+000
1	 5.915212641540699e-001	 1.028735822452400e+000	 3.203095985446933e+000
1	 5.803273697359112e-001	 1.035091777134104e+000	 3.034198081966701e+000
1	 7.050834570126574e-001	 9.874493401548725e-001	 5.156132719030556e+000
1	 6.942130505156096e-001	 9.951216660152163e-001	 4.922724681668701e+000
1	 6.832698135392946e-001	 1.002667081109809e+000	 4.695748423316762e+000
1	 6.722559464228139e-001	 1.010084596631881e+000	 4.475294885033338e+000
1	 6.611736660688249e-001	 1.017373274125678e+000	 4.261432429821347e+000
1	 6.500252045203178e-001	 1.024532225787134e+000	 4.054207202989963e+000
1	 6.388128075329590e-001	 1.031560614716861e+000	 3.853643526725524e+000
1	 6.275387331448292e-001	 1.038457655125505e+000	 3.659744327603953e+000
1	 6.162052502453843e-001	 1.045222612491598e+000	 3.472491595709515e+000
1	 6.048146371454500e-001	 1.051854803672116e+000	 3.291846873964803e+000
1	 5.933691801500317e-001	 1.058353596966040e+000	 3.117751776220016e+000
1	 7.205806791014349e-001	 1.009152759192461e+000	 5.212226705559894e+000
1	 7.094713489677368e-001	 1.016993717200683e+000	 4.975092475668664e+000
1	 6.982875875937835e-001	 1.024704975036855e+000	 4.743792327367377e+000
1	 6.870316436805243e-001	 1.032285522160929e+000	 4.518577741442838e+000
1	 6.757057828565186e-001	 1.039734399490552e+000	 4.299677657320726e+000
1	 6.643122862234333e-001	 1.047050699708348e+000	 4.087298568210920e+000
1	 6.528534488970051e-001	 1.054233567520466e+000	 3.881624653222692e+000
1	 6.413315785453437e-001	 1.061282199866449e+000	 3.682817945695226e+000
1	 6.297489939264407e-001	 1.068195846080558e+000	 3.491018536909382e+000
1	 6.181080234267304e-001	 1.074973808004762e+000	 3.306344814271227e+000
1	 6.064110036025345e-001	 1.081615440053690e+000	 3.128893732983667e+000
1	 7.360778895636446e-001	 1.030856161947795e+000	 5.189750448732553e+000
1	 7.247296359725970e-001	 1.038865751977465e+000	 4.949958069869786e+000
1	 7.133053503815099e-001	 1.046742852430853e+000	 4.715355303302281e+000
1	 7.018073298531414e-001	 1.054486431034654e+000	 4.486393452530010e+000
1	 6.902378887419132e-001	 1.062095508079932e+000	 4.263501348186477e+000
1	 6.785993572081287e-001	 1.069569156736019e+000	 4.047085100672142e+000
1	 6.668940797275553e-001	 1.076906503314615e+000	 3.837527893271544e+000
1	 6.551244135982919e-001	 1.084106727484178e+000	 3.635189815669916e+000
1	 6.432927274468238e-001	 1.091169062434711e+000	 3.440407737688302e+000
1	 6.314013997351549e-001	 1.098092794993187e+000	 3.253495222959896e+000
1	 6.194528172708822e-001	 1.104877265689896e+000	 3.074742482176940e+000
1	 4.890369790048946e-001	 8.722631088718381e-001	-3.357750336553945e-001
1	 4.795620922583881e-001	 8.775080191404551e-001	-4.279681231651276e-001
1	 4.700458011791232e-001	 8.826421068707412e-001	-5.097065401353688e-001
1	 4.604900024760815e-001	 8.876649794392211e-001	-5.813273533574357e-001
1	 4.508965947721494e-001	 8.925762864264075e-001	-6.431837735439206e-001
1	 4.412674774614076e-001	 8.973757194803049e-001	-6.956442940193163e-001
1	 4.316045495771122e-001	 9.020630121438827e-001	-7.390918188656860e-001
1	 4.219097086716463e-001	 9.066379396471509e-001	-7.739227804929896e-001
1	 4.121848497096857e-001	 9.111003186645378e-001	-8.005462485961398e-001
1	 4.024318639757797e-001	 9.154500070382965e-001	-8.193830324447996e-001
1	 3.926526379975132e-001	 9.196869034687285e-001	-8.308647784339460e-001
1	 5.020780591192976e-001	 8.955236261133456e-001	 5.203093277585735e-001
1	 4.923505069052577e-001	 9.009084016633495e-001	 4.160610766552738e-001
1	 4.825804462352116e-001	 9.061793993862045e-001	 3.205432195195471e-001
1	 4.727698243973318e-001	 9.113362161883821e-001	 2.335835889537054e-001
1	 4.629205906447350e-001	 9.163784923057907e-001	 1.549948511494671e-001
1	 4.530346950222971e-001	 9.213059111636405e-001	 8.457508339915730e-002
1	 4.431140872044483e-001	 9.261181991993087e-001	 2.210836701963921e-002
1	 4.331607153452562e-001	 9.308151256488805e-001	-3.263460575991811e-002
1	 4.231765249420750e-001	 9.353965022980483e-001	-7.989591240383612e-002
1	 4.131634577139968e-001	 9.398621831981483e-001	-1.199297696316303e-001
1	 4.031234504962961e-001	 9.442120643481219e-001	-1.530018933963349e-001
1	 5.151193120298434e-001	 9.187844515606746e-001	 1.230592041309071e+000
1	 5.051390910003677e-001	 9.243090942455401e-001	 1.114358850602344e+000
1	 4.951152573769660e-001	 9.297170037752285e-001	 1.005558632952222e+000
1	 4.850498090276871e-001	 9.350077665860251e-001	 9.041585495599274e-001
1	 4.749447458365615e-001	 9.401810135691118e-001	 8.101110267265202e-001
1	 4.648020684999469e-001	 9.452364199267955e-001	 7.233540952974964e-001
1	 4.546237773341318e-001	 9.501737049907746e-001	 6.438117486211944e-001
1	 4.444118710955525e-001	 9.549926320031293e-001	 5.713943180060486e-001
1	 4.341683458149260e-001	 9.596930078607578e-001	 5.059988646323171e-001
1	 4.238951936465678e-001	 9.642746828240306e-001	 4.475095868565628e-001
1	 4.135944017341220e-001	 9.687375501904937e-001	 3.957982418267350e-001
1	 5.281607149139947e-001	 9.420455445066668e-001	 1.808861816726617e+000
1	 5.179278221633582e-001	 9.477100559350589e-001	 1.681096425782644e+000
1	 5.076502126681389e-001	 9.532548788462153e-001	 1.559854874866646e+000
1	 4.973299348768570e-001	 9.586795892061151e-001	 1.445220046747212e+000
1	 4.869690393050531e-001	 9.639838085611113e-001	 1.337259997121626e+000
1	 4.765695773011600e-001	 9.691672038905160e-001	 1.236028097567093e+000
1	 4.661335998239208e-001	 9.742294874202679e-001	 1.141563200345821e+000
1	 4.556631562327353e-001	 9.791704163983791e-001	 1.053889824391593e+000
1	 4.451602930922763e-001	 9.839897928328978e-001	 9.730183617652859e-001
1	 4.346270529926761e-001	 9.886874631931889e-001	 8.989453038313086e-001
1	 4.240654733865391e-001	 9.932633180753756e-001	 8.316534863710440e-001
1	 5.412022449492145e-001	 9.653068642441643e-001	 2.267578180660631e+000
1	 5.307166780138688e-001	 9.711112457799381e-001	 2.129078979824821e+000
1	 5.201852901724832e-001	 9.767929834075642e-001	 1.996547923530108e+000
1	 5.096101804545524e-001	 9.823516426226164e-001	 1.870161785351774e+000
1	 4.989934500076330e-001	 9.877868356265306e-001	 1.750081914294506e+000
1	 4.883372008327391e-001	 9.930982211755457e-001	 1.636454220878487e+000
1	 4.776435345315740e-001	 9.982855043897769e-001	 1.529409188655085e+000
1	 4.669145510670052e-001	 1.003348436523110e+000	 1.429061910741071e+000
1	 4.561523475381651e-001	 1.008286814694700e+000	 1.335512150907541e+000
1	 4.453590169715064e-001	 1.013100481582870e+000	 1.248844428709198e+000
1	 4.345366471290956e-001	 1.017789325082299e+000	 1.169128128090260e+000
1	 5.542438793129650e-001	 9.885683700660078e-001	 2.618027721399913e+000
1	 5.435056361715400e-001	 9.945126228282096e-001	 2.469906223785863e+000
1	 5.327204679537508e-001	 1.000331276267676e+000	 2.327519044783426e+000
1	 5.218905242704836e-001	 1.006023885409494e+000	 2.191116627059302e+000
1	 5.110179569017254e-001	 1.011590053110111e+000	 2.060932902504175e+000
1	 5.001049185014881e-001	 1.017029429902632e+000	 1.937185159318876e+000
1	 4.891535613148496e-001	 1.022341713801290e+000	 1.820073938341766e+000
1	 4.781660359085612e-001	 1.027526650065803e+000	 1.709782958388786e+000
1	 4.671444899166303e-001	 1.032584030926394e+000	 1.606479070312097e+000
1	 4.560910668022425e-001	 1.037513695270321e+000	 1.510312239419417e+000
1	 4.450079046373392e-001	 1.042315528290796e+000	 1.421415555834273e+000
1	 5.672855951827097e-001	 1.011830021265040e+000	 2.870458795443434e+000
1	 5.562946742560117e-001	 1.017914146127906e+000	 2.714110848893972e+000
1	 5.452557240756947e-001	 1.023869716234950e+000	 2.563556602125528e+000
1	 5.341709448343607e-001	 1.029696276140713e+000	 2.419101406198887e+000
1	 5.230425389447537e-001	 1.035393419356594e+000	 2.281032541576572e+000
1	 5.118727097142094e-001	 1.040960788192517e+000	 2.149619002473289e+000
1	 5.006636600315061e-001	 1.046398073556794e+000	 2.025111314494858e+000
1	 4.894175910676042e-001	 1.051705014714938e+000	 1.907741385444583e+000
1	 4.781367009917106e-001	 1.056881399008212e+000	 1.797722389095893e+000
1	 4.668231837040688e-001	 1.061927061532788e+000	 1.695248681656397e+000
1	 4.554792275868185e-001	 1.066841884780397e+000	 1.600495750570925e+000
1	 5.803273697359112e-001	 1.035091777134104e+000	 3.034198081966702e+000
1	 5.690837698869242e-001	 1.041315774727058e+000	 2.871278317188957e+000
1	 5.577910366020671e-001	 1.047408262117787e+000	 2.714478757475172e+000
1	 5.464514206558939e-001	 1.053368773390236e+000	 2.564142231185517e+000
1	 5.350671750941420e-001	 1.059196892710721e+000	 2.420591476371380e+000
1	 5.236405538777063e-001	 1.064892254165948e+000	 2.284128877195520e+000
1	 5.121738105393017e-001	 1.070454541558278e+000	 2.155036237926711e+000
1	 5.006691968543336e-001	 1.075883488158995e+000	 2.033574594418365e+000
1	 4.891289615274445e-001	 1.081178876420385e+000	 1.919984062891945e+000
1	 4.775553488961694e-001	 1.086340537647517e+000	 1.814483725757923e+000
1	 4.659505976530813e-001	 1.091368351630633e+000	 1.717271554121338e+000
1	 5.933691801500317e-001	 1.058353596966040e+000	 3.117751776220016e+000
1	 5.818729006839174e-001	 1.064717467673700e+000	 2.950150864588879e+000
1	 5.703263835966207e-001	 1.070946872724587e+000	 2.789240000825212e+000
1	 5.587319302447942e-001	 1.077041335732030e+000	 2.635383272104661e+000
1	 5.470918443073142e-001	 1.083000431517234e+000	 2.488922208209590e+000
1	 5.354084303987815e-001	 1.088823785943670e+000	 2.350175503496838e+000
1	 5.236839926959950e-001	 1.094511075707730e+000	 2.219438780962749e+000
1	 5.119208335789500e-001	 1.100062028086456e+000	 2.096984398275226e+000
1	 5.001212522878700e-001	 1.105476420643145e+000	 1.983061295542675e+000
1	 4.882875435977285e-001	 1.110754080891756e+000	 1.877894884491071e+000
1	 4.764219965116759e-001	 1.115894885921038e+000	 1.781686978626873e+000
1	 6.064110036025345e-001	 1.081615440053690e+000	 3.128893732983667e+000
1	 5.946620442666316e-001	 1.088119184015863e+000	 2.958718091678351e+000
1	 5.828617431231078e-001	 1.094485506863751e+000	 2.796023941790121e+000
1	 5.710124521107711e-001	 1.100713921740057e+000	 2.641181519006252e+000
1	 5.591165255416937e-001	 1.106803994120874e+000	 2.494535598594950e+000
1	 5.471763186842386e-001	 1.112755341646426e+000	 2.356405235183238e+000
1	 5.351941863593440e-001	 1.118567633907137e+000	 2.227083549394276e+000
1	 5.231724815516528e-001	 1.124240592185799e+000	 2.106837561102009e+000
1	 5.111135540370255e-001	 1.129773989156722e+000	 1.995908068953395e+000
1	 4.990197490279300e-001	 1.135167648542750e+000	 1.894509575700874e+000
1	 4.868934058381502e-001	 1.140421444731140e+000	 1.802830258784230e+000
1	 6.194528172708822e-001	 1.104877265689896e+000	 3.074742482176939e+000
1	 6.074511782547066e-001	 1.111520882801578e+000	 2.904296117683054e+000
1	 5.953970932452810e-001	 1.118024123343679e+000	 2.742324386500220e+000
1	 5.832929647635355e-001	 1.124386489988285e+000	 2.589189577250816e+000
1	 5.711411977547047e-001	 1.130607538866382e+000	 2.445225189632596e+000
1	 5.589441981408803e-001	 1.136686879394963e+000	 2.310735723159879e+000
1	 5.467043713871074e-001	 1.142624174058487e+000	 2.185996517762090e+000
1	 5.344241210826425e-001	 1.148419138145507e+000	 2.071253645821899e+000
1	 5.221058475389497e-001	 1.154071539441348e+000	 1.966723855113154e+000
1	 5.097519464059584e-001	 1.159581197877748e+000	 1.872594561988774e+000
1	 4.973648073080526e-001	 1.164947985140473e+000	 1.789023894052927e+000
1	 3.926526379975132e-001	 9.196869034687285e-001	-8.308647784339474e-001
1	 3.828475801467559e-001	 9.238115574925391e-001	-8.349836847123828e-001
1	 3.730200306188907e-001	 9.278233049990166e-001	-8.317240578873953e-001
1	 3.631718566724362e-001	 9.317221658209343e-001	-8.215328808283361e-001
1	 3.533049166519174e-001	 9.355081991183117e-001	-8.048776085304240e-001
1	 3.434210590039752e-001	 9.391815029145867e-001	-7.822450612946477e-001
1	 3.335221213151299e-001	 9.427422136050959e-001	-7.541403053058445e-001
1	 3.236099293720238e-001	 9.461905054388913e-001	-7.210855230881496e-001
1	 3.136862962449284e-001	 9.495265899749484e-001	-6.836188762764032e-001
1	 3.037530213952426e-001	 9.527507155138413e-001	-6.422933631119997e-001
1	 2.938118898076575e-001	 9.558631665059840e-001	-5.976756730297713e-001
1	 4.031234504962961e-001	 9.442120643481219e-001	-1.530018933963339e-001
1	 3.930569225507894e-001	 9.484467099390739e-001	-1.792909545459223e-001
1	 3.829673031454391e-001	 9.525654381505309e-001	-1.990110641721610e-001
1	 3.728565093327699e-001	 9.565682693441295e-001	-2.125170114869037e-001
1	 3.627264490136036e-001	 9.604552642574867e-001	-2.201819359632746e-001
1	 3.525790199269324e-001	 9.642265235280020e-001	-2.223963898136999e-001
1	 3.424161086620217e-001	 9.678821871882344e-001	-2.195673882001125e-001
1	 3.322395896935920e-001	 9.714224341338947e-001	-2.121174493159728e-001
1	 3.220513244408869e-001	 9.748474815655585e-001	-2.004836264502344e-001
1	 3.118531603513708e-001	 9.781575844051822e-001	-1.851165341206460e-001
1	 3.016469300097510e-001	 9.813530346885655e-001	-1.664793703293549e-001
1	 4.135944017341220e-001	 9.687375501904937e-001	 3.957982418267347e-001
1	 4.032664002295056e-001	 9.730821888058526e-001	 3.505521184823671e-001
1	 3.929147074744283e-001	 9.773078991396467e-001	 3.113866599188699e-001
1	 3.825412903160629e-001	 9.814147020823927e-001	 2.780218222537955e-001
1	 3.721481062121691e-001	 9.854026599493362e-001	 2.501606046232565e-001
1	 3.617371021947264e-001	 9.892718759918838e-001	 2.274898533059615e-001
1	 3.513102138563777e-001	 9.930224938798731e-001	 2.096810783094560e-001
1	 3.408693643605511e-001	 9.966546971557493e-001	 1.963912805393407e-001
1	 3.304164634760866e-001	 1.000168708661771e+000	 1.872637876860042e-001
1	 3.199534066371332e-001	 1.003564789941372e+000	 1.819290969884312e-001
1	 3.094820740290298e-001	 1.006843240615851e+000	 1.800057230549552e-001
1	 4.240654733865391e-001	 9.932633180753756e-001	 8.316534863710445e-001
1	 4.134759953160149e-001	 9.977179509799360e-001	 7.707347213829620e-001
1	 4.028622261975744e-001	 1.002050644666225e+000	 7.156788967316510e-001
1	 3.922261826735969e-001	 1.006261420553655e+000	 6.662645053462180e-001
1	 3.815698717593334e-001	 1.010350342535127e+000	 6.222537828258360e-001
1	 3.708952897803031e-001	 1.014317516476094e+000	 5.833934123899640e-001
1	 3.602044213330747e-001	 1.018163089683721e+000	 5.494152429967298e-001
1	 3.494992382703296e-001	 1.021887250347247e+000	 5.200370189288908e-001
1	 3.387816987110449e-001	 1.025490226950689e+000	 4.949631191578772e-001
1	 3.280537460765928e-001	 1.028972287659046e+000	 4.738853048076885e-001
1	 3.173173081534751e-001	 1.032333739679205e+000	 4.564834730650047e-001
1	 4.345366471290956e-001	 1.017789325082299e+000	 1.169128128090260e+000
1	 4.236856899434281e-001	 1.022353953348383e+000	 1.095885614804270e+000
1	 4.128098419065946e-001	 1.026793631430127e+000	 1.028513038339325e+000
1	 4.019111694566532e-001	 1.031108381275849e+000	 9.668323401820788e-001
1	 3.909917291668158e-001	 1.035298268356127e+000	 9.106492420962615e-001
1	 3.800535666566078e-001	 1.039363401150493e+000	 8.597538846081282e-001
1	 3.690987155269896e-001	 1.043303930603482e+000	 8.139214798610294e-001
1	 3.581291963203556e-001	 1.047120049551180e+000	 7.729129772425764e-001
1	 3.471470155062800e-001	 1.050811992119419e+000	 7.364757401938856e-001
1	 3.361541644938117e-001	 1.054380033094837e+000	 7.043442326190370e-001
1	 3.251526186710684e-001	 1.057824487269988e+000	 6.762407133262244e-001
1	 4.450079046373392e-001	 1.042315528290796e+000	 1.421415555834274e+000
1	 4.338954662448556e-001	 1.046990152798254e+000	 1.339256616603115e+000
1	 4.227575371932061e-001	 1.051536816131212e+000	 1.263157806316855e+000
1	 4.115962337165132e-001	 1.055955540766905e+000	 1.192970441529119e+000
1	 4.004136619463352e-001	 1.060246393753604e+000	 1.128529023239329e+000
1	 3.892119167965862e-001	 1.064409486184943e+000	 1.069651840251147e+000
1	 3.779930808729983e-001	 1.068444972642865e+000	 1.016141588580102e+000
1	 3.667592234080574e-001	 1.072353050610339e+000	 9.677860053471894e-001
1	 3.555123992223092e-001	 1.076133959855069e+000	 9.243585155952174e-001
1	 3.442546477128529e-001	 1.079787981785380e+000	 8.856188904716411e-001
1	 3.329879918697909e-001	 1.083315438779565e+000	 8.513139152271171e-001
1	 4.554792275868185e-001	 1.066841884780397e+000	 1.600495750570925e+000
1	 4.441053063534077e-001	 1.071626506216606e+000	 1.512880792423479e+000
1	 4.327052946491253e-001	 1.076280155469341e+000	 1.431661645963014e+000
1	 4.212813585044584e-001	 1.080802855544754e+000	 1.356705850693171e+000
1	 4.098356536096108e-001	 1.085194675068824e+000	 1.287862927263616e+000
1	 3.983703241731844e-001	 1.089455727749307e+000	 1.224964975794393e+000
1	 3.868875018059778e-001	 1.093586171805575e+000	 1.167827292394947e+000
1	 3.753893044308633e-001	 1.097586209367518e+000	 1.116249002278529e+000
1	 3.638778352196507e-001	 1.101456085844741e+000	 1.070013707870560e+000
1	 3.523551815577790e-001	 1.105196089267309e+000	 1.028890150307890e+000
1	 3.408234140376239e-001	 1.108806549599300e+000	 9.926328827315377e-001
1	 4.659505976530813e-001	 1.091368351630633e+000	 1.717271554121338e+000
1	 4.543151924021956e-001	 1.096262970490503e+000	 1.627709329634351e+000
1	 4.426530968660690e-001	 1.101023606144375e+000	 1.544989776441132e+000
1	 4.309665268717702e-001	 1.105650282127328e+000	 1.468984343338649e+000
1	 4.192576876683623e-001	 1.110143068643055e+000	 1.399544673132324e+000
1	 4.075287727593477e-001	 1.114502082013446e+000	 1.336503224884638e+000
1	 3.957819627608041e-001	 1.118727484095320e+000	 1.279673916958358e+000
1	 3.840194242862013e-001	 1.122819481665506e+000	 1.228852789152749e+000
1	 3.722433088588219e-001	 1.126778325775542e+000	 1.183818682223294e+000
1	 3.604557518526529e-001	 1.130604311077259e+000	 1.144333933072770e+000
1	 3.486588714625483e-001	 1.134297775120553e+000	 1.110145083903041e+000
1	 4.764219965116759e-001	 1.115894885921038e+000	 1.781686978626873e+000
1	 4.645251065243294e-001	 1.120899502507003e+000	 1.693730372238803e+000
1	 4.526009264357542e-001	 1.125767124856174e+000	 1.613143178668570e+000
1	 4.406517218697297e-001	 1.130497777032559e+000	 1.539789206994928e+000
1	 4.286797476343086e-001	 1.135091530817564e+000	 1.473510110875268e+000
1	 4.166872465280216e-001	 1.139548505147221e+000	 1.414126062644035e+000
1	 4.046764481723542e-001	 1.143868865515805e+000	 1.361436451248727e+000
1	 3.926495678715000e-001	 1.148052823347096e+000	 1.315220602153782e+000
1	 3.806088055003410e-001	 1.152100635334577e+000	 1.275238517332158e+000
1	 3.685563444215369e-001	 1.156012602751862e+000	 1.241231633457785e+000
1	 3.564943504325456e-001	 1.159789070734689e+000	 1.212923596411351e+000
1	 4.868934058381502e-001	 1.140421444731140e+000	 1.802830258784230e+000
1	 4.747350308529195e-001	 1.145536059153163e+000	 1.720072530790604e+000
1	 4.625487659498976e-001	 1.150510668304600e+000	 1.645262238486596e+000
1	 4.503369265496188e-001	 1.155345296778378e+000	 1.578244700974409e+000
1	 4.381018170191691e-001	 1.160040017933618e+000	 1.518840189898347e+000
1	 4.258457294521522e-001	 1.164594953320496e+000	 1.466844682373964e+000
1	 4.135709424755044e-001	 1.169010272070738e+000	 1.422030641231161e+000
1	 4.012797200841874e-001	 1.173286190255080e+000	 1.384147820469541e+000
1	 3.889743105047253e-001	 1.177422970208952e+000	 1.352924093812945e+000
1	 3.766569450884943e-001	 1.181420919827755e+000	 1.328066304238484e+000
1	 3.643298372355972e-001	 1.185280391833070e+000	 1.309261132356020e+000
1	 4.973648073080526e-001	 1.164947985140473e+000	 1.789023894052926e+000
1	 4.849449475210769e-001	 1.170172597316046e+000	 1.715095324503212e+000
1	 4.724965980002161e-001	 1.175254193189512e+000	 1.649717305200398e+000
1	 4.600221239627185e-001	 1.180192797882715e+000	 1.592706454796992e+000
1	 4.475238793346627e-001	 1.184988486332486e+000	 1.543850927864100e+000
1	 4.350042055046847e-001	 1.189641382703130e+000	 1.502911272768131e+000
1	 4.224654301051314e-001	 1.194151659763825e+000	 1.469621320761010e+000
1	 4.099098658216919e-001	 1.198519538232249e+000	 1.443689103890680e+000
1	 3.973398092324927e-001	 1.202745286085772e+000	 1.424797799321533e+000
1	 3.847575396775870e-001	 1.206829217841571e+000	 1.412606697645095e+000
1	 3.721653181596841e-001	 1.210771693807061e+000	 1.406752192757599e+000
1	 2.938118898076575e-001	 9.558631665059840e-001	-5.976756730297713e-001
1	 2.838646710056857e-001	 9.588642626988490e-001	-5.502439588667597e-001
1	 2.739131178235836e-001	 9.617543577873683e-001	-5.004120729661844e-001
1	 2.639589660669879e-001	 9.645338394785438e-001	-4.486621750173247e-001
1	 2.540039338948808e-001	 9.672031290579124e-001	-3.954788997699331e-001
1	 2.440497210832210e-001	 9.697626806991601e-001	-3.413485610682237e-001
1	 2.340980083161345e-001	 9.722129807570793e-001	-2.867583698165849e-001
1	 2.241504565049763e-001	 9.745545470450379e-001	-2.321956670616230e-001
1	 2.142087061355221e-001	 9.767879280981019e-001	-1.781471733092439e-001
1	 2.042743766435053e-001	 9.789137024229727e-001	-1.250982551263405e-001
1	 1.943490658186562e-001	 9.809324777358748e-001	-7.353221001261784e-002
1	 3.016469300097510e-001	 9.813530346885655e-001	-1.664793703293549e-001
1	 2.914344501272309e-001	 9.844341606898324e-001	-1.447398736141802e-001
1	 2.812175202806164e-001	 9.874013255358588e-001	-1.200371733610949e-001
1	 2.709979225639717e-001	 9.902549272725887e-001	-9.280397682645573e-002
1	 2.607774209541256e-001	 9.929953984199387e-001	-6.347713245930192e-002
1	 2.505577605546663e-001	 9.956232052629931e-001	-3.249685937629315e-002
1	 2.403406668682315e-001	 9.981388471261151e-001	-3.059876861862124e-004
1	 2.301278450974099e-001	 1.000542855631143e+000	 3.265078911913869e-002
1	 2.199209794745261e-001	 1.002835793940866e+000	 6.592764855003150e-002
1	 2.097217326205240e-001	 1.005018255988954e+000	 9.907835918433869e-002
1	 1.995317449331146e-001	 1.007090865697531e+000	 1.316569853789326e-001
1	 3.094820740290298e-001	 1.006843240615851e+000	 1.800057230549552e-001
1	 2.990043295512846e-001	 1.010004397486102e+000	 1.815349457349104e-001
1	 2.885220195238800e-001	 1.013048633111059e+000	 1.865514119768075e-001
1	 2.780369723299310e-001	 1.015976355875734e+000	 1.946505129075599e-001
1	 2.675509977647321e-001	 1.018788009534555e+000	 2.054219993586819e-001
1	 2.570658862601133e-001	 1.021484072484157e+000	 2.184507546147004e-001
1	 2.465834081378282e-001	 1.024065057018631e+000	 2.333175585386005e-001
1	 2.361053128922975e-001	 1.026531508568457e+000	 2.495998417945735e-001
1	 2.256333285029849e-001	 1.028884004924326e+000	 2.668724289408510e-001
1	 2.151691607766280e-001	 1.031123155447072e+000	 2.847082692270133e-001
1	 2.047144927194935e-001	 1.033249600264919e+000	 3.026791539878060e-001
1	 3.173173081534751e-001	 1.032333739679205e+000	 4.564834730650047e-001
1	 3.065742960300392e-001	 1.035574928338934e+000	 4.429253669083575e-001
1	 2.958266027699861e-001	 1.038696235629327e+000	 4.333372253463313e-001
1	 2.850761030460261e-001	 1.041698080274572e+000	 4.273225255244733e-001
1	 2.743246524724556e-001	 1.044580917263728e+000	 4.244777618260386e-001
1	 2.635740868098779e-001	 1.047345237105108e+000	 4.243932474200369e-001
1	 2.528262211996881e-001	 1.049991565062670e+000	 4.266539085932266e-001
1	 2.420828494286583e-001	 1.052520460375683e+000	 4.308400704900880e-001
1	 2.313457432239041e-001	 1.054932515462900e+000	 4.365282329384256e-001
1	 2.206166515784631e-001	 1.057228355112487e+000	 4.432918350989251e-001
1	 2.098973001076576e-001	 1.059408635658941e+000	 4.507020077371881e-001
1	 3.251526186710684e-001	 1.057824487269988e+000	 6.762407133262244e-001
1	 3.141443363156863e-001	 1.061145708499603e+000	 6.523938578512731e-001
1	 3.031312572355475e-001	 1.064344088207020e+000	 6.329562668771790e-001
1	 2.921153023934178e-001	 1.067420055455696e+000	 6.175207034378152e-001
1	 2.810983732230514e-001	 1.070374076469423e+000	 6.056717525826577e-001
1	 2.700823508142761e-001	 1.073206653868300e+000	 5.969866773172881e-001
1	 2.590690951285748e-001	 1.075918325886272e+000	 5.910362679464301e-001
1	 2.480604442455113e-001	 1.078509665571524e+000	 5.873856833152907e-001
1	 2.370582136402890e-001	 1.080981279971006e+000	 5.855952825071634e-001
1	 2.260641954926754e-001	 1.083333809300356e+000	 5.852214456144332e-001
1	 2.150801580274720e-001	 1.085567926100498e+000	 5.858173822634899e-001
1	 3.329879918697909e-001	 1.083315438779565e+000	 8.513139152271171e-001
1	 3.217144371604180e-001	 1.086716693219385e+000	 8.216830896615904e-001
1	 3.104359701371768e-001	 1.089992145960497e+000	 7.968555038534116e-001
1	 2.991545580532664e-001	 1.093142236405700e+000	 7.763955045825175e-001
1	 2.878721481622746e-001	 1.096167442013604e+000	 7.598582041589627e-001
1	 2.765906668836241e-001	 1.099068277516187e+000	 7.467904154597868e-001
1	 2.653120189992517e-001	 1.101845294117479e+000	 7.367315802235538e-001
1	 2.540380868818759e-001	 1.104499078674684e+000	 7.292146889465189e-001
1	 2.427707297551454e-001	 1.107030252863060e+000	 7.237671907882118e-001
1	 2.315117829859108e-001	 1.109439472325838e+000	 7.199118919602084e-001
1	 2.202630574088016e-001	 1.111727425810493e+000	 7.171678411401927e-001
1	 3.408234140376239e-001	 1.108806549599300e+000	 9.926328827315377e-001
1	 3.292845853164264e-001	 1.112287837749558e+000	 9.614561249096455e-001
1	 3.177407286914863e-001	 1.115640364006114e+000	 9.354295297221571e-001
1	 3.061938577067327e-001	 1.118864578111176e+000	 9.140723224005020e-001
1	 2.946459654358807e-001	 1.121960968758238e+000	 8.968935682331322e-001
1	 2.830990236282377e-001	 1.124930062791226e+000	 8.833932105922141e-001
1	 2.715549818864824e-001	 1.127772424384332e+000	 8.730631013402623e-001
1	 2.600157668767713e-001	 1.130488654203866e+000	 8.653880217766957e-001
1	 2.484832815714786e-001	 1.133079388553482e+000	 8.598466923597663e-001
1	 2.369594045248153e-001	 1.135545298504094e+000	 8.559127695088620e-001
1	 2.254459891815113e-001	 1.137887089009828e+000	 8.530558278716758e-001
1	 3.486588714625483e-001	 1.134297775120553e+000	 1.110145083903041e+000
1	 3.368547675359032e-001	 1.137859097341395e+000	 1.081417715181779e+000
1	 3.250455201150881e-001	 1.141288697460231e+000	 1.058138807911654e+000
1	 3.132331890349773e-001	 1.144587035558720e+000	 1.039766667530683e+000
1	 3.014198131896246e-001	 1.147754611565289e+000	 1.025748638041960e+000
1	 2.896074096584329e-001	 1.150791964435870e+000	 1.015522266190135e+000
1	 2.777979728650303e-001	 1.153699671314873e+000	 1.008516456426718e+000
1	 2.659934737692166e-001	 1.156478346677774e+000	 1.004152614617032e+000
1	 2.541958590922944e-001	 1.159128641456689e+000	 1.001845778522440e+000
1	 2.424070505760347e-001	 1.161651242150283e+000	 1.001005733175640e+000
1	 2.306289442754662e-001	 1.164046869919403e+000	 1.001038109352585e+000
1	 3.564943504325456e-001	 1.159789070734689e+000	 1.212923596411351e+000
1	 3.444249705710406e-001	 1.163430427246174e+000	 1.190419612463815e+000
1	 3.323503316245950e-001	 1.166937101439205e+000	 1.173612331950362e+000
1	 3.202725397191608e-001	 1.170309563734924e+000	 1.161884169367422e+000
1	 3.081936795692617e-001	 1.173548325296723e+000	 1.154605893854298e+000
1	 2.961158135845260e-001	 1.176653937192574e+000	 1.151137942007667e+000
1	 2.840409810096591e-001	 1.179626989537143e+000	 1.150831719204651e+000
1	 2.719711970982311e-001	 1.182468110615112e+000	 1.153030887151780e+000
1	 2.599084523205983e-001	 1.185177965987098e+000	 1.157072635469029e+000
1	 2.478547116062153e-001	 1.187757257579563e+000	 1.162288935214971e+000
1	 2.358119136205312e-001	 1.190206722760122e+000	 1.168007772357778e+000
1	 3.643298372355972e-001	 1.185280391833070e+000	 1.309261132356020e+000
1	 3.519951811740304e-001	 1.189001782715169e+000	 1.296552299540997e+000
1	 3.396551504366194e-001	 1.192585531059394e+000	 1.289737046511632e+000
1	 3.273118974404436e-001	 1.196032117626382e+000	 1.288107681395488e+000
1	 3.149675527205472e-001	 1.199342064814506e+000	 1.290944294750879e+000
1	 3.026242240168329e-001	 1.202515935803794e+000	 1.297516242894974e+000
1	 2.902839953951322e-001	 1.205554333679185e+000	 1.307083616790844e+000
1	 2.779489264028340e-001	 1.208457900534583e+000	 1.318898693947866e+000
1	 2.656210512593957e-001	 1.211227316559127e+000	 1.332207370896189e+000
1	 2.533023780820027e-001	 1.213863299107094e+000	 1.346250573908538e+000
1	 2.409948881465711e-001	 1.216366601752886e+000	 1.360265645756007e+000
1	 3.721653181596841e-001	 1.210771693807061e+000	 1.406752192757599e+000
1	 3.595653860970648e-001	 1.214573118999657e+000	 1.407225139730645e+000
1	 3.469599637677736e-001	 1.218233941437156e+000	 1.413735979341173e+000
1	 3.343512498799867e-001	 1.221754652219686e+000	 1.425473389760116e+000
1	 3.217414207892364e-001	 1.225135784980603e+000	 1.441613365720342e+000
1	 3.091326295656695e-001	 1.228377915011984e+000	 1.461320893674985e+000
1	 2.965270050962132e-001	 1.231481658369039e+000	 1.483751608911438e+000
1	 2.839266512220445e-001	 1.234447670954891e+000	 1.508053431788633e+000
1	 2.713336459116921e-001	 1.237276647587193e+000	 1.533368180385748e+000
1	 2.587500404700431e-001	 1.239969321048035e+000	 1.558833156981598e+000
1	 2.461778587834510e-001	 1.242526461118597e+000	 1.583582705913607e+000
1	 1.943490658186562e-001	 9.809324777358748e-001	-7.353221001261726e-002
1	 1.844358351184653e-001	 9.828446114249160e-001	-2.330109453087515e-002
1	 1.745347453506193e-001	 9.846510785005697e-001	 2.579958370321839e-002
1	 1.646473231798204e-001	 9.863525701375676e-001	 7.335292715114478e-002
1	 1.547750715930049e-001	 9.879498035443917e-001	 1.189456804357811e-001
1	 1.449194694473043e-001	 9.894435211587169e-001	 1.621687625986637e-001
1	 1.350819710464206e-001	 9.908344898374509e-001	 2.026177802581430e-001
1	 1.252640057452698e-001	 9.921235000424143e-001	 2.398935212209177e-001
1	 1.154669775827054e-001	 9.933113650226918e-001	 2.736024281556396e-001
1	 1.056922649420928e-001	 9.943989199946589e-001	 3.033570519958832e-001
1	 9.594122023947826e-002	 9.953870213206723e-001	 3.287764847960837e-001
1	 1.995317449331146e-001	 1.007090865697531e+000	 1.316569853789326e-001
1	 1.893541595092008e-001	 1.009053989985139e+000	 1.638718788553384e-001
1	 1.791890387780153e-001	 1.010908629862745e+000	 1.959646487482528e-001
1	 1.690379501156183e-001	 1.012655494936566e+000	 2.275273935160268e-001
1	 1.589024365888925e-001	 1.014295321540812e+000	 2.581552901987241e-001
1	 1.487840164914495e-001	 1.015828871911665e+000	 2.874471348352194e-001
1	 1.386841829087086e-001	 1.017256933355725e+000	 3.150058641782730e-001
1	 1.286044033119972e-001	 1.018580317413973e+000	 3.404390582364256e-001
1	 1.185461191814805e-001	 1.019799859022319e+000	 3.633594232263513e-001
1	 1.085107456576841e-001	 1.020916415669762e+000	 3.833852545774112e-001
1	 9.849967122134784e-002	 1.021930866555178e+000	 4.001408796862196e-001
1	 2.047144927194935e-001	 1.033249600264919e+000	 3.026791539878054e-001
1	 1.942725490689864e-001	 1.035263715826961e+000	 3.210622608771624e-001
1	 1.838433938759064e-001	 1.037166529144998e+000	 3.401472650611502e-001
1	 1.734286352282083e-001	 1.038958768256984e+000	 3.595179955163556e-001
1	 1.630298562732485e-001	 1.040641188623105e+000	 3.787611327301051e-001
1	 1.526486147416389e-001	 1.042214572278316e+000	 3.974667755791757e-001
1	 1.422864425010266e-001	 1.043679726979181e+000	 4.152289889344422e-001
1	 1.319448451396527e-001	 1.045037485346122e+000	 4.316463314856201e-001
1	 1.216253015794873e-001	 1.046288704002161e+000	 4.463223633410403e-001
1	 1.113292637187003e-001	 1.047434262709218e+000	 4.588661330176261e-001
1	 1.010581561032000e-001	 1.048475063502990e+000	 4.688926434919764e-001
1	 2.098973001076576e-001	 1.059408635658941e+000	 4.507020077371886e-001
1	 1.991909951903410e-001	 1.061473743082011e+000	 4.591121913771121e-001
1	 1.884978024988975e-001	 1.063424730394631e+000	 4.688699143046047e-001
1	 1.778193708336415e-001	 1.065262344066698e+000	 4.795345698360552e-001
1	 1.671573234228617e-001	 1.066987358684599e+000	 4.906684973930708e-001
1	 1.565132574346200e-001	 1.068600576082287e+000	 5.018375934329227e-001
1	 1.458887435192350e-001	 1.070102824466526e+000	 5.126119015933467e-001
1	 1.352853253822968e-001	 1.071494957537422e+000	 5.225661815070534e-001
1	 1.247045193880079e-001	 1.072777853605359e+000	 5.312804558080994e-001
1	 1.141478141926026e-001	 1.073952414705431e+000	 5.383405349143948e-001
1	 1.036166704075698e-001	 1.075019565710423e+000	 5.433385192346418e-001
1	 2.150801580274720e-001	 1.085567926100498e+000	 5.858173822634899e-001
1	 2.041094892657835e-001	 1.087684025881921e+000	 5.878193464429983e-001
1	 1.931522565015935e-001	 1.089683187658944e+000	 5.916414563143891e-001
1	 1.822101492479693e-001	 1.091566176333586e+000	 5.968034965598044e-001
1	 1.712848308145205e-001	 1.093333785618622e+000	 6.028286008188265e-001
1	 1.603779378071404e-001	 1.094986837147195e+000	 6.092439236135639e-001
1	 1.494910796591941e-001	 1.096526179576468e+000	 6.155812890699496e-001
1	 1.386258381939897e-001	 1.097952687686433e+000	 6.213778158459613e-001
1	 1.277837672183244e-001	 1.099267261475050e+000	 6.261765177513999e-001
1	 1.169663921468526e-001	 1.100470825250804e+000	 6.295268796121204e-001
1	 1.061752096569922e-001	 1.101564326723789e+000	 6.309854080028279e-001
1	 2.202630574088016e-001	 1.111727425810493e+000	 7.171678411401932e-001
1	 2.090280226878327e-001	 1.113894518358322e+000	 7.160598532860992e-001
1	 1.978067477385986e-001	 1.115941854985237e+000	 7.170764215507398e-001
1	 1.866009627872431e-001	 1.117870219025528e+000	 7.196834485763479e-001
1	 1.754123712250134e-001	 1.119680423318503e+000	 7.233508849298735e-001
1	 1.642426490959474e-001	 1.121373309296657e+000	 7.275534783790660e-001
1	 1.530934446167642e-001	 1.122949746067712e+000	 7.317714966698997e-001
1	 1.419663777287918e-001	 1.124410629491716e+000	 7.354914231652715e-001
1	 1.308630396817190e-001	 1.125756881254375e+000	 7.382066247851519e-001
1	 1.197849926489115e-001	 1.126989447937741e+000	 7.394179917705580e-001
1	 1.087337693740024e-001	 1.128109300089399e+000	 7.386345488703352e-001
1	 2.254459891815113e-001	 1.137887089009828e+000	 8.530558278716752e-001
1	 2.139465868490073e-001	 1.140105174642845e+000	 8.518942614624211e-001
1	 2.024612680645177e-001	 1.142200686420812e+000	 8.529978592401640e-001
1	 1.909918037675141e-001	 1.144174426110399e+000	 8.557651850774015e-001
1	 1.795399374311289e-001	 1.146027225677570e+000	 8.595998348279161e-001
1	 1.681073845377886e-001	 1.147759946354290e+000	 8.639112787813629e-001
1	 1.566958320878055e-001	 1.149373477698965e+000	 8.681156734712117e-001
1	 1.453069381407635e-001	 1.150868736651832e+000	 8.716366421396048e-001
1	 1.339423313894738e-001	 1.152246666586471e+000	 8.739060232529295e-001
1	 1.226036107662408e-001	 1.153508236358646e+000	 8.743645865561601e-001
1	 1.112923450811353e-001	 1.154654439353569e+000	 8.724627162405727e-001
1	 2.306289442754662e-001	 1.164046869919403e+000	 1.001038109352585e+000
1	 2.188651731418263e-001	 1.166315948867122e+000	 1.002659234177901e+000
1	 2.071158093339555e-001	 1.168459636012968e+000	 1.006526326447902e+000
1	 1.953826645048334e-001	 1.170478751556079e+000	 1.011957897609284e+000
1	 1.836675222096557e-001	 1.172374146589153e+000	 1.018278750207243e+000
1	 1.719721373694115e-001	 1.174146702143711e+000	 1.024820928861479e+000
1	 1.602982357681785e-001	 1.175797328228937e+000	 1.030924635619401e+000
1	 1.486475135839651e-001	 1.177326962865341e+000	 1.035939108926977e+000
1	 1.370216369528710e-001	 1.178736571114481e+000	 1.039223465562502e+000
1	 1.254222415663019e-001	 1.180027144105923e+000	 1.040147504982508e+000
1	 1.138509323009261e-001	 1.181199698062607e+000	 1.038092475633644e+000
1	 2.358119136205312e-001	 1.190206722760122e+000	 1.168007772357779e+000
1	 2.237837729588087e-001	 1.192526795162783e+000	 1.175047155340281e+000
1	 2.117703634015168e-001	 1.194718657809009e+000	 1.184157149030816e+000
1	 1.997735373152525e-001	 1.196783149330445e+000	 1.194564176338086e+000
1	 1.877951183373821e-001	 1.198721139946578e+000	 1.205502476302341e+000
1	 1.758369008275634e-001	 1.200533530488537e+000	 1.216215178495236e+000
1	 1.639006493537435e-001	 1.202221251416331e+000	 1.225955336014387e+000
1	 1.519880982124569e-001	 1.203785261830803e+000	 1.233986916242995e+000
1	 1.401009509831927e-001	 1.205226548481543e+000	 1.239585748667153e+000
1	 1.282408801165560e-001	 1.206546124771974e+000	 1.242040429162303e+000
1	 1.164095265559098e-001	 1.207745029762831e+000	 1.240653180277324e+000
1	 2.409948881465711e-001	 1.216366601752886e+000	 1.360265645756007e+000
1	 2.287023776924730e-001	 1.218737667661458e+000	 1.375175470477935e+000
1	 2.164249221218060e-001	 1.220977705856232e+000	 1.391827719014067e+000
1	 2.041644145148226e-001	 1.223087573401375e+000	 1.409345308663343e+000
1	 1.919227185910969e-001	 1.225068159643175e+000	 1.426860755451407e+000
1	 1.797016681489920e-001	 1.226920385212384e+000	 1.443517386454630e+000
1	 1.675030665403606e-001	 1.228645201019855e+000	 1.458470504148415e+000
1	 1.553286861802993e-001	 1.230243587246780e+000	 1.470888501875640e+000
1	 1.431802680917211e-001	 1.231716552330795e+000	 1.479953929670013e+000
1	 1.310595214844649e-001	 1.233065131949204e+000	 1.484864509806709e+000
1	 1.189681233686213e-001	 1.234290388000549e+000	 1.484834101585473e+000
1	 2.461778587834510e-001	 1.242526461118597e+000	 1.583582705913607e+000
1	 2.336209787353383e-001	 1.244948520494780e+000	 1.608647273607565e+000
1	 2.210794773494281e-001	 1.247236734201940e+000	 1.634976295907268e+000
1	 2.085552884195949e-001	 1.249391977736748e+000	 1.661578334109719e+000
1	 1.960503157475883e-001	 1.251415159572273e+000	 1.687473580749075e+000
1	 1.835664325704446e-001	 1.253307220138870e+000	 1.711695223977487e+000
1	 1.711054810238903e-001	 1.255069130798217e+000	 1.733290756629499e+000
1	 1.586692716415527e-001	 1.256701892811832e+000	 1.751323228986353e+000
1	 1.462595828897382e-001	 1.258206536305377e+000	 1.764872444413941e+000
1	 1.338781607374896e-001	 1.259584119230017e+000	 1.773036097205595e+000
1	 1.215267182615959e-001	 1.260835726322077e+000	 1.774930852111702e+000
1	 9.594122023947826e-002	 9.953870213206723e-001	 3.287764847960847e-001
1	 8.621371590998771e-002	 9.962766718121099e-001	 3.494059190679127e-001
1	 7.651253352126196e-002	 9.970686125683425e-001	 3.652015859537600e-001
1	 6.683896610081594e-002	 9.977637591031844e-001	 3.764257846065590e-001
1	 5.719427911104236e-002	 9.983630448185401e-001	 3.833549425996477e-001
1	 4.757971027342479e-002	 9.988674201817246e-001	 3.862788020318409e-001
1	 3.799646941872222e-002	 9.992778519071311e-001	 3.854996094422807e-001
1	 2.844573836262598e-002	 9.995953221430518e-001	 3.813313108593390e-001
1	 1.892867080636962e-002	 9.998208276644112e-001	 3.740987532536726e-001
1	 9.446392261750505e-003	 9.999553790721549e-001	 3.641368936024230e-001
1	 0.000000000000000e+000	 1.000000000000000e+000	 3.517900167177466e-001
1	 9.849967122134784e-002	 1.021930866555178e+000	 4.001408796862196e-001
1	 8.851276490585905e-002	 1.022844241231782e+000	 4.136462966484356e-001
1	 7.855288245458961e-002	 1.023657300561674e+000	 4.242186907653935e-001
1	 6.862135137610560e-002	 1.024370984472468e+000	 4.319490285057028e-001
1	 5.871947087877485e-002	 1.024986251256887e+000	 4.369403074393803e-001
1	 4.884851169029193e-002	 1.025504076728145e+000	 4.393070432818165e-001
1	 3.900971590386785e-002	 1.025925453379796e+000	 4.391747548039876e-001
1	 2.920429685057112e-002	 1.026251389550869e+000	 4.366794475995150e-001
1	 1.943343899728704e-002	 1.026482908597069e+000	 4.319670976678784e-001
1	 9.698297869739969e-003	 1.026621048068823e+000	 4.251931357358985e-001
1	 0.000000000000000e+000	 1.026666858896873e+000	 4.165219332093761e-001
1	 1.010581561032000e-001	 1.048475063502990e+000	 4.688926434919764e-001
1	 9.081184436458804e-002	 1.049412162678889e+000	 4.767496231014692e-001
1	 8.059325842294968e-002	 1.050246340862016e+000	 4.829893993312758e-001
1	 7.040376026835922e-002	 1.050978562394118e+000	 4.875507302879737e-001
1	 6.024468285560673e-002	 1.051609810459080e+000	 4.903831518517975e-001
1	 5.011732991903532e-002	 1.052141086216367e+000	 4.914467216339857e-001
1	 4.002297581473560e-002	 1.052573407939045e+000	 4.907117549035993e-001
1	 2.996286538957090e-002	 1.052907810157237e+000	 4.881585532143678e-001
1	 1.993821387648608e-002	 1.053145342807795e+000	 4.837771264518730e-001
1	 9.950206815530237e-003	 1.053287070390996e+000	 4.775669090092043e-001
1	 0.000000000000000e+000	 1.053334071134978e+000	 4.695364707852557e-001
1	 1.036166704075698e-001	 1.075019565710423e+000	 5.433385192346418e-001
1	 9.311095026268376e-002	 1.075980389658250e+000	 5.468354577746903e-001
1	 8.263365785559605e-002	 1.076835686937253e+000	 5.495240442854427e-001
1	 7.218618965828585e-002	 1.077586446303605e+000	 5.512083457024428e-001
1	 6.176991237235380e-002	 1.078233675832652e+000	 5.517027619273958e-001
1	 5.138616273917136e-002	 1.078778402030408e+000	 5.508319848320108e-001
1	 4.103624737807992e-002	 1.079221668949764e+000	 5.484309433684635e-001
1	 3.072144265210026e-002	 1.079564537312246e+000	 5.443447353259895e-001
1	 2.044299456059079e-002	 1.079808083636172e+000	 5.384285462847788e-001
1	 1.020211865827077e-002	 1.079953399371986e+000	 5.305475563233316e-001
1	 0.000000000000000e+000	 1.080001590045551e+000	 5.205768350454055e-001
1	 1.061752096569922e-001	 1.101564326723789e+000	 6.309854080028283e-001
1	 9.541007857665534e-002	 1.102548875674683e+000	 6.312415803418907e-001
1	 8.467407718178258e-002	 1.103425292255272e+000	 6.310617254555251e-001
1	 7.396863642659460e-002	 1.104194589636403e+000	 6.301312840340856e-001
1	 6.329515675983193e-002	 1.104857800785134e+000	 6.281463613965317e-001
1	 5.265500793021638e-002	 1.105415977554288e+000	 6.248138616294668e-001
1	 4.204952882065519e-002	 1.105870189776840e+000	 6.198516019861327e-001
1	 3.148002731063408e-002	 1.106221524365987e+000	 6.129884079651219e-001
1	 2.094778016622522e-002	 1.106471084421780e+000	 6.039641895157502e-001
1	 1.045403295711100e-002	 1.106619988345106e+000	 5.925299988412343e-001
1	 0.000000000000000e+000	 1.106669368959824e+000	 5.784480702929197e-001
1	 1.087337693740024e-001	 1.128109300089399e+000	 7.386345488703362e-001
1	 9.770922528301190e-002	 1.129117574233009e+000	 7.366160488183579e-001
1	 8.671451283076313e-002	 1.130015110283961e+000	 7.341611295540084e-001
1	 7.575109745399455e-002	 1.130802945827984e+000	 7.308513548426532e-001
1	 6.482041334885687e-002	 1.131482138724057e+000	 7.262800321857479e-001
1	 5.392386327168685e-002	 1.132053766172024e+000	 7.200524839504003e-001
1	 4.306281836921587e-002	 1.132518923785159e+000	 7.117862929187527e-001
1	 3.223861803764724e-002	 1.132878724668551e+000	 7.011115226222549e-001
1	 2.145256981001344e-002	 1.133134298504202e+000	 6.876709128694396e-001
1	 1.070594927120041e-002	 1.133286790643667e+000	 6.711200509120775e-001
1	 0.000000000000000e+000	 1.133337361209029e+000	 6.511275187304814e-001
1	 1.112923450811353e-001	 1.154654439353569e+000	 8.724627162405733e-001
1	 1.000083863582626e-001	 1.155686438838045e+000	 8.689965675053816e-001
1	 8.875496123179164e-002	 1.156605094491205e+000	 8.647788304992862e-001
1	 7.753356962119480e-002	 1.157411468313820e+000	 8.593007467449344e-001
1	 6.634567947024449e-002	 1.158106643056953e+000	 8.520671017027862e-001
1	 5.519272654309911e-002	 1.158691721267636e+000	 8.425965963530310e-001
1	 4.407611425051639e-002	 1.159167824339611e+000	 8.304221873511114e-001
1	 3.299721350561465e-002	 1.159536091570028e+000	 8.150913961337979e-001
1	 2.195736260857948e-002	 1.159797679223020e+000	 7.961665874041380e-001
1	 1.095786715968844e-002	 1.159953759600982e+000	 7.732252174763205e-001
1	 0.000000000000000e+000	 1.160005520124402e+000	 7.458600530073301e-001
1	 1.138509323009261e-001	 1.181199698062607e+000	 1.038092475633645e+000
1	 1.023075577789164e-001	 1.182255422994611e+000	 1.033879159894672e+000
1	 9.079541881412197e-002	 1.183195198344892e+000	 1.028337038563630e+000
1	 7.931604980890450e-002	 1.184020110529385e+000	 1.020879498351644e+000
1	 6.787095245481058e-002	 1.184731267191354e+000	 1.010935967229381e+000
1	 5.646159552396952e-002	 1.185329796225141e+000	 9.979523513844686e-001
1	 4.508941469131115e-002	 1.185816844805080e+000	 9.813914348911235e-001
1	 3.375581238701120e-002	 1.186193578420510e+000	 9.607332425404332e-001
1	 2.246215767854739e-002	 1.186461179917814e+000	 9.354753663440647e-001
1	 1.120978618172454e-002	 1.186620848550362e+000	 9.051332562827765e-001
1	 0.000000000000000e+000	 1.186673799037173e+000	 8.692404759289388e-001
1	 1.164095265559098e-001	 1.207745029762831e+000	 1.240653180277324e+000
1	 1.046067355214827e-001	 1.208824480207525e+000	 1.236277790990285e+000
1	 9.283588200700799e-002	 1.209785375312910e+000	 1.229782420683131e+000
1	 8.109853489783266e-002	 1.210628825910150e+000	 1.220514077033073e+000
1	 6.939622963337101e-002	 1.211355964534790e+000	 1.207838981560547e+000
1	 5.773046799381452e-002	 1.211967944428558e+000	 1.191143038217997e+000
1	 4.610271791835461e-002	 1.212465938546455e+000	 1.169832258803657e+000
1	 3.451441335431180e-002	 1.212851138570085e+000	 1.143333145782441e+000
1	 2.296695413654122e-002	 1.213124753928167e+000	 1.111093033167509e+000
1	 1.146170589645817e-002	 1.213288010825121e+000	 1.072580386182789e+000
1	 0.000000000000000e+000	 1.213342151278578e+000	 1.027285060490540e+000
1	 1.189681233686213e-001	 1.234290388000549e+000	 1.484834101585473e+000
1	 1.069059155624703e-001	 1.235393563981607e+000	 1.480776300744698e+000
1	 9.487634723970358e-002	 1.236375578863144e+000	 1.473637335310358e+000
1	 8.288102176868849e-002	 1.237237567891589e+000	 1.462708403378072e+000
1	 7.092150833674156e-002	 1.237980688494794e+000	 1.447303744763308e+000
1	 5.899934173215044e-002	 1.238606119261905e+000	 1.426761108695204e+000
1	 4.711602215840118e-002	 1.239115058928623e+000	 1.400442172414046e+000
1	 3.527301507999132e-002	 1.239508725368847e+000	 1.367732911447092e+000
1	 2.347175109918501e-002	 1.239788354593661e+000	 1.328043922415280e+000
1	 1.171362586303879e-002	 1.239955199758569e+000	 1.280810699293456e+000
1	 0.000000000000000e+000	 1.240010530179849e+000	 1.225493864116876e+000
1	 1.215267182615959e-001	 1.260835726322077e+000	 1.774930852111703e+000
1	 1.092050938783885e-001	 1.261962627821675e+000	 1.771573781094050e+000
1	 9.691681094146261e-002	 1.262965762463481e+000	 1.764044599060992e+000
1	 8.466350730218102e-002	 1.263846289909173e+000	 1.751588434008732e+000
1	 7.244678589573805e-002	 1.264605392478897e+000	 1.733477920545683e+000
1	 6.026821451849371e-002	 1.265244274109201e+000	 1.709013635279220e+000
1	 4.812932563820527e-002	 1.265764159316470e+000	 1.677524477143039e+000
1	 3.603161623652470e-002	 1.266166292166884e+000	 1.638367993691108e+000
1	 2.397654768310283e-002	 1.266451935253878e+000	 1.590930654462228e+000
1	 1.196554564061585e-002	 1.266622368684020e+000	 1.534628072597762e+000
1	 0.000000000000000e+000	 1.266678889072220e+000	 1.468905175961453e+000
1	 1.266678889072220e+000	 0.000000000000000e+000	 2.320302413877734e+001
1	 1.266622368684020e+000	 1.196554564061589e-002	 2.312231723722872e+001
1	 1.266451935253877e+000	 2.397654768310291e-002	 2.304032117385490e+001
1	 1.266166292166884e+000	 3.603161623652462e-002	 2.295668044452541e+001
1	 1.265764159316470e+000	 4.812932563820523e-002	 2.287101756089028e+001
1	 1.265244274109201e+000	 6.026821451849370e-002	 2.278293292993785e+001
1	 1.264605392478897e+000	 7.244678589573809e-002	 2.269200476415411e+001
1	 1.263846289909173e+000	 8.466350730218103e-002	 2.259778902350601e+001
1	 1.262965762463481e+000	 9.691681094146248e-002	 2.249981939044584e+001
1	 1.261962627821675e+000	 1.092050938783884e-001	 2.239760727910529e+001
1	 1.260835726322077e+000	 1.215267182615958e-001	 2.229064187981508e+001
1	 1.293343190136031e+000	 0.000000000000000e+000	 2.328475304450116e+001
1	 1.293285479961983e+000	 1.221742708636594e-002	 2.318472434812754e+001
1	 1.293111458812611e+000	 2.448126745774412e-002	 2.308405979723458e+001
1	 1.292819802778529e+000	 3.679010196516097e-002	 2.298238459737010e+001
1	 1.292409204806197e+000	 4.914247493488750e-002	 2.287929741689241e+001
1	 1.291878375723875e+000	 6.153689423456663e-002	 2.277437017679855e+001
1	 1.291226045277082e+000	 7.397183137018699e-002	 2.266714787565493e+001
1	 1.290450963172669e+000	 8.644572161462837e-002	 2.255714845116063e+001
1	 1.289551900130541e+000	 9.895696416848014e-002	 2.244386267984872e+001
1	 1.288527648942039e+000	 1.115039223538046e-001	 2.232675411640264e+001
1	 1.287377025533950e+000	 1.240849238414894e-001	 2.220525907403050e+001
1	 1.320007431208043e+000	 0.000000000000000e+000	 2.350705173912124e+001
1	 1.319948531250828e+000	 1.246930796544279e-002	 2.338690781274038e+001
1	 1.319770922390312e+000	 2.498598609687761e-002	 2.326661762191042e+001
1	 1.319473253422687e+000	 3.754858598735979e-002	 2.314577465966447e+001
1	 1.319054190347506e+000	 5.015562195217481e-002	 2.302394214270587e+001
1	 1.318512417414774e+000	 6.280557109632907e-002	 2.290065274943083e+001
1	 1.317846638181773e+000	 7.549687341352278e-002	 2.277540839737693e+001
1	 1.317055576578640e+000	 8.822793191734575e-002	 2.264768006185996e+001
1	 1.316137977981790e+000	 1.009971128054111e-001	 2.251690763753676e+001
1	 1.315092610294107e+000	 1.138027456571139e-001	 2.238249984460014e+001
1	 1.313918265030891e+000	 1.266431236656700e-001	 2.224383418127542e+001
1	 1.346671618954121e+000	 0.000000000000000e+000	 2.386225508990668e+001
1	 1.346611529216121e+000	 1.272118834083839e-002	 2.372064361332767e+001
1	 1.346430332651642e+000	 2.549070372671897e-002	 2.357927092149490e+001
1	 1.346126650762511e+000	 3.830706849278583e-002	 2.343768703372487e+001
1	 1.345699122601420e+000	 5.116876694340033e-002	 2.329540873317866e+001
1	 1.345146405840180e+000	 6.407424542099521e-002	 2.315191928968937e+001
1	 1.344467177847875e+000	 7.702191240704667e-002	 2.300666822616728e+001
1	 1.343660136777989e+000	 9.001013865592052e-002	 2.285907113050637e+001
1	 1.342724002663489e+000	 1.030372573623213e-001	 2.270850951488663e+001
1	 1.341657518518851e+000	 1.161015643630453e-001	 2.255433072433154e+001
1	 1.340459451447940e+000	 1.292013183737075e-001	 2.239584789633832e+001
1	 1.373335760040133e+000	 0.000000000000000e+000	 2.434329330359519e+001
1	 1.373274480523431e+000	 1.297306827554474e-002	 2.417834647483283e+001
1	 1.373089696261269e+000	 2.599542047348386e-002	 2.401397351957646e+001
1	 1.372780001461154e+000	 3.906554967110389e-002	 2.384966983189657e+001
1	 1.372344008228968e+000	 5.218191016189716e-002	 2.368489535736253e+001
1	 1.371780347658369e+000	 6.534291752577912e-002	 2.351907433607272e+001
1	 1.371087670930294e+000	 7.854694873205979e-002	 2.335159509325002e+001
1	 1.370264650421613e+000	 9.179234227594005e-002	 2.318180987941676e+001
1	 1.369309980821893e+000	 1.050773983492762e-001	 2.300903476212810e+001
1	 1.368222380257244e+000	 1.184003790463279e-001	 2.283254957120233e+001
1	 1.367000591420135e+000	 1.317595086051721e-001	 2.265159789933766e+001
1	 1.399999861131944e+000	 0.000000000000000e+000	 2.494363522552924e+001
1	 1.399937391838324e+000	 1.322494783255377e-002	 2.475300903055093e+001
1	 1.399749019883856e+000	 2.650013646338788e-002	 2.456329225960791e+001
1	 1.399433312181770e+000	 3.982402971197879e-002	 2.437391509323826e+001
1	 1.398988853891178e+000	 5.319505186099847e-002	 2.418427076920318e+001
1	 1.398414249527623e+000	 6.661158772789501e-002	 2.399371537999810e+001
1	 1.397708124083939e+000	 8.007198276986338e-002	 2.380156772175810e+001
1	 1.396869124160417e+000	 9.357454322299176e-002	 2.360710919659398e+001
1	 1.395895919103263e+000	 1.071175362763417e-001	 2.340958377035259e+001
1	 1.394787202150259e+000	 1.206991902816908e-001	 2.320819798774569e+001
1	 1.393541691582514e+000	 1.343176949996336e-001	 2.300212104673568e+001
1	 1.426663928895422e+000	 0.000000000000000e+000	 2.565723799808531e+001
1	 1.426600269826366e+000	 1.347682707485748e-002	 2.543814781067997e+001
1	 1.426408310184067e+000	 2.700485182264663e-002	 2.522034971217796e+001
1	 1.426086589587512e+000	 4.058250880507529e-002	 2.500319860245292e+001
1	 1.425633666249075e+000	 5.420819229403738e-002	 2.478601163518390e+001
1	 1.425048118106222e+000	 6.788025634455705e-002	 2.456806810308940e+001
1	 1.424328543963713e+000	 8.159701490175864e-002	 2.434860937823203e+001
1	 1.423473564645299e+000	 9.535674194266300e-002	 2.412683890938524e+001
1	 1.422481824153855e+000	 1.091576716535834e-001	 2.390192227840166e+001
1	 1.421351990838867e+000	 1.229979986438629e-001	 2.367298731746348e+001
1	 1.420082758570117e+000	 1.368758781966621e-001	 2.343912428902916e+001
1	 1.453327969996434e+000	 0.000000000000000e+000	 2.647850226156600e+001
1	 1.453263121153126e+000	 1.372870606544782e-002	 2.622775517737794e+001
1	 1.453067573826569e+000	 2.750956667747578e-002	 2.597877319004821e+001
1	 1.452739840341533e+000	 4.134098714005818e-002	 2.573082633458231e+001
1	 1.452278451963687e+000	 5.522133171434702e-002	 2.548314676201598e+001
1	 1.451681960052446e+000	 6.914892369297943e-002	 2.523492874465405e+001
1	 1.450948937224526e+000	 8.312204550904671e-002	 2.498532873990850e+001
1	 1.450077978527162e+000	 9.713893888054116e-002	 2.473346551461695e+001
1	 1.449067702619928e+000	 1.111978049910672e-001	 2.447842033166073e+001
1	 1.447916752964040e+000	 1.252968047075733e-001	 2.421923720062989e+001
1	 1.446623799017982e+000	 1.394340588358277e-001	 2.395492319420475e+001
1	 1.479991991100845e+000	 0.000000000000000e+000	 2.740223219847192e+001
1	 1.479925952484172e+000	 1.398058486731675e-002	 2.711625645628008e+001
1	 1.479726817476025e+000	 2.801428115409090e-002	 2.683264927534316e+001
1	 1.479393071106987e+000	 4.209946490659224e-002	 2.655058668974269e+001
1	 1.478923217696040e+000	 5.623447037526055e-002	 2.626920735405834e+001
1	 1.478315782024575e+000	 7.041759009037626e-002	 2.598761270000300e+001
1	 1.477569310521282e+000	 8.464707497302883e-002	 2.570486715504180e+001
1	 1.476682372456906e+000	 9.892113448221362e-002	 2.541999842470394e+001
1	 1.475653561147740e+000	 1.132379367988586e-001	 2.513199784021970e+001
1	 1.474481495166753e+000	 1.275956090475512e-001	 2.483982077303028e+001
1	 1.473164819561149e+000	 1.419922375567004e-001	 2.454238711762713e+001
1	 1.506655998874523e+000	 0.000000000000000e+000	 2.842359982106049e+001
1	 1.506588770485068e+000	 1.423246354345626e-002	 2.809847162063640e+001
1	 1.506386047797100e+000	 2.851899537870764e-002	 2.777648317593953e+001
1	 1.506046288547027e+000	 4.285794229434228e-002	 2.745670780051767e+001
1	 1.505567970107163e+000	 5.724760853011108e-002	 2.713818255338452e+001
1	 1.504949590680887e+000	 7.168625585396170e-002	 2.681990857761388e+001
1	 1.504189670508888e+000	 8.617210367500611e-002	 2.650085150416406e+001
1	 1.503286753085432e+000	 1.007033291932677e-001	 2.617994192240660e+001
1	 1.502239406383549e+000	 1.152780675870236e-001	 2.585607591874100e+001
1	 1.501046224087976e+000	 1.298944122385254e-001	 2.552811568457830e+001
1	 1.499705826834654e+000	 1.445504149988501e-001	 2.519489019486900e+001
1	 1.533319999983334e+000	 0.000000000000000e+000	 2.953811298559326e+001
1	 1.533251581821385e+000	 1.448434215685831e-002	 2.916958097381211e+001
1	 1.533045271454459e+000	 2.902370947754160e-002	 2.880516232312493e+001
1	 1.532699499324805e+000	 4.361641949297308e-002	 2.844381929443884e+001
1	 1.532212715858081e+000	 5.826074643223178e-002	 2.808447961936255e+001
1	 1.531583392679665e+000	 7.295492130094992e-002	 2.772603705055211e+001
1	 1.530810023842251e+000	 8.769713199627981e-002	 2.736735198039876e+001
1	 1.529891127063641e+000	 1.024855234592909e-001	 2.700725212923707e+001
1	 1.528825244973612e+000	 1.173181978656276e-001	 2.664453330414250e+001
1	 1.527610946368682e+000	 1.321932148552252e-001	 2.627796022927105e+001
1	 1.526246827473539e+000	 1.471085918018469e-001	 2.590626744857055e+001
1	 1.260835726322077e+000	 1.215267182615958e-001	 2.229064187981508e+001
1	 1.259584119230017e+000	 1.338781607374896e-001	 2.218089941617300e+001
1	 1.258206536305377e+000	 1.462595828897382e-001	 2.207031887829676e+001
1	 1.256701892811832e+000	 1.586692716415527e-001	 2.195835769469434e+001
1	 1.255069130798217e+000	 1.711054810238902e-001	 2.184446225947644e+001
1	 1.253307220138871e+000	 1.835664325704446e-001	 2.172806844650336e+001
1	 1.251415159572273e+000	 1.960503157475885e-001	 2.160860215370171e+001
1	 1.249391977736748e+000	 2.085552884195949e-001	 2.148547987741535e+001
1	 1.247236734201940e+000	 2.210794773494281e-001	 2.135810931658188e+001
1	 1.244948520494780e+000	 2.336209787353382e-001	 2.122589000645056e+001
1	 1.242526461118596e+000	 2.461778587834510e-001	 2.108821398148079e+001
1	 1.287377025533950e+000	 1.240849238414894e-001	 2.220525907403050e+001
1	 1.286099071410704e+000	 1.366963711093230e-001	 2.208166213593584e+001
1	 1.284692489592918e+000	 1.493384291424060e-001	 2.195820240655945e+001
1	 1.283156172509960e+000	 1.620093488027418e-001	 2.183427302562817e+001
1	 1.281489039940201e+000	 1.747073473676788e-001	 2.170925385241402e+001
1	 1.279690040073258e+000	 1.874306089332176e-001	 2.158251202432354e+001
1	 1.277758150570499e+000	 2.001772848530018e-001	 2.145340255016296e+001
1	 1.275692379622538e+000	 2.129454942133351e-001	 2.132126893798021e+001
1	 1.273491767002438e+000	 2.257333243445114e-001	 2.118544385730138e+001
1	 1.271155385113263e+000	 2.385388313687072e-001	 2.104524983549498e+001
1	 1.268682340028648e+000	 2.513600407846233e-001	 2.089999998791025e+001
1	 1.313918265030891e+000	 1.266431236656700e-001	 2.224383418127543e+001
1	 1.312613963935719e+000	 1.395145751404187e-001	 2.210356771462016e+001
1	 1.311178383290003e+000	 1.524172684678870e-001	 2.196430679302014e+001
1	 1.309610392688861e+000	 1.653494184489529e-001	 2.182538130623686e+001
1	 1.307908889640256e+000	 1.783092056074409e-001	 2.168610619644552e+001
1	 1.306072800649137e+000	 1.912947766017440e-001	 2.154578207359986e+001
1	 1.304101082299808e+000	 2.043042446728650e-001	 2.140369586936269e+001
1	 1.301992722335230e+000	 2.173356901292264e-001	 2.125912152949773e+001
1	 1.299746740731929e+000	 2.303871608685431e-001	 2.111132074452712e+001
1	 1.297362190769153e+000	 2.434566729370094e-001	 2.095954371836494e+001
1	 1.294838160090887e+000	 2.565422111259951e-001	 2.080302997453990e+001
1	 1.340459451447940e+000	 1.292013183737075e-001	 2.239584789633833e+001
1	 1.339128803433513e+000	 1.423327735353478e-001	 2.223613769617205e+001
1	 1.337664224017839e+000	 1.554961016359137e-001	 2.207822357016365e+001
1	 1.336064559961831e+000	 1.686894814152311e-001	 2.192137312888022e+001
1	 1.334328686503093e+000	 1.819110566436752e-001	 2.176483792368554e+001
1	 1.332455508461953e+000	 1.951589365421073e-001	 2.160785413082869e+001
1	 1.330443961345699e+000	 2.084311962389667e-001	 2.144964327739161e+001
1	 1.328293012449679e+000	 2.217258772648734e-001	 2.128941300894702e+001
1	 1.326001661953930e+000	 2.350409880850432e-001	 2.112635789867791e+001
1	 1.323568944013922e+000	 2.483745046697696e-001	 2.095966029760623e+001
1	 1.320993927844035e+000	 2.617243711031739e-001	 2.078849122547354e+001
1	 1.367000591420135e+000	 1.317595086051721e-001	 2.265159789933766e+001
1	 1.365643596532541e+000	 1.451509669986814e-001	 2.246970743551358e+001
1	 1.364150018397633e+000	 1.585749294162189e-001	 2.229035264406565e+001
1	 1.362518680942165e+000	 1.720295385366216e-001	 2.211273976438443e+001
1	 1.360748437133422e+000	 1.855129013768804e-001	 2.193605839896081e+001
1	 1.358838170107153e+000	 1.990230897203908e-001	 2.175948227779127e+001
1	 1.356786794293666e+000	 2.125581405830955e-001	 2.158217006735838e+001
1	 1.354593256540739e+000	 2.261160567178805e-001	 2.140326622395440e+001
1	 1.352256537231954e+000	 2.396948071575316e-001	 2.122190189100793e+001
1	 1.349775651399042e+000	 2.532923277965123e-001	 2.103719583996111e+001
1	 1.347149649826810e+000	 2.669065220117671e-001	 2.084825545413054e+001
1	 1.393541691582514e+000	 1.343176949996336e-001	 2.300212104673568e+001
1	 1.392158349861254e+000	 1.479691562349905e-001	 2.279534859191536e+001
1	 1.390635773050592e+000	 1.616537525785351e-001	 2.259182530565047e+001
1	 1.388972762243157e+000	 1.753695906481697e-001	 2.239069690620758e+001
1	 1.387168148135953e+000	 1.891147407075555e-001	 2.219109241122852e+001
1	 1.385220792180180e+000	 2.028872371026778e-001	 2.199212499371756e+001
1	 1.383129587729204e+000	 2.166850787370401e-001	 2.179289288475947e+001
1	 1.380893461183264e+000	 2.305062295858520e-001	 2.159248032261637e+001
1	 1.378511373129517e+000	 2.443486192495283e-001	 2.138995854773408e+001
1	 1.375982319475984e+000	 2.582101435467623e-001	 2.118438684306788e+001
1	 1.373305332577932e+000	 2.720886651473819e-001	 2.097481361901551e+001
1	 1.420082758570117e+000	 1.368758781966621e-001	 2.343912428902916e+001
1	 1.418673070048106e+000	 1.507873419488461e-001	 2.320480031513508e+001
1	 1.417121494597922e+000	 1.647325718925951e-001	 2.297443587663140e+001
1	 1.415426810478104e+000	 1.787096385849206e-001	 2.274711696708819e+001
1	 1.413587826115396e+000	 1.927165755361990e-001	 2.252191331123888e+001
1	 1.411603381276482e+000	 2.067513796550519e-001	 2.229787932351059e+001
1	 1.409472348237812e+000	 2.208120117325893e-001	 2.207405511489721e+001
1	 1.407193632952109e+000	 2.348963969663925e-001	 2.184946754766666e+001
1	 1.404766176210132e+000	 2.490024255245532e-001	 2.162313133726650e+001
1	 1.402188954796221e+000	 2.631279531500440e-001	 2.139405020066511e+001
1	 1.399460982636122e+000	 2.772708018056259e-001	 2.116121805023402e+001
1	 1.446623799017982e+000	 1.394340588358277e-001	 2.395492319420474e+001
1	 1.445187763721549e+000	 1.536055248448193e-001	 2.369040800776546e+001
1	 1.443607189660832e+000	 1.678113881281315e-001	 2.343058088103740e+001
1	 1.441880832260298e+000	 1.820496831819193e-001	 2.317446882963914e+001
1	 1.440007477676460e+000	 1.963184067633098e-001	 2.292108351054944e+001
1	 1.437985943991505e+000	 2.106155183435960e-001	 2.266942229386071e+001
1	 1.435815082404983e+000	 2.249389406015317e-001	 2.241846938395839e+001
1	 1.433493778422127e+000	 2.392865599571062e-001	 2.216719698942454e+001
1	 1.431020953037317e+000	 2.536562271461264e-001	 2.191456654082896e+001
1	 1.428395563911226e+000	 2.680457578358819e-001	 2.165952995543563e+001
1	 1.425616606540098e+000	 2.824529332821062e-001	 2.140103094771331e+001
1	 1.473164819561149e+000	 1.419922375567004e-001	 2.454238711762713e+001
1	 1.471702437510035e+000	 1.564237056274813e-001	 2.424506870818727e+001
1	 1.470092864860527e+000	 1.708902020548769e-001	 2.395320479310747e+001
1	 1.468334834203037e+000	 1.853897252742113e-001	 2.366576411070437e+001
1	 1.466427109423857e+000	 1.999202352893867e-001	 2.338170141338824e+001
1	 1.464368486920693e+000	 2.144796541343939e-001	 2.309995866305814e+001
1	 1.462157796816215e+000	 2.290658663756561e-001	 2.281946627649160e+001
1	 1.459793904168173e+000	 2.436767196555978e-001	 2.253914441979823e+001
1	 1.457275710174585e+000	 2.583100252777679e-001	 2.225790435086501e+001
1	 1.454602153372468e+000	 2.729635588338008e-001	 2.197464980857696e+001
1	 1.451772210828581e+000	 2.876350608724305e-001	 2.168827844745097e+001
1	 1.499705826834654e+000	 1.445504149988501e-001	 2.519489019486900e+001
1	 1.498217098042018e+000	 1.592418850014028e-001	 2.486218227383722e+001
1	 1.496578526818215e+000	 1.739690144425641e-001	 2.453575154674300e+001
1	 1.494788822919614e+000	 1.887297656968416e-001	 2.421450913242553e+001
1	 1.492846727962297e+000	 2.035220620149284e-001	 2.389735398433780e+001
1	 1.490751016659494e+000	 2.183437879935286e-001	 2.358317421976010e+001
1	 1.488500498057003e+000	 2.331927900867511e-001	 2.327084849907381e+001
1	 1.486094016765102e+000	 2.480668771594715e-001	 2.295924745390269e+001
1	 1.483530454185450e+000	 2.629638210829976e-001	 2.264723516277925e+001
1	 1.480808729731422e+000	 2.778813573733251e-001	 2.233367067284162e+001
1	 1.477927802040291e+000	 2.928171858722059e-001	 2.201740956591476e+001
1	 1.526246827473539e+000	 1.471085918018469e-001	 2.590626744857055e+001
1	 1.524731751945950e+000	 1.620600636711551e-001	 2.553560765863213e+001
1	 1.523064182155104e+000	 1.770478260609258e-001	 2.517212110507847e+001
1	 1.521242805023325e+000	 1.920698052848553e-001	 2.481466190525603e+001
1	 1.519266339896488e+000	 2.071238878404338e-001	 2.446207426570806e+001
1	 1.517133539803352e+000	 2.222079208870836e-001	 2.411319395515665e+001
1	 1.514843192712843e+000	 2.373197127666054e-001	 2.376684982712089e+001
1	 1.512394122787768e+000	 2.524570335663319e-001	 2.342186539068263e+001
1	 1.509785191633430e+000	 2.676176157253354e-001	 2.307706042775241e+001
1	 1.507015299539557e+000	 2.827991546839795e-001	 2.273125265503140e+001
1	 1.504083386713946e+000	 2.979993095770399e-001	 2.238325942870416e+001
1	 1.242526461118596e+000	 2.461778587834510e-001	 2.108821398148078e+001
1	 1.239969321048035e+000	 2.587500404700431e-001	 2.094734339395974e+001
1	 1.237276647587192e+000	 2.713336459116922e-001	 2.080563554350749e+001
1	 1.234447670954891e+000	 2.839266512220444e-001	 2.066256240779932e+001
1	 1.231481658369039e+000	 2.965270050962132e-001	 2.051760432487899e+001
1	 1.228377915011984e+000	 3.091326295656696e-001	 2.037025092177186e+001
1	 1.225135784980603e+000	 3.217414207892365e-001	 2.022000204732246e+001
1	 1.221754652219686e+000	 3.343512498799867e-001	 2.006636870753061e+001
1	 1.218233941437156e+000	 3.469599637677736e-001	 1.990887400160603e+001
1	 1.214573118999657e+000	 3.595653860970647e-001	 1.974705405691397e+001
1	 1.210771693807061e+000	 3.721653181596841e-001	 1.958045896093847e+001
1	 1.268682340028648e+000	 2.513600407846233e-001	 2.089999998791025e+001
1	 1.266071370725263e+000	 2.641968739471594e-001	 2.075224716605158e+001
1	 1.263322014977708e+000	 2.770453713412648e-001	 2.060464414473135e+001
1	 1.260433486800480e+000	 2.899034664766287e-001	 2.045658576427278e+001
1	 1.257405037986019e+000	 3.027690648672337e-001	 2.030747441840023e+001
1	 1.254235959090373e+000	 3.156400448021336e-001	 2.015672107836518e+001
1	 1.250925580403296e+000	 3.285142581531009e-001	 2.000374632422210e+001
1	 1.247473272901273e+000	 3.413895312189304e-001	 1.984798138140505e+001
1	 1.243878449182009e+000	 3.542636656061270e-001	 1.968886916069459e+001
1	 1.240140564378870e+000	 3.671344391456396e-001	 1.952586529960549e+001
1	 1.236259117053800e+000	 3.799996068452375e-001	 1.935843920317123e+001
1	 1.294838160090887e+000	 2.565422111259951e-001	 2.080302997453989e+001
1	 1.292173361675890e+000	 2.696436951690278e-001	 2.064464253154425e+001
1	 1.289367323769279e+000	 2.827570839196106e-001	 2.048735066818892e+001
1	 1.286419244181258e+000	 2.958802682835723e-001	 2.033047883913125e+001
1	 1.283328359278822e+000	 3.090111105938581e-001	 2.017335861014587e+001
1	 1.280093944991751e+000	 3.221474453972028e-001	 2.001532977640648e+001
1	 1.276715317802694e+000	 3.352870802784264e-001	 1.985574149022432e+001
1	 1.273191835719854e+000	 3.484277967221452e-001	 1.969395339626029e+001
1	 1.269522899230740e+000	 3.615673510116164e-001	 1.952933677215703e+001
1	 1.265707952235458e+000	 3.747034751643715e-001	 1.936127567246995e+001
1	 1.261746482958037e+000	 3.878338779042281e-001	 1.918916807371396e+001
1	 1.320993927844035e+000	 2.617243711031739e-001	 2.078849122547354e+001
1	 1.318275300425168e+000	 2.750905054974155e-001	 2.061603577892103e+001
1	 1.315412580472970e+000	 2.884687850747152e-001	 2.044559307680740e+001
1	 1.312404949593380e+000	 3.018570581371237e-001	 2.027642360733837e+001
1	 1.309251628727974e+000	 3.152531438366363e-001	 2.010779487836440e+001
1	 1.305951879180282e+000	 3.286548329777549e-001	 1.993898262854606e+001
1	 1.302505003625874e+000	 3.420598888584344e-001	 1.976927204968476e+001
1	 1.298910347104691e+000	 3.554660481492021e-001	 1.959795901808929e+001
1	 1.295167297994062e+000	 3.688710218101569e-001	 1.942435133277033e+001
1	 1.291275288960849e+000	 3.822724960455040e-001	 1.924776995818049e+001
1	 1.287233797891179e+000	 3.956681332952001e-001	 1.906755026914817e+001
1	 1.347149649826810e+000	 2.669065220117671e-001	 2.084825545413054e+001
1	 1.344377193498347e+000	 2.805373062940901e-001	 2.065859284972077e+001
1	 1.341457791599845e+000	 2.941804762345625e-001	 2.047184322636634e+001
1	 1.338390609533002e+000	 3.078338375315319e-001	 2.028720921838626e+001
1	 1.335174852813998e+000	 3.214951661561187e-001	 2.010390072628769e+001
1	 1.331809768120134e+000	 3.351622091706677e-001	 1.992113621962146e+001
1	 1.328294644319918e+000	 3.488326855863470e-001	 1.973814405213117e+001
1	 1.324628813485048e+000	 3.625042872596722e-001	 1.955416378690785e+001
1	 1.320811651882687e+000	 3.761746798276636e-001	 1.936844752917711e+001
1	 1.316842580946469e+000	 3.898415036812795e-001	 1.918026126426532e+001
1	 1.312721068224635e+000	 4.035023749766975e-001	 1.898888619821583e+001
1	 1.373305332577932e+000	 2.720886651473819e-001	 2.097481361901550e+001
1	 1.370479047420677e+000	 2.859840989208189e-001	 2.076507651398564e+001
1	 1.367502963660969e+000	 2.998921588271373e-001	 2.055914649433485e+001
1	 1.364376230496282e+000	 3.138106079610459e-001	 2.035617416977372e+001
1	 1.361098038017419e+000	 3.277371791128551e-001	 2.015531798893940e+001
1	 1.357667618275472e+000	 3.416695756028192e-001	 1.995574563282055e+001
1	 1.354084246331905e+000	 3.556054721553858e-001	 1.975663542104018e+001
1	 1.350347241290185e+000	 3.695425158131266e-001	 1.955717772853806e+001
1	 1.346455967307327e+000	 3.834783268900515e-001	 1.935657641010354e+001
1	 1.342409834583748e+000	 3.974104999639416e-001	 1.915405023012496e+001
1	 1.338208300329813e+000	 4.113366049072643e-001	 1.894883429484074e+001
1	 1.399460982636122e+000	 2.772708018056259e-001	 2.116121805023402e+001
1	 1.396580868717411e+000	 2.914308847393696e-001	 2.092879059180497e+001
1	 1.393548103167406e+000	 3.056038342804243e-001	 2.070106817964472e+001
1	 1.390361818979375e+000	 3.197873709199146e-001	 2.047715496602580e+001
1	 1.387021190818762e+000	 3.339791842673958e-001	 2.025616383014308e+001
1	 1.383525436110463e+000	 3.481769339010871e-001	 2.003721786105472e+001
1	 1.379873816108914e+000	 3.623782502587722e-001	 1.981945185349668e+001
1	 1.376065636949365e+000	 3.765807355691361e-001	 1.960201381393036e+001
1	 1.372100250678695e+000	 3.907819648232359e-001	 1.938406647408807e+001
1	 1.367977056264114e+000	 4.049794867857330e-001	 1.916478880919197e+001
1	 1.363695500578122e+000	 4.191708250454448e-001	 1.894337755793812e+001
1	 1.425616606540098e+000	 2.824529332821062e-001	 2.140103094771331e+001
1	 1.422682663913799e+000	 2.968776651115094e-001	 2.114353031590756e+001
1	 1.419593216630219e+000	 3.113155040224080e-001	 2.089164580369512e+001
1	 1.416347381478437e+000	 3.257641279023868e-001	 2.064444043020833e+001
1	 1.412944317698551e+000	 3.402211831802908e-001	 2.040098713461941e+001
1	 1.409383228089274e+000	 3.546842856923493e-001	 2.016037034760657e+001
1	 1.405663360098026e+000	 3.691510215897284e-001	 1.992168757517447e+001
1	 1.401784006891852e+000	 3.836189482872719e-001	 1.968405099199549e+001
1	 1.397744508407502e+000	 3.980855954531314e-001	 1.944658904133996e+001
1	 1.393544252378993e+000	 4.125484660388972e-001	 1.920844803857128e+001
1	 1.389182675340970e+000	 4.270050373497829e-001	 1.896879377509526e+001
1	 1.451772210828581e+000	 2.876350608724305e-001	 2.168827844745097e+001
1	 1.448784439535093e+000	 3.023244413990055e-001	 2.140353806071829e+001
1	 1.445638310560474e+000	 3.170271694810730e-001	 2.112534656825359e+001
1	 1.442332924489626e+000	 3.317408804027114e-001	 2.085273095497594e+001
1	 1.438867425137311e+000	 3.464631774120902e-001	 2.058472961467835e+001
1	 1.435241000676072e+000	 3.611916326034839e-001	 2.032039400908557e+001
1	 1.431452884746319e+000	 3.759237878414755e-001	 2.005879033822598e+001
1	 1.427502357546905e+000	 3.906571557271049e-001	 1.979900121907922e+001
1	 1.423388746904461e+000	 4.053892206056537e-001	 1.954012736936082e+001
1	 1.419111429319816e+000	 4.201174396156769e-001	 1.928128929321132e+001
1	 1.414669830989763e+000	 4.348392437788227e-001	 1.902162896546892e+001
1	 1.477927802040291e+000	 2.928171858722059e-001	 2.201740956591477e+001
1	 1.474886202106543e+000	 3.077712149636254e-001	 2.170346377297650e+001
1	 1.471683391469234e+000	 3.227388320844039e-001	 2.139702933131574e+001
1	 1.468318454509097e+000	 3.377176299151375e-001	 2.109710208114711e+001
1	 1.464790519615566e+000	 3.527051685233442e-001	 2.080269104736922e+001
1	 1.461098760335022e+000	 3.676989762613686e-001	 2.051282018533503e+001
1	 1.457242396500875e+000	 3.826965507072358e-001	 2.022653013638612e+001
1	 1.453220695343789e+000	 3.976953596482062e-001	 1.994287998989764e+001
1	 1.449032972580285e+000	 4.126928421067173e-001	 1.966094904847821e+001
1	 1.444678593478009e+000	 4.276864094083155e-001	 1.937983859287420e+001
1	 1.440156973895912e+000	 4.426734462911082e-001	 1.909867364303934e+001
1	 1.504083386713946e+000	 2.979993095770399e-001	 2.238325942870416e+001
1	 1.500987958153399e+000	 3.132179871671365e-001	 2.203832953152491e+001
1	 1.497728465867564e+000	 3.284504932603852e-001	 2.170191055088568e+001
1	 1.494303978033006e+000	 3.436943779339137e-001	 2.137297187695218e+001
1	 1.490713607613841e+000	 3.589471580746027e-001	 2.105049813922736e+001
1	 1.486956513530291e+000	 3.742063182928812e-001	 2.073349103820489e+001
1	 1.483031901808774e+000	 3.894693118802305e-001	 2.042097118473849e+001
1	 1.478939026711766e+000	 4.047335618101468e-001	 2.011197994364795e+001
1	 1.474677191845686e+000	 4.199964617822379e-001	 1.980558127797935e+001
1	 1.470245751245001e+000	 4.352553773090560e-001	 1.950086359024198e+001
1	 1.465644110430824e+000	 4.505076468451837e-001	 1.919694155685705e+001
1	 1.210771693807061e+000	 3.721653181596841e-001	 1.958045896093847e+001
1	 1.206829217841571e+000	 3.847575396775871e-001	 1.941016956147477e+001
1	 1.202745286085772e+000	 3.973398092324930e-001	 1.923738776855622e+001
1	 1.198519538232249e+000	 4.099098658216918e-001	 1.906187378890867e+001
1	 1.194151659763825e+000	 4.224654301051314e-001	 1.888341173001232e+001
1	 1.189641382703130e+000	 4.350042055046847e-001	 1.870181028680155e+001
1	 1.184988486332486e+000	 4.475238793346628e-001	 1.851690339741881e+001
1	 1.180192797882715e+000	 4.600221239627187e-001	 1.832855086605528e+001
1	 1.175254193189512e+000	 4.724965980002161e-001	 1.813663895094904e+001
1	 1.170172597316046e+000	 4.849449475210771e-001	 1.794108091565411e+001
1	 1.164947985140473e+000	 4.973648073080526e-001	 1.774181754174535e+001
1	 1.236259117053800e+000	 3.799996068452375e-001	 1.935843920317123e+001
1	 1.232233649757977e+000	 3.928569016887678e-001	 1.918777252533965e+001
1	 1.228063748948146e+000	 4.057040350748470e-001	 1.901518946533077e+001
1	 1.223749046732216e+000	 4.185386984054039e-001	 1.884040342256735e+001
1	 1.219289221972249e+000	 4.313585643590141e-001	 1.866315407535377e+001
1	 1.214684001049800e+000	 4.441612880133066e-001	 1.848320815674003e+001
1	 1.209933158600961e+000	 4.569445079992766e-001	 1.830036019630448e+001
1	 1.205036518219666e+000	 4.697058476866244e-001	 1.811443322565108e+001
1	 1.199993953127882e+000	 4.824429163991847e-001	 1.792527944545822e+001
1	 1.194805386811314e+000	 4.951533106594304e-001	 1.773278085196374e+001
1	 1.189470793619292e+000	 5.078346154609772e-001	 1.753684982082588e+001
1	 1.261746482958037e+000	 3.878338779042281e-001	 1.918916807371396e+001
1	 1.257638024518648e+000	 4.009562454770290e-001	 1.901434090064072e+001
1	 1.253382154848216e+000	 4.140682420983951e-001	 1.883827989173383e+001
1	 1.248978498470000e+000	 4.271675115750019e-001	 1.866065305275406e+001
1	 1.244426727625320e+000	 4.402516786041618e-001	 1.848115667381135e+001
1	 1.239726563054677e+000	 4.533183499193709e-001	 1.829951618839605e+001
1	 1.234877774747946e+000	 4.663651154684180e-001	 1.811548699572406e+001
1	 1.229880182662189e+000	 4.793895496231639e-001	 1.792885524397699e+001
1	 1.224733657405657e+000	 4.923892124200253e-001	 1.773943857206032e+001
1	 1.219438120886602e+000	 5.053616508301388e-001	 1.754708680755504e+001
1	 1.213993546925534e+000	 5.183044000580986e-001	 1.735168261859615e+001
1	 1.287233797891179e+000	 3.956681332952001e-001	 1.906755026914817e+001
1	 1.283042348474234e+000	 4.090555730671776e-001	 1.888519372741445e+001
1	 1.278700510115135e+000	 4.224324323941558e-001	 1.870237192970573e+001
1	 1.274207899752516e+000	 4.357963074876533e-001	 1.851870887883248e+001
1	 1.269564183006969e+000	 4.491447750638160e-001	 1.833385851204003e+001
1	 1.264769074977957e+000	 4.624753935121033e-001	 1.814750563746437e+001
1	 1.259822341009157e+000	 4.757857040971966e-001	 1.795936683181022e+001
1	 1.254723797420769e+000	 4.890732321932149e-001	 1.776919129663642e+001
1	 1.249473312207339e+000	 5.023354885492570e-001	 1.757676167067919e+001
1	 1.244070805699674e+000	 5.155699705852225e-001	 1.738189479569671e+001
1	 1.238516251189468e+000	 5.287741637167839e-001	 1.718444243338050e+001
1	 1.312721068224635e+000	 4.035023749766975e-001	 1.898888619821583e+001
1	 1.308446627975386e+000	 4.171548864840204e-001	 1.879601357783272e+001
1	 1.304018821078061e+000	 4.307966080531482e-001	 1.860351140555836e+001
1	 1.299437256886679e+000	 4.444250883005265e-001	 1.841096105081922e+001
1	 1.294701594401127e+000	 4.580378559612176e-001	 1.821797512811605e+001
1	 1.289811543079843e+000	 4.716324210807296e-001	 1.802419850539723e+001
1	 1.284766863620316e+000	 4.852062762407214e-001	 1.782930927205739e+001
1	 1.279567368705895e+000	 4.987568978176555e-001	 1.763301966377114e+001
1	 1.274212923717429e+000	 5.122817472733993e-001	 1.743507694141791e+001
1	 1.268703447408290e+000	 5.257782724767012e-001	 1.723526422140804e+001
1	 1.263038912541362e+000	 5.392439090544005e-001	 1.703340125478472e+001
1	 1.338208300329813e+000	 4.113366049072643e-001	 1.894883429484074e+001
1	 1.333850869372756e+000	 4.252541877523638e-001	 1.874281193402232e+001
1	 1.329337094066145e+000	 4.391607711663916e-001	 1.853804538095399e+001
1	 1.324666576179405e+000	 4.530538561707893e-001	 1.833407472171273e+001
1	 1.319838968091726e+000	 4.669309235196080e-001	 1.813047227336503e+001
1	 1.314853973620533e+000	 4.807894349144758e-001	 1.792684365896766e+001
1	 1.309711348817139e+000	 4.946268342541015e-001	 1.772282884107611e+001
1	 1.304410902728050e+000	 5.084405489173637e-001	 1.751810311081406e+001
1	 1.298952498120429e+000	 5.222279910789710e-001	 1.731237802960402e+001
1	 1.293336052170214e+000	 5.359865590565953e-001	 1.710540232071321e+001
1	 1.287561537111484e+000	 5.497136386883157e-001	 1.689696270783497e+001
1	 1.363695500578122e+000	 4.191708250454448e-001	 1.894337755793812e+001
1	 1.359255079016994e+000	 4.333534788970149e-001	 1.872189844893979e+001
1	 1.354655335408544e+000	 4.475249238249043e-001	 1.850259400021341e+001
1	 1.349895863937609e+000	 4.616826132556096e-001	 1.828496434645211e+001
1	 1.344976310362695e+000	 4.758239799622282e-001	 1.806854252815105e+001
1	 1.339896372860226e+000	 4.899464373025678e-001	 1.785289562814663e+001
1	 1.334655802835345e+000	 5.040473804924456e-001	 1.763762586600987e+001
1	 1.329254405697723e+000	 5.181241879132170e-001	 1.742237164721032e+001
1	 1.323692041600839e+000	 5.321742224524918e-001	 1.720680856401136e+001
1	 1.317968626143207e+000	 5.461948328769254e-001	 1.699065034511296e+001
1	 1.312084131030102e+000	 5.601833552358968e-001	 1.677364975112269e+001
1	 1.389182675340970e+000	 4.270050373497829e-001	 1.896879377509526e+001
1	 1.384659263258752e+000	 4.414527619427804e-001	 1.872985359153602e+001
1	 1.379973551434412e+000	 4.558890681197056e-001	 1.849402543715508e+001
1	 1.375125126468206e+000	 4.703113617121550e-001	 1.826077081048707e+001
1	 1.370113627497968e+000	 4.847170275123194e-001	 1.802958449220062e+001
1	 1.364938747059123e+000	 4.991034305342312e-001	 1.779999573827303e+001
1	 1.359600231910653e+000	 5.134679173108632e-001	 1.757156943081666e+001
1	 1.354097883825400e+000	 5.278078172260935e-001	 1.734390718335377e+001
1	 1.348431560343163e+000	 5.421204438804806e-001	 1.711664839737953e+001
1	 1.342601175485032e+000	 5.564030964897108e-001	 1.688947126710655e+001
1	 1.336606700427484e+000	 5.706530613145109e-001	 1.666209372934869e+001
1	 1.414669830989763e+000	 4.348392437788227e-001	 1.902162896546892e+001
1	 1.410063428448682e+000	 4.495520389144668e-001	 1.876350424934272e+001
1	 1.405291748472902e+000	 4.642532061418142e-001	 1.850943355051443e+001
1	 1.400354370078112e+000	 4.789401036975940e-001	 1.825884103105400e+001
1	 1.395250925781475e+000	 4.936100683931229e-001	 1.801118422472963e+001
1	 1.389981102477423e+000	 5.082604168986921e-001	 1.776595528208759e+001
1	 1.384544642278781e+000	 5.228884470644629e-001	 1.752268217341975e+001
1	 1.378941343321566e+000	 5.374914392768713e-001	 1.728092984631311e+001
1	 1.373171060531900e+000	 5.520666578494572e-001	 1.704030133451633e+001
1	 1.367233706353451e+000	 5.666113524469723e-001	 1.680043881491040e+001
1	 1.361129251433898e+000	 5.811227595415255e-001	 1.656102460943280e+001
1	 1.440156973895912e+000	 4.426734462911082e-001	 1.909867364303934e+001
1	 1.435467580937434e+000	 4.576513118368814e-001	 1.881990192205728e+001
1	 1.430609932853170e+000	 4.726173399822491e-001	 1.854611791235127e+001
1	 1.425583601074242e+000	 4.875688413690944e-001	 1.827670972479067e+001
1	 1.420388211497145e+000	 5.025031048278797e-001	 1.801109865562346e+001
1	 1.415023445375325e+000	 5.174173986851759e-001	 1.774874047889165e+001
1	 1.409489040175448e+000	 5.323089721083543e-001	 1.748912669739669e+001
1	 1.403784790396708e+000	 5.471750564864277e-001	 1.723178574882385e+001
1	 1.397910548351551e+000	 5.620128668459404e-001	 1.697628416367227e+001
1	 1.391866224906227e+000	 5.768196033007297e-001	 1.672222767168664e+001
1	 1.385651790179613e+000	 5.915924525343077e-001	 1.646926225354615e+001
1	 1.465644110430824e+000	 4.505076468451837e-001	 1.919694155685705e+001
1	 1.460871727075660e+000	 4.657505827348306e-001	 1.889630319068526e+001
1	 1.455928110904371e+000	 4.809814717320294e-001	 1.860156592054628e+001
1	 1.450812825763512e+000	 4.961975768838239e-001	 1.831208307794914e+001
1	 1.445525490928912e+000	 5.113961390398313e-001	 1.802724072770503e+001
1	 1.440065782013028e+000	 5.265743781829089e-001	 1.774645900325832e+001
1	 1.434433431836373e+000	 5.417294947976459e-001	 1.746919340164488e+001
1	 1.428628231261313e+000	 5.568586712756410e-001	 1.719493603461875e+001
1	 1.422650029986620e+000	 5.719590733564495e-001	 1.692321683252053e+001
1	 1.416498737301121e+000	 5.870278516030030e-001	 1.665360469750824e+001
1	 1.410174322794896e+000	 6.020621429102250e-001	 1.638570860282565e+001
1	 1.164947985140473e+000	 4.973648073080526e-001	 1.774181754174535e+001
1	 1.159581197877747e+000	 5.097519464059583e-001	 1.753919412064603e+001
1	 1.154071539441347e+000	 5.221058475389500e-001	 1.733358455244783e+001
1	 1.148419138145507e+000	 5.344241210826426e-001	 1.712510906974998e+001
1	 1.142624174058487e+000	 5.467043713871074e-001	 1.691392151531523e+001
1	 1.136686879394964e+000	 5.589441981408801e-001	 1.670020945875341e+001
1	 1.130607538866382e+000	 5.711411977547047e-001	 1.648419425395446e+001
1	 1.124386489988285e+000	 5.832929647635357e-001	 1.626613103620420e+001
1	 1.118024123343679e+000	 5.953970932452810e-001	 1.604630865804844e+001
1	 1.111520882801578e+000	 6.074511782547065e-001	 1.582504956310988e+001
1	 1.104877265689896e+000	 6.194528172708822e-001	 1.560270959720607e+001
1	 1.189470793619292e+000	 5.078346154609772e-001	 1.753684982082589e+001
1	 1.183991032474813e+000	 5.204825107846713e-001	 1.733787876204820e+001
1	 1.178365392638336e+000	 5.330964684657114e-001	 1.713626115446250e+001
1	 1.172594005125170e+000	 5.456740485767645e-001	 1.693204905568991e+001
1	 1.166677053794102e+000	 5.582128050381114e-001	 1.672532943214698e+001
1	 1.160614775748049e+000	 5.707102870103701e-001	 1.651622437967880e+001
1	 1.154407461691780e+000	 5.831640403073666e-001	 1.630489128358998e+001
1	 1.148055456245717e+000	 5.955716088276521e-001	 1.609152291678007e+001
1	 1.141559158214848e+000	 6.079305360031093e-001	 1.587634747482339e+001
1	 1.134919020811867e+000	 6.202383662630417e-001	 1.565962854697265e+001
1	 1.128135551833708e+000	 6.324926465120909e-001	 1.544166502221160e+001
1	 1.213993546925534e+000	 5.183044000580986e-001	 1.735168261859615e+001
1	 1.208400812153459e+000	 5.312130510209823e-001	 1.715363278044876e+001
1	 1.202659191177848e+000	 5.440870646650543e-001	 1.695332371922702e+001
1	 1.196768817715077e+000	 5.569239507601439e-001	 1.675074798881750e+001
1	 1.190729879414451e+000	 5.697212127968530e-001	 1.654593414248280e+001
1	 1.184542618267112e+000	 5.824763494079926e-001	 1.633894704203009e+001
1	 1.178207330971136e+000	 5.951868558105830e-001	 1.612988810518502e+001
1	 1.171724369251810e+000	 6.078502252668817e-001	 1.591889548968463e+001
1	 1.165094140136081e+000	 6.204639505628590e-001	 1.570614421273645e+001
1	 1.158317106180301e+000	 6.330255255024672e-001	 1.549184620463198e+001
1	 1.151393785650396e+000	 6.455324464160297e-001	 1.527625029544970e+001
1	 1.238516251189468e+000	 5.287741637167839e-001	 1.718444243338051e+001
1	 1.232810543015708e+000	 5.419435697974288e-001	 1.698479669219535e+001
1	 1.226952941132905e+000	 5.550776388845086e-001	 1.678331368944465e+001
1	 1.220943581958496e+000	 5.681738304451133e-001	 1.657993465134220e+001
1	 1.214782656932294e+000	 5.812295975402648e-001	 1.637463769472984e+001
1	 1.208470412933654e+000	 5.942423882750677e-001	 1.616743820994600e+001
1	 1.202007152653947e+000	 6.072096472698342e-001	 1.595838918086171e+001
1	 1.195393234923308e+000	 6.201288171506310e-001	 1.574758144043656e+001
1	 1.188629074990625e+000	 6.329973400576118e-001	 1.553514386028173e+001
1	 1.181715144755887e+000	 6.458126591694798e-001	 1.532124347285930e+001
1	 1.174651972953994e+000	 6.585722202423398e-001	 1.510608552509531e+001
1	 1.263038912541362e+000	 5.392439090544005e-001	 1.703340125478472e+001
1	 1.257220231163583e+000	 5.526740697965494e-001	 1.682983988339946e+001
1	 1.251246648576530e+000	 5.660681938716050e-001	 1.662488577286744e+001
1	 1.245118303898696e+000	 5.794236904440049e-001	 1.641843654106415e+001
1	 1.238835392360393e+000	 5.927379621452803e-001	 1.621042739646192e+001
1	 1.232398165729178e+000	 6.060084065529144e-001	 1.600083158039690e+001
1	 1.225806932689711e+000	 6.192324176906022e-001	 1.578966074561560e+001
1	 1.219062059176956e+000	 6.324073875483049e-001	 1.557696526932334e+001
1	 1.212163968661729e+000	 6.455307076204506e-001	 1.536283449909358e+001
1	 1.205113142387636e+000	 6.585997704605783e-001	 1.514739693013878e+001
1	 1.197910119558531e+000	 6.716119712506629e-001	 1.493082031259461e+001
1	 1.287561537111484e+000	 5.497136386883157e-001	 1.689696270783496e+001
1	 1.281629882699106e+000	 5.634045537008822e-001	 1.668734833716057e+001
1	 1.275540319581744e+000	 5.770587323738733e-001	 1.647679715577190e+001
1	 1.269292989578943e+000	 5.906735335691515e-001	 1.626517047060466e+001
1	 1.262888091711506e+000	 6.042463094888311e-001	 1.605236769530946e+001
1	 1.256325882635189e+000	 6.177744071828526e-001	 1.583832683810899e+001
1	 1.249606677027924e+000	 6.312551700783681e-001	 1.562302492519218e+001
1	 1.242730847929497e+000	 6.446859395293100e-001	 1.540647835776913e+001
1	 1.235698827032637e+000	 6.580640563844562e-001	 1.518874320104645e+001
1	 1.228511104924556e+000	 6.713868625722594e-001	 1.496991540352715e+001
1	 1.221168231278044e+000	 6.846517027006408e-001	 1.475013094519017e+001
1	 1.312084131030102e+000	 5.601833552358968e-001	 1.677364975112269e+001
1	 1.306039503724299e+000	 5.741350241929648e-001	 1.655601373724511e+001
1	 1.299833960221570e+000	 5.880492571388442e-001	 1.633789792619870e+001
1	 1.293467645042504e+000	 6.019233626328854e-001	 1.611913422098109e+001
1	 1.286940760998396e+000	 6.157546424478506e-001	 1.589959297044915e+001
1	 1.280253569633189e+000	 6.295403931062016e-001	 1.567918348941421e+001
1	 1.273406391618082e+000	 6.432779074386127e-001	 1.545785451367390e+001
1	 1.266399607097675e+000	 6.569644761630513e-001	 1.523559458803466e+001
1	 1.259233655986598e+000	 6.705973894827110e-001	 1.501243238551590e+001
1	 1.251909038215656e+000	 6.841739387010215e-001	 1.478843695607160e+001
1	 1.244426313926563e+000	 6.976914178519144e-001	 1.456371790331868e+001
1	 1.336606700427484e+000	 5.706530613145109e-001	 1.666209372934869e+001
1	 1.330449100341185e+000	 5.848654839553354e-001	 1.643462377141916e+001
1	 1.324127576569028e+000	 5.990397709140478e-001	 1.620712255156629e+001
1	 1.317642276332648e+000	 6.131731804475389e-001	 1.597939911409941e+001
1	 1.310993406233822e+000	 6.272629638992715e-001	 1.575130111773006e+001
1	 1.304181232704681e+000	 6.413063672642813e-001	 1.552271537497597e+001
1	 1.297206082409683e+000	 6.553006327768172e-001	 1.529356832603986e+001
1	 1.290068342598234e+000	 6.692430005189354e-001	 1.506382644517592e+001
1	 1.282768461406858e+000	 6.831307100482967e-001	 1.483349657769485e+001
1	 1.275306948109946e+000	 6.969610020433622e-001	 1.460262620590453e+001
1	 1.267684373318120e+000	 7.107311199641255e-001	 1.437130364243729e+001
1	 1.361129251433898e+000	 5.811227595415255e-001	 1.656102460943280e+001
1	 1.354858678651786e+000	 5.955959356705326e-001	 1.632205348312007e+001
1	 1.348421174697141e+000	 6.100302764470145e-001	 1.608348227766813e+001
1	 1.341816889492642e+000	 6.244229898254444e-001	 1.584510338825929e+001
1	 1.335046033430547e+000	 6.387712767200264e-001	 1.560674782833311e+001
1	 1.328108877831169e+000	 6.530723325984108e-001	 1.536828577576210e+001
1	 1.321005755352224e+000	 6.673233490984624e-001	 1.512962705317585e+001
1	 1.313737060347918e+000	 6.815215156663675e-001	 1.489072154043284e+001
1	 1.306303249176666e+000	 6.956640212142953e-001	 1.465155951737914e+001
1	 1.298704840456433e+000	 7.097480557957786e-001	 1.441217193517979e+001
1	 1.290942415266750e+000	 7.237708122969158e-001	 1.417263061466413e+001
1	 1.385651790179613e+000	 5.915924525343077e-001	 1.646926225354615e+001
1	 1.379268244758125e+000	 6.063263820210936e-001	 1.621725754157816e+001
1	 1.372714760678931e+000	 6.210207764852744e-001	 1.596605833489409e+001
1	 1.365991490565752e+000	 6.356727935789341e-001	 1.571544627717856e+001
1	 1.359098648601329e+000	 6.502795837870480e-001	 1.546524147503523e+001
1	 1.352036510994155e+000	 6.648382920499099e-001	 1.521530303876222e+001
1	 1.344805416395201e+000	 6.793460594090302e-001	 1.496552955708108e+001
1	 1.337405766263471e+000	 6.938000246747536e-001	 1.471585950383343e+001
1	 1.329838025179267e+000	 7.081973261137887e-001	 1.446627157479925e+001
1	 1.322102721104127e+000	 7.225351031547689e-001	 1.421678495293930e+001
1	 1.314200445586484e+000	 7.368104981099263e-001	 1.396745950051999e+001
1	 1.410174322794896e+000	 6.020621429102250e-001	 1.638570860282565e+001
1	 1.403677804762223e+000	 6.170568256895567e-001	 1.611926331857181e+001
1	 1.397008340587419e+000	 6.320112737763581e-001	 1.585399585340100e+001
1	 1.390166085595247e+000	 6.469225945203407e-001	 1.558968270688740e+001
1	 1.383151257758930e+000	 6.617878879772692e-001	 1.532613853210573e+001
1	 1.375964138175143e+000	 6.766042485600979e-001	 1.506321665917325e+001
1	 1.368605071488112e+000	 6.913687667140008e-001	 1.480080955268008e+001
1	 1.361074466261639e+000	 7.060785306134997e-001	 1.453884920106269e+001
1	 1.353372795297910e+000	 7.207306278798588e-001	 1.427730743611691e+001
1	 1.345500595902038e+000	 7.353221473168310e-001	 1.401619618099535e+001
1	 1.337458470091355e+000	 7.498501806627994e-001	 1.375556762519256e+001
1	 1.104877265689896e+000	 6.194528172708822e-001	 1.560270959720607e+001
1	 1.098092794993187e+000	 6.314013997351550e-001	 1.537783299195718e+001
1	 1.091169062434710e+000	 6.432927274468235e-001	 1.514891407630841e+001
1	 1.084106727484178e+000	 6.551244135982918e-001	 1.491617562538361e+001
1	 1.076906503314615e+000	 6.668940797275553e-001	 1.467986323326398e+001
1	 1.069569156736019e+000	 6.785993572081285e-001	 1.444024526043283e+001
1	 1.062095508079932e+000	 6.902378887419132e-001	 1.419761274070267e+001
1	 1.054486431034654e+000	 7.018073298531413e-001	 1.395227924729763e+001
1	 1.046742852430854e+000	 7.133053503815100e-001	 1.370458071786287e+001
1	 1.038865751977465e+000	 7.247296359725971e-001	 1.345487523827322e+001
1	 1.030856161947795e+000	 7.360778895636447e-001	 1.320354278521468e+001
1	 1.128135551833708e+000	 6.324926465120909e-001	 1.544166502221160e+001
1	 1.121208264223476e+000	 6.446927533389900e-001	 1.522077503367677e+001
1	 1.114138783211110e+000	 6.568344001685658e-001	 1.499532114090381e+001
1	 1.106927782148541e+000	 6.689151499495939e-001	 1.476561844828379e+001
1	 1.099575989221505e+000	 6.809325741521235e-001	 1.453201063276373e+001
1	 1.092084187381794e+000	 6.928842542887643e-001	 1.429486975820288e+001
1	 1.084453214229405e+000	 7.047677834389823e-001	 1.405459603756975e+001
1	 1.076683961844281e+000	 7.165807677744921e-001	 1.381161754283223e+001
1	 1.068777376567416e+000	 7.283208280838213e-001	 1.356638986252219e+001
1	 1.060734458731179e+000	 7.399856012941009e-001	 1.331939570708804e+001
1	 1.052556262338826e+000	 7.515727419881261e-001	 1.307114446228112e+001
1	 1.151393785650396e+000	 6.455324464160297e-001	 1.527625029544970e+001
1	 1.144323681448046e+000	 6.579840770396939e-001	 1.505751445176586e+001
1	 1.137108452309784e+000	 6.703760424240129e-001	 1.483392046595559e+001
1	 1.129748785469733e+000	 6.827058552742500e-001	 1.460585853122507e+001
1	 1.122245424126297e+000	 6.949710369926212e-001	 1.437375233575374e+001
1	 1.114599167373023e+000	 7.071691192309458e-001	 1.413805876320256e+001
1	 1.106810870078322e+000	 7.192976454463669e-001	 1.389926753099592e+001
1	 1.098881442713736e+000	 7.313541724581945e-001	 1.365790076638298e+001
1	 1.090811851130529e+000	 7.433362720038976e-001	 1.341451252044203e+001
1	 1.082603116284461e+000	 7.552415322922724e-001	 1.316968822034906e+001
1	 1.074256313908682e+000	 7.670675595517769e-001	 1.292404406039209e+001
1	 1.174651972953994e+000	 6.585722202423398e-001	 1.510608552509530e+001
1	 1.167439052445210e+000	 6.712753741597765e-001	 1.488772361764480e+001
1	 1.160078075472602e+000	 6.839176575982479e-001	 1.466440052526669e+001
1	 1.152569743152447e+000	 6.964965330196067e-001	 1.443656525472038e+001
1	 1.144914813695786e+000	 7.090094717583353e-001	 1.420470443618328e+001
1	 1.137114102337887e+000	 7.214539556055635e-001	 1.396934192843931e+001
1	 1.129168481215533e+000	 7.338274783962134e-001	 1.373103835329130e+001
1	 1.121078879191826e+000	 7.461275475972879e-001	 1.349039055933370e+001
1	 1.112846281628262e+000	 7.583516858952986e-001	 1.324803101540244e+001
1	 1.104471730103942e+000	 7.704974327808040e-001	 1.300462713420031e+001
1	 1.095956322081866e+000	 7.825623461280227e-001	 1.276088052677854e+001
1	 1.197910119558531e+000	 6.716119712506629e-001	 1.493082031259461e+001
1	 1.190554382993286e+000	 6.845666480217496e-001	 1.471110033738563e+001
1	 1.183047658441432e+000	 6.974592490763552e-001	 1.448647397710223e+001
1	 1.175390660901376e+000	 7.102871866330096e-001	 1.425743366703177e+001
1	 1.167584163596768e+000	 7.230478819585515e-001	 1.402451283467135e+001
1	 1.159628997904562e+000	 7.357387669835083e-001	 1.378828542746727e+001
1	 1.151526053229886e+000	 7.483572859206673e-001	 1.354936536269474e+001
1	 1.143276276827363e+000	 7.609008968848122e-001	 1.330840589972175e+001
1	 1.134880673568683e+000	 7.733670735115833e-001	 1.306609893510055e+001
1	 1.126340305656252e+000	 7.857533065733875e-001	 1.282317422113086e+001
1	 1.117656292282877e+000	 7.980571055902893e-001	 1.258039850874096e+001
1	 1.221168231278044e+000	 6.846517027006408e-001	 1.475013094519017e+001
1	 1.213669678870589e+000	 6.978579019481238e-001	 1.452736543087189e+001
1	 1.206017206958142e+000	 7.110008202434178e-001	 1.429987536251676e+001
1	 1.198211544421214e+000	 7.240778195618056e-001	 1.406818204133806e+001
1	 1.190253479496037e+000	 7.370862711025564e-001	 1.383285040160267e+001
1	 1.182143859701229e+000	 7.500235569356701e-001	 1.359448847818494e+001
1	 1.173883591710230e+000	 7.628870716518743e-001	 1.335374679059568e+001
1	 1.165473641169157e+000	 7.756742240138078e-001	 1.311131764381481e+001
1	 1.156915032459861e+000	 7.883824386063120e-001	 1.286793434647191e+001
1	 1.148208848408022e+000	 8.010091574837155e-001	 1.262437034713507e+001
1	 1.139356229936217e+000	 8.135518418120015e-001	 1.238143828968472e+001
1	 1.244426313926563e+000	 6.976914178519144e-001	 1.456371790331868e+001
1	 1.236784945855437e+000	 7.111491392614100e-001	 1.433626058246804e+001
1	 1.228986726764600e+000	 7.245423744845198e-001	 1.410435906182607e+001
1	 1.221032399416653e+000	 7.378684352533408e-001	 1.386854970687879e+001
1	 1.212922767060388e+000	 7.511246426996362e-001	 1.362941445839705e+001
1	 1.204658693356066e+000	 7.643083290329400e-001	 1.338758025650671e+001
1	 1.196241102245413e+000	 7.774168392219808e-001	 1.314371837694250e+001
1	 1.187670977766017e+000	 7.904475326773144e-001	 1.289854367987768e+001
1	 1.178949363809866e+000	 8.033977849330436e-001	 1.265281377194867e+001
1	 1.170077363825882e+000	 8.162649893254801e-001	 1.240732808232230e+001
1	 1.161056140466386e+000	 8.290465586665842e-001	 1.216292685388115e+001
1	 1.267684373318120e+000	 7.107311199641255e-001	 1.437130364243729e+001
1	 1.259900189726144e+000	 7.244403632841190e-001	 1.413754642832418e+001
1	 1.251956223602675e+000	 7.380839151847439e-001	 1.389969747606570e+001
1	 1.243853231592387e+000	 7.516590371549613e-001	 1.365829511888301e+001
1	 1.235592031956618e+000	 7.651630002590770e-001	 1.341392453608394e+001
1	 1.227173504497251e+000	 7.785930868462080e-001	 1.316721714983040e+001
1	 1.218598590424284e+000	 7.919465922631326e-001	 1.291884993113143e+001
1	 1.209868292166755e+000	 8.052208265683716e-001	 1.266954461549578e+001
1	 1.200983673126766e+000	 8.184131162453378e-001	 1.242006682891427e+001
1	 1.191945857376462e+000	 8.315208059123731e-001	 1.217122512507750e+001
1	 1.182756029297883e+000	 8.445412600274632e-001	 1.192386993497244e+001
1	 1.290942415266750e+000	 7.237708122969158e-001	 1.417263061466413e+001
1	 1.283015416261027e+000	 7.377315773387618e-001	 1.393100085046868e+001
1	 1.274925703214236e+000	 7.516254457291739e-001	 1.368567940505796e+001
1	 1.266674046653109e+000	 7.654496287140142e-001	 1.343719413716460e+001
1	 1.258261279851520e+000	 7.792013472901653e-001	 1.318612037620494e+001
1	 1.249688298752963e+000	 7.928778339463646e-001	 1.293308030744173e+001
1	 1.240956061835691e+000	 8.064763344074757e-001	 1.267874226470921e+001
1	 1.232065589920179e+000	 8.199941093800192e-001	 1.242381993115638e+001
1	 1.223017965918630e+000	 8.334284362967542e-001	 1.216907144870468e+001
1	 1.213814334526392e+000	 8.467766110580868e-001	 1.191529843715733e+001
1	 1.204455901855211e+000	 8.600359497680635e-001	 1.166334492413944e+001
1	 1.314200445586484e+000	 7.368104981099263e-001	 1.396745950051999e+001
1	 1.306130631238402e+000	 7.510227847478495e-001	 1.371641745206763e+001
1	 1.297895171341149e+000	 7.651669695028937e-001	 1.346210859772792e+001
1	 1.289494850303512e+000	 7.792402133778452e-001	 1.320503848753025e+001
1	 1.280930516411890e+000	 7.932396873021873e-001	 1.294576014401994e+001
1	 1.272203081751379e+000	 8.071625739043004e-001	 1.268487345106494e+001
1	 1.263313522068484e+000	 8.210060692871558e-001	 1.242302444982187e+001
1	 1.254262876575102e+000	 8.347673848052973e-001	 1.216090454231827e+001
1	 1.245052247693526e+000	 8.484437488408523e-001	 1.189924960335037e+001
1	 1.235682800742303e+000	 8.620324085763136e-001	 1.163883900163768e+001
1	 1.226155763562868e+000	 8.755306317618103e-001	 1.138049453141977e+001
1	 1.337458470091355e+000	 7.498501806627994e-001	 1.375556762519256e+001
1	 1.329245840436585e+000	 7.643139888338926e-001	 1.349360419179524e+001
1	 1.320864633725284e+000	 7.787084898909862e-001	 1.322880245369777e+001
1	 1.312315648248289e+000	 7.930307945938000e-001	 1.296163438374378e+001
1	 1.303599747304523e+000	 8.072780238044296e-001	 1.269261882817003e+001
1	 1.294717859120680e+000	 8.214473102909055e-001	 1.242232091388860e+001
1	 1.285670976711510e+000	 8.355358005343189e-001	 1.215135136375180e+001
1	 1.276460157680332e+000	 8.495406565372459e-001	 1.188036572023901e+001
1	 1.267086523959525e+000	 8.634590576311914e-001	 1.161006347824408e+001
1	 1.257551261490825e+000	 8.772882022807456e-001	 1.134118712788317e+001
1	 1.247855619845356e+000	 8.910253098821287e-001	 1.107452110848443e+001
1	 1.030856161947795e+000	 7.360778895636447e-001	 1.320354278521468e+001
1	 1.022715166525019e+000	 7.473478326137195e-001	 1.294931706358637e+001
1	 1.014443900524439e+000	 7.585372058120380e-001	 1.269105516245931e+001
1	 1.006043549818665e+000	 7.696437712595147e-001	 1.242934789592529e+001
1	 9.975153511208504e-001	 7.806653141634373e-001	 1.216479824705563e+001
1	 9.888605914263493e-001	 7.915996442727785e-001	 1.189802069535474e+001
1	 9.800806074060003e-001	 8.024445972974047e-001	 1.162964052081195e+001
1	 9.711767847515960e-001	 8.131980363093015e-001	 1.136029308574054e+001
1	 9.621505574741556e-001	 8.238578531239378e-001	 1.109062309565686e+001
1	 9.530034071557008e-001	 8.344219696599167e-001	 1.082128384051027e+001
1	 9.437368621553292e-001	 8.448883392750972e-001	 1.055293641763238e+001
1	 1.052556262338826e+000	 7.515727419881261e-001	 1.307114446228112e+001
1	 1.044243894396206e+000	 7.630799236604066e-001	 1.282019311301932e+001
1	 1.035798513607119e+000	 7.745048394403977e-001	 1.256513704015702e+001
1	 1.027221330807447e+000	 7.858452043199752e-001	 1.230657068866477e+001
1	 1.018513608743844e+000	 7.970987568837924e-001	 1.204509830189668e+001
1	 1.009676661503627e+000	 8.082632607748014e-001	 1.178133323170548e+001
1	 1.000711853895297e+000	 8.193365061433413e-001	 1.151589722941081e+001
1	 9.916206007802294e-001	 8.303163110778581e-001	 1.124941971886538e+001
1	 9.824043663561701e-001	 8.412005230153463e-001	 1.098253705291564e+001
1	 9.730646633932649e-001	 8.519870201296238e-001	 1.071589175460230e+001
1	 9.636030524234189e-001	 8.626737126955777e-001	 1.045013174449086e+001
1	 1.074256313908682e+000	 7.670675595517769e-001	 1.292404406039209e+001
1	 1.065772573831665e+000	 7.788119793124742e-001	 1.267582812896037e+001
1	 1.057153078645655e+000	 7.904724371441629e-001	 1.242326193561357e+001
1	 1.048399064149761e+000	 8.020466009297870e-001	 1.216695143849326e+001
1	 1.039511819124084e+000	 8.135321626314671e-001	 1.190751130347799e+001
1	 1.030492684747856e+000	 8.249268397862400e-001	 1.164556418607555e+001
1	 1.021343053967182e+000	 8.362283769850172e-001	 1.138173999610027e+001
1	 1.012064370812964e+000	 8.474345473328055e-001	 1.111667514645045e+001
1	 1.002658129669613e+000	 8.585431538882246e-001	 1.085101178734655e+001
1	 9.931258744953387e-001	 8.695520310804036e-001	 1.058539702743568e+001
1	 9.834691979947897e-001	 8.804590461013546e-001	 1.032048214320813e+001
1	 1.095956322081866e+000	 7.825623461280227e-001	 1.276088052677854e+001
1	 1.087301210213081e+000	 7.945440035026687e-001	 1.251463898577673e+001
1	 1.078507600978236e+000	 8.064400029149779e-001	 1.226367762353135e+001
1	 1.069576755139626e+000	 8.182479651390546e-001	 1.200862127688258e+001
1	 1.060509987510751e+000	 8.299655355145810e-001	 1.175010362831144e+001
1	 1.051308666362708e+000	 8.415903854727679e-001	 1.148876644907172e+001
1	 1.041974212779163e+000	 8.531202140451907e-001	 1.122525882478820e+001
1	 1.032508099960486e+000	 8.645527493535050e-001	 1.096023636491870e+001
1	 1.022911852477707e+000	 8.758857500780444e-001	 1.069436039752662e+001
1	 1.013187045477039e+000	 8.871170069033347e-001	 1.042829715085431e+001
1	 1.003335303835817e+000	 8.982443439385991e-001	 1.016271692322907e+001
1	 1.117656292282877e+000	 7.980571055902893e-001	 1.258039850874096e+001
1	 1.108829808922140e+000	 8.102760001637359e-001	 1.233516550604830e+001
1	 1.099862085943054e+000	 8.224075407444853e-001	 1.208476796104753e+001
1	 1.090754409071060e+000	 8.344493009978826e-001	 1.182985647816380e+001
1	 1.081508119153021e+000	 8.463988796412525e-001	 1.157109182650908e+001
1	 1.072124611551856e+000	 8.582539020000586e-001	 1.130914413403678e+001
1	 1.062605335488745e+000	 8.700120215466197e-001	 1.104469206165779e+001
1	 1.052951793333486e+000	 8.816709214193184e-001	 1.077842195881366e+001
1	 1.043165539843673e+000	 8.932283159202766e-001	 1.051102700205675e+001
1	 1.033248181353480e+000	 9.046819519894958e-001	 1.024320631823920e+001
1	 1.023201374912877e+000	 9.160296106534807e-001	 9.975664093958732e+000
1	 1.139356229936217e+000	 8.135518418120015e-001	 1.238143828968473e+001
1	 1.130358375340526e+000	 8.260079732284229e-001	 1.213605875411177e+001
1	 1.121216538878298e+000	 8.383750546243289e-001	 1.188503993058379e+001
1	 1.111932031238083e+000	 8.506506125563763e-001	 1.162906463965741e+001
1	 1.102506219300071e+000	 8.628321991195993e-001	 1.136882832296648e+001
1	 1.092940525518970e+000	 8.749173935337853e-001	 1.110503817847763e+001
1	 1.083236427253435e+000	 8.869038037120627e-001	 1.083841227107855e+001
1	 1.073395456042649e+000	 8.987890678096056e-001	 1.056967862010526e+001
1	 1.063419196830736e+000	 9.105708557503934e-001	 1.029957426548183e+001
1	 1.053309287139780e+000	 9.222468707299641e-001	 1.002884431420900e+001
1	 1.043067416192346e+000	 9.338148506921709e-001	 9.758240968996297e+000
1	 1.161056140466386e+000	 8.290465586665842e-001	 1.216292685388115e+001
1	 1.151886914849926e+000	 8.417399266294754e-001	 1.191607064254413e+001
1	 1.142570965122156e+000	 8.543425485461513e-001	 1.166311213590733e+001
1	 1.133109626934713e+000	 8.668519038646394e-001	 1.140477241177327e+001
1	 1.123504293201081e+000	 8.792654980577411e-001	 1.114178872223161e+001
1	 1.113756413467723e+000	 8.915808642396221e-001	 1.087491356036754e+001
1	 1.103867493230738e+000	 9.037955647642769e-001	 1.060491369560632e+001
1	 1.093839093198666e+000	 9.159071928037287e-001	 1.033256917942461e+001
1	 1.083672828502116e+000	 9.279133739038656e-001	 1.005867232324317e+001
1	 1.073370367851056e+000	 9.398117675158186e-001	 9.784026650396937e+000
1	 1.062933432640599e+000	 9.516000685008400e-001	 9.509445824152131e+000
1	 1.182756029297883e+000	 8.445412600274632e-001	 1.192386993497243e+001
1	 1.173415432832025e+000	 8.574718642996397e-001	 1.167404468294242e+001
1	 1.163925370012821e+000	 8.703100265015967e-001	 1.141770456474232e+001
1	 1.154287201454969e+000	 8.830531789727772e-001	 1.115561457899105e+001
1	 1.144502346105226e+000	 8.956987805637957e-001	 1.088856051107138e+001
1	 1.134572280601786e+000	 9.082443182832425e-001	 1.061734792189659e+001
1	 1.124498538578164e+000	 9.206873089260210e-001	 1.034280109660161e+001
1	 1.114282709912222e+000	 9.330253006810482e-001	 1.006576195502571e+001
1	 1.103926439921037e+000	 9.452558747161652e-001	 9.787088925961955e+000
1	 1.093431428502421e+000	 9.573766467381373e-001	 9.507655787250936e+000
1	 1.082799429224013e+000	 9.693852685256590e-001	 9.228350473893583e+000
1	 1.204455901855211e+000	 8.600359497680635e-001	 1.166334492413944e+001
1	 1.194943934668507e+000	 8.732037901716623e-001	 1.140890773666740e+001
1	 1.185279758888481e+000	 8.862774924823083e-001	 1.114762945817971e+001
1	 1.175464760092871e+000	 8.992544419308942e-001	 1.088032432133241e+001
1	 1.165500383261686e+000	 9.121320507458814e-001	 1.060783298244107e+001
1	 1.155388132124831e+000	 9.249077598303189e-001	 1.033102142314631e+001
1	 1.145129568453215e+000	 9.375790404200531e-001	 1.005077980132529e+001
1	 1.134726311294007e+000	 9.501433957209261e-001	 9.768021253265991e+000
1	 1.124180036150719e+000	 9.625983625227634e-001	 9.483680649256650e+000
1	 1.113492474108993e+000	 9.749415127879983e-001	 9.198713304873740e+000
1	 1.102665410908964e+000	 9.871704552127985e-001	 8.914093650375442e+000
1	 1.226155763562868e+000	 8.755306317618103e-001	 1.138049453141977e+001
1	 1.216472425741059e+000	 8.889357081782895e-001	 1.111966264165589e+001
1	 1.206634137087326e+000	 9.022449504799290e-001	 1.085178314975272e+001
1	 1.196642308142437e+000	 9.154556967890949e-001	 1.057772451006171e+001
1	 1.186498409919638e+000	 9.285653127121178e-001	 1.029838822952537e+001
1	 1.176203973240529e+000	 9.415711930465260e-001	 1.001470767330096e+001
1	 1.165760588013400e+000	 9.544707634691313e-001	 9.727646807030139e+000
1	 1.155169902454707e+000	 9.672614822027226e-001	 9.438198877933109e+000
1	 1.144433622254387e+000	 9.799408416591322e-001	 9.147385037075342e+000
1	 1.133553509685888e+000	 9.925063700564804e-001	 8.856252905317479e+000
1	 1.122531382661828e+000	 1.004955633008429e+000	 8.565875085615646e+000
1	 1.247855619845356e+000	 8.910253098821287e-001	 1.107452110848443e+001
1	 1.238000911431365e+000	 9.046676222522669e-001	 1.080538160864496e+001
1	 1.227988509947546e+000	 9.182124044861023e-001	 1.052913875612688e+001
1	 1.217819850897685e+000	 9.316569475974837e-001	 1.024671991170377e+001
1	 1.207496431328260e+000	 9.449985705706225e-001	 9.959093079575137e+000
1	 1.197019809152552e+000	 9.582346220975364e-001	 9.667265608211270e+000
1	 1.186391602416225e+000	 9.713624822960134e-001	 9.372282813363833e+000
1	 1.175613488505012e+000	 9.843795644057992e-001	 9.075226525596072e+000
1	 1.164687203295262e+000	 9.972833164607429e-001	 8.777213564892284e+000
1	 1.153614540248221e+000	 1.010071222934661e+000	 8.479394145107539e+000
1	 1.142397349448981e+000	 1.022740806358721e+000	 8.182950211211578e+000
1	 9.437368621553292e-001	 8.448883392750972e-001	 1.055293641763239e+001
1	 9.343539132487400e-001	 8.552534008771232e-001	 1.028337659582308e+001
1	 9.248547987507910e-001	 8.655167534262337e-001	 1.001041466112873e+001
1	 9.152411822021542e-001	 8.756764540435483e-001	 9.734864237037423e+000
1	 9.055147702627122e-001	 8.857305963593138e-001	 9.457544709892158e+000
1	 8.956773117034881e-001	 8.956773117034879e-001	 9.179280186584979e+000
1	 8.857305963593135e-001	 9.055147702627118e-001	 8.900898443595667e+000
1	 8.756764540435483e-001	 9.152411822021546e-001	 8.623229869418394e+000
1	 8.655167534262336e-001	 9.248547987507910e-001	 8.347106402436323e+000
1	 8.552534008771232e-001	 9.343539132487404e-001	 8.073360466316830e+000
1	 8.448883392750972e-001	 9.437368621553289e-001	 7.802823905004642e+000
1	 9.636030524234189e-001	 8.626737126955777e-001	 1.045013174449087e+001
1	 9.540225871798312e-001	 8.732569646578550e-001	 1.018304695340421e+001
1	 9.443235109940164e-001	 8.837363665345823e-001	 9.912446309736067e+000
1	 9.345075224251110e-001	 8.941099345481917e-001	 9.639134794454844e+000
1	 9.245763640591428e-001	 9.043757221987769e-001	 9.363924159479634e+000
1	 9.145318214797459e-001	 9.145318214797458e-001	 9.087631886680081e+000
1	 9.043757221987767e-001	 9.245763640591429e-001	 8.811080136389876e+000
1	 8.941099345481919e-001	 9.345075224251110e-001	 8.535094687482630e+000
1	 8.837363665345825e-001	 9.443235109940160e-001	 8.260503871080248e+000
1	 8.732569646578552e-001	 9.540225871798311e-001	 7.988137499981129e+000
1	 8.626737126955777e-001	 9.636030524234188e-001	 7.718825795904338e+000
1	 9.834691979947897e-001	 8.804590461013546e-001	 1.032048214320813e+001
1	 9.736912168585270e-001	 8.912604879328961e-001	 1.005412149002964e+001
1	 9.637921794347112e-001	 9.019559386510658e-001	 9.784177598889826e+000
1	 9.537738193008559e-001	 9.125433735797032e-001	 9.511441806798777e+000
1	 9.436379149690517e-001	 9.230208060888488e-001	 9.236712905225540e+000
1	 9.333862888354512e-001	 9.333862888354511e-001	 8.960796112665875e+000
1	 9.230208060888487e-001	 9.436379149690515e-001	 8.684502035462606e+000
1	 9.125433735797034e-001	 9.537738193008564e-001	 8.408645618903972e+000
1	 9.019559386510658e-001	 9.637921794347114e-001	 8.134045090652322e+000
1	 8.912604879328957e-001	 9.736912168585270e-001	 7.861520898571967e+000
1	 8.804590461013545e-001	 9.834691979947897e-001	 7.591894645041761e+000
1	 1.003335303835817e+000	 8.982443439385991e-001	 1.016271692322907e+001
1	 9.933598072018451e-001	 9.092639752029758e-001	 9.895577481085756e+000
1	 9.832608089399147e-001	 9.201754743304356e-001	 9.624819592210960e+000
1	 9.730400776458450e-001	 9.309767757463133e-001	 9.351216366107259e+000
1	 9.626994277577085e-001	 9.416658526906770e-001	 9.075548739101670e+000
1	 9.522407184841031e-001	 9.522407184841031e-001	 8.798604472316574e+000
1	 9.416658526906770e-001	 9.626994277577085e-001	 8.521177137184044e+000
1	 9.309767757463132e-001	 9.730400776458451e-001	 8.244065090478999e+000
1	 9.201754743304355e-001	 9.832608089399147e-001	 7.968070440874209e+000
1	 9.092639752029756e-001	 9.933598072018450e-001	 7.693998009041801e+000
1	 8.982443439385988e-001	 1.003335303835817e+000	 7.422654283340893e+000
1	 1.023201374912877e+000	 9.160296106534807e-001	 9.975664093958732e+000
1	 1.013028363126802e+000	 9.272674309688241e-001	 9.706471646217020e+000
1	 1.002729404376667e+000	 9.383949781274455e-001	 9.433644642957761e+000
1	 9.923063022765317e-001	 9.494101456562505e-001	 9.157933768067773e+000
1	 9.817609071903852e-001	 9.603108666654103e-001	 8.880097605881284e+000
1	 9.710951151391997e-001	 9.710951151391994e-001	 8.600901675996409e+000
1	 9.603108666654103e-001	 9.817609071903853e-001	 8.321117455460335e+000
1	 9.494101456562506e-001	 9.923063022765318e-001	 8.041521390222520e+000
1	 9.383949781274457e-001	 1.002729404376667e+000	 7.762893897782019e+000
1	 9.272674309688241e-001	 1.013028363126802e+000	 7.486018362978833e+000
1	 9.160296106534808e-001	 1.023201374912877e+000	 7.211680128894774e+000
1	 1.043067416192346e+000	 9.338148506921709e-001	 9.758240968996297e+000
1	 1.032696889550414e+000	 9.452708597311709e-001	 9.485932587525934e+000
1	 1.022197970612008e+000	 9.566144545968488e-001	 9.209980561329727e+000
1	 1.011572498009371e+000	 9.678434879177446e-001	 8.931109306653520e+000
1	 1.000822358032352e+000	 9.789558526741965e-001	 8.650050926527053e+000
1	 9.899494835142406e-001	 9.899494835142404e-001	 8.367544293504812e+000
1	 9.789558526741967e-001	 1.000822358032352e+000	 8.084334120120730e+000
1	 9.678434879177446e-001	 1.011572498009371e+000	 7.801170018852228e+000
1	 9.566144545968488e-001	 1.022197970612008e+000	 7.518805553417783e+000
1	 9.452708597311709e-001	 1.032696889550413e+000	 7.237997283253710e+000
1	 9.338148506921710e-001	 1.043067416192346e+000	 6.959503803031729e+000
1	 1.062933432640599e+000	 9.516000685008400e-001	 9.509445824152131e+000
1	 1.052365391389698e+000	 9.632742659907464e-001	 9.233154075867915e+000
1	 1.041666512512977e+000	 9.748339082933978e-001	 8.953205435938502e+000
1	 1.030838669660818e+000	 9.862768071390247e-001	 8.670294540412932e+000
1	 1.019883785048881e+000	 9.976008153781840e-001	 8.385123221774196e+000
1	 1.008803828322724e+000	 1.008803828322724e+000	 8.098399650347226e+000
1	 9.976008153781842e-001	 1.019883785048881e+000	 7.810837464270198e+000
1	 9.862768071390249e-001	 1.030838669660818e+000	 7.523154889696924e+000
1	 9.748339082933980e-001	 1.041666512512977e+000	 7.236073852924824e+000
1	 9.632742659907462e-001	 1.052365391389697e+000	 6.950319086162490e+000
1	 9.516000685008400e-001	 1.062933432640599e+000	 6.666617228665972e+000
1	 1.082799429224013e+000	 9.693852685256590e-001	 9.228350473893583e+000
1	 1.072033873561670e+000	 9.812776542482794e-001	 8.947389076305687e+000
1	 1.061135034946614e+000	 9.930533437718464e-001	 8.662743025419600e+000
1	 1.050104822047326e+000	 1.004710107928321e+000	 8.375073969829867e+000
1	 1.038945193005243e+000	 1.016245759438521e+000	 8.085049997350966e+000
1	 1.027658154278150e+000	 1.027658154278149e+000	 7.793344845523510e+000
1	 1.016245759438521e+000	 1.038945193005243e+000	 7.500637102024664e+000
1	 1.004710107928321e+000	 1.050104822047327e+000	 7.207609396498651e+000
1	 9.930533437718467e-001	 1.061135034946614e+000	 6.914947585345248e+000
1	 9.812776542482794e-001	 1.072033873561670e+000	 6.623339931022382e+000
1	 9.693852685256590e-001	 1.082799429224013e+000	 6.333476277431126e+000
1	 1.102665410908964e+000	 9.871704552127985e-001	 8.914093650375442e+000
1	 1.091702340983348e+000	 9.992810290045007e-001	 8.627944419491509e+000
1	 1.080603542779960e+000	 1.011272765586947e+000	 8.338058648272488e+000
1	 1.069370959985351e+000	 1.023143394893862e+000	 8.045062073905436e+000
1	 1.058006586666708e+000	 1.034890689516356e+000	 7.749585857834327e+000
1	 1.046512466094015e+000	 1.046512466094015e+000	 7.452265875506200e+000
1	 1.034890689516356e+000	 1.058006586666708e+000	 7.153741997841935e+000
1	 1.023143394893862e+000	 1.069370959985352e+000	 6.854657365770794e+000
1	 1.011272765586948e+000	 1.080603542779960e+000	 6.555657659185425e+000
1	 9.992810290045006e-001	 1.091702340983348e+000	 6.257390361688374e+000
1	 9.871704552127985e-001	 1.102665410908964e+000	 5.960504022510351e+000
1	 1.122531382661828e+000	 1.004955633008429e+000	 8.565875085615646e+000
1	 1.111370798571747e+000	 1.017284394760140e+000	 8.274176038947182e+000
1	 1.100072040880052e+000	 1.029492178293453e+000	 7.978655509198287e+000
1	 1.088637088291348e+000	 1.041576672643878e+000	 7.679900661453836e+000
1	 1.077067970798547e+000	 1.053535610272836e+000	 7.378502820813792e+000
1	 1.065366768483820e+000	 1.065366768483820e+000	 7.075056851252271e+000
1	 1.053535610272836e+000	 1.077067970798547e+000	 6.770160528489599e+000
1	 1.041576672643877e+000	 1.088637088291348e+000	 6.464413908015917e+000
1	 1.029492178293453e+000	 1.100072040880052e+000	 6.158418689416871e+000
1	 1.017284394760140e+000	 1.111370798571748e+000	 5.852777578161266e+000
1	 1.004955633008429e+000	 1.122531382661828e+000	 5.548093646016428e+000
1	 1.142397349448981e+000	 1.022740806358721e+000	 8.182950211211578e+000
1	 1.131039251243886e+000	 1.035287756015926e+000	 7.885484705346374e+000
1	 1.119540534113931e+000	 1.047711586446118e+000	 7.584071408793771e+000
1	 1.107903211781769e+000	 1.060009945786597e+000	 7.279256498797413e+000
1	 1.096129350166033e+000	 1.072180526369110e+000	 6.971588806976555e+000
1	 1.084221066161063e+000	 1.084221066161063e+000	 6.661619296921330e+000
1	 1.072180526369110e+000	 1.096129350166033e+000	 6.349900538546231e+000
1	 1.060009945786597e+000	 1.107903211781770e+000	 6.036986180116736e+000
1	 1.047711586446118e+000	 1.119540534113932e+000	 5.723430418869226e+000
1	 1.035287756015926e+000	 1.131039251243886e+000	 5.409787471147257e+000
1	 1.022740806358721e+000	 1.142397349448981e+000	 5.096611042978808e+000
1	 8.448883392750972e-001	 9.437368621553289e-001	 7.802823905004642e+000
1	 8.344219696599167e-001	 9.530034071557008e-001	 7.533791247828511e+000
1	 8.238578531239381e-001	 9.621505574741556e-001	 7.264569977073411e+000
1	 8.131980363093013e-001	 9.711767847515960e-001	 6.995885802444138e+000
1	 8.024445972974045e-001	 9.800806074060000e-001	 6.728458994809679e+000
1	 7.915996442727785e-001	 9.888605914263495e-001	 6.463003571169413e+000
1	 7.806653141634374e-001	 9.975153511208504e-001	 6.200226493597544e+000
1	 7.696437712595143e-001	 1.006043549818665e+000	 5.940826883604881e+000
1	 7.585372058120381e-001	 1.014443900524439e+000	 5.685495253310616e+000
1	 7.473478326137194e-001	 1.022715166525019e+000	 5.434912754767579e+000
1	 7.360778895636446e-001	 1.030856161947795e+000	 5.189750448732552e+000
1	 8.626737126955777e-001	 9.636030524234188e-001	 7.718825795904339e+000
1	 8.519870201296237e-001	 9.730646633932647e-001	 7.450795683973076e+000
1	 8.412005230153468e-001	 9.824043663561702e-001	 7.182282797400956e+000
1	 8.303163110778579e-001	 9.916206007802297e-001	 6.914007662714978e+000
1	 8.193365061433412e-001	 1.000711853895297e+000	 6.646687440455369e+000
1	 8.082632607748013e-001	 1.009676661503627e+000	 6.381035107963227e+000
1	 7.970987568837924e-001	 1.018513608743844e+000	 6.117758652477296e+000
1	 7.858452043199751e-001	 1.027221330807447e+000	 5.857560276006298e+000
1	 7.745048394403975e-001	 1.035798513607119e+000	 5.601135613407196e+000
1	 7.630799236604067e-001	 1.044243894396206e+000	 5.349172965060437e+000
1	 7.515727419881260e-001	 1.052556262338826e+000	 5.102352545488225e+000
1	 8.804590461013545e-001	 9.834691979947897e-001	 7.591894645041761e+000
1	 8.695520310804036e-001	 9.931258744953385e-001	 7.323343020023839e+000
1	 8.585431538882248e-001	 1.002658129669613e+000	 7.054064934276097e+000
1	 8.474345473328057e-001	 1.012064370812964e+000	 6.784794109692599e+000
1	 8.362283769850171e-001	 1.021343053967182e+000	 6.516262426421491e+000
1	 8.249268397862399e-001	 1.030492684747855e+000	 6.249199073914793e+000
1	 8.135321626314672e-001	 1.039511819124085e+000	 5.984329709747951e+000
1	 8.020466009297869e-001	 1.048399064149761e+000	 5.722375627759831e+000
1	 7.904724371441629e-001	 1.057153078645654e+000	 5.464052937033614e+000
1	 7.788119793124740e-001	 1.065772573831665e+000	 5.210071753203329e+000
1	 7.670675595517766e-001	 1.074256313908682e+000	 4.961135403533692e+000
1	 8.982443439385988e-001	 1.003335303835817e+000	 7.422654283340892e+000
1	 8.871170069033352e-001	 1.013187045477039e+000	 7.152178042031272e+000
1	 8.758857500780446e-001	 1.022911852477707e+000	 6.880760484009787e+000
1	 8.645527493535050e-001	 1.032508099960486e+000	 6.609165885721867e+000
1	 8.531202140451906e-001	 1.041974212779163e+000	 6.338157681025144e+000
1	 8.415903854727679e-001	 1.051308666362708e+000	 6.068497551886185e+000
1	 8.299655355145811e-001	 1.060509987510751e+000	 5.800944525403733e+000
1	 8.182479651390547e-001	 1.069576755139626e+000	 5.536254078844984e+000
1	 8.064400029149780e-001	 1.078507600978236e+000	 5.275177254355999e+000
1	 7.945440035026685e-001	 1.087301210213081e+000	 5.018459784972956e+000
1	 7.825623461280228e-001	 1.095956322081866e+000	 4.766841233525354e+000
1	 9.160296106534808e-001	 1.023201374912877e+000	 7.211680128894774e+000
1	 9.046819519894961e-001	 1.033248181353480e+000	 6.937987731820975e+000
1	 8.932283159202767e-001	 1.043165539843673e+000	 6.663148028340642e+000
1	 8.816709214193184e-001	 1.052951793333486e+000	 6.387972268421335e+000
1	 8.700120215466197e-001	 1.062605335488745e+000	 6.113271355214966e+000
1	 8.582539020000589e-001	 1.072124611551856e+000	 5.839854847660685e+000
1	 8.463988796412522e-001	 1.081508119153020e+000	 5.568529969030483e+000
1	 8.344493009978825e-001	 1.090754409071060e+000	 5.300100623294321e+000
1	 8.224075407444851e-001	 1.099862085943054e+000	 5.035366421154056e+000
1	 8.102760001637358e-001	 1.108829808922140e+000	 4.775121717562410e+000
1	 7.980571055902892e-001	 1.117656292282877e+000	 4.520154662502630e+000
1	 9.338148506921710e-001	 1.043067416192346e+000	 6.959503803031731e+000
1	 9.222468707299640e-001	 1.053309287139780e+000	 6.681406777624912e+000
1	 9.105708557503933e-001	 1.063419196830736e+000	 6.401946879541541e+000
1	 8.987890678096057e-001	 1.073395456042650e+000	 6.121997882633931e+000
1	 8.869038037120626e-001	 1.083236427253435e+000	 5.842433226370736e+000
1	 8.749173935337853e-001	 1.092940525518970e+000	 5.564124903410392e+000
1	 8.628321991195993e-001	 1.102506219300071e+000	 5.287942353763193e+000
1	 8.506506125563762e-001	 1.111932031238083e+000	 5.014751367659803e+000
1	 8.383750546243285e-001	 1.121216538878297e+000	 4.745412999212653e+000
1	 8.260079732284228e-001	 1.130358375340526e+000	 4.480782492918387e+000
1	 8.135518418120015e-001	 1.139356229936217e+000	 4.221708225005896e+000
1	 9.516000685008400e-001	 1.062933432640599e+000	 6.666617228665973e+000
1	 9.398117675158186e-001	 1.073370367851056e+000	 6.383022466667017e+000
1	 9.279133739038658e-001	 1.083672828502116e+000	 6.097822625104667e+000
1	 9.159071928037287e-001	 1.093839093198666e+000	 5.811968748382693e+000
1	 9.037955647642770e-001	 1.103867493230739e+000	 5.526411094159993e+000
1	 8.915808642396224e-001	 1.113756413467723e+000	 5.242097879705179e+000
1	 8.792654980577412e-001	 1.123504293201081e+000	 4.959974036486350e+000
1	 8.668519038646394e-001	 1.133109626934713e+000	 4.680979975404705e+000
1	 8.543425485461513e-001	 1.142570965122156e+000	 4.406050365042135e+000
1	 8.417399266294754e-001	 1.151886914849926e+000	 4.136112925248071e+000
1	 8.290465586665842e-001	 1.161056140466386e+000	 3.872087238337464e+000
1	 9.693852685256590e-001	 1.082799429224013e+000	 6.333476277431126e+000
1	 9.573766467381373e-001	 1.093431428502421e+000	 6.043379039088988e+000
1	 9.452558747161655e-001	 1.103926439921036e+000	 5.751392061972924e+000
1	 9.330253006810483e-001	 1.114282709912222e+000	 5.458557662963432e+000
1	 9.206873089260209e-001	 1.124498538578164e+000	 5.165916472228579e+000
1	 9.082443182832425e-001	 1.134572280601786e+000	 4.874506012861101e+000
1	 8.956987805637957e-001	 1.144502346105226e+000	 4.585359291371699e+000
1	 8.830531789727772e-001	 1.154287201454969e+000	 4.299503401786115e+000
1	 8.703100265015967e-001	 1.163925370012821e+000	 4.017958146045922e+000
1	 8.574718642996397e-001	 1.173415432832025e+000	 3.741734673357475e+000
1	 8.445412600274632e-001	 1.182756029297883e+000	 3.471834141070051e+000
1	 9.871704552127985e-001	 1.102665410908964e+000	 5.960504022510353e+000
1	 9.749415127879983e-001	 1.113492474108992e+000	 5.662981571158593e+000
1	 9.625983625227639e-001	 1.124180036150719e+000	 5.363227597314830e+000
1	 9.501433957209258e-001	 1.134726311294006e+000	 5.062389001161748e+000
1	 9.375790404200532e-001	 1.145129568453215e+000	 4.761609664543991e+000
1	 9.249077598303189e-001	 1.155388132124830e+000	 4.462028839031318e+000
1	 9.121320507458818e-001	 1.165500383261687e+000	 4.164779548407599e+000
1	 8.992544419308943e-001	 1.175464760092871e+000	 3.870987008720307e+000
1	 8.862774924823080e-001	 1.185279758888481e+000	 3.581767068965553e+000
1	 8.732037901716623e-001	 1.194943934668507e+000	 3.298224675413636e+000
1	 8.600359497680634e-001	 1.204455901855211e+000	 3.021452362504471e+000
1	 1.004955633008429e+000	 1.122531382661828e+000	 5.548093646016426e+000
1	 9.925063700564805e-001	 1.133553509685887e+000	 5.242299446082266e+000
1	 9.799408416591326e-001	 1.144433622254387e+000	 4.933861181938520e+000
1	 9.672614822027223e-001	 1.155169902454707e+000	 4.624043005687820e+000
1	 9.544707634691311e-001	 1.165760588013400e+000	 4.314104302632020e+000
1	 9.415711930465260e-001	 1.176203973240529e+000	 4.005297863500067e+000
1	 9.285653127121181e-001	 1.186498409919638e+000	 3.698868075598263e+000
1	 9.154556967890950e-001	 1.196642308142436e+000	 3.396049136450527e+000
1	 9.022449504799286e-001	 1.206634137087326e+000	 3.098063293422227e+000
1	 8.889357081782892e-001	 1.216472425741059e+000	 2.806119112735707e+000
1	 8.755306317618103e-001	 1.226155763562868e+000	 2.521409781191845e+000
1	 1.022740806358721e+000	 1.142397349448981e+000	 5.096611042978808e+000
1	 1.010071222934661e+000	 1.153614540248221e+000	 4.781769462629031e+000
1	 9.972833164607429e-001	 1.164687203295261e+000	 4.463787833242915e+000
1	 9.843795644057992e-001	 1.175613488505011e+000	 4.144059629893000e+000
1	 9.713624822960134e-001	 1.186391602416225e+000	 3.823971409340518e+000
1	 9.582346220975365e-001	 1.197019809152552e+000	 3.504900742722661e+000
1	 9.449985705706224e-001	 1.207496431328260e+000	 3.188214172562483e+000
1	 9.316569475974839e-001	 1.217819850897686e+000	 2.875265198148806e+000
1	 9.182124044861019e-001	 1.227988509947546e+000	 2.567392293241522e+000
1	 9.046676222522668e-001	 1.238000911431365e+000	 2.265916959954029e+000
1	 8.910253098821288e-001	 1.247855619845356e+000	 1.972141822549380e+000
1	 7.360778895636446e-001	 1.030856161947795e+000	 5.189750448732552e+000
1	 7.247296359725970e-001	 1.038865751977465e+000	 4.949958069869783e+000
1	 7.133053503815099e-001	 1.046742852430853e+000	 4.715355303302281e+000
1	 7.018073298531414e-001	 1.054486431034654e+000	 4.486393452530007e+000
1	 6.902378887419132e-001	 1.062095508079932e+000	 4.263501348186478e+000
1	 6.785993572081287e-001	 1.069569156736019e+000	 4.047085100672144e+000
1	 6.668940797275553e-001	 1.076906503314615e+000	 3.837527893271542e+000
1	 6.551244135982919e-001	 1.084106727484178e+000	 3.635189815669914e+000
1	 6.432927274468238e-001	 1.091169062434711e+000	 3.440407737688303e+000
1	 6.314013997351549e-001	 1.098092794993187e+000	 3.253495222959895e+000
1	 6.194528172708822e-001	 1.104877265689896e+000	 3.074742482176939e+000
1	 7.515727419881260e-001	 1.052556262338826e+000	 5.102352545488225e+000
1	 7.399856012941009e-001	 1.060734458731179e+000	 4.860406742182243e+000
1	 7.283208280838214e-001	 1.068777376567416e+000	 4.623066296939168e+000
1	 7.165807677744921e-001	 1.076683961844282e+000	 4.390986010705474e+000
1	 7.047677834389825e-001	 1.084453214229405e+000	 4.164798253197879e+000
1	 6.928842542887642e-001	 1.092084187381793e+000	 3.945112357430654e+000
1	 6.809325741521235e-001	 1.099575989221505e+000	 3.732514058456253e+000
1	 6.689151499495940e-001	 1.106927782148541e+000	 3.527564976940341e+000
1	 6.568344001685657e-001	 1.114138783211110e+000	 3.330802148075809e+000
1	 6.446927533389901e-001	 1.121208264223477e+000	 3.142737596223061e+000
1	 6.324926465120909e-001	 1.128135551833708e+000	 2.963857955549408e+000
1	 7.670675595517766e-001	 1.074256313908682e+000	 4.961135403533692e+000
1	 7.552415322922724e-001	 1.082603116284461e+000	 4.716759175516335e+000
1	 7.433362720038976e-001	 1.090811851130529e+000	 4.476556830216665e+000
1	 7.313541724581945e-001	 1.098881442713736e+000	 4.241357563926263e+000
1	 7.192976454463670e-001	 1.106810870078322e+000	 4.011968098196878e+000
1	 7.071691192309457e-001	 1.114599167373023e+000	 3.789171759476709e+000
1	 6.949710369926212e-001	 1.122245424126297e+000	 3.573727606394534e+000
1	 6.827058552742502e-001	 1.129748785469733e+000	 3.366369605933571e+000
1	 6.703760424240128e-001	 1.137108452309784e+000	 3.167805859604326e+000
1	 6.579840770396939e-001	 1.144323681448046e+000	 2.978717880589552e+000
1	 6.455324464160299e-001	 1.151393785650397e+000	 2.799759922699616e+000
1	 7.825623461280228e-001	 1.095956322081866e+000	 4.766841233525354e+000
1	 7.704974327808040e-001	 1.104471730103942e+000	 4.519628667794450e+000
1	 7.583516858952986e-001	 1.112846281628261e+000	 4.276301123753403e+000
1	 7.461275475972876e-001	 1.121078879191826e+000	 4.037834768876715e+000
1	 7.338274783962134e-001	 1.129168481215533e+000	 3.805183168955125e+000
1	 7.214539556055636e-001	 1.137114102337887e+000	 3.579276094361106e+000
1	 7.090094717583351e-001	 1.144914813695785e+000	 3.361018377112548e+000
1	 6.964965330196068e-001	 1.152569743152447e+000	 3.151288820518700e+000
1	 6.839176575982479e-001	 1.160078075472602e+000	 2.950939163042310e+000
1	 6.712753741597766e-001	 1.167439052445210e+000	 2.760793097861483e+000
1	 6.585722202423399e-001	 1.174651972953994e+000	 2.581645349459908e+000
1	 7.980571055902892e-001	 1.117656292282877e+000	 4.520154662502630e+000
1	 7.857533065733875e-001	 1.126340305656252e+000	 4.269580946974520e+000
1	 7.733670735115833e-001	 1.134880673568682e+000	 4.022736631164749e+000
1	 7.609008968848122e-001	 1.143276276827363e+000	 3.780718977199195e+000
1	 7.483572859206671e-001	 1.151526053229886e+000	 3.544602436722919e+000
1	 7.357387669835083e-001	 1.159628997904562e+000	 3.315437223750180e+000
1	 7.230478819585516e-001	 1.167584163596768e+000	 3.094247941192389e+000
1	 7.102871866330097e-001	 1.175390660901376e+000	 2.882032263310356e+000
1	 6.974592490763553e-001	 1.183047658441432e+000	 2.679759676175500e+000
1	 6.845666480217496e-001	 1.190554382993286e+000	 2.488370278058611e+000
1	 6.716119712506630e-001	 1.197910119558531e+000	 2.308773641493834e+000
1	 8.135518418120015e-001	 1.139356229936217e+000	 4.221708225005896e+000
1	 8.010091574837157e-001	 1.148208848408022e+000	 3.967138708634994e+000
1	 7.883824386063120e-001	 1.156915032459861e+000	 3.716267547929962e+000
1	 7.756742240138076e-001	 1.165473641169156e+000	 3.470288652871901e+000
1	 7.628870716518743e-001	 1.173883591710230e+000	 3.230372833770305e+000
1	 7.500235569356702e-001	 1.182143859701230e+000	 2.997666179209459e+000
1	 7.370862711025564e-001	 1.190253479496037e+000	 2.773288490290129e+000
1	 7.240778195618057e-001	 1.198211544421214e+000	 2.558331773801873e+000
1	 7.110008202434178e-001	 1.206017206958142e+000	 2.353858796787569e+000
1	 6.978579019481238e-001	 1.213669678870590e+000	 2.160901704781208e+000
1	 6.846517027006408e-001	 1.221168231278044e+000	 1.980460705817819e+000
1	 8.290465586665842e-001	 1.161056140466386e+000	 3.872087238337464e+000
1	 8.162649893254802e-001	 1.170077363825882e+000	 3.612785644646514e+000
1	 8.033977849330439e-001	 1.178949363809866e+000	 3.357267926722195e+000
1	 7.904475326773142e-001	 1.187670977766017e+000	 3.106801518464627e+000
1	 7.774168392219807e-001	 1.196241102245413e+000	 2.862630385869442e+000
1	 7.643083290329399e-001	 1.204658693356066e+000	 2.625973247244402e+000
1	 7.511246426996361e-001	 1.212922767060388e+000	 2.398021852087835e+000
1	 7.378684352533409e-001	 1.221032399416653e+000	 2.179939321580491e+000
1	 7.245423744845195e-001	 1.228986726764600e+000	 1.972858553456438e+000
1	 7.111491392614100e-001	 1.236784945855437e+000	 1.777880693829301e+000
1	 6.976914178519145e-001	 1.244426313926563e+000	 1.596073678353542e+000
1	 8.445412600274632e-001	 1.182756029297883e+000	 3.471834141070051e+000
1	 8.315208059123731e-001	 1.191945857376462e+000	 3.206970028297684e+000
1	 8.184131162453380e-001	 1.200983673126766e+000	 2.946084449748673e+000
1	 8.052208265683714e-001	 1.209868292166755e+000	 2.690496465098179e+000
1	 7.919465922631326e-001	 1.218598590424284e+000	 2.441501220093880e+000
1	 7.785930868462081e-001	 1.227173504497251e+000	 2.200368044977956e+000
1	 7.651630002590770e-001	 1.235592031956618e+000	 1.968338613696173e+000
1	 7.516590371549616e-001	 1.243853231592387e+000	 1.746625167089263e+000
1	 7.380839151847439e-001	 1.251956223602676e+000	 1.536408803069436e+000
1	 7.244403632841193e-001	 1.259900189726144e+000	 1.338837836583849e+000
1	 7.107311199641254e-001	 1.267684373318120e+000	 1.155026231961796e+000
1	 8.600359497680634e-001	 1.204455901855211e+000	 3.021452362504471e+000
1	 8.467766110580867e-001	 1.213814334526392e+000	 2.750107911821370e+000
1	 8.334284362967542e-001	 1.223017965918630e+000	 2.483038901364411e+000
1	 8.199941093800189e-001	 1.232065589920179e+000	 2.221595255911210e+000
1	 8.064763344074756e-001	 1.240956061835692e+000	 1.967102463660748e+000
1	 7.928778339463644e-001	 1.249688298752962e+000	 1.720859587646675e+000
1	 7.792013472901653e-001	 1.258261279851520e+000	 1.484137339828776e+000
1	 7.654496287140141e-001	 1.266674046653108e+000	 1.258176221234922e+000
1	 7.516254457291737e-001	 1.274925703214236e+000	 1.044184731323265e+000
1	 7.377315773387618e-001	 1.283015416261027e+000	 8.433376495281504e-001
1	 7.237708122969158e-001	 1.290942415266750e+000	 6.567743917392627e-001
1	 8.755306317618103e-001	 1.226155763562868e+000	 2.521409781191845e+000
1	 8.620324085763136e-001	 1.235682800742303e+000	 2.242585984343840e+000
1	 8.484437488408522e-001	 1.245052247693526e+000	 1.968430378094205e+000
1	 8.347673848052971e-001	 1.254262876575102e+000	 1.700304048619022e+000
1	 8.210060692871558e-001	 1.263313522068484e+000	 1.439543047316273e+000
1	 8.071625739043004e-001	 1.272203081751379e+000	 1.187456348927718e+000
1	 7.932396873021873e-001	 1.280930516411890e+000	 9.453238740057766e-001
1	 7.792402133778448e-001	 1.289494850303511e+000	 7.143945792047218e-001
1	 7.651669695028934e-001	 1.297895171341149e+000	 4.958846186705282e-001
1	 7.510227847478496e-001	 1.306130631238402e+000	 2.909755795887314e-001
1	 7.368104981099266e-001	 1.314200445586484e+000	 1.008127947302869e-001
1	 8.910253098821288e-001	 1.247855619845356e+000	 1.972141822549380e+000
1	 8.772882022807453e-001	 1.257551261490825e+000	 1.684764131599293e+000
1	 8.634590576311915e-001	 1.267086523959525e+000	 1.402537268033175e+000
1	 8.495406565372458e-001	 1.276460157680332e+000	 1.126814759189315e+000
1	 8.355358005343191e-001	 1.285670976711510e+000	 8.589244248849970e-001
1	 8.214473102909056e-001	 1.294717859120681e+000	 6.001663149709354e-001
1	 8.072780238044295e-001	 1.303599747304523e+000	 3.518107126784598e-001
1	 7.930307945938002e-001	 1.312315648248288e+000	 1.150962072827820e-001
1	 7.787084898909862e-001	 1.320864633725284e+000	-1.087721606050792e-001
1	 7.643139888338927e-001	 1.329245840436585e+000	-3.186246780236637e-001
1	 7.498501806627993e-001	 1.337458470091355e+000	-5.133286600536415e-001
1	 6.194528172708822e-001	 1.104877265689896e+000	 3.074742482176939e+000
1	 6.074511782547066e-001	 1.111520882801578e+000	 2.904296117683054e+000
1	 5.953970932452810e-001	 1.118024123343679e+000	 2.742324386500219e+000
1	 5.832929647635355e-001	 1.124386489988285e+000	 2.589189577250816e+000
1	 5.711411977547047e-001	 1.130607538866382e+000	 2.445225189632596e+000
1	 5.589441981408803e-001	 1.136686879394963e+000	 2.310735723159878e+000
1	 5.467043713871074e-001	 1.142624174058487e+000	 2.185996517762091e+000
1	 5.344241210826425e-001	 1.148419138145507e+000	 2.071253645821897e+000
1	 5.221058475389497e-001	 1.154071539441348e+000	 1.966723855113154e+000
1	 5.097519464059584e-001	 1.159581197877748e+000	 1.872594561988774e+000
1	 4.973648073080526e-001	 1.164947985140473e+000	 1.789023894052926e+000
1	 6.324926465120909e-001	 1.128135551833708e+000	 2.963857955549408e+000
1	 6.202383662630420e-001	 1.134919020811867e+000	 2.794361479939505e+000
1	 6.079305360031093e-001	 1.141559158214848e+000	 2.634334472045041e+000
1	 5.955716088276520e-001	 1.148055456245717e+000	 2.484130837616437e+000
1	 5.831640403073667e-001	 1.154407461691780e+000	 2.344072435380699e+000
1	 5.707102870103700e-001	 1.160614775748049e+000	 2.214448915188918e+000
1	 5.582128050381113e-001	 1.166677053794103e+000	 2.095517612891703e+000
1	 5.456740485767643e-001	 1.172594005125170e+000	 1.987503501346092e+000
1	 5.330964684657112e-001	 1.178365392638335e+000	 1.890599196830546e+000
1	 5.204825107846715e-001	 1.183991032474813e+000	 1.804965020021922e+000
1	 5.078346154609772e-001	 1.189470793619292e+000	 1.730729110569055e+000
1	 6.455324464160299e-001	 1.151393785650397e+000	 2.799759922699614e+000
1	 6.330255255024671e-001	 1.158317106180301e+000	 2.631126258804650e+000
1	 6.204639505628590e-001	 1.165094140136081e+000	 2.472792444864322e+000
1	 6.078502252668818e-001	 1.171724369251810e+000	 2.325116035512032e+000
1	 5.951868558105830e-001	 1.178207330971136e+000	 2.188419823578383e+000
1	 5.824763494079930e-001	 1.184542618267112e+000	 2.062991698802802e+000
1	 5.697212127968527e-001	 1.190729879414451e+000	 1.949084567659453e+000
1	 5.569239507601437e-001	 1.196768817715077e+000	 1.846916333591443e+000
1	 5.440870646650543e-001	 1.202659191177848e+000	 1.756669936811085e+000
1	 5.312130510209822e-001	 1.208400812153459e+000	 1.678493452692445e+000
1	 5.183044000580986e-001	 1.213993546925534e+000	 1.612500247657569e+000
1	 6.585722202423399e-001	 1.174651972953994e+000	 2.581645349459908e+000
1	 6.458126591694799e-001	 1.181715144755887e+000	 2.413644688204870e+000
1	 6.329973400576118e-001	 1.188629074990625e+000	 2.256639586275164e+000
1	 6.201288171506310e-001	 1.195393234923308e+000	 2.111002497126874e+000
1	 6.072096472698343e-001	 1.202007152653947e+000	 1.977068919254575e+000
1	 5.942423882750678e-001	 1.208470412933654e+000	 1.855137247623277e+000
1	 5.812295975402648e-001	 1.214782656932294e+000	 1.745468690134865e+000
1	 5.681738304451132e-001	 1.220943581958496e+000	 1.648287248377063e+000
1	 5.550776388845088e-001	 1.226952941132905e+000	 1.563779761759619e+000
1	 5.419435697974289e-001	 1.232810543015708e+000	 1.492096014001692e+000
1	 5.287741637167839e-001	 1.238516251189468e+000	 1.433348900800676e+000
1	 6.716119712506630e-001	 1.197910119558531e+000	 2.308773641493835e+000
1	 6.585997704605783e-001	 1.205113142387636e+000	 2.141044528021936e+000
1	 6.455307076204506e-001	 1.212163968661729e+000	 1.984899476867398e+000
1	 6.324073875483049e-001	 1.219062059176956e+000	 1.840736369139079e+000
1	 6.192324176906023e-001	 1.225806932689711e+000	 1.708914439431173e+000
1	 6.060084065529144e-001	 1.232398165729178e+000	 1.589754093054953e+000
1	 5.927379621452800e-001	 1.238835392360392e+000	 1.483536791771497e+000
1	 5.794236904440047e-001	 1.245118303898696e+000	 1.390505007293269e+000
1	 5.660681938716050e-001	 1.251246648576530e+000	 1.310862241667898e+000
1	 5.526740697965494e-001	 1.257220231163583e+000	 1.244773113509586e+000
1	 5.392439090544005e-001	 1.263038912541362e+000	 1.192363508899359e+000
1	 6.846517027006408e-001	 1.221168231278044e+000	 1.980460705817818e+000
1	 6.713868625722598e-001	 1.228511104924556e+000	 1.812520069920336e+000
1	 6.580640563844562e-001	 1.235698827032637e+000	 1.656670166904270e+000
1	 6.446859395293096e-001	 1.242730847929497e+000	 1.513344168173262e+000
1	 6.312551700783683e-001	 1.249606677027924e+000	 1.382935390179552e+000
1	 6.177744071828529e-001	 1.256325882635189e+000	 1.265797051385086e+000
1	 6.042463094888311e-001	 1.262888091711506e+000	 1.162242100752933e+000
1	 5.906735335691515e-001	 1.269292989578943e+000	 1.072543117116365e+000
1	 5.770587323738733e-001	 1.275540319581744e+000	 9.969322786098692e-001
1	 5.634045537008823e-001	 1.281629882699106e+000	 9.356014011901279e-001
1	 5.497136386883157e-001	 1.287561537111484e+000	 8.887020451204172e-001
1	 6.976914178519145e-001	 1.244426313926563e+000	 1.596073678353543e+000
1	 6.841739387010217e-001	 1.251909038215656e+000	 1.427325927606795e+000
1	 6.705973894827110e-001	 1.259233655986598e+000	 1.271117224851898e+000
1	 6.569644761630512e-001	 1.266399607097674e+000	 1.127925278029956e+000
1	 6.432779074386129e-001	 1.273406391618082e+000	 9.981871977013521e-001
1	 6.295403931062018e-001	 1.280253569633188e+000	 8.822991684555842e-001
1	 6.157546424478506e-001	 1.286940760998396e+000	 7.806161944534809e-001
1	 6.019233626328853e-001	 1.293467645042504e+000	 6.934519185908780e-001
1	 5.880492571388442e-001	 1.299833960221569e+000	 6.210785145982259e-001
1	 5.741350241929648e-001	 1.306039503724299e+000	 5.637266512260862e-001
1	 5.601833552358967e-001	 1.312084131030102e+000	 5.215855275024033e-001
1	 7.107311199641254e-001	 1.267684373318120e+000	 1.155026231961795e+000
1	 6.969610020433620e-001	 1.275306948109945e+000	 9.847715107641679e-001
1	 6.831307100482968e-001	 1.282768461406858e+000	 8.274675512461472e-001
1	 6.692430005189350e-001	 1.290068342598233e+000	 6.836452729478068e-001
1	 6.553006327768171e-001	 1.297206082409683e+000	 5.537947057544371e-001
1	 6.413063672642816e-001	 1.304181232704681e+000	 4.383645512030437e-001
1	 6.272629638992716e-001	 1.310993406233822e+000	 3.377618201112257e-001
1	 6.131731804475384e-001	 1.317642276332648e+000	 2.523515462137942e-001
1	 5.990397709140476e-001	 1.324127576569028e+000	 1.824565753140706e-001
1	 5.848654839553358e-001	 1.330449100341185e+000	 1.283574292774003e-001
1	 5.706530613145106e-001	 1.336606700427484e+000	 9.029224402475231e-002
1	 7.237708122969158e-001	 1.290942415266750e+000	 6.567743917392609e-001
1	 7.097480557957788e-001	 1.298704840456433e+000	 4.842160964263843e-001
1	 6.956640212142951e-001	 1.306303249176665e+000	 3.250038613620967e-001
1	 6.815215156663675e-001	 1.313737060347918e+000	 1.797299627103374e-001
1	 6.673233490984625e-001	 1.321005755352224e+000	 4.894593014983079e-002
1	 6.530723325984112e-001	 1.328108877831169e+000	-6.683802579537014e-002
1	 6.387712767200264e-001	 1.335046033430547e+000	-1.671535083181772e-001
1	 6.244229898254440e-001	 1.341816889492641e+000	-2.515743508403064e-001
1	 6.100302764470144e-001	 1.348421174697141e+000	-3.197169557211323e-001
1	 5.955959356705326e-001	 1.354858678651786e+000	-3.712405555983191e-001
1	 5.811227595415254e-001	 1.361129251433898e+000	-4.058473979761534e-001
1	 7.368104981099266e-001	 1.314200445586484e+000	 1.008127947302886e-001
1	 7.225351031547691e-001	 1.322102721104127e+000	-7.493557622840021e-002
1	 7.081973261137888e-001	 1.329838025179267e+000	-2.369402461777717e-001
1	 6.938000246747534e-001	 1.337405766263471e+000	-3.845399298404633e-001
1	 6.793460594090302e-001	 1.344805416395201e+000	-5.171135234805879e-001
1	 6.648382920499100e-001	 1.352036510994155e+000	-6.340808347935639e-001
1	 6.502795837870479e-001	 1.359098648601329e+000	-7.349032332957457e-001
1	 6.356727935789340e-001	 1.365991490565752e+000	-8.190842209586966e-001
1	 6.210207764852744e-001	 1.372714760678931e+000	-8.861699230326717e-001
1	 6.063263820210938e-001	 1.379268244758125e+000	-9.357494992012079e-001
1	 5.915924525343077e-001	 1.385651790179613e+000	-9.674554754012916e-001
1	 7.498501806627993e-001	 1.337458470091355e+000	-5.133286600536415e-001
1	 7.353221473168309e-001	 1.345500595902038e+000	-6.932372513898893e-001
1	 7.207306278798588e-001	 1.353372795297910e+000	-8.589847061919249e-001
1	 7.060785306134998e-001	 1.361074466261638e+000	-1.009833535874525e+000
1	 6.913687667140009e-001	 1.368605071488112e+000	-1.145085459396488e+000
1	 6.766042485600982e-001	 1.375964138175143e+000	-1.264082313028143e+000
1	 6.617878879772690e-001	 1.383151257758930e+000	-1.366206879609774e+000
1	 6.469225945203407e-001	 1.390166085595247e+000	-1.450883636678148e+000
1	 6.320112737763581e-001	 1.397008340587419e+000	-1.517579423048508e+000
1	 6.170568256895568e-001	 1.403677804762223e+000	-1.565804023646106e+000
1	 6.020621429102250e-001	 1.410174322794896e+000	-1.595110672585906e+000
1	 4.973648073080526e-001	 1.164947985140473e+000	 1.789023894052926e+000
1	 4.849449475210769e-001	 1.170172597316046e+000	 1.715095324503212e+000
1	 4.724965980002161e-001	 1.175254193189512e+000	 1.649717305200398e+000
1	 4.600221239627185e-001	 1.180192797882715e+000	 1.592706454796992e+000
1	 4.475238793346627e-001	 1.184988486332486e+000	 1.543850927864100e+000
1	 4.350042055046847e-001	 1.189641382703130e+000	 1.502911272768131e+000
1	 4.224654301051314e-001	 1.194151659763825e+000	 1.469621320761009e+000
1	 4.099098658216919e-001	 1.198519538232249e+000	 1.443689103890679e+000
1	 3.973398092324927e-001	 1.202745286085772e+000	 1.424797799321533e+000
1	 3.847575396775870e-001	 1.206829217841571e+000	 1.412606697645095e+000
1	 3.721653181596841e-001	 1.210771693807061e+000	 1.406752192757601e+000
1	 5.078346154609772e-001	 1.189470793619292e+000	 1.730729110569055e+000
1	 4.951533106594304e-001	 1.194805386811314e+000	 1.666835817198719e+000
1	 4.824429163991849e-001	 1.199993953127882e+000	 1.612054168228949e+000
1	 4.697058476866244e-001	 1.205036518219667e+000	 1.566169910573303e+000
1	 4.569445079992764e-001	 1.209933158600962e+000	 1.528936818254153e+000
1	 4.441612880133066e-001	 1.214684001049800e+000	 1.500077661542950e+000
1	 4.313585643590141e-001	 1.219289221972249e+000	 1.479285211269077e+000
1	 4.185386984054039e-001	 1.223749046732216e+000	 1.466223275597058e+000
1	 4.057040350748469e-001	 1.228063748948146e+000	 1.460527766551112e+000
1	 3.928569016887677e-001	 1.232233649757978e+000	 1.461807793556752e+000
1	 3.799996068452374e-001	 1.236259117053800e+000	 1.469646781265404e+000
1	 5.183044000580986e-001	 1.213993546925534e+000	 1.612500247657569e+000
1	 5.053616508301387e-001	 1.219438120886603e+000	 1.557487089538252e+000
1	 4.923892124200254e-001	 1.224733657405657e+000	 1.512068482357764e+000
1	 4.793895496231638e-001	 1.229880182662189e+000	 1.476004547882339e+000
1	 4.663651154684179e-001	 1.234877774747946e+000	 1.449020242975992e+000
1	 4.533183499193709e-001	 1.239726563054676e+000	 1.430806427451433e+000
1	 4.402516786041618e-001	 1.244426727625320e+000	 1.421020970746090e+000
1	 4.271675115750019e-001	 1.248978498470000e+000	 1.419289894446097e+000
1	 4.140682420983949e-001	 1.253382154848216e+000	 1.425208547658970e+000
1	 4.009562454770290e-001	 1.257638024518649e+000	 1.438342812223568e+000
1	 3.878338779042280e-001	 1.261746482958037e+000	 1.458230334742362e+000
1	 5.287741637167839e-001	 1.238516251189468e+000	 1.433348900800677e+000
1	 5.155699705852225e-001	 1.244070805699674e+000	 1.386177632640591e+000
1	 5.023354885492571e-001	 1.249473312207339e+000	 1.349025960824735e+000
1	 4.890732321932147e-001	 1.254723797420769e+000	 1.321633329868947e+000
1	 4.757857040971966e-001	 1.259822341009158e+000	 1.303701128566415e+000
1	 4.624753935121033e-001	 1.264769074977958e+000	 1.294893844497934e+000
1	 4.491447750638161e-001	 1.269564183006969e+000	 1.294840260737684e+000
1	 4.357963074876533e-001	 1.274207899752516e+000	 1.303134691529684e+000
1	 4.224324323941557e-001	 1.278700510115136e+000	 1.319338253687106e+000
1	 4.090555730671776e-001	 1.283042348474234e+000	 1.342980170451381e+000
1	 3.956681332952000e-001	 1.287233797891179e+000	 1.373559104544707e+000
1	 5.392439090544005e-001	 1.263038912541362e+000	 1.192363508899360e+000
1	 5.257782724767011e-001	 1.268703447408290e+000	 1.152103702526442e+000
1	 5.122817472733993e-001	 1.274212923717429e+000	 1.122249424448071e+000
1	 4.987568978176553e-001	 1.279567368705895e+000	 1.102524114328187e+000
1	 4.852062762407214e-001	 1.284766863620316e+000	 1.092610552081863e+000
1	 4.716324210807296e-001	 1.289811543079843e+000	 1.092152087457318e+000
1	 4.580378559612177e-001	 1.294701594401128e+000	 1.100753914907402e+000
1	 4.444250883005267e-001	 1.299437256886679e+000	 1.117984390309271e+000
1	 4.307966080531481e-001	 1.304018821078061e+000	 1.143376386061340e+000
1	 4.171548864840204e-001	 1.308446627975386e+000	 1.176428681074130e+000
1	 4.035023749766974e-001	 1.312721068224635e+000	 1.216607382164710e+000
1	 5.497136386883157e-001	 1.287561537111484e+000	 8.887020451204177e-001
1	 5.359865590565952e-001	 1.293336052170213e+000	 8.545228756475062e-001
1	 5.222279910789711e-001	 1.298952498120428e+000	 8.311133721877020e-001
1	 5.084405489173633e-001	 1.304410902728050e+000	 8.181853874395835e-001
1	 4.946268342541013e-001	 1.309711348817139e+000	 8.154077838219747e-001
1	 4.807894349144759e-001	 1.314853973620533e+000	 8.224077269664984e-001
1	 4.669309235196081e-001	 1.319838968091726e+000	 8.387720273307981e-001
1	 4.530538561707893e-001	 1.324666576179405e+000	 8.640485262971306e-001
1	 4.391607711663913e-001	 1.329337094066145e+000	 8.977475230959049e-001
1	 4.252541877523637e-001	 1.333850869372756e+000	 9.393432388732537e-001
1	 4.113366049072643e-001	 1.338208300329813e+000	 9.882753142181043e-001
1	 5.601833552358967e-001	 1.312084131030102e+000	 5.215855275024028e-001
1	 5.461948328769253e-001	 1.317968626143207e+000	 4.927483271954388e-001
1	 5.321742224524917e-001	 1.323692041600839e+000	 4.750391606453555e-001
1	 5.181241879132170e-001	 1.329254405697723e+000	 4.681624759851387e-001
1	 5.040473804924455e-001	 1.334655802835345e+000	 4.717776617264377e-001
1	 4.899464373025677e-001	 1.339896372860226e+000	 4.855003933993640e-001
1	 4.758239799622283e-001	 1.344976310362696e+000	 5.089040308859659e-001
1	 4.616826132556096e-001	 1.349895863937608e+000	 5.415210626504800e-001
1	 4.475249238249042e-001	 1.354655335408544e+000	 5.828445930374566e-001
1	 4.333534788970148e-001	 1.359255079016994e+000	 6.323298687910427e-001
1	 4.191708250454448e-001	 1.363695500578122e+000	 6.893958409402621e-001
1	 5.706530613145106e-001	 1.336606700427484e+000	 9.029224402475405e-002
1	 5.564030964897108e-001	 1.342601175485032e+000	 6.614373935244933e-002
1	 5.421204438804808e-001	 1.348431560343163e+000	 5.349071428812235e-002
1	 5.278078172260935e-001	 1.354097883825399e+000	 5.203417659048601e-002
1	 5.134679173108632e-001	 1.359600231910653e+000	 6.142825484335979e-002
1	 4.991034305342312e-001	 1.364938747059123e+000	 8.128158784413500e-002
1	 4.847170275123195e-001	 1.370113627497968e+000	 1.111587670138890e-001
1	 4.703113617121550e-001	 1.375125126468206e+000	 1.505818278932860e-001
1	 4.558890681197054e-001	 1.379973551434411e+000	 1.990317867560705e-001
1	 4.414527619427803e-001	 1.384659263258752e+000	 2.559502183509146e-001
1	 4.270050373497829e-001	 1.389182675340970e+000	 3.207408707736109e-001
1	 5.811227595415254e-001	 1.361129251433898e+000	-4.058473979761541e-001
1	 5.666113524469723e-001	 1.367233706353451e+000	-4.258812399725464e-001
1	 5.520666578494572e-001	 1.373171060531899e+000	-4.340293005470061e-001
1	 5.374914392768710e-001	 1.378941343321566e+000	-4.305902506097475e-001
1	 5.228884470644628e-001	 1.384544642278781e+000	-4.159112205927955e-001
1	 5.082604168986920e-001	 1.389981102477423e+000	-3.903863783694588e-001
1	 4.936100683931231e-001	 1.395250925781474e+000	-3.544554520639584e-001
1	 4.789401036975942e-001	 1.400354370078113e+000	-3.086022017991629e-001
1	 4.642532061418141e-001	 1.405291748472903e+000	-2.533528444649696e-001
1	 4.495520389144668e-001	 1.410063428448682e+000	-1.892744356140236e-001
1	 4.348392437788227e-001	 1.414669830989763e+000	-1.169732126003809e-001
1	 5.915924525343077e-001	 1.385651790179613e+000	-9.674554754012928e-001
1	 5.768196033007296e-001	 1.391866224906227e+000	-9.838750561272437e-001
1	 5.620128668459405e-001	 1.397910548351552e+000	-9.879828953286516e-001
1	 5.471750564864276e-001	 1.403784790396708e+000	-9.800737690357343e-001
1	 5.323089721083540e-001	 1.409489040175448e+000	-9.604922637717881e-001
1	 5.174173986851759e-001	 1.415023445375324e+000	-9.296313315222213e-001
1	 5.025031048278797e-001	 1.420388211497145e+000	-8.879307877357677e-001
1	 4.875688413690945e-001	 1.425583601074242e+000	-8.358757564943151e-001
1	 4.726173399822490e-001	 1.430609932853171e+000	-7.739950670240119e-001
1	 4.576513118368814e-001	 1.435467580937434e+000	-7.028596057455263e-001
1	 4.426734462911082e-001	 1.440156973895912e+000	-6.230806280745053e-001
1	 6.020621429102250e-001	 1.410174322794896e+000	-1.595110672585905e+000
1	 5.870278516030029e-001	 1.416498737301121e+000	-1.608347883133835e+000
1	 5.719590733564497e-001	 1.422650029986620e+000	-1.608799822155273e+000
1	 5.568586712756409e-001	 1.428628231261313e+000	-1.596753972323761e+000
1	 5.417294947976459e-001	 1.434433431836373e+000	-1.572548757549967e+000
1	 5.265743781829089e-001	 1.440065782013029e+000	-1.536572084446633e+000
1	 5.113961390398313e-001	 1.445525490928912e+000	-1.489259825192749e+000
1	 4.961975768838239e-001	 1.450812825763512e+000	-1.431094245996059e+000
1	 4.809814717320292e-001	 1.455928110904371e+000	-1.362602385393300e+000
1	 4.657505827348304e-001	 1.460871727075660e+000	-1.284354386654845e+000
1	 4.505076468451836e-001	 1.465644110430823e+000	-1.196961788573368e+000
1	 3.721653181596841e-001	 1.210771693807061e+000	 1.406752192757601e+000
1	 3.595653860970648e-001	 1.214573118999657e+000	 1.407225139730646e+000
1	 3.469599637677736e-001	 1.218233941437156e+000	 1.413735979341172e+000
1	 3.343512498799867e-001	 1.221754652219686e+000	 1.425473389760118e+000
1	 3.217414207892364e-001	 1.225135784980603e+000	 1.441613365720342e+000
1	 3.091326295656695e-001	 1.228377915011984e+000	 1.461320893674986e+000
1	 2.965270050962132e-001	 1.231481658369039e+000	 1.483751608911438e+000
1	 2.839266512220445e-001	 1.234447670954891e+000	 1.508053431788633e+000
1	 2.713336459116921e-001	 1.237276647587193e+000	 1.533368180385749e+000
1	 2.587500404700431e-001	 1.239969321048035e+000	 1.558833156981598e+000
1	 2.461778587834510e-001	 1.242526461118597e+000	 1.583582705913607e+000
1	 3.799996068452374e-001	 1.236259117053800e+000	 1.469646781265404e+000
1	 3.671344391456395e-001	 1.240140564378870e+000	 1.484007684789047e+000
1	 3.542636656061270e-001	 1.243878449182008e+000	 1.504541151647164e+000
1	 3.413895312189302e-001	 1.247473272901273e+000	 1.530332480916564e+000
1	 3.285142581531008e-001	 1.250925580403296e+000	 1.560453705513308e+000
1	 3.156400448021336e-001	 1.254235959090374e+000	 1.593965464279237e+000
1	 3.027690648672338e-001	 1.257405037986019e+000	 1.629918852482614e+000
1	 2.899034664766288e-001	 1.260433486800481e+000	 1.667357247598060e+000
1	 2.770453713412645e-001	 1.263322014977708e+000	 1.705318107371442e+000
1	 2.641968739471592e-001	 1.266071370725263e+000	 1.742834737321543e+000
1	 2.513600407846233e-001	 1.268682340028648e+000	 1.778938024979070e+000
1	 3.878338779042280e-001	 1.261746482958037e+000	 1.458230334742362e+000
1	 3.747034751643715e-001	 1.265707952235458e+000	 1.484833368152202e+000
1	 3.615673510116165e-001	 1.269522899230740e+000	 1.517773924109405e+000
1	 3.484277967221451e-001	 1.273191835719855e+000	 1.556046983103203e+000
1	 3.352870802784262e-001	 1.276715317802694e+000	 1.598633347950270e+000
1	 3.221474453972028e-001	 1.280093944991751e+000	 1.644501702438890e+000
1	 3.090111105938582e-001	 1.283328359278823e+000	 1.692610645587748e+000
1	 2.958802682835722e-001	 1.286419244181258e+000	 1.741910698083756e+000
1	 2.827570839196105e-001	 1.289367323769279e+000	 1.791346277619574e+000
1	 2.696436951690276e-001	 1.292173361675890e+000	 1.839857640013181e+000
1	 2.565422111259951e-001	 1.294838160090888e+000	 1.886382783155979e+000
1	 3.956681332952000e-001	 1.287233797891179e+000	 1.373559104544707e+000
1	 3.822724960455041e-001	 1.291275288960849e+000	 1.411052480300084e+000
1	 3.688710218101570e-001	 1.295167297994062e+000	 1.455073301799651e+000
1	 3.554660481492020e-001	 1.298910347104691e+000	 1.504538586301418e+000
1	 3.420598888584344e-001	 1.302505003625874e+000	 1.558349944430127e+000
1	 3.286548329777549e-001	 1.305951879180282e+000	 1.615395815482385e+000
1	 3.152531438366364e-001	 1.309251628727975e+000	 1.674553676265786e+000
1	 3.018570581371236e-001	 1.312404949593379e+000	 1.734692219736118e+000
1	 2.884687850747150e-001	 1.315412580472970e+000	 1.794673499866147e+000
1	 2.750905054974154e-001	 1.318275300425168e+000	 1.853355039356593e+000
1	 2.617243711031739e-001	 1.320993927844035e+000	 1.909591896975917e+000
1	 4.035023749766974e-001	 1.312721068224635e+000	 1.216607382164710e+000
1	 3.898415036812796e-001	 1.316842580946469e+000	 1.263910513888707e+000
1	 3.761746798276636e-001	 1.320811651882687e+000	 1.317951067320256e+000
1	 3.625042872596722e-001	 1.324628813485048e+000	 1.377579801457646e+000
1	 3.488326855863470e-001	 1.328294644319918e+000	 1.441630532715804e+000
1	 3.351622091706676e-001	 1.331809768120133e+000	 1.508922537433427e+000
1	 3.214951661561188e-001	 1.335174852813998e+000	 1.578262926530187e+000
1	 3.078338375315319e-001	 1.338390609533002e+000	 1.648448988277421e+000
1	 2.941804762345622e-001	 1.341457791599845e+000	 1.718270495328904e+000
1	 2.805373062940900e-001	 1.344377193498346e+000	 1.786511972343581e+000
1	 2.669065220117670e-001	 1.347149649826810e+000	 1.851954920727267e+000
1	 4.113366049072643e-001	 1.338208300329813e+000	 9.882753142181043e-001
1	 3.974104999639416e-001	 1.342409834583748e+000	 1.044558153703750e+000
1	 3.834783268900516e-001	 1.346455967307327e+000	 1.107803906350217e+000
1	 3.695425158131264e-001	 1.350347241290185e+000	 1.176808177030757e+000
1	 3.556054721553857e-001	 1.354084246331904e+000	 1.250347794759583e+000
1	 3.416695756028192e-001	 1.357667618275472e+000	 1.327183373345493e+000
1	 3.277371791128551e-001	 1.361098038017419e+000	 1.406061843488372e+000
1	 3.138106079610459e-001	 1.364376230496281e+000	 1.485718951982162e+000
1	 2.998921588271372e-001	 1.367502963660970e+000	 1.564881723878913e+000
1	 2.859840989208189e-001	 1.370479047420677e+000	 1.642270883667963e+000
1	 2.720886651473818e-001	 1.373305332577932e+000	 1.716603231728591e+000
1	 4.191708250454448e-001	 1.363695500578122e+000	 6.893958409402621e-001
1	 4.049794867857331e-001	 1.367977056264114e+000	 7.540601461892742e-001
1	 3.907819648232359e-001	 1.372100250678695e+000	 8.259241732483823e-001
1	 3.765807355691360e-001	 1.376065636949365e+000	 9.037389210806578e-001
1	 3.623782502587722e-001	 1.379873816108914e+000	 9.862344911300502e-001
1	 3.481769339010870e-001	 1.383525436110463e+000	 1.072122797440048e+000
1	 3.339791842673958e-001	 1.387021190818762e+000	 1.160100248166546e+000
1	 3.197873709199146e-001	 1.390361818979375e+000	 1.248850393846384e+000
1	 3.056038342804242e-001	 1.393548103167406e+000	 1.337046537984544e+000
1	 2.914308847393696e-001	 1.396580868717411e+000	 1.423354305731107e+000
1	 2.772708018056258e-001	 1.399460982636122e+000	 1.506434166633646e+000
1	 4.270050373497829e-001	 1.389182675340970e+000	 3.207408707736109e-001
1	 4.125484660388972e-001	 1.393544252378993e+000	 3.934031924667760e-001
1	 3.980855954531315e-001	 1.397744508407502e+000	 4.735094713948518e-001
1	 3.836189482872718e-001	 1.401784006891852e+000	 5.597761337006356e-001
1	 3.691510215897282e-001	 1.405663360098026e+000	 6.508963062491324e-001
1	 3.546842856923493e-001	 1.409383228089274e+000	 7.455426678763867e-001
1	 3.402211831802909e-001	 1.412944317698551e+000	 8.423702726239180e-001
1	 3.257641279023869e-001	 1.416347381478438e+000	 9.400193400186956e-001
1	 3.113155040224079e-001	 1.419593216630219e+000	 1.037118007666469e+000
1	 2.968776651115092e-001	 1.422682663913800e+000	 1.132285041644140e+000
1	 2.824529332821062e-001	 1.425616606540098e+000	 1.224132500398306e+000
1	 4.348392437788227e-001	 1.414669830989763e+000	-1.169732126003809e-001
1	 4.201174396156771e-001	 1.419111429319816e+000	-3.649701198681698e-002
1	 4.053892206056536e-001	 1.423388746904461e+000	 5.167119776919030e-002
1	 3.906571557271050e-001	 1.427502357546906e+000	 1.462228250741082e-001
1	 3.759237878414754e-001	 1.431452884746319e+000	 2.458233048884791e-001
1	 3.611916326034839e-001	 1.435241000676072e+000	 3.491150830923610e-001
1	 3.464631774120903e-001	 1.438867425137311e+000	 4.547205740524198e-001
1	 3.317408804027114e-001	 1.442332924489626e+000	 5.612450861474418e-001
1	 3.170271694810728e-001	 1.445638310560474e+000	 6.672797102242585e-001
1	 3.023244413990053e-001	 1.448784439535093e+000	 7.714041661783135e-001
1	 2.876350608724304e-001	 1.451772210828581e+000	 8.721896030849998e-001
1	 4.426734462911082e-001	 1.440156973895912e+000	-6.230806280745053e-001
1	 4.276864094083155e-001	 1.444678593478009e+000	-5.347894852730916e-001
1	 4.126928421067176e-001	 1.449032972580286e+000	-4.385578199031291e-001
1	 3.976953596482061e-001	 1.453220695343790e+000	-3.357101303836672e-001
1	 3.826965507072357e-001	 1.457242396500876e+000	-2.275998280116105e-001
1	 3.676989762613686e-001	 1.461098760335022e+000	-1.156061271947112e-001
1	 3.527051685233442e-001	 1.464790519615566e+000	-1.130960657246374e-003
1	 3.377176299151375e-001	 1.468318454509096e+000	 1.144040748344571e-001
1	 3.227388320844036e-001	 1.471683391469234e+000	 2.295607368987401e-001
1	 3.077712149636253e-001	 1.474886202106543e+000	 3.428871150197358e-001
1	 2.928171858722058e-001	 1.477927802040290e+000	 4.529205622197520e-001
1	 4.505076468451836e-001	 1.465644110430823e+000	-1.196961788573368e+000
1	 4.352553773090560e-001	 1.470245751245001e+000	-1.100682323600396e+000
1	 4.199964617822380e-001	 1.474677191845686e+000	-9.962164829614659e-001
1	 4.047335618101466e-001	 1.478939026711766e+000	-8.848959742729008e-001
1	 3.894693118802304e-001	 1.483031901808773e+000	-7.680846160757859e-001
1	 3.742063182928812e-001	 1.486956513530291e+000	-6.471751101041824e-001
1	 3.589471580746028e-001	 1.490713607613841e+000	-5.235858361047669e-001
1	 3.436943779339139e-001	 1.494303978033006e+000	-3.987576750612761e-001
1	 3.284504932603850e-001	 1.497728465867564e+000	-2.741508664514188e-001
1	 3.132179871671365e-001	 1.500987958153400e+000	-1.512419049331885e-001
1	 2.979993095770399e-001	 1.504083386713946e+000	-3.152048161463880e-002
1	 2.461778587834510e-001	 1.242526461118597e+000	 1.583582705913607e+000
1	 2.336209787353383e-001	 1.244948520494780e+000	 1.608647273607565e+000
1	 2.210794773494281e-001	 1.247236734201940e+000	 1.634976295907268e+000
1	 2.085552884195949e-001	 1.249391977736748e+000	 1.661578334109717e+000
1	 1.960503157475883e-001	 1.251415159572273e+000	 1.687473580749075e+000
1	 1.835664325704446e-001	 1.253307220138870e+000	 1.711695223977487e+000
1	 1.711054810238903e-001	 1.255069130798217e+000	 1.733290756629499e+000
1	 1.586692716415527e-001	 1.256701892811832e+000	 1.751323228986354e+000
1	 1.462595828897382e-001	 1.258206536305377e+000	 1.764872444413943e+000
1	 1.338781607374896e-001	 1.259584119230017e+000	 1.773036097205595e+000
1	 1.215267182615959e-001	 1.260835726322077e+000	 1.774930852111701e+000
1	 2.513600407846233e-001	 1.268682340028648e+000	 1.778938024979069e+000
1	 2.385388313687072e-001	 1.271155385113263e+000	 1.814778502249211e+000
1	 2.257333243445114e-001	 1.273491767002438e+000	 1.851419864909359e+000
1	 2.129454942133351e-001	 1.275692379622538e+000	 1.887755349528585e+000
1	 2.001772848530018e-001	 1.277758150570499e+000	 1.922691688635818e+000
1	 1.874306089332176e-001	 1.279690040073258e+000	 1.955150635831454e+000
1	 1.747073473676788e-001	 1.281489039940201e+000	 1.984070428254534e+000
1	 1.620093488027417e-001	 1.283156172509960e+000	 2.008407185323631e+000
1	 1.493384291424061e-001	 1.284692489592919e+000	 2.027136242848552e+000
1	 1.366963711093230e-001	 1.286099071410704e+000	 2.039253421785425e+000
1	 1.240849238414895e-001	 1.287377025533950e+000	 2.043776231079075e+000
1	 2.565422111259951e-001	 1.294838160090888e+000	 1.886382783155979e+000
1	 2.434566729370095e-001	 1.297362190769154e+000	 1.932211177622751e+000
1	 2.303871608685430e-001	 1.299746740731929e+000	 1.978538259041982e+000
1	 2.173356901292265e-001	 1.301992722335230e+000	 2.024150122411295e+000
1	 2.043042446728649e-001	 1.304101082299809e+000	 2.067847658760047e+000
1	 1.912947766017440e-001	 1.306072800649137e+000	 2.108448244497942e+000
1	 1.783092056074410e-001	 1.307908889640256e+000	 2.144787361552750e+000
1	 1.653494184489528e-001	 1.309610392688861e+000	 2.175720147087809e+000
1	 1.524172684678871e-001	 1.311178383290003e+000	 2.200122871789756e+000
1	 1.395145751404186e-001	 1.312613963935719e+000	 2.216894345910439e+000
1	 1.266431236656700e-001	 1.313918265030891e+000	 2.224957252437191e+000
1	 2.617243711031739e-001	 1.320993927844035e+000	 1.909591896975916e+000
1	 2.483745046697697e-001	 1.323568944013921e+000	 1.964825894880782e+000
1	 2.350409880850431e-001	 1.326001661953930e+000	 2.020396386354747e+000
1	 2.217258772648734e-001	 1.328293012449679e+000	 2.074990028138654e+000
1	 2.084311962389666e-001	 1.330443961345699e+000	 2.127309030183593e+000
1	 1.951589365421072e-001	 1.332455508461953e+000	 2.176073012760746e+000
1	 1.819110566436752e-001	 1.334328686503093e+000	 2.220020788527203e+000
1	 1.686894814152311e-001	 1.336064559961831e+000	 2.257912068184246e+000
1	 1.554961016359138e-001	 1.337664224017839e+000	 2.288529088581628e+000
1	 1.423327735353477e-001	 1.339128803433513e+000	 2.310678162334231e+000
1	 1.292013183737076e-001	 1.340459451447940e+000	 2.323191148224718e+000
1	 2.669065220117670e-001	 1.347149649826810e+000	 1.851954920727268e+000
1	 2.532923277965124e-001	 1.349775651399042e+000	 1.916201909360918e+000
1	 2.396948071575314e-001	 1.352256537231954e+000	 1.980743496652306e+000
1	 2.261160567178805e-001	 1.354593256540739e+000	 2.044174161833206e+000
1	 2.125581405830954e-001	 1.356786794293665e+000	 2.105104171698980e+000
1	 1.990230897203908e-001	 1.358838170107152e+000	 2.162161609019633e+000
1	 1.855129013768806e-001	 1.360748437133422e+000	 2.213994320782977e+000
1	 1.720295385366216e-001	 1.362518680942165e+000	 2.259271784724330e+000
1	 1.585749294162189e-001	 1.364150018397633e+000	 2.296686892831162e+000
1	 1.451509669986813e-001	 1.365643596532541e+000	 2.324957650741913e+000
1	 1.317595086051721e-001	 1.367000591420134e+000	 2.342828792184128e+000
1	 2.720886651473818e-001	 1.373305332577932e+000	 1.716603231728591e+000
1	 2.582101435467623e-001	 1.375982319475984e+000	 1.789645843308816e+000
1	 2.443486192495282e-001	 1.378511373129517e+000	 1.863043251638705e+000
1	 2.305062295858520e-001	 1.380893461183264e+000	 1.935304610345693e+000
1	 2.166850787370401e-001	 1.383129587729205e+000	 2.004954590688995e+000
1	 2.028872371026779e-001	 1.385220792180180e+000	 2.070535584826177e+000
1	 1.891147407075556e-001	 1.387168148135953e+000	 2.130609824475056e+000
1	 1.753695906481697e-001	 1.388972762243157e+000	 2.183761413214993e+000
1	 1.616537525785352e-001	 1.390635773050592e+000	 2.228598270922252e+000
1	 1.479691562349904e-001	 1.392158349861254e+000	 2.263753989085621e+000
1	 1.343176949996336e-001	 1.393541691582514e+000	 2.287889595987241e+000
1	 2.772708018056258e-001	 1.399460982636122e+000	 1.506434166633645e+000
1	 2.631279531500440e-001	 1.402188954796221e+000	 1.588217172995295e+000
1	 2.490024255245531e-001	 1.404766176210133e+000	 1.670500422540815e+000
1	 2.348963969663925e-001	 1.407193632952109e+000	 1.751714216927699e+000
1	 2.208120117325892e-001	 1.409472348237812e+000	 1.830303618381737e+000
1	 2.067513796550518e-001	 1.411603381276482e+000	 1.904730831388476e+000
1	 1.927165755361991e-001	 1.413587826115396e+000	 1.973477496007198e+000
1	 1.787096385849205e-001	 1.415426810478104e+000	 2.035046890814662e+000
1	 1.647325718925951e-001	 1.417121494597922e+000	 2.087966043754589e+000
1	 1.507873419488461e-001	 1.418673070048106e+000	 2.130787749434408e+000
1	 1.368758781966621e-001	 1.420082758570117e+000	 2.162092491669823e+000
1	 2.824529332821062e-001	 1.425616606540098e+000	 1.224132500398307e+000
1	 2.680457578358820e-001	 1.428395563911225e+000	 1.314750909774142e+000
1	 2.536562271461264e-001	 1.431020953037317e+000	 1.406084648399700e+000
1	 2.392865599571062e-001	 1.433493778422127e+000	 1.496491289092870e+000
1	 2.249389406015317e-001	 1.435815082404983e+000	 1.584341936941159e+000
1	 2.106155183435960e-001	 1.437985943991505e+000	 1.668023792999405e+000
1	 1.963184067633099e-001	 1.440007477676460e+000	 1.745942626482058e+000
1	 1.820496831819193e-001	 1.441880832260298e+000	 1.816525153194691e+000
1	 1.678113881281316e-001	 1.443607189660832e+000	 1.878221318234228e+000
1	 1.536055248448193e-001	 1.445187763721549e+000	 1.929506481269664e+000
1	 1.394340588358278e-001	 1.446623799017982e+000	 1.968883502989115e+000
1	 2.876350608724304e-001	 1.451772210828581e+000	 8.721896030849999e-001
1	 2.729635588338008e-001	 1.454602153372468e+000	 9.718778290160107e-001
1	 2.583100252777679e-001	 1.457275710174585e+000	 1.072551625773986e+000
1	 2.436767196555977e-001	 1.459793904168173e+000	 1.172501635229367e+000
1	 2.290658663756560e-001	 1.462157796816215e+000	 1.270030346739013e+000
1	 2.144796541343938e-001	 1.464368486920693e+000	 1.363454846443598e+000
1	 1.999202352893869e-001	 1.466427109423858e+000	 1.451109472558100e+000
1	 1.853897252742113e-001	 1.468334834203037e+000	 1.531348374111411e+000
1	 1.708902020548770e-001	 1.470092864860527e+000	 1.602547970892899e+000
1	 1.564237056274812e-001	 1.471702437510035e+000	 1.663109312659546e+000
1	 1.419922375567005e-001	 1.473164819561149e+000	 1.711460335950408e+000
1	 2.928171858722058e-001	 1.477927802040290e+000	 4.529205622197510e-001
1	 2.778813573733250e-001	 1.480808729731422e+000	 5.620425507345515e-001
1	 2.629638210829975e-001	 1.483530454185451e+000	 6.724620481029251e-001
1	 2.480668771594715e-001	 1.486094016765102e+000	 7.824082609304730e-001
1	 2.331927900867510e-001	 1.488500498057003e+000	 8.901201157490180e-001
1	 2.183437879935285e-001	 1.490751016659494e+000	 9.938491975184185e-001
1	 2.035220620149286e-001	 1.492846727962296e+000	 1.091862592228125e+000
1	 1.887297656968415e-001	 1.494788822919614e+000	 1.182445630743361e+000
1	 1.739690144425642e-001	 1.496578526818215e+000	 1.263904531353618e+000
1	 1.592418850014027e-001	 1.498217098042018e+000	 1.334568938795186e+000
1	 1.445504149988502e-001	 1.499705826834654e+000	 1.392794357826734e+000
1	 2.979993095770399e-001	 1.504083386713946e+000	-3.152048161463680e-002
1	 2.827991546839796e-001	 1.507015299539558e+000	 8.751973345130551e-002
1	 2.676176157253354e-001	 1.509785191633430e+000	 2.081985686960116e-001
1	 2.524570335663319e-001	 1.512394122787768e+000	 3.286890099598810e-001
1	 2.373197127666052e-001	 1.514843192712843e+000	 4.471712054273132e-001
1	 2.222079208870836e-001	 1.517133539803352e+000	 5.618355969466994e-001
1	 2.071238878404339e-001	 1.519266339896488e+000	 6.708859541521974e-001
1	 1.920698052848553e-001	 1.521242805023325e+000	 7.725423081918836e-001
1	 1.770478260609259e-001	 1.523064182155104e+000	 8.650437821984038e-001
1	 1.620600636711550e-001	 1.524731751945949e+000	 9.466513159646534e-001
1	 1.471085918018470e-001	 1.526246827473539e+000	 1.015650282609246e+000
1	 1.215267182615959e-001	 1.260835726322077e+000	 1.774930852111702e+000
1	 1.092050938783885e-001	 1.261962627821675e+000	 1.771573781094049e+000
1	 9.691681094146261e-002	 1.262965762463481e+000	 1.764044599060992e+000
1	 8.466350730218102e-002	 1.263846289909173e+000	 1.751588434008732e+000
1	 7.244678589573805e-002	 1.264605392478897e+000	 1.733477920545682e+000
1	 6.026821451849371e-002	 1.265244274109201e+000	 1.709013635279221e+000
1	 4.812932563820527e-002	 1.265764159316470e+000	 1.677524477143039e+000
1	 3.603161623652470e-002	 1.266166292166884e+000	 1.638367993691107e+000
1	 2.397654768310283e-002	 1.266451935253878e+000	 1.590930654462228e+000
1	 1.196554564061585e-002	 1.266622368684020e+000	 1.534628072597762e+000
1	 0.000000000000000e+000	 1.266678889072220e+000	 1.468905175961454e+000
1	 1.240849238414895e-001	 1.287377025533950e+000	 2.043776231079076e+000
1	 1.115039223538047e-001	 1.288527648942039e+000	 2.041882180367186e+000
1	 9.895696416848027e-002	 1.289551900130541e+000	 2.034838718608746e+000
1	 8.644572161462832e-002	 1.290450963172669e+000	 2.021839100418095e+000
1	 7.397183137018699e-002	 1.291226045277082e+000	 2.002108551945030e+000
1	 6.153689423456665e-002	 1.291878375723875e+000	 1.974904682679350e+000
1	 4.914247493488754e-002	 1.292409204806197e+000	 1.939517835944458e+000
1	 3.679010196516106e-002	 1.292819802778529e+000	 1.895271379349356e+000
1	 2.448126745774404e-002	 1.293111458812611e+000	 1.841521936553539e+000
1	 1.221742708636590e-002	 1.293285479961983e+000	 1.777659561779023e+000
1	 0.000000000000000e+000	 1.293343190136031e+000	 1.703107858575558e+000
1	 1.266431236656700e-001	 1.313918265030891e+000	 2.224957252437192e+000
1	 1.138027456571140e-001	 1.315092610294107e+000	 2.225699420896398e+000
1	 1.009971128054113e-001	 1.316137977981790e+000	 2.220609963795142e+000
1	 8.822793191734571e-002	 1.317055576578640e+000	 2.208810242149859e+000
1	 7.549687341352278e-002	 1.317846638181773e+000	 2.189457445404599e+000
1	 6.280557109632910e-002	 1.318512417414775e+000	 2.161745026747870e+000
1	 5.015562195217487e-002	 1.319054190347506e+000	 2.124903070341489e+000
1	 3.754858598735988e-002	 1.319473253422687e+000	 2.078198591908463e+000
1	 2.498598609687752e-002	 1.319770922390312e+000	 2.020935774221867e+000
1	 1.246930796544274e-002	 1.319948531250828e+000	 1.952456139122023e+000
1	 0.000000000000000e+000	 1.320007431208043e+000	 1.872138657768918e+000
1	 1.292013183737076e-001	 1.340459451447940e+000	 2.323191148224718e+000
1	 1.161015643630454e-001	 1.341657518518851e+000	 2.327702145839553e+000
1	 1.030372573623214e-001	 1.342724002663488e+000	 2.325942900363927e+000
1	 9.001013865592045e-002	 1.343660136777989e+000	 2.316944015846490e+000
1	 7.702191240704664e-002	 1.344467177847875e+000	 2.299775196312185e+000
1	 6.407424542099523e-002	 1.345146405840180e+000	 2.273545750193034e+000
1	 5.116876694340037e-002	 1.345699122601420e+000	 2.237405019381009e+000
1	 3.830706849278592e-002	 1.346126650762511e+000	 2.190542734464908e+000
1	 2.549070372671889e-002	 1.346430332651642e+000	 2.132189297817738e+000
1	 1.272118834083836e-002	 1.346611529216121e+000	 2.061615996298802e+000
1	 0.000000000000000e+000	 1.346671618954121e+000	 1.978135145423757e+000
1	 1.317595086051721e-001	 1.367000591420134e+000	 2.342828792184128e+000
1	 1.184003790463280e-001	 1.368222380257244e+000	 2.352203786949427e+000
1	 1.050773983492763e-001	 1.369309980821893e+000	 2.355066028229866e+000
1	 9.179234227593996e-002	 1.370264650421613e+000	 2.350337566769786e+000
1	 7.854694873205979e-002	 1.371087670930294e+000	 2.336982260420469e+000
1	 6.534291752577912e-002	 1.371780347658369e+000	 2.314006391909277e+000
1	 5.218191016189722e-002	 1.372344008228968e+000	 2.280459203441413e+000
1	 3.906554967110398e-002	 1.372780001461154e+000	 2.235433349746749e+000
1	 2.599542047348377e-002	 1.373089696261269e+000	 2.178065271303865e+000
1	 1.297306827554469e-002	 1.373274480523431e+000	 2.107535489586683e+000
1	 0.000000000000000e+000	 1.373335760040133e+000	 2.023068826281331e+000
1	 1.343176949996336e-001	 1.393541691582514e+000	 2.287889595987240e+000
1	 1.206991902816909e-001	 1.394787202150259e+000	 2.303189160712904e+000
1	 1.071175362763418e-001	 1.395895919103263e+000	 2.311885696698262e+000
1	 9.357454322299168e-002	 1.396869124160417e+000	 2.312775890823307e+000
1	 8.007198276986338e-002	 1.397708124083939e+000	 2.304700399118532e+000
1	 6.661158772789504e-002	 1.398414249527623e+000	 2.286544620825955e+000
1	 5.319505186099852e-002	 1.398988853891178e+000	 2.257239381013212e+000
1	 3.982402971197888e-002	 1.399433312181770e+000	 2.215761523342319e+000
1	 2.650013646338779e-002	 1.399749019883856e+000	 2.161134414734362e+000
1	 1.322494783255373e-002	 1.399937391838324e+000	 2.092428363801017e+000
1	 0.000000000000000e+000	 1.399999861131944e+000	 2.008760955033865e+000
1	 1.368758781966621e-001	 1.420082758570117e+000	 2.162092491669823e+000
1	 1.229979986438630e-001	 1.421351990838867e+000	 2.184345184355975e+000
1	 1.091576716535836e-001	 1.422481824153855e+000	 2.200016215918989e+000
1	 9.535674194266292e-002	 1.423473564645299e+000	 2.207761010930285e+000
1	 8.159701490175862e-002	 1.424328543963714e+000	 2.206280597955174e+000
1	 6.788025634455708e-002	 1.425048118106222e+000	 2.194322581682034e+000
1	 5.420819229403744e-002	 1.425633666249075e+000	 2.170682014845196e+000
1	 4.058250880507539e-002	 1.426086589587512e+000	 2.134202171472956e+000
1	 2.700485182264656e-002	 1.426408310184067e+000	 2.083775223153832e+000
1	 1.347682707485744e-002	 1.426600269826366e+000	 2.018342820165269e+000
1	 0.000000000000000e+000	 1.426663928895422e+000	 1.936896579448572e+000
1	 1.394340588358278e-001	 1.446623799017982e+000	 1.968883502989116e+000
1	 1.252968047075734e-001	 1.447916752964040e+000	 1.999088210104615e+000
1	 1.111978049910673e-001	 1.449067702619928e+000	 2.022806653155145e+000
1	 9.713893888054107e-002	 1.450077978527162e+000	 2.038537941175894e+000
1	 8.312204550904669e-002	 1.450948937224526e+000	 2.044827911412761e+000
1	 6.914892369297943e-002	 1.451681960052446e+000	 2.040270340206162e+000
1	 5.522133171434710e-002	 1.452278451963687e+000	 2.023508044438140e+000
1	 4.134098714005827e-002	 1.452739840341533e+000	 1.993233874945903e+000
1	 2.750956667747569e-002	 1.453067573826568e+000	 1.948191603492358e+000
1	 1.372870606544777e-002	 1.453263121153126e+000	 1.887176705058021e+000
1	 0.000000000000000e+000	 1.453327969996434e+000	 1.809037037384174e+000
1	 1.419922375567005e-001	 1.473164819561149e+000	 1.711460335950405e+000
1	 1.275956090475513e-001	 1.474481495166753e+000	 1.750588404247891e+000
1	 1.132379367988588e-001	 1.475653561147740e+000	 1.783364732018958e+000
1	 9.892113448221356e-002	 1.476682372456906e+000	 1.808117843880301e+000
1	 8.464707497302880e-002	 1.477569310521282e+000	 1.823223621630156e+000
1	 7.041759009037629e-002	 1.478315782024575e+000	 1.827106793560906e+000
1	 5.623447037526061e-002	 1.478923217696040e+000	 1.818242304642186e+000
1	 4.209946490659234e-002	 1.479393071106987e+000	 1.795156568793306e+000
1	 2.801428115409081e-002	 1.479726817476025e+000	 1.756428604677502e+000
1	 1.398058486731671e-002	 1.479925952484172e+000	 1.700691056653974e+000
1	 0.000000000000000e+000	 1.479991991100845e+000	 1.626631102713730e+000
1	 1.445504149988502e-001	 1.499705826834654e+000	 1.392794357826732e+000
1	 1.298944122385256e-001	 1.501046224087976e+000	 1.441791537151916e+000
1	 1.152780675870237e-001	 1.502239406383549e+000	 1.484578193615393e+000
1	 1.007033291932677e-001	 1.503286753085432e+000	 1.519298727397340e+000
1	 8.617210367500609e-002	 1.504189670508888e+000	 1.544145043876348e+000
1	 7.168625585396170e-002	 1.504949590680887e+000	 1.557358360104228e+000
1	 5.724760853011116e-002	 1.505567970107163e+000	 1.557230882005184e+000
1	 4.285794229434238e-002	 1.506046288547026e+000	 1.542107353276432e+000
1	 2.851899537870754e-002	 1.506386047797100e+000	 1.510386477213263e+000
1	 1.423246354345621e-002	 1.506588770485069e+000	 1.460522212915881e+000
1	 0.000000000000000e+000	 1.506655998874523e+000	 1.391024947553888e+000
1	 1.471085918018470e-001	 1.526246827473539e+000	 1.015650282609244e+000
1	 1.321932148552253e-001	 1.527610946368682e+000	 1.075438499427580e+000
1	 1.173181978656277e-001	 1.528825244973612e+000	 1.129133928593460e+000
1	 1.024855234592909e-001	 1.529891127063641e+000	 1.174683984042433e+000
1	 8.769713199627979e-002	 1.530810023842251e+000	 1.210083265269211e+000
1	 7.295492130094994e-002	 1.531583392679665e+000	 1.233375718824022e+000
1	 5.826074643223184e-002	 1.532212715858080e+000	 1.242656659939373e+000
1	 4.361641949297316e-002	 1.532699499324805e+000	 1.236074654969570e+000
1	 2.902370947754151e-002	 1.533045271454459e+000	 1.211833265604359e+000
1	 1.448434215685826e-002	 1.533251581821384e+000	 1.168192656085557e+000
1	 0.000000000000000e+000	 1.533319999983334e+000	 1.103471064909057e+000
1	 1.533319999983334e+000	 0.000000000000000e+000	 2.953811298559326e+001
1	 1.533251581821385e+000	 1.448434215685831e-002	 2.916958097381211e+001
1	 1.533045271454459e+000	 2.902370947754160e-002	 2.880516232312493e+001
1	 1.532699499324805e+000	 4.361641949297308e-002	 2.844381929443884e+001
1	 1.532212715858081e+000	 5.826074643223178e-002	 2.808447961936255e+001
1	 1.531583392679665e+000	 7.295492130094992e-002	 2.772603705055211e+001
1	 1.530810023842251e+000	 8.769713199627981e-002	 2.736735198039876e+001
1	 1.529891127063641e+000	 1.024855234592909e-001	 2.700725212923707e+001
1	 1.528825244973612e+000	 1.173181978656276e-001	 2.664453330414250e+001
1	 1.527610946368682e+000	 1.321932148552252e-001	 2.627796022927105e+001
1	 1.526246827473539e+000	 1.471085918018469e-001	 2.590626744857055e+001
1	 1.559987999982150e+000	 0.000000000000000e+000	 3.073832473560901e+001
1	 1.559918391869258e+000	 1.473625854557675e-002	 3.032333088843284e+001
1	 1.559708493285285e+000	 2.952849927044130e-002	 2.991349033422337e+001
1	 1.559356707374226e+000	 4.437501044347395e-002	 2.950765495529308e+001
1	 1.558861457611046e+000	 5.927403627859133e-002	 2.910464400319307e+001
1	 1.558221189039145e+000	 7.422377701450698e-002	 2.870324486588132e+001
1	 1.557434369519299e+000	 8.922238903169809e-002	 2.830221390620441e+001
1	 1.556499490988984e+000	 1.042679850074528e-001	 2.790027737256099e+001
1	 1.555415070730929e+000	 1.193586341098443e-001	 2.749613238248814e+001
1	 1.554179652649703e+000	 1.344923622314419e-001	 2.708844797977872e+001
1	 1.552791808555088e+000	 1.496671522635357e-001	 2.667586626559732e+001
1	 1.586655999981867e+000	 0.000000000000000e+000	 3.201223265782819e+001
1	 1.586585201918022e+000	 1.498817493449890e-002	 3.154944871245456e+001
1	 1.586371715116970e+000	 3.003328906368751e-002	 3.109275089044532e+001
1	 1.586013915424462e+000	 4.513360139441185e-002	 3.064088978230591e+001
1	 1.585510199364770e+000	 6.028732612543465e-002	 3.019258501215671e+001
1	 1.584858985399321e+000	 7.549263272855974e-002	 2.974652620297879e+001
1	 1.584058715196978e+000	 9.074764606759800e-002	 2.930137401600019e+001
1	 1.583107854914894e+000	 1.060504465560655e-001	 2.885576126480984e+001
1	 1.582004896488756e+000	 1.213990703544733e-001	 2.840829410464382e+001
1	 1.580748358931190e+000	 1.367915096080340e-001	 2.795755329714041e+001
1	 1.579336789637071e+000	 1.522257127255743e-001	 2.750209555070318e+001
1	 1.613323999982383e+000	 0.000000000000000e+000	 3.334979180111012e+001
1	 1.613252011967577e+000	 1.524009132357382e-002	 3.283833965249340e+001
1	 1.613034936949426e+000	 3.053807885719378e-002	 3.233377782435229e+001
1	 1.612671123475432e+000	 4.589219234567800e-002	 3.183476415605887e+001
1	 1.612158941119188e+000	 6.130061597264207e-002	 3.133992696125724e+001
1	 1.611496781760144e+000	 7.676148844298673e-002	 3.084786617313854e+001
1	 1.610683060875255e+000	 9.227290310386339e-002	 3.035715456654293e+001
1	 1.609716218841355e+000	 1.078329081050230e-001	 2.986633905722459e+001
1	 1.608594722247091e+000	 1.234395065994216e-001	 2.937394207845863e+001
1	 1.607317065213149e+000	 1.390906569849222e-001	 2.887846303500535e+001
1	 1.605881770719505e+000	 1.547842731878955e-001	 2.837837983427696e+001
1	 1.639991999983600e+000	 0.000000000000000e+000	 3.474161058034125e+001
1	 1.639918822017828e+000	 1.549200771275063e-002	 3.418103300102703e+001
1	 1.639698158782560e+000	 3.104286865087362e-002	 3.362800117472269e+001
1	 1.639328331527060e+000	 4.665078329716376e-002	 3.308108821974762e+001
1	 1.638807682874235e+000	 6.231390582009395e-002	 3.253883895539465e+001
1	 1.638134578121566e+000	 7.803034415766653e-002	 3.199977120983537e+001
1	 1.637307406554097e+000	 9.379816014037826e-002	 3.146237720740497e+001
1	 1.636324582768350e+000	 1.096153696542197e-001	 3.092512503537878e+001
1	 1.635184548005932e+000	 1.254799428445966e-001	 3.038646019018331e+001
1	 1.633885771495591e+000	 1.413898043620276e-001	 2.984480720280723e+001
1	 1.632426751802406e+000	 1.573428336504320e-001	 2.929857134299494e+001
1	 1.666659999985417e+000	 0.000000000000000e+000	 3.617889850433409e+001
1	 1.666585632068675e+000	 1.574392410197842e-002	 3.556913220683252e+001
1	 1.666361380616284e+000	 3.154765844464056e-002	 3.496739948748058e+001
1	 1.665985539579266e+000	 4.740937424876035e-002	 3.437219629571278e+001
1	 1.665456424629847e+000	 6.332719566767057e-002	 3.378199130382053e+001
1	 1.664772374483535e+000	 7.929919987247770e-002	 3.319522736069835e+001
1	 1.663931752233472e+000	 9.532341717702640e-002	 3.261032302739149e+001
1	 1.662932946695863e+000	 1.113978312035495e-001	 3.202567419436226e+001
1	 1.661774373765276e+000	 1.275203790899053e-001	 3.143965578020949e+001
1	 1.660454477778524e+000	 1.436889517392707e-001	 3.085062351138673e+001
1	 1.658971732885789e+000	 1.599013941131163e-001	 3.025691578227000e+001
1	 1.693327999987733e+000	 0.000000000000000e+000	 3.765341884308418e+001
1	 1.693252442120022e+000	 1.599584049120630e-002	 3.699476966342790e+001
1	 1.693024602450508e+000	 3.205244823840814e-002	 3.634445662386250e+001
1	 1.692642747631973e+000	 4.816796520035906e-002	 3.570090560929855e+001
1	 1.692105166385958e+000	 6.434048551525225e-002	 3.506251605313167e+001
1	 1.691410170846005e+000	 8.056805558729877e-002	 3.442766252061004e+001
1	 1.690556097913347e+000	 9.684867421369173e-002	 3.379469637630030e+001
1	 1.689541310623874e+000	 1.131802927529067e-001	 3.316194753540015e+001
1	 1.688364199525119e+000	 1.295608153352550e-001	 3.252772629845194e+001
1	 1.687023184061957e+000	 1.459880991165722e-001	 3.189032526881243e+001
1	 1.685516713969673e+000	 1.624599545758813e-001	 3.124802135202734e+001
1	 1.719995999990450e+000	 0.000000000000000e+000	 3.915744569830265e+001
1	 1.719919252171772e+000	 1.624775688038337e-002	 3.845056570346024e+001
1	 1.719687824285143e+000	 3.255723803208991e-002	 3.775212258663945e+001
1	 1.719299955685101e+000	 4.892655615185122e-002	 3.706047885255344e+001
1	 1.718753908142506e+000	 6.535377536271933e-002	 3.637397119180474e+001
1	 1.718047967208927e+000	 8.183691130200831e-002	 3.569091217818934e+001
1	 1.717180443593690e+000	 9.837393125025810e-002	 3.500959205227564e+001
1	 1.716149674552369e+000	 1.149627543021854e-001	 3.432828059086230e+001
1	 1.714954025285460e+000	 1.316012515805530e-001	 3.364522906171782e+001
1	 1.713591890345899e+000	 1.482872464938531e-001	 3.295867226279304e+001
1	 1.712061695054074e+000	 1.650185150386594e-001	 3.226683064488432e+001
1	 1.746663999993467e+000	 0.000000000000000e+000	 4.068372500662117e+001
1	 1.746586062223828e+000	 1.649967326945873e-002	 3.992959134952574e+001
1	 1.746351046120097e+000	 3.306202782559937e-002	 3.918377793496099e+001
1	 1.745957163738572e+000	 4.968514710312810e-002	 3.844459017738691e+001
1	 1.745402649899424e+000	 6.636706520995209e-002	 3.771030813387426e+001
1	 1.744685763572250e+000	 8.310576701648488e-002	 3.697918830016307e+001
1	 1.743804789274466e+000	 9.989918828660942e-002	 3.624946549505517e+001
1	 1.742758038481331e+000	 1.167452158512797e-001	 3.551935483262657e+001
1	 1.741543851046296e+000	 1.336416878257062e-001	 3.478705378153617e+001
1	 1.740160596630359e+000	 1.505863938710342e-001	 3.405074431048725e+001
1	 1.738606676139007e+000	 1.675770755013836e-001	 3.330859511867548e+001
1	 1.773331999996684e+000	 0.000000000000000e+000	 4.222543906148272e+001
1	 1.773252872276091e+000	 1.675158965838147e-002	 4.142533442598850e+001
1	 1.773014267955283e+000	 3.356681761885008e-002	 4.063320141005277e+001
1	 1.772614371792308e+000	 5.044373805408099e-002	 3.984729425716792e+001
1	 1.772051391656649e+000	 6.738035505683089e-002	 3.906584213656253e+001
1	 1.771323559935927e+000	 8.437462273060700e-002	 3.828705102330481e+001
1	 1.770429134955646e+000	 1.014244453226296e-001	 3.750910566868484e+001
1	 1.769366402410742e+000	 1.185276774000839e-001	 3.673017166026955e+001
1	 1.768133676807624e+000	 1.356821240706220e-001	 3.594839757080541e+001
1	 1.766729302915345e+000	 1.528855412480361e-001	 3.516191719491800e+001
1	 1.765151657224491e+000	 1.701356359639863e-001	 3.436885187232561e+001
1	 1.800000000000000e+000	 0.000000000000000e+000	 4.377617418879942e+001
1	 1.799919682328466e+000	 1.700350604710072e-002	 4.293166868323230e+001
1	 1.799677489790610e+000	 3.407160741175556e-002	 4.209454043877389e+001
1	 1.799271579846229e+000	 5.120232900460112e-002	 4.126299809854132e+001
1	 1.798700133414114e+000	 6.839364490323605e-002	 4.043522534758528e+001
1	 1.797961356299907e+000	 8.564347844425327e-002	 3.960938286277197e+001
1	 1.797053480637195e+000	 1.029497023582024e-001	 3.878361035477956e+001
1	 1.795974766340585e+000	 1.203101389484920e-001	 3.795602870153392e+001
1	 1.794723502569440e+000	 1.377225603152076e-001	 3.712474217218328e+001
1	 1.793298009200867e+000	 1.551846886247796e-001	 3.628784074047922e+001
1	 1.791696638310540e+000	 1.726941964264003e-001	 3.544340248619254e+001
1	 1.526246827473539e+000	 1.471085918018469e-001	 2.590626744857055e+001
1	 1.524731751945950e+000	 1.620600636711551e-001	 2.553560765863213e+001
1	 1.523064182155104e+000	 1.770478260609258e-001	 2.517212110507847e+001
1	 1.521242805023325e+000	 1.920698052848553e-001	 2.481466190525603e+001
1	 1.519266339896488e+000	 2.071238878404338e-001	 2.446207426570806e+001
1	 1.517133539803352e+000	 2.222079208870836e-001	 2.411319395515665e+001
1	 1.514843192712843e+000	 2.373197127666054e-001	 2.376684982712089e+001
1	 1.512394122787768e+000	 2.524570335663319e-001	 2.342186539068263e+001
1	 1.509785191633430e+000	 2.676176157253354e-001	 2.307706042775241e+001
1	 1.507015299539557e+000	 2.827991546839795e-001	 2.273125265503140e+001
1	 1.504083386713946e+000	 2.979993095770399e-001	 2.238325942870416e+001
1	 1.552791808555088e+000	 1.496671522635357e-001	 2.667586626559732e+001
1	 1.551250382341223e+000	 1.648786649929308e-001	 2.626486792528699e+001
1	 1.549553809634328e+000	 1.801270994193072e-001	 2.586193396450064e+001
1	 1.547700754519251e+000	 1.954103457901381e-001	 2.546586796102385e+001
1	 1.545689914068317e+000	 2.107262538441939e-001	 2.507546611848893e+001
1	 1.543520019622557e+000	 2.260726332979972e-001	 2.468951887976112e+001
1	 1.541189838070859e+000	 2.414472543753199e-001	 2.430681258897505e+001
1	 1.538698173125491e+000	 2.568478483801319e-001	 2.392613120042658e+001
1	 1.536043866592424e+000	 2.722721083133523e-001	 2.354625803236161e+001
1	 1.533225799634873e+000	 2.877176895336973e-001	 2.316597756353757e+001
1	 1.530242894028381e+000	 3.031822104628573e-001	 2.278407727026987e+001
1	 1.579336789637071e+000	 1.522257127255743e-001	 2.750209555070318e+001
1	 1.577769012736920e+000	 1.676972663150494e-001	 2.704870038332616e+001
1	 1.576043437113978e+000	 1.832063727780419e-001	 2.660416314653024e+001
1	 1.574158704015620e+000	 1.987508862957980e-001	 2.616724878334932e+001
1	 1.572113488240613e+000	 2.143286198483647e-001	 2.573671753600513e+001
1	 1.569906499442260e+000	 2.299373457093609e-001	 2.531132668349586e+001
1	 1.567536483429407e+000	 2.455747959845261e-001	 2.488983232621755e+001
1	 1.565002223463775e+000	 2.612386631944633e-001	 2.447099121553285e+001
1	 1.562302541552006e+000	 2.769266009019343e-001	 2.405356262603105e+001
1	 1.559436299730789e+000	 2.926362243840045e-001	 2.363631026805551e+001
1	 1.556402401343417e+000	 3.083651113492743e-001	 2.321800423790631e+001
1	 1.605881770719505e+000	 1.547842731878955e-001	 2.837837983427696e+001
1	 1.604287643133057e+000	 1.705158676374521e-001	 2.788075207506321e+001
1	 1.602533064594071e+000	 1.862856461370759e-001	 2.739267339000655e+001
1	 1.600616653512444e+000	 2.020914268017832e-001	 2.691288136028898e+001
1	 1.598537062413384e+000	 2.179309858528943e-001	 2.644011167444185e+001
1	 1.596292979262458e+000	 2.338020581211211e-001	 2.597309997447527e+001
1	 1.593883128788470e+000	 2.497023375941674e-001	 2.551058374680689e+001
1	 1.591306273802593e+000	 2.656294780092663e-001	 2.505130425562603e+001
1	 1.588561216512131e+000	 2.815810934910187e-001	 2.459400851615645e+001
1	 1.585646799827250e+000	 2.975547592348355e-001	 2.413745130511054e+001
1	 1.582561908658987e+000	 3.135480122362240e-001	 2.368039720545732e+001
1	 1.632426751802406e+000	 1.573428336504320e-001	 2.929857134299494e+001
1	 1.630806273529654e+000	 1.733344689600800e-001	 2.875508326598591e+001
1	 1.629022692074626e+000	 1.893649194963554e-001	 2.822172849704359e+001
1	 1.627074603009735e+000	 2.054319673080419e-001	 2.769722793759044e+001
1	 1.624960636586632e+000	 2.215333518577308e-001	 2.718030353763107e+001
1	 1.622679459083146e+000	 2.376667705332243e-001	 2.666968023526619e+001
1	 1.620229774148032e+000	 2.538298792041876e-001	 2.616408793816988e+001
1	 1.617610324141914e+000	 2.700202928244812e-001	 2.566226354439956e+001
1	 1.614819891472758e+000	 2.862355860805423e-001	 2.516295299973729e+001
1	 1.611857299924204e+000	 3.024732940861247e-001	 2.466491338858733e+001
1	 1.608721415975027e+000	 3.187309131236401e-001	 2.416691505528660e+001
1	 1.658971732885789e+000	 1.599013941131163e-001	 3.025691578227000e+001
1	 1.657324903926732e+000	 1.761530702828741e-001	 2.966613438511719e+001
1	 1.655512319555662e+000	 1.924441928558264e-001	 2.908595940624420e+001
1	 1.653532552507511e+000	 2.087725078145225e-001	 2.851510519641280e+001
1	 1.651384210760366e+000	 2.251357178628224e-001	 2.795229022763342e+001
1	 1.649065938904318e+000	 2.415314829456167e-001	 2.739623911138126e+001
1	 1.646576419508075e+000	 2.579574208145299e-001	 2.684568465534769e+001
1	 1.643914374481710e+000	 2.744111076400478e-001	 2.629936995584547e+001
1	 1.641078566433845e+000	 2.908900786704421e-001	 2.575605052281288e+001
1	 1.638067800021593e+000	 3.073918289378069e-001	 2.521449643419233e+001
1	 1.634880923291471e+000	 3.239138140114559e-001	 2.467349451629118e+001
1	 1.685516713969673e+000	 1.624599545758813e-001	 3.124802135202733e+001
1	 1.683843534324310e+000	 1.789716716057755e-001	 3.060869608928742e+001
1	 1.682001947037197e+000	 1.955234662154352e-001	 2.998033528277855e+001
1	 1.679990502005782e+000	 2.121130483211732e-001	 2.936165634354299e+001
1	 1.677807784934589e+000	 2.287380838681173e-001	 2.875138400643810e+001
1	 1.675452418725971e+000	 2.453961953582446e-001	 2.814825241281460e+001
1	 1.672923064868585e+000	 2.620849624251379e-001	 2.755100722772400e+001
1	 1.670218424821950e+000	 2.788019224559066e-001	 2.695840778853369e+001
1	 1.667337241395350e+000	 2.955445712606550e-001	 2.636922928165638e+001
1	 1.664278300119365e+000	 3.123103637898162e-001	 2.578226494393480e+001
1	 1.661040430608252e+000	 3.290967148996047e-001	 2.519632828505861e+001
1	 1.712061695054074e+000	 1.650185150386594e-001	 3.226683064488431e+001
1	 1.710362164722407e+000	 1.817902729287253e-001	 3.157788211227154e+001
1	 1.708491574519249e+000	 1.986027395751275e-001	 3.090013729789853e+001
1	 1.706448451504562e+000	 2.154535888279422e-001	 3.023232579800731e+001
1	 1.704231359109308e+000	 2.323404498735635e-001	 2.957318786368213e+001
1	 1.701838898548098e+000	 2.492609077710546e-001	 2.892147653416601e+001
1	 1.699269710229544e+000	 2.662125040359551e-001	 2.827595980013290e+001
1	 1.696522475162606e+000	 2.831927372719976e-001	 2.763542279356458e+001
1	 1.693595916357230e+000	 3.001990638511179e-001	 2.699867000071571e+001
1	 1.690488800217466e+000	 3.172288986420876e-001	 2.636452749448728e+001
1	 1.687199937925307e+000	 3.342796157880200e-001	 2.573184518237176e+001
1	 1.738606676139007e+000	 1.675770755013836e-001	 3.330859511867548e+001
1	 1.736880795121043e+000	 1.846088742516645e-001	 3.256910460115604e+001
1	 1.734981202001836e+000	 2.016820129348496e-001	 3.184093481045244e+001
1	 1.732906401003865e+000	 2.187941293347777e-001	 3.112283619658583e+001
1	 1.730654933284528e+000	 2.359428158791092e-001	 3.041357332255645e+001
1	 1.728225378370697e+000	 2.531256201839929e-001	 2.971192703486503e+001
1	 1.725616355590934e+000	 2.703400456469253e-001	 2.901669665885842e+001
1	 1.722826525503650e+000	 2.875835520882610e-001	 2.832670221533193e+001
1	 1.719854591319444e+000	 3.048535564417678e-001	 2.764078665466019e+001
1	 1.716699300315840e+000	 3.221474334945551e-001	 2.695781810457153e+001
1	 1.713359445242568e+000	 3.394625166766351e-001	 2.627669212753206e+001
1	 1.765151657224491e+000	 1.701356359639863e-001	 3.436885187232561e+001
1	 1.763399425520238e+000	 1.874274755745342e-001	 3.357805167810932e+001
1	 1.761470829484977e+000	 2.047612862945475e-001	 3.279856369754487e+001
1	 1.759364350503703e+000	 2.221346698416280e-001	 3.202916747412257e+001
1	 1.757078507460254e+000	 2.395451818847026e-001	 3.126866024828854e+001
1	 1.754611858193762e+000	 2.569903325970059e-001	 3.051585915210432e+001
1	 1.751963000952741e+000	 2.744675872579916e-001	 2.976960342305191e+001
1	 1.749130575845050e+000	 2.919743669046370e-001	 2.902875663321071e+001
1	 1.746113266281949e+000	 3.095080490325418e-001	 2.829220892987946e+001
1	 1.742909800414432e+000	 3.270659683471534e-001	 2.755887928356796e+001
1	 1.739518952559972e+000	 3.446454175653835e-001	 2.682771773914221e+001
1	 1.791696638310540e+000	 1.726941964264003e-001	 3.544340248619254e+001
1	 1.789918055920011e+000	 1.902460768972756e-001	 3.460066699676102e+001
1	 1.787960456968690e+000	 2.078405596541674e-001	 3.376910661145676e+001
1	 1.785822300004091e+000	 2.254752103484413e-001	 3.294753780345672e+001
1	 1.783502081636491e+000	 2.431475478902916e-001	 3.213479845151592e+001
1	 1.780998338017287e+000	 2.608550450100400e-001	 3.132975004604348e+001
1	 1.778309646314947e+000	 2.785951288690977e-001	 3.053127990810717e+001
1	 1.775434626186778e+000	 2.963651817210658e-001	 2.973830341739764e+001
1	 1.772371941244703e+000	 3.141625416233767e-001	 2.894976624503848e+001
1	 1.769120300513190e+000	 3.319845031998169e-001	 2.816464658699077e+001
1	 1.765678459877450e+000	 3.498283184541985e-001	 2.738195739366979e+001
1	 1.504083386713946e+000	 2.979993095770399e-001	 2.238325942870416e+001
1	 1.500987958153399e+000	 3.132179871671365e-001	 2.203832953152491e+001
1	 1.497728465867564e+000	 3.284504932603852e-001	 2.170191055088568e+001
1	 1.494303978033006e+000	 3.436943779339137e-001	 2.137297187695218e+001
1	 1.490713607613841e+000	 3.589471580746027e-001	 2.105049813922736e+001
1	 1.486956513530291e+000	 3.742063182928812e-001	 2.073349103820489e+001
1	 1.483031901808774e+000	 3.894693118802305e-001	 2.042097118473849e+001
1	 1.478939026711766e+000	 4.047335618101468e-001	 2.011197994364795e+001
1	 1.474677191845686e+000	 4.199964617822379e-001	 1.980558127797935e+001
1	 1.470245751245001e+000	 4.352553773090560e-001	 1.950086359024198e+001
1	 1.465644110430824e+000	 4.505076468451837e-001	 1.919694155685705e+001
1	 1.530242894028381e+000	 3.031822104628573e-001	 2.278407727026987e+001
1	 1.527093628768171e+000	 3.186655762418404e-001	 2.240601740354167e+001
1	 1.523777446333049e+000	 3.341630110338180e-001	 2.203747144470340e+001
1	 1.520293398692991e+000	 3.496720223060635e-001	 2.167738969664115e+001
1	 1.516640583384481e+000	 3.651900837583482e-001	 2.132474002559258e+001
1	 1.512818144699393e+000	 3.807146362526285e-001	 2.097850977276572e+001
1	 1.508825274855080e+000	 3.962430887872052e-001	 2.063770767103638e+001
1	 1.504661215143897e+000	 4.117728195150920e-001	 2.030136576301619e+001
1	 1.500325257060339e+000	 4.273011768062745e-001	 1.996854131668079e+001
1	 1.495816743404018e+000	 4.428254803534433e-001	 1.963831873465399e+001
1	 1.491135069356658e+000	 4.583430223207199e-001	 1.930981145315808e+001
1	 1.556402401343417e+000	 3.083651113492743e-001	 2.321800423790631e+001
1	 1.553199299383525e+000	 3.241131653171373e-001	 2.280430003701349e+001
1	 1.549826426799085e+000	 3.398755288078223e-001	 2.240107965920429e+001
1	 1.546282819353484e+000	 3.556496666787523e-001	 2.200728416390504e+001
1	 1.542567559155575e+000	 3.714330094425919e-001	 2.162187475780149e+001
1	 1.538679775868886e+000	 3.872229542128295e-001	 2.124383477558525e+001
1	 1.534618647901714e+000	 4.030168656945872e-001	 2.087217166246450e+001
1	 1.530383403576289e+000	 4.188120772204010e-001	 2.050591895450723e+001
1	 1.525973322275190e+000	 4.346058918306374e-001	 2.014413825278565e+001
1	 1.521387735563173e+000	 4.503955833981296e-001	 1.978592118719997e+001
1	 1.516626028282580e+000	 4.661783977965402e-001	 1.943039136577814e+001
1	 1.582561908658987e+000	 3.135480122362240e-001	 2.368039720545732e+001
1	 1.579304969999390e+000	 3.295607543929612e-001	 2.322868721136911e+001
1	 1.575875407265591e+000	 3.455880465823346e-001	 2.278840098507443e+001
1	 1.572272240014396e+000	 3.616273110519195e-001	 2.235847973381230e+001
1	 1.568494534927030e+000	 3.776759351272775e-001	 2.193788764951423e+001
1	 1.564541407038679e+000	 3.937312721734312e-001	 2.152561394816240e+001
1	 1.560412020948581e+000	 4.097906426023273e-001	 2.112067490693422e+001
1	 1.556105592008850e+000	 4.258513349260275e-001	 2.072211589498341e+001
1	 1.551621387490148e+000	 4.419106068552816e-001	 2.032901339361255e+001
1	 1.546958727722380e+000	 4.579656864430683e-001	 1.994047700150589e+001
1	 1.542116987208505e+000	 4.740137732725954e-001	 1.955565142061568e+001
1	 1.608721415975027e+000	 3.187309131236401e-001	 2.416691505528661e+001
1	 1.605410640615688e+000	 3.350083434692462e-001	 2.367498076893199e+001
1	 1.601924387732486e+000	 3.513005643572913e-001	 2.319538312826353e+001
1	 1.598261660675640e+000	 3.676049554255052e-001	 2.272707245649337e+001
1	 1.594421510698755e+000	 3.839188608123485e-001	 2.226902514653090e+001
1	 1.590403038208676e+000	 4.002395901343809e-001	 2.182024574873661e+001
1	 1.586205393995587e+000	 4.165644195103766e-001	 2.137976905183493e+001
1	 1.581827780441484e+000	 4.328905926319244e-001	 2.094666215262312e+001
1	 1.577269452705119e+000	 4.492153218801608e-001	 2.052002651002319e+001
1	 1.572529719881547e+000	 4.655357894882130e-001	 2.009899997894557e+001
1	 1.567607946134350e+000	 4.818491487488354e-001	 1.968275881936409e+001
1	 1.634880923291471e+000	 3.239138140114559e-001	 2.467349451629118e+001
1	 1.631516311232345e+000	 3.404559325459265e-001	 2.413925124862683e+001
1	 1.627973368199684e+000	 3.570130821326286e-001	 2.361823315554573e+001
1	 1.624251081337129e+000	 3.735825997994487e-001	 2.310940824836246e+001
1	 1.620348486470660e+000	 3.901617864977486e-001	 2.261177393509225e+001
1	 1.616264669378785e+000	 4.067479080956263e-001	 2.212435914666596e+001
1	 1.611998767042638e+000	 4.233381964186860e-001	 2.164622645103942e+001
1	 1.607549968874099e+000	 4.399298503380456e-001	 2.117647415062548e+001
1	 1.602917517920016e+000	 4.565200369052302e-001	 2.071423835839518e+001
1	 1.598100712040590e+000	 4.731058925335174e-001	 2.025869504792359e+001
1	 1.593098905060033e+000	 4.896845242252110e-001	 1.980906207259681e+001
1	 1.661040430608252e+000	 3.290967148996047e-001	 2.519632828505861e+001
1	 1.657621981849287e+000	 3.459035216229360e-001	 2.461781672764205e+001
1	 1.654022348667107e+000	 3.627255999082827e-001	 2.405339707132170e+001
1	 1.650240501998774e+000	 3.795602441736897e-001	 2.350206321656088e+001
1	 1.646275462242652e+000	 3.964047121834209e-001	 2.296284202430381e+001
1	 1.642126300548912e+000	 4.132562260571145e-001	 2.243479547098070e+001
1	 1.637792140089639e+000	 4.301119733272061e-001	 2.191702278551688e+001
1	 1.633272157306602e+000	 4.469691080443441e-001	 2.140866256357034e+001
1	 1.628565583134742e+000	 4.638247519304442e-001	 2.090889485414974e+001
1	 1.623671704199419e+000	 4.806759955789353e-001	 2.041694321370283e+001
1	 1.618589863985467e+000	 4.975198997016720e-001	 1.993207672271895e+001
1	 1.687199937925307e+000	 3.342796157880200e-001	 2.573184518237176e+001
1	 1.683727652466438e+000	 3.513511107002090e-001	 2.510722363141274e+001
1	 1.680071329134671e+000	 3.684381176841904e-001	 2.449754129435274e+001
1	 1.676229922660488e+000	 3.855378885481679e-001	 2.390182581378094e+001
1	 1.672202438014640e+000	 4.026476378693090e-001	 2.331914158842696e+001
1	 1.667987931718963e+000	 4.197645440187934e-001	 2.274859194753169e+001
1	 1.663585513136496e+000	 4.368857502358879e-001	 2.218932130071772e+001
1	 1.658994345738899e+000	 4.540083657507736e-001	 2.164051725838383e+001
1	 1.654213648349210e+000	 4.711294669557572e-001	 2.110141271758646e+001
1	 1.649242696357944e+000	 4.882460986244200e-001	 2.057128790832173e+001
1	 1.644080822910571e+000	 5.053552751781691e-001	 2.004947239508578e+001
1	 1.713359445242568e+000	 3.394625166766351e-001	 2.627669212753206e+001
1	 1.709833323083724e+000	 3.567986997776795e-001	 2.560422930155853e+001
1	 1.706120309602293e+000	 3.741506354602879e-001	 2.494753583136971e+001
1	 1.702219343322184e+000	 3.915155329228228e-001	 2.430568062784642e+001
1	 1.698129413786532e+000	 4.088905635553564e-001	 2.367777338094928e+001
1	 1.693849562888844e+000	 4.262728619806097e-001	 2.306296674426400e+001
1	 1.689378886183114e+000	 4.436595271446825e-001	 2.246045848793652e+001
1	 1.684716534170896e+000	 4.610476234572876e-001	 2.186949361482844e+001
1	 1.679861713563326e+000	 4.784341819811238e-001	 2.128936643467131e+001
1	 1.674813688516081e+000	 4.958162016699257e-001	 2.071942259096474e+001
1	 1.669571781835260e+000	 5.131906506546526e-001	 2.015906103533955e+001
1	 1.739518952559972e+000	 3.446454175653835e-001	 2.682771773914222e+001
1	 1.735938993701071e+000	 3.622462888552817e-001	 2.610578613671861e+001
1	 1.732169290069892e+000	 3.798631532365110e-001	 2.540043896893016e+001
1	 1.728208763983774e+000	 3.974931772975942e-001	 2.471079363396174e+001
1	 1.724056389558237e+000	 4.151334892415066e-001	 2.403601255497578e+001
1	 1.719711194058461e+000	 4.327811799425113e-001	 2.337530536585762e+001
1	 1.715172259229400e+000	 4.504333040535404e-001	 2.272793105764752e+001
1	 1.710438722602501e+000	 4.680868811638395e-001	 2.209320008029731e+001
1	 1.705509778777000e+000	 4.857388970064985e-001	 2.147047639435429e+001
1	 1.700384680673739e+000	 5.033863047154056e-001	 2.085917946715342e+001
1	 1.695062740759450e+000	 5.210260261310729e-001	 2.025878620809302e+001
1	 1.765678459877450e+000	 3.498283184541985e-001	 2.738195739366979e+001
1	 1.762044664318403e+000	 3.676938779329496e-001	 2.660902714316118e+001
1	 1.758218270537386e+000	 3.855756710127969e-001	 2.585348332606673e+001
1	 1.754198184645169e+000	 4.034708216724215e-001	 2.511449875793770e+001
1	 1.749983365329663e+000	 4.213764149277031e-001	 2.439129574409262e+001
1	 1.745572825227723e+000	 4.392894979044454e-001	 2.368314825779423e+001
1	 1.740965632275259e+000	 4.572070809624127e-001	 2.298938407082393e+001
1	 1.736160911033618e+000	 4.751261388703825e-001	 2.230938683090440e+001
1	 1.731157843990140e+000	 4.930436120318356e-001	 2.164259808040081e+001
1	 1.725955672830830e+000	 5.109564077608136e-001	 2.098851921072628e+001
1	 1.720553699683057e+000	 5.288614016073797e-001	 2.034671334688862e+001
1	 1.465644110430824e+000	 4.505076468451837e-001	 1.919694155685705e+001
1	 1.460871727075660e+000	 4.657505827348306e-001	 1.889630319068526e+001
1	 1.455928110904371e+000	 4.809814717320294e-001	 1.860156592054628e+001
1	 1.450812825763512e+000	 4.961975768838239e-001	 1.831208307794914e+001
1	 1.445525490928912e+000	 5.113961390398313e-001	 1.802724072770504e+001
1	 1.440065782013028e+000	 5.265743781829089e-001	 1.774645900325832e+001
1	 1.434433431836373e+000	 5.417294947976459e-001	 1.746919340164488e+001
1	 1.428628231261313e+000	 5.568586712756410e-001	 1.719493603461875e+001
1	 1.422650029986620e+000	 5.719590733564495e-001	 1.692321683252053e+001
1	 1.416498737301121e+000	 5.870278516030030e-001	 1.665360469750824e+001
1	 1.410174322794896e+000	 6.020621429102250e-001	 1.638570860282565e+001
1	 1.491135069356658e+000	 4.583430223207199e-001	 1.930981145315808e+001
1	 1.486279683158418e+000	 4.738510683077294e-001	 1.898549582645349e+001
1	 1.481250086007147e+000	 4.893468578788444e-001	 1.866796027791751e+001
1	 1.476045834163695e+000	 5.048276064791276e-001	 1.835653270078925e+001
1	 1.470666540282229e+000	 5.202905069701495e-001	 1.805057336637605e+001
1	 1.465111874333372e+000	 5.357327309837993e-001	 1.774947628998543e+001
1	 1.459381564490777e+000	 5.511514303145783e-001	 1.745267055720270e+001
1	 1.453475397979445e+000	 5.665437383493174e-001	 1.715962160700309e+001
1	 1.447393221884075e+000	 5.819067715331873e-001	 1.686983246821970e+001
1	 1.441134943915833e+000	 5.972376308707768e-001	 1.658284494593024e+001
1	 1.434700533135920e+000	 6.125334034609495e-001	 1.629824075438096e+001
1	 1.516626028282580e+000	 4.661783977965402e-001	 1.943039136577814e+001
1	 1.511687639241224e+000	 4.819515538809139e-001	 1.907996878979570e+001
1	 1.506572061109939e+000	 4.977122440259598e-001	 1.873717153849752e+001
1	 1.501278842563869e+000	 5.134576360747547e-001	 1.840131898554687e+001
1	 1.495807589635517e+000	 5.291848749008191e-001	 1.807176296998424e+001
1	 1.490157966653669e+000	 5.448910837850698e-001	 1.774788917279510e+001
1	 1.484329697145122e+000	 5.605733658319159e-001	 1.742911845343217e+001
1	 1.478322564697501e+000	 5.762288054234166e-001	 1.711490814274901e+001
1	 1.472136413781435e+000	 5.918544697103531e-001	 1.680475328883412e+001
1	 1.465771150530427e+000	 6.074474101389680e-001	 1.649818785227811e+001
1	 1.459226743476797e+000	 6.230046640120598e-001	 1.619478584746195e+001
1	 1.542116987208505e+000	 4.740137732725954e-001	 1.955565142061568e+001
1	 1.537095595323997e+000	 4.900520394543282e-001	 1.917686131816208e+001
1	 1.531894036212673e+000	 5.060776301733111e-001	 1.880651865516133e+001
1	 1.526511850963969e+000	 5.220876656706314e-001	 1.844395047679853e+001
1	 1.520948638988720e+000	 5.380792428317555e-001	 1.808851680827153e+001
1	 1.515204058973875e+000	 5.540494365866256e-001	 1.773961202252786e+001
1	 1.509277829799371e+000	 5.699953013495547e-001	 1.739666616648370e+001
1	 1.503169731415458e+000	 5.859138724978268e-001	 1.705914624216807e+001
1	 1.496879605678688e+000	 6.018021678878297e-001	 1.672655743927100e+001
1	 1.490407357144906e+000	 6.176571894074572e-001	 1.639844431562216e+001
1	 1.483752953817541e+000	 6.334759245634387e-001	 1.607439192218534e+001
1	 1.567607946134350e+000	 4.818491487488354e-001	 1.968275881936409e+001
1	 1.562503551406660e+000	 4.981525250279171e-001	 1.927349872506877e+001
1	 1.557216011315279e+000	 5.144430163208340e-001	 1.887349496740024e+001
1	 1.551744859363929e+000	 5.307176952666832e-001	 1.848209777389260e+001
1	 1.546089688341783e+000	 5.469736107628745e-001	 1.809869127982811e+001
1	 1.540250151293942e+000	 5.632077893883718e-001	 1.772269486814286e+001
1	 1.534225962453488e+000	 5.794172368673900e-001	 1.735356446528662e+001
1	 1.528016898133288e+000	 5.955989395724354e-001	 1.699079378948428e+001
1	 1.521622797575823e+000	 6.117498660655001e-001	 1.663391554788900e+001
1	 1.515043563759269e+000	 6.278669686761254e-001	 1.628250257917088e+001
1	 1.508279164158169e+000	 6.439471851149696e-001	 1.593616893815151e+001
1	 1.593098905060033e+000	 4.896845242252110e-001	 1.980906207259681e+001
1	 1.587911507489136e+000	 5.062530106016241e-001	 1.936737751320892e+001
1	 1.582537986417684e+000	 5.228084024684645e-001	 1.893575424963931e+001
1	 1.576977867763687e+000	 5.393477248628366e-001	 1.851358056586757e+001
1	 1.571230737694647e+000	 5.558679786940914e-001	 1.810027998114053e+001
1	 1.565296243613825e+000	 5.723661421902139e-001	 1.769531254348267e+001
1	 1.559174095107435e+000	 5.888391723853176e-001	 1.729817607560156e+001
1	 1.552864064850969e+000	 6.052840066471303e-001	 1.690840736965808e+001
1	 1.546365989472827e+000	 6.216975642432467e-001	 1.652558332742308e+001
1	 1.539679770373518e+000	 6.380767479448533e-001	 1.614932204240639e+001
1	 1.532805374498695e+000	 6.544184456665354e-001	 1.577928382061883e+001
1	 1.618589863985467e+000	 4.975198997016720e-001	 1.993207672271895e+001
1	 1.613319463571345e+000	 5.143534961753936e-001	 1.945615189427353e+001
1	 1.607859961519817e+000	 5.311737886161386e-001	 1.899109807789416e+001
1	 1.602210876163177e+000	 5.479777544590171e-001	 1.853635589148267e+001
1	 1.596371787047260e+000	 5.647623466253220e-001	 1.809140290303378e+001
1	 1.590342335933476e+000	 5.815244949920563e-001	 1.765575485959494e+001
1	 1.584122227761178e+000	 5.982611079032335e-001	 1.722896686405366e+001
1	 1.577711231568475e+000	 6.149690737218001e-001	 1.681063449626190e+001
1	 1.571109181369688e+000	 6.316452624209524e-001	 1.640039487507150e+001
1	 1.564315976987654e+000	 6.482865272135218e-001	 1.599792765793078e+001
1	 1.557331584839137e+000	 6.648897062180198e-001	 1.560295597478097e+001
1	 1.644080822910571e+000	 5.053552751781691e-001	 2.004947239508578e+001
1	 1.638727419653209e+000	 5.224539817491696e-001	 1.953762156280826e+001
1	 1.633181936621605e+000	 5.395391747637919e-001	 1.903746437168392e+001
1	 1.627443884562336e+000	 5.566077840551512e-001	 1.854850749139567e+001
1	 1.621512836399563e+000	 5.736567145564816e-001	 1.807029663214802e+001
1	 1.615388428252850e+000	 5.906828477938049e-001	 1.760241769130458e+001
1	 1.609070360414681e+000	 6.076830434210331e-001	 1.714449784229848e+001
1	 1.602558398285783e+000	 6.246541407963322e-001	 1.669620656238223e+001
1	 1.595852373266393e+000	 6.415929605984999e-001	 1.625725659586335e+001
1	 1.588952183601679e+000	 6.584963064820117e-001	 1.582740484956357e+001
1	 1.581857795179509e+000	 6.753609667693055e-001	 1.540645321734249e+001
1	 1.669571781835260e+000	 5.131906506546526e-001	 2.015906103533955e+001
1	 1.664135375734650e+000	 5.305544673228969e-001	 1.960972059007976e+001
1	 1.658503911722976e+000	 5.479045609113603e-001	 1.907291698559401e+001
1	 1.652676892961098e+000	 5.652378136511652e-001	 1.854823613576403e+001
1	 1.646653885751501e+000	 5.825510824874859e-001	 1.803530545003624e+001
1	 1.640434520571898e+000	 5.998412005953645e-001	 1.753379488032527e+001
1	 1.634018493067907e+000	 6.171049789386121e-001	 1.704341790366865e+001
1	 1.627405565002866e+000	 6.343392078706147e-001	 1.656393243727338e+001
1	 1.620595565162932e+000	 6.515406587757719e-001	 1.609514168269272e+001
1	 1.613588390215593e+000	 6.687060857502039e-001	 1.563689489598070e+001
1	 1.606384005519828e+000	 6.858322273202755e-001	 1.518908808079380e+001
1	 1.695062740759450e+000	 5.210260261310729e-001	 2.025878620809302e+001
1	 1.689543331815590e+000	 5.386549528965192e-001	 1.967050732005014e+001
1	 1.683825886823860e+000	 5.562699470587799e-001	 1.909563623999362e+001
1	 1.677909901359400e+000	 5.738678432469843e-001	 1.853385082458777e+001
1	 1.671794935103017e+000	 5.914454504182500e-001	 1.798487323539143e+001
1	 1.665480612890576e+000	 6.089995533966403e-001	 1.744847086895418e+001
1	 1.658966625720819e+000	 6.265269144558662e-001	 1.692445721519375e+001
1	 1.652252731719701e+000	 6.440242749445355e-001	 1.641269264078649e+001
1	 1.645338757059289e+000	 6.614883569526509e-001	 1.591308509442012e+001
1	 1.638224596829399e+000	 6.789158650179793e-001	 1.542559073088856e+001
1	 1.630910215860108e+000	 6.963034878708130e-001	 1.495021445115189e+001
1	 1.720553699683057e+000	 5.288614016073797e-001	 2.034671334688862e+001
1	 1.714951287895950e+000	 5.467554384699808e-001	 1.971815516353193e+001
1	 1.709147861924183e+000	 5.646353332059860e-001	 1.910391029350942e+001
1	 1.703142909757176e+000	 5.824978728425351e-001	 1.850376077028352e+001
1	 1.696935984454057e+000	 6.003398183486900e-001	 1.791753608611205e+001
1	 1.690526705208835e+000	 6.181579061975373e-001	 1.734511398858227e+001
1	 1.683914758373382e+000	 6.359488499726911e-001	 1.678642119702569e+001
1	 1.677099898436262e+000	 6.537093420179821e-001	 1.624143403565276e+001
1	 1.670081948955454e+000	 6.714360551290194e-001	 1.571017898038731e+001
1	 1.662860803443095e+000	 6.891256442852184e-001	 1.519273311653465e+001
1	 1.655436426200365e+000	 7.067747484208016e-001	 1.468922450458347e+001
1	 1.410174322794896e+000	 6.020621429102250e-001	 1.638570860282565e+001
1	 1.403677804762223e+000	 6.170568256895567e-001	 1.611926331857180e+001
1	 1.397008340587419e+000	 6.320112737763581e-001	 1.585399585340100e+001
1	 1.390166085595247e+000	 6.469225945203407e-001	 1.558968270688740e+001
1	 1.383151257758930e+000	 6.617878879772692e-001	 1.532613853210573e+001
1	 1.375964138175143e+000	 6.766042485600979e-001	 1.506321665917325e+001
1	 1.368605071488112e+000	 6.913687667140008e-001	 1.480080955268008e+001
1	 1.361074466261639e+000	 7.060785306134997e-001	 1.453884920106269e+001
1	 1.353372795297910e+000	 7.207306278798588e-001	 1.427730743611691e+001
1	 1.345500595902038e+000	 7.353221473168310e-001	 1.401619618099535e+001
1	 1.337458470091355e+000	 7.498501806627994e-001	 1.375556762519256e+001
1	 1.434700533135920e+000	 6.125334034609495e-001	 1.629824075438096e+001
1	 1.428091025549134e+000	 6.277888786388084e-001	 1.601562012820340e+001
1	 1.421305563884740e+000	 6.430034193492565e-001	 1.573458881645626e+001
1	 1.414344306168952e+000	 6.581740826320957e-001	 1.545492296275564e+001
1	 1.407207474166046e+000	 6.732979181063205e-001	 1.517643646783025e+001
1	 1.399895353861613e+000	 6.883719696499761e-001	 1.489898148749595e+001
1	 1.392408295894034e+000	 7.033932771043159e-001	 1.462244886449713e+001
1	 1.384746715932977e+000	 7.183588780004508e-001	 1.434676849232820e+001
1	 1.376911095003749e+000	 7.332658093066115e-001	 1.407190960929053e+001
1	 1.368901979756440e+000	 7.481111091940828e-001	 1.379788102119181e+001
1	 1.360719982678853e+000	 7.628918188198210e-001	 1.352473125125155e+001
1	 1.459226743476797e+000	 6.230046640120598e-001	 1.619478584746195e+001
1	 1.452504246335858e+000	 6.385209315883906e-001	 1.589401985748592e+001
1	 1.445602787181828e+000	 6.539955649224104e-001	 1.559537021270973e+001
1	 1.438522526742372e+000	 6.694255707440153e-001	 1.529861680691370e+001
1	 1.431263690572821e+000	 6.848079482354361e-001	 1.500357687107983e+001
1	 1.423826569547684e+000	 7.001396907398114e-001	 1.471010544079739e+001
1	 1.416211520299499e+000	 7.154177874944814e-001	 1.441809575747475e+001
1	 1.408418965603801e+000	 7.306392253871504e-001	 1.412747960153794e+001
1	 1.400449394709020e+000	 7.458009907330195e-001	 1.383822755593973e+001
1	 1.392303363610223e+000	 7.609000710709124e-001	 1.355034919845584e+001
1	 1.383981495265687e+000	 7.759334569763623e-001	 1.326389322140363e+001
1	 1.483752953817541e+000	 6.334759245634387e-001	 1.607439192218534e+001
1	 1.476917467122426e+000	 6.492529845381935e-001	 1.575374899124827e+001
1	 1.469900010478731e+000	 6.649877104957208e-001	 1.543586377377875e+001
1	 1.462700747315572e+000	 6.806770588560147e-001	 1.512052395294032e+001
1	 1.455319906979338e+000	 6.963179783645463e-001	 1.480755410488180e+001
1	 1.447757785233454e+000	 7.119074118295533e-001	 1.449681613063039e+001
1	 1.440014744704620e+000	 7.274422978844636e-001	 1.418820962169332e+001
1	 1.432091215274239e+000	 7.429195727735806e-001	 1.388167215762407e+001
1	 1.423987694413863e+000	 7.583361721590806e-001	 1.357717953395431e+001
1	 1.415704747463540e+000	 7.736890329473285e-001	 1.327474591904708e+001
1	 1.407243007852023e+000	 7.889750951324396e-001	 1.297442393858689e+001
1	 1.508279164158169e+000	 6.439471851149696e-001	 1.593616893815151e+001
1	 1.501330687908871e+000	 6.599850374881072e-001	 1.559414042435243e+001
1	 1.494197233775495e+000	 6.759798560690888e-001	 1.525562420978142e+001
1	 1.486878967888615e+000	 6.919285469680097e-001	 1.492041974365247e+001
1	 1.479376123385674e+000	 7.078280084935836e-001	 1.458836289891153e+001
1	 1.471689000919019e+000	 7.236751329191492e-001	 1.425932636372766e+001
1	 1.463817969109509e+000	 7.394668082742285e-001	 1.393321996655995e+001
1	 1.455763464944417e+000	 7.551999201597240e-001	 1.360999093313922e+001
1	 1.447525994118421e+000	 7.708713535847911e-001	 1.328962407385272e+001
1	 1.439106131316547e+000	 7.864779948233394e-001	 1.297214190017453e+001
1	 1.430504520438026e+000	 8.020167332880692e-001	 1.265760466894699e+001
1	 1.532805374498695e+000	 6.544184456665354e-001	 1.577928382061883e+001
1	 1.525743908695221e+000	 6.707170904380223e-001	 1.541456974869110e+001
1	 1.518494457072168e+000	 6.869720016424157e-001	 1.505423473092349e+001
1	 1.511057188461564e+000	 7.031800350799156e-001	 1.469809390069960e+001
1	 1.503432339791911e+000	 7.193380386224789e-001	 1.434599832015976e+001
1	 1.495620216604477e+000	 7.354428540085495e-001	 1.399783532645217e+001
1	 1.487621193514281e+000	 7.514913186637426e-001	 1.365352881139210e+001
1	 1.479435714614465e+000	 7.674802675455639e-001	 1.331303943296139e+001
1	 1.471064293822835e+000	 7.834065350101486e-001	 1.297636475723052e+001
1	 1.462507515169399e+000	 7.992669566989542e-001	 1.264353932944310e+001
1	 1.453766033023863e+000	 8.150583714432672e-001	 1.231463467316614e+001
1	 1.557331584839137e+000	 6.648897062180198e-001	 1.560295597478097e+001
1	 1.550157129481510e+000	 6.814491433878283e-001	 1.521445189103868e+001
1	 1.542791680368797e+000	 6.979641472156025e-001	 1.483130480327842e+001
1	 1.535235409034484e+000	 7.144315231916468e-001	 1.445334939231265e+001
1	 1.527488556198130e+000	 7.308480687511643e-001	 1.408045574637191e+001
1	 1.519551432289924e+000	 7.472105750977020e-001	 1.371252965732506e+001
1	 1.511424417919046e+000	 7.635158290529712e-001	 1.334951285010753e+001
1	 1.503107964284511e+000	 7.797606149310816e-001	 1.299138314389070e+001
1	 1.494602593527249e+000	 7.959417164351500e-001	 1.263815454367799e+001
1	 1.485908899022250e+000	 8.120559185741813e-001	 1.228987726117289e+001
1	 1.477027545609700e+000	 8.281000095980499e-001	 1.194663766392990e+001
1	 1.581857795179509e+000	 6.753609667693055e-001	 1.540645321734249e+001
1	 1.574570350267766e+000	 6.921811963374154e-001	 1.499323806367673e+001
1	 1.567088903665430e+000	 7.089562927885509e-001	 1.458646811334303e+001
1	 1.559413629607439e+000	 7.256830113031196e-001	 1.418600140638441e+001
1	 1.551544772604411e+000	 7.423580988795705e-001	 1.379173084195797e+001
1	 1.543482647975456e+000	 7.589782961865553e-001	 1.340358441977832e+001
1	 1.535227642323919e+000	 7.755403394418812e-001	 1.302152541453717e+001
1	 1.526780213954683e+000	 7.920409623162604e-001	 1.264555248194228e+001
1	 1.518140893231805e+000	 8.084768978597926e-001	 1.227569969517257e+001
1	 1.509310282875257e+000	 8.248448804490292e-001	 1.191203651070894e+001
1	 1.500289058195703e+000	 8.411416477524337e-001	 1.155466766266811e+001
1	 1.606384005519828e+000	 6.858322273202755e-001	 1.518908808079381e+001
1	 1.598983571054024e+000	 7.029132492866742e-001	 1.475041299436581e+001
1	 1.591386126962114e+000	 7.199484383611617e-001	 1.431938071905566e+001
1	 1.583591850180492e+000	 7.369344994142486e-001	 1.389587641762355e+001
1	 1.575600989010834e+000	 7.538681290076297e-001	 1.347981953610954e+001
1	 1.567413863661173e+000	 7.707460172750590e-001	 1.307116398579567e+001
1	 1.559030866729012e+000	 7.875648498304381e-001	 1.266989825788309e+001
1	 1.550452463625108e+000	 8.043213097010831e-001	 1.227604546964402e+001
1	 1.541679192936645e+000	 8.210120792840731e-001	 1.188966334096655e+001
1	 1.532711666728574e+000	 8.376338423235071e-001	 1.151084410037426e+001
1	 1.523550570782039e+000	 8.541832859064347e-001	 1.113971431977259e+001
1	 1.630910215860108e+000	 6.963034878708130e-001	 1.495021445115190e+001
1	 1.623396791840312e+000	 7.136453022354944e-001	 1.448549240625741e+001
1	 1.615683350258895e+000	 7.309405839333361e-001	 1.402971936764820e+001
1	 1.607770070753706e+000	 7.481859875249498e-001	 1.358281133887954e+001
1	 1.599657205417480e+000	 7.653781591352731e-001	 1.314471800289104e+001
1	 1.591345079347169e+000	 7.825137383631613e-001	 1.271542283982258e+001
1	 1.582834091134438e+000	 7.995893602186086e-001	 1.229494317725509e+001
1	 1.574124713295916e+000	 8.166016570855321e-001	 1.188333017176152e+001
1	 1.565217492641910e+000	 8.335472607079891e-001	 1.148066872081443e+001
1	 1.556113050582356e+000	 8.504228041976230e-001	 1.108707730426385e+001
1	 1.546812083368873e+000	 8.672249240600691e-001	 1.070270775477103e+001
1	 1.655436426200365e+000	 7.067747484208016e-001	 1.468922450458347e+001
1	 1.647810012626662e+000	 7.243773551837668e-001	 1.419802072182496e+001
1	 1.639980573555821e+000	 7.419327295049750e-001	 1.371717996302997e+001
1	 1.631948291327146e+000	 7.594374756351380e-001	 1.324665274790920e+001
1	 1.623713421824428e+000	 7.768881892624319e-001	 1.278642264310104e+001
1	 1.615276295033542e+000	 7.942814594508109e-001	 1.233650631121374e+001
1	 1.606637315540310e+000	 8.116138706063586e-001	 1.189695349197436e+001
1	 1.597796962967233e+000	 8.288820044695902e-001	 1.146784691450337e+001
1	 1.588755792347744e+000	 8.460824421315375e-001	 1.104930213989891e+001
1	 1.579514434436757e+000	 8.632117660713861e-001	 1.064146733348340e+001
1	 1.570073595956371e+000	 8.802665622133532e-001	 1.024452296624155e+001
1	 1.337458470091355e+000	 7.498501806627994e-001	 1.375556762519256e+001
1	 1.329245840436585e+000	 7.643139888338926e-001	 1.349360419179524e+001
1	 1.320864633725284e+000	 7.787084898909862e-001	 1.322880245369777e+001
1	 1.312315648248289e+000	 7.930307945938000e-001	 1.296163438374378e+001
1	 1.303599747304523e+000	 8.072780238044296e-001	 1.269261882817003e+001
1	 1.294717859120680e+000	 8.214473102909055e-001	 1.242232091388860e+001
1	 1.285670976711510e+000	 8.355358005343189e-001	 1.215135136375180e+001
1	 1.276460157680332e+000	 8.495406565372459e-001	 1.188036572023901e+001
1	 1.267086523959525e+000	 8.634590576311914e-001	 1.161006347824408e+001
1	 1.257551261490825e+000	 8.772882022807456e-001	 1.134118712788317e+001
1	 1.247855619845356e+000	 8.910253098821287e-001	 1.107452110848444e+001
1	 1.360719982678853e+000	 7.628918188198210e-001	 1.352473125125155e+001
1	 1.352364516298867e+000	 7.776071862455712e-001	 1.325070142664433e+001
1	 1.343837540915352e+000	 7.922520411454747e-001	 1.297432562576108e+001
1	 1.335139868703277e+000	 8.068234440286460e-001	 1.269603360078303e+001
1	 1.326272377976344e+000	 8.213184656822814e-001	 1.241630095742258e+001
1	 1.317236013105266e+000	 8.357341890065823e-001	 1.213564859432901e+001
1	 1.308031784375627e+000	 8.500677108533143e-001	 1.185464205218176e+001
1	 1.298660767784928e+000	 8.643161438656809e-001	 1.157389077286982e+001
1	 1.289124104778561e+000	 8.784766183172065e-001	 1.129404726939300e+001
1	 1.279423001924546e+000	 8.925462839472684e-001	 1.101580620735617e+001
1	 1.269558730526954e+000	 9.065223117909245e-001	 1.073990339916599e+001
1	 1.383981495265687e+000	 7.759334569763623e-001	 1.326389322140363e+001
1	 1.375483192160448e+000	 7.909003836567357e-001	 1.297715521751861e+001
1	 1.366810448104691e+000	 8.057955923994367e-001	 1.268869629004465e+001
1	 1.357964089157520e+000	 8.206160934629746e-001	 1.239889788514255e+001
1	 1.348945008647412e+000	 8.353589075596424e-001	 1.210818603290421e+001
1	 1.339754167089103e+000	 8.500210677218110e-001	 1.181703083135391e+001
1	 1.330392592039014e+000	 8.645996211719169e-001	 1.152594584238765e+001
1	 1.320861377888823e+000	 8.790916311937900e-001	 1.123548739998804e+001
1	 1.311161685596942e+000	 8.934941790029705e-001	 1.094625383128093e+001
1	 1.301294742357671e+000	 9.078043656136207e-001	 1.065888459123159e+001
1	 1.291261841208033e+000	 9.220193136996339e-001	 1.037405931200967e+001
1	 1.407243007852023e+000	 7.889750951324396e-001	 1.297442393858689e+001
1	 1.398601868021504e+000	 8.041935810674046e-001	 1.267455691062628e+001
1	 1.389783355293484e+000	 8.193391436528905e-001	 1.237372022304074e+001
1	 1.380788309611204e+000	 8.344087428967986e-001	 1.207224132820035e+001
1	 1.371617639317917e+000	 8.493993494365167e-001	 1.177049074919886e+001
1	 1.362272321072382e+000	 8.643079464365847e-001	 1.146888162056430e+001
1	 1.352753399701855e+000	 8.791315314901063e-001	 1.116786914369538e+001
1	 1.343061987992202e+000	 8.938671185215376e-001	 1.086794995727508e+001
1	 1.333199266414842e+000	 9.085117396884321e-001	 1.056966142313617e+001
1	 1.323166482790366e+000	 9.230624472797356e-001	 1.027358082827655e+001
1	 1.312964951888744e+000	 9.375163156081748e-001	 9.980324503946990e+000
1	 1.430504520438026e+000	 8.020167332880692e-001	 1.265760466894699e+001
1	 1.421720543882209e+000	 8.174867784775972e-001	 1.234439434430094e+001
1	 1.412756262481913e+000	 8.328826949058533e-001	 1.203108574591676e+001
1	 1.403612530064516e+000	 8.482013923301294e-001	 1.171794701633096e+001
1	 1.394290269988049e+000	 8.634397913129078e-001	 1.140528761771978e+001
1	 1.384790475055292e+000	 8.785948251508937e-001	 1.109345794110035e+001
1	 1.375114207364341e+000	 8.936634418078613e-001	 1.078284883356981e+001
1	 1.365262598095244e+000	 9.086426058488873e-001	 1.047389104372771e+001
1	 1.355236847232435e+000	 9.235293003735394e-001	 1.016705458564012e+001
1	 1.345038223222794e+000	 9.383205289455460e-001	 9.862848021919380e+000
1	 1.334668062569236e+000	 9.530133175164640e-001	 9.561817666708716e+000
1	 1.453766033023863e+000	 8.150583714432672e-001	 1.231463467316614e+001
1	 1.444839219742738e+000	 8.307799758873320e-001	 1.198806013007899e+001
1	 1.435729169670161e+000	 8.464262461583425e-001	 1.166237312144904e+001
1	 1.426436750517643e+000	 8.619940417629792e-001	 1.133777751187164e+001
1	 1.416962900657996e+000	 8.774802331888187e-001	 1.101451650198627e+001
1	 1.407308629038023e+000	 8.928817038647322e-001	 1.069287231763645e+001
1	 1.397475015026657e+000	 9.081953521251606e-001	 1.037316582089591e+001
1	 1.387463208198132e+000	 9.234180931758037e-001	 1.005575604297785e+001
1	 1.377274428049897e+000	 9.385468610582417e-001	 9.741039639247669e+000
1	 1.366909963655117e+000	 9.535786106109838e-001	 9.429450266763913e+000
1	 1.356371173249661e+000	 9.685103194244188e-001	 9.121457884977998e+000
1	 1.477027545609700e+000	 8.281000095980499e-001	 1.194663766392990e+001
1	 1.467957895603269e+000	 8.440731732966296e-001	 1.160685915127164e+001
1	 1.458702076858409e+000	 8.599697974103761e-001	 1.126906306301011e+001
1	 1.449260970970773e+000	 8.757866911953606e-001	 1.093338434370881e+001
1	 1.439635531327949e+000	 8.915206750642536e-001	 1.059999506289484e+001
1	 1.429826783020763e+000	 9.071685825780912e-001	 1.026910419535320e+001
1	 1.419835822688992e+000	 9.227272624419833e-001	 9.940957327621900e+000
1	 1.409663818301048e+000	 9.381935805022509e-001	 9.615836290556302e+000
1	 1.399312008867401e+000	 9.535644217424867e-001	 9.294058718021487e+000
1	 1.388781704087501e+000	 9.688366922759821e-001	 8.975977531964865e+000
1	 1.378074283930169e+000	 9.840073213319565e-001	 8.661980354315743e+000
1	 1.500289058195703e+000	 8.411416477524337e-001	 1.155466766266812e+001
1	 1.491076571463974e+000	 8.573663707055079e-001	 1.120201536395883e+001
1	 1.481674984046840e+000	 8.735133486619712e-001	 1.085254445198070e+001
1	 1.472085191424092e+000	 8.895793406272855e-001	 1.050631661497267e+001
1	 1.462308161998095e+000	 9.055611169392154e-001	 1.016342823228662e+001
1	 1.452344937003705e+000	 9.214554612909641e-001	 9.824010256716989e+000
1	 1.442196630351531e+000	 9.372591727583078e-001	 9.488228027864270e+000
1	 1.431864428404175e+000	 9.529690678281924e-001	 9.156281016230805e+000
1	 1.421349589685121e+000	 9.685819824262231e-001	 8.828402497925151e+000
1	 1.410653444520108e+000	 9.840947739404731e-001	 8.504859160030760e+000
1	 1.399777394610910e+000	 9.995043232389941e-001	 8.185950636877051e+000
1	 1.523550570782039e+000	 8.541832859064347e-001	 1.113971431977259e+001
1	 1.514195247325030e+000	 8.706595681139866e-001	 1.077467797495909e+001
1	 1.504647891235637e+000	 8.870568999131455e-001	 1.041412134818708e+001
1	 1.494909411877786e+000	 9.033719900587659e-001	 1.005802882220047e+001
1	 1.484980792668627e+000	 9.196015588137076e-001	 9.706416818662143e+000
1	 1.474863090987035e+000	 9.357423400033417e-001	 9.359333793162477e+000
1	 1.464557438014463e+000	 9.517910830741139e-001	 9.016860166584161e+000
1	 1.454065038507694e+000	 9.677445551535929e-001	 8.679108192332988e+000
1	 1.443387170503232e+000	 9.835995431093992e-001	 8.346221759105635e+000
1	 1.432525184953105e+000	 9.993528556043897e-001	 8.018376129031472e+000
1	 1.421480505292034e+000	 1.015001325145448e+000	 7.695777611192996e+000
1	 1.546812083368873e+000	 8.672249240600691e-001	 1.070270775477103e+001
1	 1.537313923186612e+000	 8.839527655220844e-001	 1.032592706236045e+001
1	 1.527620798424980e+000	 9.006004511639167e-001	 9.955019367785507e+000
1	 1.517733632332044e+000	 9.171646394898141e-001	 9.589887968975283e+000
1	 1.507653423339732e+000	 9.336420006877344e-001	 9.230465336401558e+000
1	 1.497381244970944e+000	 9.500292187152168e-001	 8.876713231166807e+000
1	 1.486918245677973e+000	 9.663229933893792e-001	 8.528622765254182e+000
1	 1.476265648611787e+000	 9.825200424784158e-001	 8.186214403239339e+000
1	 1.465424751321909e+000	 9.986171037919641e-001	 7.849537904909509e+000
1	 1.454396925386652e+000	 1.014610937267665e+000	 7.518672208385206e+000
1	 1.443183615973692e+000	 1.030498327051237e+000	 7.193725253492045e+000
1	 1.570073595956371e+000	 8.802665622133532e-001	 1.024452296624155e+001
1	 1.560432599048893e+000	 8.972459629298201e-001	 9.856778696423580e+000
1	 1.550593705615053e+000	 9.141440024143019e-001	 9.476391494195209e+000
1	 1.540557852787052e+000	 9.309572889204422e-001	 9.103180047209902e+000
1	 1.530326054011600e+000	 9.476824425612989e-001	 8.736989139019061e+000
1	 1.519899398955622e+000	 9.643160974265818e-001	 8.377689900412664e+000
1	 1.509279053342250e+000	 9.808549037040831e-001	 8.025180009202813e+000
1	 1.498466258716638e+000	 9.972955298026260e-001	 7.679383837521070e+000
1	 1.487462332141325e+000	 1.013634664473865e+000	 7.340252545828570e+000
1	 1.476268665820915e+000	 1.029869018930230e+000	 7.007764122970281e+000
1	 1.464886726656035e+000	 1.045995328956277e+000	 6.681923371740275e+000
1	 1.247855619845356e+000	 8.910253098821287e-001	 1.107452110848443e+001
1	 1.238000911431365e+000	 9.046676222522669e-001	 1.080538160864496e+001
1	 1.227988509947546e+000	 9.182124044861023e-001	 1.052913875612688e+001
1	 1.217819850897685e+000	 9.316569475974837e-001	 1.024671991170377e+001
1	 1.207496431328260e+000	 9.449985705706225e-001	 9.959093079575137e+000
1	 1.197019809152552e+000	 9.582346220975364e-001	 9.667265608211270e+000
1	 1.186391602416225e+000	 9.713624822960134e-001	 9.372282813363833e+000
1	 1.175613488505012e+000	 9.843795644057992e-001	 9.075226525596072e+000
1	 1.164687203295262e+000	 9.972833164607429e-001	 8.777213564892284e+000
1	 1.153614540248221e+000	 1.010071222934661e+000	 8.479394145107539e+000
1	 1.142397349448981e+000	 1.022740806358721e+000	 8.182950211211578e+000
1	 1.269558730526954e+000	 9.065223117909245e-001	 1.073990339916599e+001
1	 1.259532625819865e+000	 9.204018956938826e-001	 1.046165796860086e+001
1	 1.249346085393796e+000	 9.341822531847158e-001	 1.017650267938340e+001
1	 1.239000569719292e+000	 9.478606281616913e-001	 9.885410600868532e+000
1	 1.228497601879959e+000	 9.614342929799052e-001	 9.589402534351027e+000
1	 1.217838766884827e+000	 9.749005502189513e-001	 9.289545627676702e+000
1	 1.207025710921144e+000	 9.882567344307593e-001	 8.986951898424326e+000
1	 1.196060140548291e+000	 1.001500213865284e+000	 8.682776668150957e+000
1	 1.184943821833555e+000	 1.014628392171736e+000	 8.378216910436272e+000
1	 1.173678579430655e+000	 1.027638710073067e+000	 8.074509515697372e+000
1	 1.162266295601971e+000	 1.040528647011485e+000	 7.772929475973506e+000
1	 1.291261841208033e+000	 9.220193136996339e-001	 1.037405931200967e+001
1	 1.281064340207938e+000	 9.361361691354978e-001	 1.008720884507209e+001
1	 1.270703660839725e+000	 9.501521018834158e-001	 9.793923533718496e+000
1	 1.260181288540694e+000	 9.640643087260686e-001	 9.495192260337788e+000
1	 1.249498772431579e+000	 9.778700153894413e-001	 9.192056824308155e+000
1	 1.238657724617147e+000	 9.915664783407002e-001	 8.885610515241813e+000
1	 1.227659819426233e+000	 1.005150986565916e+000	 8.576996584764300e+000
1	 1.216506792591863e+000	 1.018620863325253e+000	 8.267406619380354e+000
1	 1.205200440372255e+000	 1.031973467883280e+000	 7.958078817247658e+000
1	 1.193742618613598e+000	 1.045206197212085e+000	 7.650296171941836e+000
1	 1.182135241755561e+000	 1.058316487664915e+000	 7.345384566550233e+000
1	 1.312964951888744e+000	 9.375163156081748e-001	 9.980324503946990e+000
1	 1.302596054595719e+000	 9.518704425770157e-001	 9.685511890027001e+000
1	 1.292061236285450e+000	 9.661219505820893e-001	 9.384954559113831e+000
1	 1.281362007361988e+000	 9.802679892904931e-001	 9.079628753495443e+000
1	 1.270499942983189e+000	 9.943057377990964e-001	 8.770566980266526e+000
1	 1.259476682349561e+000	 1.008232406462639e+000	 8.458856586839934e+000
1	 1.248293927931517e+000	 1.022045238701332e+000	 8.145638228419827e+000
1	 1.236953444635726e+000	 1.035741512785547e+000	 7.832104229970466e+000
1	 1.225457058911339e+000	 1.049318543595212e+000	 7.519496845499826e+000
1	 1.213806657797006e+000	 1.062773684351549e+000	 7.209106417756607e+000
1	 1.202004187909683e+000	 1.076104328318845e+000	 6.902269441711123e+000
1	 1.334668062569236e+000	 9.530133175164640e-001	 9.561817666708716e+000
1	 1.324127768983342e+000	 9.676047160183382e-001	 9.259818554277246e+000
1	 1.313418811731085e+000	 9.820917992806265e-001	 8.952917877831380e+000
1	 1.302542726183266e+000	 9.964716698548412e-001	 8.642052135014929e+000
1	 1.291501113534862e+000	 1.010741460208737e+000	 8.328215660788779e+000
1	 1.280295640082116e+000	 1.024898334584625e+000	 8.012459247687369e+000
1	 1.268928036437022e+000	 1.038939490836855e+000	 7.695888654839824e+000
1	 1.257400096679885e+000	 1.052862162246009e+000	 7.379663008193591e+000
1	 1.245713677450784e+000	 1.066663619307370e+000	 7.064993094672154e+000
1	 1.233870696980833e+000	 1.080341171491293e+000	 6.753139553287007e+000
1	 1.221873134064270e+000	 1.093892168973107e+000	 6.445410966504046e+000
1	 1.356371173249661e+000	 9.685103194244188e-001	 9.121457884977998e+000
1	 1.345659483370942e+000	 9.833389894593682e-001	 8.813172184547259e+000
1	 1.334776387176746e+000	 9.980616479789166e-001	 8.500922984829101e+000
1	 1.323723445004623e+000	 1.012675350418991e+000	 8.185581196557314e+000
1	 1.312502284086669e+000	 1.027177182618228e+000	 7.868075422946983e+000
1	 1.301114597814863e+000	 1.041564262706513e+000	 7.549390666094753e+000
1	 1.289562144942771e+000	 1.055833742972335e+000	 7.230566922238162e+000
1	 1.277846748724337e+000	 1.069982811706480e+000	 6.912697668140667e+000
1	 1.265970295990567e+000	 1.084008695019590e+000	 6.596928241163147e+000
1	 1.253934736165034e+000	 1.097908658631153e+000	 6.284454115870396e+000
1	 1.241742080219257e+000	 1.111680009627535e+000	 5.976519080302224e+000
1	 1.378074283930169e+000	 9.840073213319565e-001	 8.661980354315745e+000
1	 1.367191197758651e+000	 9.990732629000086e-001	 8.348424410493486e+000
1	 1.356133962622546e+000	 1.014031496676848e+000	 8.031883490957926e+000
1	 1.344904163826153e+000	 1.028879030982817e+000	 7.713138260026591e+000
1	 1.333503454638683e+000	 1.043612905027437e+000	 7.393025266626188e+000
1	 1.321933555547848e+000	 1.058230190828161e+000	 7.072435777223409e+000
1	 1.310196253448787e+000	 1.072727995107619e+000	 6.752314500922380e+000
1	 1.298293400769084e+000	 1.087103461166803e+000	 6.433658208751234e+000
1	 1.286226914530664e+000	 1.101353770731710e+000	 6.117514249444843e+000
1	 1.273998775349563e+000	 1.115476145770962e+000	 5.804978964310831e+000
1	 1.261611026374577e+000	 1.129467850281964e+000	 5.497196004039222e+000
1	 1.399777394610910e+000	 9.995043232389941e-001	 8.185950636877051e+000
1	 1.388722912146604e+000	 1.014807536340161e+000	 7.868250007269906e+000
1	 1.377491538068603e+000	 1.030001345374311e+000	 7.548532308570487e+000
1	 1.366084882647951e+000	 1.045082711546199e+000	 7.227464408580063e+000
1	 1.354504625190976e+000	 1.060048627436228e+000	 6.905765639742342e+000
1	 1.342752513281120e+000	 1.074896118949426e+000	 6.584206798042092e+000
1	 1.330830361955098e+000	 1.089622247242557e+000	 6.263609040518325e+000
1	 1.318740052814126e+000	 1.104224110626819e+000	 5.944842683097752e+000
1	 1.306483533071053e+000	 1.118698846443568e+000	 5.628825900721890e+000
1	 1.294062814534374e+000	 1.133043632910556e+000	 5.316523332004245e+000
1	 1.281479972530163e+000	 1.147255690936225e+000	 5.008944590912496e+000
1	 1.421480505292034e+000	 1.015001325145448e+000	 7.695777611192996e+000
1	 1.410254626534935e+000	 1.030541809779729e+000	 7.375160396567154e+000
1	 1.398849113515031e+000	 1.045971194071194e+000	 7.053435446010111e+000
1	 1.387265601470111e+000	 1.061286392109012e+000	 6.731133322359776e+000
1	 1.375505795743618e+000	 1.076484349844469e+000	 6.408832068865562e+000
1	 1.363571471014727e+000	 1.091562047070162e+000	 6.087156412600935e+000
1	 1.351464470461725e+000	 1.106516499376995e+000	 5.766776876009651e+000
1	 1.339186704859462e+000	 1.121344760086371e+000	 5.448408797904121e+000
1	 1.326740151611712e+000	 1.136043922155000e+000	 5.132811265476161e+000
1	 1.314126853719423e+000	 1.150611120049767e+000	 4.820785959119384e+000
1	 1.301348918685950e+000	 1.165043531590152e+000	 4.513175912097394e+000
1	 1.443183615973692e+000	 1.030498327051237e+000	 7.193725253492046e+000
1	 1.431786340923777e+000	 1.046276083218615e+000	 6.871515929450817e+000
1	 1.420206688961944e+000	 1.061941042767387e+000	 6.549004557421010e+000
1	 1.408446320292726e+000	 1.077490072671134e+000	 6.226563865823831e+000
1	 1.396506966296683e+000	 1.092920072252026e+000	 5.904607559950335e+000
1	 1.384390428748719e+000	 1.108227975190228e+000	 5.583589767596140e+000
1	 1.372098578968695e+000	 1.123410751510783e+000	 5.264004405355744e+000
1	 1.359633356905095e+000	 1.138465409545300e+000	 4.946384466437964e+000
1	 1.346996770152616e+000	 1.153388997865844e+000	 4.631301231071980e+000
1	 1.334190892904664e+000	 1.168178607188432e+000	 4.319363400780596e+000
1	 1.321217864841871e+000	 1.182831372243579e+000	 4.011216158001013e+000
1	 1.464886726656035e+000	 1.045995328956277e+000	 6.681923371740275e+000
1	 1.453318055313266e+000	 1.062010356656721e+000	 6.359537077337363e+000
1	 1.441564264409459e+000	 1.077910891462778e+000	 6.037508376964010e+000
1	 1.429627039115891e+000	 1.093693753232441e+000	 5.716031556147933e+000
1	 1.417508136850242e+000	 1.109355794658762e+000	 5.395333896723517e+000
1	 1.405209386483143e+000	 1.124893903309479e+000	 5.075675401609021e+000
1	 1.392732687476031e+000	 1.140305003643770e+000	 4.757348455715190e+000
1	 1.380080008951025e+000	 1.155586059003449e+000	 4.440677423321187e+000
1	 1.367253388693743e+000	 1.170734073575938e+000	 4.126018182420809e+000
1	 1.354254932090050e+000	 1.185746094326383e+000	 3.813757596708614e+000
1	 1.341086810997859e+000	 1.200619212896339e+000	 3.504312926040796e+000
1	 1.142397349448981e+000	 1.022740806358721e+000	 8.182950211211578e+000
1	 1.131039251243886e+000	 1.035287756015926e+000	 7.885484705346374e+000
1	 1.119540534113931e+000	 1.047711586446118e+000	 7.584071408793771e+000
1	 1.107903211781769e+000	 1.060009945786597e+000	 7.279256498797413e+000
1	 1.096129350166033e+000	 1.072180526369110e+000	 6.971588806976555e+000
1	 1.084221066161063e+000	 1.084221066161063e+000	 6.661619296921330e+000
1	 1.072180526369110e+000	 1.096129350166033e+000	 6.349900538546228e+000
1	 1.060009945786597e+000	 1.107903211781770e+000	 6.036986180116736e+000
1	 1.047711586446118e+000	 1.119540534113932e+000	 5.723430418869226e+000
1	 1.035287756015926e+000	 1.131039251243886e+000	 5.409787471147257e+000
1	 1.022740806358721e+000	 1.142397349448981e+000	 5.096611042978809e+000
1	 1.162266295601971e+000	 1.040528647011485e+000	 7.772929475973508e+000
1	 1.150710653660098e+000	 1.053293817296594e+000	 7.470609272723383e+000
1	 1.139011947103368e+000	 1.065933727024969e+000	 7.164073450534035e+000
1	 1.127172224677734e+000	 1.078445983429568e+000	 6.853849062547292e+000
1	 1.115193588232937e+000	 1.090828238706443e+000	 6.540464776758158e+000
1	 1.103078191481013e+000	 1.103078191481013e+000	 6.224450413569375e+000
1	 1.090828238706443e+000	 1.115193588232937e+000	 5.906336482068569e+000
1	 1.078445983429568e+000	 1.127172224677734e+000	 5.586653715802458e+000
1	 1.065933727024968e+000	 1.139011947103368e+000	 5.265932608822633e+000
1	 1.053293817296594e+000	 1.150710653660097e+000	 4.944702952775961e+000
1	 1.040528647011485e+000	 1.162266295601972e+000	 4.623493375810239e+000
1	 1.182135241755561e+000	 1.058316487664915e+000	 7.345384566550232e+000
1	 1.170382056076979e+000	 1.071299878577974e+000	 7.039876705806409e+000
1	 1.158483360093529e+000	 1.084155867604568e+000	 6.729676935054987e+000
1	 1.146441237574461e+000	 1.096882021073315e+000	 6.415337513176443e+000
1	 1.134257826300627e+000	 1.109475951044568e+000	 6.097412417721683e+000
1	 1.121935316801759e+000	 1.121935316801759e+000	 5.776456857077432e+000
1	 1.109475951044568e+000	 1.134257826300627e+000	 5.453026781341402e+000
1	 1.096882021073315e+000	 1.146441237574461e+000	 5.127678392725482e+000
1	 1.084155867604569e+000	 1.158483360093529e+000	 4.800967656307551e+000
1	 1.071299878577974e+000	 1.170382056076979e+000	 4.473449811949652e+000
1	 1.058316487664915e+000	 1.182135241755561e+000	 4.145678888197253e+000
1	 1.202004187909683e+000	 1.076104328318845e+000	 6.902269441711123e+000
1	 1.190053458494446e+000	 1.089305939859901e+000	 6.594837461899080e+000
1	 1.177954773084311e+000	 1.102378008184755e+000	 6.282068618916338e+000
1	 1.165710250471834e+000	 1.115318058717681e+000	 5.964582324697843e+000
1	 1.153322064368974e+000	 1.128123663383335e+000	 5.643000920226047e+000
1	 1.140792442123159e+000	 1.140792442123158e+000	 5.317949079386369e+000
1	 1.128123663383335e+000	 1.153322064368973e+000	 4.990053209589378e+000
1	 1.115318058717681e+000	 1.165710250471834e+000	 4.659940850205482e+000
1	 1.102378008184754e+000	 1.177954773084312e+000	 4.328240069863900e+000
1	 1.089305939859901e+000	 1.190053458494445e+000	 3.995578863668464e+000
1	 1.076104328318845e+000	 1.202004187909682e+000	 3.662584551383617e+000
1	 1.221873134064270e+000	 1.093892168973107e+000	 6.445410966504046e+000
1	 1.209724860912411e+000	 1.107312001142208e+000	 6.136941150021441e+000
1	 1.197426186075614e+000	 1.120600148765364e+000	 5.822358067025112e+000
1	 1.184979263369735e+000	 1.133754096362508e+000	 5.502388002265029e+000
1	 1.172386302437845e+000	 1.146771375722591e+000	 5.177762452088637e+000
1	 1.159649567445070e+000	 1.159649567445070e+000	 4.849217339333756e+000
1	 1.146771375722591e+000	 1.172386302437845e+000	 4.517492221162197e+000
1	 1.133754096362507e+000	 1.184979263369735e+000	 4.183329491284962e+000
1	 1.120600148765364e+000	 1.197426186075614e+000	 3.847473578043344e+000
1	 1.107312001142208e+000	 1.209724860912411e+000	 3.510670139820652e+000
1	 1.093892168973107e+000	 1.221873134064270e+000	 3.173665259263693e+000
1	 1.241742080219257e+000	 1.111680009627535e+000	 5.976519080302223e+000
1	 1.229396263330790e+000	 1.125318062424730e+000	 5.667544599208106e+000
1	 1.216897599067334e+000	 1.138822289346235e+000	 5.351583828301047e+000
1	 1.204248276268045e+000	 1.152190134007636e+000	 5.029507559922652e+000
1	 1.191450540507110e+000	 1.165419088062188e+000	 4.702195120548463e+000
1	 1.178506692767354e+000	 1.178506692767353e+000	 4.370533318189321e+000
1	 1.165419088062188e+000	 1.191450540507110e+000	 4.035415377067785e+000
1	 1.152190134007636e+000	 1.204248276268046e+000	 3.697739861597954e+000
1	 1.138822289346235e+000	 1.216897599067333e+000	 3.358409591725631e+000
1	 1.125318062424730e+000	 1.229396263330790e+000	 3.018330551705349e+000
1	 1.111680009627535e+000	 1.241742080219257e+000	 2.678410794406784e+000
1	 1.261611026374577e+000	 1.129467850281964e+000	 5.497196004039222e+000
1	 1.249067665749498e+000	 1.143324123707302e+000	 5.187919164407016e+000
1	 1.236369012059369e+000	 1.157044429927205e+000	 4.870719027783835e+000
1	 1.223517289166649e+000	 1.170626171652911e+000	 4.546646575239908e+000
1	 1.210514778576640e+000	 1.184066800401973e+000	 4.216765654343850e+000
1	 1.197363818089865e+000	 1.197363818089865e+000	 3.882151582533363e+000
1	 1.184066800401974e+000	 1.210514778576640e+000	 3.543889730295179e+000
1	 1.170626171652911e+000	 1.223517289166650e+000	 3.203074086931538e+000
1	 1.157044429927205e+000	 1.236369012059368e+000	 2.860805811735180e+000
1	 1.143324123707303e+000	 1.249067665749498e+000	 2.518191773431182e+000
1	 1.129467850281964e+000	 1.261611026374577e+000	 2.176343080771488e+000
1	 1.281479972530163e+000	 1.147255690936225e+000	 5.008944590912497e+000
1	 1.268739068168448e+000	 1.161330184989758e+000	 4.699257352724334e+000
1	 1.255840425051615e+000	 1.175266570508109e+000	 4.380676438516924e+000
1	 1.242786302065429e+000	 1.189062209298173e+000	 4.054466866749009e+000
1	 1.229579016646303e+000	 1.202714512741798e+000	 3.721911836281824e+000
1	 1.216220943412465e+000	 1.216220943412465e+000	 3.384310911046225e+000
1	 1.202714512741798e+000	 1.229579016646304e+000	 3.042978175291734e+000
1	 1.189062209298173e+000	 1.242786302065429e+000	 2.699240363109653e+000
1	 1.175266570508110e+000	 1.255840425051614e+000	 2.354434965988858e+000
1	 1.161330184989758e+000	 1.268739068168449e+000	 2.009908322218460e+000
1	 1.147255690936225e+000	 1.281479972530163e+000	 1.667013691994912e+000
1	 1.301348918685950e+000	 1.165043531590152e+000	 4.513175912097394e+000
1	 1.288410470587557e+000	 1.179336246271932e+000	 4.202678842653588e+000
1	 1.275311838043971e+000	 1.193488711088788e+000	 3.882313088807456e+000
1	 1.262055314964265e+000	 1.207498246943265e+000	 3.553589834501796e+000
1	 1.248643254715969e+000	 1.221362225081510e+000	 3.218044712964821e+000
1	 1.235078068735010e+000	 1.235078068735010e+000	 2.877235499753653e+000
1	 1.221362225081510e+000	 1.248643254715969e+000	 2.532739765425494e+000
1	 1.207498246943265e+000	 1.262055314964265e+000	 2.186152492607890e+000
1	 1.193488711088788e+000	 1.275311838043970e+000	 1.839083662330520e+000
1	 1.179336246271932e+000	 1.288410470587557e+000	 1.493155814560150e+000
1	 1.165043531590152e+000	 1.301348918685950e+000	 1.150001587941891e+000
1	 1.321217864841871e+000	 1.182831372243579e+000	 4.011216158001013e+000
1	 1.308081873006736e+000	 1.197342307553658e+000	 3.699235960188871e+000
1	 1.294783251036333e+000	 1.211710851669076e+000	 3.376434453772374e+000
1	 1.281324327863042e+000	 1.225934284588030e+000	 3.044599499207245e+000
1	 1.267707492785507e+000	 1.240009937420960e+000	 2.705550605133679e+000
1	 1.253935194057360e+000	 1.253935194057359e+000	 2.361136058522549e+000
1	 1.240009937420960e+000	 1.267707492785507e+000	 2.013230001802727e+000
1	 1.225934284588030e+000	 1.281324327863042e+000	 1.663729462979231e+000
1	 1.211710851669076e+000	 1.294783251036333e+000	 1.314551344874810e+000
1	 1.197342307553658e+000	 1.308081873006736e+000	 9.676293797304092e-001
1	 1.182831372243579e+000	 1.321217864841870e+000	 6.249110554859020e-001
1	 1.341086810997859e+000	 1.200619212896339e+000	 3.504312926040795e+000
1	 1.327753275425903e+000	 1.215348368834772e+000	 3.189918668148245e+000
1	 1.314254664028600e+000	 1.229932992248813e+000	 2.863798274284076e+000
1	 1.300593340761640e+000	 1.244370322232309e+000	 2.528045271210205e+000
1	 1.286771730854787e+000	 1.258657649759996e+000	 2.184792939304491e+000
1	 1.272792319379371e+000	 1.272792319379371e+000	 1.836210810085802e+000
1	 1.258657649759996e+000	 1.286771730854787e+000	 1.484501096411671e+000
1	 1.244370322232309e+000	 1.300593340761641e+000	 1.131895062755273e+000
1	 1.229932992248813e+000	 1.314254664028600e+000	 7.806493431247250e-001
1	 1.215348368834772e+000	 1.327753275425902e+000	 4.330422143209280e-001
1	 1.200619212896339e+000	 1.341086810997858e+000	 9.136983234062768e-002
1	 1.022740806358721e+000	 1.142397349448981e+000	 5.096611042978808e+000
1	 1.010071222934661e+000	 1.153614540248221e+000	 4.781769462629030e+000
1	 9.972833164607429e-001	 1.164687203295261e+000	 4.463787833242915e+000
1	 9.843795644057992e-001	 1.175613488505011e+000	 4.144059629893000e+000
1	 9.713624822960134e-001	 1.186391602416225e+000	 3.823971409340519e+000
1	 9.582346220975365e-001	 1.197019809152552e+000	 3.504900742722663e+000
1	 9.449985705706224e-001	 1.207496431328260e+000	 3.188214172562483e+000
1	 9.316569475974839e-001	 1.217819850897686e+000	 2.875265198148806e+000
1	 9.182124044861019e-001	 1.227988509947546e+000	 2.567392293241521e+000
1	 9.046676222522668e-001	 1.238000911431365e+000	 2.265916959954029e+000
1	 8.910253098821288e-001	 1.247855619845356e+000	 1.972141822549382e+000
1	 1.040528647011485e+000	 1.162266295601972e+000	 4.623493375810241e+000
1	 1.027638710073067e+000	 1.173678579430655e+000	 4.300109563265075e+000
1	 1.014628392171736e+000	 1.184943821833555e+000	 3.973110097752229e+000
1	 1.001500213865284e+000	 1.196060140548291e+000	 3.644001846658484e+000
1	 9.882567344307596e-001	 1.207025710921144e+000	 3.314282522645186e+000
1	 9.749005502189513e-001	 1.217838766884827e+000	 2.985438400959467e+000
1	 9.614342929799058e-001	 1.228497601879960e+000	 2.658942066506012e+000
1	 9.478606281616914e-001	 1.239000569719292e+000	 2.336250195157553e+000
1	 9.341822531847158e-001	 1.249346085393796e+000	 2.018801373671776e+000
1	 9.204018956938826e-001	 1.259532625819865e+000	 1.708013962461086e+000
1	 9.065223117909241e-001	 1.269558730526953e+000	 1.405284005326102e+000
1	 1.058316487664915e+000	 1.182135241755561e+000	 4.145678888197252e+000
1	 1.045206197212085e+000	 1.193742618613598e+000	 3.815410401324027e+000
1	 1.031973467883280e+000	 1.205200440372255e+000	 3.481186297579077e+000
1	 1.018620863325253e+000	 1.216506792591863e+000	 3.144584657616056e+000
1	 1.005150986565916e+000	 1.227659819426233e+000	 2.807172388616539e+000
1	 9.915664783407000e-001	 1.238657724617147e+000	 2.470502796577855e+000
1	 9.778700153894413e-001	 1.249498772431579e+000	 2.136113192999726e+000
1	 9.640643087260685e-001	 1.260181288540694e+000	 1.805522540735614e+000
1	 9.501521018834153e-001	 1.270703660839725e+000	 1.480229143651605e+000
1	 9.361361691354979e-001	 1.281064340207938e+000	 1.161708384596666e+000
1	 9.220193136996340e-001	 1.291261841208033e+000	 8.514105160402922e-001
1	 1.076104328318845e+000	 1.202004187909682e+000	 3.662584551383617e+000
1	 1.062773684351549e+000	 1.213806657797006e+000	 3.326965789476481e+000
1	 1.049318543595212e+000	 1.225457058911340e+000	 2.987191730146023e+000
1	 1.035741512785547e+000	 1.236953444635727e+000	 2.644871507301719e+000
1	 1.022045238701332e+000	 1.248293927931518e+000	 2.301601269519975e+000
1	 1.008232406462639e+000	 1.259476682349561e+000	 1.958961675655345e+000
1	 9.943057377990965e-001	 1.270499942983189e+000	 1.618515428712426e+000
1	 9.802679892904931e-001	 1.281362007361988e+000	 1.281804852895187e+000
1	 9.661219505820892e-001	 1.292061236285451e+000	 9.503495186135759e-001
1	 9.518704425770156e-001	 1.302596054595719e+000	 6.256439200797581e-001
1	 9.375163156081747e-001	 1.312964951888744e+000	 3.091552099646984e-001
1	 1.093892168973107e+000	 1.221873134064270e+000	 3.173665259263693e+000
1	 1.080341171491293e+000	 1.233870696980833e+000	 2.834115473796796e+000
1	 1.066663619307370e+000	 1.245713677450784e+000	 2.490355335011317e+000
1	 1.052862162246009e+000	 1.257400096679885e+000	 2.143986757770827e+000
1	 1.038939490836855e+000	 1.268928036437022e+000	 1.796597056550486e+000
1	 1.024898334584625e+000	 1.280295640082117e+000	 1.449756430842059e+000
1	 1.010741460208737e+000	 1.291501113534862e+000	 1.105015491929133e+000
1	 9.964716698548413e-001	 1.302542726183266e+000	 7.639028359630150e-001
1	 9.820917992806263e-001	 1.313418811731085e+000	 4.279226681261582e-001
1	 9.676047160183381e-001	 1.324127768983342e+000	 9.855248251319985e-002
1	 9.530133175164638e-001	 1.334668062569236e+000	-2.227591978101669e-001
1	 1.111680009627535e+000	 1.241742080219257e+000	 2.678410794406783e+000
1	 1.097908658631153e+000	 1.253934736165034e+000	 2.336241458892729e+000
1	 1.084008695019590e+000	 1.265970295990567e+000	 1.989955402266304e+000
1	 1.069982811706480e+000	 1.277846748724338e+000	 1.641110814933398e+000
1	 1.055833742972335e+000	 1.289562144942771e+000	 1.291249859226204e+000
1	 1.041564262706513e+000	 1.301114597814863e+000	 9.418962093173022e-001
1	 1.027177182618228e+000	 1.312502284086669e+000	 5.945526348812733e-001
1	 1.012675350418990e+000	 1.323723445004623e+000	 2.506986333164617e-001
1	 9.980616479789162e-001	 1.334776387176746e+000	-8.821188480949303e-002
1	 9.833389894593683e-001	 1.345659483370942e+000	-4.207528525882172e-001
1	 9.685103194244189e-001	 1.356371173249662e+000	-7.455282415450014e-001
1	 1.129467850281964e+000	 1.261611026374577e+000	 2.176343080771488e+000
1	 1.115476145770963e+000	 1.273998775349563e+000	 1.832764680284980e+000
1	 1.101353770731711e+000	 1.286226914530664e+000	 1.485315686460465e+000
1	 1.087103461166803e+000	 1.298293400769084e+000	 1.135475715417946e+000
1	 1.072727995107619e+000	 1.310196253448788e+000	 7.847071060477520e-001
1	 1.058230190828162e+000	 1.321933555547848e+000	 4.344525775035882e-001
1	 1.043612905027437e+000	 1.333503454638683e+000	 8.613293210904226e-002
1	 1.028879030982817e+000	 1.344904163826153e+000	-2.588551917589617e-001
1	 1.014031496676848e+000	 1.356133962622547e+000	-5.991415123934880e-001
1	 9.990732629000086e-001	 1.367191197758652e+000	-9.333842388388440e-001
1	 9.840073213319562e-001	 1.378074283930169e+000	-1.260272142252696e+000
1	 1.147255690936225e+000	 1.281479972530163e+000	 1.667013691994912e+000
1	 1.133043632910556e+000	 1.294062814534374e+000	 1.323141986349249e+000
1	 1.118698846443568e+000	 1.306483533071053e+000	 9.758018820405101e-001
1	 1.104224110626819e+000	 1.318740052814126e+000	 6.263611239809175e-001
1	 1.089622247242556e+000	 1.330830361955098e+000	 2.761691009337984e-001
1	 1.074896118949426e+000	 1.342752513281120e+000	-7.344531788709910e-002
1	 1.060048627436229e+000	 1.354504625190975e+000	-4.211758998335058e-001
1	 1.045082711546199e+000	 1.366084882647951e+000	-7.657411152628210e-001
1	 1.030001345374311e+000	 1.377491538068603e+000	-1.105886149362019e+000
1	 1.014807536340161e+000	 1.388722912146604e+000	-1.440384855476785e+000
1	 9.995043232389940e-001	 1.399777394610910e+000	-1.768041646240006e+000
1	 1.165043531590152e+000	 1.301348918685950e+000	 1.150001587941890e+000
1	 1.150611120049767e+000	 1.314126853719422e+000	 8.068633967358440e-001
1	 1.136043922155001e+000	 1.326740151611712e+000	 4.608184216667343e-001
1	 1.121344760086371e+000	 1.339186704859463e+000	 1.130906975845623e-001
1	 1.106516499376995e+000	 1.351464470461725e+000	-2.351150132779355e-001
1	 1.091562047070163e+000	 1.363571471014728e+000	-5.826151455218597e-001
1	 1.076484349844469e+000	 1.375505795743618e+000	-9.282492081179039e-001
1	 1.061286392109012e+000	 1.387265601470110e+000	-1.270881611568252e+000
1	 1.045971194071194e+000	 1.398849113515031e+000	-1.609403441150501e+000
1	 1.030541809779729e+000	 1.410254626534935e+000	-1.942734172854651e+000
1	 1.015001325145448e+000	 1.421480505292034e+000	-2.269823328793282e+000
1	 1.182831372243579e+000	 1.321217864841870e+000	 6.249110554859019e-001
1	 1.168178607188432e+000	 1.334190892904663e+000	 2.834496081625728e-001
1	 1.153388997865845e+000	 1.346996770152616e+000	-6.019443658230091e-002
1	 1.138465409545300e+000	 1.359633356905095e+000	-4.049712224553382e-001
1	 1.123410751510783e+000	 1.372098578968695e+000	-7.498509271161852e-001
1	 1.108227975190228e+000	 1.384390428748719e+000	-1.093825388493085e+000
1	 1.092920072252026e+000	 1.396506966296683e+000	-1.435909684781190e+000
1	 1.077490072671134e+000	 1.408446320292725e+000	-1.775143665051146e+000
1	 1.061941042767387e+000	 1.420206688961944e+000	-2.110593427537217e+000
1	 1.046276083218615e+000	 1.431786340923777e+000	-2.441352742824433e+000
1	 1.030498327051237e+000	 1.443183615973693e+000	-2.766544419311935e+000
1	 1.200619212896339e+000	 1.341086810997858e+000	 9.136983234062734e-002
1	 1.185746094326383e+000	 1.354254932090050e+000	-2.475502780742452e-001
1	 1.170734073575938e+000	 1.367253388693743e+000	-5.877632630768025e-001
1	 1.155586059003449e+000	 1.380080008951025e+000	-9.284226242758943e-001
1	 1.140305003643770e+000	 1.392732687476032e+000	-1.268702510319896e+000
1	 1.124893903309479e+000	 1.405209386483143e+000	-1.607798987876327e+000
1	 1.109355794658762e+000	 1.417508136850241e+000	-1.944931267301178e+000
1	 1.093693753232441e+000	 1.429627039115892e+000	-2.279342880665717e+000
1	 1.077910891462778e+000	 1.441564264409459e+000	-2.610302809942102e+000
1	 1.062010356656721e+000	 1.453318055313266e+000	-2.937106563288620e+000
1	 1.045995328956277e+000	 1.464886726656035e+000	-3.259077197519854e+000
1	 8.910253098821288e-001	 1.247855619845356e+000	 1.972141822549382e+000
1	 8.772882022807453e-001	 1.257551261490825e+000	 1.684764131599294e+000
1	 8.634590576311915e-001	 1.267086523959525e+000	 1.402537268033175e+000
1	 8.495406565372458e-001	 1.276460157680332e+000	 1.126814759189316e+000
1	 8.355358005343191e-001	 1.285670976711510e+000	 8.589244248849959e-001
1	 8.214473102909056e-001	 1.294717859120681e+000	 6.001663149709372e-001
1	 8.072780238044295e-001	 1.303599747304523e+000	 3.518107126784604e-001
1	 7.930307945938002e-001	 1.312315648248288e+000	 1.150962072827803e-001
1	 7.787084898909862e-001	 1.320864633725284e+000	-1.087721606050814e-001
1	 7.643139888338927e-001	 1.329245840436585e+000	-3.186246780236643e-001
1	 7.498501806627993e-001	 1.337458470091355e+000	-5.133286600536421e-001
1	 9.065223117909241e-001	 1.269558730526953e+000	 1.405284005326102e+000
1	 8.925462839472682e-001	 1.279423001924546e+000	 1.109391337157143e+000
1	 8.784766183172065e-001	 1.289124104778561e+000	 8.190956822997791e-001
1	 8.643161438656806e-001	 1.298660767784928e+000	 5.357264603190184e-001
1	 8.500677108533142e-001	 1.308031784375627e+000	 2.605867491817549e-001
1	 8.357341890065820e-001	 1.317236013105266e+000	-5.048768650230862e-003
1	 8.213184656822814e-001	 1.326272377976344e+000	-2.599357932364281e-001
1	 8.068234440286461e-001	 1.335139868703277e+000	-5.028623237735466e-001
1	 7.922520411454743e-001	 1.343837540915351e+000	-7.326505015150724e-001
1	 7.776071862455714e-001	 1.352364516298867e+000	-9.481583759195225e-001
1	 7.628918188198212e-001	 1.360719982678853e+000	-1.148281591179089e+000
1	 9.220193136996340e-001	 1.291261841208033e+000	 8.514105160402922e-001
1	 9.078043656136207e-001	 1.301294742357671e+000	 5.482069099562392e-001
1	 8.934941790029707e-001	 1.311161685596942e+000	 2.508886621964838e-001
1	 8.790916311937900e-001	 1.320861377888824e+000	-3.925341022823371e-002
1	 8.645996211719170e-001	 1.330392592039014e+000	-3.209553170459161e-001
1	 8.500210677218111e-001	 1.339754167089103e+000	-5.929819144567869e-001
1	 8.353589075596423e-001	 1.348945008647412e+000	-8.541288573576200e-001
1	 8.206160934629750e-001	 1.357964089157520e+000	-1.103224480609737e+000
1	 8.057955923994367e-001	 1.366810448104691e+000	-1.339131606118570e+000
1	 7.909003836567353e-001	 1.375483192160448e+000	-1.560749272714336e+000
1	 7.759334569763624e-001	 1.383981495265687e+000	-1.767014386050573e+000
1	 9.375163156081747e-001	 1.312964951888744e+000	 3.091552099646984e-001
1	 9.230624472797354e-001	 1.323166482790366e+000	-1.535961825835232e-004
1	 9.085117396884321e-001	 1.333199266414842e+000	-3.034446294558986e-001
1	 8.938671185215374e-001	 1.343061987992202e+000	-5.994794583368268e-001
1	 8.791315314901061e-001	 1.352753399701856e+000	-8.870468178372691e-001
1	 8.643079464365844e-001	 1.362272321072382e+000	-1.164964570113655e+000
1	 8.493993494365169e-001	 1.371617639317917e+000	-1.432081597421197e+000
1	 8.344087428967989e-001	 1.380788309611204e+000	-1.687279624073067e+000
1	 8.193391436528904e-001	 1.389783355293484e+000	-1.929474964281094e+000
1	 8.041935810674046e-001	 1.398601868021504e+000	-2.157620192977017e+000
1	 7.889750951324397e-001	 1.407243007852023e+000	-2.370705736937876e+000
1	 9.530133175164638e-001	 1.334668062569236e+000	-2.227591978101669e-001
1	 9.383205289455460e-001	 1.345038223222794e+000	-5.369658781013308e-001
1	 9.235293003735396e-001	 1.355236847232435e+000	-8.451765152437650e-001
1	 9.086426058488871e-001	 1.365262598095244e+000	-1.146218180607773e+000
1	 8.936634418078615e-001	 1.375114207364341e+000	-1.438945309891011e+000
1	 8.785948251508936e-001	 1.384790475055292e+000	-1.722241580310537e+000
1	 8.634397913129078e-001	 1.394290269988049e+000	-1.995021720443730e+000
1	 8.482013923301294e-001	 1.403612530064517e+000	-2.256233249539299e+000
1	 8.328826949058532e-001	 1.412756262481913e+000	-2.504858143331032e+000
1	 8.174867784775971e-001	 1.421720543882209e+000	-2.739914423604573e+000
1	 8.020167332880693e-001	 1.430504520438026e+000	-2.960457668989807e+000
1	 9.685103194244189e-001	 1.356371173249662e+000	-7.455282415450014e-001
1	 9.535786106109838e-001	 1.366909963655117e+000	-1.063423983634943e+000
1	 9.385468610582419e-001	 1.377274428049897e+000	-1.375497884710356e+000
1	 9.234180931758037e-001	 1.387463208198132e+000	-1.680655013482181e+000
1	 9.081953521251606e-001	 1.397475015026658e+000	-1.977827861930255e+000
1	 8.928817038647322e-001	 1.407308629038023e+000	-2.265978115374004e+000
1	 8.774802331888189e-001	 1.416962900657996e+000	-2.544098355948732e+000
1	 8.619940417629793e-001	 1.426436750517643e+000	-2.811213696512782e+000
1	 8.464262461583425e-001	 1.435729169670161e+000	-3.066383342216787e+000
1	 8.307799758873323e-001	 1.444839219742739e+000	-3.308702077180021e+000
1	 8.150583714432672e-001	 1.453766033023863e+000	-3.537301673935184e+000
1	 9.840073213319562e-001	 1.378074283930169e+000	-1.260272142252696e+000
1	 9.688366922759821e-001	 1.388781704087501e+000	-1.580646741008576e+000
1	 9.535644217424868e-001	 1.399312008867400e+000	-1.895524606747203e+000
1	 9.381935805022507e-001	 1.409663818301048e+000	-2.203900716269993e+000
1	 9.227272624419833e-001	 1.419835822688992e+000	-2.504797392675299e+000
1	 9.071685825780912e-001	 1.429826783020764e+000	-2.797265945172687e+000
1	 8.915206750642536e-001	 1.439635531327948e+000	-3.080388243499705e+000
1	 8.757866911953608e-001	 1.449260970970773e+000	-3.353278224214884e+000
1	 8.599697974103759e-001	 1.458702076858409e+000	-3.615083326340372e+000
1	 8.440731732966296e-001	 1.467957895603269e+000	-3.864985854035444e+000
1	 8.281000095980499e-001	 1.477027545609700e+000	-4.102204264191118e+000
1	 9.995043232389940e-001	 1.399777394610910e+000	-1.768041646240006e+000
1	 9.840947739404727e-001	 1.410653444520108e+000	-2.089683590120154e+000
1	 9.685819824262233e-001	 1.421349589685121e+000	-2.406303345452614e+000
1	 9.529690678281922e-001	 1.431864428404175e+000	-2.716997160377810e+000
1	 9.372591727583082e-001	 1.442196630351531e+000	-3.020888419206581e+000
1	 9.214554612909641e-001	 1.452344937003705e+000	-3.317129129373210e+000
1	 9.055611169392154e-001	 1.462308161998095e+000	-3.604901344618840e+000
1	 8.895793406272856e-001	 1.472085191424091e+000	-3.883418521971982e+000
1	 8.735133486619712e-001	 1.481674984046840e+000	-4.151926810284676e+000
1	 8.573663707055079e-001	 1.491076571463974e+000	-4.409706268282054e+000
1	 8.411416477524336e-001	 1.500289058195703e+000	-4.656072010282760e+000
1	 1.015001325145448e+000	 1.421480505292034e+000	-2.269823328793282e+000
1	 9.993528556043898e-001	 1.432525184953105e+000	-2.591519879631960e+000
1	 9.835995431093997e-001	 1.443387170503232e+000	-2.908816843212492e+000
1	 9.677445551535926e-001	 1.454065038507694e+000	-3.220922588198305e+000
1	 9.517910830741139e-001	 1.464557438014463e+000	-3.527072278732887e+000
1	 9.357423400033419e-001	 1.474863090987035e+000	-3.826529186424180e+000
1	 9.196015588137076e-001	 1.484980792668627e+000	-4.118585940609975e+000
1	 9.033719900587662e-001	 1.494909411877786e+000	-4.402565714808952e+000
1	 8.870568999131454e-001	 1.504647891235637e+000	-4.677823347441292e+000
1	 8.706595681139866e-001	 1.514195247325030e+000	-4.943746395094430e+000
1	 8.541832859064348e-001	 1.523550570782039e+000	-5.199756116796240e+000
1	 1.030498327051237e+000	 1.443183615973693e+000	-2.766544419311935e+000
1	 1.014610937267665e+000	 1.454396925386652e+000	-3.087081686104952e+000
1	 9.986171037919640e-001	 1.465424751321909e+000	-3.403988727088038e+000
1	 9.825200424784156e-001	 1.476265648611788e+000	-3.716596397489385e+000
1	 9.663229933893792e-001	 1.486918245677973e+000	-4.024261879198822e+000
1	 9.500292187152167e-001	 1.497381244970944e+000	-4.326369796142005e+000
1	 9.336420006877344e-001	 1.507653423339732e+000	-4.622333270404484e+000
1	 9.171646394898144e-001	 1.517733632332045e+000	-4.911594917387098e+000
1	 9.006004511639166e-001	 1.527620798424980e+000	-5.193627778445948e+000
1	 8.839527655220841e-001	 1.537313923186611e+000	-5.467936189647243e+000
1	 8.672249240600692e-001	 1.546812083368872e+000	-5.734056585443074e+000
1	 1.045995328956277e+000	 1.464886726656035e+000	-3.259077197519854e+000
1	 1.029869018930230e+000	 1.476268665820915e+000	-3.577240204744448e+000
1	 1.013634664473865e+000	 1.487462332141325e+000	-3.892687887947313e+000
1	 9.972955298026258e-001	 1.498466258716639e+000	-4.204883500453996e+000
1	 9.808549037040830e-001	 1.509279053342249e+000	-4.513316027594693e+000
1	 9.643160974265818e-001	 1.519899398955622e+000	-4.817501084268383e+000
1	 9.476824425612986e-001	 1.530326054011600e+000	-5.116981756133535e+000
1	 9.309572889204426e-001	 1.540557852787053e+000	-5.411329383127904e+000
1	 9.141440024143019e-001	 1.550593705615053e+000	-5.700144284178519e+000
1	 8.972459629298201e-001	 1.560432599048893e+000	-5.983056422126755e+000
1	 8.802665622133532e-001	 1.570073595956371e+000	-6.259726008055338e+000
1	 7.498501806627993e-001	 1.337458470091355e+000	-5.133286600536426e-001
1	 7.353221473168309e-001	 1.345500595902038e+000	-6.932372513898899e-001
1	 7.207306278798588e-001	 1.353372795297910e+000	-8.589847061919258e-001
1	 7.060785306134998e-001	 1.361074466261638e+000	-1.009833535874524e+000
1	 6.913687667140009e-001	 1.368605071488112e+000	-1.145085459396489e+000
1	 6.766042485600982e-001	 1.375964138175143e+000	-1.264082313028142e+000
1	 6.617878879772690e-001	 1.383151257758930e+000	-1.366206879609774e+000
1	 6.469225945203407e-001	 1.390166085595247e+000	-1.450883636678147e+000
1	 6.320112737763581e-001	 1.397008340587419e+000	-1.517579423048507e+000
1	 6.170568256895568e-001	 1.403677804762223e+000	-1.565804023646107e+000
1	 6.020621429102250e-001	 1.410174322794896e+000	-1.595110672585906e+000
1	 7.628918188198212e-001	 1.360719982678853e+000	-1.148281591179088e+000
1	 7.481111091940829e-001	 1.368901979756440e+000	-1.333356925431094e+000
1	 7.332658093066115e-001	 1.376911095003749e+000	-1.503934944898586e+000
1	 7.183588780004508e-001	 1.384746715932977e+000	-1.659202538160173e+000
1	 7.033932771043161e-001	 1.392408295894034e+000	-1.798384621165278e+000
1	 6.883719696499764e-001	 1.399895353861612e+000	-1.920745232032482e+000
1	 6.732979181063208e-001	 1.407207474166046e+000	-2.025588544586161e+000
1	 6.581740826320958e-001	 1.414344306168952e+000	-2.112259799625152e+000
1	 6.430034193492565e-001	 1.421305563884740e+000	-2.180146153136233e+000
1	 6.277888786388084e-001	 1.428091025549134e+000	-2.228677440883331e+000
1	 6.125334034609495e-001	 1.434700533135920e+000	-2.257326859018943e+000
1	 7.759334569763624e-001	 1.383981495265687e+000	-1.767014386050573e+000
1	 7.609000710709125e-001	 1.392303363610223e+000	-1.958212897727243e+000
1	 7.458009907330193e-001	 1.400449394709020e+000	-2.134774205178812e+000
1	 7.306392253871503e-001	 1.408418965603801e+000	-2.295817350603837e+000
1	 7.154177874944816e-001	 1.416211520299499e+000	-2.440498210109547e+000
1	 7.001396907398116e-001	 1.423826569547684e+000	-2.568010761836228e+000
1	 6.848079482354358e-001	 1.431263690572821e+000	-2.677588272200360e+000
1	 6.694255707440150e-001	 1.438522526742372e+000	-2.768504398889912e+000
1	 6.539955649224103e-001	 1.445602787181828e+000	-2.840074209470163e+000
1	 6.385209315883906e-001	 1.452504246335858e+000	-2.891655114688916e+000
1	 6.230046640120596e-001	 1.459226743476797e+000	-2.922647715792943e+000
1	 7.889750951324397e-001	 1.407243007852023e+000	-2.370705736937875e+000
1	 7.736890329473286e-001	 1.415704747463540e+000	-2.568937938786392e+000
1	 7.583361721590805e-001	 1.423987694413863e+000	-2.752593358252199e+000
1	 7.429195727735806e-001	 1.432091215274239e+000	-2.920730521422913e+000
1	 7.274422978844638e-001	 1.440014744704620e+000	-3.072443578256355e+000
1	 7.119074118295534e-001	 1.447757785233454e+000	-3.206863732800583e+000
1	 6.963179783645463e-001	 1.455319906979338e+000	-3.323160591046626e+000
1	 6.806770588560146e-001	 1.462700747315572e+000	-3.420543424704017e+000
1	 6.649877104957208e-001	 1.469900010478731e+000	-3.498262349428647e+000
1	 6.492529845381936e-001	 1.476917467122426e+000	-3.555609416264328e+000
1	 6.334759245634387e-001	 1.483752953817541e+000	-3.591919615298394e+000
1	 8.020167332880693e-001	 1.430504520438026e+000	-2.960457668989806e+000
1	 7.864779948233396e-001	 1.439106131316547e+000	-3.166591138940184e+000
1	 7.708713535847912e-001	 1.447525994118420e+000	-3.358412320468282e+000
1	 7.551999201597239e-001	 1.455763464944417e+000	-3.534926136654467e+000
1	 7.394668082742286e-001	 1.463817969109509e+000	-3.695171904760881e+000
1	 7.236751329191496e-001	 1.471689000919019e+000	-3.838224917761695e+000
1	 7.078280084935832e-001	 1.479376123385674e+000	-3.963197943148811e+000
1	 6.919285469680097e-001	 1.486878967888615e+000	-4.069242636984484e+000
1	 6.759798560690888e-001	 1.494197233775495e+000	-4.155550871415064e+000
1	 6.599850374881072e-001	 1.501330687908871e+000	-4.221355974104751e+000
1	 6.439471851149695e-001	 1.508279164158169e+000	-4.265933878292109e+000
1	 8.150583714432672e-001	 1.453766033023863e+000	-3.537301673935183e+000
1	 7.992669566989544e-001	 1.462507515169399e+000	-3.752163803076917e+000
1	 7.834065350101485e-001	 1.471064293822835e+000	-3.953185730003409e+000
1	 7.674802675455636e-001	 1.479435714614465e+000	-4.139325297425996e+000
1	 7.514913186637425e-001	 1.487621193514281e+000	-4.309573490022977e+000
1	 7.354428540085497e-001	 1.495620216604477e+000	-4.462956156909376e+000
1	 7.193380386224788e-001	 1.503432339791911e+000	-4.598535651154665e+000
1	 7.031800350799152e-001	 1.511057188461564e+000	-4.715412384019112e+000
1	 6.869720016424156e-001	 1.518494457072168e+000	-4.812726291828650e+000
1	 6.707170904380223e-001	 1.525743908695221e+000	-4.889658213661053e+000
1	 6.544184456665354e-001	 1.532805374498695e+000	-4.945431178266171e+000
1	 8.281000095980499e-001	 1.477027545609700e+000	-4.102204264191118e+000
1	 8.120559185741816e-001	 1.485908899022251e+000	-4.326584788362113e+000
1	 7.959417164351506e-001	 1.494602593527250e+000	-4.537808087147807e+000
1	 7.797606149310815e-001	 1.503107964284512e+000	-4.734791079661111e+000
1	 7.635158290529713e-001	 1.511424417919046e+000	-4.916482549544951e+000
1	 7.472105750977021e-001	 1.519551432289924e+000	-5.081864998400532e+000
1	 7.308480687511642e-001	 1.527488556198130e+000	-5.229956416164064e+000
1	 7.144315231916465e-001	 1.535235409034484e+000	-5.359811965819641e+000
1	 6.979641472156025e-001	 1.542791680368797e+000	-5.470525580093995e+000
1	 6.814491433878283e-001	 1.550157129481510e+000	-5.561231468034462e+000
1	 6.648897062180196e-001	 1.557331584839138e+000	-5.631105529633747e+000
1	 8.411416477524336e-001	 1.500289058195703e+000	-4.656072010282760e+000
1	 8.248448804490295e-001	 1.509310282875257e+000	-4.890725345400903e+000
1	 8.084768978597926e-001	 1.518140893231805e+000	-5.113118416401687e+000
1	 7.920409623162603e-001	 1.526780213954683e+000	-5.322133032393279e+000
1	 7.755403394418811e-001	 1.535227642323919e+000	-5.516681561826086e+000
1	 7.589782961865559e-001	 1.543482647975457e+000	-5.695708907264411e+000
1	 7.423580988795706e-001	 1.551544772604411e+000	-5.858194397132483e+000
1	 7.256830113031192e-001	 1.559413629607439e+000	-6.003153591559740e+000
1	 7.089562927885509e-001	 1.567088903665430e+000	-6.129639999712529e+000
1	 6.921811963374156e-001	 1.574570350267766e+000	-6.236746706261247e+000
1	 6.753609667693055e-001	 1.581857795179509e+000	-6.323607904901428e+000
1	 8.541832859064348e-001	 1.523550570782039e+000	-5.199756116796241e+000
1	 8.376338423235072e-001	 1.532711666728574e+000	-5.445403515912257e+000
1	 8.210120792840733e-001	 1.541679192936644e+000	-5.679904501487011e+000
1	 8.043213097010831e-001	 1.550452463625108e+000	-5.902111263998858e+000
1	 7.875648498304384e-001	 1.559030866729012e+000	-6.110905217956240e+000
1	 7.707460172750591e-001	 1.567413863661173e+000	-6.305199088739671e+000
1	 7.538681290076296e-001	 1.575600989010834e+000	-6.483938916569936e+000
1	 7.369344994142486e-001	 1.583591850180492e+000	-6.646105974481328e+000
1	 7.199484383611615e-001	 1.591386126962113e+000	-6.790718597444971e+000
1	 7.029132492866742e-001	 1.598983571054023e+000	-6.916833920057223e+000
1	 6.858322273202755e-001	 1.606384005519828e+000	-7.023549520480636e+000
1	 8.672249240600692e-001	 1.546812083368872e+000	-5.734056585443078e+000
1	 8.504228041976235e-001	 1.556113050582356e+000	-5.991388133600625e+000
1	 8.335472607079892e-001	 1.565217492641910e+000	-6.238906738233438e+000
1	 8.166016570855321e-001	 1.574124713295916e+000	-6.475440159729030e+000
1	 7.995893602186089e-001	 1.582834091134438e+000	-6.699844014836833e+000
1	 7.825137383631615e-001	 1.591345079347169e+000	-6.911003966630850e+000
1	 7.653781591352729e-001	 1.599657205417480e+000	-7.107837831873539e+000
1	 7.481859875249496e-001	 1.607770070753707e+000	-7.289297602431475e+000
1	 7.309405839333361e-001	 1.615683350258895e+000	-7.454371377663486e+000
1	 7.136453022354947e-001	 1.623396791840312e+000	-7.602085204976121e+000
1	 6.963034878708130e-001	 1.630910215860108e+000	-7.731504826019533e+000
1	 8.802665622133532e-001	 1.570073595956371e+000	-6.259726008055341e+000
1	 8.632117660713863e-001	 1.579514434436757e+000	-6.529402469376625e+000
1	 8.460824421315376e-001	 1.588755792347744e+000	-6.790821644968641e+000
1	 8.288820044695899e-001	 1.597796962967234e+000	-7.042791768777517e+000
1	 8.116138706063589e-001	 1.606637315540310e+000	-7.284147528988719e+000
1	 7.942814594508111e-001	 1.615276295033541e+000	-7.513752352462915e+000
1	 7.768881892624316e-001	 1.623713421824429e+000	-7.730500606971590e+000
1	 7.594374756351380e-001	 1.631948291327146e+000	-7.933319717670982e+000
1	 7.419327295049752e-001	 1.639980573555821e+000	-8.121172194525688e+000
1	 7.243773551837668e-001	 1.647810012626662e+000	-8.293057567673383e+000
1	 7.067747484208015e-001	 1.655436426200365e+000	-8.448014228003588e+000
1	 6.020621429102250e-001	 1.410174322794896e+000	-1.595110672585906e+000
1	 5.870278516030029e-001	 1.416498737301121e+000	-1.608347883133833e+000
1	 5.719590733564497e-001	 1.422650029986620e+000	-1.608799822155273e+000
1	 5.568586712756409e-001	 1.428628231261313e+000	-1.596753972323760e+000
1	 5.417294947976459e-001	 1.434433431836373e+000	-1.572548757549967e+000
1	 5.265743781829089e-001	 1.440065782013029e+000	-1.536572084446634e+000
1	 5.113961390398313e-001	 1.445525490928912e+000	-1.489259825192749e+000
1	 4.961975768838239e-001	 1.450812825763512e+000	-1.431094245996060e+000
1	 4.809814717320292e-001	 1.455928110904371e+000	-1.362602385393300e+000
1	 4.657505827348304e-001	 1.460871727075660e+000	-1.284354386654846e+000
1	 4.505076468451836e-001	 1.465644110430823e+000	-1.196961788573368e+000
1	 6.125334034609495e-001	 1.434700533135920e+000	-2.257326859018942e+000
1	 5.972376308707766e-001	 1.441134943915833e+000	-2.269225044930709e+000
1	 5.819067715331873e-001	 1.447393221884075e+000	-2.267971982249548e+000
1	 5.665437383493174e-001	 1.453475397979446e+000	-2.253825858250850e+000
1	 5.511514303145781e-001	 1.459381564490778e+000	-2.227096743957012e+000
1	 5.357327309837993e-001	 1.465111874333371e+000	-2.188145162620820e+000
1	 5.202905069701495e-001	 1.470666540282229e+000	-2.137380597513598e+000
1	 5.048276064791278e-001	 1.476045834163695e+000	-2.075259943208511e+000
1	 4.893468578788444e-001	 1.481250086007147e+000	-2.002285904596900e+000
1	 4.738510683077294e-001	 1.486279683158419e+000	-1.919005347905622e+000
1	 4.583430223207198e-001	 1.491135069356658e+000	-1.826007608003232e+000
1	 6.230046640120596e-001	 1.459226743476797e+000	-2.922647715792945e+000
1	 6.074474101389679e-001	 1.465771150530428e+000	-2.936480235053280e+000
1	 5.918544697103533e-001	 1.472136413781435e+000	-2.937051924789727e+000
1	 5.762288054234166e-001	 1.478322564697501e+000	-2.924552284536055e+000
1	 5.605733658319158e-001	 1.484329697145122e+000	-2.899223478076618e+000
1	 5.448910837850698e-001	 1.490157966653669e+000	-2.861358999455262e+000
1	 5.291848749008191e-001	 1.495807589635517e+000	-2.811302275072065e+000
1	 5.134576360747548e-001	 1.501278842563868e+000	-2.749445205934246e+000
1	 4.977122440259597e-001	 1.506572061109939e+000	-2.676226654183081e+000
1	 4.819515538809139e-001	 1.511687639241224e+000	-2.592130878061756e+000
1	 4.661783977965402e-001	 1.516626028282580e+000	-2.497685919518766e+000
1	 6.334759245634387e-001	 1.483752953817541e+000	-3.591919615298394e+000
1	 6.176571894074571e-001	 1.490407357144906e+000	-3.610923287955564e+000
1	 6.018021678878300e-001	 1.496879605678688e+000	-3.616793049452546e+000
1	 5.859138724978267e-001	 1.503169731415457e+000	-3.609612202774433e+000
1	 5.699953013495547e-001	 1.509277829799371e+000	-3.589517334115193e+000
1	 5.540494365866255e-001	 1.515204058973874e+000	-3.556697145092382e+000
1	 5.380792428317556e-001	 1.520948638988721e+000	-3.511391216742110e+000
1	 5.220876656706315e-001	 1.526511850963969e+000	-3.453888709119479e+000
1	 5.060776301733108e-001	 1.531894036212673e+000	-3.384527000401793e+000
1	 4.900520394543282e-001	 1.537095595323997e+000	-3.303690269452066e+000
1	 4.740137732725954e-001	 1.542116987208505e+000	-3.211808025845120e+000
1	 6.439471851149695e-001	 1.508279164158169e+000	-4.265933878292108e+000
1	 6.278669686761252e-001	 1.515043563759268e+000	-4.293311363040178e+000
1	 6.117498660655004e-001	 1.521622797575824e+000	-4.307899751619563e+000
1	 5.955989395724353e-001	 1.528016898133288e+000	-4.309640402683677e+000
1	 5.794172368673897e-001	 1.534225962453487e+000	-4.298528415937518e+000
1	 5.632077893883719e-001	 1.540250151293942e+000	-4.274611697532875e+000
1	 5.469736107628745e-001	 1.546089688341782e+000	-4.237989951870770e+000
1	 5.307176952666834e-001	 1.551744859363929e+000	-4.188813603285080e+000
1	 5.144430163208340e-001	 1.557216011315279e+000	-4.127282651170616e+000
1	 4.981525250279170e-001	 1.562503551406660e+000	-4.053645462204476e+000
1	 4.818491487488355e-001	 1.567607946134351e+000	-3.968197503374822e+000
1	 6.544184456665354e-001	 1.532805374498695e+000	-4.945431178266169e+000
1	 6.380767479448531e-001	 1.539679770373518e+000	-4.984353158889912e+000
1	 6.216975642432467e-001	 1.546365989472827e+000	-5.011031342932658e+000
1	 6.052840066471301e-001	 1.552864064850969e+000	-5.025231045245093e+000
1	 5.888391723853175e-001	 1.559174095107435e+000	-5.026771618859762e+000
1	 5.723661421902138e-001	 1.565296243613825e+000	-5.015525818942808e+000
1	 5.558679786940914e-001	 1.571230737694648e+000	-4.991419086743207e+000
1	 5.393477248628367e-001	 1.576977867763687e+000	-4.954428756547638e+000
1	 5.228084024684643e-001	 1.582537986417684e+000	-4.904583188769921e+000
1	 5.062530106016239e-001	 1.587911507489136e+000	-4.841960832410623e+000
1	 4.896845242252109e-001	 1.593098905060032e+000	-4.766689220221442e+000
1	 6.648897062180196e-001	 1.557331584839138e+000	-5.631105529633745e+000
1	 6.482865272135217e-001	 1.564315976987654e+000	-5.684712729283498e+000
1	 6.316452624209525e-001	 1.571109181369688e+000	-5.726805601383690e+000
1	 6.149690737218001e-001	 1.577711231568476e+000	-5.756940861986994e+000
1	 5.982611079032335e-001	 1.584122227761179e+000	-5.774729402123230e+000
1	 5.815244949920564e-001	 1.590342335933476e+000	-5.779836014187270e+000
1	 5.647623466253220e-001	 1.596371787047260e+000	-5.771979030899910e+000
1	 5.479777544590173e-001	 1.602210876163178e+000	-5.750929879278317e+000
1	 5.311737886161385e-001	 1.607859961519817e+000	-5.716512552202603e+000
1	 5.143534961753934e-001	 1.613319463571345e+000	-5.668603000308076e+000
1	 4.975198997016720e-001	 1.618589863985467e+000	-5.607128447060639e+000
1	 6.753609667693055e-001	 1.581857795179509e+000	-6.323607904901428e+000
1	 6.584963064820117e-001	 1.588952183601679e+000	-6.395012944214383e+000
1	 6.415929605985001e-001	 1.595852373266394e+000	-6.455801991145731e+000
1	 6.246541407963321e-001	 1.602558398285783e+000	-6.505292056644394e+000
1	 6.076830434210330e-001	 1.609070360414681e+000	-6.542854303450720e+000
1	 5.906828477938049e-001	 1.615388428252850e+000	-6.567914197395607e+000
1	 5.736567145564815e-001	 1.621512836399564e+000	-6.579951562857945e+000
1	 5.566077840551514e-001	 1.627443884562336e+000	-6.578500544136215e+000
1	 5.395391747637919e-001	 1.633181936621605e+000	-6.563149474680130e+000
1	 5.224539817491696e-001	 1.638727419653209e+000	-6.533540656305848e+000
1	 5.053552751781693e-001	 1.644080822910571e+000	-6.489370050687970e+000
1	 6.858322273202755e-001	 1.606384005519828e+000	-7.023549520480635e+000
1	 6.687060857502040e-001	 1.613588390215593e+000	-7.115838633853267e+000
1	 6.515406587757721e-001	 1.620595565162931e+000	-7.198564587443060e+000
1	 6.343392078706145e-001	 1.627405565002866e+000	-7.270774941004690e+000
1	 6.171049789386121e-001	 1.634018493067907e+000	-7.331571223249518e+000
1	 5.998412005953645e-001	 1.640434520571898e+000	-7.380109569213968e+000
1	 5.825510824874860e-001	 1.646653885751501e+000	-7.415601252399660e+000
1	 5.652378136511652e-001	 1.652676892961099e+000	-7.437313112659403e+000
1	 5.479045609113603e-001	 1.658503911722977e+000	-7.444567881031811e+000
1	 5.305544673228969e-001	 1.664135375734651e+000	-7.436744402948512e+000
1	 5.131906506546526e-001	 1.669571781835260e+000	-7.413277761452831e+000
1	 6.963034878708130e-001	 1.630910215860108e+000	-7.731504826019534e+000
1	 6.789158650179793e-001	 1.638224596829399e+000	-7.847739448830565e+000
1	 6.614883569526509e-001	 1.645338757059289e+000	-7.955604737509634e+000
1	 6.440242749445354e-001	 1.652252731719701e+000	-8.053850332919858e+000
1	 6.265269144558660e-001	 1.658966625720819e+000	-8.141279502710777e+000
1	 6.089995533966401e-001	 1.665480612890576e+000	-8.216750324672598e+000
1	 5.914454504182501e-001	 1.671794935103017e+000	-8.279176754528319e+000
1	 5.738678432469846e-001	 1.677909901359400e+000	-8.327529578249225e+000
1	 5.562699470587798e-001	 1.683825886823860e+000	-8.360837249256022e+000
1	 5.386549528965191e-001	 1.689543331815590e+000	-8.378186611139279e+000
1	 5.210260261310727e-001	 1.695062740759449e+000	-8.378723506792319e+000
1	 7.067747484208015e-001	 1.655436426200365e+000	-8.448014228003588e+000
1	 6.891256442852183e-001	 1.662860803443095e+000	-8.591232466259053e+000
1	 6.714360551290197e-001	 1.670081948955455e+000	-8.727403485005878e+000
1	 6.537093420179819e-001	 1.677099898436262e+000	-8.854951741152210e+000
1	 6.359488499726910e-001	 1.683914758373383e+000	-8.972354817179378e+000
1	 6.181579061975374e-001	 1.690526705208835e+000	-9.078145209235350e+000
1	 6.003398183486900e-001	 1.696935984454057e+000	-9.170911988399894e+000
1	 5.824978728425352e-001	 1.703142909757176e+000	-9.249302334218575e+000
1	 5.646353332059857e-001	 1.709147861924183e+000	-9.312022939931195e+000
1	 5.467554384699808e-001	 1.714951287895949e+000	-9.357841289143954e+000
1	 5.288614016073797e-001	 1.720553699683057e+000	-9.385586804009185e+000
1	 4.505076468451836e-001	 1.465644110430823e+000	-1.196961788573368e+000
1	 4.352553773090560e-001	 1.470245751245001e+000	-1.100682323600396e+000
1	 4.199964617822380e-001	 1.474677191845686e+000	-9.962164829614659e-001
1	 4.047335618101466e-001	 1.478939026711766e+000	-8.848959742729002e-001
1	 3.894693118802304e-001	 1.483031901808773e+000	-7.680846160757859e-001
1	 3.742063182928812e-001	 1.486956513530291e+000	-6.471751101041824e-001
1	 3.589471580746028e-001	 1.490713607613841e+000	-5.235858361047669e-001
1	 3.436943779339139e-001	 1.494303978033006e+000	-3.987576750612761e-001
1	 3.284504932603850e-001	 1.497728465867564e+000	-2.741508664514188e-001
1	 3.132179871671365e-001	 1.500987958153400e+000	-1.512419049331885e-001
1	 2.979993095770399e-001	 1.504083386713946e+000	-3.152048161463880e-002
1	 4.583430223207198e-001	 1.491135069356658e+000	-1.826007608003232e+000
1	 4.428254803534434e-001	 1.495816743404018e+000	-1.723706700029974e+000
1	 4.273011768062746e-001	 1.500325257060339e+000	-1.612961280090661e+000
1	 4.117728195150919e-001	 1.504661215143897e+000	-1.495087118892995e+000
1	 3.962430887872050e-001	 1.508825274855079e+000	-1.371435538789741e+000
1	 3.807146362526286e-001	 1.512818144699393e+000	-1.243390100419961e+000
1	 3.651900837583481e-001	 1.516640583384481e+000	-1.112363308344530e+000
1	 3.496720223060635e-001	 1.520293398692991e+000	-9.797933417995587e-001
1	 3.341630110338178e-001	 1.523777446333049e+000	-8.471408164674492e-001
1	 3.186655762418404e-001	 1.527093628768171e+000	-7.158855829319227e-001
1	 3.031822104628572e-001	 1.530242894028381e+000	-5.875235672404608e-001
1	 4.661783977965402e-001	 1.516626028282580e+000	-2.497685919518766e+000
1	 4.503955833981298e-001	 1.521387735563174e+000	-2.393472338575127e+000
1	 4.346058918306376e-001	 1.525973322275190e+000	-2.280518624048237e+000
1	 4.188120772204008e-001	 1.530383403576289e+000	-2.160087982534373e+000
1	 4.030168656945870e-001	 1.534618647901714e+000	-2.033482838388026e+000
1	 3.872229542128294e-001	 1.538679775868886e+000	-1.902041491105122e+000
1	 3.714330094425919e-001	 1.542567559155575e+000	-1.767134786485268e+000
1	 3.556496666787524e-001	 1.546282819353483e+000	-1.630162807899147e+000
1	 3.398755288078220e-001	 1.549826426799085e+000	-1.492551593768597e+000
1	 3.241131653171372e-001	 1.553199299383525e+000	-1.355749887139402e+000
1	 3.083651113492741e-001	 1.556402401343417e+000	-1.221225922989522e+000
1	 4.740137732725954e-001	 1.542116987208505e+000	-3.211808025845120e+000
1	 4.579656864430685e-001	 1.546958727722380e+000	-3.109634164403782e+000
1	 4.419106068552816e-001	 1.551621387490147e+000	-2.998375145913632e+000
1	 4.258513349260272e-001	 1.556105592008849e+000	-2.879206738351237e+000
1	 4.097906426023272e-001	 1.560412020948581e+000	-2.753347812480023e+000
1	 3.937312721734311e-001	 1.564541407038679e+000	-2.622057024805408e+000
1	 3.776759351272775e-001	 1.568494534927030e+000	-2.486629507474993e+000
1	 3.616273110519196e-001	 1.572272240014395e+000	-2.348393571584507e+000
1	 3.455880465823344e-001	 1.575875407265591e+000	-2.208707430144675e+000
1	 3.295607543929611e-001	 1.579304969999389e+000	-2.068955946747227e+000
1	 3.135480122362239e-001	 1.582561908658987e+000	-1.930547415740815e+000
1	 4.818491487488355e-001	 1.567607946134351e+000	-3.968197503374822e+000
1	 4.655357894882131e-001	 1.572529719881547e+000	-3.871869547807272e+000
1	 4.492153218801609e-001	 1.577269452705120e+000	-3.766050868447379e+000
1	 4.328905926319242e-001	 1.581827780441484e+000	-3.651796558835604e+000
1	 4.165644195103765e-001	 1.586205393995588e+000	-3.530208913187154e+000
1	 4.002395901343810e-001	 1.590403038208677e+000	-3.402434188310548e+000
1	 3.839188608123486e-001	 1.594421510698755e+000	-3.269659364054158e+000
1	 3.676049554255053e-001	 1.598261660675640e+000	-3.133108908810674e+000
1	 3.513005643572911e-001	 1.601924387732485e+000	-2.994041556423340e+000
1	 3.350083434692461e-001	 1.605410640615688e+000	-2.853747100635115e+000
1	 3.187309131236400e-001	 1.608721415975027e+000	-2.713543213012125e+000
1	 4.896845242252109e-001	 1.593098905060032e+000	-4.766689220221442e+000
1	 4.731058925335175e-001	 1.598100712040590e+000	-4.679876508493797e+000
1	 4.565200369052304e-001	 1.602917517920015e+000	-4.583096534612828e+000
1	 4.399298503380454e-001	 1.607549968874099e+000	-4.477252015676163e+000
1	 4.233381964186858e-001	 1.611998767042638e+000	-4.363297174535168e+000
1	 4.067479080956263e-001	 1.616264669378785e+000	-4.242234632721545e+000
1	 3.901617864977485e-001	 1.620348486470660e+000	-4.115112291935317e+000
1	 3.735825997994487e-001	 1.624251081337129e+000	-3.983020210631352e+000
1	 3.570130821326285e-001	 1.627973368199685e+000	-3.847087482076043e+000
1	 3.404559325459264e-001	 1.631516311232345e+000	-3.708479120067837e+000
1	 3.239138140114558e-001	 1.634880923291471e+000	-3.568392958324252e+000
1	 4.975198997016720e-001	 1.618589863985467e+000	-5.607128447060639e+000
1	 4.806759955789353e-001	 1.623671704199418e+000	-5.533372089563859e+000
1	 4.638247519304444e-001	 1.628565583134742e+000	-5.449091188533932e+000
1	 4.469691080443440e-001	 1.633272157306602e+000	-5.355005819805732e+000
1	 4.301119733272060e-001	 1.637792140089639e+000	-5.251892071926782e+000
1	 4.132562260571145e-001	 1.642126300548911e+000	-5.140579120874011e+000
1	 3.964047121834209e-001	 1.646275462242652e+000	-5.021946281849098e+000
1	 3.795602441736897e-001	 1.650240501998774e+000	-4.896920044632873e+000
1	 3.627255999082826e-001	 1.654022348667107e+000	-4.766471098841913e+000
1	 3.459035216229358e-001	 1.657621981849287e+000	-4.631611355280974e+000
1	 3.290967148996046e-001	 1.661040430608253e+000	-4.493390969419757e+000
1	 5.053552751781693e-001	 1.644080822910571e+000	-6.489370050687970e+000
1	 4.882460986244200e-001	 1.649242696357944e+000	-6.432090882751505e+000
1	 4.711294669557573e-001	 1.654213648349210e+000	-6.363639981492059e+000
1	 4.540083657507736e-001	 1.658994345738900e+000	-6.284525864716154e+000
1	 4.368857502358878e-001	 1.663585513136496e+000	-6.195317766799608e+000
1	 4.197645440187933e-001	 1.667987931718962e+000	-6.096642944793500e+000
1	 4.026476378693090e-001	 1.672202438014639e+000	-5.989183948638672e+000
1	 3.855378885481678e-001	 1.676229922660488e+000	-5.873675861851002e+000
1	 3.684381176841902e-001	 1.680071329134671e+000	-5.750903518937133e+000
1	 3.513511107002089e-001	 1.683727652466438e+000	-5.621698705682984e+000
1	 3.342796157880199e-001	 1.687199937925307e+000	-5.486937348323193e+000
1	 5.131906506546526e-001	 1.669571781835260e+000	-7.413277761452831e+000
1	 4.958162016699257e-001	 1.674813688516081e+000	-7.375783688765100e+000
1	 4.784341819811238e-001	 1.679861713563327e+000	-7.326372178910785e+000
1	 4.610476234572875e-001	 1.684716534170897e+000	-7.265312540628425e+000
1	 4.436595271446824e-001	 1.689378886183114e+000	-7.192939695302776e+000
1	 4.262728619806095e-001	 1.693849562888843e+000	-7.109651762947561e+000
1	 4.088905635553564e-001	 1.698129413786532e+000	-7.015907597867053e+000
1	 3.915155329228229e-001	 1.702219343322185e+000	-6.912224280181872e+000
1	 3.741506354602876e-001	 1.706120309602293e+000	-6.799174569339500e+000
1	 3.567986997776794e-001	 1.709833323083725e+000	-6.677384325649211e+000
1	 3.394625166766352e-001	 1.713359445242568e+000	-6.547529905788843e+000
1	 5.210260261310727e-001	 1.695062740759449e+000	-8.378723506792319e+000
1	 5.033863047154056e-001	 1.700384680673738e+000	-8.364216298505950e+000
1	 4.857388970064985e-001	 1.705509778777000e+000	-8.336939347170588e+000
1	 4.680868811638395e-001	 1.710438722602501e+000	-8.296896291005790e+000
1	 4.504333040535402e-001	 1.715172259229400e+000	-8.244161464778109e+000
1	 4.327811799425113e-001	 1.719711194058462e+000	-8.178877813103160e+000
1	 4.151334892415067e-001	 1.724056389558237e+000	-8.101254737565482e+000
1	 3.974931772975942e-001	 1.728208763983774e+000	-8.011565883602994e+000
1	 3.798631532365108e-001	 1.732169290069892e+000	-7.910146873084979e+000
1	 3.622462888552815e-001	 1.735938993701071e+000	-7.797392988473359e+000
1	 3.446454175653834e-001	 1.739518952559972e+000	-7.673756814406688e+000
1	 5.288614016073797e-001	 1.720553699683057e+000	-9.385586804009185e+000
1	 5.109564077608135e-001	 1.725955672830829e+000	-9.397168382627838e+000
1	 4.930436120318358e-001	 1.731157843990140e+000	-9.395013701603627e+000
1	 4.751261388703822e-001	 1.736160911033619e+000	-9.378835386276590e+000
1	 4.572070809624126e-001	 1.740965632275259e+000	-9.348422026122572e+000
1	 4.392894979044454e-001	 1.745572825227723e+000	-9.303636461835501e+000
1	 4.213764149277031e-001	 1.749983365329664e+000	-9.244413988957113e+000
1	 4.034708216724216e-001	 1.754198184645169e+000	-9.170760483707298e+000
1	 3.855756710127967e-001	 1.758218270537386e+000	-9.082750456697447e+000
1	 3.676938779329494e-001	 1.762044664318403e+000	-8.980525040219265e+000
1	 3.498283184541985e-001	 1.765678459877450e+000	-8.864289914798055e+000
1	 2.979993095770399e-001	 1.504083386713946e+000	-3.152048161463680e-002
1	 2.827991546839796e-001	 1.507015299539558e+000	 8.751973345130551e-002
1	 2.676176157253354e-001	 1.509785191633430e+000	 2.081985686960104e-001
1	 2.524570335663319e-001	 1.512394122787768e+000	 3.286890099598822e-001
1	 2.373197127666052e-001	 1.514843192712843e+000	 4.471712054273134e-001
1	 2.222079208870836e-001	 1.517133539803352e+000	 5.618355969466984e-001
1	 2.071238878404339e-001	 1.519266339896488e+000	 6.708859541521954e-001
1	 1.920698052848553e-001	 1.521242805023325e+000	 7.725423081918860e-001
1	 1.770478260609259e-001	 1.523064182155104e+000	 8.650437821984051e-001
1	 1.620600636711550e-001	 1.524731751945949e+000	 9.466513159646534e-001
1	 1.471085918018470e-001	 1.526246827473539e+000	 1.015650282609246e+000
1	 3.031822104628572e-001	 1.530242894028381e+000	-5.875235672404598e-001
1	 2.877176895336974e-001	 1.533225799634873e+000	-4.594243750558704e-001
1	 2.722721083133522e-001	 1.536043866592425e+000	-3.291548769326236e-001
1	 2.568478483801319e-001	 1.538698173125490e+000	-1.985729332962806e-001
1	 2.414472543753198e-001	 1.541189838070859e+000	-6.953233141872657e-002
1	 2.260726332979972e-001	 1.543520019622557e+000	 5.612051072855959e-002
1	 2.107262538441941e-001	 1.545689914068317e+000	 1.765497436941108e-001
1	 1.954103457901381e-001	 1.547700754519251e+000	 2.899331853135134e-001
1	 1.801270994193073e-001	 1.549553809634328e+000	 3.944653158404034e-001
1	 1.648786649929307e-001	 1.551250382341223e+000	 4.883601665948827e-001
1	 1.496671522635357e-001	 1.552791808555088e+000	 5.698540996182379e-001
1	 3.083651113492741e-001	 1.556402401343417e+000	-1.221225922989522e+000
1	 2.926362243840046e-001	 1.559436299730789e+000	-1.086207310591379e+000
1	 2.769266009019342e-001	 1.562302541552006e+000	-9.481229865590770e-001
1	 2.612386631944633e-001	 1.565002223463775e+000	-8.088175072049300e-001
1	 2.455747959845260e-001	 1.567536483429407e+000	-6.701350726110975e-001
1	 2.299373457093609e-001	 1.569906499442260e+000	-5.339161241266334e-001
1	 2.143286198483649e-001	 1.572113488240614e+000	-4.019940360066655e-001
1	 1.987508862957979e-001	 1.574158704015620e+000	-2.761919050090780e-001
1	 1.832063727780419e-001	 1.576043437113978e+000	-1.583194414210986e-001
1	 1.676972663150494e-001	 1.577769012736919e+000	-5.016996464358861e-002
1	 1.522257127255744e-001	 1.579336789637071e+000	 4.648249387656351e-002
1	 3.135480122362239e-001	 1.582561908658987e+000	-1.930547415740816e+000
1	 2.975547592348355e-001	 1.585646799827250e+000	-1.790545622623956e+000
1	 2.815810934910186e-001	 1.588561216512131e+000	-1.646213380263843e+000
1	 2.656294780092664e-001	 1.591306273802593e+000	-1.499340039968197e+000
1	 2.497023375941673e-001	 1.593883128788470e+000	-1.351718923379408e+000
1	 2.338020581211211e-001	 1.596292979262458e+000	-1.205143870386772e+000
1	 2.179309858528945e-001	 1.598537062413384e+000	-1.061405875942594e+000
1	 2.020914268017831e-001	 1.600616653512443e+000	-9.222898198509977e-001
1	 1.862856461370760e-001	 1.602533064594071e+000	-7.895712932564584e-001
1	 1.705158676374521e-001	 1.604287643133056e+000	-6.650135252195329e-001
1	 1.547842731878955e-001	 1.605881770719505e+000	-5.503644124293188e-001
1	 3.187309131236400e-001	 1.608721415975027e+000	-2.713543213012126e+000
1	 3.024732940861249e-001	 1.611857299924204e+000	-2.570304385883853e+000
1	 2.862355860805422e-001	 1.614819891472758e+000	-2.421095793037978e+000
1	 2.700202928244812e-001	 1.617610324141914e+000	-2.267611783058132e+000
1	 2.538298792041875e-001	 1.620229774148032e+000	-2.111555594153575e+000
1	 2.376667705332243e-001	 1.622679459083146e+000	-1.954635907669138e+000
1	 2.215333518577310e-001	 1.624960636586633e+000	-1.798563482865704e+000
1	 2.054319673080420e-001	 1.627074603009736e+000	-1.645047877255414e+000
1	 1.893649194963556e-001	 1.629022692074626e+000	-1.495794256444025e+000
1	 1.733344689600799e-001	 1.630806273529654e+000	-1.352500297102621e+000
1	 1.573428336504320e-001	 1.632426751802406e+000	-1.216853186359865e+000
1	 3.239138140114558e-001	 1.634880923291471e+000	-3.568392958324249e+000
1	 3.073918289378070e-001	 1.638067800021593e+000	-3.423485317699910e+000
1	 2.908900786704420e-001	 1.641078566433846e+000	-3.270589104889634e+000
1	 2.744111076400478e-001	 1.643914374481710e+000	-3.111265836595032e+000
1	 2.579574208145298e-001	 1.646576419508075e+000	-2.947091415327778e+000
1	 2.415314829456166e-001	 1.649065938904318e+000	-2.779652742213140e+000
1	 2.251357178628226e-001	 1.651384210760366e+000	-2.610544401088371e+000
1	 2.087725078145225e-001	 1.653532552507511e+000	-2.441365418360442e+000
1	 1.924441928558265e-001	 1.655512319555662e+000	-2.273716102770878e+000
1	 1.761530702828740e-001	 1.657324903926732e+000	-2.109194968900291e+000
1	 1.599013941131164e-001	 1.658971732885789e+000	-1.949395747930739e+000
1	 3.290967148996046e-001	 1.661040430608253e+000	-4.493390969419758e+000
1	 3.123103637898164e-001	 1.664278300119365e+000	-4.348216018167781e+000
1	 2.955445712606549e-001	 1.667337241395350e+000	-4.192649596517796e+000
1	 2.788019224559066e-001	 1.670218424821950e+000	-4.028084404681970e+000
1	 2.620849624251379e-001	 1.672923064868585e+000	-3.855933586926218e+000
1	 2.453961953582447e-001	 1.675452418725971e+000	-3.677627455968322e+000
1	 2.287380838681175e-001	 1.677807784934590e+000	-3.494610276405906e+000
1	 2.121130483211732e-001	 1.679990502005783e+000	-3.308337111780230e+000
1	 1.955234662154353e-001	 1.682001947037197e+000	-3.120270739591924e+000
1	 1.789716716057754e-001	 1.683843534324309e+000	-2.931878638289268e+000
1	 1.624599545758813e-001	 1.685516713969673e+000	-2.744630049955932e+000
1	 3.342796157880199e-001	 1.687199937925307e+000	-5.486937348323193e+000
1	 3.172288986420876e-001	 1.690488800217466e+000	-5.342740211285385e+000
1	 3.001990638511178e-001	 1.693595916357230e+000	-5.185360297538127e+000
1	 2.831927372719975e-001	 1.696522475162606e+000	-5.015987236351468e+000
1	 2.662125040359551e-001	 1.699269710229544e+000	-4.835837707436141e+000
1	 2.492609077710546e-001	 1.701838898548099e+000	-4.646152327932377e+000
1	 2.323404498735637e-001	 1.704231359109308e+000	-4.448192583917262e+000
1	 2.154535888279422e-001	 1.706448451504562e+000	-4.243237811147647e+000
1	 1.986027395751276e-001	 1.708491574519248e+000	-4.032582229492439e+000
1	 1.817902729287252e-001	 1.710362164722407e+000	-3.817532035241154e+000
1	 1.650185150386595e-001	 1.712061695054074e+000	-3.599402555208994e+000
1	 3.394625166766352e-001	 1.713359445242568e+000	-6.547529905788844e+000
1	 3.221474334945552e-001	 1.716699300315839e+000	-6.405408880075740e+000
1	 3.048535564417678e-001	 1.719854591319444e+000	-6.246921310494699e+000
1	 2.875835520882611e-001	 1.722826525503650e+000	-6.073021125411303e+000
1	 2.703400456469252e-001	 1.725616355590934e+000	-5.884696445097541e+000
1	 2.531256201839929e-001	 1.728225378370697e+000	-5.682966681078490e+000
1	 2.359428158791093e-001	 1.730654933284528e+000	-5.468879663287792e+000
1	 2.187941293347777e-001	 1.732906401003865e+000	-5.243508799824177e+000
1	 2.016820129348497e-001	 1.734981202001836e+000	-5.007950273873862e+000
1	 1.846088742516645e-001	 1.736880795121043e+000	-4.763320282130891e+000
1	 1.675770755013836e-001	 1.738606676139007e+000	-4.510752318812172e+000
1	 3.446454175653834e-001	 1.739518952559972e+000	-7.673756814406685e+000
1	 3.270659683471535e-001	 1.742909800414432e+000	-7.534672201589133e+000
1	 3.095080490325418e-001	 1.746113266281949e+000	-7.375641007937058e+000
1	 2.919743669046372e-001	 1.749130575845050e+000	-7.197350357720986e+000
1	 2.744675872579915e-001	 1.751963000952741e+000	-7.000529231383136e+000
1	 2.569903325970060e-001	 1.754611858193762e+000	-6.785945825855998e+000
1	 2.395451818847027e-001	 1.757078507460254e+000	-6.554404923822415e+000
1	 2.221346698416279e-001	 1.759364350503703e+000	-6.306745276751408e+000
1	 2.047612862945476e-001	 1.761470829484977e+000	-6.043837006357744e+000
1	 1.874274755745342e-001	 1.763399425520239e+000	-5.766579028942788e+000
1	 1.701356359639863e-001	 1.765151657224491e+000	-5.475896506874225e+000
1	 3.498283184541985e-001	 1.765678459877450e+000	-8.864289914798057e+000
1	 3.319845031998169e-001	 1.769120300513190e+000	-8.729072198829899e+000
1	 3.141625416233765e-001	 1.772371941244703e+000	-8.569928012018652e+000
1	 2.963651817210658e-001	 1.775434626186778e+000	-8.387248007641402e+000
1	 2.785951288690975e-001	 1.778309646314947e+000	-8.181472870659793e+000
1	 2.608550450100400e-001	 1.780998338017287e+000	-7.953090986540246e+000
1	 2.431475478902918e-001	 1.783502081636491e+000	-7.702636098029092e+000
1	 2.254752103484412e-001	 1.785822300004091e+000	-7.430684954726859e+000
1	 2.078405596541675e-001	 1.787960456968690e+000	-7.137854960167811e+000
1	 1.902460768972755e-001	 1.789918055920011e+000	-6.824801820964654e+000
1	 1.726941964264004e-001	 1.791696638310540e+000	-6.492217202424735e+000
1	 1.471085918018470e-001	 1.526246827473539e+000	 1.015650282609244e+000
1	 1.321932148552253e-001	 1.527610946368682e+000	 1.075438499427580e+000
1	 1.173181978656277e-001	 1.528825244973612e+000	 1.129133928593460e+000
1	 1.024855234592909e-001	 1.529891127063641e+000	 1.174683984042433e+000
1	 8.769713199627979e-002	 1.530810023842251e+000	 1.210083265269211e+000
1	 7.295492130094994e-002	 1.531583392679665e+000	 1.233375718824022e+000
1	 5.826074643223184e-002	 1.532212715858080e+000	 1.242656659939373e+000
1	 4.361641949297316e-002	 1.532699499324805e+000	 1.236074654969570e+000
1	 2.902370947754151e-002	 1.533045271454459e+000	 1.211833265604357e+000
1	 1.448434215685826e-002	 1.533251581821384e+000	 1.168192656085559e+000
1	 0.000000000000000e+000	 1.533319999983334e+000	 1.103471064909057e+000
1	 1.496671522635357e-001	 1.552791808555088e+000	 5.698540996182359e-001
1	 1.344923622314420e-001	 1.554179652649703e+000	 6.425094172061896e-001
1	 1.193586341098445e-001	 1.555415070730929e+000	 7.095111636724986e-001
1	 1.042679850074528e-001	 1.556499490988984e+000	 7.686149862645101e-001
1	 8.922238903169807e-002	 1.557434369519299e+000	 8.176229026970069e-001
1	 7.422377701450698e-002	 1.558221189039145e+000	 8.543858255749876e-001
1	 5.927403627859138e-002	 1.558861457611046e+000	 8.768059368030712e-001
1	 4.437501044347406e-002	 1.559356707374226e+000	 8.828389123397178e-001
1	 2.952849927044121e-002	 1.559708493285285e+000	 8.704959979678980e-001
1	 1.473625854557671e-002	 1.559918391869258e+000	 8.378459370548878e-001
1	 0.000000000000000e+000	 1.559987999982150e+000	 7.830167515606655e-001
1	 1.522257127255744e-001	 1.579336789637071e+000	 4.648249387656351e-002
1	 1.367915096080341e-001	 1.580748358931190e+000	 1.353649848916437e-001
1	 1.213990703544734e-001	 1.582004896488756e+000	 2.197186406335603e-001
1	 1.060504465560655e-001	 1.583107854914895e+000	 2.971293236656996e-001
1	 9.074764606759797e-002	 1.584058715196978e+000	 3.652279289409047e-001
1	 7.549263272855974e-002	 1.584858985399321e+000	 4.216932501782402e-001
1	 6.028732612543471e-002	 1.585510199364770e+000	 4.642546874013327e-001
1	 4.513360139441194e-002	 1.586013915424461e+000	 4.906947956681614e-001
1	 3.003328906368742e-002	 1.586371715116971e+000	 4.988516753683853e-001
1	 1.498817493449885e-002	 1.586585201918022e+000	 4.866212047968694e-001
1	 0.000000000000000e+000	 1.586655999981867e+000	 4.519591160290030e-001
1	 1.547842731878955e-001	 1.605881770719505e+000	-5.503644124293188e-001
1	 1.390906569849223e-001	 1.607317065213150e+000	-4.417261833308746e-001
1	 1.234395065994218e-001	 1.608594722247091e+000	-3.358064846360382e-001
1	 1.078329081050230e-001	 1.609716218841355e+000	-2.351686126615721e-001
1	 9.227290310386338e-002	 1.610683060875255e+000	-1.423326802794199e-001
1	 7.676148844298673e-002	 1.611496781760144e+000	-5.977242865156248e-002
1	 6.130061597264214e-002	 1.612158941119188e+000	 1.008779465102148e-002
1	 4.589219234567812e-002	 1.612671123475431e+000	 6.487589084428826e-002
1	 3.053807885719368e-002	 1.613034936949425e+000	 1.022746985174291e-001
1	 1.524009132357377e-002	 1.613252011967577e+000	 1.200245160439323e-001
1	 0.000000000000000e+000	 1.613323999982383e+000	 1.159254585993728e-001
1	 1.573428336504320e-001	 1.632426751802406e+000	-1.216853186359865e+000
1	 1.413898043620276e-001	 1.633885771495591e+000	-1.084773121953008e+000
1	 1.254799428445967e-001	 1.635184548005932e+000	-9.529156675892603e-001
1	 1.096153696542196e-001	 1.636324582768350e+000	-8.239739206492653e-001
1	 9.379816014037826e-002	 1.637307406554097e+000	-7.006001435482147e-001
1	 7.803034415766655e-002	 1.638134578121565e+000	-5.854022728015440e-001
1	 6.231390582009404e-002	 1.638807682874235e+000	-4.809406007755762e-001
1	 4.665078329716386e-002	 1.639328331527060e+000	-3.897246307582162e-001
1	 3.104286865087352e-002	 1.639698158782560e+000	-3.142101055819998e-001
1	 1.549200771275058e-002	 1.639918822017827e+000	-2.567962096466068e-001
1	 0.000000000000000e+000	 1.639991999983600e+000	-2.198229438139205e-001
1	 1.599013941131164e-001	 1.658971732885789e+000	-1.949395747930739e+000
1	 1.436889517392707e-001	 1.660454477778524e+000	-1.790040301049994e+000
1	 1.275203790899055e-001	 1.661774373765276e+000	-1.627725884865699e+000
1	 1.113978312035494e-001	 1.662932946695862e+000	-1.465257226838248e+000
1	 9.532341717702637e-002	 1.663931752233472e+000	-1.305401056869967e+000
1	 7.929919987247772e-002	 1.664772374483535e+000	-1.150882332128326e+000
1	 6.332719566767064e-002	 1.665456424629846e+000	-1.004380639643240e+000
1	 4.740937424876045e-002	 1.665985539579266e+000	-8.685267776506070e-001
1	 3.154765844464044e-002	 1.666361380616284e+000	-7.458995162302221e-001
1	 1.574392410197837e-002	 1.666585632068675e+000	-6.390225373729759e-001
1	 0.000000000000000e+000	 1.666659999985417e+000	-5.503615542187201e-001
1	 1.624599545758813e-001	 1.685516713969673e+000	-2.744630049955932e+000
1	 1.459880991165724e-001	 1.687023184061957e+000	-2.554027512173664e+000
1	 1.295608153352552e-001	 1.688364199525119e+000	-2.356598726000814e+000
1	 1.131802927529066e-001	 1.689541310623874e+000	-2.155242990059801e+000
1	 9.684867421369169e-002	 1.690556097913347e+000	-1.952824921812610e+000
1	 8.056805558729877e-002	 1.691410170846005e+000	-1.752170415825101e+000
1	 6.434048551525232e-002	 1.692105166385958e+000	-1.556062783713252e+000
1	 4.816796520035917e-002	 1.692642747631972e+000	-1.367239077086528e+000
1	 3.205244823840803e-002	 1.693024602450508e+000	-1.188386594355442e+000
1	 1.599584049120625e-002	 1.693252442120022e+000	-1.022139571838090e+000
1	 0.000000000000000e+000	 1.693327999987733e+000	-8.710760591828916e-001
1	 1.650185150386595e-001	 1.712061695054074e+000	-3.599402555208992e+000
1	 1.482872464938533e-001	 1.713591890345898e+000	-3.373451625423791e+000
1	 1.316012515805531e-001	 1.714954025285460e+000	-3.136121430194059e+000
1	 1.149627543021853e-001	 1.716149674552370e+000	-2.890389823484638e+000
1	 9.837393125025805e-002	 1.717180443593689e+000	-2.639203764165716e+000
1	 8.183691130200831e-002	 1.718047967208927e+000	-2.385475024704712e+000
1	 6.535377536271937e-002	 1.718753908142505e+000	-2.132076084297396e+000
1	 4.892655615185134e-002	 1.719299955685101e+000	-1.881836208098433e+000
1	 3.255723803208980e-002	 1.719687824285142e+000	-1.637537713745174e+000
1	 1.624775688038331e-002	 1.719919252171772e+000	-1.401912425917719e+000
1	 0.000000000000000e+000	 1.719995999990450e+000	-1.177638319239341e+000
1	 1.675770755013836e-001	 1.738606676139007e+000	-4.510752318812174e+000
1	 1.505863938710343e-001	 1.740160596630359e+000	-4.245230017712599e+000
1	 1.336416878257064e-001	 1.741543851046296e+000	-3.963089660256664e+000
1	 1.167452158512796e-001	 1.742758038481330e+000	-3.667372619325764e+000
1	 9.989918828660938e-002	 1.743804789274466e+000	-3.361093619687817e+000
1	 8.310576701648489e-002	 1.744685763572250e+000	-3.047236213449751e+000
1	 6.636706520995218e-002	 1.745402649899424e+000	-2.728748441581523e+000
1	 4.968514710312822e-002	 1.745957163738571e+000	-2.408538683522090e+000
1	 3.306202782559926e-002	 1.746351046120098e+000	-2.089471696394884e+000
1	 1.649967326945867e-002	 1.746586062223828e+000	-1.774364844890332e+000
1	 0.000000000000000e+000	 1.746663999993467e+000	-1.465984522420549e+000
1	 1.701356359639863e-001	 1.765151657224491e+000	-5.475896506874227e+000
1	 1.528855412480362e-001	 1.766729302915345e+000	-5.166465496300316e+000
1	 1.356821240706222e-001	 1.768133676807624e+000	-4.834491830868628e+000
1	 1.185276774000838e-001	 1.769366402410742e+000	-4.483066286431348e+000
1	 1.014244453226295e-001	 1.770429134955646e+000	-4.115257690397565e+000
1	 8.437462273060702e-002	 1.771323559935927e+000	-3.734108179664255e+000
1	 6.738035505683096e-002	 1.772051391656648e+000	-3.342628645152810e+000
1	 5.044373805408110e-002	 1.772614371792308e+000	-2.943794365315079e+000
1	 3.356681761884998e-002	 1.773014267955283e+000	-2.540540830477545e+000
1	 1.675158965838142e-002	 1.773252872276091e+000	-2.135759759405667e+000
1	 0.000000000000000e+000	 1.773331999996684e+000	-1.732295309002385e+000
1	 1.726941964264004e-001	 1.791696638310540e+000	-6.492217202424730e+000
1	 1.551846886247798e-001	 1.793298009200867e+000	-6.134432562527371e+000
1	 1.377225603152077e-001	 1.794723502569440e+000	-5.747494829949257e+000
1	 1.203101389484920e-001	 1.795974766340585e+000	-5.334530933497811e+000
1	 1.029497023582024e-001	 1.797053480637194e+000	-4.898650998158193e+000
1	 8.564347844425330e-002	 1.797961356299908e+000	-4.442943400642831e+000
1	 6.839364490323611e-002	 1.798700133414114e+000	-3.970470011004748e+000
1	 5.120232900460125e-002	 1.799271579846228e+000	-3.484261623039376e+000
1	 3.407160741175545e-002	 1.799677489790610e+000	-2.987313575688798e+000
1	 1.700350604710066e-002	 1.799919682328466e+000	-2.482581567164826e+000
1	 0.000000000000000e+000	 1.800000000000000e+000	-1.972977663025654e+000
1	 1.800000000000000e+000	 0.000000000000000e+000	 4.377617418879942e+001
1	 1.799919682328466e+000	 1.700350604710072e-002	 4.293166868323230e+001
1	 1.799677489790610e+000	 3.407160741175556e-002	 4.209454043877389e+001
1	 1.799271579846229e+000	 5.120232900460112e-002	 4.126299809854132e+001
1	 1.798700133414114e+000	 6.839364490323605e-002	 4.043522534758528e+001
1	 1.797961356299907e+000	 8.564347844425327e-002	 3.960938286277197e+001
1	 1.797053480637195e+000	 1.029497023582024e-001	 3.878361035477956e+001
1	 1.795974766340585e+000	 1.203101389484920e-001	 3.795602870153392e+001
1	 1.794723502569440e+000	 1.377225603152076e-001	 3.712474217218328e+001
1	 1.793298009200867e+000	 1.551846886247796e-001	 3.628784074047922e+001
1	 1.791696638310540e+000	 1.726941964264003e-001	 3.544340248619254e+001
1	 1.826668000003317e+000	 0.000000000000000e+000	 4.534849414407093e+001
1	 1.826586492380854e+000	 1.725542243558252e-002	 4.446027312046110e+001
1	 1.826340711625984e+000	 3.457639720425813e-002	 4.357854854311145e+001
1	 1.825928787900252e+000	 5.196091995461603e-002	 4.270149412944335e+001
1	 1.825348875171750e+000	 6.940693474908760e-002	 4.182725945220039e+001
1	 1.824599152664132e+000	 8.691233415734241e-002	 4.095397195786743e+001
1	 1.823677826319064e+000	 1.044749593932500e-001	 4.007973907791745e+001
1	 1.822583130270824e+000	 1.220926004964327e-001	 3.920265043211005e+001
1	 1.821313328331721e+000	 1.397629965593995e-001	 3.832078012283562e+001
1	 1.819866715486908e+000	 1.574838360012101e-001	 3.743218911926096e+001
1	 1.818241619397146e+000	 1.752527568885780e-001	 3.653492772978936e+001
1	 1.853336000006534e+000	 0.000000000000000e+000	 4.695704759490722e+001
1	 1.853253302433154e+000	 1.750733882386080e-002	 4.602450947096275e+001
1	 1.853003933461306e+000	 3.508118699641538e-002	 4.509730182727688e+001
1	 1.852585995954273e+000	 5.271951090419778e-002	 4.417357895017028e+001
1	 1.851997616929445e+000	 7.042022459446448e-002	 4.325147332226465e+001
1	 1.851236949028488e+000	 8.818118986995370e-002	 4.232909772074132e+001
1	 1.850302172001139e+000	 1.060002164278468e-001	 4.140454740703440e+001
1	 1.849191494201343e+000	 1.238750620439718e-001	 4.047590240699493e+001
1	 1.847903154094349e+000	 1.418034328032531e-001	 3.954122988032822e+001
1	 1.846435421773350e+000	 1.597829833773704e-001	 3.859858657786598e+001
1	 1.844786600484193e+000	 1.778113173505509e-001	 3.764602138499072e+001
1	 1.880004000009551e+000	 0.000000000000000e+000	 4.859896102025513e+001
1	 1.879920112485265e+000	 1.775925521198643e-002	 4.762118958045414e+001
1	 1.879667155296469e+000	 3.558597678831360e-002	 4.664734528245928e+001
1	 1.879243204008180e+000	 5.347810185345472e-002	 4.567557774895310e+001
1	 1.878646358687084e+000	 7.143351443948540e-002	 4.470401862515809e+001
1	 1.877874745392853e+000	 8.945004558220661e-002	 4.373078376795486e+001
1	 1.876926517683292e+000	 1.075254734621056e-001	 4.275397552297797e+001
1	 1.875799858132006e+000	 1.256575235912099e-001	 4.177168508845190e+001
1	 1.874492979857182e+000	 1.438438690468528e-001	 4.078199496429512e+001
1	 1.873004128060052e+000	 1.620821307533283e-001	 3.978298148477902e+001
1	 1.871331581571538e+000	 1.803698778123701e-001	 3.877271743278190e+001
1	 1.906672000012268e+000	 0.000000000000000e+000	 5.027152166304774e+001
1	 1.906586922537085e+000	 1.801117160001031e-002	 4.924730366133525e+001
1	 1.906330377131368e+000	 3.609076658003917e-002	 4.822541719616613e+001
1	 1.905900412061863e+000	 5.423669280249505e-002	 4.720402130759555e+001
1	 1.905295100444551e+000	 7.244680428426897e-002	 4.618126232975572e+001
1	 1.904512541757102e+000	 9.071890129422063e-002	 4.515527618158779e+001
1	 1.903550863365390e+000	 1.090507304961390e-001	 4.412419074006898e+001
1	 1.902408222062676e+000	 1.274399851382472e-001	 4.308612829434225e+001
1	 1.901082805620080e+000	 1.458843052902832e-001	 4.203920807891938e+001
1	 1.899572834346869e+000	 1.643812781291511e-001	 4.098154888388866e+001
1	 1.897876562659040e+000	 1.829284382740870e-001	 3.991127173981455e+001
1	 1.933340000014584e+000	 0.000000000000000e+000	 5.197216644251616e+001
1	 1.933253732588514e+000	 1.826308798798332e-002	 5.090000799096535e+001
1	 1.932993598965897e+000	 3.659555637167841e-002	 4.982843582082180e+001
1	 1.932557620115213e+000	 5.499528375142715e-002	 4.875563182194658e+001
1	 1.931943842201727e+000	 7.346009412893391e-002	 4.767977185735730e+001
1	 1.931150338121113e+000	 9.198775700611517e-002	 4.659902816607439e+001
1	 1.930175209047304e+000	 1.105759875300598e-001	 4.551157184099475e+001
1	 1.929016585993217e+000	 1.292224466851841e-001	 4.441557537976189e+001
1	 1.927672631382903e+000	 1.479247415336291e-001	 4.330921530636628e+001
1	 1.926141540633660e+000	 1.666804255049063e-001	 4.219067486097314e+001
1	 1.924421543746556e+000	 1.854869987357526e-001	 4.105814675523475e+001
1	 1.960008000016401e+000	 0.000000000000000e+000	 5.369847177166021e+001
1	 1.959920542639449e+000	 1.851500437595633e-002	 5.257661361420815e+001
1	 1.959656820799952e+000	 3.710034616331763e-002	 5.145348713069369e+001
1	 1.959214828168119e+000	 5.575387470035925e-002	 5.032730987993885e+001
1	 1.958592583958498e+000	 7.447338397359885e-002	 4.919630144484189e+001
1	 1.957788134484761e+000	 9.325661271800975e-002	 4.805868595760055e+001
1	 1.956799554728904e+000	 1.121012445639806e-001	 4.691269469054536e+001
1	 1.955624949923494e+000	 1.310049082321211e-001	 4.575656871003147e+001
1	 1.954262457145510e+000	 1.499651777769750e-001	 4.458856159060796e+001
1	 1.952710246920282e+000	 1.689795728806617e-001	 4.340694218644993e+001
1	 1.950966524833943e+000	 1.880455591974182e-001	 4.220999745680690e+001
1	 1.986676000017618e+000	 0.000000000000000e+000	 5.544814419482616e+001
1	 1.986587352689790e+000	 1.876692076398024e-002	 5.427457595587991e+001
1	 1.986320042633429e+000	 3.760513595504324e-002	 5.309781356488271e+001
1	 1.985872036220470e+000	 5.651246564939969e-002	 5.191612248842323e+001
1	 1.985241325714745e+000	 7.548667381838249e-002	 5.072777960614125e+001
1	 1.984425930847923e+000	 9.452546843002384e-002	 4.953107586836563e+001
1	 1.983423900410058e+000	 1.136265015980141e-001	 4.832431900802774e+001
1	 1.982233313853369e+000	 1.327873697791584e-001	 4.710583630370053e+001
1	 1.980852282907762e+000	 1.520056140204056e-001	 4.587397739038841e+001
1	 1.979278953206592e+000	 1.712787202564845e-001	 4.462711711446661e+001
1	 1.977511505921061e+000	 1.906041196591351e-001	 4.336365842894446e+001
1	 2.013344000018134e+000	 0.000000000000000e+000	 5.721901176935127e+001
1	 2.013254162739435e+000	 1.901883715210593e-002	 5.599148525873580e+001
1	 2.012983264466222e+000	 3.810992574694156e-002	 5.475880366495066e+001
1	 2.012529244272157e+000	 5.727105659865670e-002	 5.351929205155567e+001
1	 2.011890067470352e+000	 7.649996366340349e-002	 5.227129759019748e+001
1	 2.011063727210476e+000	 9.579432414227686e-002	 5.101319236048558e+001
1	 2.010048246090639e+000	 1.151517586322731e-001	 4.974337619092546e+001
1	 2.008841677782708e+000	 1.345698313263965e-001	 4.846027953708192e+001
1	 2.007442108669516e+000	 1.540460502640053e-001	 4.716236639292810e+001
1	 2.005847659492447e+000	 1.735778676324424e-001	 4.584813723111675e+001
1	 2.004056487007765e+000	 1.931626801209543e-001	 4.451613196769807e+001
1	 2.040012000017850e+000	 0.000000000000000e+000	 5.900901612318776e+001
1	 2.039920972788282e+000	 1.927075354038426e-002	 5.772505777145116e+001
1	 2.039646486298226e+000	 3.861471553909891e-002	 5.643398252531825e+001
1	 2.039186452323067e+000	 5.802964754823859e-002	 5.513418621366247e+001
1	 2.038538809225204e+000	 7.751325350878056e-002	 5.382409874421833e+001
1	 2.037701523572295e+000	 9.706317985488830e-002	 5.250218705531735e+001
1	 2.036672591770513e+000	 1.166770156668700e-001	 5.116695809360770e+001
1	 2.035450041711373e+000	 1.363522928739358e-001	 4.981696181317907e+001
1	 2.034031934430634e+000	 1.560864865078590e-001	 4.845079419130134e+001
1	 2.032416365777704e+000	 1.758770150086029e-001	 4.706710025577966e+001
1	 2.030601468093916e+000	 1.957212405829273e-001	 4.566457711872716e+001
1	 2.066680000016667e+000	 0.000000000000000e+000	 6.081620512744733e+001
1	 2.066587782836231e+000	 1.952266992886615e-002	 5.947312761885335e+001
1	 2.066309708129336e+000	 3.911950533160163e-002	 5.812100298301994e+001
1	 2.065843660373092e+000	 5.878823849825369e-002	 5.675830848849875e+001
1	 2.065187550979181e+000	 7.852654335463230e-002	 5.538356870045881e+001
1	 2.064339319933258e+000	 9.833203556797766e-002	 5.399535859371142e+001
1	 2.063296937449552e+000	 1.182022727019178e-001	 5.259230667482118e+001
1	 2.062058405639229e+000	 1.381347544218766e-001	 5.117309810789559e+001
1	 2.060621760190974e+000	 1.581269227520511e-001	 4.973647783844243e+001
1	 2.058985072062221e+000	 1.781761623850334e-001	 4.828125370949041e+001
1	 2.057146449179369e+000	 1.982798010451051e-001	 4.680629956398108e+001
1	 1.791696638310540e+000	 1.726941964264003e-001	 3.544340248619254e+001
1	 1.789918055920011e+000	 1.902460768972756e-001	 3.460066699676102e+001
1	 1.787960456968690e+000	 2.078405596541674e-001	 3.376910661145676e+001
1	 1.785822300004091e+000	 2.254752103484413e-001	 3.294753780345672e+001
1	 1.783502081636491e+000	 2.431475478902916e-001	 3.213479845151592e+001
1	 1.780998338017287e+000	 2.608550450100400e-001	 3.132975004604348e+001
1	 1.778309646314947e+000	 2.785951288690977e-001	 3.053127990810717e+001
1	 1.775434626186778e+000	 2.963651817210658e-001	 2.973830341739764e+001
1	 1.772371941244703e+000	 3.141625416233767e-001	 2.894976624503848e+001
1	 1.769120300513190e+000	 3.319845031998169e-001	 2.816464658699077e+001
1	 1.765678459877450e+000	 3.498283184541985e-001	 2.738195739366979e+001
1	 1.818241619397146e+000	 1.752527568885780e-001	 3.653492772978936e+001
1	 1.816436686320356e+000	 1.930646782198457e-001	 3.563867627256403e+001
1	 1.814450084452968e+000	 2.109198330136685e-001	 3.475337733031122e+001
1	 1.812280249505019e+000	 2.288157508551775e-001	 3.387789190731688e+001
1	 1.809925655813227e+000	 2.467499138958354e-001	 3.301110647181409e+001
1	 1.807384817841255e+000	 2.647197574230519e-001	 3.215193516695164e+001
1	 1.804656291677526e+000	 2.827226704801977e-001	 3.129932202771585e+001
1	 1.801738676528800e+000	 3.007559965374987e-001	 3.045224319963323e+001
1	 1.798630616207665e+000	 3.188170342142214e-001	 2.960970915494826e+001
1	 1.795330800612061e+000	 3.369030380524929e-001	 2.877076690184316e+001
1	 1.791837967194950e+000	 3.550112193430273e-001	 2.793450218214849e+001
1	 1.844786600484193e+000	 1.778113173505509e-001	 3.764602138499072e+001
1	 1.842955316721160e+000	 1.958832795422660e-001	 3.669370599134141e+001
1	 1.840939711937706e+000	 2.139991063730644e-001	 3.575208943916611e+001
1	 1.838738199006388e+000	 2.321562913618431e-001	 3.482008470860286e+001
1	 1.836349229990372e+000	 2.503522799013354e-001	 3.389663486836685e+001
1	 1.833771297665584e+000	 2.685844698360398e-001	 3.298071529105009e+001
1	 1.831002937040409e+000	 2.868502120912876e-001	 3.207133586642548e+001
1	 1.828042726871060e+000	 3.051468113539312e-001	 3.116754320835495e+001
1	 1.824889291170791e+000	 3.234715268050728e-001	 3.026842285077855e+001
1	 1.821541300711023e+000	 3.418215729051807e-001	 2.937310142814784e+001
1	 1.817997474512457e+000	 3.601941202318723e-001	 2.848074883556330e+001
1	 1.871331581571538e+000	 1.803698778123701e-001	 3.877271743278190e+001
1	 1.869473947122285e+000	 1.987018808645739e-001	 3.776190253388303e+001
1	 1.867429339422771e+000	 2.170783797323811e-001	 3.676151510356926e+001
1	 1.865196148508078e+000	 2.354968318684564e-001	 3.577052728562875e+001
1	 1.862772804167814e+000	 2.539546459068037e-001	 3.478794648989207e+001
1	 1.860157777490180e+000	 2.724491822490121e-001	 3.381281761127916e+001
1	 1.857349582403519e+000	 2.909777537023743e-001	 3.284422523794516e+001
1	 1.854346777213499e+000	 3.095376261703707e-001	 3.188129584387121e+001
1	 1.851147966134042e+000	 3.281260193959392e-001	 3.092319996113639e+001
1	 1.847751800810049e+000	 3.467401077578917e-001	 2.996915432700855e+001
1	 1.844156981829971e+000	 3.653770211207496e-001	 2.901842400090367e+001
1	 1.897876562659040e+000	 1.829284382740870e-001	 3.991127173981455e+001
1	 1.895992577523594e+000	 2.015204821868070e-001	 3.883962787824633e+001
1	 1.893918966908032e+000	 2.201576530916455e-001	 3.777813504909341e+001
1	 1.891654098009965e+000	 2.388373723750355e-001	 3.672583150502231e+001
1	 1.889196378345448e+000	 2.575570119122527e-001	 3.568179648236777e+001
1	 1.886544257314950e+000	 2.763138946619772e-001	 3.464515242332233e+001
1	 1.883696227766776e+000	 2.951052953134651e-001	 3.361506717737793e+001
1	 1.880650827556055e+000	 3.139284409868237e-001	 3.259075617708656e+001
1	 1.877406641097374e+000	 3.327805119868296e-001	 3.157148458311277e+001
1	 1.873962300909120e+000	 3.516586426106381e-001	 3.055656939346822e+001
1	 1.870316489147490e+000	 3.705599220096755e-001	 2.954538151174789e+001
1	 1.924421543746556e+000	 1.854869987357526e-001	 4.105814675523475e+001
1	 1.922511207924948e+000	 2.043390835090027e-001	 3.992344473028737e+001
1	 1.920408594393359e+000	 2.232369264508839e-001	 3.879862417721706e+001
1	 1.918112047511930e+000	 2.421779128815985e-001	 3.768279617361080e+001
1	 1.915619952523162e+000	 2.611593779176943e-001	 3.657511902653503e+001
1	 1.912930737139797e+000	 2.801786070749439e-001	 3.547480049724331e+001
1	 1.910042873130104e+000	 2.992328369245657e-001	 3.438109999436207e+001
1	 1.906954877898667e+000	 3.183192558032973e-001	 3.329333073031818e+001
1	 1.903665316060748e+000	 3.374350045777525e-001	 3.221086183569449e+001
1	 1.900172801008211e+000	 3.565771774634312e-001	 3.113312042613451e+001
1	 1.896475996465010e+000	 3.757428228986662e-001	 3.005959361636637e+001
1	 1.950966524833943e+000	 1.880455591974182e-001	 4.220999745680690e+001
1	 1.949029838326206e+000	 2.071576848311984e-001	 4.101010286808147e+001
1	 1.946898221878620e+000	 2.263161998101231e-001	 3.981983835547239e+001
1	 1.944569997013850e+000	 2.455184533881637e-001	 3.863839432081663e+001
1	 1.942043526700847e+000	 2.647617439231412e-001	 3.746501515810346e+001
1	 1.939317216964629e+000	 2.840433194879206e-001	 3.629900148005717e+001
1	 1.936389518493424e+000	 3.033603785356841e-001	 3.513971230151069e+001
1	 1.933258928241277e+000	 3.227100706197985e-001	 3.398656717400595e+001
1	 1.929923991024120e+000	 3.420894971687166e-001	 3.283904826599789e+001
1	 1.926383301107304e+000	 3.614957123162832e-001	 3.169670238299418e+001
1	 1.922635503782531e+000	 3.809257237877376e-001	 3.055914292193105e+001
1	 1.977511505921061e+000	 1.906041196591351e-001	 4.336365842894445e+001
1	 1.975548468727234e+000	 2.099762861534317e-001	 4.209652658617198e+001
1	 1.973387849363684e+000	 2.293954731693894e-001	 4.083880227152275e+001
1	 1.971027946515604e+000	 2.488589938947491e-001	 3.958976150533649e+001
1	 1.968467100878397e+000	 2.683641099286054e-001	 3.834874156892402e+001
1	 1.965703696789349e+000	 2.879080319009157e-001	 3.711514323236499e+001
1	 1.962736163856657e+000	 3.074879201468265e-001	 3.588843292650741e+001
1	 1.959562978583822e+000	 3.271008854363341e-001	 3.466814485325538e+001
1	 1.956182665987450e+000	 3.467439897597304e-001	 3.345388302818984e+001
1	 1.952593801206374e+000	 3.664142471692058e-001	 3.224532324954342e+001
1	 1.948795011100049e+000	 3.861086246769064e-001	 3.104221498754276e+001
1	 2.004056487007765e+000	 1.931626801209543e-001	 4.451613196769807e+001
1	 2.002067099127891e+000	 2.127948874757400e-001	 4.317980313767179e+001
1	 1.999877476848420e+000	 2.324747465287094e-001	 4.185269825252163e+001
1	 1.997485896017071e+000	 2.521995344013732e-001	 4.053418505113181e+001
1	 1.994890675055700e+000	 2.719664759340992e-001	 3.922370029817476e+001
1	 1.992090176613864e+000	 2.917727443139377e-001	 3.792075201244613e+001
1	 1.989082809219724e+000	 3.116154617579996e-001	 3.662492162592510e+001
1	 1.985867028926242e+000	 3.314917002529110e-001	 3.533586606727175e+001
1	 1.982441340950695e+000	 3.513984823508029e-001	 3.405331976345306e+001
1	 1.978804301305400e+000	 3.713327820222112e-001	 3.277709655318808e+001
1	 1.974954518417563e+000	 3.912915255661883e-001	 3.150709150591847e+001
1	 2.030601468093916e+000	 1.957212405829273e-001	 4.566457711872716e+001
1	 2.028585729528039e+000	 2.156134887981609e-001	 4.425717208290637e+001
1	 2.026367104332694e+000	 2.355540198881095e-001	 4.285885596142361e+001
1	 2.023943845518130e+000	 2.555400749080538e-001	 4.146909412769331e+001
1	 2.021314249232647e+000	 2.755688419396347e-001	 4.008742923211641e+001
1	 2.018476656438079e+000	 2.956374567269953e-001	 3.871348343025932e+001
1	 2.015429454582549e+000	 3.157430033692104e-001	 3.734696052740502e+001
1	 2.012171079268478e+000	 3.358825150695361e-001	 3.598764803279009e+001
1	 2.008700015913814e+000	 3.560529749419423e-001	 3.463541911684494e+001
1	 2.005014801404359e+000	 3.762513168753105e-001	 3.329023446477603e+001
1	 2.001114025735070e+000	 3.964744264555998e-001	 3.195214401987167e+001
1	 2.057146449179369e+000	 1.982798010451051e-001	 4.680629956398108e+001
1	 2.055104359927541e+000	 2.184320901207318e-001	 4.532601546271395e+001
1	 2.052856731816378e+000	 2.386332932476165e-001	 4.385474289103463e+001
1	 2.050401795018658e+000	 2.588806154148092e-001	 4.239205059831787e+001
1	 2.047737823409130e+000	 2.791712079452241e-001	 4.093759333938319e+001
1	 2.044863136261900e+000	 2.995021691400968e-001	 3.949111410181013e+001
1	 2.041776099945052e+000	 3.198705449804656e-001	 3.805244623440568e+001
1	 2.038475129610468e+000	 3.402733298862165e-001	 3.662151546971870e+001
1	 2.034958690876766e+000	 3.607074675331576e-001	 3.519834183352152e+001
1	 2.031225301503230e+000	 3.811698517285159e-001	 3.378304143422714e+001
1	 2.027273533052570e+000	 4.016573273451569e-001	 3.237582812528007e+001
1	 1.765678459877450e+000	 3.498283184541985e-001	 2.738195739366979e+001
1	 1.762044664318403e+000	 3.676938779329496e-001	 2.660902714316118e+001
1	 1.758218270537386e+000	 3.855756710127969e-001	 2.585348332606673e+001
1	 1.754198184645169e+000	 4.034708216724215e-001	 2.511449875793770e+001
1	 1.749983365329663e+000	 4.213764149277031e-001	 2.439129574409262e+001
1	 1.745572825227723e+000	 4.392894979044454e-001	 2.368314825779423e+001
1	 1.740965632275259e+000	 4.572070809624127e-001	 2.298938407082393e+001
1	 1.736160911033618e+000	 4.751261388703825e-001	 2.230938683090440e+001
1	 1.731157843990140e+000	 4.930436120318356e-001	 2.164259808040081e+001
1	 1.725955672830830e+000	 5.109564077608136e-001	 2.098851921072628e+001
1	 1.720553699683057e+000	 5.288614016073797e-001	 2.034671334688862e+001
1	 1.791837967194950e+000	 3.550112193430273e-001	 2.793450218214850e+001
1	 1.788150334935661e+000	 3.731414670106319e-001	 2.710853902214323e+001
1	 1.784267251004713e+000	 3.912881887890966e-001	 2.630080756107392e+001
1	 1.780187605306307e+000	 4.094484660472604e-001	 2.551054636725142e+001
1	 1.775910341100748e+000	 4.276193406139058e-001	 2.473704800975628e+001
1	 1.771434456396564e+000	 4.457978158663766e-001	 2.397966121188710e+001
1	 1.766759005320630e+000	 4.639808578712684e-001	 2.323779294823641e+001
1	 1.761883099464191e+000	 4.821653965768894e-001	 2.251091047967993e+001
1	 1.756805909202691e+000	 5.003483270571109e-001	 2.179854332056204e+001
1	 1.751526664987303e+000	 5.185265108061258e-001	 2.110028513237347e+001
1	 1.746044658606035e+000	 5.366967770835491e-001	 2.041579553824849e+001
1	 1.817997474512457e+000	 3.601941202318723e-001	 2.848074883556329e+001
1	 1.814256005552847e+000	 3.785890560883355e-001	 2.759930661554845e+001
1	 1.810316231471889e+000	 3.970007065654229e-001	 2.673703152813511e+001
1	 1.806177025967220e+000	 4.154261104221302e-001	 2.589324147490434e+001
1	 1.801837316871536e+000	 4.338622663001412e-001	 2.506731274865642e+001
1	 1.797296087565045e+000	 4.523061338283390e-001	 2.425868213682698e+001
1	 1.792552378365584e+000	 4.707546347801496e-001	 2.346684895938086e+001
1	 1.787605287894299e+000	 4.892046542834107e-001	 2.269137703534661e+001
1	 1.782453974414742e+000	 5.076530420823824e-001	 2.193189657216941e+001
1	 1.777097657143252e+000	 5.260966138514088e-001	 2.118810597209390e+001
1	 1.771535617528480e+000	 5.445321525596547e-001	 2.045977354984061e+001
1	 1.844156981829971e+000	 3.653770211207496e-001	 2.901842400090367e+001
1	 1.840361676169979e+000	 3.840366451660823e-001	 2.807927873728193e+001
1	 1.836365211938953e+000	 4.027132243418037e-001	 2.716031445707155e+001
1	 1.832166446627964e+000	 4.214037547970656e-001	 2.626094148118353e+001
1	 1.827764292642103e+000	 4.401051919864520e-001	 2.538063279641807e+001
1	 1.823157718733256e+000	 4.588144517903843e-001	 2.451892608408774e+001
1	 1.818345751410225e+000	 4.775284116891163e-001	 2.367542567359422e+001
1	 1.813327476324059e+000	 4.962439119900156e-001	 2.284980441503727e+001
1	 1.808102039626417e+000	 5.149577571077297e-001	 2.204180546497193e+001
1	 1.802668649298809e+000	 5.336667168967519e-001	 2.125124397948471e+001
1	 1.797026576450526e+000	 5.523675280357959e-001	 2.047800870883441e+001
1	 1.870316489147490e+000	 3.705599220096755e-001	 2.954538151174789e+001
1	 1.866467346787076e+000	 3.894842342438936e-001	 2.854651895833235e+001
1	 1.862414192405942e+000	 4.084257421182668e-001	 2.756891856271283e+001
1	 1.858155867288595e+000	 4.273813991721014e-001	 2.661209568440166e+001
1	 1.853691268412522e+000	 4.463481176728810e-001	 2.567563251219731e+001
1	 1.849019349901286e+000	 4.653227697525628e-001	 2.475917999376684e+001
1	 1.844139124454657e+000	 4.843021885982289e-001	 2.386245968028667e+001
1	 1.839049664753587e+000	 5.032831696967739e-001	 2.298526548017609e+001
1	 1.833750104837843e+000	 5.222624721332319e-001	 2.212746531601804e+001
1	 1.828239641454104e+000	 5.412368199422443e-001	 2.128900267884109e+001
1	 1.822517535372305e+000	 5.602029035120719e-001	 2.046989807403516e+001
1	 1.896475996465010e+000	 3.757428228986662e-001	 3.005959361636637e+001
1	 1.892573017404154e+000	 3.949318233217910e-001	 2.899919769212274e+001
1	 1.888463172872894e+000	 4.141382598948402e-001	 2.796120194215246e+001
1	 1.884145287949170e+000	 4.333590435472731e-001	 2.694523894280764e+001
1	 1.879618244182866e+000	 4.525910433594707e-001	 2.595101215610786e+001
1	 1.874880981069227e+000	 4.718310877149263e-001	 2.497829773651905e+001
1	 1.869932497498986e+000	 4.910759655075478e-001	 2.402694624252790e+001
1	 1.864771853182998e+000	 5.103224274037551e-001	 2.309688424704120e+001
1	 1.859398170049142e+000	 5.295671871589681e-001	 2.218811584072361e+001
1	 1.853810633609267e+000	 5.488069229879747e-001	 2.130072402249325e+001
1	 1.848008494293951e+000	 5.680382789885818e-001	 2.043487197151868e+001
1	 1.922635503782531e+000	 3.809257237877376e-001	 3.055914292193105e+001
1	 1.918678688021233e+000	 4.003794123997962e-001	 2.943558492598434e+001
1	 1.914512153339845e+000	 4.198507776715516e-001	 2.833561205184602e+001
1	 1.910134708609745e+000	 4.393366879226153e-001	 2.725898585391614e+001
1	 1.905545219953211e+000	 4.588339690462645e-001	 2.620554272565405e+001
1	 1.900742612237167e+000	 4.783394056775260e-001	 2.517519556024880e+001
1	 1.895725870543315e+000	 4.978497424171325e-001	 2.416793530545887e+001
1	 1.890494041612410e+000	 5.173616851110288e-001	 2.318383240668323e+001
1	 1.885046235260442e+000	 5.368719021850177e-001	 2.222303813243660e+001
1	 1.879381625764431e+000	 5.563770260340328e-001	 2.128578577653462e+001
1	 1.873499453215596e+000	 5.758736544654248e-001	 2.037239173144798e+001
1	 1.948795011100049e+000	 3.861086246769064e-001	 3.104221498754276e+001
1	 1.944784358638330e+000	 4.058270014779307e-001	 2.985404353804195e+001
1	 1.940561133806835e+000	 4.255632954484291e-001	 2.869067971006741e+001
1	 1.936124129270376e+000	 4.453143322981630e-001	 2.755202540263718e+001
1	 1.931472195723630e+000	 4.650768947333048e-001	 2.643806120804044e+001
1	 1.926604243405198e+000	 4.848477236404131e-001	 2.534884790352845e+001
1	 1.921519243587748e+000	 5.046235193270440e-001	 2.428452782618838e+001
1	 1.916216230041939e+000	 5.244009428186647e-001	 2.324532612513170e+001
1	 1.910694300471868e+000	 5.441766172114603e-001	 2.223155188526913e+001
1	 1.904952617919726e+000	 5.639471290805075e-001	 2.124359911710501e+001
1	 1.898990412137376e+000	 5.837090299427000e-001	 2.028194760716798e+001
1	 1.974954518417563e+000	 3.912915255661883e-001	 3.150709150591846e+001
1	 1.970890029255462e+000	 4.112745905562160e-001	 3.025302314523107e+001
1	 1.966610114273898e+000	 4.312758132255003e-001	 2.902501357601244e+001
1	 1.962113549931120e+000	 4.512919766739514e-001	 2.782311603473886e+001
1	 1.957399171494197e+000	 4.713198204206343e-001	 2.664746620979813e+001
1	 1.952465874573409e+000	 4.913560416036388e-001	 2.549828354174002e+001
1	 1.947312616632389e+000	 5.113972962373419e-001	 2.437587239536672e+001
1	 1.941938418471698e+000	 5.314402005267319e-001	 2.328062309790107e+001
1	 1.936342365683544e+000	 5.514813322383744e-001	 2.221301283764170e+001
1	 1.930523610075283e+000	 5.715172321274878e-001	 2.117360641770609e+001
1	 1.924481371059422e+000	 5.915444054205067e-001	 2.016305685967761e+001
1	 2.001114025735070e+000	 3.964744264555998e-001	 3.195214401987167e+001
1	 1.996995699872648e+000	 4.167221796346737e-001	 3.063105443384530e+001
1	 1.992659094741075e+000	 4.369883310027933e-001	 2.933729506193290e+001
1	 1.988102970592032e+000	 4.572696210500152e-001	 2.807108111672239e+001
1	 1.983326147264985e+000	 4.775627461082961e-001	 2.683271392920085e+001
1	 1.978327505741890e+000	 4.978643595672543e-001	 2.562258203549348e+001
1	 1.973105989677343e+000	 5.181710731480865e-001	 2.444116212374519e+001
1	 1.967660606901807e+000	 5.384794582353005e-001	 2.328901983552578e+001
1	 1.961990430895594e+000	 5.587860472658397e-001	 2.216681041634246e+001
1	 1.956094602231232e+000	 5.790873351750629e-001	 2.107527921006860e+001
1	 1.949972329981867e+000	 5.993797808989435e-001	 2.001526199234596e+001
1	 2.027273533052570e+000	 4.016573273451569e-001	 3.237582812528007e+001
1	 2.023101370489906e+000	 4.221697687133256e-001	 3.098674392902786e+001
1	 2.018708075208402e+000	 4.427008487803357e-001	 2.962627363918736e+001
1	 2.014092391253171e+000	 4.632472654263895e-001	 2.829480474720575e+001
1	 2.009253123036069e+000	 4.838056717963328e-001	 2.699281444050729e+001
1	 2.004189136910731e+000	 5.043726775313110e-001	 2.572087045401839e+001
1	 1.998899362722714e+000	 5.249448500593382e-001	 2.447963176978719e+001
1	 1.993382795332379e+000	 5.455187159444398e-001	 2.326984915925703e+001
1	 1.987638496108145e+000	 5.660907622939356e-001	 2.209236556298970e+001
1	 1.981665594387705e+000	 5.866574382233224e-001	 2.094811630289452e+001
1	 1.975463288904845e+000	 6.072151563781103e-001	 1.983812912230161e+001
1	 1.720553699683057e+000	 5.288614016073797e-001	 2.034671334688862e+001
1	 1.714951287895950e+000	 5.467554384699808e-001	 1.971815516353193e+001
1	 1.709147861924183e+000	 5.646353332059860e-001	 1.910391029350942e+001
1	 1.703142909757176e+000	 5.824978728425351e-001	 1.850376077028352e+001
1	 1.696935984454057e+000	 6.003398183486900e-001	 1.791753608611205e+001
1	 1.690526705208835e+000	 6.181579061975373e-001	 1.734511398858227e+001
1	 1.683914758373382e+000	 6.359488499726911e-001	 1.678642119702569e+001
1	 1.677099898436262e+000	 6.537093420179821e-001	 1.624143403565276e+001
1	 1.670081948955454e+000	 6.714360551290194e-001	 1.571017898038731e+001
1	 1.662860803443095e+000	 6.891256442852184e-001	 1.519273311653465e+001
1	 1.655436426200365e+000	 7.067747484208016e-001	 1.468922450458347e+001
1	 1.746044658606035e+000	 5.366967770835491e-001	 2.041579553824849e+001
1	 1.740359243975685e+000	 5.548559240432534e-001	 1.974580855587747e+001
1	 1.734469837023907e+000	 5.730007193529454e-001	 1.909115214612179e+001
1	 1.728375918154393e+000	 5.911279024377772e-001	 1.845171483511317e+001
1	 1.722077033804590e+000	 6.092341862787581e-001	 1.782743569176229e+001
1	 1.715572797526653e+000	 6.273162589980009e-001	 1.721830498417629e+001
1	 1.708862891025579e+000	 6.453707854890249e-001	 1.662436474751601e+001
1	 1.701947065152540e+000	 6.633944090908884e-001	 1.604570926025139e+001
1	 1.694825140851425e+000	 6.813837533048076e-001	 1.548248542593881e+001
1	 1.687497010056690e+000	 6.993354235518501e-001	 1.493489305782141e+001
1	 1.679962636540613e+000	 7.172460089701713e-001	 1.440318506374400e+001
1	 1.771535617528480e+000	 5.445321525596547e-001	 2.045977354984061e+001
1	 1.765767200054896e+000	 5.629564096164186e-001	 1.974738941181084e+001
1	 1.759791812123126e+000	 5.813661054997464e-001	 1.905152814276044e+001
1	 1.753608926551138e+000	 5.997579320328049e-001	 1.837217770327365e+001
1	 1.747218083154697e+000	 6.181285542085545e-001	 1.770937921221888e+001
1	 1.740618889844100e+000	 6.364746117981359e-001	 1.706322746638513e+001
1	 1.733811023677468e+000	 6.547927210049779e-001	 1.643387136393942e+001
1	 1.726794231868579e+000	 6.730794761633666e-001	 1.582151422879249e+001
1	 1.719568332747231e+000	 6.913314514801310e-001	 1.522641403314726e+001
1	 1.712133216670199e+000	 7.095452028179921e-001	 1.464888351570297e+001
1	 1.704488846880856e+000	 7.277172695190416e-001	 1.408929019320235e+001
1	 1.797026576450526e+000	 5.523675280357959e-001	 2.047800870883441e+001
1	 1.791175156133712e+000	 5.710568951895859e-001	 1.972234319432429e+001
1	 1.785113787221967e+000	 5.897314916465082e-001	 1.898455406692870e+001
1	 1.778841934947530e+000	 6.083879616277473e-001	 1.826472201979436e+001
1	 1.772359132504484e+000	 6.270229221382164e-001	 1.756298306536554e+001
1	 1.765664982161268e+000	 6.456329645980879e-001	 1.687952892141833e+001
1	 1.758759156329126e+000	 6.642146565207018e-001	 1.621460729409932e+001
1	 1.751641398584439e+000	 6.827645432355753e-001	 1.556852205519350e+001
1	 1.744311524642915e+000	 7.012791496551516e-001	 1.494163331105268e+001
1	 1.736769423283643e+000	 7.197549820838096e-001	 1.433435736083653e+001
1	 1.729015057221095e+000	 7.381885300675790e-001	 1.374716654194922e+001
1	 1.822517535372305e+000	 5.602029035120719e-001	 2.046989807403516e+001
1	 1.816583112212264e+000	 5.791573807628641e-001	 1.967014639092513e+001
1	 1.810435762320553e+000	 5.980968777933491e-001	 1.888977279244510e+001
1	 1.804074943343685e+000	 6.170179912227317e-001	 1.812894433880585e+001
1	 1.797500181854058e+000	 6.359172900678811e-001	 1.738788512924090e+001
1	 1.790711074478250e+000	 6.547913173980022e-001	 1.666687655747044e+001
1	 1.783707288980629e+000	 6.736365920363487e-001	 1.596625745813526e+001
1	 1.776488565300180e+000	 6.924496103076727e-001	 1.528642414157159e+001
1	 1.769054716538517e+000	 7.112268478300332e-001	 1.462783031452288e+001
1	 1.761405629897045e+000	 7.299647613494685e-001	 1.399098688462273e+001
1	 1.753541267561331e+000	 7.486597906159502e-001	 1.337646164673435e+001
1	 1.848008494293951e+000	 5.680382789885818e-001	 2.043487197151868e+001
1	 1.841991068290684e+000	 5.872578663363626e-001	 1.959030437391448e+001
1	 1.835757737419014e+000	 6.064622639403886e-001	 1.876675241505889e+001
1	 1.829307951739722e+000	 6.256480208178875e-001	 1.796446347455940e+001
1	 1.822641231203525e+000	 6.448116579976857e-001	 1.718374326195870e+001
1	 1.815757166795140e+000	 6.639496701980235e-001	 1.642495594452059e+001
1	 1.808655421632055e+000	 6.830585275520714e-001	 1.568852416071528e+001
1	 1.801335732015862e+000	 7.021346773798167e-001	 1.497492891692975e+001
1	 1.793797908434078e+000	 7.211745460049378e-001	 1.428470936517056e+001
1	 1.786041836510427e+000	 7.401745406151347e-001	 1.361846245978122e+001
1	 1.778067477901566e+000	 7.591310511643219e-001	 1.297684249146377e+001
1	 1.873499453215596e+000	 5.758736544654248e-001	 2.037239173144798e+001
1	 1.867399024369105e+000	 5.953583519101902e-001	 1.948234943534505e+001
1	 1.861079712517474e+000	 6.148276500877451e-001	 1.861508453659357e+001
1	 1.854540960135761e+000	 6.342780504133426e-001	 1.777091898706355e+001
1	 1.847782280552992e+000	 6.537060259277667e-001	 1.695023394245660e+001
1	 1.840803259112029e+000	 6.731080229982975e-001	 1.615346976517395e+001
1	 1.833603554283482e+000	 6.924804630680213e-001	 1.538112590836030e+001
1	 1.826182898731544e+000	 7.118197444521655e-001	 1.463376067881130e+001
1	 1.818541100329639e+000	 7.311222441800274e-001	 1.391199087669071e+001
1	 1.810678043123807e+000	 7.503843198809727e-001	 1.321649131027207e+001
1	 1.802593688241801e+000	 7.696023117128608e-001	 1.254799418420277e+001
1	 1.898990412137376e+000	 5.837090299427000e-001	 2.028194760716798e+001
1	 1.892806980447657e+000	 6.034588374844561e-001	 1.934583898024495e+001
1	 1.886401687616062e+000	 6.231930362355383e-001	 1.843438268728653e+001
1	 1.879773968531916e+000	 6.429080800092252e-001	 1.754796978968818e+001
1	 1.872923329902566e+000	 6.626003938582620e-001	 1.668705102071951e+001
1	 1.865849351429012e+000	 6.822663757989691e-001	 1.585213666611100e+001
1	 1.858551686934985e+000	 7.019023985843514e-001	 1.504379632202194e+001
1	 1.851030065447285e+000	 7.215048115248769e-001	 1.426265852824884e+001
1	 1.843284292225242e+000	 7.410699423554661e-001	 1.350941027480556e+001
1	 1.835314249737209e+000	 7.605940991471488e-001	 1.278479638028824e+001
1	 1.827119898582037e+000	 7.800735722617330e-001	 1.208961874073379e+001
1	 1.924481371059422e+000	 5.915444054205067e-001	 2.016305685967761e+001
1	 1.918214936526472e+000	 6.115593230592692e-001	 1.918035386343215e+001
1	 1.911723662714902e+000	 6.315584223838865e-001	 1.822428087351145e+001
1	 1.905006976928308e+000	 6.515381096056636e-001	 1.729529286742760e+001
1	 1.898064379252353e+000	 6.714947617893090e-001	 1.639390456732755e+001
1	 1.890895443746181e+000	 6.914247286001838e-001	 1.552069020081655e+001
1	 1.883499819586643e+000	 7.113243341012138e-001	 1.467628313608180e+001
1	 1.875877232163145e+000	 7.311898785981096e-001	 1.386137538935643e+001
1	 1.868027484120925e+000	 7.510176405314150e-001	 1.307671700304589e+001
1	 1.859950456350654e+000	 7.708038784138285e-001	 1.232311529313369e+001
1	 1.851646108922276e+000	 7.905448328111059e-001	 1.160143396478944e+001
1	 1.949972329981867e+000	 5.993797808989435e-001	 2.001526199234596e+001
1	 1.943622892605683e+000	 6.196598086347391e-001	 1.898549685678116e+001
1	 1.937045637814120e+000	 6.399238085329084e-001	 1.798443223940956e+001
1	 1.930239985325053e+000	 6.601681392027861e-001	 1.701258209569644e+001
1	 1.923205428602461e+000	 6.803891297210442e-001	 1.607051981323965e+001
1	 1.915941536063627e+000	 7.005830814020861e-001	 1.515887785523557e+001
1	 1.908447952238531e+000	 7.207462696187605e-001	 1.427834727586397e+001
1	 1.900724398879184e+000	 7.408749456720213e-001	 1.342967710581996e+001
1	 1.892770676016732e+000	 7.609653387080378e-001	 1.261367360651344e+001
1	 1.884586662964163e+000	 7.810136576811767e-001	 1.183119939176147e+001
1	 1.876172319262519e+000	 8.010160933611453e-001	 1.108317241611450e+001
1	 1.975463288904845e+000	 6.072151563781103e-001	 1.983812912230161e+001
1	 1.969030848685419e+000	 6.277602942109749e-001	 1.876089123515800e+001
1	 1.962367612913845e+000	 6.482891946827240e-001	 1.771450783214131e+001
1	 1.955472993722270e+000	 6.687981688007213e-001	 1.669954715057758e+001
1	 1.948346477952993e+000	 6.892834976536050e-001	 1.571663617166166e+001
1	 1.940987628381445e+000	 7.097414342048217e-001	 1.476646014886547e+001
1	 1.933396084890728e+000	 7.301682051371444e-001	 1.384976200656926e+001
1	 1.925571565595462e+000	 7.505600127467703e-001	 1.296734160733985e+001
1	 1.917513867912702e+000	 7.709130368854965e-001	 1.212005488658118e+001
1	 1.909222869577758e+000	 7.912234369493599e-001	 1.130881285359616e+001
1	 1.900698529602766e+000	 8.114873539120181e-001	 1.053458045842302e+001
1	 1.655436426200365e+000	 7.067747484208016e-001	 1.468922450458347e+001
1	 1.647810012626662e+000	 7.243773551837668e-001	 1.419802072182496e+001
1	 1.639980573555821e+000	 7.419327295049750e-001	 1.371717996302997e+001
1	 1.631948291327146e+000	 7.594374756351380e-001	 1.324665274790920e+001
1	 1.623713421824428e+000	 7.768881892624319e-001	 1.278642264310104e+001
1	 1.615276295033542e+000	 7.942814594508109e-001	 1.233650631121374e+001
1	 1.606637315540310e+000	 8.116138706063586e-001	 1.189695349197436e+001
1	 1.597796962967233e+000	 8.288820044695902e-001	 1.146784691450337e+001
1	 1.588755792347744e+000	 8.460824421315375e-001	 1.104930213989891e+001
1	 1.579514434436757e+000	 8.632117660713861e-001	 1.064146733348340e+001
1	 1.570073595956371e+000	 8.802665622133532e-001	 1.024452296624155e+001
1	 1.679962636540613e+000	 7.172460089701713e-001	 1.440318506374400e+001
1	 1.672223233413097e+000	 7.351094081314266e-001	 1.388553593829820e+001
1	 1.664277796852925e+000	 7.529248750760244e-001	 1.337974054377688e+001
1	 1.656126511900855e+000	 7.706889637447699e-001	 1.288578217102086e+001
1	 1.647769638231734e+000	 7.883982193890754e-001	 1.240367655893356e+001
1	 1.639207510720357e+000	 8.060491805379906e-001	 1.193347187929821e+001
1	 1.630440539946704e+000	 8.236383809936843e-001	 1.147524865337148e+001
1	 1.621469212639147e+000	 8.411623518532655e-001	 1.102911959939640e+001
1	 1.612294092054240e+000	 8.586176235547385e-001	 1.059522941034432e+001
1	 1.602915818291883e+000	 8.760007279448256e-001	 1.017375446136937e+001
1	 1.593335108544644e+000	 8.933082003663226e-001	 9.764902446635219e+000
1	 1.704488846880856e+000	 7.277172695190416e-001	 1.408929019320235e+001
1	 1.696636454199607e+000	 7.458414610785946e-001	 1.354558618173988e+001
1	 1.688575020150184e+000	 7.639170206466033e-001	 1.301527621667453e+001
1	 1.680304732474796e+000	 7.819404518539632e-001	 1.249836945033931e+001
1	 1.671825854639347e+000	 7.999082495153213e-001	 1.199490697816918e+001
1	 1.663138726407550e+000	 8.178169016248166e-001	 1.150496177274721e+001
1	 1.654243764353546e+000	 8.356628913807013e-001	 1.102863854929914e+001
1	 1.645141462311571e+000	 8.534426992366735e-001	 1.056607356187564e+001
1	 1.635832391761306e+000	 8.711528049777059e-001	 1.011743432962973e+001
1	 1.626317202147628e+000	 8.887896898180558e-001	 9.682919292773136e+000
1	 1.616596621133582e+000	 9.063498385190917e-001	 9.262757397974470e+000
1	 1.729015057221095e+000	 7.381885300675790e-001	 1.374716654194922e+001
1	 1.721049674986173e+000	 7.565735140254359e-001	 1.317776919573509e+001
1	 1.712872243447557e+000	 7.749091662168746e-001	 1.262336094013589e+001
1	 1.704482953048910e+000	 7.931919399628793e-001	 1.208397020758957e+001
1	 1.695882071047190e+000	 8.114182796413252e-001	 1.155965695948099e+001
1	 1.687069942095028e+000	 8.295846227114402e-001	 1.105051258251416e+001
1	 1.678046988760721e+000	 8.476874017675545e-001	 1.055665971620836e+001
1	 1.668813711984378e+000	 8.657230466199545e-001	 1.007825201082517e+001
1	 1.659370691468799e+000	 8.836879864005771e-001	 9.615473815204036e+000
1	 1.649718586003838e+000	 9.015786516912098e-001	 9.168539794162539e+000
1	 1.639858133723017e+000	 9.193914766717938e-001	 8.737694475298737e+000
1	 1.753541267561331e+000	 7.486597906159502e-001	 1.337646164673435e+001
1	 1.745462895772776e+000	 7.673055669721173e-001	 1.278170522878967e+001
1	 1.737169466745007e+000	 7.859013117870025e-001	 1.220359250819622e+001
1	 1.728661173623140e+000	 8.044434280716768e-001	 1.164216492599596e+001
1	 1.719938287455186e+000	 8.229283097672420e-001	 1.109749512590235e+001
1	 1.711001157782695e+000	 8.413523437980105e-001	 1.056968682576009e+001
1	 1.701850213168122e+000	 8.597119121543899e-001	 1.005887461980690e+001
1	 1.692485961657440e+000	 8.780033940032495e-001	 9.565223711084915e+000
1	 1.682908991176575e+000	 8.962231678234885e-001	 9.088929573522764e+000
1	 1.673119969860359e+000	 9.143676135644235e-001	 8.630217543388920e+000
1	 1.663119646312785e+000	 9.324331148245619e-001	 8.189342339999868e+000
1	 1.778067477901566e+000	 7.591310511643219e-001	 1.297684249146377e+001
1	 1.769876116559397e+000	 7.780376199188031e-001	 1.235703548219396e+001
1	 1.761466690042496e+000	 7.968934573571500e-001	 1.175559090660021e+001
1	 1.752839394197428e+000	 8.156949161805156e-001	 1.117255723561559e+001
1	 1.743994503863259e+000	 8.344383398932268e-001	 1.060801390168499e+001
1	 1.734932373470456e+000	 8.531200648846792e-001	 1.006207115775562e+001
1	 1.725653437575634e+000	 8.717364225413528e-001	 9.534869866750769e+000
1	 1.716158211330630e+000	 8.902837413866996e-001	 9.026581220888334e+000
1	 1.706447290884493e+000	 9.087583492465784e-001	 8.537406390381481e+000
1	 1.696521353717034e+000	 9.271565754378304e-001	 8.067576101239547e+000
1	 1.686381158902719e+000	 9.454747529775295e-001	 7.617350142071705e+000
1	 1.802593688241801e+000	 7.696023117128608e-001	 1.254799418420277e+001
1	 1.794289337346019e+000	 7.887696728656601e-001	 1.190342068459739e+001
1	 1.785763913339985e+000	 8.078856029274806e-001	 1.127899680309176e+001
1	 1.777017614771716e+000	 8.269464042895565e-001	 1.067477233865101e+001
1	 1.768050720271332e+000	 8.459483700194359e-001	 1.009082789309364e+001
1	 1.758863589158218e+000	 8.648877859715959e-001	 9.527274729756648e+000
1	 1.749456661983145e+000	 8.837609329285885e-001	 8.984254562326916e+000
1	 1.739830461003819e+000	 9.025640887704454e-001	 8.461939273189499e+000
1	 1.729985590592412e+000	 9.212935306699824e-001	 7.960530560820114e+000
1	 1.719922737573709e+000	 9.399455373115648e-001	 7.480259515930725e+000
1	 1.709642671492654e+000	 9.585163911308307e-001	 7.021386126263221e+000
1	 1.827119898582037e+000	 7.800735722617330e-001	 1.208961874073379e+001
1	 1.818702558132622e+000	 7.995017258128541e-001	 1.142053978138742e+001
1	 1.810061136637434e+000	 8.188777484981575e-001	 1.077347015929718e+001
1	 1.801195835345945e+000	 8.381978923989577e-001	 1.014845556158907e+001
1	 1.792106936679328e+000	 8.574584001460236e-001	 9.545572399612302e+000
1	 1.782794804845885e+000	 8.766555070589113e-001	 8.964927679137862e+000
1	 1.773259886390545e+000	 8.957854433162426e-001	 8.406658800409133e+000
1	 1.763502710676882e+000	 9.148444361546280e-001	 7.870933287358810e+000
1	 1.753523890300187e+000	 9.338287120938384e-001	 7.357948445483513e+000
1	 1.743324121430230e+000	 9.527344991857624e-001	 6.867930948049843e+000
1	 1.732904184082422e+000	 9.715580292845978e-001	 6.401136350492950e+000
1	 1.851646108922276e+000	 7.905448328111059e-001	 1.160143396478944e+001
1	 1.843115778919188e+000	 8.102337787605508e-001	 1.090808872822878e+001
1	 1.834358359934808e+000	 8.298698940693451e-001	 1.023868895292678e+001
1	 1.825374055920060e+000	 8.494493805088802e-001	 9.593271022406766e+000
1	 1.816163153087172e+000	 8.689684302731456e-001	 8.971902043470617e+000
1	 1.806726020533363e+000	 8.884232281467754e-001	 8.374679739520834e+000
1	 1.797063110797721e+000	 9.078099537044606e-001	 7.801732273422757e+000
1	 1.787174960349689e+000	 9.271247835393879e-001	 7.253217999160007e+000
1	 1.777062190007680e+000	 9.463638935182838e-001	 6.729325141713786e+000
1	 1.766725505286440e+000	 9.655234610605563e-001	 6.230271404778549e+000
1	 1.756165696671858e+000	 9.845996674389648e-001	 5.756303506115827e+000
1	 1.876172319262519e+000	 8.010160933611453e-001	 1.108317241611450e+001
1	 1.867528999705698e+000	 8.209658317089156e-001	 1.036577937923098e+001
1	 1.858655583232066e+000	 8.408620396412051e-001	 9.674348000200727e+000
1	 1.849552276494000e+000	 8.607008686194831e-001	 9.008900402314534e+000
1	 1.840219369494784e+000	 8.804784604009575e-001	 8.369489506663012e+000
1	 1.830657236220556e+000	 9.001909492353390e-001	 7.756198959916570e+000
1	 1.820866335204563e+000	 9.198344640933875e-001	 7.169142991336546e+000
1	 1.810847210022113e+000	 9.394051309248664e-001	 6.608466198184629e+000
1	 1.800600489714745e+000	 9.588990749434547e-001	 6.074343258874992e+000
1	 1.790126889142184e+000	 9.783124229360810e-001	 5.566978573396749e+000
1	 1.779427209260795e+000	 9.976413055940653e-001	 5.086605830722178e+000
1	 1.900698529602766e+000	 8.114873539120181e-001	 1.053458045842302e+001
1	 1.891942220492132e+000	 8.316978846581148e-001	 9.793338461197070e+000
1	 1.882952806529170e+000	 8.518541852139021e-001	 9.080157869445618e+000
1	 1.873730497067709e+000	 8.719523567309262e-001	 8.395041812594611e+000
1	 1.864275585902089e+000	 8.919884905296139e-001	 7.738024365751394e+000
1	 1.854588451907370e+000	 9.119586703247523e-001	 7.109170523035489e+000
1	 1.844669559610956e+000	 9.318589744831690e-001	 6.508576099833820e+000
1	 1.834519459694026e+000	 9.516854783112039e-001	 5.936367563037677e+000
1	 1.824138789421242e+000	 9.714342563694888e-001	 5.392701788495694e+000
1	 1.813528272997309e+000	 9.911013848124718e-001	 4.877765745099980e+000
1	 1.802688721849068e+000	 1.010682943750032e+000	 4.391776105110726e+000
1	 1.570073595956371e+000	 8.802665622133532e-001	 1.024452296624155e+001
1	 1.560432599048893e+000	 8.972459629298201e-001	 9.856778696423580e+000
1	 1.550593705615053e+000	 9.141440024143019e-001	 9.476391494195209e+000
1	 1.540557852787052e+000	 9.309572889204422e-001	 9.103180047209902e+000
1	 1.530326054011600e+000	 9.476824425612989e-001	 8.736989139019061e+000
1	 1.519899398955622e+000	 9.643160974265818e-001	 8.377689900412664e+000
1	 1.509279053342250e+000	 9.808549037040831e-001	 8.025180009202813e+000
1	 1.498466258716638e+000	 9.972955298026260e-001	 7.679383837521070e+000
1	 1.487462332141325e+000	 1.013634664473865e+000	 7.340252545828570e+000
1	 1.476268665820915e+000	 1.029869018930230e+000	 7.007764122970281e+000
1	 1.464886726656035e+000	 1.045995328956277e+000	 6.681923371740275e+000
1	 1.593335108544644e+000	 8.933082003663226e-001	 9.764902446635219e+000
1	 1.583551274911993e+000	 9.105391603372328e-001	 9.366900945884630e+000
1	 1.573566612805977e+000	 9.276875536643393e-001	 8.977758774759984e+000
1	 1.563382073242935e+000	 9.447499383506840e-001	 8.597214547891664e+000
1	 1.552998684684357e+000	 9.617228844344273e-001	 8.225029823652015e+000
1	 1.542417552941194e+000	 9.786029761374548e-001	 7.860989484800702e+000
1	 1.531639861007416e+000	 9.953868140182343e-001	 7.504902073975667e+000
1	 1.520666868822365e+000	 1.012071017126220e+000	 7.156600082879519e+000
1	 1.509499912961594e+000	 1.028652225155088e+000	 6.815940194121215e+000
1	 1.498140406255998e+000	 1.045127100592058e+000	 6.482803474786930e+000
1	 1.486589837339156e+000	 1.061492330860527e+000	 6.157095520933803e+000
1	 1.616596621133582e+000	 9.063498385190917e-001	 9.262757397974468e+000
1	 1.606669950775794e+000	 9.238323577444372e-001	 8.855064166963981e+000
1	 1.596539519997630e+000	 9.412311049141447e-001	 8.457682026503449e+000
1	 1.586206293699568e+000	 9.585425877806584e-001	 8.070281622467711e+000
1	 1.575671315357876e+000	 9.757633263072424e-001	 7.692553446627448e+000
1	 1.564935706927530e+000	 9.928898548479597e-001	 7.324208328993495e+000
1	 1.554000668673342e+000	 1.009918724331957e+000	 6.964977891188950e+000
1	 1.542867478928837e+000	 1.026846504449323e+000	 6.614614959510649e+000
1	 1.531537493782587e+000	 1.043669785835758e+000	 6.272893936435834e+000
1	 1.520012146691774e+000	 1.060385182253275e+000	 5.939611129426101e+000
1	 1.508292948022929e+000	 1.076989332764112e+000	 5.614585035984349e+000
1	 1.639858133723017e+000	 9.193914766717938e-001	 8.737694475298737e+000
1	 1.629788626640121e+000	 9.371255551515679e-001	 8.320908686487629e+000
1	 1.619512427189830e+000	 9.547746561638559e-001	 7.915837050650780e+000
1	 1.609030514156762e+000	 9.723352372105052e-001	 7.522093869522314e+000
1	 1.598343946031964e+000	 9.898037681798880e-001	 7.139310243687214e+000
1	 1.587453860914438e+000	 1.007176733558246e+000	 6.767134659476847e+000
1	 1.576361476339833e+000	 1.024450634645407e+000	 6.405233542860877e+000
1	 1.565068089035861e+000	 1.041621991772096e+000	 6.053291778843811e+000
1	 1.553575074604111e+000	 1.058687346516041e+000	 5.711013194949970e+000
1	 1.541883887128053e+000	 1.075643263914047e+000	 5.378121007463069e+000
1	 1.529996058707169e+000	 1.092486334667199e+000	 5.054358229172742e+000
1	 1.663119646312785e+000	 9.324331148245619e-001	 8.189342339999868e+000
1	 1.652907302504798e+000	 9.504187525587583e-001	 7.764094953808635e+000
1	 1.642485334382394e+000	 9.683182074136089e-001	 7.351917786278582e+000
1	 1.631854734614329e+000	 9.861278866403652e-001	 6.952379966800212e+000
1	 1.621016576706430e+000	 1.003844210052509e+000	 6.565064424058945e+000
1	 1.609972014901722e+000	 1.021463612268464e+000	 6.189568550765396e+000
1	 1.598722284006695e+000	 1.038982544958740e+000	 5.825504841146347e+000
1	 1.587268699143245e+000	 1.056397479094699e+000	 5.472501499582217e+000
1	 1.575612655425975e+000	 1.073704907196097e+000	 5.130203018837759e+000
1	 1.563755627564647e+000	 1.090901345574538e+000	 4.798270726398150e+000
1	 1.551699169391692e+000	 1.107983336569954e+000	 4.476383297495545e+000
1	 1.686381158902719e+000	 9.454747529775295e-001	 7.617350142071707e+000
1	 1.676025978369649e+000	 9.637119499661433e-001	 7.184302152981683e+000
1	 1.665458241575140e+000	 9.818617586635405e-001	 6.765635059370125e+000
1	 1.654678955072082e+000	 9.999205360703791e-001	 6.360883562247327e+000
1	 1.643689207381082e+000	 1.017884651925251e+000	 5.969593206722279e+000
1	 1.632490168889190e+000	 1.035750490978762e+000	 5.591321108259150e+000
1	 1.621083091673733e+000	 1.053514455272107e+000	 5.225636657261683e+000
1	 1.609469309250792e+000	 1.071172966417289e+000	 4.872122200280238e+000
1	 1.597650236247988e+000	 1.088722467876090e+000	 4.530373696183056e+000
1	 1.585627368001368e+000	 1.106159427234916e+000	 4.200001345684257e+000
1	 1.573402280076318e+000	 1.123480338472545e+000	 3.880630192678592e+000
1	 1.709642671492654e+000	 9.585163911308307e-001	 7.021386126263221e+000
1	 1.699144654234502e+000	 9.770051473738575e-001	 6.581226928234852e+000
1	 1.688431148767885e+000	 9.954053099137871e-001	 6.156715433993098e+000
1	 1.677503175529833e+000	 1.013713185500686e+000	 5.747362255582694e+000
1	 1.666361838055729e+000	 1.031925093798258e+000	 5.352685935350960e+000
1	 1.655008322876648e+000	 1.050037369689292e+000	 4.972213717808454e+000
1	 1.643443899340753e+000	 1.068046365585667e+000	 4.605482305193635e+000
1	 1.631669919358312e+000	 1.085948453740026e+000	 4.252038594977329e+000
1	 1.619687817069959e+000	 1.103740028556184e+000	 3.911440397574656e+000
1	 1.607499108438030e+000	 1.121417508895345e+000	 3.583257132569802e+000
1	 1.595105390760859e+000	 1.138977340375136e+000	 3.267070501802103e+000
1	 1.732904184082422e+000	 9.715580292845978e-001	 6.401136350492951e+000
1	 1.722263330099178e+000	 9.902983447820338e-001	 5.954582212092422e+000
1	 1.711404055960447e+000	 1.008948861164486e+000	 5.524900156004389e+000
1	 1.700327395987393e+000	 1.027505834931428e+000	 5.111586661895240e+000
1	 1.689034468730179e+000	 1.045965535671676e+000	 4.714143264537951e+000
1	 1.677526476863901e+000	 1.064324248400201e+000	 4.332077355719487e+000
1	 1.665804707007561e+000	 1.082578275899572e+000	 3.964902975044656e+000
1	 1.653870529465609e+000	 1.100723941063069e+000	 3.612141587843301e+000
1	 1.641725397891696e+000	 1.118757589236542e+000	 3.273322848406415e+000
1	 1.629370848874443e+000	 1.136675590555991e+000	 2.947985346800545e+000
1	 1.616808501445135e+000	 1.154474342277896e+000	 2.635677337540387e+000
1	 1.756165696671858e+000	 9.845996674389648e-001	 5.756303506115827e+000
1	 1.745382005963505e+000	 1.003591542190808e+000	 5.304096146631324e+000
1	 1.734376963152643e+000	 1.022492412415774e+000	 4.869944180702369e+000
1	 1.723151616444576e+000	 1.041298484362744e+000	 4.453339549660043e+000
1	 1.711707099404241e+000	 1.060005977545648e+000	 4.053776410694273e+000
1	 1.700044630850756e+000	 1.078611127111641e+000	 3.670751953596306e+000
1	 1.688165514673963e+000	 1.097110186213977e+000	 3.303767211412461e+000
1	 1.676071139572491e+000	 1.115499428386579e+000	 2.952327863217521e+000
1	 1.663762978713008e+000	 1.133775149917325e+000	 2.615945027221055e+000
1	 1.651242589310420e+000	 1.151933672217020e+000	 2.294136042432061e+000
1	 1.638511612128961e+000	 1.169971344180990e+000	 1.986425237124532e+000
1	 1.779427209260795e+000	 9.976413055940653e-001	 5.086605830722178e+000
1	 1.768500681827304e+000	 1.016884739600314e+000	 4.629511089348557e+000
1	 1.757349870344291e+000	 1.036035963667787e+000	 4.191615276745184e+000
1	 1.745975836901192e+000	 1.055091133794776e+000	 3.772415046364134e+000
1	 1.734379730077722e+000	 1.074046419420320e+000	 3.371406461703581e+000
1	 1.722562784837020e+000	 1.092898005823761e+000	 2.988085813001262e+000
1	 1.710526322339763e+000	 1.111642096529037e+000	 2.621950432682803e+000
1	 1.698271749678765e+000	 1.130274915710713e+000	 2.272499507803304e+000
1	 1.685800559533704e+000	 1.148792710598699e+000	 1.939234887714239e+000
1	 1.673114329745773e+000	 1.167191753878597e+000	 1.621661885187080e+000
1	 1.660214722812154e+000	 1.185468346084587e+000	 1.319290069229999e+000
1	 1.802688721849068e+000	 1.010682943750032e+000	 4.391776105110727e+000
1	 1.791619357690404e+000	 1.030177937010685e+000	 3.930582695997150e+000
1	 1.780322777535209e+000	 1.049579514920662e+000	 3.489693199446243e+000
1	 1.768800057357055e+000	 1.068883783227662e+000	 3.068617905634933e+000
1	 1.757052360750431e+000	 1.088086861295837e+000	 2.666863740024961e+000
1	 1.745080938822499e+000	 1.107184884536711e+000	 2.283935065434089e+000
1	 1.732887130004770e+000	 1.126174006844907e+000	 1.919334487539773e+000
1	 1.720472359784236e+000	 1.145050403035631e+000	 1.572563662112999e+000
1	 1.707838140353593e+000	 1.163810271280825e+000	 1.243124102261923e+000
1	 1.694986070180313e+000	 1.182449835540888e+000	 9.305179839533498e-001
1	 1.681917833494530e+000	 1.200965347988850e+000	 6.342489480731774e-001
1	 1.464886726656035e+000	 1.045995328956277e+000	 6.681923371740275e+000
1	 1.453318055313266e+000	 1.062010356656721e+000	 6.359537077337363e+000
1	 1.441564264409459e+000	 1.077910891462778e+000	 6.037508376964010e+000
1	 1.429627039115891e+000	 1.093693753232441e+000	 5.716031556147933e+000
1	 1.417508136850242e+000	 1.109355794658762e+000	 5.395333896723517e+000
1	 1.405209386483143e+000	 1.124893903309479e+000	 5.075675401609021e+000
1	 1.392732687476031e+000	 1.140305003643770e+000	 4.757348455715190e+000
1	 1.380080008951025e+000	 1.155586059003449e+000	 4.440677423321187e+000
1	 1.367253388693743e+000	 1.170734073575938e+000	 4.126018182420809e+000
1	 1.354254932090050e+000	 1.185746094326383e+000	 3.813757596708614e+000
1	 1.341086810997859e+000	 1.200619212896339e+000	 3.504312926040796e+000
1	 1.486589837339156e+000	 1.061492330860527e+000	 6.157095520933803e+000
1	 1.474849769703483e+000	 1.077744630093995e+000	 5.835513828284331e+000
1	 1.462921839857642e+000	 1.093880740157302e+000	 5.514813417261964e+000
1	 1.450807757939659e+000	 1.109897433792857e+000	 5.195023256541596e+000
1	 1.438509307404328e+000	 1.125791517064594e+000	 4.876197171348776e+000
1	 1.426028344218016e+000	 1.141559831427820e+000	 4.558413829282931e+000
1	 1.413366795983732e+000	 1.157199255775851e+000	 4.241776678040635e+000
1	 1.400526660997231e+000	 1.172706708460706e+000	 3.926413834887201e+000
1	 1.387510007235056e+000	 1.188079149285163e+000	 3.612477927848898e+000
1	 1.374318971275530e+000	 1.203313581463499e+000	 3.300145888724547e+000
1	 1.360955757153845e+000	 1.218407053548307e+000	 2.989618698141061e+000
1	 1.508292948022929e+000	 1.076989332764112e+000	 5.614585035984349e+000
1	 1.496381484094301e+000	 1.093478903530556e+000	 5.294332174612134e+000
1	 1.484279415306369e+000	 1.109850588851077e+000	 4.975409131687626e+000
1	 1.471988476763907e+000	 1.126101114352495e+000	 4.657724542338951e+000
1	 1.459510477958825e+000	 1.142227239469625e+000	 4.341204864184312e+000
1	 1.446847301953224e+000	 1.158225759545347e+000	 4.025794552808588e+000
1	 1.434000904491688e+000	 1.174093507907113e+000	 3.711456202635999e+000
1	 1.420973313043610e+000	 1.189827357917149e+000	 3.398170652699172e+000
1	 1.407766625776456e+000	 1.205424224993586e+000	 3.085937056893379e+000
1	 1.394383010461012e+000	 1.220881068599836e+000	 2.774772918395847e+000
1	 1.380824703309748e+000	 1.236194894199525e+000	 2.464714088022585e+000
1	 1.529996058707169e+000	 1.092486334667199e+000	 5.054358229172742e+000
1	 1.517913198485543e+000	 1.109213176966573e+000	 4.736007229832628e+000
1	 1.505636990755471e+000	 1.125820437544266e+000	 4.419393474130916e+000
1	 1.493169195588471e+000	 1.142304794911510e+000	 4.104348393499053e+000
1	 1.480511648513576e+000	 1.158662961874006e+000	 3.790715276152068e+000
1	 1.467666259688621e+000	 1.174891687662203e+000	 3.478349562576461e+000
1	 1.454635012999764e+000	 1.190987760037691e+000	 3.167119117694784e+000
1	 1.441419965090037e+000	 1.206948007372900e+000	 2.856904478996853e+000
1	 1.428023244317834e+000	 1.222769300701319e+000	 2.547599079985996e+000
1	 1.414447049646399e+000	 1.238448555735490e+000	 2.239109448351302e+000
1	 1.400693649465486e+000	 1.253982734850077e+000	 1.931355378340093e+000
1	 1.551699169391692e+000	 1.107983336569954e+000	 4.476383297495545e+000
1	 1.539444912877032e+000	 1.124947450402209e+000	 4.160553261905411e+000
1	 1.526994566204773e+000	 1.141790286237030e+000	 3.846858918283887e+000
1	 1.514349914413188e+000	 1.158508475470063e+000	 3.535095874454308e+000
1	 1.501512819068427e+000	 1.175098684277891e+000	 3.225066662419355e+000
1	 1.488485217424060e+000	 1.191557615778533e+000	 2.916581085870242e+000
1	 1.475269121507824e+000	 1.207882012167718e+000	 2.609456553492585e+000
1	 1.461866617136390e+000	 1.224068656828084e+000	 2.303518397282723e+000
1	 1.448279862859078e+000	 1.240114376408472e+000	 1.998600175123478e+000
1	 1.434511088831594e+000	 1.256016042870559e+000	 1.694543956907114e+000
1	 1.420562595620974e+000	 1.271770575500045e+000	 1.391200593533459e+000
1	 1.573402280076318e+000	 1.123480338472545e+000	 3.880630192678592e+000
1	 1.560976627268588e+000	 1.140681723837632e+000	 3.567983751554627e+000
1	 1.548352141654106e+000	 1.157760134929534e+000	 3.257892835602909e+000
1	 1.535530633237893e+000	 1.174712156028311e+000	 2.950156955909048e+000
1	 1.522513989623221e+000	 1.191534406681430e+000	 2.644578614928905e+000
1	 1.509304175159396e+000	 1.208223543894480e+000	 2.340963639590333e+000
1	 1.495903230015734e+000	 1.224776264297331e+000	 2.039121507202346e+000
1	 1.482313269182544e+000	 1.241189306282822e+000	 1.738865663441108e+000
1	 1.468536481400075e+000	 1.257459452115157e+000	 1.440013831699833e+000
1	 1.454575128016497e+000	 1.273583530005140e+000	 1.142388313111051e+000
1	 1.440431541776130e+000	 1.289558416149514e+000	 8.458162765715517e-001
1	 1.595105390760859e+000	 1.138977340375136e+000	 3.267070501802103e+000
1	 1.582508341660034e+000	 1.156415997273006e+000	 2.958311445824674e+000
1	 1.569709717103297e+000	 1.173729983621940e+000	 2.652577842415414e+000
1	 1.556711352062423e+000	 1.190915836586413e+000	 2.349711269549623e+000
1	 1.543515160177803e+000	 1.207970129084775e+000	 2.049553332064312e+000
1	 1.530123132894483e+000	 1.224889472010190e+000	 1.751945915400442e+000
1	 1.516537338523357e+000	 1.241670516426661e+000	 1.456731437102149e+000
1	 1.502759921228375e+000	 1.258309955737241e+000	 1.163753095527634e+000
1	 1.488793099940716e+000	 1.274804527821486e+000	 8.728551152327474e-001
1	 1.474639167201012e+000	 1.291151017139334e+000	 5.838829884965245e-001
1	 1.460300487930869e+000	 1.307346256798567e+000	 2.966837124672028e-001
1	 1.616808501445135e+000	 1.154474342277896e+000	 2.635677337540387e+000
1	 1.604040056051193e+000	 1.172150270708497e+000	 2.331548407322686e+000
1	 1.591067292552176e+000	 1.189699832314410e+000	 2.030992119070557e+000
1	 1.577892070886612e+000	 1.207119517144526e+000	 1.733928801969522e+000
1	 1.564516330732018e+000	 1.224405851488079e+000	 1.440276786055783e+000
1	 1.550942090629174e+000	 1.241555400125803e+000	 1.149952513043494e+000
1	 1.537171447030557e+000	 1.258564768555845e+000	 8.628706478438857e-001
1	 1.523206573273758e+000	 1.275430605191462e+000	 5.789441905431467e-001
1	 1.509049718480886e+000	 1.292149603527569e+000	 2.980845886068333e-001
1	 1.494703206385040e+000	 1.308718504273237e+000	 2.020184907908993e-002
1	 1.480169434085108e+000	 1.325134097447286e+000	-2.547953494531406e-001
1	 1.638511612128961e+000	 1.169971344180990e+000	 1.986425237124533e+000
1	 1.625571770441885e+000	 1.187884544144271e+000	 1.687706059547506e+000
1	 1.612424868000571e+000	 1.205669681007109e+000	 1.393209703725626e+000
1	 1.599072789710299e+000	 1.223323197702809e+000	 1.102970533445831e+000
1	 1.585517501285710e+000	 1.240841573891492e+000	 8.170197976078171e-001
1	 1.571761048363325e+000	 1.258221328241467e+000	 5.353855359042277e-001
1	 1.557805555537200e+000	 1.275459020685017e+000	 2.580924861557281e-001
1	 1.543653225318572e+000	 1.292551254645610e+000	-1.483800649406175e-002
1	 1.529306337020477e+000	 1.309494679233518e+000	-2.833880783193195e-001
1	 1.514767245568484e+000	 1.326285991406947e+000	-5.475434334849937e-001
1	 1.500038380238764e+000	 1.342921938095756e+000	-8.072934280499950e-001
1	 1.660214722812154e+000	 1.185468346084587e+000	 1.319290069229999e+000
1	 1.647103484831933e+000	 1.203618817580494e+000	 1.026795228663305e+000
1	 1.633782443448310e+000	 1.221639529700198e+000	 7.393007630895451e-001
1	 1.620253508533317e+000	 1.239526878261420e+000	 4.569890266132560e-001
1	 1.606518671838723e+000	 1.257277296295168e+000	 1.800390262387264e-001
1	 1.592580006096787e+000	 1.274887256357323e+000	-9.137393857567867e-002
1	 1.578439664043150e+000	 1.292353272814311e+000	-3.570786356749386e-001
1	 1.564099877362689e+000	 1.309671904099807e+000	-6.169082585112836e-001
1	 1.549562955559376e+000	 1.326839754939444e+000	-8.707007822247851e-001
1	 1.534831284751244e+000	 1.343853478540562e+000	-1.118299316728671e+000
1	 1.519907326391754e+000	 1.360709778744060e+000	-1.359552456026912e+000
1	 1.681917833494530e+000	 1.200965347988850e+000	 6.342489480731780e-001
1	 1.668635199221159e+000	 1.219353091017331e+000	 3.488261820388851e-001
1	 1.655140018895221e+000	 1.237609378393840e+000	 6.933184220446766e-002
1	 1.641434227355505e+000	 1.255730558820518e+000	-2.038710304385503e-001
1	 1.627519842390902e+000	 1.273713018699258e+000	-4.704221160548119e-001
1	 1.613398963829417e+000	 1.291553184473516e+000	-7.299645023262135e-001
1	 1.599073772548270e+000	 1.309247524943862e+000	-9.821453729821588e-001
1	 1.584546529405988e+000	 1.326792553554179e+000	-1.226616697052831e+000
1	 1.569819574097471e+000	 1.344184830645459e+000	-1.463035917383875e+000
1	 1.554895323933223e+000	 1.361420965674179e+000	-1.691066636940515e+000
1	 1.539776272543993e+000	 1.378497619392281e+000	-1.910379301422934e+000
1	 1.341086810997859e+000	 1.200619212896339e+000	 3.504312926040795e+000
1	 1.327753275425903e+000	 1.215348368834772e+000	 3.189918668148245e+000
1	 1.314254664028600e+000	 1.229932992248813e+000	 2.863798274284076e+000
1	 1.300593340761640e+000	 1.244370322232309e+000	 2.528045271210205e+000
1	 1.286771730854787e+000	 1.258657649759996e+000	 2.184792939304491e+000
1	 1.272792319379371e+000	 1.272792319379371e+000	 1.836210810085802e+000
1	 1.258657649759996e+000	 1.286771730854787e+000	 1.484501096411671e+000
1	 1.244370322232309e+000	 1.300593340761641e+000	 1.131895062755273e+000
1	 1.229932992248813e+000	 1.314254664028600e+000	 7.806493431247250e-001
1	 1.215348368834772e+000	 1.327753275425902e+000	 4.330422143209280e-001
1	 1.200619212896339e+000	 1.341086810997858e+000	 9.136983234062768e-002
1	 1.360955757153845e+000	 1.218407053548307e+000	 2.989618698141062e+000
1	 1.347424677844972e+000	 1.233354430115146e+000	 2.673207275673315e+000
1	 1.333726077020677e+000	 1.248155132827871e+000	 2.344530779294003e+000
1	 1.319862353659959e+000	 1.262806359875977e+000	 2.005947417852518e+000
1	 1.305835968923696e+000	 1.277305362098496e+000	 1.659862492119390e+000
1	 1.291649444700928e+000	 1.291649444700928e+000	 1.308724320863863e+000
1	 1.277305362098497e+000	 1.305835968923696e+000	 9.550200865257990e-001
1	 1.262806359875977e+000	 1.319862353659959e+000	 6.012716091593404e-001
1	 1.248155132827870e+000	 1.333726077020677e+000	 2.500310575132853e-001
1	 1.233354430115146e+000	 1.347424677844972e+000	-9.612339372633186e-002
1	 1.218407053548307e+000	 1.360955757153844e+000	-4.345919513726023e-001
1	 1.380824703309748e+000	 1.236194894199525e+000	 2.464714088022586e+000
1	 1.367096080263875e+000	 1.251360491394808e+000	 2.148352597155488e+000
1	 1.353197490012505e+000	 1.266377273406264e+000	 1.819804183884981e+000
1	 1.339131366557947e+000	 1.281242397519037e+000	 1.481584928125128e+000
1	 1.324900206992199e+000	 1.295953074436450e+000	 1.136262960751375e+000
1	 1.310506570022006e+000	 1.310506570022005e+000	 7.864540060784672e-001
1	 1.295953074436450e+000	 1.324900206992199e+000	 4.348168348938835e-001
1	 1.281242397519037e+000	 1.339131366557946e+000	 8.404863759302243e-002
1	 1.266377273406264e+000	 1.353197490012506e+000	-2.631196728281552e-001
1	 1.251360491394808e+000	 1.367096080263875e+000	-6.039282179881088e-001
1	 1.236194894199525e+000	 1.380824703309748e+000	-9.355929614579959e-001
1	 1.400693649465486e+000	 1.253982734850077e+000	 1.931355378340094e+000
1	 1.386767482682543e+000	 1.269366552673829e+000	 1.617366913558059e+000
1	 1.372668903004032e+000	 1.284599413984047e+000	 1.291813948185035e+000
1	 1.358400379455570e+000	 1.299678435161525e+000	 9.572681864985069e-001
1	 1.343964445060277e+000	 1.314600786773875e+000	 6.163560303806641e-001
1	 1.329363695342603e+000	 1.329363695342603e+000	 2.717539213962328e-001
1	 1.314600786773875e+000	 1.343964445060277e+000	-7.381641166292743e-002
1	 1.299678435161524e+000	 1.358400379455569e+000	-4.175927897445448e-001
1	 1.284599413984047e+000	 1.372668903004031e+000	-7.567774947707834e-001
1	 1.269366552673829e+000	 1.386767482682543e+000	-1.088542244707393e+000
1	 1.253982734850077e+000	 1.400693649465486e+000	-1.410033221874910e+000
1	 1.420562595620974e+000	 1.271770575500045e+000	 1.391200593533459e+000
1	 1.406438885100908e+000	 1.287372613952274e+000	 1.082149925369709e+000
1	 1.392140315995205e+000	 1.302821554561270e+000	 7.626327035784719e-001
1	 1.377669392352793e+000	 1.318114472803472e+000	 4.351783190620525e-001
1	 1.363028683127914e+000	 1.333248499110788e+000	 1.023712577011055e-001
1	 1.348220820662723e+000	 1.348220820662722e+000	-2.331535791565995e-001
1	 1.333248499110788e+000	 1.363028683127914e+000	-5.687156499630702e-001
1	 1.318114472803472e+000	 1.377669392352793e+000	-9.015936338814230e-001
1	 1.302821554561270e+000	 1.392140315995205e+000	-1.229030367004849e+000
1	 1.287372613952274e+000	 1.406438885100908e+000	-1.548237843353587e+000
1	 1.271770575500045e+000	 1.420562595620974e+000	-1.856402269958663e+000
1	 1.440431541776130e+000	 1.289558416149514e+000	 8.458162765715517e-001
1	 1.426110287518902e+000	 1.305378675230213e+000	 5.444965171364050e-001
1	 1.411611728985973e+000	 1.321043695137985e+000	 2.342187240477749e-001
1	 1.396938405249583e+000	 1.336550510444917e+000	-8.262389168999455e-002
1	 1.382092921195092e+000	 1.351896211447207e+000	-4.035848163463438e-001
1	 1.367077945982363e+000	 1.367077945982363e+000	-7.261687598995104e-001
1	 1.351896211447207e+000	 1.382092921195092e+000	-1.047836275663914e+000
1	 1.336550510444917e+000	 1.396938405249583e+000	-1.366008463286180e+000
1	 1.321043695137985e+000	 1.411611728985973e+000	-1.678071745067613e+000
1	 1.305378675230213e+000	 1.426110287518902e+000	-1.981382705381498e+000
1	 1.289558416149514e+000	 1.440431541776130e+000	-2.273272982796579e+000
1	 1.460300487930869e+000	 1.307346256798567e+000	 2.966837124672030e-001
1	 1.445781689936458e+000	 1.323384736507712e+000	 6.103888125036366e-003
1	 1.431083141976286e+000	 1.339265835714243e+000	-2.915762940540269e-001
1	 1.416207418145903e+000	 1.354986548085892e+000	-5.941898198435754e-001
1	 1.401157159261793e+000	 1.370543923783149e+000	-8.995202977706909e-001
1	 1.385935071301524e+000	 1.385935071301523e+000	-1.205306161730638e+000
1	 1.370543923783149e+000	 1.401157159261793e+000	-1.509244960518605e+000
1	 1.354986548085892e+000	 1.416207418145904e+000	-1.808997725115385e+000
1	 1.339265835714243e+000	 1.431083141976285e+000	-2.102193404357239e+000
1	 1.323384736507713e+000	 1.445781689936458e+000	-2.386433359444512e+000
1	 1.307346256798566e+000	 1.460300487930869e+000	-2.659295907596742e+000
1	 1.480169434085108e+000	 1.325134097447286e+000	-2.547953494531405e-001
1	 1.465453092353505e+000	 1.341390797784841e+000	-5.314218913206937e-001
1	 1.450554554966089e+000	 1.357487976290097e+000	-8.130000788184075e-001
1	 1.435476431041720e+000	 1.373422585726433e+000	-1.097675468436428e+000
1	 1.420221397328001e+000	 1.389191636118633e+000	-1.383550244756274e+000
1	 1.404792196620206e+000	 1.404792196620206e+000	-1.668686932210144e+000
1	 1.389191636118633e+000	 1.420221397328000e+000	-1.951112183843389e+000
1	 1.373422585726434e+000	 1.435476431041720e+000	-2.228820638939575e+000
1	 1.357487976290097e+000	 1.450554554966089e+000	-2.499778841185453e+000
1	 1.341390797784841e+000	 1.465453092353505e+000	-2.761929208896277e+000
1	 1.325134097447286e+000	 1.480169434085108e+000	-3.013194048691867e+000
1	 1.500038380238764e+000	 1.342921938095756e+000	-8.072934280499943e-001
1	 1.485124494769979e+000	 1.359396859061667e+000	-1.066559844482473e+000
1	 1.470025967955333e+000	 1.375710116865597e+000	-1.328393198086625e+000
1	 1.454745443936998e+000	 1.391858623366575e+000	-1.591334540078840e+000
1	 1.439285635393696e+000	 1.407839348453674e+000	-1.853889584420429e+000
1	 1.423649321938409e+000	 1.423649321938408e+000	-2.114531765200810e+000
1	 1.407839348453675e+000	 1.439285635393696e+000	-2.371705357537089e+000
1	 1.391858623366575e+000	 1.454745443936998e+000	-2.623828655230962e+000
1	 1.375710116865597e+000	 1.470025967955333e+000	-2.869297198272965e+000
1	 1.359396859061667e+000	 1.485124494769979e+000	-3.106487043154401e+000
1	 1.342921938095756e+000	 1.500038380238765e+000	-3.333758068839143e+000
1	 1.519907326391754e+000	 1.360709778744060e+000	-1.359552456026912e+000
1	 1.504795897185810e+000	 1.377402920338258e+000	-1.597868526347194e+000
1	 1.489497380943965e+000	 1.393932257440796e+000	-1.836182991224624e+000
1	 1.474014456831702e+000	 1.410294661006352e+000	-2.073512051078742e+000
1	 1.458349873458863e+000	 1.426487060788292e+000	-2.308846585144202e+000
1	 1.442506447256132e+000	 1.442506447256132e+000	-2.541154394286365e+000
1	 1.426487060788292e+000	 1.458349873458862e+000	-2.769382490338402e+000
1	 1.410294661006352e+000	 1.474014456831703e+000	-2.992459426933861e+000
1	 1.393932257440795e+000	 1.489497380943965e+000	-3.209297666697900e+000
1	 1.377402920338257e+000	 1.504795897185810e+000	-3.418795979564125e+000
1	 1.360709778744060e+000	 1.519907326391754e+000	-3.619841866906021e+000
1	 1.539776272543993e+000	 1.378497619392281e+000	-1.910379301422933e+000
1	 1.524467299600929e+000	 1.395408981614681e+000	-2.123980892305625e+000
1	 1.508968793931934e+000	 1.412154398015745e+000	-2.334877970716175e+000
1	 1.493283469725799e+000	 1.428730698645799e+000	-2.542638439978823e+000
1	 1.477414111523483e+000	 1.445134773122503e+000	-2.746816834292944e+000
1	 1.461363572573377e+000	 1.461363572573377e+000	-2.946955589947358e+000
1	 1.445134773122503e+000	 1.477414111523483e+000	-3.142586342613770e+000
1	 1.428730698645800e+000	 1.493283469725799e+000	-3.333231247772409e+000
1	 1.412154398015745e+000	 1.508968793931934e+000	-3.518404321260249e+000
1	 1.395408981614681e+000	 1.524467299600929e+000	-3.697612796877305e+000
1	 1.378497619392282e+000	 1.539776272543993e+000	-3.870358497943053e+000
1	 1.200619212896339e+000	 1.341086810997858e+000	 9.136983234062734e-002
1	 1.185746094326383e+000	 1.354254932090050e+000	-2.475502780742452e-001
1	 1.170734073575938e+000	 1.367253388693743e+000	-5.877632630768025e-001
1	 1.155586059003449e+000	 1.380080008951025e+000	-9.284226242758943e-001
1	 1.140305003643770e+000	 1.392732687476032e+000	-1.268702510319896e+000
1	 1.124893903309479e+000	 1.405209386483143e+000	-1.607798987876327e+000
1	 1.109355794658762e+000	 1.417508136850241e+000	-1.944931267301178e+000
1	 1.093693753232441e+000	 1.429627039115892e+000	-2.279342880665717e+000
1	 1.077910891462778e+000	 1.441564264409459e+000	-2.610302809942102e+000
1	 1.062010356656721e+000	 1.453318055313266e+000	-2.937106563288620e+000
1	 1.045995328956277e+000	 1.464886726656035e+000	-3.259077197519854e+000
1	 1.218407053548307e+000	 1.360955757153844e+000	-4.345919513726015e-001
1	 1.203313581463500e+000	 1.374318971275530e+000	-7.688975723736106e-001
1	 1.188079149285163e+000	 1.387510007235055e+000	-1.103762215511335e+000
1	 1.172706708460706e+000	 1.400526660997231e+000	-1.438536161317930e+000
1	 1.157199255775851e+000	 1.413366795983732e+000	-1.772590364879186e+000
1	 1.141559831427820e+000	 1.426028344218016e+000	-2.105317381702997e+000
1	 1.125791517064594e+000	 1.438509307404328e+000	-2.436132250255648e+000
1	 1.109897433792857e+000	 1.450807757939659e+000	-2.764473329547087e+000
1	 1.093880740157302e+000	 1.462921839857642e+000	-3.089803090271141e+000
1	 1.077744630093995e+000	 1.474849769703483e+000	-3.411608858131730e+000
1	 1.061492330860527e+000	 1.486589837339156e+000	-3.729403508117001e+000
1	 1.236194894199525e+000	 1.380824703309748e+000	-9.355929614579966e-001
1	 1.220881068599836e+000	 1.394383010461012e+000	-1.262111935548348e+000
1	 1.205424224993587e+000	 1.407766625776456e+000	-1.588913137402702e+000
1	 1.189827357917149e+000	 1.420973313043610e+000	-1.915503405813422e+000
1	 1.174093507907113e+000	 1.434000904491688e+000	-2.241409270564974e+000
1	 1.158225759545347e+000	 1.446847301953224e+000	-2.566177608888728e+000
1	 1.142227239469625e+000	 1.459510477958824e+000	-2.889376261854047e+000
1	 1.126101114352494e+000	 1.471988476763906e+000	-3.210594609625324e+000
1	 1.109850588851077e+000	 1.484279415306369e+000	-3.529444104623099e+000
1	 1.093478903530556e+000	 1.496381484094301e+000	-3.845558761741796e+000
1	 1.076989332764112e+000	 1.508292948022929e+000	-4.158595604889761e+000
1	 1.253982734850077e+000	 1.400693649465486e+000	-1.410033221874911e+000
1	 1.238448555735490e+000	 1.414447049646399e+000	-1.725822673751575e+000
1	 1.222769300701319e+000	 1.428023244317834e+000	-2.042042866699876e+000
1	 1.206948007372900e+000	 1.441419965090038e+000	-2.358318837529358e+000
1	 1.190987760037690e+000	 1.454635012999764e+000	-2.674293342679008e+000
1	 1.174891687662203e+000	 1.467666259688620e+000	-2.989627318984049e+000
1	 1.158662961874007e+000	 1.480511648513576e+000	-3.304000308917310e+000
1	 1.142304794911510e+000	 1.493169195588471e+000	-3.617110849617463e+000
1	 1.125820437544266e+000	 1.505636990755471e+000	-3.928676825110668e+000
1	 1.109213176966573e+000	 1.517913198485543e+000	-4.238435781230536e+000
1	 1.092486334667199e+000	 1.529996058707168e+000	-4.546145202839184e+000
1	 1.271770575500045e+000	 1.420562595620974e+000	-1.856402269958662e+000
1	 1.256016042870559e+000	 1.434511088831594e+000	-2.158735778930677e+000
1	 1.240114376408472e+000	 1.448279862859077e+000	-2.462043875894724e+000
1	 1.224068656828083e+000	 1.461866617136390e+000	-2.766033191769527e+000
1	 1.207882012167718e+000	 1.475269121507824e+000	-3.070425139912567e+000
1	 1.191557615778533e+000	 1.488485217424060e+000	-3.374956253062791e+000
1	 1.175098684277891e+000	 1.501512819068427e+000	-3.679378490545428e+000
1	 1.158508475470063e+000	 1.514349914413188e+000	-3.983459515271284e+000
1	 1.141790286237030e+000	 1.526994566204773e+000	-4.286982940143817e+000
1	 1.124947450402209e+000	 1.539444912877032e+000	-4.589748543567737e+000
1	 1.107983336569954e+000	 1.551699169391692e+000	-4.891572453833609e+000
1	 1.289558416149514e+000	 1.440431541776130e+000	-2.273272982796579e+000
1	 1.273583530005141e+000	 1.454575128016497e+000	-2.559628639905743e+000
1	 1.257459452115157e+000	 1.468536481400075e+000	-2.847869745290606e+000
1	 1.241189306282822e+000	 1.482313269182545e+000	-3.137749579501401e+000
1	 1.224776264297331e+000	 1.495903230015734e+000	-3.429032323267450e+000
1	 1.208223543894480e+000	 1.509304175159395e+000	-3.721493340723178e+000
1	 1.191534406681430e+000	 1.522513989623221e+000	-4.014919439910067e+000
1	 1.174712156028311e+000	 1.535530633237893e+000	-4.309109110152332e+000
1	 1.157760134929534e+000	 1.548352141654106e+000	-4.603872735965690e+000
1	 1.140681723837632e+000	 1.560976627268588e+000	-4.899032787221977e+000
1	 1.123480338472544e+000	 1.573402280076317e+000	-5.194423985353646e+000
1	 1.307346256798566e+000	 1.460300487930869e+000	-2.659295907596742e+000
1	 1.291151017139334e+000	 1.474639167201012e+000	-2.927345185216101e+000
1	 1.274804527821486e+000	 1.488793099940715e+000	-3.198531005817739e+000
1	 1.258309955737241e+000	 1.502759921228375e+000	-3.472619924222071e+000
1	 1.241670516426661e+000	 1.516537338523357e+000	-3.749384587730591e+000
1	 1.224889472010190e+000	 1.530123132894483e+000	-4.028604034079135e+000
1	 1.207970129084775e+000	 1.543515160177802e+000	-4.310063974889904e+000
1	 1.190915836586413e+000	 1.556711352062423e+000	-4.593557064130814e+000
1	 1.173729983621940e+000	 1.569709717103298e+000	-4.878883151132470e+000
1	 1.156415997273006e+000	 1.582508341660034e+000	-5.165849517755797e+000
1	 1.138977340375136e+000	 1.595105390760859e+000	-5.454271099347646e+000
1	 1.325134097447286e+000	 1.480169434085108e+000	-3.013194048691867e+000
1	 1.308718504273237e+000	 1.494703206385040e+000	-3.260791417164694e+000
1	 1.292149603527569e+000	 1.509049718480886e+000	-3.513091316669769e+000
1	 1.275430605191462e+000	 1.523206573273759e+000	-3.769841685800812e+000
1	 1.258564768555845e+000	 1.537171447030557e+000	-4.030790841073096e+000
1	 1.241555400125804e+000	 1.550942090629174e+000	-4.295687856473581e+000
1	 1.224405851488079e+000	 1.564516330732018e+000	-4.564282937925126e+000
1	 1.207119517144526e+000	 1.577892070886612e+000	-4.836327791930706e+000
1	 1.189699832314410e+000	 1.591067292552177e+000	-5.111575987686110e+000
1	 1.172150270708497e+000	 1.604040056051192e+000	-5.389783311970890e+000
1	 1.154474342277895e+000	 1.616808501445135e+000	-5.670708116151877e+000
1	 1.342921938095756e+000	 1.500038380238765e+000	-3.333758068839143e+000
1	 1.326285991406947e+000	 1.514767245568484e+000	-3.558931300789097e+000
1	 1.309494679233518e+000	 1.529306337020477e+000	-3.790663946718311e+000
1	 1.292551254645610e+000	 1.543653225318572e+000	-4.028654844690536e+000
1	 1.275459020685017e+000	 1.557805555537200e+000	-4.272596606860884e+000
1	 1.258221328241467e+000	 1.571761048363324e+000	-4.522176146004536e+000
1	 1.240841573891492e+000	 1.585517501285710e+000	-4.777075207546942e+000
1	 1.223323197702809e+000	 1.599072789710299e+000	-5.036970905973292e+000
1	 1.205669681007109e+000	 1.612424868000571e+000	-5.301536264492309e+000
1	 1.187884544144271e+000	 1.625571770441885e+000	-5.570440756829017e+000
1	 1.169971344180991e+000	 1.638511612128961e+000	-5.843350850025673e+000
1	 1.360709778744060e+000	 1.519907326391754e+000	-3.619841866906021e+000
1	 1.343853478540562e+000	 1.534831284751244e+000	-3.820782975279757e+000
1	 1.326839754939444e+000	 1.549562955559376e+000	-4.030408531907111e+000
1	 1.309671904099807e+000	 1.564099877362689e+000	-4.248339122681519e+000
1	 1.292353272814311e+000	 1.578439664043150e+000	-4.474181631159801e+000
1	 1.274887256357323e+000	 1.592580006096787e+000	-4.707529976037602e+000
1	 1.257277296295169e+000	 1.606518671838723e+000	-4.947965865872296e+000
1	 1.239526878261420e+000	 1.620253508533317e+000	-5.195059569396191e+000
1	 1.221639529700197e+000	 1.633782443448310e+000	-5.448370699733966e+000
1	 1.203618817580493e+000	 1.647103484831933e+000	-5.707449010815497e+000
1	 1.185468346084587e+000	 1.660214722812154e+000	-5.971835204257848e+000
1	 1.378497619392282e+000	 1.539776272543993e+000	-3.870358497943055e+000
1	 1.361420965674179e+000	 1.554895323933223e+000	-4.045415258721137e+000
1	 1.344184830645459e+000	 1.569819574097472e+000	-4.231528083697497e+000
1	 1.326792553554179e+000	 1.584546529405988e+000	-4.428211418832541e+000
1	 1.309247524943862e+000	 1.599073772548270e+000	-4.634957674535921e+000
1	 1.291553184473516e+000	 1.613398963829417e+000	-4.851238236717633e+000
1	 1.273713018699258e+000	 1.627519842390902e+000	-5.076504507976063e+000
1	 1.255730558820517e+000	 1.641434227355505e+000	-5.310188976585751e+000
1	 1.237609378393840e+000	 1.655140018895221e+000	-5.551706310894097e+000
1	 1.219353091017331e+000	 1.668635199221159e+000	-5.800454476686724e+000
1	 1.200965347988850e+000	 1.681917833494530e+000	-6.055815875043730e+000
1	 1.045995328956277e+000	 1.464886726656035e+000	-3.259077197519854e+000
1	 1.029869018930230e+000	 1.476268665820915e+000	-3.577240204744448e+000
1	 1.013634664473865e+000	 1.487462332141325e+000	-3.892687887947313e+000
1	 9.972955298026258e-001	 1.498466258716639e+000	-4.204883500453996e+000
1	 9.808549037040830e-001	 1.509279053342249e+000	-4.513316027594693e+000
1	 9.643160974265818e-001	 1.519899398955622e+000	-4.817501084268383e+000
1	 9.476824425612986e-001	 1.530326054011600e+000	-5.116981756133535e+000
1	 9.309572889204426e-001	 1.540557852787053e+000	-5.411329383127904e+000
1	 9.141440024143019e-001	 1.550593705615053e+000	-5.700144284178519e+000
1	 8.972459629298201e-001	 1.560432599048893e+000	-5.983056422126755e+000
1	 8.802665622133532e-001	 1.570073595956371e+000	-6.259726008055338e+000
1	 1.061492330860527e+000	 1.486589837339156e+000	-3.729403508117001e+000
1	 1.045127100592058e+000	 1.498140406255998e+000	-4.044346034115590e+000
1	 1.028652225155088e+000	 1.509499912961594e+000	-4.357624038313711e+000
1	 1.012071017126219e+000	 1.520666868822365e+000	-4.668831222059304e+000
1	 9.953868140182343e-001	 1.531639861007416e+000	-4.977586345703715e+000
1	 9.786029761374547e-001	 1.542417552941193e+000	-5.283533907937800e+000
1	 9.617228844344271e-001	 1.552998684684357e+000	-5.586344771749204e+000
1	 9.447499383506842e-001	 1.563382073242935e+000	-5.885716736125663e+000
1	 9.276875536643391e-001	 1.573566612805977e+000	-6.181375052775098e+000
1	 9.105391603372328e-001	 1.583551274911993e+000	-6.473072887282918e+000
1	 8.933082003663225e-001	 1.593335108544643e+000	-6.760591724274088e+000
1	 1.076989332764112e+000	 1.508292948022929e+000	-4.158595604889761e+000
1	 1.060385182253275e+000	 1.520012146691774e+000	-4.469843235032379e+000
1	 1.043669785835759e+000	 1.531537493782587e+000	-4.780602614592589e+000
1	 1.026846504449323e+000	 1.542867478928838e+000	-5.090584763583610e+000
1	 1.009918724331957e+000	 1.554000668673342e+000	-5.399525055136689e+000
1	 9.928898548479597e-001	 1.564935706927531e+000	-5.707183696303678e+000
1	 9.757633263072423e-001	 1.575671315357876e+000	-6.013346158310385e+000
1	 9.585425877806589e-001	 1.586206293699568e+000	-6.317823555770802e+000
1	 9.412311049141445e-001	 1.596539519997630e+000	-6.620452974505231e+000
1	 9.238323577444372e-001	 1.606669950775794e+000	-6.921097747742932e+000
1	 9.063498385190917e-001	 1.616596621133581e+000	-7.219647680623802e+000
1	 1.092486334667199e+000	 1.529996058707168e+000	-4.546145202839184e+000
1	 1.075643263914047e+000	 1.541883887128052e+000	-4.853226915132854e+000
1	 1.058687346516041e+000	 1.553575074604111e+000	-5.161119864291281e+000
1	 1.041621991772096e+000	 1.565068089035862e+000	-5.469639823743091e+000
1	 1.024450634645408e+000	 1.576361476339833e+000	-5.778626180439840e+000
1	 1.007176733558246e+000	 1.587453860914438e+000	-6.087942236259310e+000
1	 9.898037681798880e-001	 1.598343946031964e+000	-6.397475461531499e+000
1	 9.723352372105052e-001	 1.609030514156761e+000	-6.707137700542673e+000
1	 9.547746561638559e-001	 1.619512427189830e+000	-7.016865329000974e+000
1	 9.371255551515678e-001	 1.629788626640121e+000	-7.326619363567422e+000
1	 9.193914766717937e-001	 1.639858133723017e+000	-7.636385523679736e+000
1	 1.107983336569954e+000	 1.551699169391692e+000	-4.891572453833609e+000
1	 1.090901345574538e+000	 1.563755627564647e+000	-5.194020429115053e+000
1	 1.073704907196097e+000	 1.575612655425975e+000	-5.498700218205450e+000
1	 1.056397479094698e+000	 1.587268699143244e+000	-5.805520315245437e+000
1	 1.038982544958740e+000	 1.598722284006695e+000	-6.114412053814939e+000
1	 1.021463612268464e+000	 1.609972014901722e+000	-6.425329747543122e+000
1	 1.003844210052509e+000	 1.621016576706430e+000	-6.738250785358406e+000
1	 9.861278866403656e-001	 1.631854734614329e+000	-7.053175681547273e+000
1	 9.683182074136085e-001	 1.642485334382394e+000	-7.370128080906078e+000
1	 9.504187525587582e-001	 1.652907302504798e+000	-7.689154719382359e+000
1	 9.324331148245619e-001	 1.663119646312786e+000	-8.010325340712761e+000
1	 1.123480338472544e+000	 1.573402280076317e+000	-5.194423985353646e+000
1	 1.106159427234916e+000	 1.585627368001368e+000	-5.491773430573627e+000
1	 1.088722467876090e+000	 1.597650236247987e+000	-5.792894346653473e+000
1	 1.071172966417288e+000	 1.609469309250792e+000	-6.097776418906486e+000
1	 1.053514455272107e+000	 1.621083091673733e+000	-6.406431362776530e+000
1	 1.035750490978762e+000	 1.632490168889190e+000	-6.718892921761108e+000
1	 1.017884651925251e+000	 1.643689207381082e+000	-7.035216822343696e+000
1	 9.999205360703791e-001	 1.654678955072082e+000	-7.355480686382441e+000
1	 9.818617586635403e-001	 1.665458241575140e+000	-7.679783901506847e+000
1	 9.637119499661435e-001	 1.676025978369650e+000	-8.008247450178766e+000
1	 9.454747529775296e-001	 1.686381158902720e+000	-8.341013698170707e+000
1	 1.138977340375136e+000	 1.595105390760859e+000	-5.454271099347646e+000
1	 1.121417508895345e+000	 1.607499108438029e+000	-5.746060082876742e+000
1	 1.103740028556184e+000	 1.619687817069959e+000	-6.043277374392888e+000
1	 1.085948453740026e+000	 1.631669919358312e+000	-6.345982796621927e+000
1	 1.068046365585667e+000	 1.643443899340753e+000	-6.654257357190769e+000
1	 1.050037369689291e+000	 1.655008322876647e+000	-6.968203121496999e+000
1	 1.031925093798258e+000	 1.666361838055729e+000	-7.287943044814652e+000
1	 1.013713185500686e+000	 1.677503175529833e+000	-7.613620764326482e+000
1	 9.954053099137867e-001	 1.688431148767885e+000	-7.945400351870213e+000
1	 9.770051473738575e-001	 1.699144654234502e+000	-8.283466028279602e+000
1	 9.585163911308307e-001	 1.709642671492654e+000	-8.628021840290815e+000
1	 1.154474342277895e+000	 1.616808501445135e+000	-5.670708116151877e+000
1	 1.136675590555991e+000	 1.629370848874443e+000	-5.956477414140163e+000
1	 1.118757589236542e+000	 1.641725397891696e+000	-6.249447239308256e+000
1	 1.100723941063069e+000	 1.653870529465609e+000	-6.549736948267410e+000
1	 1.082578275899572e+000	 1.665804707007561e+000	-6.857486200720895e+000
1	 1.064324248400201e+000	 1.677526476863901e+000	-7.172854724466731e+000
1	 1.045965535671676e+000	 1.689034468730179e+000	-7.496022041725433e+000
1	 1.027505834931428e+000	 1.700327395987393e+000	-7.827187157693736e+000
1	 1.008948861164486e+000	 1.711404055960447e+000	-8.166568212312960e+000
1	 9.902983447820342e-001	 1.722263330099179e+000	-8.514402096328698e+000
1	 9.715580292845979e-001	 1.732904184082422e+000	-8.870944032796887e+000
1	 1.169971344180991e+000	 1.638511612128961e+000	-5.843350850025673e+000
1	 1.151933672217020e+000	 1.651242589310421e+000	-6.122643802937893e+000
1	 1.133775149917325e+000	 1.663762978713008e+000	-6.411023181540554e+000
1	 1.115499428386579e+000	 1.676071139572491e+000	-6.708657699181664e+000
1	 1.097110186213977e+000	 1.688165514673963e+000	-7.015735453289050e+000
1	 1.078611127111641e+000	 1.700044630850756e+000	-7.332463599268997e+000
1	 1.060005977545648e+000	 1.711707099404241e+000	-7.659067987686401e+000
1	 1.041298484362745e+000	 1.723151616444576e+000	-7.995792765802835e+000
1	 1.022492412415773e+000	 1.734376963152644e+000	-8.342899944633878e+000
1	 1.003591542190808e+000	 1.745382005963505e+000	-8.700668932763813e+000
1	 9.845996674389650e-001	 1.756165696671858e+000	-9.069396038229469e+000
1	 1.185468346084587e+000	 1.660214722812154e+000	-5.971835204257848e+000
1	 1.167191753878597e+000	 1.673114329745773e+000	-6.244197582785597e+000
1	 1.148792710598699e+000	 1.685800559533704e+000	-6.527644351121160e+000
1	 1.130274915710713e+000	 1.698271749678765e+000	-6.822383806283922e+000
1	 1.111642096529037e+000	 1.710526322339764e+000	-7.128642672566328e+000
1	 1.092898005823761e+000	 1.722562784837020e+000	-7.446665700690728e+000
1	 1.074046419420320e+000	 1.734379730077722e+000	-7.776715232074209e+000
1	 1.055091133794776e+000	 1.745975836901192e+000	-8.119070729423640e+000
1	 1.036035963667787e+000	 1.757349870344292e+000	-8.474028274960938e+000
1	 1.016884739600314e+000	 1.768500681827304e+000	-8.841900037649989e+000
1	 9.976413055940656e-001	 1.779427209260796e+000	-9.223013710862706e+000
1	 1.200965347988850e+000	 1.681917833494530e+000	-6.055815875043730e+000
1	 1.182449835540888e+000	 1.694986070180314e+000	-6.320795754668939e+000
1	 1.163810271280825e+000	 1.707838140353592e+000	-6.598968523406859e+000
1	 1.145050403035632e+000	 1.720472359784237e+000	-6.890572672109234e+000
1	 1.126174006844908e+000	 1.732887130004770e+000	-7.195864123739056e+000
1	 1.107184884536711e+000	 1.745080938822499e+000	-7.515115773767056e+000
1	 1.088086861295837e+000	 1.757052360750431e+000	-7.848616997377486e+000
1	 1.068883783227663e+000	 1.768800057357055e+000	-8.196673124820304e+000
1	 1.049579514920662e+000	 1.780322777535210e+000	-8.559604886318125e+000
1	 1.030177937010685e+000	 1.791619357690404e+000	-8.937747828001143e+000
1	 1.010682943750033e+000	 1.802688721849068e+000	-9.331451700407001e+000
1	 8.802665622133532e-001	 1.570073595956371e+000	-6.259726008055341e+000
1	 8.632117660713863e-001	 1.579514434436757e+000	-6.529402469376625e+000
1	 8.460824421315376e-001	 1.588755792347744e+000	-6.790821644968641e+000
1	 8.288820044695899e-001	 1.597796962967234e+000	-7.042791768777517e+000
1	 8.116138706063589e-001	 1.606637315540310e+000	-7.284147528988719e+000
1	 7.942814594508111e-001	 1.615276295033541e+000	-7.513752352462915e+000
1	 7.768881892624316e-001	 1.623713421824429e+000	-7.730500606971590e+000
1	 7.594374756351380e-001	 1.631948291327146e+000	-7.933319717670982e+000
1	 7.419327295049752e-001	 1.639980573555821e+000	-8.121172194525688e+000
1	 7.243773551837668e-001	 1.647810012626662e+000	-8.293057567673383e+000
1	 7.067747484208015e-001	 1.655436426200365e+000	-8.448014228003588e+000
1	 8.933082003663225e-001	 1.593335108544643e+000	-6.760591724274088e+000
1	 8.760007279448260e-001	 1.602915818291883e+000	-7.043029148325891e+000
1	 8.586176235547386e-001	 1.612294092054241e+000	-7.318888017095633e+000
1	 8.411623518532653e-001	 1.621469212639146e+000	-7.586968146178458e+000
1	 8.236383809936846e-001	 1.630440539946704e+000	-7.846094455952502e+000
1	 8.060491805379904e-001	 1.639207510720356e+000	-8.095119330159577e+000
1	 7.883982193890753e-001	 1.647769638231734e+000	-8.332924892851017e+000
1	 7.706889637447694e-001	 1.656126511900855e+000	-8.558425199963230e+000
1	 7.529248750760244e-001	 1.664277796852925e+000	-8.770568342064804e+000
1	 7.351094081314270e-001	 1.672223233413098e+000	-8.968338455100364e+000
1	 7.172460089701712e-001	 1.679962636540613e+000	-9.150757636238827e+000
1	 9.063498385190917e-001	 1.616596621133581e+000	-7.219647680623802e+000
1	 8.887896898180561e-001	 1.626317202147628e+000	-7.515042790653266e+000
1	 8.711528049777059e-001	 1.635832391761306e+000	-7.805567112709030e+000
1	 8.534426992366734e-001	 1.645141462311570e+000	-8.090029025603009e+000
1	 8.356628913807014e-001	 1.654243764353546e+000	-8.367260801532851e+000
1	 8.178169016248167e-001	 1.663138726407550e+000	-8.636121007143567e+000
1	 7.999082495153213e-001	 1.671825854639347e+000	-8.895496823725679e+000
1	 7.819404518539631e-001	 1.680304732474796e+000	-9.144306282704804e+000
1	 7.639170206466032e-001	 1.688575020150183e+000	-9.381500412854731e+000
1	 7.458414610785948e-001	 1.696636454199607e+000	-9.606065295949383e+000
1	 7.277172695190414e-001	 1.704488846880856e+000	-9.817024027856668e+000
1	 9.193914766717937e-001	 1.639858133723017e+000	-7.636385523679736e+000
1	 9.015786516912100e-001	 1.649718586003838e+000	-7.944944679280334e+000
1	 8.836879864005770e-001	 1.659370691468799e+000	-8.250379495598859e+000
1	 8.657230466199544e-001	 1.668813711984378e+000	-8.551523160270717e+000
1	 8.476874017675546e-001	 1.678046988760721e+000	-8.847231676577225e+000
1	 8.295846227114402e-001	 1.687069942095027e+000	-9.136386276096559e+000
1	 8.114182796413252e-001	 1.695882071047190e+000	-9.417895751465814e+000
1	 7.931919399628790e-001	 1.704482953048911e+000	-9.690698705360260e+000
1	 7.749091662168747e-001	 1.712872243447557e+000	-9.953765712070659e+000
1	 7.565735140254362e-001	 1.721049674986173e+000	-1.020610138834313e+001
1	 7.381885300675789e-001	 1.729015057221095e+000	-1.044674637043325e+001
1	 9.324331148245619e-001	 1.663119646312786e+000	-8.010325340712759e+000
1	 9.143676135644236e-001	 1.673119969860358e+000	-8.332263998702620e+000
1	 8.962231678234888e-001	 1.682908991176575e+000	-8.652872552428345e+000
1	 8.780033940032496e-001	 1.692485961657440e+000	-8.971024549168991e+000
1	 8.597119121543899e-001	 1.701850213168122e+000	-9.285615403611914e+000
1	 8.413523437980107e-001	 1.711001157782695e+000	-9.595564791930405e+000
1	 8.229283097672420e-001	 1.719938287455187e+000	-9.899818967147311e+000
1	 8.044434280716766e-001	 1.728661173623140e+000	-1.019735299190005e+001
1	 7.859013117870025e-001	 1.737169466745007e+000	-1.048717288499558e+001
1	 7.673055669721173e-001	 1.745462895772776e+000	-1.076831767842467e+001
1	 7.486597906159502e-001	 1.753541267561331e+000	-1.103986138178950e+001
1	 9.454747529775296e-001	 1.686381158902720e+000	-8.341013698170706e+000
1	 9.271565754378307e-001	 1.696521353717034e+000	-8.676555910653404e+000
1	 9.087583492465783e-001	 1.706447290884493e+000	-9.012618642794415e+000
1	 8.902837413866998e-001	 1.716158211330630e+000	-9.348130695884578e+000
1	 8.717364225413530e-001	 1.725653437575633e+000	-9.682041915961797e+000
1	 8.531200648846794e-001	 1.734932373470456e+000	-1.001332553984195e+001
1	 8.344383398932268e-001	 1.743994503863259e+000	-1.034098046380669e+001
1	 8.156949161805157e-001	 1.752839394197428e+000	-1.066403343113160e+001
1	 7.968934573571501e-001	 1.761466690042496e+000	-1.098154113490740e+001
1	 7.780376199188031e-001	 1.769876116559398e+000	-1.129259223288313e+001
1	 7.591310511643220e-001	 1.778067477901566e+000	-1.159630927134152e+001
1	 9.585163911308307e-001	 1.709642671492654e+000	-8.628021840290817e+000
1	 9.399455373115651e-001	 1.719922737573709e+000	-8.977399786863405e+000
1	 9.212935306699827e-001	 1.729985590592412e+000	-9.329213400310016e+000
1	 9.025640887704454e-001	 1.739830461003820e+000	-9.682461009577210e+000
1	 8.837609329285886e-001	 1.749456661983145e+000	-1.003616128756054e+001
1	 8.648877859715963e-001	 1.758863589158218e+000	-1.038935552026745e+001
1	 8.459483700194360e-001	 1.768050720271332e+000	-1.074110980020107e+001
1	 8.269464042895561e-001	 1.777017614771715e+000	-1.109051714027259e+001
1	 8.078856029274806e-001	 1.785763913339985e+000	-1.143669950481469e+001
1	 7.887696728656604e-001	 1.794289337346019e+000	-1.177880975454050e+001
1	 7.696023117128608e-001	 1.802593688241801e+000	-1.211603350256574e+001
1	 9.715580292845979e-001	 1.732904184082422e+000	-8.870944032796887e+000
1	 9.527344991857626e-001	 1.743324121430229e+000	-9.234397584154770e+000
1	 9.338287120938384e-001	 1.753523890300188e+000	-9.602274170519214e+000
1	 9.148444361546277e-001	 1.763502710676882e+000	-9.973655334740506e+000
1	 8.957854433162428e-001	 1.773259886390545e+000	-1.034764238116999e+001
1	 8.766555070589114e-001	 1.782794804845885e+000	-1.072335853975073e+001
1	 8.574584001460237e-001	 1.792106936679329e+000	-1.109995105608174e+001
1	 8.381978923989577e-001	 1.801195835345946e+000	-1.147659320394471e+001
1	 8.188777484981575e-001	 1.810061136637435e+000	-1.185248621704155e+001
1	 7.995017258128542e-001	 1.818702558132622e+000	-1.222686113695295e+001
1	 7.800735722617330e-001	 1.827119898582037e+000	-1.259898057459596e+001
1	 9.845996674389650e-001	 1.756165696671858e+000	-9.069396038229469e+000
1	 9.655234610605563e-001	 1.766725505286440e+000	-9.447172348672558e+000
1	 9.463638935182839e-001	 1.777062190007680e+000	-9.831438572955943e+000
1	 9.271247835393878e-001	 1.787174960349689e+000	-1.022137259780751e+001
1	 9.078099537044607e-001	 1.797063110797722e+000	-1.061617160403135e+001
1	 8.884232281467757e-001	 1.806726020533363e+000	-1.101505409790618e+001
1	 8.689684302731457e-001	 1.816163153087172e+000	-1.141726187049514e+001
1	 8.494493805088798e-001	 1.825374055920060e+000	-1.182206188159476e+001
1	 8.298698940693450e-001	 1.834358359934808e+000	-1.222874806529944e+001
1	 8.102337787605508e-001	 1.843115778919188e+000	-1.263664305441021e+001
1	 7.905448328111057e-001	 1.851646108922276e+000	-1.304509982117657e+001
1	 9.976413055940656e-001	 1.779427209260796e+000	-9.223013710862706e+000
1	 9.783124229360812e-001	 1.790126889142184e+000	-9.615366837436874e+000
1	 9.588990749434547e-001	 1.800600489714745e+000	-1.001636317598834e+001
1	 9.394051309248662e-001	 1.810847210022113e+000	-1.042528955990994e+001
1	 9.198344640933878e-001	 1.820866335204562e+000	-1.084145176111641e+001
1	 9.001909492353392e-001	 1.830657236220556e+000	-1.126417636168237e+001
1	 8.804784604009575e-001	 1.840219369494784e+000	-1.169281255551531e+001
1	 8.607008686194827e-001	 1.849552276494000e+000	-1.212673387708114e+001
1	 8.408620396412051e-001	 1.858655583232066e+000	-1.256533985443999e+001
1	 8.209658317089157e-001	 1.867528999705697e+000	-1.300805758409275e+001
1	 8.010160933611453e-001	 1.876172319262519e+000	-1.345434322538632e+001
1	 1.010682943750033e+000	 1.802688721849068e+000	-9.331451700407003e+000
1	 9.911013848124723e-001	 1.813528272997309e+000	-9.738642246617479e+000
1	 9.714342563694887e-001	 1.824138789421242e+000	-1.015672227425956e+001
1	 9.516854783112035e-001	 1.834519459694026e+000	-1.058509966620252e+001
1	 9.318589744831693e-001	 1.844669559610956e+000	-1.102320099716292e+001
1	 9.119586703247526e-001	 1.854588451907370e+000	-1.147047321904070e+001
1	 8.919884905296137e-001	 1.864275585902090e+000	-1.192638527859354e+001
1	 8.719523567309262e-001	 1.873730497067710e+000	-1.239042966481171e+001
1	 8.518541852139021e-001	 1.882952806529170e+000	-1.286212388358496e+001
1	 8.316978846581150e-001	 1.891942220492133e+000	-1.334101185748289e+001
1	 8.114873539120182e-001	 1.900698529602767e+000	-1.382666524870535e+001
1	 7.067747484208015e-001	 1.655436426200365e+000	-8.448014228003588e+000
1	 6.891256442852183e-001	 1.662860803443095e+000	-8.591232466259053e+000
1	 6.714360551290197e-001	 1.670081948955455e+000	-8.727403485005878e+000
1	 6.537093420179819e-001	 1.677099898436262e+000	-8.854951741152210e+000
1	 6.359488499726910e-001	 1.683914758373383e+000	-8.972354817179378e+000
1	 6.181579061975374e-001	 1.690526705208835e+000	-9.078145209235350e+000
1	 6.003398183486900e-001	 1.696935984454057e+000	-9.170911988399894e+000
1	 5.824978728425352e-001	 1.703142909757176e+000	-9.249302334218575e+000
1	 5.646353332059857e-001	 1.709147861924183e+000	-9.312022939931195e+000
1	 5.467554384699808e-001	 1.714951287895949e+000	-9.357841289143954e+000
1	 5.288614016073797e-001	 1.720553699683057e+000	-9.385586804009185e+000
1	 7.172460089701712e-001	 1.679962636540613e+000	-9.150757636238827e+000
1	 6.993354235518500e-001	 1.687497010056689e+000	-9.323047554300599e+000
1	 6.813837533048077e-001	 1.694825140851425e+000	-9.489720053087329e+000
1	 6.633944090908881e-001	 1.701947065152540e+000	-9.648878342380911e+000
1	 6.453707854890251e-001	 1.708862891025580e+000	-9.798678013406477e+000
1	 6.273162589980006e-001	 1.715572797526653e+000	-9.937329438958113e+000
1	 6.092341862787581e-001	 1.722077033804590e+000	-1.006310003561862e+001
1	 5.911279024377771e-001	 1.728375918154393e+000	-1.017431638616073e+001
1	 5.730007193529454e-001	 1.734469837023908e+000	-1.026936622059668e+001
1	 5.548559240432534e-001	 1.740359243975686e+000	-1.034670025472007e+001
1	 5.366967770835491e-001	 1.746044658606036e+000	-1.040483388535373e+001
1	 7.277172695190414e-001	 1.704488846880856e+000	-9.817024027856668e+000
1	 7.095452028179917e-001	 1.712133216670198e+000	-1.001958948125415e+001
1	 6.913314514801311e-001	 1.719568332747231e+000	-1.021806451487254e+001
1	 6.730794761633667e-001	 1.726794231868579e+000	-1.041026446200256e+001
1	 6.547927210049780e-001	 1.733811023677469e+000	-1.059405597166354e+001
1	 6.364746117981360e-001	 1.740618889844100e+000	-1.076735997823232e+001
1	 6.181285542085547e-001	 1.747218083154697e+000	-1.092815452336209e+001
1	 5.997579320328053e-001	 1.753608926551139e+000	-1.107447742732522e+001
1	 5.813661054997462e-001	 1.759791812123126e+000	-1.120442880734034e+001
1	 5.629564096164186e-001	 1.765767200054896e+000	-1.131617344086992e+001
1	 5.445321525596547e-001	 1.771535617528480e+000	-1.140794297229396e+001
1	 7.381885300675789e-001	 1.729015057221095e+000	-1.044674637043324e+001
1	 7.197549820838096e-001	 1.736769423283644e+000	-1.068086441781859e+001
1	 7.012791496551518e-001	 1.744311524642915e+000	-1.091251915107777e+001
1	 6.827645432355752e-001	 1.751641398584440e+000	-1.113926995865424e+001
1	 6.642146565207017e-001	 1.758759156329126e+000	-1.135872616516794e+001
1	 6.456329645980879e-001	 1.765664982161268e+000	-1.156855052930130e+001
1	 6.270229221382165e-001	 1.772359132504484e+000	-1.176646258541485e+001
1	 6.083879616277474e-001	 1.778841934947530e+000	-1.195024182512582e+001
1	 5.897314916465081e-001	 1.785113787221967e+000	-1.211773071555422e+001
1	 5.710568951895859e-001	 1.791175156133712e+000	-1.226683755141128e+001
1	 5.523675280357959e-001	 1.797026576450526e+000	-1.239553913857018e+001
1	 7.486597906159502e-001	 1.753541267561331e+000	-1.103986138178950e+001
1	 7.299647613494683e-001	 1.761405629897045e+000	-1.130687818946472e+001
1	 7.112268478300333e-001	 1.769054716538517e+000	-1.157316163908720e+001
1	 6.924496103076727e-001	 1.776488565300181e+000	-1.183604574741263e+001
1	 6.736365920363487e-001	 1.783707288980629e+000	-1.209291278129688e+001
1	 6.547913173980023e-001	 1.790711074478250e+000	-1.234119724380572e+001
1	 6.359172900678811e-001	 1.797500181854058e+000	-1.257838969670660e+001
1	 6.170179912227322e-001	 1.804074943343686e+000	-1.280204041472837e+001
1	 5.980968777933491e-001	 1.810435762320554e+000	-1.300976286748769e+001
1	 5.791573807628641e-001	 1.816583112212264e+000	-1.319923702548883e+001
1	 5.602029035120719e-001	 1.822517535372305e+000	-1.336821248711204e+001
1	 7.591310511643220e-001	 1.778067477901566e+000	-1.159630927134152e+001
1	 7.401745406151347e-001	 1.786041836510427e+000	-1.189763630024524e+001
1	 7.211745460049378e-001	 1.793797908434078e+000	-1.220006537043879e+001
1	 7.021346773798164e-001	 1.801335732015862e+000	-1.250073441661970e+001
1	 6.830585275520711e-001	 1.808655421632055e+000	-1.279682763789505e+001
1	 6.639496701980238e-001	 1.815757166795140e+000	-1.308557993322665e+001
1	 6.448116579976856e-001	 1.822641231203525e+000	-1.336428116709564e+001
1	 6.256480208178877e-001	 1.829307951739723e+000	-1.363028025997706e+001
1	 6.064622639403884e-001	 1.835757737419014e+000	-1.388098909876469e+001
1	 5.872578663363622e-001	 1.841991068290684e+000	-1.411388626282772e+001
1	 5.680382789885817e-001	 1.848008494293950e+000	-1.432652056193062e+001
1	 7.696023117128608e-001	 1.802593688241801e+000	-1.211603350256574e+001
1	 7.503843198809724e-001	 1.810678043123807e+000	-1.245314395466041e+001
1	 7.311222441800278e-001	 1.818541100329640e+000	-1.279329974239150e+001
1	 7.118197444521650e-001	 1.826182898731543e+000	-1.313347079435306e+001
1	 6.924804630680210e-001	 1.833603554283482e+000	-1.347067102477763e+001
1	 6.731080229982976e-001	 1.840803259112029e+000	-1.380196318051177e+001
1	 6.537060259277669e-001	 1.847782280552992e+000	-1.412446351320568e+001
1	 6.342780504133430e-001	 1.854540960135760e+000	-1.443534627056609e+001
1	 6.148276500877450e-001	 1.861079712517475e+000	-1.473184800109620e+001
1	 5.953583519101899e-001	 1.867399024369105e+000	-1.501127166732571e+001
1	 5.758736544654247e-001	 1.873499453215596e+000	-1.527099056311330e+001
1	 7.800735722617330e-001	 1.827119898582037e+000	-1.259898057459596e+001
1	 7.605940991471489e-001	 1.835314249737210e+000	-1.297340607776352e+001
1	 7.410699423554661e-001	 1.843284292225242e+000	-1.335293042600999e+001
1	 7.215048115248767e-001	 1.851030065447285e+000	-1.373438246927272e+001
1	 7.019023985843511e-001	 1.858551686934985e+000	-1.411463247745903e+001
1	 6.822663757989691e-001	 1.865849351429012e+000	-1.449059736217090e+001
1	 6.626003938582623e-001	 1.872923329902566e+000	-1.485924571977386e+001
1	 6.429080800092253e-001	 1.879773968531916e+000	-1.521760268896232e+001
1	 6.231930362355381e-001	 1.886401687616062e+000	-1.556275461657928e+001
1	 6.034588374844560e-001	 1.892806980447657e+000	-1.589185352605278e+001
1	 5.837090299427000e-001	 1.898990412137376e+000	-1.620212138342086e+001
1	 7.905448328111057e-001	 1.851646108922276e+000	-1.304509982117657e+001
1	 7.708038784138284e-001	 1.859950456350654e+000	-1.345842733366745e+001
1	 7.510176405314152e-001	 1.868027484120925e+000	-1.387901961294323e+001
1	 7.311898785981090e-001	 1.875877232163145e+000	-1.430359027007398e+001
1	 7.113243341012138e-001	 1.883499819586643e+000	-1.472889148938930e+001
1	 6.914247286001836e-001	 1.890895443746181e+000	-1.515171958914190e+001
1	 6.714947617893092e-001	 1.898064379252353e+000	-1.556892040075456e+001
1	 6.515381096056636e-001	 1.905006976928308e+000	-1.597739445915694e+001
1	 6.315584223838864e-001	 1.911723662714902e+000	-1.637410199734388e+001
1	 6.115593230592691e-001	 1.918214936526472e+000	-1.675606773891994e+001
1	 5.915444054205066e-001	 1.924481371059421e+000	-1.712038548302875e+001
1	 8.010160933611453e-001	 1.876172319262519e+000	-1.345434322538632e+001
1	 7.810136576811766e-001	 1.884586662964163e+000	-1.390821214260043e+001
1	 7.609653387080380e-001	 1.892770676016731e+000	-1.437162624284719e+001
1	 7.408749456720213e-001	 1.900724398879184e+000	-1.484120870733470e+001
1	 7.207462696187608e-001	 1.908447952238532e+000	-1.531361816832782e+001
1	 7.005830814020861e-001	 1.915941536063627e+000	-1.578555457385944e+001
1	 6.803891297210440e-001	 1.923205428602460e+000	-1.625376486935270e+001
1	 6.601681392027861e-001	 1.930239985325052e+000	-1.671504848806002e+001
1	 6.399238085329084e-001	 1.937045637814121e+000	-1.716626264286913e+001
1	 6.196598086347389e-001	 1.943622892605682e+000	-1.760432741268168e+001
1	 5.993797808989435e-001	 1.949972329981867e+000	-1.802623061722380e+001
1	 8.114873539120182e-001	 1.900698529602767e+000	-1.382666524870535e+001
1	 7.912234369493598e-001	 1.909222869577757e+000	-1.432276469664117e+001
1	 7.709130368854968e-001	 1.917513867912702e+000	-1.483080621319978e+001
1	 7.505600127467703e-001	 1.925571565595462e+000	-1.534734638115318e+001
1	 7.301682051371443e-001	 1.933396084890728e+000	-1.586897384189756e+001
1	 7.097414342048215e-001	 1.940987628381445e+000	-1.639231543019344e+001
1	 6.892834976536051e-001	 1.948346477952993e+000	-1.691404212521156e+001
1	 6.687981688007214e-001	 1.955472993722270e+000	-1.743087480923323e+001
1	 6.482891946827237e-001	 1.962367612913845e+000	-1.793958982601887e+001
1	 6.277602942109746e-001	 1.969030848685419e+000	-1.843702433152627e+001
1	 6.072151563781101e-001	 1.975463288904845e+000	-1.892008143033738e+001
1	 5.288614016073797e-001	 1.720553699683057e+000	-9.385586804009185e+000
1	 5.109564077608135e-001	 1.725955672830829e+000	-9.397168382627838e+000
1	 4.930436120318358e-001	 1.731157843990140e+000	-9.395013701603627e+000
1	 4.751261388703822e-001	 1.736160911033619e+000	-9.378835386276590e+000
1	 4.572070809624126e-001	 1.740965632275259e+000	-9.348422026122572e+000
1	 4.392894979044454e-001	 1.745572825227723e+000	-9.303636461835501e+000
1	 4.213764149277031e-001	 1.749983365329664e+000	-9.244413988957113e+000
1	 4.034708216724216e-001	 1.754198184645169e+000	-9.170760483707298e+000
1	 3.855756710127967e-001	 1.758218270537386e+000	-9.082750456697447e+000
1	 3.676938779329494e-001	 1.762044664318403e+000	-8.980525040219265e+000
1	 3.498283184541985e-001	 1.765678459877450e+000	-8.864289914798055e+000
1	 5.366967770835491e-001	 1.746044658606036e+000	-1.040483388535373e+001
1	 5.185265108061257e-001	 1.751526664987303e+000	-1.044582344512852e+001
1	 5.003483270571110e-001	 1.756805909202691e+000	-1.047223512538705e+001
1	 4.821653965768892e-001	 1.761883099464191e+000	-1.048346009942194e+001
1	 4.639808578712683e-001	 1.766759005320630e+000	-1.047897063261313e+001
1	 4.457978158663765e-001	 1.771434456396564e+000	-1.045831880495520e+001
1	 4.276193406139059e-001	 1.775910341100748e+000	-1.042113513158998e+001
1	 4.094484660472607e-001	 1.780187605306307e+000	-1.036712708661201e+001
1	 3.912881887890963e-001	 1.784267251004713e+000	-1.029607753549788e+001
1	 3.731414670106318e-001	 1.788150334935661e+000	-1.020784308157743e+001
1	 3.550112193430272e-001	 1.791837967194950e+000	-1.010235233201023e+001
1	 5.445321525596547e-001	 1.771535617528480e+000	-1.140794297229396e+001
1	 5.260966138514088e-001	 1.777097657143252e+000	-1.148196046157395e+001
1	 5.076530420823825e-001	 1.782453974414742e+000	-1.154090678340938e+001
1	 4.892046542834104e-001	 1.787605287894299e+000	-1.158381642050442e+001
1	 4.707546347801495e-001	 1.792552378365583e+000	-1.160980962134639e+001
1	 4.523061338283391e-001	 1.797296087565045e+000	-1.161809163462656e+001
1	 4.338622663001412e-001	 1.801837316871536e+000	-1.160795182198140e+001
1	 4.154261104221303e-001	 1.806177025967220e+000	-1.157876265381586e+001
1	 3.970007065654226e-001	 1.810316231471889e+000	-1.152997859311493e+001
1	 3.785890560883355e-001	 1.814256005552847e+000	-1.146113487227352e+001
1	 3.601941202318723e-001	 1.817997474512458e+000	-1.137184616808423e+001
1	 5.523675280357959e-001	 1.797026576450526e+000	-1.239553913857018e+001
1	 5.336667168967521e-001	 1.802668649298809e+000	-1.250623305165914e+001
1	 5.149577571077297e-001	 1.808102039626417e+000	-1.260168137231592e+001
1	 4.962439119900155e-001	 1.813327476324059e+000	-1.268052810512349e+001
1	 4.775284116891162e-001	 1.818345751410224e+000	-1.274150724861284e+001
1	 4.588144517903843e-001	 1.823157718733256e+000	-1.278344261651535e+001
1	 4.401051919864520e-001	 1.827764292642103e+000	-1.280524751653095e+001
1	 4.214037547970657e-001	 1.832166446627964e+000	-1.280592429074538e+001
1	 4.027132243418035e-001	 1.836365211938954e+000	-1.278456372204345e+001
1	 3.840366451660822e-001	 1.840361676169979e+000	-1.274034431105582e+001
1	 3.653770211207496e-001	 1.844156981829972e+000	-1.267253142835221e+001
1	 5.602029035120719e-001	 1.822517535372305e+000	-1.336821248711204e+001
1	 5.412368199422444e-001	 1.828239641454104e+000	-1.351925826721597e+001
1	 5.222624721332320e-001	 1.833750104837843e+000	-1.365517507252975e+001
1	 5.032831696967738e-001	 1.839049664753587e+000	-1.377418401181261e+001
1	 4.843021885982289e-001	 1.844139124454658e+000	-1.387459997863948e+001
1	 4.653227697525628e-001	 1.849019349901286e+000	-1.395483213300266e+001
1	 4.463481176728810e-001	 1.853691268412522e+000	-1.401338421851784e+001
1	 4.273813991721016e-001	 1.858155867288595e+000	-1.404885471862604e+001
1	 4.084257421182667e-001	 1.862414192405942e+000	-1.405993685546507e+001
1	 3.894842342438936e-001	 1.866467346787076e+000	-1.404541843535079e+001
1	 3.705599220096755e-001	 1.870316489147490e+000	-1.400418154505399e+001
1	 5.680382789885817e-001	 1.848008494293950e+000	-1.432652056193062e+001
1	 5.488069229879748e-001	 1.853810633609267e+000	-1.452161911425252e+001
1	 5.295671871589682e-001	 1.859398170049142e+000	-1.470197006673002e+001
1	 5.103224274037549e-001	 1.864771853182998e+000	-1.486534050884533e+001
1	 4.910759655075475e-001	 1.869932497498987e+000	-1.500959467624846e+001
1	 4.718310877149262e-001	 1.874880981069227e+000	-1.513269516487907e+001
1	 4.525910433594708e-001	 1.879618244182866e+000	-1.523270395769557e+001
1	 4.333590435472733e-001	 1.884145287949170e+000	-1.530778326654277e+001
1	 4.141382598948399e-001	 1.888463172872894e+000	-1.535619619204904e+001
1	 3.949318233217909e-001	 1.892573017404154e+000	-1.537630720479289e+001
1	 3.757428228986661e-001	 1.896475996465010e+000	-1.536658245130056e+001
1	 5.758736544654247e-001	 1.873499453215596e+000	-1.527099056311330e+001
1	 5.563770260340329e-001	 1.879381625764431e+000	-1.551386686910207e+001
1	 5.368719021850180e-001	 1.885046235260443e+000	-1.574261685272997e+001
1	 5.173616851110285e-001	 1.890494041612411e+000	-1.595452368455927e+001
1	 4.978497424171324e-001	 1.895725870543315e+000	-1.614697062051450e+001
1	 4.783394056775259e-001	 1.900742612237167e+000	-1.631744301942336e+001
1	 4.588339690462645e-001	 1.905545219953211e+000	-1.646353014909840e+001
1	 4.393366879226154e-001	 1.910134708609745e+000	-1.658292678251247e+001
1	 4.198507776715514e-001	 1.914512153339845e+000	-1.667343458607299e+001
1	 4.003794123997961e-001	 1.918678688021233e+000	-1.673296330242615e+001
1	 3.809257237877377e-001	 1.922635503782531e+000	-1.675953173063618e+001
1	 5.837090299427000e-001	 1.898990412137376e+000	-1.620212138342086e+001
1	 5.639471290805076e-001	 1.904952617919726e+000	-1.649652320802836e+001
1	 5.441766172114603e-001	 1.910694300471868e+000	-1.677763637007435e+001
1	 5.244009428186642e-001	 1.916216230041938e+000	-1.704223137965897e+001
1	 5.046235193270438e-001	 1.921519243587748e+000	-1.728718135624202e+001
1	 4.848477236404132e-001	 1.926604243405198e+000	-1.750946491930174e+001
1	 4.650768947333047e-001	 1.931472195723630e+000	-1.770616884240759e+001
1	 4.453143322981632e-001	 1.936124129270376e+000	-1.787449047117764e+001
1	 4.255632954484288e-001	 1.940561133806834e+000	-1.801173990612416e+001
1	 4.058270014779305e-001	 1.944784358638330e+000	-1.811534195191744e+001
1	 3.861086246769064e-001	 1.948795011100049e+000	-1.818283783509502e+001
1	 5.915444054205066e-001	 1.924481371059421e+000	-1.712038548302875e+001
1	 5.715172321274878e-001	 1.930523610075283e+000	-1.747008216758275e+001
1	 5.514813322383746e-001	 1.936342365683543e+000	-1.780752195762903e+001
1	 5.314402005267317e-001	 1.941938418471699e+000	-1.812893505800366e+001
1	 5.113972962373418e-001	 1.947312616632389e+000	-1.843065639829796e+001
1	 4.913560416036388e-001	 1.952465874573409e+000	-1.870912946519027e+001
1	 4.713198204206343e-001	 1.957399171494196e+000	-1.896090987202761e+001
1	 4.512919766739515e-001	 1.962113549931120e+000	-1.918266866492581e+001
1	 4.312758132255001e-001	 1.966610114273899e+000	-1.937119536529239e+001
1	 4.112745905562159e-001	 1.970890029255462e+000	-1.952340074929587e+001
1	 3.912915255661882e-001	 1.974954518417563e+000	-1.963631936540225e+001
1	 5.993797808989435e-001	 1.949972329981867e+000	-1.802623061722380e+001
1	 5.790873351750631e-001	 1.956094602231232e+000	-1.843501195120148e+001
1	 5.587860472658400e-001	 1.961990430895594e+000	-1.883274115762623e+001
1	 5.384794582353004e-001	 1.967660606901807e+000	-1.921508153066096e+001
1	 5.181710731480863e-001	 1.973105989677342e+000	-1.957780280226509e+001
1	 4.978643595672542e-001	 1.978327505741890e+000	-1.991678598367728e+001
1	 4.775627461082961e-001	 1.983326147264985e+000	-2.022802791695455e+001
1	 4.572696210500153e-001	 1.988102970592032e+000	-2.050764553452636e+001
1	 4.369883310027929e-001	 1.992659094741074e+000	-2.075187982546503e+001
1	 4.167221796346737e-001	 1.996995699872648e+000	-2.095709950789041e+001
1	 3.964744264555997e-001	 2.001114025735070e+000	-2.111980440763164e+001
1	 6.072151563781101e-001	 1.975463288904845e+000	-1.892008143033738e+001
1	 5.866574382233224e-001	 1.981665594387705e+000	-1.939175659593101e+001
1	 5.660907622939357e-001	 1.987638496108145e+000	-1.985373738003661e+001
1	 5.455187159444396e-001	 1.993382795332379e+000	-2.030109454647884e+001
1	 5.249448500593381e-001	 1.998899362722714e+000	-2.072900661349209e+001
1	 5.043726775313110e-001	 2.004189136910731e+000	-2.113276577080783e+001
1	 4.838056717963329e-001	 2.009253123036070e+000	-2.150778347858774e+001
1	 4.632472654263897e-001	 2.014092391253171e+000	-2.184959574474759e+001
1	 4.427008487803356e-001	 2.018708075208402e+000	-2.215386807806230e+001
1	 4.221697687133255e-001	 2.023101370489906e+000	-2.241640011527229e+001
1	 4.016573273451569e-001	 2.027273533052570e+000	-2.263312992122168e+001
1	 3.498283184541985e-001	 1.765678459877450e+000	-8.864289914798057e+000
1	 3.319845031998169e-001	 1.769120300513190e+000	-8.729072198829899e+000
1	 3.141625416233765e-001	 1.772371941244703e+000	-8.569928012018652e+000
1	 2.963651817210658e-001	 1.775434626186778e+000	-8.387248007641402e+000
1	 2.785951288690975e-001	 1.778309646314947e+000	-8.181472870659793e+000
1	 2.608550450100400e-001	 1.780998338017287e+000	-7.953090986540246e+000
1	 2.431475478902918e-001	 1.783502081636491e+000	-7.702636098029092e+000
1	 2.254752103484412e-001	 1.785822300004091e+000	-7.430684954726859e+000
1	 2.078405596541675e-001	 1.787960456968690e+000	-7.137854960167811e+000
1	 1.902460768972755e-001	 1.789918055920011e+000	-6.824801820964654e+000
1	 1.726941964264004e-001	 1.791696638310540e+000	-6.492217202424735e+000
1	 3.550112193430272e-001	 1.791837967194950e+000	-1.010235233201023e+001
1	 3.369030380524930e-001	 1.795330800612061e+000	-9.974175368487277e+000
1	 3.188170342142214e-001	 1.798630616207665e+000	-9.817874552006318e+000
1	 3.007559965374987e-001	 1.801738676528800e+000	-9.633516427788186e+000
1	 2.827226704801975e-001	 1.804656291677526e+000	-9.421226303630901e+000
1	 2.647197574230519e-001	 1.807384817841254e+000	-9.181186269001593e+000
1	 2.467499138958356e-001	 1.809925655813227e+000	-8.913633179029986e+000
1	 2.288157508551774e-001	 1.812280249505019e+000	-8.618856608235724e+000
1	 2.109198330136687e-001	 1.814450084452968e+000	-8.297196778736884e+000
1	 1.930646782198457e-001	 1.816436686320356e+000	-7.949042467591976e+000
1	 1.752527568885781e-001	 1.818241619397146e+000	-7.574828897823430e+000
1	 3.601941202318723e-001	 1.817997474512458e+000	-1.137184616808423e+001
1	 3.418215729051807e-001	 1.821541300711022e+000	-1.125617687764657e+001
1	 3.234715268050726e-001	 1.824889291170791e+000	-1.110815563764143e+001
1	 3.051468113539313e-001	 1.828042726871060e+000	-1.092749904288271e+001
1	 2.868502120912874e-001	 1.831002937040409e+000	-1.071399177857585e+001
1	 2.685844698360398e-001	 1.833771297665584e+000	-1.046748502595681e+001
1	 2.503522799013355e-001	 1.836349229990371e+000	-1.018789480776069e+001
1	 2.321562913618431e-001	 1.838738199006388e+000	-9.875200278329688e+000
1	 2.139991063730645e-001	 1.840939711937706e+000	-9.529441963141156e+000
1	 1.958832795422659e-001	 1.842955316721160e+000	-9.150719952499189e+000
1	 1.778113173505509e-001	 1.844786600484193e+000	-8.739192054082936e+000
1	 3.653770211207496e-001	 1.844156981829972e+000	-1.267253142835221e+001
1	 3.467401077578918e-001	 1.847751800810049e+000	-1.257464571417662e+001
1	 3.281260193959391e-001	 1.851147966134042e+000	-1.244015230415160e+001
1	 3.095376261703706e-001	 1.854346777213498e+000	-1.226839297670527e+001
1	 2.909777537023743e-001	 1.857349582403519e+000	-1.205878751110554e+001
1	 2.724491822490120e-001	 1.860157777490180e+000	-1.181083251530804e+001
1	 2.539546459068039e-001	 1.862772804167814e+000	-1.152410016657543e+001
1	 2.354968318684564e-001	 1.865196148508078e+000	-1.119823686964274e+001
1	 2.170783797323812e-001	 1.867429339422771e+000	-1.083296183723786e+001
1	 1.987018808645739e-001	 1.869473947122285e+000	-1.042806559778934e+001
1	 1.803698778123702e-001	 1.871331581571538e+000	-9.983408435162602e+000
1	 3.705599220096755e-001	 1.870316489147490e+000	-1.400418154505399e+001
1	 3.516586426106382e-001	 1.873962300909120e+000	-1.392917497965021e+001
1	 3.327805119868295e-001	 1.877406641097375e+000	-1.381328021579817e+001
1	 3.139284409868238e-001	 1.880650827556055e+000	-1.365544027130824e+001
1	 2.951052953134649e-001	 1.883696227766776e+000	-1.345468664442453e+001
1	 2.763138946619772e-001	 1.886544257314950e+000	-1.321013859896433e+001
1	 2.575570119122528e-001	 1.889196378345448e+000	-1.292100233321412e+001
1	 2.388373723750355e-001	 1.891654098009965e+000	-1.258657003731052e+001
1	 2.201576530916456e-001	 1.893918966908032e+000	-1.220621884393688e+001
1	 2.015204821868069e-001	 1.895992577523594e+000	-1.177940967725457e+001
1	 1.829284382740870e-001	 1.897876562659040e+000	-1.130568600506124e+001
1	 3.757428228986661e-001	 1.896475996465010e+000	-1.536658245130056e+001
1	 3.565771774634313e-001	 1.900172801008212e+000	-1.531938022625292e+001
1	 3.374350045777524e-001	 1.903665316060748e+000	-1.522698727755620e+001
1	 3.183192558032973e-001	 1.906954877898667e+000	-1.508792478906043e+001
1	 2.992328369245657e-001	 1.910042873130104e+000	-1.490081346104526e+001
1	 2.801786070749438e-001	 1.912930737139797e+000	-1.466437328718561e+001
1	 2.611593779176946e-001	 1.915619952523162e+000	-1.437742318433196e+001
1	 2.421779128815985e-001	 1.918112047511930e+000	-1.403888047977415e+001
1	 2.232369264508841e-001	 1.920408594393359e+000	-1.364776026083606e+001
1	 2.043390835090026e-001	 1.922511207924947e+000	-1.320317459180389e+001
1	 1.854869987357526e-001	 1.924421543746556e+000	-1.270433160333571e+001
1	 3.809257237877377e-001	 1.922635503782531e+000	-1.675953173063617e+001
1	 3.614957123162833e-001	 1.926383301107304e+000	-1.674489792946092e+001
1	 3.420894971687164e-001	 1.929923991024120e+000	-1.668075144176819e+001
1	 3.227100706197986e-001	 1.933258928241276e+000	-1.656516936759741e+001
1	 3.033603785356840e-001	 1.936389518493424e+000	-1.639633990376417e+001
1	 2.840433194879206e-001	 1.939317216964629e+000	-1.617256264667075e+001
1	 2.647617439231413e-001	 1.942043526700847e+000	-1.589224871508642e+001
1	 2.455184533881636e-001	 1.944569997013850e+000	-1.555392069749859e+001
1	 2.263161998101232e-001	 1.946898221878620e+000	-1.515621242888922e+001
1	 2.071576848311983e-001	 1.949029838326206e+000	-1.469786860202511e+001
1	 1.880455591974182e-001	 1.950966524833943e+000	-1.417774421856382e+001
1	 3.861086246769064e-001	 1.948795011100049e+000	-1.818283783509502e+001
1	 3.664142471692060e-001	 1.952593801206374e+000	-1.820538408373016e+001
1	 3.467439897597303e-001	 1.956182665987450e+000	-1.817407869145168e+001
1	 3.271008854363341e-001	 1.959562978583822e+000	-1.808653320391356e+001
1	 3.074879201468264e-001	 1.962736163856656e+000	-1.794048237684043e+001
1	 2.879080319009157e-001	 1.965703696789349e+000	-1.773378503821034e+001
1	 2.683641099286056e-001	 1.968467100878397e+000	-1.746442473568769e+001
1	 2.488589938947491e-001	 1.971027946515605e+000	-1.713051017382667e+001
1	 2.293954731693895e-001	 1.973387849363684e+000	-1.673027544590051e+001
1	 2.099762861534316e-001	 1.975548468727234e+000	-1.626208006552941e+001
1	 1.906041196591352e-001	 1.977511505921061e+000	-1.572440880356631e+001
1	 3.912915255661882e-001	 1.974954518417563e+000	-1.963631936540225e+001
1	 3.713327820222112e-001	 1.978804301305400e+000	-1.970051290979135e+001
1	 3.513984823508028e-001	 1.982441340950695e+000	-1.970650118388031e+001
1	 3.314917002529111e-001	 1.985867028926243e+000	-1.965140944635065e+001
1	 3.116154617579995e-001	 1.989082809219724e+000	-1.953249880139705e+001
1	 2.917727443139378e-001	 1.992090176613864e+000	-1.934716765334727e+001
1	 2.719664759340993e-001	 1.994890675055700e+000	-1.909295290996002e+001
1	 2.521995344013732e-001	 1.997485896017071e+000	-1.876753093882915e+001
1	 2.324747465287095e-001	 1.999877476848419e+000	-1.836871828174668e+001
1	 2.127948874757400e-001	 2.002067099127891e+000	-1.789447213227555e+001
1	 1.931626801209544e-001	 2.004056487007765e+000	-1.734289058215622e+001
1	 3.964744264555997e-001	 2.001114025735070e+000	-2.111980440763164e+001
1	 3.762513168753105e-001	 2.005014801404359e+000	-2.122997566333801e+001
1	 3.560529749419423e-001	 2.008700015913815e+000	-2.127757553977312e+001
1	 3.358825150695361e-001	 2.012171079268478e+000	-2.125922297545758e+001
1	 3.157430033692104e-001	 2.015429454582549e+000	-2.117168590178086e+001
1	 2.956374567269953e-001	 2.018476656438079e+000	-2.101188332268400e+001
1	 2.755688419396348e-001	 2.021314249232647e+000	-2.077688710461777e+001
1	 2.555400749080536e-001	 2.023943845518130e+000	-2.046392348110314e+001
1	 2.355540198881096e-001	 2.026367104332694e+000	-2.007037427673604e+001
1	 2.156134887981608e-001	 2.028585729528039e+000	-1.959377785596612e+001
1	 1.957212405829273e-001	 2.030601468093916e+000	-1.903182980243756e+001
1	 4.016573273451569e-001	 2.027273533052570e+000	-2.263312992122168e+001
1	 3.811698517285161e-001	 2.031225301503230e+000	-2.279347953594927e+001
1	 3.607074675331575e-001	 2.034958690876767e+000	-2.288688126493974e+001
1	 3.402733298862165e-001	 2.038475129610468e+000	-2.290942835666267e+001
1	 3.198705449804655e-001	 2.041776099945052e+000	-2.285737670202017e+001
1	 2.995021691400967e-001	 2.044863136261900e+000	-2.272714757129911e+001
1	 2.791712079452243e-001	 2.047737823409130e+000	-2.251533002119099e+001
1	 2.588806154148092e-001	 2.050401795018658e+000	-2.221868297609017e+001
1	 2.386332932476166e-001	 2.052856731816378e+000	-2.183413698849681e+001
1	 2.184320901207317e-001	 2.055104359927540e+000	-2.135879568393177e+001
1	 1.982798010451052e-001	 2.057146449179369e+000	-2.078993689631769e+001
1	 1.726941964264004e-001	 1.791696638310540e+000	-6.492217202424730e+000
1	 1.551846886247798e-001	 1.793298009200867e+000	-6.134432562527371e+000
1	 1.377225603152077e-001	 1.794723502569440e+000	-5.747494829949257e+000
1	 1.203101389484920e-001	 1.795974766340585e+000	-5.334530933497811e+000
1	 1.029497023582024e-001	 1.797053480637194e+000	-4.898650998158193e+000
1	 8.564347844425330e-002	 1.797961356299908e+000	-4.442943400642831e+000
1	 6.839364490323611e-002	 1.798700133414114e+000	-3.970470011004748e+000
1	 5.120232900460125e-002	 1.799271579846228e+000	-3.484261623039376e+000
1	 3.407160741175545e-002	 1.799677489790610e+000	-2.987313575688798e+000
1	 1.700350604710066e-002	 1.799919682328466e+000	-2.482581567164826e+000
1	 0.000000000000000e+000	 1.800000000000000e+000	-1.972977663025654e+000
1	 1.752527568885781e-001	 1.818241619397146e+000	-7.574828897823430e+000
1	 1.574838360012102e-001	 1.819866715486908e+000	-7.168498509147052e+000
1	 1.397629965593997e-001	 1.821313328331721e+000	-6.725872791622867e+000
1	 1.220926004964326e-001	 1.822583130270824e+000	-6.250060379472378e+000
1	 1.044749593932499e-001	 1.823677826319064e+000	-5.744159684532838e+000
1	 8.691233415734243e-002	 1.824599152664132e+000	-5.211253801533765e+000
1	 6.940693474908768e-002	 1.825348875171750e+000	-4.654405595126599e+000
1	 5.196091995461615e-002	 1.825928787900252e+000	-4.076652971778530e+000
1	 3.457639720425804e-002	 1.826340711625985e+000	-3.481004339126986e+000
1	 1.725542243558246e-002	 1.826586492380854e+000	-2.870434254887044e+000
1	 0.000000000000000e+000	 1.826668000003317e+000	-2.247879266915519e+000
1	 1.778113173505509e-001	 1.844786600484193e+000	-8.739192054082936e+000
1	 1.597829833773705e-001	 1.846435421773350e+000	-8.288367088139099e+000
1	 1.418034328032533e-001	 1.847903154094349e+000	-7.793745387053906e+000
1	 1.238750620439718e-001	 1.849191494201344e+000	-7.258323865872051e+000
1	 1.060002164278468e-001	 1.850302172001139e+000	-6.685098184133959e+000
1	 8.818118986995374e-002	 1.851236949028488e+000	-6.077057588978965e+000
1	 7.042022459446456e-002	 1.851997616929445e+000	-5.437179929299316e+000
1	 5.271951090419792e-002	 1.852585995954273e+000	-4.768426844495704e+000
1	 3.508118699641526e-002	 1.853003933461306e+000	-4.073739130875144e+000
1	 1.750733882386074e-002	 1.853253302433154e+000	-3.356032288234604e+000
1	 0.000000000000000e+000	 1.853336000006534e+000	-2.618192248688460e+000
1	 1.803698778123702e-001	 1.871331581571538e+000	-9.983408435162605e+000
1	 1.620821307533284e-001	 1.873004128060052e+000	-9.492027980974550e+000
1	 1.438438690468529e-001	 1.874492979857181e+000	-8.949016880577927e+000
1	 1.256575235912098e-001	 1.875799858132006e+000	-8.357170886453609e+000
1	 1.075254734621056e-001	 1.876926517683292e+000	-7.719295778720016e+000
1	 8.945004558220665e-002	 1.877874745392853e+000	-7.038202232225164e+000
1	 7.143351443948548e-002	 1.878646358687085e+000	-6.316700837728116e+000
1	 5.347810185345483e-002	 1.879243204008180e+000	-5.557597281209943e+000
1	 3.558597678831350e-002	 1.879667155296469e+000	-4.763687684861496e+000
1	 1.775925521198637e-002	 1.879920112485265e+000	-3.937754112815679e+000
1	 0.000000000000000e+000	 1.880004000009551e+000	-3.082560244220462e+000
1	 1.829284382740870e-001	 1.897876562659040e+000	-1.130568600506124e+001
1	 1.643812781291512e-001	 1.899572834346869e+000	-1.077758333980883e+001
1	 1.458843052902834e-001	 1.901082805620080e+000	-1.018970878602062e+001
1	 1.274399851382471e-001	 1.902408222062676e+000	-9.544571248695698e+000
1	 1.090507304961390e-001	 1.903550863365390e+000	-8.844703194564062e+000
1	 9.071890129422065e-002	 1.904512541757102e+000	-8.092655627501523e+000
1	 7.244680428426906e-002	 1.905295100444551e+000	-7.290993194937335e+000
1	 5.423669280249519e-002	 1.905900412061864e+000	-6.442289429832450e+000
1	 3.609076658003904e-002	 1.906330377131367e+000	-5.549122132343301e+000
1	 1.801117160001025e-002	 1.906586922537085e+000	-4.614068894835233e+000
1	 0.000000000000000e+000	 1.906672000012268e+000	-3.639702773461857e+000
1	 1.854869987357526e-001	 1.924421543746556e+000	-1.270433160333571e+001
1	 1.666804255049065e-001	 1.926141540633660e+000	-1.214324003052183e+001
1	 1.479247415336293e-001	 1.927672631382903e+000	-1.151395178015007e+001
1	 1.292224466851840e-001	 1.929016585993217e+000	-1.081860677591487e+001
1	 1.105759875300598e-001	 1.930175209047304e+000	-1.005938422658027e+001
1	 9.198775700611518e-002	 1.931150338121113e+000	-9.238497792323962e+000
1	 7.346009412893398e-002	 1.931943842201728e+000	-8.358190852959110e+000
1	 5.499528375142728e-002	 1.932557620115213e+000	-7.420731883196686e+000
1	 3.659555637167828e-002	 1.932993598965896e+000	-6.428409939693245e+000
1	 1.826308798798325e-002	 1.933253732588513e+000	-5.383530264210624e+000
1	 0.000000000000000e+000	 1.933340000014584e+000	-4.288410006808914e+000
1	 1.880455591974182e-001	 1.950966524833943e+000	-1.417774421856382e+001
1	 1.689795728806618e-001	 1.952710246920282e+000	-1.358730250900872e+001
1	 1.499651777769752e-001	 1.954262457145510e+000	-1.291997827628526e+001
1	 1.310049082321210e-001	 1.955624949923494e+000	-1.217746368679059e+001
1	 1.121012445639806e-001	 1.956799554728904e+000	-1.136150804622658e+001
1	 9.325661271800977e-002	 1.957788134484761e+000	-1.047391323784667e+001
1	 7.447338397359894e-002	 1.958592583958498e+000	-9.516529227556509e+000
1	 5.575387470035939e-002	 1.959214828168119e+000	-8.491249641665666e+000
1	 3.710034616331752e-002	 1.959656820799952e+000	-7.400007422719568e+000
1	 1.851500437595628e-002	 1.959920542639449e+000	-6.244770568477046e+000
1	 0.000000000000000e+000	 1.960008000016401e+000	-5.027537958730125e+000
1	 1.906041196591352e-001	 1.977511505921061e+000	-1.572440880356631e+001
1	 1.712787202564847e-001	 1.979278953206592e+000	-1.510816627121736e+001
1	 1.520056140204057e-001	 1.980852282907762e+000	-1.440611559603057e+001
1	 1.327873697791583e-001	 1.982233313853369e+000	-1.361942558864800e+001
1	 1.136265015980141e-001	 1.983423900410058e+000	-1.274934212893331e+001
1	 9.452546843002388e-002	 1.984425930847923e+000	-1.179718395554857e+001
1	 7.548667381838257e-002	 1.985241325714745e+000	-1.076433848155777e+001
1	 5.651246564939982e-002	 1.985872036220470e+000	-9.652257642534487e+000
1	 3.760513595504313e-002	 1.986320042633429e+000	-8.462453783346581e+000
1	 1.876692076398018e-002	 1.986587352689790e+000	-7.196495589486078e+000
1	 0.000000000000000e+000	 1.986676000017618e+000	-5.856004068500419e+000
1	 1.931626801209544e-001	 2.004056487007765e+000	-1.734289058215622e+001
1	 1.735778676324426e-001	 2.005847659492447e+000	-1.670431182373693e+001
1	 1.540460502640055e-001	 2.007442108669516e+000	-1.597077968367796e+001
1	 1.345698313263964e-001	 2.008841677782708e+000	-1.514286702759029e+001
1	 1.151517586322730e-001	 2.010048246090638e+000	-1.422124574361510e+001
1	 9.579432414227686e-002	 2.011063727210475e+000	-1.320668296129408e+001
1	 7.649996366340360e-002	 2.011890067470353e+000	-1.210003724993512e+001
1	 5.727105659865683e-002	 2.012529244272157e+000	-1.090225480367641e+001
1	 3.810992574694144e-002	 2.012983264466222e+000	-9.614365620222152e+000
1	 1.901883715210586e-002	 2.013254162739434e+000	-8.237479679988672e+000
1	 0.000000000000000e+000	 2.013344000018134e+000	-6.772783132151492e+000
1	 1.957212405829273e-001	 2.030601468093916e+000	-1.903182980243756e+001
1	 1.758770150086030e-001	 2.032416365777704e+000	-1.837429912730139e+001
1	 1.560864865078591e-001	 2.034031934430634e+000	-1.761246931361887e+001
1	 1.363522928739357e-001	 2.035450041711373e+000	-1.674624754452567e+001
1	 1.166770156668700e-001	 2.036672591770513e+000	-1.577566395283238e+001
1	 9.706317985488833e-002	 2.037701523572295e+000	-1.470086834576465e+001
1	 7.751325350878065e-002	 2.038538809225204e+000	-1.352212685705710e+001
1	 5.802964754823874e-002	 2.039186452323067e+000	-1.223981853437360e+001
1	 3.861471553909877e-002	 2.039646486298226e+000	-1.085443186988540e+001
1	 1.927075354038420e-002	 2.039920972788282e+000	-9.366561281679047e+000
1	 0.000000000000000e+000	 2.040012000017850e+000	-7.776903553498337e+000
1	 1.982798010451052e-001	 2.057146449179369e+000	-2.078993689631769e+001
1	 1.781761623850336e-001	 2.058985072062221e+000	-2.011676247049261e+001
1	 1.581269227520513e-001	 2.060621760190973e+000	-1.932976074623433e+001
1	 1.381347544218765e-001	 2.062058405639229e+000	-1.842810619139288e+001
1	 1.182022727019177e-001	 2.063296937449552e+000	-1.741112207747635e+001
1	 9.833203556797766e-002	 2.064339319933258e+000	-1.627827778552183e+001
1	 7.852654335463237e-002	 2.065187550979181e+000	-1.502918598165616e+001
1	 5.878823849825383e-002	 2.065843660373091e+000	-1.366359967113513e+001
1	 3.911950533160152e-002	 2.066309708129337e+000	-1.218140913960280e+001
1	 1.952266992886609e-002	 2.066587782836232e+000	-1.058263879024465e+001
1	 0.000000000000000e+000	 2.066680000016667e+000	-8.867443885422233e+000
1	 2.066680000016667e+000	 0.000000000000000e+000	 6.081620512744733e+001
1	 2.066587782836231e+000	 1.952266992886615e-002	 5.947312761885335e+001
1	 2.066309708129336e+000	 3.911950533160163e-002	 5.812100298301994e+001
1	 2.065843660373092e+000	 5.878823849825369e-002	 5.675830848849875e+001
1	 2.065187550979181e+000	 7.852654335463230e-002	 5.538356870045881e+001
1	 2.064339319933258e+000	 9.833203556797766e-002	 5.399535859371142e+001
1	 2.063296937449552e+000	 1.182022727019178e-001	 5.259230667482118e+001
1	 2.062058405639229e+000	 1.381347544218766e-001	 5.117309810789559e+001
1	 2.060621760190974e+000	 1.581269227520511e-001	 4.973647783844243e+001
1	 2.058985072062221e+000	 1.781761623850334e-001	 4.828125370949041e+001
1	 2.057146449179369e+000	 1.982798010451051e-001	 4.680629956398108e+001
1	 2.093344000014533e+000	 0.000000000000000e+000	 6.267173575117652e+001
1	 2.093250593061714e+000	 1.977454853201645e-002	 6.126210290197092e+001
1	 2.092968930676188e+000	 3.962421940982406e-002	 5.984181556363109e+001
1	 2.092496870040883e+000	 5.954671566582060e-002	 5.840944247327273e+001
1	 2.091832295620812e+000	 7.953968121516000e-002	 5.696361296863837e+001
1	 2.090973120823608e+000	 9.960070096278299e-002	 5.550302024883390e+001
1	 2.089917289675494e+000	 1.197273009603743e-001	 5.402642462663131e+001
1	 2.088662778511150e+000	 1.399169486144205e-001	 5.253265676610428e+001
1	 2.087207597675990e+000	 1.601670529465026e-001	 5.102062089917096e+001
1	 2.085549793239212e+000	 1.804749649069133e-001	 4.948929801443941e+001
1	 2.083687448715941e+000	 2.008379777426381e-001	 4.793774901157824e+001
1	 2.120008000011600e+000	 0.000000000000000e+000	 6.460185484958180e+001
1	 2.119913403286397e+000	 2.002642713537022e-002	 6.311424913368643e+001
1	 2.119628153222235e+000	 4.012893348839165e-002	 6.161494162759790e+001
1	 2.119150079707866e+000	 6.030519283382015e-002	 6.010260219580768e+001
1	 2.118477040261631e+000	 8.055281907616123e-002	 5.857597357656190e+001
1	 2.117606921713150e+000	 1.008693663580642e-001	 5.703387475440943e+001
1	 2.116537641900631e+000	 1.212523292192781e-001	 5.547520430734059e+001
1	 2.115267151382275e+000	 1.416991428073603e-001	 5.389894372153677e+001
1	 2.113793435160225e+000	 1.622071831412843e-001	 5.230416066657398e+001
1	 2.112114514415441e+000	 1.827737674290515e-001	 5.069001222375747e+001
1	 2.110228448251783e+000	 2.033961544403597e-001	 4.905574806011122e+001
1	 2.146672000008067e+000	 0.000000000000000e+000	 6.659687872617245e+001
1	 2.146576213510477e+000	 2.027830573887656e-002	 6.502081941272121e+001
1	 2.146287375767672e+000	 4.063364756721792e-002	 6.343252380304350e+001
1	 2.145803289374231e+000	 6.106367000214360e-002	 6.183077245084603e+001
1	 2.145121784901822e+000	 8.156595693751639e-002	 6.021443005618612e+001
1	 2.144240722602052e+000	 1.021380317536996e-001	 5.858244891466875e+001
1	 2.143157994125120e+000	 1.227773574785130e-001	 5.693387232478479e+001
1	 2.141871524252747e+000	 1.434813370005902e-001	 5.526783794574507e+001
1	 2.140379272643811e+000	 1.642473133363034e-001	 5.358358109800062e+001
1	 2.138679235591033e+000	 1.850725699513688e-001	 5.188043799849144e+001
1	 2.136769447787005e+000	 2.059543311382027e-001	 5.015784892253025e+001
1	 2.173336000004134e+000	 0.000000000000000e+000	 6.864759890981632e+001
1	 2.173239023734152e+000	 2.053018434248459e-002	 6.697349609012358e+001
1	 2.172946598312694e+000	 4.113836164621647e-002	 6.528709031694699e+001
1	 2.172456499040166e+000	 6.182214717068232e-002	 6.358728230283468e+001
1	 2.171766529541564e+000	 8.257909479910577e-002	 6.187306720760983e+001
1	 2.170874523490487e+000	 1.034066971495681e-001	 6.014353812975494e+001
1	 2.169778346349123e+000	 1.243023857379629e-001	 5.839788953999824e+001
1	 2.168475897122718e+000	 1.452635311940044e-001	 5.663542064886892e+001
1	 2.166965110126884e+000	 1.662874435314671e-001	 5.485553869983894e+001
1	 2.165243956766109e+000	 1.873713724737860e-001	 5.305776217953747e+001
1	 2.163310447321718e+000	 2.085125078360998e-001	 5.124172393641021e+001
1	 2.200000000000001e+000	 0.000000000000000e+000	 7.074525335608261e+001
1	 2.199901833957622e+000	 2.078206294614344e-002	 6.896436475657697e+001
1	 2.199605820857498e+000	 4.164307572530086e-002	 6.717153162785203e+001
1	 2.199109708705859e+000	 6.258062433932760e-002	 6.536578422318019e+001
1	 2.198411274181037e+000	 8.359223266080977e-002	 6.354625659982386e+001
1	 2.197508324378621e+000	 1.046753625455480e-001	 6.171219011881081e+001
1	 2.196398698572797e+000	 1.258274139975117e-001	 5.986293687146936e+001
1	 2.195080269992334e+000	 1.470457253874971e-001	 5.799796302397678e+001
1	 2.193550947609579e+000	 1.683275737266827e-001	 5.611685207104346e+001
1	 2.191808677940789e+000	 1.896701749962238e-001	 5.421930798974193e+001
1	 2.189851446856028e+000	 2.110706845339837e-001	 5.230515828439800e+001
1	 2.226663999995867e+000	 0.000000000000000e+000	 7.288149971774459e+001
1	 2.226564644181085e+000	 2.103394154980220e-002	 7.098589009869892e+001
1	 2.226265043402275e+000	 4.214778980438460e-002	 6.907907873749596e+001
1	 2.225762918371497e+000	 6.333910150797077e-002	 6.716023472647518e+001
1	 2.225056018820421e+000	 8.460537052250870e-002	 6.522863940061696e+001
1	 2.224142125266629e+000	 1.059440279415181e-001	 6.328368981254866e+001
1	 2.223019050796304e+000	 1.273524422570433e-001	 6.132490211934908e+001
1	 2.221684642861741e+000	 1.488279195809625e-001	 5.935191487196631e+001
1	 2.220136785092031e+000	 1.703677039218573e-001	 5.736449219795237e+001
1	 2.218373399115199e+000	 1.919689775186032e-001	 5.536252686812399e+001
1	 2.216392446390048e+000	 2.136288612317870e-001	 5.334604323768988e+001
1	 2.253327999991934e+000	 0.000000000000000e+000	 7.504839051304866e+001
1	 2.253227454404741e+000	 2.128582015341000e-002	 7.303089346951775e+001
1	 2.252924265947221e+000	 4.265250388338127e-002	 7.100328304229150e+001
1	 2.252416128037271e+000	 6.409757867650315e-002	 6.896487638153278e+001
1	 2.251700763459897e+000	 8.561850838408298e-002	 6.691511042554092e+001
1	 2.250775926154679e+000	 1.072126933373569e-001	 6.485354531843258e+001
1	 2.249639403019801e+000	 1.288774705164418e-001	 6.277986772512686e+001
1	 2.248289015731089e+000	 1.506101137742947e-001	 6.069389403408496e+001
1	 2.246722622574374e+000	 1.724078341168981e-001	 5.859557343816248e+001
1	 2.244938120289457e+000	 1.942677800408449e-001	 5.648499088386036e+001
1	 2.242933445923886e+000	 2.161870379294425e-001	 5.436236987921509e+001
1	 2.279991999988401e+000	 0.000000000000000e+000	 7.723835003639267e+001
1	 2.279890264628786e+000	 2.153769875691595e-002	 7.509253203279884e+001
1	 2.279583488492532e+000	 4.315721796220443e-002	 7.293799759860252e+001
1	 2.279069337703367e+000	 6.485605584481599e-002	 7.077422108468271e+001
1	 2.278345508099645e+000	 8.663164624541291e-002	 6.860080330613856e+001
1	 2.277409727042943e+000	 1.084813587329429e-001	 6.641747487066523e+001
1	 2.276259755243449e+000	 1.304024987755909e-001	 6.422409939019435e+001
1	 2.274893388600523e+000	 1.523923079673880e-001	 6.202067656595710e+001
1	 2.273308460056743e+000	 1.744479643117125e-001	 5.980734513705389e+001
1	 2.271502841463688e+000	 1.965665825628696e-001	 5.758438568257041e+001
1	 2.269474445457651e+000	 2.187452146268828e-001	 5.535222326725539e+001
1	 2.306655999985467e+000	 0.000000000000000e+000	 7.944415287042232e+001
1	 2.306553074853420e+000	 2.178957736026917e-002	 7.716427935386908e+001
1	 2.306242711038400e+000	 4.366193204076763e-002	 7.487735968741438e+001
1	 2.305722547369975e+000	 6.561453301280069e-002	 7.258303449319065e+001
1	 2.304990252739845e+000	 8.764478410637885e-002	 7.028107668686712e+001
1	 2.304043527931590e+000	 1.097500241281548e-001	 6.797139468529126e+001
1	 2.302880107467407e+000	 1.319275270343746e-001	 6.565403548379732e+001
1	 2.301497761470192e+000	 1.541745021601365e-001	 6.332918759311600e+001
1	 2.299894297539273e+000	 1.764880945062075e-001	 6.099718382577171e+001
1	 2.298067562638013e+000	 1.988653850845982e-001	 5.865850392182995e+001
1	 2.296015444991454e+000	 2.213033913240406e-001	 5.631377700386148e+001
1	 2.333319999983334e+000	 0.000000000000000e+000	 8.165890387144466e+001
1	 2.333215885078842e+000	 2.204145596341876e-002	 7.923990732123021e+001
1	 2.332901933585021e+000	 4.416664611898443e-002	 7.681577457445687e+001
1	 2.332375757037283e+000	 6.637301018034852e-002	 7.438632152599925e+001
1	 2.331634997380677e+000	 8.865792196686113e-002	 7.195150136842868e+001
1	 2.330677328820791e+000	 1.110186895228712e-001	 6.951140764801563e+001
1	 2.329500459691833e+000	 1.334525552926768e-001	 6.706627717723086e+001
1	 2.328102134340243e+000	 1.559566963524343e-001	 6.461649279352632e+001
1	 2.326480135022099e+000	 1.785282247002904e-001	 6.216258595415339e+001
1	 2.324632283812556e+000	 2.011641876059514e-001	 5.970523915677852e+001
1	 2.322556444525403e+000	 2.238615680208486e-001	 5.724528817568596e+001
1	 2.057146449179369e+000	 1.982798010451051e-001	 4.680629956398108e+001
1	 2.055104359927541e+000	 2.184320901207318e-001	 4.532601546271395e+001
1	 2.052856731816378e+000	 2.386332932476165e-001	 4.385474289103463e+001
1	 2.050401795018658e+000	 2.588806154148092e-001	 4.239205059831787e+001
1	 2.047737823409130e+000	 2.791712079452241e-001	 4.093759333938319e+001
1	 2.044863136261900e+000	 2.995021691400968e-001	 3.949111410181013e+001
1	 2.041776099945052e+000	 3.198705449804656e-001	 3.805244623440568e+001
1	 2.038475129610468e+000	 3.402733298862165e-001	 3.662151546971870e+001
1	 2.034958690876766e+000	 3.607074675331576e-001	 3.519834183352152e+001
1	 2.031225301503230e+000	 3.811698517285159e-001	 3.378304143422714e+001
1	 2.027273533052570e+000	 4.016573273451569e-001	 3.237582812528007e+001
1	 2.083687448715941e+000	 2.008379777426381e-001	 4.793774901157825e+001
1	 2.081619012730616e+000	 2.212502686744141e-001	 4.638076978059102e+001
1	 2.079342386053916e+000	 2.417121047393327e-001	 4.483300980320439e+001
1	 2.076855776024568e+000	 2.622206548656227e-001	 4.329414443297927e+001
1	 2.074157434247109e+000	 2.827730336229843e-001	 4.176394342126172e+001
1	 2.071245658311171e+000	 3.033663018753616e-001	 4.024227313119274e+001
1	 2.068118793507961e+000	 3.239974674914737e-001	 3.872909863782417e+001
1	 2.064775234541886e+000	 3.446634861136526e-001	 3.722448570684320e+001
1	 2.061213427235205e+000	 3.653612619854609e-001	 3.572860264445728e+001
1	 2.057431870223552e+000	 3.860876488384815e-001	 3.424172201106580e+001
1	 2.053429116640150e+000	 4.068394508385930e-001	 3.276422219144099e+001
1	 2.110228448251783e+000	 2.033961544403597e-001	 4.905574806011122e+001
1	 2.108133665533004e+000	 2.240684472282250e-001	 4.741649710941016e+001
1	 2.105828040290817e+000	 2.447909162311279e-001	 4.578715299343633e+001
1	 2.103309757029900e+000	 2.655606943164766e-001	 4.416749861994947e+001
1	 2.100577045084579e+000	 2.863748593007571e-001	 4.255741856647953e+001
1	 2.097628180360006e+000	 3.072304346106214e-001	 4.095690125717513e+001
1	 2.094461487070513e+000	 3.281243900024697e-001	 3.936604101189489e+001
1	 2.091075339473031e+000	 3.490536423410803e-001	 3.778503995972808e+001
1	 2.087468163593456e+000	 3.700150564377693e-001	 3.621420980920406e+001
1	 2.083638438943774e+000	 3.910054459484762e-001	 3.465397346754918e+001
1	 2.079584700227718e+000	 4.120215743320919e-001	 3.310486650147440e+001
1	 2.136769447787005e+000	 2.059543311382027e-001	 5.015784892253025e+001
1	 2.134648318334801e+000	 2.268866257821053e-001	 4.843121717655379e+001
1	 2.132313694527165e+000	 2.478697277229482e-001	 4.671562089531638e+001
1	 2.129763738034729e+000	 2.689007337673182e-001	 4.501095162259291e+001
1	 2.126996655921599e+000	 2.899766849784880e-001	 4.331720875331509e+001
1	 2.124010702408456e+000	 3.110945673458185e-001	 4.163450164985151e+001
1	 2.120804180632748e+000	 3.322513125133902e-001	 3.996305161782266e+001
1	 2.117375444403931e+000	 3.534437985684282e-001	 3.830319373339634e+001
1	 2.113722899951540e+000	 3.746688508900029e-001	 3.665537851410581e+001
1	 2.109845007663906e+000	 3.959232430584103e-001	 3.502017342535553e+001
1	 2.105740283815281e+000	 4.172036978255548e-001	 3.339826421493054e+001
1	 2.163310447321718e+000	 2.085125078360998e-001	 5.124172393641021e+001
1	 2.161162971136105e+000	 2.297048043359963e-001	 4.942304689085891e+001
1	 2.158799348763049e+000	 2.509485392147393e-001	 4.761693808522066e+001
1	 2.156217719039129e+000	 2.722407732180951e-001	 4.582339890643656e+001
1	 2.153416266758237e+000	 2.935785106561236e-001	 4.404254371169044e+001
1	 2.150393224456572e+000	 3.149587000808951e-001	 4.227460186113866e+001
1	 2.147146874194708e+000	 3.363782350241716e-001	 4.051991959859755e+001
1	 2.143675549334621e+000	 3.578339547956261e-001	 3.877896177196654e+001
1	 2.139977636309479e+000	 3.793226453420825e-001	 3.705231338528392e+001
1	 2.136051576383962e+000	 4.008410401681957e-001	 3.534068097446086e+001
1	 2.131895867402834e+000	 4.223858213188828e-001	 3.364489379891317e+001
1	 2.189851446856028e+000	 2.110706845339837e-001	 5.230515828439800e+001
1	 2.187677623937013e+000	 2.325229828898390e-001	 5.039019445342076e+001
1	 2.185285002998553e+000	 2.540273507064468e-001	 4.848970066806169e+001
1	 2.182671700043172e+000	 2.755808126687546e-001	 4.660378948483851e+001
1	 2.179835877594552e+000	 2.971803363336100e-001	 4.473269051422130e+001
1	 2.176775746504409e+000	 3.188228328157937e-001	 4.287675234723680e+001
1	 2.173489567756436e+000	 3.405051575347510e-001	 4.103644431955812e+001
1	 2.169975654265129e+000	 3.622241110226026e-001	 3.921235810476299e+001
1	 2.166232372667292e+000	 3.839764397939289e-001	 3.740520912858592e+001
1	 2.162258145103953e+000	 4.057588372777426e-001	 3.561583779615977e+001
1	 2.158051450990382e+000	 4.275679448119764e-001	 3.384521052444122e+001
1	 2.216392446390048e+000	 2.136288612317870e-001	 5.334604323768988e+001
1	 2.214192276737622e+000	 2.353411614435744e-001	 5.133095389153014e+001
1	 2.211770657233760e+000	 2.571061621980169e-001	 4.933257199456567e+001
1	 2.209125681046936e+000	 2.789208521192439e-001	 4.735112271284735e+001
1	 2.206255488430610e+000	 3.007821620108933e-001	 4.538695134034801e+001
1	 2.203158268552019e+000	 3.226869655504569e-001	 4.344052509725092e+001
1	 2.199832261317972e+000	 3.446320800450645e-001	 4.151243475633462e+001
1	 2.196275759195487e+000	 3.666142672492870e-001	 3.960339608911311e+001
1	 2.192487109025002e+000	 3.886302342454619e-001	 3.771425112355492e+001
1	 2.188464713823888e+000	 4.106766343869623e-001	 3.584596920539784e+001
1	 2.184207034577926e+000	 4.327500683047373e-001	 3.399964785529826e+001
1	 2.242933445923886e+000	 2.161870379294425e-001	 5.436236987921509e+001
1	 2.240706929538030e+000	 2.381593399971436e-001	 5.224369998069587e+001
1	 2.238256311468759e+000	 2.601849736893952e-001	 5.014427868261800e+001
1	 2.235579662050491e+000	 2.822608915695107e-001	 4.806444530869442e+001
1	 2.232675099266471e+000	 3.043839876879194e-001	 4.600466139921103e+001
1	 2.229540790599451e+000	 3.265510982848271e-001	 4.396551235917806e+001
1	 2.226174954879359e+000	 3.487590025550492e-001	 4.194770892624794e+001
1	 2.222575864125728e+000	 3.710044234756086e-001	 3.995208845010632e+001
1	 2.218741845382629e+000	 3.932840286966024e-001	 3.797961597522737e+001
1	 2.214671282543780e+000	 4.155944314957660e-001	 3.603138511909970e+001
1	 2.210362618165463e+000	 4.379321917970662e-001	 3.410861873827486e+001
1	 2.269474445457651e+000	 2.187452146268828e-001	 5.535222326725540e+001
1	 2.267221582338333e+000	 2.409775185504877e-001	 5.312688352298202e+001
1	 2.264741965703633e+000	 2.632637851805277e-001	 5.092360691778624e+001
1	 2.262033643053913e+000	 2.856009310195024e-001	 4.874284858428374e+001
1	 2.259094710102200e+000	 3.079858133646347e-001	 4.658518699827553e+001
1	 2.255923312646760e+000	 3.304152310188462e-001	 4.445132545529081e+001
1	 2.252517648440637e+000	 3.528859250646414e-001	 4.234209335960600e+001
1	 2.248875969055882e+000	 3.753945797014968e-001	 4.025844731756266e+001
1	 2.244996581740197e+000	 3.979378231472712e-001	 3.820147202721204e+001
1	 2.240877851263638e+000	 4.205122286040643e-001	 3.617238095655045e+001
1	 2.236518201752999e+000	 4.431143152888640e-001	 3.417251680287659e+001
1	 2.296015444991454e+000	 2.213033913240406e-001	 5.631377700386148e+001
1	 2.293736235138629e+000	 2.437956971035477e-001	 5.397902695282815e+001
1	 2.291227619938468e+000	 2.663425966713601e-001	 5.166939901042947e+001
1	 2.288487624057276e+000	 2.889409704691661e-001	 4.938546586776858e+001
1	 2.285514320937859e+000	 3.115876390409852e-001	 4.712792374591124e+001
1	 2.282305834693997e+000	 3.342793637524572e-001	 4.489759367968270e+001
1	 2.278860342001849e+000	 3.570128475737778e-001	 4.269542260767032e+001
1	 2.275176073985981e+000	 3.797847359268805e-001	 4.052248426043791e+001
1	 2.271251318097723e+000	 4.025916175973881e-001	 3.837997983918343e+001
1	 2.267084419983474e+000	 4.254300257117684e-001	 3.626923847732940e+001
1	 2.262673785340533e+000	 4.482964387800323e-001	 3.419171747782294e+001
1	 2.322556444525403e+000	 2.238615680208486e-001	 5.724528817568596e+001
1	 2.320250887939015e+000	 2.466138756562646e-001	 5.479872024415649e+001
1	 2.317713274173349e+000	 2.694214081618382e-001	 5.238055018886942e+001
1	 2.314941605060654e+000	 2.922810099184495e-001	 4.999147010284901e+001
1	 2.311933931773511e+000	 3.151894647169170e-001	 4.763229487721259e+001
1	 2.308688356741215e+000	 3.381434964856023e-001	 4.530396327140326e+001
1	 2.305203035563035e+000	 3.611397700823949e-001	 4.300753878435837e+001
1	 2.301476178916054e+000	 3.841748921516888e-001	 4.074421031886935e+001
1	 2.297506054455230e+000	 4.072454120468744e-001	 3.851529263163523e+001
1	 2.293290988703300e+000	 4.303478228187891e-001	 3.632222656179032e+001
1	 2.288829368928065e+000	 4.534785622704716e-001	 3.416657903099385e+001
1	 2.027273533052570e+000	 4.016573273451569e-001	 3.237582812528007e+001
1	 2.023101370489906e+000	 4.221697687133256e-001	 3.098674392902786e+001
1	 2.018708075208402e+000	 4.427008487803357e-001	 2.962627363918737e+001
1	 2.014092391253171e+000	 4.632472654263895e-001	 2.829480474720574e+001
1	 2.009253123036069e+000	 4.838056717963328e-001	 2.699281444050729e+001
1	 2.004189136910731e+000	 5.043726775313110e-001	 2.572087045401839e+001
1	 1.998899362722714e+000	 5.249448500593382e-001	 2.447963176978719e+001
1	 1.993382795332379e+000	 5.455187159444398e-001	 2.326984915925703e+001
1	 1.987638496108145e+000	 5.660907622939356e-001	 2.209236556298971e+001
1	 1.981665594387705e+000	 5.866574382233224e-001	 2.094811630289452e+001
1	 1.975463288904845e+000	 6.072151563781103e-001	 1.983812912230161e+001
1	 2.053429116640150e+000	 4.068394508385930e-001	 3.276422219144099e+001
1	 2.049203125452439e+000	 4.276165406946643e-001	 3.130621320325880e+001
1	 2.044753148524194e+000	 4.484125097233065e-001	 2.987826450251554e+001
1	 2.040077913696388e+000	 4.692240132012558e-001	 2.848093024341726e+001
1	 2.035176209955583e+000	 4.900476610927235e-001	 2.711485736113576e+001
1	 2.030046889029278e+000	 5.108800192969424e-001	 2.578078618572826e+001
1	 2.024688866956064e+000	 5.317176109553853e-001	 2.447955089283833e+001
1	 2.019101125628145e+000	 5.525569178183158e-001	 2.321207978593798e+001
1	 2.013282714303859e+000	 5.733943816702276e-001	 2.197939540514003e+001
1	 2.007232751087750e+000	 5.942264058136259e-001	 2.078261445790336e+001
1	 2.000950424375789e+000	 6.150493566104990e-001	 1.962294756726999e+001
1	 2.079584700227718e+000	 4.120215743320919e-001	 3.310486650147440e+001
1	 2.075304880415053e+000	 4.330633126761094e-001	 3.157699584683100e+001
1	 2.070798221840153e+000	 4.541241706664352e-001	 3.008093706030471e+001
1	 2.066063436139859e+000	 4.752007609763388e-001	 2.861739027662566e+001
1	 2.061099296875428e+000	 4.962896503893942e-001	 2.718715061469008e+001
1	 2.055904641148230e+000	 5.173873610629187e-001	 2.579110857018785e+001
1	 2.050478371189883e+000	 5.384903718518439e-001	 2.443025023548814e+001
1	 2.044819455924433e+000	 5.595951196926688e-001	 2.310565734175173e+001
1	 2.038926932500135e+000	 5.806980010470583e-001	 2.181850711853804e+001
1	 2.032799907788383e+000	 6.017953734045253e-001	 2.057007196649716e+001
1	 2.026437559847334e+000	 6.228835568435334e-001	 1.936171893908215e+001
1	 2.105740283815281e+000	 4.172036978255548e-001	 3.339826421493054e+001
1	 2.101406635377738e+000	 4.385100846575524e-001	 3.179969229022580e+001
1	 2.096843295156265e+000	 4.598358316096043e-001	 3.023496964804527e+001
1	 2.092048958583554e+000	 4.811775087515100e-001	 2.870492256512875e+001
1	 2.087022383795570e+000	 5.025316396862062e-001	 2.721047364617520e+001
1	 2.081762393267542e+000	 5.238947028290933e-001	 2.575264201106509e+001
1	 2.076267875424119e+000	 5.452631327485581e-001	 2.433254330157022e+001
1	 2.070537786221185e+000	 5.666333215673344e-001	 2.295138950273742e+001
1	 2.064571150696912e+000	 5.880016204242573e-001	 2.161048857445886e+001
1	 2.058367064489540e+000	 6.093643409958431e-001	 2.031124388908700e+001
1	 2.051924695319411e+000	 6.307177570770309e-001	 1.905515347132327e+001
1	 2.131895867402834e+000	 4.223858213188828e-001	 3.364489379891317e+001
1	 2.127508390340486e+000	 4.439568566388839e-001	 3.197487349792766e+001
1	 2.122888368472507e+000	 4.655474925526937e-001	 3.034100731205897e+001
1	 2.118034481027448e+000	 4.871542565266411e-001	 2.874422862385679e+001
1	 2.112945470715970e+000	 5.087736289830220e-001	 2.718556764949890e+001
1	 2.107620145387170e+000	 5.304020445953191e-001	 2.566615143608940e+001
1	 2.102057379658718e+000	 5.520358936453725e-001	 2.418720367239063e+001
1	 2.096256116518343e+000	 5.736715234421500e-001	 2.275004430840426e+001
1	 2.090215368894127e+000	 5.953052398016531e-001	 2.135608897956203e+001
1	 2.083934221191156e+000	 6.169333085874018e-001	 2.000684823165409e+001
1	 2.077411830791955e+000	 6.385519573108083e-001	 1.870392654301530e+001
1	 2.158051450990382e+000	 4.275679448119764e-001	 3.384521052444121e+001
1	 2.153610145303288e+000	 4.494036286199951e-001	 3.210308275406305e+001
1	 2.148933441788862e+000	 4.712591534955853e-001	 3.039966382682186e+001
1	 2.144020003471510e+000	 4.931310043016033e-001	 2.873597595829594e+001
1	 2.138868557636592e+000	 5.150156182797036e-001	 2.711313788548802e+001
1	 2.133477897507068e+000	 5.369093863614491e-001	 2.553236468929328e+001
1	 2.127846883893632e+000	 5.588086545421322e-001	 2.399496742603289e+001
1	 2.121974446815849e+000	 5.807097253169513e-001	 2.250235256370491e+001
1	 2.115859587091717e+000	 6.026088591790751e-001	 2.105602121896670e+001
1	 2.109501377893164e+000	 6.245022761790249e-001	 1.965756819124824e+001
1	 2.102898966264897e+000	 6.463861575446830e-001	 1.830868079080360e+001
1	 2.184207034577926e+000	 4.327500683047373e-001	 3.399964785529826e+001
1	 2.179711900266134e+000	 4.548504006007772e-001	 3.218483731974274e+001
1	 2.174978515105309e+000	 4.769708144381600e-001	 3.041152356734447e+001
1	 2.170005525915712e+000	 4.991077520762679e-001	 2.868080010078043e+001
1	 2.164791644557400e+000	 5.212576075761127e-001	 2.699385583335670e+001
1	 2.159335649627190e+000	 5.434167281273360e-001	 2.535197475137303e+001
1	 2.153636388128806e+000	 5.655814154386811e-001	 2.375653538283756e+001
1	 2.147692777113644e+000	 5.877479271915754e-001	 2.220901006842897e+001
1	 2.141503805289620e+000	 6.099124785563528e-001	 2.071096403097934e+001
1	 2.135068534595499e+000	 6.320712437705344e-001	 1.926405424014867e+001
1	 2.128386101738172e+000	 6.542203577784719e-001	 1.787002806938421e+001
1	 2.210362618165463e+000	 4.379321917970662e-001	 3.410861873827486e+001
1	 2.205813655229016e+000	 4.602971725811210e-001	 3.222062997273429e+001
1	 2.201023588421832e+000	 4.826824753802987e-001	 3.037714324861479e+001
1	 2.195991048360028e+000	 5.050844998505065e-001	 2.857930650220975e+001
1	 2.190714731478355e+000	 5.274995968721120e-001	 2.682836118942297e+001
1	 2.185193401747493e+000	 5.499240698928333e-001	 2.512564180240643e+001
1	 2.179425892364189e+000	 5.723541763348634e-001	 2.347257519145528e+001
1	 2.173411107411672e+000	 5.947861290658582e-001	 2.187067968831211e+001
1	 2.167148023487771e+000	 6.172160979333151e-001	 2.032156402741749e+001
1	 2.160635691298096e+000	 6.396402113617532e-001	 1.882692606205178e+001
1	 2.153873237211714e+000	 6.620545580119925e-001	 1.738855127274318e+001
1	 2.236518201752999e+000	 4.431143152888640e-001	 3.417251680287659e+001
1	 2.231915410191926e+000	 4.657439445609178e-001	 3.221093043909780e+001
1	 2.227068661738412e+000	 4.883941363218828e-001	 3.029705354298702e+001
1	 2.221976570804428e+000	 5.110612476241907e-001	 2.843207229102672e+001
1	 2.216637818399421e+000	 5.337415861675627e-001	 2.661726372557772e+001
1	 2.211051153867931e+000	 5.564314116577933e-001	 2.485399513983190e+001
1	 2.205215396599727e+000	 5.791269372305239e-001	 2.314372326852407e+001
1	 2.199129437709874e+000	 6.018243309396368e-001	 2.148799328081772e+001
1	 2.192792241686112e+000	 6.245197173097915e-001	 1.988843757217041e+001
1	 2.186202848000890e+000	 6.472091789525045e-001	 1.834677435239941e+001
1	 2.179360372685457e+000	 6.698887582450618e-001	 1.686480602760188e+001
1	 2.262673785340533e+000	 4.482964387800323e-001	 3.419171747782294e+001
1	 2.258017165154852e+000	 4.711907165400585e-001	 3.215618672552724e+001
1	 2.253113735055028e+000	 4.941057972627939e-001	 3.017176058539192e+001
1	 2.247962093248883e+000	 5.170379953971916e-001	 2.823964791019719e+001
1	 2.242560905320561e+000	 5.399835754623272e-001	 2.636114501885513e+001
1	 2.236908905988459e+000	 5.629387534220696e-001	 2.453763496340169e+001
1	 2.231004900835369e+000	 5.858996981255067e-001	 2.277058660381561e+001
1	 2.224847768008192e+000	 6.088625328127471e-001	 2.106155348735163e+001
1	 2.218436459884576e+000	 6.318233366856108e-001	 1.941217252946718e+001
1	 2.211770004703814e+000	 6.547781465426102e-001	 1.782416249384014e+001
1	 2.204847508159331e+000	 6.777229584774968e-001	 1.629932226940896e+001
1	 2.288829368928065e+000	 4.534785622704716e-001	 3.416657903099386e+001
1	 2.284118920117788e+000	 4.766374885184339e-001	 3.205682636033924e+001
1	 2.279158808371665e+000	 4.998174582029122e-001	 3.000174737534274e+001
1	 2.273947615693367e+000	 5.230147431693808e-001	 2.800255864195012e+001
1	 2.268483992241738e+000	 5.462255647562675e-001	 2.606056006241502e+001
1	 2.262766658109032e+000	 5.694460951855148e-001	 2.417713403774961e+001
1	 2.256794405071063e+000	 5.926724590196567e-001	 2.235374444161148e+001
1	 2.250566098306568e+000	 6.159007346850259e-001	 2.059193540259332e+001
1	 2.244080678083104e+000	 6.391269560606027e-001	 1.889332989227511e+001
1	 2.237337161406804e+000	 6.623471141318938e-001	 1.725962811681339e+001
1	 2.230334643633273e+000	 6.855571587091147e-001	 1.569260571027459e+001
1	 1.975463288904845e+000	 6.072151563781103e-001	 1.983812912230161e+001
1	 1.969030848685419e+000	 6.277602942109749e-001	 1.876089123515800e+001
1	 1.962367612913845e+000	 6.482891946827240e-001	 1.771450783214132e+001
1	 1.955472993722270e+000	 6.687981688007213e-001	 1.669954715057759e+001
1	 1.948346477952993e+000	 6.892834976536050e-001	 1.571663617166166e+001
1	 1.940987628381445e+000	 7.097414342048217e-001	 1.476646014886547e+001
1	 1.933396084890728e+000	 7.301682051371444e-001	 1.384976200656926e+001
1	 1.925571565595462e+000	 7.505600127467703e-001	 1.296734160733985e+001
1	 1.917513867912702e+000	 7.709130368854965e-001	 1.212005488658118e+001
1	 1.909222869577758e+000	 7.912234369493599e-001	 1.130881285359616e+001
1	 1.900698529602766e+000	 8.114873539120181e-001	 1.053458045842302e+001
1	 2.000950424375789e+000	 6.150493566104990e-001	 1.962294756726999e+001
1	 1.994434993762919e+000	 6.358595647759501e-001	 1.849861712894821e+001
1	 1.987685789907810e+000	 6.566533260882138e-001	 1.740737041788232e+001
1	 1.980702217358025e+000	 6.774269039598259e-001	 1.634981922992921e+001
1	 1.973483756335180e+000	 6.981765314985874e-001	 1.532663320506223e+001
1	 1.966029963973694e+000	 7.188984133242424e-001	 1.433853925581472e+001
1	 1.958340475510495e+000	 7.395887274367914e-001	 1.338632086487761e+001
1	 1.950415005423359e+000	 7.602436271350284e-001	 1.247081725045190e+001
1	 1.942253348515647e+000	 7.808592429837707e-001	 1.159292239826621e+001
1	 1.933855380945223e+000	 8.014316848281606e-001	 1.075358395948879e+001
1	 1.925221061195408e+000	 8.219570438532781e-001	 9.953802014093679e+000
1	 2.026437559847334e+000	 6.228835568435334e-001	 1.936171893908215e+001
1	 2.019839138841012e+000	 6.439588353416125e-001	 1.819138216507268e+001
1	 2.013003966902344e+000	 6.650174574944245e-001	 1.705643462785068e+001
1	 2.005931440994312e+000	 6.860556391196769e-001	 1.595751523445785e+001
1	 1.998621034717845e+000	 7.070695653443356e-001	 1.489531978361054e+001
1	 1.991072299566360e+000	 7.280553924444430e-001	 1.387060032168184e+001
1	 1.983284866130609e+000	 7.490092497372286e-001	 1.288416436733850e+001
1	 1.975258445251525e+000	 7.699272415240817e-001	 1.193687400356674e+001
1	 1.966992829118775e+000	 7.908054490828436e-001	 1.102964483613222e+001
1	 1.958487892312784e+000	 8.116399327077613e-001	 1.016344481784541e+001
1	 1.949743592788055e+000	 8.324267337953375e-001	 9.339292938336328e+000
1	 2.051924695319411e+000	 6.307177570770309e-001	 1.905515347132327e+001
1	 2.045243283919631e+000	 6.520581059077750e-001	 1.783984766483315e+001
1	 2.038322143897384e+000	 6.733815889011648e-001	 1.666231647202519e+001
1	 2.031160664631070e+000	 6.946843742800805e-001	 1.552321010316004e+001
1	 2.023758313100938e+000	 7.159625991906542e-001	 1.442323465630881e+001
1	 2.016114635159398e+000	 7.372123715652268e-001	 1.336315142777527e+001
1	 2.008229256751030e+000	 7.584297720382565e-001	 1.234377609123379e+001
1	 2.000101885079928e+000	 7.796108559137310e-001	 1.136597774440385e+001
1	 1.991732309722068e+000	 8.007516551825156e-001	 1.043067782239713e+001
1	 1.983120403680432e+000	 8.218481805879621e-001	 9.538848877198845e+000
1	 1.974266124380708e+000	 8.428964237379968e-001	 8.691513223082167e+000
1	 2.077411830791955e+000	 6.385519573108083e-001	 1.870392654301530e+001
1	 2.070647428998710e+000	 6.601573764742490e-001	 1.744464249532786e+001
1	 2.063640320892865e+000	 6.817457203082433e-001	 1.622560172982446e+001
1	 2.056389888268241e+000	 7.033131094408428e-001	 1.504745056002176e+001
1	 2.048895591484403e+000	 7.248556330373464e-001	 1.391089013316483e+001
1	 2.041156970752760e+000	 7.463693506863948e-001	 1.281667572141973e+001
1	 2.033173647371722e+000	 7.678502943396767e-001	 1.176561588239132e+001
1	 2.024945324908542e+000	 7.892944703037774e-001	 1.075857148783096e+001
1	 2.016471790325502e+000	 8.106978612825859e-001	 9.796454619713655e+000
1	 2.007752915048153e+000	 8.320564284685622e-001	 8.880227333189911e+000
1	 1.998788655973365e+000	 8.533661136810563e-001	 8.010900286254685e+000
1	 2.102898966264897e+000	 6.463861575446830e-001	 1.830868079080360e+001
1	 2.096051574078183e+000	 6.682566470408484e-001	 1.700636503617631e+001
1	 2.088958497888727e+000	 6.901098517154685e-001	 1.574684778207895e+001
1	 2.081619111905765e+000	 7.119418446017694e-001	 1.453075682384813e+001
1	 2.074032869868189e+000	 7.337486668842165e-001	 1.335877368739520e+001
1	 2.066199306346401e+000	 7.555263298077501e-001	 1.223163292695549e+001
1	 2.058118037992645e+000	 7.772708166412899e-001	 1.115012129331118e+001
1	 2.049788764737333e+000	 7.989780846940209e-001	 1.011507677135303e+001
1	 2.041211270929059e+000	 8.206440673828559e-001	 9.127387486159224e+000
1	 2.032385426415939e+000	 8.422646763493622e-001	 8.187990477092932e+000
1	 2.023311187566027e+000	 8.638358036243159e-001	 7.297870339754600e+000
1	 2.128386101738172e+000	 6.542203577784719e-001	 1.787002806938421e+001
1	 2.121455719157986e+000	 6.763559176073852e-001	 1.652558500493622e+001
1	 2.114276674884903e+000	 6.984739831226499e-001	 1.522658531137723e+001
1	 2.106848335543585e+000	 7.205705797626663e-001	 1.397362419524327e+001
1	 2.099170148252240e+000	 7.426417007310675e-001	 1.276734944251146e+001
1	 2.091241641940274e+000	 7.646833089290945e-001	 1.160846074817403e+001
1	 2.083062428613760e+000	 7.866913389428978e-001	 1.049770891796381e+001
1	 2.074632204566274e+000	 8.086616990842620e-001	 9.435894941055013e+000
1	 2.065950751532719e+000	 8.305902734831250e-001	 8.423868932870953e+000
1	 2.057017937783778e+000	 8.524729242301623e-001	 7.462528947450791e+000
1	 2.047833719158692e+000	 8.743054935675753e-001	 6.552819659156576e+000
1	 2.153873237211714e+000	 6.620545580119925e-001	 1.738855127274318e+001
1	 2.146859864238053e+000	 6.844551881736720e-001	 1.600284515291809e+001
1	 2.139594851881333e+000	 7.068381145295958e-001	 1.466531988168931e+001
1	 2.132077559181639e+000	 7.291993149233395e-001	 1.337652453091615e+001
1	 2.124307426636505e+000	 7.515347345777036e-001	 1.213705955382473e+001
1	 2.116283977534334e+000	 7.738402880502304e-001	 1.094757617118194e+001
1	 2.108006819235030e+000	 7.961118612443013e-001	 9.808775631818845e+000
1	 2.099475644395333e+000	 8.183453134743010e-001	 8.721408346244088e+000
1	 2.090690232136461e+000	 8.405364795831936e-001	 7.686272892389693e+000
1	 2.081650449151659e+000	 8.626811721107623e-001	 6.704214892845122e+000
1	 2.072356250751360e+000	 8.847751835106346e-001	 5.776125763258319e+000
1	 2.179360372685457e+000	 6.698887582450618e-001	 1.686480602760188e+001
1	 2.172264009318315e+000	 6.925544587395214e-001	 1.543866284200642e+001
1	 2.164913028877952e+000	 7.152022459361156e-001	 1.406353340715014e+001
1	 2.157306782819872e+000	 7.378280500835952e-001	 1.273990761453639e+001
1	 2.149444705020930e+000	 7.604277684239289e-001	 1.146832549301184e+001
1	 2.141326313128531e+000	 7.829972671709592e-001	 1.024937667584480e+001
1	 2.132951209856413e+000	 8.055323835453013e-001	 9.083699744862656e+000
1	 2.124319084224482e+000	 8.280289278639389e-001	 7.971981450265292e+000
1	 2.115429712740264e+000	 8.504826856828617e-001	 6.914955805023221e+000
1	 2.106282960519573e+000	 8.728894199909624e-001	 5.913403053076478e+000
1	 2.096878782344030e+000	 8.952448734532940e-001	 4.968148510862736e+000
1	 2.204847508159331e+000	 6.777229584774968e-001	 1.629932226940896e+001
1	 2.197668154398711e+000	 7.006537293047456e-001	 1.483353151211658e+001
1	 2.190231205874697e+000	 7.235663773420179e-001	 1.342168551897157e+001
1	 2.182536006458222e+000	 7.464567852432394e-001	 1.206420243251099e+001
1	 2.174581983405460e+000	 7.693208022695464e-001	 1.076154924358745e+001
1	 2.166368648722823e+000	 7.921542462910846e-001	 9.514241363208084e+000
1	 2.157895600477876e+000	 8.149529058456997e-001	 8.322842074645617e+000
1	 2.149162524053690e+000	 8.377125422529760e-001	 7.187961864273699e+000
1	 2.140169193344107e+000	 8.604288917819297e-001	 6.110257629861594e+000
1	 2.130915471887508e+000	 8.830976678705622e-001	 5.090431765356668e+000
1	 2.121401313936701e+000	 9.057145633953535e-001	 4.129231121489630e+000
1	 2.230334643633273e+000	 6.855571587091147e-001	 1.569260571027459e+001
1	 2.223072299479172e+000	 7.087529998691573e-001	 1.418792204803562e+001
1	 2.215549382871506e+000	 7.319305087471114e-001	 1.274021483863240e+001
1	 2.207765230096631e+000	 7.550855204020772e-001	 1.134981836228720e+001
1	 2.199719261790046e+000	 7.782138361143607e-001	 1.001711441440815e+001
1	 2.191410984317160e+000	 8.013112254104075e-001	 8.742532005616688e+000
1	 2.182839991099376e+000	 8.243734281452965e-001	 7.526546945755624e+000
1	 2.174005963882928e+000	 8.473961566412124e-001	 6.369681310126332e+000
1	 2.164908673947971e+000	 8.703750978801975e-001	 5.272502786472565e+000
1	 2.155547983255453e+000	 8.933059157493628e-001	 4.235623901511167e+000
1	 2.145923845529373e+000	 9.161842533366132e-001	 3.259701126102476e+000
1	 1.900698529602766e+000	 8.114873539120181e-001	 1.053458045842302e+001
1	 1.891942220492132e+000	 8.316978846581148e-001	 9.793338461197070e+000
1	 1.882952806529170e+000	 8.518541852139021e-001	 9.080157869445618e+000
1	 1.873730497067709e+000	 8.719523567309262e-001	 8.395041812594613e+000
1	 1.864275585902089e+000	 8.919884905296139e-001	 7.738024365751394e+000
1	 1.854588451907370e+000	 9.119586703247523e-001	 7.109170523035489e+000
1	 1.844669559610956e+000	 9.318589744831690e-001	 6.508576099833821e+000
1	 1.834519459694026e+000	 9.516854783112039e-001	 5.936367563037677e+000
1	 1.824138789421242e+000	 9.714342563694888e-001	 5.392701788495693e+000
1	 1.813528272997309e+000	 9.911013848124718e-001	 4.877765745099980e+000
1	 1.802688721849068e+000	 1.010682943750032e+000	 4.391776105110727e+000
1	 1.925221061195408e+000	 8.219570438532781e-001	 9.953802014093677e+000
1	 1.916351779478452e+000	 8.424283278807977e-001	 9.189375696933471e+000
1	 1.907246385424817e+000	 8.628446820481397e-001	 8.455154718306781e+000
1	 1.897905091089386e+000	 8.832021572044753e-001	 7.751127723132754e+000
1	 1.888328194056983e+000	 9.034967942410130e-001	 7.077314562873732e+000
1	 1.878516078090858e+000	 9.237246263451977e-001	 6.433766309600695e+000
1	 1.868469213711673e+000	 9.438816812875146e-001	 5.820565198400606e+000
1	 1.858188158705416e+000	 9.639639837384756e-001	 5.237824497078767e+000
1	 1.847673558558638e+000	 9.839675576132633e-001	 4.685688302285632e+000
1	 1.836926146819623e+000	 1.003888428441440e+000	 4.164331261382318e+000
1	 1.825946745384119e+000	 1.023722625759030e+000	 3.673958219547190e+000
1	 1.949743592788055e+000	 8.324267337953375e-001	 9.339292938336328e+000
1	 1.940761338464687e+000	 8.531587711042798e-001	 8.552826662897095e+000
1	 1.931539964320292e+000	 8.738351788831774e-001	 7.798714215439917e+000
1	 1.922079685110801e+000	 8.944519576788236e-001	 7.076943036105194e+000
1	 1.912380802211533e+000	 9.150050979532125e-001	 6.387532183598207e+000
1	 1.902443704273920e+000	 9.354905823664447e-001	 5.730532369724422e+000
1	 1.892268867811892e+000	 9.559043880926642e-001	 5.106025921137663e+000
1	 1.881856857716237e+000	 9.762424891665525e-001	 4.514126667183420e+000
1	 1.871208327695403e+000	 9.965008588578462e-001	 3.954979752898471e+000
1	 1.860324020641252e+000	 1.016675472071220e+000	 3.428761376414560e+000
1	 1.849204768918440e+000	 1.036762307768845e+000	 2.935678450205133e+000
1	 1.974266124380708e+000	 8.428964237379968e-001	 8.691513223082167e+000
1	 1.965170897450847e+000	 8.638892143283621e-001	 7.884163572076254e+000
1	 1.955833543215612e+000	 8.848256757188150e-001	 7.111322705394580e+000
1	 1.946254279131986e+000	 9.057017581537731e-001	 6.372989671213651e+000
1	 1.936433410365777e+000	 9.265134016660142e-001	 5.669195695348007e+000
1	 1.926371330456609e+000	 9.472565383882964e-001	 5.000004216409518e+000
1	 1.916068521911670e+000	 9.679270948984196e-001	 4.365510846514836e+000
1	 1.905525556726559e+000	 9.885209945952411e-001	 3.765843256385009e+000
1	 1.894743096831615e+000	 1.009034160103045e+000	 3.201160983864888e+000
1	 1.883721894462284e+000	 1.029462515701623e+000	 2.671655165081242e+000
1	 1.872462792452129e+000	 1.049801989779293e+000	 2.177548187652993e+000
1	 1.998788655973365e+000	 8.533661136810563e-001	 8.010900286254683e+000
1	 1.989580456436942e+000	 8.746196575528440e-001	 7.183835463705725e+000
1	 1.980127122110799e+000	 8.958161725548529e-001	 6.393442665463615e+000
1	 1.970428873152970e+000	 9.169515586291239e-001	 5.639744916556135e+000
1	 1.960486018519757e+000	 9.380217053792193e-001	 4.922798121866762e+000
1	 1.950298956638970e+000	 9.590224944105530e-001	 4.242691082471215e+000
1	 1.939868176011067e+000	 9.799498017045860e-001	 3.599545435330561e+000
1	 1.929194255736452e+000	 1.000799500024346e+000	 2.993515515180308e+000
1	 1.918277865967356e+000	 1.021567461348670e+000	 2.424788137643665e+000
1	 1.907119768282811e+000	 1.042249559332463e+000	 1.893582302794678e+000
1	 1.895720815985286e+000	 1.062841671790190e+000	 1.400148818597770e+000
1	 2.023311187566027e+000	 8.638358036243159e-001	 7.297870339754599e+000
1	 2.013990015422981e+000	 8.853501007775261e-001	 6.452269607596598e+000
1	 2.004420701005870e+000	 9.068066693910915e-001	 5.645514152039216e+000
1	 1.994603467173784e+000	 9.282013591046769e-001	 4.877662921302220e+000
1	 1.984538626673510e+000	 9.495300090926281e-001	 4.148808585105868e+000
1	 1.974226582821057e+000	 9.707884504330185e-001	 3.459077513116958e+000
1	 1.963667830110143e+000	 9.919725085109665e-001	 2.808629674043032e+000
1	 1.952862954745983e+000	 1.013078005453673e+000	 2.197658454241544e+000
1	 1.941812635102705e+000	 1.034100762594528e+000	 1.626390394906963e+000
1	 1.930517642102919e+000	 1.055036602963550e+000	 1.095084847103310e+000
1	 1.918978839518010e+000	 1.075881353801352e+000	 6.040335441194037e-001
1	 2.047833719158692e+000	 8.743054935675753e-001	 6.552819659156576e+000
1	 2.038399574408974e+000	 8.960805440022087e-001	 5.689872807565955e+000
1	 2.028714279900847e+000	 9.177971662273304e-001	 4.867956143049404e+000
1	 2.018778061194453e+000	 9.394511595802317e-001	 4.087176081121049e+000
1	 2.008591234827077e+000	 9.610383128060426e-001	 3.347673736328283e+000
1	 1.998154209002917e+000	 9.825544064554941e-001	 2.649624844100342e+000
1	 1.987467484208959e+000	 1.003995215317365e+000	 1.993239600029278e+000
1	 1.976531653755224e+000	 1.025356510883029e+000	 1.378762415508396e+000
1	 1.965347404237740e+000	 1.046634063840428e+000	 8.064715888594265e-001
1	 1.953915515922700e+000	 1.067823646594697e+000	 2.766788912928810e-001
1	 1.942236863050402e+000	 1.088921035812597e+000	-2.102709327336835e-001
1	 2.072356250751360e+000	 8.847751835106346e-001	 5.776125763258321e+000
1	 2.062809133394929e+000	 9.068109872266907e-001	 4.897032612324447e+000
1	 2.053007858795747e+000	 9.287876630633706e-001	 4.061167785082837e+000
1	 2.042952655215010e+000	 9.507009600555888e-001	 3.268696325245302e+000
1	 2.032643842980497e+000	 9.725466165192632e-001	 2.519819085605577e+000
1	 2.022081835184600e+000	 9.943203624777819e-001	 1.814772574927883e+000
1	 2.011267138307571e+000	 1.016017922123584e+000	 1.153828718552589e+000
1	 2.000200352764243e+000	 1.037635016312218e+000	 5.372945317340231e-001
1	 1.988882173372540e+000	 1.059167365086179e+000	-3.448829505803924e-002
1	 1.977313389742244e+000	 1.080610690225716e+000	-5.611438994162901e-001
1	 1.965494886582561e+000	 1.101960717823740e+000	-1.042262839166439e+000
1	 2.096878782344030e+000	 8.952448734532940e-001	 4.968148510862736e+000
1	 2.087218692380858e+000	 9.175414304507734e-001	 4.074118441397463e+000
1	 2.077301437690591e+000	 9.397781598990115e-001	 3.225529553004711e+000
1	 2.067127249235484e+000	 9.619507605305498e-001	 2.422616313223564e+000
1	 2.056696451133809e+000	 9.840549202320910e-001	 1.665650238025796e+000
1	 2.046009461366154e+000	 1.006086318499684e+000	 9.549396457093614e-001
1	 2.035066792406040e+000	 1.028040628929428e+000	 2.908293203030006e-001
1	 2.023869051773110e+000	 1.049913521741047e+000	-3.262999163831876e-001
1	 2.012416942507187e+000	 1.071700666331588e+000	-8.960317246961665e-001
1	 2.000711263561638e+000	 1.093397733856419e+000	-1.417914859465115e+000
1	 1.988752910114585e+000	 1.115000399834598e+000	-1.891463874868016e+000
1	 2.121401313936701e+000	 9.057145633953535e-001	 4.129231121489631e+000
1	 2.111628251366767e+000	 9.282718736742562e-001	 3.221482632955328e+000
1	 2.101595016585397e+000	 9.507686567340533e-001	 2.361404329144341e+000
1	 2.091301843255902e+000	 9.732005610049138e-001	 1.549310548668871e+000
1	 2.080749059287054e+000	 9.955632239443274e-001	 7.855540441610850e-001
1	 2.069937087547631e+000	 1.017852274521003e+000	 7.052562544939361e-002
1	 2.058866446504426e+000	 1.040063335734701e+000	-5.953462924434596e-001
1	 2.047537750781894e+000	 1.062192027169320e+000	-1.211596237195346e+000
1	 2.035951711641758e+000	 1.084233967576464e+000	-1.777722323443021e+000
1	 2.024109137380973e+000	 1.106184777486618e+000	-2.293186993622040e+000
1	 2.012010933646574e+000	 1.128040081844988e+000	-2.757417855349879e+000
1	 2.145923845529373e+000	 9.161842533366132e-001	 3.259701126102477e+000
1	 2.136037810352666e+000	 9.390023168969390e-001	 2.339461419798829e+000
1	 2.125888595480185e+000	 9.617591535682968e-001	 1.469138408488402e+000
1	 2.115476437276295e+000	 9.844503614784820e-001	 6.491364166432280e-001
1	 2.104801667440269e+000	 1.007071527655773e+000	-1.201003283464143e-001
1	 2.093864713729079e+000	 1.029618230541540e+000	-8.380881811365158e-001
1	 2.082666100602788e+000	 1.052086042539205e+000	-1.504304663737097e+000
1	 2.071206449790665e+000	 1.074470532596845e+000	-2.118189151698484e+000
1	 2.059486480776334e+000	 1.096767268820616e+000	-2.679143661449650e+000
1	 2.047507011200339e+000	 1.118971821116124e+000	-3.186533738795005e+000
1	 2.035268957178629e+000	 1.141079763854727e+000	-3.639689448303369e+000
1	 1.802688721849068e+000	 1.010682943750032e+000	 4.391776105110726e+000
1	 1.791619357690404e+000	 1.030177937010685e+000	 3.930582695997149e+000
1	 1.780322777535209e+000	 1.049579514920662e+000	 3.489693199446242e+000
1	 1.768800057357055e+000	 1.068883783227662e+000	 3.068617905634933e+000
1	 1.757052360750431e+000	 1.088086861295837e+000	 2.666863740024960e+000
1	 1.745080938822499e+000	 1.107184884536711e+000	 2.283935065434089e+000
1	 1.732887130004770e+000	 1.126174006844907e+000	 1.919334487539772e+000
1	 1.720472359784236e+000	 1.145050403035631e+000	 1.572563662112998e+000
1	 1.707838140353593e+000	 1.163810271280825e+000	 1.243124102261924e+000
1	 1.694986070180313e+000	 1.182449835540888e+000	 9.305179839533503e-001
1	 1.681917833494530e+000	 1.200965347988850e+000	 6.342489480731791e-001
1	 1.825946745384119e+000	 1.023722625759030e+000	 3.673958219547190e+000
1	 1.814734565924675e+000	 1.043469140542086e+000	 3.209941097731484e+000
1	 1.803292238961473e+000	 1.063121034743368e+000	 2.767333945534159e+000
1	 1.791620854350134e+000	 1.082674363867519e+000	 2.345668392240735e+000
1	 1.779721590697669e+000	 1.102125197211310e+000	 1.944469847523413e+000
1	 1.767595715252836e+000	 1.121469620325929e+000	 1.563258275208310e+000
1	 1.755244583715393e+000	 1.140703737484130e+000	 1.201548975182149e+000
1	 1.742669639963753e+000	 1.159823674149157e+000	 8.588533718240281e-001
1	 1.729872415700694e+000	 1.178825579442343e+000	 5.346798073190922e-001
1	 1.716854530016881e+000	 1.197705628606193e+000	 2.285343381874131e-001
1	 1.703617688872131e+000	 1.216460025459840e+000	-6.007846665683227e-002
1	 1.849204768918440e+000	 1.036762307768845e+000	 2.935678450205132e+000
1	 1.837849774158181e+000	 1.056760344074309e+000	 2.470589465597978e+000
1	 1.826261700386945e+000	 1.076662554566901e+000	 2.028053978678279e+000
1	 1.814441651342400e+000	 1.096464944508205e+000	 1.607631494543987e+000
1	 1.802390820644081e+000	 1.116163533127615e+000	 1.208872254931157e+000
1	 1.790110491682342e+000	 1.135754356115979e+000	 8.313179708519292e-001
1	 1.777602037425184e+000	 1.155233468124176e+000	 4.745025683002366e-001
1	 1.764866920142439e+000	 1.174596945263497e+000	 1.379529455276695e-001
1	 1.751906691046967e+000	 1.193840887604655e+000	-1.788102596482393e-001
1	 1.738722989852626e+000	 1.212961421672268e+000	-4.762718940756044e-001
1	 1.725317544248913e+000	 1.231954702931564e+000	-7.549215066435588e-001
1	 1.872462792452129e+000	 1.049801989779293e+000	 2.177548187652993e+000
1	 1.860964982391031e+000	 1.070051547607175e+000	 1.713148465140321e+000
1	 1.849231161811743e+000	 1.090204074391089e+000	 1.272479242187877e+000
1	 1.837262448333983e+000	 1.110255525149559e+000	 8.551342086981656e-001
1	 1.825060050589807e+000	 1.130201869044597e+000	 4.606945611765710e-001
1	 1.812625268111165e+000	 1.150039091906711e+000	 8.872968166101701e-002
1	 1.799959491134298e+000	 1.169763198764909e+000	-2.612021651326947e-001
1	 1.787064200320456e+000	 1.189370216378519e+000	-5.895531178021506e-001
1	 1.773940966392586e+000	 1.208856195767643e+000	-8.967849887901261e-001
1	 1.760591449687725e+000	 1.228217214739001e+000	-1.183368520907695e+000
1	 1.747017399625063e+000	 1.247449380403922e+000	-1.449782631343338e+000
1	 1.895720815985286e+000	 1.062841671790190e+000	 1.400148818597769e+000
1	 1.884080190623331e+000	 1.083342751140507e+000	 9.382083028736840e-001
1	 1.872200623235985e+000	 1.103745594215760e+000	 5.012049613386663e-001
1	 1.860083245325013e+000	 1.124046105791413e+000	 8.877276115535399e-002
1	 1.847729280534987e+000	 1.144240204962098e+000	-2.994702377950114e-001
1	 1.835140044539452e+000	 1.164323827697978e+000	-6.639212700357704e-001
1	 1.822316944842891e+000	 1.184292929406189e+000	-1.004992228036594e+000
1	 1.809261480497970e+000	 1.204143487494096e+000	-1.323109003352238e+000
1	 1.795975241737718e+000	 1.223871503931185e+000	-1.618710806601032e+000
1	 1.782459909522359e+000	 1.243473007806281e+000	-1.892249467584461e+000
1	 1.768717255000763e+000	 1.262944057876813e+000	-2.144188716906860e+000
1	 1.918978839518010e+000	 1.075881353801352e+000	 6.040335441194046e-001
1	 1.907195398855194e+000	 1.096633954674126e+000	 1.463305721021121e-001
1	 1.895170084659793e+000	 1.117287114040742e+000	-2.852024951138497e-001
1	 1.882904042315616e+000	 1.137836686433605e+000	-6.908855266894345e-001
1	 1.870398510479757e+000	 1.158278540879961e+000	-1.071057894480167e+000
1	 1.857654820967350e+000	 1.178608563489632e+000	-1.426077938334590e+000
1	 1.844674398551119e+000	 1.198822660047875e+000	-1.756322402227982e+000
1	 1.831458760675146e+000	 1.218916758610096e+000	-2.062185842209676e+000
1	 1.818009517082537e+000	 1.238886812095163e+000	-2.344080007217081e+000
1	 1.804328369356703e+000	 1.258728800874001e+000	-2.602433193882190e+000
1	 1.790417110376194e+000	 1.278438735350138e+000	-2.837689576527156e+000
1	 1.942236863050402e+000	 1.088921035812597e+000	-2.102709327336832e-001
1	 1.930310607086727e+000	 1.109925158207855e+000	-6.619500338844239e-001
1	 1.918139546083284e+000	 1.130828633865865e+000	-1.086203887169657e+000
1	 1.905724839305924e+000	 1.151627267075969e+000	-1.483300507827210e+000
1	 1.893067740424256e+000	 1.172316876798029e+000	-1.853531188523583e+000
1	 1.880169597395008e+000	 1.192893299281524e+000	-2.197210054736827e+000
1	 1.867031852259138e+000	 1.213352390689829e+000	-2.514673585177120e+000
1	 1.853656040852145e+000	 1.233690029726389e+000	-2.806280097993986e+000
1	 1.840043792427213e+000	 1.253902120259454e+000	-3.072409203608131e+000
1	 1.826196829190936e+000	 1.273984593942049e+000	-3.313461225090984e+000
1	 1.812116965751543e+000	 1.293933412823795e+000	-3.529856587099359e+000
1	 1.965494886582561e+000	 1.101960717823740e+000	-1.042262839166439e+000
1	 1.953425815318042e+000	 1.123216361741514e+000	-1.486124130248399e+000
1	 1.941109007506578e+000	 1.144370153690955e+000	-1.901285498488585e+000
1	 1.928545636296065e+000	 1.165417847718342e+000	-2.287957601839900e+000
1	 1.915736970368623e+000	 1.186355212716147e+000	-2.646378327634309e+000
1	 1.902684373822573e+000	 1.207178035073504e+000	-2.976812449758324e+000
1	 1.889389305967105e+000	 1.227882121331912e+000	-3.279551244853554e+000
1	 1.875853321029134e+000	 1.248463300842847e+000	-3.554912068036639e+000
1	 1.862078067771918e+000	 1.268917428423940e+000	-3.803237888733800e+000
1	 1.848065289025234e+000	 1.289240387010314e+000	-4.024896787324364e+000
1	 1.833816821126989e+000	 1.309428090297686e+000	-4.220281413386377e+000
1	 1.988752910114585e+000	 1.115000399834598e+000	-1.891463874868016e+000
1	 1.976541023549247e+000	 1.136507565274927e+000	-2.325706160720705e+000
1	 1.964078468929796e+000	 1.157911673515843e+000	-2.729957643922599e+000
1	 1.951366433286169e+000	 1.179208428360558e+000	-3.104366299921959e+000
1	 1.938406200312997e+000	 1.200393548634157e+000	-3.449111460707632e+000
1	 1.925199150250191e+000	 1.221462770865427e+000	-3.764403585291899e+000
1	 1.911746759675175e+000	 1.242411851973984e+000	-4.050483982993084e+000
1	 1.898050601206275e+000	 1.263236571959339e+000	-4.307624489731031e+000
1	 1.884112343116823e+000	 1.283932736588499e+000	-4.536127097661119e+000
1	 1.869933748859776e+000	 1.304496180078686e+000	-4.736323538587453e+000
1	 1.855516676502718e+000	 1.324922767771708e+000	-4.908574821708012e+000
1	 2.012010933646574e+000	 1.128040081844988e+000	-2.757417855349880e+000
1	 1.999656231780452e+000	 1.149798768807915e+000	-3.180233020357858e+000
1	 1.987047930353056e+000	 1.171453193340354e+000	-3.571753280561471e+000
1	 1.974187230276363e+000	 1.192999009002452e+000	-3.932058773590065e+000
1	 1.961075430257516e+000	 1.214431884551902e+000	-4.261265294073133e+000
1	 1.947713926678010e+000	 1.235747506657143e+000	-4.559524188761841e+000
1	 1.934104213383504e+000	 1.256941582615906e+000	-4.827022198013222e+000
1	 1.920247881383731e+000	 1.278009843075735e+000	-5.063981243542430e+000
1	 1.906146618462098e+000	 1.298948044753012e+000	-5.270658162474448e+000
1	 1.891802208694739e+000	 1.319751973147056e+000	-5.447344387855107e+000
1	 1.877216531878911e+000	 1.340417445245763e+000	-5.594365575909693e+000
1	 2.035268957178629e+000	 1.141079763854727e+000	-3.639689448303369e+000
1	 2.022771440011766e+000	 1.163089972340299e+000	-4.049262772729755e+000
1	 2.010017391776478e+000	 1.184994713164319e+000	-4.426226714012463e+000
1	 1.997008027266777e+000	 1.206789589643860e+000	-4.770588578786613e+000
1	 1.983744660202318e+000	 1.228470220469227e+000	-5.082395802619682e+000
1	 1.970228703106179e+000	 1.250032242448504e+000	-5.361735980927536e+000
1	 1.956461667092249e+000	 1.271471313257540e+000	-5.608736839605452e+000
1	 1.942445161561669e+000	 1.292783114191905e+000	-5.823566144945994e+000
1	 1.928180893807916e+000	 1.313963352917359e+000	-6.006431552555000e+000
1	 1.913670668530300e+000	 1.335007766215311e+000	-6.157580395119886e+000
1	 1.898916387255753e+000	 1.355912122719749e+000	-6.277299409029253e+000
1	 1.681917833494530e+000	 1.200965347988850e+000	 6.342489480731780e-001
1	 1.668635199221159e+000	 1.219353091017331e+000	 3.488261820388848e-001
1	 1.655140018895221e+000	 1.237609378393840e+000	 6.933184220446750e-002
1	 1.641434227355505e+000	 1.255730558820518e+000	-2.038710304385503e-001
1	 1.627519842390902e+000	 1.273713018699258e+000	-4.704221160548125e-001
1	 1.613398963829417e+000	 1.291553184473516e+000	-7.299645023262140e-001
1	 1.599073772548270e+000	 1.309247524943862e+000	-9.821453729821601e-001
1	 1.584546529405988e+000	 1.326792553554179e+000	-1.226616697052831e+000
1	 1.569819574097471e+000	 1.344184830645459e+000	-1.463035917383875e+000
1	 1.554895323933223e+000	 1.361420965674179e+000	-1.691066636940515e+000
1	 1.539776272543993e+000	 1.378497619392281e+000	-1.910379301422932e+000
1	 1.703617688872131e+000	 1.216460025459840e+000	-6.007846665683257e-002
1	 1.690163684013768e+000	 1.235085004431891e+000	-3.367654624985154e-001
1	 1.676494390865051e+000	 1.253576831730622e+000	-6.064498513971057e-001
1	 1.662611769227780e+000	 1.271931808949659e+000	-8.686032263838919e-001
1	 1.648517862924069e+000	 1.290146275868779e+000	-1.122699308017040e+000
1	 1.634214798873599e+000	 1.308216612825929e+000	-1.368214934450974e+000
1	 1.619704786090954e+000	 1.326139243062656e+000	-1.604631056439929e+000
1	 1.604990114603931e+000	 1.343910635039803e+000	-1.831433735192679e+000
1	 1.590073154293838e+000	 1.361527304720379e+000	-2.048115140970858e+000
1	 1.574956353658965e+000	 1.378985817816562e+000	-2.254174550304148e+000
1	 1.559642238502527e+000	 1.396282791997798e+000	-2.449119339683189e+000
1	 1.725317544248913e+000	 1.231954702931564e+000	-7.549215066435582e-001
1	 1.711692168805565e+000	 1.250816917847140e+000	-1.020445402504355e+000
1	 1.697848762834074e+000	 1.269544285068040e+000	-1.277778858626855e+000
1	 1.683789311099254e+000	 1.288133059079376e+000	-1.526289042852114e+000
1	 1.669515883456440e+000	 1.306579533038807e+000	-1.765345547374124e+000
1	 1.655030633916995e+000	 1.324880041178775e+000	-1.994321580680675e+000
1	 1.640335799632866e+000	 1.343030961181805e+000	-2.212595165170495e+000
1	 1.625433699801120e+000	 1.361028716525699e+000	-2.419550337933544e+000
1	 1.610326734489472e+000	 1.378869778795487e+000	-2.614578352152550e+000
1	 1.595017383384004e+000	 1.396550669959047e+000	-2.797078876561913e+000
1	 1.579508204460395e+000	 1.414067964603332e+000	-2.966461190387078e+000
1	 1.747017399625063e+000	 1.247449380403922e+000	-1.449782631343337e+000
1	 1.733220653596737e+000	 1.266548831262988e+000	-1.701764228546358e+000
1	 1.719203134802480e+000	 1.285511738406013e+000	-1.944273530436244e+000
1	 1.704966852970118e+000	 1.304334309209597e+000	-2.176632008544693e+000
1	 1.690513903988211e+000	 1.323012790209282e+000	-2.398164723277862e+000
1	 1.675846468959799e+000	 1.341543469532005e+000	-2.608201618055940e+000
1	 1.660966813174197e+000	 1.359922679301271e+000	-2.806078817887363e+000
1	 1.645877284997742e+000	 1.378146798011843e+000	-2.991139929637038e+000
1	 1.630580314684557e+000	 1.396212252870773e+000	-3.162737341220575e+000
1	 1.615078413108516e+000	 1.414115522101638e+000	-3.320233516937833e+000
1	 1.599374170417763e+000	 1.431853137208900e+000	-3.463002286148439e+000
1	 1.768717255000763e+000	 1.262944057876813e+000	-2.144188716906861e+000
1	 1.754749138387473e+000	 1.282280744679345e+000	-2.380294585862535e+000
1	 1.740557506770460e+000	 1.301479191744462e+000	-2.605570947120750e+000
1	 1.726144394840567e+000	 1.320535559340253e+000	-2.819350201427229e+000
1	 1.711511924519575e+000	 1.339446047380145e+000	-3.020970348976453e+000
1	 1.696662304002206e+000	 1.358206897885572e+000	-3.209776288134821e+000
1	 1.681597826715140e+000	 1.376814397421019e+000	-3.385121115410311e+000
1	 1.666320870193986e+000	 1.395264879498211e+000	-3.546367423899527e+000
1	 1.650833894879276e+000	 1.413554726946223e+000	-3.692888597422868e+000
1	 1.635139442832677e+000	 1.431680374244336e+000	-3.824070097548419e+000
1	 1.619240136374797e+000	 1.449638309814519e+000	-3.939310740701299e+000
1	 1.790417110376194e+000	 1.278438735350138e+000	-2.837689576527156e+000
1	 1.776277623177960e+000	 1.298012658096122e+000	-3.055629837847944e+000
1	 1.761911878738208e+000	 1.317446645083307e+000	-3.261325783321319e+000
1	 1.747321936710794e+000	 1.336736809471274e+000	-3.454175367043744e+000
1	 1.732509945050727e+000	 1.355879304551337e+000	-3.633584978594047e+000
1	 1.717478139044409e+000	 1.374870326239427e+000	-3.798970650682887e+000
1	 1.702228840255884e+000	 1.393706115541010e+000	-3.949759262949665e+000
1	 1.686764455390040e+000	 1.412382960984778e+000	-4.085389739304455e+000
1	 1.671087475073812e+000	 1.430897201021828e+000	-4.205314236206823e+000
1	 1.655200472556662e+000	 1.449245226387142e+000	-4.308999319274331e+000
1	 1.639106102331665e+000	 1.467423482420205e+000	-4.395927125624159e+000
1	 1.812116965751543e+000	 1.293933412823795e+000	-3.529856587099360e+000
1	 1.797806107968385e+000	 1.313744571513226e+000	-3.727382825568759e+000
1	 1.783266250705911e+000	 1.333414098422468e+000	-3.911209254574628e+000
1	 1.768499478580991e+000	 1.352938059602591e+000	-4.080852100179478e+000
1	 1.753507965581860e+000	 1.372312561722800e+000	-4.235839665814200e+000
1	 1.738293974086600e+000	 1.391533754593522e+000	-4.375713355060465e+000
1	 1.722859853796624e+000	 1.410597833661210e+000	-4.500028683604386e+000
1	 1.707208040586091e+000	 1.429501042471520e+000	-4.608356278118305e+000
1	 1.691341055268346e+000	 1.448239675097573e+000	-4.700282859840874e+000
1	 1.675261502280647e+000	 1.466810078530060e+000	-4.775412210644691e+000
1	 1.658972068288533e+000	 1.485208655025974e+000	-4.833366119407852e+000
1	 1.833816821126989e+000	 1.309428090297686e+000	-4.220281413386377e+000
1	 1.819334592758936e+000	 1.329476484930569e+000	-4.395184715349608e+000
1	 1.804620622673762e+000	 1.349381551761863e+000	-4.554908138657045e+000
1	 1.789677020451354e+000	 1.369139309734133e+000	-4.699137084624777e+000
1	 1.774505986113169e+000	 1.388745818894472e+000	-4.827573460996353e+000
1	 1.759109809128975e+000	 1.408197182947809e+000	-4.939936427841138e+000
1	 1.743490867337550e+000	 1.427489551781582e+000	-5.035963123802121e+000
1	 1.727651625782327e+000	 1.446619123958412e+000	-5.115409370999495e+000
1	 1.711594635463063e+000	 1.465582149173449e+000	-5.178050356932799e+000
1	 1.695322532004806e+000	 1.484374930673091e+000	-5.223681291767890e+000
1	 1.678838034245567e+000	 1.502993827631844e+000	-5.252118039441480e+000
1	 1.855516676502718e+000	 1.324922767771708e+000	-4.908574821708012e+000
1	 1.840863077549801e+000	 1.345208398348059e+000	-5.058683927224097e+000
1	 1.825974994641952e+000	 1.365349005101414e+000	-5.192123865599801e+000
1	 1.810854562322073e+000	 1.385340559865832e+000	-5.308798386283641e+000
1	 1.795504006644848e+000	 1.405179076066297e+000	-5.408632943578786e+000
1	 1.779925644171727e+000	 1.424860611302240e+000	-5.491575075332765e+000
1	 1.764121880878855e+000	 1.444381269902088e+000	-5.557594751340596e+000
1	 1.748095210978938e+000	 1.463737205445430e+000	-5.606684690502769e+000
1	 1.731848215658145e+000	 1.482924623249444e+000	-5.638860645846878e+000
1	 1.715383561729319e+000	 1.501939782816236e+000	-5.654161656590989e+000
1	 1.698704000202935e+000	 1.520779000237831e+000	-5.652650266500820e+000
1	 1.877216531878911e+000	 1.340417445245763e+000	-5.594365575909693e+000
1	 1.862391562341168e+000	 1.360940311765608e+000	-5.717545137705553e+000
1	 1.847329366610672e+000	 1.381316458441041e+000	-5.822571670818323e+000
1	 1.832032104193344e+000	 1.401541809997616e+000	-5.909614795310634e+000
1	 1.816502027177093e+000	 1.421612333238214e+000	-5.978871786913095e+000
1	 1.800741479215049e+000	 1.441524039656767e+000	-6.030567499795311e+000
1	 1.784752894420728e+000	 1.461272988022692e+000	-6.064954246628989e+000
1	 1.768538796176111e+000	 1.480855286932549e+000	-6.082311635903962e+000
1	 1.752101795853774e+000	 1.500267097325546e+000	-6.082946366559425e+000
1	 1.735444591454357e+000	 1.519504634959500e+000	-6.067191980096201e+000
1	 1.718569966160802e+000	 1.538564172843951e+000	-6.035408570437714e+000
1	 1.898916387255753e+000	 1.355912122719749e+000	-6.277299409029253e+000
1	 1.883920047133223e+000	 1.376672225183124e+000	-6.371448350932496e+000
1	 1.868683738580113e+000	 1.397283911780662e+000	-6.445979806307212e+000
1	 1.853209646065358e+000	 1.417743060129417e+000	-6.501375213354174e+000
1	 1.837500047710095e+000	 1.438045590410163e+000	-6.538150352935825e+000
1	 1.821557314259136e+000	 1.458187468011342e+000	-6.556854728259368e+000
1	 1.805383907963363e+000	 1.478164706143358e+000	-6.558070887673497e+000
1	 1.788982381374034e+000	 1.497973368419745e+000	-6.542413691639053e+000
1	 1.772355376050134e+000	 1.517609571401743e+000	-6.510529525077319e+000
1	 1.755505621180099e+000	 1.537069487102882e+000	-6.463095456438991e+000
1	 1.738435932119337e+000	 1.556349345450221e+000	-6.400818344973545e+000
1	 1.539776272543993e+000	 1.378497619392281e+000	-1.910379301422933e+000
1	 1.524467299600929e+000	 1.395408981614681e+000	-2.123980892305625e+000
1	 1.508968793931934e+000	 1.412154398015745e+000	-2.334877970716175e+000
1	 1.493283469725799e+000	 1.428730698645799e+000	-2.542638439978823e+000
1	 1.477414111523483e+000	 1.445134773122503e+000	-2.746816834292944e+000
1	 1.461363572573377e+000	 1.461363572573377e+000	-2.946955589947359e+000
1	 1.445134773122503e+000	 1.477414111523483e+000	-3.142586342613771e+000
1	 1.428730698645800e+000	 1.493283469725799e+000	-3.333231247772410e+000
1	 1.412154398015745e+000	 1.508968793931934e+000	-3.518404321260248e+000
1	 1.395408981614681e+000	 1.524467299600929e+000	-3.697612796877306e+000
1	 1.378497619392282e+000	 1.539776272543993e+000	-3.870358497943053e+000
1	 1.559642238502527e+000	 1.396282791997798e+000	-2.449119339683190e+000
1	 1.544135751452474e+000	 1.413412342116847e+000	-2.635715724857385e+000
1	 1.528437286353301e+000	 1.430373805406068e+000	-2.817181593467005e+000
1	 1.512549592411856e+000	 1.447163971017574e+000	-2.993621950403810e+000
1	 1.496475490094825e+000	 1.463779688439336e+000	-3.165140176115197e+000
1	 1.480217869462783e+000	 1.480217869462783e+000	-3.331838336118852e+000
1	 1.463779688439336e+000	 1.496475490094825e+000	-3.493817496406690e+000
1	 1.447163971017574e+000	 1.512549592411856e+000	-3.651178043856641e+000
1	 1.430373805406068e+000	 1.528437286353301e+000	-3.804020010754205e+000
1	 1.413412342116847e+000	 1.544135751452474e+000	-3.952443402513532e+000
1	 1.396282791997798e+000	 1.559642238502527e+000	-4.096548527677094e+000
1	 1.579508204460395e+000	 1.414067964603332e+000	-2.966461190387078e+000
1	 1.563804203303395e+000	 1.431415702618946e+000	-3.125415265863822e+000
1	 1.547905778774097e+000	 1.448593212796243e+000	-3.277425045434856e+000
1	 1.531815715097399e+000	 1.465597243389118e+000	-3.423031670330509e+000
1	 1.515536868665719e+000	 1.482424603755863e+000	-3.562784124370012e+000
1	 1.499072166351807e+000	 1.499072166351807e+000	-3.697238753598882e+000
1	 1.482424603755862e+000	 1.515536868665718e+000	-3.826958775479668e+000
1	 1.465597243389118e+000	 1.531815715097399e+000	-3.952513778454415e+000
1	 1.448593212796242e+000	 1.547905778774097e+000	-4.074479212719044e+000
1	 1.431415702618947e+000	 1.563804203303396e+000	-4.193435873070336e+000
1	 1.414067964603332e+000	 1.579508204460395e+000	-4.309969374703100e+000
1	 1.599374170417763e+000	 1.431853137208900e+000	-3.463002286148439e+000
1	 1.583472655153850e+000	 1.449419063121011e+000	-3.593787793125871e+000
1	 1.567374271194464e+000	 1.466812620186314e+000	-3.716364752089161e+000
1	 1.551081837782558e+000	 1.484030515760497e+000	-3.831613269475834e+000
1	 1.534598247236275e+000	 1.501069519072161e+000	-3.940428541632612e+000
1	 1.517926463240549e+000	 1.517926463240549e+000	-4.043719752533406e+000
1	 1.501069519072162e+000	 1.534598247236275e+000	-4.142408948491601e+000
1	 1.484030515760496e+000	 1.551081837782558e+000	-4.237429892025857e+000
1	 1.466812620186314e+000	 1.567374271194464e+000	-4.329726897091191e+000
1	 1.449419063121011e+000	 1.583472655153850e+000	-4.420253647931417e+000
1	 1.431853137208900e+000	 1.599374170417763e+000	-4.509972003848822e+000
1	 1.619240136374797e+000	 1.449638309814519e+000	-3.939310740701299e+000
1	 1.603141107003993e+000	 1.467422423623072e+000	-4.041506825860741e+000
1	 1.586842763614545e+000	 1.485032027576333e+000	-4.134720017479167e+000
1	 1.570347960467461e+000	 1.502463788131775e+000	-4.220075823972945e+000
1	 1.553659625806610e+000	 1.519714434388317e+000	-4.298719926365946e+000
1	 1.536780760129105e+000	 1.536780760129105e+000	-4.371816618371757e+000
1	 1.519714434388316e+000	 1.553659625806610e+000	-4.440547214613434e+000
1	 1.502463788131775e+000	 1.570347960467461e+000	-4.506108430130499e+000
1	 1.485032027576333e+000	 1.586842763614545e+000	-4.569710734394887e+000
1	 1.467422423623072e+000	 1.603141107003993e+000	-4.632576683120336e+000
1	 1.449638309814519e+000	 1.619240136374797e+000	-4.695939231204181e+000
1	 1.639106102331665e+000	 1.467423482420205e+000	-4.395927125624159e+000
1	 1.622809558853981e+000	 1.485425784125162e+000	-4.469213231072332e+000
1	 1.606311256034485e+000	 1.503251434966346e+000	-4.533175273792130e+000
1	 1.589614083152236e+000	 1.520897060503017e+000	-4.589094033942494e+000
1	 1.572721004376836e+000	 1.538359349704408e+000	-4.638273434786186e+000
1	 1.555635057017574e+000	 1.555635057017573e+000	-4.682038685923469e+000
1	 1.538359349704408e+000	 1.572721004376835e+000	-4.721734389439265e+000
1	 1.520897060503017e+000	 1.589614083152237e+000	-4.758722612758302e+000
1	 1.503251434966346e+000	 1.606311256034484e+000	-4.794380932086817e+000
1	 1.485425784125162e+000	 1.622809558853982e+000	-4.830100450392191e+000
1	 1.467423482420205e+000	 1.639106102331665e+000	-4.867283793934756e+000
1	 1.658972068288533e+000	 1.485208655025974e+000	-4.833366119407851e+000
1	 1.642478010703969e+000	 1.503429144627313e+000	-4.877517178580359e+000
1	 1.625779748454424e+000	 1.521470842356402e+000	-4.912382169282707e+000
1	 1.608880205837015e+000	 1.539330332874287e+000	-4.939310281733320e+000
1	 1.591782382947066e+000	 1.557004265020518e+000	-4.959674757458546e+000
1	 1.574489353906053e+000	 1.574489353906053e+000	-4.974870893135523e+000
1	 1.557004265020518e+000	 1.591782382947067e+000	-4.986314005690846e+000
1	 1.539330332874287e+000	 1.608880205837015e+000	-4.995437362754838e+000
1	 1.521470842356401e+000	 1.625779748454424e+000	-5.003690082658955e+000
1	 1.503429144627313e+000	 1.642478010703968e+000	-5.012535008239920e+000
1	 1.485208655025974e+000	 1.658972068288533e+000	-5.023446558777856e+000
1	 1.678838034245567e+000	 1.502993827631844e+000	-5.252118039441479e+000
1	 1.662146462554112e+000	 1.521432505129557e+000	-5.266999957244708e+000
1	 1.645248240874508e+000	 1.539690249746549e+000	-5.272961507961184e+000
1	 1.628146328521925e+000	 1.557763605245652e+000	-5.271336544030061e+000
1	 1.610843761517417e+000	 1.575649180336727e+000	-5.263481862656941e+000
1	 1.593343650794640e+000	 1.593343650794641e+000	-5.250775224552712e+000
1	 1.575649180336727e+000	 1.610843761517417e+000	-5.234613335772817e+000
1	 1.557763605245651e+000	 1.628146328521925e+000	-5.216409796728784e+000
1	 1.539690249746549e+000	 1.645248240874507e+000	-5.197593022526380e+000
1	 1.521432505129557e+000	 1.662146462554112e+000	-5.179604138857936e+000
1	 1.502993827631845e+000	 1.678838034245567e+000	-5.163894857733541e+000
1	 1.698704000202935e+000	 1.520779000237831e+000	-5.652650266500822e+000
1	 1.681814914404567e+000	 1.539435865631926e+000	-5.638215663747425e+000
1	 1.664716733294878e+000	 1.557909657136836e+000	-5.615505053176618e+000
1	 1.647412451207094e+000	 1.576196877617173e+000	-5.585756169790701e+000
1	 1.629905140088000e+000	 1.594294095653117e+000	-5.550226617394248e+000
1	 1.612197947683434e+000	 1.612197947683434e+000	-5.510192053492579e+000
1	 1.594294095653117e+000	 1.629905140088000e+000	-5.466944342577055e+000
1	 1.576196877617174e+000	 1.647412451207094e+000	-5.421789681513020e+000
1	 1.557909657136836e+000	 1.664716733294878e+000	-5.376046700816267e+000
1	 1.539435865631927e+000	 1.681814914404567e+000	-5.331044545664302e+000
1	 1.520779000237831e+000	 1.698704000202935e+000	-5.288120940537760e+000
1	 1.718569966160802e+000	 1.538564172843951e+000	-6.035408570437715e+000
1	 1.701483366255489e+000	 1.557439226134452e+000	-5.991692774245203e+000
1	 1.684185225715678e+000	 1.576129064527310e+000	-5.940577206107791e+000
1	 1.666678573892654e+000	 1.594630149988919e+000	-5.883125534870746e+000
1	 1.648966518658931e+000	 1.612939010969770e+000	-5.820416296022032e+000
1	 1.631052244572532e+000	 1.631052244572532e+000	-5.753541391130286e+000
1	 1.612939010969769e+000	 1.648966518658930e+000	-5.683604564341115e+000
1	 1.594630149988920e+000	 1.666678573892654e+000	-5.611719858966944e+000
1	 1.576129064527309e+000	 1.684185225715677e+000	-5.539010057257660e+000
1	 1.557439226134453e+000	 1.701483366255490e+000	-5.466605106480448e+000
1	 1.538564172843951e+000	 1.718569966160803e+000	-5.395640534468546e+000
1	 1.738435932119337e+000	 1.556349345450221e+000	-6.400818344973546e+000
1	 1.721151818107034e+000	 1.575442586637167e+000	-6.327935608261326e+000
1	 1.703653718137051e+000	 1.594348471918019e+000	-6.248716569168384e+000
1	 1.685944696578731e+000	 1.613063422360952e+000	-6.163975583198250e+000
1	 1.668027897230322e+000	 1.631583926286766e+000	-6.074534985392926e+000
1	 1.649906541462032e+000	 1.649906541462032e+000	-5.981224049939972e+000
1	 1.631583926286766e+000	 1.668027897230322e+000	-5.884877938836805e+000
1	 1.613063422360952e+000	 1.685944696578732e+000	-5.786336641651825e+000
1	 1.594348471918019e+000	 1.703653718137051e+000	-5.686443908443710e+000
1	 1.575442586637168e+000	 1.721151818107034e+000	-5.586046177916736e+000
1	 1.556349345450221e+000	 1.738435932119336e+000	-5.485991502898682e+000
1	 1.378497619392282e+000	 1.539776272543993e+000	-3.870358497943053e+000
1	 1.361420965674179e+000	 1.554895323933223e+000	-4.045415258721138e+000
1	 1.344184830645459e+000	 1.569819574097472e+000	-4.231528083697497e+000
1	 1.326792553554179e+000	 1.584546529405988e+000	-4.428211418832542e+000
1	 1.309247524943862e+000	 1.599073772548270e+000	-4.634957674535922e+000
1	 1.291553184473516e+000	 1.613398963829417e+000	-4.851238236717632e+000
1	 1.273713018699258e+000	 1.627519842390902e+000	-5.076504507976065e+000
1	 1.255730558820517e+000	 1.641434227355505e+000	-5.310188976585751e+000
1	 1.237609378393840e+000	 1.655140018895221e+000	-5.551706310894096e+000
1	 1.219353091017331e+000	 1.668635199221159e+000	-5.800454476686725e+000
1	 1.200965347988850e+000	 1.681917833494530e+000	-6.055815875043728e+000
1	 1.396282791997798e+000	 1.559642238502527e+000	-4.096548527677093e+000
1	 1.378985817816562e+000	 1.574956353658965e+000	-4.245346405225097e+000
1	 1.361527304720379e+000	 1.590073154293837e+000	-4.407368620611999e+000
1	 1.343910635039803e+000	 1.604990114603931e+000	-4.582037623843932e+000
1	 1.326139243062656e+000	 1.619704786090954e+000	-4.768746135386462e+000
1	 1.308216612825929e+000	 1.634214798873599e+000	-4.966858407235995e+000
1	 1.290146275868779e+000	 1.648517862924069e+000	-5.175711526050969e+000
1	 1.271931808949659e+000	 1.662611769227780e+000	-5.394616755381850e+000
1	 1.253576831730622e+000	 1.676494390865051e+000	-5.622860913957345e+000
1	 1.235085004431890e+000	 1.690163684013768e+000	-5.859707786915732e+000
1	 1.216460025459840e+000	 1.703617688872130e+000	-6.104399566808581e+000
1	 1.414067964603332e+000	 1.579508204460395e+000	-4.309969374703100e+000
1	 1.396550669959048e+000	 1.595017383384004e+000	-4.433098422443869e+000
1	 1.378869778795487e+000	 1.610326734489471e+000	-4.571022218703607e+000
1	 1.361028716525699e+000	 1.625433699801120e+000	-4.723125094059933e+000
1	 1.343030961181805e+000	 1.640335799632866e+000	-4.888756043674731e+000
1	 1.324880041178775e+000	 1.655030633916994e+000	-5.067230131194193e+000
1	 1.306579533038807e+000	 1.669515883456440e+000	-5.257829943610918e+000
1	 1.288133059079376e+000	 1.683789311099253e+000	-5.459807093748823e+000
1	 1.269544285068039e+000	 1.697848762834074e+000	-5.672383766930490e+000
1	 1.250816917847140e+000	 1.711692168805566e+000	-5.894754308298706e+000
1	 1.231954702931564e+000	 1.725317544248913e+000	-6.126086847187900e+000
1	 1.431853137208900e+000	 1.599374170417763e+000	-4.509972003848821e+000
1	 1.414115522101638e+000	 1.615078413108516e+000	-4.607725830165616e+000
1	 1.396212252870773e+000	 1.630580314684557e+000	-4.721305921085897e+000
1	 1.378146798011843e+000	 1.645877284997743e+000	-4.850110265530561e+000
1	 1.359922679301271e+000	 1.660966813174197e+000	-4.993497949624024e+000
1	 1.341543469532005e+000	 1.675846468959799e+000	-5.150790598540195e+000
1	 1.323012790209282e+000	 1.690513903988210e+000	-5.321273875250734e+000
1	 1.304334309209597e+000	 1.704966852970118e+000	-5.504199032697358e+000
1	 1.285511738406013e+000	 1.719203134802480e+000	-5.698784515798006e+000
1	 1.266548831262987e+000	 1.733220653596737e+000	-5.904217609594324e+000
1	 1.247449380403922e+000	 1.747017399625063e+000	-6.119656129759458e+000
1	 1.449638309814519e+000	 1.619240136374797e+000	-4.695939231204181e+000
1	 1.431680374244336e+000	 1.635139442832677e+000	-4.768329547417796e+000
1	 1.413554726946223e+000	 1.650833894879276e+000	-4.857094824228835e+000
1	 1.395264879498211e+000	 1.666320870193986e+000	-4.961696490915680e+000
1	 1.376814397421018e+000	 1.681597826715139e+000	-5.081555497887546e+000
1	 1.358206897885572e+000	 1.696662304002206e+000	-5.216053693791883e+000
1	 1.339446047380145e+000	 1.711511924519575e+000	-5.364535262553405e+000
1	 1.320535559340253e+000	 1.726144394840567e+000	-5.526308216967669e+000
1	 1.301479191744462e+000	 1.740557506770461e+000	-5.700645945349883e+000
1	 1.282280744679345e+000	 1.754749138387473e+000	-5.886788807631014e+000
1	 1.262944057876814e+000	 1.768717255000763e+000	-6.083945777194334e+000
1	 1.467423482420205e+000	 1.639106102331665e+000	-4.867283793934757e+000
1	 1.449245226387142e+000	 1.655200472556662e+000	-4.914054080673310e+000
1	 1.430897201021827e+000	 1.671087475073811e+000	-4.977318559925697e+000
1	 1.412382960984778e+000	 1.686764455390040e+000	-5.056649984338321e+000
1	 1.393706115541010e+000	 1.702228840255884e+000	-5.151580998026115e+000
1	 1.374870326239427e+000	 1.717478139044408e+000	-5.261605348346057e+000
1	 1.355879304551337e+000	 1.732509945050727e+000	-5.386179157774491e+000
1	 1.336736809471274e+000	 1.747321936710794e+000	-5.524722252843643e+000
1	 1.317446645083307e+000	 1.761911878738207e+000	-5.676619546970310e+000
1	 1.298012658096122e+000	 1.776277623177960e+000	-5.841222473894185e+000
1	 1.278438735350138e+000	 1.790417110376195e+000	-6.017850468342201e+000
1	 1.485208655025974e+000	 1.658972068288533e+000	-5.023446558777854e+000
1	 1.466810078530060e+000	 1.675261502280647e+000	-5.044084914081894e+000
1	 1.448239675097573e+000	 1.691341055268345e+000	-5.080958030027574e+000
1	 1.429501042471520e+000	 1.707208040586091e+000	-5.133796057597627e+000
1	 1.410597833661210e+000	 1.722859853796624e+000	-5.202291313243570e+000
1	 1.391533754593522e+000	 1.738293974086600e+000	-5.286099226720892e+000
1	 1.372312561722800e+000	 1.753507965581860e+000	-5.384839346390361e+000
1	 1.352938059602591e+000	 1.768499478580991e+000	-5.498096399504398e+000
1	 1.333414098422467e+000	 1.783266250705911e+000	-5.625421404877115e+000
1	 1.313744571513226e+000	 1.797806107968385e+000	-5.766332835221833e+000
1	 1.293933412823795e+000	 1.812116965751542e+000	-5.920317826338446e+000
1	 1.502993827631845e+000	 1.678838034245567e+000	-5.163894857733540e+000
1	 1.484374930673091e+000	 1.695322532004807e+000	-5.157646084992524e+000
1	 1.465582149173450e+000	 1.711594635463063e+000	-5.167042373008653e+000
1	 1.446619123958412e+000	 1.727651625782327e+000	-5.192015623606291e+000
1	 1.427489551781582e+000	 1.743490867337551e+000	-5.232464041017680e+000
1	 1.408197182947809e+000	 1.759109809128975e+000	-5.288252719070428e+000
1	 1.388745818894472e+000	 1.774505986113169e+000	-5.359214280441450e+000
1	 1.369139309734133e+000	 1.789677020451354e+000	-5.445149566285715e+000
1	 1.349381551761863e+000	 1.804620622673762e+000	-5.545828374434014e+000
1	 1.329476484930569e+000	 1.819334592758937e+000	-5.660990244247271e+000
1	 1.309428090297686e+000	 1.833816821126989e+000	-5.790345286112649e+000
1	 1.520779000237831e+000	 1.698704000202935e+000	-5.288120940537760e+000
1	 1.501939782816236e+000	 1.715383561729319e+000	-5.253997929598008e+000
1	 1.482924623249444e+000	 1.731848215658145e+000	-5.234646143383317e+000
1	 1.463737205445429e+000	 1.748095210978939e+000	-5.230241945177676e+000
1	 1.444381269902088e+000	 1.764121880878854e+000	-5.240933961731230e+000
1	 1.424860611302240e+000	 1.779925644171726e+000	-5.266843214898827e+000
1	 1.405179076066297e+000	 1.795504006644849e+000	-5.308063297226646e+000
1	 1.385340559865832e+000	 1.810854562322073e+000	-5.364660590807914e+000
1	 1.365349005101414e+000	 1.825974994641952e+000	-5.436674528625910e+000
1	 1.345208398348060e+000	 1.840863077549801e+000	-5.524117897505501e+000
1	 1.324922767771708e+000	 1.855516676502718e+000	-5.626977181699349e+000
1	 1.538564172843951e+000	 1.718569966160803e+000	-5.395640534468545e+000
1	 1.519504634959500e+000	 1.735444591454357e+000	-5.332434984936233e+000
1	 1.500267097325547e+000	 1.752101795853774e+000	-5.282886686752206e+000
1	 1.480855286932549e+000	 1.768538796176111e+000	-5.247457609308623e+000
1	 1.461272988022692e+000	 1.784752894420728e+000	-5.226589733617344e+000
1	 1.441524039656768e+000	 1.800741479215049e+000	-5.220704635221237e+000
1	 1.421612333238213e+000	 1.816502027177092e+000	-5.230203100260256e+000
1	 1.401541809997616e+000	 1.832032104193344e+000	-5.255464775243973e+000
1	 1.381316458441040e+000	 1.847329366610672e+000	-5.296847850997468e+000
1	 1.360940311765608e+000	 1.862391562341168e+000	-5.354688781164421e+000
1	 1.340417445245762e+000	 1.877216531878911e+000	-5.429302035566083e+000
1	 1.556349345450221e+000	 1.738435932119336e+000	-5.485991502898682e+000
1	 1.537069487102882e+000	 1.755505621180099e+000	-5.392284034740512e+000
1	 1.517609571401743e+000	 1.772355376050134e+000	-5.310921694827992e+000
1	 1.497973368419745e+000	 1.788982381374034e+000	-5.242691708920805e+000
1	 1.478164706143358e+000	 1.805383907963363e+000	-5.188370814315578e+000
1	 1.458187468011342e+000	 1.821557314259135e+000	-5.148724202496357e+000
1	 1.438045590410163e+000	 1.837500047710095e+000	-5.124504481512049e+000
1	 1.417743060129417e+000	 1.853209646065358e+000	-5.116450660078190e+000
1	 1.397283911780661e+000	 1.868683738580113e+000	-5.125287155340530e+000
1	 1.376672225183124e+000	 1.883920047133223e+000	-5.151722826171413e+000
1	 1.355912122719749e+000	 1.898916387255753e+000	-5.196450033798535e+000
1	 1.200965347988850e+000	 1.681917833494530e+000	-6.055815875043728e+000
1	 1.182449835540888e+000	 1.694986070180314e+000	-6.320795754668939e+000
1	 1.163810271280825e+000	 1.707838140353592e+000	-6.598968523406859e+000
1	 1.145050403035632e+000	 1.720472359784237e+000	-6.890572672109235e+000
1	 1.126174006844908e+000	 1.732887130004770e+000	-7.195864123739056e+000
1	 1.107184884536711e+000	 1.745080938822499e+000	-7.515115773767057e+000
1	 1.088086861295837e+000	 1.757052360750431e+000	-7.848616997377487e+000
1	 1.068883783227663e+000	 1.768800057357055e+000	-8.196673124820304e+000
1	 1.049579514920662e+000	 1.780322777535210e+000	-8.559604886318127e+000
1	 1.030177937010685e+000	 1.791619357690404e+000	-8.937747828001145e+000
1	 1.010682943750033e+000	 1.802688721849068e+000	-9.331451700407003e+000
1	 1.216460025459840e+000	 1.703617688872130e+000	-6.104399566808581e+000
1	 1.197705628606193e+000	 1.716854530016881e+000	-6.360366892779524e+000
1	 1.178825579442343e+000	 1.729872415700694e+000	-6.631726130660102e+000
1	 1.159823674149157e+000	 1.742669639963754e+000	-6.918745094213425e+000
1	 1.140703737484130e+000	 1.755244583715394e+000	-7.221707671635428e+000
1	 1.121469620325929e+000	 1.767595715252836e+000	-7.540913312662191e+000
1	 1.102125197211310e+000	 1.779721590697669e+000	-7.876676484752098e+000
1	 1.082674363867519e+000	 1.791620854350134e+000	-8.229326099776190e+000
1	 1.063121034743368e+000	 1.803292238961474e+000	-8.599204912713482e+000
1	 1.043469140542086e+000	 1.814734565924676e+000	-8.986668893908947e+000
1	 1.023722625759031e+000	 1.825946745384120e+000	-9.392086576505299e+000
1	 1.231954702931564e+000	 1.725317544248913e+000	-6.126086847187900e+000
1	 1.212961421672267e+000	 1.738722989852626e+000	-6.370345192492423e+000
1	 1.193840887604656e+000	 1.751906691046967e+000	-6.632255903283616e+000
1	 1.174596945263497e+000	 1.764866920142439e+000	-6.912123422669112e+000
1	 1.155233468124176e+000	 1.777602037425184e+000	-7.210266234490441e+000
1	 1.135754356115979e+000	 1.790110491682342e+000	-7.527016292358576e+000
1	 1.116163533127615e+000	 1.802390820644081e+000	-7.862718421267307e+000
1	 1.096464944508205e+000	 1.814441651342400e+000	-8.217729693305584e+000
1	 1.076662554566900e+000	 1.826261700386945e+000	-8.592418779050201e+000
1	 1.056760344074309e+000	 1.837849774158181e+000	-8.987165276265921e+000
1	 1.036762307768846e+000	 1.849204768918440e+000	-9.402359017587457e+000
1	 1.247449380403922e+000	 1.747017399625063e+000	-6.119656129759458e+000
1	 1.228217214739000e+000	 1.760591449687726e+000	-6.349675886395572e+000
1	 1.208856195767644e+000	 1.773940966392586e+000	-6.599654425426196e+000
1	 1.189370216378519e+000	 1.787064200320456e+000	-6.869939976047667e+000
1	 1.169763198764909e+000	 1.799959491134297e+000	-7.160892113780635e+000
1	 1.150039091906711e+000	 1.812625268111165e+000	-7.472881126693870e+000
1	 1.130201869044597e+000	 1.825060050589807e+000	-7.806287358921550e+000
1	 1.110255525149559e+000	 1.837262448333983e+000	-8.161500533082847e+000
1	 1.090204074391088e+000	 1.849231161811743e+000	-8.538919053256928e+000
1	 1.070051547607175e+000	 1.860964982391030e+000	-8.938949290203496e+000
1	 1.049801989779293e+000	 1.872462792452129e+000	-9.362004850550239e+000
1	 1.262944057876814e+000	 1.768717255000763e+000	-6.083945777194334e+000
1	 1.243473007806282e+000	 1.782459909522359e+000	-6.297355969562925e+000
1	 1.223871503931186e+000	 1.795975241737718e+000	-6.533062616177229e+000
1	 1.204143487494095e+000	 1.809261480497971e+000	-6.791464746722991e+000
1	 1.184292929406188e+000	 1.822316944842891e+000	-7.072969396649697e+000
1	 1.164323827697979e+000	 1.835140044539452e+000	-7.377990905880520e+000
1	 1.144240204962098e+000	 1.847729280534987e+000	-7.706950200726801e+000
1	 1.124046105791414e+000	 1.860083245325012e+000	-8.060274060697225e+000
1	 1.103745594215759e+000	 1.872200623235985e+000	-8.438394371920975e+000
1	 1.083342751140507e+000	 1.884080190623331e+000	-8.841747368925992e+000
1	 1.062841671790189e+000	 1.895720815985286e+000	-9.270772866528343e+000
1	 1.278438735350138e+000	 1.790417110376195e+000	-6.017850468342201e+000
1	 1.258728800874001e+000	 1.804328369356703e+000	-6.212431062748048e+000
1	 1.238886812095163e+000	 1.818009517082537e+000	-6.431663042869418e+000
1	 1.218916758610096e+000	 1.831458760675146e+000	-6.676003117839533e+000
1	 1.198822660047875e+000	 1.844674398551119e+000	-6.945912029697207e+000
1	 1.178608563489632e+000	 1.857654820967351e+000	-7.241853779918208e+000
1	 1.158278540879960e+000	 1.870398510479757e+000	-7.564294846237448e+000
1	 1.137836686433605e+000	 1.882904042315616e+000	-7.913703391529842e+000
1	 1.117287114040742e+000	 1.895170084659792e+000	-8.290548466527845e+000
1	 1.096633954674127e+000	 1.907195398855193e+000	-8.695299208155809e+000
1	 1.075881353801352e+000	 1.918978839518011e+000	-9.128424035261579e+000
1	 1.293933412823795e+000	 1.812116965751542e+000	-5.920317826338446e+000
1	 1.273984593942049e+000	 1.826196829190936e+000	-6.093992500954886e+000
1	 1.253902120259454e+000	 1.840043792427213e+000	-6.294677427418746e+000
1	 1.233690029726389e+000	 1.853656040852145e+000	-6.522893744313975e+000
1	 1.213352390689829e+000	 1.867031852259139e+000	-6.779162031164270e+000
1	 1.192893299281523e+000	 1.880169597395008e+000	-7.064001458156039e+000
1	 1.172316876798029e+000	 1.893067740424256e+000	-7.377928934396583e+000
1	 1.151627267075970e+000	 1.905724839305924e+000	-7.721458256547805e+000
1	 1.130828633865865e+000	 1.918139546083284e+000	-8.095099259664751e+000
1	 1.109925158207855e+000	 1.930310607086728e+000	-8.499356972049290e+000
1	 1.088921035812597e+000	 1.942236863050402e+000	-8.934730775909655e+000
1	 1.309428090297686e+000	 1.833816821126989e+000	-5.790345286112649e+000
1	 1.289240387010314e+000	 1.848065289025234e+000	-5.941174628716988e+000
1	 1.268917428423940e+000	 1.862078067771918e+000	-6.121364329711891e+000
1	 1.248463300842847e+000	 1.875853321029134e+000	-6.331506584284127e+000
1	 1.227882121331912e+000	 1.889389305967105e+000	-6.572187830052200e+000
1	 1.207178035073505e+000	 1.902684373822573e+000	-6.843987815384826e+000
1	 1.186355212716147e+000	 1.915736970368623e+000	-7.147478675639528e+000
1	 1.165417847718342e+000	 1.928545636296065e+000	-7.483224019229675e+000
1	 1.144370153690955e+000	 1.941109007506578e+000	-7.851778025392630e+000
1	 1.123216361741515e+000	 1.953425815318042e+000	-8.253684555491864e+000
1	 1.101960717823740e+000	 1.965494886582560e+000	-8.689476279637937e+000
1	 1.324922767771708e+000	 1.855516676502718e+000	-5.626977181699349e+000
1	 1.304496180078686e+000	 1.869933748859776e+000	-5.753152285163309e+000
1	 1.283932736588499e+000	 1.884112343116823e+000	-5.911016993546937e+000
1	 1.263236571959339e+000	 1.898050601206275e+000	-6.101241068687956e+000
1	 1.242411851973984e+000	 1.911746759675175e+000	-6.324482721782834e+000
1	 1.221462770865427e+000	 1.925199150250191e+000	-6.581387595737589e+000
1	 1.200393548634157e+000	 1.938406200312997e+000	-6.872587765946508e+000
1	 1.179208428360558e+000	 1.951366433286168e+000	-7.198700761471784e+000
1	 1.157911673515842e+000	 1.964078468929797e+000	-7.560328608534027e+000
1	 1.136507565274927e+000	 1.976541023549247e+000	-7.958056898156949e+000
1	 1.115000399834598e+000	 1.988752910114585e+000	-8.392453879736728e+000
1	 1.340417445245762e+000	 1.877216531878911e+000	-5.429302035566083e+000
1	 1.319751973147055e+000	 1.891802208694739e+000	-5.529138463513585e+000
1	 1.298948044753012e+000	 1.906146618462098e+000	-5.662961341974809e+000
1	 1.278009843075734e+000	 1.920247881383732e+000	-5.831524397796400e+000
1	 1.256941582615906e+000	 1.934104213383504e+000	-6.035563430970721e+000
1	 1.235747506657143e+000	 1.947713926678010e+000	-6.275795206484855e+000
1	 1.214431884551902e+000	 1.961075430257515e+000	-6.552916376214284e+000
1	 1.192999009002452e+000	 1.974187230276363e+000	-6.867602432894405e+000
1	 1.171453193340355e+000	 1.987047930353057e+000	-7.220506698108673e+000
1	 1.149798768807915e+000	 1.999656231780452e+000	-7.612259346140102e+000
1	 1.128040081844989e+000	 2.012010933646574e+000	-8.043466465427350e+000
1	 1.355912122719749e+000	 1.898916387255753e+000	-5.196450033798535e+000
1	 1.335007766215312e+000	 1.913670668530300e+000	-5.268382131050898e+000
1	 1.313963352917359e+000	 1.928180893807915e+000	-5.376554110089466e+000
1	 1.292783114191905e+000	 1.942445161561669e+000	-5.521809954544350e+000
1	 1.271471313257540e+000	 1.956461667092249e+000	-5.704968772738643e+000
1	 1.250032242448504e+000	 1.970228703106179e+000	-5.926823594532636e+000
1	 1.228470220469227e+000	 1.983744660202318e+000	-6.188140210921383e+000
1	 1.206789589643861e+000	 1.997008027266777e+000	-6.489656058475163e+000
1	 1.184994713164319e+000	 2.010017391776478e+000	-6.832079150586781e+000
1	 1.163089972340300e+000	 2.022771440011767e+000	-7.216087057362524e+000
1	 1.141079763854727e+000	 2.035268957178629e+000	-7.642325935860635e+000
1	 1.010682943750033e+000	 1.802688721849068e+000	-9.331451700407003e+000
1	 9.911013848124723e-001	 1.813528272997309e+000	-9.738642246617481e+000
1	 9.714342563694887e-001	 1.824138789421242e+000	-1.015672227425956e+001
1	 9.516854783112035e-001	 1.834519459694026e+000	-1.058509966620253e+001
1	 9.318589744831693e-001	 1.844669559610956e+000	-1.102320099716292e+001
1	 9.119586703247526e-001	 1.854588451907370e+000	-1.147047321904070e+001
1	 8.919884905296137e-001	 1.864275585902090e+000	-1.192638527859354e+001
1	 8.719523567309262e-001	 1.873730497067710e+000	-1.239042966481170e+001
1	 8.518541852139021e-001	 1.882952806529170e+000	-1.286212388358496e+001
1	 8.316978846581150e-001	 1.891942220492133e+000	-1.334101185748289e+001
1	 8.114873539120182e-001	 1.900698529602767e+000	-1.382666524870535e+001
1	 1.023722625759031e+000	 1.825946745384120e+000	-9.392086576505299e+000
1	 1.003888428441440e+000	 1.836926146819623e+000	-9.813337330174106e+000
1	 9.839675576132633e-001	 1.847673558558638e+000	-1.024784418016839e+001
1	 9.639639837384755e-001	 1.858188158705416e+000	-1.069512647566988e+001
1	 9.438816812875148e-001	 1.868469213711674e+000	-1.115472193700496e+001
1	 9.237246263451980e-001	 1.878516078090857e+000	-1.162618816904656e+001
1	 9.034967942410129e-001	 1.888328194056983e+000	-1.210910410915466e+001
1	 8.832021572044748e-001	 1.897905091089385e+000	-1.260307140733563e+001
1	 8.628446820481395e-001	 1.907246385424817e+000	-1.310771573651975e+001
1	 8.424283278807979e-001	 1.916351779478452e+000	-1.362268803107568e+001
1	 8.219570438532781e-001	 1.925221061195408e+000	-1.414766565190149e+001
1	 1.036762307768846e+000	 1.849204768918440e+000	-9.402359017587457e+000
1	 1.016675472071220e+000	 1.860324020641252e+000	-9.835861365781531e+000
1	 9.965008588578460e-001	 1.871208327695403e+000	-1.028512209620330e+001
1	 9.762424891665522e-001	 1.881856857716237e+000	-1.074974190414891e+001
1	 9.559043880926638e-001	 1.892268867811892e+000	-1.122933928326160e+001
1	 9.354905823664451e-001	 1.902443704273920e+000	-1.172355192106993e+001
1	 9.150050979532124e-001	 1.912380802211533e+000	-1.223203803088569e+001
1	 8.944519576788237e-001	 1.922079685110802e+000	-1.275447761795663e+001
1	 8.738351788831772e-001	 1.931539964320292e+000	-1.329057367797951e+001
1	 8.531587711042796e-001	 1.940761338464687e+000	-1.384005332629140e+001
1	 8.324267337953374e-001	 1.949743592788055e+000	-1.440266885626789e+001
1	 1.049801989779293e+000	 1.872462792452129e+000	-9.362004850550239e+000
1	 1.029462515701623e+000	 1.883721894462284e+000	-9.805959017631823e+000
1	 1.009034160103046e+000	 1.894743096831615e+000	-1.026829719399804e+001
1	 9.885209945952407e-001	 1.905525556726559e+000	-1.074867244235065e+001
1	 9.679270948984198e-001	 1.916068521911670e+000	-1.124675480315336e+001
1	 9.472565383882966e-001	 1.926371330456608e+000	-1.176223262520506e+001
1	 9.265134016660140e-001	 1.936433410365777e+000	-1.229481383402366e+001
1	 9.057017581537732e-001	 1.946254279131987e+000	-1.284422713604907e+001
1	 8.848256757188148e-001	 1.955833543215612e+000	-1.341022315687843e+001
1	 8.638892143283621e-001	 1.965170897450847e+000	-1.399257551195288e+001
1	 8.428964237379969e-001	 1.974266124380708e+000	-1.459108180832194e+001
1	 1.062841671790189e+000	 1.895720815985286e+000	-9.270772866528343e+000
1	 1.042249559332463e+000	 1.907119768282810e+000	-9.723387480466093e+000
1	 1.021567461348670e+000	 1.918277865967356e+000	-1.019712334713186e+001
1	 1.000799500024346e+000	 1.929194255736451e+000	-1.069165800339457e+001
1	 9.799498017045861e-001	 1.939868176011067e+000	-1.120668489960903e+001
1	 9.590224944105535e-001	 1.950298956638970e+000	-1.174191471700755e+001
1	 9.380217053792190e-001	 1.960486018519756e+000	-1.229707662399273e+001
1	 9.169515586291239e-001	 1.970428873152970e+000	-1.287191946935249e+001
1	 8.958161725548528e-001	 1.980127122110799e+000	-1.346621291062124e+001
1	 8.746196575528441e-001	 1.989580456436942e+000	-1.407974847601157e+001
1	 8.533661136810564e-001	 1.998788655973366e+000	-1.471234055855121e+001
1	 1.075881353801352e+000	 1.918978839518011e+000	-9.128424035261581e+000
1	 1.055036602963550e+000	 1.930517642102919e+000	-9.587915720223732e+000
1	 1.034100762594529e+000	 1.941812635102705e+000	-1.007136636139181e+001
1	 1.013078005453673e+000	 1.952862954745983e+000	-1.057845110941072e+001
1	 9.919725085109667e-001	 1.963667830110144e+000	-1.110885972434187e+001
1	 9.707884504330185e-001	 1.974226582821057e+000	-1.166229793059562e+001
1	 9.495300090926281e-001	 1.984538626673510e+000	-1.223848871150411e+001
1	 9.282013591046765e-001	 1.994603467173783e+000	-1.283717354146929e+001
1	 9.068066693910913e-001	 2.004420701005870e+000	-1.345811355382102e+001
1	 8.853501007775266e-001	 2.013990015422982e+000	-1.410109064272862e+001
1	 8.638358036243158e-001	 2.023311187566027e+000	-1.476590849771279e+001
1	 1.088921035812597e+000	 1.942236863050402e+000	-8.934730775909653e+000
1	 1.067823646594697e+000	 1.953915515922700e+000	-9.399323769250017e+000
1	 1.046634063840428e+000	 1.965347404237740e+000	-9.890803260340213e+000
1	 1.025356510883029e+000	 1.976531653755224e+000	-1.040881613658442e+001
1	 1.003995215317365e+000	 1.987467484208959e+000	-1.095302235465079e+001
1	 9.825544064554943e-001	 1.998154209002917e+000	-1.152309638265881e+001
1	 9.610383128060425e-001	 2.008591234827077e+000	-1.211872858240157e+001
1	 9.394511595802311e-001	 2.018778061194452e+000	-1.273962652935282e+001
1	 9.177971662273304e-001	 2.028714279900847e+000	-1.338551626841620e+001
1	 8.960805440022087e-001	 2.038399574408974e+000	-1.405614350357968e+001
1	 8.743054935675751e-001	 2.047833719158692e+000	-1.475127471985352e+001
1	 1.101960717823740e+000	 1.965494886582560e+000	-8.689476279637937e+000
1	 1.080610690225716e+000	 1.977313389742243e+000	-9.157402071543334e+000
1	 1.059167365086179e+000	 1.988882173372540e+000	-9.655221621605985e+000
1	 1.037635016312218e+000	 2.000200352764243e+000	-1.018252861380090e+001
1	 1.016017922123584e+000	 2.011267138307571e+000	-1.073892802866730e+001
1	 9.943203624777822e-001	 2.022081835184600e+000	-1.132403772150224e+001
1	 9.725466165192630e-001	 2.032643842980497e+000	-1.193748994064622e+001
1	 9.507009600555887e-001	 2.042952655215010e+000	-1.257893278333347e+001
1	 9.287876630633704e-001	 2.053007858795747e+000	-1.324803158678810e+001
1	 9.068109872266910e-001	 2.062809133394929e+000	-1.394447025246513e+001
1	 8.847751835106342e-001	 2.072356250751360e+000	-1.466795250155392e+001
1	 1.115000399834598e+000	 1.988752910114585e+000	-8.392453879736724e+000
1	 1.093397733856419e+000	 2.000711263561638e+000	-8.861950873945629e+000
1	 1.071700666331588e+000	 2.012416942507187e+000	-9.364418959747368e+000
1	 1.049913521741047e+000	 2.023869051773110e+000	-9.899374570504209e+000
1	 1.028040628929428e+000	 2.035066792406040e+000	-1.046634343426513e+001
1	 1.006086318499684e+000	 2.046009461366154e+000	-1.106486233580000e+001
1	 9.840549202320906e-001	 2.056696451133809e+000	-1.169448081845450e+001
1	 9.619507605305493e-001	 2.067127249235484e+000	-1.235476282292451e+001
1	 9.397781598990115e-001	 2.077301437690591e+000	-1.304528826026552e+001
1	 9.175414304507735e-001	 2.087218692380858e+000	-1.376565451668434e+001
1	 8.952448734532940e-001	 2.096878782344030e+000	-1.451547788788144e+001
1	 1.128040081844989e+000	 2.012010933646574e+000	-8.043466465427350e+000
1	 1.106184777486618e+000	 2.024109137380973e+000	-8.512779659558085e+000
1	 1.084233967576464e+000	 2.035951711641759e+000	-9.018202151918013e+000
1	 1.062192027169320e+000	 2.047537750781894e+000	-9.559149929786496e+000
1	 1.040063335734701e+000	 2.058866446504426e+000	-1.013504604728813e+001
1	 1.017852274521003e+000	 2.069937087547630e+000	-1.074532261822829e+001
1	 9.955632239443272e-001	 2.080749059287053e+000	-1.138942274815443e+001
1	 9.732005610049137e-001	 2.091301843255902e+000	-1.206680240227628e+001
1	 9.507686567340532e-001	 2.101595016585397e+000	-1.277693220610688e+001
1	 9.282718736742566e-001	 2.111628251366767e+000	-1.351929917592762e+001
1	 9.057145633953535e-001	 2.121401313936701e+000	-1.429340837641869e+001
1	 1.141079763854727e+000	 2.035268957178629e+000	-7.642325935860635e+000
1	 1.118971821116124e+000	 2.047507011200339e+000	-8.109706620005248e+000
1	 1.096767268820617e+000	 2.059486480776334e+000	-8.616386902912417e+000
1	 1.074470532596845e+000	 2.071206449790665e+000	-9.161659943090099e+000
1	 1.052086042539205e+000	 2.082666100602788e+000	-9.744823515153490e+000
1	 1.029618230541540e+000	 2.093864713729079e+000	-1.036518227958728e+001
1	 1.007071527655773e+000	 2.104801667440268e+000	-1.102204999082340e+001
1	 9.844503614784818e-001	 2.115476437276296e+000	-1.171475163970838e+001
1	 9.617591535682968e-001	 2.125888595480185e+000	-1.244262552668270e+001
1	 9.390023168969391e-001	 2.136037810352666e+000	-1.320502526224336e+001
1	 9.161842533366131e-001	 2.145923845529372e+000	-1.400132169152133e+001
1	 8.114873539120182e-001	 1.900698529602767e+000	-1.382666524870535e+001
1	 7.912234369493598e-001	 1.909222869577757e+000	-1.432276469664117e+001
1	 7.709130368854968e-001	 1.917513867912702e+000	-1.483080621319978e+001
1	 7.505600127467703e-001	 1.925571565595462e+000	-1.534734638115318e+001
1	 7.301682051371443e-001	 1.933396084890728e+000	-1.586897384189756e+001
1	 7.097414342048215e-001	 1.940987628381445e+000	-1.639231543019344e+001
1	 6.892834976536051e-001	 1.948346477952993e+000	-1.691404212521156e+001
1	 6.687981688007214e-001	 1.955472993722270e+000	-1.743087480923323e+001
1	 6.482891946827237e-001	 1.962367612913845e+000	-1.793958982601887e+001
1	 6.277602942109746e-001	 1.969030848685419e+000	-1.843702433152628e+001
1	 6.072151563781101e-001	 1.975463288904845e+000	-1.892008143033738e+001
1	 8.219570438532781e-001	 1.925221061195408e+000	-1.414766565190149e+001
1	 8.014316848281604e-001	 1.933855380945222e+000	-1.468594090461847e+001
1	 7.808592429837711e-001	 1.942253348515646e+000	-1.523852400092247e+001
1	 7.602436271350281e-001	 1.950415005423360e+000	-1.580194578255227e+001
1	 7.395887274367915e-001	 1.958340475510496e+000	-1.637276583618882e+001
1	 7.188984133242422e-001	 1.966029963973694e+000	-1.694757882817270e+001
1	 6.981765314985874e-001	 1.973483756335180e+000	-1.752302065610990e+001
1	 6.774269039598260e-001	 1.980702217358025e+000	-1.809577440827819e+001
1	 6.566533260882138e-001	 1.987685789907810e+000	-1.866257612241670e+001
1	 6.358595647759500e-001	 1.994434993762919e+000	-1.922022033616436e+001
1	 6.150493566104991e-001	 2.000950424375790e+000	-1.976556542209831e+001
1	 8.324267337953374e-001	 1.949743592788055e+000	-1.440266885626789e+001
1	 8.116399327077611e-001	 1.958487892312784e+000	-1.498126995904142e+001
1	 7.908054490828439e-001	 1.966992829118775e+000	-1.557638549194914e+001
1	 7.699272415240813e-001	 1.975258445251525e+000	-1.618457754694732e+001
1	 7.490092497372286e-001	 1.983284866130609e+000	-1.680243406513085e+001
1	 7.280553924444432e-001	 1.991072299566360e+000	-1.742657526638135e+001
1	 7.070695653443357e-001	 1.998621034717844e+000	-1.805365989779982e+001
1	 6.860556391196770e-001	 2.005931440994312e+000	-1.868039129157640e+001
1	 6.650174574944245e-001	 2.013003966902344e+000	-1.930352322363010e+001
1	 6.439588353416124e-001	 2.019839138841012e+000	-1.991986556503191e+001
1	 6.228835568435334e-001	 2.026437559847334e+000	-2.052628971892063e+001
1	 8.428964237379969e-001	 1.974266124380708e+000	-1.459108180832194e+001
1	 8.218481805879621e-001	 1.983120403680432e+000	-1.520811196947598e+001
1	 8.007516551825158e-001	 1.991732309722067e+000	-1.584373288584598e+001
1	 7.796108559137310e-001	 2.000101885079929e+000	-1.649459272163537e+001
1	 7.584297720382563e-001	 2.008229256751030e+000	-1.715736300442752e+001
1	 7.372123715652267e-001	 2.016114635159398e+000	-1.782874504692301e+001
1	 7.159625991906543e-001	 2.023758313100938e+000	-1.850547619063950e+001
1	 6.946843742800806e-001	 2.031160664631070e+000	-1.918433586215085e+001
1	 6.733815889011646e-001	 2.038322143897384e+000	-1.986215143311874e+001
1	 6.520581059077746e-001	 2.045243283919630e+000	-2.053580387604607e+001
1	 6.307177570770309e-001	 2.051924695319412e+000	-2.120223320837359e+001
1	 8.533661136810564e-001	 1.998788655973366e+000	-1.471234055855121e+001
1	 8.320564284685621e-001	 2.007752915048153e+000	-1.536585844797146e+001
1	 8.106978612825863e-001	 2.016471790325503e+000	-1.603994066359173e+001
1	 7.892944703037772e-001	 2.024945324908542e+000	-1.673137420112502e+001
1	 7.678502943396766e-001	 2.033173647371722e+000	-1.743696733650251e+001
1	 7.463693506863949e-001	 2.041156970752760e+000	-1.815355593895249e+001
1	 7.248556330373465e-001	 2.048895591484403e+000	-1.887800961047712e+001
1	 7.033131094408428e-001	 2.056389888268241e+000	-1.960723764240898e+001
1	 6.817457203082428e-001	 2.063640320892865e+000	-2.033819478038636e+001
1	 6.601573764742492e-001	 2.070647428998710e+000	-2.106788678975931e+001
1	 6.385519573108083e-001	 2.077411830791955e+000	-2.179337581411040e+001
1	 8.638358036243158e-001	 2.023311187566027e+000	-1.476590849771279e+001
1	 8.422646763493622e-001	 2.032385426415939e+000	-1.545393040607003e+001
1	 8.206440673828561e-001	 2.041211270929060e+000	-1.616441363132421e+001
1	 7.989780846940207e-001	 2.049788764737333e+000	-1.689433479719590e+001
1	 7.772708166412898e-001	 2.058118037992645e+000	-1.764069011997227e+001
1	 7.555263298077501e-001	 2.066199306346401e+000	-1.840050151417200e+001
1	 7.337486668842164e-001	 2.074032869868189e+000	-1.917082253027984e+001
1	 7.119418446017694e-001	 2.081619111905766e+000	-1.994874411550799e+001
1	 6.901098517154681e-001	 2.088958497888726e+000	-2.073140018918268e+001
1	 6.682566470408484e-001	 2.096051574078183e+000	-2.151597302500372e+001
1	 6.463861575446830e-001	 2.102898966264897e+000	-2.229969843308171e+001
1	 8.743054935675751e-001	 2.047833719158692e+000	-1.475127471985353e+001
1	 8.524729242301624e-001	 2.057017937783778e+000	-1.547177658854488e+001
1	 8.305902734831250e-001	 2.065950751532719e+000	-1.621658510464218e+001
1	 8.086616990842614e-001	 2.074632204566274e+000	-1.698291544762237e+001
1	 7.866913389428977e-001	 2.083062428613760e+000	-1.776800109064055e+001
1	 7.646833089290944e-001	 2.091241641940274e+000	-1.856909960192198e+001
1	 7.426417007310678e-001	 2.099170148252240e+000	-1.938349828510920e+001
1	 7.205705797626665e-001	 2.106848335543585e+000	-2.020851964996730e+001
1	 6.984739831226497e-001	 2.114276674884903e+000	-2.104152670546855e+001
1	 6.763559176073851e-001	 2.121455719157986e+000	-2.187992806789901e+001
1	 6.542203577784720e-001	 2.128386101738172e+000	-2.272118287725976e+001
1	 8.847751835106342e-001	 2.072356250751360e+000	-1.466795250155392e+001
1	 8.626811721107622e-001	 2.081650449151659e+000	-1.541887183254081e+001
1	 8.405364795831936e-001	 2.090690232136461e+000	-1.619591522181962e+001
1	 8.183453134743008e-001	 2.099475644395333e+000	-1.699658355207644e+001
1	 7.961118612443011e-001	 2.108006819235029e+000	-1.781839508312116e+001
1	 7.738402880502302e-001	 2.116283977534334e+000	-1.865889085395745e+001
1	 7.515347345777037e-001	 2.124307426636505e+000	-1.951563993188151e+001
1	 7.291993149233398e-001	 2.132077559181640e+000	-2.038624450063215e+001
1	 7.068381145295957e-001	 2.139594851881333e+000	-2.126834478019584e+001
1	 6.844551881736718e-001	 2.146859864238052e+000	-2.215962377145994e+001
1	 6.620545580119923e-001	 2.153873237211714e+000	-2.305781181950045e+001
1	 8.952448734532940e-001	 2.096878782344030e+000	-1.451547788788144e+001
1	 8.728894199909623e-001	 2.106282960519573e+000	-1.529471554185239e+001
1	 8.504826856828617e-001	 2.115429712740264e+000	-1.610188937538013e+001
1	 8.280289278639385e-001	 2.124319084224482e+000	-1.693483142479705e+001
1	 8.055323835453017e-001	 2.132951209856415e+000	-1.779139056321283e+001
1	 7.829972671709593e-001	 2.141326313128531e+000	-1.866943740993323e+001
1	 7.604277684239289e-001	 2.149444705020930e+000	-1.956686909615468e+001
1	 7.378280500835953e-001	 2.157306782819872e+000	-2.048161387973861e+001
1	 7.152022459361153e-001	 2.164913028877952e+000	-2.141163560241335e+001
1	 6.925544587395210e-001	 2.172264009318316e+000	-2.235493798329947e+001
1	 6.698887582450617e-001	 2.179360372685457e+000	-2.330956874320395e+001
1	 9.057145633953535e-001	 2.121401313936701e+000	-1.429340837641870e+001
1	 8.830976678705623e-001	 2.130915471887508e+000	-1.509883026702143e+001
1	 8.604288917819299e-001	 2.140169193344108e+000	-1.593401675245258e+001
1	 8.377125422529758e-001	 2.149162524053690e+000	-1.679717485458011e+001
1	 8.149529058456995e-001	 2.157895600477876e+000	-1.768652826206530e+001
1	 7.921542462910846e-001	 2.166368648722823e+000	-1.860032165544710e+001
1	 7.693208022695467e-001	 2.174581983405461e+000	-1.953682489889829e+001
1	 7.464567852432394e-001	 2.182536006458223e+000	-2.049433709240640e+001
1	 7.235663773420178e-001	 2.190231205874698e+000	-2.147119047862619e+001
1	 7.006537293047455e-001	 2.197668154398711e+000	-2.246575419915327e+001
1	 6.777229584774968e-001	 2.204847508159331e+000	-2.347643789546665e+001
1	 9.161842533366131e-001	 2.145923845529372e+000	-1.400132169152133e+001
1	 8.933059157493626e-001	 2.155547983255453e+000	-1.483076038279110e+001
1	 8.703750978801976e-001	 2.164908673947971e+000	-1.569182897520828e+001
1	 8.473961566412123e-001	 2.174005963882928e+000	-1.658315176350122e+001
1	 8.243734281452965e-001	 2.182839991099376e+000	-1.750336990399349e+001
1	 8.013112254104073e-001	 2.191410984317160e+000	-1.845114506523795e+001
1	 7.782138361143608e-001	 2.199719261790046e+000	-1.942516295685058e+001
1	 7.550855204020774e-001	 2.207765230096631e+000	-2.042413673140802e+001
1	 7.319305087471113e-001	 2.215549382871506e+000	-2.144681025471050e+001
1	 7.087529998691573e-001	 2.223072299479171e+000	-2.249196124015992e+001
1	 6.855571587091146e-001	 2.230334643633273e+000	-2.355840424344553e+001
1	 6.072151563781101e-001	 1.975463288904845e+000	-1.892008143033738e+001
1	 5.866574382233224e-001	 1.981665594387705e+000	-1.939175659593101e+001
1	 5.660907622939357e-001	 1.987638496108145e+000	-1.985373738003662e+001
1	 5.455187159444396e-001	 1.993382795332379e+000	-2.030109454647884e+001
1	 5.249448500593381e-001	 1.998899362722714e+000	-2.072900661349209e+001
1	 5.043726775313110e-001	 2.004189136910731e+000	-2.113276577080783e+001
1	 4.838056717963329e-001	 2.009253123036070e+000	-2.150778347858774e+001
1	 4.632472654263897e-001	 2.014092391253171e+000	-2.184959574474759e+001
1	 4.427008487803356e-001	 2.018708075208402e+000	-2.215386807806230e+001
1	 4.221697687133255e-001	 2.023101370489906e+000	-2.241640011527229e+001
1	 4.016573273451569e-001	 2.027273533052570e+000	-2.263312992122168e+001
1	 6.150493566104991e-001	 2.000950424375790e+000	-1.976556542209831e+001
1	 5.942264058136259e-001	 2.007232751087749e+000	-2.030152621276956e+001
1	 5.733943816702277e-001	 2.013282714303859e+000	-2.082936942415445e+001
1	 5.525569178183158e-001	 2.019101125628146e+000	-2.134360917744284e+001
1	 5.317176109553852e-001	 2.024688866956063e+000	-2.183886799846188e+001
1	 5.108800192969422e-001	 2.030046889029278e+000	-2.230988377910916e+001
1	 4.900476610927235e-001	 2.035176209955582e+000	-2.275151639408432e+001
1	 4.692240132012560e-001	 2.040077913696388e+000	-2.315875396806056e+001
1	 4.484125097233062e-001	 2.044753148524193e+000	-2.352671878939061e+001
1	 4.276165406946642e-001	 2.049203125452439e+000	-2.385067286737481e+001
1	 4.068394508385930e-001	 2.053429116640149e+000	-2.412602313103600e+001
1	 6.228835568435334e-001	 2.026437559847334e+000	-2.052628971892063e+001
1	 6.017953734045254e-001	 2.032799907788383e+000	-2.112561870972027e+001
1	 5.806980010470585e-001	 2.038926932500136e+000	-2.171871203441930e+001
1	 5.595951196926687e-001	 2.044819455924433e+000	-2.229962129629747e+001
1	 5.384903718518437e-001	 2.050478371189883e+000	-2.286250623009552e+001
1	 5.173873610629187e-001	 2.055904641148230e+000	-2.340164258185525e+001
1	 4.962896503893941e-001	 2.061099296875428e+000	-2.391142962176220e+001
1	 4.752007609763390e-001	 2.066063436139859e+000	-2.438639728387430e+001
1	 4.541241706664351e-001	 2.070798221840154e+000	-2.482121292765199e+001
1	 4.330633126761093e-001	 2.075304880415053e+000	-2.521068771723834e+001
1	 4.120215743320919e-001	 2.079584700227718e+000	-2.554978261544042e+001
1	 6.307177570770309e-001	 2.051924695319412e+000	-2.120223320837359e+001
1	 6.093643409958433e-001	 2.058367064489541e+000	-2.186415905699016e+001
1	 5.880016204242572e-001	 2.064571150696912e+000	-2.252204596753035e+001
1	 5.666333215673344e-001	 2.070537786221184e+000	-2.316957360173676e+001
1	 5.452631327485580e-001	 2.076267875424119e+000	-2.380052857992605e+001
1	 5.238947028290932e-001	 2.081762393267542e+000	-2.440881315623129e+001
1	 5.025316396862062e-001	 2.087022383795570e+000	-2.498845350872526e+001
1	 4.811775087515102e-001	 2.092048958583554e+000	-2.553360763717254e+001
1	 4.598358316096041e-001	 2.096843295156265e+000	-2.603857286227584e+001
1	 4.385100846575524e-001	 2.101406635377738e+000	-2.649779292138692e+001
1	 4.172036978255548e-001	 2.105740283815280e+000	-2.690586465673789e+001
1	 6.385519573108083e-001	 2.077411830791955e+000	-2.179337581411040e+001
1	 6.169333085874019e-001	 2.083934221191156e+000	-2.251726609189623e+001
1	 5.953052398016532e-001	 2.090215368894127e+000	-2.323963820210756e+001
1	 5.736715234421498e-001	 2.096256116518343e+000	-2.395388706710810e+001
1	 5.520358936453728e-001	 2.102057379658719e+000	-2.465351251776274e+001
1	 5.304020445953191e-001	 2.107620145387170e+000	-2.533212864387945e+001
1	 5.087736289830221e-001	 2.112945470715970e+000	-2.598347274548975e+001
1	 4.871542565266414e-001	 2.118034481027448e+000	-2.660141387671830e+001
1	 4.655474925526936e-001	 2.122888368472507e+000	-2.717996097517131e+001
1	 4.439568566388837e-001	 2.127508390340486e+000	-2.771327057094294e+001
1	 4.223858213188826e-001	 2.131895867402835e+000	-2.819565407048756e+001
1	 6.463861575446830e-001	 2.102898966264897e+000	-2.229969843308171e+001
1	 6.245022761790250e-001	 2.109501377893164e+000	-2.308505289051839e+001
1	 6.026088591790755e-001	 2.115859587091717e+000	-2.387174277364421e+001
1	 5.807097253169511e-001	 2.121974446815848e+000	-2.465296225696705e+001
1	 5.588086545421321e-001	 2.127846883893632e+000	-2.542200751767520e+001
1	 5.369093863614490e-001	 2.133477897507068e+000	-2.617228664373181e+001
1	 5.150156182797036e-001	 2.138868557636592e+000	-2.689732913277292e+001
1	 4.931310043016035e-001	 2.144020003471510e+000	-2.759079497268411e+001
1	 4.712591534955852e-001	 2.148933441788862e+000	-2.824648329597094e+001
1	 4.494036286199950e-001	 2.153610145303287e+000	-2.885834060124908e+001
1	 4.275679448119763e-001	 2.158051450990382e+000	-2.942046853638923e+001
1	 6.542203577784720e-001	 2.128386101738172e+000	-2.272118287725976e+001
1	 6.320712437705345e-001	 2.135068534595499e+000	-2.356762711264963e+001
1	 6.099124785563529e-001	 2.141503805289619e+000	-2.441860154946663e+001
1	 5.877479271915753e-001	 2.147692777113644e+000	-2.526718054904022e+001
1	 5.655814154386809e-001	 2.153636388128806e+000	-2.610653673421889e+001
1	 5.434167281273361e-001	 2.159335649627190e+000	-2.692995134010638e+001
1	 5.212576075761130e-001	 2.164791644557400e+000	-2.773082414949055e+001
1	 4.991077520762680e-001	 2.170005525915713e+000	-2.850268300309885e+001
1	 4.769708144381596e-001	 2.174978515105310e+000	-2.923919287608411e+001
1	 4.548504006007771e-001	 2.179711900266135e+000	-2.993416451340404e+001
1	 4.327500683047372e-001	 2.184207034577925e+000	-3.058156261799678e+001
1	 6.620545580119923e-001	 2.153873237211714e+000	-2.305781181950045e+001
1	 6.396402113617532e-001	 2.160635691298096e+000	-2.396509132225475e+001
1	 6.172160979333151e-001	 2.167148023487771e+000	-2.488044494867415e+001
1	 5.947861290658582e-001	 2.173411107411672e+000	-2.579690526942930e+001
1	 5.723541763348633e-001	 2.179425892364188e+000	-2.670759855965094e+001
1	 5.499240698928331e-001	 2.185193401747493e+000	-2.760575547970894e+001
1	 5.274995968721120e-001	 2.190714731478355e+000	-2.848472133842884e+001
1	 5.050844998505067e-001	 2.195991048360028e+000	-2.933796592825880e+001
1	 4.826824753802985e-001	 2.201023588421832e+000	-3.015909292319694e+001
1	 4.602971725811209e-001	 2.205813655229016e+000	-3.094184883157138e+001
1	 4.379321917970661e-001	 2.210362618165464e+000	-3.168013149703606e+001
1	 6.698887582450617e-001	 2.179360372685457e+000	-2.330956874320395e+001
1	 6.472091789525045e-001	 2.186202848000890e+000	-2.427754328544327e+001
1	 6.245197173097914e-001	 2.192792241686111e+000	-2.525749261156114e+001
1	 6.018243309396364e-001	 2.199129437709874e+000	-2.624248274815945e+001
1	 5.791269372305237e-001	 2.205215396599727e+000	-2.722566807187705e+001
1	 5.564314116577933e-001	 2.211051153867931e+000	-2.820030220991292e+001
1	 5.337415861675627e-001	 2.216637818399421e+000	-2.915974852451707e+001
1	 5.110612476241907e-001	 2.221976570804427e+000	-3.009749017046340e+001
1	 4.883941363218828e-001	 2.227068661738413e+000	-3.100713971582796e+001
1	 4.657439445609177e-001	 2.231915410191926e+000	-3.188244831769431e+001
1	 4.431143152888640e-001	 2.236518201752999e+000	-3.271731444569096e+001
1	 6.777229584774968e-001	 2.204847508159331e+000	-2.347643789546665e+001
1	 6.547781465426102e-001	 2.211770004703814e+000	-2.450507624777498e+001
1	 6.318233366856110e-001	 2.218436459884577e+000	-2.554995402260941e+001
1	 6.088625328127469e-001	 2.224847768008192e+000	-2.660424330151777e+001
1	 5.858996981255067e-001	 2.231004900835369e+000	-2.766119838197363e+001
1	 5.629387534220697e-001	 2.236908905988459e+000	-2.871416678953944e+001
1	 5.399835754623272e-001	 2.242560905320560e+000	-2.975659987924632e+001
1	 5.170379953971918e-001	 2.247962093248883e+000	-3.078206301482530e+001
1	 4.941057972627936e-001	 2.253113735055029e+000	-3.178424531573766e+001
1	 4.711907165400582e-001	 2.258017165154852e+000	-3.275696896324578e+001
1	 4.482964387800322e-001	 2.262673785340533e+000	-3.369419805805995e+001
1	 6.855571587091146e-001	 2.230334643633273e+000	-2.355840424344553e+001
1	 6.623471141318938e-001	 2.237337161406804e+000	-2.464777919255358e+001
1	 6.391269560606028e-001	 2.244080678083104e+000	-2.575802909076597e+001
1	 6.159007346850257e-001	 2.250566098306568e+000	-2.688250214703702e+001
1	 5.926724590196567e-001	 2.256794405071064e+000	-2.801462188931594e+001
1	 5.694460951855147e-001	 2.262766658109031e+000	-2.914789818233870e+001
1	 5.462255647562676e-001	 2.268483992241738e+000	-3.027593784354136e+001
1	 5.230147431693810e-001	 2.273947615693367e+000	-3.139245484547046e+001
1	 4.998174582029119e-001	 2.279158808371665e+000	-3.249128009436155e+001
1	 4.766374885184339e-001	 2.284118920117789e+000	-3.356637077584927e+001
1	 4.534785622704716e-001	 2.288829368928065e+000	-3.461181926004828e+001
1	 4.016573273451569e-001	 2.027273533052570e+000	-2.263312992122168e+001
1	 3.811698517285161e-001	 2.031225301503230e+000	-2.279347953594927e+001
1	 3.607074675331575e-001	 2.034958690876767e+000	-2.288688126493974e+001
1	 3.402733298862165e-001	 2.038475129610468e+000	-2.290942835666267e+001
1	 3.198705449804655e-001	 2.041776099945052e+000	-2.285737670202017e+001
1	 2.995021691400967e-001	 2.044863136261900e+000	-2.272714757129911e+001
1	 2.791712079452243e-001	 2.047737823409130e+000	-2.251533002119099e+001
1	 2.588806154148092e-001	 2.050401795018658e+000	-2.221868297609017e+001
1	 2.386332932476166e-001	 2.052856731816378e+000	-2.183413698849681e+001
1	 2.184320901207317e-001	 2.055104359927540e+000	-2.135879568393177e+001
1	 1.982798010451052e-001	 2.057146449179369e+000	-2.078993689631769e+001
1	 4.068394508385930e-001	 2.053429116640149e+000	-2.412602313103600e+001
1	 3.860876488384815e-001	 2.057431870223552e+000	-2.434170922778010e+001
1	 3.653612619854609e-001	 2.061213427235205e+000	-2.448669813054324e+001
1	 3.446634861136527e-001	 2.064775234541886e+000	-2.455656651327719e+001
1	 3.239974674914737e-001	 2.068118793507961e+000	-2.454706658530380e+001
1	 3.033663018753617e-001	 2.071245658311171e+000	-2.445412949803173e+001
1	 2.827730336229843e-001	 2.074157434247109e+000	-2.427386838219566e+001
1	 2.622206548656227e-001	 2.076855776024568e+000	-2.400258101967290e+001
1	 2.417121047393329e-001	 2.079342386053916e+000	-2.363675215464472e+001
1	 2.212502686744141e-001	 2.081619012730616e+000	-2.317305544954409e+001
1	 2.008379777426382e-001	 2.083687448715941e+000	-2.260835509186886e+001
1	 4.120215743320919e-001	 2.079584700227718e+000	-2.554978261544042e+001
1	 3.910054459484762e-001	 2.083638438943773e+000	-2.582707242475644e+001
1	 3.700150564377691e-001	 2.087468163593456e+000	-2.603114706325860e+001
1	 3.490536423410803e-001	 2.091075339473030e+000	-2.615710260252896e+001
1	 3.281243900024696e-001	 2.094461487070513e+000	-2.620022156969866e+001
1	 3.072304346106214e-001	 2.097628180360005e+000	-2.615597701750528e+001
1	 2.863748593007571e-001	 2.100577045084578e+000	-2.602003618839047e+001
1	 2.655606943164766e-001	 2.103309757029900e+000	-2.578826377646492e+001
1	 2.447909162311281e-001	 2.105828040290817e+000	-2.545672479196925e+001
1	 2.240684472282249e-001	 2.108133665533004e+000	-2.502168703362520e+001
1	 2.033961544403598e-001	 2.110228448251783e+000	-2.447962317499672e+001
1	 4.172036978255548e-001	 2.105740283815280e+000	-2.690586465673789e+001
1	 3.959232430584104e-001	 2.109845007663906e+000	-2.725110165650031e+001
1	 3.746688508900027e-001	 2.113722899951540e+000	-2.752179234143635e+001
1	 3.534437985684283e-001	 2.117375444403932e+000	-2.771258664643507e+001
1	 3.322513125133900e-001	 2.120804180632748e+000	-2.781832995601606e+001
1	 3.110945673458185e-001	 2.124010702408456e+000	-2.783406783177443e+001
1	 2.899766849784881e-001	 2.126996655921599e+000	-2.775505030038167e+001
1	 2.689007337673182e-001	 2.129763738034729e+000	-2.757673570566479e+001
1	 2.478697277229483e-001	 2.132313694527165e+000	-2.729479412917939e+001
1	 2.268866257821052e-001	 2.134648318334801e+000	-2.690511038454240e+001
1	 2.059543311382028e-001	 2.136769447787005e+000	-2.640378659159846e+001
1	 4.223858213188826e-001	 2.131895867402835e+000	-2.819565407048756e+001
1	 4.008410401681958e-001	 2.136051576383963e+000	-2.861525424407005e+001
1	 3.793226453420824e-001	 2.139977636309478e+000	-2.896012147680104e+001
1	 3.578339547956261e-001	 2.143675549334621e+000	-2.922449260001338e+001
1	 3.363782350241716e-001	 2.147146874194709e+000	-2.940280700702292e+001
1	 3.149587000808950e-001	 2.150393224456572e+000	-2.948971203246000e+001
1	 2.935785106561237e-001	 2.153416266758236e+000	-2.948006786160110e+001
1	 2.722407732180950e-001	 2.156217719039128e+000	-2.936895197284984e+001
1	 2.509485392147394e-001	 2.158799348763049e+000	-2.915166311749226e+001
1	 2.297048043359962e-001	 2.161162971136105e+000	-2.882372484178517e+001
1	 2.085125078360999e-001	 2.163310447321717e+000	-2.838088855732160e+001
1	 4.275679448119763e-001	 2.158051450990382e+000	-2.942046853638923e+001
1	 4.057588372777426e-001	 2.162258145103952e+000	-2.992091685759766e+001
1	 3.839764397939287e-001	 2.166232372667292e+000	-3.034754986650810e+001
1	 3.622241110226025e-001	 2.169975654265129e+000	-3.069422296094188e+001
1	 3.405051575347509e-001	 2.173489567756436e+000	-3.095499937354687e+001
1	 3.188228328157938e-001	 2.176775746504410e+000	-3.112415619794055e+001
1	 2.971803363336101e-001	 2.179835877594552e+000	-3.119618991716654e+001
1	 2.755808126687545e-001	 2.182671700043172e+000	-3.116582143716941e+001
1	 2.540273507064469e-001	 2.185285002998553e+000	-3.102800062904863e+001
1	 2.325229828898389e-001	 2.187677623937013e+000	-3.077791038486252e+001
1	 2.110706845339838e-001	 2.189851446856028e+000	-3.041097019271619e+001
1	 4.327500683047372e-001	 2.184207034577925e+000	-3.058156261799678e+001
1	 4.106766343869625e-001	 2.188464713823888e+000	-3.116940974646552e+001
1	 3.886302342454617e-001	 2.192487109025002e+000	-3.168542511095437e+001
1	 3.666142672492871e-001	 2.196275759195488e+000	-3.212311304801803e+001
1	 3.446320800450644e-001	 2.199832261317972e+000	-3.247618920256893e+001
1	 3.226869655504569e-001	 2.203158268552019e+000	-3.273858719616409e+001
1	 3.007821620108935e-001	 2.206255488430609e+000	-3.290446477272914e+001
1	 2.789208521192439e-001	 2.209125681046935e+000	-3.296820942390987e+001
1	 2.571061621980170e-001	 2.211770657233760e+000	-3.292444349737375e+001
1	 2.353411614435743e-001	 2.214192276737622e+000	-3.276802879246774e+001
1	 2.136288612317871e-001	 2.216392446390048e+000	-3.249407064867644e+001
1	 4.379321917970661e-001	 2.210362618165464e+000	-3.168013149703606e+001
1	 4.155944314957661e-001	 2.214671282543780e+000	-3.236199066914332e+001
1	 3.932840286966023e-001	 2.218741845382629e+000	-3.297503102502813e+001
1	 3.710044234756087e-001	 2.222575864125727e+000	-3.351243497585176e+001
1	 3.487590025550489e-001	 2.226174954879359e+000	-3.396759795364596e+001
1	 3.265510982848270e-001	 2.229540790599451e+000	-3.433413571746416e+001
1	 3.043839876879196e-001	 2.232675099266471e+000	-3.460589111484723e+001
1	 2.822608915695107e-001	 2.235579662050491e+000	-3.477694030021112e+001
1	 2.601849736893954e-001	 2.238256311468759e+000	-3.484159841296748e+001
1	 2.381593399971435e-001	 2.240706929538030e+000	-3.479442471934401e+001
1	 2.161870379294426e-001	 2.242933445923886e+000	-3.463022722297618e+001
1	 4.431143152888640e-001	 2.236518201752999e+000	-3.271731444569096e+001
1	 4.205122286040645e-001	 2.240877851263638e+000	-3.349985854727464e+001
1	 3.979378231472710e-001	 2.244996581740196e+000	-3.421759136789576e+001
1	 3.753945797014967e-001	 2.248875969055882e+000	-3.486340135065969e+001
1	 3.528859250646412e-001	 2.252517648440637e+000	-3.543038994753982e+001
1	 3.304152310188463e-001	 2.255923312646761e+000	-3.591187955948293e+001
1	 3.079858133646348e-001	 2.259094710102200e+000	-3.630142091240673e+001
1	 2.856009310195024e-001	 2.262033643053914e+000	-3.659279987004749e+001
1	 2.632637851805277e-001	 2.264741965703632e+000	-3.678004368588368e+001
1	 2.409775185504876e-001	 2.267221582338333e+000	-3.685742669758768e+001
1	 2.187452146268828e-001	 2.269474445457651e+000	-3.681947546862714e+001
1	 4.482964387800322e-001	 2.262673785340533e+000	-3.369419805805995e+001
1	 4.254300257117685e-001	 2.267084419983474e+000	-3.458415686632455e+001
1	 4.025916175973881e-001	 2.271251318097723e+000	-3.541427331409862e+001
1	 3.797847359268805e-001	 2.275176073985980e+000	-3.617716870972782e+001
1	 3.570128475737776e-001	 2.278860342001849e+000	-3.686567566872235e+001
1	 3.342793637524572e-001	 2.282305834693997e+000	-3.747284668425967e+001
1	 3.115876390409853e-001	 2.285514320937858e+000	-3.799196211680629e+001
1	 2.889409704691662e-001	 2.288487624057277e+000	-3.841653760309975e+001
1	 2.663425966713602e-001	 2.291227619938468e+000	-3.874033088606147e+001
1	 2.437956971035476e-001	 2.293736235138629e+000	-3.895734806850312e+001
1	 2.213033913240406e-001	 2.296015444991454e+000	-3.906184929472155e+001
1	 4.534785622704716e-001	 2.288829368928065e+000	-3.461181926004828e+001
1	 4.303478228187894e-001	 2.293290988703301e+000	-3.561597684306167e+001
1	 4.072454120468742e-001	 2.297506054455230e+000	-3.656619068665505e+001
1	 3.841748921516889e-001	 2.301476178916054e+000	-3.745484072504779e+001
1	 3.611397700823948e-001	 2.305203035563035e+000	-3.827451484144412e+001
1	 3.381434964856022e-001	 2.308688356741214e+000	-3.901801806571091e+001
1	 3.151894647169172e-001	 2.311933931773511e+000	-3.967838117700510e+001
1	 2.922810099184495e-001	 2.314941605060654e+000	-4.024886871080371e+001
1	 2.694214081618384e-001	 2.317713274173349e+000	-4.072298637118622e+001
1	 2.466138756562645e-001	 2.320250887939014e+000	-4.109448785056576e+001
1	 2.238615680208486e-001	 2.322556444525402e+000	-4.135738106036109e+001
1	 1.982798010451052e-001	 2.057146449179369e+000	-2.078993689631769e+001
1	 1.781761623850336e-001	 2.058985072062221e+000	-2.011676247049261e+001
1	 1.581269227520513e-001	 2.060621760190973e+000	-1.932976074623433e+001
1	 1.381347544218765e-001	 2.062058405639229e+000	-1.842810619139288e+001
1	 1.182022727019177e-001	 2.063296937449552e+000	-1.741112207747635e+001
1	 9.833203556797766e-002	 2.064339319933258e+000	-1.627827778552183e+001
1	 7.852654335463237e-002	 2.065187550979181e+000	-1.502918598165616e+001
1	 5.878823849825383e-002	 2.065843660373091e+000	-1.366359967113513e+001
1	 3.911950533160152e-002	 2.066309708129337e+000	-1.218140913960280e+001
1	 1.952266992886609e-002	 2.066587782836232e+000	-1.058263879024465e+001
1	 0.000000000000000e+000	 2.066680000016667e+000	-8.867443885422228e+000
1	 2.008379777426382e-001	 2.083687448715941e+000	-2.260835509186886e+001
1	 1.804749649069134e-001	 2.085549793239212e+000	-2.193131518980701e+001
1	 1.601670529465028e-001	 2.087207597675990e+000	-2.113163902523905e+001
1	 1.399169486144204e-001	 2.088662778511150e+000	-2.020774796414077e+001
1	 1.197273009603743e-001	 2.089917289675494e+000	-1.915823791839094e+001
1	 9.960070096278301e-002	 2.090973120823608e+000	-1.798187728118445e+001
1	 7.953968121516011e-002	 2.091832295620812e+000	-1.667760467287348e+001
1	 5.954671566582075e-002	 2.092496870040883e+000	-1.524452650680627e+001
1	 3.962421940982393e-002	 2.092968930676188e+000	-1.368191438478891e+001
1	 1.977454853201639e-002	 2.093250593061714e+000	-1.198920233182070e+001
1	 0.000000000000000e+000	 2.093344000014533e+000	-1.016598387975745e+001
1	 2.033961544403598e-001	 2.110228448251783e+000	-2.447962317499673e+001
1	 1.827737674290516e-001	 2.112114514415441e+000	-2.381871097479639e+001
1	 1.622071831412844e-001	 2.113793435160225e+000	-2.302791715204519e+001
1	 1.416991428073602e-001	 2.115267151382274e+000	-2.210493337631429e+001
1	 1.212523292192780e-001	 2.116537641900631e+000	-2.104764953077598e+001
1	 1.008693663580642e-001	 2.117606921713150e+000	-1.985415229970262e+001
1	 8.055281907616133e-002	 2.118477040261631e+000	-1.852272350933671e+001
1	 6.030519283382028e-002	 2.119150079707866e+000	-1.705183823237700e+001
1	 4.012893348839152e-002	 2.119628153222235e+000	-1.544016266647781e+001
1	 2.002642713537015e-002	 2.119913403286397e+000	-1.368655179728225e+001
1	 0.000000000000000e+000	 2.120008000011600e+000	-1.179004685659844e+001
1	 2.059543311382028e-001	 2.136769447787005e+000	-2.640378659159846e+001
1	 1.850725699513690e-001	 2.138679235591033e+000	-2.577856233166327e+001
1	 1.642473133363036e-001	 2.140379272643812e+000	-2.501771303360573e+001
1	 1.434813370005900e-001	 2.141871524252748e+000	-2.411822278896509e+001
1	 1.227773574785129e-001	 2.143157994125120e+000	-2.307729555034572e+001
1	 1.021380317536997e-001	 2.144240722602053e+000	-2.189235439347389e+001
1	 8.156595693751645e-002	 2.145121784901822e+000	-2.056104047771523e+001
1	 6.106367000214374e-002	 2.145803289374232e+000	-1.908121171586366e+001
1	 4.063364756721779e-002	 2.146287375767672e+000	-1.745094116426628e+001
1	 2.027830573887649e-002	 2.146576213510476e+000	-1.566851514456549e+001
1	 0.000000000000000e+000	 2.146672000008067e+000	-1.373243110851674e+001
1	 2.085125078360999e-001	 2.163310447321717e+000	-2.838088855732160e+001
1	 1.873713724737861e-001	 2.165243956766109e+000	-2.781050078278297e+001
1	 1.662874435314673e-001	 2.166965110126885e+000	-2.710018786539840e+001
1	 1.452635311940043e-001	 2.168475897122718e+000	-2.624624721311581e+001
1	 1.243023857379628e-001	 2.169778346349123e+000	-2.524521577382390e+001
1	 1.034066971495681e-001	 2.170874523490486e+000	-2.409386999437335e+001
1	 8.257909479910586e-002	 2.171766529541564e+000	-2.278922542523418e+001
1	 6.182214717068246e-002	 2.172456499040166e+000	-2.132853598206227e+001
1	 4.113836164621634e-002	 2.172946598312695e+000	-1.970929287580129e+001
1	 2.053018434248453e-002	 2.173239023734152e+000	-1.792922322325656e+001
1	 0.000000000000000e+000	 2.173336000004134e+000	-1.598628835034358e+001
1	 2.110706845339838e-001	 2.189851446856028e+000	-3.041097019271619e+001
1	 1.896701749962240e-001	 2.191808677940790e+000	-2.991417571432239e+001
1	 1.683275737266829e-001	 2.193550947609579e+000	-2.927454350814017e+001
1	 1.470457253874970e-001	 2.195080269992333e+000	-2.848770402837041e+001
1	 1.258274139975116e-001	 2.196398698572797e+000	-2.754954502858482e+001
1	 1.046753625455481e-001	 2.197508324378621e+000	-2.645621224005491e+001
1	 8.359223266080985e-002	 2.198411274181037e+000	-2.520410964492232e+001
1	 6.258062433932776e-002	 2.199109708705858e+000	-2.378989935584524e+001
1	 4.164307572530071e-002	 2.199605820857498e+000	-2.221050111420418e+001
1	 2.078206294614337e-002	 2.199901833957623e+000	-2.046309141935615e+001
1	 0.000000000000000e+000	 2.200000000000001e+000	-1.854510230177987e+001
1	 2.136288612317871e-001	 2.216392446390048e+000	-3.249407064867645e+001
1	 1.919689775186034e-001	 2.218373399115199e+000	-3.208925330665659e+001
1	 1.703677039218575e-001	 2.220136785092031e+000	-3.154002005298197e+001
1	 1.488279195809624e-001	 2.221684642861741e+000	-3.084135300913840e+001
1	 1.273524422570433e-001	 2.223019050796304e+000	-2.998850748275565e+001
1	 1.059440279415181e-001	 2.224142125266629e+000	-2.897701338752663e+001
1	 8.460537052250881e-002	 2.225056018820421e+000	-2.780267620915168e+001
1	 6.333910150797092e-002	 2.225762918371497e+000	-2.646157752920198e+001
1	 4.214778980438445e-002	 2.226265043402274e+000	-2.495007511934226e+001
1	 2.103394154980214e-002	 2.226564644181086e+000	-2.326480261885246e+001
1	 0.000000000000000e+000	 2.226663999995867e+000	-2.140266880882838e+001
1	 2.161870379294426e-001	 2.242933445923886e+000	-3.463022722297618e+001
1	 1.942677800408450e-001	 2.244938120289457e+000	-3.433541554072440e+001
1	 1.724078341168984e-001	 2.246722622574373e+000	-3.389589355957267e+001
1	 1.506101137742947e-001	 2.248289015731089e+000	-3.330601263299381e+001
1	 1.288774705164417e-001	 2.249639403019801e+000	-3.256041135929565e+001
1	 1.072126933373569e-001	 2.250775926154679e+000	-3.165401776535436e+001
1	 8.561850838408310e-002	 2.251700763459898e+000	-3.058205098948595e+001
1	 6.409757867650329e-002	 2.252416128037270e+000	-2.934002247550718e+001
1	 4.265250388338113e-002	 2.252924265947220e+000	-2.792373669068494e+001
1	 2.128582015340993e-002	 2.253227454404740e+000	-2.632929138086261e+001
1	 0.000000000000000e+000	 2.253327999991934e+000	-2.455307737658310e+001
1	 2.187452146268828e-001	 2.269474445457651e+000	-3.681947546862714e+001
1	 1.965665825628697e-001	 2.271502841463688e+000	-3.665235927410716e+001
1	 1.744479643117127e-001	 2.273308460056742e+000	-3.634147395283956e+001
1	 1.523923079673879e-001	 2.274893388600523e+000	-3.588055664807119e+001
1	 1.304024987755909e-001	 2.276259755243449e+000	-3.526364402098138e+001
1	 1.084813587329429e-001	 2.277409727042943e+000	-3.448507522039975e+001
1	 8.663164624541299e-002	 2.278345508099645e+000	-3.353949430665410e+001
1	 6.485605584481614e-002	 2.279069337703367e+000	-3.242185214166050e+001
1	 4.315721796220429e-002	 2.279583488492531e+000	-3.112740775811472e+001
1	 2.153769875691588e-002	 2.279890264628786e+000	-2.965172922132379e+001
1	 0.000000000000000e+000	 2.279991999988401e+000	-2.799069399783836e+001
1	 2.213033913240406e-001	 2.296015444991454e+000	-3.906184929472154e+001
1	 1.988653850845983e-001	 2.298067562638013e+000	-3.903979538118831e+001
1	 1.764880945062078e-001	 2.299894297539273e+000	-3.887610306564363e+001
1	 1.541745021601364e-001	 2.301497761470192e+000	-3.856391087853867e+001
1	 1.319275270343746e-001	 2.302880107467406e+000	-3.809666739628549e+001
1	 1.097500241281549e-001	 2.304043527931590e+000	-3.746813501907680e+001
1	 8.764478410637891e-002	 2.304990252739845e+000	-3.667239315966134e+001
1	 6.561453301280085e-002	 2.305722547369975e+000	-3.570384085515358e+001
1	 4.366193204076749e-002	 2.306242711038399e+000	-3.455719881479634e+001
1	 2.178957736026910e-002	 2.306553074853420e+000	-3.322751091737136e+001
1	 0.000000000000000e+000	 2.306655999985467e+000	-3.171014517266286e+001
1	 2.238615680208486e-001	 2.322556444525402e+000	-4.135738106036110e+001
1	 2.011641876059516e-001	 2.324632283812556e+000	-4.149744795226744e+001
1	 1.785282247002906e-001	 2.326480135022100e+000	-4.149915281563941e+001
1	 1.559566963524342e-001	 2.328102134340242e+000	-4.135505024910398e+001
1	 1.334525552926767e-001	 2.329500459691833e+000	-4.105801371887990e+001
1	 1.110186895228712e-001	 2.330677328820791e+000	-4.060124016676769e+001
1	 8.865792196686122e-002	 2.331634997380677e+000	-3.997825398771064e+001
1	 6.637301018034868e-002	 2.332375757037283e+000	-3.918291038887646e+001
1	 4.416664611898429e-002	 2.332901933585021e+000	-3.820939814314512e+001
1	 2.204145596341870e-002	 2.333215885078842e+000	-3.705224175075627e+001
1	 0.000000000000000e+000	 2.333319999983334e+000	-3.570630302367079e+001
1	 2.333319999983334e+000	 0.000000000000000e+000	 8.165890387144466e+001
1	 2.333215885078842e+000	 2.204145596341876e-002	 7.923990732123019e+001
1	 2.332901933585021e+000	 4.416664611898443e-002	 7.681577457445687e+001
1	 2.332375757037283e+000	 6.637301018034852e-002	 7.438632152599925e+001
1	 2.331634997380677e+000	 8.865792196686113e-002	 7.195150136842868e+001
1	 2.330677328820791e+000	 1.110186895228712e-001	 6.951140764801563e+001
1	 2.329500459691833e+000	 1.334525552926768e-001	 6.706627717723086e+001
1	 2.328102134340243e+000	 1.559566963524343e-001	 6.461649279352632e+001
1	 2.326480135022099e+000	 1.785282247002904e-001	 6.216258595415339e+001
1	 2.324632283812556e+000	 2.011641876059514e-001	 5.970523915677852e+001
1	 2.322556444525403e+000	 2.238615680208486e-001	 5.724528817568596e+001
1	 2.359987999982150e+000	 0.000000000000000e+000	 8.388580041853182e+001
1	 2.359882695126717e+000	 2.229337235189980e-002	 8.132032874686955e+001
1	 2.359565155415852e+000	 4.467143591148032e-002	 7.875213699145486e+001
1	 2.359032965086723e+000	 6.713160113034042e-002	 7.618121292312311e+001
1	 2.358283739133689e+000	 8.967121181265775e-002	 7.360768604939267e+001
1	 2.357315125180361e+000	 1.122875452358524e-001	 7.103183051585278e+001
1	 2.356124805369035e+000	 1.349778123275370e-001	 6.845406785167884e+001
1	 2.354710498265832e+000	 1.577391579000762e-001	 6.587496954893291e+001
1	 2.353069960779785e+000	 1.805686609440348e-001	 6.329525946530391e+001
1	 2.351200990094103e+000	 2.034633349817420e-001	 6.071581603997222e+001
1	 2.349101425607677e+000	 2.264201284821455e-001	 5.813767431233743e+001
1	 2.386655999981866e+000	 0.000000000000000e+000	 8.612804224989162e+001
1	 2.386549505175481e+000	 2.254528874017717e-002	 8.340626331039232e+001
1	 2.386228377247541e+000	 4.517622570362982e-002	 8.068497260369045e+001
1	 2.385690173136973e+000	 6.789019207989576e-002	 7.796431457375064e+001
1	 2.384932480887448e+000	 9.068450165797154e-002	 7.524457952539288e+001
1	 2.383952921540606e+000	 1.135564009483399e-001	 7.252620639533443e+001
1	 2.382749151046835e+000	 1.365030693619190e-001	 6.980978535614912e+001
1	 2.381318862191934e+000	 1.595216194472729e-001	 6.709606024266331e+001
1	 2.379659786537899e+000	 1.826090971873751e-001	 6.438593079032894e+001
1	 2.377769696375999e+000	 2.057624823571689e-001	 6.168045467516188e+001
1	 2.375646406690224e+000	 2.289786889431086e-001	 5.898084934491327e+001
1	 2.413323999982383e+000	 0.000000000000000e+000	 8.838015944596141e+001
1	 2.413216315225037e+000	 2.279720512830178e-002	 8.549251884099252e+001
1	 2.412891599079999e+000	 4.568101549551953e-002	 8.260936480753225e+001
1	 2.412347381187954e+000	 6.864878302912364e-002	 7.973098413246639e+001
1	 2.411581222641890e+000	 9.169779150292323e-002	 7.685781328111754e+001
1	 2.410590717901479e+000	 1.148252566604571e-001	 7.399044106163430e+001
1	 2.409373496725197e+000	 1.380283263959423e-001	 7.112961111222161e+001
1	 2.407927226118532e+000	 1.613040809941355e-001	 6.827622420058530e+001
1	 2.406249612296439e+000	 1.846495334304123e-001	 6.543134032499847e+001
1	 2.404338402658252e+000	 2.080616297323231e-001	 6.259618060646663e+001
1	 2.402191387773061e+000	 2.315372494038215e-001	 5.977212896156502e+001
1	 2.439991999983599e+000	 0.000000000000000e+000	 9.063692122206885e+001
1	 2.439883125275288e+000	 2.304912151632456e-002	 8.757413016009150e+001
1	 2.439554820913136e+000	 4.618580528723603e-002	 8.452061194428666e+001
1	 2.439004589239588e+000	 6.940737397813324e-002	 8.147678220872707e+001
1	 2.438229964396953e+000	 9.271108134763358e-002	 7.844320978477715e+001
1	 2.437228514262929e+000	 1.160941123723274e-001	 7.542061928196976e+001
1	 2.435997842404091e+000	 1.395535834297265e-001	 7.240989348276261e+001
1	 2.434535590045607e+000	 1.630865425407754e-001	 6.941207554038448e+001
1	 2.432839438055403e+000	 1.866899696732476e-001	 6.642837096903661e+001
1	 2.430907108940868e+000	 2.103607771072954e-001	 6.346014941579323e+001
1	 2.428736368856203e+000	 2.340958098643674e-001	 6.050894620366302e+001
1	 2.466659999985416e+000	 0.000000000000000e+000	 9.289332300154253e+001
1	 2.466549935326134e+000	 2.330103790429640e-002	 8.964634681084333e+001
1	 2.466218042746860e+000	 4.669059507886593e-002	 8.641421568094194e+001
1	 2.465661797291797e+000	 7.016596492703370e-002	 8.319746139575130e+001
1	 2.464878706152569e+000	 9.372437119222317e-002	 7.999677216412727e+001
1	 2.463866310624908e+000	 1.173629680840743e-001	 7.681299513984736e+001
1	 2.462622188083482e+000	 1.410788404633911e-001	 7.364713874759646e+001
1	 2.461143953973147e+000	 1.648690040873041e-001	 7.050037480399860e+001
1	 2.459429263814787e+000	 1.887304059159818e-001	 6.737404042279935e+001
1	 2.457475815223860e+000	 2.126599244821766e-001	 6.426963969339639e+001
1	 2.455281349939667e+000	 2.366543703248298e-001	 6.118884512204504e+001
1	 2.493327999987733e+000	 0.000000000000000e+000	 9.514457431839946e+001
1	 2.493216745377482e+000	 2.355295429226825e-002	 9.170462157509215e+001
1	 2.492881264581083e+000	 4.719538487049581e-002	 8.828587013657160e+001
1	 2.492319005344500e+000	 7.092455587593410e-002	 8.488895600347398e+001
1	 2.491527447908675e+000	 9.473766103681273e-002	 8.151467454502780e+001
1	 2.490504106987368e+000	 1.186318237958211e-001	 7.816398298024393e+001
1	 2.489246533763340e+000	 1.426040974970558e-001	 7.483800265830855e+001
1	 2.487752317901132e+000	 1.666514656338327e-001	 7.153802112703561e+001
1	 2.486019089574589e+000	 1.907708421587160e-001	 6.826549397830928e+001
1	 2.484044521507234e+000	 2.149590718570578e-001	 6.502204645954920e+001
1	 2.481826331023469e+000	 2.392129307852923e-001	 6.180947484037183e+001
1	 2.519995999990449e+000	 0.000000000000000e+000	 9.738608748815516e+001
1	 2.519883555429231e+000	 2.380487068029099e-002	 9.374459971945008e+001
1	 2.519544486415716e+000	 4.770017466221225e-002	 9.013145169916106e+001
1	 2.518976213397622e+000	 7.168314682494363e-002	 8.654737244341075e+001
1	 2.518176189665208e+000	 9.575095088152302e-002	 8.299325300345844e+001
1	 2.517141903350260e+000	 1.199006795076914e-001	 7.947014892972749e+001
1	 2.515870879443631e+000	 1.441293545308398e-001	 7.597928252927918e+001
1	 2.514360681829545e+000	 1.684339271804727e-001	 7.252204490539742e+001
1	 2.512608915334807e+000	 1.928112784015512e-001	 6.909999776802553e+001
1	 2.510613227791000e+000	 2.172582192320301e-001	 6.571487500390734e+001
1	 2.508371312107629e+000	 2.417714912458381e-001	 6.236858399543188e+001
1	 2.546663999993466e+000	 0.000000000000000e+000	 9.961346699045268e+001
1	 2.546550365481286e+000	 2.405678706841556e-002	 9.576210891704851e+001
1	 2.546207708250668e+000	 4.820496445410191e-002	 9.194700948224723e+001
1	 2.545633421451082e+000	 7.244173777417141e-002	 8.816898021764524e+001
1	 2.544824931422100e+000	 9.676424072647459e-002	 8.442899708602299e+001
1	 2.543779699713533e+000	 1.211695352198085e-001	 8.072820294937196e+001
1	 2.542495225124322e+000	 1.456546115648631e-001	 7.706790982564105e+001
1	 2.540969045758369e+000	 1.702163887273352e-001	 7.344960092266264e+001
1	 2.539198741095438e+000	 1.948517146445884e-001	 6.987493243779670e+001
1	 2.537181934075167e+000	 2.195573666071841e-001	 6.634573511194844e+001
1	 2.534916293192159e+000	 2.443300517065509e-001	 6.286401552676410e+001
1	 2.573331999996683e+000	 0.000000000000000e+000	 1.018224995118719e+002
1	 2.573217175533549e+000	 2.430870345669286e-002	 9.775314979594805e+001
1	 2.572870930085849e+000	 4.870975424625130e-002	 9.372875637495778e+001
1	 2.572290629504804e+000	 7.320032872372663e-002	 8.975020346811533e+001
1	 2.571473673179290e+000	 9.777753057178830e-002	 8.581854185770291e+001
1	 2.570417496077141e+000	 1.224383909322958e-001	 8.193499138181615e+001
1	 2.569119570805381e+000	 1.471798685992449e-001	 7.810094321211217e+001
1	 2.567577409687590e+000	 1.719988502745317e-001	 7.431796190480384e+001
1	 2.565788566856480e+000	 1.968921508879285e-001	 7.058778721322516e+001
1	 2.563750640359744e+000	 2.218565139826109e-001	 6.691233565040730e+001
1	 2.561461274277079e+000	 2.468886121675139e-001	 6.329370179025857e+001
1	 2.600000000000000e+000	 0.000000000000000e+000	 1.040091446015204e+002
1	 2.599883985585924e+000	 2.456061984517381e-002	 9.971388706921418e+001
1	 2.599534151921172e+000	 4.921454403874706e-002	 9.547306064284523e+001
1	 2.598947837558706e+000	 7.395891967371834e-002	 9.128761304596893e+001
1	 2.598122414936712e+000	 9.879082041758469e-002	 8.715866043900398e+001
1	 2.597055292441034e+000	 1.237072466452768e-001	 8.308748995698851e+001
1	 2.595743916486777e+000	 1.487051256341049e-001	 7.907556202961465e+001
1	 2.594185773617187e+000	 1.737813118221734e-001	 7.512451247155771e+001
1	 2.592378392617928e+000	 1.989325871316728e-001	 7.123615433119605e+001
1	 2.590319346644739e+000	 2.241556613584015e-001	 6.741247948593193e+001
1	 2.588006255362404e+000	 2.494471726288108e-001	 6.365565997247318e+001
1	 2.322556444525403e+000	 2.238615680208486e-001	 5.724528817568596e+001
1	 2.320250887939015e+000	 2.466138756562646e-001	 5.479872024415649e+001
1	 2.317713274173349e+000	 2.694214081618382e-001	 5.238055018886942e+001
1	 2.314941605060654e+000	 2.922810099184495e-001	 4.999147010284901e+001
1	 2.311933931773511e+000	 3.151894647169170e-001	 4.763229487721259e+001
1	 2.308688356741215e+000	 3.381434964856023e-001	 4.530396327140326e+001
1	 2.305203035563035e+000	 3.611397700823949e-001	 4.300753878435837e+001
1	 2.301476178916054e+000	 3.841748921516888e-001	 4.074421031886935e+001
1	 2.297506054455230e+000	 4.072454120468744e-001	 3.851529263163523e+001
1	 2.293290988703300e+000	 4.303478228187891e-001	 3.632222656179032e+001
1	 2.288829368928065e+000	 4.534785622704716e-001	 3.416657903099385e+001
1	 2.349101425607677e+000	 2.264201284821455e-001	 5.813767431233744e+001
1	 2.346769518335254e+000	 2.494324769776625e-001	 5.557674067037240e+001
1	 2.344202901653812e+000	 2.725006815198410e-001	 5.304785050014398e+001
1	 2.341399554558111e+000	 2.956215504233459e-001	 5.055180092247218e+001
1	 2.338357505947168e+000	 3.187918307202850e-001	 4.808951039877376e+001
1	 2.335074836562539e+000	 3.420082088961281e-001	 4.566201960005658e+001
1	 2.331549680923443e+000	 3.652673116907452e-001	 4.327049207310038e+001
1	 2.327780229256406e+000	 3.885657069651761e-001	 4.091621469634657e+001
1	 2.323764729417043e+000	 4.118999046346667e-001	 3.860059791828294e+001
1	 2.319501488801562e+000	 4.352663576684167e-001	 3.632517577140386e+001
1	 2.314988876245497e+000	 4.586614631563876e-001	 3.409160565515193e+001
1	 2.375646406690224e+000	 2.289786889431086e-001	 5.898084934491327e+001
1	 2.373288148731701e+000	 2.522510782987388e-001	 5.630288235294417e+001
1	 2.370692529134423e+000	 2.755799548775168e-001	 5.366114249388318e+001
1	 2.367857504055670e+000	 2.989620909278955e-001	 5.105650211905971e+001
1	 2.364781080120887e+000	 3.223941967232736e-001	 4.848995292567550e+001
1	 2.361461316383892e+000	 3.458729213062330e-001	 4.596260666924339e+001
1	 2.357896326283851e+000	 3.693948532986258e-001	 4.347569567149551e+001
1	 2.354084279596734e+000	 3.929565217781407e-001	 4.103057311651559e+001
1	 2.350023404378815e+000	 4.165543972218820e-001	 3.862871312812597e+001
1	 2.345711988899768e+000	 4.401848925174142e-001	 3.627171062186473e+001
1	 2.341148383562864e+000	 4.638443640416253e-001	 3.396128092522505e+001
1	 2.402191387773061e+000	 2.315372494038215e-001	 5.977212896156502e+001
1	 2.399806779128375e+000	 2.550696796195738e-001	 5.697475231901957e+001
1	 2.397182156615205e+000	 2.786592282349472e-001	 5.421832225969746e+001
1	 2.394315453553343e+000	 3.023026314321842e-001	 5.150375786024284e+001
1	 2.391204654294674e+000	 3.259965627259768e-001	 4.883209502378347e+001
1	 2.387847796205268e+000	 3.497376337160196e-001	 4.620448707955931e+001
1	 2.384242971644243e+000	 3.735223949061500e-001	 4.362220517829822e+001
1	 2.380388329937012e+000	 3.973473365907070e-001	 4.108663847629282e+001
1	 2.376282079340506e+000	 4.212088898086548e-001	 3.859929410141483e+001
1	 2.371922488997865e+000	 4.451034273659248e-001	 3.616179689461328e+001
1	 2.367307890880099e+000	 4.690272649263335e-001	 3.377588892078336e+001
1	 2.428736368856203e+000	 2.340958098643674e-001	 6.050894620366302e+001
1	 2.426325409525294e+000	 2.578882809402479e-001	 5.759006221215457e+001
1	 2.423671784096173e+000	 2.817385015922139e-001	 5.471737786632136e+001
1	 2.420773403051145e+000	 3.056431719362983e-001	 5.189183169853073e+001
1	 2.417628228468532e+000	 3.295989287284877e-001	 4.911447603559615e+001
1	 2.414234276026662e+000	 3.536023461255909e-001	 4.638647752844334e+001
1	 2.410589617004602e+000	 3.776499365134308e-001	 4.370911747976134e+001
1	 2.406692380277210e+000	 4.017381514029980e-001	 4.108379196275972e+001
1	 2.402540754302072e+000	 4.258633823951184e-001	 3.851201172443527e+001
1	 2.398132989095801e+000	 4.500219622140910e-001	 3.599540186706168e+001
1	 2.393467398197139e+000	 4.742101658106620e-001	 3.353570130195530e+001
1	 2.455281349939667e+000	 2.366543703248298e-001	 6.118884512204504e+001
1	 2.452844039922479e+000	 2.607068822608415e-001	 5.814662263707477e+001
1	 2.450161411577347e+000	 2.848177749493983e-001	 5.515638438950703e+001
1	 2.447231352549091e+000	 3.089837124403242e-001	 5.221906228001009e+001
1	 2.444051802642469e+000	 3.332012947309000e-001	 4.933569847050717e+001
1	 2.440620755848070e+000	 3.574670585350495e-001	 4.650744588587013e+001
1	 2.436936262364911e+000	 3.817774781205810e-001	 4.373556851776171e+001
1	 2.432996430617297e+000	 4.061289662151378e-001	 4.102144152388406e+001
1	 2.428799429263472e+000	 4.305178749814069e-001	 3.836655111616588e+001
1	 2.424343489193518e+000	 4.549404970620558e-001	 3.577249423172616e+001
1	 2.419626905513916e+000	 4.793930666947602e-001	 3.324097798078388e+001
1	 2.481826331023469e+000	 2.392129307852923e-001	 6.180947484037183e+001
1	 2.479362670319949e+000	 2.635254835814351e-001	 5.864233786735824e+001
1	 2.476651039058744e+000	 2.878970483065821e-001	 5.553349925900015e+001
1	 2.473689302047192e+000	 3.123242529443478e-001	 5.248385932843645e+001
1	 2.470475376816489e+000	 3.368036607333074e-001	 4.949442462672035e+001
1	 2.467007235669486e+000	 3.613317709444980e-001	 4.656630845770808e+001
1	 2.463282907725154e+000	 3.859050197277140e-001	 4.370073120115519e+001
1	 2.459300480957246e+000	 4.105197810272501e-001	 4.089902043738161e+001
1	 2.455058104224664e+000	 4.351723675676544e-001	 3.816261086713187e+001
1	 2.450553989290963e+000	 4.598590319099618e-001	 3.549304402054871e+001
1	 2.445786412830364e+000	 4.845759675787774e-001	 3.289196774949929e+001
1	 2.508371312107629e+000	 2.417714912458381e-001	 6.236858399543188e+001
1	 2.505881300717724e+000	 2.663440849021089e-001	 5.907520088915629e+001
1	 2.503140666540384e+000	 2.909763216638469e-001	 5.584695790096104e+001
1	 2.500147251545462e+000	 3.156647934484557e-001	 5.268469988431706e+001
1	 2.496898950990597e+000	 3.404060267358030e-001	 4.958937342765734e+001
1	 2.493393715490908e+000	 3.651964833540393e-001	 4.656202742284149e+001
1	 2.489629553085315e+000	 3.900325613349428e-001	 4.360381344975090e+001
1	 2.485604531297026e+000	 4.149105958394586e-001	 4.071598597044873e+001
1	 2.481316779185606e+000	 4.398268601539944e-001	 3.789990232658779e+001
1	 2.476764489388081e+000	 4.647775667579515e-001	 3.515702253402437e+001
1	 2.471945920146419e+000	 4.897588684628632e-001	 3.248890886889868e+001
1	 2.534916293192159e+000	 2.443300517065509e-001	 6.286401552676411e+001
1	 2.532399931115824e+000	 2.691626862229434e-001	 5.944328875631924e+001
1	 2.529630294022282e+000	 2.940555950212740e-001	 5.609506965417460e+001
1	 2.526605201043915e+000	 3.190053339527335e-001	 5.282012478029396e+001
1	 2.523322525164801e+000	 3.440083927384807e-001	 4.961931745713545e+001
1	 2.519780195312328e+000	 3.690611957637762e-001	 4.649360843131929e+001
1	 2.515976198445378e+000	 3.941601029423806e-001	 4.344405636118344e+001
1	 2.511908581636609e+000	 4.193014106518870e-001	 4.047181812370432e+001
1	 2.507575454146253e+000	 4.444813527405609e-001	 3.757814893448704e+001
1	 2.502974989484819e+000	 4.696961016061680e-001	 3.476440227478111e+001
1	 2.498105427462015e+000	 4.949417693471667e-001	 3.203202961975824e+001
1	 2.561461274277079e+000	 2.468886121675139e-001	 6.329370179025857e+001
1	 2.558918561514267e+000	 2.719812875440190e-001	 5.974475823433686e+001
1	 2.556119921504460e+000	 2.971348683789455e-001	 5.627621394018711e+001
1	 2.553063150542562e+000	 3.223458744572679e-001	 5.288873533568498e+001
1	 2.549746099339105e+000	 3.476107587414337e-001	 4.958308017889571e+001
1	 2.546166675133743e+000	 3.729259081738113e-001	 4.636009835184939e+001
1	 2.542322843805324e+000	 3.982876445501403e-001	 4.322073249176764e+001
1	 2.538212631975964e+000	 4.236922254646593e-001	 4.016601845323280e+001
1	 2.533834129106566e+000	 4.491358453274881e-001	 3.719708559498895e+001
1	 2.529185489581120e+000	 4.746146364547536e-001	 3.431515688528990e+001
1	 2.524264934777087e+000	 5.001246702318375e-001	 3.152154881995848e+001
1	 2.588006255362404e+000	 2.494471726288108e-001	 6.365565997247316e+001
1	 2.585437191913076e+000	 2.747998888654162e-001	 5.997784171235821e+001
1	 2.582609548986936e+000	 3.002141417369426e-001	 5.638883666913920e+001
1	 2.579521100041420e+000	 3.256864149621451e-001	 5.288919025444817e+001
1	 2.576169673513514e+000	 3.512131247447558e-001	 4.947953332724587e+001
1	 2.572553154955151e+000	 3.767906205842475e-001	 4.616058315791568e+001
1	 2.568669489165140e+000	 4.024151861583352e-001	 4.293314424315230e+001
1	 2.564516682315065e+000	 4.280830402778990e-001	 3.979810896512008e+001
1	 2.560092804066504e+000	 4.537903379149099e-001	 3.675645808852136e+001
1	 2.555395989676932e+000	 4.795331713038518e-001	 3.380926108940810e+001
1	 2.550424442091569e+000	 5.053075711170251e-001	 3.095767630978521e+001
1	 2.288829368928065e+000	 4.534785622704716e-001	 3.416657903099386e+001
1	 2.284118920117788e+000	 4.766374885184339e-001	 3.205682636033924e+001
1	 2.279158808371665e+000	 4.998174582029122e-001	 3.000174737534274e+001
1	 2.273947615693367e+000	 5.230147431693808e-001	 2.800255864195012e+001
1	 2.268483992241738e+000	 5.462255647562675e-001	 2.606056006241502e+001
1	 2.262766658109032e+000	 5.694460951855148e-001	 2.417713403774960e+001
1	 2.256794405071063e+000	 5.926724590196567e-001	 2.235374444161149e+001
1	 2.250566098306568e+000	 6.159007346850259e-001	 2.059193540259332e+001
1	 2.244080678083104e+000	 6.391269560606027e-001	 1.889332989227511e+001
1	 2.237337161406804e+000	 6.623471141318938e-001	 1.725962811681339e+001
1	 2.230334643633273e+000	 6.855571587091147e-001	 1.569260571027459e+001
1	 2.314988876245497e+000	 4.586614631563876e-001	 3.409160565515192e+001
1	 2.310224590735523e+000	 4.820850775934856e-001	 3.190804716006565e+001
1	 2.305207788840002e+000	 5.055299759769892e-001	 2.978292045175186e+001
1	 2.299937036356030e+000	 5.289923875425029e-001	 2.771742966596813e+001
1	 2.294410968014828e+000	 5.524684904413271e-001	 2.571285715201890e+001
1	 2.288628289280320e+000	 5.759544131469154e-001	 2.377056254972116e+001
1	 2.282587778119268e+000	 5.994462359286034e-001	 2.189198168355275e+001
1	 2.276288286740297e+000	 6.229399923922245e-001	 2.007862527124155e+001
1	 2.269728743299059e+000	 6.464316710871186e-001	 1.833207744444048e+001
1	 2.262908153566842e+000	 6.699172171789136e-001	 1.665399407954176e+001
1	 2.255825602559878e+000	 6.933925341873451e-001	 1.504610093710873e+001
1	 2.341148383562864e+000	 4.638443640416253e-001	 3.396128092522506e+001
1	 2.336330261353183e+000	 4.875326666678163e-001	 3.170521845868600e+001
1	 2.331256769308257e+000	 5.112424937503096e-001	 2.951154166865570e+001
1	 2.325926457018605e+000	 5.349700319148381e-001	 2.738141722556706e+001
1	 2.320337943787829e+000	 5.587114161255757e-001	 2.531608364466741e+001
1	 2.314489920451514e+000	 5.824627311074863e-001	 2.331685030208858e+001
1	 2.308381151167378e+000	 6.062200128367058e-001	 2.138509627656643e+001
1	 2.302010475173931e+000	 6.299792500985681e-001	 1.952226901437220e+001
1	 2.295376808514921e+000	 6.537363861127731e-001	 1.772988281539434e+001
1	 2.288479145726790e+000	 6.774873202250676e-001	 1.600951713870222e+001
1	 2.281316561486399e+000	 7.012279096647086e-001	 1.436281472633613e+001
1	 2.367307890880099e+000	 4.690272649263335e-001	 3.377588892078336e+001
1	 2.362435931970694e+000	 4.929802557415794e-001	 3.144893530663867e+001
1	 2.357305749776348e+000	 5.169550115230278e-001	 2.918849366939981e+001
1	 2.351915877681005e+000	 5.409476762865410e-001	 2.699566915846945e+001
1	 2.346264919560646e+000	 5.649543418091653e-001	 2.487163118053611e+001
1	 2.340351551622521e+000	 5.889710490673754e-001	 2.281761237886163e+001
1	 2.334174524215299e+000	 6.129937897441082e-001	 2.083490744936166e+001
1	 2.327732663607379e+000	 6.370185078041980e-001	 1.892487179135888e+001
1	 2.321024873730601e+000	 6.610411011377028e-001	 1.708891999124712e+001
1	 2.314050137886562e+000	 6.850574232704915e-001	 1.532852413767772e+001
1	 2.306807520412753e+000	 7.090632851413388e-001	 1.364521196727177e+001
1	 2.393467398197139e+000	 4.742101658106620e-001	 3.353570130195530e+001
1	 2.388541602587979e+000	 4.984278448149279e-001	 3.113976673984144e+001
1	 2.383354730244194e+000	 5.226675292952986e-001	 2.881462050977174e+001
1	 2.377905298343142e+000	 5.469253206577649e-001	 2.656128312102553e+001
1	 2.372191895333188e+000	 5.711972674922478e-001	 2.438083055982975e+001
1	 2.366213182793248e+000	 5.954793670267320e-001	 2.227439325552236e+001
1	 2.359967897262938e+000	 6.197675666509557e-001	 2.024315489728622e+001
1	 2.353454852040546e+000	 6.440577655092539e-001	 1.828835109966446e+001
1	 2.346672938946006e+000	 6.683458161620447e-001	 1.641126791540167e+001
1	 2.339621130046071e+000	 6.926275263153183e-001	 1.461324019450279e+001
1	 2.332298479338855e+000	 7.168986606173690e-001	 1.289564978876624e+001
1	 2.419626905513916e+000	 4.793930666947602e-001	 3.324097798078388e+001
1	 2.414647273204966e+000	 5.038754338880156e-001	 3.077825718595541e+001
1	 2.409403710711710e+000	 5.283800470672767e-001	 2.839072974392473e+001
1	 2.403894719004927e+000	 5.529029650286648e-001	 2.607930930086242e+001
1	 2.398118871105364e+000	 5.774401931749745e-001	 2.384495503160242e+001
1	 2.392074813963600e+000	 6.019876849857039e-001	 2.168867061590340e+001
1	 2.385761270310199e+000	 6.265413435573921e-001	 1.961150308165349e+001
1	 2.379177040473338e+000	 6.510970232138766e-001	 1.761454151357231e+001
1	 2.372321004161045e+000	 6.756505311859365e-001	 1.569891562626772e+001
1	 2.365192122205227e+000	 7.001976293596834e-001	 1.386579420082086e+001
1	 2.357789438264623e+000	 7.247340360929329e-001	 1.211638338440270e+001
1	 2.445786412830364e+000	 4.845759675787774e-001	 3.289196774949929e+001
1	 2.440752943821578e+000	 5.093230229609954e-001	 3.036492778040317e+001
1	 2.435452691178814e+000	 5.340925648391165e-001	 2.791759437643827e+001
1	 2.429884139666275e+000	 5.588806093993936e-001	 2.555075295545091e+001
1	 2.424045846877084e+000	 5.836831188574979e-001	 2.326522337151953e+001
1	 2.417936445133483e+000	 6.084960029444394e-001	 2.106185892411996e+001
1	 2.411554643356989e+000	 6.333151204635623e-001	 1.894154525316264e+001
1	 2.404899228905664e+000	 6.581362809182071e-001	 1.690519911881219e+001
1	 2.397969069375629e+000	 6.829552462095149e-001	 1.495376706526611e+001
1	 2.390763114363941e+000	 7.077677324037210e-001	 1.308822396794879e+001
1	 2.383280397189971e+000	 7.325694115681636e-001	 1.130957146386496e+001
1	 2.471945920146419e+000	 4.897588684628632e-001	 3.248890886889868e+001
1	 2.466858614437743e+000	 5.147706120340211e-001	 2.990027759882563e+001
1	 2.461501671645428e+000	 5.398050826109729e-001	 2.739595469043205e+001
1	 2.455873560327097e+000	 5.648582537701059e-001	 2.497657678948467e+001
1	 2.449972822648255e+000	 5.899260445399690e-001	 2.264280276419617e+001
1	 2.443798076302805e+000	 6.150043209030871e-001	 2.039531276970083e+001
1	 2.437348016403213e+000	 6.400888973696106e-001	 1.823480721985016e+001
1	 2.430621417337429e+000	 6.651755386223857e-001	 1.616200566560777e+001
1	 2.423617134589663e+000	 6.902599612329167e-001	 1.417764557954716e+001
1	 2.416334106522128e+000	 7.153378354475658e-001	 1.228248104619043e+001
1	 2.408771356114817e+000	 7.404047870431946e-001	 1.047728135816907e+001
1	 2.498105427462015e+000	 4.949417693471667e-001	 3.203202961975824e+001
1	 2.492964285053382e+000	 5.202182011072452e-001	 2.938478481210323e+001
1	 2.487550652111465e+000	 5.455176003830007e-001	 2.682651996081858e+001
1	 2.481862980987305e+000	 5.708358981409557e-001	 2.435770318288794e+001
1	 2.475899798418785e+000	 5.961689702225396e-001	 2.197881150443699e+001
1	 2.469659707471471e+000	 6.215126388617955e-001	 1.969033000254342e+001
1	 2.463141389448778e+000	 6.468626742756822e-001	 1.749275087829946e+001
1	 2.456343605768538e+000	 6.722147963265528e-001	 1.538657246078673e+001
1	 2.449265199803056e+000	 6.975646762562793e-001	 1.337229814180143e+001
1	 2.441905098679697e+000	 7.229079384913518e-001	 1.145043524135061e+001
1	 2.434262315039078e+000	 7.482401625181596e-001	 9.621493804130962e+000
1	 2.524264934777087e+000	 5.001246702318375e-001	 3.152154881995848e+001
1	 2.519069955668423e+000	 5.256657901808217e-001	 2.881890776955865e+001
1	 2.513599632576846e+000	 5.512301181553541e-001	 2.620997006102715e+001
1	 2.507852401646812e+000	 5.768135425120967e-001	 2.369501628028730e+001
1	 2.501826774188584e+000	 6.024118959053616e-001	 2.127432153051473e+001
1	 2.495521338639389e+000	 6.280209568207136e-001	 1.894815467293945e+001
1	 2.488934762493587e+000	 6.536364511819210e-001	 1.671677752528246e+001
1	 2.482065794198899e+000	 6.792540540308492e-001	 1.458044401788184e+001
1	 2.474913265015719e+000	 7.048693912797397e-001	 1.253939930768545e+001
1	 2.467476090836561e+000	 7.304780415352139e-001	 1.059387885041519e+001
1	 2.459753273962669e+000	 7.560755379931917e-001	 8.744107431339257e+000
1	 2.550424442091569e+000	 5.053075711170251e-001	 3.095767630978521e+001
1	 2.545175626282793e+000	 5.311133792549038e-001	 2.820308601549746e+001
1	 2.539648613041488e+000	 5.569426359281883e-001	 2.554695697084720e+001
1	 2.533841822305532e+000	 5.827911868836830e-001	 2.298936395189381e+001
1	 2.527753749957560e+000	 6.086548215885872e-001	 2.053036080154710e+001
1	 2.521382969806465e+000	 6.345292747799887e-001	 1.816997979066675e+001
1	 2.514728135537550e+000	 6.604102280884717e-001	 1.590823096559725e+001
1	 2.507787982628420e+000	 6.862933117354155e-001	 1.374510148259934e+001
1	 2.500561330227559e+000	 7.121741063034355e-001	 1.168055492970147e+001
1	 2.493047082992633e+000	 7.380481445792869e-001	 9.714530636561209e+000
1	 2.485244232885506e+000	 7.639109134684247e-001	 7.846942972992885e+000
1	 2.230334643633273e+000	 6.855571587091147e-001	 1.569260571027459e+001
1	 2.223072299479172e+000	 7.087529998691573e-001	 1.418792204803562e+001
1	 2.215549382871506e+000	 7.319305087471114e-001	 1.274021483863240e+001
1	 2.207765230096631e+000	 7.550855204020772e-001	 1.134981836228720e+001
1	 2.199719261790046e+000	 7.782138361143607e-001	 1.001711441440815e+001
1	 2.191410984317160e+000	 8.013112254104075e-001	 8.742532005616688e+000
1	 2.182839991099376e+000	 8.243734281452965e-001	 7.526546945755624e+000
1	 2.174005963882928e+000	 8.473961566412124e-001	 6.369681310126333e+000
1	 2.164908673947971e+000	 8.703750978801975e-001	 5.272502786472565e+000
1	 2.155547983255453e+000	 8.933059157493628e-001	 4.235623901511167e+000
1	 2.145923845529373e+000	 9.161842533366132e-001	 3.259701126102477e+000
1	 2.255825602559878e+000	 6.933925341873451e-001	 1.504610093710873e+001
1	 2.248480255562493e+000	 7.168534854447088e-001	 1.350386611797629e+001
1	 2.240871357974673e+000	 7.402958948964447e-001	 1.202171512026928e+001
1	 2.232998238497061e+000	 7.637155499996891e-001	 1.059989529255902e+001
1	 2.224860311143484e+000	 7.871082040467171e-001	 9.238699641300615e+000
1	 2.216457076637509e+000	 8.104695782130247e-001	 7.938466659475620e+000
1	 2.207788123753673e+000	 8.337953636636194e-001	 6.699580043859693e+000
1	 2.198853130600829e+000	 8.570812237159357e-001	 5.522468298974361e+000
1	 2.189651865845055e+000	 8.803227960576487e-001	 4.407604226038655e+000
1	 2.180184189869628e+000	 9.035156950175444e-001	 3.355504295502288e+000
1	 2.170450055869658e+000	 9.266555138874861e-001	 2.366727902021874e+000
1	 2.281316561486399e+000	 7.012279096647086e-001	 1.436281472633613e+001
1	 2.273888211645736e+000	 7.249539710193941e-001	 1.278507332031092e+001
1	 2.266193333077769e+000	 7.486612810449148e-001	 1.127055394198755e+001
1	 2.258231246897426e+000	 7.723455795964405e-001	 9.819422592701347e+000
1	 2.250001360496865e+000	 7.960025719782181e-001	 8.431888084311749e+000
1	 2.241503168957809e+000	 8.196279310147910e-001	 7.108201974433242e+000
1	 2.232736256407929e+000	 8.432172991810966e-001	 5.848658396299936e+000
1	 2.223700297318700e+000	 8.667662907898179e-001	 4.653593781205709e+000
1	 2.214395057742118e+000	 8.902704942342625e-001	 3.523386471699460e+000
1	 2.204820396483794e+000	 9.137254742848917e-001	 2.458456223966808e+000
1	 2.194976266209943e+000	 9.371267744375259e-001	 1.459263598090033e+000
1	 2.306807520412753e+000	 7.090632851413388e-001	 1.364521196727177e+001
1	 2.299296167728821e+000	 7.330544565933477e-001	 1.203412711758539e+001
1	 2.291515308180721e+000	 7.570266671926574e-001	 1.048940829167905e+001
1	 2.283464255297661e+000	 7.809756091924723e-001	 9.011145548098750e+000
1	 2.275142409850133e+000	 8.048969399090080e-001	 7.599467939322575e+000
1	 2.266549261278012e+000	 8.287862838158566e-001	 6.254543532007022e+000
1	 2.257684389062107e+000	 8.526392346978825e-001	 4.976579329220940e+000
1	 2.248547464036510e+000	 8.764513578630184e-001	 3.765821092559722e+000
1	 2.239138249639141e+000	 9.002181924102024e-001	 2.622553062251642e+000
1	 2.229456603097937e+000	 9.239352535515704e-001	 1.547097573599984e+000
1	 2.219502476550226e+000	 9.475980349868982e-001	 5.398145683478813e-001
1	 2.332298479338855e+000	 7.168986606173690e-001	 1.289564978876624e+001
1	 2.324704123811673e+000	 7.411549421667038e-001	 1.125349802807626e+001
1	 2.316837283283455e+000	 7.653920533398096e-001	 9.680838124209117e+000
1	 2.308697263697703e+000	 7.896056387879249e-001	 8.177689425267761e+000
1	 2.300283459203230e+000	 8.137913078392319e-001	 6.744105507377582e+000
1	 2.291595353598070e+000	 8.379446366163708e-001	 5.380174258809837e+000
1	 2.282632521716166e+000	 8.620611702141319e-001	 4.086017874772514e+000
1	 2.273394630754231e+000	 8.861364249356956e-001	 2.861792760779627e+000
1	 2.263881441536102e+000	 9.101658905856304e-001	 1.707689342708782e+000
1	 2.254092809712048e+000	 9.341450328177450e-001	 6.239317818675915e-001
1	 2.244028686890507e+000	 9.580692955357705e-001	-3.892224063891441e-001
1	 2.357789438264623e+000	 7.247340360929329e-001	 1.211638338440270e+001
1	 2.350112079894210e+000	 7.492554277395965e-001	 1.044554973120807e+001
1	 2.342159258385902e+000	 7.737574394865083e-001	 8.847292687859426e+000
1	 2.333930272097482e+000	 7.982356683829374e-001	 7.321565959705121e+000
1	 2.325424508556097e+000	 8.226856757690343e-001	 5.868351783942137e+000
1	 2.316641445917932e+000	 8.471029894164828e-001	 4.487661056894140e+000
1	 2.307580654370066e+000	 8.714831057299988e-001	 3.179533381944337e+000
1	 2.298241797471829e+000	 8.958214920080092e-001	 1.944037036118487e+000
1	 2.288624633432979e+000	 9.201135887607101e-001	 7.812688534914017e-001
1	 2.278729016326116e+000	 9.443548120835820e-001	-3.086459762231872e-001
1	 2.268554897230787e+000	 9.685405560843096e-001	-1.325554195341829e+000
1	 2.383280397189971e+000	 7.325694115681636e-001	 1.130957146386496e+001
1	 2.375520035976356e+000	 7.573559133121597e-001	 9.612544781158967e+000
1	 2.367481233487989e+000	 7.821228256328895e-001	 7.991116444774924e+000
1	 2.359163280496938e+000	 8.068656979776510e-001	 6.445179427381937e+000
1	 2.350565557908681e+000	 8.315800436985599e-001	 4.974648625297712e+000
1	 2.341687538237552e+000	 8.562613422163423e-001	 3.579461008597560e+000
1	 2.332528787023769e+000	 8.809050412456384e-001	 2.259575703153859e+000
1	 2.323088964189278e+000	 9.055065590801182e-001	 1.014974002753796e+000
1	 2.313367825329754e+000	 9.300612869356039e-001	-1.543406904060587e-001
1	 2.303365222940131e+000	 9.545645913492464e-001	-1.248342998385546e+000
1	 2.293081107571061e+000	 9.790118166326809e-001	-2.266985774695487e+000
1	 2.408771356114817e+000	 7.404047870431946e-001	 1.047728135816907e+001
1	 2.400927992058032e+000	 7.654563988845280e-001	 8.756649957678789e+000
1	 2.392803208589645e+000	 7.904882117790897e-001	 7.114554615490047e+000
1	 2.384396288896006e+000	 8.154957275722057e-001	 5.550832330726213e+000
1	 2.375706607260921e+000	 8.404744116279526e-001	 4.065334523400009e+000
1	 2.366733630556880e+000	 8.654196950160988e-001	 2.657927187409576e+000
1	 2.357476919677233e+000	 8.903269767612047e-001	 1.328490988014710e+000
1	 2.347936130906541e+000	 9.151916261521809e-001	 7.692130215541597e-002
1	 2.338111017226406e+000	 9.400089851104752e-001	-1.096871799897501e+000
1	 2.328001429554082e+000	 9.647743706149041e-001	-2.192963632936237e+000
1	 2.317607317911332e+000	 9.894830771810523e-001	-3.211415036487404e+000
1	 2.434262315039078e+000	 7.482401625181596e-001	 9.621493804130962e+000
1	 2.426335948139160e+000	 7.735568844568357e-001	 7.879941280713174e+000
1	 2.418125183690795e+000	 7.988535979252458e-001	 6.219758375089602e+000
1	 2.409629297294618e+000	 8.241257571667410e-001	 4.640730727352701e+000
1	 2.400847656612762e+000	 8.493687795573580e-001	 3.142650017899839e+000
1	 2.391779722875867e+000	 8.745780478159020e-001	 1.725314103739035e+000
1	 2.382425052330418e+000	 8.997489122768517e-001	 3.885271130799173e-001
1	 2.372783297623596e+000	 9.248766932243574e-001	-8.679005031478404e-001
1	 2.362854209122914e+000	 9.499566832854866e-001	-2.044151964107339e+000
1	 2.352637636167958e+000	 9.749841498807208e-001	-3.140404197352693e+000
1	 2.342133528251599e+000	 9.999543377295894e-001	-4.156827923654205e+000
1	 2.459753273962669e+000	 7.560755379931917e-001	 8.744107431339257e+000
1	 2.451743904219661e+000	 7.816573700292162e-001	 6.984408713221613e+000
1	 2.443447158791370e+000	 8.072189840714945e-001	 5.308789726276452e+000
1	 2.434862305692713e+000	 8.327557867613982e-001	 3.716989227455989e+000
1	 2.425988705964147e+000	 8.582631474869201e-001	 2.208742771648763e+000
1	 2.416825815194466e+000	 8.837364006159015e-001	 7.837828120675398e-001
1	 2.407373184983288e+000	 9.091708477927348e-001	-5.581612260322443e-001
1	 2.397630464340407e+000	 9.345617602968064e-001	-1.817362899317341e+000
1	 2.387597401019257e+000	 9.599043814608010e-001	-2.994098728971240e+000
1	 2.377273842781749e+000	 9.851939291468613e-001	-4.088648212790790e+000
1	 2.366659738591859e+000	 1.010425598278460e+000	-5.101293867578444e+000
1	 2.485244232885506e+000	 7.639109134684247e-001	 7.846942972992885e+000
1	 2.477151860299458e+000	 7.897578556018046e-001	 6.071960574576860e+000
1	 2.468769133891298e+000	 8.155843702179724e-001	 4.383626072542701e+000
1	 2.460095314090223e+000	 8.413858163563166e-001	 2.781635683656198e+000
1	 2.451129755315018e+000	 8.671575154167841e-001	 1.265672333849910e+000
1	 2.441871907512629e+000	 8.928947534162470e-001	-1.645942961992244e-001
1	 2.432321317635803e+000	 9.185927833090084e-001	-1.509507735889860e+000
1	 2.422477631056948e+000	 9.442468273696871e-001	-2.769424700522766e+000
1	 2.412340592915415e+000	 9.698520796365817e-001	-3.944715078706918e+000
1	 2.401910049395445e+000	 9.954037084134922e-001	-5.035761931877674e+000
1	 2.391185948932115e+000	 1.020896858827830e+000	-6.042961506415845e+000
1	 2.145923845529373e+000	 9.161842533366132e-001	 3.259701126102478e+000
1	 2.136037810352666e+000	 9.390023168969390e-001	 2.339461419798829e+000
1	 2.125888595480185e+000	 9.617591535682968e-001	 1.469138408488401e+000
1	 2.115476437276295e+000	 9.844503614784820e-001	 6.491364166432270e-001
1	 2.104801667440269e+000	 1.007071527655773e+000	-1.201003283464165e-001
1	 2.093864713729079e+000	 1.029618230541540e+000	-8.380881811365158e-001
1	 2.082666100602788e+000	 1.052086042539205e+000	-1.504304663737097e+000
1	 2.071206449790665e+000	 1.074470532596845e+000	-2.118189151698484e+000
1	 2.059486480776334e+000	 1.096767268820616e+000	-2.679143661449648e+000
1	 2.047507011200339e+000	 1.118971821116124e+000	-3.186533738795005e+000
1	 2.035268957178629e+000	 1.141079763854727e+000	-3.639689448303369e+000
1	 2.170450055869658e+000	 9.266555138874861e-001	 2.366727902021872e+000
1	 2.160451031138595e+000	 9.497343698461394e-001	 1.435901911785399e+000
1	 2.150185818776248e+000	 9.727512991410006e-001	 5.572785683919593e-001
1	 2.139654657848451e+000	 9.957018495899493e-001	-2.686512743876203e-001
1	 2.128857883845541e+000	 1.018581557784486e+000	-1.041355698069316e+000
1	 2.117795929413422e+000	 1.041385951631064e+000	-1.760262333332748e+000
1	 2.106469325006327e+000	 1.064110552929180e+000	-2.424759078865665e+000
1	 2.094878699459406e+000	 1.086750879983490e+000	-3.034194925520724e+000
1	 2.083024780479415e+000	 1.109302450247109e+000	-3.587880885853212e+000
1	 2.070908395051891e+000	 1.131760782993169e+000	-4.085091028825722e+000
1	 2.058530469763273e+000	 1.154121402011593e+000	-4.525063619178885e+000
1	 2.194976266209943e+000	 9.371267744375259e-001	 1.459263598090033e+000
1	 2.184864251924532e+000	 9.604664227945057e-001	 5.203407379661582e-001
1	 2.174483042072331e+000	 9.837434447128692e-001	-3.640442902629440e-001
1	 2.163832878420640e+000	 1.006953337700580e+000	-1.193330633115390e+000
1	 2.152914100250859e+000	 1.030091587912363e+000	-1.966915974965210e+000
1	 2.141727145097828e+000	 1.053153672719756e+000	-2.684157265290184e+000
1	 2.130272549409948e+000	 1.076135063318328e+000	-3.344371553975646e+000
1	 2.118550949128249e+000	 1.099031227369320e+000	-3.946836934836594e+000
1	 2.106563080182627e+000	 1.121837631672806e+000	-4.490793597234733e+000
1	 2.094309778903607e+000	 1.144549744869444e+000	-4.975444985372715e+000
1	 2.081791982348114e+000	 1.167163040167724e+000	-5.399959064551208e+000
1	 2.219502476550226e+000	 9.475980349868982e-001	 5.398145683478810e-001
1	 2.209277472710488e+000	 9.711984757422032e-001	-4.048480311083086e-001
1	 2.198780265368454e+000	 9.947355902840656e-001	-1.292603739903909e+000
1	 2.188011098992888e+000	 1.018204825810533e+000	-2.122837780841575e+000
1	 2.176970316656258e+000	 1.041601618039557e+000	-2.894894264492680e+000
1	 2.165658360782336e+000	 1.064921393807760e+000	-3.608077014549095e+000
1	 2.154075773813694e+000	 1.088159573706788e+000	-4.261650502807683e+000
1	 2.142223198797243e+000	 1.111311574754465e+000	-4.854840893778084e+000
1	 2.130101379886014e+000	 1.134372813097828e+000	-5.386837198609715e+000
1	 2.117711162755524e+000	 1.157338706745061e+000	-5.856792537733930e+000
1	 2.105053494933187e+000	 1.180204678323221e+000	-6.263825511313067e+000
1	 2.244028686890507e+000	 9.580692955357705e-001	-3.892224063891441e-001
1	 2.233690693496472e+000	 9.819305286893982e-001	-1.337394114920283e+000
1	 2.223077488664634e+000	 1.005727735854752e+000	-2.226270688310041e+000
1	 2.212189319565223e+000	 1.029456313919966e+000	-3.055199067878980e+000
1	 2.201026533061774e+000	 1.053111648166220e+000	-3.823486163697492e+000
1	 2.189589576466989e+000	 1.076689114895224e+000	-4.530399763034933e+000
1	 2.177878998217611e+000	 1.100184084094699e+000	-5.175169548533259e+000
1	 2.165895448466434e+000	 1.123591922139056e+000	-5.756988225931535e+000
1	 2.153639679589622e+000	 1.146907994522294e+000	-6.275012760869408e+000
1	 2.141112546607686e+000	 1.170127668620127e+000	-6.728365723994907e+000
1	 2.128315007518526e+000	 1.193246316478183e+000	-7.116136743295400e+000
1	 2.268554897230787e+000	 9.685405560843096e-001	-1.325554195341830e+000
1	 2.258103914282494e+000	 9.926625816362567e-001	-2.275125412417076e+000
1	 2.247374711960891e+000	 1.016719881425092e+000	-3.163008116964036e+000
1	 2.236367540137673e+000	 1.040707802029039e+000	-3.988526196050949e+000
1	 2.225082749467440e+000	 1.064621678292507e+000	-4.750965301972888e+000
1	 2.213520792151827e+000	 1.088456835982292e+000	-5.449573829042454e+000
1	 2.201682222621746e+000	 1.112208594482198e+000	-6.083563998734757e+000
1	 2.189567698135869e+000	 1.135872269523220e+000	-6.652113052857222e+000
1	 2.177177979293499e+000	 1.159443175946325e+000	-7.154364554116891e+000
1	 2.164513930460135e+000	 1.182916630494756e+000	-7.589429793156493e+000
1	 2.151576520104164e+000	 1.206287954632712e+000	-7.956389300823819e+000
1	 2.293081107571061e+000	 9.790118166326809e-001	-2.266985774695487e+000
1	 2.282517135068562e+000	 1.003394634582944e+000	-3.215962751498481e+000
1	 2.271671935257244e+000	 1.027712026995249e+000	-4.100866157068202e+000
1	 2.260545760710265e+000	 1.051959290137911e+000	-4.921011654201402e+000
1	 2.249138965873294e+000	 1.076131708418570e+000	-5.675679167989106e+000
1	 2.237452007836891e+000	 1.100224557069113e+000	-6.364113916432178e+000
1	 2.225485447026142e+000	 1.124233104869425e+000	-6.985527546601938e+000
1	 2.213239947805595e+000	 1.148152616907090e+000	-7.539099375868782e+000
1	 2.200716278997688e+000	 1.171978357370042e+000	-8.023977737428382e+000
1	 2.187915314312909e+000	 1.195705592369057e+000	-8.439281429057475e+000
1	 2.174838032690135e+000	 1.219329592786908e+000	-8.784101263730513e+000
1	 2.317607317911332e+000	 9.894830771810523e-001	-3.211415036487404e+000
1	 2.306930355854685e+000	 1.014126687529626e+000	-4.157914971887325e+000
1	 2.295969158553711e+000	 1.038704172565387e+000	-5.037977478210030e+000
1	 2.284723981283027e+000	 1.063210778246740e+000	-5.850924443528676e+000
1	 2.273195182279369e+000	 1.087641738544563e+000	-6.596045201593578e+000
1	 2.261383223522225e+000	 1.111992278155832e+000	-7.272597601985393e+000
1	 2.249288671430845e+000	 1.136257615256517e+000	-7.879809181586920e+000
1	 2.236912197475659e+000	 1.160432964290793e+000	-8.416878436756839e+000
1	 2.224254578702236e+000	 1.184513538793563e+000	-8.882976195303911e+000
1	 2.211316698166055e+000	 1.208494554243140e+000	-9.277247087069933e+000
1	 2.198099545276473e+000	 1.232371230940871e+000	-9.598811111638849e+000
1	 2.342133528251599e+000	 9.999543377295894e-001	-4.156827923654204e+000
1	 2.331343576640874e+000	 1.024858740476468e+000	-5.099074316945240e+000
1	 2.320266381850311e+000	 1.049696318135667e+000	-5.972552966760279e+000
1	 2.308902201855987e+000	 1.074462266355686e+000	-6.776606071498682e+000
1	 2.297251398685700e+000	 1.099151768670638e+000	-7.510547131258556e+000
1	 2.285314439207865e+000	 1.123759999242595e+000	-8.173662043460094e+000
1	 2.273091895835900e+000	 1.148282125643612e+000	-8.765210294164152e+000
1	 2.260584447146108e+000	 1.172713311674460e+000	-9.284426244339272e+000
1	 2.247792878407190e+000	 1.197048720217011e+000	-9.730520510054722e+000
1	 2.234718082019611e+000	 1.221283516117117e+000	-1.010268143530068e+001
1	 2.221361057863212e+000	 1.245412869094703e+000	-1.040007665585721e+001
1	 2.366659738591859e+000	 1.010425598278460e+000	-5.101293867578442e+000
1	 2.355756797427137e+000	 1.035590793423637e+000	-6.037612112022365e+000
1	 2.344563605147063e+000	 1.060688463706254e+000	-6.902877672984987e+000
1	 2.333080422429172e+000	 1.085713754464907e+000	-7.696466794853452e+000
1	 2.321307615092325e+000	 1.110661798796949e+000	-8.417731539263878e+000
1	 2.309245654893859e+000	 1.135527720329549e+000	-9.066000892337723e+000
1	 2.296895120241353e+000	 1.160306636030850e+000	-9.640581960614316e+000
1	 2.284256696816990e+000	 1.184993659058219e+000	-1.014076125480893e+001
1	 2.271331178112595e+000	 1.209583901640504e+000	-1.056580606026627e+001
1	 2.258119465873619e+000	 1.234072477991097e+000	-1.091496589271765e+001
1	 2.244622570450384e+000	 1.258454507248503e+000	-1.118747403768671e+001
1	 2.391185948932115e+000	 1.020896858827830e+000	-6.042961506415844e+000
1	 2.380170018213486e+000	 1.046322846371298e+000	-6.971774708767773e+000
1	 2.368860828443987e+000	 1.071680609277310e+000	-7.827307007578653e+000
1	 2.357258643002612e+000	 1.096965242574563e+000	-8.608982093831079e+000
1	 2.345363831499277e+000	 1.122171828923650e+000	-9.316204638263425e+000
1	 2.333176870580242e+000	 1.147295441416840e+000	-9.948361396564323e+000
1	 2.320698344647250e+000	 1.172331146418369e+000	-1.050482239490687e+001
1	 2.307928946488350e+000	 1.197274006442202e+000	-1.098494219483632e+001
1	 2.294869477818497e+000	 1.222119083064165e+000	-1.138806123628464e+001
1	 2.281520849728123e+000	 1.246861439865192e+000	-1.171350725724239e+001
1	 2.267884083038025e+000	 1.271496145402371e+000	-1.196059678837450e+001
1	 2.035268957178629e+000	 1.141079763854727e+000	-3.639689448303369e+000
1	 2.022771440011766e+000	 1.163089972340299e+000	-4.049262772729755e+000
1	 2.010017391776478e+000	 1.184994713164319e+000	-4.426226714012463e+000
1	 1.997008027266777e+000	 1.206789589643860e+000	-4.770588578786614e+000
1	 1.983744660202318e+000	 1.228470220469227e+000	-5.082395802619682e+000
1	 1.970228703106179e+000	 1.250032242448504e+000	-5.361735980927537e+000
1	 1.956461667092249e+000	 1.271471313257540e+000	-5.608736839605452e+000
1	 1.942445161561669e+000	 1.292783114191905e+000	-5.823566144945994e+000
1	 1.928180893807916e+000	 1.313963352917359e+000	-6.006431552555001e+000
1	 1.913670668530300e+000	 1.335007766215311e+000	-6.157580395119886e+000
1	 1.898916387255753e+000	 1.355912122719749e+000	-6.277299409029253e+000
1	 2.058530469763273e+000	 1.154121402011593e+000	-4.525063619178884e+000
1	 2.045890115871281e+000	 1.176383169751865e+000	-4.919341217744019e+000
1	 2.032990298963952e+000	 1.198538264418723e+000	-5.279806400504651e+000
1	 2.019832247719413e+000	 1.220582239078633e+000	-5.606399446819196e+000
1	 2.006417290872079e+000	 1.242510662346993e+000	-5.899104938664880e+000
1	 1.992746857089031e+000	 1.264319121164056e+000	-6.157951917634043e+000
1	 1.978822474754979e+000	 1.286003223576338e+000	-6.383013975421553e+000
1	 1.964645771665227e+000	 1.307558601520036e+000	-6.574409277064309e+000
1	 1.950218474626249e+000	 1.328980913602921e+000	-6.732300516346249e+000
1	 1.935542408963624e+000	 1.350265847881186e+000	-6.856894802938860e+000
1	 1.920619497937211e+000	 1.371409124627651e+000	-6.948443481006184e+000
1	 2.081791982348114e+000	 1.167163040167724e+000	-5.399959064551208e+000
1	 2.069008791731038e+000	 1.189676367162741e+000	-5.776827592718812e+000
1	 2.055963206151714e+000	 1.212081815672490e+000	-6.118898534075324e+000
1	 2.042656468172388e+000	 1.234374888512827e+000	-6.426061358922286e+000
1	 2.029089921542231e+000	 1.256551104224243e+000	-6.698253257038210e+000
1	 2.015265011072332e+000	 1.278605999879157e+000	-6.935459390621038e+000
1	 2.001183282418213e+000	 1.300535133894753e+000	-7.137713075544980e+000
1	 1.986846381769342e+000	 1.322334088847847e+000	-7.305095889952232e+000
1	 1.972256055445192e+000	 1.343998474288225e+000	-7.437737709364347e+000
1	 1.957414149397602e+000	 1.365523929546859e+000	-7.535816667665345e+000
1	 1.942322608619367e+000	 1.386906126535401e+000	-7.599559043480583e+000
1	 2.105053494933187e+000	 1.180204678323221e+000	-6.263825511313067e+000
1	 2.092127467591057e+000	 1.202969564573016e+000	-6.621419923930521e+000
1	 2.078936113339772e+000	 1.225625366925698e+000	-6.943429181276925e+000
1	 2.065480688625693e+000	 1.248167537946512e+000	-7.229707726881439e+000
1	 2.051762552212749e+000	 1.270591546101038e+000	-7.480160400208242e+000
1	 2.037783165056030e+000	 1.292892878593861e+000	-7.694742755962309e+000
1	 2.023544090081879e+000	 1.315067044212827e+000	-7.873461307561161e+000
1	 2.009046991873926e+000	 1.337109576175375e+000	-8.016373693623473e+000
1	 1.994293636264635e+000	 1.359016034973300e+000	-8.123588766497131e+000
1	 1.979285889832116e+000	 1.380782011212353e+000	-8.195266602027857e+000
1	 1.964025719302089e+000	 1.402403128443017e+000	-8.231618429949707e+000
1	 2.128315007518526e+000	 1.193246316478183e+000	-7.116136743295400e+000
1	 2.115246143451361e+000	 1.216262761982781e+000	-7.452829439397873e+000
1	 2.101909020528132e+000	 1.239168918178429e+000	-7.753327640899622e+000
1	 2.088304909079315e+000	 1.261960187379757e+000	-8.017466129964664e+000
1	 2.074435182883600e+000	 1.284631987977440e+000	-8.245132036460362e+000
1	 2.060301319040078e+000	 1.307179757308217e+000	-8.436265194570085e+000
1	 2.045904897745909e+000	 1.329598954530604e+000	-8.590858420435220e+000
1	 2.031247601978889e+000	 1.351885063502655e+000	-8.708957709576191e+000
1	 2.016331217084475e+000	 1.374033595658174e+000	-8.790662353019881e+000
1	 2.001157630267043e+000	 1.396040092877691e+000	-8.836124971247610e+000
1	 1.985728829985244e+000	 1.417900130350513e+000	-8.845551465265592e+000
1	 2.151576520104164e+000	 1.206287954632712e+000	-7.956389300823819e+000
1	 2.138364819311972e+000	 1.229555959392127e+000	-8.270779855236881e+000
1	 2.124881927716801e+000	 1.252712469430764e+000	-8.548526269246704e+000
1	 2.111129129533247e+000	 1.275752836812638e+000	-8.789458630210499e+000
1	 2.097107813554756e+000	 1.298672429853509e+000	-8.993460615298007e+000
1	 2.082819473024427e+000	 1.321466636022281e+000	-9.160469856858825e+000
1	 2.068265705410237e+000	 1.344130864848129e+000	-9.290478226677694e+000
1	 2.053448212084144e+000	 1.366660550829724e+000	-9.383532037833010e+000
1	 2.038368797904605e+000	 1.389051156342877e+000	-9.439732163058014e+000
1	 2.023029370702263e+000	 1.411298174542895e+000	-9.459234068694142e+000
1	 2.007431940668699e+000	 1.433397132257910e+000	-9.442247763520802e+000
1	 2.174838032690135e+000	 1.219329592786908e+000	-8.784101263730513e+000
1	 2.161483495172912e+000	 1.242849156801144e+000	-9.075006707813186e+000
1	 2.147854834905787e+000	 1.266256020682782e+000	-9.328960316622705e+000
1	 2.133953349987477e+000	 1.289545486245221e+000	-9.545802067482414e+000
1	 2.119780444226189e+000	 1.312712871729308e+000	-9.725426074366315e+000
1	 2.105337627009026e+000	 1.335753514736103e+000	-9.867780933950902e+000
1	 2.090626513074790e+000	 1.358662775165445e+000	-9.972869989393107e+000
1	 2.075648822189603e+000	 1.381436038156617e+000	-1.004075151058205e+001
1	 2.060406378724920e+000	 1.404068717027437e+000	-1.007153878979974e+001
1	 2.044901111137655e+000	 1.426556256207987e+000	-1.006540015191949e+001
1	 2.029135051352321e+000	 1.448894134165222e+000	-1.002255887846848e+001
1	 2.198099545276473e+000	 1.232371230940871e+000	-9.598811111638849e+000
1	 2.184602171034203e+000	 1.256142354209923e+000	-9.865256728300066e+000
1	 2.170827742095097e+000	 1.279799571934566e+000	-1.009456777420383e+001
1	 2.156777570441994e+000	 1.303338135677579e+000	-1.028660833578874e+001
1	 2.142453074897868e+000	 1.326753313604898e+000	-1.044129650148949e+001
1	 2.127855780993828e+000	 1.350040393449737e+000	-1.055860466086540e+001
1	 2.112987320739501e+000	 1.373194685482595e+000	-1.063855972125753e+001
1	 2.097849432295178e+000	 1.396211525483370e+000	-1.068124324081967e+001
1	 2.082443959545315e+000	 1.419086277711884e+000	-1.068679147695871e+001
1	 2.066772851573099e+000	 1.441814337872990e+000	-1.065539534941350e+001
1	 2.050838162035976e+000	 1.464391136072466e+000	-1.058730031740083e+001
1	 2.221361057863212e+000	 1.245412869094703e+000	-1.040007665585721e+001
1	 2.207720846895866e+000	 1.269435551618553e+000	-1.064128725653285e+001
1	 2.193800649284738e+000	 1.293343123186194e+000	-1.084528923052969e+001
1	 2.179601790896790e+000	 1.317130785109783e+000	-1.101198464224130e+001
1	 2.165125705569764e+000	 1.340793755480339e+000	-1.114132875511193e+001
1	 2.150373934978783e+000	 1.364327272163235e+000	-1.123333025667639e+001
1	 2.135348128404301e+000	 1.387726595799625e+000	-1.128805140188062e+001
1	 2.120050042400781e+000	 1.410987012810021e+000	-1.130560807369120e+001
1	 2.104481540365684e+000	 1.434103838396246e+000	-1.128616976019172e+001
1	 2.088644592008472e+000	 1.457072419537926e+000	-1.122995944755711e+001
1	 2.072541272719534e+000	 1.479888137979660e+000	-1.113725342849492e+001
1	 2.244622570450384e+000	 1.258454507248503e+000	-1.118747403768671e+001
1	 2.230839522757925e+000	 1.282728749027127e+000	-1.140286569130971e+001
1	 2.216773556474716e+000	 1.306886674437748e+000	-1.158106773691797e+001
1	 2.202426011351853e+000	 1.330923434541904e+000	-1.172203374991208e+001
1	 2.187798336241849e+000	 1.354834197355695e+000	-1.182576904616109e+001
1	 2.172892088963843e+000	 1.378614150876649e+000	-1.189233080621283e+001
1	 2.157708936069120e+000	 1.402258506116577e+000	-1.192182811947311e+001
1	 2.142250652506323e+000	 1.425762500136603e+000	-1.191442194758822e+001
1	 2.126519121185921e+000	 1.449121399080551e+000	-1.187032500645397e+001
1	 2.110516332443655e+000	 1.472330501202817e+000	-1.178980156646385e+001
1	 2.094244383402860e+000	 1.495385139886820e+000	-1.167316717080419e+001
1	 2.267884083038025e+000	 1.271496145402371e+000	-1.196059678837450e+001
1	 2.253958198620401e+000	 1.296021946435735e+000	-1.214976897452165e+001
1	 2.239746463665040e+000	 1.320430225689309e+000	-1.230184868116215e+001
1	 2.225250231807174e+000	 1.344716083974012e+000	-1.241685420574436e+001
1	 2.210470966914092e+000	 1.368874639231026e+000	-1.249485348410117e+001
1	 2.195410242948957e+000	 1.392901029590033e+000	-1.253596408749710e+001
1	 2.180069743733891e+000	 1.416790416433498e+000	-1.254035314225426e+001
1	 2.164451262611717e+000	 1.440537987463155e+000	-1.250823717148216e+001
1	 2.148556702005920e+000	 1.464138959764830e+000	-1.243988185862031e+001
1	 2.132388072878528e+000	 1.487588582867686e+000	-1.233560173268774e+001
1	 2.115947494085821e+000	 1.510882141793964e+000	-1.219575977532249e+001
1	 1.898916387255753e+000	 1.355912122719749e+000	-6.277299409029253e+000
1	 1.883920047133223e+000	 1.376672225183124e+000	-6.371448350932497e+000
1	 1.868683738580113e+000	 1.397283911780662e+000	-6.445979806307212e+000
1	 1.853209646065358e+000	 1.417743060129417e+000	-6.501375213354174e+000
1	 1.837500047710095e+000	 1.438045590410163e+000	-6.538150352935823e+000
1	 1.821557314259136e+000	 1.458187468011342e+000	-6.556854728259368e+000
1	 1.805383907963363e+000	 1.478164706143358e+000	-6.558070887673497e+000
1	 1.788982381374034e+000	 1.497973368419745e+000	-6.542413691639053e+000
1	 1.772355376050134e+000	 1.517609571401743e+000	-6.510529525077318e+000
1	 1.755505621180099e+000	 1.537069487102882e+000	-6.463095456438991e+000
1	 1.738435932119337e+000	 1.556349345450221e+000	-6.400818344973545e+000
1	 1.920619497937211e+000	 1.371409124627651e+000	-6.948443481006184e+000
1	 1.905451761521779e+000	 1.392406498623549e+000	-7.012857678219124e+000
1	 1.890041314026554e+000	 1.413253760477749e+000	-7.056357163637880e+000
1	 1.874390364887229e+000	 1.433946740691739e+000	-7.079720391393687e+000
1	 1.858501218262075e+000	 1.454481312817197e+000	-7.083766433738278e+000
1	 1.842376271991649e+000	 1.474853396130154e+000	-7.069353835067947e+000
1	 1.826018016468425e+000	 1.495058958275174e+000	-7.037379395630536e+000
1	 1.809429033417307e+000	 1.515094017876017e+000	-6.988776887044715e+000
1	 1.792611994588221e+000	 1.534954647109299e+000	-6.924515701942578e+000
1	 1.775569660362075e+000	 1.554636974237704e+000	-6.845599440222258e+000
1	 1.758304878271573e+000	 1.574137186099347e+000	-6.753064434565082e+000
1	 1.942322608619367e+000	 1.386906126535401e+000	-7.599559043480583e+000
1	 1.926983475911071e+000	 1.408140772063864e+000	-7.634933908299971e+000
1	 1.911398889473760e+000	 1.429223609174760e+000	-7.648380526387653e+000
1	 1.895571083709891e+000	 1.450150421254014e+000	-7.640901383426448e+000
1	 1.879502388814862e+000	 1.470917035224207e+000	-7.613544332039423e+000
1	 1.863195229724980e+000	 1.491519324248966e+000	-7.567401039773868e+000
1	 1.846652124974304e+000	 1.511953210407013e+000	-7.503605356536902e+000
1	 1.829875685461390e+000	 1.532214667332336e+000	-7.423331604443297e+000
1	 1.812868613127101e+000	 1.552299722816931e+000	-7.327792793246248e+000
1	 1.795633699544820e+000	 1.572204461372635e+000	-7.218238764724365e+000
1	 1.778173824424543e+000	 1.591925026748623e+000	-7.095954269590991e+000
1	 1.964025719302089e+000	 1.402403128443017e+000	-8.231618429949707e+000
1	 1.948515190300958e+000	 1.423875045504080e+000	-8.238672039423935e+000
1	 1.932756464921588e+000	 1.445193457871702e+000	-8.223034479925854e+000
1	 1.916751802533197e+000	 1.466354101816246e+000	-8.185861682888847e+000
1	 1.900503559368311e+000	 1.487352757631197e+000	-8.128358204099641e+000
1	 1.884014187458984e+000	 1.508185252367777e+000	-8.051775382950115e+000
1	 1.867286233480865e+000	 1.528847462538872e+000	-7.957409414053595e+000
1	 1.850322337506154e+000	 1.549335316788698e+000	-7.846599334781466e+000
1	 1.833125231666656e+000	 1.569644798524630e+000	-7.720724932506911e+000
1	 1.815697738728223e+000	 1.589771948507662e+000	-7.581204575564037e+000
1	 1.798042770578147e+000	 1.609712867398032e+000	-7.429492972140307e+000
1	 1.985728829985244e+000	 1.417900130350513e+000	-8.845551465265590e+000
1	 1.970046904691298e+000	 1.439609318944210e+000	-8.825023570332750e+000
1	 1.954114040369892e+000	 1.461163306568586e+000	-8.781260565346546e+000
1	 1.937932521356998e+000	 1.482557782378439e+000	-8.715503535406342e+000
1	 1.921504729922277e+000	 1.503788480038169e+000	-8.629043989662980e+000
1	 1.904833145193523e+000	 1.524851180486588e+000	-8.523221846937513e+000
1	 1.887920341987970e+000	 1.545741714670747e+000	-8.399423329706510e+000
1	 1.870768989551473e+000	 1.566455966245095e+000	-8.259078770373558e+000
1	 1.853381850206766e+000	 1.586989874232388e+000	-8.103660333990462e+000
1	 1.835761777912175e+000	 1.607339435642774e+000	-7.934679661822812e+000
1	 1.817911716732283e+000	 1.627500708047558e+000	-7.753685440374267e+000
1	 2.007431940668699e+000	 1.433397132257910e+000	-9.442247763520800e+000
1	 1.991578619081951e+000	 1.455343592384267e+000	-9.394898851709677e+000
1	 1.975471615818524e+000	 1.477133155265418e+000	-9.323959606308673e+000
1	 1.959113240181150e+000	 1.498761462940601e+000	-9.230690168522104e+000
1	 1.942505900476613e+000	 1.520224202445124e+000	-9.116401477823553e+000
1	 1.925652102928453e+000	 1.541517108605399e+000	-8.982453196927304e+000
1	 1.908554450495487e+000	 1.562635966802639e+000	-8.830251544165105e+000
1	 1.891215641597215e+000	 1.583576615701524e+000	-8.661247037325021e+000
1	 1.873638468747310e+000	 1.604334949940195e+000	-8.476932153255714e+000
1	 1.855825817096565e+000	 1.624906922777959e+000	-8.278838907773514e+000
1	 1.837780662886852e+000	 1.645288548697183e+000	-8.068536360631169e+000
1	 2.029135051352321e+000	 1.448894134165222e+000	-1.002255887846848e+001
1	 2.013110333472775e+000	 1.471077865824262e+000	-9.949169286725164e+000
1	 1.996829191267340e+000	 1.493103003962208e+000	-9.851993886552638e+000
1	 1.980293959005503e+000	 1.514965143502737e+000	-9.732247878334412e+000
1	 1.963507071031173e+000	 1.536659924852068e+000	-9.591196240316304e+000
1	 1.946471060663631e+000	 1.558183036724210e+000	-9.430151703893184e+000
1	 1.929188559003277e+000	 1.579530218934542e+000	-9.250472638326890e+000
1	 1.911662293643256e+000	 1.600697265157980e+000	-9.053560848865516e+000
1	 1.893895087288171e+000	 1.621680025648045e+000	-8.840859292474585e+000
1	 1.875889856281284e+000	 1.642474409913206e+000	-8.613849715619303e+000
1	 1.857649609041756e+000	 1.663076389346893e+000	-8.374050218754364e+000
1	 2.050838162035976e+000	 1.464391136072466e+000	-1.058730031740083e+001
1	 2.034642047863630e+000	 1.486812139264209e+000	-1.048866939185805e+001
1	 2.018186766716196e+000	 1.509072852658963e+000	-1.036618918915452e+001
1	 2.001474677829912e+000	 1.531168824064851e+000	-1.022096798364193e+001
1	 1.984508241585813e+000	 1.553095647259001e+000	-1.005416144205235e+001
1	 1.967290018398917e+000	 1.574848964843020e+000	-9.866970758124996e+000
1	 1.949822667511205e+000	 1.596424471066456e+000	-9.660640701629824e+000
1	 1.932108945689464e+000	 1.617817914614457e+000	-9.436457585451160e+000
1	 1.914151705829226e+000	 1.639025101355928e+000	-9.195747154618585e+000
1	 1.895953895466220e+000	 1.660041897048499e+000	-8.939872401390700e+000
1	 1.877518555196891e+000	 1.680864229996668e+000	-8.670231310700849e+000
1	 2.072541272719534e+000	 1.479888137979660e+000	-1.113725342849492e+001
1	 2.056173762254373e+000	 1.502546412704118e+000	-1.101419872823469e+001
1	 2.039544342164942e+000	 1.525042701355693e+000	-1.086733670765319e+001
1	 2.022655396654229e+000	 1.547372504626949e+000	-1.069760865730957e+001
1	 2.005509412140386e+000	 1.569531369665925e+000	-1.050599953789822e+001
1	 1.988108976134170e+000	 1.591514892961831e+000	-1.029353638138369e+001
1	 1.970456776019136e+000	 1.613318723198377e+000	-1.006128661439325e+001
1	 1.952555597735713e+000	 1.634938564070948e+000	-9.810356307003062e+000
1	 1.934408324370359e+000	 1.656370177063837e+000	-9.541888350259004e+000
1	 1.916017934651266e+000	 1.677609384183830e+000	-9.257060565968338e+000
1	 1.897387501352160e+000	 1.698652070646494e+000	-8.957083752483591e+000
1	 2.094244383402860e+000	 1.495385139886820e+000	-1.167316717080419e+001
1	 2.077705476644865e+000	 1.518280686144002e+000	-1.152652371287853e+001
1	 2.060901917613437e+000	 1.541012550052406e+000	-1.135619483834486e+001
1	 2.043836115478306e+000	 1.563576185189036e+000	-1.116289664376107e+001
1	 2.026510582694747e+000	 1.585967092072845e+000	-1.094738386394988e+001
1	 2.008927933869246e+000	 1.608180821080641e+000	-1.071044864503140e+001
1	 1.991090884526934e+000	 1.630212975330304e+000	-1.045291925042337e+001
1	 1.973002249781874e+000	 1.652059213527451e+000	-1.017565870220579e+001
1	 1.954664942911448e+000	 1.673715252771762e+000	-9.879563360419370e+000
1	 1.936081973836309e+000	 1.695176871319186e+000	-9.565561443035621e+000
1	 1.917256447507461e+000	 1.716439911296353e+000	-9.234611489495238e+000
1	 2.115947494085821e+000	 1.510882141793964e+000	-1.219575977532249e+001
1	 2.099237191034965e+000	 1.534014959583876e+000	-1.202637931849267e+001
1	 2.082259493061532e+000	 1.556982398749111e+000	-1.183349086227704e+001
1	 2.065016834301999e+000	 1.579779865751119e+000	-1.161752887077448e+001
1	 2.047511753248752e+000	 1.602402814479762e+000	-1.137896013087805e+001
1	 2.029746891604005e+000	 1.624846749199451e+000	-1.111828300088757e+001
1	 2.011724993034462e+000	 1.647107227462233e+000	-1.083602660560891e+001
1	 1.993448901827818e+000	 1.669179862983960e+000	-1.053274997938450e+001
1	 1.974921561452375e+000	 1.691060328479696e+000	-1.020904115863421e+001
1	 1.956146013021240e+000	 1.712744358454553e+000	-9.865516225618046e+000
1	 1.937125393662695e+000	 1.734227751946229e+000	-9.502818305258515e+000
1	 1.738435932119337e+000	 1.556349345450221e+000	-6.400818344973546e+000
1	 1.721151818107034e+000	 1.575442586637167e+000	-6.327935608261326e+000
1	 1.703653718137051e+000	 1.594348471918019e+000	-6.248716569168384e+000
1	 1.685944696578731e+000	 1.613063422360952e+000	-6.163975583198250e+000
1	 1.668027897230322e+000	 1.631583926286766e+000	-6.074534985392926e+000
1	 1.649906541462032e+000	 1.649906541462032e+000	-5.981224049939972e+000
1	 1.631583926286766e+000	 1.668027897230322e+000	-5.884877938836808e+000
1	 1.613063422360952e+000	 1.685944696578732e+000	-5.786336641651826e+000
1	 1.594348471918019e+000	 1.703653718137051e+000	-5.686443908443710e+000
1	 1.575442586637168e+000	 1.721151818107034e+000	-5.586046177916736e+000
1	 1.556349345450221e+000	 1.738435932119336e+000	-5.485991502898682e+000
1	 1.758304878271573e+000	 1.574137186099347e+000	-6.753064434565085e+000
1	 1.740823220522151e+000	 1.593448647914248e+000	-6.651167270903982e+000
1	 1.723125131125022e+000	 1.612570612493426e+000	-6.543810034895982e+000
1	 1.705213709472846e+000	 1.631499460000704e+000	-6.431566822022706e+000
1	 1.687092135294994e+000	 1.650231638621166e+000	-6.315013034602072e+000
1	 1.668763666779384e+000	 1.668763666779383e+000	-6.194724792300608e+000
1	 1.650231638621165e+000	 1.687092135294993e+000	-6.071278343393456e+000
1	 1.631499460000704e+000	 1.705213709472847e+000	-5.945249477831437e+000
1	 1.612570612493427e+000	 1.723125131125022e+000	-5.817212943169877e+000
1	 1.593448647914248e+000	 1.740823220522151e+000	-5.687741864403438e+000
1	 1.574137186099347e+000	 1.758304878271573e+000	-5.557407168740397e+000
1	 1.778173824424543e+000	 1.591925026748623e+000	-7.095954269590994e+000
1	 1.760494622937957e+000	 1.611454709191528e+000	-6.965078266348536e+000
1	 1.742596544113631e+000	 1.630792753069090e+000	-6.829121828498192e+000
1	 1.724482722367539e+000	 1.649935497640772e+000	-6.688508418761012e+000
1	 1.706156373360178e+000	 1.668879350955947e+000	-6.543658389553820e+000
1	 1.687620792097182e+000	 1.687620792097182e+000	-6.394988683974698e+000
1	 1.668879350955947e+000	 1.706156373360178e+000	-6.242912545355328e+000
1	 1.649935497640772e+000	 1.724482722367539e+000	-6.087839235806559e+000
1	 1.630792753069090e+000	 1.742596544113631e+000	-5.930173764156829e+000
1	 1.611454709191528e+000	 1.760494622937957e+000	-5.770316623658606e+000
1	 1.591925026748623e+000	 1.778173824424543e+000	-5.608663539810456e+000
1	 1.798042770578147e+000	 1.609712867398032e+000	-7.429492972140307e+000
1	 1.780166025354362e+000	 1.629460770468984e+000	-7.269509691184011e+000
1	 1.762067957102794e+000	 1.649014893644979e+000	-7.104382277544099e+000
1	 1.743751735262737e+000	 1.668371535281121e+000	-6.934470181862732e+000
1	 1.725220611425817e+000	 1.687527063291067e+000	-6.760127533628355e+000
1	 1.706477917415377e+000	 1.706477917415377e+000	-6.581702975264096e+000
1	 1.687527063291067e+000	 1.725220611425817e+000	-6.399539508799117e+000
1	 1.668371535281121e+000	 1.743751735262737e+000	-6.213974355252725e+000
1	 1.649014893644979e+000	 1.762067957102794e+000	-6.025338826827207e+000
1	 1.629460770468984e+000	 1.780166025354362e+000	-5.833958211969859e+000
1	 1.609712867398033e+000	 1.798042770578147e+000	-5.640151673330565e+000
1	 1.817911716732283e+000	 1.627500708047558e+000	-7.753685440374270e+000
1	 1.799837427771275e+000	 1.647466831746595e+000	-7.564309588967289e+000
1	 1.781539370092433e+000	 1.667237034221067e+000	-7.369333499190228e+000
1	 1.763020748158372e+000	 1.686807572921716e+000	-7.169136355150456e+000
1	 1.744284849491846e+000	 1.706174775626481e+000	-6.964091968126338e+000
1	 1.725335042733917e+000	 1.725335042733916e+000	-6.754568589317663e+000
1	 1.706174775626482e+000	 1.744284849491846e+000	-6.540928735452990e+000
1	 1.686807572921716e+000	 1.763020748158372e+000	-6.323529027423361e+000
1	 1.667237034221068e+000	 1.781539370092433e+000	-6.102720042075505e+000
1	 1.647466831746596e+000	 1.799837427771275e+000	-5.878846177262505e+000
1	 1.627500708047558e+000	 1.817911716732282e+000	-5.652245530214053e+000
1	 1.837780662886852e+000	 1.645288548697183e+000	-8.068536360631168e+000
1	 1.819508830188606e+000	 1.665472893024340e+000	-7.849332574691692e+000
1	 1.801010783082467e+000	 1.685459174797326e+000	-7.623728762871986e+000
1	 1.782289761054373e+000	 1.705243610562522e+000	-7.392204837488158e+000
1	 1.763349087558206e+000	 1.724822487962146e+000	-7.155237400447007e+000
1	 1.744192168052747e+000	 1.744192168052746e+000	-6.913299383019366e+000
1	 1.724822487962147e+000	 1.763349087558206e+000	-6.666859695063657e+000
1	 1.705243610562521e+000	 1.782289761054373e+000	-6.416382884237133e+000
1	 1.685459174797326e+000	 1.801010783082468e+000	-6.162328805703633e+000
1	 1.665472893024339e+000	 1.819508830188606e+000	-5.905152302818250e+000
1	 1.645288548697184e+000	 1.837780662886852e+000	-5.645302899239222e+000
1	 1.857649609041756e+000	 1.663076389346893e+000	-8.374050218754364e+000
1	 1.839180232606266e+000	 1.683478954302194e+000	-8.124439483354749e+000
1	 1.820482196072817e+000	 1.703681315373725e+000	-7.867331893893841e+000
1	 1.801558773950668e+000	 1.723679648203500e+000	-7.603386452526818e+000
1	 1.782413325624835e+000	 1.743470200298019e+000	-7.333262984363669e+000
1	 1.763049293371817e+000	 1.763049293371817e+000	-7.057621455308487e+000
1	 1.743470200298020e+000	 1.782413325624836e+000	-6.777121292319426e+000
1	 1.723679648203500e+000	 1.801558773950668e+000	-6.492420707318175e+000
1	 1.703681315373725e+000	 1.820482196072818e+000	-6.204176025967369e+000
1	 1.683478954302193e+000	 1.839180232606266e+000	-5.913041022518240e+000
1	 1.663076389346893e+000	 1.857649609041755e+000	-5.619666261914452e+000
1	 1.877518555196891e+000	 1.680864229996668e+000	-8.670231310700851e+000
1	 1.858851635024165e+000	 1.701485015580136e+000	-8.389497040840460e+000
1	 1.839953609063402e+000	 1.721903455950237e+000	-8.099916714889071e+000
1	 1.820827786847187e+000	 1.742115685844617e+000	-7.802404264818231e+000
1	 1.801477563691672e+000	 1.762117912634056e+000	-7.497880608538945e+000
1	 1.781906418691073e+000	 1.781906418691073e+000	-7.187272499418573e+000
1	 1.762117912634056e+000	 1.801477563691672e+000	-6.871511367621096e+000
1	 1.742115685844617e+000	 1.820827786847188e+000	-6.551532155510595e+000
1	 1.721903455950237e+000	 1.839953609063402e+000	-6.228272149373555e+000
1	 1.701485015580136e+000	 1.858851635024165e+000	-5.902669809720288e+000
1	 1.680864229996669e+000	 1.877518555196891e+000	-5.575663602428442e+000
1	 1.897387501352160e+000	 1.698652070646494e+000	-8.957083752483593e+000
1	 1.878523037442211e+000	 1.719491076858146e+000	-8.644377555480194e+000
1	 1.859425022054142e+000	 1.740125596526834e+000	-8.321266522372444e+000
1	 1.840096799743861e+000	 1.760551723485837e+000	-7.988992938897079e+000
1	 1.820541801758657e+000	 1.780765624970212e+000	-7.648814229742266e+000
1	 1.800763544010466e+000	 1.800763544010466e+000	-7.302001195815079e+000
1	 1.780765624970212e+000	 1.820541801758657e+000	-6.949836229219713e+000
1	 1.760551723485837e+000	 1.840096799743862e+000	-6.593611509513707e+000
1	 1.740125596526833e+000	 1.859425022054142e+000	-6.234627184856779e+000
1	 1.719491076858146e+000	 1.878523037442211e+000	-5.874189541702671e+000
1	 1.698652070646494e+000	 1.897387501352160e+000	-5.513609166710642e+000
1	 1.917256447507461e+000	 1.716439911296353e+000	-9.234611489495238e+000
1	 1.898194439860316e+000	 1.737497138136198e+000	-8.888958628791977e+000
1	 1.878896435044956e+000	 1.758347737103486e+000	-8.531173595840871e+000
1	 1.859365812640619e+000	 1.778987761127123e+000	-8.162898138215345e+000
1	 1.839606039825727e+000	 1.799413337306444e+000	-7.785799247527971e+000
1	 1.819620669329943e+000	 1.819620669329943e+000	-7.401566642879997e+000
1	 1.799413337306444e+000	 1.839606039825727e+000	-7.011910214445602e+000
1	 1.778987761127123e+000	 1.859365812640619e+000	-6.618557432395399e+000
1	 1.758347737103485e+000	 1.878896435044956e+000	-6.223250726452429e+000
1	 1.737497138136199e+000	 1.898194439860315e+000	-5.827744841447156e+000
1	 1.716439911296353e+000	 1.917256447507461e+000	-5.433804174294413e+000
1	 1.937125393662695e+000	 1.734227751946229e+000	-9.502818305258515e+000
1	 1.917865842278389e+000	 1.755503199414275e+000	-9.123122884021434e+000
1	 1.898367848035766e+000	 1.776569877680164e+000	-8.729438737084388e+000
1	 1.878634825537390e+000	 1.797423798768443e+000	-8.323875961066932e+000
1	 1.858670277892823e+000	 1.818061049642710e+000	-7.908581917396241e+000
1	 1.838477794649450e+000	 1.838477794649450e+000	-7.485737822632916e+000
1	 1.818061049642710e+000	 1.858670277892823e+000	-7.057555277940031e+000
1	 1.797423798768442e+000	 1.878634825537390e+000	-6.626272744844051e+000
1	 1.776569877680166e+000	 1.898367848035766e+000	-6.194151974574721e+000
1	 1.755503199414274e+000	 1.917865842278389e+000	-5.763474398388120e+000
1	 1.734227751946229e+000	 1.937125393662695e+000	-5.336537486370323e+000
1	 1.556349345450221e+000	 1.738435932119336e+000	-5.485991502898682e+000
1	 1.537069487102882e+000	 1.755505621180099e+000	-5.392284034740509e+000
1	 1.517609571401743e+000	 1.772355376050134e+000	-5.310921694827991e+000
1	 1.497973368419745e+000	 1.788982381374034e+000	-5.242691708920804e+000
1	 1.478164706143358e+000	 1.805383907963363e+000	-5.188370814315575e+000
1	 1.458187468011342e+000	 1.821557314259135e+000	-5.148724202496355e+000
1	 1.438045590410163e+000	 1.837500047710095e+000	-5.124504481512050e+000
1	 1.417743060129417e+000	 1.853209646065358e+000	-5.116450660078191e+000
1	 1.397283911780661e+000	 1.868683738580113e+000	-5.125287155340530e+000
1	 1.376672225183124e+000	 1.883920047133223e+000	-5.151722826171411e+000
1	 1.355912122719749e+000	 1.898916387255753e+000	-5.196450033798535e+000
1	 1.574137186099347e+000	 1.758304878271573e+000	-5.557407168740399e+000
1	 1.554636974237704e+000	 1.775569660362075e+000	-5.432075873190588e+000
1	 1.534954647109299e+000	 1.792611994588220e+000	-5.318002174421955e+000
1	 1.515094017876017e+000	 1.809429033417307e+000	-5.216277109321289e+000
1	 1.495058958275174e+000	 1.826018016468425e+000	-5.127990507401365e+000
1	 1.474853396130154e+000	 1.842376271991649e+000	-5.054229324153916e+000
1	 1.454481312817197e+000	 1.858501218262075e+000	-4.996075980853419e+000
1	 1.433946740691739e+000	 1.874390364887230e+000	-4.954606714192878e+000
1	 1.413253760477749e+000	 1.890041314026554e+000	-4.930889939096238e+000
1	 1.392406498623549e+000	 1.905451761521779e+000	-4.925984628003695e+000
1	 1.371409124627651e+000	 1.920619497937210e+000	-4.940938709869982e+000
1	 1.591925026748623e+000	 1.778173824424543e+000	-5.608663539810456e+000
1	 1.572204461372635e+000	 1.795633699544820e+000	-5.451158506867154e+000
1	 1.552299722816932e+000	 1.812868613127101e+000	-5.304405799368815e+000
1	 1.532214667332336e+000	 1.829875685461390e+000	-5.169720467920858e+000
1	 1.511953210407012e+000	 1.846652124974303e+000	-5.048423498785059e+000
1	 1.491519324248966e+000	 1.863195229724980e+000	-4.941839688514762e+000
1	 1.470917035224207e+000	 1.879502388814862e+000	-4.851295514647625e+000
1	 1.450150421254014e+000	 1.895571083709891e+000	-4.778117006886207e+000
1	 1.429223609174760e+000	 1.911398889473761e+000	-4.723627623176757e+000
1	 1.408140772063863e+000	 1.926983475911071e+000	-4.689146135065285e+000
1	 1.386906126535401e+000	 1.942322608619366e+000	-4.675984526662020e+000
1	 1.609712867398033e+000	 1.798042770578147e+000	-5.640151673330566e+000
1	 1.589771948507662e+000	 1.815697738728223e+000	-5.450110436722848e+000
1	 1.569644798524630e+000	 1.833125231666656e+000	-5.270842736683774e+000
1	 1.549335316788698e+000	 1.850322337506154e+000	-5.103810573339820e+000
1	 1.528847462538872e+000	 1.867286233480864e+000	-4.950486933453576e+000
1	 1.508185252367777e+000	 1.884014187458984e+000	-4.812353353981189e+000
1	 1.487352757631197e+000	 1.900503559368311e+000	-4.690897474128514e+000
1	 1.466354101816245e+000	 1.916751802533197e+000	-4.587610581055019e+000
1	 1.445193457871702e+000	 1.932756464921588e+000	-4.503985154367091e+000
1	 1.423875045504080e+000	 1.948515190300959e+000	-4.441512414523241e+000
1	 1.402403128443016e+000	 1.964025719302089e+000	-4.401679880235760e+000
1	 1.627500708047558e+000	 1.817911716732282e+000	-5.652245530214053e+000
1	 1.607339435642774e+000	 1.835761777912175e+000	-5.429484872703763e+000
1	 1.586989874232388e+000	 1.853381850206765e+000	-5.217992106175296e+000
1	 1.566455966245095e+000	 1.870768989551473e+000	-5.019301729798372e+000
1	 1.545741714670747e+000	 1.887920341987970e+000	-4.834962232304842e+000
1	 1.524851180486588e+000	 1.904833145193523e+000	-4.666533489296957e+000
1	 1.503788480038169e+000	 1.921504729922276e+000	-4.515584144283780e+000
1	 1.482557782378439e+000	 1.937932521356998e+000	-4.383688978987020e+000
1	 1.461163306568586e+000	 1.954114040369892e+000	-4.272426278461677e+000
1	 1.439609318944210e+000	 1.970046904691297e+000	-4.183375196563257e+000
1	 1.417900130350514e+000	 1.985728829985244e+000	-4.118113127263669e+000
1	 1.645288548697184e+000	 1.837780662886852e+000	-5.645302899239222e+000
1	 1.624906922777959e+000	 1.855825817096565e+000	-5.389811100902680e+000
1	 1.604334949940195e+000	 1.873638468747310e+000	-5.146503658760720e+000
1	 1.583576615701524e+000	 1.891215641597216e+000	-4.916915621236321e+000
1	 1.562635966802639e+000	 1.908554450495487e+000	-4.702597023281244e+000
1	 1.541517108605399e+000	 1.925652102928452e+000	-4.505110259574236e+000
1	 1.520224202445124e+000	 1.942505900476613e+000	-4.326027439419110e+000
1	 1.498761462940601e+000	 1.959113240181150e+000	-4.166927728958581e+000
1	 1.477133155265418e+000	 1.975471615818524e+000	-4.029394686325126e+000
1	 1.455343592384267e+000	 1.991578619081951e+000	-3.915013595345415e+000
1	 1.433397132257910e+000	 2.007431940668699e+000	-3.825368803386192e+000
1	 1.663076389346893e+000	 1.857649609041755e+000	-5.619666261914449e+000
1	 1.642474409913205e+000	 1.875889856281284e+000	-5.331595762976399e+000
1	 1.621680025648045e+000	 1.893895087288170e+000	-5.056999347076994e+000
1	 1.600697265157980e+000	 1.911662293643256e+000	-4.797343055804030e+000
1	 1.579530218934542e+000	 1.929188559003277e+000	-4.554106948574063e+000
1	 1.558183036724210e+000	 1.946471060663631e+000	-4.328782591285550e+000
1	 1.536659924852067e+000	 1.963507071031173e+000	-4.122870527343626e+000
1	 1.514965143502737e+000	 1.980293959005503e+000	-3.937877736430688e+000
1	 1.493103003962208e+000	 1.996829191267341e+000	-3.775315086403657e+000
1	 1.471077865824262e+000	 2.013110333472775e+000	-3.636694783693259e+000
1	 1.448894134165222e+000	 2.029135051352321e+000	-3.523527827555902e+000
1	 1.680864229996669e+000	 1.877518555196891e+000	-5.575663602428441e+000
1	 1.660041897048500e+000	 1.895953895466221e+000	-5.255324054325685e+000
1	 1.639025101355929e+000	 1.914151705829226e+000	-4.950074796365168e+000
1	 1.617817914614456e+000	 1.932108945689464e+000	-4.661245599586181e+000
1	 1.596424471066456e+000	 1.949822667511206e+000	-4.390177357078160e+000
1	 1.574848964843020e+000	 1.967290018398917e+000	-4.138219825187357e+000
1	 1.553095647259001e+000	 1.984508241585813e+000	-3.906729350426900e+000
1	 1.531168824064851e+000	 2.001474677829911e+000	-3.697066586910800e+000
1	 1.509072852658963e+000	 2.018186766716196e+000	-3.510594209137976e+000
1	 1.486812139264208e+000	 2.034642047863629e+000	-3.348674624943005e+000
1	 1.464391136072466e+000	 2.050838162035976e+000	-3.212667693406226e+000
1	 1.698652070646494e+000	 1.897387501352160e+000	-5.513609166710642e+000
1	 1.677609384183830e+000	 1.916017934651266e+000	-5.161460846993111e+000
1	 1.656370177063837e+000	 1.934408324370359e+000	-4.826300682938297e+000
1	 1.634938564070948e+000	 1.952555597735713e+000	-4.509257107678467e+000
1	 1.613318723198377e+000	 1.970456776019136e+000	-4.211464890509713e+000
1	 1.591514892961830e+000	 1.988108976134169e+000	-3.934063265389373e+000
1	 1.569531369665925e+000	 2.005509412140386e+000	-3.678194051087517e+000
1	 1.547372504626950e+000	 2.022655396654229e+000	-3.444999766955066e+000
1	 1.525042701355693e+000	 2.039544342164943e+000	-3.235621748267971e+000
1	 1.502546412704118e+000	 2.056173762254373e+000	-3.051198265093639e+000
1	 1.479888137979660e+000	 2.072541272719535e+000	-2.892862648596856e+000
1	 1.716439911296353e+000	 1.917256447507461e+000	-5.433804174294411e+000
1	 1.695176871319185e+000	 1.936081973836309e+000	-5.050451742740056e+000
1	 1.673715252771762e+000	 1.954664942911448e+000	-4.686224026937350e+000
1	 1.652059213527451e+000	 1.973002249781873e+000	-4.341985160062345e+000
1	 1.630212975330304e+000	 1.991090884526934e+000	-4.018598970899768e+000
1	 1.608180821080641e+000	 2.008927933869245e+000	-3.716927632103765e+000
1	 1.585967092072845e+000	 2.026510582694747e+000	-3.437830308645483e+000
1	 1.563576185189036e+000	 2.043836115478306e+000	-3.182161809249499e+000
1	 1.541012550052406e+000	 2.060901917613437e+000	-2.950771243608112e+000
1	 1.518280686144002e+000	 2.077705476644866e+000	-2.744500688137237e+000
1	 1.495385139886820e+000	 2.094244383402859e+000	-2.564183863007229e+000
1	 1.734227751946229e+000	 1.937125393662695e+000	-5.336537486370323e+000
1	 1.712744358454553e+000	 1.956146013021241e+000	-4.922724061315611e+000
1	 1.691060328479696e+000	 1.974921561452375e+000	-4.530369405528821e+000
1	 1.669179862983960e+000	 1.993448901827818e+000	-4.160012409114200e+000
1	 1.647107227462233e+000	 2.011724993034462e+000	-3.812183196545365e+000
1	 1.624846749199452e+000	 2.029746891604005e+000	-3.487402424990539e+000
1	 1.602402814479762e+000	 2.047511753248752e+000	-3.186180593902971e+000
1	 1.579779865751119e+000	 2.065016834301999e+000	-2.909017367221294e+000
1	 1.556982398749111e+000	 2.082259493061532e+000	-2.656400909495064e+000
1	 1.534014959583875e+000	 2.099237191034965e+000	-2.428807237213657e+000
1	 1.510882141793964e+000	 2.115947494085821e+000	-2.226699586579414e+000
1	 1.355912122719749e+000	 1.898916387255753e+000	-5.196450033798535e+000
1	 1.335007766215312e+000	 1.913670668530300e+000	-5.268382131050898e+000
1	 1.313963352917359e+000	 1.928180893807915e+000	-5.376554110089466e+000
1	 1.292783114191905e+000	 1.942445161561669e+000	-5.521809954544347e+000
1	 1.271471313257540e+000	 1.956461667092249e+000	-5.704968772738643e+000
1	 1.250032242448504e+000	 1.970228703106179e+000	-5.926823594532635e+000
1	 1.228470220469227e+000	 1.983744660202318e+000	-6.188140210921386e+000
1	 1.206789589643861e+000	 1.997008027266777e+000	-6.489656058475165e+000
1	 1.184994713164319e+000	 2.010017391776478e+000	-6.832079150586781e+000
1	 1.163089972340300e+000	 2.022771440011767e+000	-7.216087057362521e+000
1	 1.141079763854727e+000	 2.035268957178629e+000	-7.642325935860635e+000
1	 1.371409124627651e+000	 1.920619497937210e+000	-4.940938709869982e+000
1	 1.350265847881186e+000	 1.935542408963624e+000	-4.984968259360741e+000
1	 1.328980913602921e+000	 1.950218474626249e+000	-5.067237103302334e+000
1	 1.307558601520036e+000	 1.964645771665227e+000	-5.188682856149014e+000
1	 1.286003223576339e+000	 1.978822474754980e+000	-5.350211768624438e+000
1	 1.264319121164056e+000	 1.992746857089031e+000	-5.552697418356821e+000
1	 1.242510662346993e+000	 2.006417290872079e+000	-5.796979455356498e+000
1	 1.220582239078634e+000	 2.019832247719414e+000	-6.083862404510647e+000
1	 1.198538264418724e+000	 2.032990298963953e+000	-6.414114527115738e+000
1	 1.176383169751866e+000	 2.045890115871281e+000	-6.788466743308638e+000
1	 1.154121402011593e+000	 2.058530469763273e+000	-7.207611617093666e+000
1	 1.386906126535401e+000	 1.942322608619366e+000	-4.675984526662020e+000
1	 1.365523929546859e+000	 1.957414149397602e+000	-4.693467551537636e+000
1	 1.343998474288224e+000	 1.972256055445191e+000	-4.750754919116377e+000
1	 1.322334088847847e+000	 1.986846381769343e+000	-4.848878306466127e+000
1	 1.300535133894753e+000	 2.001183282418213e+000	-4.988833004699240e+000
1	 1.278605999879158e+000	 2.015265011072332e+000	-5.171576485723472e+000
1	 1.256551104224244e+000	 2.029089921542232e+000	-5.398027033621385e+000
1	 1.234374888512827e+000	 2.042656468172388e+000	-5.669062442983963e+000
1	 1.212081815672489e+000	 2.055963206151714e+000	-5.985518786342780e+000
1	 1.189676367162741e+000	 2.069008791731038e+000	-6.348189252660051e+000
1	 1.167163040167724e+000	 2.081791982348114e+000	-6.757823058646871e+000
1	 1.402403128443016e+000	 1.964025719302089e+000	-4.401679880235760e+000
1	 1.380782011212353e+000	 1.979285889832116e+000	-4.393761648853323e+000
1	 1.359016034973300e+000	 1.994293636264635e+000	-4.426813013396364e+000
1	 1.337109576175375e+000	 2.009046991873925e+000	-4.501960050886325e+000
1	 1.315067044212827e+000	 2.023544090081880e+000	-4.620288865546990e+000
1	 1.292892878593861e+000	 2.037783165056030e+000	-4.782844014310741e+000
1	 1.270591546101038e+000	 2.051762552212749e+000	-4.990627004475103e+000
1	 1.248167537946512e+000	 2.065480688625692e+000	-5.244594866050744e+000
1	 1.225625366925698e+000	 2.078936113339772e+000	-5.545658801136470e+000
1	 1.202969564573016e+000	 2.092127467591057e+000	-5.894682912452731e+000
1	 1.180204678323221e+000	 2.105053494933187e+000	-6.292483012949762e+000
1	 1.417900130350514e+000	 1.985728829985244e+000	-4.118113127263669e+000
1	 1.396040092877691e+000	 2.001157630267043e+000	-4.085737367005884e+000
1	 1.374033595658175e+000	 2.016331217084475e+000	-4.095129718937752e+000
1	 1.351885063502655e+000	 2.031247601978889e+000	-4.147510907054229e+000
1	 1.329598954530604e+000	 2.045904897745910e+000	-4.244059501624496e+000
1	 1.307179757308217e+000	 2.060301319040078e+000	-4.385910186393594e+000
1	 1.284631987977439e+000	 2.074435182883600e+000	-4.574152103230073e+000
1	 1.261960187379758e+000	 2.088304909079315e+000	-4.809827277037967e+000
1	 1.239168918178429e+000	 2.101909020528132e+000	-5.093929123528056e+000
1	 1.216262761982781e+000	 2.115246143451361e+000	-5.427401042221181e+000
1	 1.193246316478183e+000	 2.128315007518526e+000	-5.811135096825024e+000
1	 1.433397132257910e+000	 2.007431940668699e+000	-3.825368803386192e+000
1	 1.411298174542895e+000	 2.023029370702263e+000	-3.769286416405771e+000
1	 1.389051156342877e+000	 2.038368797904605e+000	-3.755435549379733e+000
1	 1.366660550829724e+000	 2.053448212084144e+000	-3.785131733881620e+000
1	 1.344130864848129e+000	 2.068265705410237e+000	-3.859647544551911e+000
1	 1.321466636022281e+000	 2.082819473024427e+000	-3.980210691221016e+000
1	 1.298672429853509e+000	 2.097107813554756e+000	-4.148002191586363e+000
1	 1.275752836812638e+000	 2.111129129533246e+000	-4.364154627596073e+000
1	 1.252712469430764e+000	 2.124881927716801e+000	-4.629750488461369e+000
1	 1.229555959392127e+000	 2.138364819311972e+000	-4.945820602981788e+000
1	 1.206287954632712e+000	 2.151576520104164e+000	-5.313342663624115e+000
1	 1.448894134165222e+000	 2.029135051352321e+000	-3.523527827555902e+000
1	 1.426556256207987e+000	 2.044901111137655e+000	-3.444305140413381e+000
1	 1.404068717027438e+000	 2.060406378724921e+000	-3.407472547789077e+000
1	 1.381436038156617e+000	 2.075648822189604e+000	-3.414440466723753e+000
1	 1.358662775165444e+000	 2.090626513074790e+000	-3.466576904848683e+000
1	 1.335753514736103e+000	 2.105337627009026e+000	-3.565205360935263e+000
1	 1.312712871729308e+000	 2.119780444226189e+000	-3.711602806946775e+000
1	 1.289545486245221e+000	 2.133953349987476e+000	-3.906997755145035e+000
1	 1.266256020682782e+000	 2.147854834905787e+000	-4.152568413564111e+000
1	 1.242849156801144e+000	 2.161483495172912e+000	-4.449440932916012e+000
1	 1.219329592786908e+000	 2.174838032690134e+000	-4.798687747742465e+000
1	 1.464391136072466e+000	 2.050838162035976e+000	-3.212667693406226e+000
1	 1.441814337872990e+000	 2.066772851573099e+000	-3.110694270196220e+000
1	 1.419086277711884e+000	 2.082443959545315e+000	-3.050993676606154e+000
1	 1.396211525483370e+000	 2.097849432295178e+000	-3.035071213816365e+000
1	 1.373194685482595e+000	 2.112987320739501e+000	-3.064391646007800e+000
1	 1.350040393449737e+000	 2.127855780993828e+000	-3.140376893104573e+000
1	 1.326753313604898e+000	 2.142453074897868e+000	-3.264403803844246e+000
1	 1.303338135677579e+000	 2.156777570441995e+000	-3.437802013186477e+000
1	 1.279799571934565e+000	 2.170827742095097e+000	-3.661851887827048e+000
1	 1.256142354209923e+000	 2.184602171034203e+000	-3.937782563332655e+000
1	 1.232371230940871e+000	 2.198099545276473e+000	-4.266770076153929e+000
1	 1.479888137979660e+000	 2.072541272719535e+000	-2.892862648596856e+000
1	 1.457072419537926e+000	 2.088644592008472e+000	-2.768358694989390e+000
1	 1.434103838396246e+000	 2.104481540365685e+000	-2.685762245920673e+000
1	 1.410987012810020e+000	 2.120050042400781e+000	-2.646673409485402e+000
1	 1.387726595799625e+000	 2.135348128404301e+000	-2.652654929312293e+000
1	 1.364327272163235e+000	 2.150373934978783e+000	-2.705229653518960e+000
1	 1.340793755480339e+000	 2.165125705569764e+000	-2.805878080728438e+000
1	 1.317130785109784e+000	 2.179601790896790e+000	-2.956035987673253e+000
1	 1.293343123186193e+000	 2.193800649284738e+000	-3.157092142673867e+000
1	 1.269435551618554e+000	 2.207720846895866e+000	-3.410386109022999e+000
1	 1.245412869094703e+000	 2.221361057863212e+000	-3.717206142049950e+000
1	 1.495385139886820e+000	 2.094244383402859e+000	-2.564183863007229e+000
1	 1.472330501202817e+000	 2.110516332443655e+000	-2.417207246640472e+000
1	 1.449121399080551e+000	 2.126519121185920e+000	-2.311551377296790e+000
1	 1.425762500136603e+000	 2.142250652506322e+000	-2.248911020008649e+000
1	 1.402258506116577e+000	 2.157708936069120e+000	-2.230948024262333e+000
1	 1.378614150876650e+000	 2.172892088963843e+000	-2.259288553427646e+000
1	 1.354834197355695e+000	 2.187798336241849e+000	-2.335520385919820e+000
1	 1.330923434541905e+000	 2.202426011351853e+000	-2.461190293194939e+000
1	 1.306886674437748e+000	 2.216773556474716e+000	-2.637801499445519e+000
1	 1.282728749027127e+000	 2.230839522757924e+000	-2.866811227613492e+000
1	 1.258454507248502e+000	 2.244622570450384e+000	-3.149628336079929e+000
1	 1.510882141793964e+000	 2.115947494085821e+000	-2.226699586579414e+000
1	 1.487588582867686e+000	 2.132388072878528e+000	-2.057152497414263e+000
1	 1.464138959764830e+000	 2.148556702005919e+000	-1.928143500595497e+000
1	 1.440537987463155e+000	 2.164451262611717e+000	-1.841461798350097e+000
1	 1.416790416433498e+000	 2.180069743733891e+000	-1.798869379902347e+000
1	 1.392901029590033e+000	 2.195410242948957e+000	-1.802097995873121e+000
1	 1.368874639231026e+000	 2.210470966914093e+000	-1.852846197047818e+000
1	 1.344716083974012e+000	 2.225250231807173e+000	-1.952776443247424e+000
1	 1.320430225689309e+000	 2.239746463665041e+000	-2.103512287811491e+000
1	 1.296021946435735e+000	 2.253958198620401e+000	-2.306635642960996e+000
1	 1.271496145402372e+000	 2.267884083038025e+000	-2.563684131056027e+000
1	 1.141079763854727e+000	 2.035268957178629e+000	-7.642325935860635e+000
1	 1.118971821116124e+000	 2.047507011200339e+000	-8.109706620005246e+000
1	 1.096767268820617e+000	 2.059486480776334e+000	-8.616386902912417e+000
1	 1.074470532596845e+000	 2.071206449790665e+000	-9.161659943090099e+000
1	 1.052086042539205e+000	 2.082666100602788e+000	-9.744823515153493e+000
1	 1.029618230541540e+000	 2.093864713729079e+000	-1.036518227958728e+001
1	 1.007071527655773e+000	 2.104801667440268e+000	-1.102204999082340e+001
1	 9.844503614784818e-001	 2.115476437276296e+000	-1.171475163970837e+001
1	 9.617591535682968e-001	 2.125888595480185e+000	-1.244262552668270e+001
1	 9.390023168969391e-001	 2.136037810352666e+000	-1.320502526224336e+001
1	 9.161842533366131e-001	 2.145923845529372e+000	-1.400132169152133e+001
1	 1.154121402011593e+000	 2.058530469763273e+000	-7.207611617093666e+000
1	 1.131760782993169e+000	 2.070908395051891e+000	-7.670766290666999e+000
1	 1.109302450247109e+000	 2.083024780479415e+000	-8.176291693198634e+000
1	 1.086750879983489e+000	 2.094878699459406e+000	-8.723367899007991e+000
1	 1.064110552929180e+000	 2.106469325006327e+000	-9.311176993589056e+000
1	 1.041385951631065e+000	 2.117795929413422e+000	-9.938905610684621e+000
1	 1.018581557784487e+000	 2.128857883845541e+000	-1.060574740718439e+001
1	 9.957018495899491e-001	 2.139654657848452e+000	-1.131090547137511e+001
1	 9.727512991410008e-001	 2.150185818776249e+000	-1.205359466033020e+001
1	 9.497343698461394e-001	 2.160451031138595e+000	-1.283304386249095e+001
1	 9.266555138874860e-001	 2.170450055869658e+000	-1.364849818176607e+001
1	 1.167163040167724e+000	 2.081791982348114e+000	-6.757823058646872e+000
1	 1.144549744869445e+000	 2.094309778903606e+000	-7.213988968157135e+000
1	 1.121837631672807e+000	 2.106563080182627e+000	-7.715315131285176e+000
1	 1.099031227369319e+000	 2.118550949128249e+000	-8.260909068030195e+000
1	 1.076135063318328e+000	 2.130272549409948e+000	-8.849877620430325e+000
1	 1.053153672719756e+000	 2.141727145097828e+000	-9.481329692863039e+000
1	 1.030091587912363e+000	 2.152914100250859e+000	-1.015437893081434e+001
1	 1.006953337700580e+000	 2.163832878420640e+000	-1.086814633320928e+001
1	 9.837434447128693e-001	 2.174483042072332e+000	-1.162176279366305e+001
1	 9.604664227945058e-001	 2.184864251924533e+000	-1.241437156628452e+001
1	 9.371267744375259e-001	 2.194976266209944e+000	-1.324513065194951e+001
1	 1.180204678323221e+000	 2.105053494933187e+000	-6.292483012949763e+000
1	 1.157338706745061e+000	 2.117711162755524e+000	-6.739011610181648e+000
1	 1.134372813097828e+000	 2.130101379886014e+000	-7.233214385694497e+000
1	 1.111311574754465e+000	 2.142223198797243e+000	-7.774165589483820e+000
1	 1.088159573706788e+000	 2.154075773813694e+000	-8.360936023866062e+000
1	 1.064921393807760e+000	 2.165658360782337e+000	-8.992595924110056e+000
1	 1.041601618039557e+000	 2.176970316656258e+000	-9.668217779300619e+000
1	 1.018204825810532e+000	 2.188011098992888e+000	-1.038687908819637e+001
1	 9.947355902840654e-001	 2.198780265368455e+000	-1.114766504511916e+001
1	 9.711984757422031e-001	 2.209277472710488e+000	-1.194967115118500e+001
1	 9.475980349868981e-001	 2.219502476550226e+000	-1.279200574647784e+001
1	 1.193246316478183e+000	 2.128315007518526e+000	-5.811135096825023e+000
1	 1.170127668620127e+000	 2.141112546607686e+000	-6.245487045993704e+000
1	 1.146907994522294e+000	 2.153639679589622e+000	-6.729757241098837e+000
1	 1.123591922139055e+000	 2.165895448466434e+000	-7.263024755350636e+000
1	 1.100184084094699e+000	 2.177878998217611e+000	-7.844362367441081e+000
1	 1.076689114895224e+000	 2.189589576466989e+000	-8.472839520752759e+000
1	 1.053111648166220e+000	 2.201026533061774e+000	-9.147525225658219e+000
1	 1.029456313919965e+000	 2.212189319565223e+000	-9.867490899452925e+000
1	 1.005727735854752e+000	 2.223077488664634e+000	-1.063181313873658e+001
1	 9.819305286893987e-001	 2.233690693496472e+000	-1.143957641932964e+001
1	 9.580692955357707e-001	 2.244028686890507e+000	-1.228987571910125e+001
1	 1.206287954632712e+000	 2.151576520104164e+000	-5.313342663624114e+000
1	 1.182916630494756e+000	 2.164513930460135e+000	-5.733083118426968e+000
1	 1.159443175946325e+000	 2.177177979293498e+000	-6.204721524444420e+000
1	 1.135872269523220e+000	 2.189567698135869e+000	-6.727378731730537e+000
1	 1.112208594482198e+000	 2.201682222621746e+000	-7.300166375174001e+000
1	 1.088456835982293e+000	 2.213520792151826e+000	-7.922189851619279e+000
1	 1.064621678292507e+000	 2.225082749467440e+000	-8.592551244015937e+000
1	 1.040707802029039e+000	 2.236367540137672e+000	-9.310352187026231e+000
1	 1.016719881425092e+000	 2.247374711960891e+000	-1.007469666878243e+001
1	 9.926625816362568e-001	 2.258103914282494e+000	-1.088469376375368e+001
1	 9.685405560843093e-001	 2.268554897230786e+000	-1.173946029196587e+001
1	 1.219329592786908e+000	 2.174838032690134e+000	-4.798687747742463e+000
1	 1.195705592369057e+000	 2.187915314312910e+000	-5.201481880988375e+000
1	 1.171978357370042e+000	 2.200716278997688e+000	-5.657894567902996e+000
1	 1.148152616907090e+000	 2.213239947805595e+000	-6.167124298179807e+000
1	 1.124233104869425e+000	 2.225485447026141e+000	-6.728357355062197e+000
1	 1.100224557069113e+000	 2.237452007836891e+000	-7.340770750755254e+000
1	 1.076131708418570e+000	 2.249138965873294e+000	-8.003535113866304e+000
1	 1.051959290137910e+000	 2.260545760710265e+000	-8.715817523292515e+000
1	 1.027712026995249e+000	 2.271671935257245e+000	-9.476784283224465e+000
1	 1.003394634582944e+000	 2.282517135068562e+000	-1.028560363419379e+001
1	 9.790118166326809e-001	 2.293081107571061e+000	-1.114144839536264e+001
1	 1.232371230940871e+000	 2.198099545276473e+000	-4.266770076153931e+000
1	 1.208494554243141e+000	 2.211316698166054e+000	-4.650378845931830e+000
1	 1.184513538793563e+000	 2.224254578702237e+000	-5.089072705924003e+000
1	 1.160432964290793e+000	 2.236912197475659e+000	-5.582162603600322e+000
1	 1.136257615256517e+000	 2.249288671430844e+000	-6.128944221094364e+000
1	 1.111992278155832e+000	 2.261383223522224e+000	-6.728700810284632e+000
1	 1.087641738544563e+000	 2.273195182279368e+000	-7.380705985948708e+000
1	 1.063210778246740e+000	 2.284723981283027e+000	-8.084226471500939e+000
1	 1.038704172565387e+000	 2.295969158553711e+000	-8.838524792058106e+000
1	 1.014126687529626e+000	 2.306930355854685e+000	-9.642861909820303e+000
1	 9.894830771810521e-001	 2.317607317911332e+000	-1.049649979700956e+001
1	 1.245412869094703e+000	 2.221361057863212e+000	-3.717206142049950e+000
1	 1.221283516117117e+000	 2.234718082019610e+000	-4.079482279575749e+000
1	 1.197048720217010e+000	 2.247792878407190e+000	-4.498060803887084e+000
1	 1.172713311674459e+000	 2.260584447146108e+000	-4.972398937466139e+000
1	 1.148282125643612e+000	 2.273091895835900e+000	-5.501935513880522e+000
1	 1.123759999242596e+000	 2.285314439207865e+000	-6.086093654869783e+000
1	 1.099151768670638e+000	 2.297251398685700e+000	-6.724283412577234e+000
1	 1.074462266355686e+000	 2.308902201855987e+000	-7.415904371632003e+000
1	 1.049696318135667e+000	 2.320266381850311e+000	-8.160348205996778e+000
1	 1.024858740476468e+000	 2.331343576640874e+000	-8.957001185719788e+000
1	 9.999543377295893e-001	 2.342133528251598e+000	-9.805246628966129e+000
1	 1.258454507248502e+000	 2.244622570450384e+000	-3.149628336079929e+000
1	 1.234072477991097e+000	 2.258119465873619e+000	-3.488512541437193e+000
1	 1.209583901640504e+000	 2.271331178112595e+000	-3.884671816062450e+000
1	 1.184993659058219e+000	 2.284256696816990e+000	-4.337742515275089e+000
1	 1.160306636030851e+000	 2.296895120241353e+000	-4.847339419998837e+000
1	 1.135527720329550e+000	 2.309245654893858e+000	-5.413058199105750e+000
1	 1.110661798796949e+000	 2.321307615092325e+000	-6.034477844993526e+000
1	 1.085713754464907e+000	 2.333080422429172e+000	-6.711163077391324e+000
1	 1.060688463706254e+000	 2.344563605147063e+000	-7.442666710576605e+000
1	 1.035590793423637e+000	 2.355756797427138e+000	-8.228531979385165e+000
1	 1.010425598278460e+000	 2.366659738591860e+000	-9.068294819604798e+000
1	 1.271496145402372e+000	 2.267884083038025e+000	-2.563684131056027e+000
1	 1.246861439865192e+000	 2.281520849728122e+000	-2.877201464036790e+000
1	 1.222119083064165e+000	 2.294869477818497e+000	-3.248726370775117e+000
1	 1.197274006442202e+000	 2.307928946488350e+000	-3.678106277204416e+000
1	 1.172331146418369e+000	 2.320698344647250e+000	-4.165163790151857e+000
1	 1.147295441416841e+000	 2.333176870580241e+000	-4.709698889074221e+000
1	 1.122171828923650e+000	 2.345363831499277e+000	-5.311491100112080e+000
1	 1.096965242574563e+000	 2.357258643002612e+000	-5.970301647848356e+000
1	 1.071680609277310e+000	 2.368860828443987e+000	-6.685875580314188e+000
1	 1.046322846371299e+000	 2.380170018213485e+000	-7.457943862956326e+000
1	 1.020896858827830e+000	 2.391185948932115e+000	-8.286225437456894e+000
1	 9.161842533366131e-001	 2.145923845529372e+000	-1.400132169152133e+001
1	 8.933059157493626e-001	 2.155547983255453e+000	-1.483076038279110e+001
1	 8.703750978801976e-001	 2.164908673947971e+000	-1.569182897520828e+001
1	 8.473961566412123e-001	 2.174005963882928e+000	-1.658315176350122e+001
1	 8.243734281452965e-001	 2.182839991099376e+000	-1.750336990399349e+001
1	 8.013112254104073e-001	 2.191410984317160e+000	-1.845114506523795e+001
1	 7.782138361143608e-001	 2.199719261790046e+000	-1.942516295685058e+001
1	 7.550855204020774e-001	 2.207765230096631e+000	-2.042413673140802e+001
1	 7.319305087471113e-001	 2.215549382871506e+000	-2.144681025471051e+001
1	 7.087529998691573e-001	 2.223072299479171e+000	-2.249196124015993e+001
1	 6.855571587091146e-001	 2.230334643633273e+000	-2.355840424344553e+001
1	 9.266555138874860e-001	 2.170450055869658e+000	-1.364849818176607e+001
1	 9.035156950175441e-001	 2.180184189869629e+000	-1.449896769456214e+001
1	 8.803227960576489e-001	 2.189651865845055e+000	-1.538306574918591e+001
1	 8.570812237159355e-001	 2.198853130600830e+000	-1.629984153463974e+001
1	 8.337953636636191e-001	 2.207788123753673e+000	-1.724836102829251e+001
1	 8.104695782130246e-001	 2.216457076637510e+000	-1.822770995321501e+001
1	 7.871082040467171e-001	 2.224860311143484e+000	-1.923699662609228e+001
1	 7.637155499996888e-001	 2.232998238497061e+000	-2.027535469170769e+001
1	 7.402958948964443e-001	 2.240871357974673e+000	-2.134194574037944e+001
1	 7.168534854447088e-001	 2.248480255562493e+000	-2.243596180511616e+001
1	 6.933925341873450e-001	 2.255825602559878e+000	-2.355662773564522e+001
1	 9.371267744375259e-001	 2.194976266209944e+000	-1.324513065194951e+001
1	 9.137254742848916e-001	 2.204820396483794e+000	-1.411291508226289e+001
1	 8.902704942342629e-001	 2.214395057742118e+000	-1.501652343904904e+001
1	 8.667662907898178e-001	 2.223700297318701e+000	-1.595540427480804e+001
1	 8.432172991810966e-001	 2.232736256407930e+000	-1.692902197192710e+001
1	 8.196279310147911e-001	 2.241503168957810e+000	-1.793685905755239e+001
1	 7.960025719782182e-001	 2.250001360496865e+000	-1.897841842198045e+001
1	 7.723455795964405e-001	 2.258231246897425e+000	-2.005322543758615e+001
1	 7.486612810449145e-001	 2.266193333077768e+000	-2.116082997563430e+001
1	 7.249539710193939e-001	 2.273888211645735e+000	-2.230080831865197e+001
1	 7.012279096647085e-001	 2.281316561486399e+000	-2.347276496636963e+001
1	 9.475980349868981e-001	 2.219502476550226e+000	-1.279200574647784e+001
1	 9.239352535515701e-001	 2.229456603097937e+000	-1.367349654655241e+001
1	 9.002181924102023e-001	 2.239138249639140e+000	-1.459317554786736e+001
1	 8.764513578630181e-001	 2.248547464036511e+000	-1.555086607933709e+001
1	 8.526392346978823e-001	 2.257684389062107e+000	-1.654640547361218e+001
1	 8.287862838158566e-001	 2.266549261278012e+000	-1.757964678917074e+001
1	 8.048969399090081e-001	 2.275142409850134e+000	-1.865046044943388e+001
1	 7.809756091924724e-001	 2.283464255297661e+000	-1.975873579683630e+001
1	 7.570266671926571e-001	 2.291515308180720e+000	-2.090438256005753e+001
1	 7.330544565933475e-001	 2.299296167728821e+000	-2.208733223289558e+001
1	 7.090632851413385e-001	 2.306807520412753e+000	-2.330753936353781e+001
1	 9.580692955357707e-001	 2.244028686890507e+000	-1.228987571910125e+001
1	 9.341450328177451e-001	 2.254092809712048e+000	-1.318156700401405e+001
1	 9.101658905856305e-001	 2.263881441536101e+000	-1.411395301893451e+001
1	 8.861364249356952e-001	 2.273394630754231e+000	-1.508720818454389e+001
1	 8.620611702141319e-001	 2.282632521716167e+000	-1.610151824824849e+001
1	 8.379446366163711e-001	 2.291595353598070e+000	-1.715708146207077e+001
1	 8.137913078392323e-001	 2.300283459203229e+000	-1.825410969162891e+001
1	 7.896056387879250e-001	 2.308697263697702e+000	-1.939282945494156e+001
1	 7.653920533398095e-001	 2.316837283283455e+000	-2.057348289001711e+001
1	 7.411549421667035e-001	 2.324704123811672e+000	-2.179632865040633e+001
1	 7.168986606173690e-001	 2.332298479338855e+000	-2.306164272812096e+001
1	 9.685405560843093e-001	 2.268554897230786e+000	-1.173946029196587e+001
1	 9.443548120835819e-001	 2.278729016326116e+000	-1.263794439991949e+001
1	 9.201135887607101e-001	 2.288624633432979e+000	-1.357974653641749e+001
1	 8.958214920080091e-001	 2.298241797471829e+000	-1.456536939267074e+001
1	 8.714831057299987e-001	 2.307580654370066e+000	-1.559532347482733e+001
1	 8.471029894164829e-001	 2.316641445917933e+000	-1.667012778518966e+001
1	 8.226856757690345e-001	 2.325424508556098e+000	-1.779031044914066e+001
1	 7.982356683829376e-001	 2.333930272097482e+000	-1.895640928721568e+001
1	 7.737574394865078e-001	 2.342159258385901e+000	-2.016897233192724e+001
1	 7.492554277395961e-001	 2.350112079894209e+000	-2.142855828911921e+001
1	 7.247340360929326e-001	 2.357789438264623e+000	-2.273573694379711e+001
1	 9.790118166326809e-001	 2.293081107571061e+000	-1.114144839536263e+001
1	 9.545645913492464e-001	 2.303365222940131e+000	-1.204341168540702e+001
1	 9.300612869356041e-001	 2.313367825329754e+000	-1.299140867836322e+001
1	 9.055065590801177e-001	 2.323088964189277e+000	-1.398624834120532e+001
1	 8.809050412456383e-001	 2.332528787023769e+000	-1.502874312467534e+001
1	 8.562613422163421e-001	 2.341687538237552e+000	-1.611970919434422e+001
1	 8.315800436985597e-001	 2.350565557908681e+000	-1.725996662255449e+001
1	 8.068656979776513e-001	 2.359163280496939e+000	-1.845033954127828e+001
1	 7.821228256328890e-001	 2.367481233487989e+000	-1.969165625604161e+001
1	 7.573559133121597e-001	 2.375520035976356e+000	-2.098474932119133e+001
1	 7.325694115681635e-001	 2.383280397189971e+000	-2.233045557688988e+001
1	 9.894830771810521e-001	 2.317607317911332e+000	-1.049649979700956e+001
1	 9.647743706149043e-001	 2.328001429554083e+000	-1.139871866911856e+001
1	 9.400089851104753e-001	 2.338111017226406e+000	-1.234975593299951e+001
1	 9.151916261521811e-001	 2.347936130906542e+000	-1.335070562810950e+001
1	 8.903269767612044e-001	 2.357476919677232e+000	-1.440266014186654e+001
1	 8.654196950160987e-001	 2.366733630556880e+000	-1.550671003610600e+001
1	 8.404744116279526e-001	 2.375706607260921e+000	-1.666394385014124e+001
1	 8.154957275722060e-001	 2.384396288896006e+000	-1.787544788095316e+001
1	 7.904882117790896e-001	 2.392803208589645e+000	-1.914230594111067e+001
1	 7.654563988845279e-001	 2.400927992058032e+000	-2.046559909508851e+001
1	 7.404047870431946e-001	 2.408771356114817e+000	-2.184640537471802e+001
1	 9.999543377295893e-001	 2.342133528251598e+000	-9.805246628966129e+000
1	 9.749841498807206e-001	 2.352637636167958e+000	-1.070458375249719e+001
1	 9.499566832854869e-001	 2.362854209122914e+000	-1.165557058835059e+001
1	 9.248766932243571e-001	 2.372783297623596e+000	-1.265956580351896e+001
1	 8.997489122768516e-001	 2.382425052330420e+000	-1.371792048663798e+001
1	 8.745780478159022e-001	 2.391779722875868e+000	-1.483197761446378e+001
1	 8.493687795573580e-001	 2.400847656612761e+000	-1.600307151122198e+001
1	 8.241257571667413e-001	 2.409629297294619e+000	-1.723252730174848e+001
1	 7.988535979252458e-001	 2.418125183690795e+000	-1.852166035936756e+001
1	 7.735568844568355e-001	 2.426335948139160e+000	-1.987177574947399e+001
1	 7.482401625181595e-001	 2.434262315039077e+000	-2.128416766980335e+001
1	 1.010425598278460e+000	 2.366659738591860e+000	-9.068294819604798e+000
1	 9.851939291468612e-001	 2.377273842781749e+000	-9.961695557185404e+000
1	 9.599043814608010e-001	 2.387597401019256e+000	-1.090960250435768e+001
1	 9.345617602968062e-001	 2.397630464340408e+000	-1.191361923760068e+001
1	 9.091708477927346e-001	 2.407373184983288e+000	-1.297533505174784e+001
1	 8.837364006159016e-001	 2.416825815194467e+000	-1.409632411022422e+001
1	 8.582631474869203e-001	 2.425988705964147e+000	-1.527814460496504e+001
1	 8.327557867613982e-001	 2.434862305692712e+000	-1.652233792723284e+001
1	 8.072189840714941e-001	 2.443447158791370e+000	-1.783042785052565e+001
1	 7.816573700292160e-001	 2.451743904219661e+000	-1.920391972674561e+001
1	 7.560755379931917e-001	 2.459753273962668e+000	-2.064429969676613e+001
1	 1.020896858827830e+000	 2.391185948932115e+000	-8.286225437456896e+000
1	 9.954037084134920e-001	 2.401910049395444e+000	-9.170714452270483e+000
1	 9.698520796365818e-001	 2.412340592915415e+000	-1.011257077594060e+001
1	 9.442468273696867e-001	 2.422477631056949e+000	-1.111362387345885e+001
1	 9.185927833090082e-001	 2.432321317635803e+000	-1.217568146089704e+001
1	 8.928947534162468e-001	 2.441871907512629e+000	-1.330052838229133e+001
1	 8.671575154167843e-001	 2.451129755315018e+000	-1.448992551355865e+001
1	 8.413858163563170e-001	 2.460095314090223e+000	-1.574560869485976e+001
1	 8.155843702179720e-001	 2.468769133891297e+000	-1.706928769275515e+001
1	 7.897578556018043e-001	 2.477151860299458e+000	-1.846264519342828e+001
1	 7.639109134684247e-001	 2.485244232885506e+000	-1.992733582817633e+001
1	 6.855571587091146e-001	 2.230334643633273e+000	-2.355840424344553e+001
1	 6.623471141318938e-001	 2.237337161406804e+000	-2.464777919255358e+001
1	 6.391269560606028e-001	 2.244080678083104e+000	-2.575802909076597e+001
1	 6.159007346850257e-001	 2.250566098306568e+000	-2.688250214703703e+001
1	 5.926724590196567e-001	 2.256794405071064e+000	-2.801462188931595e+001
1	 5.694460951855147e-001	 2.262766658109031e+000	-2.914789818233870e+001
1	 5.462255647562676e-001	 2.268483992241738e+000	-3.027593784354136e+001
1	 5.230147431693810e-001	 2.273947615693367e+000	-3.139245484547047e+001
1	 4.998174582029119e-001	 2.279158808371665e+000	-3.249128009436155e+001
1	 4.766374885184339e-001	 2.284118920117789e+000	-3.356637077584927e+001
1	 4.534785622704716e-001	 2.288829368928065e+000	-3.461181926004828e+001
1	 6.933925341873450e-001	 2.255825602559878e+000	-2.355662773564522e+001
1	 6.699172171789138e-001	 2.262908153566841e+000	-2.470535275101559e+001
1	 6.464316710871189e-001	 2.269728743299059e+000	-2.587976422949683e+001
1	 6.229399923922244e-001	 2.276288286740297e+000	-2.707348425053961e+001
1	 5.994462359286032e-001	 2.282587778119269e+000	-2.828020252904004e+001
1	 5.759544131469153e-001	 2.288628289280320e+000	-2.949368728443607e+001
1	 5.524684904413270e-001	 2.294410968014828e+000	-3.070779572171011e+001
1	 5.289923875425029e-001	 2.299937036356029e+000	-3.191648411259179e+001
1	 5.055299759769889e-001	 2.305207788840002e+000	-3.311381746652656e+001
1	 4.820850775934855e-001	 2.310224590735523e+000	-3.429397878223610e+001
1	 4.586614631563876e-001	 2.314988876245497e+000	-3.545127787195062e+001
1	 7.012279096647085e-001	 2.281316561486399e+000	-2.347276496636963e+001
1	 6.774873202250681e-001	 2.288479145726790e+000	-2.467783611026852e+001
1	 6.537363861127734e-001	 2.295376808514921e+000	-2.591339491754068e+001
1	 6.299792500985683e-001	 2.302010475173931e+000	-2.717346141535587e+001
1	 6.062200128367057e-001	 2.308381151167378e+000	-2.845211477941991e+001
1	 5.824627311074861e-001	 2.314489920451514e+000	-2.974350385286744e+001
1	 5.587114161255758e-001	 2.320337943787829e+000	-3.104185729691558e+001
1	 5.349700319148383e-001	 2.325926457018605e+000	-3.234149336173700e+001
1	 5.112424937503095e-001	 2.331256769308258e+000	-3.363682926723013e+001
1	 4.875326666678159e-001	 2.336330261353183e+000	-3.492239018457914e+001
1	 4.638443640416252e-001	 2.341148383562864e+000	-3.619281781070570e+001
1	 7.090632851413385e-001	 2.306807520412753e+000	-2.330753936353781e+001
1	 6.850574232704915e-001	 2.314050137886563e+000	-2.456584700323249e+001
1	 6.610411011377029e-001	 2.321024873730600e+000	-2.585945421431479e+001
1	 6.370185078041978e-001	 2.327732663607379e+000	-2.718289884308735e+001
1	 6.129937897441081e-001	 2.334174524215300e+000	-2.853076861694020e+001
1	 5.889710490673755e-001	 2.340351551622521e+000	-2.989771111510368e+001
1	 5.649543418091654e-001	 2.346264919560645e+000	-3.127844339698809e+001
1	 5.409476762865411e-001	 2.351915877681005e+000	-3.266776127697155e+001
1	 5.169550115230276e-001	 2.357305749776349e+000	-3.406054823564642e+001
1	 4.929802557415790e-001	 2.362435931970693e+000	-3.545178395868117e+001
1	 4.690272649263334e-001	 2.367307890880099e+000	-3.683655249559549e+001
1	 7.168986606173690e-001	 2.332298479338855e+000	-2.306164272812096e+001
1	 6.926275263153182e-001	 2.339621130046071e+000	-2.436997615667254e+001
1	 6.683458161620449e-001	 2.346672938946006e+000	-2.571845187485215e+001
1	 6.440577655092538e-001	 2.353454852040546e+000	-2.710224139757135e+001
1	 6.197675666509556e-001	 2.359967897262938e+000	-2.851655609466281e+001
1	 5.954793670267321e-001	 2.366213182793248e+000	-2.995665641897488e+001
1	 5.711972674922478e-001	 2.372191895333188e+000	-3.141786082375185e+001
1	 5.469253206577651e-001	 2.377905298343142e+000	-3.289555435880327e+001
1	 5.226675292952985e-001	 2.383354730244194e+000	-3.438519693601914e+001
1	 4.984278448149279e-001	 2.388541602587979e+000	-3.588233125585069e+001
1	 4.742101658106621e-001	 2.393467398197139e+000	-3.738259038741939e+001
1	 7.247340360929326e-001	 2.357789438264623e+000	-2.273573694379711e+001
1	 7.001976293596834e-001	 2.365192122205227e+000	-2.409078875106699e+001
1	 6.756505311859367e-001	 2.372321004161045e+000	-2.549087560956439e+001
1	 6.510970232138765e-001	 2.379177040473339e+000	-2.693191470427718e+001
1	 6.265413435573920e-001	 2.385761270310199e+000	-2.840985231111121e+001
1	 6.019876849857038e-001	 2.392074813963600e+000	-2.992067209107359e+001
1	 5.774401931749748e-001	 2.398118871105365e+000	-3.146040311122688e+001
1	 5.529029650286649e-001	 2.403894719004927e+000	-3.302512758278714e+001
1	 5.283800470672764e-001	 2.409403710711710e+000	-3.461098830768650e+001
1	 5.038754338880155e-001	 2.414647273204967e+000	-3.621419582587014e+001
1	 4.793930666947601e-001	 2.419626905513915e+000	-3.783103525653406e+001
1	 7.325694115681635e-001	 2.383280397189971e+000	-2.233045557688988e+001
1	 7.077677324037210e-001	 2.390763114363942e+000	-2.372882578679068e+001
1	 6.829552462095150e-001	 2.397969069375628e+000	-2.517719226315925e+001
1	 6.581362809182069e-001	 2.404899228905663e+000	-2.667232617914929e+001
1	 6.333151204635621e-001	 2.411554643356989e+000	-2.821101631697705e+001
1	 6.084960029444394e-001	 2.417936445133482e+000	-2.979007624007152e+001
1	 5.836831188574980e-001	 2.424045846877084e+000	-3.140635123517445e+001
1	 5.588806093993937e-001	 2.429884139666275e+000	-3.305672501586593e+001
1	 5.340925648391162e-001	 2.435452691178814e+000	-3.473812617980841e+001
1	 5.093230229609952e-001	 2.440752943821578e+000	-3.644753441281954e+001
1	 4.845759675787774e-001	 2.445786412830363e+000	-3.818198643369284e+001
1	 7.404047870431946e-001	 2.408771356114817e+000	-2.184640537471802e+001
1	 7.153378354475657e-001	 2.416334106522127e+000	-2.328460536355099e+001
1	 6.902599612329170e-001	 2.423617134589662e+000	-2.477784891870339e+001
1	 6.651755386223857e-001	 2.430621417337429e+000	-2.632386599212367e+001
1	 6.400888973696106e-001	 2.437348016403214e+000	-2.792039196425589e+001
1	 6.150043209030871e-001	 2.443798076302805e+000	-2.956517350902903e+001
1	 5.899260445399690e-001	 2.449972822648255e+000	-3.125597427758891e+001
1	 5.648582537701060e-001	 2.455873560327097e+000	-3.299058039357398e+001
1	 5.398050826109726e-001	 2.461501671645427e+000	-3.476680575341140e+001
1	 5.147706120340209e-001	 2.466858614437742e+000	-3.658249712576784e+001
1	 4.897588684628631e-001	 2.471945920146419e+000	-3.843553904495687e+001
1	 7.482401625181595e-001	 2.434262315039077e+000	-2.128416766980335e+001
1	 7.229079384913520e-001	 2.441905098679697e+000	-2.275862387943671e+001
1	 6.975646762562796e-001	 2.449265199803056e+000	-2.429327393231531e+001
1	 6.722147963265527e-001	 2.456343605768539e+000	-2.588690797010623e+001
1	 6.468626742756821e-001	 2.463141389448778e+000	-2.753830870203033e+001
1	 6.215126388617955e-001	 2.469659707471471e+000	-2.924625578043688e+001
1	 5.961689702225396e-001	 2.475899798418785e+000	-3.100953004943977e+001
1	 5.708358981409558e-001	 2.481862980987305e+000	-3.282691766097680e+001
1	 5.455176003830004e-001	 2.487550652111466e+000	-3.469721405314633e+001
1	 5.202182011072450e-001	 2.492964285053382e+000	-3.661922778617342e+001
1	 4.949417693471666e-001	 2.498105427462015e+000	-3.859178423184790e+001
1	 7.560755379931917e-001	 2.459753273962668e+000	-2.064429969676613e+001
1	 7.304780415352139e-001	 2.467476090836561e+000	-2.215135715541105e+001
1	 7.048693912797398e-001	 2.474913265015718e+000	-2.372387790352267e+001
1	 6.792540540308489e-001	 2.482065794198899e+000	-2.536181044380403e+001
1	 6.536364511819208e-001	 2.488934762493587e+000	-2.706508232277304e+001
1	 6.280209568207131e-001	 2.495521338639388e+000	-2.883360283741859e+001
1	 6.024118959053617e-001	 2.501826774188583e+000	-3.066726567469214e+001
1	 5.768135425120966e-001	 2.507852401646812e+000	-3.256595147997425e+001
1	 5.512301181553538e-001	 2.513599632576846e+000	-3.452953035095626e+001
1	 5.256657901808214e-001	 2.519069955668422e+000	-3.655786425368295e+001
1	 5.001246702318374e-001	 2.524264934777087e+000	-3.865080935781099e+001
1	 7.639109134684247e-001	 2.485244232885506e+000	-1.992733582817633e+001
1	 7.380481445792873e-001	 2.493047082992633e+000	-2.146326149060073e+001
1	 7.121741063034353e-001	 2.500561330227558e+000	-2.307005458590234e+001
1	 6.862933117354153e-001	 2.507787982628420e+000	-2.474891704244232e+001
1	 6.604102280884718e-001	 2.514728135537550e+000	-2.650101566271969e+001
1	 6.345292747799888e-001	 2.521382969806464e+000	-2.832748298424145e+001
1	 6.086548215885872e-001	 2.527753749957561e+000	-3.022941813838484e+001
1	 5.827911868836834e-001	 2.533841822305532e+000	-3.220788770538442e+001
1	 5.569426359281881e-001	 2.539648613041488e+000	-3.426392656367046e+001
1	 5.311133792549037e-001	 2.545175626282792e+000	-3.639853873188143e+001
1	 5.053075711170251e-001	 2.550424442091569e+000	-3.861269820197177e+001
1	 4.534785622704716e-001	 2.288829368928065e+000	-3.461181926004828e+001
1	 4.303478228187894e-001	 2.293290988703301e+000	-3.561597684306167e+001
1	 4.072454120468742e-001	 2.297506054455230e+000	-3.656619068665505e+001
1	 3.841748921516889e-001	 2.301476178916054e+000	-3.745484072504779e+001
1	 3.611397700823948e-001	 2.305203035563035e+000	-3.827451484144412e+001
1	 3.381434964856022e-001	 2.308688356741214e+000	-3.901801806571091e+001
1	 3.151894647169172e-001	 2.311933931773511e+000	-3.967838117700510e+001
1	 2.922810099184495e-001	 2.314941605060654e+000	-4.024886871080370e+001
1	 2.694214081618384e-001	 2.317713274173349e+000	-4.072298637118622e+001
1	 2.466138756562645e-001	 2.320250887939014e+000	-4.109448785056576e+001
1	 2.238615680208486e-001	 2.322556444525402e+000	-4.135738106036109e+001
1	 4.586614631563876e-001	 2.314988876245497e+000	-3.545127787195062e+001
1	 4.352663576684167e-001	 2.319501488801562e+000	-3.657424754635606e+001
1	 4.118999046346665e-001	 2.323764729417043e+000	-3.765021722411417e+001
1	 3.885657069651761e-001	 2.327780229256406e+000	-3.867142297414303e+001
1	 3.652673116907450e-001	 2.331549680923443e+000	-3.963030360798591e+001
1	 3.420082088961280e-001	 2.335074836562539e+000	-4.051951038558238e+001
1	 3.187918307202851e-001	 2.338357505947168e+000	-4.133191611781883e+001
1	 2.956215504233459e-001	 2.341399554558111e+000	-4.206062366458293e+001
1	 2.725006815198411e-001	 2.344202901653812e+000	-4.269897382848681e+001
1	 2.494324769776624e-001	 2.346769518335254e+000	-4.324055264581825e+001
1	 2.264201284821455e-001	 2.349101425607677e+000	-4.367919807761667e+001
1	 4.638443640416252e-001	 2.341148383562864e+000	-3.619281781070570e+001
1	 4.401848925174144e-001	 2.345711988899768e+000	-3.743692860223921e+001
1	 4.165543972218820e-001	 2.350023404378815e+000	-3.864217320248972e+001
1	 3.929565217781408e-001	 2.354084279596734e+000	-3.980080979458506e+001
1	 3.693948532986258e-001	 2.357896326283851e+000	-4.090529207032537e+001
1	 3.458729213062330e-001	 2.361461316383892e+000	-4.194827921174844e+001
1	 3.223941967232739e-001	 2.364781080120888e+000	-4.292264527063147e+001
1	 2.989620909278954e-001	 2.367857504055670e+000	-4.382148794409854e+001
1	 2.755799548775170e-001	 2.370692529134423e+000	-4.463813674596594e+001
1	 2.522510782987388e-001	 2.373288148731701e+000	-4.536616057486289e+001
1	 2.289786889431087e-001	 2.375646406690224e+000	-4.599937468153259e+001
1	 4.690272649263334e-001	 2.367307890880099e+000	-3.683655249559549e+001
1	 4.451034273659250e-001	 2.371922488997865e+000	-3.820407063260222e+001
1	 4.212088898086547e-001	 2.376282079340507e+000	-3.954206243849635e+001
1	 3.973473365907070e-001	 2.380388329937013e+000	-4.084296833572641e+001
1	 3.735223949061499e-001	 2.384242971644242e+000	-4.209941504089311e+001
1	 3.497376337160195e-001	 2.387847796205267e+000	-4.330422559423443e+001
1	 3.259965627259769e-001	 2.391204654294674e+000	-4.445042879736845e+001
1	 3.023026314321841e-001	 2.394315453553343e+000	-4.553126805708603e+001
1	 2.786592282349474e-001	 2.397182156615205e+000	-4.654020963443159e+001
1	 2.550696796195737e-001	 2.399806779128375e+000	-4.747095029971725e+001
1	 2.315372494038215e-001	 2.402191387773061e+000	-4.831742439546777e+001
1	 4.742101658106621e-001	 2.393467398197139e+000	-3.738259038741939e+001
1	 4.500219622140912e-001	 2.398132989095801e+000	-3.887572204624092e+001
1	 4.258633823951184e-001	 2.402540754302073e+000	-4.034988858199028e+001
1	 4.017381514029981e-001	 2.406692380277210e+000	-4.179786718309098e+001
1	 3.776499365134305e-001	 2.410589617004602e+000	-4.321261018200279e+001
1	 3.536023461255908e-001	 2.414234276026661e+000	-4.458725490897929e+001
1	 3.295989287284878e-001	 2.417628228468532e+000	-4.591513297342209e+001
1	 3.056431719362983e-001	 2.420773403051146e+000	-4.718977897040997e+001
1	 2.817385015922140e-001	 2.423671784096174e+000	-4.840493861139557e+001
1	 2.578882809402479e-001	 2.426325409525293e+000	-4.955457627943809e+001
1	 2.340958098643675e-001	 2.428736368856203e+000	-5.063288201065435e+001
1	 4.793930666947601e-001	 2.419626905513915e+000	-3.783103525653406e+001
1	 4.549404970620559e-001	 2.424343489193518e+000	-3.945192915848914e+001
1	 4.305178749814069e-001	 2.428799429263473e+000	-4.106565512498897e+001
1	 4.061289662151379e-001	 2.432996430617297e+000	-4.266547628073950e+001
1	 3.817774781205808e-001	 2.436936262364910e+000	-4.424481785179455e+001
1	 3.574670585350495e-001	 2.440620755848070e+000	-4.579727662398963e+001
1	 3.332012947309002e-001	 2.444051802642469e+000	-4.731662985717611e+001
1	 3.089837124403241e-001	 2.447231352549091e+000	-4.879684365279102e+001
1	 2.848177749493984e-001	 2.450161411577347e+000	-5.023208077365246e+001
1	 2.607068822608414e-001	 2.452844039922479e+000	-5.161670791618237e+001
1	 2.366543703248299e-001	 2.455281349939667e+000	-5.294530243652330e+001
1	 4.845759675787774e-001	 2.445786412830363e+000	-3.818198643369284e+001
1	 4.598590319099618e-001	 2.450553989290962e+000	-3.993273630317365e+001
1	 4.351723675676542e-001	 2.455058104224664e+000	-4.168936541011253e+001
1	 4.105197810272501e-001	 2.459300480957246e+000	-4.344576685861690e+001
1	 3.859050197277137e-001	 2.463282907725154e+000	-4.519598096006715e+001
1	 3.613317709444980e-001	 2.467007235669486e+000	-4.693420408050247e+001
1	 3.368036607333075e-001	 2.470475376816489e+000	-4.865479698073905e+001
1	 3.123242529443478e-001	 2.473689302047192e+000	-5.035229264687687e+001
1	 2.878970483065824e-001	 2.476651039058744e+000	-5.202140361012108e+001
1	 2.635254835814349e-001	 2.479362670319949e+000	-5.365702875607019e+001
1	 2.392129307852924e-001	 2.481826331023470e+000	-5.525425962480948e+001
1	 4.897588684628631e-001	 2.471945920146419e+000	-3.843553904495687e+001
1	 4.647775667579517e-001	 2.476764489388081e+000	-4.031818593746236e+001
1	 4.398268601539943e-001	 2.481316779185606e+000	-4.222102263848904e+001
1	 4.149105958394587e-001	 2.485604531297026e+000	-4.413871136451260e+001
1	 3.900325613349427e-001	 2.489629553085316e+000	-4.606604483326153e+001
1	 3.651964833540393e-001	 2.493393715490908e+000	-4.799795428804124e+001
1	 3.404060267358032e-001	 2.496898950990598e+000	-4.992951706031516e+001
1	 3.156647934484556e-001	 2.500147251545462e+000	-5.185596366848553e+001
1	 2.909763216638470e-001	 2.503140666540383e+000	-5.377268445196936e+001
1	 2.663440849021088e-001	 2.505881300717724e+000	-5.567523574078895e+001
1	 2.417714912458383e-001	 2.508371312107629e+000	-5.755934556197121e+001
1	 4.949417693471666e-001	 2.498105427462015e+000	-3.859178423184790e+001
1	 4.696961016061681e-001	 2.502974989484819e+000	-4.060831874012274e+001
1	 4.444813527405609e-001	 2.507575454146253e+000	-4.266062987716216e+001
1	 4.193014106518871e-001	 2.511908581636609e+000	-4.474428340029572e+001
1	 3.941601029423804e-001	 2.515976198445378e+000	-4.685495708792979e+001
1	 3.690611957637762e-001	 2.519780195312328e+000	-4.898844773234982e+001
1	 3.440083927384809e-001	 2.523322525164801e+000	-5.114067772477205e+001
1	 3.190053339527335e-001	 2.526605201043914e+000	-5.330770123102752e+001
1	 2.940555950212743e-001	 2.529630294022282e+000	-5.548570995728766e+001
1	 2.691626862229433e-001	 2.532399931115825e+000	-5.767103850621958e+001
1	 2.443300517065510e-001	 2.534916293192159e+000	-5.986016932491651e+001
1	 5.001246702318374e-001	 2.524264934777087e+000	-3.865080935781099e+001
1	 4.746146364547537e-001	 2.529185489581120e+000	-4.080317370367204e+001
1	 4.491358453274879e-001	 2.533834129106566e+000	-4.300819006603986e+001
1	 4.236922254646594e-001	 2.538212631975964e+000	-4.526245766211615e+001
1	 3.982876445501403e-001	 2.542322843805324e+000	-4.756266751207036e+001
1	 3.729259081738113e-001	 2.546166675133743e+000	-4.990560819526886e+001
1	 3.476107587414339e-001	 2.549746099339105e+000	-5.228817126108547e+001
1	 3.223458744572680e-001	 2.553063150542563e+000	-5.470735629328205e+001
1	 2.971348683789456e-001	 2.556119921504460e+000	-5.716027562780456e+001
1	 2.719812875440190e-001	 2.558918561514268e+000	-5.964415872467382e+001
1	 2.468886121675140e-001	 2.561461274277079e+000	-6.215635619544351e+001
1	 5.053075711170251e-001	 2.550424442091569e+000	-3.861269820197177e+001
1	 4.795331713038518e-001	 2.555395989676932e+000	-4.090278822085619e+001
1	 4.537903379149098e-001	 2.560092804066504e+000	-4.326370602441394e+001
1	 4.280830402778991e-001	 2.564516682315065e+000	-4.569320988428385e+001
1	 4.024151861583350e-001	 2.568669489165140e+000	-4.818912795376664e+001
1	 3.767906205842475e-001	 2.572553154955150e+000	-5.074936258569656e+001
1	 3.512131247447561e-001	 2.576169673513514e+000	-5.337189437545170e+001
1	 3.256864149621451e-001	 2.579521100041421e+000	-5.605478592884886e+001
1	 3.002141417369426e-001	 2.582609548986935e+000	-5.879618535534453e+001
1	 2.747998888654161e-001	 2.585437191913076e+000	-6.159432948761106e+001
1	 2.494471726288109e-001	 2.588006255362404e+000	-6.444754682917969e+001
1	 2.238615680208486e-001	 2.322556444525402e+000	-4.135738106036111e+001
1	 2.011641876059516e-001	 2.324632283812556e+000	-4.149744795226744e+001
1	 1.785282247002906e-001	 2.326480135022100e+000	-4.149915281563941e+001
1	 1.559566963524342e-001	 2.328102134340242e+000	-4.135505024910398e+001
1	 1.334525552926767e-001	 2.329500459691833e+000	-4.105801371887990e+001
1	 1.110186895228712e-001	 2.330677328820791e+000	-4.060124016676769e+001
1	 8.865792196686122e-002	 2.331634997380677e+000	-3.997825398771064e+001
1	 6.637301018034868e-002	 2.332375757037283e+000	-3.918291038887646e+001
1	 4.416664611898429e-002	 2.332901933585021e+000	-3.820939814314512e+001
1	 2.204145596341870e-002	 2.333215885078842e+000	-3.705224175075627e+001
1	 0.000000000000000e+000	 2.333319999983334e+000	-3.570630302367079e+001
1	 2.264201284821455e-001	 2.349101425607677e+000	-4.367919807761666e+001
1	 2.034633349817422e-001	 2.351200990094103e+000	-4.400060519955831e+001
1	 1.805686609440350e-001	 2.353069960779786e+000	-4.418885688910579e+001
1	 1.577391579000761e-001	 2.354710498265832e+000	-4.423597919341981e+001
1	 1.349778123275369e-001	 2.356124805369036e+000	-4.413432343221243e+001
1	 1.122875452358524e-001	 2.357315125180360e+000	-4.387657160607343e+001
1	 8.967121181265779e-002	 2.358283739133688e+000	-4.345574113736381e+001
1	 6.713160113034059e-002	 2.359032965086723e+000	-4.286518895541306e+001
1	 4.467143591148018e-002	 2.359565155415852e+000	-4.209861493878253e+001
1	 2.229337235189973e-002	 2.359882695126717e+000	-4.115006472831342e+001
1	 0.000000000000000e+000	 2.359987999982150e+000	-4.001393192556109e+001
1	 2.289786889431087e-001	 2.375646406690224e+000	-4.599937468153259e+001
1	 2.057624823571691e-001	 2.377769696375999e+000	-4.652354004120329e+001
1	 1.826090971873753e-001	 2.379659786537899e+000	-4.692247274991597e+001
1	 1.595216194472727e-001	 2.381318862191933e+000	-4.718776452181820e+001
1	 1.365030693619190e-001	 2.382749151046835e+000	-4.731133563855141e+001
1	 1.135564009483399e-001	 2.383952921540606e+000	-4.728544107726268e+001
1	 9.068450165797164e-002	 2.384932480887448e+000	-4.710267594110353e+001
1	 6.789019207989593e-002	 2.385690173136972e+000	-4.675598020366875e+001
1	 4.517622570362967e-002	 2.386228377247542e+000	-4.623864277993138e+001
1	 2.254528874017709e-002	 2.386549505175481e+000	-4.554430493726218e+001
1	 0.000000000000000e+000	 2.386655999981866e+000	-4.466696306107345e+001
1	 2.315372494038215e-001	 2.402191387773061e+000	-4.831742439546777e+001
1	 2.080616297323233e-001	 2.404338402658252e+000	-4.906560703066237e+001
1	 1.846495334304126e-001	 2.406249612296440e+000	-4.969915867122335e+001
1	 1.613040809941353e-001	 2.407927226118531e+000	-5.020932711063797e+001
1	 1.380283263959423e-001	 2.409373496725197e+000	-5.058768895894579e+001
1	 1.148252566604571e-001	 2.410590717901478e+000	-5.082615641167363e+001
1	 9.169779150292333e-002	 2.411581222641891e+000	-5.091698329797965e+001
1	 6.864878302912381e-002	 2.412347381187954e+000	-5.085277041910393e+001
1	 4.568101549551938e-002	 2.412891599079999e+000	-5.062647018939271e+001
1	 2.279720512830171e-002	 2.413216315225037e+000	-5.023139059325850e+001
1	 0.000000000000000e+000	 2.413323999982383e+000	-4.966119847245429e+001
1	 2.340958098643675e-001	 2.428736368856203e+000	-5.063288201065435e+001
1	 2.103607771072956e-001	 2.430907108940868e+000	-5.162618893914372e+001
1	 1.866899696732478e-001	 2.432839438055403e+000	-5.251810972494702e+001
1	 1.630865425407753e-001	 2.434535590045608e+000	-5.329963501354063e+001
1	 1.395535834297265e-001	 2.435997842404091e+000	-5.396208153145408e+001
1	 1.160941123723274e-001	 2.437228514262929e+000	-5.449709941917673e+001
1	 9.271108134763365e-002	 2.438229964396952e+000	-5.489667882667547e+001
1	 6.940737397813342e-002	 2.439004589239588e+000	-5.515315578219824e+001
1	 4.618580528723588e-002	 2.439554820913136e+000	-5.525921734626001e+001
1	 2.304912151632448e-002	 2.439883125275287e+000	-5.520790606385390e+001
1	 0.000000000000000e+000	 2.439991999983599e+000	-5.499262372900034e+001
1	 2.366543703248299e-001	 2.455281349939667e+000	-5.294530243652330e+001
1	 2.126599244821769e-001	 2.457475815223860e+000	-5.420469523024076e+001
1	 1.887304059159820e-001	 2.459429263814787e+000	-5.537855579254639e+001
1	 1.648690040873040e-001	 2.461143953973148e+000	-5.645770091125183e+001
1	 1.410788404633911e-001	 2.462622188083482e+000	-5.743326779384127e+001
1	 1.173629680840743e-001	 2.463866310624908e+000	-5.829672188912737e+001
1	 9.372437119222328e-002	 2.464878706152569e+000	-5.903986396148817e+001
1	 7.016596492703386e-002	 2.465661797291797e+000	-5.965483642786851e+001
1	 4.669059507886578e-002	 2.466218042746861e+000	-6.013412896899076e+001
1	 2.330103790429633e-002	 2.466549935326134e+000	-6.047058342741062e+001
1	 0.000000000000000e+000	 2.466659999985416e+000	-6.065739800615680e+001
1	 2.392129307852924e-001	 2.481826331023470e+000	-5.525425962480948e+001
1	 2.149590718570580e-001	 2.484044521507234e+000	-5.680056063245801e+001
1	 1.907708421587163e-001	 2.486019089574589e+000	-5.827975970345221e+001
1	 1.666514656338326e-001	 2.487752317901131e+000	-5.968257972496440e+001
1	 1.426040974970557e-001	 2.489246533763340e+000	-6.100005547274380e+001
1	 1.186318237958212e-001	 2.490504106987368e+000	-6.222354184795405e+001
1	 9.473766103681285e-002	 2.491527447908676e+000	-6.334472136302202e+001
1	 7.092455587593428e-002	 2.492319005344500e+000	-6.435561088612076e+001
1	 4.719538487049566e-002	 2.492881264581084e+000	-6.524856765520306e+001
1	 2.355295429226817e-002	 2.493216745377481e+000	-6.601629457371845e+001
1	 0.000000000000000e+000	 2.493327999987733e+000	-6.665184480128420e+001
1	 2.417714912458383e-001	 2.508371312107629e+000	-5.755934556197121e+001
1	 2.172582192320302e-001	 2.510613227791001e+000	-5.941324380237593e+001
1	 1.928112784015514e-001	 2.512608915334807e+000	-6.122101549169931e+001
1	 1.684339271804726e-001	 2.514360681829545e+000	-6.297336638127958e+001
1	 1.441293545308398e-001	 2.515870879443632e+000	-6.466130276400970e+001
1	 1.199006795076914e-001	 2.517141903350260e+000	-6.627614005437322e+001
1	 9.575095088152311e-002	 2.518176189665208e+000	-6.780951062028045e+001
1	 7.168314682494381e-002	 2.518976213397623e+000	-6.925337087569537e+001
1	 4.770017466221212e-002	 2.519544486415716e+000	-7.060000764436393e+001
1	 2.380487068029092e-002	 2.519883555429232e+000	-7.184204380618571e+001
1	 0.000000000000000e+000	 2.519995999990449e+000	-7.297244323893101e+001
1	 2.443300517065510e-001	 2.534916293192159e+000	-5.986016932491651e+001
1	 2.195573666071843e-001	 2.537181934075167e+000	-6.204222607180866e+001
1	 1.948517146445887e-001	 2.539198741095438e+000	-6.420164676209492e+001
1	 1.702163887273351e-001	 2.540969045758370e+000	-6.632919371757754e+001
1	 1.456546115648630e-001	 2.542495225124322e+000	-6.841591569019782e+001
1	 1.211695352198084e-001	 2.543779699713533e+000	-7.045315671481053e+001
1	 9.676424072647473e-002	 2.544824931422101e+000	-7.243256422279886e+001
1	 7.244173777417159e-002	 2.545633421451083e+000	-7.434609642482953e+001
1	 4.820496445410175e-002	 2.546207708250668e+000	-7.618602897237098e+001
1	 2.405678706841549e-002	 2.546550365481287e+000	-7.794496090883827e+001
1	 0.000000000000000e+000	 2.546663999993466e+000	-7.961581992239977e+001
1	 2.468886121675140e-001	 2.561461274277079e+000	-6.215635619544351e+001
1	 2.218565139826111e-001	 2.563750640359744e+000	-6.468701027286323e+001
1	 1.968921508879288e-001	 2.565788566856479e+000	-6.722100515797879e+001
1	 1.719988502745316e-001	 2.567577409687589e+000	-6.974923051763034e+001
1	 1.471798685992448e-001	 2.569119570805381e+000	-7.226284562238712e+001
1	 1.224383909322958e-001	 2.570417496077141e+000	-7.475328840305541e+001
1	 9.777753057178837e-002	 2.571473673179289e+000	-7.721228378322590e+001
1	 7.320032872372678e-002	 2.572290629504803e+000	-7.963185129540692e+001
1	 4.870975424625112e-002	 2.572870930085848e+000	-8.200431198959811e+001
1	 2.430870345669278e-002	 2.573217175533550e+000	-8.432229464440744e+001
1	 0.000000000000000e+000	 2.573331999996683e+000	-8.657874129197749e+001
1	 2.494471726288109e-001	 2.588006255362404e+000	-6.444754682917969e+001
1	 2.241556613584017e-001	 2.590319346644739e+000	-6.734711963530636e+001
1	 1.989325871316730e-001	 2.592378392617928e+000	-7.027846892327871e+001
1	 1.737813118221734e-001	 2.594185773617187e+000	-7.323267966810653e+001
1	 1.487051256341049e-001	 2.595743916486777e+000	-7.620108695449676e+001
1	 1.237072466452768e-001	 2.597055292441034e+000	-7.917528516948464e+001
1	 9.879082041758477e-002	 2.598122414936711e+000	-8.214713649237486e+001
1	 7.395891967371854e-002	 2.598947837558706e+000	-8.510877868871329e+001
1	 4.921454403874689e-002	 2.599534151921171e+000	-8.805263221630942e+001
1	 2.456061984517374e-002	 2.599883985585925e+000	-9.097140665255596e+001
1	 0.000000000000000e+000	 2.600000000000000e+000	-9.385810645345278e+001
1	 2.600000000000000e+000	 0.000000000000000e+000	 1.040091446015204e+002
1	 2.599883985585924e+000	 2.456061984517381e-002	 9.971388706921418e+001
1	 2.599534151921172e+000	 4.921454403874706e-002	 9.547306064284523e+001
1	 2.598947837558706e+000	 7.395891967371834e-002	 9.128761304596893e+001
1	 2.598122414936712e+000	 9.879082041758469e-002	 8.715866043900398e+001
1	 2.597055292441034e+000	 1.237072466452768e-001	 8.308748995698851e+001
1	 2.595743916486777e+000	 1.487051256341049e-001	 7.907556202961465e+001
1	 2.594185773617187e+000	 1.737813118221734e-001	 7.512451247155771e+001
1	 2.592378392617928e+000	 1.989325871316728e-001	 7.123615433119605e+001
1	 2.590319346644739e+000	 2.241556613584015e-001	 6.741247948593193e+001
1	 2.588006255362404e+000	 2.494471726288108e-001	 6.365565997247318e+001
1	 2.626668000003317e+000	 0.000000000000000e+000	 1.060812182765365e+002
1	 2.626550795638311e+000	 2.481253623389235e-002	 1.015601223077857e+002
1	 2.626197373756539e+000	 4.971933383164689e-002	 9.710347030615945e+001
1	 2.625605045612707e+000	 7.471751062421944e-002	 9.271225251469679e+001
1	 2.624771156694291e+000	 9.980411026394442e-002	 8.838762821200494e+001
1	 2.623693088805149e+000	 1.249761023588340e-001	 8.413092830430736e+001
1	 2.622368262168459e+000	 1.502303826695234e-001	 7.994365769935442e+001
1	 2.620794137547128e+000	 1.755637733703355e-001	 7.582749745004338e+001
1	 2.618968218379761e+000	 2.009730233758896e-001	 7.178430665566286e+001
1	 2.616888052930141e+000	 2.264548087346183e-001	 6.781612410878861e+001
1	 2.614551236448130e+000	 2.520057330904997e-001	 6.392516967600223e+001
1	 2.653336000006534e+000	 0.000000000000000e+000	 1.079493671259403e+002
1	 2.653217605690610e+000	 2.506445262281456e-002	 1.032105771457564e+002
1	 2.652860595591853e+000	 5.022412362489322e-002	 9.854651124124383e+001
1	 2.652262253666700e+000	 7.547610157515745e-002	 9.395816967215065e+001
1	 2.651419898451922e+000	 1.008174001107879e-001	 8.944672006865804e+001
1	 2.650330885169382e+000	 1.262449580728870e-001	 8.501350007634665e+001
1	 2.648992607850320e+000	 1.517556397054235e-001	 8.066001978621947e+001
1	 2.647402501477304e+000	 1.773462349189483e-001	 7.638796393756876e+001
1	 2.645558044141876e+000	 2.030134596205188e-001	 7.219919388153797e+001
1	 2.643456759215848e+000	 2.287539561112104e-001	 6.809574929332732e+001
1	 2.641096217534166e+000	 2.545642935525384e-001	 6.407984962112874e+001
1	 2.680004000009550e+000	 0.000000000000000e+000	 1.096139110411479e+002
1	 2.679884415742721e+000	 2.531636901188953e-002	 1.046658946189544e+002
1	 2.679523817427007e+000	 5.072891341839956e-002	 9.980310198497199e+001
1	 2.678919461720578e+000	 7.623469252642372e-002	 9.502651193177674e+001
1	 2.678068640209494e+000	 1.018306899579955e-001	 9.033726674022061e+001
1	 2.676968681533611e+000	 1.275138137873141e-001	 8.573667487607186e+001
1	 2.675616953532235e+000	 1.532808967416889e-001	 8.122621347845855e+001
1	 2.674010865407591e+000	 1.791286964679060e-001	 7.680753062796200e+001
1	 2.672147869904146e+000	 2.050538958654672e-001	 7.248244738225336e+001
1	 2.670025465501747e+000	 2.310531034880989e-001	 6.825295956725363e+001
1	 2.667641198620404e+000	 2.571228540148596e-001	 6.412123931191540e+001
1	 2.706672000012267e+000	 0.000000000000000e+000	 1.110751573064182e+002
1	 2.706551225794539e+000	 2.556828540106636e-002	 1.059266924206783e+002
1	 2.706187039261895e+000	 5.123370321207944e-002	 1.008741248739801e+002
1	 2.705576669774231e+000	 7.699328347790951e-002	 9.591838148658226e+001
1	 2.704717381966886e+000	 1.028439798054474e-001	 9.106054651281589e+001
1	 2.703606477897717e+000	 1.287826695019940e-001	 8.630186438827420e+001
1	 2.702241299214084e+000	 1.548061537782039e-001	 8.164374227905803e+001
1	 2.700619229337863e+000	 1.809111580171026e-001	 7.708775242109397e+001
1	 2.698737695666448e+000	 2.070943321106422e-001	 7.263563423757201e+001
1	 2.696594171787714e+000	 2.333522508652042e-001	 6.828929622261595e+001
1	 2.694186179706736e+000	 2.596814144773962e-001	 6.405081757940042e+001
1	 2.733340000014584e+000	 0.000000000000000e+000	 1.123334012138618e+002
1	 2.733218035845967e+000	 2.582020179029416e-002	 1.069935641379761e+002
1	 2.732850261096416e+000	 5.173849300584640e-002	 1.017604278106148e+002
1	 2.732233877827550e+000	 7.775187442950614e-002	 9.663483751511461e+001
1	 2.731366123723988e+000	 1.038572696530241e-001	 9.161778778585331e+001
1	 2.730244274261579e+000	 1.300515252168051e-001	 8.671042520498200e+001
1	 2.728865644895743e+000	 1.563314108148520e-001	 8.191405101492221e+001
1	 2.727227593267996e+000	 1.826936195664325e-001	 7.723012353492706e+001
1	 2.725327521428660e+000	 2.091347683559510e-001	 7.266026037001394e+001
1	 2.723162878073631e+000	 2.356513982424473e-001	 6.820624040061877e+001
1	 2.720731160793048e+000	 2.622399749400806e-001	 6.387000554139802e+001
1	 2.760008000016400e+000	 0.000000000000000e+000	 1.133889266427969e+002
1	 2.759884845896901e+000	 2.607211817952203e-002	 1.078670804162507e+002
1	 2.759513482930462e+000	 5.224328279961397e-002	 1.024628259265029e+002
1	 2.758891085880423e+000	 7.851046538110483e-002	 9.717689825955209e+001
1	 2.758014865480682e+000	 1.048705595006057e-001	 9.201017148212819e+001
1	 2.756882070625080e+000	 1.313203809316261e-001	 8.696366148707227e+001
1	 2.755489990577086e+000	 1.578566678515173e-001	 8.203852867160073e+001
1	 2.753835957197865e+000	 1.844760811157896e-001	 7.723608043714678e+001
1	 2.751917347190656e+000	 2.111752046013007e-001	 7.255777349945218e+001
1	 2.749731584359378e+000	 2.379505456197489e-001	 6.800521599759783e+001
1	 2.747276141879232e+000	 2.647985354028454e-001	 6.358016939070878e+001
1	 2.786676000017617e+000	 0.000000000000000e+000	 1.142420066058378e+002
1	 2.786551655947241e+000	 2.632403456869907e-002	 1.085477900569955e+002
1	 2.786176704763929e+000	 5.274807259329568e-002	 1.029821031505998e+002
1	 2.785548293932743e+000	 7.926905633259697e-002	 9.754554298447204e+001
1	 2.784663607236856e+000	 1.058838493480727e-001	 9.223883331953579e+001
1	 2.783519866988098e+000	 1.325892366463356e-001	 8.706282747305546e+001
1	 2.782114336257991e+000	 1.593819248880836e-001	 8.201851106524866e+001
1	 2.780444321127344e+000	 1.862585426650683e-001	 7.710700460846233e+001
1	 2.778507172952311e+000	 2.132156408465986e-001	 7.232956592805861e+001
1	 2.776300290644838e+000	 2.402496929970298e-001	 6.768759240413709e+001
1	 2.773821122965178e+000	 2.673570958656236e-001	 6.318262302323344e+001
1	 2.813344000018133e+000	 0.000000000000000e+000	 1.148929037639256e+002
1	 2.813218465996884e+000	 2.657595095777438e-002	 1.090362210530966e+002
1	 2.812839926596714e+000	 5.325286238680507e-002	 1.033190136880565e+002
1	 2.812205501984400e+000	 8.002764728387371e-002	 9.774171382421602e+001
1	 2.811312348992394e+000	 1.068971391953054e-001	 9.230486595358241e+001
1	 2.810157663350513e+000	 1.338580923608121e-001	 8.700912984517382e+001
1	 2.808738681938335e+000	 1.609071819244348e-001	 8.185528336261973e+001
1	 2.807052685056305e+000	 1.880410042141626e-001	 7.684422514874511e+001
1	 2.805096998713504e+000	 2.152560770917517e-001	 7.197697716685711e+001
1	 2.802868996929889e+000	 2.425488403742108e-001	 6.725468708839956e+001
1	 2.800366104050776e+000	 2.699156563283477e-001	 6.267863051661376e+001
1	 2.840012000017850e+000	 0.000000000000000e+000	 1.153418709123420e+002
1	 2.839885276045730e+000	 2.682786734669706e-002	 1.093328815658056e+002
1	 2.839503148428710e+000	 5.375765218005565e-002	 1.034742834157659e+002
1	 2.838862710035285e+000	 8.078623823482643e-002	 9.776631752617193e+001
1	 2.837961090747182e+000	 1.079104290421840e-001	 9.220932099918633e+001
1	 2.836795459712210e+000	 1.351269480749341e-001	 8.680372996219225e+001
1	 2.835363027617994e+000	 1.624324389604548e-001	 8.155008245908159e+001
1	 2.833661048984628e+000	 1.898234657629666e-001	 7.644902123633608e+001
1	 2.831686824474109e+000	 2.172965133366674e-001	 7.150129641429513e+001
1	 2.829437703214413e+000	 2.448479877512126e-001	 6.670776803391156e+001
1	 2.826911085135918e+000	 2.724742167909504e-001	 6.206940846922518e+001
1	 2.866680000016666e+000	 0.000000000000000e+000	 1.155891514395943e+002
1	 2.866552086093679e+000	 2.707978373541622e-002	 1.094382608471811e+002
1	 2.866166370259814e+000	 5.426244197296101e-002	 1.034486112000151e+002
1	 2.865519918085286e+000	 8.154482918534640e-002	 9.762022709675317e+001
1	 2.864609832501105e+000	 1.089237188885890e-001	 9.195321093962855e+001
1	 2.863433256073065e+000	 1.363958037885802e-001	 8.644774596756291e+001
1	 2.861987373296846e+000	 1.639576959960276e-001	 8.110409922389873e+001
1	 2.860269412912185e+000	 1.916059273113747e-001	 7.592262445008285e+001
1	 2.858276650234000e+000	 2.193369495812528e-001	 7.090376489646975e+001
1	 2.856006409498290e+000	 2.471471351279561e-001	 6.604805604127826e+001
1	 2.853456066220490e+000	 2.750327772533643e-001	 6.135612820861528e+001
1	 2.588006255362404e+000	 2.494471726288108e-001	 6.365565997247316e+001
1	 2.585437191913076e+000	 2.747998888654162e-001	 5.997784171235821e+001
1	 2.582609548986936e+000	 3.002141417369426e-001	 5.638883666913920e+001
1	 2.579521100041420e+000	 3.256864149621451e-001	 5.288919025444817e+001
1	 2.576169673513514e+000	 3.512131247447558e-001	 4.947953332724587e+001
1	 2.572553154955151e+000	 3.767906205842475e-001	 4.616058315791568e+001
1	 2.568669489165140e+000	 4.024151861583352e-001	 4.293314424315230e+001
1	 2.564516682315065e+000	 4.280830402778990e-001	 3.979810896512008e+001
1	 2.560092804066504e+000	 4.537903379149099e-001	 3.675645808852136e+001
1	 2.555395989676932e+000	 4.795331713038518e-001	 3.380926108940810e+001
1	 2.550424442091569e+000	 5.053075711170251e-001	 3.095767630978521e+001
1	 2.614551236448130e+000	 2.520057330904997e-001	 6.392516967600222e+001
1	 2.611955822312248e+000	 2.776184901871920e-001	 6.012276211620640e+001
1	 2.609099176469710e+000	 3.032934150953239e-001	 5.641772992280654e+001
1	 2.605979049540490e+000	 3.290269554674278e-001	 5.281048573990932e+001
1	 2.602593247688028e+000	 3.548154907485161e-001	 4.930152130835860e+001
1	 2.598939634776541e+000	 3.806553329951613e-001	 4.589140861782516e+001
1	 2.595016134524813e+000	 4.065427277670499e-001	 4.258080092434199e+001
1	 2.590820732653894e+000	 4.324738550916992e-001	 3.937043362674223e+001
1	 2.586351479026042e+000	 4.584448305029269e-001	 3.626112499558887e+001
1	 2.581606489772227e+000	 4.844517061535696e-001	 3.325377674834000e+001
1	 2.576583949405427e+000	 5.104904720028427e-001	 3.034937446467233e+001
1	 2.641096217534166e+000	 2.545642935525384e-001	 6.407984962112874e+001
1	 2.638474452711707e+000	 2.804370915093107e-001	 6.016188175865872e+001
1	 2.635588803952722e+000	 3.063726884540587e-001	 5.634962014200361e+001
1	 2.632436999039727e+000	 3.323674959730879e-001	 5.264334144687373e+001
1	 2.629016821862626e+000	 3.584178567526872e-001	 4.904339461065501e+001
1	 2.625326114597917e+000	 3.845200454065251e-001	 4.555020217017806e+001
1	 2.621362779884366e+000	 4.106702693762562e-001	 4.216426148042839e+001
1	 2.617124782992493e+000	 4.368646699060307e-001	 3.888614580766681e+001
1	 2.612610153985244e+000	 4.630993230915091e-001	 3.571650529052370e+001
1	 2.607816989867085e+000	 4.893702410038771e-001	 3.265606776274826e+001
1	 2.602743456718762e+000	 5.156733728892600e-001	 2.970563943143348e+001
1	 2.667641198620404e+000	 2.571228540148596e-001	 6.412123931191539e+001
1	 2.664993083111360e+000	 2.832556928317136e-001	 6.009665184532975e+001
1	 2.662078431435898e+000	 3.094519618130928e-001	 5.618586094412346e+001
1	 2.658894948539081e+000	 3.357080364790731e-001	 5.238900416456838e+001
1	 2.655440396037278e+000	 3.620202227572167e-001	 4.870628401444135e+001
1	 2.651712594419278e+000	 3.883847578182854e-001	 4.513796947428887e+001
1	 2.647709425243826e+000	 4.147978109858976e-001	 4.168439741596581e+001
1	 2.643428833330921e+000	 4.412554847208339e-001	 3.834597391195640e+001
1	 2.638868828944195e+000	 4.677538156805937e-001	 3.512317542904290e+001
1	 2.634027489961617e+000	 4.942887758547080e-001	 3.201654989996519e+001
1	 2.628902964031701e+000	 5.208562737762097e-001	 2.902671766681452e+001
1	 2.694186179706736e+000	 2.596814144773962e-001	 6.405081757940042e+001
1	 2.691511713511108e+000	 2.860742941543416e-001	 5.992846638871973e+001
1	 2.688568058919160e+000	 3.125312351723725e-001	 5.592775259947168e+001
1	 2.685352898038497e+000	 3.390485769853321e-001	 5.204867154531296e+001
1	 2.681863970211957e+000	 3.656225887620534e-001	 4.829127573511697e+001
1	 2.678099074240624e+000	 3.922494702303885e-001	 4.465567655567905e+001
1	 2.674056070603223e+000	 4.189253525959177e-001	 4.114204588885676e+001
1	 2.669732883669233e+000	 4.456462995360488e-001	 3.775061763672093e+001
1	 2.665127503902978e+000	 4.724083082701173e-001	 3.448168914831044e+001
1	 2.660237990055931e+000	 4.992073107059976e-001	 3.133562254162116e+001
1	 2.655062471344379e+000	 5.260391746636258e-001	 2.831284591451776e+001
1	 2.720731160793048e+000	 2.622399749400806e-001	 6.387000554139802e+001
1	 2.718030343910860e+000	 2.888928954771356e-001	 5.965866499825546e+001
1	 2.715057686402431e+000	 3.156105085318434e-001	 5.557654463368752e+001
1	 2.711810847537922e+000	 3.423891174918127e-001	 5.162349450155628e+001
1	 2.708287544386637e+000	 3.692249547671451e-001	 4.779941359717568e+001
1	 2.704485554061953e+000	 3.961141826427811e-001	 4.410425173952464e+001
1	 2.700402715962583e+000	 4.230528942062603e-001	 4.053801138587801e+001
1	 2.696036934007484e+000	 4.500371143516156e-001	 3.710074937252344e+001
1	 2.691386178861675e+000	 4.770628008600171e-001	 3.379257857521219e+001
1	 2.686448490150135e+000	 5.041258455576796e-001	 3.061366948298496e+001
1	 2.681221978656926e+000	 5.312220755514417e-001	 2.756425167903153e+001
1	 2.747276141879232e+000	 2.647985354028454e-001	 6.358016939070878e+001
1	 2.744548974310516e+000	 2.917114968000369e-001	 5.928853550858202e+001
1	 2.741547313885638e+000	 3.186897818914522e-001	 5.513343827929241e+001
1	 2.738268797037303e+000	 3.457296579984634e-001	 5.111457946394761e+001
1	 2.734711118561289e+000	 3.728273207724399e-001	 4.723170108217208e+001
1	 2.730872033883267e+000	 3.999788950554091e-001	 4.348458747201502e+001
1	 2.726749361321934e+000	 4.271804358168683e-001	 3.987306730107041e+001
1	 2.722340984345731e+000	 4.544279291674743e-001	 3.639701552259925e+001
1	 2.717644853820373e+000	 4.817172934502300e-001	 3.305635527037983e+001
1	 2.712658990244341e+000	 5.090443804096893e-001	 2.985105968596420e+001
1	 2.707381485969473e+000	 5.364049764395906e-001	 2.678115367199019e+001
1	 2.773821122965178e+000	 2.673570958656236e-001	 6.318262302323343e+001
1	 2.771067604709985e+000	 2.945300981229868e-001	 5.881931645694083e+001
1	 2.768036941368701e+000	 3.217690552511445e-001	 5.459958878647352e+001
1	 2.764726746536587e+000	 3.490701985052323e-001	 5.052299050975155e+001
1	 2.761134692735884e+000	 3.764296867778861e-001	 4.658910325909590e+001
1	 2.757258513704563e+000	 4.038436074682190e-001	 4.279754203713075e+001
1	 2.753096006681305e+000	 4.313079774276856e-001	 3.914795742349894e+001
1	 2.748645034684032e+000	 4.588187439835653e-001	 3.564003774632674e+001
1	 2.743903528779152e+000	 4.863717860406929e-001	 3.227351121226837e+001
1	 2.738869490338654e+000	 5.139629152619604e-001	 2.904814798886830e+001
1	 2.733540993282150e+000	 5.415878773280060e-001	 2.596376223290465e+001
1	 2.800366104050776e+000	 2.699156563283477e-001	 6.267863051661377e+001
1	 2.797586235109169e+000	 2.973486994459259e-001	 5.825219941964763e+001
1	 2.794526568851548e+000	 3.248483286108667e-001	 5.397610760244206e+001
1	 2.791184696035717e+000	 3.524107390120678e-001	 4.984975137021054e+001
1	 2.787558266910396e+000	 3.800320527834318e-001	 4.587254860495675e+001
1	 2.783644993525842e+000	 4.077083198811574e-001	 4.204394117578060e+001
1	 2.779442652040724e+000	 4.354355190386557e-001	 3.836339734039710e+001
1	 2.774949085022441e+000	 4.632095587998287e-001	 3.483041413197638e+001
1	 2.770162203738096e+000	 4.910262786313429e-001	 3.144451972526416e+001
1	 2.765079990433185e+000	 5.188814501144279e-001	 2.820527577580461e+001
1	 2.759700500595092e+000	 5.467707782166210e-001	 2.511227972596385e+001
1	 2.826911085135918e+000	 2.724742167909504e-001	 6.206940846922518e+001
1	 2.824104865507971e+000	 3.001673007687956e-001	 5.758833121693186e+001
1	 2.821016196334098e+000	 3.279276019705644e-001	 5.326406442800506e+001
1	 2.817642645534646e+000	 3.557512795189181e-001	 4.909584732481079e+001
1	 2.813981841084797e+000	 3.836344187890252e-001	 4.508293072279625e+001
1	 2.810031473347105e+000	 4.115730322941703e-001	 4.122457961371530e+001
1	 2.805789297400218e+000	 4.395630606497219e-001	 3.752007576125720e+001
1	 2.801253135361017e+000	 4.676003736162049e-001	 3.396872030338611e+001
1	 2.796420878697291e+000	 4.956807712221167e-001	 3.056983635550314e+001
1	 2.791290490528042e+000	 5.237999849670262e-001	 2.732277160836004e+001
1	 2.785860007908426e+000	 5.519536791053696e-001	 2.422690091448042e+001
1	 2.853456066220490e+000	 2.750327772533643e-001	 6.135612820861527e+001
1	 2.850623495906301e+000	 3.029859020915370e-001	 5.682881599470949e+001
1	 2.847505823816279e+000	 3.310068753301843e-001	 5.246448915934709e+001
1	 2.844100595033316e+000	 3.590918200257314e-001	 4.826222698981749e+001
1	 2.840405415259059e+000	 3.872367847946143e-001	 4.422110996380668e+001
1	 2.836417953168350e+000	 4.154377447072045e-001	 4.034022250415841e+001
1	 2.832135942759817e+000	 4.436906022608281e-001	 3.661865576801470e+001
1	 2.827557185699815e+000	 4.719911884326337e-001	 3.305551046486631e+001
1	 2.822679553656821e+000	 5.003352638129518e-001	 2.964989969780363e+001
1	 2.817500990623338e+000	 5.287185198196899e-001	 2.640095182202462e+001
1	 2.812019515222285e+000	 5.571365799941846e-001	 2.330781331443582e+001
1	 2.550424442091569e+000	 5.053075711170251e-001	 3.095767630978521e+001
1	 2.545175626282793e+000	 5.311133792549038e-001	 2.820308601549746e+001
1	 2.539648613041488e+000	 5.569426359281883e-001	 2.554695697084720e+001
1	 2.533841822305532e+000	 5.827911868836830e-001	 2.298936395189381e+001
1	 2.527753749957560e+000	 6.086548215885872e-001	 2.053036080154710e+001
1	 2.521382969806465e+000	 6.345292747799887e-001	 1.816997979066676e+001
1	 2.514728135537550e+000	 6.604102280884717e-001	 1.590823096559725e+001
1	 2.507787982628420e+000	 6.862933117354155e-001	 1.374510148259934e+001
1	 2.500561330227559e+000	 7.121741063034355e-001	 1.168055492970147e+001
1	 2.493047082992633e+000	 7.380481445792869e-001	 9.714530636561209e+000
1	 2.485244232885506e+000	 7.639109134684247e-001	 7.846942972992885e+000
1	 2.576583949405427e+000	 5.104904720028427e-001	 3.034937446467233e+001
1	 2.571281296896450e+000	 5.365609683296080e-001	 2.754788283980214e+001
1	 2.565697593505349e+000	 5.626551537016215e-001	 2.484935681813560e+001
1	 2.559831242963416e+000	 5.887688312558329e-001	 2.225366962666086e+001
1	 2.553680725725668e+000	 6.148977472723327e-001	 1.976065806659784e+001
1	 2.547244600972649e+000	 6.410375927397363e-001	 1.737012199447868e+001
1	 2.540521508580615e+000	 6.671840049954465e-001	 1.508182381869394e+001
1	 2.533510171057051e+000	 6.933325694403609e-001	 1.289548801237577e+001
1	 2.526209395438530e+000	 7.194788213274720e-001	 1.081080064349355e+001
1	 2.518618075147866e+000	 7.456182476236749e-001	 8.827408923041098e+000
1	 2.510735191807548e+000	 7.717462889439608e-001	 6.944920772194267e+000
1	 2.602743456718762e+000	 5.156733728892600e-001	 2.970563943143348e+001
1	 2.597386967509508e+000	 5.420085574049052e-001	 2.686363439492488e+001
1	 2.591746573968552e+000	 5.683676714756258e-001	 2.412858211913765e+001
1	 2.585820663620601e+000	 5.947464756285220e-001	 2.150018007710840e+001
1	 2.579607701493043e+000	 6.211406729565766e-001	 1.897807476949452e+001
1	 2.573106232138085e+000	 6.475459106999375e-001	 1.656186130418417e+001
1	 2.566314881622926e+000	 6.739577819028286e-001	 1.425108301848536e+001
1	 2.559232359484934e+000	 7.003718271456700e-001	 1.204523114517578e+001
1	 2.551857460648768e+000	 7.267835363518348e-001	 9.943744523643767e+000
1	 2.544189067302395e+000	 7.531883506683609e-001	 7.946009357295141e+000
1	 2.536226150728920e+000	 7.795816644197814e-001	 6.051359018341898e+000
1	 2.628902964031701e+000	 5.208562737762097e-001	 2.902671766681453e+001
1	 2.623492638122118e+000	 5.474561464807289e-001	 2.615042344712901e+001
1	 2.617795554431263e+000	 5.740801892501384e-001	 2.338457126990760e+001
1	 2.611810084277259e+000	 6.007241200016894e-001	 2.072870786674433e+001
1	 2.605534677259869e+000	 6.273835986412624e-001	 1.818231537427702e+001
1	 2.598967863302959e+000	 6.540542286605391e-001	 1.574481099125064e+001
1	 2.592108254664672e+000	 6.807315588105687e-001	 1.341554670339263e+001
1	 2.584954547912257e+000	 7.074110848512966e-001	 1.119380907779123e+001
1	 2.577505525858459e+000	 7.340882513764790e-001	 9.078819128364421e+000
1	 2.569760059456394e+000	 7.607584537132994e-001	 7.069732253898618e+000
1	 2.561717109649789e+000	 7.874170398958366e-001	 5.165638250021567e+000
1	 2.655062471344379e+000	 5.260391746636258e-001	 2.831284591451776e+001
1	 2.649598308734428e+000	 5.529037355570140e-001	 2.540832950080009e+001
1	 2.643844534893646e+000	 5.797927070250948e-001	 2.261726509436095e+001
1	 2.637799504933566e+000	 6.067017643752749e-001	 1.993907294609365e+001
1	 2.631461653026330e+000	 6.336265243263336e-001	 1.737309599228399e+001
1	 2.624829494467459e+000	 6.605625466214887e-001	 1.491859956841226e+001
1	 2.617901627706041e+000	 6.875053357186183e-001	 1.257477121415358e+001
1	 2.610676736339205e+000	 7.144503425571936e-001	 1.034072057167523e+001
1	 2.603153591067784e+000	 7.413929664013583e-001	 8.215479379179566e+000
1	 2.595331051610041e+000	 7.683285567584446e-001	 6.198001561484109e+000
1	 2.587208068570322e+000	 7.952524153720765e-001	 4.287163419262499e+000
1	 2.681221978656926e+000	 5.312220755514417e-001	 2.756425167903153e+001
1	 2.675703979346590e+000	 5.583513246336942e-001	 2.463742895756941e+001
1	 2.669893515355863e+000	 5.855052248004324e-001	 2.182660672583670e+001
1	 2.663788925589698e+000	 6.126794087492185e-001	 1.913110229233909e+001
1	 2.657388628792607e+000	 6.398694500117333e-001	 1.655014381396487e+001
1	 2.650691125631771e+000	 6.670708645827341e-001	 1.408287004615819e+001
1	 2.643695000747222e+000	 6.942791126269274e-001	 1.172833020586258e+001
1	 2.636398924765966e+000	 7.214896002633147e-001	 9.485483949740107e+000
1	 2.628801656276926e+000	 7.486976814264279e-001	 7.353201469979880e+000
1	 2.620902043763512e+000	 7.758986598037490e-001	 5.330263709805806e+000
1	 2.612699027490689e+000	 8.030877908484521e-001	 3.415362700580989e+000
1	 2.707381485969473e+000	 5.364049764395906e-001	 2.678115367199019e+001
1	 2.701809649958751e+000	 5.637989137107040e-001	 2.383779526621288e+001
1	 2.695942495818080e+000	 5.912177425760865e-001	 2.101254149552593e+001
1	 2.689778346245831e+000	 6.186570531234596e-001	 1.830462956985306e+001
1	 2.683315604558885e+000	 6.461123756974059e-001	 1.571319657363206e+001
1	 2.676552756796084e+000	 6.735791825442223e-001	 1.323727923232510e+001
1	 2.669488373788400e+000	 7.010528895354475e-001	 1.087581381148885e+001
1	 2.662121113192726e+000	 7.285288579696132e-001	 8.627636151315123e+000
1	 2.654449721486068e+000	 7.560023964516416e-001	 6.491481839323634e+000
1	 2.646473035916982e+000	 7.834687628491664e-001	 4.465986523643923e+000
1	 2.638189986411056e+000	 8.109231663249131e-001	 2.549686369068318e+000
1	 2.733540993282150e+000	 5.415878773280060e-001	 2.596376223290465e+001
1	 2.727915320571063e+000	 5.692465027879770e-001	 2.300949906394265e+001
1	 2.721991476280464e+000	 5.969302603519942e-001	 2.017501682730653e+001
1	 2.715767766902137e+000	 6.246346974979377e-001	 1.745949481022180e+001
1	 2.709242580325347e+000	 6.523553013832940e-001	 1.486200204494649e+001
1	 2.702414387960584e+000	 6.800875005059013e-001	 1.238149707190617e+001
1	 2.695281746829769e+000	 7.078266664441295e-001	 1.001682785342466e+001
1	 2.687843301619676e+000	 7.355681156760430e-001	 7.766731841367099e+000
1	 2.680097786695394e+000	 7.633071114769547e-001	 5.629836201747179e+000
1	 2.672044028070629e+000	 7.910388658946514e-001	 3.604658199071404e+000
1	 2.663680945331590e+000	 8.187585418014102e-001	 1.689605742897685e+000
1	 2.759700500595092e+000	 5.467707782166210e-001	 2.511227972596385e+001
1	 2.754020991183672e+000	 5.746940918654475e-001	 2.215260830966277e+001
1	 2.748040456743174e+000	 6.026427781280914e-001	 1.931398213855940e+001
1	 2.741757187558796e+000	 6.306123418725927e-001	 1.659554411046767e+001
1	 2.735169556092172e+000	 6.585982270693414e-001	 1.399631756509715e+001
1	 2.728276019125458e+000	 6.865958184677176e-001	 1.151520602440839e+001
1	 2.721075119871516e+000	 7.146004433529241e-001	 9.150993099876525e+000
1	 2.713565490046998e+000	 7.426073733825569e-001	 6.902342570384086e+000
1	 2.705745851905085e+000	 7.706118265023212e-001	 4.767798634169288e+000
1	 2.697615020224629e+000	 7.986089689401570e-001	 2.745786337945221e+000
1	 2.689171904252460e+000	 8.265939172778939e-001	 8.346121859755891e-001
1	 2.785860007908426e+000	 5.519536791053696e-001	 2.422690091448042e+001
1	 2.780126661796730e+000	 5.801416809430494e-001	 2.126718840971741e+001
1	 2.774089437206379e+000	 6.083552959043150e-001	 1.842938874657244e+001
1	 2.767746608215981e+000	 6.365899862473640e-001	 1.571262934827402e+001
1	 2.761096531859549e+000	 6.648411527554916e-001	 1.311590958578866e+001
1	 2.754137650290895e+000	 6.931041364296191e-001	 1.063810047628985e+001
1	 2.746868492913828e+000	 7.213742202617819e-001	 8.277944563151625e+000
1	 2.739287678474881e+000	 7.496466310891085e-001	 6.034055981591612e+000
1	 2.731393917115323e+000	 7.779165415276959e-001	 3.904920713767969e+000
1	 2.723186012379159e+000	 8.061790719856368e-001	 1.888897036795043e+000
1	 2.714662863173830e+000	 8.344292927543137e-001	-1.578383321547322e-002
1	 2.812019515222285e+000	 5.571365799941846e-001	 2.330781331443582e+001
1	 2.806232332410390e+000	 5.855892700207178e-001	 2.035330233661988e+001
1	 2.800138417670241e+000	 6.140678136806009e-001	 1.752118978016899e+001
1	 2.793736028873866e+000	 6.425676306221915e-001	 1.481060791310521e+001
1	 2.787023507627656e+000	 6.710840784416882e-001	 1.222055324929131e+001
1	 2.779999281457081e+000	 6.996124543915534e-001	 9.749886186192768e+000
1	 2.772661865956895e+000	 7.281479971706544e-001	 7.397330837111483e+000
1	 2.765009866903514e+000	 7.566858887956516e-001	 5.161475062419385e+000
1	 2.757041982326296e+000	 7.852212565530333e-001	 3.040770703978042e+000
1	 2.748757004534392e+000	 8.137491750310452e-001	 1.033534026566781e+000
1	 2.740153822095873e+000	 8.422646682306209e-001	-8.620536302422417e-001
1	 2.485244232885506e+000	 7.639109134684247e-001	 7.846942972992885e+000
1	 2.477151860299458e+000	 7.897578556018046e-001	 6.071960574576860e+000
1	 2.468769133891298e+000	 8.155843702179724e-001	 4.383626072542702e+000
1	 2.460095314090223e+000	 8.413858163563166e-001	 2.781635683656198e+000
1	 2.451129755315018e+000	 8.671575154167841e-001	 1.265672333849910e+000
1	 2.441871907512629e+000	 8.928947534162470e-001	-1.645942961992233e-001
1	 2.432321317635803e+000	 9.185927833090084e-001	-1.509507735889860e+000
1	 2.422477631056948e+000	 9.442468273696871e-001	-2.769424700522765e+000
1	 2.412340592915415e+000	 9.698520796365817e-001	-3.944715078706918e+000
1	 2.401910049395445e+000	 9.954037084134922e-001	-5.035761931877673e+000
1	 2.391185948932115e+000	 1.020896858827830e+000	-6.042961506415845e+000
1	 2.510735191807548e+000	 7.717462889439608e-001	 6.944920772194267e+000
1	 2.502559816378509e+000	 7.978583411747027e-001	 5.157362025772248e+000
1	 2.494091108990538e+000	 8.239497563647817e-001	 3.458827143327167e+000
1	 2.485328322487116e+000	 8.500158459516010e-001	 1.848979866381067e+000
1	 2.476270804665347e+000	 8.760518833470556e-001	 3.274607160994116e-001
1	 2.466917999830329e+000	 9.020531062170464e-001	-1.106113028216752e+000
1	 2.457269450287938e+000	 9.280147188257830e-001	-2.452147345171492e+000
1	 2.447324797773200e+000	 9.539318944431129e-001	-3.711071482034696e+000
1	 2.437083784811378e+000	 9.797997778129441e-001	-4.883337960403579e+000
1	 2.426546256009037e+000	 1.005613487680731e+000	-5.969422576937784e+000
1	 2.415712159272363e+000	 1.031368119377818e+000	-6.969824399331484e+000
1	 2.536226150728920e+000	 7.795816644197814e-001	 6.051359018341898e+000
1	 2.527967772456935e+000	 8.059588267478867e-001	 4.253718572362242e+000
1	 2.519413084089206e+000	 8.323151425118924e-001	 2.547264526426293e+000
1	 2.510561330883490e+000	 8.586458755472128e-001	 9.316437559107414e-001
1	 2.501411854015220e+000	 8.849462512776898e-001	-5.935288757094578e-001
1	 2.491964092147640e+000	 9.112114590182462e-001	-2.028670611302523e+000
1	 2.482217582939757e+000	 9.374366543429982e-001	-3.374230875198427e+000
1	 2.472171964489210e+000	 9.636169615170172e-001	-4.630691328775170e+000
1	 2.461826976707175e+000	 9.897474759898183e-001	-5.798565906324886e+000
1	 2.451182462622545e+000	 1.015823266948505e+000	-6.878400831029953e+000
1	 2.440238369612606e+000	 1.041839379928356e+000	-7.870774610900494e+000
1	 2.561717109649789e+000	 7.874170398958366e-001	 5.165638250021567e+000
1	 2.553375728534892e+000	 8.140593123213009e-001	 3.360409432054416e+000
1	 2.544735059187441e+000	 8.406805286592410e-001	 1.648340945300077e+000
1	 2.535794339279474e+000	 8.672759051430786e-001	 2.907802430160138e-002
1	 2.526552903364751e+000	 8.938406192086001e-001	-1.497773786569250e+000
1	 2.517010184464659e+000	 9.203698118197515e-001	-2.932648806297583e+000
1	 2.507165715591338e+000	 9.468585898605495e-001	-4.276021359206705e+000
1	 2.497019131205037e+000	 9.733020285912878e-001	-5.528405885157366e+000
1	 2.486570168602850e+000	 9.996951741670863e-001	-6.690357017428198e+000
1	 2.475818669235987e+000	 1.026033046216697e+000	-7.762469627784014e+000
1	 2.464764579952845e+000	 1.052310640479326e+000	-8.745378838283152e+000
1	 2.587208068570322e+000	 7.952524153720765e-001	 4.287163419262499e+000
1	 2.578783684612534e+000	 8.221597978948896e-001	 2.476838288055996e+000
1	 2.570057034285386e+000	 8.490459148067618e-001	 7.614826625280448e-001
1	 2.561027347675200e+000	 8.759059347391240e-001	-8.592450069613505e-001
1	 2.551693952714053e+000	 9.027349871397038e-001	-2.385732548947054e+000
1	 2.542056276781484e+000	 9.295281646214674e-001	-3.818414328561549e+000
1	 2.532113848242760e+000	 9.562805253783324e-001	-5.157771464096140e+000
1	 2.521866297920744e+000	 9.829870956658126e-001	-6.404332001499013e+000
1	 2.511313360498441e+000	 1.009642872344632e+000	-7.558671045946975e+000
1	 2.500454875849389e+000	 1.036242825485187e+000	-8.621410849690491e+000
1	 2.489290790293080e+000	 1.062781901030612e+000	-9.593220855435954e+000
1	 2.612699027490689e+000	 8.030877908484521e-001	 3.415362700580989e+000
1	 2.604191640690019e+000	 8.302602834685960e-001	 1.602432095578011e+000
1	 2.595379009383188e+000	 8.574113009543917e-001	-1.138616684950643e-001
1	 2.586260356070796e+000	 8.845359643352752e-001	-1.733832423084504e+000
1	 2.576835002063240e+000	 9.116293550709154e-001	-3.257845800512239e+000
1	 2.567102369098211e+000	 9.386865174232990e-001	-4.686319581933535e+000
1	 2.557061980894103e+000	 9.657024608962423e-001	-6.019723996129256e+000
1	 2.546713464636391e+000	 9.926721627404799e-001	-7.258581967891757e+000
1	 2.536056552393992e+000	 1.019590570522337e+000	-8.403469314836912e+000
1	 2.525091082462769e+000	 1.046452604753855e+000	-9.455014891550253e+000
1	 2.513817000633315e+000	 1.073253161582096e+000	-1.041390068005761e+001
1	 2.638189986411056e+000	 8.109231663249131e-001	 2.549686369068318e+000
1	 2.629599596767505e+000	 8.383607690423659e-001	 7.366399575310395e-001
1	 2.620700984480991e+000	 8.657766871020663e-001	-9.782220852921281e-001
1	 2.611493364466391e+000	 8.931659939314580e-001	-2.595171710858268e+000
1	 2.601976051412428e+000	 9.205237230021509e-001	-4.114537148660105e+000
1	 2.592148461414938e+000	 9.478448702251517e-001	-5.536703350142483e+000
1	 2.582010113545447e+000	 9.751243964141759e-001	-6.862112377313021e+000
1	 2.571560631352037e+000	 1.002357229815177e+000	-8.091263734512513e+000
1	 2.560799744289543e+000	 1.029538268700084e+000	-9.224714641892151e+000
1	 2.549727289076148e+000	 1.056662384022583e+000	-1.026308024923244e+001
1	 2.538343210973550e+000	 1.083724422133662e+000	-1.120703378883041e+001
1	 2.663680945331590e+000	 8.187585418014102e-001	 1.689605742897685e+000
1	 2.655007552845147e+000	 8.464612546161422e-001	-1.210679352228393e-001
1	 2.646022959578938e+000	 8.741420732497217e-001	-1.832108335924562e+000
1	 2.636726372862116e+000	 9.017960235275986e-001	-3.443731696424087e+000
1	 2.627117100761730e+000	 9.294180909333258e-001	-4.956213985395666e+000
1	 2.617194553731764e+000	 9.570032230269308e-001	-6.369891448517437e+000
1	 2.606958246196869e+000	 9.845463319320279e-001	-7.685161094427330e+000
1	 2.596407798067744e+000	 1.012042296889793e+000	-8.902481119284406e+000
1	 2.585542936185135e+000	 1.039485966877756e+000	-1.002237126821862e+001
1	 2.574363495689549e+000	 1.066872163291252e+000	-1.104541313204547e+001
1	 2.562869421313786e+000	 1.094195682685192e+000	-1.197225037772150e+001
1	 2.689171904252460e+000	 8.265939172778939e-001	 8.346121859755891e-001
1	 2.680415508923102e+000	 8.545617401898698e-001	-9.712013033451808e-001
1	 2.671344934677172e+000	 8.825074593972931e-001	-2.676010840622551e+000
1	 2.661959381258101e+000	 9.104260531236234e-001	-4.279963429706249e+000
1	 2.652258150111261e+000	 9.383124588643561e-001	-5.783268255870991e+000
1	 2.642240646048783e+000	 9.661615758285405e-001	-7.186197338632191e+000
1	 2.631906378848450e+000	 9.939682674496944e-001	-8.489086122514992e+000
1	 2.621254964783572e+000	 1.021727363964215e+000	-9.692334003727417e+000
1	 2.610286128080809e+000	 1.049433665055237e+000	-1.079640479077537e+001
1	 2.598999702302992e+000	 1.077081942559741e+000	-1.180182709715452e+001
1	 2.587395631654025e+000	 1.104666943236571e+000	-1.270919466435437e+001
1	 2.714662863173830e+000	 8.344292927543137e-001	-1.578383321547322e-002
1	 2.705823465001528e+000	 8.626622257634926e-001	-1.814250722185286e+000
1	 2.696666909775837e+000	 8.908728455447167e-001	-3.510401599236594e+000
1	 2.687192389654475e+000	 9.190560827194575e-001	-5.104301019014258e+000
1	 2.677399199461134e+000	 9.472068267951564e-001	-6.596077183622820e+000
1	 2.667286738366093e+000	 9.753199286298869e-001	-7.985922708320203e+000
1	 2.656854511500270e+000	 1.003390202967071e+000	-9.274095324512169e+000
1	 2.646102131499581e+000	 1.031412431038331e+000	-1.046091851777444e+001
1	 2.635029319976607e+000	 1.059381363232407e+000	-1.154678209871680e+001
1	 2.623635908916500e+000	 1.087291721827933e+000	-1.253214270459594e+001
1	 2.611921841994267e+000	 1.115138203787681e+000	-1.341752422968510e+001
1	 2.740153822095873e+000	 8.422646682306209e-001	-8.620536302422417e-001
1	 2.731231421080580e+000	 8.707627113369549e-001	-2.650688512300298e+000
1	 2.721988884875082e+000	 8.992382316919291e-001	-4.335735048038063e+000
1	 2.712425398051369e+000	 9.276861123150280e-001	-5.917162419060737e+000
1	 2.702540248811464e+000	 9.561011947256431e-001	-7.395003955329854e+000
1	 2.692332830683795e+000	 9.844782814308750e-001	-8.769358019315446e+000
1	 2.681802644152406e+000	 1.012812138484053e+000	-1.004038882857274e+001
1	 2.670949298215834e+000	 1.041097498112028e+000	-1.120832721427175e+001
1	 2.659772511872570e+000	 1.069329061409152e+000	-1.227347131328769e+001
1	 2.648272115530094e+000	 1.097501501095708e+000	-1.323618719154764e+001
1	 2.636448052334516e+000	 1.125609464338406e+000	-1.409690939642392e+001
1	 2.391185948932115e+000	 1.020896858827830e+000	-6.042961506415845e+000
1	 2.380170018213486e+000	 1.046322846371298e+000	-6.971774708767773e+000
1	 2.368860828443987e+000	 1.071680609277310e+000	-7.827307007578653e+000
1	 2.357258643002612e+000	 1.096965242574563e+000	-8.608982093831079e+000
1	 2.345363831499277e+000	 1.122171828923650e+000	-9.316204638263425e+000
1	 2.333176870580242e+000	 1.147295441416840e+000	-9.948361396564323e+000
1	 2.320698344647250e+000	 1.172331146418369e+000	-1.050482239490687e+001
1	 2.307928946488350e+000	 1.197274006442202e+000	-1.098494219483632e+001
1	 2.294869477818497e+000	 1.222119083064165e+000	-1.138806123628464e+001
1	 2.281520849728123e+000	 1.246861439865192e+000	-1.171350725724239e+001
1	 2.267884083038025e+000	 1.271496145402371e+000	-1.196059678837450e+001
1	 2.415712159272363e+000	 1.031368119377818e+000	-6.969824399331484e+000
1	 2.404583238999920e+000	 1.057054899319571e+000	-7.889839934259705e+000
1	 2.393158051741089e+000	 1.082672754848955e+000	-8.734376453310214e+000
1	 2.381436863576317e+000	 1.108216730684771e+000	-9.502925674929228e+000
1	 2.369420047906573e+000	 1.133681859050856e+000	-1.019496682121954e+001
1	 2.357108086267037e+000	 1.159063162504583e+000	-1.080996770093163e+001
1	 2.344501569053610e+000	 1.184355656806279e+000	-1.134738586169878e+001
1	 2.331601196160210e+000	 1.209554353826513e+000	-1.180666981041743e+001
1	 2.318407777524915e+000	 1.234654264488092e+000	-1.218726030045876e+001
1	 2.304922233583135e+000	 1.259650401739496e+000	-1.248859168418019e+001
1	 2.291145595626142e+000	 1.284537783556398e+000	-1.271009332898972e+001
1	 2.440238369612606e+000	 1.041839379928356e+000	-7.870774610900494e+000
1	 2.428996459786430e+000	 1.067786952268393e+000	-8.780785735274344e+000
1	 2.417455275038343e+000	 1.093664900421135e+000	-9.613142653706376e+000
1	 2.405615084150245e+000	 1.119468218795488e+000	-1.036743252701984e+001
1	 2.393476264314157e+000	 1.145191889178536e+000	-1.104323859998257e+001
1	 2.381039301954177e+000	 1.170830883592758e+000	-1.164014123556896e+001
1	 2.368304793460358e+000	 1.196380167194577e+000	-1.215771900327722e+001
1	 2.355273445832485e+000	 1.221834701211166e+000	-1.259554982028773e+001
1	 2.341946077231757e+000	 1.247189445912312e+000	-1.295321214406837e+001
1	 2.328323617438561e+000	 1.272439363614045e+000	-1.323028621485214e+001
1	 2.314407108214644e+000	 1.297579421710628e+000	-1.342635534623414e+001
1	 2.464764579952845e+000	 1.052310640479326e+000	-8.745378838283148e+000
1	 2.453409680572995e+000	 1.078519005217651e+000	-9.643981993345749e+000
1	 2.441752498335712e+000	 1.104657045993749e+000	-1.046281761310815e+001
1	 2.429793304724341e+000	 1.130719706906630e+000	-1.120159489681440e+001
1	 2.417532480721959e+000	 1.156701919306625e+000	-1.186002972421118e+001
1	 2.404970517641571e+000	 1.182598604681319e+000	-1.243784561495215e+001
1	 2.392108017867391e+000	 1.208404677583234e+000	-1.293477472283433e+001
1	 2.378945695505065e+000	 1.234115048596146e+000	-1.335055886353353e+001
1	 2.365484376938910e+000	 1.259724627336829e+000	-1.368495057437227e+001
1	 2.351725001294287e+000	 1.285228325488860e+000	-1.393771420452068e+001
1	 2.337668620803414e+000	 1.310621059865093e+000	-1.410862703389889e+001
1	 2.489290790293080e+000	 1.062781901030612e+000	-9.593220855435956e+000
1	 2.477822901359597e+000	 1.089251058167239e+000	-1.047882342345696e+001
1	 2.466049721633156e+000	 1.115649191566700e+000	-1.128264439136525e+001
1	 2.453971525298550e+000	 1.141971195018112e+000	-1.200454080627178e+001
1	 2.441588697129901e+000	 1.168211949435054e+000	-1.264438897008243e+001
1	 2.428901733329134e+000	 1.194366325770216e+000	-1.320208529829780e+001
1	 2.415911242274610e+000	 1.220429187972218e+000	-1.367754719044273e+001
1	 2.402617945177838e+000	 1.246395395981444e+000	-1.407071391067165e+001
1	 2.389022676646253e+000	 1.272259808761648e+000	-1.438154747701849e+001
1	 2.375126385150191e+000	 1.298017287363961e+000	-1.461003355768265e+001
1	 2.360930133392335e+000	 1.323662698019824e+000	-1.475618237267110e+001
1	 2.513817000633315e+000	 1.073253161582096e+000	-1.041390068005761e+001
1	 2.502236122146217e+000	 1.099983111117045e+000	-1.128472836259484e+001
1	 2.490346944930636e+000	 1.126641337139889e+000	-1.207189558886122e+001
1	 2.478149745872810e+000	 1.153222683129850e+000	-1.277543230738138e+001
1	 2.465644913537911e+000	 1.179721979563755e+000	-1.339540223646910e+001
1	 2.452832949016774e+000	 1.206134046859399e+000	-1.393190359704251e+001
1	 2.439714466681911e+000	 1.232453698361500e+000	-1.438506982994123e+001
1	 2.426290194850694e+000	 1.258675743367047e+000	-1.475507029616926e+001
1	 2.412560976353672e+000	 1.284794990186778e+000	-1.504211095847369e+001
1	 2.398527769006154e+000	 1.310806249239369e+000	-1.524643504266054e+001
1	 2.384191645981290e+000	 1.336704336174856e+000	-1.536832367704545e+001
1	 2.538343210973550e+000	 1.083724422133662e+000	-1.120703378883041e+001
1	 2.526649342932838e+000	 1.110715164066960e+000	-1.206113762853688e+001
1	 2.514644168228117e+000	 1.137633482713217e+000	-1.282987191936768e+001
1	 2.502327966447069e+000	 1.164474171241759e+000	-1.351346383812311e+001
1	 2.489701129945919e+000	 1.191232009692661e+000	-1.411219075148834e+001
1	 2.476764164704405e+000	 1.217901767948820e+000	-1.462638079783562e+001
1	 2.463517691089194e+000	 1.244478208751050e+000	-1.505641342252862e+001
1	 2.449962444523521e+000	 1.270956090752944e+000	-1.540271986502580e+001
1	 2.436099276061050e+000	 1.297330171612221e+000	-1.566578359614309e+001
1	 2.421929152862056e+000	 1.323595211115106e+000	-1.584614070390359e+001
1	 2.407453158570164e+000	 1.349745974330221e+000	-1.594438022647697e+001
1	 2.562869421313786e+000	 1.094195682685192e+000	-1.197225037772150e+001
1	 2.551062563719440e+000	 1.121447217016874e+000	-1.280751344416514e+001
1	 2.538941391525559e+000	 1.148625628286586e+000	-1.355590086484335e+001
1	 2.526506187021271e+000	 1.175725659353757e+000	-1.421786067282643e+001
1	 2.513757346353844e+000	 1.202742039821704e+000	-1.479390938202857e+001
1	 2.500695380391937e+000	 1.229669489038429e+000	-1.528463239330822e+001
1	 2.487320915496360e+000	 1.256502719140836e+000	-1.569068431924707e+001
1	 2.473634694196210e+000	 1.283236438139122e+000	-1.601278922577630e+001
1	 2.459637575768267e+000	 1.309865353037983e+000	-1.625174078896634e+001
1	 2.445330536717780e+000	 1.336384172991190e+000	-1.640840236545262e+001
1	 2.430714671158838e+000	 1.362787612485952e+000	-1.648370697513133e+001
1	 2.587395631654025e+000	 1.104666943236571e+000	-1.270919466435437e+001
1	 2.575475784506004e+000	 1.132179269966677e+000	-1.352333842295976e+001
1	 2.563238614822923e+000	 1.159617773859896e+000	-1.424933540674127e+001
1	 2.550684407595356e+000	 1.186977147465758e+000	-1.488787746066453e+001
1	 2.537813562761619e+000	 1.214252069950818e+000	-1.543974503942151e+001
1	 2.524626596079279e+000	 1.241437210128177e+000	-1.590580741346614e+001
1	 2.511124139903305e+000	 1.268527229530830e+000	-1.628702275512985e+001
1	 2.497306943868649e+000	 1.295516785525570e+000	-1.658443810285454e+001
1	 2.483175875475209e+000	 1.322400534464070e+000	-1.679918920182296e+001
1	 2.468731920573206e+000	 1.349173134867645e+000	-1.693250021952004e+001
1	 2.453976183747196e+000	 1.375829250642081e+000	-1.698568333501789e+001
1	 2.611921841994267e+000	 1.115138203787681e+000	-1.341752422968510e+001
1	 2.599889005292512e+000	 1.142911322916259e+000	-1.420811461165014e+001
1	 2.587535838120173e+000	 1.170609919433050e+000	-1.490955282879485e+001
1	 2.574862628169269e+000	 1.198228635577678e+000	-1.552279684649098e+001
1	 2.561869779169168e+000	 1.225762100079934e+000	-1.604891517493963e+001
1	 2.548557811766347e+000	 1.253204931218014e+000	-1.648908685109360e+001
1	 2.534927364309929e+000	 1.280551739920999e+000	-1.684460125833103e+001
1	 2.520979193540728e+000	 1.307797132912276e+000	-1.711685778178505e+001
1	 2.506714175181758e+000	 1.334935715890488e+000	-1.730736529758079e+001
1	 2.492133304428215e+000	 1.361962096744488e+000	-1.741774149458986e+001
1	 2.477237696335122e+000	 1.388870888798642e+000	-1.744971202768165e+001
1	 2.636448052334516e+000	 1.125609464338406e+000	-1.409690939642392e+001
1	 2.624302226078947e+000	 1.153643375865511e+000	-1.486136258630206e+001
1	 2.611833061417271e+000	 1.181602065005949e+000	-1.553595358662826e+001
1	 2.599040848742955e+000	 1.209480123689433e+000	-1.612192816865609e+001
1	 2.585925995576417e+000	 1.237272130208986e+000	-1.662066635926965e+001
1	 2.572489027453051e+000	 1.264972652307893e+000	-1.703368217504529e+001
1	 2.558730588716130e+000	 1.292576250311315e+000	-1.736262314805204e+001
1	 2.544651443212335e+000	 1.320077480299228e+000	-1.760926964115913e+001
1	 2.530252474887798e+000	 1.347470897317242e+000	-1.777553395108048e+001
1	 2.515534688282688e+000	 1.374751058621742e+000	-1.786345919786000e+001
1	 2.500499208922499e+000	 1.401912526955667e+000	-1.787521799998973e+001
1	 2.267884083038025e+000	 1.271496145402371e+000	-1.196059678837450e+001
1	 2.253958198620401e+000	 1.296021946435735e+000	-1.214976897452165e+001
1	 2.239746463665040e+000	 1.320430225689309e+000	-1.230184868116215e+001
1	 2.225250231807174e+000	 1.344716083974012e+000	-1.241685420574436e+001
1	 2.210470966914092e+000	 1.368874639231026e+000	-1.249485348410117e+001
1	 2.195410242948957e+000	 1.392901029590033e+000	-1.253596408749710e+001
1	 2.180069743733891e+000	 1.416790416433498e+000	-1.254035314225426e+001
1	 2.164451262611717e+000	 1.440537987463155e+000	-1.250823717148215e+001
1	 2.148556702005920e+000	 1.464138959764830e+000	-1.243988185862031e+001
1	 2.132388072878528e+000	 1.487588582867686e+000	-1.233560173268774e+001
1	 2.115947494085821e+000	 1.510882141793964e+000	-1.219575977532249e+001
1	 2.291145595626142e+000	 1.284537783556398e+000	-1.271009332898972e+001
1	 2.277076874483293e+000	 1.309315143844457e+000	-1.287305255251857e+001
1	 2.262719370855698e+000	 1.333973776940951e+000	-1.299911269661548e+001
1	 2.248074452262729e+000	 1.358508733406175e+000	-1.308835108447846e+001
1	 2.233143597586459e+000	 1.382915081106391e+000	-1.314089184449020e+001
1	 2.217928396934077e+000	 1.407187908303436e+000	-1.315690578674324e+001
1	 2.202430551398550e+000	 1.431322326750428e+000	-1.313661020613032e+001
1	 2.186651872716886e+000	 1.455313474789711e+000	-1.308026861181304e+001
1	 2.170594282825593e+000	 1.479156520449109e+000	-1.298819038305746e+001
1	 2.154259813312990e+000	 1.502846664532555e+000	-1.286073035160302e+001
1	 2.137650604768313e+000	 1.526379143701107e+000	-1.269828831091069e+001
1	 2.314407108214644e+000	 1.297579421710628e+000	-1.342635534623414e+001
1	 2.300195550346515e+000	 1.322608341253345e+000	-1.356348516516374e+001
1	 2.285692278046610e+000	 1.347517328192726e+000	-1.366402374546653e+001
1	 2.270898672718448e+000	 1.372301382838444e+000	-1.372808357988241e+001
1	 2.255816228258888e+000	 1.396955522981840e+000	-1.375582031708967e+001
1	 2.240446550919154e+000	 1.421474787016904e+000	-1.374743255659281e+001
1	 2.224791359063059e+000	 1.445854237067408e+000	-1.370316157598277e+001
1	 2.208852482821807e+000	 1.470088962116305e+000	-1.362329099060370e+001
1	 2.192631863644929e+000	 1.494174081133418e+000	-1.350814634582320e+001
1	 2.176131553747041e+000	 1.518104746197447e+000	-1.335809464226822e+001
1	 2.159353715450340e+000	 1.541876145608267e+000	-1.317354379455279e+001
1	 2.337668620803414e+000	 1.310621059865093e+000	-1.410862703389889e+001
1	 2.323314226209956e+000	 1.335901538662437e+000	-1.422043985039349e+001
1	 2.308665185237677e+000	 1.361060879444680e+000	-1.429606964934459e+001
1	 2.293722893174245e+000	 1.386094032270866e+000	-1.433564102171592e+001
1	 2.278488858931313e+000	 1.410995964857420e+000	-1.433931726443269e+001
1	 2.262964704904139e+000	 1.435761665730482e+000	-1.430730013183441e+001
1	 2.247152166727390e+000	 1.460386147384479e+000	-1.423982952710163e+001
1	 2.231053092926468e+000	 1.484864449442972e+000	-1.413718313384632e+001
1	 2.214669444463933e+000	 1.509191641817784e+000	-1.399967598820081e+001
1	 2.198003294180702e+000	 1.533362827862384e+000	-1.382765999188701e+001
1	 2.181056826131934e+000	 1.557373147515461e+000	-1.362152336689258e+001
1	 2.360930133392335e+000	 1.323662698019824e+000	-1.475618237267110e+001
1	 2.346432902073507e+000	 1.349194736071776e+000	-1.484331435519444e+001
1	 2.331638092428801e+000	 1.374604430696857e+000	-1.489475841521660e+001
1	 2.316547113630038e+000	 1.399886681703489e+000	-1.491062892456367e+001
1	 2.301161489603666e+000	 1.425036406733176e+000	-1.489107372502807e+001
1	 2.285482858888984e+000	 1.450048544444212e+000	-1.483627387393296e+001
1	 2.269512974391514e+000	 1.474918057701679e+000	-1.474644333904162e+001
1	 2.253253703030859e+000	 1.499639936769747e+000	-1.462182864309183e+001
1	 2.236707025282611e+000	 1.524209202502237e+000	-1.446270845835977e+001
1	 2.219875034613992e+000	 1.548620909527387e+000	-1.426939315177895e+001
1	 2.202759936813130e+000	 1.572870149422705e+000	-1.404222428126281e+001
1	 2.384191645981290e+000	 1.336704336174856e+000	-1.536832367704545e+001
1	 2.369551577937059e+000	 1.362487933481405e+000	-1.543152993022653e+001
1	 2.354610999619883e+000	 1.388147981949305e+000	-1.545961725068962e+001
1	 2.339371334085742e+000	 1.413679331136361e+000	-1.545266819829416e+001
1	 2.323834120275880e+000	 1.439076848609157e+000	-1.541079279499064e+001
1	 2.308001012873640e+000	 1.464335423158140e+000	-1.533412830141354e+001
1	 2.291873782055399e+000	 1.489449968019049e+000	-1.522283895393448e+001
1	 2.275454313134966e+000	 1.514415424096662e+000	-1.507711566248467e+001
1	 2.258744606100967e+000	 1.539226763186804e+000	-1.489717566954965e+001
1	 2.241746775046933e+000	 1.563878991192479e+000	-1.468326217083407e+001
1	 2.224463047493960e+000	 1.588367151330018e+000	-1.443564389818779e+001
1	 2.407453158570164e+000	 1.349745974330221e+000	-1.594438022647696e+001
1	 2.392670253800501e+000	 1.375781130891361e+000	-1.598453019432657e+001
1	 2.377583906810825e+000	 1.401691533202069e+000	-1.599019163640008e+001
1	 2.362195554541274e+000	 1.427471980569528e+000	-1.596139440429115e+001
1	 2.346506750947888e+000	 1.453117290485408e+000	-1.589818904552094e+001
1	 2.330519166858057e+000	 1.478622301872309e+000	-1.580064664747039e+001
1	 2.314234589719017e+000	 1.503981878336627e+000	-1.566885865461021e+001
1	 2.297654923238780e+000	 1.529190911423754e+000	-1.550293665930344e+001
1	 2.280782186919011e+000	 1.554244323871514e+000	-1.530301216651502e+001
1	 2.263618515479547e+000	 1.579137072857684e+000	-1.506923633282537e+001
1	 2.246166158174458e+000	 1.603864153237414e+000	-1.480177968020485e+001
1	 2.430714671158838e+000	 1.362787612485952e+000	-1.648370697513133e+001
1	 2.415788929663723e+000	 1.389074328301687e+000	-1.650178006421065e+001
1	 2.400556814001531e+000	 1.415235084455195e+000	-1.648604445166541e+001
1	 2.385019774996549e+000	 1.441264630003040e+000	-1.643645705439155e+001
1	 2.369179381619623e+000	 1.467157732361976e+000	-1.635298797383222e+001
1	 2.353037320842188e+000	 1.492909180586763e+000	-1.623562044297759e+001
1	 2.336595397382336e+000	 1.518513788654454e+000	-1.608435076120016e+001
1	 2.319855533342289e+000	 1.543966398751055e+000	-1.589918821710283e+001
1	 2.302819767736746e+000	 1.569261884556395e+000	-1.568015499958087e+001
1	 2.285490255911854e+000	 1.594395154523023e+000	-1.542728609732076e+001
1	 2.267869268854655e+000	 1.619361155144911e+000	-1.514062918698311e+001
1	 2.453976183747196e+000	 1.375829250642081e+000	-1.698568333501789e+001
1	 2.438907605526619e+000	 1.402367525712424e+000	-1.698276474504941e+001
1	 2.423529721191897e+000	 1.428778635708728e+000	-1.694675514986393e+001
1	 2.407843995451483e+000	 1.455057279436942e+000	-1.687751894969600e+001
1	 2.391852012291019e+000	 1.481198174238908e+000	-1.677492548530612e+001
1	 2.375555474825982e+000	 1.507196059301545e+000	-1.663884912321614e+001
1	 2.358956205045328e+000	 1.533045698972568e+000	-1.646916934499583e+001
1	 2.342056143445480e+000	 1.558741886078600e+000	-1.626577084062037e+001
1	 2.324857348554177e+000	 1.584279445241475e+000	-1.602854360589901e+001
1	 2.307361996343875e+000	 1.609653236188518e+000	-1.575738304395547e+001
1	 2.289572379534585e+000	 1.634858157052527e+000	-1.545219007071994e+001
1	 2.477237696335122e+000	 1.388870888798642e+000	-1.744971202768165e+001
1	 2.462026281389074e+000	 1.415660723123613e+000	-1.742698877791485e+001
1	 2.446502628381830e+000	 1.442322186962715e+000	-1.737191898027428e+001
1	 2.430668215905994e+000	 1.468849928871283e+000	-1.728425555663117e+001
1	 2.414524642962007e+000	 1.495238616116251e+000	-1.716374740482392e+001
1	 2.398073628809393e+000	 1.521482938016701e+000	-1.701013965675784e+001
1	 2.381317012707962e+000	 1.547577609291011e+000	-1.682317395842902e+001
1	 2.364256753548344e+000	 1.573517373406423e+000	-1.660258877167480e+001
1	 2.346894929371312e+000	 1.599297005926782e+000	-1.634811969738555e+001
1	 2.329233736775630e+000	 1.624911317854192e+000	-1.605949981984450e+001
1	 2.311275490214280e+000	 1.650355158960276e+000	-1.573646007179641e+001
1	 2.500499208922499e+000	 1.401912526955667e+000	-1.787521799998973e+001
1	 2.485144957250983e+000	 1.428953920535294e+000	-1.783397514039545e+001
1	 2.469475535571229e+000	 1.455865738217200e+000	-1.776114625334930e+001
1	 2.453492436359996e+000	 1.482642578306111e+000	-1.765635441783818e+001
1	 2.437197273632522e+000	 1.509279057994052e+000	-1.751920901537350e+001
1	 2.420591782792370e+000	 1.535769816732273e+000	-1.734930619506382e+001
1	 2.403677820370210e+000	 1.562109519609821e+000	-1.714622938012334e+001
1	 2.386457363650868e+000	 1.588292860734559e+000	-1.690954981534066e+001
1	 2.368932510188156e+000	 1.614314566612345e+000	-1.663882715491293e+001
1	 2.351105477207142e+000	 1.640169399520067e+000	-1.633361008993012e+001
1	 2.332978600893775e+000	 1.665852160868178e+000	-1.599343701467602e+001
1	 2.115947494085821e+000	 1.510882141793964e+000	-1.219575977532249e+001
1	 2.099237191034965e+000	 1.534014959583876e+000	-1.202637931849267e+001
1	 2.082259493061532e+000	 1.556982398749111e+000	-1.183349086227703e+001
1	 2.065016834301999e+000	 1.579779865751119e+000	-1.161752887077448e+001
1	 2.047511753248752e+000	 1.602402814479762e+000	-1.137896013087805e+001
1	 2.029746891604005e+000	 1.624846749199451e+000	-1.111828300088757e+001
1	 2.011724993034462e+000	 1.647107227462233e+000	-1.083602660560891e+001
1	 1.993448901827818e+000	 1.669179862983960e+000	-1.053274997938450e+001
1	 1.974921561452375e+000	 1.691060328479696e+000	-1.020904115863421e+001
1	 1.956146013021240e+000	 1.712744358454553e+000	-9.865516225618046e+000
1	 1.937125393662695e+000	 1.734227751946229e+000	-9.502818305258513e+000
1	 2.137650604768313e+000	 1.526379143701107e+000	-1.269828831091068e+001
1	 2.120768905424560e+000	 1.549749233023748e+000	-1.250676690121764e+001
1	 2.103617068509114e+000	 1.572952247445816e+000	-1.229186503013211e+001
1	 2.086197553125190e+000	 1.595983546313200e+000	-1.205372977696406e+001
1	 2.068512923802284e+000	 1.618838536886680e+000	-1.179253403332749e+001
1	 2.050565849338336e+000	 1.641512677318262e+000	-1.150847624483360e+001
1	 2.032359101541615e+000	 1.664001479594162e+000	-1.120178011326945e+001
1	 2.013895553873444e+000	 1.686300512440469e+000	-1.087269425971594e+001
1	 1.995178179993043e+000	 1.708405404187631e+000	-1.052149184915443e+001
1	 1.976210052205971e+000	 1.730311845589922e+000	-1.014847017720546e+001
1	 1.956994339817781e+000	 1.752015592596107e+000	-9.753950219736311e+000
1	 2.159353715450340e+000	 1.541876145608267e+000	-1.317354379455279e+001
1	 2.142300619813662e+000	 1.565483506463633e+000	-1.296023670470784e+001
1	 2.124974643956197e+000	 1.588922096142529e+000	-1.272354919609607e+001
1	 2.107378271947896e+000	 1.612187226875289e+000	-1.246338390287380e+001
1	 2.089514094355360e+000	 1.635274259293601e+000	-1.217966362459938e+001
1	 2.071384807072250e+000	 1.658178605437074e+000	-1.187233149424326e+001
1	 2.052993210048401e+000	 1.680895731726092e+000	-1.154135111888204e+001
1	 2.034342205918758e+000	 1.703421161896978e+000	-1.118670669267105e+001
1	 2.015434798533458e+000	 1.725750479895566e+000	-1.080840308175114e+001
1	 1.996274091390502e+000	 1.747879332725291e+000	-1.040646588080705e+001
1	 1.976863285972716e+000	 1.769803433245986e+000	-9.980941441058453e+000
1	 2.181056826131934e+000	 1.557373147515461e+000	-1.362152336689258e+001
1	 2.163832334202313e+000	 1.581217779903542e+000	-1.338682335188846e+001
1	 2.146332219402827e+000	 1.604891944839259e+000	-1.312863291189941e+001
1	 2.128558990770164e+000	 1.628390907437387e+000	-1.284665193958487e+001
1	 2.110515264908027e+000	 1.651709981700529e+000	-1.254059569054496e+001
1	 2.092203764805794e+000	 1.674844533555892e+000	-1.221019531207119e+001
1	 2.073627318554861e+000	 1.697789983858026e+000	-1.185519835500936e+001
1	 2.054788857963797e+000	 1.720541811353488e+000	-1.147536926760015e+001
1	 2.035691417073644e+000	 1.743095555603501e+000	-1.107048987019319e+001
1	 2.016338130574856e+000	 1.765446819860659e+000	-1.064035980976586e+001
1	 1.996732232127518e+000	 1.787591273895864e+000	-1.018479699321517e+001
1	 2.202759936813130e+000	 1.572870149422705e+000	-1.404222428126281e+001
1	 2.185364048590552e+000	 1.596952053343488e+000	-1.378656010116864e+001
1	 2.167689794849050e+000	 1.620861793536015e+000	-1.350720219997088e+001
1	 2.149739709592041e+000	 1.644594587999505e+000	-1.320368824522089e+001
1	 2.131516435460329e+000	 1.668145704107467e+000	-1.287556729099771e+001
1	 2.113022722539009e+000	 1.691510461674715e+000	-1.252240060296284e+001
1	 2.094261427061033e+000	 1.714684235989961e+000	-1.214376247521554e+001
1	 2.075235510008592e+000	 1.737662460810000e+000	-1.173924103721144e+001
1	 2.055948035613634e+000	 1.760440631311437e+000	-1.130843904901397e+001
1	 2.036402169759054e+000	 1.783014306996029e+000	-1.085097468316012e+001
1	 2.016601178282201e+000	 1.805379114545742e+000	-1.036648229143773e+001
1	 2.224463047493960e+000	 1.588367151330018e+000	-1.443564389818779e+001
1	 2.206895762978422e+000	 1.612686326783483e+000	-1.415947891300635e+001
1	 2.189047370294912e+000	 1.636831642232806e+000	-1.385933972560656e+001
1	 2.170920428413575e+000	 1.660798268561644e+000	-1.353464115388741e+001
1	 2.152517606012314e+000	 1.684581426514421e+000	-1.318480623423580e+001
1	 2.133841680271940e+000	 1.708176389793547e+000	-1.280926727954530e+001
1	 2.114895535566959e+000	 1.731578488121902e+000	-1.240746693601055e+001
1	 2.095682162053178e+000	 1.754783110266514e+000	-1.197885923648475e+001
1	 2.076204654153453e+000	 1.777785707019373e+000	-1.152291064817343e+001
1	 2.056466208943119e+000	 1.800581794131398e+000	-1.103910111243085e+001
1	 2.036470124436785e+000	 1.823166955195621e+000	-1.052692507442517e+001
1	 2.246166158174458e+000	 1.603864153237414e+000	-1.480177968020485e+001
1	 2.228427477365963e+000	 1.628420600223541e+000	-1.450561051261433e+001
1	 2.210404945740458e+000	 1.652801490929641e+000	-1.418512495915795e+001
1	 2.192101147234814e+000	 1.677001949123813e+000	-1.383965326670088e+001
1	 2.173518776564031e+000	 1.701017148921394e+000	-1.346853152393829e+001
1	 2.154660638004631e+000	 1.724842317912389e+000	-1.307110289009050e+001
1	 2.135529644072676e+000	 1.748472740253847e+000	-1.264671882766468e+001
1	 2.116128814097590e+000	 1.771903759723029e+000	-1.219474033671774e+001
1	 2.096461272693131e+000	 1.795130782727311e+000	-1.171453918802622e+001
1	 2.076530248127072e+000	 1.818149281266767e+000	-1.120549915254879e+001
1	 2.056339070591284e+000	 1.840954795845499e+000	-1.066701722455216e+001
1	 2.267869268854655e+000	 1.619361155144911e+000	-1.514062918698312e+001
1	 2.249959191753217e+000	 1.644154873663671e+000	-1.482498444906550e+001
1	 2.231762521185734e+000	 1.668771339626526e+000	-1.448463432890720e+001
1	 2.213281866055804e+000	 1.693205629686017e+000	-1.411886172610730e+001
1	 2.194519947115524e+000	 1.717452871328388e+000	-1.372695378047729e+001
1	 2.175479595737126e+000	 1.741508246031245e+000	-1.330820321013874e+001
1	 2.156163752578225e+000	 1.765366992385799e+000	-1.286190965731909e+001
1	 2.136575466141861e+000	 1.789024409179548e+000	-1.238738103904987e+001
1	 2.116717891232695e+000	 1.812475858435248e+000	-1.188393489993366e+001
1	 2.096594287310937e+000	 1.835716768402137e+000	-1.135089976411434e+001
1	 2.076208016745718e+000	 1.858742636495377e+000	-1.078761648356270e+001
1	 2.289572379534585e+000	 1.634858157052527e+000	-1.545219007071994e+001
1	 2.271490906140224e+000	 1.659889147103888e+000	-1.511762915103657e+001
1	 2.253120096630787e+000	 1.684741188323473e+000	-1.475794136524762e+001
1	 2.234462584876594e+000	 1.709409310248261e+000	-1.437239847459876e+001
1	 2.215521117666840e+000	 1.733888593735408e+000	-1.396027563824950e+001
1	 2.196298553469467e+000	 1.758174174150114e+000	-1.352085280047387e+001
1	 2.176797861083645e+000	 1.782261244517759e+000	-1.305341608755644e+001
1	 2.157022118186025e+000	 1.806145058636070e+000	-1.255725921147994e+001
1	 2.136974509772173e+000	 1.829820934143187e+000	-1.203168487745424e+001
1	 2.116658326494735e+000	 1.853284255537506e+000	-1.147600619230167e+001
1	 2.096076962900100e+000	 1.876530477145256e+000	-1.088954807068433e+001
1	 2.311275490214280e+000	 1.650355158960276e+000	-1.573646007179641e+001
1	 2.293022620527026e+000	 1.675623420544203e+000	-1.538357197941159e+001
1	 2.274477672075661e+000	 1.700711037020488e+000	-1.500511683674108e+001
1	 2.255643303697231e+000	 1.725612990810552e+000	-1.460039049885394e+001
1	 2.236522288218026e+000	 1.750324316142456e+000	-1.416869212062193e+001
1	 2.217117511201701e+000	 1.774840102269001e+000	-1.370932553366174e+001
1	 2.197431969588975e+000	 1.799155496649727e+000	-1.322160063336074e+001
1	 2.177468770230118e+000	 1.823265708092595e+000	-1.270483477309164e+001
1	 2.157231128311593e+000	 1.847166009851127e+000	-1.215835416267507e+001
1	 2.136722365678489e+000	 1.870851742672875e+000	-1.158149526811176e+001
1	 2.115945909054448e+000	 1.894318317795134e+000	-1.097360620957656e+001
1	 2.332978600893775e+000	 1.665852160868178e+000	-1.599343701467602e+001
1	 2.314554334913666e+000	 1.691357693984630e+000	-1.562283927694854e+001
1	 2.295835247520404e+000	 1.716680885717582e+000	-1.522622887858116e+001
1	 2.276824022517764e+000	 1.741816671372895e+000	-1.480296006025160e+001
1	 2.257523458769130e+000	 1.766760038549538e+000	-1.435239099394901e+001
1	 2.237936468933869e+000	 1.791506030387907e+000	-1.387388509119911e+001
1	 2.218066078094256e+000	 1.816049748781706e+000	-1.336681232017481e+001
1	 2.197915422274171e+000	 1.840386357549125e+000	-1.283055052892462e+001
1	 2.177487746850984e+000	 1.864511085559069e+000	-1.226448677190823e+001
1	 2.156786404862220e+000	 1.888419229808245e+000	-1.166801863699453e+001
1	 2.135814855208781e+000	 1.912106158445013e+000	-1.104055557005082e+001
1	 1.937125393662695e+000	 1.734227751946229e+000	-9.502818305258515e+000
1	 1.917865842278389e+000	 1.755503199414275e+000	-9.123122884021436e+000
1	 1.898367848035766e+000	 1.776569877680164e+000	-8.729438737084386e+000
1	 1.878634825537390e+000	 1.797423798768443e+000	-8.323875961066932e+000
1	 1.858670277892823e+000	 1.818061049642710e+000	-7.908581917396241e+000
1	 1.838477794649450e+000	 1.838477794649450e+000	-7.485737822632916e+000
1	 1.818061049642710e+000	 1.858670277892823e+000	-7.057555277940031e+000
1	 1.797423798768442e+000	 1.878634825537390e+000	-6.626272744844049e+000
1	 1.776569877680166e+000	 1.898367848035766e+000	-6.194151974574720e+000
1	 1.755503199414274e+000	 1.917865842278389e+000	-5.763474398388118e+000
1	 1.734227751946229e+000	 1.937125393662695e+000	-5.336537486370326e+000
1	 1.956994339817781e+000	 1.752015592596107e+000	-9.753950219736309e+000
1	 1.937537244696356e+000	 1.773509260692354e+000	-9.340193134572791e+000
1	 1.917839261026503e+000	 1.794792018256848e+000	-8.910801103805671e+000
1	 1.897903838434115e+000	 1.815859836409762e+000	-8.468345916246935e+000
1	 1.877734515959893e+000	 1.836708761978973e+000	-8.015448636212675e+000
1	 1.857334919968946e+000	 1.857334919968946e+000	-7.554775300601621e+000
1	 1.836708761978973e+000	 1.877734515959894e+000	-7.089032534050017e+000
1	 1.815859836409761e+000	 1.897903838434115e+000	-6.620963091261453e+000
1	 1.794792018256848e+000	 1.917839261026503e+000	-6.153341335798920e+000
1	 1.773509260692353e+000	 1.937537244696356e+000	-5.688968664785827e+000
1	 1.752015592596108e+000	 1.956994339817781e+000	-5.230668889095947e+000
1	 1.976863285972716e+000	 1.769803433245986e+000	-9.980941441058453e+000
1	 1.957208647114214e+000	 1.791515321970432e+000	-9.534348060283735e+000
1	 1.937310674017164e+000	 1.813014158833529e+000	-9.070969458897233e+000
1	 1.917172851330790e+000	 1.834295874051076e+000	-8.593759997895493e+000
1	 1.896798754026930e+000	 1.855356474315226e+000	-8.105733438595435e+000
1	 1.876192045288421e+000	 1.876192045288421e+000	-7.609957882385143e+000
1	 1.855356474315226e+000	 1.896798754026930e+000	-7.109550610683464e+000
1	 1.834295874051076e+000	 1.917172851330789e+000	-6.607672835865279e+000
1	 1.813014158833529e+000	 1.937310674017163e+000	-6.107524374143139e+000
1	 1.791515321970433e+000	 1.957208647114214e+000	-5.612338251591414e+000
1	 1.769803433245986e+000	 1.976863285972716e+000	-5.125375254665066e+000
1	 1.996732232127518e+000	 1.787591273895864e+000	-1.018479699321517e+001
1	 1.976880049531974e+000	 1.809521383248510e+000	-9.706722767721255e+000
1	 1.956782087007755e+000	 1.831236299410209e+000	-9.211167487677608e+000
1	 1.936441864227417e+000	 1.852731911692388e+000	-8.701391361396965e+000
1	 1.915862992093939e+000	 1.874004186651469e+000	-8.180722274905317e+000
1	 1.895049170607881e+000	 1.895049170607881e+000	-7.652550107846730e+000
1	 1.874004186651470e+000	 1.915862992093939e+000	-7.120320934874034e+000
1	 1.852731911692388e+000	 1.936441864227417e+000	-6.587531124658582e+000
1	 1.831236299410209e+000	 1.956782087007756e+000	-6.057721348917938e+000
1	 1.809521383248510e+000	 1.976880049531974e+000	-5.534470514089886e+000
1	 1.787591273895864e+000	 1.996732232127518e+000	-5.021389628470543e+000
1	 2.016601178282201e+000	 1.805379114545742e+000	-1.036648229143773e+001
1	 1.996551451949648e+000	 1.827527444526589e+000	-9.858407628040045e+000
1	 1.976253499998287e+000	 1.849458439986889e+000	-9.332570649097352e+000
1	 1.955710877124004e+000	 1.871167949333697e+000	-8.792462986114529e+000
1	 1.934927230160922e+000	 1.892651898987706e+000	-8.241650415222258e+000
1	 1.913906295927326e+000	 1.913906295927326e+000	-7.683766680372652e+000
1	 1.892651898987707e+000	 1.934927230160922e+000	-7.122507190395447e+000
1	 1.871167949333697e+000	 1.955710877124005e+000	-6.561622603142348e+000
1	 1.849458439986889e+000	 1.976253499998287e+000	-6.004912310239110e+000
1	 1.827527444526589e+000	 1.996551451949648e+000	-5.456217836220012e+000
1	 1.805379114545742e+000	 2.016601178282202e+000	-4.919416166029200e+000
1	 2.036470124436785e+000	 1.823166955195621e+000	-1.052692507442517e+001
1	 2.016222854367249e+000	 1.845533505804667e+000	-9.990450459301849e+000
1	 1.995724912988767e+000	 1.867680580563567e+000	-9.436308528356520e+000
1	 1.974979890020558e+000	 1.889603986975002e+000	-8.868150123117678e+000
1	 1.953991468227883e+000	 1.911299611323936e+000	-8.289704921671937e+000
1	 1.932763421246759e+000	 1.932763421246759e+000	-7.704774898035724e+000
1	 1.911299611323936e+000	 1.953991468227883e+000	-7.117227646811731e+000
1	 1.889603986975003e+000	 1.974979890020558e+000	-6.530989587174972e+000
1	 1.867680580563567e+000	 1.995724912988767e+000	-5.950039060545044e+000
1	 1.845533505804666e+000	 2.016222854367249e+000	-5.378399336574891e+000
1	 1.823166955195621e+000	 2.036470124436785e+000	-4.820131542310916e+000
1	 2.056339070591284e+000	 1.840954795845499e+000	-1.066701722455215e+001
1	 2.035894256784788e+000	 1.863539567082745e+000	-1.010385858227711e+001
1	 2.015196325979205e+000	 1.885902721140246e+000	-9.523467053132446e+000
1	 1.994248902917082e+000	 1.908040024616306e+000	-8.929582601005302e+000
1	 1.973055706294826e+000	 1.929947323660161e+000	-8.326026977421913e+000
1	 1.951620546566180e+000	 1.951620546566180e+000	-7.716696943814752e+000
1	 1.929947323660161e+000	 1.973055706294827e+000	-7.105557353503849e+000
1	 1.908040024616306e+000	 1.994248902917082e+000	-6.496634107978888e+000
1	 1.885902721140245e+000	 2.015196325979205e+000	-5.894007002397828e+000
1	 1.863539567082745e+000	 2.035894256784789e+000	-5.301802475499155e+000
1	 1.840954795845499e+000	 2.056339070591284e+000	-4.724186279364016e+000
1	 2.076208016745718e+000	 1.858742636495377e+000	-1.078761648356270e+001
1	 2.055565659202280e+000	 1.881545628360823e+000	-1.019960075820483e+001
1	 2.034667738969607e+000	 1.904124861716922e+000	-9.595090582553667e+000
1	 2.013517915813583e+000	 1.926476062257608e+000	-8.977846999331229e+000
1	 1.992119944361754e+000	 1.948595035996382e+000	-8.351714081949670e+000
1	 1.970477671885594e+000	 1.970477671885594e+000	-7.720612044312307e+000
1	 1.948595035996382e+000	 1.992119944361754e+000	-7.088530207717318e+000
1	 1.926476062257608e+000	 2.013517915813584e+000	-6.459519839725035e+000
1	 1.904124861716923e+000	 2.034667738969607e+000	-5.837686880185074e+000
1	 1.881545628360823e+000	 2.055565659202280e+000	-5.227184569908322e+000
1	 1.858742636495377e+000	 2.076208016745717e+000	-4.632205997709526e+000
1	 2.096076962900100e+000	 1.876530477145256e+000	-1.088954807068433e+001
1	 2.075237061619735e+000	 1.899551689638900e+000	-1.027860901634296e+001
1	 2.054139151959984e+000	 1.922347002293599e+000	-9.652183877364559e+000
1	 2.032786928710067e+000	 1.944912099898908e+000	-9.013988698416533e+000
1	 2.011184182428673e+000	 1.967242748332599e+000	-8.367822121455243e+000
1	 1.989334797205001e+000	 1.989334797205000e+000	-7.717558505695880e+000
1	 1.967242748332600e+000	 2.011184182428673e+000	-7.067140904990842e+000
1	 1.944912099898908e+000	 2.032786928710067e+000	-6.420573917486604e+000
1	 1.922347002293599e+000	 2.054139151959985e+000	-5.781916422763780e+000
1	 1.899551689638900e+000	 2.075237061619735e+000	-5.155274221953526e+000
1	 1.876530477145256e+000	 2.096076962900100e+000	-4.544792596562836e+000
1	 2.115945909054448e+000	 1.894318317795134e+000	-1.097360620957656e+001
1	 2.094908464037164e+000	 1.917557750916978e+000	-1.034178037855354e+001
1	 2.073610564950345e+000	 1.940569142870276e+000	-9.695713959089424e+000
1	 2.052055941606541e+000	 1.963348137540208e+000	-9.039013813674437e+000
1	 2.030248420495583e+000	 1.985890460668814e+000	-8.375367322625774e+000
1	 2.008191922524404e+000	 2.008191922524404e+000	-7.708535634933222e+000
1	 1.985890460668814e+000	 2.030248420495583e+000	-7.042346779696022e+000
1	 1.963348137540208e+000	 2.052055941606541e+000	-6.380688652768098e+000
1	 1.940569142870276e+000	 2.073610564950345e+000	-5.727501893555778e+000
1	 1.917557750916979e+000	 2.094908464037165e+000	-5.086772667193938e+000
1	 1.894318317795134e+000	 2.115945909054448e+000	-4.462525367561192e+000
1	 2.135814855208781e+000	 1.912106158445013e+000	-1.104055557005082e+001
1	 2.114579866454582e+000	 1.935563812195057e+000	-1.038997848762747e+001
1	 2.093081977940697e+000	 1.958791283446953e+000	-9.726611865424683e+000
1	 2.071324954503008e+000	 1.981784175181508e+000	-9.053891021967953e+000
1	 2.049312658562491e+000	 2.004538173005029e+000	-8.375328097347598e+000
1	 2.027049047843805e+000	 2.027049047843805e+000	-7.694505553790661e+000
1	 2.004538173005029e+000	 2.049312658562490e+000	-7.015069542844922e+000
1	 1.981784175181508e+000	 2.071324954503008e+000	-6.340723153279806e+000
1	 1.958791283446953e+000	 2.093081977940697e+000	-5.675219554122959e+000
1	 1.935563812195057e+000	 2.114579866454582e+000	-5.022355047519644e+000
1	 1.912106158445013e+000	 2.135814855208781e+000	-4.385962046326447e+000
1	 1.734227751946229e+000	 1.937125393662695e+000	-5.336537486370323e+000
1	 1.712744358454553e+000	 1.956146013021241e+000	-4.922724061315611e+000
1	 1.691060328479696e+000	 1.974921561452375e+000	-4.530369405528821e+000
1	 1.669179862983960e+000	 1.993448901827818e+000	-4.160012409114200e+000
1	 1.647107227462233e+000	 2.011724993034462e+000	-3.812183196545363e+000
1	 1.624846749199452e+000	 2.029746891604005e+000	-3.487402424990539e+000
1	 1.602402814479762e+000	 2.047511753248752e+000	-3.186180593902971e+000
1	 1.579779865751119e+000	 2.065016834301999e+000	-2.909017367221294e+000
1	 1.556982398749111e+000	 2.082259493061532e+000	-2.656400909495064e+000
1	 1.534014959583875e+000	 2.099237191034965e+000	-2.428807237213657e+000
1	 1.510882141793964e+000	 2.115947494085821e+000	-2.226699586579416e+000
1	 1.752015592596108e+000	 1.956994339817781e+000	-5.230668889095947e+000
1	 1.730311845589922e+000	 1.976210052205971e+000	-4.788014435746280e+000
1	 1.708405404187631e+000	 1.995178179993043e+000	-4.368974799255740e+000
1	 1.686300512440468e+000	 2.013895553873444e+000	-3.973765963867114e+000
1	 1.664001479594162e+000	 2.032359101541615e+000	-3.602586548927164e+000
1	 1.641512677318262e+000	 2.050565849338336e+000	-3.255617763230362e+000
1	 1.618838536886680e+000	 2.068512923802285e+000	-2.933023381982400e+000
1	 1.595983546313200e+000	 2.086197553125190e+000	-2.634949746253394e+000
1	 1.572952247445815e+000	 2.103617068509114e+000	-2.361525784741864e+000
1	 1.549749233023748e+000	 2.120768905424560e+000	-2.112863057623258e+000
1	 1.526379143701107e+000	 2.137650604768313e+000	-1.889055822210314e+000
1	 1.769803433245986e+000	 1.976863285972716e+000	-5.125375254665065e+000
1	 1.747879332725290e+000	 1.996274091390502e+000	-4.656187110507006e+000
1	 1.725750479895566e+000	 2.015434798533457e+000	-4.212267671770938e+000
1	 1.703421161896978e+000	 2.034342205918758e+000	-3.793573001571107e+000
1	 1.680895731726092e+000	 2.052993210048401e+000	-3.400034701717221e+000
1	 1.658178605437075e+000	 2.071384807072250e+000	-3.031560407505195e+000
1	 1.635274259293601e+000	 2.089514094355360e+000	-2.688034314534245e+000
1	 1.612187226875288e+000	 2.107378271947896e+000	-2.369317736199087e+000
1	 1.588922096142529e+000	 2.124974643956197e+000	-2.075249690443241e+000
1	 1.565483506463633e+000	 2.142300619813663e+000	-1.805647514301780e+000
1	 1.541876145608268e+000	 2.159353715450340e+000	-1.560307504709316e+000
1	 1.787591273895864e+000	 1.996732232127518e+000	-5.021389628470548e+000
1	 1.765446819860660e+000	 2.016338130574856e+000	-4.527829595432092e+000
1	 1.743095555603502e+000	 2.035691417073645e+000	-4.060725976274497e+000
1	 1.720541811353488e+000	 2.054788857963797e+000	-3.619835964798128e+000
1	 1.697789983858025e+000	 2.073627318554860e+000	-3.204886671110594e+000
1	 1.674844533555892e+000	 2.092203764805794e+000	-2.815576043358243e+000
1	 1.651709981700529e+000	 2.110515264908027e+000	-2.451573828971852e+000
1	 1.628390907437388e+000	 2.128558990770164e+000	-2.112522573105255e+000
1	 1.604891944839259e+000	 2.146332219402827e+000	-1.798038651870872e+000
1	 1.581217779903542e+000	 2.163832334202313e+000	-1.507713337912179e+000
1	 1.557373147515461e+000	 2.181056826131934e+000	-1.241113895793131e+000
1	 1.805379114545742e+000	 2.016601178282202e+000	-4.919416166029200e+000
1	 1.783014306996028e+000	 2.036402169759053e+000	-4.403506246146553e+000
1	 1.760440631311437e+000	 2.055948035613634e+000	-3.914808829467388e+000
1	 1.737662460810000e+000	 2.075235510008592e+000	-3.452941435552382e+000
1	 1.714684235989961e+000	 2.094261427061034e+000	-3.017487324201158e+000
1	 1.691510461674715e+000	 2.113022722539008e+000	-2.607996732602585e+000
1	 1.668145704107468e+000	 2.131516435460329e+000	-2.223988157596204e+000
1	 1.644594587999504e+000	 2.149739709592041e+000	-1.864949680001416e+000
1	 1.620861793536015e+000	 2.167689794849050e+000	-1.530340327886806e+000
1	 1.596952053343488e+000	 2.185364048590552e+000	-1.219591475582347e+000
1	 1.572870149422705e+000	 2.202759936813131e+000	-9.321082751737075e-001
1	 1.823166955195621e+000	 2.036470124436785e+000	-4.820131542310916e+000
1	 1.800581794131398e+000	 2.056466208943119e+000	-4.283759393593620e+000
1	 1.777785707019373e+000	 2.076204654153453e+000	-3.774957430448930e+000
1	 1.754783110266514e+000	 2.095682162053179e+000	-3.293260908993264e+000
1	 1.731578488121901e+000	 2.114895535566959e+000	-2.838168069214460e+000
1	 1.708176389793547e+000	 2.133841680271940e+000	-2.409141577925031e+000
1	 1.684581426514422e+000	 2.152517606012314e+000	-2.005610020561034e+000
1	 1.660798268561644e+000	 2.170920428413575e+000	-1.626969438302892e+000
1	 1.636831642232806e+000	 2.189047370294912e+000	-1.272584906907956e+000
1	 1.612686326783484e+000	 2.206895762978422e+000	-9.417921535669838e-001
1	 1.588367151330017e+000	 2.224463047493960e+000	-6.338992080335084e-001
1	 1.840954795845499e+000	 2.056339070591284e+000	-4.724186279364016e+000
1	 1.818149281266767e+000	 2.076530248127072e+000	-4.169110408079017e+000
1	 1.795130782727311e+000	 2.096461272693131e+000	-3.641595926342216e+000
1	 1.771903759723029e+000	 2.116128814097590e+000	-3.141151522302920e+000
1	 1.748472740253847e+000	 2.135529644072676e+000	-2.667247505725125e+000
1	 1.724842317912389e+000	 2.154660638004631e+000	-2.219317348960527e+000
1	 1.701017148921394e+000	 2.173518776564031e+000	-1.796759278664583e+000
1	 1.677001949123814e+000	 2.192101147234814e+000	-1.398937914493388e+000
1	 1.652801490929640e+000	 2.210404945740458e+000	-1.025185950929200e+000
1	 1.628420600223541e+000	 2.228427477365963e+000	-6.748058783032689e-001
1	 1.603864153237414e+000	 2.246166158174458e+000	-3.470717390202374e-001
1	 1.858742636495377e+000	 2.076208016745717e+000	-4.632205997709527e+000
1	 1.835716768402137e+000	 2.096594287310937e+000	-4.060060702219216e+000
1	 1.812475858435249e+000	 2.116717891232694e+000	-3.515132228216032e+000
1	 1.789024409179548e+000	 2.136575466141861e+000	-2.996956741702787e+000
1	 1.765366992385799e+000	 2.156163752578225e+000	-2.505032037539812e+000
1	 1.741508246031244e+000	 2.175479595737126e+000	-2.038819072417601e+000
1	 1.717452871328388e+000	 2.194519947115523e+000	-1.597743548658233e+000
1	 1.693205629686017e+000	 2.213281866055804e+000	-1.181197545081665e+000
1	 1.668771339626526e+000	 2.231762521185735e+000	-7.885411910827807e-001
1	 1.644154873663671e+000	 2.249959191753217e+000	-4.191043799867793e-001
1	 1.619361155144911e+000	 2.267869268854655e+000	-7.218851768372792e-002
1	 1.876530477145256e+000	 2.096076962900100e+000	-4.544792596562836e+000
1	 1.853284255537506e+000	 2.116658326494735e+000	-3.957092676847110e+000
1	 1.829820934143187e+000	 2.136974509772172e+000	-3.395958780601976e+000
1	 1.806145058636069e+000	 2.157022118186025e+000	-2.861007010396416e+000
1	 1.782261244517759e+000	 2.176797861083645e+000	-2.351816450722127e+000
1	 1.758174174150114e+000	 2.196298553469467e+000	-1.867930588641089e+000
1	 1.733888593735408e+000	 2.215521117666840e+000	-1.408858783560149e+000
1	 1.709409310248261e+000	 2.234462584876594e+000	-9.740777826018057e-001
1	 1.684741188323472e+000	 2.253120096630787e+000	-5.630332779509409e-001
1	 1.659889147103889e+000	 2.271490906140225e+000	-1.751415024817944e-001
1	 1.634858157052526e+000	 2.289572379534584e+000	 1.902091400957632e-001
1	 1.894318317795134e+000	 2.115945909054448e+000	-4.462525367561192e+000
1	 1.870851742672876e+000	 2.136722365678489e+000	-3.860670613624920e+000
1	 1.847166009851127e+000	 2.157231128311593e+000	-3.284453287655900e+000
1	 1.823265708092595e+000	 2.177468770230117e+000	-2.733620360006706e+000
1	 1.799155496649727e+000	 2.197431969588976e+000	-2.207884459051824e+000
1	 1.774840102269001e+000	 2.217117511201700e+000	-1.706925076817427e+000
1	 1.750324316142456e+000	 2.236522288218026e+000	-1.230389820273184e+000
1	 1.725612990810552e+000	 2.255643303697231e+000	-7.778957052174632e-001
1	 1.700711037020488e+000	 2.274477672075662e+000	-3.490304896052516e-001
1	 1.675623420544203e+000	 2.293022620527026e+000	 5.664595690639249e-002
1	 1.650355158960276e+000	 2.311275490214281e+000	 4.396002504812694e-001
1	 1.912106158445013e+000	 2.135814855208781e+000	-4.385962046326447e+000
1	 1.888419229808245e+000	 2.156786404862220e+000	-3.771241517834620e+000
1	 1.864511085559069e+000	 2.177487746850984e+000	-3.180979398788121e+000
1	 1.840386357549125e+000	 2.197915422274170e+000	-2.615102987884888e+000
1	 1.816049748781705e+000	 2.218066078094255e+000	-2.073509219037811e+000
1	 1.791506030387908e+000	 2.237936468933869e+000	-1.556065550865174e+000
1	 1.766760038549538e+000	 2.257523458769129e+000	-1.062610896637152e+000
1	 1.741816671372895e+000	 2.276824022517764e+000	-5.929565923000506e-001
1	 1.716680885717582e+000	 2.295835247520404e+000	-1.468874001259315e-001
1	 1.691357693984630e+000	 2.314554334913665e+000	 2.758374545322658e-001
1	 1.665852160868179e+000	 2.332978600893775e+000	 6.754832159595773e-001
1	 1.510882141793964e+000	 2.115947494085821e+000	-2.226699586579416e+000
1	 1.487588582867686e+000	 2.132388072878528e+000	-2.057152497414265e+000
1	 1.464138959764830e+000	 2.148556702005919e+000	-1.928143500595499e+000
1	 1.440537987463155e+000	 2.164451262611717e+000	-1.841461798350100e+000
1	 1.416790416433498e+000	 2.180069743733891e+000	-1.798869379902345e+000
1	 1.392901029590033e+000	 2.195410242948957e+000	-1.802097995873121e+000
1	 1.368874639231026e+000	 2.210470966914093e+000	-1.852846197047818e+000
1	 1.344716083974012e+000	 2.225250231807173e+000	-1.952776443247424e+000
1	 1.320430225689309e+000	 2.239746463665041e+000	-2.103512287811491e+000
1	 1.296021946435735e+000	 2.253958198620401e+000	-2.306635642960996e+000
1	 1.271496145402372e+000	 2.267884083038025e+000	-2.563684131056029e+000
1	 1.526379143701107e+000	 2.137650604768313e+000	-1.889055822210314e+000
1	 1.502846664532555e+000	 2.154259813312990e+000	-1.696982743048809e+000
1	 1.479156520449109e+000	 2.170594282825592e+000	-1.544711264275279e+000
1	 1.455313474789710e+000	 2.186651872716886e+000	-1.434091844604411e+000
1	 1.431322326750428e+000	 2.202430551398550e+000	-1.366953607637679e+000
1	 1.407187908303436e+000	 2.217928396934077e+000	-1.345101116811879e+000
1	 1.382915081106392e+000	 2.233143597586459e+000	-1.370311206460001e+000
1	 1.358508733406175e+000	 2.248074452262729e+000	-1.444329875246839e+000
1	 1.333973776940951e+000	 2.262719370855698e+000	-1.568869248028391e+000
1	 1.309315143844457e+000	 2.277076874483293e+000	-1.745604611955966e+000
1	 1.284537783556399e+000	 2.291145595626142e+000	-1.976171532402076e+000
1	 1.541876145608268e+000	 2.159353715450340e+000	-1.560307504709316e+000
1	 1.518104746197447e+000	 2.176131553747041e+000	-1.346065688349265e+000
1	 1.494174081133418e+000	 2.192631863644929e+000	-1.171142306398070e+000
1	 1.470088962116304e+000	 2.208852482821807e+000	-1.037384344683483e+000
1	 1.445854237067409e+000	 2.224791359063059e+000	-9.466224549553095e-001
1	 1.421474787016904e+000	 2.240446550919154e+000	-9.006676554450799e-001
1	 1.396955522981841e+000	 2.255816228258888e+000	-9.013080795089746e-001
1	 1.372301382838444e+000	 2.270898672718448e+000	-9.503057788783129e-001
1	 1.347517328192726e+000	 2.285692278046610e+000	-1.049393587846428e+000
1	 1.322608341253345e+000	 2.300195550346515e+000	-1.200272054505495e+000
1	 1.297579421710628e+000	 2.314407108214644e+000	-1.404606444920621e+000
1	 1.557373147515461e+000	 2.181056826131934e+000	-1.241113895793131e+000
1	 1.533362827862384e+000	 2.198003294180702e+000	-1.005162294051867e+000
1	 1.509191641817784e+000	 2.214669444463932e+000	-8.082725151087099e-001
1	 1.484864449442972e+000	 2.231053092926468e+000	-6.522253321318364e-001
1	 1.460386147384479e+000	 2.247152166727390e+000	-5.387893249375682e-001
1	 1.435761665730482e+000	 2.262964704904139e+000	-4.697176291090975e-001
1	 1.410995964857420e+000	 2.278488858931313e+000	-4.467447253922499e-001
1	 1.386094032270866e+000	 2.293722893174245e+000	-4.715832758934104e-001
1	 1.361060879444679e+000	 2.308665185237677e+000	-5.459210134292248e-001
1	 1.335901538662437e+000	 2.323314226209955e+000	-6.714176901819358e-001
1	 1.310621059865092e+000	 2.337668620803414e+000	-8.497020916044006e-001
1	 1.572870149422705e+000	 2.202759936813131e+000	-9.321082751737075e-001
1	 1.548620909527387e+000	 2.219875034613992e+000	-6.750035308525390e-001
1	 1.524209202502237e+000	 2.236707025282611e+000	-4.569048355658851e-001
1	 1.499639936769747e+000	 2.253253703030858e+000	-2.794659212394481e-001
1	 1.474918057701679e+000	 2.269512974391513e+000	-1.443316227578519e-001
1	 1.450048544444212e+000	 2.285482858888984e+000	-5.313479655873429e-002
1	 1.425036406733176e+000	 2.301161489603666e+000	-7.493271916888853e-003
1	 1.399886681703489e+000	 2.316547113630037e+000	-9.006841188006345e-003
1	 1.374604430696857e+000	 2.331638092428801e+000	-5.925429512591937e-002
1	 1.349194736071777e+000	 2.346432902073507e+000	-1.597905092168101e-001
1	 1.323662698019824e+000	 2.360930133392335e+000	-3.121435867859150e-001
1	 1.588367151330017e+000	 2.224463047493960e+000	-6.338992080335084e-001
1	 1.563878991192479e+000	 2.241746775046933e+000	-3.562918424055140e-001
1	 1.539226763186804e+000	 2.258744606100968e+000	-1.178108769933248e-001
1	 1.514415424096663e+000	 2.275454313134967e+000	 8.007598949889128e-002
1	 1.489449968019049e+000	 2.291873782055399e+000	 2.359074882399395e-001
1	 1.464335423158140e+000	 2.308001012873640e+000	 3.482315732375138e-001
1	 1.439076848609157e+000	 2.323834120275879e+000	 4.156081889843175e-001
1	 1.413679331136361e+000	 2.339371334085742e+000	 4.366120070269254e-001
1	 1.388147981949305e+000	 2.354610999619884e+000	 4.098351258276060e-001
1	 1.362487933481405e+000	 2.369551577937059e+000	 3.338897284355255e-001
1	 1.336704336174856e+000	 2.384191645981290e+000	 2.074106926430056e-001
1	 1.603864153237414e+000	 2.246166158174458e+000	-3.470717390202374e-001
1	 1.579137072857684e+000	 2.263618515479547e+000	-4.970252350598728e-002
1	 1.554244323871514e+000	 2.280782186919011e+000	 2.082675734354311e-001
1	 1.529190911423754e+000	 2.297654923238781e+000	 4.256141126802460e-001
1	 1.503981878336627e+000	 2.314234589719017e+000	 6.011174322692996e-001
1	 1.478622301872309e+000	 2.330519166858057e+000	 7.335650348455211e-001
1	 1.453117290485408e+000	 2.346506750947888e+000	 8.217539569299236e-001
1	 1.427471980569528e+000	 2.362195554541273e+000	 8.644931150397979e-001
1	 1.401691533202069e+000	 2.377583906810825e+000	 8.606056237533521e-001
1	 1.375781130891361e+000	 2.392670253800501e+000	 8.089310809404534e-001
1	 1.349745974330221e+000	 2.407453158570164e+000	 7.083278155067935e-001
1	 1.619361155144911e+000	 2.267869268854655e+000	-7.218851768372792e-002
1	 1.594395154523023e+000	 2.285490255911854e+000	 2.441149808608749e-001
1	 1.569261884556395e+000	 2.302819767736746e+000	 5.206171236384111e-001
1	 1.543966398751055e+000	 2.319855533342289e+000	 7.563922594306087e-001
1	 1.518513788654454e+000	 2.336595397382336e+000	 9.505186618147170e-001
1	 1.492909180586763e+000	 2.353037320842188e+000	 1.102080395788396e+000
1	 1.467157732361976e+000	 2.369179381619624e+000	 1.210169173182746e+000
1	 1.441264630003040e+000	 2.385019774996548e+000	 1.273886192874815e+000
1	 1.415235084455194e+000	 2.400556814001531e+000	 1.292343961883240e+000
1	 1.389074328301687e+000	 2.415788929663724e+000	 1.264668093510894e+000
1	 1.362787612485953e+000	 2.430714671158838e+000	 1.189999078790845e+000
1	 1.634858157052526e+000	 2.289572379534584e+000	 1.902091400957632e-001
1	 1.609653236188518e+000	 2.307361996343875e+000	 5.245358503535961e-001
1	 1.584279445241475e+000	 2.324857348554177e+000	 8.185514308237677e-001
1	 1.558741886078600e+000	 2.342056143445480e+000	 1.071682912868382e+000
1	 1.533045698972569e+000	 2.358956205045327e+000	 1.283361187029689e+000
1	 1.507196059301545e+000	 2.375555474825982e+000	 1.453022235295152e+000
1	 1.481198174238908e+000	 2.391852012291019e+000	 1.580108358892860e+000
1	 1.455057279436942e+000	 2.407843995451483e+000	 1.664069398883421e+000
1	 1.428778635708728e+000	 2.423529721191897e+000	 1.704363946850757e+000
1	 1.402367525712424e+000	 2.438907605526619e+000	 1.700460543038811e+000
1	 1.375829250642081e+000	 2.453976183747196e+000	 1.651838859334368e+000
1	 1.650355158960276e+000	 2.311275490214281e+000	 4.396002504812694e-001
1	 1.624911317854192e+000	 2.329233736775629e+000	 7.909587331352410e-001
1	 1.599297005926782e+000	 2.346894929371312e+000	 1.101409931512171e+000
1	 1.573517373406423e+000	 2.364256753548344e+000	 1.370785881939807e+000
1	 1.547577609291011e+000	 2.381317012707963e+000	 1.598923187989341e+000
1	 1.521482938016701e+000	 2.398073628809392e+000	 1.785663506504013e+000
1	 1.495238616116251e+000	 2.414524642962007e+000	 1.930854035697136e+000
1	 1.468849928871284e+000	 2.430668215905993e+000	 2.034348004081255e+000
1	 1.442322186962715e+000	 2.446502628381830e+000	 2.096005158989656e+000
1	 1.415660723123613e+000	 2.462026281389075e+000	 2.115692253455076e+000
1	 1.388870888798642e+000	 2.477237696335122e+000	 2.093283530219833e+000
1	 1.665852160868179e+000	 2.332978600893775e+000	 6.754832159595773e-001
1	 1.640169399520067e+000	 2.351105477207141e+000	 1.042804654265344e+000
1	 1.614314566612346e+000	 2.368932510188156e+000	 1.368556642444559e+000
1	 1.588292860734558e+000	 2.386457363650868e+000	 1.653027030392531e+000
1	 1.562109519609820e+000	 2.403677820370209e+000	 1.896509704401813e+000
1	 1.535769816732273e+000	 2.420591782792370e+000	 2.099304216685886e+000
1	 1.509279057994052e+000	 2.437197273632522e+000	 2.261715423311732e+000
1	 1.482642578306111e+000	 2.453492436359996e+000	 2.384053131036398e+000
1	 1.455865738217200e+000	 2.469475535571230e+000	 2.466631753502827e+000
1	 1.428953920535294e+000	 2.485144957250983e+000	 2.509769977211829e+000
1	 1.401912526955667e+000	 2.500499208922499e+000	 2.513790437645352e+000
1	 1.271496145402372e+000	 2.267884083038025e+000	-2.563684131056029e+000
1	 1.246861439865192e+000	 2.281520849728122e+000	-2.877201464036790e+000
1	 1.222119083064165e+000	 2.294869477818497e+000	-3.248726370775117e+000
1	 1.197274006442202e+000	 2.307928946488350e+000	-3.678106277204414e+000
1	 1.172331146418369e+000	 2.320698344647250e+000	-4.165163790151857e+000
1	 1.147295441416841e+000	 2.333176870580241e+000	-4.709698889074221e+000
1	 1.122171828923650e+000	 2.345363831499277e+000	-5.311491100112080e+000
1	 1.096965242574563e+000	 2.357258643002612e+000	-5.970301647848356e+000
1	 1.071680609277310e+000	 2.368860828443987e+000	-6.685875580314186e+000
1	 1.046322846371299e+000	 2.380170018213485e+000	-7.457943862956324e+000
1	 1.020896858827830e+000	 2.391185948932115e+000	-8.286225437456892e+000
1	 1.284537783556399e+000	 2.291145595626142e+000	-1.976171532402074e+000
1	 1.259650401739495e+000	 2.304922233583134e+000	-2.263314113044348e+000
1	 1.234654264488093e+000	 2.318407777524915e+000	-2.608866938180363e+000
1	 1.209554353826513e+000	 2.331601196160211e+000	-3.012931363674636e+000
1	 1.184355656806279e+000	 2.344501569053610e+000	-3.475580426229193e+000
1	 1.159063162504583e+000	 2.357108086267037e+000	-3.996860689724407e+000
1	 1.133681859050856e+000	 2.369420047906573e+000	-4.576794084631150e+000
1	 1.108216730684771e+000	 2.381436863576317e+000	-5.215379736395970e+000
1	 1.082672754848956e+000	 2.393158051741090e+000	-5.912595778824706e+000
1	 1.057054899319571e+000	 2.404583238999920e+000	-6.668401148622293e+000
1	 1.031368119377818e+000	 2.415712159272363e+000	-7.482737357388741e+000
1	 1.297579421710628e+000	 2.314407108214644e+000	-1.404606444920619e+000
1	 1.272439363614045e+000	 2.328323617438562e+000	-1.665230140745215e+000
1	 1.247189445912312e+000	 2.341946077231757e+000	-1.984243718220504e+000
1	 1.221834701211165e+000	 2.355273445832486e+000	-2.362055758804841e+000
1	 1.196380167194577e+000	 2.368304793460358e+000	-2.799042580028753e+000
1	 1.170830883592758e+000	 2.381039301954176e+000	-3.295549643143106e+000
1	 1.145191889178537e+000	 2.393476264314158e+000	-3.851892966911784e+000
1	 1.119468218795488e+000	 2.405615084150246e+000	-4.468360544122853e+000
1	 1.093664900421135e+000	 2.417455275038343e+000	-5.145213757470436e+000
1	 1.067786952268393e+000	 2.428996459786429e+000	-5.882688791547778e+000
1	 1.041839379928356e+000	 2.440238369612607e+000	-6.680998037786163e+000
1	 1.310621059865092e+000	 2.337668620803414e+000	-8.497020916044006e-001
1	 1.285228325488860e+000	 2.351725001294286e+000	-1.083591750219654e+000
1	 1.259724627336829e+000	 2.365484376938910e+000	-1.375426907904986e+000
1	 1.234115048596146e+000	 2.378945695505065e+000	-1.725975096190666e+000
1	 1.208404677583233e+000	 2.392108017867391e+000	-2.135967205548470e+000
1	 1.182598604681320e+000	 2.404970517641572e+000	-2.606098362470161e+000
1	 1.156701919306625e+000	 2.417532480721959e+000	-3.137028828050269e+000
1	 1.130719706906629e+000	 2.429793304724341e+000	-3.729384915472550e+000
1	 1.104657045993749e+000	 2.441752498335712e+000	-4.383759923823614e+000
1	 1.078519005217652e+000	 2.453409680572995e+000	-5.100715085690533e+000
1	 1.052310640479326e+000	 2.464764579952846e+000	-5.880780526040448e+000
1	 1.323662698019824e+000	 2.360930133392335e+000	-3.121435867859150e-001
1	 1.298017287363962e+000	 2.375126385150190e+000	-5.190158348365159e-001
1	 1.272259808761648e+000	 2.389022676646254e+000	-7.829642323454584e-001
1	 1.246395395981444e+000	 2.402617945177838e+000	-1.105165476130556e+000
1	 1.220429187972218e+000	 2.415911242274609e+000	-1.486754824311763e+000
1	 1.194366325770216e+000	 2.428901733329134e+000	-1.928826352308089e+000
1	 1.168211949435054e+000	 2.441588697129901e+000	-2.432433247952713e+000
1	 1.141971195018111e+000	 2.453971525298550e+000	-2.998588144101191e+000
1	 1.115649191566700e+000	 2.466049721633156e+000	-3.628263487069622e+000
1	 1.089251058167239e+000	 2.477822901359597e+000	-4.322391939211530e+000
1	 1.062781901030611e+000	 2.489290790293080e+000	-5.081866813916095e+000
1	 1.336704336174856e+000	 2.384191645981290e+000	 2.074106926430056e-001
1	 1.310806249239370e+000	 2.398527769006154e+000	 2.790478706829456e-002
1	 1.284794990186778e+000	 2.412560976353672e+000	-2.073820409979197e-001
1	 1.258675743367047e+000	 2.426290194850694e+000	-5.000844185148542e-001
1	 1.232453698361500e+000	 2.439714466681910e+000	-8.517903269895846e-001
1	 1.206134046859400e+000	 2.452832949016774e+000	-1.264040648193020e+000
1	 1.179721979563755e+000	 2.465644913537913e+000	-1.738328768829645e+000
1	 1.153222683129849e+000	 2.478149745872810e+000	-2.276100243659907e+000
1	 1.126641337139889e+000	 2.490346944930636e+000	-2.878752516467889e+000
1	 1.099983111117046e+000	 2.502236122146217e+000	-3.547634698164447e+000
1	 1.073253161582096e+000	 2.513817000633315e+000	-4.284047401219165e+000
1	 1.349745974330221e+000	 2.407453158570164e+000	 7.083278155067955e-001
1	 1.323595211115106e+000	 2.421929152862056e+000	 5.566002090919419e-001
1	 1.297330171612221e+000	 2.436099276061050e+000	 3.508136596481978e-001
1	 1.270956090752944e+000	 2.449962444523522e+000	 8.882823952771343e-002
1	 1.244478208751050e+000	 2.463517691089195e+000	-2.314437285497061e-001
1	 1.217901767948820e+000	 2.476764164704405e+000	-6.120364189937146e-001
1	 1.191232009692661e+000	 2.489701129945918e+000	-1.054929331820321e+000
1	 1.164474171241759e+000	 2.502327966447070e+000	-1.562046202880032e+000
1	 1.137633482713217e+000	 2.514644168228116e+000	-2.135253996423079e+000
1	 1.110715164066960e+000	 2.526649342932837e+000	-2.776361980405547e+000
1	 1.083724422133662e+000	 2.538343210973550e+000	-3.487120884761564e+000
1	 1.362787612485953e+000	 2.430714671158838e+000	 1.189999078790845e+000
1	 1.336384172991191e+000	 2.445330536717780e+000	 1.066522340448667e+000
1	 1.309865353037983e+000	 2.459637575768267e+000	 8.911362326770771e-001
1	 1.283236438139122e+000	 2.473634694196211e+000	 6.611494975256484e-001
1	 1.256502719140836e+000	 2.487320915496360e+000	 3.739291199541275e-001
1	 1.229669489038429e+000	 2.500695380391936e+000	 2.690246527920037e-002
1	 1.202742039821704e+000	 2.513757346353843e+000	-3.824406885463569e-001
1	 1.175725659353757e+000	 2.526506187021271e+000	-8.565462260108185e-001
1	 1.148625628286586e+000	 2.538941391525559e+000	-1.397793878394373e+000
1	 1.121447217016874e+000	 2.551062563719440e+000	-2.008495519041197e+000
1	 1.094195682685192e+000	 2.562869421313786e+000	-2.690893570926228e+000
1	 1.375829250642081e+000	 2.453976183747196e+000	 1.651838859334366e+000
1	 1.349173134867645e+000	 2.468731920573207e+000	 1.557143872006823e+000
1	 1.322400534464071e+000	 2.483175875475210e+000	 1.413117492714855e+000
1	 1.295516785525570e+000	 2.497306943868649e+000	 1.216472393681823e+000
1	 1.268527229530830e+000	 2.511124139903305e+000	 9.639858600757366e-001
1	 1.241437210128177e+000	 2.524626596079280e+000	 6.525028979575216e-001
1	 1.214252069950818e+000	 2.537813562761620e+000	 2.789392107415937e-001
1	 1.186977147465758e+000	 2.550684407595357e+000	-1.597159595824974e-001
1	 1.159617773859896e+000	 2.563238614822923e+000	-6.663971298528791e-001
1	 1.132179269966677e+000	 2.575475784506003e+000	-1.243960014778520e+000
1	 1.104666943236571e+000	 2.587395631654025e+000	-1.895179110267950e+000
1	 1.388870888798642e+000	 2.477237696335122e+000	 2.093283530219833e+000
1	 1.361962096744488e+000	 2.492133304428215e+000	 2.027957300579516e+000
1	 1.334935715890488e+000	 2.506714175181758e+000	 1.916306839620581e+000
1	 1.307797132912276e+000	 2.520979193540728e+000	 1.754405251849886e+000
1	 1.280551739921000e+000	 2.534927364309929e+000	 1.538396992491576e+000
1	 1.253204931218015e+000	 2.548557811766348e+000	 1.264502030371020e+000
1	 1.225762100079934e+000	 2.561869779169168e+000	 9.290198508857330e-001
1	 1.198228635577678e+000	 2.574862628169270e+000	 5.283332936064595e-001
1	 1.170609919433050e+000	 2.587535838120172e+000	 5.891221952023283e-002
1	 1.142911322916260e+000	 2.599889005292512e+000	-4.826829965952982e-001
1	 1.115138203787681e+000	 2.611921841994268e+000	-1.099798152700703e+000
1	 1.401912526955667e+000	 2.500499208922499e+000	 2.513790437645352e+000
1	 1.374751058621742e+000	 2.515534688282688e+000	 2.478474007676413e+000
1	 1.347470897317242e+000	 2.530252474887798e+000	 2.400270440531195e+000
1	 1.320077480299228e+000	 2.544651443212336e+000	 2.274570970541535e+000
1	 1.292576250311316e+000	 2.558730588716131e+000	 2.096845278875328e+000
1	 1.264972652307893e+000	 2.572489027453051e+000	 1.862646794709968e+000
1	 1.237272130208986e+000	 2.585925995576417e+000	 1.567617805987100e+000
1	 1.209480123689433e+000	 2.599040848742956e+000	 1.207494372446063e+000
1	 1.181602065005949e+000	 2.611833061417270e+000	 7.781110342131395e-001
1	 1.153643375865511e+000	 2.624302226078947e+000	 2.754053098135368e-001
1	 1.125609464338406e+000	 2.636448052334516e+000	-3.045780219313644e-001
1	 1.020896858827830e+000	 2.391185948932115e+000	-8.286225437456896e+000
1	 9.954037084134920e-001	 2.401910049395444e+000	-9.170714452270483e+000
1	 9.698520796365818e-001	 2.412340592915415e+000	-1.011257077594060e+001
1	 9.442468273696867e-001	 2.422477631056949e+000	-1.111362387345885e+001
1	 9.185927833090082e-001	 2.432321317635803e+000	-1.217568146089704e+001
1	 8.928947534162468e-001	 2.441871907512629e+000	-1.330052838229133e+001
1	 8.671575154167843e-001	 2.451129755315018e+000	-1.448992551355865e+001
1	 8.413858163563170e-001	 2.460095314090223e+000	-1.574560869485976e+001
1	 8.155843702179720e-001	 2.468769133891297e+000	-1.706928769275514e+001
1	 7.897578556018043e-001	 2.477151860299458e+000	-1.846264519342828e+001
1	 7.639109134684247e-001	 2.485244232885506e+000	-1.992733582817633e+001
1	 1.031368119377818e+000	 2.415712159272363e+000	-7.482737357388739e+000
1	 1.005613487680731e+000	 2.426546256009037e+000	-8.355866628789899e+000
1	 9.797997778129447e-001	 2.437083784811378e+000	-9.289213390436810e+000
1	 9.539318944431129e-001	 2.447324797773200e+000	-1.028480898333727e+001
1	 9.280147188257829e-001	 2.457269450287938e+000	-1.134465549156577e+001
1	 9.020531062170464e-001	 2.466917999830329e+000	-1.247072438340468e+001
1	 8.760518833470560e-001	 2.476270804665348e+000	-1.366495519626946e+001
1	 8.500158459516012e-001	 2.485328322487115e+000	-1.492925426697058e+001
1	 8.239497563647820e-001	 2.494091108990540e+000	-1.626549350874933e+001
1	 7.978583411747026e-001	 2.502559816378510e+000	-1.767550923641323e+001
1	 7.717462889439609e-001	 2.510735191807548e+000	-1.916110104078036e+001
1	 1.041839379928356e+000	 2.440238369612607e+000	-6.680998037786167e+000
1	 1.015823266948505e+000	 2.451182462622545e+000	-7.540701095188131e+000
1	 9.897474759898185e-001	 2.461826976707176e+000	-8.463465588405938e+000
1	 9.636169615170168e-001	 2.472171964489210e+000	-9.451495823790328e+000
1	 9.374366543429982e-001	 2.482217582939757e+000	-1.050696000613096e+001
1	 9.112114590182460e-001	 2.491964092147640e+000	-1.163198867655846e+001
1	 8.849462512776898e-001	 2.501411854015221e+000	-1.282867320926883e+001
1	 8.586458755472132e-001	 2.510561330883490e+000	-1.409906436873155e+001
1	 8.323151425118923e-001	 2.519413084089207e+000	-1.544517092888974e+001
1	 8.059588267478868e-001	 2.527967772456936e+000	-1.686895835571016e+001
1	 7.795816644197812e-001	 2.536226150728919e+000	-1.837234755428677e+001
1	 1.052310640479326e+000	 2.464764579952846e+000	-5.880780526040448e+000
1	 1.026033046216697e+000	 2.475818669235988e+000	-6.724853342810045e+000
1	 9.996951741670866e-001	 2.486570168602849e+000	-7.634835357108285e+000
1	 9.733020285912875e-001	 2.497019131205038e+000	-8.613075721250070e+000
1	 9.468585898605494e-001	 2.507165715591338e+000	-9.661881289132451e+000
1	 9.203698118197512e-001	 2.517010184464658e+000	-1.078351488285021e+001
1	 8.938406192086004e-001	 2.526552903364751e+000	-1.198019363148829e+001
1	 8.672759051430791e-001	 2.535794339279474e+000	-1.325408738383292e+001
1	 8.406805286592407e-001	 2.544735059187440e+000	-1.460731719655958e+001
1	 8.140593123213008e-001	 2.553375728534892e+000	-1.604195389926738e+001
1	 7.874170398958365e-001	 2.561717109649788e+000	-1.756001673754845e+001
1	 1.062781901030611e+000	 2.489290790293080e+000	-5.081866813916095e+000
1	 1.036242825485187e+000	 2.500454875849389e+000	-5.907973228561979e+000
1	 1.009642872344632e+000	 2.511313360498441e+000	-6.802850074398318e+000
1	 9.829870956658121e-001	 2.521866297920744e+000	-7.768963990434684e+000
1	 9.562805253783321e-001	 2.532113848242760e+000	-8.808733753177032e+000
1	 9.295281646214674e-001	 2.542056276781485e+000	-9.924528403381070e+000
1	 9.027349871397038e-001	 2.551693952714053e+000	-1.111866545668037e+001
1	 8.759059347391242e-001	 2.561027347675200e+000	-1.239340919988612e+001
1	 8.490459148067616e-001	 2.570057034285387e+000	-1.375096907454151e+001
1	 8.221597978948889e-001	 2.578783684612533e+000	-1.519349814909937e+001
1	 7.952524153720766e-001	 2.587208068570322e+000	-1.672309168087644e+001
1	 1.073253161582096e+000	 2.513817000633315e+000	-4.284047401219165e+000
1	 1.046452604753855e+000	 2.525091082462769e+000	-5.089724274119144e+000
1	 1.019590570522337e+000	 2.536056552393992e+000	-5.967055562797222e+000
1	 9.926721627404798e-001	 2.546713464636391e+000	-6.918598764132624e+000
1	 9.657024608962423e-001	 2.557061980894103e+000	-7.946858566772467e+000
1	 9.386865174232991e-001	 2.567102369098211e+000	-9.054284868938064e+000
1	 9.116293550709155e-001	 2.576835002063241e+000	-1.024327089017571e+001
1	 8.845359643352754e-001	 2.586260356070796e+000	-1.151615137887614e+001
1	 8.574113009543914e-001	 2.595379009383189e+000	-1.287520091715038e+001
1	 8.302602834685960e-001	 2.604191640690019e+000	-1.432263232440798e+001
1	 8.030877908484519e-001	 2.612699027490689e+000	-1.586059516074943e+001
1	 1.083724422133662e+000	 2.538343210973550e+000	-3.487120884761564e+000
1	 1.056662384022583e+000	 2.549727289076148e+000	-4.269783005761187e+000
1	 1.029538268700084e+000	 2.560799744289543e+000	-5.127015198403963e+000
1	 1.002357229815177e+000	 2.571560631352037e+000	-6.061439890828386e+000
1	 9.751243964141757e-001	 2.582010113545447e+000	-7.075622361710981e+000
1	 9.478448702251516e-001	 2.592148461414938e+000	-8.172068679554283e+000
1	 9.205237230021511e-001	 2.601976051412428e+000	-9.353223744383541e+000
1	 8.931659939314584e-001	 2.611493364466390e+000	-1.062146943368188e+001
1	 8.657766871020662e-001	 2.620700984480991e+000	-1.197912285413161e+001
1	 8.383607690423656e-001	 2.629599596767504e+000	-1.342843470047058e+001
1	 8.109231663249130e-001	 2.638189986411056e+000	-1.497158772251788e+001
1	 1.094195682685192e+000	 2.562869421313786e+000	-2.690893570926230e+000
1	 1.066872163291252e+000	 2.574363495689549e+000	-3.447838332112911e+000
1	 1.039485966877756e+000	 2.585542936185134e+000	-4.282309070972474e+000
1	 1.012042296889793e+000	 2.596407798067745e+000	-5.196967895625468e+000
1	 9.845463319320278e-001	 2.606958246196870e+000	-6.194416014673588e+000
1	 9.570032230269305e-001	 2.617194553731764e+000	-7.277191627925654e+000
1	 9.294180909333261e-001	 2.627117100761730e+000	-8.447767926420896e+000
1	 9.017960235275987e-001	 2.636726372862115e+000	-9.708551203555114e+000
1	 8.741420732497214e-001	 2.646022959578938e+000	-1.106187907883847e+001
1	 8.464612546161421e-001	 2.655007552845147e+000	-1.251001883553925e+001
1	 8.187585418014102e-001	 2.663680945331590e+000	-1.405516587319666e+001
1	 1.104666943236571e+000	 2.587395631654025e+000	-1.895179110267947e+000
1	 1.077081942559741e+000	 2.598999702302993e+000	-2.623590957276428e+000
1	 1.049433665055237e+000	 2.610286128080809e+000	-3.432533191758498e+000
1	 1.021727363964214e+000	 2.621254964783572e+000	-4.324683000266969e+000
1	 9.939682674496941e-001	 2.631906378848451e+000	-5.302653498130116e+000
1	 9.661615758285405e-001	 2.642240646048783e+000	-6.368991601120633e+000
1	 9.383124588643562e-001	 2.652258150111261e+000	-7.526176011757243e+000
1	 9.104260531236235e-001	 2.661959381258100e+000	-8.776615321994376e+000
1	 8.825074593972930e-001	 2.671344934677172e+000	-1.012264623376870e+001
1	 8.545617401898695e-001	 2.680415508923102e+000	-1.156653189858499e+001
1	 8.265939172778938e-001	 2.689171904252460e+000	-1.311046037704215e+001
1	 1.115138203787681e+000	 2.611921841994268e+000	-1.099798152700705e+000
1	 1.087291721827932e+000	 2.623635908916500e+000	-1.796752827027566e+000
1	 1.059381363232407e+000	 2.635029319976607e+000	-2.577298745997119e+000
1	 1.031412431038330e+000	 2.646102131499581e+000	-3.444104198368304e+000
1	 1.003390202967071e+000	 2.656854511500270e+000	-4.399770795980424e+000
1	 9.753199286298868e-001	 2.667286738366093e+000	-5.446831355436252e+000
1	 9.472068267951563e-001	 2.677399199461133e+000	-6.587747898220938e+000
1	 9.190560827194577e-001	 2.687192389654475e+000	-7.824909770939703e+000
1	 8.908728455447166e-001	 2.696666909775838e+000	-9.160631887060626e+000
1	 8.626622257634922e-001	 2.705823465001527e+000	-1.059715309125758e+001
1	 8.344292927543137e-001	 2.714662863173830e+000	-1.213663464715743e+001
1	 1.125609464338406e+000	 2.636448052334516e+000	-3.045780219313624e-001
1	 1.097501501095708e+000	 2.648272115530094e+000	-9.670466059235240e-001
1	 1.069329061409152e+000	 2.659772511872570e+000	-1.716231387104357e+000
1	 1.041097498112028e+000	 2.670949298215834e+000	-2.554768382267039e+000
1	 1.012812138484053e+000	 2.681802644152406e+000	-3.485224879720522e+000
1	 9.844782814308749e-001	 2.692332830683794e+000	-4.510097359637456e+000
1	 9.561011947256430e-001	 2.702540248811464e+000	-5.631809535134348e+000
1	 9.276861123150281e-001	 2.712425398051369e+000	-6.852710515666825e+000
1	 8.992382316919289e-001	 2.721988884875083e+000	-8.175073094026324e+000
1	 8.707627113369547e-001	 2.731231421080581e+000	-9.601092157925697e+000
1	 8.422646682306207e-001	 2.740153822095873e+000	-1.113288322687273e+001
1	 7.639109134684247e-001	 2.485244232885506e+000	-1.992733582817633e+001
1	 7.380481445792873e-001	 2.493047082992633e+000	-2.146326149060074e+001
1	 7.121741063034353e-001	 2.500561330227558e+000	-2.307005458590233e+001
1	 6.862933117354153e-001	 2.507787982628420e+000	-2.474891704244232e+001
1	 6.604102280884718e-001	 2.514728135537550e+000	-2.650101566271969e+001
1	 6.345292747799888e-001	 2.521382969806464e+000	-2.832748298424145e+001
1	 6.086548215885872e-001	 2.527753749957561e+000	-3.022941813838484e+001
1	 5.827911868836834e-001	 2.533841822305532e+000	-3.220788770538442e+001
1	 5.569426359281881e-001	 2.539648613041488e+000	-3.426392656367046e+001
1	 5.311133792549037e-001	 2.545175626282792e+000	-3.639853873188144e+001
1	 5.053075711170251e-001	 2.550424442091569e+000	-3.861269820197177e+001
1	 7.717462889439609e-001	 2.510735191807548e+000	-1.916110104078036e+001
1	 7.456182476236746e-001	 2.518618075147865e+000	-2.072238634687358e+001
1	 7.194788213274722e-001	 2.526209395438529e+000	-2.235995316379405e+001
1	 6.933325694403606e-001	 2.533510171057052e+000	-2.407624247997613e+001
1	 6.671840049954464e-001	 2.540521508580616e+000	-2.587364606810377e+001
1	 6.410375927397362e-001	 2.547244600972648e+000	-2.775450549360348e+001
1	 6.148977472723328e-001	 2.553680725725668e+000	-2.972111118655461e+001
1	 5.887688312558331e-001	 2.559831242963416e+000	-3.177570157715696e+001
1	 5.626551537016211e-001	 2.565697593505348e+000	-3.392046229478120e+001
1	 5.365609683296077e-001	 2.571281296896450e+000	-3.615752543051178e+001
1	 5.104904720028426e-001	 2.576583949405427e+000	-3.848896886298191e+001
1	 7.795816644197812e-001	 2.536226150728919e+000	-1.837234755428677e+001
1	 7.531883506683611e-001	 2.544189067302395e+000	-1.995574520895909e+001
1	 7.267835363518351e-001	 2.551857460648769e+000	-2.162070413493322e+001
1	 7.003718271456699e-001	 2.559232359484935e+000	-2.337078507106295e+001
1	 6.739577819028284e-001	 2.566314881622927e+000	-2.520948623037473e+001
1	 6.475459106999372e-001	 2.573106232138085e+000	-2.714024061607882e+001
1	 6.211406729565766e-001	 2.579607701493043e+000	-2.916641346168780e+001
1	 5.947464756285221e-001	 2.585820663620601e+000	-3.129129979720320e+001
1	 5.683676714756254e-001	 2.591746573968552e+000	-3.351812214302323e+001
1	 5.420085574049048e-001	 2.597386967509508e+000	-3.585002833291234e+001
1	 5.156733728892596e-001	 2.602743456718761e+000	-3.829008946707273e+001
1	 7.874170398958365e-001	 2.561717109649788e+000	-1.756001673754845e+001
1	 7.607584537132998e-001	 2.569760059456395e+000	-1.916225955650341e+001
1	 7.340882513764792e-001	 2.577505525858459e+000	-2.085119532921939e+001
1	 7.074110848512961e-001	 2.584954547912257e+000	-2.263138884243321e+001
1	 6.807315588105687e-001	 2.592108254664673e+000	-2.450732980523134e+001
1	 6.540542286605390e-001	 2.598967863302960e+000	-2.648342862944345e+001
1	 6.273835986412624e-001	 2.605534677259869e+000	-2.856401239018634e+001
1	 6.007241200016894e-001	 2.611810084277258e+000	-3.075332097015608e+001
1	 5.740801892501380e-001	 2.617795554431263e+000	-3.305550339077852e+001
1	 5.474561464807286e-001	 2.623492638122118e+000	-3.547461433283825e+001
1	 5.208562737762096e-001	 2.628902964031701e+000	-3.801461084873145e+001
1	 7.952524153720766e-001	 2.587208068570322e+000	-1.672309168087644e+001
1	 7.683285567584447e-001	 2.595331051610042e+000	-1.834089337445936e+001
1	 7.413929664013588e-001	 2.603153591067784e+000	-2.005035840802132e+001
1	 7.144503425571933e-001	 2.610676736339205e+000	-2.185694337860335e+001
1	 6.875053357186182e-001	 2.617901627706041e+000	-2.376601799131928e+001
1	 6.605625466214887e-001	 2.624829494467460e+000	-2.578285945808478e+001
1	 6.336265243263337e-001	 2.631461653026330e+000	-2.791264712797679e+001
1	 6.067017643752751e-001	 2.637799504933566e+000	-3.016045735427651e+001
1	 5.797927070250946e-001	 2.643844534893646e+000	-3.253125860259800e+001
1	 5.529037355570139e-001	 2.649598308734429e+000	-3.502990680385272e+001
1	 5.260391746636258e-001	 2.655062471344380e+000	-3.766114095516131e+001
1	 8.030877908484519e-001	 2.612699027490689e+000	-1.586059516074943e+001
1	 7.758986598037490e-001	 2.620902043763512e+000	-1.749065107955869e+001
1	 7.486976814264280e-001	 2.628801656276926e+000	-1.921716672595513e+001
1	 7.214896002633143e-001	 2.636398924765966e+000	-2.104638159943879e+001
1	 6.942791126269274e-001	 2.643695000747222e+000	-2.298443721095248e+001
1	 6.670708645827340e-001	 2.650691125631771e+000	-2.503737025110096e+001
1	 6.398694500117332e-001	 2.657388628792607e+000	-2.721110603699908e+001
1	 6.126794087492188e-001	 2.663788925589698e+000	-2.951145224407852e+001
1	 5.855052248004320e-001	 2.669893515355864e+000	-3.194409292838305e+001
1	 5.583513246336941e-001	 2.675703979346590e+000	-3.451458284408398e+001
1	 5.312220755514417e-001	 2.681221978656926e+000	-3.722834206016339e+001
1	 8.109231663249130e-001	 2.638189986411056e+000	-1.497158772251788e+001
1	 7.834687628491668e-001	 2.646473035916982e+000	-1.661057556699404e+001
1	 7.560023964516420e-001	 2.654449721486068e+000	-1.835063331662291e+001
1	 7.285288579696130e-001	 2.662121113192726e+000	-2.019867766656081e+001
1	 7.010528895354476e-001	 2.669488373788401e+000	-2.216151692529246e+001
1	 6.735791825442224e-001	 2.676552756796084e+000	-2.424584310080646e+001
1	 6.461123756974059e-001	 2.683315604558885e+000	-2.645822430799252e+001
1	 6.186570531234599e-001	 2.689778346245831e+000	-2.880509750469417e+001
1	 5.912177425760863e-001	 2.695942495818081e+000	-3.129276156291009e+001
1	 5.637989137107039e-001	 2.701809649958751e+000	-3.392737068071325e+001
1	 5.364049764395906e-001	 2.707381485969473e+000	-3.671492813954046e+001
1	 8.187585418014102e-001	 2.663680945331590e+000	-1.405516587319666e+001
1	 7.910388658946517e-001	 2.672044028070630e+000	-1.569974636925863e+001
1	 7.633071114769551e-001	 2.680097786695394e+000	-1.744980899400860e+001
1	 7.355681156760424e-001	 2.687843301619675e+000	-1.931284500996476e+001
1	 7.078266664441294e-001	 2.695281746829770e+000	-2.129622757497754e+001
1	 6.800875005059012e-001	 2.702414387960583e+000	-2.340720289223867e+001
1	 6.523553013832940e-001	 2.709242580325346e+000	-2.565288171977906e+001
1	 6.246346974979380e-001	 2.715767766902138e+000	-2.804023124781248e+001
1	 5.969302603519940e-001	 2.721991476280464e+000	-3.057606735122840e+001
1	 5.692465027879767e-001	 2.727915320571062e+000	-3.326704722349537e+001
1	 5.415878773280060e-001	 2.733540993282151e+000	-3.611966239720113e+001
1	 8.265939172778938e-001	 2.689171904252460e+000	-1.311046037704215e+001
1	 7.986089689401570e-001	 2.697615020224630e+000	-1.475727791970082e+001
1	 7.706118265023212e-001	 2.705745851905084e+000	-1.651378056185534e+001
1	 7.426073733825566e-001	 2.713565490046997e+000	-1.838793446687389e+001
1	 7.146004433529239e-001	 2.721075119871516e+000	-2.038757863787743e+001
1	 6.865958184677173e-001	 2.728276019125458e+000	-2.252041527497370e+001
1	 6.585982270693412e-001	 2.735169556092173e+000	-2.479400052598692e+001
1	 6.306123418725927e-001	 2.741757187558796e+000	-2.721573563979798e+001
1	 6.026427781280914e-001	 2.748040456743174e+000	-2.979285853024871e+001
1	 5.746940918654472e-001	 2.754020991183672e+000	-3.253243575742093e+001
1	 5.467707782166210e-001	 2.759700500595091e+000	-3.544135493196738e+001
1	 8.344292927543137e-001	 2.714662863173830e+000	-1.213663464715743e+001
1	 8.061790719856369e-001	 2.723186012379159e+000	-1.378231791391181e+001
1	 7.779165415276959e-001	 2.731393917115324e+000	-1.554166912392870e+001
1	 7.496466310891083e-001	 2.739287678474881e+000	-1.742303252545095e+001
1	 7.213742202617817e-001	 2.746868492913827e+000	-1.943461679627634e+001
1	 6.931041364296190e-001	 2.754137650290895e+000	-2.158448474921054e+001
1	 6.648411527554916e-001	 2.761096531859548e+000	-2.388054346083684e+001
1	 6.365899862473644e-001	 2.767746608215980e+000	-2.633053483330239e+001
1	 6.083552959043146e-001	 2.774089437206379e+000	-2.894202659757290e+001
1	 5.801416809430494e-001	 2.780126661796730e+000	-3.172240376537621e+001
1	 5.519536791053693e-001	 2.785860007908425e+000	-3.467886053583466e+001
1	 8.422646682306207e-001	 2.740153822095873e+000	-1.113288322687273e+001
1	 8.137491750310451e-001	 2.748757004534392e+000	-1.277404576257454e+001
1	 7.852212565530335e-001	 2.757041982326296e+000	-1.453262848859455e+001
1	 7.566858887956514e-001	 2.765009866903514e+000	-1.641725966654035e+001
1	 7.281479971706540e-001	 2.772661865956894e+000	-1.843642420635619e+001
1	 6.996124543915533e-001	 2.779999281457081e+000	-2.059845285868359e+001
1	 6.710840784416883e-001	 2.787023507627656e+000	-2.291151185623876e+001
1	 6.425676306221918e-001	 2.793736028873866e+000	-2.538359301432512e+001
1	 6.140678136806004e-001	 2.800138417670240e+000	-2.802250429927788e+001
1	 5.855892700207175e-001	 2.806232332410390e+000	-3.083586087233388e+001
1	 5.571365799941845e-001	 2.812019515222284e+000	-3.383107661512565e+001
1	 5.053075711170251e-001	 2.550424442091569e+000	-3.861269820197177e+001
1	 4.795331713038518e-001	 2.555395989676932e+000	-4.090278822085619e+001
1	 4.537903379149098e-001	 2.560092804066504e+000	-4.326370602441394e+001
1	 4.280830402778991e-001	 2.564516682315065e+000	-4.569320988428385e+001
1	 4.024151861583350e-001	 2.568669489165140e+000	-4.818912795376663e+001
1	 3.767906205842475e-001	 2.572553154955150e+000	-5.074936258569656e+001
1	 3.512131247447561e-001	 2.576169673513514e+000	-5.337189437545170e+001
1	 3.256864149621451e-001	 2.579521100041421e+000	-5.605478592884886e+001
1	 3.002141417369426e-001	 2.582609548986935e+000	-5.879618535534453e+001
1	 2.747998888654161e-001	 2.585437191913076e+000	-6.159432948761106e+001
1	 2.494471726288109e-001	 2.588006255362404e+000	-6.444754682917969e+001
1	 5.104904720028426e-001	 2.576583949405427e+000	-3.848896886298191e+001
1	 4.844517061535697e-001	 2.581606489772226e+000	-4.091287207653463e+001
1	 4.584448305029267e-001	 2.586351479026043e+000	-4.342596902214368e+001
1	 4.324738550916993e-001	 2.590820732653894e+000	-4.602724133511936e+001
1	 4.065427277670497e-001	 2.595016134524814e+000	-4.871571796025299e+001
1	 3.806553329951613e-001	 2.598939634776542e+000	-5.149047791177748e+001
1	 3.548154907485164e-001	 2.602593247688027e+000	-5.435065283352365e+001
1	 3.290269554674278e-001	 2.605979049540489e+000	-5.729542935988109e+001
1	 3.032934150953240e-001	 2.609099176469709e+000	-6.032405127864540e+001
1	 2.776184901871918e-001	 2.611955822312248e+000	-6.343582149728985e+001
1	 2.520057330904998e-001	 2.614551236448130e+000	-6.663010381463175e+001
1	 5.156733728892596e-001	 2.602743456718761e+000	-3.829008946707273e+001
1	 4.893702410038772e-001	 2.607816989867085e+000	-4.083811450179068e+001
1	 4.630993230915090e-001	 2.612610153985244e+000	-4.349278110784429e+001
1	 4.368646699060309e-001	 2.617124782992494e+000	-4.625430006059097e+001
1	 4.106702693762561e-001	 2.621362779884366e+000	-4.912290724815693e+001
1	 3.845200454065251e-001	 2.625326114597917e+000	-5.209886483415838e+001
1	 3.584178567526873e-001	 2.629016821862626e+000	-5.518246229653161e+001
1	 3.323674959730879e-001	 2.632436999039727e+000	-5.837401734399172e+001
1	 3.063726884540590e-001	 2.635588803952722e+000	-6.167387671191213e+001
1	 2.804370915093106e-001	 2.638474452711707e+000	-6.508241683967214e+001
1	 2.545642935525385e-001	 2.641096217534166e+000	-6.860004443175959e+001
1	 5.208562737762096e-001	 2.628902964031701e+000	-3.801461084873145e+001
1	 4.942887758547083e-001	 2.634027489961617e+000	-4.067706552485163e+001
1	 4.677538156805934e-001	 2.638868828944194e+000	-4.346270539625763e+001
1	 4.412554847208340e-001	 2.643428833330921e+000	-4.637297609391981e+001
1	 4.147978109858974e-001	 2.647709425243827e+000	-4.940932653519459e+001
1	 3.883847578182855e-001	 2.651712594419279e+000	-5.257320845013121e+001
1	 3.620202227572169e-001	 2.655440396037277e+000	-5.586607586065894e+001
1	 3.357080364790732e-001	 2.658894948539082e+000	-5.928938451513707e+001
1	 3.094519618130930e-001	 2.662078431435898e+000	-6.284459128081215e+001
1	 2.832556928317134e-001	 2.664993083111359e+000	-6.653315349678599e+001
1	 2.571228540148597e-001	 2.667641198620404e+000	-7.035652829013252e+001
1	 5.260391746636258e-001	 2.655062471344380e+000	-3.766114095516131e+001
1	 4.992073107059977e-001	 2.660237990055931e+000	-4.042833231843704e+001
1	 4.724083082701172e-001	 2.665127503902978e+000	-4.333436163086768e+001
1	 4.456462995360489e-001	 2.669732883669232e+000	-4.638191503619127e+001
1	 4.189253525959176e-001	 2.674056070603222e+000	-4.957366050353933e+001
1	 3.922494702303885e-001	 2.678099074240623e+000	-5.291224567830378e+001
1	 3.656225887620537e-001	 2.681863970211957e+000	-5.640029576351652e+001
1	 3.390485769853320e-001	 2.685352898038498e+000	-6.004041143523387e+001
1	 3.125312351723726e-001	 2.688568058919159e+000	-6.383516679527640e+001
1	 2.860742941543414e-001	 2.691511713511108e+000	-6.778710736451474e+001
1	 2.596814144773963e-001	 2.694186179706736e+000	-7.189874811973917e+001
1	 5.312220755514417e-001	 2.681221978656926e+000	-3.722834206016339e+001
1	 5.041258455576798e-001	 2.686448490150136e+000	-4.009057641208918e+001
1	 4.770628008600168e-001	 2.691386178861674e+000	-4.310642342139204e+001
1	 4.500371143516156e-001	 2.696036934007483e+000	-4.627981534559871e+001
1	 4.230528942062600e-001	 2.700402715962583e+000	-4.961464516728382e+001
1	 3.961141826427810e-001	 2.704485554061952e+000	-5.311476273061106e+001
1	 3.692249547671452e-001	 2.708287544386637e+000	-5.678397098688528e+001
1	 3.423891174918126e-001	 2.711810847537922e+000	-6.062602235366484e+001
1	 3.156105085318437e-001	 2.715057686402432e+000	-6.464461519163264e+001
1	 2.888928954771354e-001	 2.718030343910860e+000	-6.884339040305254e+001
1	 2.622399749400806e-001	 2.720731160793048e+000	-7.322592815527936e+001
1	 5.364049764395906e-001	 2.707381485969473e+000	-3.671492813954046e+001
1	 5.090443804096894e-001	 2.712658990244341e+000	-3.966251106611684e+001
1	 4.817172934502299e-001	 2.717644853820371e+000	-4.277761564142566e+001
1	 4.544279291674744e-001	 2.722340984345731e+000	-4.606542578384047e+001
1	 4.271804358168682e-001	 2.726749361321934e+000	-4.953106539252082e+001
1	 3.999788950554091e-001	 2.730872033883266e+000	-5.317959273088253e+001
1	 3.728273207724401e-001	 2.734711118561287e+000	-5.701599499843822e+001
1	 3.457296579984633e-001	 2.738268797037303e+000	-6.104518309667307e+001
1	 3.186897818914524e-001	 2.741547313885638e+000	-6.527198659404037e+001
1	 2.917114968000368e-001	 2.744548974310516e+000	-6.970114889458486e+001
1	 2.647985354028455e-001	 2.747276141879232e+000	-7.433732261412732e+001
1	 5.415878773280060e-001	 2.733540993282151e+000	-3.611966239720113e+001
1	 5.139629152619605e-001	 2.738869490338654e+000	-3.914289879632372e+001
1	 4.863717860406928e-001	 2.743903528779151e+000	-4.234671197551001e+001
1	 4.588187439835655e-001	 2.748645034684032e+000	-4.573754300914051e+001
1	 4.313079774276855e-001	 2.753096006681305e+000	-4.932175255981812e+001
1	 4.038436074682189e-001	 2.757258513704562e+000	-5.310561347014946e+001
1	 3.764296867778863e-001	 2.761134692735884e+000	-5.709530362312907e+001
1	 3.490701985052323e-001	 2.764726746536587e+000	-6.129689907794621e+001
1	 3.217690552511447e-001	 2.768036941368701e+000	-6.571636748723739e+001
1	 2.945300981229865e-001	 2.771067604709985e+000	-7.035956180101175e+001
1	 2.673570958656238e-001	 2.773821122965178e+000	-7.523221426168561e+001
1	 5.467707782166210e-001	 2.759700500595091e+000	-3.544135493196738e+001
1	 5.188814501144281e-001	 2.765079990433186e+000	-3.853054903951723e+001
1	 4.910262786313429e-001	 2.770162203738097e+000	-4.181253260571118e+001
1	 4.632095587998288e-001	 2.774949085022442e+000	-4.529500930616749e+001
1	 4.354355190386554e-001	 2.779442652040723e+000	-4.898558235963875e+001
1	 4.077083198811573e-001	 2.783644993525843e+000	-5.289174528961841e+001
1	 3.800320527834320e-001	 2.787558266910397e+000	-5.702087303564588e+001
1	 3.524107390120677e-001	 2.791184696035717e+000	-6.138021342234744e+001
1	 3.248483286108669e-001	 2.794526568851548e+000	-6.597687899320955e+001
1	 2.973486994459259e-001	 2.797586235109167e+000	-7.081783921507447e+001
1	 2.699156563283478e-001	 2.800366104050776e+000	-7.590991305833687e+001
1	 5.519536791053693e-001	 2.785860007908425e+000	-3.467886053583466e+001
1	 5.237999849670263e-001	 2.791290490528043e+000	-3.782431595054388e+001
1	 4.956807712221167e-001	 2.796420878697292e+000	-4.117394202853801e+001
1	 4.676003736162050e-001	 2.801253135361017e+000	-4.473671044384889e+001
1	 4.395630606497217e-001	 2.805789297400218e+000	-4.852147271197008e+001
1	 4.115730322941702e-001	 2.810031473347105e+000	-5.253694908291887e+001
1	 3.836344187890254e-001	 2.813981841084797e+000	-5.679171786597048e+001
1	 3.557512795189180e-001	 2.817642645534646e+000	-6.129420519535696e+001
1	 3.279276019705646e-001	 2.821016196334099e+000	-6.605267524495469e+001
1	 3.001673007687956e-001	 2.824104865507973e+000	-7.107522089874696e+001
1	 2.724742167909505e-001	 2.826911085135917e+000	-7.636975488262495e+001
1	 5.571365799941845e-001	 2.812019515222284e+000	-3.383107661512565e+001
1	 5.287185198196900e-001	 2.817500990623337e+000	-3.702309632228639e+001
1	 5.003352638129517e-001	 2.822679553656821e+000	-4.042984699371193e+001
1	 4.719911884326337e-001	 2.827557185699814e+000	-4.406157365275715e+001
1	 4.436906022608280e-001	 2.832135942759818e+000	-4.792838180207024e+001
1	 4.154377447072045e-001	 2.836417953168350e+000	-5.204022440985877e+001
1	 3.872367847946145e-001	 2.840405415259060e+000	-5.640688941067922e+001
1	 3.590918200257314e-001	 2.844100595033316e+000	-6.103798773133968e+001
1	 3.310068753301844e-001	 2.847505823816278e+000	-6.594294185101668e+001
1	 3.029859020915368e-001	 2.850623495906301e+000	-7.113097490320895e+001
1	 2.750327772533645e-001	 2.853456066220491e+000	-7.661110032570529e+001
1	 2.494471726288109e-001	 2.588006255362404e+000	-6.444754682917969e+001
1	 2.241556613584017e-001	 2.590319346644739e+000	-6.734711963530636e+001
1	 1.989325871316730e-001	 2.592378392617928e+000	-7.027846892327871e+001
1	 1.737813118221734e-001	 2.594185773617187e+000	-7.323267966810653e+001
1	 1.487051256341049e-001	 2.595743916486777e+000	-7.620108695449676e+001
1	 1.237072466452768e-001	 2.597055292441034e+000	-7.917528516948464e+001
1	 9.879082041758477e-002	 2.598122414936711e+000	-8.214713649237484e+001
1	 7.395891967371854e-002	 2.598947837558706e+000	-8.510877868871329e+001
1	 4.921454403874689e-002	 2.599534151921171e+000	-8.805263221630942e+001
1	 2.456061984517374e-002	 2.599883985585925e+000	-9.097140665255596e+001
1	 0.000000000000000e+000	 2.600000000000000e+000	-9.385810645345278e+001
1	 2.520057330904998e-001	 2.614551236448130e+000	-6.663010381463175e+001
1	 2.264548087346185e-001	 2.616888052930142e+000	-6.989940685084126e+001
1	 2.009730233758899e-001	 2.618968218379762e+000	-7.322982511656500e+001
1	 1.755637733703354e-001	 2.620794137547128e+000	-7.661276888261494e+001
1	 1.502303826695234e-001	 2.622368262168459e+000	-8.003987615279345e+001
1	 1.249761023588341e-001	 2.623693088805149e+000	-8.350302184697598e+001
1	 9.980411026394451e-002	 2.624771156694291e+000	-8.699432631171386e+001
1	 7.471751062421959e-002	 2.625605045612707e+000	-9.050616316422735e+001
1	 4.971933383164673e-002	 2.626197373756539e+000	-9.403116647692150e+001
1	 2.481253623389227e-002	 2.626550795638311e+000	-9.756223731075896e+001
1	 0.000000000000000e+000	 2.626668000003317e+000	-1.010925496069513e+002
1	 2.545642935525385e-001	 2.641096217534166e+000	-6.860004443175959e+001
1	 2.287539561112106e-001	 2.643456759215848e+000	-7.222054611086574e+001
1	 2.030134596205190e-001	 2.645558044141875e+000	-7.593086994728262e+001
1	 1.773462349189482e-001	 2.647402501477304e+000	-7.972294151746326e+001
1	 1.517556397054234e-001	 2.648992607850319e+000	-8.358888867443558e+001
1	 1.262449580728870e-001	 2.650330885169382e+000	-8.752105049894405e+001
1	 1.008174001107880e-001	 2.651419898451923e+000	-9.151198562007843e+001
1	 7.547610157515765e-002	 2.652262253666700e+000	-9.555447991041737e+001
1	 5.022412362489306e-002	 2.652860595591853e+000	-9.964155356191425e+001
1	 2.506445262281448e-002	 2.653217605690610e+000	-1.037664675499048e+002
1	 0.000000000000000e+000	 2.653336000006534e+000	-1.079227294936897e+002
1	 2.571228540148597e-001	 2.667641198620404e+000	-7.035652829013250e+001
1	 2.310531034880990e-001	 2.670025465501747e+000	-7.430982935290130e+001
1	 2.050538958654675e-001	 2.672147869904146e+000	-7.838103209747543e+001
1	 1.791286964679059e-001	 2.674010865407591e+000	-8.256276185842026e+001
1	 1.532808967416889e-001	 2.675616953532234e+000	-8.684781778151321e+001
1	 1.275138137873141e-001	 2.676968681533611e+000	-9.122918132382240e+001
1	 1.018306899579956e-001	 2.678068640209493e+000	-9.570002417682460e+001
1	 7.623469252642391e-002	 2.678919461720579e+000	-1.002537156167564e+002
1	 5.072891341839939e-002	 2.679523817427006e+000	-1.048838292875124e+002
1	 2.531636901188944e-002	 2.679884415742720e+000	-1.095841494224672e+002
1	 0.000000000000000e+000	 2.680004000009550e+000	-1.143486765126044e+002
1	 2.596814144773963e-001	 2.694186179706736e+000	-7.189874811973915e+001
1	 2.333522508652044e-001	 2.696594171787714e+000	-7.616657641974020e+001
1	 2.070943321106425e-001	 2.698737695666449e+000	-8.057976276525078e+001
1	 1.809111580171025e-001	 2.700619229337863e+000	-8.513181136306876e+001
1	 1.548061537782039e-001	 2.702241299214085e+000	-8.981636882487327e+001
1	 1.287826695019940e-001	 2.703606477897717e+000	-9.462723200025090e+001
1	 1.028439798054475e-001	 2.704717381966886e+000	-9.955835529774222e+001
1	 7.699328347790971e-002	 2.705576669774232e+000	-1.046038574972780e+002
1	 5.123370321207928e-002	 2.706187039261896e+000	-1.097580280583822e+002
1	 2.556828540106627e-002	 2.706551225794539e+000	-1.150153329294849e+002
1	 0.000000000000000e+000	 2.706672000012267e+000	-1.203704198645897e+002
1	 2.622399749400806e-001	 2.720731160793048e+000	-7.322592815527936e+001
1	 2.356513982424475e-001	 2.723162878073632e+000	-7.779013369814823e+001
1	 2.091347683559512e-001	 2.725327521428659e+000	-8.252653456638137e+001
1	 1.826936195664324e-001	 2.727227593267997e+000	-8.742968782311699e+001
1	 1.563314108148519e-001	 2.728865644895742e+000	-9.249425865439676e+001
1	 1.300515252168052e-001	 2.730244274261580e+000	-9.771502732216929e+001
1	 1.038572696530242e-001	 2.731366123723988e+000	-1.030868956815632e+002
1	 7.775187442950630e-002	 2.732233877827550e+000	-1.086048932649879e+002
1	 5.173849300584624e-002	 2.732850261096415e+000	-1.142641829364916e+002
1	 2.582020179029408e-002	 2.733218035845966e+000	-1.200600661206356e+002
1	 0.000000000000000e+000	 2.733340000014584e+000	-1.259879876109382e+002
1	 2.647985354028455e-001	 2.747276141879232e+000	-7.433732261412732e+001
1	 2.379505456197491e-001	 2.749731584359379e+000	-7.917987283648729e+001
1	 2.111752046013010e-001	 2.751917347190656e+000	-8.422084049958814e+001
1	 1.844760811157895e-001	 2.753835957197865e+000	-8.945600457527317e+001
1	 1.578566678515173e-001	 2.755489990577085e+000	-9.488121506346479e+001
1	 1.313203809316262e-001	 2.756882070625080e+000	-1.004923988550686e+002
1	 1.048705595006058e-001	 2.758014865480682e+000	-1.062855652465250e+002
1	 7.851046538110504e-002	 2.758891085880423e+000	-1.122568111077566e+002
1	 5.224328279961380e-002	 2.759513482930462e+000	-1.184023257059768e+002
1	 2.607211817952194e-002	 2.759884845896900e+000	-1.247183951885078e+002
1	 0.000000000000000e+000	 2.760008000016400e+000	-1.312014067283949e+002
1	 2.673570958656238e-001	 2.773821122965178e+000	-7.523221426168561e+001
1	 2.402496929970300e-001	 2.776300290644838e+000	-8.033518953597024e+001
1	 2.132156408465988e-001	 2.778507172952312e+000	-8.566219297123396e+001
1	 1.862585426650682e-001	 2.780444321127342e+000	-9.121038975743205e+001
1	 1.593819248880836e-001	 2.782114336257992e+000	-9.697697626532045e+001
1	 1.325892366463357e-001	 2.783519866988098e+000	-1.029591846119771e+002
1	 1.058838493480728e-001	 2.784663607236856e+000	-1.091542869763225e+002
1	 7.926905633259714e-002	 2.785548293932743e+000	-1.155595996655976e+002
1	 5.274807259329551e-002	 2.786176704763929e+000	-1.221724869342840e+002
1	 2.632403456869898e-002	 2.786551655947240e+000	-1.289903645574582e+002
1	 0.000000000000000e+000	 2.786676000017617e+000	-1.360107031610492e+002
1	 2.699156563283478e-001	 2.800366104050776e+000	-7.590991305833687e+001
1	 2.425488403742109e-001	 2.802868996929889e+000	-8.125550241066283e+001
1	 2.152560770917520e-001	 2.805096998713504e+000	-8.685012287548830e+001
1	 1.880410042141624e-001	 2.807052685056305e+000	-9.269248560716405e+001
1	 1.609071819244348e-001	 2.808738681938335e+000	-9.878129039921579e+001
1	 1.338580923608121e-001	 2.810157663350514e+000	-1.051152287478770e+002
1	 1.068971391953055e-001	 2.811312348992394e+000	-1.116929867748168e+002
1	 8.002764728387389e-002	 2.812205501984400e+000	-1.185132480092377e+002
1	 5.325286238680489e-002	 2.812839926596714e+000	-1.255746960298354e+002
1	 2.657595095777430e-002	 2.813218465996884e+000	-1.328760169674185e+002
1	 0.000000000000000e+000	 2.813344000018133e+000	-1.404159018692758e+002
1	 2.724742167909505e-001	 2.826911085135917e+000	-7.636975488262495e+001
1	 2.448479877512127e-001	 2.829437703214412e+000	-8.194025191171400e+001
1	 2.172965133366677e-001	 2.831686824474107e+000	-8.778417872631499e+001
1	 1.898234657629665e-001	 2.833661048984628e+000	-9.390194779972893e+001
1	 1.624324389604548e-001	 2.835363027617995e+000	-1.002939150643803e+002
1	 1.351269480749341e-001	 2.836795459712210e+000	-1.069603812713368e+002
1	 1.079104290421841e-001	 2.837961090747182e+000	-1.139015933289331e+002
1	 8.078623823482663e-002	 2.838862710035284e+000	-1.211177456198940e+002
1	 5.375765218005548e-002	 2.839503148428710e+000	-1.286089812964443e+002
1	 2.682786734669698e-002	 2.839885276045730e+000	-1.363753935529759e+002
1	 0.000000000000000e+000	 2.840012000017850e+000	-1.444170268759181e+002
1	 2.750327772533645e-001	 2.853456066220491e+000	-7.661110032570528e+001
1	 2.471471351279563e-001	 2.856006409498290e+000	-8.238889931163213e+001
1	 2.193369495812531e-001	 2.858276650234000e+000	-8.846392583791103e+001
1	 1.916059273113746e-001	 2.860269412912185e+000	-9.483844482303951e+001
1	 1.639576959960275e-001	 2.861987373296846e+000	-1.015146168800017e+002
1	 1.363958037885802e-001	 2.863433256073065e+000	-1.084944977722390e+002
1	 1.089237188885891e-001	 2.864609832501104e+000	-1.157800379792106e+002
1	 8.154482918534663e-002	 2.865519918085287e+000	-1.233730823701809e+002
1	 5.426244197296083e-002	 2.866166370259814e+000	-1.312753699846942e+002
1	 2.707978373541613e-002	 2.866552086093679e+000	-1.394885339180447e+002
1	 0.000000000000000e+000	 2.866680000016666e+000	-1.480141013098941e+002
1	 2.866680000016666e+000	 0.000000000000000e+000	 1.155891514395943e+002
1	 2.866552086093679e+000	 2.707978373541622e-002	 1.094382608471811e+002
1	 2.866166370259814e+000	 5.426244197296101e-002	 1.034486112000151e+002
1	 2.865519918085286e+000	 8.154482918534640e-002	 9.762022709675317e+001
1	 2.864609832501105e+000	 1.089237188885890e-001	 9.195321093962856e+001
1	 2.863433256073065e+000	 1.363958037885802e-001	 8.644774596756291e+001
1	 2.861987373296846e+000	 1.639576959960276e-001	 8.110409922389873e+001
1	 2.860269412912185e+000	 1.916059273113747e-001	 7.592262445008285e+001
1	 2.858276650234000e+000	 2.193369495812528e-001	 7.090376489646975e+001
1	 2.856006409498290e+000	 2.471471351279561e-001	 6.604805604127826e+001
1	 2.853456066220490e+000	 2.750327772533643e-001	 6.135612820861528e+001
1	 2.893344000014533e+000	 0.000000000000000e+000	 1.155985620181251e+002
1	 2.893214896319162e+000	 2.733166233832871e-002	 1.093225369512374e+002
1	 2.892825592806659e+000	 5.476715605077943e-002	 1.032179290848013e+002
1	 2.892173127753058e+000	 8.230330635240593e-002	 9.728455220045034e+001
1	 2.891254577142689e+000	 1.099368567485596e-001	 9.152227919690867e+001
1	 2.890067056963325e+000	 1.376644691828235e-001	 8.593104515297380e+001
1	 2.888607725522634e+000	 1.654827242539523e-001	 8.051085035592377e+001
1	 2.886873785783859e+000	 1.933881215034428e-001	 7.526176328754248e+001
1	 2.884862487718648e+000	 2.213770797753011e-001	 7.018392355975763e+001
1	 2.882571130674752e+000	 2.494459376495117e-001	 6.527754479170442e+001
1	 2.879997065756335e+000	 2.775909539506485e-001	 6.054291741986082e+001
1	 2.920008000011599e+000	 0.000000000000000e+000	 1.153372232146167e+002
1	 2.919877706543843e+000	 2.758354094103635e-002	 1.089588920398253e+002
1	 2.919484815352702e+000	 5.527187012824735e-002	 1.027609100175817e+002
1	 2.918826337420027e+000	 8.306178351902126e-002	 9.674291545613767e+001
1	 2.917899321783473e+000	 1.109499946080370e-001	 9.090458808433091e+001
1	 2.916700857852796e+000	 1.389331345765616e-001	 8.524565211276770e+001
1	 2.915228077747647e+000	 1.670077525113894e-001	 7.976587928897568e+001
1	 2.913478158654786e+000	 1.951703156950627e-001	 7.446509193957681e+001
1	 2.911448325202586e+000	 2.234172099689541e-001	 6.934316599229634e+001
1	 2.909135851850560e+000	 2.517447401707311e-001	 6.440003397040221e+001
1	 2.906538065291594e+000	 2.801491306476535e-001	 5.963568795196000e+001
1	 2.946672000008066e+000	 0.000000000000000e+000	 1.148101223703933e+002
1	 2.946540516767922e+000	 2.783541954358862e-002	 1.083521683023479e+002
1	 2.946144037898134e+000	 5.577658420544583e-002	 1.020822654081795e+002
1	 2.945479547086380e+000	 8.382026068528942e-002	 9.599991076366445e+001
1	 2.944544066423636e+000	 1.119631324671209e-001	 9.010462613860362e+001
1	 2.943334658741643e+000	 1.402017999698862e-001	 8.439596102505325e+001
1	 2.941848429972040e+000	 1.685327807684142e-001	 7.887349568585223e+001
1	 2.940082531525107e+000	 1.969525098862874e-001	 7.353684421734275e+001
1	 2.938034162685941e+000	 2.254573401622396e-001	 6.838565761991885e+001
1	 2.935700573025822e+000	 2.540435426916158e-001	 6.341962686977976e+001
1	 2.933079064826362e+000	 2.827073073443561e-001	 5.863848598501939e+001
1	 2.973336000004133e+000	 0.000000000000000e+000	 1.140220679267670e+002
1	 2.973203326991598e+000	 2.808729814603502e-002	 1.075070342349144e+002
1	 2.972803260443157e+000	 5.628129828245599e-002	 1.011865376642926e+002
1	 2.972132756752305e+000	 8.457873785130762e-002	 9.505996723593188e+001
1	 2.971188811063356e+000	 1.129762703259114e-001	 8.912672088894725e+001
1	 2.969968459630034e+000	 1.414704653628895e-001	 8.338620844516946e+001
1	 2.968468782195969e+000	 1.700578090251025e-001	 7.783785461821302e+001
1	 2.966686904394960e+000	 1.987347040771702e-001	 7.248110206171791e+001
1	 2.964620000168841e+000	 2.274974703551854e-001	 6.731541445121522e+001
1	 2.962265294200649e+000	 2.563423452121671e-001	 6.234027959377831e+001
1	 2.959620064360733e+000	 2.852654840407330e-001	 5.755521255934313e+001
1	 3.000000000000000e+000	 0.000000000000000e+000	 1.129776973753579e+002
1	 2.999866137215068e+000	 2.833917674842506e-002	 1.064279923592710e+002
1	 2.999462482987958e+000	 5.678601235935887e-002	 1.000781077019490e+002
1	 2.998785966417990e+000	 8.533721501717292e-002	 9.392735652202535e+001
1	 2.997833555702814e+000	 1.139894081845084e-001	 8.797504601226684e+001
1	 2.996602260518139e+000	 1.427391307556632e-001	 8.222048031044123e+001
1	 2.995089134419591e+000	 1.715828372815295e-001	 7.666296343660933e+001
1	 2.993291277264493e+000	 2.005168982677645e-001	 7.130180229241552e+001
1	 2.991205837651412e+000	 2.295376005478191e-001	 6.613630971763446e+001
1	 2.988830015375152e+000	 2.586411477323863e-001	 6.116580759892722e+001
1	 2.986161063894799e+000	 2.878236607367614e-001	 5.638963002544541e+001
1	 3.026663999995867e+000	 0.000000000000000e+000	 1.116814847881733e+002
1	 3.026528947438530e+000	 2.859105535080819e-002	 1.051193865337240e+002
1	 3.026121705532733e+000	 5.729072643623559e-002	 9.876120205897300e+001
1	 3.025439176083625e+000	 8.609569218298241e-002	 9.260619974325907e+001
1	 3.024478300342188e+000	 1.150025460430116e-001	 8.665362811011561e+001
1	 3.023236061406126e+000	 1.440077961482992e-001	 8.090271857467612e+001
1	 3.021709486643062e+000	 1.731078655377712e-001	 7.535268827737663e+001
1	 3.019895650133845e+000	 2.022990924581237e-001	 7.000274300035296e+001
1	 3.017791675133779e+000	 2.315777307401684e-001	 6.485208016260272e+001
1	 3.015394736549442e+000	 2.609399502522750e-001	 5.989989188965107e+001
1	 3.012702063428655e+000	 2.903818374324178e-001	 5.514536815312776e+001
1	 3.053327999991933e+000	 0.000000000000000e+000	 1.101377479531367e+002
1	 3.053191757662185e+000	 2.884293395323394e-002	 1.035854088809951e+002
1	 3.052780928077679e+000	 5.779544051316723e-002	 9.723989963572929e+001
1	 3.052092385749396e+000	 8.685416934883318e-002	 9.110047406579540e+001
1	 3.051123044981657e+000	 1.160156839015211e-001	 8.516635313056747e+001
1	 3.049869862294164e+000	 1.452764615408896e-001	 7.943672749503618e+001
1	 3.048329838866539e+000	 1.746328937939028e-001	 7.391076022858762e+001
1	 3.046500023003159e+000	 2.040812866483011e-001	 6.858758960508276e+001
1	 3.044377512616071e+000	 2.336178609322612e-001	 6.346633200111318e+001
1	 3.041959457723628e+000	 2.632387527718343e-001	 5.854608488896359e+001
1	 3.039243062962394e+000	 2.929400141276791e-001	 5.382592992046050e+001
1	 3.079991999988400e+000	 0.000000000000000e+000	 1.083506551389762e+002
1	 3.079854567886232e+000	 2.909481255575181e-002	 1.018301063562228e+002
1	 3.079440150622987e+000	 5.830015459023485e-002	 9.551813808573394e+001
1	 3.078745595415490e+000	 8.761264651482240e-002	 8.941401893186279e+001
1	 3.077767789621402e+000	 1.170288217601367e-001	 8.351697245651965e+001
1	 3.076503663182423e+000	 1.465451269335261e-001	 7.782617959235081e+001
1	 3.074950191090176e+000	 1.761579220499999e-001	 7.234078117572787e+001
1	 3.073104395872575e+000	 2.058634808383499e-001	 6.705988059758133e+001
1	 3.070963350098414e+000	 2.356579911241252e-001	 6.198254656975694e+001
1	 3.068524178897822e+000	 2.655375552910657e-001	 5.710781600422025e+001
1	 3.065784062496109e+000	 2.954981908225221e-001	 5.243469700206815e+001
1	 3.106655999985466e+000	 0.000000000000000e+000	 1.063242315117393e+002
1	 3.106517378110865e+000	 2.934669115841125e-002	 9.985738697673000e+001
1	 3.106099373168855e+000	 5.880486866751958e-002	 9.359971987716482e+001
1	 3.105398805082099e+000	 8.837112368104710e-002	 8.755054197008364e+001
1	 3.104412534261600e+000	 1.180419596189583e-001	 8.170910868046403e+001
1	 3.103137464071066e+000	 1.478137923263007e-001	 7.607462130449007e+001
1	 3.101570543314130e+000	 1.776829503061382e-001	 7.064622934633550e+001
1	 3.099708768742238e+000	 2.076456750283234e-001	 6.542303298730188e+001
1	 3.097549187580935e+000	 2.376981213157881e-001	 6.040408568579366e+001
1	 3.095088900072133e+000	 2.678363578099707e-001	 5.558839690625056e+001
1	 3.092325062029892e+000	 2.980563675169238e-001	 5.097493497478324e+001
1	 3.133319999983334e+000	 0.000000000000000e+000	 1.040623652236877e+002
1	 3.133180188336287e+000	 2.959856976126182e-002	 9.767102573370704e+001
1	 3.132758595715477e+000	 5.930958274510247e-002	 9.148831804488002e+001
1	 3.132052014749406e+000	 8.912960084760442e-002	 8.551362460402656e+001
1	 3.131057278902433e+000	 1.190550974780861e-001	 7.974626108440485e+001
1	 3.129771264960267e+000	 1.490824577193053e-001	 7.418547835108350e+001
1	 3.128190895538556e+000	 1.792079785623932e-001	 6.883046457153732e+001
1	 3.126313141612289e+000	 2.094278692182753e-001	 6.368034747110499e+001
1	 3.124135025063762e+000	 2.397382515072778e-001	 5.873419673259306e+001
1	 3.121653621246674e+000	 2.701351603285506e-001	 5.399102653894337e+001
1	 3.118866061563838e+000	 3.006145442108607e-001	 4.944979825750492e+001
1	 2.853456066220490e+000	 2.750327772533643e-001	 6.135612820861527e+001
1	 2.850623495906301e+000	 3.029859020915370e-001	 5.682881599470949e+001
1	 2.847505823816279e+000	 3.310068753301843e-001	 5.246448915934710e+001
1	 2.844100595033316e+000	 3.590918200257314e-001	 4.826222698981749e+001
1	 2.840405415259059e+000	 3.872367847946143e-001	 4.422110996380668e+001
1	 2.836417953168350e+000	 4.154377447072045e-001	 4.034022250415841e+001
1	 2.832135942759817e+000	 4.436906022608281e-001	 3.661865576801470e+001
1	 2.827557185699815e+000	 4.719911884326337e-001	 3.305551046486631e+001
1	 2.822679553656821e+000	 5.003352638129518e-001	 2.964989969780363e+001
1	 2.817500990623338e+000	 5.287185198196899e-001	 2.640095182202462e+001
1	 2.812019515222285e+000	 5.571365799941846e-001	 2.330781331443582e+001
1	 2.879997065756335e+000	 2.775909539506485e-001	 6.054291741986082e+001
1	 2.877138148708408e+000	 3.058040806450335e-001	 5.597964215203552e+001
1	 2.873991478052574e+000	 3.340856868217606e-001	 5.158499088694916e+001
1	 2.870554576037689e+000	 3.624318594764292e-001	 4.735790301882791e+001
1	 2.866825026095203e+000	 3.908386104722579e-001	 4.329730838192812e+001
1	 2.862800475215494e+000	 4.193018774423222e-001	 3.940213013716786e+001
1	 2.858478636320326e+000	 4.478175247716250e-001	 3.567128771482224e+001
1	 2.853857290628595e+000	 4.763813446597570e-001	 3.210369980810686e+001
1	 2.848934290012431e+000	 5.049890582647982e-001	 2.869828741219100e+001
1	 2.843707559340701e+000	 5.336363169290087e-001	 2.545397690290297e+001
1	 2.838175098806853e+000	 5.623187034867332e-001	 2.236970314912136e+001
1	 2.906538065291594e+000	 2.801491306476535e-001	 5.963568795196000e+001
1	 2.903652801510020e+000	 3.086222591982991e-001	 5.504856978977205e+001
1	 2.900477132288479e+000	 3.371644983131445e-001	 5.063493235074370e+001
1	 2.897008557041791e+000	 3.657718989269653e-001	 4.639361710343162e+001
1	 2.893244636931203e+000	 3.944404361497634e-001	 4.232344492362637e+001
1	 2.889182997262623e+000	 4.231660101773192e-001	 3.842321903574422e+001
1	 2.884821329880951e+000	 4.519444472823136e-001	 3.469172803062480e+001
1	 2.880157395557621e+000	 4.807715008867808e-001	 3.112774895496983e+001
1	 2.875189026368409e+000	 5.096428527165516e-001	 2.773005046733728e+001
1	 2.869914128058541e+000	 5.385541140382391e-001	 2.449739605528899e+001
1	 2.864330682391995e+000	 5.675008269791980e-001	 2.142854730797739e+001
1	 2.933079064826362e+000	 2.827073073443561e-001	 5.863848598501939e+001
1	 2.930167454311211e+000	 3.114404377512897e-001	 5.403958177684686e+001
1	 2.926962786524052e+000	 3.402433098042759e-001	 4.961821562913544e+001
1	 2.923462538045659e+000	 3.691119383772669e-001	 4.537317174481051e+001
1	 2.919664247767075e+000	 3.980422618270483e-001	 4.130320242136925e+001
1	 2.915565519309738e+000	 4.270301429121071e-001	 3.740703097116314e+001
1	 2.911164023441680e+000	 4.560713697928024e-001	 3.368335473711137e+001
1	 2.906457500486859e+000	 4.851616571136128e-001	 3.013084819960553e+001
1	 2.901443762724703e+000	 5.142966471681204e-001	 2.674816617001455e+001
1	 2.896120696776793e+000	 5.434719111472925e-001	 2.353394706584885e+001
1	 2.890486265977629e+000	 5.726829504714953e-001	 2.048681626229720e+001
1	 2.959620064360733e+000	 2.852654840407330e-001	 5.755521255934313e+001
1	 2.956682107112062e+000	 3.142586163039617e-001	 5.295651811340899e+001
1	 2.953448440759354e+000	 3.433221212950945e-001	 4.853860282977239e+001
1	 2.949916519049338e+000	 3.724519778272608e-001	 4.430023304530637e+001
1	 2.946083858602846e+000	 4.016440875040307e-001	 4.024013160139945e+001
1	 2.941948041356847e+000	 4.308942756465978e-001	 3.635698066845590e+001
1	 2.937506717002493e+000	 4.601982923030001e-001	 3.264942468355860e+001
1	 2.932757605416278e+000	 4.895518133401607e-001	 2.911607339769321e+001
1	 2.927698499081266e+000	 5.189504416194138e-001	 2.575550502855601e+001
1	 2.922327265495393e+000	 5.483897082560816e-001	 2.256626951459281e+001
1	 2.916641849563674e+000	 5.778650739635413e-001	 1.954689186554029e+001
1	 2.986161063894799e+000	 2.878236607367614e-001	 5.638963002544542e+001
1	 2.983196759912645e+000	 3.170767948562714e-001	 5.180308227991695e+001
1	 2.979934094994438e+000	 3.464009327855402e-001	 4.739972230984633e+001
1	 2.976370500052862e+000	 3.757920172768744e-001	 4.317833676998555e+001
1	 2.972503469438535e+000	 4.052459131806286e-001	 3.913765695453546e+001
1	 2.968330563403949e+000	 4.347584083807031e-001	 3.527636145234490e+001
1	 2.963849410563380e+000	 4.643252148128150e-001	 3.159307893173351e+001
1	 2.959057710345845e+000	 4.939419695663320e-001	 2.808639105208691e+001
1	 2.953953235438047e+000	 5.236042360703407e-001	 2.475483549897893e+001
1	 2.948533834214270e+000	 5.533075053645180e-001	 2.159690913917945e+001
1	 2.942797433150047e+000	 5.830471974552515e-001	 1.861107129150928e+001
1	 3.012702063428655e+000	 2.903818374324178e-001	 5.514536815312776e+001
1	 3.009711412713035e+000	 3.198949734081749e-001	 5.058284725062661e+001
1	 3.006419749229365e+000	 3.494797442755525e-001	 4.620507456759997e+001
1	 3.002824481056273e+000	 3.791320567260345e-001	 4.201089408780049e+001
1	 2.998923080274163e+000	 4.088477388567596e-001	 3.799908229665271e+001
1	 2.994713085451048e+000	 4.386225411143345e-001	 3.416835059474520e+001
1	 2.990192104124325e+000	 4.684521373221555e-001	 3.051734785615942e+001
1	 2.985357815275526e+000	 4.983321257920344e-001	 2.704466312964376e+001
1	 2.980207971794994e+000	 5.282580305208098e-001	 2.374882848023635e+001
1	 2.974740402933362e+000	 5.582253024725133e-001	 2.062832196853053e+001
1	 2.968953016736668e+000	 5.882293209465432e-001	 1.768157076436189e+001
1	 3.039243062962394e+000	 2.929400141276791e-001	 5.382592992046050e+001
1	 3.036226065513310e+000	 3.227131519596282e-001	 4.929926119199182e+001
1	 3.032905403464191e+000	 3.525585557650713e-001	 4.495803782513854e+001
1	 3.029278462059609e+000	 3.824720961746682e-001	 4.080119701193380e+001
1	 3.025342691109753e+000	 4.124495645323417e-001	 3.682759603781438e+001
1	 3.021095607498148e+000	 4.424866738474040e-001	 3.303601438207520e+001
1	 3.016534797685311e+000	 4.725790598309302e-001	 2.942515597714572e+001
1	 3.011657920205290e+000	 5.027222820171755e-001	 2.599365162566626e+001
1	 3.006462708152062e+000	 5.329118249707301e-001	 2.274006157393253e+001
1	 3.000946971652601e+000	 5.631430995799793e-001	 1.966287823985867e+001
1	 2.995108600323453e+000	 5.934114444373319e-001	 1.676052909318282e+001
1	 3.065784062496109e+000	 2.954981908225221e-001	 5.243469700206814e+001
1	 3.062740718313545e+000	 3.255313305105880e-001	 4.795565286507365e+001
1	 3.059391057698973e+000	 3.556373672540363e-001	 4.366187332125411e+001
1	 3.055732443062912e+000	 3.858121356227027e-001	 3.955242355755463e+001
1	 3.051762301945324e+000	 4.160513902072927e-001	 3.562627617770778e+001
1	 3.047478129545251e+000	 4.463508065798235e-001	 3.188231291935606e+001
1	 3.042877491246323e+000	 4.767059823390475e-001	 2.831932654277541e+001
1	 3.037958025135103e+000	 5.071124382416631e-001	 2.493602289125427e+001
1	 3.032717444509198e+000	 5.375656194200105e-001	 2.173102312277633e+001
1	 3.027153540371921e+000	 5.680608966868282e-001	 1.870286611223257e+001
1	 3.021264183910321e+000	 5.985935679275342e-001	 1.585001102295962e+001
1	 3.092325062029892e+000	 2.980563675169238e-001	 5.097493497478324e+001
1	 3.089255371113814e+000	 3.283495090610101e-001	 4.655523674974095e+001
1	 3.085876711933771e+000	 3.587161787423873e-001	 4.231973033168382e+001
1	 3.082186424066219e+000	 3.891521750700648e-001	 3.826764263396513e+001
1	 3.078181912780898e+000	 4.196532158815303e-001	 3.439809504382985e+001
1	 3.073860651592361e+000	 4.502149393115046e-001	 3.071010468691349e+001
1	 3.069220184807347e+000	 4.808329048464161e-001	 2.720258587493315e+001
1	 3.064258130064935e+000	 5.115025944654049e-001	 2.387435173781039e+001
1	 3.058972180866352e+000	 5.422194138685597e-001	 2.072411604106543e+001
1	 3.053360109091255e+000	 5.729786937929715e-001	 1.775049518890446e+001
1	 3.047419767497192e+000	 6.037756914170658e-001	 1.495201041299269e+001
1	 3.118866061563838e+000	 3.006145442108607e-001	 4.944979825750492e+001
1	 3.115770023914197e+000	 3.311676876108510e-001	 4.510111790723416e+001
1	 3.112362366168643e+000	 3.617949902300638e-001	 4.093465093303966e+001
1	 3.108640405069572e+000	 3.924922145166819e-001	 3.694981868695930e+001
1	 3.104601523616499e+000	 4.232550415549727e-001	 3.314592378774612e+001
1	 3.100243173639482e+000	 4.540790720423593e-001	 2.952215086441927e+001
1	 3.095562878368369e+000	 4.849598273529443e-001	 2.607756749342999e+001
1	 3.090558234994752e+000	 5.158927506883083e-001	 2.281112533197353e+001
1	 3.085226917223479e+000	 5.468732083162871e-001	 1.972166144959022e+001
1	 3.079566677810541e+000	 5.778964908983216e-001	 1.680789985979097e+001
1	 3.073575351083983e+000	 6.089578149058433e-001	 1.406845325301880e+001
1	 2.812019515222285e+000	 5.571365799941846e-001	 2.330781331443582e+001
1	 2.806232332410390e+000	 5.855892700207178e-001	 2.035330233661988e+001
1	 2.800138417670241e+000	 6.140678136806009e-001	 1.752118978016899e+001
1	 2.793736028873866e+000	 6.425676306221915e-001	 1.481060791310521e+001
1	 2.787023507627656e+000	 6.710840784416882e-001	 1.222055324929131e+001
1	 2.779999281457081e+000	 6.996124543915534e-001	 9.749886186192768e+000
1	 2.772661865956895e+000	 7.281479971706544e-001	 7.397330837111483e+000
1	 2.765009866903514e+000	 7.566858887956516e-001	 5.161475062419386e+000
1	 2.757041982326296e+000	 7.852212565530333e-001	 3.040770703978041e+000
1	 2.748757004534392e+000	 8.137491750310452e-001	 1.033534026566781e+000
1	 2.740153822095873e+000	 8.422646682306209e-001	-8.620536302422416e-001
1	 2.838175098806853e+000	 5.623187034867332e-001	 2.236970314912136e+001
1	 2.832334087369945e+000	 5.910360420008765e-001	 1.942613613813693e+001
1	 2.826183490983165e+000	 6.197794746220591e-001	 1.660506074867706e+001
1	 2.819721551314392e+000	 6.485443783951878e-001	 1.390563353596243e+001
1	 2.812946594544702e+000	 6.773260677358409e-001	 1.132686830758257e+001
1	 2.805857033573426e+000	 7.061197961545839e-001	 8.867635679288183e+000
1	 2.798451370188331e+000	 7.349207580637585e-001	 6.526662836600159e+000
1	 2.790728197197666e+000	 7.637240906662786e-001	 4.302533507174146e+000
1	 2.782686200520693e+000	 7.925248759258216e-001	 2.193688148498463e+000
1	 2.774324161233401e+000	 8.213181426176583e-001	 1.984243551205839e-001
1	 2.765640957566033e+000	 8.500988684592170e-001	-1.685102510808966e+000
1	 2.864330682391995e+000	 5.675008269791980e-001	 2.142854730797739e+001
1	 2.858435842330151e+000	 5.964828139809569e-001	 1.850206034474967e+001
1	 2.852228564296800e+000	 6.254911355634441e-001	 1.569775333324323e+001
1	 2.845707073755671e+000	 6.545211261681152e-001	 1.301482565181326e+001
1	 2.838869681462532e+000	 6.835680570299278e-001	 1.045232756195991e+001
1	 2.831714785690566e+000	 7.126271379175480e-001	 8.009159658487221e+000
1	 2.824240874420563e+000	 7.416935189567915e-001	 5.684072535291805e+000
1	 2.816446527492603e+000	 7.707622925368255e-001	 3.475666672144583e+000
1	 2.808330418715852e+000	 7.998284952985153e-001	 1.382392547452906e+000
1	 2.799891317933140e+000	 8.288871102041546e-001	-5.974490184077190e-001
1	 2.791128093036881e+000	 8.579330686876658e-001	-2.465706285026166e+000
1	 2.890486265977629e+000	 5.726829504714953e-001	 2.048681626229720e+001
1	 2.884537597290914e+000	 6.019295859608803e-001	 1.758326928838871e+001
1	 2.878273637611040e+000	 6.312027965046843e-001	 1.480119639245772e+001
1	 2.871692596197584e+000	 6.604978739409091e-001	 1.213985769928788e+001
1	 2.864792768381011e+000	 6.898100463238917e-001	 9.598358458721693e+000
1	 2.857572537808359e+000	 7.191344796803980e-001	 7.175648366883250e+000
1	 2.850030378653443e+000	 7.484662798497171e-001	 4.870521111336530e+000
1	 2.842164857788168e+000	 7.778004944072670e-001	 2.681614145978930e+000
1	 2.833974636911618e+000	 8.071321146711009e-001	 6.074087010854473e-001
1	 2.825458474633451e+000	 8.364560777905349e-001	-1.353769966491727e+000
1	 2.816615228508264e+000	 8.657672689159827e-001	-3.203752078399875e+000
1	 2.916641849563674e+000	 5.778650739635413e-001	 1.954689186554028e+001
1	 2.910639352252136e+000	 6.073763579405682e-001	 1.667187858849672e+001
1	 2.904318710925769e+000	 6.369144574457069e-001	 1.391724959516971e+001
1	 2.897678118640007e+000	 6.664746217135051e-001	 1.128234308939953e+001
1	 2.890715855300007e+000	 6.960520356176770e-001	 8.766337240496435e+000
1	 2.883430289926667e+000	 7.256418214430882e-001	 6.368249352573920e+000
1	 2.875819882886823e+000	 7.552390407424989e-001	 4.086935264636699e+000
1	 2.867883188084215e+000	 7.848386962775789e-001	 1.921088987675381e+000
1	 2.859618855107833e+000	 8.144357340435661e-001	-1.307574153729400e-001
1	 2.851025631334183e+000	 8.440250453767995e-001	-2.070233701356111e+000
1	 2.842102363980034e+000	 8.736014691441837e-001	-3.899131065333802e+000
1	 2.942797433150047e+000	 5.830471974552515e-001	 1.861107129150928e+001
1	 2.936741107213719e+000	 6.128231299199427e-001	 1.576992865001178e+001
1	 2.930363784240882e+000	 6.426261183864404e-001	 1.304770649527985e+001
1	 2.923663641082820e+000	 6.724513694858384e-001	 1.044383787317189e+001
1	 2.916638942219389e+000	 7.022940249112274e-001	 7.957591221734275e+000
1	 2.909288042045350e+000	 7.321491632055713e-001	 5.588069366026878e+000
1	 2.901609387120556e+000	 7.620118016351007e-001	 3.334208749060222e+000
1	 2.893601518380587e+000	 7.918768981477353e-001	 1.194778905559710e+000
1	 2.885263073304349e+000	 8.217393534158990e-001	-8.316178151211326e-001
1	 2.876592788035182e+000	 8.515940129629497e-001	-2.746546271038348e+000
1	 2.867589499452040e+000	 8.814356693722830e-001	-4.551738289196514e+000
1	 2.968953016736668e+000	 5.882293209465432e-001	 1.768157076436189e+001
1	 2.962842862175569e+000	 6.182699018989246e-001	 1.487938797645354e+001
1	 2.956408857556267e+000	 6.483377793268121e-001	 1.219429744400451e+001
1	 2.949649163525900e+000	 6.784281172578441e-001	 9.625843268260784e+000
1	 2.942562029139025e+000	 7.085360142044866e-001	 7.173400943919643e+000
1	 2.935145794164261e+000	 7.386565049678002e-001	 4.836176157154279e+000
1	 2.927398891354493e+000	 7.687845625274863e-001	 2.613203823664103e+000
1	 2.919319848677137e+000	 7.989151000177122e-001	 5.033473739443596e-001
1	 2.910907291501007e+000	 8.290429727880865e-001	-1.494701707424483e+000
1	 2.902159944736293e+000	 8.591629805489864e-001	-3.382424082087639e+000
1	 2.893076634924131e+000	 8.892698696002971e-001	-5.161472491899592e+000
1	 2.995108600323453e+000	 5.934114444373319e-001	 1.676052909318282e+001
1	 2.988944617137589e+000	 6.237166738774360e-001	 1.400215630941487e+001
1	 2.982453930871814e+000	 6.540494402667511e-001	 1.135869234954748e+001
1	 2.975634685969126e+000	 6.844048650294583e-001	 8.829808053189236e+000
1	 2.968485116058780e+000	 7.147780034973984e-001	 6.415002217858461e+000
1	 2.961003546283265e+000	 7.451638467297289e-001	 4.113600178226381e+000
1	 2.953188395588489e+000	 7.755573234196188e-001	 1.924752627878416e+000
1	 2.945038178973707e+000	 8.059533018874843e-001	-1.525653087217972e-001
1	 2.936551509697654e+000	 8.363465921601163e-001	-2.119554746768858e+000
1	 2.927727101437364e+000	 8.667319481349110e-001	-3.977593447272647e+000
1	 2.918563770396158e+000	 8.971040698282408e-001	-5.728235952405306e+000
1	 3.021264183910321e+000	 5.985935679275342e-001	 1.585001102295962e+001
1	 3.015046372099683e+000	 6.291634458553986e-001	 1.314006760497911e+001
1	 3.008499004187416e+000	 6.597611012061848e-001	 1.054250329342604e+001
1	 3.001620208412377e+000	 6.903816128006163e-001	 8.057130837218931e+000
1	 2.994408202978528e+000	 7.210199927899073e-001	 5.683588059882622e+000
1	 2.986861298402219e+000	 7.516711884913101e-001	 3.421336198331101e+000
1	 2.978977899822394e+000	 7.823300843114627e-001	 1.269658485259390e+000
1	 2.970756509270149e+000	 8.129915037570266e-001	-7.723410166669726e-001
1	 2.962195727894137e+000	 8.436502115319760e-001	-2.705738321015619e+000
1	 2.953294258138242e+000	 8.743009157207239e-001	-4.531790156782756e+000
1	 2.944050905867969e+000	 9.049382700561296e-001	-6.251934333622621e+000
1	 3.047419767497192e+000	 6.037756914170658e-001	 1.495201041299269e+001
1	 3.041148127061755e+000	 6.346102178327341e-001	 1.229489285686016e+001
1	 3.034544077502959e+000	 6.654727621450411e-001	 9.747287012063380e+000
1	 3.027605730855529e+000	 6.963583605712530e-001	 7.309162213329628e+000
1	 3.020331289898130e+000	 7.272619820819563e-001	 4.980310528345596e+000
1	 3.012719050520982e+000	 7.581785302524974e-001	 2.760344834693157e+000
1	 3.004767404056063e+000	 7.891028452029806e-001	 6.486971401028434e-001
1	 2.996474839566311e+000	 8.200297056263144e-001	-1.355382845271393e+000
1	 2.987839946090303e+000	 8.509538309036530e-001	-3.252828876214843e+000
1	 2.978861414838772e+000	 8.818698833064261e-001	-5.044759071511363e+000
1	 2.969538041339417e+000	 9.127724702839788e-001	-6.732476537187790e+000
1	 3.073575351083983e+000	 6.089578149058433e-001	 1.406845325301880e+001
1	 3.067249882023707e+000	 6.400569898093638e-001	 1.146834277539574e+001
1	 3.060589150818339e+000	 6.711844230832489e-001	 8.974547251673943e+000
1	 3.053591253298464e+000	 7.023351083413045e-001	 6.587206801269876e+000
1	 3.046254376817458e+000	 7.335039713734894e-001	 4.306282466348214e+000
1	 3.038576802639415e+000	 7.646858720132437e-001	 2.131554005805902e+000
1	 3.030556908289346e+000	 7.958756060941377e-001	 6.261793091730154e-002
1	 3.022193169862039e+000	 8.270679074953229e-001	-1.901114208125970e+000
1	 3.013484164285995e+000	 8.582574502751353e-001	-3.760417275892891e+000
1	 3.004428571538802e+000	 8.894388508920191e-001	-5.516253737105541e+000
1	 2.995025176810348e+000	 9.206066705118045e-001	-7.169774565659600e+000
1	 2.740153822095873e+000	 8.422646682306209e-001	-8.620536302422416e-001
1	 2.731231421080580e+000	 8.707627113369549e-001	-2.650688512300298e+000
1	 2.721988884875082e+000	 8.992382316919291e-001	-4.335735048038063e+000
1	 2.712425398051369e+000	 9.276861123150280e-001	-5.917162419060737e+000
1	 2.702540248811464e+000	 9.561011947256431e-001	-7.395003955329854e+000
1	 2.692332830683795e+000	 9.844782814308750e-001	-8.769358019315446e+000
1	 2.681802644152406e+000	 1.012812138484053e+000	-1.004038882857274e+001
1	 2.670949298215834e+000	 1.041097498112028e+000	-1.120832721427175e+001
1	 2.659772511872570e+000	 1.069329061409152e+000	-1.227347131328769e+001
1	 2.648272115530094e+000	 1.097501501095708e+000	-1.323618719154764e+001
1	 2.636448052334516e+000	 1.125609464338406e+000	-1.409690939642392e+001
1	 2.765640957566033e+000	 8.500988684592170e-001	-1.685102510808966e+000
1	 2.756635566157504e+000	 8.788619818981299e-001	-3.461073584929889e+000
1	 2.747307061868638e+000	 9.076023630936984e-001	-5.132256884459371e+000
1	 2.737654621686848e+000	 9.363148474705652e-001	-6.698531328092043e+000
1	 2.727677527193472e+000	 9.649942285672722e-001	-8.159840369480357e+000
1	 2.717375166275937e+000	 9.936352605472042e-001	-9.516192991481212e+000
1	 2.706747034772116e+000	 1.022232660780905e+000	-1.076766464000030e+001
1	 2.695792738043704e+000	 1.050781112497805e+000	-1.191439809478045e+001
1	 2.684511992475504e+000	 1.079275267505267e+000	-1.295660427455317e+001
1	 2.672904626897554e+000	 1.107709748972663e+000	-1.389456297405516e+001
1	 2.660970583927155e+000	 1.136079154278113e+000	-1.472862353049964e+001
1	 2.791128093036881e+000	 8.579330686876658e-001	-2.465706285026166e+000
1	 2.782039711235067e+000	 8.869612524591196e-001	-4.225972611369569e+000
1	 2.772625238862780e+000	 9.159664944952385e-001	-5.880376753131043e+000
1	 2.762883845322852e+000	 9.449435826258268e-001	-7.428729958014301e+000
1	 2.752814805575939e+000	 9.738872624085790e-001	-8.870909110328711e+000
1	 2.742417501868467e+000	 1.002792239663169e+000	-1.020685781327363e+001
1	 2.731691425392141e+000	 1.031653183077356e+000	-1.143658741034677e+001
1	 2.720636177871811e+000	 1.060464726883158e+000	-1.256017794305146e+001
1	 2.709251473078593e+000	 1.089221473600946e+000	-1.357777904214977e+001
1	 2.697537138265090e+000	 1.117917996849190e+000	-1.448961074978769e+001
1	 2.685493115519782e+000	 1.146548844217417e+000	-1.529596426990750e+001
1	 2.816615228508264e+000	 8.657672689159827e-001	-3.203752078399875e+000
1	 2.807443856313126e+000	 8.950605230199543e-001	-4.945478809940938e+000
1	 2.797943415857370e+000	 9.243306258965954e-001	-6.580404278864689e+000
1	 2.788113068959254e+000	 9.535723177808729e-001	-8.108294168713959e+000
1	 2.777952083958753e+000	 9.827802962496398e-001	-9.528981602719282e+000
1	 2.767459837461291e+000	 1.011949218778858e+000	-1.084236829234970e+001
1	 2.756635816012398e+000	 1.041073705373506e+000	-1.204842562288948e+001
1	 2.745479617700091e+000	 1.070148341268192e+000	-1.314719567305509e+001
1	 2.733990953681790e+000	 1.099167679696300e+000	-1.413879216574221e+001
1	 2.722169649632665e+000	 1.128126244725396e+000	-1.502340134707302e+001
1	 2.710015647112380e+000	 1.157018534156420e+000	-1.580128279100788e+001
1	 2.842102363980034e+000	 8.736014691441837e-001	-3.899131065333802e+000
1	 2.832848001391535e+000	 9.031597935806651e-001	-5.619682055144513e+000
1	 2.823261592852275e+000	 9.326947572978150e-001	-7.232637979972187e+000
1	 2.813342292595934e+000	 9.622010529357664e-001	-8.737740598340066e+000
1	 2.803089362341806e+000	 9.916733300905299e-001	-1.013480159985082e+001
1	 2.792502173054308e+000	 1.021106197894358e+000	-1.142370379850903e+001
1	 2.781580206632806e+000	 1.050494227669454e+000	-1.260440225936696e+001
1	 2.770323057528475e+000	 1.079831955653012e+000	-1.367692535536085e+001
1	 2.758730434285045e+000	 1.109113885791435e+000	-1.464137575128324e+001
1	 2.746802161000247e+000	 1.138334492601386e+000	-1.549793131192697e+001
1	 2.734538178704933e+000	 1.167488224095222e+000	-1.624684593153621e+001
1	 2.867589499452040e+000	 8.814356693722830e-001	-4.551738289196514e+000
1	 2.858252146470148e+000	 9.112590641412822e-001	-6.248669026259344e+000
1	 2.848579769847359e+000	 9.410588886989445e-001	-7.837365761839058e+000
1	 2.838571516232765e+000	 9.708297880905689e-001	-9.317567517518533e+000
1	 2.828226640724981e+000	 1.000566363931325e+000	-1.068908641300484e+001
1	 2.817544508647426e+000	 1.030263177009759e+000	-1.195180888299272e+001
1	 2.806524597253285e+000	 1.059914749965296e+000	-1.310569682206797e+001
1	 2.795166497356901e+000	 1.089515570037725e+000	-1.415078865437862e+001
1	 2.783469914888307e+000	 1.119060091886461e+000	-1.508720032489234e+001
1	 2.771434672367803e+000	 1.148542740477269e+000	-1.591512620915957e+001
1	 2.759060710297422e+000	 1.177957914033924e+000	-1.663483993861130e+001
1	 2.893076634924131e+000	 8.892698696002971e-001	-5.161472491899592e+000
1	 2.883656291548827e+000	 9.193583347018371e-001	-6.832523348088066e+000
1	 2.873897946842486e+000	 9.494230201000297e-001	-8.394865384408004e+000
1	 2.863800739869623e+000	 9.794585232453412e-001	-9.848255638414459e+000
1	 2.853363919108170e+000	 1.009459397772102e+000	-1.119252807627252e+001
1	 2.842586844240541e+000	 1.039420156125150e+000	-1.242759481218883e+001
1	 2.831468987873751e+000	 1.069335272261134e+000	-1.355344724903596e+001
1	 2.820009937185299e+000	 1.099199184422435e+000	-1.457015713677130e+001
1	 2.808209395491529e+000	 1.129006297981486e+000	-1.547787754535522e+001
1	 2.796067183735300e+000	 1.158750988353152e+000	-1.627684374899049e+001
1	 2.783583241889829e+000	 1.188427603972625e+000	-1.696737401863103e+001
1	 2.918563770396158e+000	 8.971040698282408e-001	-5.728235952405306e+000
1	 2.909060436627422e+000	 9.274576052623600e-001	-7.371325724327474e+000
1	 2.899216123837521e+000	 9.577871515011176e-001	-8.905404905168481e+000
1	 2.889029963506384e+000	 9.880872584001460e-001	-1.033026888140207e+001
1	 2.878501197491262e+000	 1.018352431612936e+000	-1.164579445025441e+001
1	 2.867629179833561e+000	 1.048577135240618e+000	-1.285194102097714e+001
1	 2.856413378494124e+000	 1.078755794557065e+000	-1.394875172892393e+001
1	 2.844853377013607e+000	 1.108882798807248e+000	-1.493635445891508e+001
1	 2.832948876094660e+000	 1.138952504076619e+000	-1.581496277449720e+001
1	 2.820699695102703e+000	 1.168959236229142e+000	-1.658487674984087e+001
1	 2.808105773482136e+000	 1.198897293911427e+000	-1.724648370116547e+001
1	 2.944050905867969e+000	 9.049382700561296e-001	-6.251934333622621e+000
1	 2.934464581705792e+000	 9.355568758228819e-001	-7.865154064011040e+000
1	 2.924534300832328e+000	 9.661512829022541e-001	-9.369243099135488e+000
1	 2.914259187142924e+000	 9.967159935550441e-001	-1.076405510191179e+001
1	 2.903638475874143e+000	 1.027245465453903e+000	-1.204953026843017e+001
1	 2.892671515426388e+000	 1.057734114356252e+000	-1.322569649058263e+001
1	 2.881357769114322e+000	 1.088176316853187e+000	-1.429267042157981e+001
1	 2.869696816841759e+000	 1.118566413192270e+000	-1.525065844073579e+001
1	 2.857688356697652e+000	 1.148898710171969e+000	-1.609995751404416e+001
1	 2.845332206469981e+000	 1.179167484105347e+000	-1.684095594722838e+001
1	 2.832628305074325e+000	 1.209366983850430e+000	-1.747413402811927e+001
1	 2.969538041339417e+000	 9.127724702839788e-001	-6.732476537187790e+000
1	 2.959868726783792e+000	 9.436561463834332e-001	-8.314083601440478e+000
1	 2.949852477826773e+000	 9.745154143034851e-001	-9.786629857201135e+000
1	 2.939488410779118e+000	 1.005344728710098e+000	-1.115004677984654e+001
1	 2.928775754256706e+000	 1.036138499295079e+000	-1.240435812964346e+001
1	 2.917713851018922e+000	 1.066891093472140e+000	-1.354968105547343e+001
1	 2.906302159734261e+000	 1.097596839149599e+000	-1.458622709002696e+001
1	 2.894540256669687e+000	 1.128250027577606e+000	-1.551430303274915e+001
1	 2.882427837300455e+000	 1.158844916267644e+000	-1.633431171699174e+001
1	 2.869964717837100e+000	 1.189375731981873e+000	-1.704675265801254e+001
1	 2.857150836666380e+000	 1.219836673789734e+000	-1.765222257866144e+001
1	 2.995025176810348e+000	 9.206066705118045e-001	-7.169774565659600e+000
1	 2.985272871861278e+000	 9.517554169440450e-001	-8.718187009993414e+000
1	 2.975170654820722e+000	 9.828795457048585e-001	-1.015780656414641e+001
1	 2.964717634414846e+000	 1.013973463865370e+000	-1.148866167379730e+001
1	 2.953913032638836e+000	 1.045031533136540e+000	-1.271087943991157e+001
1	 2.942756186611073e+000	 1.076048072588372e+000	-1.382468664353009e+001
1	 2.931246550353865e+000	 1.107017361446401e+000	-1.483041064911721e+001
1	 2.919383696497328e+000	 1.137933641963363e+000	-1.572848018266566e+001
1	 2.907167317903020e+000	 1.168791122363753e+000	-1.651942598095865e+001
1	 2.894597229204027e+000	 1.199583979858828e+000	-1.720388130860636e+001
1	 2.881673368258283e+000	 1.230306363729441e+000	-1.778258233970528e+001
1	 2.636448052334516e+000	 1.125609464338406e+000	-1.409690939642392e+001
1	 2.624302226078947e+000	 1.153643375865511e+000	-1.486136258630206e+001
1	 2.611833061417271e+000	 1.181602065005949e+000	-1.553595358662826e+001
1	 2.599040848742955e+000	 1.209480123689433e+000	-1.612192816865609e+001
1	 2.585925995576417e+000	 1.237272130208986e+000	-1.662066635926965e+001
1	 2.572489027453051e+000	 1.264972652307893e+000	-1.703368217504529e+001
1	 2.558730588716130e+000	 1.292576250311315e+000	-1.736262314805204e+001
1	 2.544651443212335e+000	 1.320077480299228e+000	-1.760926964115914e+001
1	 2.530252474887798e+000	 1.347470897317242e+000	-1.777553395108048e+001
1	 2.515534688282688e+000	 1.374751058621742e+000	-1.786345919786000e+001
1	 2.500499208922499e+000	 1.401912526955667e+000	-1.787521799998973e+001
1	 2.660970583927155e+000	 1.136079154278113e+000	-1.472862353049964e+001
1	 2.648711785065264e+000	 1.164373819086899e+000	-1.546525354274574e+001
1	 2.636126640312910e+000	 1.192592561839123e+000	-1.611182137674858e+001
1	 2.623215442764610e+000	 1.220729924162126e+000	-1.666984600501546e+001
1	 2.609978603731262e+000	 1.248780433919723e+000	-1.714100343930496e+001
1	 2.596416653636446e+000	 1.276738608327862e+000	-1.752712622609006e+001
1	 2.582530242816688e+000	 1.304598957115368e+000	-1.783020268930757e+001
1	 2.568320142223471e+000	 1.332355985726398e+000	-1.805237591802961e+001
1	 2.553787244024815e+000	 1.360004198561121e+000	-1.819594249726500e+001
1	 2.538932562104461e+000	 1.387538102251040e+000	-1.826335098068406e+001
1	 2.523757232456807e+000	 1.414952208965249e+000	-1.825720010466261e+001
1	 2.685493115519782e+000	 1.146548844217417e+000	-1.529596426990749e+001
1	 2.673121344051483e+000	 1.175104262307936e+000	-1.600424257192271e+001
1	 2.660420219208369e+000	 1.203583058672014e+000	-1.662291821340403e+001
1	 2.647390036786003e+000	 1.231979724634620e+000	-1.715373388086303e+001
1	 2.634031211885770e+000	 1.260288737630354e+000	-1.759860852739470e+001
1	 2.620344279819432e+000	 1.288504564347824e+000	-1.795963667111443e+001
1	 2.606329896916778e+000	 1.316621663919515e+000	-1.823908740312389e+001
1	 2.591988841234089e+000	 1.344634491153756e+000	-1.843940310251787e+001
1	 2.577322013161276e+000	 1.372537499805272e+000	-1.856319785660998e+001
1	 2.562330435925657e+000	 1.400325145880683e+000	-1.861325558523535e+001
1	 2.547015255990533e+000	 1.427991890975229e+000	-1.859252786868937e+001
1	 2.710015647112380e+000	 1.157018534156420e+000	-1.580128279100788e+001
1	 2.697530903037604e+000	 1.185834705528708e+000	-1.648093012579369e+001
1	 2.684713798103659e+000	 1.214573555504691e+000	-1.707202693803606e+001
1	 2.671564630807157e+000	 1.243229525106964e+000	-1.757649147505810e+001
1	 2.658083820039975e+000	 1.271797041340906e+000	-1.799643398983181e+001
1	 2.644271906002056e+000	 1.300270520367780e+000	-1.833415588334144e+001
1	 2.630129551016453e+000	 1.328644370723730e+000	-1.859214852531495e+001
1	 2.615657540244252e+000	 1.356912996581256e+000	-1.877309175072178e+001
1	 2.600856782297251e+000	 1.385070801049629e+000	-1.887985203017463e+001
1	 2.585728309746352e+000	 1.413112189510584e+000	-1.891548031313618e+001
1	 2.570273279523759e+000	 1.441031572985507e+000	-1.888320954360876e+001
1	 2.734538178704933e+000	 1.167488224095222e+000	-1.624684593153621e+001
1	 2.721940462023623e+000	 1.196565148749303e+000	-1.689782337597494e+001
1	 2.709007376998789e+000	 1.225564052337229e+000	-1.746183056928173e+001
1	 2.695739224828096e+000	 1.254479325579208e+000	-1.794091445260192e+001
1	 2.682136428193909e+000	 1.283305345051404e+000	-1.833732628910999e+001
1	 2.668199532184363e+000	 1.312036476387733e+000	-1.865352069065433e+001
1	 2.653929205115769e+000	 1.340667077527991e+000	-1.889215429811210e+001
1	 2.639326239254022e+000	 1.369191502008848e+000	-1.905608411274499e+001
1	 2.624391551432814e+000	 1.397604102294122e+000	-1.914836547664787e+001
1	 2.609126183566625e+000	 1.425899233140657e+000	-1.917224970120746e+001
1	 2.593531303056567e+000	 1.454071254995983e+000	-1.913118134332984e+001
1	 2.759060710297422e+000	 1.177957914033924e+000	-1.663483993861130e+001
1	 2.746350021009535e+000	 1.207295591969811e+000	-1.725734035911639e+001
1	 2.733300955893769e+000	 1.236554549169694e+000	-1.779491673909898e+001
1	 2.719913818848843e+000	 1.265729126051403e+000	-1.824969908701330e+001
1	 2.706189036347608e+000	 1.294813648761876e+000	-1.862403069028809e+001
1	 2.692127158366396e+000	 1.323802432407684e+000	-1.892046706603139e+001
1	 2.677728859214780e+000	 1.352689784332276e+000	-1.914177454719873e+001
1	 2.662994938263464e+000	 1.381470007436487e+000	-1.929092850141522e+001
1	 2.647926320568034e+000	 1.410137403538683e+000	-1.937111118049075e+001
1	 2.632524057386552e+000	 1.438686276770816e+000	-1.938570919953685e+001
1	 2.616789326589044e+000	 1.467110937006559e+000	-1.933831064548420e+001
1	 2.783583241889829e+000	 1.188427603972625e+000	-1.696737401863103e+001
1	 2.770759579995339e+000	 1.218026035190319e+000	-1.756181390316299e+001
1	 2.757594534788612e+000	 1.247545046002160e+000	-1.807378189440624e+001
1	 2.744088412869419e+000	 1.276978926523597e+000	-1.850544663837380e+001
1	 2.730241644501109e+000	 1.306321952472349e+000	-1.885919571858479e+001
1	 2.716054784548201e+000	 1.335568388427635e+000	-1.913763457005245e+001
1	 2.701528513313543e+000	 1.364712491136561e+000	-1.934358501681088e+001
1	 2.686663637272640e+000	 1.393748512864127e+000	-1.948008343007987e+001
1	 2.671461089702981e+000	 1.422670704783245e+000	-1.955037850504493e+001
1	 2.655921931206211e+000	 1.451473320400976e+000	-1.955792865512984e+001
1	 2.640047350121268e+000	 1.480150619017134e+000	-1.950639902356041e+001
1	 2.808105773482136e+000	 1.198897293911427e+000	-1.724648370116547e+001
1	 2.795169138981031e+000	 1.228756478410914e+000	-1.781349534789336e+001
1	 2.781888113683326e+000	 1.258535542834697e+000	-1.830083527857062e+001
1	 2.768263006889848e+000	 1.288228726995841e+000	-1.871066750197821e+001
1	 2.754294252654443e+000	 1.317830256182848e+000	-1.904537738341057e+001
1	 2.739982410729826e+000	 1.347334344447589e+000	-1.930757056063353e+001
1	 2.725328167412110e+000	 1.376735197940822e+000	-1.950007147769370e+001
1	 2.710332336281615e+000	 1.406027018291719e+000	-1.962592153359521e+001
1	 2.694995858837728e+000	 1.435204006027737e+000	-1.968837684375077e+001
1	 2.679319805025680e+000	 1.464260364031049e+000	-1.969090561303038e+001
1	 2.663305373653324e+000	 1.493190301027610e+000	-1.963718512016528e+001
1	 2.832628305074325e+000	 1.209366983850430e+000	-1.747413402811927e+001
1	 2.819578697966607e+000	 1.239486921631686e+000	-1.801455807220210e+001
1	 2.806181692577922e+000	 1.269526039667374e+000	-1.847840270608558e+001
1	 2.792437600910154e+000	 1.299478527468185e+000	-1.886778514149189e+001
1	 2.778346860807648e+000	 1.329338559893400e+000	-1.918504318299067e+001
1	 2.763910036911314e+000	 1.359100300467545e+000	-1.943273418409515e+001
1	 2.749127821510537e+000	 1.388757904745037e+000	-1.961363362167820e+001
1	 2.734001035290451e+000	 1.418305523719218e+000	-1.973073328564773e+001
1	 2.718530627972343e+000	 1.447737307272093e+000	-1.978723908171070e+001
1	 2.702717678845036e+000	 1.477047407660950e+000	-1.978656844597097e+001
1	 2.686563397185296e+000	 1.506229983037888e+000	-1.973234737103893e+001
1	 2.857150836666380e+000	 1.219836673789734e+000	-1.765222257866144e+001
1	 2.843988256952065e+000	 1.250217364852722e+000	-1.816710083973766e+001
1	 2.830475271472410e+000	 1.280516536500265e+000	-1.860873014286348e+001
1	 2.816612194930361e+000	 1.310728327940679e+000	-1.897913981956164e+001
1	 2.802399468960757e+000	 1.340846863604030e+000	-1.928057590276160e+001
1	 2.787837663092711e+000	 1.370866256487507e+000	-1.951550016070204e+001
1	 2.772927475608878e+000	 1.400780611549183e+000	-1.968658875569835e+001
1	 2.757669734299212e+000	 1.430584029146576e+000	-1.979673052464406e+001
1	 2.742065397106900e+000	 1.460270608516245e+000	-1.984902487899167e+001
1	 2.726115552664357e+000	 1.489834451290593e+000	-1.984677932285445e+001
1	 2.709821420717266e+000	 1.519269665047867e+000	-1.979350658879104e+001
1	 2.881673368258283e+000	 1.230306363729441e+000	-1.778258233970528e+001
1	 2.868397815937404e+000	 1.260947808074110e+000	-1.827315097371520e+001
1	 2.854768850366804e+000	 1.291507033333439e+000	-1.869398710372215e+001
1	 2.840786788950488e+000	 1.321978128413373e+000	-1.904699213794551e+001
1	 2.826452077113804e+000	 1.352355167314767e+000	-1.933427721982533e+001
1	 2.811765289274062e+000	 1.382632212507475e+000	-1.955816237691725e+001
1	 2.796727129707190e+000	 1.412803318353237e+000	-1.972117530719560e+001
1	 2.781338433307961e+000	 1.442862534573747e+000	-1.982604979957272e+001
1	 2.765600166241469e+000	 1.472803909760124e+000	-1.987572378628573e+001
1	 2.749513426483720e+000	 1.502621494919891e+000	-1.987333702566870e+001
1	 2.733079444249319e+000	 1.532309347057451e+000	-1.982222841471418e+001
1	 2.500499208922499e+000	 1.401912526955667e+000	-1.787521799998973e+001
1	 2.485144957250983e+000	 1.428953920535294e+000	-1.783397514039545e+001
1	 2.469475535571229e+000	 1.455865738217200e+000	-1.776114625334930e+001
1	 2.453492436359996e+000	 1.482642578306111e+000	-1.765635441783819e+001
1	 2.437197273632522e+000	 1.509279057994052e+000	-1.751920901537350e+001
1	 2.420591782792370e+000	 1.535769816732273e+000	-1.734930619506383e+001
1	 2.403677820370210e+000	 1.562109519609821e+000	-1.714622938012334e+001
1	 2.386457363650868e+000	 1.588292860734559e+000	-1.690954981534066e+001
1	 2.368932510188156e+000	 1.614314566612345e+000	-1.663882715491293e+001
1	 2.351105477207142e+000	 1.640169399520067e+000	-1.633361008993012e+001
1	 2.332978600893775e+000	 1.665852160868178e+000	-1.599343701467602e+001
1	 2.523757232456807e+000	 1.414952208965249e+000	-1.825720010466261e+001
1	 2.508260165484269e+000	 1.442245124067567e+000	-1.819982414356245e+001
1	 2.492444996996238e+000	 1.469407258041089e+000	-1.811143601711689e+001
1	 2.476313233351541e+000	 1.496433158947471e+000	-1.799152737541952e+001
1	 2.459866503577958e+000	 1.523317393911350e+000	-1.783956693778469e+001
1	 2.443106559220670e+000	 1.550054552523622e+000	-1.765500117383419e+001
1	 2.426035274078606e+000	 1.576639250251452e+000	-1.743725504489901e+001
1	 2.408654643828038e+000	 1.603066131850734e+000	-1.718573280495788e+001
1	 2.390966785532879e+000	 1.629329874776702e+000	-1.689981886016380e+001
1	 2.372973937041403e+000	 1.655425192588333e+000	-1.657887868583796e+001
1	 2.354678456269270e+000	 1.681346838342176e+000	-1.622225979964295e+001
1	 2.547015255990533e+000	 1.427991890975229e+000	-1.859252786868937e+001
1	 2.531375373716986e+000	 1.455536327600267e+000	-1.852222513385079e+001
1	 2.515414458420706e+000	 1.482948777865413e+000	-1.842112248125955e+001
1	 2.499134030342586e+000	 1.510223739589257e+000	-1.828859455586231e+001
1	 2.482535733522948e+000	 1.537355729829050e+000	-1.812398539715443e+001
1	 2.465621335648581e+000	 1.564339288315340e+000	-1.792660932086038e+001
1	 2.448392727786678e+000	 1.591168980893409e+000	-1.769575187695471e+001
1	 2.430851924004946e+000	 1.617839402967187e+000	-1.743067088295033e+001
1	 2.413001060877399e+000	 1.644345182941285e+000	-1.713059753116582e+001
1	 2.394842396875518e+000	 1.670680985656779e+000	-1.679473756846948e+001
1	 2.376378311644662e+000	 1.696841515816308e+000	-1.642227254678488e+001
1	 2.570273279523759e+000	 1.441031572985507e+000	-1.888320954360876e+001
1	 2.554490581949220e+000	 1.468827531133287e+000	-1.880287589266627e+001
1	 2.538383919844723e+000	 1.496490297690064e+000	-1.869162302233030e+001
1	 2.521954827333227e+000	 1.524014320231365e+000	-1.854872249984756e+001
1	 2.505204963467584e+000	 1.551394065747053e+000	-1.837340914182855e+001
1	 2.488136112076197e+000	 1.578624024107333e+000	-1.816488208139847e+001
1	 2.470750181494516e+000	 1.605698711535611e+000	-1.792230592490279e+001
1	 2.453049204181680e+000	 1.632612674083848e+000	-1.764481199680650e+001
1	 2.435035336221801e+000	 1.659360491106038e+000	-1.733149967117369e+001
1	 2.416710856709561e+000	 1.685936778725359e+000	-1.698143778786473e+001
1	 2.398078167020021e+000	 1.712336193290541e+000	-1.659366615133938e+001
1	 2.593531303056567e+000	 1.454071254995983e+000	-1.913118134332984e+001
1	 2.577605790181059e+000	 1.482118734666520e+000	-1.904341330060307e+001
1	 2.561353381268382e+000	 1.510031817514932e+000	-1.892430417442234e+001
1	 2.544775624323555e+000	 1.537804900873685e+000	-1.877303590328501e+001
1	 2.527874193411962e+000	 1.565432401665257e+000	-1.858874903125448e+001
1	 2.510650888503613e+000	 1.592908759899511e+000	-1.837054394574636e+001
1	 2.493107635202212e+000	 1.620228442177975e+000	-1.811748221531071e+001
1	 2.475246484358327e+000	 1.647385945200647e+000	-1.782858802577086e+001
1	 2.457069611566164e+000	 1.674375799270905e+000	-1.750284971279413e+001
1	 2.438579316543607e+000	 1.701192571794027e+000	-1.713922138869282e+001
1	 2.419778022395412e+000	 1.727830870764843e+000	-1.673662466097542e+001
1	 2.616789326589044e+000	 1.467110937006559e+000	-1.933831064548420e+001
1	 2.600720998412591e+000	 1.495409938199861e+000	-1.924541604387581e+001
1	 2.584322842691773e+000	 1.523573337339909e+000	-1.912048388860823e+001
1	 2.567596421313664e+000	 1.551595481516112e+000	-1.896261947689459e+001
1	 2.550543423356176e+000	 1.579470737583562e+000	-1.877088354200397e+001
1	 2.533165664930922e+000	 1.607193495691781e+000	-1.854429364712238e+001
1	 2.515465088909857e+000	 1.634758172820419e+000	-1.828182568692097e+001
1	 2.497443764534976e+000	 1.662159216317515e+000	-1.798241549491653e+001
1	 2.479103886910575e+000	 1.689391107435829e+000	-1.764496055440565e+001
1	 2.460447776377734e+000	 1.716448364862740e+000	-1.726832181045068e+001
1	 2.441477877770901e+000	 1.743325548239177e+000	-1.685132558009927e+001
1	 2.640047350121268e+000	 1.480150619017134e+000	-1.950639902356041e+001
1	 2.623836206643904e+000	 1.508701141733200e+000	-1.941040717769457e+001
1	 2.607292304114989e+000	 1.537114857164887e+000	-1.928143367294874e+001
1	 2.590417218303648e+000	 1.565386062158538e+000	-1.911851970749439e+001
1	 2.573212653300319e+000	 1.593509073501868e+000	-1.892066019419013e+001
1	 2.555680441358219e+000	 1.621478231484052e+000	-1.868680529622604e+001
1	 2.537822542617543e+000	 1.649287903462864e+000	-1.841586207548968e+001
1	 2.519641044711714e+000	 1.676932487434384e+000	-1.810669625147377e+001
1	 2.501138162255115e+000	 1.704406415600752e+000	-1.775813406822394e+001
1	 2.482316236212016e+000	 1.731704157931453e+000	-1.736896426650798e+001
1	 2.463177733146556e+000	 1.758820225713511e+000	-1.693794015807546e+001
1	 2.663305373653324e+000	 1.493190301027610e+000	-1.963718512016528e+001
1	 2.646951414875084e+000	 1.521992345266434e+000	-1.953985655532777e+001
1	 2.630261765538118e+000	 1.550656376989756e+000	-1.940838062037311e+001
1	 2.613238015293598e+000	 1.579176642800859e+000	-1.924174652700245e+001
1	 2.595881883244487e+000	 1.607547409420072e+000	-1.903889690314533e+001
1	 2.578195217785595e+000	 1.635762967276229e+000	-1.879872945635161e+001
1	 2.560179996325362e+000	 1.663817634105228e+000	-1.852009875226276e+001
1	 2.541838324888631e+000	 1.691705758551183e+000	-1.820181810572074e+001
1	 2.523172437599868e+000	 1.719421723765620e+000	-1.784266158174667e+001
1	 2.504184696046531e+000	 1.746959951000122e+000	-1.744136610329166e+001
1	 2.484877588522445e+000	 1.774314903187812e+000	-1.699663366234593e+001
1	 2.686563397185296e+000	 1.506229983037888e+000	-1.973234737103893e+001
1	 2.670066623106221e+000	 1.535283548799453e+000	-1.963518313099223e+001
1	 2.653231226961252e+000	 1.564197896814407e+000	-1.950250933122448e+001
1	 2.636058812283610e+000	 1.592967223442966e+000	-1.933327489474618e+001
1	 2.618551113188773e+000	 1.621585745338075e+000	-1.912638326088844e+001
1	 2.600709994213145e+000	 1.650047703068222e+000	-1.888069416265719e+001
1	 2.582537450033408e+000	 1.678347364747429e+000	-1.859502551889888e+001
1	 2.564035605065816e+000	 1.706479029667844e+000	-1.826815543858488e+001
1	 2.545206712944915e+000	 1.734437031930372e+000	-1.789882433419018e+001
1	 2.526053155881353e+000	 1.762215744068701e+000	-1.748573714081287e+001
1	 2.506577443898632e+000	 1.789809580662045e+000	-1.702756563736245e+001
1	 2.709821420717266e+000	 1.519269665047867e+000	-1.979350658879104e+001
1	 2.693181831337400e+000	 1.548574752332153e+000	-1.969775714415108e+001
1	 2.676200688384482e+000	 1.577739416638730e+000	-1.956496373680040e+001
1	 2.658879609273776e+000	 1.606757804084753e+000	-1.939404629828694e+001
1	 2.641220343133271e+000	 1.635624081255775e+000	-1.918388175160085e+001
1	 2.623224770640963e+000	 1.664332438859940e+000	-1.893330588894428e+001
1	 2.604894903741769e+000	 1.692877095389386e+000	-1.864111536145650e+001
1	 2.586232885243353e+000	 1.721252300784296e+000	-1.830606977795426e+001
1	 2.567240988290342e+000	 1.749452340094955e+000	-1.792689390942146e+001
1	 2.547921615716559e+000	 1.777471537137146e+000	-1.750227999565808e+001
1	 2.528277299275187e+000	 1.805304258136177e+000	-1.703089015018496e+001
1	 2.733079444249319e+000	 1.532309347057451e+000	-1.982222841471418e+001
1	 2.716297039568712e+000	 1.561865955864427e+000	-1.972890219228331e+001
1	 2.699170149807901e+000	 1.591280936462619e+000	-1.959684882978451e+001
1	 2.681700406264190e+000	 1.620548384726113e+000	-1.942497017761443e+001
1	 2.663889573078078e+000	 1.649662417173072e+000	-1.921212890504073e+001
1	 2.645739547069145e+000	 1.678617174651290e+000	-1.895715046507449e+001
1	 2.627252357450537e+000	 1.707406826031018e+000	-1.865882516588278e+001
1	 2.608430165421335e+000	 1.736025571900473e+000	-1.831591034556312e+001
1	 2.589275263636230e+000	 1.764467648259312e+000	-1.792713264678463e+001
1	 2.569790075552226e+000	 1.792727330205414e+000	-1.749119038748853e+001
1	 2.549977154652176e+000	 1.820798935610175e+000	-1.700675602353968e+001
1	 2.332978600893775e+000	 1.665852160868178e+000	-1.599343701467602e+001
1	 2.314554334913666e+000	 1.691357693984630e+000	-1.562283927694854e+001
1	 2.295835247520404e+000	 1.716680885717582e+000	-1.522622887858116e+001
1	 2.276824022517764e+000	 1.741816671372895e+000	-1.480296006025160e+001
1	 2.257523458769130e+000	 1.766760038549538e+000	-1.435239099394901e+001
1	 2.237936468933869e+000	 1.791506030387907e+000	-1.387388509119911e+001
1	 2.218066078094256e+000	 1.816049748781706e+000	-1.336681232017481e+001
1	 2.197915422274171e+000	 1.840386357549125e+000	-1.283055052892462e+001
1	 2.177487746850984e+000	 1.864511085559069e+000	-1.226448677190823e+001
1	 2.156786404862220e+000	 1.888419229808245e+000	-1.166801863699453e+001
1	 2.135814855208781e+000	 1.912106158445013e+000	-1.104055557005082e+001
1	 2.354678456269270e+000	 1.681346838342176e+000	-1.622225979964295e+001
1	 2.336082819704505e+000	 1.707089607402158e+000	-1.583453386095140e+001
1	 2.317189619488916e+000	 1.732648339057221e+000	-1.542034462746092e+001
1	 2.298001564389259e+000	 1.758017921504730e+000	-1.497913825038557e+001
1	 2.278521479302110e+000	 1.783193295721556e+000	-1.451036627794746e+001
1	 2.258752303978483e+000	 1.808169458742603e+000	-1.401348683678537e+001
1	 2.238697091637989e+000	 1.832941466902575e+000	-1.348796581926951e+001
1	 2.218359007473745e+000	 1.857504439036639e+000	-1.293327807419861e+001
1	 2.197741327049500e+000	 1.881853559635735e+000	-1.234890859832115e+001
1	 2.176847434590536e+000	 1.905984081952293e+000	-1.173435372609510e+001
1	 2.155680821170189e+000	 1.929891331052193e+000	-1.108912231508237e+001
1	 2.376378311644662e+000	 1.696841515816308e+000	-1.642227254678487e+001
1	 2.357611304495278e+000	 1.722821520819784e+000	-1.601791310380017e+001
1	 2.338543991457385e+000	 1.748615792396929e+000	-1.558663748128386e+001
1	 2.319179106260727e+000	 1.774219171636611e+000	-1.512801652883858e+001
1	 2.299519499835069e+000	 1.799626552893600e+000	-1.464162889551411e+001
1	 2.279568139023079e+000	 1.824832887097314e+000	-1.412706202661342e+001
1	 2.259328105181699e+000	 1.849833185023448e+000	-1.358391316145284e+001
1	 2.238802592673292e+000	 1.874622520524149e+000	-1.301179032991260e+001
1	 2.217994907247979e+000	 1.899196033712393e+000	-1.241031334559177e+001
1	 2.196908464318808e+000	 1.923548934096329e+000	-1.177911479336931e+001
1	 2.175546787131546e+000	 1.947676503659357e+000	-1.111784100916390e+001
1	 2.398078167020021e+000	 1.712336193290541e+000	-1.659366615133938e+001
1	 2.379139789286039e+000	 1.738553434237483e+000	-1.617312854993473e+001
1	 2.359898363425856e+000	 1.764583245736689e+000	-1.572523584121205e+001
1	 2.340356648132197e+000	 1.790420421768526e+000	-1.524971548221416e+001
1	 2.320517520368025e+000	 1.816059810065665e+000	-1.474630605146171e+001
1	 2.300383974067660e+000	 1.841496315452034e+000	-1.421475800420255e+001
1	 2.279959118725377e+000	 1.866724903144321e+000	-1.365483442171748e+001
1	 2.259246177872786e+000	 1.891740602011651e+000	-1.306631175299161e+001
1	 2.238248487446389e+000	 1.916538507789036e+000	-1.244898054705915e+001
1	 2.216969494046992e+000	 1.941113786240340e+000	-1.180264617433394e+001
1	 2.195412753092805e+000	 1.965461676266488e+000	-1.112712953524624e+001
1	 2.419778022395412e+000	 1.727830870764843e+000	-1.673662466097542e+001
1	 2.400668274076846e+000	 1.754285347655232e+000	-1.630032630777191e+001
1	 2.381252735394372e+000	 1.780550699076482e+000	-1.583626350255305e+001
1	 2.361534190003698e+000	 1.806621671900462e+000	-1.534435137157588e+001
1	 2.341515540900994e+000	 1.832493067237742e+000	-1.482452038766234e+001
1	 2.321199809112225e+000	 1.858159743806755e+000	-1.427671682773969e+001
1	 2.300590132269011e+000	 1.883616621265188e+000	-1.370090321561892e+001
1	 2.279689763072207e+000	 1.908858683499138e+000	-1.309705874890712e+001
1	 2.258502067644693e+000	 1.933880981865654e+000	-1.246517970897244e+001
1	 2.237030523775047e+000	 1.958678638384314e+000	-1.180527985290879e+001
1	 2.215278719053913e+000	 1.983246848873568e+000	-1.111739078647617e+001
1	 2.441477877770901e+000	 1.743325548239177e+000	-1.685132558009927e+001
1	 2.422196758867754e+000	 1.770017261073006e+000	-1.639964729128229e+001
1	 2.402607107362975e+000	 1.796518152416293e+000	-1.591983985944378e+001
1	 2.382711731875265e+000	 1.822822922032409e+000	-1.541203632467428e+001
1	 2.362513561433991e+000	 1.848926324409821e+000	-1.487639018582467e+001
1	 2.342015644156779e+000	 1.874823172161472e+000	-1.431307550495930e+001
1	 2.321221145812591e+000	 1.900508339386042e+000	-1.372228698633264e+001
1	 2.300133348271529e+000	 1.925976764986603e+000	-1.310424002948352e+001
1	 2.278755647842860e+000	 1.951223455942238e+000	-1.245917075609495e+001
1	 2.257091553502927e+000	 1.976243490528240e+000	-1.178733601032142e+001
1	 2.235144685014823e+000	 2.001032021480582e+000	-1.108901333234358e+001
1	 2.463177733146556e+000	 1.758820225713511e+000	-1.693794015807546e+001
1	 2.443725243658819e+000	 1.785749174490779e+000	-1.647122744879769e+001
1	 2.423961479331708e+000	 1.812485605756102e+000	-1.597608009871571e+001
1	 2.403889273746923e+000	 1.839024172164353e+000	-1.545287851801309e+001
1	 2.383511581967032e+000	 1.865359581581895e+000	-1.490202955955243e+001
1	 2.362831479201324e+000	 1.891486600516179e+000	-1.432396621560841e+001
1	 2.341852159356105e+000	 1.917400057506879e+000	-1.371914727653819e+001
1	 2.320576933470728e+000	 1.943094846474039e+000	-1.308805695179167e+001
1	 2.299009228040850e+000	 1.968565930018779e+000	-1.243120445375388e+001
1	 2.277152583230591e+000	 1.993808342672106e+000	-1.174912354499795e+001
1	 2.255010650975482e+000	 2.018817194087512e+000	-1.104237204961650e+001
1	 2.484877588522445e+000	 1.774314903187812e+000	-1.699663366234592e+001
1	 2.465253728450097e+000	 1.801481087908528e+000	-1.651519797983015e+001
1	 2.445315851300619e+000	 1.828453059095895e+000	-1.600509538360168e+001
1	 2.425066815618706e+000	 1.855225422296282e+000	-1.546698234937567e+001
1	 2.404509602500136e+000	 1.881792838753954e+000	-1.490154863633982e+001
1	 2.383647314245862e+000	 1.908150028870870e+000	-1.430951652225481e+001
1	 2.362483172899539e+000	 1.934291775627691e+000	-1.369163998605740e+001
1	 2.341020518669781e+000	 1.960212927961440e+000	-1.304870383928551e+001
1	 2.319262808238635e+000	 1.985908404095269e+000	-1.238152280777645e+001
1	 2.297213612957994e+000	 2.011373194815898e+000	-1.169094056521328e+001
1	 2.274876616935843e+000	 2.036602366694342e+000	-1.097782872021805e+001
1	 2.506577443898632e+000	 1.789809580662045e+000	-1.702756563736245e+001
1	 2.486782213241644e+000	 1.817213001326228e+000	-1.653168554062837e+001
1	 2.466670223269748e+000	 1.844420512435651e+000	-1.600699302790081e+001
1	 2.446244357490642e+000	 1.871426672428186e+000	-1.545444860139019e+001
1	 2.425507623033317e+000	 1.898226095925993e+000	-1.487505373011348e+001
1	 2.404463149290395e+000	 1.924813457225536e+000	-1.426984957014544e+001
1	 2.383114186442888e+000	 1.951183493748474e+000	-1.363991561610994e+001
1	 2.361464103868667e+000	 1.977331009448800e+000	-1.298636828625776e+001
1	 2.339516388436177e+000	 2.003250878171699e+000	-1.231035944365189e+001
1	 2.317274642685093e+000	 2.028938046959606e+000	-1.161307485615176e+001
1	 2.294742582895855e+000	 2.054387539301056e+000	-1.089573259804741e+001
1	 2.528277299275187e+000	 1.805304258136177e+000	-1.703089015018496e+001
1	 2.508310698033515e+000	 1.832944914743853e+000	-1.652081243914878e+001
1	 2.488024595239138e+000	 1.860387965775353e+000	-1.598187666117432e+001
1	 2.467421899362762e+000	 1.887627922560051e+000	-1.541537459667136e+001
1	 2.446505643566593e+000	 1.914659353098001e+000	-1.482264750488911e+001
1	 2.425278984334927e+000	 1.941476885580175e+000	-1.420508427677255e+001
1	 2.403745199986136e+000	 1.968075211869223e+000	-1.356411950099072e+001
1	 2.381907689067360e+000	 1.994449090936112e+000	-1.290123144661740e+001
1	 2.359769968633441e+000	 2.020593352248060e+000	-1.221793996616795e+001
1	 2.337335672411845e+000	 2.046502899103217e+000	-1.151580432291518e+001
1	 2.314608548855468e+000	 2.072172711907637e+000	-1.079642094661126e+001
1	 2.549977154652176e+000	 1.820798935610175e+000	-1.700675602353968e+001
1	 2.529839182825770e+000	 1.848676828161380e+000	-1.648269682007160e+001
1	 2.509378967208837e+000	 1.876355419114987e+000	-1.592984638550652e+001
1	 2.488599441235097e+000	 1.903829172691866e+000	-1.534985434504083e+001
1	 2.467503664099979e+000	 1.931092610269970e+000	-1.474442913007181e+001
1	 2.446094819379461e+000	 1.958140313934778e+000	-1.411533551176089e+001
1	 2.424376213529276e+000	 1.984966929989930e+000	-1.346439202791761e+001
1	 2.402351274265837e+000	 2.011567172423368e+000	-1.279346830792198e+001
1	 2.380023548830396e+000	 2.037935826324343e+000	-1.210448230068429e+001
1	 2.357396702138207e+000	 2.064067751246718e+000	-1.139939741091165e+001
1	 2.334474514814633e+000	 2.089957884514068e+000	-1.068021954920432e+001
1	 2.135814855208781e+000	 1.912106158445013e+000	-1.104055557005082e+001
1	 2.114579866454582e+000	 1.935563812195057e+000	-1.038997848762747e+001
1	 2.093081977940697e+000	 1.958791283446953e+000	-9.726611865424683e+000
1	 2.071324954503008e+000	 1.981784175181508e+000	-9.053891021967953e+000
1	 2.049312658562491e+000	 2.004538173005029e+000	-8.375328097347600e+000
1	 2.027049047843805e+000	 2.027049047843805e+000	-7.694505553790661e+000
1	 2.004538173005029e+000	 2.049312658562490e+000	-7.015069542844922e+000
1	 1.981784175181508e+000	 2.071324954503008e+000	-6.340723153279807e+000
1	 1.958791283446953e+000	 2.093081977940697e+000	-5.675219554122959e+000
1	 1.935563812195057e+000	 2.114579866454582e+000	-5.022355047519645e+000
1	 1.912106158445013e+000	 2.135814855208781e+000	-4.385962046326447e+000
1	 2.155680821170189e+000	 1.929891331052193e+000	-1.108912231508237e+001
1	 2.134248318309155e+000	 1.953567172698978e+000	-1.042185935682876e+001
1	 2.112550470365117e+000	 1.977010690839198e+000	-9.743433501279192e+000
1	 2.090591077192041e+000	 2.000217447555418e+000	-9.057054062870709e+000
1	 2.068374037136654e+000	 2.023183088324236e+000	-8.366002272280692e+000
1	 2.045903344735822e+000	 2.045903344735822e+000	-7.673625132394021e+000
1	 2.023183088324237e+000	 2.068374037136653e+000	-6.983329149013172e+000
1	 2.000217447555417e+000	 2.090591077192041e+000	-6.298573949675030e+000
1	 1.977010690839198e+000	 2.112550470365117e+000	-5.622865804231060e+000
1	 1.953567172698978e+000	 2.134248318309155e+000	-4.959751061100300e+000
1	 1.929891331052193e+000	 2.155680821170189e+000	-4.312809513314763e+000
1	 2.175546787131546e+000	 1.947676503659357e+000	-1.111784100916390e+001
1	 2.153916770163675e+000	 1.971570533202878e+000	-1.043586592726571e+001
1	 2.132018962789484e+000	 1.995230098231415e+000	-9.744511344343316e+000
1	 2.109857199881020e+000	 2.018650719929294e+000	-9.046713665349826e+000
1	 2.087435415710766e+000	 2.041828003643404e+000	-8.345475493186052e+000
1	 2.064757641627792e+000	 2.064757641627792e+000	-7.643859932933863e+000
1	 2.041828003643404e+000	 2.087435415710766e+000	-6.944984780364553e+000
1	 2.018650719929294e+000	 2.109857199881021e+000	-6.252016607140059e+000
1	 1.995230098231415e+000	 2.132018962789484e+000	-5.568164755396247e+000
1	 1.971570533202878e+000	 2.153916770163674e+000	-4.896675254632859e+000
1	 1.947676503659357e+000	 2.175546787131546e+000	-4.240824674025274e+000
1	 2.195412753092805e+000	 1.965461676266488e+000	-1.112712953524624e+001
1	 2.173585222018087e+000	 1.989573893706733e+000	-1.043248607193198e+001
1	 2.151487455213741e+000	 2.013449505623575e+000	-9.730388943621341e+000
1	 2.129123322569894e+000	 2.037083992303101e+000	-9.023456045986162e+000
1	 2.106496794284778e+000	 2.060472918962490e+000	-8.314364954032392e+000
1	 2.083611938519672e+000	 2.083611938519672e+000	-7.605847766142875e+000
1	 2.060472918962490e+000	 2.106496794284777e+000	-6.900685843309745e+000
1	 2.037083992303101e+000	 2.129123322569894e+000	-6.201704454828782e+000
1	 2.013449505623575e+000	 2.151487455213741e+000	-5.511767341975101e+000
1	 1.989573893706733e+000	 2.173585222018087e+000	-4.833771211390764e+000
1	 1.965461676266487e+000	 2.195412753092805e+000	-4.170640170090962e+000
1	 2.215278719053913e+000	 1.983246848873568e+000	-1.111739078647617e+001
1	 2.193253673872338e+000	 2.007577254210522e+000	-1.041219016341705e+001
1	 2.170955947637836e+000	 2.031668913015651e+000	-9.701590350569258e+000
1	 2.148389445258608e+000	 2.055517264676805e+000	-8.987846393291138e+000
1	 2.125558172858639e+000	 2.079117834281456e+000	-8.273265709534753e+000
1	 2.102466235411413e+000	 2.102466235411413e+000	-7.560203563959762e+000
1	 2.079117834281456e+000	 2.125558172858639e+000	-6.851058449518717e+000
1	 2.055517264676805e+000	 2.148389445258608e+000	-6.148267386442671e+000
1	 2.031668913015651e+000	 2.170955947637836e+000	-5.454301148774964e+000
1	 2.007577254210522e+000	 2.193253673872338e+000	-4.771659428787508e+000
1	 1.983246848873568e+000	 2.215278719053913e+000	-4.102865949770534e+000
1	 2.235144685014823e+000	 2.001032021480582e+000	-1.108901333234358e+001
1	 2.212922125726377e+000	 2.025580614714222e+000	-1.037543185162407e+001
1	 2.190424440061712e+000	 2.049888320407614e+000	-9.658620985565479e+000
1	 2.167655567947108e+000	 2.073950537050373e+000	-8.940429802194013e+000
1	 2.144619551432299e+000	 2.097762749600260e+000	-8.222751659022718e+000
1	 2.121320532302972e+000	 2.121320532302971e+000	-7.507520396262790e+000
1	 2.097762749600260e+000	 2.144619551432299e+000	-6.796706451139331e+000
1	 2.073950537050372e+000	 2.167655567947108e+000	-6.092312901702078e+000
1	 2.049888320407614e+000	 2.190424440061712e+000	-5.396371448707884e+000
1	 2.025580614714222e+000	 2.212922125726376e+000	-4.710938344312403e+000
1	 2.001032021480582e+000	 2.235144685014823e+000	-4.038090276442055e+000
1	 2.255010650975482e+000	 2.018817194087512e+000	-1.104237204961650e+001
1	 2.232590577580147e+000	 2.043583975217812e+000	-1.032264880037893e+001
1	 2.209892932485317e+000	 2.068107727799438e+000	-9.601968458581947e+000
1	 2.186921690635343e+000	 2.092383809423768e+000	-8.881732159134035e+000
1	 2.163680930005709e+000	 2.116407664918862e+000	-8.163376478303473e+000
1	 2.140174829194301e+000	 2.140174829194301e+000	-7.448370433860695e+000
1	 2.116407664918862e+000	 2.163680930005709e+000	-6.738212421295684e+000
1	 2.092383809423768e+000	 2.186921690635343e+000	-6.034427092767623e+000
1	 2.068107727799437e+000	 2.209892932485317e+000	-5.338562185596356e+000
1	 2.043583975217812e+000	 2.232590577580147e+000	-4.652185307237231e+000
1	 2.018817194087512e+000	 2.255010650975482e+000	-3.976880683789374e+000
1	 2.274876616935843e+000	 2.036602366694342e+000	-1.097782872021805e+001
1	 2.252259029433597e+000	 2.061587335721270e+000	-1.025426338544369e+001
1	 2.229361424908593e+000	 2.086327135191092e+000	-9.532103346854600e+000
1	 2.206187813323257e+000	 2.110817081796956e+000	-8.812260980776754e+000
1	 2.182742308578817e+000	 2.135052580237221e+000	-8.095674502698170e+000
1	 2.159029126085356e+000	 2.159029126085355e+000	-7.383305861026146e+000
1	 2.135052580237221e+000	 2.182742308578817e+000	-6.676138583211943e+000
1	 2.110817081796957e+000	 2.206187813323258e+000	-5.975175578976254e+000
1	 2.086327135191092e+000	 2.229361424908593e+000	-5.281436905482889e+000
1	 2.061587335721269e+000	 2.252259029433597e+000	-4.595957499408490e+000
1	 2.036602366694342e+000	 2.274876616935843e+000	-3.919784880940201e+000
1	 2.294742582895855e+000	 2.054387539301056e+000	-1.089573259804741e+001
1	 2.271927481286673e+000	 2.079590696224573e+000	-1.017068335627287e+001
1	 2.248829917331490e+000	 2.104546542582549e+000	-9.449479932159322e+000
1	 2.225453936010800e+000	 2.129250354169905e+000	-8.732506209164662e+000
1	 2.201803687151573e+000	 2.153697495555299e+000	-8.020161564210930e+000
1	 2.177883422976089e+000	 2.177883422976089e+000	-7.312859740629423e+000
1	 2.153697495555299e+000	 2.201803687151573e+000	-6.611027691074422e+000
1	 2.129250354169905e+000	 2.225453936010800e+000	-5.915104393024390e+000
1	 2.104546542582549e+000	 2.248829917331490e+000	-5.225539639564894e+000
1	 2.079590696224572e+000	 2.271927481286673e+000	-4.542792808211260e+000
1	 2.054387539301056e+000	 2.294742582895855e+000	-3.867331610588272e+000
1	 2.314608548855468e+000	 2.072172711907637e+000	-1.079642094661126e+001
1	 2.291595933139321e+000	 2.097594056727699e+000	-1.007230246369135e+001
1	 2.268298409753951e+000	 2.122765949973781e+000	-9.354536900120380e+000
1	 2.244720058697916e+000	 2.147683626542579e+000	-8.642940965920021e+000
1	 2.220865065723928e+000	 2.172342410873053e+000	-7.937335785585750e+000
1	 2.196737719866457e+000	 2.196737719866457e+000	-7.237546834720366e+000
1	 2.172342410873052e+000	 2.220865065723928e+000	-6.543403865532153e+000
1	 2.147683626542579e+000	 2.244720058697916e+000	-5.854740821515253e+000
1	 2.122765949973781e+000	 2.268298409753950e+000	-5.171395741660984e+000
1	 2.097594056727699e+000	 2.291595933139321e+000	-4.493210654577762e+000
1	 2.072172711907637e+000	 2.314608548855468e+000	-3.820031462925001e+000
1	 2.334474514814633e+000	 2.089957884514068e+000	-1.068021954920432e+001
1	 2.311264384991488e+000	 2.115597417230627e+000	-9.959501055523687e+000
1	 2.287766902175922e+000	 2.140985357364761e+000	-9.247698003812914e+000
1	 2.263986181384554e+000	 2.166116898914944e+000	-8.544022267939017e+000
1	 2.239926444295830e+000	 2.190987326190443e+000	-7.847678333820103e+000
1	 2.215592016756413e+000	 2.215592016756412e+000	-7.157864383211980e+000
1	 2.190987326190444e+000	 2.239926444295831e+000	-6.473773386537342e+000
1	 2.166116898914944e+000	 2.263986181384554e+000	-5.794594202588330e+000
1	 2.140985357364762e+000	 2.287766902175922e+000	-5.119512682916850e+000
1	 2.115597417230626e+000	 2.311264384991489e+000	-4.447712778718584e+000
1	 2.089957884514069e+000	 2.334474514814633e+000	-3.778377648012445e+000
1	 1.912106158445013e+000	 2.135814855208781e+000	-4.385962046326447e+000
1	 1.888419229808245e+000	 2.156786404862220e+000	-3.771241517834619e+000
1	 1.864511085559069e+000	 2.177487746850984e+000	-3.180979398788121e+000
1	 1.840386357549125e+000	 2.197915422274170e+000	-2.615102987884888e+000
1	 1.816049748781705e+000	 2.218066078094255e+000	-2.073509219037811e+000
1	 1.791506030387908e+000	 2.237936468933869e+000	-1.556065550865174e+000
1	 1.766760038549538e+000	 2.257523458769129e+000	-1.062610896637154e+000
1	 1.741816671372895e+000	 2.276824022517764e+000	-5.929565923000483e-001
1	 1.716680885717582e+000	 2.295835247520404e+000	-1.468874001259292e-001
1	 1.691357693984630e+000	 2.314554334913665e+000	 2.758374545322702e-001
1	 1.665852160868179e+000	 2.332978600893775e+000	 6.754832159595773e-001
1	 1.929891331052193e+000	 2.155680821170189e+000	-4.312809513314763e+000
1	 1.905984081952293e+000	 2.176847434590535e+000	-3.686557243427289e+000
1	 1.881853559635735e+000	 2.197741327049500e+000	-3.083408417830131e+000
1	 1.857504439036638e+000	 2.218359007473745e+000	-2.503504401982303e+000
1	 1.832941466902574e+000	 2.238697091637989e+000	-1.946960735104028e+000
1	 1.808169458742604e+000	 2.258752303978484e+000	-1.413867634202993e+000
1	 1.783193295721556e+000	 2.278521479302110e+000	-9.042905327601702e-001
1	 1.758017921504730e+000	 2.298001564389258e+000	-4.182706525413432e-001
1	 1.732648339057221e+000	 2.317189619488917e+000	 4.417439306623475e-002
1	 1.707089607402157e+000	 2.336082819704504e+000	 4.830499658546164e-001
1	 1.681346838342176e+000	 2.354678456269270e+000	 8.983837414517221e-001
1	 1.947676503659357e+000	 2.175546787131546e+000	-4.240824674025271e+000
1	 1.923548934096329e+000	 2.196908464318807e+000	-3.604478369242421e+000
1	 1.899196033712393e+000	 2.217994907247979e+000	-2.989758775036361e+000
1	 1.874622520524149e+000	 2.238802592673292e+000	-2.397040001516912e+000
1	 1.849833185023448e+000	 2.259328105181699e+000	-1.826674711782322e+000
1	 1.824832887097314e+000	 2.279568139023080e+000	-1.278994202168376e+000
1	 1.799626552893600e+000	 2.299519499835069e+000	-7.543085118998001e-001
1	 1.774219171636611e+000	 2.319179106260727e+000	-2.529065615339831e-001
1	 1.748615792396929e+000	 2.338543991457386e+000	 2.249436804734347e-001
1	 1.722821520819784e+000	 2.357611304495278e+000	 6.789950038107181e-001
1	 1.696841515816308e+000	 2.376378311644662e+000	 1.109020735744852e+000
1	 1.965461676266487e+000	 2.195412753092805e+000	-4.170640170090962e+000
1	 1.941113786240340e+000	 2.216969494046992e+000	-3.525623844144308e+000
1	 1.916538507789037e+000	 2.238248487446389e+000	-2.900632560751178e+000
1	 1.891740602011651e+000	 2.259246177872786e+000	-2.296291337689978e+000
1	 1.866724903144321e+000	 2.279959118725377e+000	-1.713207970688714e+000
1	 1.841496315452034e+000	 2.300383974067659e+000	-1.151972652087584e+000
1	 1.816059810065665e+000	 2.320517520368025e+000	-6.131576141759130e-001
1	 1.790420421768526e+000	 2.340356648132197e+000	-9.731679759675538e-002
1	 1.764583245736689e+000	 2.359898363425857e+000	 3.950144548441379e-001
1	 1.738553434237483e+000	 2.379139789286039e+000	 8.633196786865029e-001
1	 1.712336193290541e+000	 2.398078167020021e+000	 1.307101542420198e+000
1	 1.983246848873568e+000	 2.215278719053913e+000	-4.102865949770529e+000
1	 1.958678638384314e+000	 2.237030523775047e+000	-3.450590414793797e+000
1	 1.933880981865654e+000	 2.258502067644693e+000	-2.816610267844599e+000
1	 1.908858683499138e+000	 2.279689763072207e+000	-2.201819100984199e+000
1	 1.883616621265188e+000	 2.300590132269012e+000	-1.607097359791091e+000
1	 1.858159743806755e+000	 2.321199809112224e+000	-1.033311463112197e+000
1	 1.832493067237741e+000	 2.341515540900993e+000	-4.813129432813429e-001
1	 1.806621671900462e+000	 2.361534190003698e+000	 4.806239171995967e-002
1	 1.780550699076482e+000	 2.381252735394371e+000	 5.539952727399431e-001
1	 1.754285347655232e+000	 2.400668274076846e+000	 1.035683759211293e+000
1	 1.727830870764843e+000	 2.419778022395412e+000	 1.492344002884635e+000
1	 2.001032021480582e+000	 2.235144685014823e+000	-4.038090276442055e+000
1	 1.976243490528240e+000	 2.257091553502927e+000	-3.379953612314231e+000
1	 1.951223455942238e+000	 2.278755647842859e+000	-2.738251751503779e+000
1	 1.925976764986603e+000	 2.300133348271529e+000	-2.114164048213966e+000
1	 1.900508339386043e+000	 2.321221145812591e+000	-1.508860641038162e+000
1	 1.874823172161473e+000	 2.342015644156779e+000	-9.235010369426321e-001
1	 1.848926324409820e+000	 2.362513561433990e+000	-3.592327120221487e-001
1	 1.822822922032408e+000	 2.382711731875264e+000	 1.828102683387937e-001
1	 1.796518152416293e+000	 2.402607107362974e+000	 7.015086073196269e-001
1	 1.770017261073006e+000	 2.422196758867754e+000	 1.195759110016578e+000
1	 1.743325548239177e+000	 2.441477877770901e+000	 1.664475989847318e+000
1	 2.018817194087512e+000	 2.255010650975482e+000	-3.976880683789374e+000
1	 1.993808342672107e+000	 2.277152583230591e+000	-3.314268686804162e+000
1	 1.968565930018780e+000	 2.299009228040851e+000	-2.666097138292245e+000
1	 1.943094846474039e+000	 2.320576933470728e+000	-2.033847880573714e+000
1	 1.917400057506879e+000	 2.341852159356104e+000	-1.418997331070026e+000
1	 1.891486600516179e+000	 2.362831479201324e+000	-8.230144941131355e-001
1	 1.865359581581894e+000	 2.383511581967032e+000	-2.473589863359835e-001
1	 1.839024172164352e+000	 2.403889273746924e+000	 3.065209204865412e-001
1	 1.812485605756102e+000	 2.423961479331709e+000	 8.371902353340816e-001
1	 1.785749174490779e+000	 2.443725243658818e+000	 1.343229158829722e+000
1	 1.758820225713511e+000	 2.463177733146556e+000	 1.823234965455876e+000
1	 2.036602366694342e+000	 2.274876616935843e+000	-3.919784880940199e+000
1	 2.011373194815899e+000	 2.297213612957994e+000	-3.254071492884596e+000
1	 1.985908404095269e+000	 2.319262808238634e+000	-2.600667687577088e+000
1	 1.960212927961440e+000	 2.341020518669781e+000	-1.961374075679167e+000
1	 1.934291775627691e+000	 2.362483172899540e+000	-1.337989497878285e+000
1	 1.908150028870870e+000	 2.383647314245862e+000	-7.323084285533783e-001
1	 1.881792838753955e+000	 2.404509602500136e+000	-1.461183903262995e-001
1	 1.855225422296282e+000	 2.425066815618706e+000	 4.188026153206568e-001
1	 1.828453059095894e+000	 2.445315851300618e+000	 9.606886562402748e-001
1	 1.801481087908528e+000	 2.465253728450097e+000	 1.477788391584877e+000
1	 1.774314903187812e+000	 2.484877588522445e+000	 1.968367562584791e+000
1	 2.054387539301056e+000	 2.294742582895855e+000	-3.867331610588272e+000
1	 2.028938046959606e+000	 2.317274642685093e+000	-3.199879329248371e+000
1	 2.003250878171699e+000	 2.339516388436176e+000	-2.542466608211390e+000
1	 1.977331009448800e+000	 2.361464103868666e+000	-1.897228676390320e+000
1	 1.951183493748474e+000	 2.383114186442888e+000	-1.266302516085290e+000
1	 1.924813457225537e+000	 2.404463149290396e+000	-6.518236229565645e-001
1	 1.898226095925993e+000	 2.425507623033317e+000	-5.592277467480662e-002
1	 1.871426672428187e+000	 2.446244357490643e+000	 5.192771851825980e-001
1	 1.844420512435650e+000	 2.466670223269748e+000	 1.071664541488510e+000
1	 1.817213001326227e+000	 2.486782213241644e+000	 1.599141873759304e+000
1	 1.789809580662045e+000	 2.506577443898633e+000	 2.099629187872994e+000
1	 2.072172711907637e+000	 2.314608548855468e+000	-3.820031462924999e+000
1	 2.046502899103217e+000	 2.337335672411845e+000	-3.152191734975094e+000
1	 2.020593352248060e+000	 2.359769968633441e+000	-2.491979833159630e+000
1	 1.994449090936111e+000	 2.381907689067359e+000	-1.841881039011789e+000
1	 1.968075211869222e+000	 2.403745199986136e+000	-1.204385783328674e+000
1	 1.941476885580175e+000	 2.425278984334927e+000	-5.819857273075808e-001
1	 1.914659353098001e+000	 2.446505643566593e+000	 2.283014936707777e-002
1	 1.887627922560051e+000	 2.467421899362762e+000	 6.075794454573515e-001
1	 1.860387965775354e+000	 2.488024595239140e+000	 1.169790212169768e+000
1	 1.832944914743853e+000	 2.508310698033516e+000	 1.707004796359652e+000
1	 1.805304258136177e+000	 2.528277299275187e+000	 2.216783645203746e+000
1	 2.089957884514069e+000	 2.334474514814633e+000	-3.778377648012443e+000
1	 2.064067751246718e+000	 2.357396702138207e+000	-3.111491245186979e+000
1	 2.037935826324343e+000	 2.380023548830395e+000	-2.449676754571404e+000
1	 2.011567172423368e+000	 2.402351274265837e+000	-1.795784543291321e+000
1	 1.984966929989930e+000	 2.424376213529276e+000	-1.152673400067887e+000
1	 1.958140313934778e+000	 2.446094819379461e+000	-5.232059027665471e-001
1	 1.931092610269970e+000	 2.467503664099979e+000	 8.975620835810685e-002
1	 1.903829172691866e+000	 2.488599441235097e+000	 6.833566421561640e-001
1	 1.876355419114987e+000	 2.509378967208838e+000	 1.254749143333565e+000
1	 1.848676828161380e+000	 2.529839182825770e+000	 1.801102045089659e+000
1	 1.820798935610176e+000	 2.549977154652176e+000	 2.319602778409375e+000
1	 1.665852160868179e+000	 2.332978600893775e+000	 6.754832159595773e-001
1	 1.640169399520067e+000	 2.351105477207141e+000	 1.042804654265344e+000
1	 1.614314566612346e+000	 2.368932510188156e+000	 1.368556642444562e+000
1	 1.588292860734558e+000	 2.386457363650868e+000	 1.653027030392531e+000
1	 1.562109519609820e+000	 2.403677820370209e+000	 1.896509704401813e+000
1	 1.535769816732273e+000	 2.420591782792370e+000	 2.099304216685888e+000
1	 1.509279057994052e+000	 2.437197273632522e+000	 2.261715423311734e+000
1	 1.482642578306111e+000	 2.453492436359996e+000	 2.384053131036398e+000
1	 1.455865738217200e+000	 2.469475535571230e+000	 2.466631753502826e+000
1	 1.428953920535294e+000	 2.485144957250983e+000	 2.509769977211829e+000
1	 1.401912526955667e+000	 2.500499208922499e+000	 2.513790437645354e+000
1	 1.681346838342176e+000	 2.354678456269270e+000	 8.983837414517221e-001
1	 1.655425192588333e+000	 2.372973937041403e+000	 1.280599468423319e+000
1	 1.629329874776701e+000	 2.390966785532879e+000	 1.620579223004335e+000
1	 1.603066131850734e+000	 2.408654643828039e+000	 1.919061267755205e+000
1	 1.576639250251452e+000	 2.426035274078607e+000	 2.176791897789249e+000
1	 1.550054552523622e+000	 2.443106559220670e+000	 2.394524207762775e+000
1	 1.523317393911349e+000	 2.459866503577958e+000	 2.573016872759314e+000
1	 1.496433158947471e+000	 2.476313233351541e+000	 2.713032945323749e+000
1	 1.469407258041088e+000	 2.492444996996238e+000	 2.815338670825691e+000
1	 1.442245124067568e+000	 2.508260165484270e+000	 2.880702323248999e+000
1	 1.414952208965249e+000	 2.523757232456807e+000	 2.909893063417144e+000
1	 1.696841515816308e+000	 2.376378311644662e+000	 1.109020735744852e+000
1	 1.670680985656779e+000	 2.394842396875518e+000	 1.505160009739470e+000
1	 1.644345182941285e+000	 2.413001060877398e+000	 1.858439809411742e+000
1	 1.617839402967188e+000	 2.430851924004947e+000	 2.169989447183034e+000
1	 1.591168980893409e+000	 2.448392727786678e+000	 2.440948562027366e+000
1	 1.564339288315340e+000	 2.465621335648581e+000	 2.672465119721920e+000
1	 1.537355729829050e+000	 2.482535733522948e+000	 2.865693430985405e+000
1	 1.510223739589258e+000	 2.499134030342586e+000	 3.021792191340230e+000
1	 1.482948777865412e+000	 2.515414458420706e+000	 3.141922546425569e+000
1	 1.455536327600267e+000	 2.531375373716986e+000	 3.227246186372283e+000
1	 1.427991890975229e+000	 2.547015255990533e+000	 3.278923472722505e+000
1	 1.712336193290541e+000	 2.398078167020021e+000	 1.307101542420198e+000
1	 1.685936778725359e+000	 2.416710856709561e+000	 1.716256384657322e+000
1	 1.659360491106039e+000	 2.435035336221800e+000	 2.081969999633762e+000
1	 1.632612674083848e+000	 2.453049204181680e+000	 2.405705024677360e+000
1	 1.605698711535610e+000	 2.470750181494515e+000	 2.688937009992618e+000
1	 1.578624024107333e+000	 2.488136112076197e+000	 2.933151746362920e+000
1	 1.551394065747053e+000	 2.505204963467584e+000	 3.139842613262735e+000
1	 1.524014320231365e+000	 2.521954827333227e+000	 3.310507952619120e+000
1	 1.496490297690064e+000	 2.538383919844724e+000	 3.446648473326044e+000
1	 1.468827531133287e+000	 2.554490581949219e+000	 3.549764691469810e+000
1	 1.441031572985507e+000	 2.570273279523760e+000	 3.621354411063414e+000
1	 1.727830870764843e+000	 2.419778022395412e+000	 1.492344002884635e+000
1	 1.701192571794027e+000	 2.438579316543607e+000	 1.913666946090476e+000
1	 1.674375799270905e+000	 2.457069611566164e+000	 2.291007432356265e+000
1	 1.647385945200647e+000	 2.475246484358327e+000	 2.626105278059594e+000
1	 1.620228442177975e+000	 2.493107635202212e+000	 2.920716085783020e+000
1	 1.592908759899511e+000	 2.510650888503613e+000	 3.176607992110937e+000
1	 1.565432401665257e+000	 2.527874193411962e+000	 3.395558436910537e+000
1	 1.537804900873685e+000	 2.544775624323555e+000	 3.579350960561429e+000
1	 1.510031817514932e+000	 2.561353381268382e+000	 3.729772035445817e+000
1	 1.482118734666520e+000	 2.577605790181060e+000	 3.848607937841283e+000
1	 1.454071254995983e+000	 2.593531303056567e+000	 3.937641666172041e+000
1	 1.743325548239177e+000	 2.441477877770901e+000	 1.664475989847318e+000
1	 1.716448364862740e+000	 2.460447776377734e+000	 2.097177926949768e+000
1	 1.689391107435829e+000	 2.479103886910575e+000	 2.485395518534191e+000
1	 1.662159216317515e+000	 2.497443764534976e+000	 2.831091137129799e+000
1	 1.634758172820419e+000	 2.515465088909857e+000	 3.136246096670743e+000
1	 1.607193495691781e+000	 2.533165664930923e+000	 3.402856911540440e+000
1	 1.579470737583563e+000	 2.550543423356175e+000	 3.632931576743644e+000
1	 1.551595481516112e+000	 2.567596421313664e+000	 3.828485876724545e+000
1	 1.523573337339909e+000	 2.584322842691774e+000	 3.991539730183243e+000
1	 1.495409938199861e+000	 2.600720998412591e+000	 4.124113578055153e+000
1	 1.467110937006559e+000	 2.616789326589043e+000	 4.228224821614137e+000
1	 1.758820225713511e+000	 2.463177733146556e+000	 1.823234965455876e+000
1	 1.731704157931453e+000	 2.482316236212016e+000	 2.266583093040962e+000
1	 1.704406415600752e+000	 2.501138162255115e+000	 2.664983187132015e+000
1	 1.676932487434383e+000	 2.519641044711714e+000	 3.020567022802462e+000
1	 1.649287903462864e+000	 2.537822542617543e+000	 3.335488748651723e+000
1	 1.621478231484051e+000	 2.555680441358218e+000	 3.611920746810038e+000
1	 1.593509073501868e+000	 2.573212653300319e+000	 3.852049512304896e+000
1	 1.565386062158539e+000	 2.590417218303647e+000	 4.058071560190066e+000
1	 1.537114857164887e+000	 2.607292304114989e+000	 4.232189368664047e+000
1	 1.508701141733201e+000	 2.623836206643904e+000	 4.376607366208484e+000
1	 1.480150619017134e+000	 2.640047350121267e+000	 4.493527970558310e+000
1	 1.774314903187812e+000	 2.484877588522445e+000	 1.968367562584791e+000
1	 1.746959951000122e+000	 2.504184696046531e+000	 2.421683414150045e+000
1	 1.719421723765620e+000	 2.523172437599867e+000	 2.829624644186359e+000
1	 1.691705758551183e+000	 2.541838324888631e+000	 3.194440694671245e+000
1	 1.663817634105228e+000	 2.560179996325362e+000	 3.518407085371888e+000
1	 1.635762967276229e+000	 2.578195217785595e+000	 3.803820963135580e+000
1	 1.607547409420072e+000	 2.595881883244487e+000	 4.052996667383123e+000
1	 1.579176642800859e+000	 2.613238015293599e+000	 4.268261320921992e+000
1	 1.550656376989755e+000	 2.630261765538118e+000	 4.451950455017312e+000
1	 1.521992345266434e+000	 2.646951414875085e+000	 4.606403677460103e+000
1	 1.493190301027610e+000	 2.663305373653324e+000	 4.733960392146138e+000
1	 1.789809580662045e+000	 2.506577443898633e+000	 2.099629187872994e+000
1	 1.762215744068701e+000	 2.526053155881353e+000	 2.562286752212728e+000
1	 1.734437031930373e+000	 2.545206712944916e+000	 2.979179144383493e+000
1	 1.706479029667844e+000	 2.564035605065815e+000	 3.352623106491325e+000
1	 1.678347364747429e+000	 2.582537450033407e+000	 3.684965430226134e+000
1	 1.650047703068223e+000	 2.600709994213145e+000	 3.978578282421061e+000
1	 1.621585745338075e+000	 2.618551113188773e+000	 4.235854542284019e+000
1	 1.592967223442966e+000	 2.636058812283610e+000	 4.459203159965149e+000
1	 1.564197896814406e+000	 2.653231226961252e+000	 4.651044545950862e+000
1	 1.535283548799454e+000	 2.670066623106221e+000	 4.813806000577243e+000
1	 1.506229983037888e+000	 2.686563397185296e+000	 4.949917192729735e+000
1	 1.805304258136177e+000	 2.528277299275187e+000	 2.216783645203746e+000
1	 1.777471537137146e+000	 2.547921615716559e+000	 2.688207565542859e+000
1	 1.749452340094956e+000	 2.567240988290342e+000	 3.113510774400186e+000
1	 1.721252300784296e+000	 2.586232885243353e+000	 3.495028269104546e+000
1	 1.692877095389386e+000	 2.604894903741769e+000	 3.835129331438706e+000
1	 1.664332438859940e+000	 2.623224770640964e+000	 4.136212715157317e+000
1	 1.635624081255775e+000	 2.641220343133271e+000	 4.400701839289479e+000
1	 1.606757804084753e+000	 2.658879609273776e+000	 4.631039997273737e+000
1	 1.577739416638730e+000	 2.676200688384482e+000	 4.829685591809438e+000
1	 1.548574752332153e+000	 2.693181831337400e+000	 4.999107405117656e+000
1	 1.519269665047867e+000	 2.709821420717266e+000	 5.141779914087290e+000
1	 1.820798935610176e+000	 2.549977154652176e+000	 2.319602778409375e+000
1	 1.792727330205413e+000	 2.569790075552224e+000	 2.799266628162227e+000
1	 1.764467648259313e+000	 2.589275263636230e+000	 3.232488247306715e+000
1	 1.736025571900472e+000	 2.608430165421335e+000	 3.621573120362849e+000
1	 1.707406826031018e+000	 2.627252357450538e+000	 3.968865509947964e+000
1	 1.678617174651289e+000	 2.645739547069144e+000	 4.276743590692062e+000
1	 1.649662417173072e+000	 2.663889573078078e+000	 4.547614581711073e+000
1	 1.620548384726113e+000	 2.681700406264190e+000	 4.783909887907443e+000
1	 1.591280936462618e+000	 2.699170149807902e+000	 4.988080260218785e+000
1	 1.561865955864427e+000	 2.716297039568712e+000	 5.162590984757982e+000
1	 1.532309347057451e+000	 2.733079444249318e+000	 5.309917110583784e+000
1	 1.401912526955667e+000	 2.500499208922499e+000	 2.513790437645356e+000
1	 1.374751058621742e+000	 2.515534688282688e+000	 2.478474007676411e+000
1	 1.347470897317242e+000	 2.530252474887798e+000	 2.400270440531195e+000
1	 1.320077480299228e+000	 2.544651443212336e+000	 2.274570970541535e+000
1	 1.292576250311316e+000	 2.558730588716131e+000	 2.096845278875331e+000
1	 1.264972652307893e+000	 2.572489027453051e+000	 1.862646794709968e+000
1	 1.237272130208986e+000	 2.585925995576417e+000	 1.567617805987100e+000
1	 1.209480123689433e+000	 2.599040848742956e+000	 1.207494372446063e+000
1	 1.181602065005949e+000	 2.611833061417270e+000	 7.781110342131375e-001
1	 1.153643375865511e+000	 2.624302226078947e+000	 2.754053098135368e-001
1	 1.125609464338406e+000	 2.636448052334516e+000	-3.045780219313644e-001
1	 1.414952208965249e+000	 2.523757232456807e+000	 2.909893063417149e+000
1	 1.387538102251041e+000	 2.538932562104462e+000	 2.903328162084049e+000
1	 1.360004198561121e+000	 2.553787244024815e+000	 2.857377439284591e+000
1	 1.332355985726399e+000	 2.568320142223472e+000	 2.766793678386489e+000
1	 1.304598957115369e+000	 2.582530242816688e+000	 2.626414801841201e+000
1	 1.276738608327862e+000	 2.596416653636446e+000	 2.431170254744551e+000
1	 1.248780433919723e+000	 2.609978603731262e+000	 2.176087168886451e+000
1	 1.220729924162126e+000	 2.623215442764610e+000	 1.856296298227978e+000
1	 1.192592561839122e+000	 2.636126640312910e+000	 1.467037717429665e+000
1	 1.164373819086900e+000	 2.648711785065263e+000	 1.003666275753171e+000
1	 1.136079154278112e+000	 2.660970583927155e+000	 4.616567993659966e-001
1	 1.427991890975229e+000	 2.547015255990533e+000	 3.278923472722505e+000
1	 1.400325145880683e+000	 2.562330435925657e+000	 3.298005403504970e+000
1	 1.372537499805272e+000	 2.577322013161275e+000	 3.280899157922102e+000
1	 1.344634491153757e+000	 2.591988841234090e+000	 3.221844946513487e+000
1	 1.316621663919515e+000	 2.606329896916777e+000	 3.115173671216314e+000
1	 1.288504564347824e+000	 2.620344279819433e+000	 2.955314199270947e+000
1	 1.260288737630354e+000	 2.634031211885770e+000	 2.736800393352668e+000
1	 1.231979724634620e+000	 2.647390036786003e+000	 2.454277887418838e+000
1	 1.203583058672014e+000	 2.660420219208370e+000	 2.102510598534631e+000
1	 1.175104262307936e+000	 2.673121344051484e+000	 1.676386965730154e+000
1	 1.146548844217417e+000	 2.685493115519782e+000	 1.170925907741694e+000
1	 1.441031572985507e+000	 2.570273279523760e+000	 3.621354411063412e+000
1	 1.413112189510584e+000	 2.585728309746352e+000	 3.663093471386418e+000
1	 1.385070801049629e+000	 2.600856782297251e+000	 3.671534258980287e+000
1	 1.356912996581255e+000	 2.615657540244252e+000	 3.640526966542510e+000
1	 1.328644370723730e+000	 2.630129551016453e+000	 3.564016916651867e+000
1	 1.300270520367781e+000	 2.644271906002056e+000	 3.436052536983007e+000
1	 1.271797041340905e+000	 2.658083820039974e+000	 3.250793072240273e+000
1	 1.243229525106963e+000	 2.671564630807158e+000	 3.002516021157300e+000
1	 1.214573555504692e+000	 2.684713798103659e+000	 2.685624287754014e+000
1	 1.185834705528708e+000	 2.697530903037604e+000	 2.294653036904813e+000
1	 1.157018534156420e+000	 2.710015647112380e+000	 1.824276245146978e+000
1	 1.454071254995983e+000	 2.593531303056567e+000	 3.937641666172041e+000
1	 1.425899233140657e+000	 2.609126183566624e+000	 3.999159022478804e+000
1	 1.397604102294122e+000	 2.624391551432815e+000	 4.029956343396657e+000
1	 1.369191502008848e+000	 2.639326239254022e+000	 4.023613154821602e+000
1	 1.340667077527991e+000	 2.653929205115769e+000	 3.973807462351115e+000
1	 1.312036476387733e+000	 2.668199532184362e+000	 3.874324241670899e+000
1	 1.283305345051404e+000	 2.682136428193909e+000	 3.719063650838694e+000
1	 1.254479325579208e+000	 2.695739224828096e+000	 3.502048951972470e+000
1	 1.225564052337228e+000	 2.709007376998789e+000	 3.217434130747320e+000
1	 1.196565148749303e+000	 2.721940462023622e+000	 2.859511203024630e+000
1	 1.167488224095222e+000	 2.734538178704933e+000	 2.422717198866400e+000
1	 1.467110937006559e+000	 2.616789326589043e+000	 4.228224821614141e+000
1	 1.438686276770817e+000	 2.632524057386552e+000	 4.306748567750705e+000
1	 1.410137403538683e+000	 2.647926320568034e+000	 4.356815064247359e+000
1	 1.381470007436487e+000	 2.662994938263464e+000	 4.371849431199947e+000
1	 1.352689784332277e+000	 2.677728859214781e+000	 4.345377553835297e+000
1	 1.323802432407685e+000	 2.692127158366396e+000	 4.271034904727918e+000
1	 1.294813648761876e+000	 2.706189036347608e+000	 4.142575077709952e+000
1	 1.265729126051403e+000	 2.719913818848843e+000	 3.953878020439028e+000
1	 1.236554549169694e+000	 2.733300955893768e+000	 3.698957953524894e+000
1	 1.207295591969811e+000	 2.746350021009535e+000	 3.371970965069667e+000
1	 1.177957914033923e+000	 2.759060710297422e+000	 2.967222270447286e+000
1	 1.480150619017134e+000	 2.640047350121267e+000	 4.493527970558309e+000
1	 1.451473320400976e+000	 2.655921931206211e+000	 4.586389359780459e+000
1	 1.422670704783244e+000	 2.671461089702981e+000	 4.652737181614316e+000
1	 1.393748512864127e+000	 2.686663637272641e+000	 4.685955430207375e+000
1	 1.364712491136561e+000	 2.701528513313543e+000	 4.679530109293450e+000
1	 1.335568388427636e+000	 2.716054784548201e+000	 4.627058205595024e+000
1	 1.306321952472348e+000	 2.730241644501108e+000	 4.522256368266066e+000
1	 1.276978926523597e+000	 2.744088412869419e+000	 4.358969281093566e+000
1	 1.247545046002160e+000	 2.757594534788612e+000	 4.131177715131865e+000
1	 1.218026035190319e+000	 2.770759579995338e+000	 3.833006250418801e+000
1	 1.188427603972625e+000	 2.783583241889828e+000	 3.458730656412504e+000
1	 1.493190301027610e+000	 2.663305373653324e+000	 4.733960392146139e+000
1	 1.464260364031049e+000	 2.679319805025680e+000	 4.838590233651214e+000
1	 1.435204006027738e+000	 2.694995858837727e+000	 4.918327562181259e+000
1	 1.406027018291719e+000	 2.710332336281614e+000	 4.966625648771998e+000
1	 1.376735197940822e+000	 2.725328167412109e+000	 4.977040000126077e+000
1	 1.347334344447589e+000	 2.739982410729826e+000	 4.943237305158793e+000
1	 1.317830256182847e+000	 2.754294252654444e+000	 4.859004086420456e+000
1	 1.288228726995841e+000	 2.768263006889848e+000	 4.718255043157904e+000
1	 1.258535542834697e+000	 2.781888113683325e+000	 4.515041073737429e+000
1	 1.228756478410915e+000	 2.795169138981031e+000	 4.243556966129627e+000
1	 1.198897293911427e+000	 2.808105773482135e+000	 3.898148746149277e+000
1	 1.506229983037888e+000	 2.686563397185296e+000	 4.949917192729735e+000
1	 1.477047407660950e+000	 2.702717678845036e+000	 5.063842404167669e+000
1	 1.447737307272094e+000	 2.718530627972343e+000	 5.154170126907538e+000
1	 1.418305523719217e+000	 2.734001035290450e+000	 5.214530534322288e+000
1	 1.388757904745038e+000	 2.749127821510537e+000	 5.238655264973619e+000
1	 1.359100300467546e+000	 2.763910036911314e+000	 5.220386166772264e+000
1	 1.329338559893399e+000	 2.778346860807648e+000	 5.153683749277736e+000
1	 1.299478527468185e+000	 2.792437600910155e+000	 5.032635331233025e+000
1	 1.269526039667374e+000	 2.806181692577922e+000	 4.851462871376395e+000
1	 1.239486921631686e+000	 2.819578697966607e+000	 4.604530471536108e+000
1	 1.209366983850430e+000	 2.832628305074326e+000	 4.286351541993327e+000
1	 1.519269665047867e+000	 2.709821420717266e+000	 5.141779914087288e+000
1	 1.489834451290593e+000	 2.726115552664356e+000	 5.262620222018054e+000
1	 1.460270608516245e+000	 2.742065397106899e+000	 5.360828749899563e+000
1	 1.430584029146575e+000	 2.757669734299212e+000	 5.430317516854655e+000
1	 1.400780611549183e+000	 2.772927475608878e+000	 5.465098261225825e+000
1	 1.370866256487507e+000	 2.787837663092711e+000	 5.459290809247027e+000
1	 1.340846863604030e+000	 2.802399468960756e+000	 5.407131159486106e+000
1	 1.310728327940679e+000	 2.816612194930360e+000	 5.302979270771298e+000
1	 1.280516536500265e+000	 2.830475271472410e+000	 5.141326542231052e+000
1	 1.250217364852722e+000	 2.843988256952066e+000	 4.916802975011597e+000
1	 1.219836673789734e+000	 2.857150836666380e+000	 4.624184006182451e+000
1	 1.532309347057451e+000	 2.733079444249318e+000	 5.309917110583783e+000
1	 1.502621494919892e+000	 2.749513426483720e+000	 5.435381891327631e+000
1	 1.472803909760124e+000	 2.765600166241469e+000	 5.538848111386680e+000
1	 1.442862534573746e+000	 2.781338433307961e+000	 5.614611988304996e+000
1	 1.412803318353237e+000	 2.796727129707190e+000	 5.657066757736421e+000
1	 1.382632212507476e+000	 2.811765289274062e+000	 5.660710495868735e+000
1	 1.352355167314767e+000	 2.826452077113804e+000	 5.620153669561318e+000
1	 1.321978128413372e+000	 2.840786788950489e+000	 5.530126402807886e+000
1	 1.291507033333439e+000	 2.854768850366804e+000	 5.385485449007640e+000
1	 1.260947808074111e+000	 2.868397815937405e+000	 5.181220859414895e+000
1	 1.230306363729441e+000	 2.881673368258283e+000	 4.912462339036261e+000
1	 1.125609464338406e+000	 2.636448052334516e+000	-3.045780219313624e-001
1	 1.097501501095708e+000	 2.648272115530094e+000	-9.670466059235240e-001
1	 1.069329061409152e+000	 2.659772511872570e+000	-1.716231387104359e+000
1	 1.041097498112028e+000	 2.670949298215834e+000	-2.554768382267039e+000
1	 1.012812138484053e+000	 2.681802644152406e+000	-3.485224879720524e+000
1	 9.844782814308749e-001	 2.692332830683794e+000	-4.510097359637456e+000
1	 9.561011947256430e-001	 2.702540248811464e+000	-5.631809535134353e+000
1	 9.276861123150281e-001	 2.712425398051369e+000	-6.852710515666824e+000
1	 8.992382316919289e-001	 2.721988884875083e+000	-8.175073094026322e+000
1	 8.707627113369547e-001	 2.731231421080581e+000	-9.601092157925697e+000
1	 8.422646682306207e-001	 2.740153822095873e+000	-1.113288322687273e+001
1	 1.136079154278112e+000	 2.660970583927155e+000	 4.616567993659966e-001
1	 1.107709748972663e+000	 2.672904626897555e+000	-1.651388009797866e-001
1	 1.079275267505267e+000	 2.684511992475504e+000	-8.815148776622347e-001
1	 1.050781112497805e+000	 2.695792738043705e+000	-1.690083764437944e+000
1	 1.022232660780904e+000	 2.706747034772115e+000	-2.593387334936336e+000
1	 9.936352605472041e-001	 2.717375166275937e+000	-3.593894942158233e+000
1	 9.649942285672726e-001	 2.727677527193472e+000	-4.694001480886285e+000
1	 9.363148474705654e-001	 2.737654621686848e+000	-5.896025574531079e+000
1	 9.076023630936984e-001	 2.747307061868639e+000	-7.202207887636964e+000
1	 8.788619818981297e-001	 2.756635566157504e+000	-8.614709564969814e+000
1	 8.500988684592170e-001	 2.765640957566034e+000	-1.013561079781631e+001
1	 1.146548844217417e+000	 2.685493115519782e+000	 1.170925907741694e+000
1	 1.117917996849190e+000	 2.697537138265089e+000	 5.790504507377883e-001
1	 1.089221473600947e+000	 2.709251473078593e+000	-1.046863773118996e-001
1	 1.060464726883158e+000	 2.720636177871812e+000	-8.829126836403868e-001
1	 1.031653183077356e+000	 2.731691425392141e+000	-1.758184478337820e+000
1	 1.002792239663169e+000	 2.742417501868468e+000	-2.732983566255021e+000
1	 9.738872624085796e-001	 2.752814805575940e+000	-3.809715565243782e+000
1	 9.449435826258267e-001	 2.762883845322851e+000	-4.990708052305532e+000
1	 9.159664944952384e-001	 2.772625238862780e+000	-6.278208838910236e+000
1	 8.869612524591194e-001	 2.782039711235068e+000	-7.674384376435125e+000
1	 8.579330686876658e-001	 2.791128093036881e+000	-9.181318292372193e+000
1	 1.157018534156420e+000	 2.710015647112380e+000	 1.824276245146976e+000
1	 1.128126244725395e+000	 2.722169649632665e+000	 1.266508707901632e+000
1	 1.099167679696300e+000	 2.733990953681790e+000	 6.151734368866781e-001
1	 1.070148341268192e+000	 2.745479617700091e+000	-1.324118949754914e-001
1	 1.041073705373506e+000	 2.756635816012397e+000	-9.788559777848124e-001
1	 1.011949218778857e+000	 2.767459837461291e+000	-1.926691643165978e+000
1	 9.827802962496399e-001	 2.777952083958754e+000	-2.978373773760660e+000
1	 9.535723177808729e-001	 2.788113068959254e+000	-4.136277345432651e+000
1	 9.243306258965952e-001	 2.797943415857371e+000	-5.402695603583307e+000
1	 8.950605230199542e-001	 2.807443856313125e+000	-6.779838374648691e+000
1	 8.657672689159829e-001	 2.816615228508264e+000	-8.269830513533330e+000
1	 1.167488224095222e+000	 2.734538178704933e+000	 2.422717198866400e+000
1	 1.138334492601386e+000	 2.746802161000247e+000	 1.898188104644182e+000
1	 1.109113885791435e+000	 2.758730434285045e+000	 1.278950911004940e+000
1	 1.079831955653012e+000	 2.770323057528476e+000	 5.622315985682654e-001
1	 1.050494227669453e+000	 2.781580206632806e+000	-2.546687748761075e-001
1	 1.021106197894358e+000	 2.792502173054308e+000	-1.174371674570646e+000
1	 9.916733300905299e-001	 2.803089362341805e+000	-2.199418825845049e+000
1	 9.622010529357666e-001	 2.813342292595933e+000	-3.332270090000769e+000
1	 9.326947572978148e-001	 2.823261592852275e+000	-4.575301480655933e+000
1	 9.031597935806648e-001	 2.832848001391535e+000	-5.930803321835789e+000
1	 8.736014691441837e-001	 2.842102363980035e+000	-7.400978548754500e+000
1	 1.177957914033923e+000	 2.759060710297422e+000	 2.967222270447286e+000
1	 1.148542740477269e+000	 2.771434672367803e+000	 2.475006924824375e+000
1	 1.119060091886461e+000	 2.783469914888308e+000	 1.887500879737934e+000
1	 1.089515570037725e+000	 2.795166497356900e+000	 1.201801890331581e+000
1	 1.059914749965296e+000	 2.806524597253285e+000	 4.150841270959190e-001
1	 1.030263177009759e+000	 2.817544508647425e+000	-4.753991820104856e-001
1	 1.000566363931325e+000	 2.828226640724981e+000	-1.472313253346401e+000
1	 9.708297880905690e-001	 2.838571516232765e+000	-2.578239395613776e+000
1	 9.410588886989444e-001	 2.848579769847359e+000	-3.795672806083698e+000
1	 9.112590641412821e-001	 2.858252146470149e+000	-5.127020516612504e+000
1	 8.814356693722830e-001	 2.867589499452040e+000	-6.574599490670868e+000
1	 1.188427603972625e+000	 2.783583241889828e+000	 3.458730656412504e+000
1	 1.158750988353152e+000	 2.796067183735299e+000	 2.997851093081622e+000
1	 1.129006297981487e+000	 2.808209395491530e+000	 2.441648054432923e+000
1	 1.099199184422435e+000	 2.820009937185299e+000	 1.787055443147428e+000
1	 1.069335272261134e+000	 2.831468987873751e+000	 1.031084811123574e+000
1	 1.039420156125150e+000	 2.842586844240541e+000	 1.708283071016112e-001
1	 1.009459397772102e+000	 2.853363919108170e+000	-7.965385278471274e-001
1	 9.794585232453414e-001	 2.863800739869622e+000	-1.873754119757421e+000
1	 9.494230201000294e-001	 2.873897946842485e+000	-3.063468378519379e+000
1	 9.193583347018369e-001	 2.883656291548827e+000	-4.368240373922370e+000
1	 8.892698696002970e-001	 2.893076634924131e+000	-5.790536172578578e+000
1	 1.198897293911427e+000	 2.808105773482135e+000	 3.898148746149277e+000
1	 1.168959236229143e+000	 2.820699695102704e+000	 3.467575587763215e+000
1	 1.138952504076620e+000	 2.832948876094660e+000	 2.942188338390575e+000
1	 1.108882798807248e+000	 2.844853377013607e+000	 2.318722295795418e+000
1	 1.078755794557065e+000	 2.856413378494124e+000	 1.593991534312690e+000
1	 1.048577135240618e+000	 2.867629179833561e+000	 7.648922203421787e-001
1	 1.018352431612936e+000	 2.878501197491262e+000	-1.715942336809431e-001
1	 9.880872584001462e-001	 2.889029963506384e+000	-1.218398180186310e+000
1	 9.577871515011172e-001	 2.899216123837520e+000	-2.378358915143971e+000
1	 9.274576052623599e-001	 2.909060436627422e+000	-3.654222026982220e+000
1	 8.971040698282408e-001	 2.918563770396158e+000	-5.048636917775473e+000
1	 1.209366983850430e+000	 2.832628305074326e+000	 4.286351541993329e+000
1	 1.179167484105347e+000	 2.845332206469981e+000	 3.885005780460225e+000
1	 1.148898710171969e+000	 2.857688356697653e+000	 3.389890073845067e+000
1	 1.118566413192270e+000	 2.869696816841759e+000	 2.797507206788591e+000
1	 1.088176316853187e+000	 2.881357769114321e+000	 2.104439759205715e+000
1	 1.057734114356251e+000	 2.892671515426387e+000	 1.307353851228137e+000
1	 1.027245465453903e+000	 2.903638475874144e+000	 4.030027160925080e-001
1	 9.967159935550445e-001	 2.914259187142925e+000	-6.117699030273236e-001
1	 9.661512829022537e-001	 2.924534300832329e+000	-1.740026535762834e+000
1	 9.355568758228816e-001	 2.934464581705792e+000	-2.984732949904261e+000
1	 9.049382700561295e-001	 2.944050905867970e+000	-4.348755301921622e+000
1	 1.219836673789734e+000	 2.857150836666380e+000	 4.624184006182451e+000
1	 1.189375731981873e+000	 2.869964717837100e+000	 4.250938706561295e+000
1	 1.158844916267644e+000	 2.882427837300455e+000	 3.785495224728393e+000
1	 1.128250027577606e+000	 2.894540256669687e+000	 3.224090739259013e+000
1	 1.097596839149599e+000	 2.906302159734262e+000	 2.563043131995038e+000
1	 1.066891093472140e+000	 2.917713851018923e+000	 1.798755223256199e+000
1	 1.036138499295079e+000	 2.928775754256705e+000	 9.277188233384519e-001
1	 1.005344728710099e+000	 2.939488410779119e+000	-5.348140445423213e-002
1	 9.745154143034851e-001	 2.949852477826773e+000	-1.148164273469798e+000
1	 9.436561463834331e-001	 2.959868726783791e+000	-2.359548599752392e+000
1	 9.127724702839787e-001	 2.969538041339417e+000	-3.690749927637873e+000
1	 1.230306363729441e+000	 2.881673368258283e+000	 4.912462339036261e+000
1	 1.199583979858828e+000	 2.894597229204027e+000	 4.566144270933005e+000
1	 1.168791122363753e+000	 2.907167317903020e+000	 4.129720499044030e+000
1	 1.137933641963362e+000	 2.919383696497329e+000	 3.599130290450050e+000
1	 1.107017361446401e+000	 2.931246550353865e+000	 2.970394410789557e+000
1	 1.076048072588372e+000	 2.942756186611073e+000	 2.239619909825442e+000
1	 1.045031533136541e+000	 2.953913032638836e+000	 1.403004710527409e+000
1	 1.013973463865370e+000	 2.964717634414845e+000	 4.568419960668454e-001
1	 9.828795457048584e-001	 2.975170654820722e+000	-6.024756102964101e-001
1	 9.517554169440449e-001	 2.985272871861279e+000	-1.778452076874373e+000
1	 9.206066705118042e-001	 2.995025176810348e+000	-3.074484210612805e+000
1	 8.422646682306207e-001	 2.740153822095873e+000	-1.113288322687273e+001
1	 8.137491750310451e-001	 2.748757004534392e+000	-1.277404576257454e+001
1	 7.852212565530335e-001	 2.757041982326296e+000	-1.453262848859455e+001
1	 7.566858887956514e-001	 2.765009866903514e+000	-1.641725966654035e+001
1	 7.281479971706540e-001	 2.772661865956894e+000	-1.843642420635619e+001
1	 6.996124543915533e-001	 2.779999281457081e+000	-2.059845285868359e+001
1	 6.710840784416883e-001	 2.787023507627656e+000	-2.291151185623876e+001
1	 6.425676306221918e-001	 2.793736028873866e+000	-2.538359301432512e+001
1	 6.140678136806004e-001	 2.800138417670240e+000	-2.802250429927788e+001
1	 5.855892700207175e-001	 2.806232332410390e+000	-3.083586087233388e+001
1	 5.571365799941845e-001	 2.812019515222284e+000	-3.383107661512566e+001
1	 8.500988684592170e-001	 2.765640957566034e+000	-1.013561079781631e+001
1	 8.213181426176583e-001	 2.774324161233401e+000	-1.176884410352129e+001
1	 7.925248759258222e-001	 2.782686200520694e+000	-1.352294425137068e+001
1	 7.637240906662782e-001	 2.790728197197665e+000	-1.540672733972144e+001
1	 7.349207580637582e-001	 2.798451370188332e+000	-1.742885894125991e+001
1	 7.061197961545841e-001	 2.805857033573426e+000	-1.959784292848189e+001
1	 6.773260677358410e-001	 2.812946594544702e+000	-2.192201076961977e+001
1	 6.485443783951879e-001	 2.819721551314391e+000	-2.440951130537462e+001
1	 6.197794746220587e-001	 2.826183490983165e+000	-2.706830101543372e+001
1	 5.910360420008765e-001	 2.832334087369945e+000	-2.990613478238614e+001
1	 5.623187034867332e-001	 2.838175098806854e+000	-3.293055715930578e+001
1	 8.579330686876658e-001	 2.791128093036881e+000	-9.181318292372193e+000
1	 8.288871102041550e-001	 2.799891317933140e+000	-1.080326559614292e+001
1	 7.998284952985155e-001	 2.808330418715853e+000	-1.254914524444092e+001
1	 7.707622925368254e-001	 2.816446527492603e+000	-1.442786308958998e+001
1	 7.416935189567913e-001	 2.824240874420564e+000	-1.644816786800642e+001
1	 7.126271379175478e-001	 2.831714785690565e+000	-1.861863981227003e+001
1	 6.835680570299277e-001	 2.838869681462531e+000	-2.094767975066284e+001
1	 6.545211261681154e-001	 2.845707073755670e+000	-2.344349870458548e+001
1	 6.254911355634437e-001	 2.852228564296800e+000	-2.611410799283445e+001
1	 5.964828139809565e-001	 2.858435842330152e+000	-2.896730985032038e+001
1	 5.675008269791978e-001	 2.864330682391994e+000	-3.201068856741631e+001
1	 8.657672689159829e-001	 2.816615228508264e+000	-8.269830513533330e+000
1	 8.364560777905351e-001	 2.825458474633451e+000	-9.877231107097471e+000
1	 8.071321146711011e-001	 2.833974636911618e+000	-1.161123609538260e+001
1	 7.778004944072667e-001	 2.842164857788169e+000	-1.348074578352447e+001
1	 7.484662798497168e-001	 2.850030378653444e+000	-1.549449733960307e+001
1	 7.191344796803980e-001	 2.857572537808359e+000	-1.766105334440609e+001
1	 6.898100463238918e-001	 2.864792768381011e+000	-1.998879084133917e+001
1	 6.604978739409093e-001	 2.871692596197583e+000	-2.248589089675331e+001
1	 6.312027965046840e-001	 2.878273637611040e+000	-2.516032867950687e+001
1	 6.019295859608801e-001	 2.884537597290914e+000	-2.801986406714714e+001
1	 5.726829504714950e-001	 2.890486265977629e+000	-3.107203278468380e+001
1	 8.736014691441837e-001	 2.842102363980035e+000	-7.400978548754500e+000
1	 8.440250453767998e-001	 2.851025631334182e+000	-8.990664341621779e+000
1	 8.144357340435665e-001	 2.859618855107834e+000	-1.070922126577900e+001
1	 7.848386962775786e-001	 2.867883188084215e+000	-1.256545145986651e+001
1	 7.552390407424986e-001	 2.875819882886823e+000	-1.456798845925478e+001
1	 7.256418214430880e-001	 2.883430289926668e+000	-1.672528583231724e+001
1	 6.960520356176770e-001	 2.890715855300007e+000	-1.904560632525016e+001
1	 6.664746217135055e-001	 2.897678118640007e+000	-2.153701152538371e+001
1	 6.369144574457066e-001	 2.904318710925770e+000	-2.420735205146423e+001
1	 6.073763579405679e-001	 2.910639352252135e+000	-2.706425827794496e+001
1	 5.778650739635411e-001	 2.916641849563674e+000	-3.011513159889589e+001
1	 8.814356693722830e-001	 2.867589499452040e+000	-6.574599490670868e+000
1	 8.515940129629499e-001	 2.876592788035181e+000	-8.143491717385555e+000
1	 8.217393534158993e-001	 2.885263073304349e+000	-9.843105058595976e+000
1	 7.918768981477350e-001	 2.893601518380587e+000	-1.168205345364308e+001
1	 7.620118016351005e-001	 2.901609387120555e+000	-1.366877731366556e+001
1	 7.321491632055712e-001	 2.909288042045349e+000	-1.581153239099679e+001
1	 7.022940249112275e-001	 2.916638942219389e+000	-1.811837916129006e+001
1	 6.724513694858385e-001	 2.923663641082820e+000	-2.059717272780688e+001
1	 6.426261183864400e-001	 2.930363784240881e+000	-2.325555325584310e+001
1	 6.128231299199424e-001	 2.936741107213719e+000	-2.610093694382610e+001
1	 5.830471974552516e-001	 2.942797433150047e+000	-2.914050753619823e+001
1	 8.892698696002970e-001	 2.893076634924131e+000	-5.790536172578578e+000
1	 8.591629805489868e-001	 2.902159944736293e+000	-7.335642245012305e+000
1	 8.290429727880866e-001	 2.910907291501006e+000	-9.012891625168955e+000
1	 7.989151000177117e-001	 2.919319848677136e+000	-1.083062251564334e+001
1	 7.687845625274860e-001	 2.927398891354493e+000	-1.279699519400761e+001
1	 7.386565049678001e-001	 2.935145794164261e+000	-1.491998125982004e+001
1	 7.085360142044868e-001	 2.942562029139025e+000	-1.720735339438514e+001
1	 6.784281172578444e-001	 2.949649163525900e+000	-1.966667564200802e+001
1	 6.483377793268119e-001	 2.956408857556268e+000	-2.230529422004445e+001
1	 6.182699018989245e-001	 2.962842862175569e+000	-2.513032886362596e+001
1	 5.882293209465432e-001	 2.968953016736668e+000	-2.814866470954125e+001
1	 8.971040698282408e-001	 2.918563770396158e+000	-5.048636917775473e+000
1	 8.667319481349111e-001	 2.927727101437364e+000	-6.567047414861286e+000
1	 8.363465921601164e-001	 2.936551509697653e+000	-8.218584971823621e+000
1	 8.059533018874838e-001	 2.945038178973707e+000	-1.001122692525687e+001
1	 7.755573234196188e-001	 2.953188395588489e+000	-1.195276880531303e+001
1	 7.451638467297289e-001	 2.961003546283265e+000	-1.405081410276024e+001
1	 7.147780034973986e-001	 2.968485116058781e+000	-1.631276454471204e+001
1	 6.844048650294586e-001	 2.975634685969126e+000	-1.874581088690084e+001
1	 6.540494402667507e-001	 2.982453930871813e+000	-2.135692422895849e+001
1	 6.237166738774358e-001	 2.988944617137589e+000	-2.415284785777827e+001
1	 5.934114444373317e-001	 2.995108600323453e+000	-2.714008962267138e+001
1	 9.049382700561295e-001	 2.944050905867970e+000	-4.348755301921622e+000
1	 8.743009157207239e-001	 2.953294258138242e+000	-5.837641089689736e+000
1	 8.436502115319762e-001	 2.962195727894138e+000	-7.460188966152656e+000
1	 8.129915037570263e-001	 2.970756509270149e+000	-9.223932597449618e+000
1	 7.823300843114625e-001	 2.978977899822394e+000	-1.113622046498849e+001
1	 7.516711884913101e-001	 2.986861298402220e+000	-1.320420629301052e+001
1	 7.210199927899071e-001	 2.994408202978527e+000	-1.543483997669860e+001
1	 6.903816128006164e-001	 3.001620208412377e+000	-1.783485901765459e+001
1	 6.597611012061844e-001	 3.008499004187415e+000	-2.041078047220647e+001
1	 6.291634458553985e-001	 3.015046372099683e+000	-2.316889341666795e+001
1	 5.985935679275339e-001	 3.021264183910321e+000	-2.611525193236004e+001
1	 9.127724702839787e-001	 2.969538041339417e+000	-3.690749927637873e+000
1	 8.818698833064261e-001	 2.978861414838771e+000	-5.147359402843332e+000
1	 8.509538309036534e-001	 2.987839946090302e+000	-6.737707342969585e+000
1	 8.200297056263139e-001	 2.996474839566310e+000	-8.468803184232025e+000
1	 7.891028452029805e-001	 3.004767404056062e+000	-1.034746829110729e+001
1	 7.581785302524970e-001	 3.012719050520981e+000	-1.238032718294837e+001
1	 7.272619820819561e-001	 3.020331289898130e+000	-1.457379924902263e+001
1	 6.963583605712533e-001	 3.027605730855529e+000	-1.693409095757288e+001
1	 6.654727621450409e-001	 3.034544077502960e+000	-1.946718856320097e+001
1	 6.346102178327339e-001	 3.041148127061754e+000	-2.217885131559586e+001
1	 6.037756914170657e-001	 3.047419767497193e+000	-2.507460517138060e+001
1	 9.206066705118042e-001	 2.995025176810348e+000	-3.074484210612805e+000
1	 8.894388508920191e-001	 3.004428571538802e+000	-4.496140661644234e+000
1	 8.582574502751356e-001	 3.013484164285996e+000	-6.051143709958140e+000
1	 8.270679074953227e-001	 3.022193169862039e+000	-7.745900170945696e+000
1	 7.958756060941372e-001	 3.030556908289346e+000	-9.586626381087514e+000
1	 7.646858720132438e-001	 3.038576802639415e+000	-1.157934036031642e+001
1	 7.335039713734896e-001	 3.046254376817458e+000	-1.372985444673960e+001
1	 7.023351083413049e-001	 3.053591253298464e+000	-1.604376840792133e+001
1	 6.711844230832484e-001	 3.060589150818338e+000	-1.852646303170383e+001
1	 6.400569898093635e-001	 3.067249882023707e+000	-2.118309419834339e+001
1	 6.089578149058431e-001	 3.073575351083983e+000	-2.401858743457054e+001
1	 5.571365799941845e-001	 2.812019515222284e+000	-3.383107661512565e+001
1	 5.287185198196900e-001	 2.817500990623337e+000	-3.702309632228639e+001
1	 5.003352638129517e-001	 2.822679553656821e+000	-4.042984699371193e+001
1	 4.719911884326337e-001	 2.827557185699814e+000	-4.406157365275715e+001
1	 4.436906022608280e-001	 2.832135942759818e+000	-4.792838180207024e+001
1	 4.154377447072045e-001	 2.836417953168350e+000	-5.204022440985877e+001
1	 3.872367847946145e-001	 2.840405415259060e+000	-5.640688941067922e+001
1	 3.590918200257314e-001	 2.844100595033316e+000	-6.103798773133968e+001
1	 3.310068753301844e-001	 2.847505823816278e+000	-6.594294185101668e+001
1	 3.029859020915368e-001	 2.850623495906301e+000	-7.113097490320895e+001
1	 2.750327772533645e-001	 2.853456066220491e+000	-7.661110032570529e+001
1	 5.623187034867332e-001	 2.838175098806854e+000	-3.293055715930578e+001
1	 5.336363169290086e-001	 2.843707559340700e+000	-3.615855365455706e+001
1	 5.049890582647981e-001	 2.848934290012431e+000	-3.961081015575815e+001
1	 4.763813446597570e-001	 2.853857290628595e+000	-4.329874574207857e+001
1	 4.478175247716248e-001	 2.858478636320324e+000	-4.723362153232047e+001
1	 4.193018774423222e-001	 2.862800475215494e+000	-5.142652588686941e+001
1	 3.908386104722579e-001	 2.866825026095203e+000	-5.588836020267239e+001
1	 3.624318594764292e-001	 2.870554576037689e+000	-6.062982531303261e+001
1	 3.340856868217608e-001	 2.873991478052573e+000	-6.566140850229741e+001
1	 3.058040806450334e-001	 2.877138148708408e+000	-7.099337114382055e+001
1	 2.775909539506486e-001	 2.879997065756335e+000	-7.663573696792720e+001
1	 5.675008269791978e-001	 2.864330682391994e+000	-3.201068856741631e+001
1	 5.385541140382393e-001	 2.869914128058542e+000	-3.526324641106515e+001
1	 5.096428527165515e-001	 2.875189026368409e+000	-3.874832711483357e+001
1	 4.807715008867807e-001	 2.880157395557621e+000	-4.247832422066468e+001
1	 4.519444472823133e-001	 2.884821329880952e+000	-4.646545634951523e+001
1	 4.231660101773191e-001	 2.889182997262622e+000	-5.072175089841272e+001
1	 3.944404361497635e-001	 2.893244636931202e+000	-5.525902839960892e+001
1	 3.657718989269654e-001	 2.897008557041791e+000	-6.008888755455714e+001
1	 3.371644983131448e-001	 2.900477132288479e+000	-6.522269095353587e+001
1	 3.086222591982989e-001	 2.903652801510019e+000	-7.067155148986646e+001
1	 2.801491306476536e-001	 2.906538065291594e+000	-7.644631947582305e+001
1	 5.726829504714950e-001	 2.890486265977629e+000	-3.107203278468380e+001
1	 5.434719111472928e-001	 2.896120696776794e+000	-3.433780897967927e+001
1	 5.142966471681203e-001	 2.901443762724703e+000	-3.784307439478397e+001
1	 4.851616571136129e-001	 2.906457500486858e+000	-4.160100317973640e+001
1	 4.560713697928022e-001	 2.911164023441680e+000	-4.562457904778434e+001
1	 4.270301429121070e-001	 2.915565519309739e+000	-4.992657774270297e+001
1	 3.980422618270485e-001	 2.919664247767075e+000	-5.451955022768512e+001
1	 3.691119383772667e-001	 2.923462538045660e+000	-5.941580660951913e+001
1	 3.402433098042760e-001	 2.926962786524052e+000	-6.462740080939747e+001
1	 3.114404377512897e-001	 2.930167454311213e+000	-7.016611598966706e+001
1	 2.827073073443562e-001	 2.933079064826362e+000	-7.604345074383323e+001
1	 5.778650739635411e-001	 2.916641849563674e+000	-3.011513159889589e+001
1	 5.483897082560818e-001	 2.922327265495393e+000	-3.338285299225198e+001
1	 5.189504416194137e-001	 2.927698499081265e+000	-3.689570425198679e+001
1	 4.895518133401608e-001	 2.932757605416278e+000	-4.066745181288922e+001
1	 4.601982923030000e-001	 2.937506717002495e+000	-4.471165757015998e+001
1	 4.308942756465977e-001	 2.941948041356846e+000	-4.904166038683670e+001
1	 4.016440875040310e-001	 2.946083858602847e+000	-5.367055837372070e+001
1	 3.724519778272609e-001	 2.949916519049338e+000	-5.861119195565298e+001
1	 3.433221212950947e-001	 2.953448440759354e+000	-6.387612773578359e+001
1	 3.142586163039616e-001	 2.956682107112062e+000	-6.947764316731599e+001
1	 2.852654840407330e-001	 2.959620064360732e+000	-7.542771204008064e+001
1	 5.830471974552516e-001	 2.942797433150047e+000	-2.914050753619823e+001
1	 5.533075053645181e-001	 2.948533834214270e+000	-3.239896833589695e+001
1	 5.236042360703406e-001	 2.953953235438047e+000	-3.590684575379723e+001
1	 4.939419695663320e-001	 2.959057710345844e+000	-3.967831552254452e+001
1	 4.643252148128148e-001	 2.963849410563381e+000	-4.372733611295995e+001
1	 4.347584083807031e-001	 2.968330563403949e+000	-4.806762954806919e+001
1	 4.052459131806289e-001	 2.972503469438534e+000	-5.271266303125103e+001
1	 3.757920172768744e-001	 2.976370500052862e+000	-5.767563140253762e+001
1	 3.464009327855405e-001	 2.979934094994439e+000	-6.296944043479171e+001
1	 3.170767948562713e-001	 2.983196759912645e+000	-6.860669097921759e+001
1	 2.878236607367615e-001	 2.986161063894799e+000	-7.459966396744459e+001
1	 5.882293209465432e-001	 2.968953016736668e+000	-2.814866470954125e+001
1	 5.582253024725135e-001	 2.974740402933362e+000	-3.138672411081319e+001
1	 5.282580305208096e-001	 2.980207971794995e+000	-3.487710579999057e+001
1	 4.983321257920345e-001	 2.985357815275526e+000	-3.863421696791561e+001
1	 4.684521373221553e-001	 2.990192104124325e+000	-4.267223617179576e+001
1	 4.386225411143345e-001	 2.994713085451048e+000	-4.700509371793477e+001
1	 4.088477388567599e-001	 2.998923080274164e+000	-5.164645289132174e+001
1	 3.791320567260345e-001	 3.002824481056273e+000	-5.660969204604746e+001
1	 3.494797442755527e-001	 3.006419749229364e+000	-6.190788756813998e+001
1	 3.198949734081747e-001	 3.009711412713036e+000	-6.755379772006265e+001
1	 2.903818374324179e-001	 3.012702063428656e+000	-7.355984737383386e+001
1	 5.934114444373317e-001	 2.995108600323453e+000	-2.714008962267138e+001
1	 5.631430995799795e-001	 3.000946971652601e+000	-3.034666953792106e+001
1	 5.329118249707298e-001	 3.006462708152062e+000	-3.380707009068448e+001
1	 5.027222820171757e-001	 3.011657920205289e+000	-3.753575705806389e+001
1	 4.725790598309299e-001	 3.016534797685309e+000	-4.154695753277248e+001
1	 4.424866738474040e-001	 3.021095607498148e+000	-4.585464013270856e+001
1	 4.124495645323420e-001	 3.025342691109753e+000	-5.047249608137165e+001
1	 3.824720961746682e-001	 3.029278462059609e+000	-5.541392117279225e+001
1	 3.525585557650715e-001	 3.032905403464190e+000	-6.069199863220737e+001
1	 3.227131519596281e-001	 3.036226065513310e+000	-6.631948288133599e+001
1	 2.929400141276792e-001	 3.039243062962394e+000	-7.230878421476569e+001
1	 5.985935679275339e-001	 3.021264183910321e+000	-2.611525193236004e+001
1	 5.680608966868284e-001	 3.027153540371921e+000	-2.927933481935460e+001
1	 5.375656194200102e-001	 3.032717444509198e+000	-3.269730404398378e+001
1	 5.071124382416632e-001	 3.037958025135104e+000	-3.638351589337267e+001
1	 4.767059823390474e-001	 3.042877491246323e+000	-4.035207921220412e+001
1	 4.463508065798235e-001	 3.047478129545251e+000	-4.461683569345772e+001
1	 4.160513902072929e-001	 3.051762301945324e+000	-4.919134105534607e+001
1	 3.858121356227026e-001	 3.055732443062912e+000	-5.408884711757866e+001
1	 3.556373672540364e-001	 3.059391057698973e+000	-5.932228478762228e+001
1	 3.255313305105878e-001	 3.062740718313544e+000	-6.490424796522805e+001
1	 2.954981908225223e-001	 3.065784062496107e+000	-7.084697837113808e+001
1	 6.037756914170657e-001	 3.047419767497193e+000	-2.507460517138060e+001
1	 5.729786937929718e-001	 3.053360109091257e+000	-2.818523195463927e+001
1	 5.422194138685594e-001	 3.058972180866353e+000	-3.154835366636974e+001
1	 5.115025944654048e-001	 3.064258130064935e+000	-3.517805365853776e+001
1	 4.808329048464157e-001	 3.069220184807347e+000	-3.908816034793488e+001
1	 4.502149393115045e-001	 3.073860651592361e+000	-4.329222783871440e+001
1	 4.196532158815305e-001	 3.078181912780898e+000	-4.780351743797133e+001
1	 3.891521750700649e-001	 3.082186424066220e+000	-5.263498007671436e+001
1	 3.587161787423874e-001	 3.085876711933772e+000	-5.779923964612948e+001
1	 3.283495090610099e-001	 3.089255371113814e+000	-6.330857725663487e+001
1	 2.980563675169238e-001	 3.092325062029892e+000	-6.917491642489087e+001
1	 6.089578149058431e-001	 3.073575351083983e+000	-2.401858743457054e+001
1	 5.778964908983216e-001	 3.079566677810540e+000	-2.706485551519770e+001
1	 5.468732083162867e-001	 3.085226917223479e+000	-3.036074637864812e+001
1	 5.158927506883084e-001	 3.090558234994752e+000	-3.391991146996326e+001
1	 4.849598273529440e-001	 3.095562878368370e+000	-3.775574104515133e+001
1	 4.540790720423593e-001	 3.100243173639482e+000	-4.188134537258980e+001
1	 4.232550415549730e-001	 3.104601523616498e+000	-4.630953682592268e+001
1	 3.924922145166819e-001	 3.108640405069572e+000	-5.105281287978614e+001
1	 3.617949902300640e-001	 3.112362366168643e+000	-5.612334001727943e+001
1	 3.311676876108508e-001	 3.115770023914197e+000	-6.153293855573846e+001
1	 3.006145442108607e-001	 3.118866061563839e+000	-6.729306839506101e+001
1	 2.750327772533645e-001	 2.853456066220491e+000	-7.661110032570529e+001
1	 2.471471351279563e-001	 2.856006409498290e+000	-8.238889931163213e+001
1	 2.193369495812531e-001	 2.858276650234000e+000	-8.846392583791103e+001
1	 1.916059273113746e-001	 2.860269412912185e+000	-9.483844482303950e+001
1	 1.639576959960275e-001	 2.861987373296846e+000	-1.015146168800017e+002
1	 1.363958037885802e-001	 2.863433256073065e+000	-1.084944977722390e+002
1	 1.089237188885891e-001	 2.864609832501104e+000	-1.157800379792106e+002
1	 8.154482918534663e-002	 2.865519918085287e+000	-1.233730823701809e+002
1	 5.426244197296083e-002	 2.866166370259814e+000	-1.312753699846942e+002
1	 2.707978373541613e-002	 2.866552086093679e+000	-1.394885339180447e+002
1	 0.000000000000000e+000	 2.866680000016666e+000	-1.480141013098941e+002
1	 2.775909539506486e-001	 2.879997065756335e+000	-7.663573696792722e+001
1	 2.494459376495118e-001	 2.882571130674752e+000	-8.259561910839075e+001
1	 2.213770797753014e-001	 2.884862487718647e+000	-8.887464482773180e+001
1	 1.933881215034428e-001	 2.886873785783859e+000	-9.547692293365661e+001
1	 1.654827242539523e-001	 2.888607725522634e+000	-1.024064110172753e+002
1	 1.376644691828235e-001	 2.890067056963326e+000	-1.096669129734541e+002
1	 1.099368567485598e-001	 2.891254577142689e+000	-1.172620767615445e+002
1	 8.230330635240611e-002	 2.892173127753059e+000	-1.251953924044035e+002
1	 5.476715605077925e-002	 2.892825592806658e+000	-1.334701902231894e+002
1	 2.733166233832862e-002	 2.893214896319162e+000	-1.420896393050105e+002
1	 0.000000000000000e+000	 2.893344000014533e+000	-1.510567462001177e+002
1	 2.801491306476536e-001	 2.906538065291594e+000	-7.644631947582305e+001
1	 2.517447401707313e-001	 2.909135851850559e+000	-8.255546802938292e+001
1	 2.234172099689544e-001	 2.911448325202585e+000	-8.900254624006442e+001
1	 1.951703156950626e-001	 2.913478158654786e+000	-9.579334520032762e+001
1	 1.670077525113893e-001	 2.915228077747647e+000	-1.029334620625931e+002
1	 1.389331345765616e-001	 2.916700857852796e+000	-1.104282957554849e+002
1	 1.109499946080371e-001	 2.917899321783473e+000	-1.182830430614848e+002
1	 8.306178351902145e-002	 2.918826337420027e+000	-1.265026950532641e+002
1	 5.527187012824718e-002	 2.919484815352702e+000	-1.350920338852943e+002
1	 2.758354094103625e-002	 2.919877706543843e+000	-1.440556299366892e+002
1	 0.000000000000000e+000	 2.920008000011599e+000	-1.533978393006426e+002
1	 2.827073073443562e-001	 2.933079064826362e+000	-7.604345074383323e+001
1	 2.540435426916159e-001	 2.935700573025820e+000	-8.226907937223704e+001
1	 2.254573401622399e-001	 2.938034162685941e+000	-8.884833417256481e+001
1	 1.969525098862872e-001	 2.940082531525106e+000	-9.578853175596765e+001
1	 1.685327807684142e-001	 2.941848429972040e+000	-1.030967561782924e+002
1	 1.402017999698863e-001	 2.943334658741643e+000	-1.107798529812776e+002
1	 1.119631324671211e-001	 2.944544066423636e+000	-1.188444237065961e+002
1	 8.382026068528964e-002	 2.945479547086380e+000	-1.272968208794407e+002
1	 5.577658420544564e-002	 2.946144037898136e+000	-1.361431434574546e+002
1	 2.783541954358854e-002	 2.946540516767923e+000	-1.453892327399592e+002
1	 0.000000000000000e+000	 2.946672000008066e+000	-1.550406687316225e+002
1	 2.852654840407330e-001	 2.959620064360732e+000	-7.542771204008064e+001
1	 2.563423452121673e-001	 2.962265294200649e+000	-8.173706371767878e+001
1	 2.274974703551856e-001	 2.964620000168841e+000	-8.841268746633448e+001
1	 1.987347040771700e-001	 2.966686904394960e+000	-9.546327331466078e+001
1	 1.700578090251024e-001	 2.968468782195969e+000	-1.028972441522721e+002
1	 1.414704653628895e-001	 2.969968459630035e+000	-1.107227482226328e+002
1	 1.129762703259115e-001	 2.971188811063356e+000	-1.189476521907417e+002
1	 8.457873785130782e-002	 2.972132756752305e+000	-1.275795347818507e+002
1	 5.628129828245580e-002	 2.972803260443156e+000	-1.366256809863148e+002
1	 2.808729814603493e-002	 2.973203326991598e+000	-1.460930768246234e+002
1	 0.000000000000000e+000	 2.973336000004133e+000	-1.559884046656708e+002
1	 2.878236607367615e-001	 2.986161063894799e+000	-7.459966396744459e+001
1	 2.586411477323866e-001	 2.988830015375152e+000	-8.096000993907082e+001
1	 2.295376005478193e-001	 2.991205837651410e+000	-8.769626082832168e+001
1	 2.005168982677644e-001	 2.993291277264493e+000	-9.481833247903265e+001
1	 1.715828372815295e-001	 2.995089134419591e+000	-1.023358429700317e+002
1	 1.427391307556633e-001	 2.996602260518139e+000	-1.102581036840619e+002
1	 1.139894081845085e-001	 2.997833555702813e+000	-1.185941110442299e+002
1	 8.533721501717312e-002	 2.998785966417991e+000	-1.273525389137494e+002
1	 5.678601235935869e-002	 2.999462482987957e+000	-1.365417316534640e+002
1	 2.833917674842496e-002	 2.999866137215068e+000	-1.461696978304009e+002
1	 0.000000000000000e+000	 3.000000000000000e+000	-1.562441045694522e+002
1	 2.903818374324179e-001	 3.012702063428656e+000	-7.355984737383386e+001
1	 2.609399502522751e-001	 3.015394736549441e+000	-7.993848615858980e+001
1	 2.315777307401687e-001	 3.017791675133779e+000	-8.669968589439448e+001
1	 2.022990924581236e-001	 3.019895650133845e+000	-9.385444497851795e+001
1	 1.731078655377712e-001	 3.021709486643062e+000	-1.014134373036164e+002
1	 1.440077961482993e-001	 3.023236061406127e+000	-1.093870020249549e+002
1	 1.150025460430117e-001	 3.024478300342188e+000	-1.177851340786833e+002
1	 8.609569218298260e-002	 3.025439176083625e+000	-1.266174754465811e+002
1	 5.729072643623540e-002	 3.026121705532733e+000	-1.358933071612256e+002
1	 2.859105535080810e-002	 3.026528947438530e+000	-1.456215420441460e+002
1	 0.000000000000000e+000	 3.026663999995867e+000	-1.558107181682141e+002
1	 2.929400141276792e-001	 3.039243062962394e+000	-7.230878421476569e+001
1	 2.632387527718345e-001	 3.041959457723628e+000	-7.867304065330231e+001
1	 2.336178609322615e-001	 3.044377512616071e+000	-8.542357223671263e+001
1	 2.040812866483010e-001	 3.046500023003159e+000	-9.257232084274621e+001
1	 1.746328937939027e-001	 3.048329838866538e+000	-1.001308809225452e+002
1	 1.452764615408896e-001	 3.049869862294165e+000	-1.081104880862697e+002
1	 1.160156839015212e-001	 3.051123044981657e+000	-1.165220085142815e+002
1	 8.685416934883342e-002	 3.052092385749397e+000	-1.253759291890144e+002
1	 5.779544051316703e-002	 3.052780928077678e+000	-1.346823489410440e+002
1	 2.884293395323386e-002	 3.053191757662185e+000	-1.444509703013366e+002
1	 0.000000000000000e+000	 3.053327999991933e+000	-1.546910921501915e+002
1	 2.954981908225223e-001	 3.065784062496107e+000	-7.084697837113808e+001
1	 2.655375552910660e-001	 3.068524178897822e+000	-7.716420271417803e+001
1	 2.356579911241255e-001	 3.070963350098414e+000	-8.386850831877307e+001
1	 2.058634808383497e-001	 3.073104395872575e+000	-9.097264551397919e+001
1	 1.761579220499999e-001	 3.074950191090176e+000	-9.848899803145231e+001
1	 1.465451269335261e-001	 3.076503663182422e+000	-1.064295705275350e+002
1	 1.170288217601368e-001	 3.077767789621401e+000	-1.148059769965103e+002
1	 8.761264651482260e-002	 3.078745595415491e+000	-1.236294300699365e+002
1	 5.830015459023467e-002	 3.079440150622987e+000	-1.329107311952184e+002
1	 2.909481255575171e-002	 3.079854567886232e+000	-1.426602616849092e+002
1	 0.000000000000000e+000	 3.079991999988400e+000	-1.528879746266525e+002
1	 2.980563675169238e-001	 3.092325062029892e+000	-6.917491642489087e+001
1	 2.678363578099709e-001	 3.095088900072134e+000	-7.541248346086464e+001
1	 2.376981213157884e-001	 3.097549187580936e+000	-8.203506240127406e+001
1	 2.076456750283233e-001	 3.099708768742238e+000	-8.905608090226012e+001
1	 1.776829503061382e-001	 3.101570543314130e+000	-9.648858453884253e+001
1	 1.478137923263007e-001	 3.103137464071066e+000	-1.043452233795490e+002
1	 1.180419596189585e-001	 3.104412534261600e+000	-1.126382395090525e+002
1	 8.837112368104731e-002	 3.105398805082098e+000	-1.213794554935816e+002
1	 5.880486866751938e-002	 3.106099373168855e+000	-1.305802637819933e+002
1	 2.934669115841117e-002	 3.106517378110866e+000	-1.402516170336145e+002
1	 0.000000000000000e+000	 3.106655999985466e+000	-1.504040193622638e+002
1	 3.006145442108607e-001	 3.118866061563839e+000	-6.729306839506100e+001
1	 2.701351603285507e-001	 3.121653621246674e+000	-7.341837661486130e+001
1	 2.397382515072781e-001	 3.124135025063762e+000	-7.992378340172608e+001
1	 2.094278692182750e-001	 3.126313141612288e+000	-8.682326638668872e+001
1	 1.792079785623931e-001	 3.128190895538556e+000	-9.413040926106672e+001
1	 1.490824577193054e-001	 3.129771264960268e+000	-1.018583875178025e+002
1	 1.190550974780862e-001	 3.131057278902433e+000	-1.100199551890100e+002
1	 8.912960084760466e-002	 3.132052014749406e+000	-1.186274325744075e+002
1	 5.930958274510228e-002	 3.132758595715478e+000	-1.276926949533444e+002
1	 2.959856976126172e-002	 3.133180188336288e+000	-1.372271622712382e+002
1	 0.000000000000000e+000	 3.133319999983334e+000	-1.472417897894566e+002
1	 3.133319999983334e+000	 0.000000000000000e+000	 1.040623652236877e+002
1	 3.133180188336287e+000	 2.959856976126182e-002	 9.767102573370704e+001
1	 3.132758595715477e+000	 5.930958274510247e-002	 9.148831804488002e+001
1	 3.132052014749406e+000	 8.912960084760442e-002	 8.551362460402656e+001
1	 3.131057278902433e+000	 1.190550974780861e-001	 7.974626108440485e+001
1	 3.129771264960267e+000	 1.490824577193053e-001	 7.418547835108350e+001
1	 3.128190895538556e+000	 1.792079785623932e-001	 6.883046457153732e+001
1	 3.126313141612289e+000	 2.094278692182753e-001	 6.368034747110500e+001
1	 3.124135025063762e+000	 2.397382515072778e-001	 5.873419673259305e+001
1	 3.121653621246674e+000	 2.701351603285506e-001	 5.399102653894337e+001
1	 3.118866061563838e+000	 3.006145442108607e-001	 4.944979825750492e+001
1	 3.159987999982150e+000	 0.000000000000000e+000	 1.016037130736734e+002
1	 3.159846998384162e+000	 2.985048614990570e-002	 9.530767819467394e+001
1	 3.159421817546308e+000	 5.981437253772166e-002	 8.921858331042932e+001
1	 3.158709222798846e+000	 8.988819179751430e-002	 8.333591656703882e+001
1	 3.157706020655442e+000	 1.200683873234670e-001	 7.765909010473433e+001
1	 3.156409061319833e+000	 1.503513134314466e-001	 7.218744175268043e+001
1	 3.154815241215753e+000	 1.807332355959375e-001	 6.692023687795754e+001
1	 3.152921505537872e+000	 2.112103307641125e-001	 6.185667038914724e+001
1	 3.150724850821439e+000	 2.417786877487557e-001	 5.699586889458864e+001
1	 3.148222327528215e+000	 2.724343077016803e-001	 5.233689301501018e+001
1	 3.145411042646106e+000	 3.031731046692103e-001	 4.787873984986731e+001
1	 3.186655999981866e+000	 0.000000000000000e+000	 9.898916834456006e+001
1	 3.186513808432925e+000	 3.010240253874214e-002	 9.280599979115320e+001
1	 3.186085039377992e+000	 6.031916233064432e-002	 8.682693791706082e+001
1	 3.185366430849083e+000	 9.064678274776808e-002	 8.105161872641106e+001
1	 3.184354762409181e+000	 1.210816771691726e-001	 7.547959454921309e+001
1	 3.183046857680052e+000	 1.516201691438456e-001	 7.011033542834954e+001
1	 3.181439586893518e+000	 1.822584926296357e-001	 6.494323066622593e+001
1	 3.179529869463931e+000	 2.129927923099749e-001	 5.997759053223754e+001
1	 3.177314676579507e+000	 2.438191239901172e-001	 5.521264813187690e+001
1	 3.174791033810060e+000	 2.747334550745508e-001	 5.064756143795226e+001
1	 3.171956023728604e+000	 3.057316651271696e-001	 4.628141548402046e+001
1	 3.213323999982383e+000	 0.000000000000000e+000	 9.622465308947808e+001
1	 3.213180618482476e+000	 3.035431892772296e-002	 9.017149685857062e+001
1	 3.212748261210434e+000	 6.082395212379461e-002	 8.431849474820125e+001
1	 3.212023638900032e+000	 9.140537369827975e-002	 7.866547152666453e+001
1	 3.211003504163571e+000	 1.220949670151219e-001	 7.321216215560141e+001
1	 3.209684654040851e+000	 1.528890248564378e-001	 6.795821283242329e+001
1	 3.208063932571784e+000	 1.837837496634492e-001	 6.290318219442360e+001
1	 3.206138233390415e+000	 2.147752538558561e-001	 5.804654268644339e+001
1	 3.203904502337919e+000	 2.458595602313912e-001	 5.338768209364069e+001
1	 3.201359740092178e+000	 2.770326024472273e-001	 4.892590524057420e+001
1	 3.198501004811306e+000	 3.082902255848360e-001	 4.466043585746475e+001
1	 3.239991999983599e+000	 0.000000000000000e+000	 9.331589438660073e+001
1	 3.239847428532718e+000	 3.060623531680004e-002	 8.740949444429846e+001
1	 3.239411483043539e+000	 6.132874191709668e-002	 8.169819835306079e+001
1	 3.238680846951603e+000	 9.216396464896334e-002	 7.618205934011412e+001
1	 3.237652245918530e+000	 1.231082568612335e-001	 7.086103620181083e+001
1	 3.236322450402155e+000	 1.541578805691587e-001	 6.573499396518089e+001
1	 3.234688278250491e+000	 1.853090066973396e-001	 6.080370470980239e+001
1	 3.232746597317268e+000	 2.165577154017499e-001	 5.606684855252943e+001
1	 3.230494328096633e+000	 2.478999964726069e-001	 5.152401479732226e+001
1	 3.227928446374532e+000	 2.793317498197739e-001	 4.717470325211257e+001
1	 3.225045985894188e+000	 3.108487860423074e-001	 4.301832571430726e+001
1	 3.266659999985416e+000	 0.000000000000000e+000	 9.026843229771842e+001
1	 3.266514238583552e+000	 3.085815170592526e-002	 8.452514370755210e+001
1	 3.266074704877213e+000	 6.183353171047463e-002	 7.897083181777452e+001
1	 3.265338055003706e+000	 9.292255559973295e-002	 7.360581683749412e+001
1	 3.264300987673976e+000	 1.241215467074265e-001	 6.843032140253153e+001
1	 3.262960246763894e+000	 1.554267362819441e-001	 6.344447082023611e+001
1	 3.261312623929575e+000	 1.868342637312685e-001	 5.864829346989712e+001
1	 3.259354961244441e+000	 2.183401769476501e-001	 5.404172136192421e+001
1	 3.257084153855605e+000	 2.499404327137935e-001	 4.962459085871036e+001
1	 3.254497152657088e+000	 2.816308971922559e-001	 4.539664355980725e+001
1	 3.251590966977224e+000	 3.134073464996811e-001	 4.135752735374635e+001
1	 3.293327999987732e+000	 0.000000000000000e+000	 8.708762744014169e+001
1	 3.293181048634878e+000	 3.111006809505051e-002	 8.152342895975924e+001
1	 3.292737926711361e+000	 6.233832150385259e-002	 7.614102330270606e+001
1	 3.291995263056253e+000	 9.368114655050250e-002	 7.094103504906380e+001
1	 3.290949729429830e+000	 1.251348365536193e-001	 6.592398951936917e+001
1	 3.289598043125996e+000	 1.566955919947295e-001	 6.109031256726119e+001
1	 3.287936969608975e+000	 1.883595207651974e-001	 5.644033051968347e+001
1	 3.285963325171877e+000	 2.201226384935503e-001	 5.197427026841854e+001
1	 3.283673979614794e+000	 2.519808689549801e-001	 4.769225951650643e+001
1	 3.281065858939814e+000	 2.839300445647379e-001	 4.359432718285598e+001
1	 3.278135948060388e+000	 3.159659069570548e-001	 3.968040396809420e+001
1	 3.319995999990449e+000	 0.000000000000000e+000	 8.377866819367441e+001
1	 3.319847858686600e+000	 3.136198448412762e-002	 7.840917436561681e+001
1	 3.319401148545888e+000	 6.284311129715468e-002	 7.321325226468488e+001
1	 3.318652471109157e+000	 9.443973750118619e-002	 6.819186713359680e+001
1	 3.317598471186008e+000	 1.261481263997311e-001	 6.334588470059975e+001
1	 3.316235839488389e+000	 1.579644477074505e-001	 5.867607048492816e+001
1	 3.314561315288624e+000	 1.898847777990878e-001	 5.418308923850074e+001
1	 3.312571689099526e+000	 2.219051000394441e-001	 4.986750452820414e+001
1	 3.310263805374155e+000	 2.540213051961959e-001	 4.572977846292601e+001
1	 3.307634565222676e+000	 2.862291919372846e-001	 4.177027156930193e+001
1	 3.304680929143654e+000	 3.185244674145260e-001	 3.798924281992287e+001
1	 3.346663999993465e+000	 0.000000000000000e+000	 8.034657756301374e+001
1	 3.346514668738617e+000	 3.161390087310848e-002	 7.518705032376221e+001
1	 3.346064370380700e+000	 6.334790109030505e-002	 7.019185538175050e+001
1	 3.345309679162327e+000	 9.519832845169791e-002	 6.536233387154800e+001
1	 3.344247212942429e+000	 1.271614162456804e-001	 6.069972856562476e+001
1	 3.342873635850999e+000	 1.592333034200427e-001	 5.620518265800013e+001
1	 3.341185660968463e+000	 1.914100348329014e-001	 5.187973866957954e+001
1	 3.339180053027334e+000	 2.236875615853254e-001	 4.772433748006010e+001
1	 3.336853631133645e+000	 2.560617414374699e-001	 4.373981749115418e+001
1	 3.334203271505639e+000	 2.885283393099609e-001	 3.992691392573082e+001
1	 3.331225910226997e+000	 3.210830278721923e-001	 3.628625826730686e+001
1	 3.373331999996682e+000	 0.000000000000000e+000	 7.679621971464398e+001
1	 3.373181478790831e+000	 3.186581726194498e-002	 7.186157954478965e+001
1	 3.372727592215700e+000	 6.385269088322784e-002	 6.708103219686745e+001
1	 3.371966887215674e+000	 9.595691940195179e-002	 6.245632889766220e+001
1	 3.370895954699014e+000	 1.281747060913862e-001	 5.798912504825351e+001
1	 3.369511432213755e+000	 1.605021591324418e-001	 5.368097845162449e+001
1	 3.367810006648429e+000	 1.929352918665996e-001	 4.953334764420701e+001
1	 3.365788416955247e+000	 2.254700231311879e-001	 4.554759033674586e+001
1	 3.363443456893223e+000	 2.581021776788313e-001	 4.172496196979076e+001
1	 3.360771977788671e+000	 2.908274866828314e-001	 3.806661438902953e+001
1	 3.357770891310390e+000	 3.236415883301514e-001	 3.457359464556896e+001
1	 3.400000000000000e+000	 0.000000000000000e+000	 7.313230620609710e+001
1	 3.399848288843145e+000	 3.211773365058896e-002	 6.843714284322689e+001
1	 3.399390814050797e+000	 6.435748067584715e-002	 6.388485049604014e+001
1	 3.398624095269110e+000	 9.671551035186184e-002	 5.947762368732955e+001
1	 3.397544696455680e+000	 1.291879959367673e-001	 5.521756501205556e+001
1	 3.396149228576581e+000	 1.617710148445832e-001	 5.110668277506054e+001
1	 3.394434352328458e+000	 1.944605489001441e-001	 4.714688871180312e+001
1	 3.392396780883214e+000	 2.272524846770251e-001	 4.333999579796697e+001
1	 3.390033282652842e+000	 2.601426139203092e-001	 3.968771615378335e+001
1	 3.387340684071737e+000	 2.931266340559610e-001	 3.619165904887818e+001
1	 3.384315872393811e+000	 3.262001487885011e-001	 3.285332901340753e+001
1	 3.118866061563838e+000	 3.006145442108607e-001	 4.944979825750492e+001
1	 3.115770023914197e+000	 3.311676876108510e-001	 4.510111790723417e+001
1	 3.112362366168643e+000	 3.617949902300638e-001	 4.093465093303966e+001
1	 3.108640405069572e+000	 3.924922145166819e-001	 3.694981868695930e+001
1	 3.104601523616499e+000	 4.232550415549727e-001	 3.314592378774612e+001
1	 3.100243173639482e+000	 4.540790720423593e-001	 2.952215086441927e+001
1	 3.095562878368369e+000	 4.849598273529443e-001	 2.607756749342999e+001
1	 3.090558234994752e+000	 5.158927506883083e-001	 2.281112533197353e+001
1	 3.085226917223479e+000	 5.468732083162871e-001	 1.972166144959022e+001
1	 3.079566677810541e+000	 5.778964908983216e-001	 1.680789985979097e+001
1	 3.073575351083983e+000	 6.089578149058433e-001	 1.406845325301880e+001
1	 3.145411042646106e+000	 3.031731046692103e-001	 4.787873984986731e+001
1	 3.142288654310429e+000	 3.339862889291540e-001	 4.361108251111939e+001
1	 3.138851993649093e+000	 3.648742635849500e-001	 3.952281618210287e+001
1	 3.135098354567004e+000	 3.958327550185429e-001	 3.561358735061079e+001
1	 3.131025097790100e+000	 4.268574075554641e-001	 3.188291094000180e+001
1	 3.126629653460699e+000	 4.579437844502214e-001	 2.833017048103634e+001
1	 3.121909523728592e+000	 4.890873689588726e-001	 2.495461848594199e+001
1	 3.116862285334807e+000	 5.202835654996194e-001	 2.175537702858344e+001
1	 3.111485592184849e+000	 5.515277009021272e-001	 1.873143853424329e+001
1	 3.105777177908167e+000	 5.828150257461737e-001	 1.588166678212896e+001
1	 3.099734858400542e+000	 6.141407157900874e-001	 1.320479812330738e+001
1	 3.171956023728604e+000	 3.057316651271696e-001	 4.628141548402047e+001
1	 3.168807284706830e+000	 3.368048902469569e-001	 4.210295793683989e+001
1	 3.165341621129662e+000	 3.679535369392486e-001	 3.810030695960144e+001
1	 3.161556304064507e+000	 3.991732955197488e-001	 3.427336289575895e+001
1	 3.157448671963742e+000	 4.304597735552531e-001	 3.062188269883501e+001
1	 3.153016133281928e+000	 4.618084968573515e-001	 2.714547949912801e+001
1	 3.148256169088800e+000	 4.932149105640555e-001	 2.384362237881828e+001
1	 3.143166335674824e+000	 5.246743803101855e-001	 2.071563636069644e+001
1	 3.137744267146154e+000	 5.561821934872367e-001	 1.776070261539129e+001
1	 3.131987678005701e+000	 5.877335605933205e-001	 1.497785889160502e+001
1	 3.125894365716972e+000	 6.193236166736610e-001	 1.236600017347000e+001
1	 3.198501004811306e+000	 3.082902255848360e-001	 4.466043585746474e+001
1	 3.195325915103382e+000	 3.396234915643845e-001	 4.057910543795902e+001
1	 3.191831248610334e+000	 3.710328102931060e-001	 3.666925053425691e+001
1	 3.188014253562082e+000	 4.025138360204639e-001	 3.293105324490749e+001
1	 3.183872246137423e+000	 4.340621395545155e-001	 2.936454143910736e+001
1	 3.179402613103171e+000	 4.656732092639323e-001	 2.596958768523745e+001
1	 3.174602814449003e+000	 4.973424521686788e-001	 2.274590839155933e+001
1	 3.169470386014815e+000	 5.290651951201936e-001	 1.969306316564139e+001
1	 3.164002942107412e+000	 5.608366860717980e-001	 1.681045439877339e+001
1	 3.158198178103163e+000	 5.926520954399380e-001	 1.409732708128355e+001
1	 3.152053873033303e+000	 6.245065175567317e-001	 1.155276885430457e+001
1	 3.225045985894188e+000	 3.108487860423074e-001	 4.301832571430726e+001
1	 3.221844545500062e+000	 3.424420928815619e-001	 3.904180852722281e+001
1	 3.218320876091100e+000	 3.741120836466697e-001	 3.523170413758116e+001
1	 3.214472203059718e+000	 4.058543765208516e-001	 3.158850350500316e+001
1	 3.210295820311139e+000	 4.376645055534267e-001	 2.811253348747808e+001
1	 3.205789092924430e+000	 4.695379216701471e-001	 2.480395509905237e+001
1	 3.200949459809202e+000	 5.014699937729293e-001	 2.166276198105732e+001
1	 3.195774436354789e+000	 5.334560099298289e-001	 1.868877909479881e+001
1	 3.190261617068639e+000	 5.654911786559939e-001	 1.588166164335506e+001
1	 3.184408678200579e+000	 5.975706302862023e-001	 1.324089422981839e+001
1	 3.178213380349571e+000	 6.296894184394666e-001	 1.076579025897858e+001
1	 3.251590966977224e+000	 3.134073464996811e-001	 4.135752735374634e+001
1	 3.248363175896857e+000	 3.452606941986143e-001	 3.749327614981941e+001
1	 3.244810503571942e+000	 3.771913570000863e-001	 3.378965782268664e+001
1	 3.240930152557404e+000	 4.091949170210756e-001	 3.024749853146914e+001
1	 3.236719394484887e+000	 4.412668715521624e-001	 2.686745141020496e+001
1	 3.232175572745705e+000	 4.734026340761792e-001	 2.364999412236165e+001
1	 3.227296105169404e+000	 5.055975353769933e-001	 2.059542662791750e+001
1	 3.222078486694756e+000	 5.378468247392779e-001	 1.770386917229174e+001
1	 3.216520292029850e+000	 5.701456712400072e-001	 1.497526050616429e+001
1	 3.210619178297972e+000	 6.024891651322905e-001	 1.240935634495770e+001
1	 3.204372887665806e+000	 6.348723193220344e-001	 1.000572807645111e+001
1	 3.278135948060388e+000	 3.159659069570548e-001	 3.968040396809420e+001
1	 3.274881806293744e+000	 3.480792955156667e-001	 3.593564570246424e+001
1	 3.271300131052852e+000	 3.802706303535028e-001	 3.234503718419988e+001
1	 3.267388102055136e+000	 4.125354575212996e-001	 2.890976536766380e+001
1	 3.263142968658663e+000	 4.448692375508979e-001	 2.563083618979096e+001
1	 3.258562052566994e+000	 4.772673464822108e-001	 2.250907138943412e+001
1	 3.253642750529617e+000	 5.097250769810574e-001	 1.954510553599075e+001
1	 3.248382537034727e+000	 5.422376395487271e-001	 1.673938327794725e+001
1	 3.242778966991063e+000	 5.748001638240202e-001	 1.409215682178803e+001
1	 3.236829678395365e+000	 6.074076999783786e-001	 1.160348365149094e+001
1	 3.230532394982041e+000	 6.400552202046016e-001	 9.273224498572489e+000
1	 3.304680929143654e+000	 3.185244674145260e-001	 3.798924281992287e+001
1	 3.301400436690708e+000	 3.508978968328442e-001	 3.437098590697972e+001
1	 3.297789758533816e+000	 3.833499037070663e-001	 3.089970594708790e+001
1	 3.293846051552904e+000	 4.158759980216872e-001	 2.757697556676905e+001
1	 3.289566542832464e+000	 4.484716035498091e-001	 2.440417929672649e+001
1	 3.284948532388303e+000	 4.811320588884258e-001	 2.138250962436229e+001
1	 3.279989395889841e+000	 5.138526185853077e-001	 1.851296324999658e+001
1	 3.274686587374711e+000	 5.466284543583624e-001	 1.579633755878612e+001
1	 3.269037641952293e+000	 5.794546564082163e-001	 1.323322732020315e+001
1	 3.263040178492782e+000	 6.123262348246432e-001	 1.082402162676171e+001
1	 3.256691902298309e+000	 6.452381210873367e-001	 8.568901083466212e+000
1	 3.331225910226997e+000	 3.210830278721923e-001	 3.628625826730686e+001
1	 3.327919067087726e+000	 3.537164981502716e-001	 3.280129954648535e+001
1	 3.324279386014817e+000	 3.864291770609236e-001	 2.945546843171008e+001
1	 3.320304001050700e+000	 4.192165385224021e-001	 2.625074740266646e+001
1	 3.315990117006285e+000	 4.520739695490713e-001	 2.318892466217995e+001
1	 3.311335012209628e+000	 4.849967712950066e-001	 2.027158939056036e+001
1	 3.306336041250085e+000	 5.179801601899309e-001	 1.750012719580555e+001
1	 3.300990637714719e+000	 5.510192691683700e-001	 1.487571577302719e+001
1	 3.295296316913555e+000	 5.841091489927772e-001	 1.239932078638158e+001
1	 3.289250678590245e+000	 6.172447696712604e-001	 1.007169198667201e+001
1	 3.282851409614640e+000	 6.504210219704071e-001	 7.893359577631128e+000
1	 3.357770891310390e+000	 3.236415883301514e-001	 3.457359464556897e+001
1	 3.354437697484784e+000	 3.565350994680742e-001	 3.122852607180191e+001
1	 3.350769013495848e+000	 3.895084504152220e-001	 2.801407190194434e+001
1	 3.346761950548515e+000	 4.225570790236078e-001	 2.493264797594422e+001
1	 3.342413691180124e+000	 4.556763355488602e-001	 2.198647055711667e+001
1	 3.337721492030971e+000	 4.888614837021363e-001	 1.917755075727810e+001
1	 3.332682686610352e+000	 5.221077017951133e-001	 1.650768914766127e+001
1	 3.327294688054763e+000	 5.554100839789362e-001	 1.397847057034183e+001
1	 3.321554991874868e+000	 5.887636415778864e-001	 1.159125916489127e+001
1	 3.315461178687778e+000	 6.221633045184065e-001	 9.347193624916645e+000
1	 3.309010916931069e+000	 6.556039228539804e-001	 7.247182699049255e+000
1	 3.384315872393811e+000	 3.262001487885011e-001	 3.285332901340754e+001
1	 3.380956327881860e+000	 3.593537007863772e-001	 2.965454408519461e+001
1	 3.377258640976893e+000	 3.925877237701081e-001	 2.657720880280776e+001
1	 3.373219900046344e+000	 4.258976195254685e-001	 2.362419522079314e+001
1	 3.368837265353978e+000	 4.592787015493513e-001	 2.079817138298425e+001
1	 3.364107971852335e+000	 4.927261961099983e-001	 1.810159488768640e+001
1	 3.359029331970650e+000	 5.262352434010416e-001	 1.553670662635319e+001
1	 3.353598738394850e+000	 5.598008987902470e-001	 1.310552471185769e+001
1	 3.347813666836249e+000	 5.934181341637267e-001	 1.080983861251371e+001
1	 3.341671678785408e+000	 6.270818393662587e-001	 8.651203508016556e+000
1	 3.335170424247629e+000	 6.607868237382245e-001	 6.630934883439036e+000
1	 3.073575351083983e+000	 6.089578149058433e-001	 1.406845325301880e+001
1	 3.067249882023707e+000	 6.400569898093638e-001	 1.146834277539574e+001
1	 3.060589150818339e+000	 6.711844230832489e-001	 8.974547251673943e+000
1	 3.053591253298464e+000	 7.023351083413045e-001	 6.587206801269876e+000
1	 3.046254376817458e+000	 7.335039713734894e-001	 4.306282466348214e+000
1	 3.038576802639415e+000	 7.646858720132437e-001	 2.131554005805902e+000
1	 3.030556908289346e+000	 7.958756060941377e-001	 6.261793091730238e-002
1	 3.022193169862039e+000	 8.270679074953229e-001	-1.901114208125970e+000
1	 3.013484164285995e+000	 8.582574502751353e-001	-3.760417275892891e+000
1	 3.004428571538802e+000	 8.894388508920191e-001	-5.516253737105541e+000
1	 2.995025176810348e+000	 9.206066705118045e-001	-7.169774565659600e+000
1	 3.099734858400542e+000	 6.141407157900874e-001	 1.320479812330738e+001
1	 3.093355552640277e+000	 6.455045788827545e-001	 1.066482683367334e+001
1	 3.086638131285181e+000	 6.768969408555950e-001	 8.227730412418360e+000
1	 3.079580673959276e+000	 7.083127527125638e-001	 5.893825715579031e+000
1	 3.072181352588336e+000	 7.397468970565123e-001	 3.663249330838707e+000
1	 3.064438433808137e+000	 7.711941899724107e-001	 1.535955084458553e+000
1	 3.056350281334656e+000	 8.026493830006506e-001	-4.882882129344009e-001
1	 3.047915358292586e+000	 8.341071651999052e-001	-2.409898771954058e+000
1	 3.039132229498539e+000	 8.655621652988897e-001	-4.229483572038130e+000
1	 3.029999563695274e+000	 8.970089539361906e-001	-5.947839841952425e+000
1	 3.020516135733327e+000	 9.284420459871778e-001	-7.565956264564194e+000
1	 3.125894365716972e+000	 6.193236166736610e-001	 1.236600017347000e+001
1	 3.119461223256674e+000	 6.509521679555176e-001	 9.888284166253452e+000
1	 3.112687111751801e+000	 6.826094586273640e-001	 7.509851313120566e+000
1	 3.105570094619815e+000	 7.142903970833028e-001	 5.231193189327586e+000
1	 3.098108328358891e+000	 7.459898227390769e-001	 3.052620616550266e+000
1	 3.090300064976482e+000	 7.777025079311872e-001	 9.742608954184651e-001
1	 3.082143654379540e+000	 8.094231599068452e-001	-1.003944726830288e+000
1	 3.073637546722665e+000	 8.411464229042439e-001	-2.882243343360847e+000
1	 3.064780294710580e+000	 8.728668803224782e-001	-4.661072419508588e+000
1	 3.055570555851222e+000	 9.045790569802747e-001	-6.341061559742622e+000
1	 3.046007094655772e+000	 9.362774214625445e-001	-7.923034000646669e+000
1	 3.152053873033303e+000	 6.245065175567317e-001	 1.155276885430457e+001
1	 3.145566893872943e+000	 6.563997570278102e-001	 9.139293969669923e+000
1	 3.138736092218256e+000	 6.883219763987002e-001	 6.821373609367846e+000
1	 3.131559515280151e+000	 7.202680414536518e-001	 4.599672080690472e+000
1	 3.124035304129199e+000	 7.522327484212990e-001	 2.474673146275010e+000
1	 3.116161696144542e+000	 7.842108258896712e-001	 4.466769946775185e-001
1	 3.107937027424103e+000	 8.161969368128006e-001	-1.484202558594333e+000
1	 3.099359735152392e+000	 8.481856806083998e-001	-3.318040628950597e+000
1	 3.090428359922246e+000	 8.801715953459420e-001	-5.055103569138242e+000
1	 3.081141548006777e+000	 9.121491600242940e-001	-6.695851014184412e+000
1	 3.071498053577817e+000	 9.441127969379057e-001	-8.240937655200987e+000
1	 3.178213380349571e+000	 6.296894184394666e-001	 1.076579025897858e+001
1	 3.171672564489124e+000	 6.618473460997888e-001	 8.418416371257370e+000
1	 3.164785072684600e+000	 6.940344941697481e-001	 6.162745691565140e+000
1	 3.157548935940349e+000	 7.262456858237404e-001	 3.999613301267736e+000
1	 3.149962279899344e+000	 7.584756741032915e-001	 1.929674628819211e+000
1	 3.142023327312415e+000	 7.907191438479604e-001	-4.659782940286576e-002
1	 3.133730400468455e+000	 8.229707137185969e-001	-1.928917563375806e+000
1	 3.125081923581885e+000	 8.552249383124343e-001	-3.717186867806282e+000
1	 3.116076425133662e+000	 8.874763103693230e-001	-5.411499413848151e+000
1	 3.106712540162070e+000	 9.197192630682695e-001	-7.012142563714681e+000
1	 3.096989012499596e+000	 9.519481724132636e-001	-8.519599418078197e+000
1	 3.204372887665806e+000	 6.348723193220344e-001	 1.000572807645111e+001
1	 3.197778235105262e+000	 6.672949351716107e-001	 7.726193207526289e+000
1	 3.190834053150890e+000	 6.997470119406513e-001	 5.534401308035799e+000
1	 3.183538356600479e+000	 7.322233301936987e-001	 3.431356303725055e+000
1	 3.175889255669407e+000	 7.647185997851698e-001	 1.417884031022188e+000
1	 3.167884958480192e+000	 7.972274618061515e-001	-5.053712798480409e-001
1	 3.159523773512700e+000	 8.297444906243137e-001	-2.337950303339904e+000
1	 3.150804112011262e+000	 8.622641960164075e-001	-4.079581687299184e+000
1	 3.141724490344950e+000	 8.947810253926620e-001	-5.730184880800674e+000
1	 3.132283532317233e+000	 9.272893661122239e-001	-7.289872710280851e+000
1	 3.122479971421242e+000	 9.597835478886196e-001	-8.758953693454734e+000
1	 3.230532394982041e+000	 6.400552202046016e-001	 9.273224498572487e+000
1	 3.223883905721403e+000	 6.727425242434327e-001	 7.063148764720287e+000
1	 3.216883033617179e+000	 7.054595297115548e-001	 4.936760157849194e+000
1	 3.209527777260608e+000	 7.382009745636572e-001	 2.895229545741878e+000
1	 3.201816231439470e+000	 7.709615254670480e-001	 9.395519316998775e-001
1	 3.193746589647970e+000	 8.037357797643429e-001	-9.294572882471612e-001
1	 3.185317146556945e+000	 8.365182675300302e-001	-2.711165857090498e+000
1	 3.176526300440638e+000	 8.693034537203809e-001	-4.405127965904326e+000
1	 3.167372555556240e+000	 9.020857404160014e-001	-6.011087328793235e+000
1	 3.157854524472395e+000	 9.348594691561776e-001	-7.528980012554328e+000
1	 3.147970930342888e+000	 9.676189233639758e-001	-8.958937010178731e+000
1	 3.256691902298309e+000	 6.452381210873367e-001	 8.568901083466212e+000
1	 3.249989576337585e+000	 6.781901133154114e-001	 6.429790483682048e+000
1	 3.242932014083523e+000	 7.111720474826022e-001	 4.370228455076289e+000
1	 3.235517197920808e+000	 7.441786189337459e-001	 2.391550931599886e+000
1	 3.227743207209616e+000	 7.772044511490409e-001	 4.949208585308137e-001
1	 3.219608220815842e+000	 8.102440977226320e-001	-1.318675764597455e+000
1	 3.211110519601295e+000	 8.432920444358265e-001	-3.048433638277847e+000
1	 3.202248488870132e+000	 8.763427114244150e-001	-4.693731702627233e+000
1	 3.193020620767656e+000	 9.093904554393821e-001	-6.254136450597206e+000
1	 3.183425516627689e+000	 9.424295722001536e-001	-7.729405003326884e+000
1	 3.173461889264666e+000	 9.754542988393339e-001	-9.119487936437334e+000
1	 3.282851409614640e+000	 6.504210219704071e-001	 7.893359577631128e+000
1	 3.276095246953852e+000	 6.836377023877039e-001	 5.826609631018604e+000
1	 3.268980994549979e+000	 7.168845652539385e-001	 3.835199466067806e+000
1	 3.261506618581141e+000	 7.501562633040946e-001	 1.920628232658076e+000
1	 3.253670182979924e+000	 7.834473768312622e-001	 8.422560883437046e-002
1	 3.245469851983902e+000	 8.167524156811156e-001	-1.672852359108601e+000
1	 3.236903892645860e+000	 8.500658213417824e-001	-3.349627222878839e+000
1	 3.227970677299860e+000	 8.833819691285709e-001	-4.945301892673861e+000
1	 3.218668685979320e+000	 9.166951704628458e-001	-6.459264179966296e+000
1	 3.208996508783244e+000	 9.499996752441726e-001	-7.891090110856400e+000
1	 3.198952848186713e+000	 9.832896743146952e-001	-9.240546998503959e+000
1	 3.309010916931069e+000	 6.556039228539804e-001	 7.247182699049256e+000
1	 3.302200917570249e+000	 6.890852914604667e-001	 5.254081938431642e+000
1	 3.295029975016599e+000	 7.225970830257074e-001	 3.332054021247442e+000
1	 3.287496039241681e+000	 7.561339076748331e-001	 1.482759487883710e+000
1	 3.279597158750476e+000	 7.896903025138271e-001	-2.923064448659422e-001
1	 3.271331483152246e+000	 8.232607336398923e-001	-1.991818235305655e+000
1	 3.262697265690743e+000	 8.568395982479766e-001	-3.614624184670022e+000
1	 3.253692865729938e+000	 8.904212268329097e-001	-5.159750409017559e+000
1	 3.244316751191362e+000	 9.239998854864342e-001	-6.626404603055512e+000
1	 3.234567500939192e+000	 9.575697782882571e-001	-8.013979583943350e+000
1	 3.224443807109157e+000	 9.911250497900616e-001	-9.322056603339352e+000
1	 3.335170424247629e+000	 6.607868237382245e-001	 6.630934883439037e+000
1	 3.328306588186820e+000	 6.945328805338576e-001	 4.712668211959493e+000
1	 3.321078955483442e+000	 7.283096007980534e-001	 2.861161002819645e+000
1	 3.313485459902493e+000	 7.621115520460923e-001	 1.078233385533662e+000
1	 3.305524134521356e+000	 7.959332281968499e-001	-6.344550636596141e-001
1	 3.297193114320970e+000	 8.297690515990592e-001	-2.275409853809486e+000
1	 3.288490638736053e+000	 8.636133751544897e-001	-3.843305938443155e+000
1	 3.279415054160485e+000	 8.974604845374922e-001	-5.336991889540067e+000
1	 3.269964816403906e+000	 9.313046005101889e-001	-6.755493874009098e+000
1	 3.260138493095666e+000	 9.651398813324287e-001	-8.098019420533367e+000
1	 3.249934766032135e+000	 9.989604252654352e-001	-9.363960964835574e+000
1	 2.995025176810348e+000	 9.206066705118045e-001	-7.169774565659600e+000
1	 2.985272871861278e+000	 9.517554169440450e-001	-8.718187009993413e+000
1	 2.975170654820722e+000	 9.828795457048585e-001	-1.015780656414641e+001
1	 2.964717634414846e+000	 1.013973463865370e+000	-1.148866167379730e+001
1	 2.953913032638836e+000	 1.045031533136540e+000	-1.271087943991156e+001
1	 2.942756186611073e+000	 1.076048072588372e+000	-1.382468664353009e+001
1	 2.931246550353865e+000	 1.107017361446401e+000	-1.483041064911721e+001
1	 2.919383696497328e+000	 1.137933641963363e+000	-1.572848018266566e+001
1	 2.907167317903020e+000	 1.168791122363753e+000	-1.651942598095865e+001
1	 2.894597229204027e+000	 1.199583979858828e+000	-1.720388130860636e+001
1	 2.881673368258283e+000	 1.230306363729441e+000	-1.778258233970528e+001
1	 3.020516135733327e+000	 9.284420459871778e-001	-7.565956264564194e+000
1	 3.010680827941015e+000	 9.598559025168252e-001	-9.080141690509855e+000
1	 3.000492629920439e+000	 9.912449318515900e-001	-1.048598562002630e+001
1	 2.989950642812039e+000	 1.022603493460617e+000	-1.178362047506043e+001
1	 2.979054081989313e+000	 1.053925901066823e+000	-1.297328431159567e+001
1	 2.967802278928781e+000	 1.085206425389242e+000	-1.405532176446631e+001
1	 2.956194683005870e+000	 1.116439296963322e+000	-1.503018485668176e+001
1	 2.944230863213302e+000	 1.147618709037034e+000	-1.589843366935205e+001
1	 2.931910509798535e+000	 1.178738820540489e+000	-1.666073686854098e+001
1	 2.919233435816973e+000	 1.209793759126601e+000	-1.731787208562554e+001
1	 2.906199578597639e+000	 1.240777624280165e+000	-1.787072614800437e+001
1	 3.046007094655772e+000	 9.362774214625445e-001	-7.923034000646669e+000
1	 3.036088784020225e+000	 9.679563880896780e-001	-9.402412602238034e+000
1	 3.025814605019650e+000	 9.996103179984717e-001	-1.077407226362733e+001
1	 3.015183651208757e+000	 1.031233523056087e+000	-1.203824456357795e+001
1	 3.004195131339357e+000	 1.062820268997393e+000	-1.319527429053000e+001
1	 2.992848371246103e+000	 1.094364778190455e+000	-1.424562032509131e+001
1	 2.981142815657544e+000	 1.125861232480630e+000	-1.518985637219440e+001
1	 2.969078029928998e+000	 1.157303776111121e+000	-1.602867153885380e+001
1	 2.956653701693830e+000	 1.188686518717651e+000	-1.676287075372582e+001
1	 2.943869642429749e+000	 1.220003538394793e+000	-1.739337502495923e+001
1	 2.930725788936877e+000	 1.251248884831276e+000	-1.792122153312682e+001
1	 3.071498053577817e+000	 9.441127969379057e-001	-8.240937655200987e+000
1	 3.061496740099039e+000	 9.760568736625853e-001	-9.684925582919203e+000
1	 3.051136580118482e+000	 1.007975704145466e+000	-1.102199937246954e+001
1	 3.040416659605120e+000	 1.039863552651724e+000	-1.225248510482940e+001
1	 3.029336180689076e+000	 1.071714636928179e+000	-1.337683023437208e+001
1	 3.017894463563138e+000	 1.103523130991923e+000	-1.439560442640620e+001
1	 3.006090948308972e+000	 1.135283167998224e+000	-1.530950022875150e+001
1	 2.993925196644493e+000	 1.166988843185512e+000	-1.611933357307682e+001
1	 2.981396893588967e+000	 1.198634216895122e+000	-1.682604410202620e+001
1	 2.968505849042415e+000	 1.230213317663281e+000	-1.743069531848444e+001
1	 2.955251999276042e+000	 1.261720145382654e+000	-1.793447455366920e+001
1	 3.096989012499596e+000	 9.519481724132636e-001	-8.519599418078197e+000
1	 3.086904696177589e+000	 9.841573592355289e-001	-9.927608911980164e+000
1	 3.076458555217060e+000	 1.016341090292535e+000	-1.122970203398412e+001
1	 3.065649668001247e+000	 1.048493582247471e+000	-1.242629487210130e+001
1	 3.054477230038581e+000	 1.080609004859105e+000	-1.351793363101480e+001
1	 3.042940555879987e+000	 1.112681483793558e+000	-1.450529544177033e+001
1	 3.031039080960242e+000	 1.144705103516002e+000	-1.538918898909594e+001
1	 3.018772363359863e+000	 1.176673910260096e+000	-1.617055495181321e+001
1	 3.006140085484014e+000	 1.208581915072786e+000	-1.685046625214543e+001
1	 2.993142055655025e+000	 1.240423096931949e+000	-1.743012811008228e+001
1	 2.979778209615191e+000	 1.272191405934185e+000	-1.791087789934274e+001
1	 3.122479971421242e+000	 9.597835478886196e-001	-8.758953693454734e+000
1	 3.112312652256008e+000	 9.922578448084910e-001	-1.013039321086709e+001
1	 3.101780530315512e+000	 1.024706476439641e+000	-1.139711745530811e+001
1	 3.090882676397256e+000	 1.057123611843272e+000	-1.255962818085872e+001
1	 3.079618279387981e+000	 1.089503372790100e+000	-1.361856657286075e+001
1	 3.067986648196746e+000	 1.121839836595270e+000	-1.457471404660257e+001
1	 3.055987213611441e+000	 1.154127039033863e+000	-1.542899284645242e+001
1	 3.043619530075186e+000	 1.186358977334763e+000	-1.618246644059220e+001
1	 3.030883277379037e+000	 1.218529613250524e+000	-1.683633970688214e+001
1	 3.017778262267638e+000	 1.250632876200675e+000	-1.739195890578155e+001
1	 3.004304419954370e+000	 1.282662666485751e+000	-1.785081143667026e+001
1	 3.147970930342888e+000	 9.676189233639758e-001	-8.958937010178731e+000
1	 3.137720608334429e+000	 1.000358330381453e+000	-1.029321134822205e+001
1	 3.127102505413965e+000	 1.033071862586746e+000	-1.152418487746168e+001
1	 3.116115684793268e+000	 1.065753641439071e+000	-1.265244082630530e+001
1	 3.104759328737387e+000	 1.098397740721089e+000	-1.367871173234683e+001
1	 3.093032740513514e+000	 1.130998189396973e+000	-1.460388024663882e+001
1	 3.080935346262661e+000	 1.163548974551708e+000	-1.542897972046458e+001
1	 3.068466696790536e+000	 1.196044044409403e+000	-1.615519456940428e+001
1	 3.055626469274102e+000	 1.228477311428221e+000	-1.678386040990193e+001
1	 3.042414468880311e+000	 1.260842655469342e+000	-1.731646396397515e+001
1	 3.028830630293633e+000	 1.293133927037236e+000	-1.775464272817058e+001
1	 3.173461889264666e+000	 9.754542988393339e-001	-9.119487936437334e+000
1	 3.163128564412980e+000	 1.008458815954396e+000	-1.041599834962918e+001
1	 3.152424480512546e+000	 1.041437248733814e+000	-1.161084549366158e+001
1	 3.141348693189401e+000	 1.074383671034812e+000	-1.270469002395259e+001
1	 3.129900378086907e+000	 1.107292108652000e+000	-1.369835233864803e+001
1	 3.118078832830393e+000	 1.140156542198578e+000	-1.459281340482828e+001
1	 3.105883478913983e+000	 1.172970910069433e+000	-1.538921534850751e+001
1	 3.093313863505990e+000	 1.205729111483904e+000	-1.608886180281165e+001
1	 3.080369661169276e+000	 1.238425009605759e+000	-1.669321800916947e+001
1	 3.067050675493100e+000	 1.271052434737831e+000	-1.720391066683021e+001
1	 3.053356840633026e+000	 1.303605187588521e+000	-1.762272752652049e+001
1	 3.198952848186713e+000	 9.832896743146952e-001	-9.240546998503959e+000
1	 3.188536520491794e+000	 1.016559301527303e+000	-1.049869131167621e+001
1	 3.177746455611380e+000	 1.049802634880804e+000	-1.165704237154028e+001
1	 3.166581701585774e+000	 1.083013700630437e+000	-1.271633435303113e+001
1	 3.155041427436653e+000	 1.116186476582760e+000	-1.367747215549531e+001
1	 3.143124925147479e+000	 1.149314894999995e+000	-1.454153226694339e+001
1	 3.130831611565499e+000	 1.182392845586940e+000	-1.530976337263521e+001
1	 3.118161030221624e+000	 1.215414178558155e+000	-1.598358670192553e+001
1	 3.105112853064621e+000	 1.248372707783021e+000	-1.656459610778599e+001
1	 3.091686882106064e+000	 1.281262214006022e+000	-1.705455787394023e+001
1	 3.077883050972603e+000	 1.314076448139491e+000	-1.745541024509016e+001
1	 3.224443807109157e+000	 9.911250497900616e-001	-9.322056603339352e+000
1	 3.213944476571005e+000	 1.024659787100156e+000	-1.054122932009230e+001
1	 3.203068430710595e+000	 1.058168021027681e+000	-1.166272037905422e+001
1	 3.191814709982509e+000	 1.091643730225893e+000	-1.268733370258548e+001
1	 3.180182476786732e+000	 1.125080844513294e+000	-1.361605546004556e+001
1	 3.168171017464872e+000	 1.158473247801137e+000	-1.445005498597517e+001
1	 3.155779744217294e+000	 1.191814781104125e+000	-1.519068542240327e+001
1	 3.143008196937515e+000	 1.225099245632047e+000	-1.583948407870024e+001
1	 3.129856044960206e+000	 1.258320405959892e+000	-1.639817250292848e+001
1	 3.116323088719257e+000	 1.291471993273796e+000	-1.686865625920268e+001
1	 3.102409261312411e+000	 1.324547708690029e+000	-1.725302440615984e+001
1	 3.249934766032135e+000	 9.989604252654352e-001	-9.363960964835574e+000
1	 3.239352432650741e+000	 1.032760272672935e+000	-1.054355337173850e+001
1	 3.228390405810319e+000	 1.066533407174408e+000	-1.162782611387942e+001
1	 3.217047718379721e+000	 1.100273759821121e+000	-1.261764922010608e+001
1	 3.205323526137257e+000	 1.133975212443531e+000	-1.351408702274597e+001
1	 3.193217109782673e+000	 1.167631600601917e+000	-1.431839914538051e+001
1	 3.180727876869459e+000	 1.201236716620890e+000	-1.503204119379413e+001
1	 3.167855363653740e+000	 1.234784312705469e+000	-1.565666514296611e+001
1	 3.154599236856098e+000	 1.268268104136253e+000	-1.619411941354424e+001
1	 3.140959295332737e+000	 1.301681772541035e+000	-1.664644863184272e+001
1	 3.126935471652506e+000	 1.335018969240017e+000	-1.701589306804261e+001
1	 2.881673368258283e+000	 1.230306363729441e+000	-1.778258233970528e+001
1	 2.868397815937404e+000	 1.260947808074110e+000	-1.827315097371520e+001
1	 2.854768850366804e+000	 1.291507033333439e+000	-1.869398710372215e+001
1	 2.840786788950488e+000	 1.321978128413373e+000	-1.904699213794551e+001
1	 2.826452077113804e+000	 1.352355167314767e+000	-1.933427721982533e+001
1	 2.811765289274062e+000	 1.382632212507475e+000	-1.955816237691725e+001
1	 2.796727129707190e+000	 1.412803318353237e+000	-1.972117530719560e+001
1	 2.781338433307961e+000	 1.442862534573747e+000	-1.982604979957272e+001
1	 2.765600166241469e+000	 1.472803909760124e+000	-1.987572378628573e+001
1	 2.749513426483720e+000	 1.502621494919891e+000	-1.987333702566870e+001
1	 2.733079444249319e+000	 1.532309347057451e+000	-1.982222841471418e+001
1	 2.906199578597639e+000	 1.240777624280165e+000	-1.787072614800436e+001
1	 2.892811036722654e+000	 1.271679861023362e+000	-1.833806092710517e+001
1	 2.879066073662390e+000	 1.302499178906338e+000	-1.873921039767266e+001
1	 2.864965009522325e+000	 1.333229616525127e+000	-1.907592694152233e+001
1	 2.850508293518875e+000	 1.363865197443818e+000	-1.935016378835261e+001
1	 2.835696504958288e+000	 1.394399933597353e+000	-1.956407429782185e+001
1	 2.820530354110670e+000	 1.424827828743552e+000	-1.972001089530226e+001
1	 2.805010682976677e+000	 1.455142881960698e+000	-1.982052365807095e+001
1	 2.789138465944542e+000	 1.485339091186876e+000	-1.986835854950073e+001
1	 2.772914810335272e+000	 1.515410456797143e+000	-1.986645529963955e+001
1	 2.756340956833962e+000	 1.545350985214473e+000	-1.981794493141285e+001
1	 2.930725788936877e+000	 1.251248884831276e+000	-1.792122153312682e+001
1	 2.917224257507826e+000	 1.282411913972944e+000	-1.836618749071889e+001
1	 2.903363296957934e+000	 1.313491324479491e+000	-1.874841502213702e+001
1	 2.889143230094150e+000	 1.344481104637046e+000	-1.906950475182286e+001
1	 2.874564509923965e+000	 1.375375227572934e+000	-1.933124847347685e+001
1	 2.859627720642560e+000	 1.406167654687189e+000	-1.953562856480752e+001
1	 2.844333578514223e+000	 1.436852339133718e+000	-1.968481707371090e+001
1	 2.828682932645491e+000	 1.467423229347397e+000	-1.978117447261314e+001
1	 2.812676765647745e+000	 1.497874272613284e+000	-1.982724807846947e+001
1	 2.796316194186986e+000	 1.528199418673973e+000	-1.982577013669292e+001
1	 2.779602469418804e+000	 1.558392623371014e+000	-1.977965556808696e+001
1	 2.955251999276042e+000	 1.261720145382654e+000	-1.793447455366920e+001
1	 2.941637478292966e+000	 1.293143966922747e+000	-1.835803736219040e+001
1	 2.927660520253484e+000	 1.324483470052802e+000	-1.872219574631299e+001
1	 2.913321450666013e+000	 1.355732592749046e+000	-1.902839593500923e+001
1	 2.898620726329122e+000	 1.386885257702045e+000	-1.927826486855962e+001
1	 2.883558936326928e+000	 1.417935375776930e+000	-1.947360974549635e+001
1	 2.868136802917897e+000	 1.448876849523699e+000	-1.961641726019776e+001
1	 2.852355182314455e+000	 1.479703576733827e+000	-1.970885252786272e+001
1	 2.836215065351123e+000	 1.510409454039345e+000	-1.975325769430494e+001
1	 2.819717578038901e+000	 1.540988380550389e+000	-1.975215022873939e+001
1	 2.802863982003876e+000	 1.571434261527091e+000	-1.970822089848651e+001
1	 2.979778209615191e+000	 1.272191405934185e+000	-1.791087789934274e+001
1	 2.966050699078124e+000	 1.303876019872661e+000	-1.831410055687453e+001
1	 2.951957743549081e+000	 1.335475615626169e+000	-1.866112775749181e+001
1	 2.937499671237958e+000	 1.366984080861041e+000	-1.895324878641749e+001
1	 2.922676942734390e+000	 1.398395287831081e+000	-1.919192241447342e+001
1	 2.907490152011438e+000	 1.429703096866527e+000	-1.937877657676826e+001
1	 2.891940027321741e+000	 1.460901359913464e+000	-1.951560776271250e+001
1	 2.876027431983614e+000	 1.491983924119971e+000	-1.960438011410382e+001
1	 2.859753365054722e+000	 1.522944635465056e+000	-1.964722422868766e+001
1	 2.843118961891063e+000	 1.553777342426399e+000	-1.964643566727881e+001
1	 2.826125494589216e+000	 1.584475899682720e+000	-1.960447316322955e+001
1	 3.004304419954370e+000	 1.282662666485751e+000	-1.785081143667026e+001
1	 2.990463919863343e+000	 1.314608072822576e+000	-1.823485108879227e+001
1	 2.976254966844774e+000	 1.346467761199496e+000	-1.856576746036139e+001
1	 2.961677891810029e+000	 1.378235568972947e+000	-1.884469043145474e+001
1	 2.946733159139817e+000	 1.409905317959977e+000	-1.907290738546875e+001
1	 2.931421367696138e+000	 1.441470817955927e+000	-1.925186301913201e+001
1	 2.915743251725804e+000	 1.472925870302978e+000	-1.938315888595955e+001
1	 2.899699681653019e+000	 1.504264271505810e+000	-1.946855266992841e+001
1	 2.883291664758590e+000	 1.535479816890413e+000	-1.950995718676051e+001
1	 2.866520345743509e+000	 1.566566304302014e+000	-1.950943911082490e+001
1	 2.849387007174854e+000	 1.597517537837919e+000	-1.946921742631666e+001
1	 3.028830630293633e+000	 1.293133927037236e+000	-1.775464272817058e+001
1	 3.014877140648670e+000	 1.325340125772382e+000	-1.812074761849131e+001
1	 3.000552190140605e+000	 1.357459906772683e+000	-1.843665323747489e+001
1	 2.985856112382270e+000	 1.389487057084678e+000	-1.870332768272541e+001
1	 2.970789375545449e+000	 1.421415348088662e+000	-1.892188382714289e+001
1	 2.955352583381074e+000	 1.453238539045079e+000	-1.909357925986919e+001
1	 2.939546476130134e+000	 1.484950380692207e+000	-1.921981598421541e+001
1	 2.923371931322718e+000	 1.516544618891328e+000	-1.930213986940581e+001
1	 2.906829964462770e+000	 1.548014998315415e+000	-1.934223985352337e+001
1	 2.889921729596284e+000	 1.579355266177241e+000	-1.934194689560960e+001
1	 2.872648519760826e+000	 1.610559175992701e+000	-1.930323267545575e+001
1	 3.053356840633026e+000	 1.303605187588521e+000	-1.762272752652049e+001
1	 3.039290361434153e+000	 1.336072178721969e+000	-1.797223406968308e+001
1	 3.024849413436621e+000	 1.368452052345632e+000	-1.827430617306869e+001
1	 3.010034332954730e+000	 1.400738545196150e+000	-1.852974785584883e+001
1	 2.994845591951334e+000	 1.432925378217068e+000	-1.873949444920265e+001
1	 2.979283799066296e+000	 1.465006260133933e+000	-1.890461266783142e+001
1	 2.963349700534780e+000	 1.496974891081117e+000	-1.902630046340564e+001
1	 2.947044180992758e+000	 1.528824966276507e+000	-1.910588665685540e+001
1	 2.930368264167312e+000	 1.560550179740057e+000	-1.914483034690491e+001
1	 2.913323113449429e+000	 1.592144228052089e+000	-1.914472009275713e+001
1	 2.895910032347164e+000	 1.623600814147085e+000	-1.910727286935609e+001
1	 3.077883050972603e+000	 1.314076448139491e+000	-1.745541024509016e+001
1	 3.063703582219838e+000	 1.346804231671227e+000	-1.778974021639764e+001
1	 3.049146636732866e+000	 1.379444197918242e+000	-1.807923074227319e+001
1	 3.034212553527452e+000	 1.411990033307279e+000	-1.832451954627082e+001
1	 3.018901808357516e+000	 1.444435408345127e+000	-1.852636147554323e+001
1	 3.003215014751850e+000	 1.476773981222436e+000	-1.868562870258743e+001
1	 2.987152924939791e+000	 1.508999401469674e+000	-1.880331073527079e+001
1	 2.970716430663188e+000	 1.541105313661330e+000	-1.888051423214594e+001
1	 2.953906563872260e+000	 1.573085361164338e+000	-1.891846262048583e+001
1	 2.936724497302984e+000	 1.604933189926567e+000	-1.891849551491318e+001
1	 2.919171544933902e+000	 1.636642452301086e+000	-1.888206793495032e+001
1	 3.102409261312411e+000	 1.324547708690029e+000	-1.725302440615984e+001
1	 3.088116803005770e+000	 1.357536284620048e+000	-1.757368224228782e+001
1	 3.073443860029386e+000	 1.390436343490416e+000	-1.785191546763269e+001
1	 3.058390774100482e+000	 1.423241521417980e+000	-1.808819336922905e+001
1	 3.042958024764042e+000	 1.455945438472771e+000	-1.828308745400518e+001
1	 3.027146230437786e+000	 1.488541702310539e+000	-1.843727178044653e+001
1	 3.010956149345215e+000	 1.521023911857844e+000	-1.855152312627373e+001
1	 2.994388680334057e+000	 1.553385661045778e+000	-1.862672098925873e+001
1	 2.977444863577661e+000	 1.585620542588254e+000	-1.866384741865957e+001
1	 2.960125881156992e+000	 1.617722151800683e+000	-1.866398667512623e+001
1	 2.942433057521074e+000	 1.649684090454720e+000	-1.862832471731479e+001
1	 3.126935471652506e+000	 1.335018969240017e+000	-1.701589306804261e+001
1	 3.112530023792000e+000	 1.368268337568320e+000	-1.732446327361197e+001
1	 3.097741083326226e+000	 1.401428489062056e+000	-1.759283354472820e+001
1	 3.082568994673866e+000	 1.434493009528169e+000	-1.782130266489478e+001
1	 3.067014241170958e+000	 1.467455468599930e+000	-1.801025602802305e+001
1	 3.051077446124150e+000	 1.500309423398188e+000	-1.816016609972585e+001
1	 3.034759373751101e+000	 1.533048422245595e+000	-1.827159274373212e+001
1	 3.018060930005414e+000	 1.565666008429837e+000	-1.834518341068119e+001
1	 3.000983163283562e+000	 1.598155724011803e+000	-1.838167318684219e+001
1	 2.983527265011496e+000	 1.630511113674446e+000	-1.838188470060311e+001
1	 2.965694570108715e+000	 1.662725728608005e+000	-1.834672788488559e+001
1	 2.733079444249319e+000	 1.532309347057451e+000	-1.982222841471419e+001
1	 2.716297039568712e+000	 1.561865955864427e+000	-1.972890219228331e+001
1	 2.699170149807901e+000	 1.591280936462619e+000	-1.959684882978451e+001
1	 2.681700406264190e+000	 1.620548384726113e+000	-1.942497017761443e+001
1	 2.663889573078078e+000	 1.649662417173072e+000	-1.921212890504073e+001
1	 2.645739547069145e+000	 1.678617174651290e+000	-1.895715046507449e+001
1	 2.627252357450537e+000	 1.707406826031018e+000	-1.865882516588277e+001
1	 2.608430165421335e+000	 1.736025571900473e+000	-1.831591034556312e+001
1	 2.589275263636230e+000	 1.764467648259312e+000	-1.792713264678463e+001
1	 2.569790075552226e+000	 1.792727330205414e+000	-1.749119038748853e+001
1	 2.549977154652176e+000	 1.820798935610175e+000	-1.700675602353968e+001
1	 2.756340956833962e+000	 1.545350985214473e+000	-1.981794493141285e+001
1	 2.739415715428227e+000	 1.575159153276105e+000	-1.972734800492295e+001
1	 2.722143056995375e+000	 1.604824487717100e+000	-1.959631039153239e+001
1	 2.704524626716822e+000	 1.634341034160935e+000	-1.942373418994729e+001
1	 2.686562203747829e+000	 1.663702859050867e+000	-1.920848722392609e+001
1	 2.668257701051977e+000	 1.692904053366853e+000	-1.894940506786721e+001
1	 2.649613165113236e+000	 1.721938736349818e+000	-1.864529317131535e+001
1	 2.630630775524840e+000	 1.750801059228598e+000	-1.829492907900445e+001
1	 2.611312844454483e+000	 1.779485208944865e+000	-1.789706474275483e+001
1	 2.591661815985434e+000	 1.807985411871278e+000	-1.745042892124861e+001
1	 2.571680265333477e+000	 1.836295937518066e+000	-1.695372966342351e+001
1	 2.779602469418804e+000	 1.558392623371014e+000	-1.977965556808696e+001
1	 2.762534391287983e+000	 1.588452350687268e+000	-1.969154271563912e+001
1	 2.745115964183133e+000	 1.618368038971054e+000	-1.956135689607966e+001
1	 2.727348847169785e+000	 1.648133683595235e+000	-1.938802603509123e+001
1	 2.709234834417954e+000	 1.677743300928162e+000	-1.917044949905117e+001
1	 2.690775855035223e+000	 1.707190932081953e+000	-1.890750014206532e+001
1	 2.671973972776374e+000	 1.736470646668199e+000	-1.859802644243542e+001
1	 2.652831385628806e+000	 1.765576546556353e+000	-1.824085472504196e+001
1	 2.633350425273202e+000	 1.794502769630099e+000	-1.783479146584281e+001
1	 2.613533556419093e+000	 1.823243493536874e+000	-1.737862567441854e+001
1	 2.593383376015194e+000	 1.851792939425738e+000	-1.687113135023488e+001
1	 2.802863982003876e+000	 1.571434261527091e+000	-1.970822089848650e+001
1	 2.785653067148002e+000	 1.601745548097935e+000	-1.962233910096171e+001
1	 2.768088871371186e+000	 1.631911590224498e+000	-1.949284492634199e+001
1	 2.750173067623071e+000	 1.661926333029029e+000	-1.931871708413584e+001
1	 2.731907465088427e+000	 1.691783742804963e+000	-1.909891223627281e+001
1	 2.713294009018838e+000	 1.721477810796585e+000	-1.883236702684387e+001
1	 2.694334780439897e+000	 1.751002556986144e+000	-1.851800018995384e+001
1	 2.675031995733158e+000	 1.780352033883711e+000	-1.815471473209070e+001
1	 2.655388006092302e+000	 1.809520330314980e+000	-1.774140018516768e+001
1	 2.635405296853118e+000	 1.838501575202161e+000	-1.727693492615072e+001
1	 2.615086486697246e+000	 1.867289941333142e+000	-1.676018855895090e+001
1	 2.826125494589216e+000	 1.584475899682720e+000	-1.960447316322955e+001
1	 2.808771743008305e+000	 1.615038745508126e+000	-1.952056186100112e+001
1	 2.791061778559539e+000	 1.645455141477451e+000	-1.939160286349557e+001
1	 2.772997288076671e+000	 1.675718982462327e+000	-1.921665001955262e+001
1	 2.754580095759225e+000	 1.705824184681278e+000	-1.899474242530381e+001
1	 2.735812163002780e+000	 1.735764689510745e+000	-1.872490639839778e+001
1	 2.716695588103744e+000	 1.765534467303639e+000	-1.840615751719512e+001
1	 2.697232605837830e+000	 1.795127521210649e+000	-1.803750272132906e+001
1	 2.677425586911706e+000	 1.824537890999473e+000	-1.761794246981016e+001
1	 2.657277037287425e+000	 1.853759656867096e+000	-1.714647295264371e+001
1	 2.636789597379548e+000	 1.882786943240229e+000	-1.662208835172914e+001
1	 2.849387007174854e+000	 1.597517537837919e+000	-1.946921742631666e+001
1	 2.831890418868914e+000	 1.628331942917860e+000	-1.938700876548358e+001
1	 2.814034685748200e+000	 1.658998692729931e+000	-1.925843203812850e+001
1	 2.795821508530576e+000	 1.689511631895144e+000	-1.908264000621922e+001
1	 2.777252726430318e+000	 1.719864626557111e+000	-1.885877874451626e+001
1	 2.758330316987007e+000	 1.750051568224430e+000	-1.858598952155703e+001
1	 2.739056395767859e+000	 1.780066377620673e+000	-1.826341073067079e+001
1	 2.719433215942749e+000	 1.809903008537144e+000	-1.789017986747391e+001
1	 2.699463167731334e+000	 1.839555451683543e+000	-1.746543555011426e+001
1	 2.679148777721928e+000	 1.869017738531633e+000	-1.698831957836385e+001
1	 2.658492708062018e+000	 1.898283945146948e+000	-1.645797902749617e+001
1	 2.872648519760826e+000	 1.610559175992701e+000	-1.930323267545575e+001
1	 2.855009094729853e+000	 1.641625140327156e+000	-1.922245174410682e+001
1	 2.837007592937177e+000	 1.672542243981955e+000	-1.909410782546255e+001
1	 2.818645728984777e+000	 1.703304281327492e+000	-1.891747580554972e+001
1	 2.799925357101683e+000	 1.733905068432466e+000	-1.869183270720836e+001
1	 2.780848470971473e+000	 1.764338446937636e+000	-1.841645944059125e+001
1	 2.761417203432182e+000	 1.794598287937230e+000	-1.809064258697816e+001
1	 2.741633826047844e+000	 1.824678495863168e+000	-1.771367621247005e+001
1	 2.721500748551104e+000	 1.854573012367157e+000	-1.728486370799126e+001
1	 2.701020518156543e+000	 1.884275820195732e+000	-1.680351965190006e+001
1	 2.680195818744573e+000	 1.913780947053250e+000	-1.626897169139027e+001
1	 2.895910032347164e+000	 1.623600814147085e+000	-1.910727286935609e+001
1	 2.878127770591144e+000	 1.654918337736034e+000	-1.902763792434481e+001
1	 2.859980500126478e+000	 1.686085795233540e+000	-1.889938068779050e+001
1	 2.841469949439266e+000	 1.717096930759384e+000	-1.872192083592858e+001
1	 2.822597987773292e+000	 1.747945510307352e+000	-1.849468975262697e+001
1	 2.803366624956138e+000	 1.778625325650358e+000	-1.821713211262346e+001
1	 2.783778011096657e+000	 1.809130198253296e+000	-1.788870747960415e+001
1	 2.763834436153042e+000	 1.839453983188698e+000	-1.750889191586622e+001
1	 2.743538329370936e+000	 1.869590573050278e+000	-1.707717960021754e+001
1	 2.722892258591185e+000	 1.899533901859347e+000	-1.659308445068922e+001
1	 2.701898929427128e+000	 1.929277948959084e+000	-1.605614174856425e+001
1	 2.919171544933902e+000	 1.636642452301086e+000	-1.888206793495032e+001
1	 2.901246446452806e+000	 1.668211535144512e+000	-1.880329061963449e+001
1	 2.882953407316110e+000	 1.699629346484705e+000	-1.867497716707334e+001
1	 2.864294169894032e+000	 1.730889580190834e+000	-1.849671418244419e+001
1	 2.845270618445120e+000	 1.761985952181773e+000	-1.826811028482697e+001
1	 2.825884778940959e+000	 1.792912204362594e+000	-1.798879748685373e+001
1	 2.806138818761223e+000	 1.823662108568856e+000	-1.765843256898726e+001
1	 2.786035046258273e+000	 1.854229470513710e+000	-1.727669844540900e+001
1	 2.765575910190750e+000	 1.884608133732874e+000	-1.684330551846391e+001
1	 2.744763999025769e+000	 1.914791983522436e+000	-1.635799301858014e+001
1	 2.723602040109602e+000	 1.944774950864403e+000	-1.582053032656785e+001
1	 2.942433057521074e+000	 1.649684090454720e+000	-1.862832471731479e+001
1	 2.924365122314863e+000	 1.681504732552608e+000	-1.855011027068900e+001
1	 2.905926314506080e+000	 1.713172897735468e+000	-1.842160083045556e+001
1	 2.887118390349069e+000	 1.744682229621855e+000	-1.824257155872747e+001
1	 2.867943249117139e+000	 1.776026394055733e+000	-1.801283066225385e+001
1	 2.848402932925892e+000	 1.807199083074341e+000	-1.773222053259193e+001
1	 2.828499626425824e+000	 1.838194018883899e+000	-1.740061885897616e+001
1	 2.808235656363467e+000	 1.869004957838178e+000	-1.701793971116321e+001
1	 2.787613491010467e+000	 1.899625694414908e+000	-1.658413458955763e+001
1	 2.766635739460210e+000	 1.930050065184955e+000	-1.609919343995250e+001
1	 2.745305150791908e+000	 1.960271952769154e+000	-1.556314563026191e+001
1	 2.965694570108715e+000	 1.662725728608005e+000	-1.834672788488559e+001
1	 2.947483798177338e+000	 1.694797929960343e+000	-1.826877534251248e+001
1	 2.928899221696398e+000	 1.726716448985847e+000	-1.813993317128289e+001
1	 2.909942610804364e+000	 1.758474879052459e+000	-1.796018622352527e+001
1	 2.890615879789327e+000	 1.790066835929240e+000	-1.772956414075618e+001
1	 2.870921086910895e+000	 1.821485961785593e+000	-1.744814221890999e+001
1	 2.850860434090400e+000	 1.852725929198409e+000	-1.711604222262982e+001
1	 2.830436266468553e+000	 1.883780445162080e+000	-1.673343314625902e+001
1	 2.809651071830005e+000	 1.914643255096348e+000	-1.630053191925909e+001
1	 2.788507479894426e+000	 1.945308146846862e+000	-1.581760405387449e+001
1	 2.767008261473969e+000	 1.975768954673289e+000	-1.528496423296886e+001
1	 2.549977154652176e+000	 1.820798935610175e+000	-1.700675602353968e+001
1	 2.529839182825770e+000	 1.848676828161380e+000	-1.648269682007160e+001
1	 2.509378967208837e+000	 1.876355419114987e+000	-1.592984638550652e+001
1	 2.488599441235097e+000	 1.903829172691866e+000	-1.534985434504083e+001
1	 2.467503664099979e+000	 1.931092610269970e+000	-1.474442913007181e+001
1	 2.446094819379461e+000	 1.958140313934778e+000	-1.411533551176089e+001
1	 2.424376213529276e+000	 1.984966929989930e+000	-1.346439202791761e+001
1	 2.402351274265837e+000	 2.011567172423368e+000	-1.279346830792198e+001
1	 2.380023548830396e+000	 2.037935826324343e+000	-1.210448230068428e+001
1	 2.357396702138207e+000	 2.064067751246718e+000	-1.139939741091165e+001
1	 2.334474514814633e+000	 2.089957884514068e+000	-1.068021954920432e+001
1	 2.571680265333477e+000	 1.836295937518066e+000	-1.695372966342350e+001
1	 2.551370897214117e+000	 1.864411101601794e+000	-1.641667041412648e+001
1	 2.530736542655011e+000	 1.892325267812062e+000	-1.585111284929747e+001
1	 2.509780160056639e+000	 1.920032853254175e+000	-1.525904072548041e+001
1	 2.488504834651568e+000	 1.947528332676985e+000	-1.464250526214934e+001
1	 2.466913777111521e+000	 1.974806242053562e+000	-1.400362208973092e+001
1	 2.445010322033827e+000	 2.001861182121705e+000	-1.334456807236608e+001
1	 2.422797926308551e+000	 2.028687821879580e+000	-1.266757801130231e+001
1	 2.400280167367885e+000	 2.055280902031814e+000	-1.197494123514397e+001
1	 2.377460741319559e+000	 2.081635238381421e+000	-1.126899808350455e+001
1	 2.354343460966238e+000	 2.107745725163034e+000	-1.055213629090696e+001
1	 2.593383376015194e+000	 1.851792939425738e+000	-1.687113135023488e+001
1	 2.572902611602827e+000	 1.880145375042032e+000	-1.632288258321670e+001
1	 2.552094118101473e+000	 1.908295116508996e+000	-1.574673591070587e+001
1	 2.530960878878383e+000	 1.936236533816368e+000	-1.514493678884343e+001
1	 2.509506005203260e+000	 1.963964055083904e+000	-1.451980466754663e+001
1	 2.487732734843586e+000	 1.991472170172263e+000	-1.387372947100531e+001
1	 2.465644430538283e+000	 2.018755434253400e+000	-1.320916793861482e+001
1	 2.443244578351072e+000	 2.045808471335707e+000	-1.252863983318092e+001
1	 2.420536785905097e+000	 2.072625977739186e+000	-1.183472402360599e+001
1	 2.397524780500567e+000	 2.099202725516005e+000	-1.113005444962397e+001
1	 2.374212407117443e+000	 2.125533565811849e+000	-1.041731597648499e+001
1	 2.615086486697246e+000	 1.867289941333142e+000	-1.676018855895090e+001
1	 2.594434325991823e+000	 1.895879648482040e+000	-1.620261881326132e+001
1	 2.573451693548162e+000	 1.924264965205734e+000	-1.561802406317687e+001
1	 2.552141597700285e+000	 1.952440214378395e+000	-1.500884082869826e+001
1	 2.530507175755037e+000	 1.980399777490679e+000	-1.437758406504741e+001
1	 2.508551692575658e+000	 2.008138098290838e+000	-1.372684329195685e+001
1	 2.486278539042668e+000	 2.035649686384982e+000	-1.305927857331703e+001
1	 2.463691230393453e+000	 2.062929120791727e+000	-1.237761635473046e+001
1	 2.440793404442102e+000	 2.089971053446450e+000	-1.168464516692579e+001
1	 2.417588819681313e+000	 2.116770212650470e+000	-1.098321120336829e+001
1	 2.394081353268349e+000	 2.143321406460531e+000	-1.027621378076365e+001
1	 2.636789597379548e+000	 1.882786943240229e+000	-1.662208835172914e+001
1	 2.615966040381032e+000	 1.911613921921764e+000	-1.605712226743426e+001
1	 2.594809268995017e+000	 1.940234813902221e+000	-1.546624271992114e+001
1	 2.573322316522301e+000	 1.968643894940201e+000	-1.485200839419481e+001
1	 2.551508346306874e+000	 1.996835499897263e+000	-1.421705879780597e+001
1	 2.529370650307736e+000	 2.024804026409246e+000	-1.356411015361361e+001
1	 2.506912647547007e+000	 2.052543938516416e+000	-1.289595113699582e+001
1	 2.484137882435738e+000	 2.080049770247615e+000	-1.221543846554536e+001
1	 2.461050022978969e+000	 2.107316129153594e+000	-1.152549234970842e+001
1	 2.437652858861884e+000	 2.134337699784820e+000	-1.082909181322488e+001
1	 2.413950299419056e+000	 2.161109247109096e+000	-1.012926989260244e+001
1	 2.658492708062018e+000	 1.898283945146948e+000	-1.645797902749617e+001
1	 2.637497754770377e+000	 1.927348195361151e+000	-1.588759551371320e+001
1	 2.616166844441978e+000	 1.956204662598404e+000	-1.529261597238355e+001
1	 2.594503035344390e+000	 1.984847575501736e+000	-1.467565403482568e+001
1	 2.572509516858754e+000	 2.013271222303608e+000	-1.403940452223642e+001
1	 2.550189608039823e+000	 2.041469954527444e+000	-1.338663921502108e+001
1	 2.527546756051328e+000	 2.069438190647670e+000	-1.272020246477880e+001
1	 2.504584534477977e+000	 2.097170419703349e+000	-1.204300665724300e+001
1	 2.481306641515768e+000	 2.124661204860606e+000	-1.135802753490686e+001
1	 2.457716898042369e+000	 2.151905186919057e+000	-1.066829938846701e+001
1	 2.433819245569663e+000	 2.178897087757561e+000	-9.976910126599076e+000
1	 2.680195818744573e+000	 1.913780947053250e+000	-1.626897169139027e+001
1	 2.659029469159782e+000	 1.943082468800149e+000	-1.569520216849461e+001
1	 2.637524419888981e+000	 1.972174511294227e+000	-1.509832826327530e+001
1	 2.615683754166508e+000	 2.001051256062946e+000	-1.448095296041701e+001
1	 2.593510687410649e+000	 2.029706944709663e+000	-1.384575881484643e+001
1	 2.571008565771920e+000	 2.058135882645392e+000	-1.319550370919063e+001
1	 2.548180864555651e+000	 2.086332442778711e+000	-1.253301645616203e+001
1	 2.525031186520220e+000	 2.114291069158907e+000	-1.186119225421465e+001
1	 2.501563260052567e+000	 2.142006280567476e+000	-1.118298800523789e+001
1	 2.477780937222855e+000	 2.169472674053184e+000	-1.050141750345599e+001
1	 2.453688191720270e+000	 2.196684928405941e+000	-9.819546505073650e+000
1	 2.701898929427128e+000	 1.929277948959084e+000	-1.605614174856425e+001
1	 2.680561183549176e+000	 1.958816742238704e+000	-1.548106846099436e+001
1	 2.658881995335964e+000	 1.988144359989638e+000	-1.488452597897456e+001
1	 2.636864472988613e+000	 2.017254936623779e+000	-1.426904262111595e+001
1	 2.614511857962542e+000	 2.046142667115383e+000	-1.363722270162930e+001
1	 2.591827523504031e+000	 2.074801810763047e+000	-1.299174238598592e+001
1	 2.568814973060007e+000	 2.103226694909506e+000	-1.233534539779437e+001
1	 2.545477838562512e+000	 2.131411718614264e+000	-1.167083858506053e+001
1	 2.521819878589437e+000	 2.159351356274191e+000	-1.100108735440764e+001
1	 2.497844976403427e+000	 2.187040161187201e+000	-1.032901098221648e+001
1	 2.473557137870976e+000	 2.214472769054255e+000	-9.657577812003789e+000
1	 2.723602040109602e+000	 1.944774950864403e+000	-1.582053032656785e+001
1	 2.702092897938480e+000	 1.974551015676761e+000	-1.524628472285281e+001
1	 2.680239570782870e+000	 2.004114208684582e+000	-1.465231896579176e+001
1	 2.658045191810659e+000	 2.033458617184183e+000	-1.404102421183680e+001
1	 2.635513028514410e+000	 2.062578389520717e+000	-1.341486211433375e+001
1	 2.612646481236155e+000	 2.091467738880369e+000	-1.277636088602385e+001
1	 2.589449081564420e+000	 2.120120947040020e+000	-1.212811122301740e+001
1	 2.565924490604902e+000	 2.148532368069398e+000	-1.147276209801645e+001
1	 2.542076497126445e+000	 2.176696431980742e+000	-1.081301643094474e+001
1	 2.517909015584173e+000	 2.204607648321111e+000	-1.015162664549961e+001
1	 2.493426084021882e+000	 2.232260609702518e+000	-9.491390120475728e+000
1	 2.745305150791908e+000	 1.960271952769154e+000	-1.556314563026191e+001
1	 2.723624612327620e+000	 1.990285289114268e+000	-1.499190680708253e+001
1	 2.701597146229636e+000	 2.020084057379005e+000	-1.440278197431430e+001
1	 2.679225910632606e+000	 2.049662297744106e+000	-1.379796410534655e+001
1	 2.656514199066231e+000	 2.079014111925619e+000	-1.317970927765841e+001
1	 2.633465438968294e+000	 2.108133666997313e+000	-1.255033304940621e+001
1	 2.610083190068913e+000	 2.137015199170221e+000	-1.191220671166157e+001
1	 2.586371142647441e+000	 2.165653017524286e+000	-1.126775342347293e+001
1	 2.562333115663661e+000	 2.194041507687116e+000	-1.061944423726483e+001
1	 2.537973054765180e+000	 2.222175135454916e+000	-9.969794022411060e+000
1	 2.513295030173088e+000	 2.250048450350747e+000	-9.321357295116385e+000
1	 2.767008261473969e+000	 1.975768954673289e+000	-1.528496423296886e+001
1	 2.745156326716522e+000	 2.006019562551172e+000	-1.471895744023921e+001
1	 2.722954721676198e+000	 2.036053906072851e+000	-1.413695603577802e+001
1	 2.700406629454409e+000	 2.065865978303493e+000	-1.354089521790773e+001
1	 2.677515369617984e+000	 2.095449834330041e+000	-1.293276403116323e+001
1	 2.654284396700450e+000	 2.124799595113841e+000	-1.231460216286152e+001
1	 2.630717298573514e+000	 2.153909451300075e+000	-1.168849663337871e+001
1	 2.606817794690175e+000	 2.182773666978905e+000	-1.105657838649021e+001
1	 2.582589734201157e+000	 2.211386583393304e+000	-1.042101878642378e+001
1	 2.558037093946534e+000	 2.239742622588618e+000	-9.784026028548837e+000
1	 2.533163976324692e+000	 2.267836290998960e+000	-9.147841470880543e+000
1	 2.334474514814633e+000	 2.089957884514068e+000	-1.068021954920432e+001
1	 2.311264384991488e+000	 2.115597417230627e+000	-9.959501055523687e+000
1	 2.287766902175922e+000	 2.140985357364761e+000	-9.247698003812912e+000
1	 2.263986181384554e+000	 2.166116898914944e+000	-8.544022267939020e+000
1	 2.239926444295830e+000	 2.190987326190443e+000	-7.847678333820101e+000
1	 2.215592016756413e+000	 2.215592016756412e+000	-7.157864383211980e+000
1	 2.190987326190444e+000	 2.239926444295831e+000	-6.473773386537342e+000
1	 2.166116898914944e+000	 2.263986181384554e+000	-5.794594202588331e+000
1	 2.140985357364762e+000	 2.287766902175922e+000	-5.119512682916847e+000
1	 2.115597417230626e+000	 2.311264384991489e+000	-4.447712778718584e+000
1	 2.089957884514069e+000	 2.334474514814633e+000	-3.778377648012445e+000
1	 2.354343460966238e+000	 2.107745725163034e+000	-1.055213629090696e+001
1	 2.330935787405982e+000	 2.133603478507495e+000	-9.836785230576016e+000
1	 2.307238315163295e+000	 2.159207497939899e+000	-9.132648722268421e+000
1	 2.283255194278109e+000	 2.184552936554364e+000	-8.438368890566359e+000
1	 2.258990682359991e+000	 2.209635038524449e+000	-7.752569215587998e+000
1	 2.234449142073308e+000	 2.234449142073308e+000	-7.073856711791718e+000
1	 2.209635038524449e+000	 2.258990682359990e+000	-6.400824135132889e+000
1	 2.184552936554364e+000	 2.283255194278110e+000	-5.732052214024344e+000
1	 2.159207497939899e+000	 2.307238315163295e+000	-5.066111899490301e+000
1	 2.133603478507495e+000	 2.330935787405982e+000	-4.401566629857047e+000
1	 2.107745725163034e+000	 2.354343460966238e+000	-3.736974605291732e+000
1	 2.374212407117443e+000	 2.125533565811849e+000	-1.041731597648499e+001
1	 2.350607189820049e+000	 2.151609539784174e+000	-9.708637179457927e+000
1	 2.326709728150233e+000	 2.177429638514804e+000	-9.012918742015739e+000
1	 2.302524207171238e+000	 2.202988974193504e+000	-8.328338561279733e+000
1	 2.278054920423748e+000	 2.228282750858128e+000	-7.653046425542136e+000
1	 2.253306267389836e+000	 2.253306267389836e+000	-6.985167102542015e+000
1	 2.228282750858128e+000	 2.278054920423748e+000	-6.322803472415129e+000
1	 2.202988974193504e+000	 2.302524207171238e+000	-5.664039698785648e+000
1	 2.177429638514803e+000	 2.326709728150233e+000	-5.006944431366549e+000
1	 2.151609539784174e+000	 2.350607189820048e+000	-4.349574033359517e+000
1	 2.125533565811849e+000	 2.374212407117443e+000	-3.689975826886133e+000
1	 2.394081353268349e+000	 2.143321406460531e+000	-1.027621378076365e+001
1	 2.370278592233794e+000	 2.169615601060698e+000	-9.575330730821486e+000
1	 2.346181141136843e+000	 2.195651779089522e+000	-8.888633411424364e+000
1	 2.321793220064046e+000	 2.221425011832426e+000	-8.213938322172886e+000
1	 2.297119158487202e+000	 2.246930463191558e+000	-7.549026151872541e+000
1	 2.272163392706085e+000	 2.272163392706085e+000	-6.891645593475000e+000
1	 2.246930463191558e+000	 2.297119158487202e+000	-6.239517217066871e+000
1	 2.221425011832426e+000	 2.321793220064046e+000	-5.590337392778999e+000
1	 2.195651779089522e+000	 2.346181141136843e+000	-4.941782255360689e+000
1	 2.169615601060697e+000	 2.370278592233793e+000	-4.291511702058140e+000
1	 2.143321406460531e+000	 2.394081353268349e+000	-3.637173415358013e+000
1	 2.413950299419056e+000	 2.161109247109096e+000	-1.012926989260244e+001
1	 2.389949994647324e+000	 2.187621662337096e+000	-9.437130697910728e+000
1	 2.365652554123235e+000	 2.213873919664102e+000	-8.759913951952052e+000
1	 2.341062232956640e+000	 2.239861049471193e+000	-8.095174983489164e+000
1	 2.316183396550450e+000	 2.265578175524814e+000	-7.440427342150700e+000
1	 2.291020518022143e+000	 2.291020518022143e+000	-6.793147159882379e+000
1	 2.265578175524814e+000	 2.316183396550451e+000	-6.150777580907191e+000
1	 2.239861049471193e+000	 2.341062232956640e+000	-5.510733250861254e+000
1	 2.213873919664102e+000	 2.365652554123235e+000	-4.870404855618192e+000
1	 2.187621662337096e+000	 2.389949994647325e+000	-4.227163700188912e+000
1	 2.161109247109096e+000	 2.413950299419056e+000	-3.578366317989405e+000
1	 2.433819245569663e+000	 2.178897087757561e+000	-9.976910126599076e+000
1	 2.409621397060749e+000	 2.205627723613400e+000	-9.294293246556771e+000
1	 2.385123967109518e+000	 2.232096060238592e+000	-8.626877626599118e+000
1	 2.360331245849126e+000	 2.258297087109868e+000	-7.972055133085262e+000
1	 2.335247634613596e+000	 2.284225887857976e+000	-7.327171590696145e+000
1	 2.309877643338102e+000	 2.309877643338101e+000	-6.689531512803224e+000
1	 2.284225887857977e+000	 2.335247634613597e+000	-6.056402907933475e+000
1	 2.258297087109868e+000	 2.360331245849125e+000	-5.425022152172928e+000
1	 2.232096060238591e+000	 2.385123967109518e+000	-4.792598917177225e+000
1	 2.205627723613399e+000	 2.409621397060749e+000	-4.156321143318836e+000
1	 2.178897087757560e+000	 2.433819245569663e+000	-3.513360047391026e+000
1	 2.453688191720270e+000	 2.196684928405941e+000	-9.819546505073653e+000
1	 2.429292799474172e+000	 2.223633784889643e+000	-9.147066245293678e+000
1	 2.404595380095800e+000	 2.250318200813038e+000	-8.489637900178163e+000
1	 2.379600258741609e+000	 2.276733124748515e+000	-7.844585145435210e+000
1	 2.354311872676735e+000	 2.302873600191120e+000	-7.209183031414905e+000
1	 2.328734768654050e+000	 2.328734768654050e+000	-6.580662907283399e+000
1	 2.302873600191121e+000	 2.354311872676736e+000	-5.956217426042382e+000
1	 2.276733124748514e+000	 2.379600258741609e+000	-5.333005619788250e+000
1	 2.250318200813038e+000	 2.404595380095800e+000	-4.708158034419446e+000
1	 2.223633784889643e+000	 2.429292799474172e+000	-4.078781912851956e+000
1	 2.196684928405941e+000	 2.453688191720269e+000	-3.441966415685527e+000
1	 2.473557137870976e+000	 2.214472769054255e+000	-9.657577812003789e+000
1	 2.448964201887703e+000	 2.241639846165858e+000	-8.995689598600311e+000
1	 2.424066793082190e+000	 2.268540341387490e+000	-8.348304591859600e+000
1	 2.398869271634196e+000	 2.295169162387196e+000	-7.712771190200532e+000
1	 2.373376110739969e+000	 2.321521312524323e+000	-7.086388235803071e+000
1	 2.347591893970077e+000	 2.347591893970077e+000	-6.466409959876053e+000
1	 2.321521312524323e+000	 2.373376110739969e+000	-5.850051010716417e+000
1	 2.295169162387196e+000	 2.398869271634196e+000	-5.234491553876912e+000
1	 2.268540341387491e+000	 2.424066793082190e+000	-4.616882433571939e+000
1	 2.241639846165858e+000	 2.448964201887703e+000	-3.994350384295206e+000
1	 2.214472769054255e+000	 2.473557137870976e+000	-3.364003281502078e+000
1	 2.493426084021882e+000	 2.232260609702518e+000	-9.491390120475732e+000
1	 2.468635604301448e+000	 2.259645907442076e+000	-8.840395564209764e+000
1	 2.443538206068797e+000	 2.286762481961994e+000	-8.202984020423852e+000
1	 2.418138284526992e+000	 2.313605200025974e+000	-7.576619240390557e+000
1	 2.392440348803396e+000	 2.340169024857662e+000	-6.958716115826540e+000
1	 2.366449019286273e+000	 2.366449019286272e+000	-6.346645474867560e+000
1	 2.340169024857661e+000	 2.392440348803396e+000	-5.737738960009125e+000
1	 2.313605200025974e+000	 2.418138284526992e+000	-5.129293977623524e+000
1	 2.286762481961994e+000	 2.443538206068797e+000	-4.518578708477004e+000
1	 2.259645907442075e+000	 2.468635604301448e+000	-3.902837168515680e+000
1	 2.232260609702518e+000	 2.493426084021882e+000	-3.279294309067296e+000
1	 2.513295030173088e+000	 2.250048450350747e+000	-9.321357295116384e+000
1	 2.488307006715512e+000	 2.277651968718327e+000	-8.681409055367443e+000
1	 2.463009619055729e+000	 2.304984622536598e+000	-8.053779142623828e+000
1	 2.437407297420105e+000	 2.332041237664912e+000	-7.436135080135640e+000
1	 2.411504586867115e+000	 2.358816737191213e+000	-6.826097831407958e+000
1	 2.385306144602727e+000	 2.385306144602727e+000	-6.221246278746100e+000
1	 2.358816737191213e+000	 2.411504586867115e+000	-5.619121780203360e+000
1	 2.332041237664912e+000	 2.437407297420106e+000	-5.017232795198887e+000
1	 2.304984622536598e+000	 2.463009619055729e+000	-4.413059568894751e+000
1	 2.277651968718327e+000	 2.488307006715513e+000	-3.804058865271442e+000
1	 2.250048450350747e+000	 2.513295030173087e+000	-3.187668738723296e+000
1	 2.533163976324692e+000	 2.267836290998960e+000	-9.147841470880543e+000
1	 2.507978409130006e+000	 2.295658029994647e+000	-8.518947928864842e+000
1	 2.482481032043097e+000	 2.323206763111350e+000	-7.900789685035548e+000
1	 2.456676310313640e+000	 2.350477275304074e+000	-7.291324312094582e+000
1	 2.430568824931228e+000	 2.377464449525057e+000	-6.688466702266917e+000
1	 2.404163269919529e+000	 2.404163269919529e+000	-6.090093062460339e+000
1	 2.377464449525057e+000	 2.430568824931227e+000	-5.494044981556822e+000
1	 2.350477275304074e+000	 2.456676310313640e+000	-4.898133561121691e+000
1	 2.323206763111350e+000	 2.482481032043097e+000	-4.300143600651302e+000
1	 2.295658029994646e+000	 2.507978409130006e+000	-3.697837828341070e+000
1	 2.267836290998959e+000	 2.533163976324692e+000	-3.088961168245354e+000
1	 2.089957884514069e+000	 2.334474514814633e+000	-3.778377648012443e+000
1	 2.064067751246718e+000	 2.357396702138207e+000	-3.111491245186984e+000
1	 2.037935826324343e+000	 2.380023548830395e+000	-2.449676754571404e+000
1	 2.011567172423368e+000	 2.402351274265837e+000	-1.795784543291321e+000
1	 1.984966929989930e+000	 2.424376213529276e+000	-1.152673400067885e+000
1	 1.958140313934778e+000	 2.446094819379461e+000	-5.232059027665471e-001
1	 1.931092610269970e+000	 2.467503664099979e+000	 8.975620835810685e-002
1	 1.903829172691866e+000	 2.488599441235097e+000	 6.833566421561640e-001
1	 1.876355419114987e+000	 2.509378967208838e+000	 1.254749143333563e+000
1	 1.848676828161380e+000	 2.529839182825770e+000	 1.801102045089659e+000
1	 1.820798935610176e+000	 2.549977154652176e+000	 2.319602778409373e+000
1	 2.107745725163034e+000	 2.354343460966238e+000	-3.736974605291732e+000
1	 2.081635238381421e+000	 2.377460741319560e+000	-3.072065566485460e+000
1	 2.055280902031814e+000	 2.400280167367884e+000	-2.409843955852390e+000
1	 2.028687821879580e+000	 2.422797926308551e+000	-1.753489827422734e+000
1	 2.001861182121705e+000	 2.445010322033828e+000	-1.106194589041003e+000
1	 1.974806242053562e+000	 2.466913777111521e+000	-4.711557143661065e-001
1	 1.947528332676985e+000	 2.488504834651568e+000	 1.484285404202358e-001
1	 1.920032853254174e+000	 2.509780160056640e+000	 7.493644042192089e-001
1	 1.892325267812062e+000	 2.530736542655012e+000	 1.328467832047192e+000
1	 1.864411101601794e+000	 2.551370897214117e+000	 1.882569708732687e+000
1	 1.836295937518066e+000	 2.571680265333477e+000	 2.408521004671000e+000
1	 2.125533565811849e+000	 2.374212407117443e+000	-3.689975826886133e+000
1	 2.099202725516006e+000	 2.397524780500568e+000	-3.027766212605298e+000
1	 2.072625977739186e+000	 2.420536785905096e+000	-2.366339502645181e+000
1	 2.045808471335707e+000	 2.443244578351072e+000	-1.709121186140276e+000
1	 2.018755434253400e+000	 2.465644430538283e+000	-1.059550482730368e+000
1	 1.991472170172263e+000	 2.487732734843587e+000	-4.210745483410651e-001
1	 1.963964055083904e+000	 2.509506005203261e+000	 2.028573152530587e-001
1	 1.936236533816368e+000	 2.530960878878383e+000	 8.087994350045299e-001
1	 1.908295116508996e+000	 2.552094118101472e+000	 1.393315513328459e+000
1	 1.880145375042031e+000	 2.572902611602827e+000	 1.952984335151792e+000
1	 1.851792939425738e+000	 2.593383376015194e+000	 2.484405423600519e+000
1	 2.143321406460531e+000	 2.394081353268349e+000	-3.637173415358013e+000
1	 2.116770212650470e+000	 2.417588819681313e+000	-2.978397434369097e+000
1	 2.089971053446451e+000	 2.440793404442101e+000	-2.318965940627935e+000
1	 2.062929120791727e+000	 2.463691230393453e+000	-1.662467697486323e+000
1	 2.035649686384982e+000	 2.486278539042668e+000	-1.012507026804917e+000
1	 2.008138098290838e+000	 2.508551692575658e+000	-3.726976556982084e-001
1	 1.980399777490679e+000	 2.530507175755036e+000	 2.533434337990093e-001
1	 1.952440214378395e+000	 2.552141597700285e+000	 8.620021392757853e-001
1	 1.924264965205734e+000	 2.573451693548162e+000	 1.449673343935440e+000
1	 1.895879648482040e+000	 2.594434325991823e+000	 2.012766981408734e+000
1	 1.867289941333142e+000	 2.615086486697246e+000	 2.547714046944887e+000
1	 2.161109247109096e+000	 2.413950299419056e+000	-3.578366317989407e+000
1	 2.134337699784820e+000	 2.437652858861884e+000	-2.923769927355523e+000
1	 2.107316129153595e+000	 2.461050022978969e+000	-2.267532316374111e+000
1	 2.080049770247615e+000	 2.484137882435739e+000	-1.613325383800835e+000
1	 2.052543938516416e+000	 2.506912647547007e+000	-9.648378728307945e-001
1	 2.024804026409246e+000	 2.529370650307736e+000	-3.257690039184178e-001
1	 1.996835499897263e+000	 2.551508346306874e+000	 3.001778902764961e-001
1	 1.968643894940202e+000	 2.573322316522302e+000	 9.093017144670588e-001
1	 1.940234813902220e+000	 2.594809268995017e+000	 1.497909931596954e+000
1	 1.911613921921764e+000	 2.615966040381032e+000	 2.062324841876764e+000
1	 1.882786943240229e+000	 2.636789597379548e+000	 2.598889807083666e+000
1	 2.178897087757560e+000	 2.433819245569663e+000	-3.513360047391026e+000
1	 2.151905186919057e+000	 2.457716898042369e+000	-2.863700568833936e+000
1	 2.124661204860606e+000	 2.481306641515767e+000	-2.211853911995887e+000
1	 2.097170419703349e+000	 2.504584534477977e+000	-1.561496928265729e+000
1	 2.069438190647671e+000	 2.527546756051328e+000	-9.163240637281842e-001
1	 2.041469954527445e+000	 2.550189608039823e+000	-2.800409211633527e-001
1	 2.013271222303608e+000	 2.572509516858754e+000	 3.436421765570933e-001
1	 1.984847575501735e+000	 2.594503035344390e+000	 9.510166081488329e-001
1	 1.956204662598403e+000	 2.616166844441977e+000	 1.538381847244383e+000
1	 1.927348195361151e+000	 2.637497754770376e+000	 2.102051814094284e+000
1	 1.898283945146948e+000	 2.658492708062018e+000	 2.638361172545572e+000
1	 2.196684928405941e+000	 2.453688191720269e+000	-3.441966415685527e+000
1	 2.169472674053184e+000	 2.477780937222855e+000	-2.798012167480622e+000
1	 2.142006280567476e+000	 2.501563260052567e+000	-2.151751992679909e+000
1	 2.114291069158906e+000	 2.525031186520220e+000	-1.506791405221000e+000
1	 2.086332442778711e+000	 2.548180864555652e+000	-8.667537345108065e-001
1	 2.058135882645392e+000	 2.571008565771921e+000	-2.352737577688004e-001
1	 2.029706944709663e+000	 2.593510687410649e+000	 3.840086668961047e-001
1	 2.001051256062946e+000	 2.615683754166508e+000	 9.874549532676746e-001
1	 1.972174511294227e+000	 2.637524419888981e+000	 1.571434112356863e+000
1	 1.943082468800149e+000	 2.659029469159783e+000	 2.132329037125852e+000
1	 1.913780947053250e+000	 2.680195818744573e+000	 2.666542733619621e+000
1	 2.214472769054255e+000	 2.473557137870976e+000	-3.364003281502078e+000
1	 2.187040161187200e+000	 2.497844976403427e+000	-2.726533225157340e+000
1	 2.159351356274192e+000	 2.521819878589436e+000	-2.087053566390833e+000
1	 2.131411718614264e+000	 2.545477838562512e+000	-1.449024023478354e+000
1	 2.103226694909506e+000	 2.568814973060009e+000	-8.159218274479204e-001
1	 2.074801810763048e+000	 2.591827523504031e+000	-1.912355640523041e-001
1	 2.046142667115383e+000	 2.614511857962541e+000	 4.215409841207061e-001
1	 2.017254936623779e+000	 2.636864472988613e+000	 1.018914982409588e+000
1	 1.988144359989638e+000	 2.658881995335965e+000	 1.597400662818353e+000
1	 1.958816742238703e+000	 2.680561183549176e+000	 2.153525403977228e+000
1	 1.929277948959085e+000	 2.701898929427129e+000	 2.683835759742686e+000
1	 2.232260609702518e+000	 2.493426084021882e+000	-3.279294309067297e+000
1	 2.204607648321111e+000	 2.517909015584173e+000	-2.649097710079320e+000
1	 2.176696431980743e+000	 2.542076497126444e+000	-2.017591155063413e+000
1	 2.148532368069398e+000	 2.565924490604902e+000	-1.388015881907336e+000
1	 2.120120947040020e+000	 2.589449081564420e+000	-7.636298208450318e-001
1	 2.091467738880369e+000	 2.612646481236154e+000	-1.477017835251880e-001
1	 2.062578389520717e+000	 2.635513028514410e+000	 4.564943483103175e-001
1	 2.033458617184183e+000	 2.658045191810659e+000	 1.045685422256809e+000
1	 2.004114208684582e+000	 2.680239570782871e+000	 1.616604790597462e+000
1	 1.974551015676761e+000	 2.702092897938480e+000	 2.165998049510765e+000
1	 1.944774950864403e+000	 2.723602040109602e+000	 2.690628730237648e+000
1	 2.250048450350747e+000	 2.513295030173087e+000	-3.187668738723296e+000
1	 2.222175135454916e+000	 2.537973054765179e+000	-2.565544840743010e+000
1	 2.194041507687117e+000	 2.562333115663662e+000	-1.943202576647992e+000
1	 2.165653017524286e+000	 2.586371142647441e+000	-1.323593736614850e+000
1	 2.137015199170221e+000	 2.610083190068913e+000	-7.096854706893456e-001
1	 2.108133666997313e+000	 2.633465438968294e+000	-1.044549606565161e-001
1	 2.079014111925619e+000	 2.656514199066230e+000	 4.891159089378566e-001
1	 2.049662297744106e+000	 2.679225910632606e+000	 1.068045869334291e+000
1	 2.020084057379004e+000	 2.701597146229636e+000	 1.629359564476826e+000
1	 1.990285289114268e+000	 2.723624612327620e+000	 2.170092815217823e+000
1	 1.960271952769154e+000	 2.745305150791909e+000	 2.687297839877046e+000
1	 2.267836290998959e+000	 2.533163976324692e+000	-3.088961168245354e+000
1	 2.239742622588619e+000	 2.558037093946534e+000	-2.475718880022049e+000
1	 2.211386583393305e+000	 2.582589734201157e+000	-1.863730737412932e+000
1	 2.182773666978905e+000	 2.606817794690176e+000	-1.255589779081384e+000
1	 2.153909451300075e+000	 2.630717298573514e+000	-6.539025644536031e-001
1	 2.124799595113840e+000	 2.654284396700450e+000	-6.128446239019594e-002
1	 2.095449834330041e+000	 2.677515369617983e+000	 5.196450613802873e-001
1	 2.065865978303493e+000	 2.700406629454409e+000	 1.086267148073161e+000
1	 2.036053906072851e+000	 2.722954721676199e+000	 1.635968230982495e+000
1	 2.006019562551172e+000	 2.745156326716522e+000	 2.166144692118094e+000
1	 1.975768954673289e+000	 2.767008261473968e+000	 2.674207480654163e+000
1	 1.820798935610176e+000	 2.549977154652176e+000	 2.319602778409373e+000
1	 1.792727330205413e+000	 2.569790075552224e+000	 2.799266628162224e+000
1	 1.764467648259313e+000	 2.589275263636230e+000	 3.232488247306715e+000
1	 1.736025571900472e+000	 2.608430165421335e+000	 3.621573120362849e+000
1	 1.707406826031018e+000	 2.627252357450538e+000	 3.968865509947964e+000
1	 1.678617174651289e+000	 2.645739547069144e+000	 4.276743590692063e+000
1	 1.649662417173072e+000	 2.663889573078078e+000	 4.547614581711076e+000
1	 1.620548384726113e+000	 2.681700406264190e+000	 4.783909887907443e+000
1	 1.591280936462618e+000	 2.699170149807902e+000	 4.988080260218785e+000
1	 1.561865955864427e+000	 2.716297039568712e+000	 5.162590984757983e+000
1	 1.532309347057451e+000	 2.733079444249318e+000	 5.309917110583784e+000
1	 1.836295937518066e+000	 2.571680265333477e+000	 2.408521004671000e+000
1	 1.807985411871278e+000	 2.591661815985435e+000	 2.895323992429830e+000
1	 1.779485208944865e+000	 2.611312844454483e+000	 3.335534402498630e+000
1	 1.750801059228598e+000	 2.630630775524840e+000	 3.731386781879349e+000
1	 1.721938736349818e+000	 2.649613165113236e+000	 4.085158829417324e+000
1	 1.692904053366853e+000	 2.668257701051977e+000	 4.399166552840852e+000
1	 1.663702859050867e+000	 2.686562203747828e+000	 4.675759416509012e+000
1	 1.634341034160935e+000	 2.704524626716821e+000	 4.917315490203964e+000
1	 1.604824487717100e+000	 2.722143056995375e+000	 5.126236609175347e+000
1	 1.575159153276105e+000	 2.739415715428226e+000	 5.304943555483678e+000
1	 1.545350985214473e+000	 2.756340956833962e+000	 5.455871270503620e+000
1	 1.851792939425738e+000	 2.593383376015194e+000	 2.484405423600519e+000
1	 1.823243493536874e+000	 2.613533556419093e+000	 2.976657671993531e+000
1	 1.794502769630099e+000	 2.633350425273200e+000	 3.422467821747850e+000
1	 1.765576546556352e+000	 2.652831385628806e+000	 3.823964196851783e+000
1	 1.736470646668198e+000	 2.671973972776374e+000	 4.183322154402747e+000
1	 1.707190932081953e+000	 2.690775855035223e+000	 4.502759333957836e+000
1	 1.677743300928162e+000	 2.709234834417954e+000	 4.784530889825415e+000
1	 1.648133683595235e+000	 2.727348847169784e+000	 5.030924716556060e+000
1	 1.618368038971053e+000	 2.745115964183133e+000	 5.244256677781818e+000
1	 1.588452350687268e+000	 2.762534391287983e+000	 5.426865848412904e+000
1	 1.558392623371014e+000	 2.779602469418803e+000	 5.581109780034315e+000
1	 1.867289941333142e+000	 2.615086486697246e+000	 2.547714046944887e+000
1	 1.838501575202161e+000	 2.635405296853118e+000	 3.043754148030861e+000
1	 1.809520330314980e+000	 2.655388006092302e+000	 3.493791413458507e+000
1	 1.780352033883710e+000	 2.675031995733159e+000	 3.899813550212415e+000
1	 1.751002556986143e+000	 2.694334780439896e+000	 4.263858694016327e+000
1	 1.721477810796585e+000	 2.713294009018838e+000	 4.588010819237719e+000
1	 1.691783742804964e+000	 2.731907465088427e+000	 4.874395124048661e+000
1	 1.661926333029029e+000	 2.750173067623071e+000	 5.125173400878308e+000
1	 1.631911590224498e+000	 2.768088871371186e+000	 5.342539402105023e+000
1	 1.601745548097935e+000	 2.785653067148001e+000	 5.528714210818944e+000
1	 1.571434261527091e+000	 2.802863982003876e+000	 5.685941626341408e+000
1	 1.882786943240229e+000	 2.636789597379548e+000	 2.598889807083666e+000
1	 1.853759656867096e+000	 2.657277037287426e+000	 3.097083885037689e+000
1	 1.824537890999473e+000	 2.677425586911706e+000	 3.549991528510844e+000
1	 1.795127521210649e+000	 2.697232605837831e+000	 3.959426295647834e+000
1	 1.765534467303639e+000	 2.716695588103744e+000	 4.327255089946108e+000
1	 1.735764689510745e+000	 2.735812163002779e+000	 4.655393798045344e+000
1	 1.705824184681278e+000	 2.754580095759224e+000	 4.945802895169520e+000
1	 1.675718982462327e+000	 2.772997288076670e+000	 5.200483027891442e+000
1	 1.645455141477451e+000	 2.791061778559538e+000	 5.421470583825622e+000
1	 1.615038745508127e+000	 2.808771743008305e+000	 5.610833257762769e+000
1	 1.584475899682721e+000	 2.826125494589216e+000	 5.770665623640341e+000
1	 1.898283945146948e+000	 2.658492708062018e+000	 2.638361172545572e+000
1	 1.869017738531634e+000	 2.679148777721928e+000	 3.137101984604433e+000
1	 1.839555451683543e+000	 2.699463167731334e+000	 3.591538636113699e+000
1	 1.809903008537143e+000	 2.719433215942749e+000	 4.003277838542386e+000
1	 1.780066377620673e+000	 2.739056395767860e+000	 4.373982092712699e+000
1	 1.750051568224430e+000	 2.758330316987007e+000	 4.705365620922483e+000
1	 1.719864626557111e+000	 2.777252726430318e+000	 4.999190259197203e+000
1	 1.689511631895144e+000	 2.795821508530576e+000	 5.257261318834171e+000
1	 1.658998692729931e+000	 2.814034685748200e+000	 5.481423426363378e+000
1	 1.628331942917861e+000	 2.831890418868914e+000	 5.673556350983560e+000
1	 1.597517537837919e+000	 2.849387007174854e+000	 5.835570828440391e+000
1	 1.913780947053250e+000	 2.680195818744573e+000	 2.666542733619621e+000
1	 1.884275820195732e+000	 2.701020518156543e+000	 3.164248807428132e+000
1	 1.854573012367156e+000	 2.721500748551103e+000	 3.618887966820143e+000
1	 1.824678495863168e+000	 2.741633826047844e+000	 4.031828185740334e+000
1	 1.794598287937230e+000	 2.761417203432182e+000	 4.404495205069343e+000
1	 1.764338446937635e+000	 2.780848470971473e+000	 4.738368824673468e+000
1	 1.733905068432467e+000	 2.799925357101683e+000	 5.034979148140618e+000
1	 1.703304281327492e+000	 2.818645728984777e+000	 5.295902788717640e+000
1	 1.672542243981954e+000	 2.837007592937177e+000	 5.522759044954333e+000
1	 1.641625140327156e+000	 2.855009094729854e+000	 5.717206054522200e+000
1	 1.610559175992701e+000	 2.872648519760826e+000	 5.880936934613798e+000
1	 1.929277948959085e+000	 2.701898929427129e+000	 2.683835759742686e+000
1	 1.899533901859347e+000	 2.722892258591184e+000	 3.178950565346197e+000
1	 1.869590573050279e+000	 2.743538329370937e+000	 3.632480124552930e+000
1	 1.839453983188698e+000	 2.763834436153043e+000	 4.045522563992718e+000
1	 1.809130198253296e+000	 2.783778011096656e+000	 4.419235294393169e+000
1	 1.778625325650358e+000	 2.803366624956139e+000	 4.754831727324620e+000
1	 1.747945510307352e+000	 2.822597987773292e+000	 5.053577937266139e+000
1	 1.717096930759385e+000	 2.841469949439266e+000	 5.316789276723026e+000
1	 1.686085795233540e+000	 2.859980500126478e+000	 5.545826952144750e+000
1	 1.654918337736034e+000	 2.878127770591143e+000	 5.742094568386019e+000
1	 1.623600814147085e+000	 2.895910032347164e+000	 5.907034649424604e+000
1	 1.944774950864403e+000	 2.723602040109602e+000	 2.690628730237648e+000
1	 1.914791983522436e+000	 2.744763999025769e+000	 3.181619885064810e+000
1	 1.884608133732874e+000	 2.765575910190751e+000	 3.632741669368247e+000
1	 1.854229470513710e+000	 2.786035046258275e+000	 4.044792008835333e+000
1	 1.823662108568856e+000	 2.806138818761223e+000	 4.418629175797505e+000
1	 1.792912204362594e+000	 2.825884778940959e+000	 4.755168994638080e+000
1	 1.761985952181773e+000	 2.845270618445119e+000	 5.055381985234096e+000
1	 1.730889580190835e+000	 2.864294169894032e+000	 5.320290451240266e+000
1	 1.699629346484705e+000	 2.882953407316110e+000	 5.550965520073075e+000
1	 1.668211535144512e+000	 2.901246446452806e+000	 5.748524141479199e+000
1	 1.636642452301086e+000	 2.919171544933902e+000	 5.914126051578962e+000
1	 1.960271952769154e+000	 2.745305150791909e+000	 2.687297839877046e+000
1	 1.930050065184955e+000	 2.766635739460210e+000	 3.172656345147555e+000
1	 1.899625694414909e+000	 2.787613491010468e+000	 3.620085672577201e+000
1	 1.869004957838178e+000	 2.808235656363468e+000	 4.030053925534585e+000
1	 1.838194018883899e+000	 2.828499626425822e+000	 4.403090167584986e+000
1	 1.807199083074341e+000	 2.848402932925892e+000	 4.739782179754004e+000
1	 1.776026394055733e+000	 2.867943249117138e+000	 5.040774148614966e+000
1	 1.744682229621855e+000	 2.887118390349068e+000	 5.306764290950977e+000
1	 1.713172897735468e+000	 2.905926314506080e+000	 5.538502420824237e+000
1	 1.681504732552608e+000	 2.924365122314863e+000	 5.736787464946855e+000
1	 1.649684090454720e+000	 2.942433057521074e+000	 5.902464932291935e+000
1	 1.975768954673289e+000	 2.767008261473968e+000	 2.674207480654163e+000
1	 1.945308146846862e+000	 2.788507479894426e+000	 3.152446987732688e+000
1	 1.914643255096348e+000	 2.809651071830004e+000	 3.594912245742441e+000
1	 1.883780445162079e+000	 2.830436266468553e+000	 4.001712623634382e+000
1	 1.852725929198409e+000	 2.850860434090399e+000	 4.373018620560683e+000
1	 1.821485961785593e+000	 2.870921086910894e+000	 4.709060237436539e+000
1	 1.790066835929240e+000	 2.890615879789326e+000	 5.010125272191699e+000
1	 1.758474879052460e+000	 2.909942610804365e+000	 5.276557543271266e+000
1	 1.726716448985847e+000	 2.928899221696398e+000	 5.508755046060477e+000
1	 1.694797929960344e+000	 2.947483798177338e+000	 5.707168047007718e+000
1	 1.662725728608005e+000	 2.965694570108715e+000	 5.872297120303467e+000
1	 1.532309347057451e+000	 2.733079444249318e+000	 5.309917110583783e+000
1	 1.502621494919892e+000	 2.749513426483720e+000	 5.435381891327633e+000
1	 1.472803909760124e+000	 2.765600166241469e+000	 5.538848111386679e+000
1	 1.442862534573746e+000	 2.781338433307961e+000	 5.614611988304996e+000
1	 1.412803318353237e+000	 2.796727129707190e+000	 5.657066757736421e+000
1	 1.382632212507476e+000	 2.811765289274062e+000	 5.660710495868735e+000
1	 1.352355167314767e+000	 2.826452077113804e+000	 5.620153669561316e+000
1	 1.321978128413372e+000	 2.840786788950489e+000	 5.530126402807885e+000
1	 1.291507033333439e+000	 2.854768850366804e+000	 5.385485449007642e+000
1	 1.260947808074111e+000	 2.868397815937405e+000	 5.181220859414894e+000
1	 1.230306363729441e+000	 2.881673368258283e+000	 4.912462339036259e+000
1	 1.545350985214473e+000	 2.756340956833962e+000	 5.455871270503621e+000
1	 1.515410456797143e+000	 2.772914810335272e+000	 5.584691511162213e+000
1	 1.485339091186876e+000	 2.789138465944542e+000	 5.691931053354824e+000
1	 1.455142881960698e+000	 2.805010682976676e+000	 5.772318941382047e+000
1	 1.424827828743552e+000	 2.820530354110669e+000	 5.820677923400776e+000
1	 1.394399933597354e+000	 2.835696504958287e+000	 5.831931643854369e+000
1	 1.363865197443819e+000	 2.850508293518875e+000	 5.801111577975607e+000
1	 1.333229616525126e+000	 2.864965009522324e+000	 5.723363698006683e+000
1	 1.302499178906338e+000	 2.879066073662390e+000	 5.593954861599046e+000
1	 1.271679861023363e+000	 2.892811036722655e+000	 5.408278913686839e+000
1	 1.240777624280165e+000	 2.906199578597639e+000	 5.161862493968675e+000
1	 1.558392623371014e+000	 2.779602469418803e+000	 5.581109780034317e+000
1	 1.528199418673973e+000	 2.796316194186986e+000	 5.712943135381163e+000
1	 1.497874272613285e+000	 2.812676765647745e+000	 5.823513678505530e+000
1	 1.467423229347397e+000	 2.828682932645490e+000	 5.907979792076437e+000
1	 1.436852339133718e+000	 2.844333578514223e+000	 5.961589968262027e+000
1	 1.406167654687189e+000	 2.859627720642560e+000	 5.979689373010600e+000
1	 1.375375227572934e+000	 2.874564509923965e+000	 5.957726167313590e+000
1	 1.344481104637046e+000	 2.889143230094151e+000	 5.891257576118700e+000
1	 1.313491324479492e+000	 2.903363296957934e+000	 5.775955696322621e+000
1	 1.282411913972944e+000	 2.917224257507826e+000	 5.607613036048588e+000
1	 1.251248884831276e+000	 2.930725788936877e+000	 5.382147778195435e+000
1	 1.571434261527091e+000	 2.802863982003876e+000	 5.685941626341410e+000
1	 1.540988380550389e+000	 2.819717578038901e+000	 5.820393607810896e+000
1	 1.510409454039345e+000	 2.836215065351122e+000	 5.933795315105470e+000
1	 1.479703576733828e+000	 2.852355182314455e+000	 6.021731061200232e+000
1	 1.448876849523699e+000	 2.868136802917896e+000	 6.079871398953292e+000
1	 1.417935375776931e+000	 2.883558936326929e+000	 6.103979058951480e+000
1	 1.386885257702045e+000	 2.898620726329122e+000	 6.089914659794051e+000
1	 1.355732592749046e+000	 2.913321450666013e+000	 6.033642182494620e+000
1	 1.324483470052802e+000	 2.927660520253484e+000	 5.931234201387980e+000
1	 1.293143966922747e+000	 2.941637478292966e+000	 5.778876864644447e+000
1	 1.261720145382654e+000	 2.955251999276043e+000	 5.572874618217329e+000
1	 1.584475899682721e+000	 2.826125494589216e+000	 5.770665623640339e+000
1	 1.553777342426400e+000	 2.843118961891062e+000	 5.907291316070689e+000
1	 1.522944635465056e+000	 2.859753365054722e+000	 6.022968728829750e+000
1	 1.491983924119970e+000	 2.876027431983614e+000	 6.113704774817624e+000
1	 1.460901359913464e+000	 2.891940027321741e+000	 6.175588466626995e+000
1	 1.429703096866527e+000	 2.907490152011438e+000	 6.204796229542214e+000
1	 1.398395287831081e+000	 2.922676942734390e+000	 6.197597002972991e+000
1	 1.366984080861041e+000	 2.937499671237958e+000	 6.150357123006764e+000
1	 1.335475615626169e+000	 2.951957743549081e+000	 6.059544979411345e+000
1	 1.303876019872661e+000	 2.966050699078124e+000	 5.921735441076288e+000
1	 1.272191405934185e+000	 2.979778209615192e+000	 5.733614044544048e+000
1	 1.597517537837919e+000	 2.849387007174854e+000	 5.835570828440390e+000
1	 1.566566304302014e+000	 2.866520345743511e+000	 5.973876536742045e+000
1	 1.535479816890413e+000	 2.883291664758588e+000	 6.091220390636897e+000
1	 1.504264271505810e+000	 2.899699681653019e+000	 6.184028647713456e+000
1	 1.472925870302978e+000	 2.915743251725803e+000	 6.248805259020276e+000
1	 1.441470817955927e+000	 2.931421367696138e+000	 6.282136558684559e+000
1	 1.409905317959977e+000	 2.946733159139817e+000	 6.280695758499836e+000
1	 1.378235568972946e+000	 2.961677891810029e+000	 6.241247241159289e+000
1	 1.346467761199496e+000	 2.976254966844774e+000	 6.160650646401695e+000
1	 1.314608072822576e+000	 2.990463919863343e+000	 6.035864744932212e+000
1	 1.282662666485751e+000	 3.004304419954371e+000	 5.863951095581226e+000
1	 1.610559175992701e+000	 2.872648519760826e+000	 5.880936934613796e+000
1	 1.579355266177241e+000	 2.889921729596284e+000	 6.020381763767707e+000
1	 1.548014998315415e+000	 2.906829964462771e+000	 6.138730731628810e+000
1	 1.516544618891328e+000	 2.923371931322718e+000	 6.232826257948184e+000
1	 1.484950380692207e+000	 2.939546476130134e+000	 6.299583788047103e+000
1	 1.453238539045079e+000	 2.955352583381074e+000	 6.335995860404293e+000
1	 1.421415348088662e+000	 2.970789375545450e+000	 6.339135996278440e+000
1	 1.389487057084678e+000	 2.985856112382272e+000	 6.306162406027438e+000
1	 1.357459906772683e+000	 3.000552190140606e+000	 6.234321507315133e+000
1	 1.325340125772382e+000	 3.014877140648669e+000	 6.120951250930253e+000
1	 1.293133927037235e+000	 3.028830630293632e+000	 5.963484250479840e+000
1	 1.623600814147085e+000	 2.895910032347164e+000	 5.907034649424604e+000
1	 1.592144228052090e+000	 2.913323113449428e+000	 6.047032021023436e+000
1	 1.560550179740057e+000	 2.930368264167312e+000	 6.165674385627828e+000
1	 1.528824966276507e+000	 2.947044180992758e+000	 6.260217212999906e+000
1	 1.496974891081117e+000	 2.963349700534780e+000	 6.327984073169320e+000
1	 1.465006260133933e+000	 2.979283799066296e+000	 6.366370083223565e+000
1	 1.432925378217068e+000	 2.994845591951334e+000	 6.372845193728754e+000
1	 1.400738545196150e+000	 3.010034332954731e+000	 6.344957310417161e+000
1	 1.368452052345631e+000	 3.024849413436621e+000	 6.280335247246335e+000
1	 1.336072178721969e+000	 3.039290361434152e+000	 6.176691507405734e+000
1	 1.303605187588521e+000	 3.053356840633026e+000	 6.031824889319732e+000
1	 1.636642452301086e+000	 2.919171544933902e+000	 5.914126051578962e+000
1	 1.604933189926567e+000	 2.936724497302984e+000	 6.054045159945400e+000
1	 1.573085361164337e+000	 2.953906563872260e+000	 6.172220420155807e+000
1	 1.541105313661329e+000	 2.970716430663187e+000	 6.266317307963101e+000
1	 1.508999401469674e+000	 2.987152924939791e+000	 6.334064220781092e+000
1	 1.476773981222437e+000	 3.003215014751852e+000	 6.373255304802279e+000
1	 1.444435408345127e+000	 3.018901808357515e+000	 6.381753139865294e+000
1	 1.411990033307279e+000	 3.034212553527452e+000	 6.357491278675001e+000
1	 1.379444197918242e+000	 3.049146636732866e+000	 6.298476637384064e+000
1	 1.346804231671228e+000	 3.063703582219837e+000	 6.202791734951564e+000
1	 1.314076448139491e+000	 3.077883050972602e+000	 6.068596779102178e+000
1	 1.649684090454720e+000	 2.942433057521074e+000	 5.902464932291937e+000
1	 1.617722151800683e+000	 2.960125881156992e+000	 6.041632143040121e+000
1	 1.585620542588254e+000	 2.977444863577661e+000	 6.158532556457098e+000
1	 1.553385661045779e+000	 2.994388680334057e+000	 6.251238676243334e+000
1	 1.521023911857845e+000	 3.010956149345216e+000	 6.317880499828398e+000
1	 1.488541702310539e+000	 3.027146230437786e+000	 6.356647726833828e+000
1	 1.455945438472771e+000	 3.042958024764042e+000	 6.365791843925148e+000
1	 1.423241521417981e+000	 3.058390774100482e+000	 6.343628083614138e+000
1	 1.390436343490416e+000	 3.073443860029386e+000	 6.288537254914610e+000
1	 1.357536284620048e+000	 3.088116803005770e+000	 6.198967444096496e+000
1	 1.324547708690028e+000	 3.102409261312412e+000	 6.073435584123745e+000
1	 1.662725728608005e+000	 2.965694570108715e+000	 5.872297120303467e+000
1	 1.630511113674446e+000	 2.983527265011494e+000	 6.009997314052061e+000
1	 1.598155724011803e+000	 3.000983163283563e+000	 6.124769379167160e+000
1	 1.565666008429836e+000	 3.018060930005414e+000	 6.215089933160212e+000
1	 1.533048422245595e+000	 3.034759373751101e+000	 6.279487413869309e+000
1	 1.500309423398188e+000	 3.051077446124149e+000	 6.316543670180820e+000
1	 1.467455468599930e+000	 3.067014241170959e+000	 6.324895448296318e+000
1	 1.434493009528169e+000	 3.082568994673866e+000	 6.303235772056056e+000
1	 1.401428489062056e+000	 3.097741083326226e+000	 6.250315216106497e+000
1	 1.368268337568320e+000	 3.112530023792000e+000	 6.164943070975656e+000
1	 1.335018969240017e+000	 3.126935471652506e+000	 6.045988399392326e+000
1	 1.230306363729441e+000	 2.881673368258283e+000	 4.912462339036259e+000
1	 1.199583979858828e+000	 2.894597229204027e+000	 4.566144270933005e+000
1	 1.168791122363753e+000	 2.907167317903020e+000	 4.129720499044030e+000
1	 1.137933641963362e+000	 2.919383696497329e+000	 3.599130290450050e+000
1	 1.107017361446401e+000	 2.931246550353865e+000	 2.970394410789558e+000
1	 1.076048072588372e+000	 2.942756186611073e+000	 2.239619909825443e+000
1	 1.045031533136541e+000	 2.953913032638836e+000	 1.403004710527409e+000
1	 1.013973463865370e+000	 2.964717634414845e+000	 4.568419960668454e-001
1	 9.828795457048584e-001	 2.975170654820722e+000	-6.024756102964101e-001
1	 9.517554169440449e-001	 2.985272871861279e+000	-1.778452076874373e+000
1	 9.206066705118042e-001	 2.995025176810348e+000	-3.074484210612806e+000
1	 1.240777624280165e+000	 2.906199578597639e+000	 5.161862493968677e+000
1	 1.209793759126601e+000	 2.919233435816973e+000	 4.841155831663985e+000
1	 1.178738820540489e+000	 2.931910509798534e+000	 4.432663254359638e+000
1	 1.147618709037034e+000	 2.944230863213301e+000	 3.932028959557824e+000
1	 1.116439296963322e+000	 2.956194683005870e+000	 3.334979812436437e+000
1	 1.085206425389242e+000	 2.967802278928781e+000	 2.637330673854225e+000
1	 1.053925901066823e+000	 2.979054081989313e+000	 1.834989518508902e+000
1	 1.022603493460617e+000	 2.989950642812039e+000	 9.239623368240749e-001
1	 9.912449318515898e-001	 3.000492629920440e+000	-9.964218522370150e-002
1	 9.598559025168251e-001	 3.010680827941015e+000	-1.239608213490228e+000
1	 9.284420459871779e-001	 3.020516135733327e+000	-2.499608544776109e+000
1	 1.251248884831276e+000	 2.930725788936877e+000	 5.382147778195434e+000
1	 1.220003538394792e+000	 2.943869642429749e+000	 5.085556266897097e+000
1	 1.188686518717652e+000	 2.956653701693829e+000	 4.703451882693719e+000
1	 1.157303776111121e+000	 2.969078029928999e+000	 4.231220647223536e+000
1	 1.125861232480630e+000	 2.981142815657544e+000	 3.664333271890565e+000
1	 1.094364778190454e+000	 2.992848371246103e+000	 2.998350953461328e+000
1	 1.062820268997394e+000	 3.004195131339357e+000	 2.228930946374137e+000
1	 1.031233523056087e+000	 3.015183651208757e+000	 1.351831904667874e+000
1	 9.996103179984714e-001	 3.025814605019650e+000	 3.629189871213138e-001
1	 9.679563880896778e-001	 3.036088784020224e+000	-7.418312801182380e-001
1	 9.362774214625443e-001	 3.046007094655771e+000	-1.966326388451705e+000
1	 1.261720145382654e+000	 2.955251999276043e+000	 5.572874618217328e+000
1	 1.230213317663281e+000	 2.968505849042415e+000	 5.298814227844965e+000
1	 1.198634216895123e+000	 2.981396893588967e+000	 4.941490033359989e+000
1	 1.166988843185511e+000	 2.993925196644493e+000	 4.496065782435812e+000
1	 1.135283167998224e+000	 3.006090948308973e+000	 3.957792775208719e+000
1	 1.103523130991923e+000	 3.017894463563139e+000	 3.322016053746614e+000
1	 1.071714636928179e+000	 3.029336180689076e+000	 2.584180354709572e+000
1	 1.039863552651724e+000	 3.040416659605120e+000	 1.739835817590428e+000
1	 1.007975704145466e+000	 3.051136580118482e+000	 7.846434416526282e-001
1	 9.760568736625851e-001	 3.061496740099038e+000	-2.856197145826100e-001
1	 9.441127969379056e-001	 3.071498053577817e+000	-1.475055596714172e+000
1	 1.272191405934185e+000	 2.979778209615192e+000	 5.733614044544048e+000
1	 1.240423096931948e+000	 2.993142055655025e+000	 5.480415859602235e+000
1	 1.208581915072786e+000	 3.006140085484014e+000	 5.146200989646866e+000
1	 1.176673910260096e+000	 3.018772363359864e+000	 4.725945851124033e+000
1	 1.144705103516002e+000	 3.031039080960243e+000	 4.214718104289298e+000
1	 1.112681483793558e+000	 3.042940555879987e+000	 3.607683163918303e+000
1	 1.080609004859105e+000	 3.054477230038581e+000	 2.900110459606775e+000
1	 1.048493582247471e+000	 3.065649668001247e+000	 2.087379437675953e+000
1	 1.016341090292535e+000	 3.076458555217061e+000	 1.164985297472641e+000
1	 9.841573592355286e-001	 3.086904696177588e+000	 1.285444556298251e-001
1	 9.519481724132636e-001	 3.096989012499596e+000	-1.026200267369855e+000
1	 1.282662666485751e+000	 3.004304419954371e+000	 5.863951095581226e+000
1	 1.250632876200675e+000	 3.017778262267638e+000	 5.629864087072492e+000
1	 1.218529613250524e+000	 3.030883277379036e+000	 5.317026867388893e+000
1	 1.186358977334763e+000	 3.043619530075185e+000	 4.920262536646677e+000
1	 1.154127039033863e+000	 3.055987213611442e+000	 4.434489947199802e+000
1	 1.121839836595271e+000	 3.067986648196746e+000	 3.854730464017508e+000
1	 1.089503372790100e+000	 3.079618279387982e+000	 3.176114460963551e+000
1	 1.057123611843272e+000	 3.090882676397256e+000	 2.393887544767863e+000
1	 1.024706476439640e+000	 3.101780530315511e+000	 1.503416499294516e+000
1	 9.922578448084908e-001	 3.112312652256009e+000	 5.001949435251413e-001
1	 9.597835478886195e-001	 3.122479971421242e+000	-6.201513025074420e-001
1	 1.293133927037235e+000	 3.028830630293632e+000	 5.963484250479842e+000
1	 1.260842655469342e+000	 3.042414468880311e+000	 5.746677935588545e+000
1	 1.228477311428221e+000	 3.055626469274102e+000	 5.453427852476204e+000
1	 1.196044044409403e+000	 3.068466696790535e+000	 5.078436902039273e+000
1	 1.163548974551707e+000	 3.080935346262660e+000	 4.616509051729405e+000
1	 1.130998189396973e+000	 3.093032740513514e+000	 4.062556275042980e+000
1	 1.098397740721089e+000	 3.104759328737387e+000	 3.411605213137333e+000
1	 1.065753641439071e+000	 3.116115684793267e+000	 2.658803550284268e+000
1	 1.033071862586746e+000	 3.127102505413966e+000	 1.799426095720082e+000
1	 1.000358330381453e+000	 3.137720608334429e+000	 8.288805653023517e-001
1	 9.676189233639758e-001	 3.147970930342888e+000	-2.572869427649985e-001
1	 1.303605187588521e+000	 3.053356840633026e+000	 6.031824889319732e+000
1	 1.271052434737831e+000	 3.067050675493101e+000	 5.830391884275924e+000
1	 1.238425009605759e+000	 3.080369661169275e+000	 5.554881475112212e+000
1	 1.205729111483903e+000	 3.093313863505989e+000	 5.199908611674261e+000
1	 1.172970910069433e+000	 3.105883478913984e+000	 4.760195419736452e+000
1	 1.140156542198578e+000	 3.118078832830393e+000	 4.230578250035809e+000
1	 1.107292108652001e+000	 3.129900378086907e+000	 3.606014435568826e+000
1	 1.074383671034811e+000	 3.141348693189400e+000	 2.881588748923501e+000
1	 1.041437248733813e+000	 3.152424480512545e+000	 2.052519552301509e+000
1	 1.008458815954396e+000	 3.163128564412980e+000	 1.114164633768497e+000
1	 9.754542988393339e-001	 3.173461889264667e+000	 6.202672415195519e-002
1	 1.314076448139491e+000	 3.077883050972602e+000	 6.068596779102178e+000
1	 1.281262214006022e+000	 3.091686882106064e+000	 5.880555250332483e+000
1	 1.248372707783021e+000	 3.105112853064621e+000	 5.620881918769998e+000
1	 1.215414178558155e+000	 3.118161030221624e+000	 5.284135190134178e+000
1	 1.182392845586939e+000	 3.130831611565499e+000	 4.864987540014846e+000
1	 1.149314894999995e+000	 3.143124925147479e+000	 4.358232603839342e+000
1	 1.116186476582760e+000	 3.155041427436653e+000	 3.758791961146902e+000
1	 1.083013700630438e+000	 3.166581701585775e+000	 3.061721606146466e+000
1	 1.049802634880804e+000	 3.177746455611380e+000	 2.262218097446195e+000
1	 1.016559301527304e+000	 3.188536520491794e+000	 1.355624380755033e+000
1	 9.832896743146951e-001	 3.198952848186712e+000	 3.374352792652394e-001
1	 1.324547708690028e+000	 3.102409261312412e+000	 6.073435584123745e+000
1	 1.291471993273796e+000	 3.116323088719257e+000	 5.896731602513841e+000
1	 1.258320405959892e+000	 3.129856044960207e+000	 5.650939361927102e+000
1	 1.225099245632046e+000	 3.143008196937515e+000	 5.330591316238780e+000
1	 1.191814781104125e+000	 3.155779744217294e+000	 4.930341657548341e+000
1	 1.158473247801138e+000	 3.168171017464872e+000	 4.444973379393975e+000
1	 1.125080844513294e+000	 3.180182476786733e+000	 3.869405020225742e+000
1	 1.091643730225893e+000	 3.191814709982507e+000	 3.198697079456207e+000
1	 1.058168021027681e+000	 3.203068430710596e+000	 2.428058099347590e+000
1	 1.024659787100156e+000	 3.213944476571005e+000	 1.552850406931098e+000
1	 9.911250497900614e-001	 3.224443807109156e+000	 5.685955110862455e-001
1	 1.335018969240017e+000	 3.126935471652506e+000	 6.045988399392326e+000
1	 1.301681772541034e+000	 3.140959295332738e+000	 5.878498202220825e+000
1	 1.268268104136253e+000	 3.154599236856098e+000	 5.644579350779039e+000
1	 1.234784312705468e+000	 3.167855363653740e+000	 5.338768150296298e+000
1	 1.201236716620890e+000	 3.180727876869459e+000	 4.955731077154482e+000
1	 1.167631600601917e+000	 3.193217109782673e+000	 4.490271748561203e+000
1	 1.133975212443531e+000	 3.205323526137257e+000	 3.937337558337242e+000
1	 1.100273759821121e+000	 3.217047718379722e+000	 3.292025971618724e+000
1	 1.066533407174408e+000	 3.228390405810319e+000	 2.549590472238371e+000
1	 1.032760272672935e+000	 3.239352432650741e+000	 1.705446157509037e+000
1	 9.989604252654352e-001	 3.249934766032135e+000	 7.551749760845050e-001
1	 9.206066705118042e-001	 2.995025176810348e+000	-3.074484210612806e+000
1	 8.894388508920191e-001	 3.004428571538802e+000	-4.496140661644236e+000
1	 8.582574502751356e-001	 3.013484164285996e+000	-6.051143709958140e+000
1	 8.270679074953227e-001	 3.022193169862039e+000	-7.745900170945696e+000
1	 7.958756060941372e-001	 3.030556908289346e+000	-9.586626381087514e+000
1	 7.646858720132438e-001	 3.038576802639415e+000	-1.157934036031642e+001
1	 7.335039713734896e-001	 3.046254376817458e+000	-1.372985444673960e+001
1	 7.023351083413049e-001	 3.053591253298464e+000	-1.604376840792133e+001
1	 6.711844230832484e-001	 3.060589150818338e+000	-1.852646303170383e+001
1	 6.400569898093635e-001	 3.067249882023707e+000	-2.118309419834339e+001
1	 6.089578149058431e-001	 3.073575351083983e+000	-2.401858743457054e+001
1	 9.284420459871779e-001	 3.020516135733327e+000	-2.499608544776109e+000
1	 8.970089539361903e-001	 3.029999563695273e+000	-3.885096754948287e+000
1	 8.655621652988902e-001	 3.039132229498540e+000	-5.403072698146843e+000
1	 8.341071651999050e-001	 3.047915358292587e+000	-7.059302803861191e+000
1	 8.026493830006501e-001	 3.056350281334656e+000	-8.859361273242380e+000
1	 7.711941899724105e-001	 3.064438433808137e+000	-1.080862324071287e+001
1	 7.397468970565124e-001	 3.072181352588336e+000	-1.291225838931914e+001
1	 7.083127527125638e-001	 3.079580673959275e+000	-1.517522502256586e+001
1	 6.768969408555946e-001	 3.086638131285180e+000	-1.760226459432816e+001
1	 6.455045788827541e-001	 3.093355552640277e+000	-2.019789669732622e+001
1	 6.141407157900874e-001	 3.099734858400542e+000	-2.296641450956182e+001
1	 9.362774214625443e-001	 3.046007094655771e+000	-1.966326388451705e+000
1	 9.045790569802750e-001	 3.055570555851223e+000	-3.315800675195630e+000
1	 8.728668803224783e-001	 3.064780294710581e+000	-4.796455749597415e+000
1	 8.411464229042434e-001	 3.073637546722664e+000	-6.413419248420770e+000
1	 8.094231599068449e-001	 3.082143654379540e+000	-8.171625665799384e+000
1	 7.777025079311873e-001	 3.090300064976481e+000	-1.007581050548410e+001
1	 7.459898227390770e-001	 3.098108328358891e+000	-1.213050486703464e+001
1	 7.142903970833032e-001	 3.105570094619816e+000	-1.434003046727268e+001
1	 6.826094586273637e-001	 3.112687111751801e+000	-1.670849509725722e+001
1	 6.509521679555173e-001	 3.119461223256674e+000	-1.923978851401627e+001
1	 6.193236166736610e-001	 3.125894365716972e+000	-2.193757876527545e+001
1	 9.441127969379056e-001	 3.071498053577817e+000	-1.475055596714172e+000
1	 9.121491600242940e-001	 3.081141548006778e+000	-2.788591017888097e+000
1	 8.801715953459424e-001	 3.090428359922246e+000	-4.231568652996559e+000
1	 8.481856806083995e-001	 3.099359735152392e+000	-5.808478864485296e+000
1	 8.161969368128004e-001	 3.107937027424103e+000	-7.523618780430576e+000
1	 7.842108258896708e-001	 3.116161696144542e+000	-9.381087429093620e+000
1	 7.522327484212990e-001	 3.124035304129198e+000	-1.138478128644922e+001
1	 7.202680414536518e-001	 3.131559515280150e+000	-1.353839023662424e+001
1	 6.883219763986999e-001	 3.138736092218256e+000	-1.584539394421497e+001
1	 6.563997570278098e-001	 3.145566893872942e+000	-1.830905863651237e+001
1	 6.245065175567315e-001	 3.152053873033303e+000	-2.093243429276020e+001
1	 9.519481724132636e-001	 3.096989012499596e+000	-1.026200267369855e+000
1	 9.197192630682695e-001	 3.106712540162070e+000	-2.303795230764972e+000
1	 8.874763103693232e-001	 3.116076425133662e+000	-3.708678117091230e+000
1	 8.552249383124337e-001	 3.125081923581885e+000	-5.244703460577145e+000
1	 8.229707137185969e-001	 3.133730400468455e+000	-6.915533279725367e+000
1	 7.907191438479603e-001	 3.142023327312415e+000	-8.724633186113989e+000
1	 7.584756741032915e-001	 3.149962279899343e+000	-1.067526888403885e+001
1	 7.262456858237402e-001	 3.157548935940349e+000	-1.277050305959395e+001
1	 6.940344941697477e-001	 3.164785072684600e+000	-1.501319265690743e+001
1	 6.618473460997887e-001	 3.171672564489124e+000	-1.740598653840204e+001
1	 6.296894184394667e-001	 3.178213380349571e+000	-1.995132352513387e+001
1	 9.597835478886195e-001	 3.122479971421242e+000	-6.201513025074420e-001
1	 9.272893661122238e-001	 3.132283532317234e+000	-1.861730068837472e+000
1	 8.947810253926622e-001	 3.141724490344950e+000	-3.228042141317619e+000
1	 8.622641960164071e-001	 3.150804112011263e+000	-4.722307602114114e+000
1	 8.297444906243133e-001	 3.159523773512700e+000	-6.347555534922228e+000
1	 7.972274618061515e-001	 3.167884958480192e+000	-8.106621100214520e+000
1	 7.647185997851699e-001	 3.175889255669407e+000	-1.000214297804519e+001
1	 7.322233301936989e-001	 3.183538356600478e+000	-1.203656117570769e+001
1	 6.997470119406511e-001	 3.190834053150890e+000	-1.421211519675430e+001
1	 6.672949351716104e-001	 3.197778235105263e+000	-1.653084256712890e+001
1	 6.348723193220341e-001	 3.204372887665806e+000	-1.899457771344203e+001
1	 9.676189233639758e-001	 3.147970930342888e+000	-2.572869427649985e-001
1	 9.348594691561778e-001	 3.157854524472396e+000	-1.462702027315063e+000
1	 9.020857404160018e-001	 3.167372555556241e+000	-2.789910368422993e+000
1	 8.693034537203804e-001	 3.176526300440638e+000	-4.241498904667483e+000
1	 8.365182675300302e-001	 3.185317146556945e+000	-5.819865880631920e+000
1	 8.037357797643429e-001	 3.193746589647969e+000	-7.527218881052249e+000
1	 7.709615254670481e-001	 3.201816231439471e+000	-9.365573208092846e+000
1	 7.382009745636574e-001	 3.209527777260609e+000	-1.133675059778802e+001
1	 7.054595297115545e-001	 3.216883033617179e+000	-1.344237827098866e+001
1	 6.727425242434325e-001	 3.223883905721402e+000	-1.568388831349130e+001
1	 6.400552202046016e-001	 3.230532394982041e+000	-1.806251737939623e+001
1	 9.754542988393339e-001	 3.173461889264667e+000	 6.202672415195519e-002
1	 9.424295722001534e-001	 3.183425516627688e+000	-1.107007753666727e+000
1	 9.093904554393824e-001	 3.193020620767654e+000	-2.394524420092787e+000
1	 8.763427114244147e-001	 3.202248488870132e+000	-3.802478313086685e+000
1	 8.432920444358267e-001	 3.211110519601296e+000	-5.332638857285111e+000
1	 8.102440977226320e-001	 3.219608220815843e+000	-6.986588849745539e+000
1	 7.772044511490408e-001	 3.227743207209616e+000	-8.765723763257434e+000
1	 7.441786189337460e-001	 3.235517197920807e+000	-1.067125136203500e+001
1	 7.111720474826019e-001	 3.242932014083524e+000	-1.270419162400494e+001
1	 6.781901133154112e-001	 3.249989576337585e+000	-1.486537696333228e+001
1	 6.452381210873366e-001	 3.256691902298308e+000	-1.715545274629295e+001
1	 9.832896743146951e-001	 3.198952848186712e+000	 3.374352792652394e-001
1	 9.499996752441726e-001	 3.208996508783244e+000	-7.949344399811188e-001
1	 9.166951704628461e-001	 3.218668685979320e+000	-2.042118216531089e+000
1	 8.833819691285707e-001	 3.227970677299859e+000	-3.405440367278460e+000
1	 8.500658213417820e-001	 3.236903892645859e+000	-4.886043441987410e+000
1	 8.167524156811158e-001	 3.245469851983902e+000	-6.484888153567900e+000
1	 7.834473768312622e-001	 3.253670182979923e+000	-8.202753599230064e+000
1	 7.501562633040948e-001	 3.261506618581142e+000	-1.004023776615068e+001
1	 7.168845652539382e-001	 3.268980994549978e+000	-1.199775831477630e+001
1	 6.836377023877035e-001	 3.276095246953852e+000	-1.407555363241528e+001
1	 6.504210219704072e-001	 3.282851409614640e+000	-1.627368414932975e+001
1	 9.911250497900614e-001	 3.224443807109156e+000	 5.685955110862455e-001
1	 9.575697782882571e-001	 3.234567500939191e+000	-5.267601967158572e-001
1	 9.239998854864346e-001	 3.244316751191363e+000	-1.732918280882244e+000
1	 8.904212268329095e-001	 3.253692865729938e+000	-3.050573455379231e+000
1	 8.568395982479764e-001	 3.262697265690743e+000	-4.480243268424908e+000
1	 8.232607336398921e-001	 3.271331483152246e+000	-6.022268970457642e+000
1	 7.896903025138271e-001	 3.279597158750477e+000	-7.676816645180563e+000
1	 7.561339076748334e-001	 3.287496039241681e+000	-9.443878596168418e+000
1	 7.225970830257071e-001	 3.295029975016600e+000	-1.132327498111417e+001
1	 6.890852914604664e-001	 3.302200917570249e+000	-1.331465568541543e+001
1	 6.556039228539802e-001	 3.309010916931070e+000	-1.541750242645850e+001
1	 9.989604252654352e-001	 3.249934766032135e+000	 7.551749760845050e-001
1	 9.651398813324286e-001	 3.260138493095665e+000	-3.027544088577409e-001
1	 9.313046005101890e-001	 3.269964816403907e+000	-1.467144029326127e+000
1	 8.974604845374918e-001	 3.279415054160485e+000	-2.738060055013213e+000
1	 8.636133751544897e-001	 3.288490638736054e+000	-4.115396836420223e+000
1	 8.297690515990591e-001	 3.297193114320970e+000	-5.598878703903678e+000
1	 7.959332281968499e-001	 3.305524134521356e+000	-7.188062000885788e+000
1	 7.621115520460927e-001	 3.313485459902493e+000	-8.882337342607377e+000
1	 7.283096007980531e-001	 3.321078955483442e+000	-1.068093209149040e+001
1	 6.945328805338571e-001	 3.328306588186819e+000	-1.258291303989892e+001
1	 6.607868237382243e-001	 3.335170424247628e+000	-1.458718929084494e+001
1	 6.089578149058431e-001	 3.073575351083983e+000	-2.401858743457054e+001
1	 5.778964908983216e-001	 3.079566677810540e+000	-2.706485551519770e+001
1	 5.468732083162867e-001	 3.085226917223479e+000	-3.036074637864812e+001
1	 5.158927506883084e-001	 3.090558234994752e+000	-3.391991146996326e+001
1	 4.849598273529440e-001	 3.095562878368370e+000	-3.775574104515133e+001
1	 4.540790720423593e-001	 3.100243173639482e+000	-4.188134537258980e+001
1	 4.232550415549730e-001	 3.104601523616498e+000	-4.630953682592268e+001
1	 3.924922145166819e-001	 3.108640405069572e+000	-5.105281287978614e+001
1	 3.617949902300640e-001	 3.112362366168643e+000	-5.612334001727943e+001
1	 3.311676876108508e-001	 3.115770023914197e+000	-6.153293855573847e+001
1	 3.006145442108607e-001	 3.118866061563839e+000	-6.729306839506101e+001
1	 6.141407157900874e-001	 3.099734858400542e+000	-2.296641450956182e+001
1	 5.828150257461738e-001	 3.105777177908166e+000	-2.594070589407419e+001
1	 5.515277009021272e-001	 3.111485592184849e+000	-2.916060363081394e+001
1	 5.202835654996195e-001	 3.116862285334807e+000	-3.263917242824616e+001
1	 4.890873689588724e-001	 3.121909523728591e+000	-3.638921103396475e+001
1	 4.579437844502214e-001	 3.126629653460698e+000	-4.042323424919957e+001
1	 4.268574075554643e-001	 3.131025097790100e+000	-4.475345582473393e+001
1	 3.958327550185428e-001	 3.135098354567003e+000	-4.939177224834624e+001
1	 3.648742635849503e-001	 3.138851993649093e+000	-5.434974743153811e+001
1	 3.339862889291539e-001	 3.142288654310430e+000	-5.963859830100258e+001
1	 3.031731046692104e-001	 3.145411042646106e+000	-6.526918129805034e+001
1	 6.193236166736610e-001	 3.125894365716972e+000	-2.193757876527545e+001
1	 5.877335605933207e-001	 3.131987678005702e+000	-2.483559029536234e+001
1	 5.561821934872365e-001	 3.137744267146154e+000	-2.797439455754689e+001
1	 5.246743803101857e-001	 3.143166335674824e+000	-3.136631874909191e+001
1	 4.932149105640552e-001	 3.148256169088801e+000	-3.502342105450044e+001
1	 4.618084968573515e-001	 3.153016133281928e+000	-3.895747369467321e+001
1	 4.304597735552533e-001	 3.157448671963742e+000	-4.317994683871994e+001
1	 3.991732955197487e-001	 3.161556304064507e+000	-4.770199338714870e+001
1	 3.679535369392488e-001	 3.165341621129662e+000	-5.253443463288439e+001
1	 3.368048902469567e-001	 3.168807284706830e+000	-5.768774680435116e+001
1	 3.057316651271697e-001	 3.171956023728603e+000	-6.317204849270008e+001
1	 6.245065175567315e-001	 3.152053873033303e+000	-2.093243429276020e+001
1	 5.926520954399379e-001	 3.158198178103163e+000	-2.374993006294638e+001
1	 5.608366860717978e-001	 3.164002942107413e+000	-2.680259928441442e+001
1	 5.290651951201936e-001	 3.169470386014816e+000	-3.010188476812106e+001
1	 4.973424521686786e-001	 3.174602814449002e+000	-3.365895894507830e+001
1	 4.656732092639322e-001	 3.179402613103171e+000	-3.748470816883468e+001
1	 4.340621395545159e-001	 3.183872246137423e+000	-4.158971785329565e+001
1	 4.025138360204639e-001	 3.188014253562083e+000	-4.598425845303834e+001
1	 3.710328102931063e-001	 3.191831248610334e+000	-5.067827229111941e+001
1	 3.396234915643843e-001	 3.195325915103381e+000	-5.568136123726602e+001
1	 3.082902255848362e-001	 3.198501004811306e+000	-6.100277523729648e+001
1	 6.296894184394667e-001	 3.178213380349571e+000	-1.995132352513387e+001
1	 5.975706302862025e-001	 3.184408678200579e+000	-2.268413266857807e+001
1	 5.654911786559937e-001	 3.190261617068638e+000	-2.564568212955015e+001
1	 5.334560099298289e-001	 3.195774436354789e+000	-2.884638722873370e+001
1	 5.014699937729290e-001	 3.200949459809202e+000	-3.229639319029933e+001
1	 4.695379216701472e-001	 3.205789092924431e+000	-3.600556091360959e+001
1	 4.376645055534270e-001	 3.210295820311139e+000	-3.998345354449016e+001
1	 4.058543765208516e-001	 3.214472203059717e+000	-4.423932385148840e+001
1	 3.741120836466699e-001	 3.218320876091100e+000	-4.878210241051349e+001
1	 3.424420928815618e-001	 3.221844545500062e+000	-5.362038659928683e+001
1	 3.108487860423075e-001	 3.225045985894189e+000	-5.876243040111399e+001
1	 6.348723193220341e-001	 3.204372887665806e+000	-1.899457771344203e+001
1	 6.024891651322907e-001	 3.210619178297972e+000	-2.163859227811549e+001
1	 5.701456712400070e-001	 3.216520292029850e+000	-2.450409224888895e+001
1	 5.378468247392780e-001	 3.222078486694757e+000	-2.760032600019622e+001
1	 5.055975353769930e-001	 3.227296105169404e+000	-3.093627371103445e+001
1	 4.734026340761792e-001	 3.232175572745705e+000	-3.452063481910576e+001
1	 4.412668715521625e-001	 3.236719394484886e+000	-3.836181623039958e+001
1	 4.091949170210756e-001	 3.240930152557404e+000	-4.246792128773166e+001
1	 3.771913570000865e-001	 3.244810503571943e+000	-4.684673949988868e+001
1	 3.452606941986142e-001	 3.248363175896857e+000	-5.150573703121918e+001
1	 3.134073464996812e-001	 3.251590966977224e+000	-5.645204794975688e+001
1	 6.400552202046016e-001	 3.230532394982041e+000	-1.806251737939624e+001
1	 6.074076999783787e-001	 3.236829678395365e+000	-2.061369029025055e+001
1	 5.748001638240200e-001	 3.242778966991062e+000	-2.337826425005240e+001
1	 5.422376395487272e-001	 3.248382537034726e+000	-2.636418476083984e+001
1	 5.097250769810570e-001	 3.253642750529616e+000	-2.957913261603115e+001
1	 4.772673464822108e-001	 3.258562052566995e+000	-3.303051324761628e+001
1	 4.448692375508982e-001	 3.263142968658663e+000	-3.672544677641219e+001
1	 4.125354575212996e-001	 3.267388102055136e+000	-4.067075876682072e+001
1	 3.802706303535030e-001	 3.271300131052852e+000	-4.487297168585112e+001
1	 3.480792955156666e-001	 3.274881806293745e+000	-4.933829706454070e+001
1	 3.159659069570548e-001	 3.278135948060387e+000	-5.407262835833712e+001
1	 6.452381210873366e-001	 3.256691902298308e+000	-1.715545274629295e+001
1	 6.123262348246433e-001	 3.263040178492782e+000	-1.960979584927296e+001
1	 5.794546564082159e-001	 3.269037641952292e+000	-2.226861877664795e+001
1	 5.466284543583625e-001	 3.274686587374711e+000	-2.513843164833191e+001
1	 5.138526185853074e-001	 3.279989395889841e+000	-2.822548491729556e+001
1	 4.811320588884258e-001	 3.284948532388303e+000	-3.153576081790840e+001
1	 4.484716035498094e-001	 3.289566542832465e+000	-3.507496545680725e+001
1	 4.158759980216870e-001	 3.293846051552904e+000	-3.884852154549139e+001
1	 3.833499037070666e-001	 3.297789758533815e+000	-4.286156177237243e+001
1	 3.508978968328441e-001	 3.301400436690709e+000	-4.711892281059053e+001
1	 3.185244674145261e-001	 3.304680929143654e+000	-5.162513995654158e+001
1	 6.504210219704072e-001	 3.282851409614640e+000	-1.627368414932975e+001
1	 6.172447696712605e-001	 3.289250678590245e+000	-1.862726633331763e+001
1	 5.841091489927768e-001	 3.295296316913555e+000	-2.117556306463232e+001
1	 5.510192691683702e-001	 3.300990637714720e+000	-2.392351987885668e+001
1	 5.179801601899307e-001	 3.306336041250084e+000	-2.687582921127219e+001
1	 4.849967712950066e-001	 3.311335012209629e+000	-3.003692415201514e+001
1	 4.520739695490715e-001	 3.315990117006285e+000	-3.341097277515891e+001
1	 4.192165385224019e-001	 3.320304001050699e+000	-3.700187303851507e+001
1	 3.864291770609240e-001	 3.324279386014817e+000	-4.081324824970962e+001
1	 3.537164981502716e-001	 3.327919067087727e+000	-4.484844309290340e+001
1	 3.210830278721925e-001	 3.331225910226997e+000	-4.911052020939181e+001
1	 6.556039228539802e-001	 3.309010916931070e+000	-1.541750242645850e+001
1	 6.221633045184069e-001	 3.315461178687778e+000	-1.766644781945346e+001
1	 5.887636415778862e-001	 3.321554991874869e+000	-2.009949147228448e+001
1	 5.554100839789363e-001	 3.327294688054762e+000	-2.271988833692719e+001
1	 5.221077017951132e-001	 3.332682686610352e+000	-2.553064832771257e+001
1	 4.888614837021363e-001	 3.337721492030971e+000	-2.853453258660429e+001
1	 4.556763355488605e-001	 3.342413691180124e+000	-3.173405024582595e+001
1	 4.225570790236078e-001	 3.346761950548516e+000	-3.513145568206120e+001
1	 3.895084504152222e-001	 3.350769013495848e+000	-3.872874625546988e+001
1	 3.565350994680742e-001	 3.354437697484785e+000	-4.252766052583259e+001
1	 3.236415883301516e-001	 3.357770891310391e+000	-4.652967693725174e+001
1	 6.607868237382243e-001	 3.335170424247628e+000	-1.458718929084494e+001
1	 6.270818393662591e-001	 3.341671678785408e+000	-1.672767552688436e+001
1	 5.934181341637264e-001	 3.347813666836248e+000	-1.904078598523769e+001
1	 5.598008987902472e-001	 3.353598738394850e+000	-2.152796213743888e+001
1	 5.262352434010413e-001	 3.359029331970649e+000	-2.419040994800745e+001
1	 4.927261961099982e-001	 3.364107971852334e+000	-2.702909885086928e+001
1	 4.592787015493515e-001	 3.368837265353978e+000	-3.004476113866377e+001
1	 4.258976195254683e-001	 3.373219900046345e+000	-3.323789175642753e+001
1	 3.925877237701084e-001	 3.377258640976893e+000	-3.660874849044600e+001
1	 3.593537007863771e-001	 3.380956327881860e+000	-4.015735254241186e+001
1	 3.262001487885013e-001	 3.384315872393811e+000	-4.388348947842140e+001
1	 3.006145442108607e-001	 3.118866061563839e+000	-6.729306839506101e+001
1	 2.701351603285507e-001	 3.121653621246674e+000	-7.341837661486130e+001
1	 2.397382515072781e-001	 3.124135025063762e+000	-7.992378340172610e+001
1	 2.094278692182750e-001	 3.126313141612288e+000	-8.682326638668872e+001
1	 1.792079785623931e-001	 3.128190895538556e+000	-9.413040926106672e+001
1	 1.490824577193054e-001	 3.129771264960268e+000	-1.018583875178025e+002
1	 1.190550974780862e-001	 3.131057278902433e+000	-1.100199551890100e+002
1	 8.912960084760466e-002	 3.132052014749406e+000	-1.186274325744074e+002
1	 5.930958274510228e-002	 3.132758595715478e+000	-1.276926949533444e+002
1	 2.959856976126172e-002	 3.133180188336288e+000	-1.372271622712383e+002
1	 0.000000000000000e+000	 3.133319999983334e+000	-1.472417897894567e+002
1	 3.031731046692104e-001	 3.145411042646106e+000	-6.526918129805034e+001
1	 2.724343077016805e-001	 3.148222327528214e+000	-7.125648562826052e+001
1	 2.417786877487560e-001	 3.150724850821440e+000	-7.761646325141778e+001
1	 2.112103307641123e-001	 3.152921505537871e+000	-8.436345752368949e+001
1	 1.807332355959375e-001	 3.154815241215753e+000	-9.151141024525110e+001
1	 1.503513134314467e-001	 3.156409061319833e+000	-9.907384675602128e+001
1	 1.200683873234671e-001	 3.157706020655442e+000	-1.070638620638815e+002
1	 8.988819179751452e-002	 3.158709222798845e+000	-1.154941080000254e+002
1	 5.981437253772146e-002	 3.159421817546308e+000	-1.243767813940270e+002
1	 2.985048614990561e-002	 3.159846998384162e+000	-1.337236132592532e+002
1	 0.000000000000000e+000	 3.159987999982150e+000	-1.435458589773857e+002
1	 3.057316651271697e-001	 3.171956023728603e+000	-6.317204849270009e+001
1	 2.747334550745512e-001	 3.174791033810060e+000	-6.900258419069596e+001
1	 2.438191239901174e-001	 3.177314676579507e+000	-7.519618226167118e+001
1	 2.129927923099747e-001	 3.179529869463931e+000	-8.176731236779558e+001
1	 1.822584926296357e-001	 3.181439586893518e+000	-8.873003984221248e+001
1	 1.516201691438457e-001	 3.183046857680052e+000	-9.609801039939507e+001
1	 1.210816771691728e-001	 3.184354762409182e+000	-1.038844358991135e+002
1	 9.064678274776827e-002	 3.185366430849083e+000	-1.121020811586526e+002
1	 6.031916233064413e-002	 3.186085039377992e+000	-1.207632518058018e+002
1	 3.010240253874203e-002	 3.186513808432925e+000	-1.298797831631388e+002
1	 0.000000000000000e+000	 3.186655999981866e+000	-1.394630301522145e+002
1	 3.082902255848362e-001	 3.198501004811306e+000	-6.100277523729648e+001
1	 2.770326024472274e-001	 3.201359740092179e+000	-6.665792488465939e+001
1	 2.458595602313915e-001	 3.203904502337920e+000	-7.266435907484038e+001
1	 2.147752538558560e-001	 3.206138233390415e+000	-7.903644068278896e+001
1	 1.837837496634492e-001	 3.208063932571783e+000	-8.578813023756041e+001
1	 1.528890248564379e-001	 3.209684654040851e+000	-9.293297050394077e+001
1	 1.220949670151220e-001	 3.211003504163571e+000	-1.004840721238664e+002
1	 9.140537369827995e-002	 3.212023638900031e+000	-1.084541003122748e+002
1	 6.082395212379443e-002	 3.212748261210434e+000	-1.168552625999106e+002
1	 3.035431892772286e-002	 3.213180618482476e+000	-1.256992976135753e+002
1	 0.000000000000000e+000	 3.213323999982383e+000	-1.349974648823937e+002
1	 3.108487860423075e-001	 3.225045985894189e+000	-5.876243040111399e+001
1	 2.793317498197742e-001	 3.227928446374532e+000	-6.422371905319649e+001
1	 2.478999964726072e-001	 3.230494328096633e+000	-7.002236562655486e+001
1	 2.165577154017498e-001	 3.232746597317268e+000	-7.617239923333533e+001
1	 1.853090066973396e-001	 3.234688278250491e+000	-8.268745329487317e+001
1	 1.541578805691588e-001	 3.236322450402154e+000	-8.958075024779031e+001
1	 1.231082568612337e-001	 3.237652245918531e+000	-9.686508730129641e+001
1	 9.216396464896356e-002	 3.238680846951602e+000	-1.045528232403670e+002
1	 6.132874191709650e-002	 3.239411483043539e+000	-1.126558662673634e+002
1	 3.060623531679994e-002	 3.239847428532718e+000	-1.211856628726421e+002
1	 0.000000000000000e+000	 3.239991999983599e+000	-1.301531877227995e+002
1	 3.134073464996812e-001	 3.251590966977224e+000	-5.645204794975688e+001
1	 2.816308971922560e-001	 3.254497152657088e+000	-6.170113848323776e+001
1	 2.499404327137938e-001	 3.257084153855606e+000	-6.727152905221813e+001
1	 2.183401769476500e-001	 3.259354961244440e+000	-7.317669394832520e+001
1	 1.868342637312685e-001	 3.261312623929575e+000	-7.942972301795096e+001
1	 1.554267362819441e-001	 3.262960246763894e+000	-8.604330674267960e+001
1	 1.241215467074266e-001	 3.264300987673977e+000	-9.302972234774470e+001
1	 9.292255559973316e-002	 3.265338055003706e+000	-1.004008209332495e+002
1	 6.183353171047444e-002	 3.266074704877214e+000	-1.081680156208014e+002
1	 3.085815170592516e-002	 3.266514238583551e+000	-1.163422707062600e+002
1	 0.000000000000000e+000	 3.266659999985416e+000	-1.249340918074158e+002
1	 3.159659069570548e-001	 3.278135948060387e+000	-5.407262835833712e+001
1	 2.839300445647380e-001	 3.281065858939814e+000	-5.909131700714239e+001
1	 2.519808689549805e-001	 3.283673979614793e+000	-6.441313350087353e+001
1	 2.201226384935501e-001	 3.285963325171877e+000	-7.005078197910886e+001
1	 1.883595207651974e-001	 3.287936969608975e+000	-7.601659789343803e+001
1	 1.566955919947295e-001	 3.289598043125997e+000	-8.232253370884050e+001
1	 1.251348365536195e-001	 3.290949729429829e+000	-8.898014559552087e+001
1	 9.368114655050273e-002	 3.291995263056253e+000	-9.600058110600060e+001
1	 6.233832150385239e-002	 3.292737926711360e+000	-1.033945678302668e+002
1	 3.111006809505041e-002	 3.293181048634879e+000	-1.111724030199012e+002
1	 0.000000000000000e+000	 3.293327999987732e+000	-1.193439441702909e+002
1	 3.185244674145261e-001	 3.304680929143654e+000	-5.162513995654158e+001
1	 2.862291919372847e-001	 3.307634565222676e+000	-5.639535202705677e+001
1	 2.540213051961963e-001	 3.310263805374154e+000	-6.144842186165360e+001
1	 2.219051000394439e-001	 3.312571689099526e+000	-6.679607365853536e+001
1	 1.898847777990878e-001	 3.314561315288624e+000	-7.244968312054174e+001
1	 1.579644477074505e-001	 3.316235839488389e+000	-7.842026402097521e+001
1	 1.261481263997312e-001	 3.317598471186007e+000	-8.471845570807362e+001
1	 9.443973750118642e-002	 3.318652471109158e+000	-9.135451154301659e+001
1	 6.284311129715450e-002	 3.319401148545888e+000	-9.833828826446943e+001
1	 3.136198448412752e-002	 3.319847858686600e+000	-1.056792362708815e+002
1	 0.000000000000000e+000	 3.319995999990449e+000	-1.133863908100493e+002
1	 3.210830278721925e-001	 3.331225910226997e+000	-4.911052020939180e+001
1	 2.885283393099610e-001	 3.334203271505640e+000	-5.361430596639037e+001
1	 2.560617414374702e-001	 3.336853631133645e+000	-5.837859740768413e+001
1	 2.236875615853252e-001	 3.339180053027334e+000	-6.341393436632509e+001
1	 1.914100348329013e-001	 3.341185660968463e+000	-6.873053273414635e+001
1	 1.592333034200427e-001	 3.342873635850998e+000	-7.433827213250450e+001
1	 1.271614162456806e-001	 3.344247212942430e+000	-8.024668445578429e+001
1	 9.519832845169815e-002	 3.345309679162326e+000	-8.646494328266329e+001
1	 6.334790109030486e-002	 3.346064370380699e+000	-9.300185414839449e+001
1	 3.161390087310839e-002	 3.346514668738616e+000	-9.986584566969593e+001
1	 0.000000000000000e+000	 3.346663999993465e+000	-1.070649615122657e+002
1	 3.236415883301516e-001	 3.357770891310391e+000	-4.652967693725173e+001
1	 2.908274866828316e-001	 3.360771977788671e+000	-5.074920765244443e+001
1	 2.581021776788315e-001	 3.363443456893221e+000	-5.520482536201367e+001
1	 2.254700231311878e-001	 3.365788416955247e+000	-5.990568630596349e+001
1	 1.929352918665995e-001	 3.367810006648428e+000	-6.486065162722062e+001
1	 1.605021591324418e-001	 3.369511432213754e+000	-7.007827638482667e+001
1	 1.281747060913863e-001	 3.370895954699014e+000	-7.556679936009546e+001
1	 9.595691940195203e-002	 3.371966887215674e+000	-8.133413365086855e+001
1	 6.385269088322762e-002	 3.372727592215699e+000	-8.738785804742216e+001
1	 3.186581726194487e-002	 3.373181478790831e+000	-9.373520918207031e+001
1	 0.000000000000000e+000	 3.373331999996682e+000	-1.003830744430951e+002
1	 3.262001487885013e-001	 3.384315872393811e+000	-4.388348947842140e+001
1	 2.931266340559612e-001	 3.387340684071736e+000	-4.780105363397146e+001
1	 2.601426139203095e-001	 3.390033282652841e+000	-5.192823438984771e+001
1	 2.272524846770250e-001	 3.392396780883214e+000	-5.627261019797153e+001
1	 1.944605489001440e-001	 3.394434352328458e+000	-6.084149747804838e+001
1	 1.617710148445833e-001	 3.396149228576582e+000	-6.564194120789847e+001
1	 1.291879959367674e-001	 3.397544696455680e+000	-7.068070621320399e+001
1	 9.671551035186207e-002	 3.398624095269112e+000	-7.596426915195279e+001
1	 6.435748067584694e-002	 3.399390814050797e+000	-8.149881118747766e+001
1	 3.211773365058886e-002	 3.399848288843145e+000	-8.729021134267239e+001
1	 0.000000000000000e+000	 3.400000000000000e+000	-9.334404052672412e+001
1	 3.400000000000000e+000	 0.000000000000000e+000	 7.313230620609710e+001
1	 3.399848288843145e+000	 3.211773365058896e-002	 6.843714284322689e+001
1	 3.399390814050797e+000	 6.435748067584715e-002	 6.388485049604014e+001
1	 3.398624095269110e+000	 9.671551035186184e-002	 5.947762368732955e+001
1	 3.397544696455680e+000	 1.291879959367673e-001	 5.521756501205556e+001
1	 3.396149228576581e+000	 1.617710148445832e-001	 5.110668277506054e+001
1	 3.394434352328458e+000	 1.944605489001441e-001	 4.714688871180312e+001
1	 3.392396780883214e+000	 2.272524846770251e-001	 4.333999579796697e+001
1	 3.390033282652842e+000	 2.601426139203092e-001	 3.968771615378335e+001
1	 3.387340684071737e+000	 2.931266340559610e-001	 3.619165904887818e+001
1	 3.384315872393811e+000	 3.262001487885011e-001	 3.285332901340753e+001
1	 3.426668000003317e+000	 0.000000000000000e+000	 6.943553350930530e+001
1	 3.426515098895459e+000	 3.236965003900857e-002	 6.498573662916520e+001
1	 3.426054035885893e+000	 6.486227046811326e-002	 6.066725397193734e+001
1	 3.425281303322550e+000	 9.747410130137259e-002	 5.648273646362683e+001
1	 3.424193438212349e+000	 1.302012857817725e-001	 5.243474685948949e+001
1	 3.422787024939412e+000	 1.630398705564287e-001	 4.852575675501147e+001
1	 3.421058698008491e+000	 1.959858059335152e-001	 4.475814365806197e+001
1	 3.419005144811186e+000	 2.290349462228409e-001	 4.113418812858517e+001
1	 3.416623108412468e+000	 2.621830501619324e-001	 3.765607099224748e+001
1	 3.413909390354809e+000	 2.954257814294041e-001	 3.432587063449488e+001
1	 3.410860853477238e+000	 3.287587092473185e-001	 3.114556038149703e+001
1	 3.453336000006534e+000	 0.000000000000000e+000	 6.578736146224220e+001
1	 3.453181908947675e+000	 3.262156642723706e-002	 6.158023840406753e+001
1	 3.452717257720900e+000	 6.536706026008118e-002	 5.749315263565084e+001
1	 3.451938511375909e+000	 9.823269225055065e-002	 5.352920518566431e+001
1	 3.450842179968952e+000	 1.312145756264717e-001	 4.969141105572228e+001
1	 3.449424821302194e+000	 1.643087262680443e-001	 4.598269556484600e+001
1	 3.447683043688490e+000	 1.975110629667697e-001	 4.240589073452248e+001
1	 3.445613508739141e+000	 2.308174077686786e-001	 3.896373172134660e+001
1	 3.443212934172093e+000	 2.642234864037292e-001	 3.565885330435710e+001
1	 3.440478096637889e+000	 2.977249288031721e-001	 3.249378643428106e+001
1	 3.437405834560681e+000	 3.313172697066004e-001	 2.947095485199196e+001
1	 3.480004000009550e+000	 0.000000000000000e+000	 6.219340371333033e+001
1	 3.479848718999697e+000	 3.287348281532392e-002	 5.822611880897464e+001
1	 3.479380479555727e+000	 6.587185005183192e-002	 5.436784339408760e+001
1	 3.478595719429110e+000	 9.899128319949312e-002	 5.062212235821621e+001
1	 3.477490921725428e+000	 1.322278654709649e-001	 4.699241511612032e+001
1	 3.476062617664880e+000	 1.655775819795217e-001	 4.348209124636688e+001
1	 3.474307389368426e+000	 1.990363199999830e-001	 4.009442615118906e+001
1	 3.472221872667065e+000	 2.325998693145915e-001	 3.683259674533927e+001
1	 3.469802759931711e+000	 2.662639226457270e-001	 3.369967718185267e+001
1	 3.467046802920988e+000	 3.000240761772669e-001	 3.069863462281163e+001
1	 3.463950815644158e+000	 3.338758301663241e-001	 2.783232506336085e+001
1	 3.506672000012267e+000	 0.000000000000000e+000	 5.865910314536606e+001
1	 3.506515529051426e+000	 3.312539920331866e-002	 5.492868206953926e+001
1	 3.506043701390285e+000	 6.637663984344668e-002	 5.129646202370574e+001
1	 3.505252927482078e+000	 9.974987414829721e-002	 4.776642557346030e+001
1	 3.504139663481709e+000	 1.332411553153518e-001	 4.434246879176413e+001
1	 3.502700414027417e+000	 1.668464376909529e-001	 4.102839615272175e+001
1	 3.500931735048262e+000	 2.005615770332309e-001	 3.782791542853200e+001
1	 3.498830236594934e+000	 2.343823308606330e-001	 3.474463259819208e+001
1	 3.496392585691322e+000	 2.683043588879537e-001	 3.178204677679092e+001
1	 3.493615509204113e+000	 3.023232235516896e-001	 2.894354517447246e+001
1	 3.490495796727684e+000	 3.364343906264662e-001	 2.623239809437838e+001
1	 3.533340000014583e+000	 0.000000000000000e+000	 5.518973831981584e+001
1	 3.533182339102767e+000	 3.337731559127077e-002	 5.169307227615433e+001
1	 3.532706923224484e+000	 6.688142963500651e-002	 4.828398925120114e+001
1	 3.531910135534731e+000	 1.005084650970601e-001	 4.496690335701766e+001
1	 3.530788405237732e+000	 1.342544451597326e-001	 4.174613964572710e+001
1	 3.529338210389759e+000	 1.681152934024299e-001	 3.862592821992668e+001
1	 3.527556080727968e+000	 2.020868340665887e-001	 3.561039832940529e+001
1	 3.525438600522740e+000	 2.361647924068565e-001	 3.270357246370733e+001
1	 3.522982411450922e+000	 2.703447951304369e-001	 2.990936045041135e+001
1	 3.520184215487275e+000	 3.046223709264417e-001	 2.723155356930616e+001
1	 3.517040777811276e+000	 3.389929510870034e-001	 2.467381869294861e+001
1	 3.560008000016400e+000	 0.000000000000000e+000	 5.179042963146760e+001
1	 3.559849149153620e+000	 3.362923197922979e-002	 4.852427938181505e+001
1	 3.559370145058234e+000	 6.738621942659254e-002	 4.533525656089247e+001
1	 3.558567343586992e+000	 1.012670560458787e-001	 4.222820075123635e+001
1	 3.557437146993432e+000	 1.352677350042070e-001	 3.920785837872344e+001
1	 3.555976006751857e+000	 1.693841491140445e-001	 3.627887600145615e+001
1	 3.554180426407513e+000	 2.036120911001322e-001	 3.344579356929442e+001
1	 3.552046964450459e+000	 2.379472539533151e-001	 3.071303766464626e+001
1	 3.549572237210508e+000	 2.723852313732046e-001	 2.808491473552833e+001
1	 3.546752921770479e+000	 3.069215183015246e-001	 2.556560433229492e+001
1	 3.543585758894952e+000	 3.415515115479126e-001	 2.315915235980522e+001
1	 3.586676000017616e+000	 0.000000000000000e+000	 4.846614518851165e+001
1	 3.586515959203890e+000	 3.388114836724521e-002	 4.542714493240541e+001
1	 3.586033366891444e+000	 6.789100921828585e-002	 4.245495174302799e+001
1	 3.585224551638781e+000	 1.020256469948502e-001	 3.955482464939518e+001
1	 3.584085888748746e+000	 1.362810248488751e-001	 3.673192391716940e+001
1	 3.582613803113660e+000	 1.706530048258888e-001	 3.399130347823070e+001
1	 3.580804772086859e+000	 2.051373481339368e-001	 3.133790331643188e+001
1	 3.578655328378077e+000	 2.397297155000623e-001	 2.877654182132911e+001
1	 3.576162062970080e+000	 2.744256676162844e-001	 2.631190812215390e+001
1	 3.573321628053737e+000	 3.092206656769395e-001	 2.394855441474981e+001
1	 3.570130739978726e+000	 3.441100720091705e-001	 2.169088829464272e+001
1	 3.613344000018133e+000	 0.000000000000000e+000	 4.522170643223678e+001
1	 3.613182769253481e+000	 3.413306475536653e-002	 4.240636754323311e+001
1	 3.612696588724027e+000	 6.839579901016757e-002	 3.964762419639916e+001
1	 3.611881759690020e+000	 1.027842379440719e-001	 3.695114889369508e+001
1	 3.610734630503605e+000	 1.372943146938367e-001	 3.432250827593227e+001
1	 3.609251599475124e+000	 1.719218605380546e-001	 3.176715465560663e+001
1	 3.607429117765978e+000	 2.066626051680781e-001	 2.929041749263599e+001
1	 3.605263692305578e+000	 2.415121770471514e-001	 2.689749482608190e+001
1	 3.602751888729632e+000	 2.764661038597041e-001	 2.459344467548335e+001
1	 3.599890334337059e+000	 3.115198130526881e-001	 2.238317642596346e+001
1	 3.596675721062617e+000	 3.466686324707543e-001	 2.027144221178534e+001
1	 3.640012000017849e+000	 0.000000000000000e+000	 4.206179350969495e+001
1	 3.639849579302291e+000	 3.438498114364327e-002	 3.946650813482617e+001
1	 3.639359810555890e+000	 6.890058880231878e-002	 3.691768999786165e+001
1	 3.638538967740630e+000	 1.035428288936408e-001	 3.442141914915261e+001
1	 3.637383372257951e+000	 1.383076045391919e-001	 3.198366120732230e+001
1	 3.635889395836193e+000	 1.731907162506339e-001	 2.961025795829054e+001
1	 3.634053463444836e+000	 2.081878622026318e-001	 2.730691788509351e+001
1	 3.631872056232944e+000	 2.432946385946359e-001	 2.507920664297411e+001
1	 3.629341714489164e+000	 2.785065401034914e-001	 2.293253749484147e+001
1	 3.626459040620449e+000	 3.138189604287712e-001	 2.087216172280579e+001
1	 3.623220702146641e+000	 3.492271929326405e-001	 1.890315903208460e+001
1	 3.666680000016666e+000	 0.000000000000000e+000	 3.899095041191134e+001
1	 3.666516389350228e+000	 3.463689753212492e-002	 3.661199494024772e+001
1	 3.666023032386948e+000	 6.940537859482068e-002	 3.426943675063031e+001
1	 3.665196175790535e+000	 1.043014198436540e-001	 3.196975756480465e+001
1	 3.664032114011715e+000	 1.393208943850406e-001	 2.971931464720991e+001
1	 3.662527192196825e+000	 1.744595719637187e-001	 2.752433043346687e+001
1	 3.660677809123401e+000	 2.097131192376734e-001	 2.539088207871010e+001
1	 3.658480420160158e+000	 2.450771001425689e-001	 2.332489094174209e+001
1	 3.655931540248671e+000	 2.805469763476741e-001	 2.133211202168560e+001
1	 3.653027746903921e+000	 3.161181078051908e-001	 1.941812336449442e+001
1	 3.649765683230813e+000	 3.517857533948059e-001	 1.758831545734689e+001
1	 3.384315872393811e+000	 3.262001487885011e-001	 3.285332901340754e+001
1	 3.380956327881860e+000	 3.593537007863772e-001	 2.965454408519461e+001
1	 3.377258640976893e+000	 3.925877237701081e-001	 2.657720880280776e+001
1	 3.373219900046344e+000	 4.258976195254685e-001	 2.362419522079314e+001
1	 3.368837265353978e+000	 4.592787015493513e-001	 2.079817138298425e+001
1	 3.364107971852335e+000	 4.927261961099983e-001	 1.810159488768640e+001
1	 3.359029331970650e+000	 5.262352434010416e-001	 1.553670662635319e+001
1	 3.353598738394850e+000	 5.598008987902470e-001	 1.310552471185769e+001
1	 3.347813666836249e+000	 5.934181341637267e-001	 1.080983861251371e+001
1	 3.341671678785408e+000	 6.270818393662587e-001	 8.651203508016556e+000
1	 3.335170424247629e+000	 6.607868237382245e-001	 6.630934883439036e+000
1	 3.410860853477238e+000	 3.287587092473185e-001	 3.114556038149703e+001
1	 3.407474958278943e+000	 3.621723021052771e-001	 2.809614888982016e+001
1	 3.403748268457944e+000	 3.956669971256944e-001	 2.515876532986883e+001
1	 3.399677849544182e+000	 4.292381600281079e-001	 2.233672925654817e+001
1	 3.395260839527842e+000	 4.628810675506773e-001	 1.963315259838061e+001
1	 3.390494451673717e+000	 4.965909085187303e-001	 1.705093238394611e+001
1	 3.385375977330978e+000	 5.303627850078559e-001	 1.459274362865134e+001
1	 3.379902788734986e+000	 5.641917136024434e-001	 1.226103239923918e+001
1	 3.374072341797700e+000	 5.980726267504357e-001	 1.005800907357509e+001
1	 3.367882178883140e+000	 6.320003742149503e-001	 7.985641813326222e+000
1	 3.361329931564333e+000	 6.659697246232672e-001	 6.045650267183413e+000
1	 3.437405834560681e+000	 3.313172697066004e-001	 2.947095485199197e+001
1	 3.433993588676044e+000	 3.649909034247586e-001	 2.657054755309997e+001
1	 3.430237895939014e+000	 3.987462704819553e-001	 2.377289457578929e+001
1	 3.426135799042037e+000	 4.325787005314929e-001	 2.108172371767866e+001
1	 3.421684413701722e+000	 4.664834335528000e-001	 1.850055230678738e+001
1	 3.416880931495114e+000	 5.004556209282911e-001	 1.603267916147292e+001
1	 3.411722622691324e+000	 5.344903266155145e-001	 1.368117669797251e+001
1	 3.406206839075148e+000	 5.685825284154835e-001	 1.144888320414395e+001
1	 3.400331016759192e+000	 6.027271193379756e-001	 9.338395298190498e+000
1	 3.394092678980937e+000	 6.369189090644474e-001	 7.352060591298419e+000
1	 3.387489438881134e+000	 6.711526255090805e-001	 5.491970573211386e+000
1	 3.463950815644158e+000	 3.338758301663241e-001	 2.783232506336085e+001
1	 3.460512219073185e+000	 3.678095047447778e-001	 2.508013574749813e+001
1	 3.456727523420122e+000	 4.018255438388306e-001	 2.242160231006364e+001
1	 3.452593748539921e+000	 4.359192410355515e-001	 1.986082241339522e+001
1	 3.448107987875623e+000	 4.700857995556378e-001	 1.740168116655326e+001
1	 3.443267411316521e+000	 5.043203333385941e-001	 1.504784238994856e+001
1	 3.438069268051671e+000	 5.386178682239287e-001	 1.280274001527984e+001
1	 3.432510889415307e+000	 5.729733432292812e-001	 1.066956964043618e+001
1	 3.426589691720682e+000	 6.073816119262632e-001	 8.651280259268070e+000
1	 3.420303179078741e+000	 6.418374439146738e-001	 6.750566186334254e+000
1	 3.413648946197965e+000	 6.763355263955971e-001	 4.969859196884777e+000
1	 3.490495796727684e+000	 3.364343906264662e-001	 2.623239809437837e+001
1	 3.487030849470385e+000	 3.706281060652908e-001	 2.362723626977747e+001
1	 3.483217150901286e+000	 4.049048171962604e-001	 2.110683328722721e+001
1	 3.479051698037852e+000	 4.392597815402108e-001	 1.867561914868229e+001
1	 3.474531562049550e+000	 4.736881655591101e-001	 1.633780996615917e+001
1	 3.469653891137935e+000	 5.081850457495538e-001	 1.409739860122941e+001
1	 3.464415913412003e+000	 5.427454098330110e-001	 1.195814542795326e+001
1	 3.458814939755432e+000	 5.773641580437487e-001	 9.923569239843888e+000
1	 3.452848366682128e+000	 6.120361045152155e-001	 7.996938321758280e+000
1	 3.446513679176499e+000	 6.467559787655527e-001	 6.181261707867889e+000
1	 3.439808453514761e+000	 6.815184272827487e-001	 4.479280647068975e+000
1	 3.517040777811276e+000	 3.389929510870034e-001	 2.467381869294861e+001
1	 3.513549479867664e+000	 3.734467073862540e-001	 2.221410179115831e+001
1	 3.509706778382525e+000	 4.079840905541842e-001	 1.983047354941832e+001
1	 3.505509647535838e+000	 4.426003220453980e-001	 1.752765961134131e+001
1	 3.500955136223510e+000	 4.772905315631356e-001	 1.531017112881418e+001
1	 3.496040370959348e+000	 5.120497581610831e-001	 1.318229484554672e+001
1	 3.490762558772303e+000	 5.468729514426730e-001	 1.114808329260696e+001
1	 3.485118990095495e+000	 5.817549728587999e-001	 9.211345117349868e+000
1	 3.479107041643489e+000	 6.166905971047497e-001	 7.375635567498284e+000
1	 3.472724179274159e+000	 6.516745136170080e-001	 5.644247152446746e+000
1	 3.465967960831457e+000	 6.867013281704680e-001	 4.020200504111914e+000
1	 3.543585758894952e+000	 3.415515115479126e-001	 2.315915235980522e+001
1	 3.540068110265041e+000	 3.762653087076237e-001	 2.084291748386874e+001
1	 3.536196405863857e+000	 4.110633639125422e-001	 1.859435262544955e+001
1	 3.531967597033896e+000	 4.459408625510411e-001	 1.641844317421827e+001
1	 3.527378710397506e+000	 4.808928975676332e-001	 1.431996014942592e+001
1	 3.522426850780760e+000	 5.159144705730965e-001	 1.230344979574000e+001
1	 3.517109204132555e+000	 5.510004930528264e-001	 1.037322328002568e+001
1	 3.511423040435468e+000	 5.861457876743472e-001	 8.533346511170739e+000
1	 3.505365716604720e+000	 6.213450896947828e-001	 6.787630105455892e+000
1	 3.498934679371662e+000	 6.565930484689632e-001	 5.139619520324733e+000
1	 3.492127468147986e+000	 6.918842290586874e-001	 3.592585379711930e+000
1	 3.570130739978726e+000	 3.441100720091705e-001	 2.169088829464272e+001
1	 3.566586740662536e+000	 3.790839100293559e-001	 1.951580353051972e+001
1	 3.562686033345299e+000	 4.141426372712738e-001	 1.740024563177445e+001
1	 3.558425546532040e+000	 4.492814030570673e-001	 1.534942461703123e+001
1	 3.553802284571547e+000	 4.844952635725215e-001	 1.336833696746491e+001
1	 3.548813330602161e+000	 5.197791829855072e-001	 1.146175480222915e+001
1	 3.543455849492743e+000	 5.551280346633837e-001	 9.634215144191130e+000
1	 3.537727090775320e+000	 5.905366024903044e-001	 7.890009298646561e+000
1	 3.531624391565783e+000	 6.259995822852323e-001	 6.233172368132824e+000
1	 3.525145179468956e+000	 6.615115833213418e-001	 4.667472926854106e+000
1	 3.518286975464283e+000	 6.970671299473390e-001	 3.196402878575900e+000
1	 3.596675721062617e+000	 3.466686324707543e-001	 2.027144221178534e+001
1	 3.593105371060168e+000	 3.819025113514069e-001	 1.823481752235888e+001
1	 3.589175660826872e+000	 4.172219106303193e-001	 1.624987528041830e+001
1	 3.584883496030281e+000	 4.526219435634038e-001	 1.432201577195050e+001
1	 3.580225858745636e+000	 4.880976295777195e-001	 1.245642727903531e+001
1	 3.575199810423550e+000	 5.236438953982293e-001	 1.065807490126904e+001
1	 3.569802494852850e+000	 5.592555762742565e-001	 8.931689457254210e+000
1	 3.564031141115022e+000	 5.949274173065841e-001	 7.281756489285229e+000
1	 3.557883066526630e+000	 6.306540748760147e-001	 5.712505394842957e+000
1	 3.551355679565987e+000	 6.664301181740676e-001	 4.227898708944462e+000
1	 3.544446482780284e+000	 7.022500308363556e-001	 2.831621561775185e+000
1	 3.623220702146641e+000	 3.492271929326405e-001	 1.890315903208460e+001
1	 3.619624001457956e+000	 3.847211126737331e-001	 1.700195675210163e+001
1	 3.615665288308592e+000	 4.203011839896183e-001	 1.514491379864390e+001
1	 3.611341445528634e+000	 4.559624840699787e-001	 1.333758709684274e+001
1	 3.606649432919778e+000	 4.916999955831460e-001	 1.158532379126940e+001
1	 3.601586290244921e+000	 5.275086078111761e-001	 9.893249778883799e+000
1	 3.596149140212859e+000	 5.633831178853564e-001	 8.266258312199224e+000
1	 3.590335191454546e+000	 5.993182321230999e-001	 6.708998696134061e+000
1	 3.584141741487224e+000	 6.353085674670475e-001	 5.225865102537506e+000
1	 3.577566179662699e+000	 6.713486530270642e-001	 3.820985526842095e+000
1	 3.570605990095922e+000	 7.074329317256695e-001	 2.498210911712409e+000
1	 3.649765683230813e+000	 3.517857533948059e-001	 1.758831545734689e+001
1	 3.646142631855923e+000	 3.875397139962905e-001	 1.581916040670668e+001
1	 3.642154915790480e+000	 4.233804573491110e-001	 1.408698476484645e+001
1	 3.637799395027112e+000	 4.593030245767192e-001	 1.239746917986067e+001
1	 3.633073007093982e+000	 4.953023615887200e-001	 1.075608742198230e+001
1	 3.627972770066271e+000	 5.313733202242620e-001	 9.168094692736183e+000
1	 3.622495785572755e+000	 5.675106594965961e-001	 7.638515994844696e+000
1	 3.616639241793862e+000	 6.037090469397646e-001	 6.172134586581160e+000
1	 3.610400416447522e+000	 6.399630600582474e-001	 4.773480544812409e+000
1	 3.603776679759039e+000	 6.762671878802548e-001	 3.446819461467960e+000
1	 3.596765497411132e+000	 7.126158326152124e-001	 2.196141298617062e+000
1	 3.335170424247629e+000	 6.607868237382245e-001	 6.630934883439037e+000
1	 3.328306588186820e+000	 6.945328805338576e-001	 4.712668211959493e+000
1	 3.321078955483442e+000	 7.283096007980534e-001	 2.861161002819645e+000
1	 3.313485459902493e+000	 7.621115520460923e-001	 1.078233385533662e+000
1	 3.305524134521356e+000	 7.959332281968499e-001	-6.344550636596141e-001
1	 3.297193114320970e+000	 8.297690515990592e-001	-2.275409853809486e+000
1	 3.288490638736053e+000	 8.636133751544897e-001	-3.843305938443155e+000
1	 3.279415054160485e+000	 8.974604845374922e-001	-5.336991889540067e+000
1	 3.269964816403906e+000	 9.313046005101889e-001	-6.755493874009098e+000
1	 3.260138493095666e+000	 9.651398813324287e-001	-8.098019420533367e+000
1	 3.249934766032135e+000	 9.989604252654352e-001	-9.363960964835574e+000
1	 3.361329931564333e+000	 6.659697246232672e-001	 6.045650267183413e+000
1	 3.354412258803586e+000	 6.999804696079965e-001	 4.202632289786781e+000
1	 3.347127935950537e+000	 7.340221185710896e-001	 2.422115320322482e+000
1	 3.339474880563621e+000	 7.680891964179748e-001	 7.060664522869051e-001
1	 3.331451110292614e+000	 8.021761538804227e-001	-9.437028430054808e-001
1	 3.323054745490133e+000	 8.362773695586973e-001	-2.525541408822573e+000
1	 3.314284011781863e+000	 8.703871520613905e-001	-4.037962933333892e+000
1	 3.305137242591581e+000	 9.044997422423740e-001	-5.479650305368784e+000
1	 3.295612881617041e+000	 9.386093155341523e-001	-6.849459783215242e+000
1	 3.285709485252758e+000	 9.727099843767159e-001	-8.146424964183243e+000
1	 3.275425724955747e+000	 1.006795800740831e+000	-9.369760542811433e+000
1	 3.387489438881134e+000	 6.711526255090805e-001	 5.491970573211386e+000
1	 3.380517929420490e+000	 7.054280586828631e-001	 3.723826704681138e+000
1	 3.373176916417826e+000	 7.397346363448024e-001	 2.014073362860510e+000
1	 3.365464301225001e+000	 7.740668407904772e-001	 3.648014685043368e-001
1	 3.357378086064188e+000	 8.084190795645522e-001	-1.222049039712531e+000
1	 3.348916376659676e+000	 8.427856875188232e-001	-2.744694028960848e+000
1	 3.340077384828114e+000	 8.771609289687061e-001	-4.201509843625894e+000
1	 3.330859431023175e+000	 9.115389999475941e-001	-5.591037811746497e+000
1	 3.321260946830720e+000	 9.459140305583734e-001	-6.911988574045463e+000
1	 3.311280477410429e+000	 9.802800874211785e-001	-8.163246223170640e+000
1	 3.300916683879955e+000	 1.014631176216317e+000	-9.343872240897328e+000
1	 3.413648946197965e+000	 6.763355263955971e-001	 4.969859196884777e+000
1	 3.406623600037462e+000	 7.108756477584002e-001	 3.276088300674132e+000
1	 3.399225896885227e+000	 7.454471541191478e-001	 1.636744393190251e+000
1	 3.391453721886553e+000	 7.800444851635687e-001	 5.401956617178613e-002
1	 3.383305061835990e+000	 8.146620052492226e-001	-1.470040716538382e+000
1	 3.374778007829510e+000	 8.492940054794386e-001	-2.933542545467686e+000
1	 3.365870757874714e+000	 8.839347058764533e-001	-4.334748348236333e+000
1	 3.356581619455178e+000	 9.185782576531858e-001	-5.672081515969125e+000
1	 3.346909012044858e+000	 9.532187455829028e-001	-6.944130860875427e+000
1	 3.336851469568601e+000	 9.878501904658823e-001	-8.149654892548949e+000
1	 3.326407642804696e+000	 1.022466551691976e+000	-9.287585900651829e+000
1	 3.439808453514761e+000	 6.815184272827487e-001	 4.479280647068974e+000
1	 3.432729270654426e+000	 7.163232368345508e-001	 2.859258884957409e+000
1	 3.425274877352659e+000	 7.511596718940811e-001	 1.289846518216052e+000
1	 3.417443142548179e+000	 7.860221295372193e-001	-2.266853808746862e-001
1	 3.409232037607928e+000	 8.209049309344189e-001	-1.688208294741498e+000
1	 3.400639638999539e+000	 8.558023234405421e-001	-3.092741261405204e+000
1	 3.391664130921576e+000	 8.907084827846498e-001	-4.438455739229591e+000
1	 3.382303807887502e+000	 9.256175153591826e-001	-5.723680322982864e+000
1	 3.372557077259375e+000	 9.605234606077897e-001	-6.946905298679677e+000
1	 3.362422461727200e+000	 9.954202935108940e-001	-8.106787024729361e+000
1	 3.351898601729900e+000	 1.030301927167889e+000	-9.202152127007011e+000
1	 3.465967960831457e+000	 6.867013281704680e-001	 4.020200504111913e+000
1	 3.458834941271304e+000	 7.217708259112585e-001	 2.473185040584787e+000
1	 3.451323857820038e+000	 7.568721896695587e-001	 9.731063552320715e-001
1	 3.443432563209798e+000	 7.919997739113979e-001	-4.777072377962841e-001
1	 3.435159013379911e+000	 8.271478566201258e-001	-1.877066182092567e+000
1	 3.426501270169675e+000	 8.623106414021357e-001	-3.222924726339725e+000
1	 3.417457503968606e+000	 8.974822596933118e-001	-4.513385842120407e+000
1	 3.408025996320059e+000	 9.326567730656179e-001	-5.746705999675275e+000
1	 3.398205142474186e+000	 9.678281756330857e-001	-6.921299789105072e+000
1	 3.387993453886149e+000	 1.002990396556281e+000	-8.035744374551332e+000
1	 3.377389560655498e+000	 1.038137302644139e+000	-9.088783768967486e+000
1	 3.492127468147986e+000	 6.918842290586874e-001	 3.592585379711929e+000
1	 3.484940611888026e+000	 7.272184149884663e-001	 2.117717947592723e+000
1	 3.477372838287284e+000	 7.625847074455355e-001	 6.862587131662594e-001
1	 3.469421983871323e+000	 7.979774182860747e-001	-6.994280679872917e-001
1	 3.461085989151848e+000	 8.333907823063274e-001	-2.037113372659270e+000
1	 3.452362901339824e+000	 8.688189593642191e-001	-3.324708476208704e+000
1	 3.443250877015715e+000	 9.042560366024566e-001	-4.560269894812723e+000
1	 3.433748184752760e+000	 9.396960307725260e-001	-5.742004191330674e+000
1	 3.423853207689207e+000	 9.751328906588402e-001	-6.868272632335852e+000
1	 3.413564446045371e+000	 1.010560499602108e+000	-7.937595683897254e+000
1	 3.402880519581427e+000	 1.045972678120808e+000	-8.948657333757678e+000
1	 3.518286975464283e+000	 6.970671299473390e-001	 3.196402878575900e+000
1	 3.511046282504512e+000	 7.326660040661169e-001	 1.792713212100420e+000
1	 3.503421818754312e+000	 7.682972252219673e-001	 4.290462880440352e-001
1	 3.495411404532665e+000	 8.039550626612186e-001	-8.922185718229312e-001
1	 3.487012964923652e+000	 8.396337079930085e-001	-2.168834019833550e+000
1	 3.478224532509898e+000	 8.753272773267932e-001	-3.398689740180593e+000
1	 3.469044250062812e+000	 9.110298135121011e-001	-4.579817387327936e+000
1	 3.459470373185520e+000	 9.467352884799398e-001	-5.710395392739630e+000
1	 3.449501272904357e+000	 9.824376056851036e-001	-6.788753627572285e+000
1	 3.439135438204790e+000	 1.018130602648443e+000	-7.813377908998301e+000
1	 3.428371478507617e+000	 1.053808053597977e+000	-8.782914337881836e+000
1	 3.544446482780284e+000	 7.022500308363556e-001	 2.831621561775185e+000
1	 3.537151953120691e+000	 7.381135931441537e-001	 1.498030702978296e+000
1	 3.529470799221043e+000	 7.740097429988094e-001	 2.012193719378540e-001
1	 3.521400825193738e+000	 8.099327070367999e-001	-1.056438505979010e+000
1	 3.512939940695230e+000	 8.458766336801536e-001	-2.272697983984077e+000
1	 3.504086163679800e+000	 8.818355952898579e-001	-3.445448116213169e+000
1	 3.494837623109805e+000	 9.178035904222620e-001	-4.572716864347525e+000
1	 3.485192561618248e+000	 9.537745461878934e-001	-5.652675876305316e+000
1	 3.475149338119550e+000	 9.897423207119256e-001	-6.683645124777037e+000
1	 3.464706430364329e+000	 1.025700705695351e+000	-7.664097393392286e+000
1	 3.453862437434002e+000	 1.061643429075729e+000	-8.592662598355235e+000
1	 3.570605990095922e+000	 7.074329317256695e-001	 2.498210911712410e+000
1	 3.563257623736486e+000	 7.435611822225200e-001	 1.233534395696028e+000
1	 3.555519779687395e+000	 7.797222607760181e-001	 2.535574710833367e-003
1	 3.547390245854455e+000	 8.159103514127873e-001	-1.192437084318623e+000
1	 3.538866916466492e+000	 8.521195593677474e-001	-2.349161356034475e+000
1	 3.529947794849443e+000	 8.883439132534144e-001	-3.465546216916016e+000
1	 3.520630996156604e+000	 9.245773673329562e-001	-4.539636692477758e+000
1	 3.510914750050856e+000	 9.608138038964199e-001	-5.569618579352045e+000
1	 3.500797403334707e+000	 9.970470357393572e-001	-6.553823030188998e+000
1	 3.490277422523912e+000	 1.033270808742900e+000	-7.490730989320027e+000
1	 3.479353396360510e+000	 1.069478804554146e+000	-8.378977467175886e+000
1	 3.596765497411132e+000	 7.126158326152124e-001	 2.196141298617062e+000
1	 3.589363294351825e+000	 7.490087713011588e-001	 9.990922229847354e-001
1	 3.581568760153285e+000	 7.854347785535488e-001	-1.672404420972165e-001
1	 3.573379666514728e+000	 8.218879957891508e-001	-1.300553361284980e+000
1	 3.564793892237348e+000	 8.583624850557747e-001	-2.398666958193802e+000
1	 3.555809426018735e+000	 8.948522312174628e-001	-3.459530287227772e+000
1	 3.546424369203119e+000	 9.313511442442009e-001	-4.481225794031844e+000
1	 3.536636938483259e+000	 9.678530616055532e-001	-5.461973952712895e+000
1	 3.526445468549742e+000	 1.004351750767448e+000	-6.400137767957706e+000
1	 3.515848414683465e+000	 1.040840911791156e+000	-7.294227130186251e+000
1	 3.504844355287081e+000	 1.077314180033311e+000	-8.142903011925244e+000
1	 3.249934766032135e+000	 9.989604252654352e-001	-9.363960964835574e+000
1	 3.239352432650741e+000	 1.032760272672935e+000	-1.054355337173850e+001
1	 3.228390405810319e+000	 1.066533407174408e+000	-1.162782611387942e+001
1	 3.217047718379721e+000	 1.100273759821121e+000	-1.261764922010608e+001
1	 3.205323526137257e+000	 1.133975212443531e+000	-1.351408702274597e+001
1	 3.193217109782673e+000	 1.167631600601917e+000	-1.431839914538051e+001
1	 3.180727876869459e+000	 1.201236716620890e+000	-1.503204119379413e+001
1	 3.167855363653740e+000	 1.234784312705469e+000	-1.565666514296611e+001
1	 3.154599236856098e+000	 1.268268104136253e+000	-1.619411941354424e+001
1	 3.140959295332737e+000	 1.301681772541035e+000	-1.664644863184272e+001
1	 3.126935471652506e+000	 1.335018969240017e+000	-1.701589306804261e+001
1	 3.275425724955747e+000	 1.006795800740831e+000	-9.369760542811433e+000
1	 3.264760388731105e+000	 1.040860758245642e+000	-1.050946361283552e+001
1	 3.253712380910649e+000	 1.074898793320969e+000	-1.155647809019268e+001
1	 3.242280726777507e+000	 1.108903789416095e+000	-1.251173039195310e+001
1	 3.230464575488312e+000	 1.142869580373430e+000	-1.337635268986016e+001
1	 3.218263202100959e+000	 1.176789953402282e+000	-1.415168397532833e+001
1	 3.205676009522064e+000	 1.210658652137173e+000	-1.483927080777888e+001
1	 3.192702530370364e+000	 1.244469379778354e+000	-1.544086773863195e+001
1	 3.179342428752352e+000	 1.278215802312035e+000	-1.595843740388356e+001
1	 3.165595501946556e+000	 1.311891551807666e+000	-1.639415027884007e+001
1	 3.151461681992926e+000	 1.345490229789387e+000	-1.675038408926148e+001
1	 3.300916683879955e+000	 1.014631176216317e+000	-9.343872240897328e+000
1	 3.290168344812070e+000	 1.048961243818355e+000	-1.044374833197390e+001
1	 3.279034356011567e+000	 1.083264179467451e+000	-1.145382927668200e+001
1	 3.267513735175860e+000	 1.117533819010909e+000	-1.237508223354257e+001
1	 3.255605624839903e+000	 1.151763948303092e+000	-1.320868984605309e+001
1	 3.243309294419742e+000	 1.185948306202339e+000	-1.395605138468467e+001
1	 3.230624142175128e+000	 1.220080587653086e+000	-1.461878355531814e+001
1	 3.217549697087408e+000	 1.254154446850814e+000	-1.519872096594503e+001
1	 3.204085620648994e+000	 1.288163500487353e+000	-1.569791624410070e+001
1	 3.190231708560741e+000	 1.322101331073807e+000	-1.611863979817599e+001
1	 3.175987892333698e+000	 1.355961490338257e+000	-1.646337921646981e+001
1	 3.326407642804696e+000	 1.022466551691976e+000	-9.287585900651829e+000
1	 3.315576300893580e+000	 1.057061729391170e+000	-1.034779937695032e+001
1	 3.304356331113032e+000	 1.091629565613964e+000	-1.132134473560137e+001
1	 3.292746743574746e+000	 1.126163848605684e+000	-1.220921457302601e+001
1	 3.280746674192009e+000	 1.160658316232648e+000	-1.301262500790074e+001
1	 3.268355386739016e+000	 1.195106659002230e+000	-1.373301689997199e+001
1	 3.255572274828653e+000	 1.229502523168778e+000	-1.437205672131422e+001
1	 3.242396863804885e+000	 1.263839513923010e+000	-1.493163707141942e+001
1	 3.228828812546041e+000	 1.298111198662370e+000	-1.541387682817304e+001
1	 3.214867915175308e+000	 1.332311110339624e+000	-1.582112092748008e+001
1	 3.200514102674839e+000	 1.366432750886795e+000	-1.615593976504907e+001
1	 3.351898601729900e+000	 1.030301927167889e+000	-9.202152127007011e+000
1	 3.340984256975579e+000	 1.065162214964183e+000	-1.022296625593328e+001
1	 3.329678306214996e+000	 1.099994951760619e+000	-1.116044496241269e+001
1	 3.317979751974136e+000	 1.134793878200544e+000	-1.201559130999675e+001
1	 3.305887723544611e+000	 1.169552684162233e+000	-1.278963825576374e+001
1	 3.293401479058773e+000	 1.204265011802098e+000	-1.348404994581182e+001
1	 3.280520407482643e+000	 1.238924458684402e+000	-1.410052265206822e+001
1	 3.267244030522806e+000	 1.273524580995097e+000	-1.464098534141798e+001
1	 3.253572004443512e+000	 1.308058896837248e+000	-1.510759986884613e+001
1	 3.239504121790274e+000	 1.342520889605283e+000	-1.550276078701367e+001
1	 3.225040313016362e+000	 1.376904011435166e+000	-1.582909476545866e+001
1	 3.377389560655498e+000	 1.038137302644139e+000	-9.088783768967486e+000
1	 3.366392213058008e+000	 1.073262700537491e+000	-1.007055773526182e+001
1	 3.355000281317417e+000	 1.108360337907524e+000	-1.097250756763300e+001
1	 3.343212760373997e+000	 1.143423907795610e+000	-1.179563214872665e+001
1	 3.331028772897689e+000	 1.178447052091981e+000	-1.254116498618173e+001
1	 3.318447571379005e+000	 1.213423364602087e+000	-1.321057558470312e+001
1	 3.305468540137102e+000	 1.248346394200107e+000	-1.380557045115790e+001
1	 3.292091197241183e+000	 1.283209648067234e+000	-1.432809372336822e+001
1	 3.278315196341421e+000	 1.318006595012151e+000	-1.478032741397933e+001
1	 3.264140328405664e+000	 1.352730668870948e+000	-1.516469126152416e+001
1	 3.249566523358288e+000	 1.387375271983537e+000	-1.548384218159303e+001
1	 3.402880519581427e+000	 1.045972678120808e+000	-8.948657333757678e+000
1	 3.391800169140812e+000	 1.081363186111191e+000	-9.891843365430281e+000
1	 3.380322256420250e+000	 1.116725724054792e+000	-1.075886888308889e+001
1	 3.368445768774295e+000	 1.152053937391004e+000	-1.155071425350105e+001
1	 3.356169822251226e+000	 1.187341420022024e+000	-1.226859758550504e+001
1	 3.343493663699706e+000	 1.222581717402338e+000	-1.291397617860428e+001
1	 3.330416672792031e+000	 1.257768329716046e+000	-1.348854759909298e+001
1	 3.316938363960027e+000	 1.292894715139578e+000	-1.399425037411106e+001
1	 3.303058388239788e+000	 1.327954293187240e+000	-1.443326429473820e+001
1	 3.288776535021494e+000	 1.362940448136786e+000	-1.480801031999013e+001
1	 3.274092733700633e+000	 1.397846532532076e+000	-1.512115007437925e+001
1	 3.428371478507617e+000	 1.053808053597977e+000	-8.782914337881836e+000
1	 3.417208125223934e+000	 1.089463671685380e+000	-9.688054938995119e+000
1	 3.405644231523448e+000	 1.125091110202530e+000	-1.052082549651340e+001
1	 3.393678777175000e+000	 1.160683966986851e+000	-1.128217383010572e+001
1	 3.381310871605199e+000	 1.196235787952496e+000	-1.197328702886227e+001
1	 3.368539756020867e+000	 1.231740070202997e+000	-1.259559297638941e+001
1	 3.355364805447436e+000	 1.267190265232369e+000	-1.315076150071443e+001
1	 3.341785530679351e+000	 1.302579782212286e+000	-1.364070513917497e+001
1	 3.327801580138630e+000	 1.337901991362676e+000	-1.406757950918008e+001
1	 3.313412741637784e+000	 1.373150227402962e+000	-1.443378327649020e+001
1	 3.298618944043411e+000	 1.408317793080948e+000	-1.474195771346393e+001
1	 3.453862437434002e+000	 1.061643429075729e+000	-8.592662598355235e+000
1	 3.442616081307318e+000	 1.097564157260154e+000	-9.460387883923197e+000
1	 3.430966206626969e+000	 1.133456496350850e+000	-1.025963571818690e+001
1	 3.418911785576080e+000	 1.169313996583270e+000	-1.099130763728223e+001
1	 3.406451920959592e+000	 1.205130155883531e+000	-1.165654440832189e+001
1	 3.393585848342482e+000	 1.240898423004204e+000	-1.225672763100779e+001
1	 3.380312938103318e+000	 1.276612200749228e+000	-1.279348096407130e+001
1	 3.366632697399166e+000	 1.312264849285518e+000	-1.326867096654423e+001
1	 3.352544772037962e+000	 1.347849689538625e+000	-1.368440754457158e+001
1	 3.338048948254552e+000	 1.383360006669642e+000	-1.404304399523754e+001
1	 3.323145154386643e+000	 1.418789053630321e+000	-1.434717663967215e+001
1	 3.479353396360510e+000	 1.069478804554146e+000	-8.378977467175886e+000
1	 3.468024037390906e+000	 1.105664642835609e+000	-9.210002595689987e+000
1	 3.456288181730765e+000	 1.141821882499862e+000	-9.976520983107276e+000
1	 3.444144793977504e+000	 1.177944026180386e+000	-1.067937443174229e+001
1	 3.431592970314385e+000	 1.214024523815262e+000	-1.131964239387862e+001
1	 3.418631940664544e+000	 1.250056775806104e+000	-1.189864364995196e+001
1	 3.405261070759681e+000	 1.286034136266774e+000	-1.241793761428860e+001
1	 3.391479864119481e+000	 1.321949916359429e+000	-1.287932525828030e+001
1	 3.377287963937803e+000	 1.357797387715248e+000	-1.328484964157907e+001
1	 3.362685154871818e+000	 1.393569785936990e+000	-1.363679604264366e+001
1	 3.347671364730342e+000	 1.429260314180360e+000	-1.393769168076245e+001
1	 3.504844355287081e+000	 1.077314180033311e+000	-8.142903011925244e+000
1	 3.493431993474643e+000	 1.113765128411843e+000	-8.938025711247828e+000
1	 3.481610156834797e+000	 1.150187268649676e+000	-9.672667191971827e+000
1	 3.469377802379237e+000	 1.186574055778320e+000	-1.034759635012390e+001
1	 3.456734019669560e+000	 1.222918891747823e+000	-1.096381663068453e+001
1	 3.443678032987045e+000	 1.259215128608840e+000	-1.152256778242976e+001
1	 3.430209203416529e+000	 1.295456071785157e+000	-1.202532724573651e+001
1	 3.416327030840312e+000	 1.331634983434178e+000	-1.247381116316119e+001
1	 3.402031155838170e+000	 1.367745085892707e+000	-1.286997500329188e+001
1	 3.387321361489601e+000	 1.403779565205173e+000	-1.321601378910749e+001
1	 3.372197575074528e+000	 1.439731574731234e+000	-1.351436192285611e+001
1	 3.126935471652506e+000	 1.335018969240017e+000	-1.701589306804261e+001
1	 3.112530023792000e+000	 1.368268337568320e+000	-1.732446327361197e+001
1	 3.097741083326226e+000	 1.401428489062056e+000	-1.759283354472820e+001
1	 3.082568994673866e+000	 1.434493009528169e+000	-1.782130266489478e+001
1	 3.067014241170958e+000	 1.467455468599930e+000	-1.801025602802305e+001
1	 3.051077446124150e+000	 1.500309423398188e+000	-1.816016609972585e+001
1	 3.034759373751101e+000	 1.533048422245595e+000	-1.827159274373212e+001
1	 3.018060930005414e+000	 1.565666008429837e+000	-1.834518341068119e+001
1	 3.000983163283562e+000	 1.598155724011803e+000	-1.838167318684219e+001
1	 2.983527265011496e+000	 1.630511113674446e+000	-1.838188470060311e+001
1	 2.965694570108715e+000	 1.662725728608005e+000	-1.834672788488559e+001
1	 3.151461681992926e+000	 1.345490229789387e+000	-1.675038408926149e+001
1	 3.136943244578563e+000	 1.379000390515981e+000	-1.704852672857661e+001
1	 3.122038306623422e+000	 1.412420634633105e+000	-1.730842904226241e+001
1	 3.106747215247636e+000	 1.445744497637801e+000	-1.753022840780743e+001
1	 3.091070457578299e+000	 1.478965498726574e+000	-1.771413354853453e+001
1	 3.075008661810973e+000	 1.512077144485368e+000	-1.786042511537438e+001
1	 3.058562598157479e+000	 1.545072932632920e+000	-1.796945616224265e+001
1	 3.041733179677284e+000	 1.577946355813512e+000	-1.804165251242556e+001
1	 3.024521462989988e+000	 1.610690905435004e+000	-1.807751301359481e+001
1	 3.006928648866512e+000	 1.643300075547886e+000	-1.807760967930268e+001
1	 2.988956082696837e+000	 1.675767366760974e+000	-1.804258771504689e+001
1	 3.175987892333698e+000	 1.355961490338257e+000	-1.646337921646981e+001
1	 3.161356465365481e+000	 1.389732443463149e+000	-1.675267997769089e+001
1	 3.146335529920983e+000	 1.423412780203684e+000	-1.700538203802488e+001
1	 3.130925435821790e+000	 1.456995985746995e+000	-1.722148125738714e+001
1	 3.115126673986046e+000	 1.490475528852819e+000	-1.740103095058835e+001
1	 3.098939877498229e+000	 1.523844865572194e+000	-1.754414257171835e+001
1	 3.082365822564309e+000	 1.557097443019938e+000	-1.765098631802848e+001
1	 3.065405429349620e+000	 1.590226703196920e+000	-1.772179165086271e+001
1	 3.048059762696877e+000	 1.623226086857971e+000	-1.775684773134260e+001
1	 3.030330032721980e+000	 1.656089037421116e+000	-1.775650376867660e+001
1	 3.012217595285378e+000	 1.688809004913743e+000	-1.772116927913573e+001
1	 3.200514102674839e+000	 1.366432750886795e+000	-1.615593976504907e+001
1	 3.185769686152757e+000	 1.400464496409990e+000	-1.643784098952919e+001
1	 3.170632753218907e+000	 1.434404925773955e+000	-1.668448984540456e+001
1	 3.155103656396314e+000	 1.468247473855910e+000	-1.689576008643144e+001
1	 3.139182890394172e+000	 1.501985558978823e+000	-1.707157038083679e+001
1	 3.122871093185870e+000	 1.535612586658817e+000	-1.721188508067669e+001
1	 3.106169046971531e+000	 1.569121953406790e+000	-1.731671493403372e+001
1	 3.089077679022347e+000	 1.602507050580201e+000	-1.738611773774986e+001
1	 3.071598062404153e+000	 1.635761268280842e+000	-1.742019892849086e+001
1	 3.053731416577815e+000	 1.668877999294270e+000	-1.741911211004549e+001
1	 3.035479107874254e+000	 1.701850643066445e+000	-1.738305951487686e+001
1	 3.225040313016362e+000	 1.376904011435166e+000	-1.582909476545866e+001
1	 3.210182906940405e+000	 1.411196549356671e+000	-1.610489980831418e+001
1	 3.194929976517193e+000	 1.445397071344083e+000	-1.634652552373619e+001
1	 3.179281876971192e+000	 1.479498961964707e+000	-1.655374250821946e+001
1	 3.163239106802647e+000	 1.513495589104740e+000	-1.672635506040205e+001
1	 3.146802308873855e+000	 1.547380307745388e+000	-1.686420201798946e+001
1	 3.129972271379087e+000	 1.581146463793625e+000	-1.696715755833665e+001
1	 3.112749928695398e+000	 1.614787397963496e+000	-1.703513196053059e+001
1	 3.095136362111731e+000	 1.648296449703754e+000	-1.706807232686849e+001
1	 3.077132800433933e+000	 1.681666961167483e+000	-1.706596326168069e+001
1	 3.058740620463381e+000	 1.714892281219213e+000	-1.702882750551048e+001
1	 3.249566523358288e+000	 1.387375271983537e+000	-1.548384218159303e+001
1	 3.234596127728435e+000	 1.421928602303357e+000	-1.575471960771659e+001
1	 3.219227199815839e+000	 1.456389216914231e+000	-1.599223879359168e+001
1	 3.203460097546411e+000	 1.490750450073546e+000	-1.619608567879643e+001
1	 3.187295323211441e+000	 1.525005619230725e+000	-1.636596999908120e+001
1	 3.170733524562135e+000	 1.559148028832056e+000	-1.650162617367079e+001
1	 3.153775495786916e+000	 1.593170974180589e+000	-1.660281417455105e+001
1	 3.136422178368696e+000	 1.627067745346946e+000	-1.666932037573351e+001
1	 3.118674661819536e+000	 1.660831631126843e+000	-1.670095838049587e+001
1	 3.100534184290246e+000	 1.694455923040890e+000	-1.669756982460944e+001
1	 3.082002133052676e+000	 1.727933919372181e+000	-1.665902515357865e+001
1	 3.274092733700633e+000	 1.397846532532076e+000	-1.512115007437925e+001
1	 3.259009348516858e+000	 1.432660655250213e+000	-1.538813769729078e+001
1	 3.243524423114846e+000	 1.467381362484561e+000	-1.562235691093266e+001
1	 3.227638318121956e+000	 1.502001938182587e+000	-1.582342706319848e+001
1	 3.211351539620524e+000	 1.536515649356934e+000	-1.599098267745089e+001
1	 3.194664740250668e+000	 1.570915749918973e+000	-1.612467437322656e+001
1	 3.177578720194960e+000	 1.605195484567825e+000	-1.622416978479280e+001
1	 3.160094428042173e+000	 1.639348092730692e+000	-1.628915447569990e+001
1	 3.142212961527484e+000	 1.673366812550247e+000	-1.631933284743973e+001
1	 3.123935568146673e+000	 1.707244884914625e+000	-1.631442904029322e+001
1	 3.105263645642055e+000	 1.740975557525482e+000	-1.627418782442799e+001
1	 3.298618944043411e+000	 1.408317793080948e+000	-1.474195771346393e+001
1	 3.283422569305680e+000	 1.443392708197407e+000	-1.500596648401154e+001
1	 3.267821646414211e+000	 1.478373508055239e+000	-1.523758550226557e+001
1	 3.251816538697812e+000	 1.513253426291988e+000	-1.543638516749513e+001
1	 3.235407756029868e+000	 1.548025679483521e+000	-1.560194369854186e+001
1	 3.218595955939409e+000	 1.582683471006288e+000	-1.573384807115876e+001
1	 3.201381944603160e+000	 1.617219994955479e+000	-1.583169496663897e+001
1	 3.183766677715757e+000	 1.651628440114874e+000	-1.589509173002929e+001
1	 3.165751261235494e+000	 1.685901993974103e+000	-1.592365733615722e+001
1	 3.147336952003127e+000	 1.720033846788822e+000	-1.591702336164227e+001
1	 3.128525158231437e+000	 1.754017195679249e+000	-1.587483496100437e+001
1	 3.323145154386643e+000	 1.418789053630321e+000	-1.434717663967215e+001
1	 3.307835790094914e+000	 1.454124761145104e+000	-1.460899439123163e+001
1	 3.292118869713935e+000	 1.489365653626425e+000	-1.483860936281374e+001
1	 3.275994759273966e+000	 1.524504914401911e+000	-1.503556023841482e+001
1	 3.259463972439443e+000	 1.559535709610643e+000	-1.519938741065569e+001
1	 3.242527171628312e+000	 1.594451192094152e+000	-1.532963391818738e+001
1	 3.225185169011457e+000	 1.629244505343696e+000	-1.542584640542375e+001
1	 3.207438927389378e+000	 1.663908787499634e+000	-1.548757610304766e+001
1	 3.189289560943490e+000	 1.698437175398548e+000	-1.551437982764610e+001
1	 3.170738335859523e+000	 1.732822808663616e+000	-1.550582099874409e+001
1	 3.151786670820736e+000	 1.767058833833616e+000	-1.546147067142312e+001
1	 3.347671364730342e+000	 1.429260314180360e+000	-1.393769168076245e+001
1	 3.332249010884568e+000	 1.464856814093469e+000	-1.419798673724367e+001
1	 3.316416093014018e+000	 1.500357799198286e+000	-1.442609321960390e+001
1	 3.300172979850403e+000	 1.535756402512514e+000	-1.462153493221638e+001
1	 3.283520188849219e+000	 1.571045739738455e+000	-1.478383250280396e+001
1	 3.266458387317334e+000	 1.606218913182716e+000	-1.491250430353905e+001
1	 3.248988393419791e+000	 1.641269015732624e+000	-1.500706740313526e+001
1	 3.231111177062963e+000	 1.676189134885112e+000	-1.506703854852927e+001
1	 3.212827860651388e+000	 1.710972356823719e+000	-1.509193517464228e+001
1	 3.194139719715778e+000	 1.745611770539141e+000	-1.508127644060314e+001
1	 3.175048183409871e+000	 1.780100471988717e+000	-1.503458429071061e+001
1	 3.372197575074528e+000	 1.439731574731234e+000	-1.351436192285611e+001
1	 3.356662231674654e+000	 1.475588867042669e+000	-1.377368657550284e+001
1	 3.340713316314456e+000	 1.511349944770984e+000	-1.400068246125214e+001
1	 3.324351200427108e+000	 1.547007890623957e+000	-1.419487495437190e+001
1	 3.307576405259167e+000	 1.582555769867112e+000	-1.435578257416300e+001
1	 3.290389603006430e+000	 1.617986634272130e+000	-1.448291787357037e+001
1	 3.272791617828106e+000	 1.653293526122406e+000	-1.457578836510517e+001
1	 3.254783426736442e+000	 1.688469482271450e+000	-1.463389748282939e+001
1	 3.236366160359109e+000	 1.723507538249754e+000	-1.465674557903328e+001
1	 3.217541103571808e+000	 1.758400732415532e+000	-1.464383095411215e+001
1	 3.198309695998757e+000	 1.793142110144684e+000	-1.459465091803241e+001
1	 2.965694570108715e+000	 1.662725728608005e+000	-1.834672788488559e+001
1	 2.947483798177338e+000	 1.694797929960343e+000	-1.826877534251248e+001
1	 2.928899221696398e+000	 1.726716448985847e+000	-1.813993317128289e+001
1	 2.909942610804364e+000	 1.758474879052459e+000	-1.796018622352527e+001
1	 2.890615879789327e+000	 1.790066835929240e+000	-1.772956414075618e+001
1	 2.870921086910895e+000	 1.821485961785593e+000	-1.744814221890999e+001
1	 2.850860434090400e+000	 1.852725929198409e+000	-1.711604222262982e+001
1	 2.830436266468553e+000	 1.883780445162080e+000	-1.673343314625902e+001
1	 2.809651071830005e+000	 1.914643255096348e+000	-1.630053191925909e+001
1	 2.788507479894426e+000	 1.945308146846862e+000	-1.581760405387449e+001
1	 2.767008261473969e+000	 1.975768954673289e+000	-1.528496423296886e+001
1	 2.988956082696837e+000	 1.675767366760974e+000	-1.804258771504689e+001
1	 2.970602474040236e+000	 1.708091127367755e+000	-1.796454728402927e+001
1	 2.951872128887056e+000	 1.740260000235878e+000	-1.783524091068108e+001
1	 2.932766831259906e+000	 1.772267528482681e+000	-1.765486559582467e+001
1	 2.913288510461653e+000	 1.804107277802321e+000	-1.742367480273133e+001
1	 2.893439240895929e+000	 1.835772840496374e+000	-1.714197903909357e+001
1	 2.873221241754907e+000	 1.867257839512400e+000	-1.681014636437591e+001
1	 2.852636876573476e+000	 1.898555932485417e+000	-1.642860282056032e+001
1	 2.831688652649308e+000	 1.929660815777189e+000	-1.599783278445234e+001
1	 2.810379220328354e+000	 1.960566228508146e+000	-1.551837923987353e+001
1	 2.788711372155723e+000	 1.991265956576792e+000	-1.499084396823006e+001
1	 3.012217595285378e+000	 1.688809004913743e+000	-1.772116927913573e+001
1	 2.993721149903497e+000	 1.721384324774959e+000	-1.764267622365664e+001
1	 2.974845036078005e+000	 1.753803551485679e+000	-1.751279797537840e+001
1	 2.955591051715656e+000	 1.786060177912640e+000	-1.733192803561932e+001
1	 2.935961141134095e+000	 1.818147719675097e+000	-1.710052720152549e+001
1	 2.915957394880990e+000	 1.850059719206805e+000	-1.681912388316486e+001
1	 2.895582049419351e+000	 1.881789749825994e+000	-1.648831432389796e+001
1	 2.874837486678263e+000	 1.913331419808317e+000	-1.610876272239477e+001
1	 2.853726233468411e+000	 1.944678376457553e+000	-1.568120125487682e+001
1	 2.832250960762047e+000	 1.975824310168927e+000	-1.520642999638250e+001
1	 2.810414482837230e+000	 2.006762958479779e+000	-1.468531674007537e+001
1	 3.035479107874254e+000	 1.701850643066445e+000	-1.738305951487685e+001
1	 3.016839825767045e+000	 1.734677522182089e+000	-1.730379284070194e+001
1	 2.997817943269185e+000	 1.767347102735386e+000	-1.717326508408494e+001
1	 2.978415272171568e+000	 1.799852827342473e+000	-1.699205096034839e+001
1	 2.958633771806631e+000	 1.832188161547714e+000	-1.676080248819523e+001
1	 2.938475548866074e+000	 1.864346597917032e+000	-1.648024906003763e+001
1	 2.917942857083756e+000	 1.896321660139343e+000	-1.615119739506064e+001
1	 2.897038096782951e+000	 1.928106907130930e+000	-1.577453137371978e+001
1	 2.875763814287376e+000	 1.959695937137597e+000	-1.535121175263805e+001
1	 2.854122701195575e+000	 1.991082391829359e+000	-1.488227575914028e+001
1	 2.832117593518570e+000	 2.022259960382399e+000	-1.436883656494128e+001
1	 3.058740620463381e+000	 1.714892281219213e+000	-1.702882750551048e+001
1	 3.039958501630808e+000	 1.747970719589279e+000	-1.694850862938098e+001
1	 3.020790850460532e+000	 1.780890653985136e+000	-1.681728285662894e+001
1	 3.001239492627601e+000	 1.813645476772324e+000	-1.663589118059845e+001
1	 2.981306402479240e+000	 1.846228603420313e+000	-1.640516109336894e+001
1	 2.960993702851183e+000	 1.878633476627206e+000	-1.612600642717317e+001
1	 2.940303664748140e+000	 1.910853570452599e+000	-1.579942705954825e+001
1	 2.919238706887588e+000	 1.942882394453412e+000	-1.542650848122479e+001
1	 2.897801395106262e+000	 1.974713497817474e+000	-1.500842122607872e+001
1	 2.875994441629014e+000	 2.006340473489594e+000	-1.454642016279349e+001
1	 2.853820704199826e+000	 2.037756962284804e+000	-1.404184364820908e+001
1	 3.082002133052676e+000	 1.727933919372181e+000	-1.665902515357865e+001
1	 3.063077177494705e+000	 1.761263916996664e+000	-1.657741662281865e+001
1	 3.043763757651986e+000	 1.794434205235065e+000	-1.644547257244164e+001
1	 3.024063713083709e+000	 1.827438126202331e+000	-1.626408567775821e+001
1	 3.003979033151893e+000	 1.860269045293039e+000	-1.603424350918764e+001
1	 2.983511856836313e+000	 1.892920355337473e+000	-1.575702816237042e+001
1	 2.962664472412528e+000	 1.925385480765913e+000	-1.543361573453023e+001
1	 2.941439316992212e+000	 1.957657881775916e+000	-1.506527564637571e+001
1	 2.919838975925133e+000	 1.989731058497339e+000	-1.465336980919835e+001
1	 2.897866182062439e+000	 2.021598555149789e+000	-1.419935163719271e+001
1	 2.875523814881082e+000	 2.053253964187143e+000	-1.370476490540203e+001
1	 3.105263645642055e+000	 1.740975557525482e+000	-1.627418782442799e+001
1	 3.086195853358668e+000	 1.774557114404378e+000	-1.619109208450856e+001
1	 3.066736664843483e+000	 1.807977756485311e+000	-1.605843689495154e+001
1	 3.046887933539847e+000	 1.841230775632634e+000	-1.587725234672042e+001
1	 3.026651663824572e+000	 1.874309487166035e+000	-1.564867103610053e+001
1	 3.006030010821464e+000	 1.907207234047981e+000	-1.537392750086744e+001
1	 2.985025280076941e+000	 1.939917391079437e+000	-1.505435748672218e+001
1	 2.963639927096867e+000	 1.972433369098596e+000	-1.469139704354573e+001
1	 2.941876556744047e+000	 2.004748619177347e+000	-1.428658145143384e+001
1	 2.919737922495926e+000	 2.036856636810096e+000	-1.384154397688794e+001
1	 2.897226925562421e+000	 2.068750966089566e+000	-1.335801445995634e+001
1	 3.128525158231437e+000	 1.754017195679249e+000	-1.587483496100436e+001
1	 3.109314529222616e+000	 1.787850311812554e+000	-1.579009316892558e+001
1	 3.089709572034964e+000	 1.821521307736009e+000	-1.565676056366180e+001
1	 3.069712153995974e+000	 1.855023425063373e+000	-1.547599070545100e+001
1	 3.049324294497249e+000	 1.888349929039446e+000	-1.524904649634467e+001
1	 3.028548164806635e+000	 1.921494112758879e+000	-1.497729943955904e+001
1	 3.007386087741395e+000	 1.954449301393320e+000	-1.466222871459121e+001
1	 2.985840537201595e+000	 1.987208856421605e+000	-1.430542006789325e+001
1	 2.963914137563063e+000	 2.019766179857653e+000	-1.390856451934466e+001
1	 2.941609662929547e+000	 2.052114718470668e+000	-1.347345688521749e+001
1	 2.918930036243927e+000	 2.084247967992224e+000	-1.300199411878635e+001
1	 3.151786670820736e+000	 1.767058833833616e+000	-1.546147067142313e+001
1	 3.132433205086475e+000	 1.801143509221328e+000	-1.537496155288461e+001
1	 3.112682479226364e+000	 1.835064858987296e+000	-1.524101105558113e+001
1	 3.092536374452043e+000	 1.868816074494688e+000	-1.506088257313625e+001
1	 3.071996925169904e+000	 1.902390370913415e+000	-1.483595491583008e+001
1	 3.051066318791824e+000	 1.935780991470312e+000	-1.456772141003054e+001
1	 3.029746895405916e+000	 1.968981211707714e+000	-1.425778880035182e+001
1	 3.008041147306436e+000	 2.001984343745096e+000	-1.390787595455051e+001
1	 2.985951718382243e+000	 2.034783740538410e+000	-1.351981237165390e+001
1	 2.963481403363379e+000	 2.067372800131659e+000	-1.309553649430345e+001
1	 2.940633146925679e+000	 2.099744969895266e+000	-1.263709382678981e+001
1	 3.175048183409871e+000	 1.780100471988717e+000	-1.503458429071060e+001
1	 3.155551880950169e+000	 1.814436706630833e+000	-1.494622303914617e+001
1	 3.135655386417623e+000	 1.848608410239309e+000	-1.481173921757906e+001
1	 3.115360594908013e+000	 1.882608723926719e+000	-1.463249271852046e+001
1	 3.094669555842513e+000	 1.916430812788086e+000	-1.440996417605047e+001
1	 3.073584472777031e+000	 1.950067870182429e+000	-1.414575392200559e+001
1	 3.052107703070523e+000	 1.983513122022769e+000	-1.384158073330077e+001
1	 3.030241757411437e+000	 2.016759831069224e+000	-1.349928037059357e+001
1	 3.007989299201648e+000	 2.049801301219773e+000	-1.312080390901178e+001
1	 2.985353143797493e+000	 2.082630881793222e+000	-1.270821586218908e+001
1	 2.962336257607764e+000	 2.115241971798842e+000	-1.226369210137448e+001
1	 3.198309695998757e+000	 1.793142110144684e+000	-1.459465091803241e+001
1	 3.178670556813624e+000	 1.827729904041205e+000	-1.450438813368153e+001
1	 3.158628293608679e+000	 1.862151961492185e+000	-1.436947987114646e+001
1	 3.138184815363838e+000	 1.896401373359606e+000	-1.419136947995052e+001
1	 3.117342186515054e+000	 1.930471254663603e+000	-1.397162563754547e+001
1	 3.096102626762256e+000	 1.964354748895379e+000	-1.371194117871529e+001
1	 3.074468510735240e+000	 1.998045032338640e+000	-1.341413170595128e+001
1	 3.052442367516636e+000	 2.031535318394142e+000	-1.308013398117976e+001
1	 3.030026880021336e+000	 2.064818861901898e+000	-1.271200409976799e+001
1	 3.007224884231966e+000	 2.097888963455511e+000	-1.231191544828205e+001
1	 2.984039368290266e+000	 2.130738973703105e+000	-1.188215644802245e+001
1	 2.767008261473969e+000	 1.975768954673289e+000	-1.528496423296886e+001
1	 2.745156326716522e+000	 2.006019562551172e+000	-1.471895744023921e+001
1	 2.722954721676198e+000	 2.036053906072851e+000	-1.413695603577802e+001
1	 2.700406629454409e+000	 2.065865978303493e+000	-1.354089521790773e+001
1	 2.677515369617984e+000	 2.095449834330041e+000	-1.293276403116323e+001
1	 2.654284396700450e+000	 2.124799595113841e+000	-1.231460216286152e+001
1	 2.630717298573514e+000	 2.153909451300075e+000	-1.168849663337871e+001
1	 2.606817794690175e+000	 2.182773666978905e+000	-1.105657838649021e+001
1	 2.582589734201157e+000	 2.211386583393304e+000	-1.042101878642378e+001
1	 2.558037093946534e+000	 2.239742622588618e+000	-9.784026028548837e+000
1	 2.533163976324692e+000	 2.267836290998960e+000	-9.147841470880543e+000
1	 2.788711372155723e+000	 1.991265956576792e+000	-1.499084396823006e+001
1	 2.766688041105134e+000	 2.021753835987452e+000	-1.443185591801376e+001
1	 2.744312297122522e+000	 2.052023754766099e+000	-1.385869316704376e+001
1	 2.721587348276045e+000	 2.082069658862324e+000	-1.327300986683362e+001
1	 2.698516540169660e+000	 2.111885556733959e+000	-1.267650404501520e+001
1	 2.675103354432631e+000	 2.141465523229930e+000	-1.207091486620629e+001
1	 2.651351407078246e+000	 2.170803703429568e+000	-1.145801980618565e+001
1	 2.627264446733149e+000	 2.199894316433246e+000	-1.083963174482528e+001
1	 2.602846352738986e+000	 2.228731659099303e+000	-1.021759598346962e+001
1	 2.578101133128303e+000	 2.257310109722225e+000	-9.593787192674704e+000
1	 2.553032922476773e+000	 2.285624131647170e+000	-8.970106296427826e+000
1	 2.810414482837230e+000	 2.006762958479779e+000	-1.468531674007537e+001
1	 2.788219755493519e+000	 2.037488109423218e+000	-1.413462009610985e+001
1	 2.765669872568660e+000	 2.067993603458853e+000	-1.357139168623733e+001
1	 2.742768067097567e+000	 2.098273339420692e+000	-1.299701653066426e+001
1	 2.719517710721304e+000	 2.128321279137459e+000	-1.241291397221985e+001
1	 2.695922312164874e+000	 2.158131451345657e+000	-1.182053538532204e+001
1	 2.671985515583138e+000	 2.187697955558761e+000	-1.122136181709783e+001
1	 2.647711098776373e+000	 2.217014965887358e+000	-1.061690156523135e+001
1	 2.623102971277156e+000	 2.246076734805151e+000	-1.000868769730137e+001
1	 2.598165172310488e+000	 2.274877596855761e+000	-9.398275516545015e+000
1	 2.572901868629318e+000	 2.303411972295396e+000	-8.787239979145358e+000
1	 2.832117593518570e+000	 2.022259960382399e+000	-1.436883656494128e+001
1	 2.809751469881757e+000	 2.053222382858615e+000	-1.382763736032913e+001
1	 2.787027448014699e+000	 2.083963452151246e+000	-1.327537985619731e+001
1	 2.763948785919044e+000	 2.114477019978720e+000	-1.271319155969064e+001
1	 2.740518881272978e+000	 2.144757001540650e+000	-1.214222515613701e+001
1	 2.716741269897224e+000	 2.174797379461116e+000	-1.156365665018783e+001
1	 2.692619624088216e+000	 2.204592207687736e+000	-1.097868345721763e+001
1	 2.668157750819863e+000	 2.234135615341308e+000	-1.038852244870881e+001
1	 2.643359589815660e+000	 2.263421810510898e+000	-9.794407955488017e+000
1	 2.618229211493063e+000	 2.292445083989264e+000	-9.197589732807012e+000
1	 2.592770814782297e+000	 2.321199812943656e+000	-8.599330891378145e+000
1	 2.853820704199826e+000	 2.037756962284804e+000	-1.404184364820908e+001
1	 2.831283184269936e+000	 2.068956656293786e+000	-1.351128331230368e+001
1	 2.808385023460716e+000	 2.099933300843413e+000	-1.297097595409705e+001
1	 2.785129504740552e+000	 2.130680700536533e+000	-1.242180289770376e+001
1	 2.761520051824738e+000	 2.161192723943644e+000	-1.186466190272484e+001
1	 2.737560227629725e+000	 2.191463307576405e+000	-1.130046572190562e+001
1	 2.713253732593508e+000	 2.221486459816572e+000	-1.073014062642595e+001
1	 2.688604402863628e+000	 2.251256264795160e+000	-1.015462490173217e+001
1	 2.663616208354491e+000	 2.280766886216589e+000	-9.574867316910860e+000
1	 2.638293250676009e+000	 2.310012571122761e+000	-8.991825570687691e+000
1	 2.612639760935674e+000	 2.338987653591965e+000	-8.406464717208470e+000
1	 2.875523814881082e+000	 2.053253964187143e+000	-1.370476490540203e+001
1	 2.852814898658140e+000	 2.084690929728875e+000	-1.318592221420298e+001
1	 2.829742598906793e+000	 2.115903149535490e+000	-1.265848864828003e+001
1	 2.806310223562162e+000	 2.146884381094253e+000	-1.212311039923619e+001
1	 2.782521222376647e+000	 2.177628446346550e+000	-1.158044174611512e+001
1	 2.758379185362421e+000	 2.208129235691617e+000	-1.103114401417788e+001
1	 2.733887841099043e+000	 2.238380711945352e+000	-1.047588451796558e+001
1	 2.709051054907677e+000	 2.268376914248977e+000	-9.915335490768054e+000
1	 2.683872826893645e+000	 2.298111961922277e+000	-9.350173002663581e+000
1	 2.658357289859304e+000	 2.327580058256287e+000	-8.781075869335654e+000
1	 2.632508707089417e+000	 2.356775494240340e+000	-8.208724553904425e+000
1	 2.897226925562421e+000	 2.068750966089566e+000	-1.335801445995634e+001
1	 2.874346613046457e+000	 2.100425203164026e+000	-1.285190741345328e+001
1	 2.851100174353010e+000	 2.131872998227611e+000	-1.233821735815857e+001
1	 2.827490942383945e+000	 2.163088061652005e+000	-1.181736613254520e+001
1	 2.803522392928762e+000	 2.194064168749482e+000	-1.128977570225151e+001
1	 2.779198143095355e+000	 2.224795163806850e+000	-1.075586750483058e+001
1	 2.754521949604845e+000	 2.255274964074154e+000	-1.021606179472792e+001
1	 2.729497706952019e+000	 2.285497563702824e+000	-9.670776989847846e+000
1	 2.704129445433113e+000	 2.315457037628008e+000	-9.120429021069032e+000
1	 2.678421329042928e+000	 2.345147545389874e+000	-8.565430686068838e+000
1	 2.652377653243494e+000	 2.374563334888798e+000	-8.006191008809044e+000
1	 2.918930036243927e+000	 2.084247967992224e+000	-1.300199411878635e+001
1	 2.895878327434964e+000	 2.116159476599381e+000	-1.250958174850914e+001
1	 2.872457749799449e+000	 2.147842846919910e+000	-1.201045259805633e+001
1	 2.848671661205972e+000	 2.179291742209911e+000	-1.150481466907854e+001
1	 2.824523563481143e+000	 2.210499891152546e+000	-1.099286851121275e+001
1	 2.800017100828571e+000	 2.241461091922200e+000	-1.047480693790002e+001
1	 2.775156058110943e+000	 2.272169216203060e+000	-9.950814757675483e+000
1	 2.749944358996667e+000	 2.302618213156769e+000	-9.421068521557041e+000
1	 2.724386063972889e+000	 2.332802113333830e+000	-8.885736287118558e+000
1	 2.698485368226857e+000	 2.362715032523553e+000	-8.344977399793155e+000
1	 2.672246599397870e+000	 2.392351175537356e+000	-7.798942291906714e+000
1	 2.940633146925679e+000	 2.099744969895266e+000	-1.263709382678981e+001
1	 2.917410041823754e+000	 2.131893750035086e+000	-1.215927793665687e+001
1	 2.893815325246190e+000	 2.163812695612522e+000	-1.167547630582482e+001
1	 2.869852380028318e+000	 2.195495422768095e+000	-1.118569336012301e+001
1	 2.845524734033850e+000	 2.226935613555857e+000	-1.068991886880537e+001
1	 2.820836058562116e+000	 2.258127020037764e+000	-1.018812801677041e+001
1	 2.795790166617365e+000	 2.289063468332152e+000	-9.680281506806129e+000
1	 2.770391011041629e+000	 2.319738862610873e+000	-9.166325691781092e+000
1	 2.744642682512967e+000	 2.350147189039793e+000	-8.646192736622259e+000
1	 2.718549407411074e+000	 2.380282519657359e+000	-8.119800809841392e+000
1	 2.692115545552514e+000	 2.410139016186032e+000	-7.587054304290905e+000
1	 2.962336257607764e+000	 2.115241971798842e+000	-1.226369210137448e+001
1	 2.938941756212907e+000	 2.147628023471283e+000	-1.180131894477020e+001
1	 2.915172900693314e+000	 2.179782544305583e+000	-1.133356215701452e+001
1	 2.891033098851052e+000	 2.211699103326682e+000	-1.086023260129102e+001
1	 2.866525904586939e+000	 2.243371335959520e+000	-1.038111964797573e+001
1	 2.841655016296031e+000	 2.274792948153638e+000	-9.895991588821852e+000
1	 2.816424275124137e+000	 2.305957720461509e+000	-9.404596095041642e+000
1	 2.790837663086917e+000	 2.336859512065201e+000	-8.906660718528245e+000
1	 2.764899301053341e+000	 2.367492264745944e+000	-8.401893435341650e+000
1	 2.738613446595554e+000	 2.397850006791322e+000	-7.889983230467431e+000
1	 2.711984491707391e+000	 2.427926856834841e+000	-7.370600722742568e+000
1	 2.984039368290266e+000	 2.130738973703105e+000	-1.188215644802245e+001
1	 2.960473470602511e+000	 2.163362296908118e+000	-1.143601834388748e+001
1	 2.936530476140903e+000	 2.195752392999228e+000	-1.098497586533603e+001
1	 2.912213817674248e+000	 2.227902783885794e+000	-1.052865608546609e+001
1	 2.887527075140474e+000	 2.259807058363652e+000	-1.006665811056014e+001
1	 2.862473974030363e+000	 2.291458876269918e+000	-9.598553822020207e+000
1	 2.837058383631288e+000	 2.322851972591213e+000	-9.123888675400844e+000
1	 2.811284315132539e+000	 2.353980161519819e+000	-8.642182555130720e+000
1	 2.785155919594004e+000	 2.384837340452332e+000	-8.152930683359740e+000
1	 2.758677485780279e+000	 2.415417493925475e+000	-7.655604581216776e+000
1	 2.731853437862469e+000	 2.445714697483801e+000	-7.149653080618046e+000
1	 2.533163976324692e+000	 2.267836290998960e+000	-9.147841470880543e+000
1	 2.507978409130006e+000	 2.295658029994647e+000	-8.518947928864842e+000
1	 2.482481032043097e+000	 2.323206763111350e+000	-7.900789685035548e+000
1	 2.456676310313640e+000	 2.350477275304074e+000	-7.291324312094582e+000
1	 2.430568824931228e+000	 2.377464449525057e+000	-6.688466702266917e+000
1	 2.404163269919529e+000	 2.404163269919529e+000	-6.090093062460339e+000
1	 2.377464449525057e+000	 2.430568824931227e+000	-5.494044981556822e+000
1	 2.350477275304074e+000	 2.456676310313640e+000	-4.898133561121691e+000
1	 2.323206763111350e+000	 2.482481032043097e+000	-4.300143600651302e+000
1	 2.295658029994646e+000	 2.507978409130006e+000	-3.697837828341070e+000
1	 2.267836290998959e+000	 2.533163976324692e+000	-3.088961168245354e+000
1	 2.553032922476773e+000	 2.285624131647170e+000	-8.970106296427829e+000
1	 2.527649811545008e+000	 2.313664091271059e+000	-8.352310220992019e+000
1	 2.501952445030983e+000	 2.341428903686288e+000	-7.743566396317839e+000
1	 2.475945323207677e+000	 2.368913312943507e+000	-7.142159036238832e+000
1	 2.449633062995806e+000	 2.396112161859249e+000	-6.546334279498801e+000
1	 2.423020395236747e+000	 2.423020395236746e+000	-5.954303626706296e+000
1	 2.396112161859249e+000	 2.449633062995806e+000	-5.364247441885531e+000
1	 2.368913312943507e+000	 2.475945323207676e+000	-4.774318511092558e+000
1	 2.341428903686289e+000	 2.501952445030982e+000	-4.182645650415894e+000
1	 2.313664091271059e+000	 2.527649811545009e+000	-3.587337355556833e+000
1	 2.285624131647170e+000	 2.553032922476773e+000	-2.986485485081292e+000
1	 2.572901868629318e+000	 2.303411972295396e+000	-8.787239979145358e+000
1	 2.547321213960504e+000	 2.331670152547573e+000	-8.180706112006599e+000
1	 2.521423858019364e+000	 2.359651044261410e+000	-7.581641101652760e+000
1	 2.495214336102196e+000	 2.387349350583203e+000	-6.988644276207150e+000
1	 2.468697301060834e+000	 2.414759874193777e+000	-6.400281383711717e+000
1	 2.441877520554362e+000	 2.441877520554361e+000	-5.815087485598428e+000
1	 2.414759874193777e+000	 2.468697301060833e+000	-5.231569907377255e+000
1	 2.387349350583203e+000	 2.495214336102196e+000	-4.648211240162363e+000
1	 2.359651044261410e+000	 2.521423858019364e+000	-4.063472386527801e+000
1	 2.331670152547573e+000	 2.547321213960505e+000	-3.475795644068175e+000
1	 2.303411972295396e+000	 2.572901868629318e+000	-2.883607819950362e+000
1	 2.592770814782297e+000	 2.321199812943656e+000	-8.599330891378145e+000
1	 2.566992616376451e+000	 2.349676213824190e+000	-8.004214687424526e+000
1	 2.540895271008198e+000	 2.377873184836706e+000	-7.415081209613307e+000
1	 2.514483348997150e+000	 2.405785388223142e+000	-6.830833627198963e+000
1	 2.487761539126262e+000	 2.433407586528607e+000	-6.250345916083581e+000
1	 2.460734645872333e+000	 2.460734645872333e+000	-5.672465223268794e+000
1	 2.433407586528608e+000	 2.487761539126262e+000	-5.096014281296792e+000
1	 2.405785388223142e+000	 2.514483348997150e+000	-4.519793867428301e+000
1	 2.377873184836706e+000	 2.540895271008198e+000	-3.942585302188133e+000
1	 2.349676213824190e+000	 2.566992616376451e+000	-3.363152981809719e+000
1	 2.321199812943656e+000	 2.592770814782297e+000	-2.780246939026557e+000
1	 2.612639760935674e+000	 2.338987653591965e+000	-8.406464717208470e+000
1	 2.586664018792810e+000	 2.367682275100913e+000	-7.822912627001773e+000
1	 2.560366683997438e+000	 2.396095325412165e+000	-7.243952078221854e+000
1	 2.533752361892490e+000	 2.424221425863299e+000	-6.668779054062326e+000
1	 2.506825777192050e+000	 2.452055298863711e+000	-6.096564624848904e+000
1	 2.479591771190625e+000	 2.479591771190625e+000	-5.526456797685552e+000
1	 2.452055298863711e+000	 2.506825777192050e+000	-4.957582409012328e+000
1	 2.424221425863298e+000	 2.533752361892491e+000	-4.389049055919755e+000
1	 2.396095325412165e+000	 2.560366683997438e+000	-3.819947061964281e+000
1	 2.367682275100913e+000	 2.586664018792810e+000	-3.249351473140741e+000
1	 2.338987653591965e+000	 2.612639760935674e+000	-2.676324079594571e+000
1	 2.632508707089417e+000	 2.356775494240340e+000	-8.208724553904427e+000
1	 2.606335421209538e+000	 2.385688336377744e+000	-7.636874295522047e+000
1	 2.579838096987040e+000	 2.414317465987774e+000	-7.068317092333265e+000
1	 2.553021374788173e+000	 2.442657463503651e+000	-6.502530952819397e+000
1	 2.525890015258152e+000	 2.470703011199052e+000	-5.938973148807836e+000
1	 2.498448896509196e+000	 2.498448896509196e+000	-5.377081564283178e+000
1	 2.470703011199053e+000	 2.525890015258151e+000	-4.816276080179898e+000
1	 2.442657463503652e+000	 2.553021374788173e+000	-4.255959992071503e+000
1	 2.414317465987774e+000	 2.579838096987041e+000	-3.695521457585461e+000
1	 2.385688336377744e+000	 2.606335421209539e+000	-3.134334970297822e+000
1	 2.356775494240340e+000	 2.632508707089417e+000	-2.571762856796299e+000
1	 2.652377653243494e+000	 2.374563334888798e+000	-8.006191008809044e+000
1	 2.626006823626593e+000	 2.403694397654686e+000	-7.446171829503888e+000
1	 2.599309509976958e+000	 2.432539606563527e+000	-6.888237737539632e+000
1	 2.572290387684151e+000	 2.461093501144180e+000	-6.332138209426814e+000
1	 2.544954253324521e+000	 2.489350723534602e+000	-5.777606058880218e+000
1	 2.517306021828006e+000	 2.517306021828006e+000	-5.224358298530222e+000
1	 2.489350723534602e+000	 2.544954253324522e+000	-4.672097030830490e+000
1	 2.461093501144179e+000	 2.572290387684152e+000	-4.120510366119776e+000
1	 2.432539606563527e+000	 2.599309509976957e+000	-3.569273365724808e+000
1	 2.403694397654687e+000	 2.626006823626595e+000	-3.018049007928129e+000
1	 2.374563334888798e+000	 2.652377653243494e+000	-2.466489174568094e+000
1	 2.672246599397870e+000	 2.392351175537356e+000	-7.798942291906714e+000
1	 2.645678226043938e+000	 2.421700458931741e+000	-7.250875220039798e+000
1	 2.618780922967142e+000	 2.450761747139410e+000	-6.703773670778233e+000
1	 2.591559400580378e+000	 2.479529538784858e+000	-6.157648255914562e+000
1	 2.564018491391117e+000	 2.507998435870327e+000	-5.612496897805483e+000
1	 2.536163147147017e+000	 2.536163147147017e+000	-5.068305217490392e+000
1	 2.507998435870326e+000	 2.564018491391118e+000	-4.525046945363390e+000
1	 2.479529538784858e+000	 2.591559400580378e+000	-3.982684353372636e+000
1	 2.450761747139409e+000	 2.618780922967142e+000	-3.441168707665146e+000
1	 2.421700458931741e+000	 2.645678226043937e+000	-2.900440740543330e+000
1	 2.392351175537357e+000	 2.672246599397870e+000	-2.360431140551630e+000
1	 2.692115545552514e+000	 2.410139016186032e+000	-7.587054304290905e+000
1	 2.665349628461526e+000	 2.439706520208910e+000	-7.051052391966809e+000
1	 2.638252335957553e+000	 2.468983887715412e+000	-6.514982787812687e+000
1	 2.610828413476806e+000	 2.497965576425667e+000	-5.979107124038893e+000
1	 2.583082729457892e+000	 2.526646148206194e+000	-5.443678218084705e+000
1	 2.555020272466187e+000	 2.555020272466187e+000	-4.908940000428926e+000
1	 2.526646148206194e+000	 2.583082729457892e+000	-4.375127458451581e+000
1	 2.497965576425666e+000	 2.610828413476806e+000	-3.842466596309799e+000
1	 2.468983887715411e+000	 2.638252335957553e+000	-3.311174410750663e+000
1	 2.439706520208911e+000	 2.665349628461527e+000	-2.781458882743327e+000
1	 2.410139016186032e+000	 2.692115545552514e+000	-2.253518984772516e+000
1	 2.711984491707391e+000	 2.427926856834841e+000	-7.370600722742568e+000
1	 2.685021030879321e+000	 2.457712581486198e+000	-6.846769279557020e+000
1	 2.657723748948141e+000	 2.487206028291523e+000	-6.321921287747698e+000
1	 2.630097426373389e+000	 2.516401614066581e+000	-5.796559496576797e+000
1	 2.602146967524803e+000	 2.545293860542173e+000	-5.271181618254746e+000
1	 2.573877397785479e+000	 2.573877397785478e+000	-4.746279808513081e+000
1	 2.545293860542173e+000	 2.602146967524804e+000	-4.222340156863393e+000
1	 2.516401614066580e+000	 2.630097426373389e+000	-3.699842187469398e+000
1	 2.487206028291522e+000	 2.657723748948141e+000	-3.179258371533218e+000
1	 2.457712581486198e+000	 2.685021030879322e+000	-2.661053652067526e+000
1	 2.427926856834841e+000	 2.711984491707391e+000	-2.145684981893856e+000
1	 2.731853437862469e+000	 2.445714697483801e+000	-7.149653080618046e+000
1	 2.704692433297279e+000	 2.475718642763606e+000	-6.638089898905029e+000
1	 2.677195161938863e+000	 2.505428168867732e+000	-6.124643734728684e+000
1	 2.649366439270082e+000	 2.534837651707582e+000	-5.610048756381979e+000
1	 2.621211205591807e+000	 2.563941572878231e+000	-5.095037777579382e+000
1	 2.592734523104852e+000	 2.592734523104852e+000	-4.580341303652835e+000
1	 2.563941572878231e+000	 2.621211205591807e+000	-4.066686581204486e+000
1	 2.534837651707581e+000	 2.649366439270081e+000	-3.554796653081506e+000
1	 2.505428168867732e+000	 2.677195161938863e+000	-3.045389420526746e+000
1	 2.475718642763605e+000	 2.704692433297279e+000	-2.539176714339973e+000
1	 2.445714697483802e+000	 2.731853437862469e+000	-2.036863376862365e+000
1	 2.267836290998959e+000	 2.533163976324692e+000	-3.088961168245354e+000
1	 2.239742622588619e+000	 2.558037093946534e+000	-2.475718880022049e+000
1	 2.211386583393305e+000	 2.582589734201157e+000	-1.863730737412932e+000
1	 2.182773666978905e+000	 2.606817794690176e+000	-1.255589779081384e+000
1	 2.153909451300075e+000	 2.630717298573514e+000	-6.539025644536031e-001
1	 2.124799595113840e+000	 2.654284396700450e+000	-6.128446239019594e-002
1	 2.095449834330041e+000	 2.677515369617983e+000	 5.196450613802873e-001
1	 2.065865978303493e+000	 2.700406629454409e+000	 1.086267148073161e+000
1	 2.036053906072851e+000	 2.722954721676199e+000	 1.635968230982495e+000
1	 2.006019562551172e+000	 2.745156326716522e+000	 2.166144692118094e+000
1	 1.975768954673289e+000	 2.767008261473968e+000	 2.674207480654163e+000
1	 2.285624131647170e+000	 2.553032922476773e+000	-2.986485485081292e+000
1	 2.257310109722224e+000	 2.578101133128303e+000	-2.382840921030645e+000
1	 2.228731659099303e+000	 2.602846352738986e+000	-1.782078351335563e+000
1	 2.199894316433245e+000	 2.627264446733148e+000	-1.186404171032311e+000
1	 2.170803703429568e+000	 2.651351407078246e+000	-5.980362556913459e-001
1	 2.141465523229931e+000	 2.675103354432631e+000	-1.919992504016227e-002
1	 2.111885556733959e+000	 2.698516540169659e+000	 5.478760950484269e-001
1	 2.082069658862324e+000	 2.721587348276045e+000	 1.100963703622790e+000
1	 2.052023754766099e+000	 2.744312297122521e+000	 1.637839440252814e+000
1	 2.021753835987452e+000	 2.766688041105134e+000	 2.156288476728765e+000
1	 1.991265956576792e+000	 2.788711372155724e+000	 2.654108576532062e+000
1	 2.303411972295396e+000	 2.572901868629318e+000	-2.883607819950362e+000
1	 2.274877596855761e+000	 2.598165172310488e+000	-2.290164190052543e+000
1	 2.246076734805151e+000	 2.623102971277155e+000	-1.701169032657492e+000
1	 2.217014965887358e+000	 2.647711098776373e+000	-1.118454335873520e+000
1	 2.187697955558761e+000	 2.671985515583138e+000	-5.438616278510788e-001
1	 2.158131451345657e+000	 2.695922312164874e+000	 2.076140102666571e-002
1	 2.128321279137459e+000	 2.719517710721304e+000	 5.735642780668342e-001
1	 2.098273339420692e+000	 2.742768067097567e+000	 1.112697123104622e+000
1	 2.067993603458852e+000	 2.765669872568660e+000	 1.636314011104092e+000
1	 2.037488109423218e+000	 2.788219755493518e+000	 2.142576315438512e+000
1	 2.006762958479779e+000	 2.810414482837230e+000	 2.629656024856705e+000
1	 2.321199812943656e+000	 2.592770814782297e+000	-2.780246939026557e+000
1	 2.292445083989264e+000	 2.618229211493063e+000	-2.197587202298642e+000
1	 2.263421810510898e+000	 2.643359589815661e+000	-1.620883540362301e+000
1	 2.234135615341307e+000	 2.668157750819863e+000	-1.051605478057534e+000
1	 2.204592207687736e+000	 2.692619624088216e+000	-4.912302378899079e-001
1	 2.174797379461117e+000	 2.716741269897225e+000	 5.875999529111390e-002
1	 2.144757001540649e+000	 2.740518881272977e+000	 5.968808122889293e-001
1	 2.114477019978720e+000	 2.763948785919044e+000	 1.121648314381792e+000
1	 2.083963452151246e+000	 2.787027448014699e+000	 1.631581839154890e+000
1	 2.053222382858615e+000	 2.809751469881758e+000	 2.125206671579470e+000
1	 2.022259960382399e+000	 2.832117593518569e+000	 2.601056734646806e+000
1	 2.338987653591965e+000	 2.612639760935674e+000	-2.676324079594571e+000
1	 2.310012571122760e+000	 2.638293250676008e+000	-2.105011560119450e+000
1	 2.280766886216590e+000	 2.663616208354491e+000	-1.541106260712945e+000
1	 2.251256264795159e+000	 2.688604402863627e+000	-9.857269024807462e-001
1	 2.221486459816572e+000	 2.713253732593509e+000	-4.399981583618508e-001
1	 2.191463307576405e+000	 2.737560227629726e+000	 9.495145549193162e-002
1	 2.161192723943644e+000	 2.761520051824738e+000	 6.179916916545017e-001
1	 2.130680700536533e+000	 2.785129504740552e+000	 1.127992682149682e+000
1	 2.099933300843413e+000	 2.808385023460716e+000	 1.623827043451022e+000
1	 2.068956656293786e+000	 2.831283184269936e+000	 2.104371971283667e+000
1	 2.037756962284804e+000	 2.853820704199826e+000	 2.568511320805427e+000
1	 2.356775494240340e+000	 2.632508707089417e+000	-2.571762856796300e+000
1	 2.327580058256288e+000	 2.658357289859304e+000	-2.012341836503836e+000
1	 2.298111961922277e+000	 2.683872826893644e+000	-1.461725070366621e+000
1	 2.268376914248976e+000	 2.709051054907677e+000	-9.206918597423287e-001
1	 2.238380711945352e+000	 2.733887841099044e+000	-3.900258070098883e-001
1	 2.208129235691617e+000	 2.758379185362420e+000	 1.294866818512885e-001
1	 2.177628446346551e+000	 2.782521222376647e+000	 6.370578987241169e-001
1	 2.146884381094253e+000	 2.806310223562161e+000	 1.131900335612487e+000
1	 2.115903149535490e+000	 2.829742598906794e+000	 1.613228184459853e+000
1	 2.084690929728875e+000	 2.852814898658141e+000	 2.080258831312786e+000
1	 2.053253964187143e+000	 2.875523814881082e+000	 2.532214341645364e+000
1	 2.374563334888798e+000	 2.652377653243494e+000	-2.466489174568094e+000
1	 2.345147545389875e+000	 2.678421329042928e+000	-1.919485463813965e+000
1	 2.315457037628008e+000	 2.704129445433113e+000	-1.382631205642402e+000
1	 2.285497563702824e+000	 2.729497706952019e+000	-8.563773983581564e-001
1	 2.255274964074154e+000	 2.754521949604845e+000	-3.411777840170965e-001
1	 2.224795163806849e+000	 2.779198143095354e+000	 1.625120530200159e-001
1	 2.194064168749482e+000	 2.803522392928762e+000	 6.542355923801138e-001
1	 2.163088061652005e+000	 2.827490942383944e+000	 1.133536286825781e+000
1	 2.131872998227610e+000	 2.851100174353011e+000	 1.599958472266728e+000
1	 2.100425203164026e+000	 2.874346613046457e+000	 2.053048276647831e+000
1	 2.068750966089566e+000	 2.897226925562421e+000	 2.492354525738417e+000
1	 2.392351175537357e+000	 2.672246599397870e+000	-2.360431140551631e+000
1	 2.362715032523554e+000	 2.698485368226857e+000	-1.826352627483878e+000
1	 2.332802113333830e+000	 2.724386063972889e+000	-1.303719137620858e+000
1	 2.302618213156768e+000	 2.749944358996667e+000	-7.926642235677645e-001
1	 2.272169216203061e+000	 2.775156058110944e+000	-2.933227165183903e-001
1	 2.241461091922200e+000	 2.800017100828571e+000	 1.941695941736437e-001
1	 2.210499891152547e+000	 2.824523563481142e+000	 6.696762871538859e-001
1	 2.179291742209911e+000	 2.848671661205972e+000	 1.133060640190342e+000
1	 2.147842846919909e+000	 2.872457749799449e+000	 1.584185965483176e+000
1	 2.116159476599381e+000	 2.895878327434966e+000	 2.022915948372023e+000
1	 2.084247967992224e+000	 2.918930036243927e+000	 2.449114988644750e+000
1	 2.410139016186032e+000	 2.692115545552514e+000	-2.253518984772514e+000
1	 2.380282519657360e+000	 2.718549407411073e+000	-1.732856164425461e+000
1	 2.350147189039793e+000	 2.744642682512968e+000	-1.224886452774650e+000
1	 2.319738862610872e+000	 2.770391011041629e+000	-7.294365623935613e-001
1	 2.289063468332153e+000	 2.795790166617366e+000	-2.463331099975729e-001
1	 2.258127020037764e+000	 2.820836058562116e+000	 2.245971376646701e-001
1	 2.226935613555856e+000	 2.845524734033849e+000	 6.835270246121348e-001
1	 2.195495422768095e+000	 2.869852380028318e+000	 1.130628773555004e+000
1	 2.163812695612522e+000	 2.893815325246190e+000	 1.566073761347192e+000
1	 2.131893750035085e+000	 2.917410041823753e+000	 1.990032302347766e+000
1	 2.099744969895266e+000	 2.940633146925679e+000	 2.402673440044799e+000
1	 2.427926856834841e+000	 2.711984491707391e+000	-2.145684981893858e+000
1	 2.397850006791323e+000	 2.738613446595554e+000	-1.638911465900297e+000
1	 2.367492264745944e+000	 2.764899301053342e+000	-1.146033738846363e+000
1	 2.336859512065201e+000	 2.790837663086917e+000	-6.665820346319773e-001
1	 2.305957720461509e+000	 2.816424275124138e+000	-2.000852062167635e-001
1	 2.274792948153638e+000	 2.841655016296031e+000	 2.539284766129393e-001
1	 2.243371335959520e+000	 2.866525904586940e+000	 6.959305372092769e-001
1	 2.211699103326681e+000	 2.891033098851052e+000	 1.126391511358331e+000
1	 2.179782544305583e+000	 2.915172900693315e+000	 1.545780177466962e+000
1	 2.147628023471283e+000	 2.938941756212908e+000	 1.954562799160406e+000
1	 2.115241971798842e+000	 2.962336257607765e+000	 2.353202381766107e+000
1	 2.445714697483802e+000	 2.731853437862469e+000	-2.036863376862366e+000
1	 2.415417493925476e+000	 2.758677485780278e+000	-1.544436384629938e+000
1	 2.384837340452332e+000	 2.785155919594005e+000	-1.067064475706443e+000
1	 2.353980161519820e+000	 2.811284315132540e+000	-6.039915294741560e-001
1	 2.322851972591212e+000	 2.837058383631288e+000	-1.544588473454883e-001
1	 2.291458876269918e+000	 2.862473974030362e+000	 2.822935117935471e-001
1	 2.259807058363652e+000	 2.887527075140474e+000	 7.070254049896156e-001
1	 2.227902783885794e+000	 2.912213817674249e+000	 1.120495290214877e+000
1	 2.195752392999227e+000	 2.936530476140903e+000	 1.523458925633459e+000
1	 2.163362296908118e+000	 2.960473470602511e+000	 1.916668085773045e+000
1	 2.130738973703105e+000	 2.984039368290266e+000	 2.300869297168550e+000
1	 1.975768954673289e+000	 2.767008261473968e+000	 2.674207480654163e+000
1	 1.945308146846862e+000	 2.788507479894426e+000	 3.152446987732688e+000
1	 1.914643255096348e+000	 2.809651071830004e+000	 3.594912245742441e+000
1	 1.883780445162079e+000	 2.830436266468553e+000	 4.001712623634382e+000
1	 1.852725929198409e+000	 2.850860434090399e+000	 4.373018620560683e+000
1	 1.821485961785593e+000	 2.870921086910894e+000	 4.709060237436539e+000
1	 1.790066835929240e+000	 2.890615879789326e+000	 5.010125272191699e+000
1	 1.758474879052460e+000	 2.909942610804365e+000	 5.276557543271266e+000
1	 1.726716448985847e+000	 2.928899221696398e+000	 5.508755046060477e+000
1	 1.694797929960344e+000	 2.947483798177338e+000	 5.707168047007718e+000
1	 1.662725728608005e+000	 2.965694570108715e+000	 5.872297120303467e+000
1	 1.991265956576792e+000	 2.788711372155724e+000	 2.654108576532062e+000
1	 1.960566228508145e+000	 2.810379220328354e+000	 3.124216064604760e+000
1	 1.929660815777188e+000	 2.831688652649307e+000	 3.560788812856380e+000
1	 1.898555932485416e+000	 2.852636876573476e+000	 3.963575070626459e+000
1	 1.867257839512399e+000	 2.873221241754905e+000	 4.332384164548546e+000
1	 1.835772840496374e+000	 2.893439240895928e+000	 4.667085497546958e+000
1	 1.804107277802321e+000	 2.913288510461652e+000	 4.967607464604646e+000
1	 1.772267528482681e+000	 2.932766831259905e+000	 5.233936288637976e+000
1	 1.740260000235878e+000	 2.951872128887057e+000	 5.466114779962382e+000
1	 1.708091127367755e+000	 2.970602474040235e+000	 5.664241022970459e+000
1	 1.675767366760974e+000	 2.988956082696838e+000	 5.828466993767191e+000
1	 2.006762958479779e+000	 2.810414482837230e+000	 2.629656024856705e+000
1	 1.975824310168927e+000	 2.832250960762047e+000	 3.091083709003110e+000
1	 1.944678376457553e+000	 2.853726233468411e+000	 3.521178311358982e+000
1	 1.913331419808316e+000	 2.874837486678262e+000	 3.919350280694981e+000
1	 1.881789749825994e+000	 2.895582049419351e+000	 4.285071084575812e+000
1	 1.850059719206805e+000	 2.915957394880990e+000	 4.617872800472004e+000
1	 1.818147719675098e+000	 2.935961141134096e+000	 4.917347617076540e+000
1	 1.786060177912640e+000	 2.955591051715656e+000	 5.183147248004553e+000
1	 1.753803551485679e+000	 2.974845036078005e+000	 5.414982260236582e+000
1	 1.721384324774959e+000	 2.993721149903496e+000	 5.612621319836550e+000
1	 1.688809004913743e+000	 3.012217595285378e+000	 5.775890357639142e+000
1	 2.022259960382399e+000	 2.832117593518569e+000	 2.601056734646806e+000
1	 1.991082391829358e+000	 2.854122701195576e+000	 3.053266579807810e+000
1	 1.959695937137597e+000	 2.875763814287376e+000	 3.476309329311789e+000
1	 1.928106907130930e+000	 2.897038096782952e+000	 3.869280421434651e+000
1	 1.896321660139343e+000	 2.917942857083756e+000	 4.231336249486951e+000
1	 1.864346597917032e+000	 2.938475548866074e+000	 4.561694310249341e+000
1	 1.832188161547714e+000	 2.958633771806631e+000	 4.859633256393077e+000
1	 1.799852827342474e+000	 2.978415272171569e+000	 5.124492853973775e+000
1	 1.767347102735386e+000	 2.997817943269185e+000	 5.355673846298527e+000
1	 1.734677522182089e+000	 3.016839825767045e+000	 5.552637725672190e+000
1	 1.701850643066445e+000	 3.035479107874254e+000	 5.714906414726383e+000
1	 2.037756962284804e+000	 2.853820704199826e+000	 2.568511320805427e+000
1	 2.006340473489595e+000	 2.875994441629014e+000	 3.010974745195382e+000
1	 1.974713497817474e+000	 2.897801395106263e+000	 3.426403501190317e+000
1	 1.942882394453412e+000	 2.919238706887588e+000	 3.813600293768467e+000
1	 1.910853570452600e+000	 2.940303664748141e+000	 4.171428714246785e+000
1	 1.878633476627206e+000	 2.960993702851183e+000	 4.498813911761275e+000
1	 1.846228603420313e+000	 2.981306402479240e+000	 4.794743162854116e+000
1	 1.813645476772324e+000	 3.001239492627601e+000	 5.058266339231581e+000
1	 1.780890653985136e+000	 3.020790850460533e+000	 5.288496273997041e+000
1	 1.747970719589279e+000	 3.039958501630808e+000	 5.484609026900650e+000
1	 1.714892281219213e+000	 3.058740620463381e+000	 5.645844049379639e+000
1	 2.053253964187143e+000	 2.875523814881082e+000	 2.532214341645364e+000
1	 2.021598555149789e+000	 2.897866182062439e+000	 2.964411931356445e+000
1	 1.989731058497339e+000	 2.919838975925133e+000	 3.371675770296233e+000
1	 1.957657881775916e+000	 2.941439316992211e+000	 3.752537609948785e+000
1	 1.925385480765913e+000	 2.962664472412528e+000	 4.105590014818107e+000
1	 1.892920355337473e+000	 2.983511856836313e+000	 4.429487523170965e+000
1	 1.860269045293039e+000	 3.003979033151893e+000	 4.722947700345666e+000
1	 1.827438126202331e+000	 3.024063713083709e+000	 4.984752083730687e+000
1	 1.794434205235066e+000	 3.043763757651987e+000	 5.213747018785336e+000
1	 1.761263916996664e+000	 3.063077177494705e+000	 5.408844385741216e+000
1	 1.727933919372180e+000	 3.082002133052676e+000	 5.569022216887679e+000
1	 2.068750966089566e+000	 2.897226925562421e+000	 2.492354525738417e+000
1	 2.036856636810096e+000	 2.919737922495927e+000	 2.913775760034735e+000
1	 2.004748619177347e+000	 2.941876556744046e+000	 3.312334639375082e+000
1	 1.972433369098596e+000	 2.963639927096867e+000	 3.686313259063415e+000
1	 1.939917391079437e+000	 2.985025280076940e+000	 4.034054449785806e+000
1	 1.907207234047982e+000	 3.006030010821463e+000	 4.353963394315747e+000
1	 1.874309487166035e+000	 3.026651663824572e+000	 4.644509131576577e+000
1	 1.841230775632635e+000	 3.046887933539848e+000	 4.904225946269398e+000
1	 1.807977756485311e+000	 3.066736664843483e+000	 5.131714642568902e+000
1	 1.774557114404378e+000	 3.086195853358668e+000	 5.325643700683324e+000
1	 1.740975557525482e+000	 3.105263645642056e+000	 5.484750315370116e+000
1	 2.084247967992224e+000	 2.918930036243927e+000	 2.449114988644750e+000
1	 2.052114718470668e+000	 2.941609662929547e+000	 2.859257975468953e+000
1	 2.019766179857653e+000	 2.963914137563062e+000	 3.248582410053622e+000
1	 1.987208856421604e+000	 2.985840537201594e+000	 3.615141560696856e+000
1	 1.954449301393320e+000	 3.007386087741394e+000	 3.957049349417168e+000
1	 1.921494112758879e+000	 3.028548164806635e+000	 4.272482391788511e+000
1	 1.888349929039446e+000	 3.049324294497249e+000	 4.559681919251776e+000
1	 1.855023425063373e+000	 3.069712153995974e+000	 4.816955581278333e+000
1	 1.821521307736009e+000	 3.089709572034964e+000	 5.042679125079992e+000
1	 1.787850311812554e+000	 3.109314529222617e+000	 5.235297950879626e+000
1	 1.754017195679249e+000	 3.128525158231438e+000	 5.393328541079396e+000
1	 2.099744969895266e+000	 2.940633146925679e+000	 2.402673440044799e+000
1	 2.067372800131659e+000	 2.963481403363379e+000	 2.801044661285177e+000
1	 2.034783740538409e+000	 2.985951718382242e+000	 3.180615411674161e+000
1	 2.001984343745095e+000	 3.008041147306437e+000	 3.539230507358940e+000
1	 1.968981211707714e+000	 3.029746895405916e+000	 3.874795332807553e+000
1	 1.935780991470312e+000	 3.051066318791825e+000	 4.185278271395164e+000
1	 1.902390370913415e+000	 3.071996925169904e+000	 4.468713013909117e+000
1	 1.868816074494688e+000	 3.092536374452044e+000	 4.723200741578883e+000
1	 1.835064858987296e+000	 3.112682479226365e+000	 4.946912180577860e+000
1	 1.801143509221328e+000	 3.132433205086475e+000	 5.138089525288250e+000
1	 1.767058833833616e+000	 3.151786670820736e+000	 5.295048227968962e+000
1	 2.115241971798842e+000	 2.962336257607765e+000	 2.353202381766107e+000
1	 2.082630881793222e+000	 2.985353143797493e+000	 2.739316447854916e+000
1	 2.049801301219773e+000	 3.007989299201646e+000	 3.108624220069872e+000
1	 2.016759831069223e+000	 3.030241757411437e+000	 3.458781996256669e+000
1	 1.983513122022770e+000	 3.052107703070523e+000	 3.787506553722491e+000
1	 1.950067870182429e+000	 3.073584472777031e+000	 4.092577938635220e+000
1	 1.916430812788086e+000	 3.094669555842513e+000	 4.371842129103109e+000
1	 1.882608723926719e+000	 3.115360594908013e+000	 4.623213567833080e+000
1	 1.848608410239309e+000	 3.135655386417623e+000	 4.844677560627619e+000
1	 1.814436706630833e+000	 3.155551880950169e+000	 5.034292537346748e+000
1	 1.780100471988717e+000	 3.175048183409870e+000	 5.190192172334872e+000
1	 2.130738973703105e+000	 2.984039368290266e+000	 2.300869297168550e+000
1	 2.097888963455511e+000	 3.007224884231965e+000	 2.674248710604555e+000
1	 2.064818861901898e+000	 3.030026880021336e+000	 3.032793866792999e+000
1	 2.031535318394141e+000	 3.052442367516636e+000	 3.373992050951967e+000
1	 1.998045032338640e+000	 3.074468510735241e+000	 3.695390935711498e+000
1	 1.964354748895379e+000	 3.096102626762256e+000	 3.994601697815479e+000
1	 1.930471254663603e+000	 3.117342186515054e+000	 4.269302004580277e+000
1	 1.896401373359606e+000	 3.138184815363838e+000	 4.517238865362287e+000
1	 1.862151961492184e+000	 3.158628293608679e+000	 4.736231343666193e+000
1	 1.827729904041205e+000	 3.178670556813624e+000	 4.924173125914054e+000
1	 1.793142110144684e+000	 3.198309695998757e+000	 5.079034943290412e+000
1	 1.662725728608005e+000	 2.965694570108715e+000	 5.872297120303467e+000
1	 1.630511113674446e+000	 2.983527265011494e+000	 6.009997314052061e+000
1	 1.598155724011803e+000	 3.000983163283563e+000	 6.124769379167160e+000
1	 1.565666008429836e+000	 3.018060930005414e+000	 6.215089933160212e+000
1	 1.533048422245595e+000	 3.034759373751101e+000	 6.279487413869309e+000
1	 1.500309423398188e+000	 3.051077446124149e+000	 6.316543670180820e+000
1	 1.467455468599930e+000	 3.067014241170959e+000	 6.324895448296318e+000
1	 1.434493009528169e+000	 3.082568994673866e+000	 6.303235772056056e+000
1	 1.401428489062056e+000	 3.097741083326226e+000	 6.250315216106497e+000
1	 1.368268337568320e+000	 3.112530023792000e+000	 6.164943070975656e+000
1	 1.335018969240017e+000	 3.126935471652506e+000	 6.045988399392326e+000
1	 1.675767366760974e+000	 2.988956082696838e+000	 5.828466993767191e+000
1	 1.643300075547886e+000	 3.006928648866512e+000	 5.964358239700664e+000
1	 1.610690905435004e+000	 3.024521462989988e+000	 6.076611126638087e+000
1	 1.577946355813512e+000	 3.041733179677284e+000	 6.164081173923460e+000
1	 1.545072932632920e+000	 3.058562598157479e+000	 6.225670176284925e+000
1	 1.512077144485368e+000	 3.075008661810973e+000	 6.260327212786635e+000
1	 1.478965498726573e+000	 3.091070457578299e+000	 6.267049569788943e+000
1	 1.445744497637801e+000	 3.106747215247636e+000	 6.244883577318090e+000
1	 1.412420634633105e+000	 3.122038306623423e+000	 6.192925358459821e+000
1	 1.379000390515981e+000	 3.136943244578564e+000	 6.110321491604343e+000
1	 1.345490229789387e+000	 3.151461681992926e+000	 5.996269585576855e+000
1	 1.688809004913743e+000	 3.012217595285378e+000	 5.775890357639142e+000
1	 1.656089037421116e+000	 3.030330032721981e+000	 5.910037913170739e+000
1	 1.623226086857971e+000	 3.048059762696877e+000	 6.019882121307553e+000
1	 1.590226703196920e+000	 3.065405429349620e+000	 6.104610584888912e+000
1	 1.557097443019938e+000	 3.082365822564309e+000	 6.163452130573538e+000
1	 1.523844865572194e+000	 3.098939877498229e+000	 6.195677306461486e+000
1	 1.490475528852819e+000	 3.115126673986047e+000	 6.200598810305949e+000
1	 1.456995985746994e+000	 3.130925435821791e+000	 6.177571848492371e+000
1	 1.423412780203684e+000	 3.146335529920983e+000	 6.125994426121784e+000
1	 1.389732443463149e+000	 3.161356465365480e+000	 6.045307568689625e+000
1	 1.355961490338257e+000	 3.175987892333698e+000	 5.934995476002493e+000
1	 1.701850643066445e+000	 3.035479107874254e+000	 5.714906414726384e+000
1	 1.668877999294270e+000	 3.053731416577814e+000	 5.847385786758418e+000
1	 1.635761268280842e+000	 3.071598062404152e+000	 5.954944813676296e+000
1	 1.602507050580201e+000	 3.089077679022346e+000	 6.037057437825841e+000
1	 1.569121953406790e+000	 3.106169046971532e+000	 6.093234257652172e+000
1	 1.535612586658818e+000	 3.122871093185871e+000	 6.123022583471794e+000
1	 1.501985558978823e+000	 3.139182890394173e+000	 6.126006438558338e+000
1	 1.468247473855910e+000	 3.155103656396314e+000	 6.101806506385334e+000
1	 1.434404925773956e+000	 3.170632753218907e+000	 6.050080024980617e+000
1	 1.400464496409991e+000	 3.185769686152757e+000	 5.970520629450893e+000
1	 1.366432750886794e+000	 3.200514102674838e+000	 5.862858143835281e+000
1	 1.714892281219213e+000	 3.058740620463381e+000	 5.645844049379639e+000
1	 1.681666961167484e+000	 3.077132800433932e+000	 5.776740682516885e+000
1	 1.648296449703754e+000	 3.095136362111732e+000	 5.882150628600318e+000
1	 1.614787397963496e+000	 3.112749928695398e+000	 5.961789467160311e+000
1	 1.581146463793626e+000	 3.129972271379086e+000	 6.015405340708401e+000
1	 1.547380307745388e+000	 3.146802308873854e+000	 6.042778637208169e+000
1	 1.513495589104740e+000	 3.163239106802647e+000	 6.043721630750206e+000
1	 1.479498961964707e+000	 3.179281876971192e+000	 6.018078081831351e+000
1	 1.445397071344083e+000	 3.194929976517194e+000	 5.965722798706637e+000
1	 1.411196549356671e+000	 3.210182906940406e+000	 5.886561161343685e+000
1	 1.376904011435165e+000	 3.225040313016363e+000	 5.780528609565664e+000
1	 1.727933919372180e+000	 3.082002133052676e+000	 5.569022216887679e+000
1	 1.694455923040891e+000	 3.100534184290246e+000	 5.698431193416774e+000
1	 1.660831631126843e+000	 3.118674661819535e+000	 5.801840381372817e+000
1	 1.627067745346946e+000	 3.136422178368697e+000	 5.879163305367595e+000
1	 1.593170974180589e+000	 3.153775495786915e+000	 5.930342425514140e+000
1	 1.559148028832057e+000	 3.170733524562135e+000	 5.955348514241941e+000
1	 1.525005619230725e+000	 3.187295323211441e+000	 5.954180002396861e+000
1	 1.490750450073546e+000	 3.203460097546412e+000	 5.926862296474408e+000
1	 1.456389216914231e+000	 3.219227199815839e+000	 5.873447068866658e+000
1	 1.421928602303357e+000	 3.234596127728437e+000	 5.794011523028338e+000
1	 1.387375271983537e+000	 3.249566523358289e+000	 5.688657635487276e+000
1	 1.740975557525482e+000	 3.105263645642056e+000	 5.484750315370116e+000
1	 1.707244884914625e+000	 3.123935568146672e+000	 5.612776066476217e+000
1	 1.673366812550247e+000	 3.142212961527484e+000	 5.714344675105003e+000
1	 1.639348092730692e+000	 3.160094428042173e+000	 5.789524898795245e+000
1	 1.605195484567825e+000	 3.177578720194960e+000	 5.838411260050019e+000
1	 1.570915749918973e+000	 3.194664740250668e+000	 5.861123184265859e+000
1	 1.536515649356933e+000	 3.211351539620524e+000	 5.857804116239959e+000
1	 1.502001938182587e+000	 3.227638318121956e+000	 5.828620617445753e+000
1	 1.467381362484561e+000	 3.243524423114845e+000	 5.773761446267758e+000
1	 1.432660655250214e+000	 3.259009348516858e+000	 5.693436623383315e+000
1	 1.397846532532076e+000	 3.274092733700632e+000	 5.587876484467030e+000
1	 1.754017195679249e+000	 3.128525158231438e+000	 5.393328541079399e+000
1	 1.720033846788822e+000	 3.147336952003127e+000	 5.520084568798706e+000
1	 1.685901993974103e+000	 3.165751261235494e+000	 5.619984280379155e+000
1	 1.651628440114874e+000	 3.183766677715757e+000	 5.693209904935746e+000
1	 1.617219994955478e+000	 3.201381944603160e+000	 5.739966714517558e+000
1	 1.582683471006289e+000	 3.218595955939409e+000	 5.760481989069874e+000
1	 1.548025679483521e+000	 3.235407756029868e+000	 5.755003967503650e+000
1	 1.513253426291988e+000	 3.251816538697813e+000	 5.723800787296360e+000
1	 1.478373508055239e+000	 3.267821646414212e+000	 5.667159415028047e+000
1	 1.443392708197408e+000	 3.283422569305681e+000	 5.585384570226760e+000
1	 1.408317793080948e+000	 3.298618944043411e+000	 5.478797644865267e+000
1	 1.767058833833616e+000	 3.151786670820736e+000	 5.295048227968961e+000
1	 1.732822808663616e+000	 3.170738335859523e+000	 5.420656837401833e+000
1	 1.698437175398548e+000	 3.189289560943490e+000	 5.519070498089446e+000
1	 1.663908787499634e+000	 3.207438927389378e+000	 5.590544072106837e+000
1	 1.629244505343696e+000	 3.225185169011458e+000	 5.635353182751886e+000
1	 1.594451192094152e+000	 3.242527171628312e+000	 5.653793071635139e+000
1	 1.559535709610643e+000	 3.259463972439442e+000	 5.646177447662175e+000
1	 1.524504914401911e+000	 3.275994759273966e+000	 5.612837330462849e+000
1	 1.489365653626425e+000	 3.292118869713935e+000	 5.554119890783177e+000
1	 1.454124761145104e+000	 3.307835790094913e+000	 5.470387290310836e+000
1	 1.418789053630321e+000	 3.323145154386643e+000	 5.362015523354363e+000
1	 1.780100471988717e+000	 3.175048183409870e+000	 5.190192172334872e+000
1	 1.745611770539141e+000	 3.194139719715779e+000	 5.314784213668349e+000
1	 1.710972356823719e+000	 3.212827860651388e+000	 5.411905506333254e+000
1	 1.676189134885112e+000	 3.231111177062963e+000	 5.481843602441797e+000
1	 1.641269015732624e+000	 3.248988393419792e+000	 5.524904965989395e+000
1	 1.606218913182716e+000	 3.266458387317334e+000	 5.541413786365748e+000
1	 1.571045739738455e+000	 3.283520188849218e+000	 5.531710787821446e+000
1	 1.535756402512514e+000	 3.300172979850403e+000	 5.496152037469877e+000
1	 1.500357799198286e+000	 3.316416093014017e+000	 5.435107754355188e+000
1	 1.464856814093469e+000	 3.332249010884568e+000	 5.348961122062325e+000
1	 1.429260314180360e+000	 3.347671364730342e+000	 5.238107107282664e+000
1	 1.793142110144684e+000	 3.198309695998757e+000	 5.079034943290410e+000
1	 1.758400732415532e+000	 3.217541103571808e+000	 5.202749563202147e+000
1	 1.723507538249754e+000	 3.236366160359109e+000	 5.298782692164420e+000
1	 1.688469482271451e+000	 3.254783426736442e+000	 5.367415499039455e+000
1	 1.653293526122406e+000	 3.272791617828106e+000	 5.408946639888113e+000
1	 1.617986634272130e+000	 3.290389603006430e+000	 5.423691091418774e+000
1	 1.582555769867112e+000	 3.307576405259167e+000	 5.411978982751885e+000
1	 1.547007890623957e+000	 3.324351200427108e+000	 5.374154428002885e+000
1	 1.511349944770983e+000	 3.340713316314455e+000	 5.310574362132970e+000
1	 1.475588867042669e+000	 3.356662231674654e+000	 5.221607382457101e+000
1	 1.439731574731233e+000	 3.372197575074528e+000	 5.107632598133571e+000
1	 1.335018969240017e+000	 3.126935471652506e+000	 6.045988399392326e+000
1	 1.301681772541034e+000	 3.140959295332738e+000	 5.878498202220825e+000
1	 1.268268104136253e+000	 3.154599236856098e+000	 5.644579350779039e+000
1	 1.234784312705468e+000	 3.167855363653740e+000	 5.338768150296298e+000
1	 1.201236716620890e+000	 3.180727876869459e+000	 4.955731077154482e+000
1	 1.167631600601917e+000	 3.193217109782673e+000	 4.490271748561203e+000
1	 1.133975212443531e+000	 3.205323526137257e+000	 3.937337558337242e+000
1	 1.100273759821121e+000	 3.217047718379722e+000	 3.292025971618724e+000
1	 1.066533407174408e+000	 3.228390405810319e+000	 2.549590472238371e+000
1	 1.032760272672935e+000	 3.239352432650741e+000	 1.705446157509037e+000
1	 9.989604252654352e-001	 3.249934766032135e+000	 7.551749760845050e-001
1	 1.345490229789387e+000	 3.151461681992926e+000	 5.996269585576853e+000
1	 1.311891551807665e+000	 3.165595501946556e+000	 5.836197077232980e+000
1	 1.278215802312036e+000	 3.179342428752352e+000	 5.612396886159764e+000
1	 1.244469379778353e+000	 3.192702530370364e+000	 5.319444452099328e+000
1	 1.210658652137173e+000	 3.205676009522064e+000	 4.952053631705415e+000
1	 1.176789953402282e+000	 3.218263202100959e+000	 4.505083516231230e+000
1	 1.142869580373430e+000	 3.230464575488313e+000	 3.973544902596660e+000
1	 1.108903789416096e+000	 3.242280726777507e+000	 3.352606411206087e+000
1	 1.074898793320969e+000	 3.253712380910649e+000	 2.637600244869697e+000
1	 1.040860758245642e+000	 3.264760388731104e+000	 1.824027584156146e+000
1	 1.006795800740831e+000	 3.275425724955747e+000	 9.075636154712039e-001
1	 1.355961490338257e+000	 3.175987892333698e+000	 5.934995476002493e+000
1	 1.322101331073807e+000	 3.190231708560741e+000	 5.780966945678377e+000
1	 1.288163500487353e+000	 3.204085620648993e+000	 5.565857433972338e+000
1	 1.254154446850814e+000	 3.217549697087409e+000	 5.284322197225839e+000
1	 1.220080587653086e+000	 3.230624142175128e+000	 4.931162035555301e+000
1	 1.185948306202339e+000	 3.243309294419742e+000	 4.501329908259118e+000
1	 1.151763948303092e+000	 3.255605624839903e+000	 3.989937192762063e+000
1	 1.117533819010909e+000	 3.267513735175860e+000	 3.392259581077653e+000
1	 1.083264179467451e+000	 3.279034356011568e+000	 2.703742608762656e+000
1	 1.048961243818355e+000	 3.290168344812070e+000	 1.920006812320587e+000
1	 1.014631176216317e+000	 3.300916683879955e+000	 1.036852511984216e+000
1	 1.366432750886794e+000	 3.200514102674838e+000	 5.862858143835281e+000
1	 1.332311110339624e+000	 3.214867915175308e+000	 5.713572068264711e+000
1	 1.298111198662370e+000	 3.228828812546042e+000	 5.505784035546409e+000
1	 1.263839513923010e+000	 3.242396863804885e+000	 5.234268929151074e+000
1	 1.229502523168778e+000	 3.255572274828654e+000	 4.893953204241849e+000
1	 1.195106659002230e+000	 3.268355386739017e+000	 4.479921251074407e+000
1	 1.160658316232648e+000	 3.280746674192009e+000	 3.987421394948659e+000
1	 1.126163848605685e+000	 3.292746743574747e+000	 3.411871527342900e+000
1	 1.091629565613964e+000	 3.304356331113032e+000	 2.748864363856432e+000
1	 1.057061729391169e+000	 3.315576300893580e+000	 1.994172325571423e+000
1	 1.022466551691976e+000	 3.326407642804696e+000	 1.143752041415173e+000
1	 1.376904011435165e+000	 3.225040313016363e+000	 5.780528609565664e+000
1	 1.342520889605282e+000	 3.239504121790274e+000	 5.634753457098953e+000
1	 1.308058896837248e+000	 3.253572004443512e+000	 5.432974695520518e+000
1	 1.273524580995097e+000	 3.267244030522805e+000	 5.170125800916077e+000
1	 1.238924458684401e+000	 3.280520407482642e+000	 4.841296769378532e+000
1	 1.204265011802098e+000	 3.293401479058773e+000	 4.441740179226584e+000
1	 1.169552684162233e+000	 3.305887723544611e+000	 3.966876885611412e+000
1	 1.134793878200544e+000	 3.317979751974136e+000	 3.412301342831924e+000
1	 1.099994951760619e+000	 3.329678306214997e+000	 2.773786550668642e+000
1	 1.065162214964182e+000	 3.340984256975578e+000	 2.047288622024132e+000
1	 1.030301927167889e+000	 3.351898601729900e+000	 1.228950970119306e+000
1	 1.387375271983537e+000	 3.249566523358289e+000	 5.688657635487279e+000
1	 1.352730668870948e+000	 3.264140328405665e+000	 5.545229753035081e+000
1	 1.318006595012151e+000	 3.278315196341421e+000	 5.348203326668240e+000
1	 1.283209648067233e+000	 3.292091197241182e+000	 5.092708571040948e+000
1	 1.248346394200107e+000	 3.305468540137102e+000	 4.774036108286024e+000
1	 1.213423364602087e+000	 3.318447571379005e+000	 4.387642680412128e+000
1	 1.178447052091981e+000	 3.331028772897690e+000	 3.929156492714605e+000
1	 1.143423907795610e+000	 3.343212760373997e+000	 3.394382184249444e+000
1	 1.108360337907524e+000	 3.355000281317418e+000	 2.779305422395820e+000
1	 1.073262700537491e+000	 3.366392213058008e+000	 2.080097119495695e+000
1	 1.038137302644139e+000	 3.377389560655498e+000	 1.293117270505214e+000
1	 1.397846532532076e+000	 3.274092733700632e+000	 5.587876484467031e+000
1	 1.362940448136786e+000	 3.288776535021494e+000	 5.445698063588838e+000
1	 1.327954293187240e+000	 3.303058388239788e+000	 5.252220652258391e+000
1	 1.292894715139578e+000	 3.316938363960028e+000	 5.002808554676053e+000
1	 1.257768329716046e+000	 3.330416672792032e+000	 4.692989327346232e+000
1	 1.222581717402338e+000	 3.343493663699706e+000	 4.318459093531705e+000
1	 1.187341420022024e+000	 3.356169822251225e+000	 3.875087490104865e+000
1	 1.152053937391005e+000	 3.368445768774295e+000	 3.358922243611783e+000
1	 1.116725724054791e+000	 3.380322256420249e+000	 2.766193373321929e+000
1	 1.081363186111191e+000	 3.391800169140812e+000	 2.093317019976678e+000
1	 1.045972678120807e+000	 3.402880519581427e+000	 1.336898899871692e+000
1	 1.408317793080948e+000	 3.298618944043411e+000	 5.478797644865267e+000
1	 1.373150227402962e+000	 3.313412741637784e+000	 5.336834763471384e+000
1	 1.337901991362677e+000	 3.327801580138630e+000	 5.145755068159181e+000
1	 1.302579782212286e+000	 3.341785530679351e+000	 4.901193532320584e+000
1	 1.267190265232369e+000	 3.355364805447437e+000	 4.598950201486813e+000
1	 1.231740070202997e+000	 3.368539756020867e+000	 4.234995062222184e+000
1	 1.196235787952496e+000	 3.381310871605198e+000	 3.805472547523432e+000
1	 1.160683966986851e+000	 3.393678777175001e+000	 3.306705676346146e+000
1	 1.125091110202530e+000	 3.405644231523448e+000	 2.735199825809062e+000
1	 1.089463671685380e+000	 3.417208125223935e+000	 2.087646135537681e+000
1	 1.053808053597977e+000	 3.428371478507618e+000	 1.360924544499235e+000
1	 1.418789053630321e+000	 3.323145154386643e+000	 5.362015523354363e+000
1	 1.383360006669641e+000	 3.338048948254552e+000	 5.219296259673500e+000
1	 1.347849689538625e+000	 3.352544772037962e+000	 5.029513466766337e+000
1	 1.312264849285517e+000	 3.366632697399167e+000	 4.788608618300705e+000
1	 1.276612200749228e+000	 3.380312938103318e+000	 4.492689072063297e+000
1	 1.240898423004204e+000	 3.393585848342482e+000	 4.138032446164118e+000
1	 1.205130155883532e+000	 3.406451920959592e+000	 3.721090638549689e+000
1	 1.169313996583270e+000	 3.418911785576081e+000	 3.238493488291666e+000
1	 1.133456496350850e+000	 3.430966206626969e+000	 2.687052078009732e+000
1	 1.097564157260153e+000	 3.442616081307317e+000	 2.063761677662495e+000
1	 1.061643429075730e+000	 3.453862437434002e+000	 1.365804330791300e+000
1	 1.429260314180360e+000	 3.347671364730342e+000	 5.238107107282664e+000
1	 1.393569785936990e+000	 3.362685154871817e+000	 5.093719722917989e+000
1	 1.357797387715248e+000	 3.377287963937803e+000	 4.904182024712912e+000
1	 1.321949916359428e+000	 3.391479864119481e+000	 4.665777091071083e+000
1	 1.286034136266774e+000	 3.405261070759681e+000	 4.374953705271694e+000
1	 1.250056775806104e+000	 3.418631940664543e+000	 4.028330192329495e+000
1	 1.214024523815262e+000	 3.431592970314385e+000	 3.622697908632904e+000
1	 1.177944026180386e+000	 3.444144793977504e+000	 3.155024383709207e+000
1	 1.141821882499862e+000	 3.456288181730766e+000	 2.622456114315469e+000
1	 1.105664642835609e+000	 3.468024037390906e+000	 2.022321011883688e+000
1	 1.069478804554146e+000	 3.479353396360511e+000	 1.352130505155099e+000
1	 1.439731574731233e+000	 3.372197575074528e+000	 5.107632598133571e+000
1	 1.403779565205173e+000	 3.387321361489601e+000	 4.960723787192688e+000
1	 1.367745085892707e+000	 3.402031155838170e+000	 4.770426956204610e+000
1	 1.331634983434178e+000	 3.416327030840312e+000	 4.533401187283499e+000
1	 1.295456071785157e+000	 3.430209203416529e+000	 4.246470113101540e+000
1	 1.259215128608840e+000	 3.443678032987045e+000	 3.906625168209976e+000
1	 1.222918891747823e+000	 3.456734019669561e+000	 3.511028505244728e+000
1	 1.186574055778320e+000	 3.469377802379238e+000	 3.057015576285673e+000
1	 1.150187268649676e+000	 3.481610156834798e+000	 2.542097380438700e+000
1	 1.113765128411843e+000	 3.493431993474643e+000	 1.963962379487173e+000
1	 1.077314180033310e+000	 3.504844355287081e+000	 1.320478084213588e+000
1	 9.989604252654352e-001	 3.249934766032135e+000	 7.551749760845050e-001
1	 9.651398813324286e-001	 3.260138493095665e+000	-3.027544088577409e-001
1	 9.313046005101890e-001	 3.269964816403907e+000	-1.467144029326127e+000
1	 8.974604845374918e-001	 3.279415054160485e+000	-2.738060055013213e+000
1	 8.636133751544897e-001	 3.288490638736054e+000	-4.115396836420223e+000
1	 8.297690515990591e-001	 3.297193114320970e+000	-5.598878703903678e+000
1	 7.959332281968499e-001	 3.305524134521356e+000	-7.188062000885788e+000
1	 7.621115520460927e-001	 3.313485459902493e+000	-8.882337342607377e+000
1	 7.283096007980531e-001	 3.321078955483442e+000	-1.068093209149040e+001
1	 6.945328805338571e-001	 3.328306588186819e+000	-1.258291303989892e+001
1	 6.607868237382243e-001	 3.335170424247628e+000	-1.458718929084494e+001
1	 1.006795800740831e+000	 3.275425724955747e+000	 9.075636154712039e-001
1	 9.727099843767157e-001	 3.285709485252757e+000	-1.128276371091941e-001
1	 9.386093155341527e-001	 3.295612881617041e+000	-1.235124877282787e+000
1	 9.044997422423738e-001	 3.305137242591581e+000	-2.458807537758693e+000
1	 8.703871520613904e-001	 3.314284011781864e+000	-3.783188858673007e+000
1	 8.362773695586973e-001	 3.323054745490132e+000	-5.207418552441865e+000
1	 8.021761538804225e-001	 3.331451110292612e+000	-6.730485674853299e+000
1	 7.680891964179751e-001	 3.339474880563621e+000	-8.351221692765709e+000
1	 7.340221185710891e-001	 3.347127935950536e+000	-1.006830373856521e+001
1	 6.999804696079962e-001	 3.354412258803585e+000	-1.188025804134928e+001
1	 6.659697246232671e-001	 3.361329931564333e+000	-1.378546352465367e+001
1	 1.014631176216317e+000	 3.300916683879955e+000	 1.036852511984216e+000
1	 9.802800874211786e-001	 3.311280477410428e+000	 5.370427983082914e-002
1	 9.459140305583736e-001	 3.321260946830719e+000	-1.026702890816162e+000
1	 9.115389999475941e-001	 3.330859431023176e+000	-2.203343023839131e+000
1	 8.771609289687057e-001	 3.340077384828113e+000	-3.475029402723178e+000
1	 8.427856875188232e-001	 3.348916376659676e+000	-4.840417978267662e+000
1	 8.084190795645522e-001	 3.357378086064188e+000	-6.298010957656429e+000
1	 7.740668407904775e-001	 3.365464301225003e+000	-7.846160564407054e+000
1	 7.397346363448019e-001	 3.373176916417826e+000	-9.483072958584796e+000
1	 7.054280586828629e-001	 3.380517929420490e+000	-1.120681230656477e+001
1	 6.711526255090805e-001	 3.387489438881134e+000	-1.301530498955561e+001
1	 1.022466551691976e+000	 3.326407642804696e+000	 1.143752041415173e+000
1	 9.878501904658823e-001	 3.336851469568601e+000	 1.974559174459666e-001
1	 9.532187455829029e-001	 3.346909012044858e+000	-8.413731794495646e-001
1	 9.185782576531852e-001	 3.356581619455178e+000	-1.971283336415869e+000
1	 8.839347058764531e-001	 3.365870757874714e+000	-3.190667183934269e+000
1	 8.492940054794380e-001	 3.374778007829509e+000	-4.497765925087655e+000
1	 8.146620052492227e-001	 3.383305061835990e+000	-5.890673524310346e+000
1	 7.800444851635688e-001	 3.391453721886552e+000	-7.367341044454713e+000
1	 7.454471541191473e-001	 3.399225896885227e+000	-8.925581120941464e+000
1	 7.108756477583998e-001	 3.406623600037462e+000	-1.056307256172810e+001
1	 6.763355263955969e-001	 3.413648946197964e+000	-1.227736506183156e+001
1	 1.030301927167889e+000	 3.351898601729900e+000	 1.228950970119306e+000
1	 9.954202935108945e-001	 3.362422461727201e+000	 3.190231560025533e-001
1	 9.605234606077903e-001	 3.372557077259375e+000	-6.786462113356757e-001
1	 9.256175153591821e-001	 3.382303807887502e+000	-1.762256954784374e+000
1	 8.907084827846497e-001	 3.391664130921577e+000	-2.929858561679384e+000
1	 8.558023234405420e-001	 3.400639638999539e+000	-4.179354714910250e+000
1	 8.209049309344191e-001	 3.409232037607926e+000	-5.508507964605911e+000
1	 7.860221295372192e-001	 3.417443142548177e+000	-6.914944528699335e+000
1	 7.511596718940810e-001	 3.425274877352658e+000	-8.396159210664633e+000
1	 7.163232368345507e-001	 3.432729270654426e+000	-9.949520422748508e+000
1	 6.815184272827486e-001	 3.439808453514760e+000	-1.157227530307552e+001
1	 1.038137302644139e+000	 3.377389560655498e+000	 1.293117270505214e+000
1	 1.002990396556281e+000	 3.387993453886149e+000	 4.189838860635652e-001
1	 9.678281756330861e-001	 3.398205142474185e+000	-5.380472336577729e-001
1	 9.326567730656176e-001	 3.408025996320059e+000	-1.575903574498668e+000
1	 8.974822596933115e-001	 3.417457503968606e+000	-2.692367250873837e+000
1	 8.623106414021357e-001	 3.426501270169676e+000	-3.885079920556457e+000
1	 8.271478566201258e-001	 3.435159013379910e+000	-5.151547824063860e+000
1	 7.919997739113981e-001	 3.443432563209798e+000	-6.489146936568928e+000
1	 7.568721896695579e-001	 3.451323857820037e+000	-7.895128220302589e+000
1	 7.217708259112582e-001	 3.458834941271304e+000	-9.366622965488297e+000
1	 6.867013281704680e-001	 3.465967960831457e+000	-1.090064820795489e+001
1	 1.045972678120807e+000	 3.402880519581427e+000	 1.336898899871692e+000
1	 1.010560499602108e+000	 3.413564446045371e+000	 4.978986822926351e-001
1	 9.751328906588406e-001	 3.423853207689207e+000	-4.191157190813646e-001
1	 9.396960307725256e-001	 3.433748184752760e+000	-1.411873687266798e+000
1	 9.042560366024565e-001	 3.443250877015715e+000	-2.477964046473718e+000
1	 8.688189593642189e-001	 3.452362901339825e+000	-3.614840243900767e+000
1	 8.333907823063274e-001	 3.461085989151849e+000	-4.819825643047604e+000
1	 7.979774182860748e-001	 3.469421983871322e+000	-6.090118916246041e+000
1	 7.625847074455351e-001	 3.477372838287284e+000	-7.422799524190642e+000
1	 7.272184149884663e-001	 3.484940611888026e+000	-8.814833270359900e+000
1	 6.918842290586873e-001	 3.492127468147986e+000	-1.026307791836172e+001
1	 1.053808053597977e+000	 3.428371478507618e+000	 1.360924544499235e+000
1	 1.018130602648443e+000	 3.439135438204790e+000	 5.563114471983012e-001
1	 9.824376056851037e-001	 3.449501272904357e+000	-3.214048369008398e-001
1	 9.467352884799394e-001	 3.459470373185520e+000	-1.269828179587590e+000
1	 9.110298135121008e-001	 3.469044250062812e+000	-2.286426560264664e+000
1	 8.753272773267932e-001	 3.478224532509899e+000	-3.368537399543942e+000
1	 8.396337079930086e-001	 3.487012964923652e+000	-4.513372994131563e+000
1	 8.039550626612187e-001	 3.495411404532665e+000	-5.718026040634016e+000
1	 7.682972252219670e-001	 3.503421818754314e+000	-6.979475236022457e+000
1	 7.326660040661166e-001	 3.511046282504512e+000	-8.294590942627567e+000
1	 6.970671299473389e-001	 3.518286975464283e+000	-9.660140905704404e+000
1	 1.061643429075730e+000	 3.453862437434002e+000	 1.365804330791300e+000
1	 1.025700705695351e+000	 3.464706430364328e+000	 5.947500263717772e-001
1	 9.897423207119259e-001	 3.475149338119550e+000	-2.444809476048485e-001
1	 9.537745461878929e-001	 3.485192561618248e+000	-1.149437949160958e+000
1	 9.178035904222616e-001	 3.494837623109806e+000	-2.117538969306524e+000
1	 8.818355952898580e-001	 3.504086163679801e+000	-3.146076003637062e+000
1	 8.458766336801538e-001	 3.512939940695230e+000	-4.232220517814655e+000
1	 8.099327070367999e-001	 3.521400825193738e+000	-5.373028994645575e+000
1	 7.740097429988093e-001	 3.529470799221044e+000	-6.565448550587363e+000
1	 7.381135931441535e-001	 3.537151953120691e+000	-7.806322609668763e+000
1	 7.022500308363554e-001	 3.544446482780284e+000	-9.092396622985811e+000
1	 1.069478804554146e+000	 3.479353396360511e+000	 1.352130505155099e+000
1	 1.033270808742900e+000	 3.490277422523913e+000	 6.137267966800585e-001
1	 9.970470357393574e-001	 3.500797403334707e+000	-1.879231196597215e-001
1	 9.608138038964192e-001	 3.510914750050856e+000	-1.050383538160141e+000
1	 9.245773673329560e-001	 3.520630996156605e+000	-1.971091775435919e+000
1	 8.883439132534143e-001	 3.529947794849443e+000	-2.947363467592589e+000
1	 8.521195593677479e-001	 3.538866916466493e+000	-3.976397956663851e+000
1	 8.159103514127873e-001	 3.547390245854455e+000	-5.055283754258494e+000
1	 7.797222607760179e-001	 3.555519779687395e+000	-6.181004070485263e+000
1	 7.435611822225196e-001	 3.563257623736487e+000	-7.350442396376825e+000
1	 7.074329317256694e-001	 3.570605990095922e+000	-8.560388128217248e+000
1	 1.077314180033310e+000	 3.504844355287081e+000	 1.320478084213588e+000
1	 1.040840911791156e+000	 3.515848414683465e+000	 6.137392287909681e-001
1	 1.004351750767449e+000	 3.526445468549742e+000	-1.513226673797687e-001
1	 9.678530616055532e-001	 3.536636938483259e+000	-9.723547825071215e-001
1	 9.313511442442004e-001	 3.546424369203119e+000	-1.846881575263525e+000
1	 8.948522312174626e-001	 3.555809426018735e+000	-2.772309896433868e+000
1	 8.583624850557751e-001	 3.564793892237349e+000	-3.745934187967648e+000
1	 8.218879957891512e-001	 3.573379666514729e+000	-4.764941757757471e+000
1	 7.854347785535484e-001	 3.581568760153285e+000	-5.826418118584583e+000
1	 7.490087713011586e-001	 3.589363294351826e+000	-6.927352379817998e+000
1	 7.126158326152123e-001	 3.596765497411133e+000	-8.064642680627649e+000
1	 6.607868237382243e-001	 3.335170424247628e+000	-1.458718929084494e+001
1	 6.270818393662591e-001	 3.341671678785408e+000	-1.672767552688436e+001
1	 5.934181341637264e-001	 3.347813666836248e+000	-1.904078598523769e+001
1	 5.598008987902472e-001	 3.353598738394850e+000	-2.152796213743888e+001
1	 5.262352434010413e-001	 3.359029331970649e+000	-2.419040994800745e+001
1	 4.927261961099982e-001	 3.364107971852334e+000	-2.702909885086928e+001
1	 4.592787015493515e-001	 3.368837265353978e+000	-3.004476113866377e+001
1	 4.258976195254683e-001	 3.373219900046345e+000	-3.323789175642753e+001
1	 3.925877237701084e-001	 3.377258640976893e+000	-3.660874849044600e+001
1	 3.593537007863771e-001	 3.380956327881860e+000	-4.015735254241186e+001
1	 3.262001487885013e-001	 3.384315872393811e+000	-4.388348947842140e+001
1	 6.659697246232671e-001	 3.361329931564333e+000	-1.378546352465367e+001
1	 6.320003742149505e-001	 3.367882178883140e+000	-1.581692760860161e+001
1	 5.980726267504355e-001	 3.374072341797701e+000	-1.800926470672445e+001
1	 5.641917136024434e-001	 3.379902788734986e+000	-2.036210805582944e+001
1	 5.303627850078557e-001	 3.385375977330978e+000	-2.287486547426527e+001
1	 4.965909085187302e-001	 3.390494451673717e+000	-2.554672105987081e+001
1	 4.628810675506775e-001	 3.395260839527842e+000	-2.837663721490938e+001
1	 4.292381600281079e-001	 3.399677849544182e+000	-3.136335698675995e+001
1	 3.956669971256946e-001	 3.403748268457943e+000	-3.450540671272224e+001
1	 3.621723021052770e-001	 3.407474958278943e+000	-3.780109895692277e+001
1	 3.287587092473185e-001	 3.410860853477239e+000	-4.124853572697681e+001
1	 6.711526255090805e-001	 3.387489438881134e+000	-1.301530498955561e+001
1	 6.369189090644476e-001	 3.394092678980937e+000	-1.494052405412108e+001
1	 6.027271193379755e-001	 3.400331016759193e+000	-1.701519277363987e+001
1	 5.685825284154836e-001	 3.406206839075148e+000	-1.923726543651318e+001
1	 5.344903266155143e-001	 3.411722622691323e+000	-2.160448067260539e+001
1	 5.004556209282910e-001	 3.416880931495114e+000	-2.411436569574962e+001
1	 4.664834335528003e-001	 3.421684413701723e+000	-2.676424079224549e+001
1	 4.325787005314929e-001	 3.426135799042036e+000	-2.955122404159107e+001
1	 3.987462704819556e-001	 3.430237895939014e+000	-3.247223625554418e+001
1	 3.649909034247584e-001	 3.433993588676045e+000	-3.552400612150090e+001
1	 3.313172697066006e-001	 3.437405834560681e+000	-3.870307553611054e+001
1	 6.763355263955969e-001	 3.413648946197964e+000	-1.227736506183156e+001
1	 6.418374439146737e-001	 3.420303179078740e+000	-1.409928563626037e+001
1	 6.073816119262631e-001	 3.426589691720682e+000	-1.605958974298769e+001
1	 5.729733432292812e-001	 3.432510889415307e+000	-1.815467895666018e+001
1	 5.386178682239284e-001	 3.438069268051671e+000	-2.038074863234591e+001
1	 5.043203333385939e-001	 3.443267411316521e+000	-2.273379451825554e+001
1	 4.700857995556381e-001	 3.448107987875623e+000	-2.520961953830030e+001
1	 4.359192410355516e-001	 3.452593748539921e+000	-2.780384072838626e+001
1	 4.018255438388309e-001	 3.456727523420122e+000	-3.051189631044733e+001
1	 3.678095047447776e-001	 3.460512219073185e+000	-3.332905288835869e+001
1	 3.338758301663242e-001	 3.463950815644158e+000	-3.625041275005098e+001
1	 6.815184272827486e-001	 3.439808453514760e+000	-1.157227530307552e+001
1	 6.467559787655529e-001	 3.446513679176500e+000	-1.329400816015452e+001
1	 6.120361045152155e-001	 3.452848366682128e+000	-1.514344415712891e+001
1	 5.773641580437486e-001	 3.458814939755431e+000	-1.711555543070438e+001
1	 5.427454098330107e-001	 3.464415913412002e+000	-1.920511702343964e+001
1	 5.081850457495537e-001	 3.469653891137935e+000	-2.140671569489230e+001
1	 4.736881655591105e-001	 3.474531562049550e+000	-2.371475883121649e+001
1	 4.392597815402107e-001	 3.479051698037851e+000	-2.612348343495361e+001
1	 4.049048171962606e-001	 3.483217150901287e+000	-2.862696517709147e+001
1	 3.706281060652907e-001	 3.487030849470385e+000	-3.121912749384227e+001
1	 3.364343906264664e-001	 3.490495796727684e+000	-3.389375071099059e+001
1	 6.867013281704680e-001	 3.465967960831457e+000	-1.090064820795489e+001
1	 6.516745136170079e-001	 3.472724179274157e+000	-1.252546340547807e+001
1	 6.166905971047496e-001	 3.479107041643489e+000	-1.426771471420207e+001
1	 5.817549728588000e-001	 3.485118990095495e+000	-1.612106523919477e+001
1	 5.468729514426727e-001	 3.490762558772302e+000	-1.807898981049464e+001
1	 5.120497581610830e-001	 3.496040370959349e+000	-2.013478582336346e+001
1	 4.772905315631359e-001	 3.500955136223510e+000	-2.228158411031115e+001
1	 4.426003220453980e-001	 3.505509647535838e+000	-2.451235982465506e+001
1	 4.079840905541844e-001	 3.509706778382526e+000	-2.681994331593140e+001
1	 3.734467073862539e-001	 3.513549479867663e+000	-2.919703097806224e+001
1	 3.389929510870035e-001	 3.517040777811276e+000	-3.163619605179863e+001
1	 6.918842290586873e-001	 3.492127468147986e+000	-1.026307791836172e+001
1	 6.565930484689633e-001	 3.498934679371662e+000	-1.179440002631819e+001
1	 6.213450896947828e-001	 3.505365716604721e+000	-1.343333138593782e+001
1	 5.861457876743472e-001	 3.511423040435469e+000	-1.517234369342573e+001
1	 5.510004930528263e-001	 3.517109204132556e+000	-1.700372888975691e+001
1	 5.159144705730965e-001	 3.522426850780760e+000	-1.891961186311828e+001
1	 4.808928975676334e-001	 3.527378710397507e+000	-2.091196312108237e+001
1	 4.459408625510410e-001	 3.531967597033896e+000	-2.297261141047835e+001
1	 4.110633639125423e-001	 3.536196405863857e+000	-2.509325626368126e+001
1	 3.762653087076235e-001	 3.540068110265040e+000	-2.726548045082614e+001
1	 3.415515115479128e-001	 3.543585758894952e+000	-2.948076231826519e+001
1	 6.970671299473389e-001	 3.518286975464283e+000	-9.660140905704404e+000
1	 6.615115833213421e-001	 3.525145179468955e+000	-1.110154441090255e+001
1	 6.259995822852320e-001	 3.531624391565782e+000	-1.264119648560581e+001
1	 5.905366024903045e-001	 3.537727090775320e+000	-1.427049233918848e+001
1	 5.551280346633835e-001	 3.543455849492744e+000	-1.598065565306411e+001
1	 5.197791829855072e-001	 3.548813330602162e+000	-1.776275298072697e+001
1	 4.844952635725218e-001	 3.553802284571547e+000	-1.960770806006265e+001
1	 4.492814030570671e-001	 3.558425546532040e+000	-2.150631601427521e+001
1	 4.141426372712742e-001	 3.562686033345300e+000	-2.344925741871623e+001
1	 3.790839100293557e-001	 3.566586740662535e+000	-2.542711221187143e+001
1	 3.441100720091707e-001	 3.570130739978726e+000	-2.743037342975165e+001
1	 7.022500308363554e-001	 3.544446482780284e+000	-9.092396622985811e+000
1	 6.664301181740677e-001	 3.551355679565987e+000	-1.044760150325661e+001
1	 6.306540748760146e-001	 3.557883066526630e+000	-1.189218568867018e+001
1	 5.949274173065843e-001	 3.564031141115022e+000	-1.341658020278927e+001
1	 5.592555762742563e-001	 3.569802494852851e+000	-1.501105248254338e+001
1	 5.236438953982293e-001	 3.575199810423551e+000	-1.666572231353862e+001
1	 4.880976295777198e-001	 3.580225858745636e+000	-1.837057762469257e+001
1	 4.526219435634039e-001	 3.584883496030281e+000	-2.011549011709832e+001
1	 4.172219106303195e-001	 3.589175660826871e+000	-2.189023070312852e+001
1	 3.819025113514069e-001	 3.593105371060167e+000	-2.368448473292742e+001
1	 3.466686324707544e-001	 3.596675721062616e+000	-2.548786698659428e+001
1	 7.074329317256694e-001	 3.570605990095922e+000	-8.560388128217248e+000
1	 6.713486530270640e-001	 3.577566179662699e+000	-9.833255588742368e+000
1	 6.353085674670472e-001	 3.584141741487224e+000	-1.118714900857893e+001
1	 5.993182321231001e-001	 3.590335191454545e+000	-1.261164498229494e+001
1	 5.633831178853562e-001	 3.596149140212859e+000	-1.409616417960531e+001
1	 5.275086078111761e-001	 3.601586290244922e+000	-1.562998865581210e+001
1	 4.916999955831463e-001	 3.606649432919779e+000	-1.720227897308581e+001
1	 4.559624840699785e-001	 3.611341445528634e+000	-1.880209110622156e+001
1	 4.203011839896186e-001	 3.615665288308593e+000	-2.041839310776505e+001
1	 3.847211126737328e-001	 3.619624001457956e+000	-2.204008150869068e+001
1	 3.492271929326406e-001	 3.623220702146639e+000	-2.365599743212079e+001
1	 7.126158326152123e-001	 3.596765497411133e+000	-8.064642680627651e+000
1	 6.762671878802550e-001	 3.603776679759038e+000	-9.259171045317117e+000
1	 6.399630600582476e-001	 3.610400416447522e+000	-1.052691172997149e+001
1	 6.037090469397647e-001	 3.616639241793862e+000	-1.185669418679458e+001
1	 5.675106594965956e-001	 3.622495785572754e+000	-1.323719933157868e+001
1	 5.313733202242620e-001	 3.627972770066271e+000	-1.465697807126654e+001
1	 4.953023615887203e-001	 3.633073007093981e+000	-1.610446959827343e+001
1	 4.593030245767192e-001	 3.637799395027112e+000	-1.756801942410456e+001
1	 4.233804573491112e-001	 3.642154915790479e+000	-1.903589712620341e+001
1	 3.875397139962902e-001	 3.646142631855923e+000	-2.049631378338923e+001
1	 3.517857533948060e-001	 3.649765683230813e+000	-2.193743907668176e+001
1	 3.262001487885013e-001	 3.384315872393811e+000	-4.388348947842140e+001
1	 2.931266340559612e-001	 3.387340684071736e+000	-4.780105363397146e+001
1	 2.601426139203095e-001	 3.390033282652841e+000	-5.192823438984771e+001
1	 2.272524846770250e-001	 3.392396780883214e+000	-5.627261019797153e+001
1	 1.944605489001440e-001	 3.394434352328458e+000	-6.084149747804838e+001
1	 1.617710148445833e-001	 3.396149228576582e+000	-6.564194120789847e+001
1	 1.291879959367674e-001	 3.397544696455680e+000	-7.068070621320399e+001
1	 9.671551035186207e-002	 3.398624095269112e+000	-7.596426915195279e+001
1	 6.435748067584694e-002	 3.399390814050797e+000	-8.149881118747766e+001
1	 3.211773365058886e-002	 3.399848288843145e+000	-8.729021134267239e+001
1	 0.000000000000000e+000	 3.400000000000000e+000	-9.334404052672412e+001
1	 3.287587092473185e-001	 3.410860853477239e+000	-4.124853572697681e+001
1	 2.954257814294042e-001	 3.413909390354809e+000	-4.486109992146614e+001
1	 2.621830501619328e-001	 3.416623108412469e+000	-4.865654248152789e+001
1	 2.290349462228407e-001	 3.419005144811186e+000	-5.264078072792960e+001
1	 1.959858059335152e-001	 3.421058698008491e+000	-5.681950377766982e+001
1	 1.630398705564288e-001	 3.422787024939412e+000	-6.119816485402878e+001
1	 1.302012857817726e-001	 3.424193438212349e+000	-6.578197419667704e+001
1	 9.747410130137282e-002	 3.425281303322549e+000	-7.057589256720374e+001
1	 6.486227046811306e-002	 3.426054035885894e+000	-7.558462534425382e+001
1	 3.236965003900847e-002	 3.426515098895460e+000	-8.081261720135035e+001
1	 0.000000000000000e+000	 3.426668000003317e+000	-8.626404735942793e+001
1	 3.313172697066006e-001	 3.437405834560681e+000	-3.870307553611054e+001
1	 2.977249288031724e-001	 3.440478096637889e+000	-4.202241530033894e+001
1	 2.642234864037295e-001	 3.443212934172093e+000	-4.549936960249896e+001
1	 2.308174077686785e-001	 3.445613508739142e+000	-4.913821850150011e+001
1	 1.975110629667696e-001	 3.447683043688490e+000	-5.294304505742721e+001
1	 1.643087262680443e-001	 3.449424821302194e+000	-5.691772941339684e+001
1	 1.312145756264719e-001	 3.450842179968952e+000	-6.106594338013469e+001
1	 9.823269225055085e-002	 3.451938511375909e+000	-6.539114551855593e+001
1	 6.536706026008096e-002	 3.452717257720900e+000	-6.989657671467533e+001
1	 3.262156642723695e-002	 3.453181908947675e+000	-7.458525624025852e+001
1	 0.000000000000000e+000	 3.453336000006534e+000	-7.945997829178111e+001
1	 3.338758301663242e-001	 3.463950815644158e+000	-3.625041275005098e+001
1	 3.000240761772671e-001	 3.467046802920987e+000	-3.928860714861014e+001
1	 2.662639226457273e-001	 3.469802759931710e+000	-4.246057989687854e+001
1	 2.325998693145914e-001	 3.472221872667065e+000	-4.576899712877753e+001
1	 1.990363199999830e-001	 3.474307389368425e+000	-4.921635659739778e+001
1	 1.655775819795217e-001	 3.476062617664879e+000	-5.280498358041148e+001
1	 1.322278654709650e-001	 3.477490921725426e+000	-5.653702719285421e+001
1	 9.899128319949337e-002	 3.478595719429112e+000	-6.041445710232438e+001
1	 6.587185005183170e-002	 3.479380479555727e+000	-6.443906064090399e+001
1	 3.287348281532380e-002	 3.479848718999696e+000	-6.861244030740402e+001
1	 0.000000000000000e+000	 3.480004000009550e+000	-7.293601165288015e+001
1	 3.364343906264664e-001	 3.490495796727684e+000	-3.389375071099059e+001
1	 3.023232235516898e-001	 3.493615509204113e+000	-3.666317310884833e+001
1	 2.683043588879538e-001	 3.496392585691321e+000	-3.954391996257718e+001
1	 2.343823308606329e-001	 3.498830236594936e+000	-4.253706630175056e+001
1	 2.005615770332309e-001	 3.500931735048263e+000	-4.564354484159553e+001
1	 1.668464376909529e-001	 3.502700414027417e+000	-4.886414376338492e+001
1	 1.332411553153519e-001	 3.504139663481708e+000	-5.219950480880039e+001
1	 9.974987414829747e-002	 3.505252927482079e+000	-5.565012168292599e+001
1	 6.637663984344647e-002	 3.506043701390285e+000	-5.921633876000021e+001
1	 3.312539920331854e-002	 3.506515529051426e+000	-6.289835008556819e+001
1	 0.000000000000000e+000	 3.506672000012267e+000	-6.669619866821429e+001
1	 3.389929510870035e-001	 3.517040777811276e+000	-3.163619605179864e+001
1	 3.046223709264421e-001	 3.520184215487275e+000	-3.414950522933020e+001
1	 2.703447951304372e-001	 3.522982411450922e+000	-3.675302328721761e+001
1	 2.361647924068563e-001	 3.525438600522739e+000	-3.944625647068179e+001
1	 2.020868340665886e-001	 3.527556080727968e+000	-4.222859225994350e+001
1	 1.681152934024299e-001	 3.529338210389759e+000	-4.509929907670196e+001
1	 1.342544451597327e-001	 3.530788405237732e+000	-4.805752621310832e+001
1	 1.005084650970603e-001	 3.531910135534731e+000	-5.110230397734888e+001
1	 6.688142963500628e-002	 3.532706923224483e+000	-5.423254404964232e+001
1	 3.337731559127066e-002	 3.533182339102766e+000	-5.744704004217698e+001
1	 0.000000000000000e+000	 3.533340000014583e+000	-6.074446825625821e+001
1	 3.415515115479128e-001	 3.543585758894952e+000	-2.948076231826519e+001
1	 3.069215183015248e-001	 3.546752921770478e+000	-3.175089391907127e+001
1	 2.723852313732049e-001	 3.549572237210507e+000	-3.409141448467700e+001
1	 2.379472539533150e-001	 3.552046964450459e+000	-3.650028331030342e+001
1	 2.036120911001321e-001	 3.554180426407512e+000	-3.897536199172009e+001
1	 1.693841491140445e-001	 3.555976006751856e+000	-4.151441610861077e+001
1	 1.352677350042071e-001	 3.557437146993431e+000	-4.411511704084747e+001
1	 1.012670560458789e-001	 3.558567343586992e+000	-4.677504391109302e+001
1	 6.738621942659229e-002	 3.559370145058233e+000	-4.949168564706086e+001
1	 3.362923197922968e-002	 3.559849149153620e+000	-5.226244315669403e+001
1	 0.000000000000000e+000	 3.560008000016400e+000	-5.508463160947945e+001
1	 3.441100720091707e-001	 3.570130739978726e+000	-2.743037342975166e+001
1	 3.092206656769397e-001	 3.573321628053737e+000	-2.947053172641617e+001
1	 2.744256676162848e-001	 3.576162062970079e+000	-3.156251334263028e+001
1	 2.397297155000622e-001	 3.578655328378078e+000	-3.370275198676780e+001
1	 2.051373481339368e-001	 3.580804772086859e+000	-3.588760228185298e+001
1	 1.706530048258889e-001	 3.582613803113661e+000	-3.811334347631391e+001
1	 1.362810248488753e-001	 3.584085888748745e+000	-4.037618319992077e+001
1	 1.020256469948505e-001	 3.585224551638780e+000	-4.267226125748028e+001
1	 6.789100921828561e-002	 3.586033366891444e+000	-4.499765345299166e+001
1	 3.388114836724510e-002	 3.586515959203891e+000	-4.734837543711670e+001
1	 0.000000000000000e+000	 3.586676000017616e+000	-4.972038657097715e+001
1	 3.466686324707544e-001	 3.596675721062616e+000	-2.548786698659428e+001
1	 3.115198130526881e-001	 3.599890334337058e+000	-2.731151695030335e+001
1	 2.764661038597044e-001	 3.602751888729631e+000	-2.916963869085722e+001
1	 2.415121770471513e-001	 3.605263692305578e+000	-3.105716123564693e+001
1	 2.066626051680781e-001	 3.607429117765978e+000	-3.296895072076296e+001
1	 1.719218605380546e-001	 3.609251599475123e+000	-3.489981617934922e+001
1	 1.372943146938369e-001	 3.610734630503605e+000	-3.684451528924981e+001
1	 1.027842379440721e-001	 3.611881759690019e+000	-3.879776007152280e+001
1	 6.839579901016735e-002	 3.612696588724027e+000	-4.075422253175440e+001
1	 3.413306475536642e-002	 3.613182769253480e+000	-4.270854023647004e+001
1	 0.000000000000000e+000	 3.613344000018133e+000	-4.465532181731291e+001
1	 3.492271929326406e-001	 3.623220702146639e+000	-2.365599743212080e+001
1	 3.138189604287714e-001	 3.626459040620449e+000	-2.527685709278540e+001
1	 2.785065401034917e-001	 3.629341714489162e+000	-2.691601209950701e+001
1	 2.432946385946357e-001	 3.631872056232944e+000	-2.856690726067086e+001
1	 2.081878622026318e-001	 3.634053463444835e+000	-3.022293829783225e+001
1	 1.731907162506340e-001	 3.635889395836193e+000	-3.187745976160350e+001
1	 1.383076045391921e-001	 3.637383372257951e+000	-3.352379282274467e+001
1	 1.035428288936410e-001	 3.638538967740631e+000	-3.515523292888818e+001
1	 6.890058880231857e-002	 3.639359810555891e+000	-3.676505731791157e+001
1	 3.438498114364316e-002	 3.639849579302291e+000	-3.834653237955560e+001
1	 0.000000000000000e+000	 3.640012000017849e+000	-3.989292085747182e+001
1	 3.517857533948060e-001	 3.649765683230813e+000	-2.193743907668176e+001
1	 3.161181078051911e-001	 3.653027746903922e+000	-2.336947216088706e+001
1	 2.805469763476744e-001	 3.655931540248671e+000	-2.480476141597599e+001
1	 2.450771001425687e-001	 3.658480420160160e+000	-2.623528746233113e+001
1	 2.097131192376733e-001	 3.660677809123401e+000	-2.765299327798586e+001
1	 1.744595719637188e-001	 3.662527192196826e+000	-2.904979429170325e+001
1	 1.393208943850408e-001	 3.664032114011716e+000	-3.041758826894690e+001
1	 1.043014198436543e-001	 3.665196175790536e+000	-3.174826497988195e+001
1	 6.940537859482046e-002	 3.666023032386947e+000	-3.303371563935598e+001
1	 3.463689753212482e-002	 3.666516389350228e+000	-3.426584210961573e+001
1	 0.000000000000000e+000	 3.666680000016666e+000	-3.543656585731524e+001
1	 3.666680000016666e+000	 0.000000000000000e+000	 3.899095041191134e+001
1	 3.666516389350228e+000	 3.463689753212492e-002	 3.661199494024772e+001
1	 3.666023032386948e+000	 6.940537859482068e-002	 3.426943675063031e+001
1	 3.665196175790535e+000	 1.043014198436540e-001	 3.196975756480465e+001
1	 3.664032114011715e+000	 1.393208943850406e-001	 2.971931464720991e+001
1	 3.662527192196825e+000	 1.744595719637187e-001	 2.752433043346687e+001
1	 3.660677809123401e+000	 2.097131192376734e-001	 2.539088207871010e+001
1	 3.658480420160158e+000	 2.450771001425689e-001	 2.332489094174209e+001
1	 3.655931540248671e+000	 2.805469763476741e-001	 2.133211202168560e+001
1	 3.653027746903921e+000	 3.161181078051908e-001	 1.941812336449442e+001
1	 3.649765683230813e+000	 3.517857533948059e-001	 1.758831545734689e+001
1	 3.693344000014533e+000	 0.000000000000000e+000	 3.600697797802783e+001
1	 3.693179199575722e+000	 3.488877613527524e-002	 3.383978915337092e+001
1	 3.692682254933839e+000	 6.991009267304311e-002	 3.169924273258085e+001
1	 3.691849385458404e+000	 1.050598970112210e-001	 2.959217878670541e+001
1	 3.690676858653458e+000	 1.403340322455685e-001	 2.752530310818740e+001
1	 3.689160993087310e+000	 1.757282373585245e-001	 2.550517593091848e+001
1	 3.687298161349475e+000	 2.112381474961306e-001	 2.353820056049400e+001
1	 3.685084793032175e+000	 2.468592943351136e-001	 2.163061193207473e+001
1	 3.682517377733704e+000	 2.825871065421269e-001	 1.978846511403296e+001
1	 3.679592468080790e+000	 3.184169103270726e-001	 1.801762377631396e+001
1	 3.676306682767058e+000	 3.543439300923416e-001	 1.632374864317665e+001
1	 3.720008000011599e+000	 0.000000000000000e+000	 3.311088065700649e+001
1	 3.719842009800440e+000	 3.514065473862902e-002	 3.114938316953825e+001
1	 3.719341477480015e+000	 7.041480675161087e-002	 2.920540194457904e+001
1	 3.718502595125647e+000	 1.058183741792211e-001	 2.728605582088839e+001
1	 3.717321603294685e+000	 1.413471701065709e-001	 2.539832136669522e+001
1	 3.715794793977405e+000	 1.769969027538079e-001	 2.354902085036794e+001
1	 3.713918513575290e+000	 2.127631757550383e-001	 2.174481011308946e+001
1	 3.711689165904060e+000	 2.486414885280598e-001	 1.999216636212494e+001
1	 3.709103215218715e+000	 2.846272367369182e-001	 1.829737590409915e+001
1	 3.706157189257729e+000	 3.207157128492246e-001	 1.666652183851477e+001
1	 3.702847682303435e+000	 3.569021067900821e-001	 1.510547173253184e+001
1	 3.746672000008066e+000	 0.000000000000000e+000	 3.031304325810940e+001
1	 3.746504820024573e+000	 3.539253334213540e-002	 2.854996947603566e+001
1	 3.746000700025651e+000	 7.091952083043755e-002	 2.679597873901508e+001
1	 3.745155804792418e+000	 1.065768513475459e-001	 2.505839068228330e+001
1	 3.743966347935525e+000	 1.423603079679293e-001	 2.334437647956801e+001
1	 3.742428594867207e+000	 1.782655681494496e-001	 2.166094622142292e+001
1	 3.740538865800909e+000	 2.142882040142841e-001	 2.001493618880220e+001
1	 3.738293538775842e+000	 2.504236827213071e-001	 1.841299604139696e+001
1	 3.735689052703710e+000	 2.866673669319632e-001	 1.686157594113481e+001
1	 3.732721910434723e+000	 3.230145153715789e-001	 1.536691363210395e+001
1	 3.729388681839912e+000	 3.594602834879762e-001	 1.393502149900028e+001
1	 3.773336000004134e+000	 0.000000000000000e+000	 2.762355705663006e+001
1	 3.773167630248318e+000	 3.564441194574353e-002	 2.605048072800754e+001
1	 3.772659922570928e+000	 7.142423490943686e-002	 2.447880952367023e+001
1	 3.771809014458874e+000	 1.073353285160872e-001	 2.291598746893159e+001
1	 3.770611092576107e+000	 1.433734458295249e-001	 2.136930570994626e+001
1	 3.769062395756812e+000	 1.795342335453302e-001	 1.984588945481095e+001
1	 3.767159218026396e+000	 2.158132322737551e-001	 1.835268480455417e+001
1	 3.764897911647557e+000	 2.522058769147550e-001	 1.689644549422771e+001
1	 3.762274890188694e+000	 2.887074971271775e-001	 1.548371956522967e+001
1	 3.759286631611750e+000	 3.253133178940683e-001	 1.412083599088511e+001
1	 3.755929681376454e+000	 3.620184601859726e-001	 1.281389127818399e+001
1	 3.800000000000001e+000	 0.000000000000000e+000	 2.505223009230137e+001
1	 3.799830440471870e+000	 3.589629054940256e-002	 2.365959886446261e+001
1	 3.799319145116026e+000	 7.192894898852251e-002	 2.226151075897366e+001
1	 3.798462224125175e+000	 1.080938056847368e-001	 2.086545930574421e+001
1	 3.797255837216560e+000	 1.443865836912391e-001	 1.947878248435430e+001
1	 3.795696196646321e+000	 1.808028989413303e-001	 1.810864938113459e+001
1	 3.793779570251820e+000	 2.173382605333389e-001	 1.676204673217993e+001
1	 3.791502284519238e+000	 2.539880711083034e-001	 1.544576537296037e+001
1	 3.788860727673674e+000	 2.907476273224763e-001	 1.416638661613552e+001
1	 3.785851352788797e+000	 3.276121204166252e-001	 1.293026858010004e+001
1	 3.782470680913030e+000	 3.645766368840203e-001	 1.174353249168676e+001
1	 3.826663999995868e+000	 0.000000000000000e+000	 2.260859703715111e+001
1	 3.826493250695418e+000	 3.614816915306155e-002	 2.138576384316054e+001
1	 3.825978367661124e+000	 7.243366306760815e-002	 2.015148662091254e+001
1	 3.825115433791474e+000	 1.088522828533864e-001	 1.891323499795724e+001
1	 3.823900581857011e+000	 1.453997215529534e-001	 1.767832210072666e+001
1	 3.822329997535829e+000	 1.820715643373304e-001	 1.645389107896812e+001
1	 3.820399922477241e+000	 2.188632887929226e-001	 1.524690151353648e+001
1	 3.818106657390919e+000	 2.557702653018517e-001	 1.406411572842096e+001
1	 3.815446565158653e+000	 2.927877575177752e-001	 1.291208502883904e+001
1	 3.812416073965843e+000	 3.299109229391820e-001	 1.179713588816682e+001
1	 3.809011680449607e+000	 3.671348135820680e-001	 1.072535610738713e+001
1	 3.853327999991935e+000	 0.000000000000000e+000	 2.030192865366013e+001
1	 3.853156060919162e+000	 3.640004775666967e-002	 1.923718201284052e+001
1	 3.852637590206400e+000	 7.293837714660749e-002	 1.815593634579033e+001
1	 3.851768643457932e+000	 1.096107600219277e-001	 1.706556540834665e+001
1	 3.850545326497594e+000	 1.464128594145490e-001	 1.597328719944614e+001
1	 3.848963798425434e+000	 1.833402297332110e-001	 1.488615050249917e+001
1	 3.847020274702730e+000	 2.203883170523936e-001	 1.381102130891221e+001
1	 3.844711030262634e+000	 2.575524594952997e-001	 1.275456914461019e+001
1	 3.842032402643639e+000	 2.948278877129895e-001	 1.172325332137106e+001
1	 3.838980795142871e+000	 3.322097254616714e-001	 1.072330913572461e+001
1	 3.835552679986150e+000	 3.696929902800644e-001	 9.760734039083472e+000
1	 3.879991999988402e+000	 0.000000000000000e+000	 1.814124086293211e+001
1	 3.879818871143298e+000	 3.665192636017606e-002	 1.722183414023709e+001
1	 3.879296812752037e+000	 7.344309122543419e-002	 1.628186127213850e+001
1	 3.878421853124702e+000	 1.103692371902526e-001	 1.532852957149084e+001
1	 3.877190071138434e+000	 1.474259972759073e-001	 1.436889300879426e+001
1	 3.875597599315237e+000	 1.846088951288528e-001	 1.340983891835856e+001
1	 3.873640626928349e+000	 2.219133453116393e-001	 1.245807458675381e+001
1	 3.871315403134415e+000	 2.593346536885469e-001	 1.152011374414190e+001
1	 3.868618240128634e+000	 2.968680179080345e-001	 1.060226298003526e+001
1	 3.865545516319864e+000	 3.345085279840258e-001	 9.710608105962129e+000
1	 3.862093679522626e+000	 3.722511669779585e-001	 8.851000488426960e+000
1	 3.906655999985469e+000	 0.000000000000000e+000	 1.613530344150688e+001
1	 3.906481681368015e+000	 3.690380496352986e-002	 1.534748310837685e+001
1	 3.905956035298213e+000	 7.394780530400193e-002	 1.453607159425019e+001
1	 3.905075062791944e+000	 1.111277143582526e-001	 1.370804055764419e+001
1	 3.903834815779661e+000	 1.484391351369098e-001	 1.287021237559194e+001
1	 3.902231400205331e+000	 1.858775605241362e-001	 1.202924716075454e+001
1	 3.900260979154164e+000	 2.234383735705472e-001	 1.119162966229308e+001
1	 3.897919776006298e+000	 2.611168478814930e-001	 1.036365607060430e+001
1	 3.895204077613645e+000	 2.989081481028258e-001	 9.551420746958238e+000
1	 3.892110237496803e+000	 3.368073305061777e-001	 8.760802899991500e+000
1	 3.888634679059003e+000	 3.748093436756990e-001	 7.997453231900547e+000
1	 3.933319999983334e+000	 0.000000000000000e+000	 1.429264836443981e+001
1	 3.933144491593509e+000	 3.715568356668014e-002	 1.362168130175445e+001
1	 3.932615257845103e+000	 7.445251938222434e-002	 1.292519284102073e+001
1	 3.931728272459812e+000	 1.118861915258195e-001	 1.220985109810341e+001
1	 3.930479560421403e+000	 1.494522729974376e-001	 1.148218059122365e+001
1	 3.928865201095816e+000	 1.871462259189419e-001	 1.074854971353370e+001
1	 3.926881331380236e+000	 2.249634018290042e-001	 1.001515809224338e+001
1	 3.924524148878316e+000	 2.628990420740378e-001	 9.288023853683503e+000
1	 3.921789915098675e+000	 3.009482782972785e-001	 8.572970814595545e+000
1	 3.918674958673671e+000	 3.391061330280594e-001	 7.875615620823901e+000
1	 3.915175678595246e+000	 3.773675203732345e-001	 7.201354855451061e+000
1	 3.649765683230813e+000	 3.517857533948059e-001	 1.758831545734689e+001
1	 3.646142631855923e+000	 3.875397139962905e-001	 1.581916040670668e+001
1	 3.642154915790480e+000	 4.233804573491110e-001	 1.408698476484645e+001
1	 3.637799395027112e+000	 4.593030245767192e-001	 1.239746917986067e+001
1	 3.633073007093982e+000	 4.953023615887200e-001	 1.075608742198230e+001
1	 3.627972770066271e+000	 5.313733202242620e-001	 9.168094692736183e+000
1	 3.622495785572755e+000	 5.675106594965961e-001	 7.638515994844697e+000
1	 3.616639241793862e+000	 6.037090469397646e-001	 6.172134586581160e+000
1	 3.610400416447522e+000	 6.399630600582474e-001	 4.773480544812409e+000
1	 3.603776679759039e+000	 6.762671878802548e-001	 3.446819461467961e+000
1	 3.596765497411132e+000	 7.126158326152124e-001	 2.196141298617062e+000
1	 3.676306682767058e+000	 3.543439300923416e-001	 1.632374864317665e+001
1	 3.672657284658395e+000	 3.903578925499764e-001	 1.468354437354405e+001
1	 3.668640570027081e+000	 4.264592688408317e-001	 1.307349030609511e+001
1	 3.664253376031720e+000	 4.626430640275384e-001	 1.149934898230203e+001
1	 3.659492617930285e+000	 4.989041872664869e-001	 9.966679952878051e+000
1	 3.654355292113509e+000	 5.352374529595347e-001	 8.480827948561734e+000
1	 3.648838479133311e+000	 5.716375820076131e-001	 7.046911102582376e+000
1	 3.642939346722671e+000	 6.080992031672104e-001	 5.669809248572162e+000
1	 3.636655152803182e+000	 6.446168545105612e-001	 4.354152318259938e+000
1	 3.629983248476528e+000	 6.811849849902316e-001	 3.104308863801844e+000
1	 3.622921080995963e+000	 7.177979561086598e-001	 1.924374730073391e+000
1	 3.702847682303435e+000	 3.569021067900821e-001	 1.510547173253184e+001
1	 3.699171937461023e+000	 3.931760711038122e-001	 1.359131697980781e+001
1	 3.695126224263829e+000	 4.295380803326591e-001	 1.210084950143820e+001
1	 3.690707357036439e+000	 4.659831034784319e-001	 1.063986325359631e+001
1	 3.685912228766642e+000	 5.025060129443072e-001	 9.213954373863098e+000
1	 3.680737814160723e+000	 5.391015856948495e-001	 7.828509319443000e+000
1	 3.675181172693759e+000	 5.757645045186707e-001	 6.488693048387064e+000
1	 3.669239451651285e+000	 6.124893593947065e-001	 5.199437267464862e+000
1	 3.662909889158565e+000	 6.492706489629425e-001	 3.965428770912082e+000
1	 3.656189817193663e+000	 6.861027821003025e-001	 2.791097894819839e+000
1	 3.649076664580380e+000	 7.229800796022365e-001	 1.680607112419094e+000
1	 3.729388681839912e+000	 3.594602834879762e-001	 1.393502149900028e+001
1	 3.725686590263769e+000	 3.959942496577605e-001	 1.254351189357140e+001
1	 3.721611878500688e+000	 4.326168918245666e-001	 1.116962879876742e+001
1	 3.717161338041240e+000	 4.693231429293812e-001	 9.819148129082487e+000
1	 3.712331839603034e+000	 5.061078386221668e-001	 8.497654419767883e+000
1	 3.707120336207917e+000	 5.429657184301957e-001	 7.210529037005633e+000
1	 3.701523866254123e+000	 5.798914270297597e-001	 5.962938422807096e+000
1	 3.695539556579746e+000	 6.168795156222395e-001	 4.759822397961535e+000
1	 3.689164625513729e+000	 6.539244434153747e-001	 3.605882546953599e+000
1	 3.682396385910517e+000	 6.910205792104438e-001	 2.505570709321308e+000
1	 3.675232248164469e+000	 7.281622030959103e-001	 1.463077602424837e+000
1	 3.755929681376454e+000	 3.620184601859726e-001	 1.281389127818399e+001
1	 3.752201243066594e+000	 3.988124282117838e-001	 1.154113356555368e+001
1	 3.748097532737623e+000	 4.356957033165273e-001	 1.028037863492672e+001
1	 3.743615319046093e+000	 4.726631823803677e-001	 9.037335896138963e+000
1	 3.738751450439450e+000	 5.097096643000530e-001	 7.817531068939001e+000
1	 3.733502858255094e+000	 5.468298511655627e-001	 6.626294568408114e+000
1	 3.727866559814423e+000	 5.840183495408690e-001	 5.468749917209292e+000
1	 3.721839661508096e+000	 6.212696718497973e-001	 4.349802207480163e+000
1	 3.715419361868731e+000	 6.585782378678403e-001	 3.274126635786529e+000
1	 3.708602954627166e+000	 6.959383763206328e-001	 2.246157135108075e+000
1	 3.701387831748314e+000	 7.333443265896485e-001	 1.270075128335382e+000
1	 3.782470680913030e+000	 3.645766368840203e-001	 1.174353249168676e+001
1	 3.778715895869458e+000	 4.016306067658447e-001	 1.058515825418666e+001
1	 3.774583186974591e+000	 4.387745148085147e-001	 9.433633997447460e+000
1	 3.770069300050975e+000	 4.760032218313729e-001	 8.294555129186058e+000
1	 3.765171061275874e+000	 5.133114899779525e-001	 7.173342289105282e+000
1	 3.759885380302258e+000	 5.506939839009404e-001	 6.075230011646198e+000
1	 3.754209253374684e+000	 5.881452720519883e-001	 5.005255408052086e+000
1	 3.748139766436377e+000	 6.256598280773674e-001	 3.968246889861825e+000
1	 3.741674098223633e+000	 6.632320323203232e-001	 2.968812956549777e+000
1	 3.734809523343683e+000	 7.008561734308451e-001	 2.011331070583046e+000
1	 3.727543415331994e+000	 7.385264500834197e-001	 1.099936643676551e+000
1	 3.809011680449607e+000	 3.671348135820680e-001	 1.072535610738713e+001
1	 3.805230548672322e+000	 4.044487853199054e-001	 9.676535007827479e+000
1	 3.801068841211559e+000	 4.418533263005018e-001	 8.629914962798102e+000
1	 3.796523281055853e+000	 4.793432612823781e-001	 7.590930819044136e+000
1	 3.791590672112294e+000	 5.169133156558521e-001	 6.564852793869637e+000
1	 3.786267902349411e+000	 5.545581166363182e-001	 5.556775516138389e+000
1	 3.780551946934928e+000	 5.922721945631080e-001	 4.571607079442751e+000
1	 3.774439871364629e+000	 6.300499843049378e-001	 3.614058128673833e+000
1	 3.767928834578493e+000	 6.678858267728057e-001	 2.688631001816740e+000
1	 3.761016092060141e+000	 7.057739705410574e-001	 1.799608949341650e+000
1	 3.753698998915594e+000	 7.437085735771906e-001	 9.510454540665659e-001
1	 3.835552679986150e+000	 3.696929902800644e-001	 9.760734039083470e+000
1	 3.831745201475147e+000	 4.072669638739287e-001	 8.816186606190749e+000
1	 3.827554495448490e+000	 4.449321377924626e-001	 7.869727212286922e+000
1	 3.822977262060702e+000	 4.826833007333646e-001	 6.926584496921029e+000
1	 3.818010282948695e+000	 5.205151413337383e-001	 5.991833809310117e+000
1	 3.812650424396558e+000	 5.584222493716853e-001	 5.070386727367770e+000
1	 3.806894640495177e+000	 5.963991170742170e-001	 4.166980582125031e+000
1	 3.800739976292897e+000	 6.344401405324956e-001	 3.286168007707091e+000
1	 3.794183570933372e+000	 6.725396212252713e-001	 2.432306537604333e+000
1	 3.787222660776614e+000	 7.106917676512461e-001	 1.609548268510621e+000
1	 3.779854582499194e+000	 7.488906970709290e-001	 8.218296134957692e-001
1	 3.862093679522626e+000	 3.722511669779585e-001	 8.851000488426960e+000
1	 3.858259854277893e+000	 4.100851424278770e-001	 8.005010462962215e+000
1	 3.854040149685346e+000	 4.480109492843699e-001	 7.153562526692376e+000
1	 3.849431243065491e+000	 4.860233401843139e-001	 6.301634353287208e+000
1	 3.844429893785062e+000	 5.241169670115981e-001	 5.454062850205196e+000
1	 3.839032946443703e+000	 5.622863821070315e-001	 4.615534254422924e+000
1	 3.833237334055452e+000	 6.005260395853056e-001	 3.790574227143949e+000
1	 3.827040081221221e+000	 6.388302967600287e-001	 2.983537966396695e+000
1	 3.820438307288329e+000	 6.771934156777035e-001	 2.198600356984779e+000
1	 3.813429229493175e+000	 7.156095647613878e-001	 1.439746177768079e+000
1	 3.806010166082880e+000	 7.540728205646027e-001	 7.107603867319785e-001
1	 3.888634679059003e+000	 3.748093436756990e-001	 7.997453231900548e+000
1	 3.884774507080521e+000	 4.129033209817129e-001	 7.243879491449453e+000
1	 3.880525803922092e+000	 4.510897607761975e-001	 6.481899260637577e+000
1	 3.875885224070195e+000	 4.893633796352074e-001	 5.716195351882724e+000
1	 3.870849504621382e+000	 5.277187926894180e-001	 4.951323505422868e+000
1	 3.865415468490847e+000	 5.661505148423461e-001	 4.191703159343995e+000
1	 3.859580027615782e+000	 6.046529620963637e-001	 3.441608212531560e+000
1	 3.853340186149642e+000	 6.432204529875243e-001	 2.705157798020017e+000
1	 3.846693043643426e+000	 6.818472101300851e-001	 1.986307084738846e+000
1	 3.839635798209899e+000	 7.205273618714588e-001	 1.288838126145715e+000
1	 3.832165749666732e+000	 7.592549440581793e-001	 6.163507746936798e-001
1	 3.915175678595246e+000	 3.773675203732345e-001	 7.201354855451061e+000
1	 3.911289159882991e+000	 4.157214995353987e-001	 6.533642935022795e+000
1	 3.907011458158685e+000	 4.541685722679180e-001	 5.855202797669991e+000
1	 3.902339205074782e+000	 4.927034190860264e-001	 5.170379339086924e+000
1	 3.897269115457639e+000	 5.313206183671849e-001	 4.483405232038832e+000
1	 3.891797990537994e+000	 5.700146475776188e-001	 3.798392467238978e+000
1	 3.885922721176181e+000	 6.087798846073804e-001	 3.119323881446463e+000
1	 3.879640291078204e+000	 6.476106092149703e-001	 2.450044688641816e+000
1	 3.872947779998714e+000	 6.865010045823983e-001	 1.794254030628772e+000
1	 3.865842366926857e+000	 7.254451589814351e-001	 1.155496563870756e+000
1	 3.858321333250832e+000	 7.644370675516264e-001	 5.371540998016638e-001
1	 3.596765497411132e+000	 7.126158326152124e-001	 2.196141298617062e+000
1	 3.589363294351825e+000	 7.490087713011588e-001	 9.990922229847347e-001
1	 3.581568760153285e+000	 7.854347785535488e-001	-1.672404420972163e-001
1	 3.573379666514728e+000	 8.218879957891508e-001	-1.300553361284982e+000
1	 3.564793892237348e+000	 8.583624850557747e-001	-2.398666958193803e+000
1	 3.555809426018735e+000	 8.948522312174628e-001	-3.459530287227772e+000
1	 3.546424369203119e+000	 9.313511442442009e-001	-4.481225794031844e+000
1	 3.536636938483259e+000	 9.678530616055532e-001	-5.461973952712895e+000
1	 3.526445468549742e+000	 1.004351750767448e+000	-6.400137767957706e+000
1	 3.515848414683465e+000	 1.040840911791156e+000	-7.294227130186251e+000
1	 3.504844355287081e+000	 1.077314180033311e+000	-8.142903011925244e+000
1	 3.622921080995963e+000	 7.177979561086598e-001	 1.924374730073392e+000
1	 3.615465049311848e+000	 7.544555432825085e-001	 7.936481803725145e-001
1	 3.607613833466946e+000	 7.911464394965301e-001	-3.092612270249722e-001
1	 3.599365188956308e+000	 8.278647435640266e-001	-1.382104351432454e+000
1	 3.590716979155808e+000	 8.646044743521743e-001	-2.422752854568335e+000
1	 3.581667178136880e+000	 9.013595729831021e-001	-3.429203960667638e+000
1	 3.572213873436759e+000	 9.381239051402547e-001	-4.399585107246557e+000
1	 3.562355268780022e+000	 9.748912634794354e-001	-5.332158474914733e+000
1	 3.552089686747149e+000	 1.011655370143745e+000	-6.225325384609860e+000
1	 3.541415571385863e+000	 1.048409879381463e+000	-7.077630550642886e+000
1	 3.530331490760975e+000	 1.085148380265702e+000	-7.887766177987485e+000
1	 3.649076664580380e+000	 7.229800796022365e-001	 1.680607112419094e+000
1	 3.641566804271423e+000	 7.599023152640309e-001	 6.148898914877936e-001
1	 3.633658906780143e+000	 7.968581004397330e-001	-4.259130558220091e-001
1	 3.625350711397430e+000	 8.338414913391794e-001	-1.439605528004814e+000
1	 3.616640066073833e+000	 8.708464636489086e-001	-2.424107980321827e+000
1	 3.607524930254624e+000	 9.078669147491354e-001	-3.377462152940859e+000
1	 3.598003377670048e+000	 9.448966660367626e-001	-4.297835593377167e+000
1	 3.588073599076493e+000	 9.819294653538295e-001	-5.183526061954928e+000
1	 3.577733904944330e+000	 1.018958989520610e+000	-6.032965808988530e+000
1	 3.566982728088108e+000	 1.055978846972389e+000	-6.844725712395493e+000
1	 3.555818626234796e+000	 1.092982580498757e+000	-7.617519264495289e+000
1	 3.675232248164469e+000	 7.281622030959103e-001	 1.463077602424836e+000
1	 3.667668559230636e+000	 7.653490872456820e-001	 4.609432494192516e-001
1	 3.659703980092961e+000	 8.025697613831027e-001	-5.191638645406767e-001
1	 3.651336233838164e+000	 8.398182391145390e-001	-1.475099253140418e+000
1	 3.642563152991476e+000	 8.770884529458933e-001	-2.404829768607705e+000
1	 3.633382682372007e+000	 9.143742565154637e-001	-3.306438077869211e+000
1	 3.623792881903003e+000	 9.516694269336102e-001	-4.178127038255114e+000
1	 3.613791929372667e+000	 9.889676672286075e-001	-5.018223961874787e+000
1	 3.603378123141265e+000	 1.026262608897900e+000	-5.825184757764005e+000
1	 3.592549884790161e+000	 1.063547814563778e+000	-6.597597940911494e+000
1	 3.581305761708479e+000	 1.100816780732308e+000	-7.334188497312034e+000
1	 3.701387831748314e+000	 7.333443265896485e-001	 1.270075128335383e+000
1	 3.693770314189572e+000	 7.707958592274198e-001	 3.299871202075616e-001
1	 3.685749053405477e+000	 8.082814223265831e-001	-5.909259641346828e-001
1	 3.677321756278585e+000	 8.457949868900372e-001	-1.490570160172826e+000
1	 3.668486239908798e+000	 8.833304422430448e-001	-2.366956367153403e+000
1	 3.659240434489070e+000	 9.208815982819893e-001	-3.218204652482570e+000
1	 3.649582386135648e+000	 9.584421878306851e-001	-4.042548462500107e+000
1	 3.639510259668550e+000	 9.960058691036422e-001	-4.838338729236154e+000
1	 3.629022341337930e+000	 1.033566228275474e+000	-5.604047862726427e+000
1	 3.618117041491971e+000	 1.071116782155477e+000	-6.338273618464007e+000
1	 3.606792897181959e+000	 1.108650980966191e+000	-7.039742829598839e+000
1	 3.727543415331994e+000	 7.385264500834197e-001	 1.099936643676550e+000
1	 3.719872069148313e+000	 7.762426312092003e-001	 2.202514843311406e-001
1	 3.711794126717774e+000	 8.139930832701192e-001	-6.430579920212464e-001
1	 3.703307278718762e+000	 8.517717346656040e-001	-1.487947179000136e+000
1	 3.694409326825858e+000	 8.895724315402802e-001	-2.312468718242463e+000
1	 3.685098186605857e+000	 9.273889400486128e-001	-3.114776612483792e+000
1	 3.675371890368006e+000	 9.652149487278732e-001	-3.893130253419532e+000
1	 3.665228589964140e+000	 1.003044070978804e+000	-4.645898354504211e+000
1	 3.654666559534302e+000	 1.040869847653190e+000	-5.371562778816141e+000
1	 3.643684198193497e+000	 1.078685749747331e+000	-6.068722252107160e+000
1	 3.632280032655169e+000	 1.116485181200240e+000	-6.736095951181858e+000
1	 3.753698998915594e+000	 7.437085735771906e-001	 9.510454540665666e-001
1	 3.745973824106948e+000	 7.816894031909812e-001	 1.300156558922115e-001
1	 3.737839200029932e+000	 8.197047442136549e-001	-6.773667820534961e-001
1	 3.729292801158767e+000	 8.577484824411708e-001	-1.469105476778319e+000
1	 3.720332413742714e+000	 8.958144208375151e-001	-2.243292551737295e+000
1	 3.710955938722406e+000	 9.338962818152368e-001	-2.998112539271142e+000
1	 3.701161394600098e+000	 9.719877096250615e-001	-3.731846207777454e+000
1	 3.690946920259437e+000	 1.010082272853967e+000	-4.442874304405003e+000
1	 3.680310777730361e+000	 1.048173467030906e+000	-5.129681204022177e+000
1	 3.669251354894696e+000	 1.086254717339184e+000	-5.790858455193769e+000
1	 3.657767168128049e+000	 1.124319381434289e+000	-6.425108213912601e+000
1	 3.779854582499194e+000	 7.488906970709290e-001	 8.218296134957697e-001
1	 3.772075579065561e+000	 7.871361751727187e-001	 5.760657573951472e-002
1	 3.763884273342034e+000	 8.254164051571353e-001	-6.956091568542561e-001
1	 3.755278323598675e+000	 8.637252302166685e-001	-1.435868318039783e+000
1	 3.746255500659427e+000	 9.020564101346671e-001	-2.161300295354819e+000
1	 3.736813690838762e+000	 9.404036235817622e-001	-2.870116802801722e+000
1	 3.726950898831944e+000	 9.787604705221360e-001	-3.560615489751721e+000
1	 3.716665250554443e+000	 1.017120474729001e+000	-4.231183477571275e+000
1	 3.705954995926085e+000	 1.055477086408480e+000	-4.880300815417550e+000
1	 3.694818511595526e+000	 1.093823684930882e+000	-5.506543846623794e+000
1	 3.683254303600529e+000	 1.132153581668172e+000	-6.108588477090176e+000
1	 3.806010166082880e+000	 7.540728205646027e-001	 7.107603867319785e-001
1	 3.798177334024235e+000	 7.925829471543703e-001	 1.397174970567979e-003
1	 3.789929346654160e+000	 8.311280661005048e-001	-6.994936462468117e-001
1	 3.781263846038558e+000	 8.697019779920285e-001	-1.390008848114033e+000
1	 3.772178587576050e+000	 9.082983994316514e-001	-2.068312906175900e+000
1	 3.762671442954964e+000	 9.469109653480906e-001	-2.732641424345050e+000
1	 3.752740403063570e+000	 9.855332314189841e-001	-3.381304508158148e+000
1	 3.742383580849156e+000	 1.024158676603780e+000	-4.012690079550375e+000
1	 3.731599214121452e+000	 1.062780705785770e+000	-4.625267125366171e+000
1	 3.720385668295939e+000	 1.101392652522272e+000	-5.217588871781079e+000
1	 3.708741439072548e+000	 1.139987781901724e+000	-5.788295876791437e+000
1	 3.832165749666732e+000	 7.592549440581793e-001	 6.163507746936787e-001
1	 3.824279088983057e+000	 7.980297191358923e-001	-4.019519454854478e-002
1	 3.815974419966391e+000	 8.368397270437079e-001	-6.906821353124755e-001
1	 3.807249368478485e+000	 8.756787257671810e-001	-1.333251803513945e+000
1	 3.798101674492648e+000	 9.145403887283856e-001	-1.966101627150865e+000
1	 3.788529195071056e+000	 9.534183071141238e-001	-2.587487862953418e+000
1	 3.778529907294995e+000	 9.923059923154921e-001	-3.195728716799323e+000
1	 3.768101911143579e+000	 1.031196878478174e+000	-3.789207421028299e+000
1	 3.757243432316443e+000	 1.070084325162635e+000	-4.366375261714662e+000
1	 3.745952824995893e+000	 1.108961620113198e+000	-4.925754548899511e+000
1	 3.734228574544038e+000	 1.147821982134779e+000	-5.465941522744005e+000
1	 3.858321333250832e+000	 7.644370675516264e-001	 5.371540998016636e-001
1	 3.850380843942109e+000	 8.034764911172418e-001	-6.871026582664175e-002
1	 3.842019493278809e+000	 8.425513879866889e-001	-6.707914454157916e-001
1	 3.833234890918528e+000	 8.816554735420564e-001	-1.267275152753931e+000
1	 3.824024761409275e+000	 9.207823780247851e-001	-1.856389672161517e+000
1	 3.814386947187075e+000	 9.599256488797630e-001	-2.436408729269572e+000
1	 3.804319411526238e+000	 9.990787532115453e-001	-3.005654341586088e+000
1	 3.793820241437710e+000	 1.038235080352055e+000	-3.562499642911722e+000
1	 3.782887650511028e+000	 1.077387944538931e+000	-4.105371675577072e+000
1	 3.771519981695345e+000	 1.116530587703505e+000	-4.632754144397477e+000
1	 3.759715710014934e+000	 1.155656182367169e+000	-5.143190126180472e+000
1	 3.504844355287081e+000	 1.077314180033311e+000	-8.142903011925244e+000
1	 3.493431993474643e+000	 1.113765128411843e+000	-8.938025711247827e+000
1	 3.481610156834797e+000	 1.150187268649676e+000	-9.672667191971827e+000
1	 3.469377802379237e+000	 1.186574055778320e+000	-1.034759635012390e+001
1	 3.456734019669560e+000	 1.222918891747823e+000	-1.096381663068453e+001
1	 3.443678032987045e+000	 1.259215128608840e+000	-1.152256778242976e+001
1	 3.430209203416529e+000	 1.295456071785157e+000	-1.202532724573651e+001
1	 3.416327030840312e+000	 1.331634983434178e+000	-1.247381116316119e+001
1	 3.402031155838170e+000	 1.367745085892707e+000	-1.286997500329188e+001
1	 3.387321361489601e+000	 1.403779565205173e+000	-1.321601378910749e+001
1	 3.372197575074528e+000	 1.439731574731234e+000	-1.351436192285612e+001
1	 3.530331490760975e+000	 1.085148380265702e+000	-7.887766177987485e+000
1	 3.518836138555602e+000	 1.121864398976820e+000	-8.648019046065500e+000
1	 3.506928333832647e+000	 1.158551400055168e+000	-9.351815131244450e+000
1	 3.494607026019215e+000	 1.195202790937426e+000	-9.999839905274104e+000
1	 3.481871298056221e+000	 1.231811925592805e+000	-1.059300917627197e+001
1	 3.468720368583944e+000	 1.268372107728260e+000	-1.113247092084865e+001
1	 3.455153594041044e+000	 1.304876594084805e+000	-1.161960675657888e+001
1	 3.441170470672978e+000	 1.341318597822436e+000	-1.205603304459502e+001
1	 3.426770636445833e+000	 1.377691291990981e+000	-1.244360161275105e+001
1	 3.411953872861663e+000	 1.413987813083974e+000	-1.278440009052104e+001
1	 3.396720106671580e+000	 1.450201264672493e+000	-1.308075184755613e+001
1	 3.555818626234796e+000	 1.092982580498757e+000	-7.617519264495289e+000
1	 3.544240283636571e+000	 1.129963669542497e+000	-8.344055394990422e+000
1	 3.532246510830581e+000	 1.166915531461389e+000	-9.018112065365944e+000
1	 3.519836249659356e+000	 1.203831526097284e+000	-9.640283329537772e+000
1	 3.507008576443118e+000	 1.240704959438558e+000	-1.021138865271593e+001
1	 3.493762704181139e+000	 1.277529086848464e+000	-1.073247482198911e+001
1	 3.480097984665906e+000	 1.314297116385243e+000	-1.120481750592001e+001
1	 3.466013910506030e+000	 1.351002212211490e+000	-1.162992245291578e+001
1	 3.451510117053901e+000	 1.387637498090054e+000	-1.200952631879130e+001
1	 3.436586384234134e+000	 1.424196060963575e+000	-1.234559711463617e+001
1	 3.421242638269016e+000	 1.460670954614553e+000	-1.264033426683564e+001
1	 3.581305761708479e+000	 1.100816780732308e+000	-7.334188497312034e+000
1	 3.569644428717461e+000	 1.138062940108699e+000	-8.028087751429732e+000
1	 3.557564687828503e+000	 1.175279662868157e+000	-8.673428156717197e+000
1	 3.545065473299544e+000	 1.212460261257707e+000	-9.270704465721282e+000
1	 3.532145854830122e+000	 1.249597993284889e+000	-9.820631214278686e+000
1	 3.518805039778498e+000	 1.286686065969255e+000	-1.032414471175938e+001
1	 3.505042375290976e+000	 1.323717638686274e+000	-1.078240469025365e+001
1	 3.490857350339327e+000	 1.360685826601141e+000	-1.119679560248000e+001
1	 3.476249597662238e+000	 1.397583704189727e+000	-1.156892755882001e+001
1	 3.461218895606880e+000	 1.434404308843775e+000	-1.190063689455504e+001
1	 3.445765169866719e+000	 1.471140644557212e+000	-1.219398635909613e+001
1	 3.606792897181959e+000	 1.108650980966191e+000	-7.039742829598839e+000
1	 3.595048573798192e+000	 1.146162210675251e+000	-7.702013906055330e+000
1	 3.582882864826309e+000	 1.183643794275289e+000	-8.319580706221359e+000
1	 3.570294696939667e+000	 1.221088996418505e+000	-8.892830904650845e+000
1	 3.557283133217109e+000	 1.258491027131605e+000	-9.422365637540869e+000
1	 3.543847375375882e+000	 1.295843045090436e+000	-9.909001573854212e+000
1	 3.529986765916116e+000	 1.333138160987702e+000	-1.035377265657600e+001
1	 3.515700790172728e+000	 1.370369440991190e+000	-1.075793150391778e+001
1	 3.500989078270704e+000	 1.407529910289798e+000	-1.112295046088065e+001
1	 3.485851406979773e+000	 1.444612556724376e+000	-1.145052229223687e+001
1	 3.470287701464573e+000	 1.481610334500272e+000	-1.174256050867351e+001
1	 3.632280032655169e+000	 1.116485181200240e+000	-6.736095951181858e+000
1	 3.620452718878675e+000	 1.154261481241977e+000	-7.367678383547978e+000
1	 3.608201041823901e+000	 1.192007925682604e+000	-7.958336007945955e+000
1	 3.595523920579608e+000	 1.229717731579492e+000	-8.508341748223652e+000
1	 3.582420411603949e+000	 1.267384060978512e+000	-9.018174983610075e+000
1	 3.568889710973160e+000	 1.305000024211814e+000	-9.488523701957929e+000
1	 3.554931156541185e+000	 1.342558683289327e+000	-9.920286335558460e+000
1	 3.540544230006091e+000	 1.380053055381439e+000	-1.031457326939633e+001
1	 3.525728558879165e+000	 1.417476116390069e+000	-1.067270801228585e+001
1	 3.510483918352681e+000	 1.454820804605176e+000	-1.099622802194479e+001
1	 3.494810233062459e+000	 1.492080024443532e+000	-1.128688517571844e+001
1	 3.657767168128049e+000	 1.124319381434289e+000	-6.425108213912601e+000
1	 3.645856863958831e+000	 1.162360751808704e+000	-7.026874298370760e+000
1	 3.633519218821176e+000	 1.200372057089920e+000	-7.591411126168714e+000
1	 3.620753144219252e+000	 1.238346466740478e+000	-8.118869298749745e+000
1	 3.607557689990518e+000	 1.276277094825420e+000	-8.609598190836053e+000
1	 3.593932046570194e+000	 1.314157003333191e+000	-9.064148187053698e+000
1	 3.579875547166042e+000	 1.351979205590951e+000	-9.483272614801891e+000
1	 3.565387669839278e+000	 1.389736669771687e+000	-9.867929363313150e+000
1	 3.550468039487480e+000	 1.427422322490340e+000	-1.021928217939208e+001
1	 3.535116429725481e+000	 1.465029052485976e+000	-1.053870163090417e+001
1	 3.519332764660260e+000	 1.502549714386791e+000	-1.082776572970898e+001
1	 3.683254303600529e+000	 1.132153581668172e+000	-6.108588477090176e+000
1	 3.671261009038573e+000	 1.170460022375256e+000	-6.681345133493758e+000
1	 3.658837395818034e+000	 1.208736188497053e+000	-7.220475598662342e+000
1	 3.645982367858484e+000	 1.246975201901277e+000	-7.726000678154872e+000
1	 3.632694968376690e+000	 1.285170128672135e+000	-8.198131601399284e+000
1	 3.618974382166853e+000	 1.323313982454373e+000	-8.637272342981637e+000
1	 3.604819937790552e+000	 1.361399727892379e+000	-9.044021655076298e+000
1	 3.590231109672148e+000	 1.399420284161736e+000	-9.419174801062741e+000
1	 3.575207520095516e+000	 1.437368528590412e+000	-9.763724980883604e+000
1	 3.559748941098035e+000	 1.475237300366577e+000	-1.007886443924609e+001
1	 3.543855296257858e+000	 1.513019404329850e+000	-1.036598524835705e+001
1	 3.708741439072548e+000	 1.139987781901724e+000	-5.788295876791437e+000
1	 3.696665154117818e+000	 1.178559292941458e+000	-6.332786445776303e+000
1	 3.684155572814372e+000	 1.217100319903820e+000	-6.847153069747697e+000
1	 3.671211591497188e+000	 1.255603937061700e+000	-7.331279380419066e+000
1	 3.657832246762335e+000	 1.294063162518466e+000	-7.785230424953298e+000
1	 3.644016717762999e+000	 1.332470961575163e+000	-8.209255073217257e+000
1	 3.629764328414572e+000	 1.370820250193410e+000	-8.603788152287587e+000
1	 3.615074549504560e+000	 1.409103898551387e+000	-8.969452298374216e+000
1	 3.599947000703133e+000	 1.447314734690084e+000	-9.307059516801076e+000
1	 3.584381452470216e+000	 1.485445548246777e+000	-9.617612441193767e+000
1	 3.568377827855136e+000	 1.523489094272510e+000	-9.902305283573547e+000
1	 3.734228574544038e+000	 1.147821982134779e+000	-5.465941522744005e+000
1	 3.722069299196483e+000	 1.186658563507135e+000	-5.982847501511192e+000
1	 3.709473749810091e+000	 1.225464451310042e+000	-6.473022856470599e+000
1	 3.696440815135249e+000	 1.264232672221558e+000	-6.936206760440005e+000
1	 3.682969525147330e+000	 1.302956196364219e+000	-7.372310142328637e+000
1	 3.669059053358499e+000	 1.341627940695366e+000	-7.781418181677652e+000
1	 3.654708719037963e+000	 1.380240772493848e+000	-8.163792547764613e+000
1	 3.639917989336374e+000	 1.418787512940442e+000	-8.519873373581731e+000
1	 3.624686481310193e+000	 1.457260940789157e+000	-8.850280955430121e+000
1	 3.609013963841896e+000	 1.495653796126379e+000	-9.155817169344093e+000
1	 3.592900359451976e+000	 1.533958784214570e+000	-9.437466596065981e+000
1	 3.759715710014934e+000	 1.155656182367169e+000	-5.143190126180472e+000
1	 3.747473444274480e+000	 1.194757834072111e+000	-5.633132845444688e+000
1	 3.734791926805089e+000	 1.233828582715533e+000	-6.099621451076087e+000
1	 3.721670038772552e+000	 1.272861407380663e+000	-6.542243462338291e+000
1	 3.708106803531545e+000	 1.311849230209201e+000	-6.960747852142417e+000
1	 3.694101388953216e+000	 1.350784919814787e+000	-7.355047630212250e+000
1	 3.679653109660587e+000	 1.389661294793495e+000	-7.725222189319261e+000
1	 3.664761429167448e+000	 1.428471127328699e+000	-8.071519405061224e+000
1	 3.649425961916560e+000	 1.467207146887431e+000	-8.394357480049216e+000
1	 3.633646475212943e+000	 1.505862044005179e+000	-8.694326523795199e+000
1	 3.617422891048259e+000	 1.544428474155829e+000	-8.972189860057110e+000
1	 3.372197575074528e+000	 1.439731574731234e+000	-1.351436192285611e+001
1	 3.356662231674654e+000	 1.475588867042669e+000	-1.377368657550284e+001
1	 3.340713316314456e+000	 1.511349944770984e+000	-1.400068246125214e+001
1	 3.324351200427108e+000	 1.547007890623957e+000	-1.419487495437190e+001
1	 3.307576405259167e+000	 1.582555769867112e+000	-1.435578257416300e+001
1	 3.290389603006430e+000	 1.617986634272130e+000	-1.448291787357037e+001
1	 3.272791617828106e+000	 1.653293526122406e+000	-1.457578836510517e+001
1	 3.254783426736442e+000	 1.688469482271450e+000	-1.463389748282939e+001
1	 3.236366160359109e+000	 1.723507538249754e+000	-1.465674557903328e+001
1	 3.217541103571808e+000	 1.758400732415532e+000	-1.464383095411215e+001
1	 3.198309695998757e+000	 1.793142110144684e+000	-1.459465091803241e+001
1	 3.396720106671580e+000	 1.450201264672493e+000	-1.308075184755613e+001
1	 3.381071790665133e+000	 1.486319310265351e+000	-1.333952075365830e+001
1	 3.365006895213961e+000	 1.522340441605221e+000	-1.356568758512244e+001
1	 3.348525794452300e+000	 1.558257691097506e+000	-1.375879665555716e+001
1	 3.331629013417209e+000	 1.594064073578511e+000	-1.391838324922017e+001
1	 3.314317229192684e+000	 1.629752590292575e+000	-1.404397446256006e+001
1	 3.296591271931205e+000	 1.665316232926751e+000	-1.413509008652112e+001
1	 3.278452125749841e+000	 1.700747987698722e+000	-1.419124352850660e+001
1	 3.259900929498166e+000	 1.736040839493528e+000	-1.421194277276796e+001
1	 3.240938977395473e+000	 1.771187776044500e+000	-1.419669137785756e+001
1	 3.221567719534899e+000	 1.806181792153683e+000	-1.414498950965604e+001
1	 3.421242638269016e+000	 1.460670954614553e+000	-1.264033426683564e+001
1	 3.405481349655952e+000	 1.497049753488834e+000	-1.289880060235916e+001
1	 3.389300474113741e+000	 1.533330938440259e+000	-1.312428553545161e+001
1	 3.372700388477688e+000	 1.569507491571855e+000	-1.331637058731814e+001
1	 3.355681621575360e+000	 1.605572377290711e+000	-1.347462786985169e+001
1	 3.338244855378957e+000	 1.641518546313822e+000	-1.359862086708230e+001
1	 3.320390926034240e+000	 1.677338939731900e+000	-1.368790525746018e+001
1	 3.302120824763098e+000	 1.713026493126799e+000	-1.374202977599452e+001
1	 3.283435698637017e+000	 1.748574140738111e+000	-1.376053711513796e+001
1	 3.264336851218891e+000	 1.783974819674280e+000	-1.374296486318341e+001
1	 3.244825743070775e+000	 1.819221474163497e+000	-1.368884647880936e+001
1	 3.445765169866719e+000	 1.471140644557212e+000	-1.219398635909613e+001
1	 3.429890908647009e+000	 1.507780196712916e+000	-1.245225753739512e+001
1	 3.413594053013717e+000	 1.544321435275896e+000	-1.267708817272803e+001
1	 3.396874982503221e+000	 1.580757292046805e+000	-1.286811485724998e+001
1	 3.379734229733591e+000	 1.617080681003512e+000	-1.302496616218777e+001
1	 3.362172481565244e+000	 1.653284502335673e+000	-1.314726334630400e+001
1	 3.344190580137224e+000	 1.689361646537656e+000	-1.323462110192474e+001
1	 3.325789523776246e+000	 1.725304998555488e+000	-1.328664833765408e+001
1	 3.306970467775714e+000	 1.761107441983310e+000	-1.330294899678152e+001
1	 3.287734725042120e+000	 1.796761863304683e+000	-1.328312291026889e+001
1	 3.268083766606454e+000	 1.832261156173944e+000	-1.322676668308754e+001
1	 3.470287701464573e+000	 1.481610334500272e+000	-1.174256050867351e+001
1	 3.454300467638207e+000	 1.518510639937398e+000	-1.200060230057334e+001
1	 3.437887631913810e+000	 1.555311932111934e+000	-1.222469006277224e+001
1	 3.421049576528834e+000	 1.592007092522155e+000	-1.241453292827187e+001
1	 3.403786837891866e+000	 1.628588984716717e+000	-1.256983514053283e+001
1	 3.386100107751537e+000	 1.665050458357931e+000	-1.269029667619093e+001
1	 3.367990234240172e+000	 1.701384353343822e+000	-1.277561389875807e+001
1	 3.349458222789323e+000	 1.737583503984593e+000	-1.282548024251438e+001
1	 3.330505236914307e+000	 1.773640743228935e+000	-1.283958692569948e+001
1	 3.311132598865224e+000	 1.809548906935523e+000	-1.281762369200876e+001
1	 3.291341790142000e+000	 1.845300838184841e+000	-1.275927957930219e+001
1	 3.494810233062459e+000	 1.492080024443532e+000	-1.128688517571844e+001
1	 3.478710026629442e+000	 1.529241083162080e+000	-1.154452568504890e+001
1	 3.462181210813938e+000	 1.566302428948173e+000	-1.176766908350712e+001
1	 3.445224170554475e+000	 1.603256892997708e+000	-1.195611413242402e+001
1	 3.427839446050156e+000	 1.640097288430126e+000	-1.210965955335021e+001
1	 3.410027733937825e+000	 1.676816414380396e+000	-1.222810455238671e+001
1	 3.391789888343101e+000	 1.713407060150203e+000	-1.231124936564710e+001
1	 3.373126921802362e+000	 1.749862009413920e+000	-1.235889582512277e+001
1	 3.354040006052849e+000	 1.786174044474793e+000	-1.237084794414859e+001
1	 3.334530472688268e+000	 1.822335950566610e+000	-1.234691252159065e+001
1	 3.314599813677478e+000	 1.858340520196004e+000	-1.228689976380579e+001
1	 3.519332764660260e+000	 1.502549714386791e+000	-1.082776572970898e+001
1	 3.503119585620614e+000	 1.539971526386763e+000	-1.108469923033077e+001
1	 3.486474789714023e+000	 1.577292925784412e+000	-1.130658700635993e+001
1	 3.469398764580086e+000	 1.614506693473263e+000	-1.149333416318387e+001
1	 3.451892054208428e+000	 1.651605592143541e+000	-1.164485231060084e+001
1	 3.433955360124103e+000	 1.688582370402872e+000	-1.176105997624839e+001
1	 3.415589542446022e+000	 1.725429766956601e+000	-1.184188302707007e+001
1	 3.396795620815398e+000	 1.762140514843276e+000	-1.188725509813789e+001
1	 3.377574775191389e+000	 1.798707345720694e+000	-1.189711802810491e+001
1	 3.357928346511310e+000	 1.835122994197757e+000	-1.187142230052388e+001
1	 3.337857837212957e+000	 1.871380202207249e+000	-1.181012749022616e+001
1	 3.543855296257858e+000	 1.513019404329850e+000	-1.036598524835705e+001
1	 3.527529144611625e+000	 1.550701969611245e+000	-1.062177588843254e+001
1	 3.510768368613983e+000	 1.588283422620452e+000	-1.084199005352576e+001
1	 3.493573358605612e+000	 1.625756493948621e+000	-1.102665554734244e+001
1	 3.475944662366648e+000	 1.663113895856762e+000	-1.117581489333992e+001
1	 3.457882986310363e+000	 1.700348326425160e+000	-1.128952562485482e+001
1	 3.439389196548955e+000	 1.737452473762821e+000	-1.136786056696841e+001
1	 3.420464319828467e+000	 1.774419020272466e+000	-1.141090810945323e+001
1	 3.401109544329980e+000	 1.811240646966444e+000	-1.141877247014254e+001
1	 3.381326220334416e+000	 1.847910037828777e+000	-1.139157394806718e+001
1	 3.361115860748503e+000	 1.884419884218392e+000	-1.132944916570574e+001
1	 3.568377827855136e+000	 1.523489094272510e+000	-9.902305283573547e+000
1	 3.551938703602373e+000	 1.561432412835328e+000	-1.015639066255525e+001
1	 3.535061947513740e+000	 1.599273919456093e+000	-1.037440943225302e+001
1	 3.517747952630995e+000	 1.637006294423582e+000	-1.055652809742337e+001
1	 3.499997270524786e+000	 1.674622199569589e+000	-1.070293774642426e+001
1	 3.481810612496596e+000	 1.712114282447062e+000	-1.081385420575802e+001
1	 3.463188850651912e+000	 1.749475180568665e+000	-1.088951816687615e+001
1	 3.444133018841604e+000	 1.786697525701294e+000	-1.093019528459568e+001
1	 3.424644313468674e+000	 1.823773948211853e+000	-1.093617624652499e+001
1	 3.404724094157645e+000	 1.860697081459479e+000	-1.090777681294948e+001
1	 3.384373884284180e+000	 1.897459566229251e+000	-1.084533782667918e+001
1	 3.592900359451976e+000	 1.533958784214570e+000	-9.437466596065983e+000
1	 3.576348262592755e+000	 1.572162856058811e+000	-9.689161219615579e+000
1	 3.559355526413214e+000	 1.610264416291135e+000	-9.904361847249355e+000
1	 3.541922546656179e+000	 1.648256094897945e+000	-1.008338934557511e+001
1	 3.524049878682808e+000	 1.686130503281826e+000	-1.022660065513795e+001
1	 3.505738238682794e+000	 1.723880238468381e+000	-1.033438879720714e+001
1	 3.486988504754907e+000	 1.761497887373937e+000	-1.040718283020293e+001
1	 3.467801717854844e+000	 1.798976031129568e+000	-1.044544775510184e+001
1	 3.448179082607521e+000	 1.836307249456730e+000	-1.044968436926329e+001
1	 3.428121967981061e+000	 1.873484125089678e+000	-1.042042906823017e+001
1	 3.407631907820056e+000	 1.910499248239640e+000	-1.035825359516708e+001
1	 3.617422891048259e+000	 1.544428474155829e+000	-8.972189860057108e+000
1	 3.600757821582671e+000	 1.582893299281493e+000	-9.220688477859781e+000
1	 3.583649105312324e+000	 1.621254913125378e+000	-9.432349992245868e+000
1	 3.566097140681105e+000	 1.659505895371513e+000	-9.607664959814477e+000
1	 3.548102486840681e+000	 1.697638806993271e+000	-9.747173106498996e+000
1	 3.529665864868949e+000	 1.735646194488917e+000	-9.851463174534128e+000
1	 3.510788158857956e+000	 1.773520594178442e+000	-9.921172693326863e+000
1	 3.491470416868223e+000	 1.811254536557092e+000	-9.956987673538396e+000
1	 3.471713851746570e+000	 1.848840550700881e+000	-9.959642223854878e+000
1	 3.451519841804725e+000	 1.886271168719184e+000	-9.929918090098857e+000
1	 3.430889931356198e+000	 1.923538930249378e+000	-9.868644116510586e+000
1	 3.198309695998757e+000	 1.793142110144684e+000	-1.459465091803241e+001
1	 3.178670556813624e+000	 1.827729904041205e+000	-1.450438813368153e+001
1	 3.158628293608679e+000	 1.862151961492185e+000	-1.436947987114646e+001
1	 3.138184815363838e+000	 1.896401373359606e+000	-1.419136947995052e+001
1	 3.117342186515054e+000	 1.930471254663603e+000	-1.397162563754547e+001
1	 3.096102626762256e+000	 1.964354748895379e+000	-1.371194117871529e+001
1	 3.074468510735240e+000	 1.998045032338640e+000	-1.341413170595128e+001
1	 3.052442367516636e+000	 2.031535318394142e+000	-1.308013398117976e+001
1	 3.030026880021336e+000	 2.064818861901898e+000	-1.271200409976799e+001
1	 3.007224884231966e+000	 2.097888963455511e+000	-1.231191544828205e+001
1	 2.984039368290266e+000	 2.130738973703105e+000	-1.188215644802245e+001
1	 3.221567719534899e+000	 1.806181792153683e+000	-1.414498950965604e+001
1	 3.201785765048789e+000	 1.841021107572606e+000	-1.405291221644523e+001
1	 3.181597755035698e+000	 1.875693481314890e+000	-1.391783020250899e+001
1	 3.161005612357593e+000	 1.910191953999462e+000	-1.374125084580004e+001
1	 3.140011416462942e+000	 1.944509590579075e+000	-1.352481023230343e+001
1	 3.118617403193275e+000	 1.978639484684598e+000	-1.327027188324024e+001
1	 3.096825964446625e+000	 2.012574762977862e+000	-1.297952525543263e+001
1	 3.074639647697041e+000	 2.046308589507667e+000	-1.265458401535500e+001
1	 3.052061155369497e+000	 2.079834170063415e+000	-1.229758408796402e+001
1	 3.029093344069806e+000	 2.113144756520817e+000	-1.191078148196971e+001
1	 3.005739223669391e+000	 2.146233651174094e+000	-1.149654989378264e+001
1	 3.244825743070775e+000	 1.819221474163497e+000	-1.368884647880936e+001
1	 3.224900973283702e+000	 1.854312311104829e+000	-1.359520378238497e+001
1	 3.204567216462507e+000	 1.889235001138423e+000	-1.346035790939692e+001
1	 3.183826409351194e+000	 1.923982534640148e+000	-1.328585465436459e+001
1	 3.162680646410756e+000	 1.958547926495382e+000	-1.307337023615292e+001
1	 3.141132179624304e+000	 1.992924220474648e+000	-1.282470995552792e+001
1	 3.119183418158108e+000	 2.027104493617908e+000	-1.254180662132423e+001
1	 3.096836927877633e+000	 2.061081860622007e+000	-1.222671874585660e+001
1	 3.074095430717927e+000	 2.094849478225728e+000	-1.188162851078644e+001
1	 3.050961803907982e+000	 2.128400549586891e+000	-1.150883950523802e+001
1	 3.027439079048901e+000	 2.161728328645818e+000	-1.111077423854479e+001
1	 3.268083766606454e+000	 1.832261156173944e+000	-1.322676668308754e+001
1	 3.248016181518426e+000	 1.867603514637696e+000	-1.313188009242466e+001
1	 3.227536677889154e+000	 1.902776520962612e+000	-1.299772922698122e+001
1	 3.206647206344684e+000	 1.937773115281502e+000	-1.282587323081176e+001
1	 3.185349876358512e+000	 1.972586262412363e+000	-1.261800174879720e+001
1	 3.163646956055338e+000	 2.007208956265380e+000	-1.237593354672169e+001
1	 3.141540871869665e+000	 2.041634224258642e+000	-1.210161489863880e+001
1	 3.119034208058361e+000	 2.075855131737030e+000	-1.179711774222691e+001
1	 3.096129706066546e+000	 2.109864786388716e+000	-1.146463760341728e+001
1	 3.072830263746392e+000	 2.143656342653623e+000	-1.110649129216639e+001
1	 3.049138934428674e+000	 2.177223006118176e+000	-1.072511437183371e+001
1	 3.291341790142000e+000	 1.845300838184841e+000	-1.275927957930219e+001
1	 3.271131389753024e+000	 1.880894718171027e+000	-1.266354096017343e+001
1	 3.250506139315697e+000	 1.916318040787283e+000	-1.253059155882666e+001
1	 3.229468003338097e+000	 1.951563695923357e+000	-1.236197933125068e+001
1	 3.208019106306228e+000	 1.986624598329864e+000	-1.215938119419089e+001
1	 3.186161732486373e+000	 2.021493692056648e+000	-1.192460163954496e+001
1	 3.163898325581261e+000	 2.056163954899922e+000	-1.165957111791814e+001
1	 3.141231488239165e+000	 2.090628402852606e+000	-1.136634419206655e+001
1	 3.118163981415277e+000	 2.124880094552258e+000	-1.104709746153850e+001
1	 3.094698723584940e+000	 2.158912135720905e+000	-1.070412726040665e+001
1	 3.070838789808597e+000	 2.192717683591068e+000	-1.033984713057104e+001
1	 3.314599813677478e+000	 1.858340520196004e+000	-1.228689976380579e+001
1	 3.294246597987558e+000	 1.894185921704647e+000	-1.219076936405103e+001
1	 3.273475600742184e+000	 1.929859560612265e+000	-1.205957413758348e+001
1	 3.252288800331470e+000	 1.965354276565549e+000	-1.189482682929685e+001
1	 3.230688336253921e+000	 2.000662934247727e+000	-1.169816601084819e+001
1	 3.208676508917402e+000	 2.035778427848301e+000	-1.147135472081016e+001
1	 3.186255779292868e+000	 2.070693685541607e+000	-1.121627887901087e+001
1	 3.163428768419997e+000	 2.105401673968605e+000	-1.093494547578226e+001
1	 3.140198256764044e+000	 2.139895402716236e+000	-1.062948053740537e+001
1	 3.116567183423525e+000	 2.174167928788625e+000	-1.030212686961448e+001
1	 3.092538645188554e+000	 2.208212361064393e+000	-9.955241581594455e+000
1	 3.337857837212957e+000	 1.871380202207249e+000	-1.181012749022616e+001
1	 3.317361806222093e+000	 1.907477125238375e+000	-1.171413203382139e+001
1	 3.296445062168671e+000	 1.943401080437388e+000	-1.158528865805760e+001
1	 3.275109597324840e+000	 1.979144857207913e+000	-1.142505137393335e+001
1	 3.253357566201609e+000	 2.014701270165795e+000	-1.123499531329074e+001
1	 3.231191285348421e+000	 2.050063163640193e+000	-1.101681542581135e+001
1	 3.208613233004459e+000	 2.085223416183562e+000	-1.077232495835333e+001
1	 3.185626048600800e+000	 2.120174945084899e+000	-1.050345371730520e+001
1	 3.162232532112769e+000	 2.154910710880527e+000	-1.021224611517979e+001
1	 3.138435643262050e+000	 2.189423721856673e+000	-9.900859003223051e+000
1	 3.114238500568428e+000	 2.223707038538050e+000	-9.571559292365425e+000
1	 3.361115860748503e+000	 1.884419884218392e+000	-1.132944916570574e+001
1	 3.340477014456691e+000	 1.920768328772035e+000	-1.123418001277456e+001
1	 3.319414523595212e+000	 1.956942600262478e+000	-1.110832988399677e+001
1	 3.297930394318245e+000	 1.992935437850285e+000	-1.095327102005885e+001
1	 3.276026796149310e+000	 2.028739606083914e+000	-1.077049052603323e+001
1	 3.253706061779425e+000	 2.064347899432174e+000	-1.056158915596316e+001
1	 3.230970686716002e+000	 2.099753146825645e+000	-1.032827989103699e+001
1	 3.207823328781521e+000	 2.134948216201357e+000	-1.007238631194463e+001
1	 3.184266807461373e+000	 2.169926019045013e+000	-9.795840766528848e+000
1	 3.160304103100417e+000	 2.204679514924937e+000	-9.500682334366221e+000
1	 3.135938355948102e+000	 2.239201716011940e+000	-9.189054590437461e+000
1	 3.384373884284180e+000	 1.897459566229251e+000	-1.084533782667918e+001
1	 3.363592222691413e+000	 1.934059532305448e+000	-1.075144919672793e+001
1	 3.342383985021857e+000	 1.970484120087366e+000	-1.062927622985646e+001
1	 3.320751191311725e+000	 2.006726018492501e+000	-1.048008683303599e+001
1	 3.298696026097039e+000	 2.042777942001923e+000	-1.030525599142785e+001
1	 3.276220838210407e+000	 2.078632635224096e+000	-1.010626467097206e+001
1	 3.253328140427467e+000	 2.114282877467717e+000	-9.884698528875743e+000
1	 3.230020608962105e+000	 2.149721487317850e+000	-9.642246432476608e+000
1	 3.206301082809781e+000	 2.184941327209573e+000	-9.380698787437314e+000
1	 3.182172562938526e+000	 2.219935307993310e+000	-9.101945676713566e+000
1	 3.157638211327462e+000	 2.254696393485963e+000	-8.807974812225965e+000
1	 3.407631907820056e+000	 1.910499248239640e+000	-1.035825359516708e+001
1	 3.386707430926326e+000	 1.947350735838436e+000	-1.026646085095442e+001
1	 3.365353446448659e+000	 1.984025639911878e+000	-1.014869031874232e+001
1	 3.343571988305312e+000	 2.020516599134396e+000	-1.000608346848261e+001
1	 3.321365256044816e+000	 2.056816277919669e+000	-9.839879552616532e+000
1	 3.298735614641365e+000	 2.092917371015812e+000	-9.651414656757455e+000
1	 3.275685594138827e+000	 2.128812608109640e+000	-9.442120575619097e+000
1	 3.252217889142500e+000	 2.164494758434246e+000	-9.213523514507321e+000
1	 3.228335358157913e+000	 2.199956635374086e+000	-8.967242617132264e+000
1	 3.204041022776280e+000	 2.235191101061679e+000	-8.704988320938007e+000
1	 3.179338066706392e+000	 2.270191070960018e+000	-8.428560541590256e+000
1	 3.430889931356198e+000	 1.923538930249378e+000	-9.868644116510586e+000
1	 3.409822639161488e+000	 1.960641939370820e+000	-9.779722106085529e+000
1	 3.388322907875672e+000	 1.997567159735842e+000	-9.667119517658080e+000
1	 3.366392785299044e+000	 2.034307179775804e+000	-9.531829728480641e+000
1	 3.344034485992657e+000	 2.070854613836993e+000	-9.374933112772082e+000
1	 3.321250391072290e+000	 2.107202106807173e+000	-9.197596270273309e+000
1	 3.298043047850050e+000	 2.143342338751271e+000	-9.001071100396368e+000
1	 3.274415169322649e+000	 2.179268029550415e+000	-8.786693722094931e+000
1	 3.250369633505694e+000	 2.214971943538432e+000	-8.555883239968170e+000
1	 3.225909482613576e+000	 2.250446894129934e+000	-8.310140357498140e+000
1	 3.201037922084772e+000	 2.285685748434004e+000	-8.051045838711771e+000
1	 2.984039368290266e+000	 2.130738973703105e+000	-1.188215644802244e+001
1	 2.960473470602511e+000	 2.163362296908118e+000	-1.143601834388748e+001
1	 2.936530476140903e+000	 2.195752392999228e+000	-1.098497586533603e+001
1	 2.912213817674248e+000	 2.227902783885794e+000	-1.052865608546609e+001
1	 2.887527075140474e+000	 2.259807058363652e+000	-1.006665811056014e+001
1	 2.862473974030363e+000	 2.291458876269918e+000	-9.598553822020207e+000
1	 2.837058383631288e+000	 2.322851972591213e+000	-9.123888675400844e+000
1	 2.811284315132539e+000	 2.353980161519819e+000	-8.642182555130720e+000
1	 2.785155919594004e+000	 2.384837340452332e+000	-8.152930683359742e+000
1	 2.758677485780279e+000	 2.415417493925475e+000	-7.655604581216776e+000
1	 2.731853437862469e+000	 2.445714697483801e+000	-7.149653080618047e+000
1	 3.005739223669391e+000	 2.146233651174094e+000	-1.149654989378264e+001
1	 2.982001955396933e+000	 2.179094210322679e+000	-1.106730027635656e+001
1	 2.957884848112856e+000	 2.211719846336016e+000	-1.063346236732524e+001
1	 2.933391359548965e+000	 2.244104034014960e+000	-1.019449898084604e+001
1	 2.908525095676397e+000	 2.276240315533232e+000	-9.749839344608494e+000
1	 2.883289809077596e+000	 2.308122304622443e+000	-9.298880138492267e+000
1	 2.857689397177288e+000	 2.339743690710203e+000	-8.840986601888043e+000
1	 2.831727900334018e+000	 2.371098243005754e+000	-8.375493707680604e+000
1	 2.805409499794067e+000	 2.402179814527716e+000	-7.901707400705312e+000
1	 2.778738515509805e+000	 2.432982346068520e+000	-7.418905898309159e+000
1	 2.751719403824789e+000	 2.463499870090225e+000	-6.926341050471861e+000
1	 3.027439079048901e+000	 2.161728328645818e+000	-1.111077423854479e+001
1	 3.003530440191761e+000	 2.194826123737928e+000	-1.069888881306417e+001
1	 2.979239220085216e+000	 2.227687299673442e+000	-1.028253702405254e+001
1	 2.954568901424073e+000	 2.260305284144704e+000	-9.861046370562363e+000
1	 2.929523116212681e+000	 2.292673572703324e+000	-9.433706480894267e+000
1	 2.904105644125149e+000	 2.324785732975416e+000	-8.999770400496196e+000
1	 2.878320410723559e+000	 2.356635408829572e+000	-8.558455957511423e+000
1	 2.852171485535715e+000	 2.388216324492002e+000	-8.108947203470942e+000
1	 2.825663079994292e+000	 2.419522288603349e+000	-7.650395926415590e+000
1	 2.798799545239443e+000	 2.450547198211752e+000	-7.181923233527711e+000
1	 2.771585369787176e+000	 2.481285042696783e+000	-6.702621200155167e+000
1	 3.049138934428674e+000	 2.177223006118176e+000	-1.072511437183371e+001
1	 3.025058924986865e+000	 2.210558037153778e+000	-1.033095287367605e+001
1	 3.000593592057848e+000	 2.243654753011425e+000	-9.932272129374422e+000
1	 2.975746443299435e+000	 2.276506534274954e+000	-9.528292607427876e+000
1	 2.950521136749184e+000	 2.309106829873869e+000	-9.118193937270851e+000
1	 2.924921479172883e+000	 2.341449161328783e+000	-8.701116399535300e+000
1	 2.898951424269965e+000	 2.373527126949274e+000	-8.276162500393673e+000
1	 2.872615070737500e+000	 2.405334405978519e+000	-7.842398627067675e+000
1	 2.845916660194561e+000	 2.436864762679191e+000	-7.398856781356661e+000
1	 2.818860574969084e+000	 2.468112050355137e+000	-6.944536387818173e+000
1	 2.791451335749533e+000	 2.499070215303443e+000	-6.478406173020047e+000
1	 3.070838789808597e+000	 2.192717683591068e+000	-1.033984713057104e+001
1	 3.046587409782116e+000	 2.226289950570137e+000	-9.963656603224539e+000
1	 3.021947964030613e+000	 2.259622206349883e+000	-9.582737933710705e+000
1	 2.996923985174902e+000	 2.292707784405640e+000	-9.196232203876944e+000
1	 2.971519157285764e+000	 2.325540087044802e+000	-8.803237985317331e+000
1	 2.945737314220657e+000	 2.358112589682488e+000	-8.402812985702379e+000
1	 2.919582437816374e+000	 2.390418845069261e+000	-7.993975783098891e+000
1	 2.893058655939246e+000	 2.422452487465266e+000	-7.575707645040922e+000
1	 2.866170240394755e+000	 2.454207236755210e+000	-7.146954428870791e+000
1	 2.838921604698616e+000	 2.485676902498641e+000	-6.706628559637315e+000
1	 2.811317301711755e+000	 2.516855387910169e+000	-6.253611081615768e+000
1	 3.092538645188554e+000	 2.208212361064393e+000	-9.955241581594455e+000
1	 3.068115894577388e+000	 2.242021863986914e+000	-9.597159539622858e+000
1	 3.043302336003374e+000	 2.275589659688736e+000	-9.234002715736745e+000
1	 3.018101527050339e+000	 2.308909034536690e+000	-8.864859826365702e+000
1	 2.992517177822280e+000	 2.341973344216064e+000	-8.488776685301934e+000
1	 2.966553149268331e+000	 2.374776018036477e+000	-8.104757960371511e+000
1	 2.940213451362647e+000	 2.407310563189484e+000	-7.711769019507561e+000
1	 2.913502241140828e+000	 2.439570568952202e+000	-7.308737862750948e+000
1	 2.886423820594753e+000	 2.471549710831363e+000	-6.894557136457555e+000
1	 2.858982634427930e+000	 2.503241754642231e+000	-6.468086225753986e+000
1	 2.831183267673744e+000	 2.534640560516928e+000	-6.028153421059027e+000
1	 3.114238500568428e+000	 2.223707038538050e+000	-9.571559292365425e+000
1	 3.089644379372549e+000	 2.257753777404020e+000	-9.231616774175933e+000
1	 3.064656707975995e+000	 2.291557113027905e+000	-8.886132851078610e+000
1	 3.039279068925602e+000	 2.325110284668035e+000	-8.534170290005623e+000
1	 3.013515198358589e+000	 2.358406601387590e+000	-8.174749823864502e+000
1	 2.987368984315768e+000	 2.391439446390696e+000	-7.806851973376202e+000
1	 2.960844464908652e+000	 2.424202281309898e+000	-7.429418957257111e+000
1	 2.933945826342113e+000	 2.456688650439283e+000	-7.041356687121787e+000
1	 2.906677400794436e+000	 2.488892184907616e+000	-6.641536843238182e+000
1	 2.879043664156916e+000	 2.520806606785870e+000	-6.228799027033468e+000
1	 2.851049233635401e+000	 2.552425733123689e+000	-5.801952986025935e+000
1	 3.135938355948102e+000	 2.239201716011940e+000	-9.189054590437461e+000
1	 3.111172864167472e+000	 2.273485690821364e+000	-8.867179105427093e+000
1	 3.086011079948337e+000	 2.307524566367307e+000	-8.539192878155946e+000
1	 3.060456610800552e+000	 2.341311534799600e+000	-8.204158553420564e+000
1	 3.034513218894551e+000	 2.374839858559317e+000	-7.861098854286539e+000
1	 3.008184819362824e+000	 2.408102874745090e+000	-7.508998424456438e+000
1	 2.981475478454253e+000	 2.441093999430454e+000	-7.146805755478833e+000
1	 2.954389411542977e+000	 2.473806731926469e+000	-6.773435195112209e+000
1	 2.926930980993685e+000	 2.506234658983931e+000	-6.387769032922170e+000
1	 2.899104693885465e+000	 2.538371458929527e+000	-5.988659658964087e+000
1	 2.870915199596624e+000	 2.570210905730416e+000	-5.574931791190288e+000
1	 3.157638211327462e+000	 2.254696393485963e+000	-8.807974812225965e+000
1	 3.132701348962026e+000	 2.289217604238856e+000	-8.503993186661122e+000
1	 3.107365451920266e+000	 2.323492019706863e+000	-8.193245561310029e+000
1	 3.081634152675045e+000	 2.357512784931316e+000	-7.874819713815191e+000
1	 3.055511239430021e+000	 2.391273115731184e+000	-7.547766839223599e+000
1	 3.029000654409364e+000	 2.424766303099606e+000	-7.211103368769494e+000
1	 3.002106491999318e+000	 2.457985717551106e+000	-6.863812867575704e+000
1	 2.974832996743292e+000	 2.490924813413718e+000	-6.504848007609993e+000
1	 2.947184561192381e+000	 2.523577133060271e+000	-6.133132612012171e+000
1	 2.919165723613464e+000	 2.555936311073164e+000	-5.747563766697484e+000
1	 2.890781165557315e+000	 2.587996078337078e+000	-5.347013994942458e+000
1	 3.179338066706392e+000	 2.270191070960018e+000	-8.428560541590258e+000
1	 3.154229833756086e+000	 2.304949517656405e+000	-8.142201667367003e+000
1	 3.128719823891644e+000	 2.339459473046494e+000	-7.848351951346730e+000
1	 3.102811694548940e+000	 2.373714035063113e+000	-7.546149002246056e+000
1	 3.076509259964860e+000	 2.407706372903129e+000	-7.234698395783464e+000
1	 3.049816489455246e+000	 2.441429731454187e+000	-6.913075426270096e+000
1	 3.022737505543708e+000	 2.474877435671805e+000	-6.580326928801016e+000
1	 2.995276581942927e+000	 2.508042894900989e+000	-6.235473168490560e+000
1	 2.967438141390402e+000	 2.540919607136599e+000	-5.877509792996440e+000
1	 2.939226753340806e+000	 2.573501163216749e+000	-5.505409844387422e+000
1	 2.910647131517372e+000	 2.605781250943639e+000	-5.118125826232149e+000
1	 3.201037922084772e+000	 2.285685748434004e+000	-8.051045838711771e+000
1	 3.175758318549517e+000	 2.320681431073920e+000	-7.781943328946550e+000
1	 3.150074195862331e+000	 2.355426926386116e+000	-7.504571443616648e+000
1	 3.123989236422097e+000	 2.389915285194917e+000	-7.218141779084378e+000
1	 3.097507280498922e+000	 2.424139630075088e+000	-6.921839642837758e+000
1	 3.070632324500330e+000	 2.458093159808781e+000	-6.614825694776617e+000
1	 3.043368519087291e+000	 2.491769153792504e+000	-6.296237648409304e+000
1	 3.015720167141756e+000	 2.525160976388238e+000	-5.965192028594663e+000
1	 2.987691721587631e+000	 2.558262081212876e+000	-5.620785982292348e+000
1	 2.959287783067377e+000	 2.591066015360246e+000	-5.262099138622773e+000
1	 2.930513097476696e+000	 2.623566423550066e+000	-4.888195514386703e+000
1	 2.731853437862469e+000	 2.445714697483801e+000	-7.149653080618047e+000
1	 2.704692433297279e+000	 2.475718642763606e+000	-6.638089898905029e+000
1	 2.677195161938863e+000	 2.505428168867732e+000	-6.124643734728684e+000
1	 2.649366439270082e+000	 2.534837651707582e+000	-5.610048756381979e+000
1	 2.621211205591807e+000	 2.563941572878231e+000	-5.095037777579382e+000
1	 2.592734523104852e+000	 2.592734523104852e+000	-4.580341303652837e+000
1	 2.563941572878231e+000	 2.621211205591807e+000	-4.066686581204487e+000
1	 2.534837651707581e+000	 2.649366439270081e+000	-3.554796653081507e+000
1	 2.505428168867732e+000	 2.677195161938863e+000	-3.045389420526746e+000
1	 2.475718642763605e+000	 2.704692433297279e+000	-2.539176714339973e+000
1	 2.445714697483802e+000	 2.731853437862469e+000	-2.036863376862365e+000
1	 2.751719403824789e+000	 2.463499870090225e+000	-6.926341050471861e+000
1	 2.724360885152517e+000	 2.493722003266977e+000	-6.427087689454189e+000
1	 2.696663654363745e+000	 2.523647576259597e+000	-5.925209881591522e+000
1	 2.668632561959409e+000	 2.553270924081258e+000	-5.421650687890417e+000
1	 2.640272584166119e+000	 2.582586488197333e+000	-4.917355206269736e+000
1	 2.611588819996889e+000	 2.611588819996888e+000	-4.413269220600259e+000
1	 2.582586488197333e+000	 2.640272584166119e+000	-3.910337847439457e+000
1	 2.553270924081256e+000	 2.668632561959408e+000	-3.409504183187168e+000
1	 2.523647576259597e+000	 2.696663654363745e+000	-2.911707954388811e+000
1	 2.493722003266977e+000	 2.724360885152517e+000	-2.417884173904647e+000
1	 2.463499870090225e+000	 2.751719403824789e+000	-1.928961805648761e+000
1	 2.771585369787176e+000	 2.481285042696783e+000	-6.702621200155167e+000
1	 2.744029337007786e+000	 2.511725363770436e+000	-6.215695628473860e+000
1	 2.716132146788635e+000	 2.541866983651511e+000	-5.725567491855848e+000
1	 2.687898684648724e+000	 2.571704196454953e+000	-5.233353837530934e+000
1	 2.659333962740416e+000	 2.601231403516437e+000	-4.740176659038589e+000
1	 2.630443116888912e+000	 2.630443116888912e+000	-4.247161209176041e+000
1	 2.601231403516437e+000	 2.659333962740415e+000	-3.755434305673406e+000
1	 2.571704196454952e+000	 2.687898684648725e+000	-3.266122633052420e+000
1	 2.541866983651512e+000	 2.716132146788636e+000	-2.780351044136151e+000
1	 2.511725363770435e+000	 2.744029337007786e+000	-2.299240864679409e+000
1	 2.481285042696783e+000	 2.771585369787176e+000	-1.823908204579866e+000
1	 2.791451335749533e+000	 2.499070215303443e+000	-6.478406173020047e+000
1	 2.763697788862998e+000	 2.529728724273948e+000	-6.003861658445121e+000
1	 2.735600639213451e+000	 2.560086391043440e+000	-5.525692197770809e+000
1	 2.707164807337962e+000	 2.590137468828627e+000	-5.045154672564820e+000
1	 2.678395341314634e+000	 2.619876318835490e+000	-4.563513344824204e+000
1	 2.649297413780869e+000	 2.649297413780869e+000	-4.082037894128438e+000
1	 2.619876318835491e+000	 2.678395341314634e+000	-3.602001443336668e+000
1	 2.590137468828628e+000	 2.707164807337962e+000	-3.124678576886813e+000
1	 2.560086391043440e+000	 2.735600639213451e+000	-2.651343355775591e+000
1	 2.529728724273947e+000	 2.763697788862998e+000	-2.183267333307263e+000
1	 2.499070215303442e+000	 2.791451335749532e+000	-1.721717575696596e+000
1	 2.811317301711755e+000	 2.516855387910169e+000	-6.253611081615769e+000
1	 2.783366240718062e+000	 2.547732084777479e+000	-5.791535193291559e+000
1	 2.755069131638113e+000	 2.578305798435343e+000	-5.325560320357161e+000
1	 2.726430930027048e+000	 2.608570741202241e+000	-4.857049760108661e+000
1	 2.697456719888714e+000	 2.638521234154451e+000	-4.387376155736211e+000
1	 2.668151710672706e+000	 2.668151710672706e+000	-3.917919317232637e+000
1	 2.638521234154452e+000	 2.697456719888714e+000	-3.450064027439312e+000
1	 2.608570741202240e+000	 2.726430930027047e+000	-2.985197837761091e+000
1	 2.578305798435343e+000	 2.755069131638112e+000	-2.524708858111688e+000
1	 2.547732084777478e+000	 2.783366240718062e+000	-2.069983545665772e+000
1	 2.516855387910169e+000	 2.811317301711755e+000	-1.622404496996447e+000
1	 2.831183267673744e+000	 2.534640560516928e+000	-6.028153421059027e+000
1	 2.803034692572887e+000	 2.565735445280995e+000	-5.578667066754831e+000
1	 2.774537624062540e+000	 2.596525205827184e+000	-5.125148845242322e+000
1	 2.745697052715913e+000	 2.627004013575751e+000	-4.669035763631100e+000
1	 2.716518098462591e+000	 2.657166149473270e+000	-4.211775678171422e+000
1	 2.687006007564368e+000	 2.687006007564368e+000	-3.754824957743866e+000
1	 2.657166149473270e+000	 2.716518098462591e+000	-3.299646129846531e+000
1	 2.627004013575750e+000	 2.745697052715913e+000	-2.847705513960233e+000
1	 2.596525205827185e+000	 2.774537624062540e+000	-2.400470847207695e+000
1	 2.565735445280996e+000	 2.803034692572888e+000	-1.959408907242699e+000
1	 2.534640560516928e+000	 2.831183267673744e+000	-1.525983137310714e+000
1	 2.851049233635401e+000	 2.552425733123689e+000	-5.801952986025935e+000
1	 2.822703144427385e+000	 2.583738805784463e+000	-5.365209482928534e+000
1	 2.794006116486655e+000	 2.614744613218929e+000	-4.924435399505680e+000
1	 2.764963175404485e+000	 2.645437285949114e+000	-4.481109439595835e+000
1	 2.735579477036205e+000	 2.675811064791898e+000	-4.036722203464658e+000
1	 2.705860304455802e+000	 2.705860304455801e+000	-3.592773751995485e+000
1	 2.675811064791898e+000	 2.735579477036205e+000	-3.150771151497349e+000
1	 2.645437285949114e+000	 2.764963175404485e+000	-2.712226004234835e+000
1	 2.614744613218929e+000	 2.794006116486654e+000	-2.278651969823633e+000
1	 2.583738805784463e+000	 2.822703144427385e+000	-1.851562282659879e+000
1	 2.552425733123689e+000	 2.851049233635401e+000	-1.432467270559789e+000
1	 2.870915199596624e+000	 2.570210905730416e+000	-5.574931791190288e+000
1	 2.842371596281464e+000	 2.601742166287846e+000	-5.151115968845992e+000
1	 2.813474608910373e+000	 2.632964020610537e+000	-4.723398229485079e+000
1	 2.784229298092693e+000	 2.663870558322291e+000	-4.293267634244204e+000
1	 2.754640855609494e+000	 2.694455980110292e+000	-3.862225738097641e+000
1	 2.724714601346952e+000	 2.724714601346950e+000	-3.431784112183333e+000
1	 2.694455980110293e+000	 2.754640855609494e+000	-3.003461845617734e+000
1	 2.663870558322291e+000	 2.784229298092693e+000	-2.578783032004100e+000
1	 2.632964020610537e+000	 2.813474608910373e+000	-2.159274245881265e+000
1	 2.601742166287846e+000	 2.842371596281464e+000	-1.746462014386492e+000
1	 2.570210905730416e+000	 2.870915199596625e+000	-1.341870289416495e+000
1	 2.890781165557315e+000	 2.587996078337078e+000	-5.347013994942458e+000
1	 2.862040048135035e+000	 2.619745526791112e+000	-4.936341329022674e+000
1	 2.832943101333616e+000	 2.651183428001972e+000	-4.522016179498691e+000
1	 2.803495420780467e+000	 2.682303830695239e+000	-4.105507280510292e+000
1	 2.773702234182394e+000	 2.713100895428402e+000	-3.688296013486667e+000
1	 2.743568898237764e+000	 2.743568898237764e+000	-3.271873944375565e+000
1	 2.713100895428401e+000	 2.773702234182393e+000	-2.857740339976617e+000
1	 2.682303830695240e+000	 2.803495420780468e+000	-2.447399668560801e+000
1	 2.651183428001973e+000	 2.832943101333616e+000	-2.042359090002891e+000
1	 2.619745526791112e+000	 2.862040048135035e+000	-1.644125940680609e+000
1	 2.587996078337078e+000	 2.890781165557315e+000	-1.254205218406180e+000
1	 2.910647131517372e+000	 2.605781250943639e+000	-5.118125826232149e+000
1	 2.881708499988006e+000	 2.637748887294224e+000	-4.720841601860523e+000
1	 2.852411593756304e+000	 2.669402835393198e+000	-4.320268671438012e+000
1	 2.822761543467736e+000	 2.700737103067920e+000	-3.917825395062493e+000
1	 2.792763612754842e+000	 2.731745810746180e+000	-3.514942495369662e+000
1	 2.762423195128184e+000	 2.762423195128184e+000	-3.113060665784998e+000
1	 2.731745810746180e+000	 2.792763612754843e+000	-2.713628158230479e+000
1	 2.700737103067920e+000	 2.822761543467736e+000	-2.318098355325990e+000
1	 2.669402835393198e+000	 2.852411593756304e+000	-1.927927332168037e+000
1	 2.637748887294224e+000	 2.881708499988007e+000	-1.544571412796216e+000
1	 2.605781250943640e+000	 2.910647131517372e+000	-1.169484726470159e+000
1	 2.930513097476696e+000	 2.623566423550066e+000	-4.888195514386704e+000
1	 2.901376951840289e+000	 2.655752247797149e+000	-4.504574017825259e+000
1	 2.871880086178356e+000	 2.687622242784177e+000	-4.118135685191074e+000
1	 2.842027666154427e+000	 2.719170375440287e+000	-3.730219075465239e+000
1	 2.811824991326779e+000	 2.750390726063579e+000	-3.342174392811387e+000
1	 2.781277492018158e+000	 2.781277492018158e+000	-2.955361221338801e+000
1	 2.750390726063578e+000	 2.811824991326778e+000	-2.571146240399755e+000
1	 2.719170375440287e+000	 2.842027666154426e+000	-2.190900925198599e+000
1	 2.687622242784177e+000	 2.871880086178356e+000	-1.815999237529893e+000
1	 2.655752247797149e+000	 2.901376951840288e+000	-1.447815311490119e+000
1	 2.623566423550066e+000	 2.930513097476694e+000	-1.087721139018290e+000
1	 2.445714697483802e+000	 2.731853437862469e+000	-2.036863376862365e+000
1	 2.415417493925476e+000	 2.758677485780278e+000	-1.544436384629938e+000
1	 2.384837340452332e+000	 2.785155919594005e+000	-1.067064475706444e+000
1	 2.353980161519820e+000	 2.811284315132540e+000	-6.039915294741560e-001
1	 2.322851972591212e+000	 2.837058383631288e+000	-1.544588473454895e-001
1	 2.291458876269918e+000	 2.862473974030362e+000	 2.822935117935471e-001
1	 2.259807058363652e+000	 2.887527075140474e+000	 7.070254049896166e-001
1	 2.227902783885794e+000	 2.912213817674249e+000	 1.120495290214877e+000
1	 2.195752392999227e+000	 2.936530476140903e+000	 1.523458925633459e+000
1	 2.163362296908118e+000	 2.960473470602511e+000	 1.916668085773045e+000
1	 2.130738973703105e+000	 2.984039368290266e+000	 2.300869297168550e+000
1	 2.463499870090225e+000	 2.751719403824789e+000	-1.928961805648763e+000
1	 2.432982346068520e+000	 2.778738515509805e+000	-1.451118280201011e+000
1	 2.402179814527717e+000	 2.805409499794068e+000	-9.893867934492181e-001
1	 2.371098243005754e+000	 2.831727900334018e+000	-5.427518551422716e-001
1	 2.339743690710204e+000	 2.857689397177288e+000	-1.101941434648226e-001
1	 2.308122304622443e+000	 2.883289809077596e+000	 3.093076661639570e-001
1	 2.276240315533231e+000	 2.908525095676397e+000	 7.167750818919916e-001
1	 2.244104034014959e+000	 2.933391359548965e+000	 1.113227989621061e+000
1	 2.211719846336016e+000	 2.957884848112856e+000	 1.499682864304566e+000
1	 2.179094210322679e+000	 2.982001955396933e+000	 1.877151002012449e+000
1	 2.146233651174095e+000	 3.005739223669392e+000	 2.246636776338858e+000
1	 2.481285042696783e+000	 2.771585369787176e+000	-1.823908204579865e+000
1	 2.450547198211751e+000	 2.798799545239443e+000	-1.360675699170465e+000
1	 2.419522288603349e+000	 2.825663079994292e+000	-9.144493196484705e-001
1	 2.388216324492002e+000	 2.852171485535715e+000	-4.839974906265258e-001
1	 2.356635408829572e+000	 2.878320410723559e+000	-6.808335323713370e-002
1	 2.324785732975417e+000	 2.904105644125149e+000	 3.345329865267997e-001
1	 2.292673572703324e+000	 2.929523116212680e+000	 7.250922190168099e-001
1	 2.260305284144704e+000	 2.954568901424074e+000	 1.104833606362393e+000
1	 2.227687299673442e+000	 2.979239220085217e+000	 1.474992776750866e+000
1	 2.194826123737930e+000	 3.003530440191762e+000	 1.836799542091973e+000
1	 2.161728328645818e+000	 3.027439079048901e+000	 2.191475743512394e+000
1	 2.499070215303442e+000	 2.791451335749532e+000	-1.721717575696596e+000
1	 2.468112050355138e+000	 2.818860574969083e+000	-1.273117516530913e+000
1	 2.436864762679192e+000	 2.845916660194561e+000	-8.422539204493921e-001
1	 2.405334405978519e+000	 2.872615070737500e+000	-4.277214845568136e-001
1	 2.373527126949274e+000	 2.898951424269965e+000	-2.810797569109576e-002
1	 2.341449161328784e+000	 2.924921479172883e+000	 3.580031745813708e-001
1	 2.309106829873869e+000	 2.950521136749184e+000	 7.320302836642911e-001
1	 2.276506534274954e+000	 2.975746443299434e+000	 1.095390845757653e+000
1	 2.243654753011425e+000	 3.000593592057848e+000	 1.449498979176448e+000
1	 2.210558037153777e+000	 3.025058924986865e+000	 1.795762898440473e+000
1	 2.177223006118176e+000	 3.049138934428674e+000	 2.135582416313345e+000
1	 2.516855387910169e+000	 2.811317301711755e+000	-1.622404496996447e+000
1	 2.485676902498641e+000	 2.838921604698616e+000	-1.188452356416876e+000
1	 2.454207236755210e+000	 2.866170240394754e+000	-7.728024092491050e-001
1	 2.422452487465267e+000	 2.893058655939247e+000	-3.739170820482308e-001
1	 2.390418845069261e+000	 2.919582437816373e+000	 9.749967201839573e-003
1	 2.358112589682489e+000	 2.945737314220657e+000	 3.797509794249254e-001
1	 2.325540087044803e+000	 2.971519157285764e+000	 7.376412318438417e-001
1	 2.292707784405640e+000	 2.996923985174902e+000	 1.084976188464456e+000
1	 2.259622206349883e+000	 3.021947964030614e+000	 1.423308669620309e+000
1	 2.226289950570137e+000	 3.046587409782117e+000	 1.754186046457872e+000
1	 2.192717683591068e+000	 3.070838789808597e+000	 2.079147466136549e+000
1	 2.534640560516928e+000	 2.831183267673744e+000	-1.525983137310713e+000
1	 2.503241754642232e+000	 2.858982634427929e+000	-1.106688600905945e+000
1	 2.471549710831364e+000	 2.886423820594752e+000	-7.060965485472327e-001
1	 2.439570568952202e+000	 2.913502241140828e+000	-3.225777178074998e-001
1	 2.407310563189484e+000	 2.940213451362647e+000	 4.550794887444178e-002
1	 2.374776018036477e+000	 2.966553149268331e+000	 3.998082309738618e-001
1	 2.341973344216064e+000	 2.992517177822279e+000	 7.419755612966716e-001
1	 2.308909034536690e+000	 3.018101527050339e+000	 1.073663968529816e+000
1	 2.275589659688735e+000	 3.043302336003374e+000	 1.396526037354699e+000
1	 2.242021863986915e+000	 3.068115894577389e+000	 1.712209892466049e+000
1	 2.208212361064393e+000	 3.092538645188554e+000	 2.022356212732519e+000
1	 2.552425733123689e+000	 2.851049233635401e+000	-1.432467270559788e+000
1	 2.520806606785871e+000	 2.879043664156916e+000	-1.027834398451975e+000
1	 2.488892184907616e+000	 2.906677400794436e+000	-6.421380517191748e-001
1	 2.456688650439283e+000	 2.933945826342114e+000	-2.736970095276853e-001
1	 2.424202281309897e+000	 2.960844464908653e+000	 7.918295574370941e-002
1	 2.391439446390696e+000	 2.987368984315767e+000	 4.182058719878349e-001
1	 2.358406601387589e+000	 3.013515198358590e+000	 7.450823623013120e-001
1	 2.325110284668035e+000	 3.039279068925603e+000	 1.061526448177395e+000
1	 2.291557113027904e+000	 3.064656707975995e+000	 1.369252367709764e+000
1	 2.257753777404020e+000	 3.089644379372550e+000	 1.669971415474721e+000
1	 2.223707038538050e+000	 3.114238500568427e+000	 1.965388810657443e+000
1	 2.570210905730416e+000	 2.870915199596625e+000	-1.341870289416495e+000
1	 2.538371458929527e+000	 2.899104693885464e+000	-9.518976719681345e-001
1	 2.506234658983932e+000	 2.926930980993684e+000	-5.809285847157767e-001
1	 2.473806731926469e+000	 2.954389411542978e+000	-2.272687515571042e-001
1	 2.441093999430454e+000	 2.981475478454254e+000	 1.107915040609788e-001
1	 2.408102874745091e+000	 3.008184819362825e+000	 4.349739887641894e-001
1	 2.374839858559317e+000	 3.034513218894551e+000	 7.470093663700447e-001
1	 2.341311534799600e+000	 3.060456610800551e+000	 1.048633889489927e+000
1	 2.307524566367308e+000	 3.086011079948339e+000	 1.341586142546080e+000
1	 2.273485690821364e+000	 3.111172864167472e+000	 1.627603803061033e+000
1	 2.239201716011941e+000	 3.135938355948102e+000	 1.908420427981915e+000
1	 2.587996078337078e+000	 2.890781165557315e+000	-1.254205218406180e+000
1	 2.555936311073165e+000	 2.919165723613464e+000	-8.788861265767379e-001
1	 2.523577133060271e+000	 2.947184561192380e+000	-5.224697676928393e-001
1	 2.490924813413718e+000	 2.974832996743292e+000	-1.832869088292587e-001
1	 2.457985717551105e+000	 3.002106491999317e+000	 1.403496560672046e-001
1	 2.424766303099606e+000	 3.029000654409364e+000	 4.501418405667166e-001
1	 2.391273115731185e+000	 3.055511239430021e+000	 7.478029929373103e-001
1	 2.357512784931316e+000	 3.081634152675044e+000	 1.035054623135766e+000
1	 2.323492019706865e+000	 3.107365451920267e+000	 1.313623136584379e+000
1	 2.289217604238855e+000	 3.132701348962026e+000	 1.585236581646628e+000
1	 2.254696393485963e+000	 3.157638211327462e+000	 1.851621417631039e+000
1	 2.605781250943640e+000	 2.910647131517372e+000	-1.169484726470159e+000
1	 2.573501163216749e+000	 2.939226753340805e+000	-8.088072570416504e-001
1	 2.540919607136599e+000	 2.967438141390401e+000	-4.667631765739582e-001
1	 2.508042894900989e+000	 2.995276581942927e+000	-1.417456110414112e-001
1	 2.474877435671805e+000	 3.022737505543709e+000	 1.678730354867446e-001
1	 2.441429731454189e+000	 3.049816489455247e+000	 4.637378878493677e-001
1	 2.407706372903129e+000	 3.076509259964860e+000	 7.475083941361500e-001
1	 2.373714035063113e+000	 3.102811694548940e+000	 1.020855114281121e+000
1	 2.339459473046493e+000	 3.128719823891644e+000	 1.285456509790384e+000
1	 2.304949517656405e+000	 3.154229833756085e+000	 1.542995741439571e+000
1	 2.270191070960018e+000	 3.179338066706392e+000	 1.795157481707921e+000
1	 2.623566423550066e+000	 2.930513097476694e+000	-1.087721139018291e+000
1	 2.591066015360247e+000	 2.959287783067377e+000	-7.416683548983154e-001
1	 2.558262081212877e+000	 2.987691721587632e+000	-4.138103445497248e-001
1	 2.525160976388239e+000	 3.015720167141756e+000	-1.026391470699181e-001
1	 2.491769153792504e+000	 3.043368519087291e+000	 1.933768423908200e-001
1	 2.458093159808781e+000	 3.070632324500330e+000	 4.757898193319050e-001
1	 2.424139630075088e+000	 3.097507280498923e+000	 7.461694977534481e-001
1	 2.389915285194917e+000	 3.123989236422097e+000	 1.006100025821265e+000
1	 2.355426926386115e+000	 3.150074195862330e+000	 1.257176896001987e+000
1	 2.320681431073919e+000	 3.175758318549517e+000	 1.501003856294405e+000
1	 2.285685748434003e+000	 3.201037922084772e+000	 1.739189829133349e+000
1	 2.130738973703105e+000	 2.984039368290266e+000	 2.300869297168550e+000
1	 2.097888963455511e+000	 3.007224884231965e+000	 2.674248710604555e+000
1	 2.064818861901898e+000	 3.030026880021336e+000	 3.032793866792998e+000
1	 2.031535318394141e+000	 3.052442367516636e+000	 3.373992050951967e+000
1	 1.998045032338640e+000	 3.074468510735241e+000	 3.695390935711498e+000
1	 1.964354748895379e+000	 3.096102626762256e+000	 3.994601697815479e+000
1	 1.930471254663603e+000	 3.117342186515054e+000	 4.269302004580277e+000
1	 1.896401373359606e+000	 3.138184815363838e+000	 4.517238865362287e+000
1	 1.862151961492184e+000	 3.158628293608679e+000	 4.736231343666193e+000
1	 1.827729904041205e+000	 3.178670556813624e+000	 4.924173125914054e+000
1	 1.793142110144684e+000	 3.198309695998757e+000	 5.079034943290411e+000
1	 2.146233651174095e+000	 3.005739223669392e+000	 2.246636776338858e+000
1	 2.113144756520816e+000	 3.029093344069806e+000	 2.606882769745338e+000
1	 2.079834170063416e+000	 3.052061155369498e+000	 2.954170122966596e+000
1	 2.046308589507667e+000	 3.074639647697041e+000	 3.285847765354304e+000
1	 2.012574762977862e+000	 3.096825964446623e+000	 3.599324684690731e+000
1	 1.978639484684598e+000	 3.118617403193275e+000	 3.892073322082187e+000
1	 1.944509590579076e+000	 3.140011416462942e+000	 4.161632833622128e+000
1	 1.910191953999462e+000	 3.161005612357592e+000	 4.405612213520023e+000
1	 1.875693481314890e+000	 3.181597755035698e+000	 4.621693273787339e+000
1	 1.841021107572606e+000	 3.201785765048789e+000	 4.807633475977107e+000
1	 1.806181792153683e+000	 3.221567719534899e+000	 4.961268610887350e+000
1	 2.161728328645818e+000	 3.027439079048901e+000	 2.191475743512394e+000
1	 2.128400549586891e+000	 3.050961803907982e+000	 2.538293221022793e+000
1	 2.094849478225728e+000	 3.074095430717927e+000	 2.873853968128827e+000
1	 2.061081860622007e+000	 3.096836927877634e+000	 3.195410020277030e+000
1	 2.027104493617908e+000	 3.119183418158109e+000	 3.500272676716071e+000
1	 1.992924220474648e+000	 3.141132179624304e+000	 3.785816107226943e+000
1	 1.958547926495382e+000	 3.162680646410757e+000	 4.049480824183145e+000
1	 1.923982534640148e+000	 3.183826409351195e+000	 4.288777014199849e+000
1	 1.889235001138423e+000	 3.204567216462507e+000	 4.501287724037618e+000
1	 1.854312311104829e+000	 3.224900973283702e+000	 4.684671895841722e+000
1	 1.819221474163497e+000	 3.244825743070775e+000	 4.836667247224516e+000
1	 2.177223006118176e+000	 3.049138934428674e+000	 2.135582416313345e+000
1	 2.143656342653623e+000	 3.072830263746392e+000	 2.468726162402857e+000
1	 2.109864786388717e+000	 3.096129706066546e+000	 2.792137789101310e+000
1	 2.075855131737029e+000	 3.119034208058360e+000	 3.103013052461007e+000
1	 2.041634224258642e+000	 3.141540871869665e+000	 3.398605719739482e+000
1	 2.007208956265380e+000	 3.163646956055338e+000	 3.676231322407505e+000
1	 1.972586262412363e+000	 3.185349876358512e+000	 3.933270774576551e+000
1	 1.937773115281502e+000	 3.206647206344685e+000	 4.167173850787360e+000
1	 1.902776520962611e+000	 3.227536677889154e+000	 4.375462517510904e+000
1	 1.867603514637696e+000	 3.248016181518426e+000	 4.555734113135568e+000
1	 1.832261156173944e+000	 3.268083766606454e+000	 4.705664371646273e+000
1	 2.192717683591068e+000	 3.070838789808597e+000	 2.079147466136549e+000
1	 2.158912135720905e+000	 3.094698723584940e+000	 2.398420735719088e+000
1	 2.124880094552259e+000	 3.118163981415277e+000	 2.709305708186116e+000
1	 2.090628402852605e+000	 3.141231488239166e+000	 3.008981651210027e+000
1	 2.056163954899921e+000	 3.163898325581260e+000	 3.294684140564888e+000
1	 2.021493692056648e+000	 3.186161732486373e+000	 3.563708894626084e+000
1	 1.986624598329863e+000	 3.208019106306228e+000	 3.813415475891968e+000
1	 1.951563695923357e+000	 3.229468003338097e+000	 4.041230853268386e+000
1	 1.916318040787283e+000	 3.250506139315697e+000	 4.244652819265827e+000
1	 1.880894718171027e+000	 3.271131389753024e+000	 4.421253256680981e+000
1	 1.845300838184841e+000	 3.291341790142000e+000	 4.568681249767457e+000
1	 2.208212361064393e+000	 3.092538645188554e+000	 2.022356212732519e+000
1	 2.174167928788625e+000	 3.116567183423526e+000	 2.327609370723035e+000
1	 2.139895402716236e+000	 3.140198256764045e+000	 2.625633873119875e+000
1	 2.105401673968605e+000	 3.163428768419996e+000	 2.913631489846702e+000
1	 2.070693685541607e+000	 3.186255779292868e+000	 3.188858152570891e+000
1	 2.035778427848301e+000	 3.208676508917402e+000	 3.448627806659970e+000
1	 2.000662934247727e+000	 3.230688336253921e+000	 3.690316133259279e+000
1	 1.965354276565549e+000	 3.252288800331470e+000	 3.911364135146656e+000
1	 1.929859560612265e+000	 3.273475600742184e+000	 4.109281580423029e+000
1	 1.894185921704647e+000	 3.294246597987558e+000	 4.281650298514111e+000
1	 1.858340520196004e+000	 3.314599813677478e+000	 4.426127323385809e+000
1	 2.223707038538050e+000	 3.114238500568427e+000	 1.965388810657443e+000
1	 2.189423721856672e+000	 3.138435643262051e+000	 2.256518018931429e+000
1	 2.154910710880527e+000	 3.162232532112768e+000	 2.541390734905568e+000
1	 2.120174945084899e+000	 3.185626048600800e+000	 2.817269443310935e+000
1	 2.085223416183562e+000	 3.208613233004459e+000	 3.081468208059965e+000
1	 2.050063163640193e+000	 3.231191285348421e+000	 3.331356478355487e+000
1	 2.014701270165795e+000	 3.253357566201609e+000	 3.564362769500573e+000
1	 1.979144857207913e+000	 3.275109597324839e+000	 3.777978212094936e+000
1	 1.943401080437388e+000	 3.296445062168671e+000	 3.969759963695591e+000
1	 1.907477125238376e+000	 3.317361806222094e+000	 4.137334477424307e+000
1	 1.871380202207249e+000	 3.337857837212958e+000	 4.278400622420786e+000
1	 2.239201716011941e+000	 3.135938355948102e+000	 1.908420427981915e+000
1	 2.204679514924937e+000	 3.160304103100417e+000	 2.185366377764471e+000
1	 2.169926019045013e+000	 3.184266807461372e+000	 2.456837314109288e+000
1	 2.134948216201357e+000	 3.207823328781521e+000	 2.720193892572180e+000
1	 2.099753146825645e+000	 3.230970686716001e+000	 2.972845335978610e+000
1	 2.064347899432174e+000	 3.253706061779425e+000	 3.212253132091293e+000
1	 2.028739606083914e+000	 3.276026796149310e+000	 3.435934612023027e+000
1	 1.992935437850286e+000	 3.297930394318246e+000	 3.641466403224549e+000
1	 1.956942600262478e+000	 3.319414523595212e+000	 3.826487751252231e+000
1	 1.920768328772035e+000	 3.340477014456691e+000	 3.988703704908760e+000
1	 1.884419884218392e+000	 3.361115860748503e+000	 4.125888159749356e+000
1	 2.254696393485963e+000	 3.157638211327462e+000	 1.851621417631039e+000
1	 2.219935307993310e+000	 3.182172562938527e+000	 2.114368105442169e+000
1	 2.184941327209573e+000	 3.206301082809782e+000	 2.372227456176599e+000
1	 2.149721487317849e+000	 3.230020608962104e+000	 2.622695016489801e+000
1	 2.114282877467717e+000	 3.253328140427467e+000	 2.863311465712292e+000
1	 2.078632635224096e+000	 3.276220838210407e+000	 3.091666143172490e+000
1	 2.042777942001923e+000	 3.298696026097038e+000	 3.305400463759038e+000
1	 2.006726018492501e+000	 3.320751191311723e+000	 3.502211215809233e+000
1	 1.970484120087366e+000	 3.342383985021857e+000	 3.679853735762990e+000
1	 1.934059532305448e+000	 3.363592222691413e+000	 3.836144954388437e+000
1	 1.897459566229250e+000	 3.384373884284181e+000	 3.968966309761379e+000
1	 2.270191070960018e+000	 3.179338066706392e+000	 1.795157481707921e+000
1	 2.235191101061679e+000	 3.204041022776280e+000	 2.043731027080270e+000
1	 2.199956635374086e+000	 3.228335358157914e+000	 2.287808076293398e+000
1	 2.164494758434245e+000	 3.252217889142498e+000	 2.525055071721381e+000
1	 2.128812608109640e+000	 3.275685594138827e+000	 2.753179737620428e+000
1	 2.092917371015812e+000	 3.298735614641365e+000	 2.969934375875458e+000
1	 2.056816277919669e+000	 3.321365256044816e+000	 3.173119058915665e+000
1	 2.020516599134396e+000	 3.343571988305311e+000	 3.360584714253860e+000
1	 1.984025639911877e+000	 3.365353446448660e+000	 3.530236095430947e+000
1	 1.947350735838436e+000	 3.386707430926326e+000	 3.680034634484933e+000
1	 1.910499248239641e+000	 3.407631907820056e+000	 3.808001171412729e+000
1	 2.285685748434003e+000	 3.201037922084772e+000	 1.739189829133349e+000
1	 2.250446894129934e+000	 3.225909482613576e+000	 1.973657332403564e+000
1	 2.214971943538431e+000	 3.250369633505693e+000	 2.203819394287273e+000
1	 2.179268029550415e+000	 3.274415169322649e+000	 2.427548661245940e+000
1	 2.143342338751272e+000	 3.298043047850051e+000	 2.642754800940667e+000
1	 2.107202106807173e+000	 3.321250391072290e+000	 2.847387505824556e+000
1	 2.070854613836993e+000	 3.344034485992657e+000	 3.039439404254433e+000
1	 2.034307179775804e+000	 3.366392785299043e+000	 3.216948874055893e+000
1	 1.997567159735842e+000	 3.388322907875671e+000	 3.378002753769912e+000
1	 1.960641939370820e+000	 3.409822639161488e+000	 3.520738947114723e+000
1	 1.923538930249378e+000	 3.430889931356199e+000	 3.643348916511342e+000
1	 1.793142110144684e+000	 3.198309695998757e+000	 5.079034943290411e+000
1	 1.758400732415532e+000	 3.217541103571808e+000	 5.202749563202147e+000
1	 1.723507538249754e+000	 3.236366160359109e+000	 5.298782692164420e+000
1	 1.688469482271451e+000	 3.254783426736442e+000	 5.367415499039455e+000
1	 1.653293526122406e+000	 3.272791617828106e+000	 5.408946639888113e+000
1	 1.617986634272130e+000	 3.290389603006430e+000	 5.423691091418774e+000
1	 1.582555769867112e+000	 3.307576405259167e+000	 5.411978982751885e+000
1	 1.547007890623957e+000	 3.324351200427108e+000	 5.374154428002885e+000
1	 1.511349944770983e+000	 3.340713316314455e+000	 5.310574362132971e+000
1	 1.475588867042669e+000	 3.356662231674654e+000	 5.221607382457101e+000
1	 1.439731574731233e+000	 3.372197575074528e+000	 5.107632598133571e+000
1	 1.806181792153683e+000	 3.221567719534899e+000	 4.961268610887352e+000
1	 1.771187776044501e+000	 3.240938977395473e+000	 5.084053921642009e+000
1	 1.736040839493528e+000	 3.259900929498167e+000	 5.179041512464735e+000
1	 1.700747987698722e+000	 3.278452125749841e+000	 5.246474323931490e+000
1	 1.665316232926751e+000	 3.296591271931205e+000	 5.286611926606986e+000
1	 1.629752590292575e+000	 3.314317229192684e+000	 5.299729423439583e+000
1	 1.594064073578511e+000	 3.331629013417208e+000	 5.286116351078154e+000
1	 1.558257691097505e+000	 3.348525794452300e+000	 5.246075582464532e+000
1	 1.522340441605221e+000	 3.365006895213961e+000	 5.179922233002909e+000
1	 1.486319310265352e+000	 3.381071790665133e+000	 5.087982572549098e+000
1	 1.450201264672494e+000	 3.396720106671581e+000	 4.970592945399581e+000
1	 1.819221474163497e+000	 3.244825743070775e+000	 4.836667247224516e+000
1	 1.783974819674280e+000	 3.264336851218890e+000	 4.958265417002284e+000
1	 1.748574140738111e+000	 3.283435698637018e+000	 5.052077688690576e+000
1	 1.713026493126799e+000	 3.302120824763097e+000	 5.118283929445923e+000
1	 1.677338939731900e+000	 3.320390926034239e+000	 5.157080486516962e+000
1	 1.641518546313823e+000	 3.338244855378957e+000	 5.168679193346288e+000
1	 1.605572377290710e+000	 3.355681621575360e+000	 5.153306373396144e+000
1	 1.569507491571854e+000	 3.372700388477689e+000	 5.111201843860457e+000
1	 1.533330938440259e+000	 3.389300474113742e+000	 5.042617921380312e+000
1	 1.497049753488834e+000	 3.405481349655952e+000	 4.947818431828143e+000
1	 1.460670954614553e+000	 3.421242638269016e+000	 4.827077726170299e+000
1	 1.832261156173944e+000	 3.268083766606454e+000	 4.705664371646273e+000
1	 1.796761863304684e+000	 3.287734725042119e+000	 4.825803978368017e+000
1	 1.761107441983310e+000	 3.306970467775714e+000	 4.918305759856994e+000
1	 1.725304998555488e+000	 3.325789523776247e+000	 4.983262173296866e+000
1	 1.689361646537656e+000	 3.344190580137224e+000	 5.020782702152291e+000
1	 1.653284502335674e+000	 3.362172481565244e+000	 5.030993000354641e+000
1	 1.617080681003512e+000	 3.379734229733591e+000	 5.014034031228556e+000
1	 1.580757292046804e+000	 3.396874982503220e+000	 4.970061203089655e+000
1	 1.544321435275896e+000	 3.413594053013718e+000	 4.899243503409913e+000
1	 1.507780196712916e+000	 3.429890908647009e+000	 4.801762633407648e+000
1	 1.471140644557212e+000	 3.445765169866720e+000	 4.677812144875931e+000
1	 1.845300838184841e+000	 3.291341790142000e+000	 4.568681249767455e+000
1	 1.809548906935523e+000	 3.311132598865224e+000	 4.687077665233056e+000
1	 1.773640743228935e+000	 3.330505236914307e+000	 4.778128547741994e+000
1	 1.737583503984593e+000	 3.349458222789323e+000	 4.841815102156000e+000
1	 1.701384353343822e+000	 3.367990234240172e+000	 4.878136790981907e+000
1	 1.665050458357931e+000	 3.386100107751535e+000	 4.887110650644864e+000
1	 1.628588984716718e+000	 3.403786837891867e+000	 4.868770597753813e+000
1	 1.592007092522155e+000	 3.421049576528834e+000	 4.823166727016525e+000
1	 1.555311932111934e+000	 3.437887631913810e+000	 4.750364602444201e+000
1	 1.518510639937398e+000	 3.454300467638206e+000	 4.650444543464203e+000
1	 1.481610334500272e+000	 3.470287701464573e+000	 4.523500907532597e+000
1	 1.858340520196004e+000	 3.314599813677478e+000	 4.426127323385809e+000
1	 1.822335950566611e+000	 3.334530472688268e+000	 4.542483083935254e+000
1	 1.786174044474793e+000	 3.354040006052849e+000	 4.631937567976519e+000
1	 1.749862009413921e+000	 3.373126921802362e+000	 4.694337366033675e+000
1	 1.713407060150203e+000	 3.391789888343100e+000	 4.729549232211183e+000
1	 1.676816414380397e+000	 3.410027733937825e+000	 4.737459606195341e+000
1	 1.640097288430126e+000	 3.427839446050156e+000	 4.717974118752679e+000
1	 1.603256892997709e+000	 3.445224170554476e+000	 4.671017082068891e+000
1	 1.566302428948173e+000	 3.462181210813938e+000	 4.596530966276784e+000
1	 1.529241083162080e+000	 3.478710026629442e+000	 4.494475863522133e+000
1	 1.492080024443531e+000	 3.494810233062459e+000	 4.364828940913040e+000
1	 1.871380202207249e+000	 3.337857837212958e+000	 4.278400622420787e+000
1	 1.835122994197758e+000	 3.357928346511310e+000	 4.392405786681612e+000
1	 1.798707345720694e+000	 3.377574775191389e+000	 4.480113423947867e+000
1	 1.762140514843276e+000	 3.396795620815399e+000	 4.541212615335821e+000
1	 1.725429766956601e+000	 3.415589542446022e+000	 4.575415175740156e+000
1	 1.688582370402873e+000	 3.433955360124103e+000	 4.582455414851515e+000
1	 1.651605592143540e+000	 3.451892054208428e+000	 4.562089873447388e+000
1	 1.614506693473263e+000	 3.469398764580086e+000	 4.514097035945712e+000
1	 1.577292925784412e+000	 3.486474789714023e+000	 4.438277020242887e+000
1	 1.539971526386763e+000	 3.503119585620613e+000	 4.334451245885560e+000
1	 1.502549714386791e+000	 3.519332764660260e+000	 4.202462081650523e+000
1	 1.884419884218392e+000	 3.361115860748503e+000	 4.125888159749355e+000
1	 1.847910037828777e+000	 3.381326220334415e+000	 4.237220654006382e+000
1	 1.811240646966444e+000	 3.401109544329981e+000	 4.323026184348654e+000
1	 1.774419020272465e+000	 3.420464319828468e+000	 4.382813881435585e+000
1	 1.737452473762821e+000	 3.439389196548954e+000	 4.416118834142380e+000
1	 1.700348326425160e+000	 3.457882986310363e+000	 4.422502122539005e+000
1	 1.663113895856761e+000	 3.475944662366649e+000	 4.401550816207614e+000
1	 1.625756493948620e+000	 3.493573358605611e+000	 4.352877938494516e+000
1	 1.588283422620452e+000	 3.510768368613983e+000	 4.276122397355976e+000
1	 1.550701969611245e+000	 3.527529144611625e+000	 4.170948883518664e+000
1	 1.513019404329850e+000	 3.543855296257858e+000	 4.037047736732147e+000
1	 1.897459566229250e+000	 3.384373884284181e+000	 3.968966309761378e+000
1	 1.860697081459480e+000	 3.404724094157645e+000	 4.077292261459442e+000
1	 1.823773948211853e+000	 3.424644313468674e+000	 4.161035745158583e+000
1	 1.786697525701294e+000	 3.444133018841604e+000	 4.219503941552838e+000
1	 1.749475180568665e+000	 3.463188850651911e+000	 4.252033858481352e+000
1	 1.712114282447062e+000	 3.481810612496596e+000	 4.257992668479985e+000
1	 1.674622199569589e+000	 3.499997270524787e+000	 4.236778000043606e+000
1	 1.637006294423581e+000	 3.517747952630995e+000	 4.187818182760900e+000
1	 1.599273919456093e+000	 3.535061947513741e+000	 4.110572446585311e+000
1	 1.561432412835328e+000	 3.551938703602373e+000	 4.004531075603470e+000
1	 1.523489094272510e+000	 3.568377827855136e+000	 3.869215516758161e+000
1	 1.910499248239641e+000	 3.407631907820056e+000	 3.808001171412729e+000
1	 1.873484125089679e+000	 3.428121967981062e+000	 3.912975231277991e+000
1	 1.836307249456730e+000	 3.448179082607521e+000	 3.994492176802129e+000
1	 1.798976031129568e+000	 3.467801717854845e+000	 4.051635668691390e+000
1	 1.761497887373937e+000	 3.486988504754906e+000	 4.083523698736594e+000
1	 1.723880238468380e+000	 3.505738238682794e+000	 4.089309264224805e+000
1	 1.686130503281826e+000	 3.524049878682808e+000	 4.068180982756407e+000
1	 1.648256094897945e+000	 3.541922546656179e+000	 4.019363647157316e+000
1	 1.610264416291135e+000	 3.559355526413215e+000	 3.942118720318630e+000
1	 1.572162856058811e+000	 3.576348262592755e+000	 3.835744769937072e+000
1	 1.533958784214570e+000	 3.592900359451976e+000	 3.699577843268068e+000
1	 1.923538930249378e+000	 3.430889931356199e+000	 3.643348916511342e+000
1	 1.886271168719185e+000	 3.451519841804724e+000	 3.744614569754445e+000
1	 1.848840550700881e+000	 3.471713851746570e+000	 3.823736057186161e+000
1	 1.811254536557092e+000	 3.491470416868223e+000	 3.879552367342605e+000
1	 1.773520594178441e+000	 3.510788158857956e+000	 3.910941949569800e+000
1	 1.735646194488917e+000	 3.529665864868950e+000	 3.916823757266730e+000
1	 1.697638806993271e+000	 3.548102486840682e+000	 3.896158216568446e+000
1	 1.659505895371513e+000	 3.566097140681105e+000	 3.847948119647010e+000
1	 1.621254913125377e+000	 3.583649105312324e+000	 3.771239441997809e+000
1	 1.582893299281493e+000	 3.600757821582674e+000	 3.665122083267343e+000
1	 1.544428474155829e+000	 3.617422891048259e+000	 3.528730531364480e+000
1	 1.439731574731233e+000	 3.372197575074528e+000	 5.107632598133571e+000
1	 1.403779565205173e+000	 3.387321361489601e+000	 4.960723787192687e+000
1	 1.367745085892707e+000	 3.402031155838170e+000	 4.770426956204609e+000
1	 1.331634983434178e+000	 3.416327030840312e+000	 4.533401187283499e+000
1	 1.295456071785157e+000	 3.430209203416529e+000	 4.246470113101538e+000
1	 1.259215128608840e+000	 3.443678032987045e+000	 3.906625168209975e+000
1	 1.222918891747823e+000	 3.456734019669561e+000	 3.511028505244727e+000
1	 1.186574055778320e+000	 3.469377802379238e+000	 3.057015576285672e+000
1	 1.150187268649676e+000	 3.481610156834798e+000	 2.542097380438700e+000
1	 1.113765128411843e+000	 3.493431993474643e+000	 1.963962379487173e+000
1	 1.077314180033310e+000	 3.504844355287081e+000	 1.320478084213588e+000
1	 1.450201264672494e+000	 3.396720106671581e+000	 4.970592945399581e+000
1	 1.413987813083974e+000	 3.411953872861664e+000	 4.820737519449238e+000
1	 1.377691291990982e+000	 3.426770636445832e+000	 4.629162406814658e+000
1	 1.341318597822436e+000	 3.441170470672980e+000	 4.392915580792988e+000
1	 1.304876594084804e+000	 3.455153594041044e+000	 4.109207757977837e+000
1	 1.268372107728261e+000	 3.468720368583945e+000	 3.775415049267166e+000
1	 1.231811925592805e+000	 3.481871298056221e+000	 3.389081289328230e+000
1	 1.195202790937426e+000	 3.494607026019214e+000	 2.947920045708688e+000
1	 1.158551400055167e+000	 3.506928333832645e+000	 2.449816309529080e+000
1	 1.121864398976819e+000	 3.518836138555602e+000	 1.892827870414340e+000
1	 1.085148380265702e+000	 3.530331490760976e+000	 1.275186379019700e+000
1	 1.460670954614553e+000	 3.421242638269016e+000	 4.827077726170299e+000
1	 1.424196060963574e+000	 3.436586384234133e+000	 4.674294307537818e+000
1	 1.387637498090055e+000	 3.451510117053901e+000	 4.481425607453012e+000
1	 1.351002212211490e+000	 3.466013910506030e+000	 4.245900596331280e+000
1	 1.314297116385243e+000	 3.480097984665906e+000	 3.965308841857144e+000
1	 1.277529086848464e+000	 3.493762704181139e+000	 3.637402575653401e+000
1	 1.240704959438558e+000	 3.507008576443118e+000	 3.260098452296821e+000
1	 1.203831526097284e+000	 3.519836249659356e+000	 2.831479002751559e+000
1	 1.166915531461388e+000	 3.532246510830582e+000	 2.349793784984021e+000
1	 1.129963669542497e+000	 3.544240283636570e+000	 1.813460235189421e+000
1	 1.092982580498757e+000	 3.555818626234796e+000	 1.221064223703610e+000
1	 1.471140644557212e+000	 3.445765169866720e+000	 4.677812144875929e+000
1	 1.434404308843775e+000	 3.461218895606880e+000	 4.522199620348244e+000
1	 1.397583704189727e+000	 3.476249597662238e+000	 4.328095669691435e+000
1	 1.360685826601140e+000	 3.490857350339327e+000	 4.093302589532311e+000
1	 1.323717638686275e+000	 3.505042375290976e+000	 3.815780793480299e+000
1	 1.286686065969255e+000	 3.518805039778497e+000	 3.493650310154902e+000
1	 1.249597993284889e+000	 3.532145854830123e+000	 3.125191987765124e+000
1	 1.212460261257706e+000	 3.545065473299544e+000	 2.708848408156546e+000
1	 1.175279662868157e+000	 3.557564687828503e+000	 2.243224513880413e+000
1	 1.138062940108698e+000	 3.569644428717461e+000	 1.727087952451498e+000
1	 1.100816780732308e+000	 3.581305761708479e+000	 1.159369142548248e+000
1	 1.481610334500272e+000	 3.470287701464573e+000	 4.523500907532598e+000
1	 1.444612556724376e+000	 3.485851406979773e+000	 4.365236159624785e+000
1	 1.407529910289798e+000	 3.500989078270704e+000	 4.170026856393766e+000
1	 1.370369440991190e+000	 3.515700790172728e+000	 3.936041166621254e+000
1	 1.333138160987701e+000	 3.529986765916116e+000	 3.661602565904911e+000
1	 1.295843045090437e+000	 3.543847375375882e+000	 3.345190781471999e+000
1	 1.258491027131605e+000	 3.557283133217108e+000	 2.985442458064715e+000
1	 1.221088996418505e+000	 3.570294696939667e+000	 2.581151548620808e+000
1	 1.183643794275289e+000	 3.582882864826309e+000	 2.131269434057505e+000
1	 1.146162210675251e+000	 3.595048573798191e+000	 1.634904777024862e+000
1	 1.108650980966191e+000	 3.606792897181959e+000	 1.091323115026119e+000
1	 1.492080024443531e+000	 3.494810233062459e+000	 4.364828940913040e+000
1	 1.454820804605176e+000	 3.510483918352682e+000	 4.204164658733396e+000
1	 1.417476116390070e+000	 3.525728558879165e+000	 4.008049453513227e+000
1	 1.380053055381439e+000	 3.540544230006091e+000	 3.775010122896412e+000
1	 1.342558683289326e+000	 3.554931156541184e+000	 3.503725635552266e+000
1	 1.305000024211814e+000	 3.568889710973160e+000	 3.193027537941254e+000
1	 1.267384060978512e+000	 3.582420411603950e+000	 2.841900096985571e+000
1	 1.229717731579492e+000	 3.595523920579608e+000	 2.449480183139329e+000
1	 1.192007925682604e+000	 3.608201041823901e+000	 2.015056898883818e+000
1	 1.154261481241978e+000	 3.620452718878676e+000	 1.538070958176625e+000
1	 1.116485181200240e+000	 3.632280032655170e+000	 1.018113822860699e+000
1	 1.502549714386791e+000	 3.519332764660260e+000	 4.202462081650523e+000
1	 1.465029052485976e+000	 3.535116429725480e+000	 4.039724648034582e+000
1	 1.427422322490341e+000	 3.550468039487480e+000	 3.842970605441913e+000
1	 1.389736669771686e+000	 3.565387669839278e+000	 3.611078341975329e+000
1	 1.351979205590951e+000	 3.579875547166044e+000	 3.343074959486247e+000
1	 1.314157003333191e+000	 3.593932046570194e+000	 3.038136157203922e+000
1	 1.276277094825420e+000	 3.607557689990518e+000	 2.695585866414842e+000
1	 1.238346466740479e+000	 3.620753144219251e+000	 2.314895641422150e+000
1	 1.200372057089920e+000	 3.633519218821177e+000	 1.895683812491795e+000
1	 1.162360751808704e+000	 3.645856863958831e+000	 1.437714406941578e+000
1	 1.124319381434289e+000	 3.657767168128049e+000	 9.408958449512659e-001
1	 1.513019404329850e+000	 3.543855296257858e+000	 4.037047736732147e+000
1	 1.475237300366577e+000	 3.559748941098035e+000	 3.872635188479032e+000
1	 1.437368528590413e+000	 3.575207520095515e+000	 3.675575115677886e+000
1	 1.399420284161735e+000	 3.590231109672148e+000	 3.445090657705631e+000
1	 1.361399727892379e+000	 3.604819937790553e+000	 3.180549892947679e+000
1	 1.323313982454373e+000	 3.618974382166853e+000	 2.881465213954634e+000
1	 1.285170128672135e+000	 3.632694968376689e+000	 2.547492469105486e+000
1	 1.246975201901278e+000	 3.645982367858483e+000	 2.178429876706658e+000
1	 1.208736188497052e+000	 3.658837395818033e+000	 1.774216717879086e+000
1	 1.170460022375256e+000	 3.671261009038573e+000	 1.334931814981690e+000
1	 1.132153581668172e+000	 3.683254303600529e+000	 8.607918026859542e-001
1	 1.523489094272510e+000	 3.568377827855136e+000	 3.869215516758161e+000
1	 1.485445548246778e+000	 3.584381452470216e+000	 3.703595574954928e+000
1	 1.447314734690085e+000	 3.599947000703133e+000	 3.506626214478373e+000
1	 1.409103898551387e+000	 3.615074549504561e+000	 3.277868680536753e+000
1	 1.370820250193409e+000	 3.629764328414571e+000	 3.017025069055938e+000
1	 1.332470961575163e+000	 3.644016717763000e+000	 2.723937207786756e+000
1	 1.294063162518466e+000	 3.657832246762336e+000	 2.398585319685334e+000
1	 1.255603937061700e+000	 3.671211591497186e+000	 2.041086475159519e+000
1	 1.217100319903820e+000	 3.684155572814372e+000	 1.651692840144374e+000
1	 1.178559292941457e+000	 3.696665154117818e+000	 1.230789727311576e+000
1	 1.139987781901724e+000	 3.708741439072548e+000	 7.788934580305803e-001
1	 1.533958784214570e+000	 3.592900359451976e+000	 3.699577843268068e+000
1	 1.495653796126378e+000	 3.609013963841895e+000	 3.533286010832020e+000
1	 1.457260940789158e+000	 3.624686481310193e+000	 3.336866295076225e+000
1	 1.418787512940441e+000	 3.639917989336375e+000	 3.110211590050247e+000
1	 1.380240772493848e+000	 3.654708719037964e+000	 2.853351242485176e+000
1	 1.341627940695366e+000	 3.669059053358499e+000	 2.566449453040920e+000
1	 1.302956196364219e+000	 3.682969525147330e+000	 2.249803475901735e+000
1	 1.264232672221558e+000	 3.696440815135250e+000	 1.903841623941847e+000
1	 1.225464451310041e+000	 3.709473749810092e+000	 1.529121087000636e+000
1	 1.186658563507135e+000	 3.722069299196483e+000	 1.126325571094108e+000
1	 1.147821982134778e+000	 3.734228574544038e+000	 6.962627666484031e-001
1	 1.544428474155829e+000	 3.617422891048259e+000	 3.528730531364480e+000
1	 1.505862044005179e+000	 3.633646475212943e+000	 3.362368255069292e+000
1	 1.467207146887432e+000	 3.649425961916560e+000	 3.167017619951568e+000
1	 1.428471127328698e+000	 3.664761429167448e+000	 2.942896895254741e+000
1	 1.389661294793495e+000	 3.679653109660585e+000	 2.690356098824998e+000
1	 1.350784919814787e+000	 3.694101388953216e+000	 2.409874932460074e+000
1	 1.311849230209201e+000	 3.708106803531543e+000	 2.102060531988879e+000
1	 1.272861407380663e+000	 3.721670038772552e+000	 1.767645039899160e+000
1	 1.233828582715532e+000	 3.734791926805090e+000	 1.407483008593840e+000
1	 1.194757834072111e+000	 3.747473444274481e+000	 1.022548642590766e+000
1	 1.155656182367169e+000	 3.759715710014934e+000	 6.139328881856547e-001
1	 1.077314180033310e+000	 3.504844355287081e+000	 1.320478084213588e+000
1	 1.040840911791156e+000	 3.515848414683465e+000	 6.137392287909701e-001
1	 1.004351750767449e+000	 3.526445468549742e+000	-1.513226673797687e-001
1	 9.678530616055532e-001	 3.536636938483259e+000	-9.723547825071215e-001
1	 9.313511442442004e-001	 3.546424369203119e+000	-1.846881575263524e+000
1	 8.948522312174626e-001	 3.555809426018735e+000	-2.772309896433867e+000
1	 8.583624850557751e-001	 3.564793892237349e+000	-3.745934187967648e+000
1	 8.218879957891512e-001	 3.573379666514729e+000	-4.764941757757471e+000
1	 7.854347785535484e-001	 3.581568760153285e+000	-5.826418118584583e+000
1	 7.490087713011586e-001	 3.589363294351826e+000	-6.927352379817998e+000
1	 7.126158326152123e-001	 3.596765497411133e+000	-8.064642680627653e+000
1	 1.085148380265702e+000	 3.530331490760976e+000	 1.275186379019700e+000
1	 1.048409879381463e+000	 3.541415571385863e+000	 5.992126250780300e-001
1	 1.011655370143746e+000	 3.552089686747149e+000	-1.302452508449671e-001
1	 9.748912634794350e-001	 3.562355268780023e+000	-9.109422430232609e-001
1	 9.381239051402545e-001	 3.572213873436759e+000	-1.740515248623937e+000
1	 9.013595729831019e-001	 3.581667178136880e+000	-2.616487942855086e+000
1	 8.646044743521743e-001	 3.590716979155808e+000	-3.536275740191180e+000
1	 8.278647435640271e-001	 3.599365188956308e+000	-4.497190830465216e+000
1	 7.911464394965296e-001	 3.607613833466946e+000	-5.496447278724197e+000
1	 7.544555432825080e-001	 3.615465049311848e+000	-6.531166177878822e+000
1	 7.177979561086598e-001	 3.622921080995963e+000	-7.598380843340697e+000
1	 1.092982580498757e+000	 3.555818626234796e+000	 1.221064223703610e+000
1	 1.055978846972389e+000	 3.566982728088109e+000	 5.751165979780130e-001
1	 1.018958989520610e+000	 3.577733904944332e+000	-1.196354962930981e-001
1	 9.819294653538292e-001	 3.588073599076493e+000	-8.610380171758376e-001
1	 9.448966660367625e-001	 3.598003377670048e+000	-1.646824297586205e+000
1	 9.078669147491352e-001	 3.607524930254624e+000	-2.474619692074578e+000
1	 8.708464636489087e-001	 3.616640066073833e+000	-3.341946306710991e+000
1	 8.338414913391797e-001	 3.625350711397429e+000	-4.246227801354312e+000
1	 7.968581004397326e-001	 3.633658906780143e+000	-5.184794253688913e+000
1	 7.599023152640303e-001	 3.641566804271423e+000	-6.154887074537227e+000
1	 7.229800796022363e-001	 3.649076664580380e+000	-7.153663964110732e+000
1	 1.100816780732308e+000	 3.581305761708479e+000	 1.159369142548248e+000
1	 1.063547814563778e+000	 3.592549884790160e+000	 5.427305066276165e-001
1	 1.026262608897900e+000	 3.603378123141265e+000	-1.182022904491037e-001
1	 9.889676672286073e-001	 3.613791929372667e+000	-8.213496359431766e-001
1	 9.516694269336100e-001	 3.623792881903001e+000	-1.564525601240029e+000
1	 9.143742565154635e-001	 3.633382682372006e+000	-2.345442368311284e+000
1	 8.770884529458931e-001	 3.642563152991476e+000	-3.161714734668100e+000
1	 8.398182391145391e-001	 3.651336233838164e+000	-4.010864686609832e+000
1	 8.025697613831022e-001	 3.659703980092960e+000	-4.890326030668037e+000
1	 7.653490872456817e-001	 3.667668559230635e+000	-5.797449073266473e+000
1	 7.281622030959101e-001	 3.675232248164469e+000	-6.729505338763654e+000
1	 1.108650980966191e+000	 3.606792897181959e+000	 1.091323115026119e+000
1	 1.071116782155477e+000	 3.618117041491970e+000	 5.032975481755611e-001
1	 1.033566228275475e+000	 3.629022341337930e+000	-1.246910142649455e-001
1	 9.960058691036420e-001	 3.639510259668551e+000	-7.906211628519312e-001
1	 9.584421878306849e-001	 3.649582386135648e+000	-1.492372306992399e+000
1	 9.208815982819892e-001	 3.659240434489071e+000	-2.227728889031807e+000
1	 8.833304422430449e-001	 3.668486239908799e+000	-2.994384670606995e+000
1	 8.457949868900372e-001	 3.677321756278584e+000	-3.789947081616714e+000
1	 8.082814223265827e-001	 3.685749053405477e+000	-4.611941622256412e+000
1	 7.707958592274194e-001	 3.693770314189572e+000	-5.457816308682663e+000
1	 7.333443265896487e-001	 3.701387831748314e+000	-6.324946153013932e+000
1	 1.116485181200240e+000	 3.632280032655170e+000	 1.018113822860699e+000
1	 1.078685749747331e+000	 3.643684198193497e+000	 4.580260264970547e-001
1	 1.040869847653191e+000	 3.654666559534302e+000	-1.378822625488211e-001
1	 1.003044070978804e+000	 3.665228589964141e+000	-7.676319122614613e-001
1	 9.652149487278728e-001	 3.675371890368006e+000	-1.429152558122413e+000
1	 9.273889400486129e-001	 3.685098186605857e+000	-2.120286612681360e+000
1	 8.895724315402804e-001	 3.694409326825858e+000	-2.838793339566266e+000
1	 8.517717346656041e-001	 3.703307278718762e+000	-3.582352982860285e+000
1	 8.139930832701185e-001	 3.711794126717773e+000	-4.348570942868462e+000
1	 7.762426312092002e-001	 3.719872069148314e+000	-5.134981989417548e+000
1	 7.385264500834193e-001	 3.727543415331994e+000	-5.939054503969873e+000
1	 1.124319381434289e+000	 3.657767168128049e+000	 9.408958449512659e-001
1	 1.086254717339184e+000	 3.669251354894696e+000	 4.080905678664686e-001
1	 1.048173467030906e+000	 3.680310777730361e+000	-1.565906171234653e-001
1	 1.010082272853967e+000	 3.690946920259438e+000	-7.511952212342502e-001
1	 9.719877096250612e-001	 3.701161394600097e+000	-1.373688274534362e+000
1	 9.338962818152367e-001	 3.710955938722407e+000	-2.021956138768944e+000
1	 8.958144208375152e-001	 3.720332413742715e+000	-2.693810375212474e+000
1	 8.577484824411712e-001	 3.729292801158767e+000	-3.386991659080095e+000
1	 8.197047442136543e-001	 3.737839200029931e+000	-4.099173732126846e+000
1	 7.816894031909809e-001	 3.745973824106949e+000	-4.827967385187236e+000
1	 7.437085735771903e-001	 3.753698998915595e+000	-5.570924462547382e+000
1	 1.132153581668172e+000	 3.683254303600529e+000	 8.607918026859542e-001
1	 1.093823684930883e+000	 3.694818511595525e+000	 3.546332861571127e-001
1	 1.055477086408480e+000	 3.705954995926085e+000	-1.796634709211401e-001
1	 1.017120474729001e+000	 3.716665250554442e+000	-7.401572723958665e-001
1	 9.787604705221360e-001	 3.726950898831945e+000	-1.324833984131763e+000
1	 9.404036235817623e-001	 3.736813690838763e+000	-1.931610157771230e+000
1	 9.020564101346672e-001	 3.746255500659427e+000	-2.558336698545285e+000
1	 8.637252302166689e-001	 3.755278323598676e+000	-3.202802569292215e+000
1	 8.254164051571349e-001	 3.763884273342034e+000	-3.862738522950098e+000
1	 7.871361751727186e-001	 3.772075579065561e+000	-4.535820855916101e+000
1	 7.488906970709289e-001	 3.779854582499195e+000	-5.219675174810927e+000
1	 1.139987781901724e+000	 3.708741439072548e+000	 7.788934580305803e-001
1	 1.101392652522272e+000	 3.720385668295939e+000	 2.987648999962803e-001
1	 1.062780705785770e+000	 3.731599214121452e+000	-2.059799005646843e-001
1	 1.024158676603779e+000	 3.742383580849157e+000	-7.333959653323773e-001
1	 9.855332314189840e-001	 3.752740403063570e+000	-1.281475702377513e+000
1	 9.469109653480903e-001	 3.762671442954964e+000	-1.848152348458356e+000
1	 9.082983994316516e-001	 3.772178587576050e+000	-2.431303442836690e+000
1	 8.697019779920288e-001	 3.781263846038558e+000	-3.028754325424095e+000
1	 8.311280661005044e-001	 3.789929346654160e+000	-3.638281652189292e+000
1	 7.925829471543699e-001	 3.798177334024236e+000	-4.257616920893068e+000
1	 7.540728205646027e-001	 3.806010166082880e+000	-4.884450000368838e+000
1	 1.147821982134778e+000	 3.734228574544038e+000	 6.962627666484031e-001
1	 1.108961620113198e+000	 3.745952824995893e+000	 2.415658041708515e-001
1	 1.070084325162635e+000	 3.757243432316442e+000	-2.344495851183394e-001
1	 1.031196878478173e+000	 3.768101911143579e+000	-7.298198342055909e-001
1	 9.923059923154914e-001	 3.778529907294995e+000	-1.242529857737927e+000
1	 9.534183071141239e-001	 3.788529195071056e+000	-1.770516320375999e+000
1	 9.145403887283859e-001	 3.798101674492648e+000	-2.311670922596020e+000
1	 8.756787257671812e-001	 3.807249368478485e+000	-2.863843697431704e+000
1	 8.368397270437075e-001	 3.815974419966393e+000	-3.424846311780734e+000
1	 7.980297191358921e-001	 3.824279088983057e+000	-3.992455366047341e+000
1	 7.592549440581791e-001	 3.832165749666732e+000	-4.564415686052783e+000
1	 1.155656182367169e+000	 3.759715710014934e+000	 6.139328881856547e-001
1	 1.116530587703505e+000	 3.771519981695344e+000	 1.840870974547076e-001
1	 1.077387944538932e+000	 3.782887650511029e+000	-2.640117688172198e-001
1	 1.038235080352055e+000	 3.793820241437709e+000	-7.283670093935096e-001
1	 9.990787532115453e-001	 3.804319411526238e+000	-1.206942260833286e+000
1	 9.599256488797626e-001	 3.814386947187074e+000	-1.697664599341119e+000
1	 9.207823780247851e-001	 3.824024761409275e+000	-2.198427644471150e+000
1	 8.816554735420569e-001	 3.833234890918529e+000	-2.707094658882426e+000
1	 8.425513879866883e-001	 3.842019493278808e+000	-3.221501638492149e+000
1	 8.034764911172414e-001	 3.850380843942109e+000	-3.739460387534841e+000
1	 7.644370675516263e-001	 3.858321333250832e+000	-4.258761573207027e+000
1	 7.126158326152123e-001	 3.596765497411133e+000	-8.064642680627653e+000
1	 6.762671878802550e-001	 3.603776679759038e+000	-9.259171045317117e+000
1	 6.399630600582476e-001	 3.610400416447522e+000	-1.052691172997149e+001
1	 6.037090469397647e-001	 3.616639241793862e+000	-1.185669418679458e+001
1	 5.675106594965956e-001	 3.622495785572754e+000	-1.323719933157868e+001
1	 5.313733202242620e-001	 3.627972770066271e+000	-1.465697807126654e+001
1	 4.953023615887203e-001	 3.633073007093981e+000	-1.610446959827343e+001
1	 4.593030245767192e-001	 3.637799395027112e+000	-1.756801942410456e+001
1	 4.233804573491112e-001	 3.642154915790479e+000	-1.903589712620341e+001
1	 3.875397139962902e-001	 3.646142631855923e+000	-2.049631378338923e+001
1	 3.517857533948060e-001	 3.649765683230813e+000	-2.193743907668176e+001
1	 7.177979561086598e-001	 3.622921080995963e+000	-7.598380843340697e+000
1	 6.811849849902317e-001	 3.629983248476528e+000	-8.717414158446179e+000
1	 6.446168545105612e-001	 3.636655152803184e+000	-9.902158455175840e+000
1	 6.080992031672106e-001	 3.642939346722671e+000	-1.114083376620106e+001
1	 5.716375820076127e-001	 3.648838479133310e+000	-1.242151900998385e+001
1	 5.352374529595347e-001	 3.654355292113508e+000	-1.373217151998747e+001
1	 4.989041872664873e-001	 3.659492617930285e+000	-1.506064630204654e+001
1	 4.626430640275384e-001	 3.664253376031720e+000	-1.639471499158400e+001
1	 4.264592688408320e-001	 3.668640570027081e+000	-1.772208448387793e+001
1	 3.903578925499762e-001	 3.672657284658395e+000	-1.903041521212100e+001
1	 3.543439300923417e-001	 3.676306682767058e+000	-2.030733904956816e+001
1	 7.229800796022363e-001	 3.649076664580380e+000	-7.153663964110732e+000
1	 6.861027821003028e-001	 3.656189817193663e+000	-8.198854791999382e+000
1	 6.492706489629426e-001	 3.662909889158566e+000	-9.302354451167291e+000
1	 6.124893593947066e-001	 3.669239451651285e+000	-1.045194063011834e+001
1	 5.757645045186705e-001	 3.675181172693760e+000	-1.163525766566889e+001
1	 5.391015856948495e-001	 3.680737814160723e+000	-1.283983680205924e+001
1	 5.025060129443074e-001	 3.685912228766642e+000	-1.405311614615555e+001
1	 4.659831034784319e-001	 3.690707357036439e+000	-1.526246028990415e+001
1	 4.295380803326594e-001	 3.695126224263829e+000	-1.645517957281030e+001
1	 3.931760711038120e-001	 3.699171937461023e+000	-1.761854895884091e+001
1	 3.569021067900821e-001	 3.702847682303435e+000	-1.873982650379409e+001
1	 7.281622030959101e-001	 3.675232248164469e+000	-6.729505338763653e+000
1	 6.910205792104442e-001	 3.682396385910518e+000	-7.702616485440221e+000
1	 6.539244434153744e-001	 3.689164625513728e+000	-8.726780572800010e+000
1	 6.168795156222396e-001	 3.695539556579746e+000	-9.789496370798119e+000
1	 5.798914270297595e-001	 3.701523866254122e+000	-1.087813740249901e+001
1	 5.429657184301957e-001	 3.707120336207917e+000	-1.197997266462691e+001
1	 5.061078386221670e-001	 3.712331839603033e+000	-1.308218701858890e+001
1	 4.693231429293811e-001	 3.717161338041240e+000	-1.417190122293094e+001
1	 4.326168918245668e-001	 3.721611878500689e+000	-1.523619157986235e+001
1	 3.959942496577603e-001	 3.725686590263770e+000	-1.626210917017827e+001
1	 3.594602834879763e-001	 3.729388681839912e+000	-1.723669865261400e+001
1	 7.333443265896487e-001	 3.701387831748314e+000	-6.324946153013933e+000
1	 6.959383763206329e-001	 3.708602954627166e+000	-7.227847552006566e+000
1	 6.585782378678403e-001	 3.715419361868731e+000	-8.174738002072271e+000
1	 6.212696718497973e-001	 3.721839661508097e+000	-9.152997233652148e+000
1	 5.840183495408687e-001	 3.727866559814423e+000	-1.014988817926956e+001
1	 5.468298511655628e-001	 3.733502858255094e+000	-1.115257789024853e+001
1	 5.097096643000534e-001	 3.738751450439450e+000	-1.214815810466457e+001
1	 4.726631823803677e-001	 3.743615319046093e+000	-1.312366543760317e+001
1	 4.356957033165275e-001	 3.748097532737622e+000	-1.406610116651960e+001
1	 3.988124282117837e-001	 3.752201243066594e+000	-1.496245058622741e+001
1	 3.620184601859728e-001	 3.755929681376454e+000	-1.579970190978614e+001
1	 7.385264500834193e-001	 3.727543415331994e+000	-5.939054503969873e+000
1	 7.008561734308454e-001	 3.734809523343683e+000	-6.773720209542252e+000
1	 6.632320323203229e-001	 3.741674098223633e+000	-7.645547534964270e+000
1	 6.256598280773676e-001	 3.748139766436377e+000	-8.541953603157491e+000
1	 5.881452720519882e-001	 3.754209253374685e+000	-9.450247534121425e+000
1	 5.506939839009403e-001	 3.759885380302257e+000	-1.035765129565230e+001
1	 5.133114899779528e-001	 3.765171061275875e+000	-1.125132019235604e+001
1	 4.760032218313728e-001	 3.770069300050974e+000	-1.211836296446221e+001
1	 4.387745148085148e-001	 3.774583186974590e+000	-1.294586146968106e+001
1	 4.016306067658446e-001	 3.778715895869458e+000	-1.372088992309490e+001
1	 3.645766368840204e-001	 3.782470680913030e+000	-1.443053367183257e+001
1	 7.437085735771903e-001	 3.753698998915595e+000	-5.570924462547382e+000
1	 7.057739705410575e-001	 3.761016092060141e+000	-6.339429747666537e+000
1	 6.678858267728055e-001	 3.767928834578494e+000	-7.138548898091914e+000
1	 6.300499843049376e-001	 3.774439871364630e+000	-7.955889510254759e+000
1	 5.922721945631075e-001	 3.780551946934928e+000	-8.778960320478459e+000
1	 5.545581166363180e-001	 3.786267902349411e+000	-9.595191730545833e+000
1	 5.169133156558523e-001	 3.791590672112294e+000	-1.039195596485330e+001
1	 4.793432612823781e-001	 3.796523281055854e+000	-1.115658683140258e+001
1	 4.418533263005021e-001	 3.801068841211559e+000	-1.187639906060903e+001
1	 4.044487853199053e-001	 3.805230548672323e+000	-1.253870719764550e+001
1	 3.671348135820682e-001	 3.809011680449607e+000	-1.313084402578748e+001
1	 7.488906970709289e-001	 3.779854582499195e+000	-5.219675174810927e+000
1	 7.106917676512464e-001	 3.787222660776613e+000	-5.924193729521241e+000
1	 6.725396212252711e-001	 3.794183570933372e+000	-6.653100093731760e+000
1	 6.344401405324956e-001	 3.800739976292896e+000	-7.394342160198378e+000
1	 5.963991170742168e-001	 3.806894640495176e+000	-8.135778453948040e+000
1	 5.584222493716851e-001	 3.812650424396559e+000	-8.865198076474897e+000
1	 5.205151413337386e-001	 3.818010282948694e+000	-9.570340280977414e+000
1	 4.826833007333645e-001	 3.822977262060701e+000	-1.023891365194056e+001
1	 4.449321377924628e-001	 3.827554495448490e+000	-1.085861486406430e+001
1	 4.072669638739285e-001	 3.831745201475147e+000	-1.141714699724675e+001
1	 3.696929902800646e-001	 3.835552679986150e+000	-1.190223738604192e+001
1	 7.540728205646027e-001	 3.806010166082880e+000	-4.884450000368838e+000
1	 7.156095647613880e-001	 3.813429229493175e+000	-5.527251226432561e+000
1	 6.771934156777034e-001	 3.820438307288330e+000	-6.188576771852767e+000
1	 6.388302967600286e-001	 3.827040081221221e+000	-6.856861479875210e+000
1	 6.005260395853054e-001	 3.833237334055454e+000	-7.520460669657898e+000
1	 5.622863821070316e-001	 3.839032946443703e+000	-8.167669245728986e+000
1	 5.241169670115983e-001	 3.844429893785061e+000	-8.786740444032448e+000
1	 4.860233401843138e-001	 3.849431243065490e+000	-9.365904189226695e+000
1	 4.480109492843702e-001	 3.854040149685346e+000	-9.893385039542778e+000
1	 4.100851424278769e-001	 3.858259854277893e+000	-1.035741969715822e+001
1	 3.722511669779586e-001	 3.862093679522626e+000	-1.074627406369681e+001
1	 7.592549440581791e-001	 3.832165749666732e+000	-4.564415686052784e+000
1	 7.205273618714591e-001	 3.839635798209898e+000	-5.147862083914378e+000
1	 6.818472101300850e-001	 3.846693043643424e+000	-5.744371627864311e+000
1	 6.432204529875243e-001	 3.853340186149642e+000	-6.343009683660916e+000
1	 6.046529620963635e-001	 3.859580027615782e+000	-6.932772289530233e+000
1	 5.661505148423461e-001	 3.865415468490847e+000	-7.502604180291985e+000
1	 5.277187926894182e-001	 3.870849504621382e+000	-8.041416459647671e+000
1	 4.893633796352074e-001	 3.875885224070195e+000	-8.538103896961166e+000
1	 4.510897607761977e-001	 3.880525803922092e+000	-8.981561826424015e+000
1	 4.129033209817128e-001	 3.884774507080522e+000	-9.360702628066496e+000
1	 3.748093436756991e-001	 3.888634679059003e+000	-9.664471771648232e+000
1	 7.644370675516263e-001	 3.858321333250832e+000	-4.258761573207027e+000
1	 7.254451589814354e-001	 3.865842366926856e+000	-4.785306217526523e+000
1	 6.865010045823983e-001	 3.872947779998714e+000	-5.319893824860263e+000
1	 6.476106092149704e-001	 3.879640291078204e+000	-5.852360856935086e+000
1	 6.087798846073803e-001	 3.885922721176180e+000	-6.372484999021951e+000
1	 5.700146475776188e-001	 3.891797990537994e+000	-6.870001850835340e+000
1	 5.313206183671851e-001	 3.897269115457639e+000	-7.334621283132205e+000
1	 4.927034190860264e-001	 3.902339205074782e+000	-7.756043438307781e+000
1	 4.541685722679184e-001	 3.907011458158686e+000	-8.123974354744012e+000
1	 4.157214995353986e-001	 3.911289159882991e+000	-8.428141196131911e+000
1	 3.773675203732346e-001	 3.915175678595245e+000	-8.658307068454748e+000
1	 3.517857533948060e-001	 3.649765683230813e+000	-2.193743907668176e+001
1	 3.161181078051911e-001	 3.653027746903922e+000	-2.336947216088706e+001
1	 2.805469763476744e-001	 3.655931540248671e+000	-2.480476141597599e+001
1	 2.450771001425687e-001	 3.658480420160160e+000	-2.623528746233113e+001
1	 2.097131192376733e-001	 3.660677809123401e+000	-2.765299327798586e+001
1	 1.744595719637188e-001	 3.662527192196826e+000	-2.904979429170325e+001
1	 1.393208943850408e-001	 3.664032114011716e+000	-3.041758826894690e+001
1	 1.043014198436543e-001	 3.665196175790536e+000	-3.174826497988195e+001
1	 6.940537859482046e-002	 3.666023032386947e+000	-3.303371563935598e+001
1	 3.463689753212482e-002	 3.666516389350228e+000	-3.426584210961573e+001
1	 0.000000000000000e+000	 3.666680000016666e+000	-3.543656585731524e+001
1	 3.543439300923417e-001	 3.676306682767058e+000	-2.030733904956816e+001
1	 3.184169103270729e-001	 3.679592468080790e+000	-2.156247184218054e+001
1	 2.825871065421273e-001	 3.682517377733703e+000	-2.280707400360274e+001
1	 2.468592943351135e-001	 3.685084793032176e+000	-2.403177085000363e+001
1	 2.112381474961305e-001	 3.687298161349476e+000	-2.522715989788918e+001
1	 1.757282373585245e-001	 3.689160993087311e+000	-2.638382302271290e+001
1	 1.403340322455686e-001	 3.690676858653458e+000	-2.749233833349993e+001
1	 1.050598970112213e-001	 3.691849385458404e+000	-2.854329175135556e+001
1	 6.991009267304291e-002	 3.692682254933840e+000	-2.952728828075598e+001
1	 3.488877613527512e-002	 3.693179199575722e+000	-3.043496296353334e+001
1	 0.000000000000000e+000	 3.693344000014533e+000	-3.125699150647252e+001
1	 3.569021067900821e-001	 3.702847682303435e+000	-1.873982650379409e+001
1	 3.207157128492248e-001	 3.706157189257729e+000	-1.982802967765617e+001
1	 2.846272367369185e-001	 3.709103215218714e+000	-2.089333448919996e+001
1	 2.486414885280597e-001	 3.711689165904061e+000	-2.192520558210839e+001
1	 2.127631757550383e-001	 3.713918513575290e+000	-2.291308879370716e+001
1	 1.769969027538079e-001	 3.715794793977405e+000	-2.384642510928335e+001
1	 1.413471701065711e-001	 3.717321603294685e+000	-2.471466426455156e+001
1	 1.058183741792213e-001	 3.718502595125647e+000	-2.550727798306403e+001
1	 7.041480675161065e-002	 3.719341477480015e+000	-2.621377283657520e+001
1	 3.514065473862889e-002	 3.719842009800439e+000	-2.682370271757089e+001
1	 0.000000000000000e+000	 3.720008000011599e+000	-2.732668091435531e+001
1	 3.594602834879763e-001	 3.729388681839912e+000	-1.723669865261400e+001
1	 3.230145153715792e-001	 3.732721910434722e+000	-1.816837825281646e+001
1	 2.866673669319635e-001	 3.735689052703709e+000	-1.906625668731758e+001
1	 2.504236827213069e-001	 3.738293538775842e+000	-1.991882822907260e+001
1	 2.142882040142840e-001	 3.740538865800908e+000	-2.071457650391618e+001
1	 1.782655681494497e-001	 3.742428594867207e+000	-2.144198997417027e+001
1	 1.423603079679294e-001	 3.743966347935524e+000	-2.208957701143991e+001
1	 1.065768513475461e-001	 3.745155804792419e+000	-2.264588054450763e+001
1	 7.091952083043732e-002	 3.746000700025650e+000	-2.309949226961518e+001
1	 3.539253334213530e-002	 3.746504820024575e+000	-2.343906641177959e+001
1	 0.000000000000000e+000	 3.746672000008066e+000	-2.365333302712586e+001
1	 3.620184601859728e-001	 3.755929681376454e+000	-1.579970190978614e+001
1	 3.253133178940685e-001	 3.759286631611750e+000	-1.658568704756497e+001
1	 2.887074971271778e-001	 3.762274890188694e+000	-1.732847770462895e+001
1	 2.522058769147549e-001	 3.764897911647556e+000	-1.801578387738412e+001
1	 2.158132322737550e-001	 3.767159218026397e+000	-1.863531225516143e+001
1	 1.795342335453303e-001	 3.769062395756812e+000	-1.917478297000531e+001
1	 1.433734458295250e-001	 3.770611092576106e+000	-1.962194588549039e+001
1	 1.073353285160875e-001	 3.771809014458875e+000	-1.996459640978242e+001
1	 7.142423490943663e-002	 3.772659922570928e+000	-2.019059081967260e+001
1	 3.564441194574342e-002	 3.773167630248318e+000	-2.028786108380601e+001
1	 0.000000000000000e+000	 3.773336000004134e+000	-2.024442917478932e+001
1	 3.645766368840204e-001	 3.782470680913030e+000	-1.443053367183257e+001
1	 3.276121204166254e-001	 3.785851352788797e+000	-1.508206465021662e+001
1	 2.907476273224767e-001	 3.788860727673674e+000	-1.568256063116646e+001
1	 2.539880711083032e-001	 3.791502284519237e+000	-1.621912933923288e+001
1	 2.173382605333388e-001	 3.793779570251820e+000	-1.667888172720749e+001
1	 1.808028989413304e-001	 3.795696196646321e+000	-1.704894973219790e+001
1	 1.443865836912393e-001	 3.797255837216559e+000	-1.731650352927288e+001
1	 1.080938056847371e-001	 3.798462224125175e+000	-1.746876826738366e+001
1	 7.192894898852230e-002	 3.799319145116026e+000	-1.749304027389411e+001
1	 3.589629054940242e-002	 3.799830440471868e+000	-1.737670271564962e+001
1	 0.000000000000000e+000	 3.800000000000001e+000	-1.710724070608463e+001
1	 3.671348135820682e-001	 3.809011680449607e+000	-1.313084402578748e+001
1	 3.299109229391823e-001	 3.812416073965843e+000	-1.365956087894499e+001
1	 2.927877575177755e-001	 3.815446565158654e+000	-1.413099711904220e+001
1	 2.557702653018515e-001	 3.818106657390918e+000	-1.453183622796520e+001
1	 2.188632887929225e-001	 3.820399922477242e+000	-1.484877066048508e+001
1	 1.820715643373305e-001	 3.822329997535829e+000	-1.506852034985255e+001
1	 1.453997215529536e-001	 3.823900581857012e+000	-1.517785067810602e+001
1	 1.088522828533867e-001	 3.825115433791474e+000	-1.516358989547629e+001
1	 7.243366306760793e-002	 3.825978367661123e+000	-1.501264597498223e+001
1	 3.614816915306143e-002	 3.826493250695419e+000	-1.471202288999260e+001
1	 0.000000000000000e+000	 3.826663999995868e+000	-1.424883630417860e+001
1	 3.696929902800646e-001	 3.835552679986150e+000	-1.190223738604192e+001
1	 3.322097254616717e-001	 3.838980795142871e+000	-1.232016881515070e+001
1	 2.948278877129898e-001	 3.842032402643637e+000	-1.267620985410446e+001
1	 2.575524594952994e-001	 3.844711030262633e+000	-1.295679390584945e+001
1	 2.203883170523936e-001	 3.847020274702731e+000	-1.314836831385826e+001
1	 1.833402297332110e-001	 3.848963798425434e+000	-1.323741336351615e+001
1	 1.464128594145492e-001	 3.850545326497594e+000	-1.321046072387128e+001
1	 1.096107600219280e-001	 3.851768643457931e+000	-1.305411131399279e+001
1	 7.293837714660725e-002	 3.852637590206400e+000	-1.275505257995023e+001
1	 3.640004775666957e-002	 3.853156060919164e+000	-1.230007517016954e+001
1	 0.000000000000000e+000	 3.853327999991935e+000	-1.167608899862415e+001
1	 3.722511669779586e-001	 3.862093679522626e+000	-1.074627406369681e+001
1	 3.345085279840260e-001	 3.865545516319864e+000	-1.106582675298778e+001
1	 2.968680179080347e-001	 3.868618240128633e+000	-1.132055492568048e+001
1	 2.593346536885468e-001	 3.871315403134416e+000	-1.149681231029688e+001
1	 2.219133453116393e-001	 3.873640626928348e+000	-1.158097077981718e+001
1	 1.846088951288528e-001	 3.875597599315237e+000	-1.155943959808583e+001
1	 1.474259972759075e-001	 3.877190071138433e+000	-1.141868409064705e+001
1	 1.103692371902528e-001	 3.878421853124702e+000	-1.114524372429432e+001
1	 7.344309122543394e-002	 3.879296812752036e+000	-1.072574958142591e+001
1	 3.665192636017595e-002	 3.879818871143298e+000	-1.014694121707172e+001
1	 0.000000000000000e+000	 3.879991999988402e+000	-9.395682888194378e+000
1	 3.748093436756991e-001	 3.888634679059003e+000	-9.664471771648232e+000
1	 3.368073305061778e-001	 3.892110237496803e+000	-9.898420069053586e+000
1	 2.989081481028261e-001	 3.895204077613644e+000	-1.006632409927369e+001
1	 2.611168478814930e-001	 3.897919776006299e+000	-1.015462466434344e+001
1	 2.234383735705471e-001	 3.900260979154164e+000	-1.014978416390801e+001
1	 1.858775605241363e-001	 3.902231400205331e+000	-1.003830583875311e+001
1	 1.484391351369099e-001	 3.903834815779660e+000	-9.806752431153134e+000
1	 1.111277143582529e-001	 3.905075062791944e+000	-9.441764246544572e+000
1	 7.394780530400166e-002	 3.905956035298211e+000	-8.930076602849010e+000
1	 3.690380496352973e-002	 3.906481681368015e+000	-8.258536655553947e+000
1	 0.000000000000000e+000	 3.906655999985469e+000	-7.414119588405510e+000
1	 3.773675203732346e-001	 3.915175678595245e+000	-8.658307068454748e+000
1	 3.391061330280596e-001	 3.918674958673670e+000	-8.819783016030867e+000
1	 3.009482782972789e-001	 3.921789915098675e+000	-8.915746996821952e+000
1	 2.628990420740376e-001	 3.924524148878315e+000	-8.932890076885871e+000
1	 2.249634018290041e-001	 3.926881331380236e+000	-8.857927634843106e+000
1	 1.871462259189420e-001	 3.928865201095816e+000	-8.677618357432419e+000
1	 1.494522729974377e-001	 3.930479560421402e+000	-8.378782652509303e+000
1	 1.118861915258198e-001	 3.931728272459813e+000	-7.948320464395680e+000
1	 7.445251938222409e-002	 3.932615257845103e+000	-7.373228478291741e+000
1	 3.715568356668002e-002	 3.933144491593509e+000	-6.640616702231451e+000
1	 0.000000000000000e+000	 3.933319999983334e+000	-5.737724416793543e+000
1	 3.933319999983334e+000	 0.000000000000000e+000	 1.429264836443981e+001
1	 3.933144491593509e+000	 3.715568356668014e-002	 1.362168130175445e+001
1	 3.932615257845103e+000	 7.445251938222434e-002	 1.292519284102073e+001
1	 3.931728272459812e+000	 1.118861915258195e-001	 1.220985109810341e+001
1	 3.930479560421403e+000	 1.494522729974376e-001	 1.148218059122365e+001
1	 3.928865201095816e+000	 1.871462259189419e-001	 1.074854971353370e+001
1	 3.926881331380236e+000	 2.249634018290042e-001	 1.001515809224338e+001
1	 3.924524148878316e+000	 2.628990420740378e-001	 9.288023853683503e+000
1	 3.921789915098675e+000	 3.009482782972785e-001	 8.572970814595545e+000
1	 3.918674958673671e+000	 3.391061330280594e-001	 7.875615620823901e+000
1	 3.915175678595246e+000	 3.773675203732345e-001	 7.201354855451061e+000
1	 3.959987999982150e+000	 0.000000000000000e+000	 1.259855595227337e+001
1	 3.959811301641444e+000	 3.740759995516202e-002	 1.203174550108037e+001
1	 3.959278479676159e+000	 7.495730917472705e-002	 1.143826419911493e+001
1	 3.958385480509717e+000	 1.126447824758346e-001	 1.082443678064857e+001
1	 3.957128302175166e+000	 1.504655628432892e-001	 1.019645055107299e+001
1	 3.955502997456446e+000	 1.884150816320309e-001	 9.560343392613355e+000
1	 3.953505677058800e+000	 2.264886588640513e-001	 8.921991660729649e+000
1	 3.951132512805530e+000	 2.646815036219777e-001	 8.287097989766920e+000
1	 3.948379740858182e+000	 3.029887145414693e-001	 7.661179027284469e+000
1	 3.945243664957141e+000	 3.414052804044880e-001	 7.049553117344693e+000
1	 3.941720659679418e+000	 3.799260808354097e-001	 6.457327953873541e+000
1	 3.986655999981866e+000	 0.000000000000000e+000	 1.103091330711838e+001
1	 3.986478111690256e+000	 3.765951634344035e-002	 1.055845055298031e+001
1	 3.985941701508023e+000	 7.546209896688422e-002	 1.005859358590232e+001
1	 3.985042688560327e+000	 1.134033734254160e-001	 9.537311432862962e+000
1	 3.983777043929509e+000	 1.514788526886650e-001	 9.000441227914497e+000
1	 3.982140793817519e+000	 1.896839373446401e-001	 8.453676762744017e+000
1	 3.980130022737659e+000	 2.280139158986443e-001	 7.902556933425648e+000
1	 3.977740876732896e+000	 2.664639651695105e-001	 7.352454101120431e+000
1	 3.974969566617713e+000	 3.050291507853134e-001	 6.808562385309867e+000
1	 3.971812371240533e+000	 3.437044277806347e-001	 6.275885908964021e+000
1	 3.968265640763441e+000	 3.824846412973638e-001	 5.759227015837852e+000
1	 4.013323999982382e+000	 0.000000000000000e+000	 9.586268002431313e+000
1	 4.013144921739844e+000	 3.791143273156598e-002	 9.198703115007472e+000
1	 4.012604923340605e+000	 7.596688875878213e-002	 8.783437058593421e+000
1	 4.011699896611567e+000	 1.141619643746716e-001	 8.346071160634461e+000
1	 4.010425785684371e+000	 1.524921425336828e-001	 7.892079769095865e+000
1	 4.008778590178979e+000	 1.909527930568868e-001	 7.426799359514019e+000
1	 4.006754368416777e+000	 2.295391729328923e-001	 6.955417545095010e+000
1	 4.004349240660397e+000	 2.682464267167314e-001	 6.482962006831358e+000
1	 4.001559392377266e+000	 3.070695870288871e-001	 6.014289361396345e+000
1	 3.998381077523853e+000	 3.460035751565556e-001	 5.554073985349527e+000
1	 3.994810621847332e+000	 3.850432017591319e-001	 5.106796814940495e+000
1	 4.039991999983599e+000	 0.000000000000000e+000	 8.261258769595274e+000
1	 4.039811731790116e+000	 3.816334911958979e-002	 7.949491521376551e+000
1	 4.039268145173817e+000	 7.647167855050699e-002	 7.610123125503892e+000
1	 4.038357104663356e+000	 1.149205553237095e-001	 7.248375542303729e+000
1	 4.037074527439683e+000	 1.535054323784602e-001	 6.869348053592525e+000
1	 4.035416386540783e+000	 1.922216487688887e-001	 6.478006937794747e+000
1	 4.033378714096124e+000	 2.310644299669047e-001	 6.079175056304686e+000
1	 4.030957604588014e+000	 2.700288882637349e-001	 5.677521367295190e+000
1	 4.028149218136838e+000	 3.091100232722672e-001	 5.277550383922246e+000
1	 4.024949783807112e+000	 3.483027225323063e-001	 4.883591594605639e+000
1	 4.021355602931107e+000	 3.876017622207494e-001	 4.499788863777104e+000
1	 4.066659999985416e+000	 0.000000000000000e+000	 7.052612508979484e+000
1	 4.066478541840970e+000	 3.841526550756264e-002	 6.807883104901077e+000
1	 4.065931367007566e+000	 7.697646834214497e-002	 6.536050370485171e+000
1	 4.065014312715617e+000	 1.156791462726372e-001	 6.241945547492448e+000
1	 4.063723269195385e+000	 1.545187222231149e-001	 5.930280897435303e+000
1	 4.062054182902881e+000	 1.934905044807632e-001	 5.605639956276046e+000
1	 4.060003059775669e+000	 2.325896870007906e-001	 5.272467709892078e+000
1	 4.057565968515734e+000	 2.718113498106163e-001	 4.935060705761695e+000
1	 4.054739043896424e+000	 3.111504595155297e-001	 4.597557117025097e+000
1	 4.051518490090317e+000	 3.506018699079425e-001	 4.263926775760274e+000
1	 4.047900584014782e+000	 3.901603226822512e-001	 3.937961192980573e+000
1	 4.093327999987731e+000	 0.000000000000000e+000	 5.957141417836283e+000
1	 4.093145351892312e+000	 3.866718189553542e-002	 5.771021623615996e+000
1	 4.092594588841764e+000	 7.748125813378227e-002	 5.558685170215904e+000
1	 4.091671520768268e+000	 1.164377372215629e-001	 5.324561537284347e+000
1	 4.090372010951406e+000	 1.555320120677646e-001	 5.072964329287858e+000
1	 4.088691979265223e+000	 1.947593601926277e-001	 4.808082121241288e+000
1	 4.086627405455375e+000	 2.341149440346594e-001	 4.533969236041711e+000
1	 4.084174332443538e+000	 2.735938113574702e-001	 4.254536468128939e+000
1	 4.081328869656023e+000	 3.131908957587514e-001	 3.973541768848019e+000
1	 4.078087196373478e+000	 3.529010172835201e-001	 3.694580909526126e+000
1	 4.074445565098373e+000	 3.927188831436725e-001	 3.421078138896382e+000
1	 4.119995999990449e+000	 0.000000000000000e+000	 4.971740229742019e+000
1	 4.119812161944040e+000	 3.891909828355897e-002	 4.836124787342488e+000
1	 4.119257810676322e+000	 7.798604792550518e-002	 4.675559500147006e+000
1	 4.118328728821235e+000	 1.171963281705942e-001	 4.494061342073280e+000
1	 4.117020752707688e+000	 1.565453019125268e-001	 4.295533932995512e+000
1	 4.115329775627761e+000	 1.960282159045999e-001	 4.083758986897673e+000
1	 4.113251751135212e+000	 2.356402010686202e-001	 3.862387703769105e+000
1	 4.110782696371409e+000	 2.753762729043918e-001	 3.634932119251889e+000
1	 4.107918695415634e+000	 3.152313320020084e-001	 3.404756426651494e+000
1	 4.104655902656603e+000	 3.552001646590953e-001	 3.175068286509239e+000
1	 4.100990546181900e+000	 3.952774436050482e-001	 2.948910139504063e+000
1	 4.146663999993465e+000	 0.000000000000000e+000	 4.093383560560073e+000
1	 4.146478971996062e+000	 3.917101467168417e-002	 4.000481879695685e+000
1	 4.145921032511151e+000	 7.849083771739990e-002	 3.884268825108969e+000
1	 4.144985936874439e+000	 1.179549191198392e-001	 3.748338413581574e+000
1	 4.143669494464162e+000	 1.575585917575192e-001	 3.596173254090217e+000
1	 4.141967571990445e+000	 1.972970716167970e-001	 3.431136609715782e+000
1	 4.139876096815146e+000	 2.371654581027823e-001	 3.256464416722638e+000
1	 4.137391060299331e+000	 2.771587344514758e-001	 3.075257274121921e+000
1	 4.134508521175254e+000	 3.172717682453773e-001	 2.890472417581405e+000
1	 4.131224608939702e+000	 3.574993120347234e-001	 2.704915692079066e+000
1	 4.127535527265377e+000	 3.978360040664135e-001	 2.521233538213414e+000
1	 4.173331999996682e+000	 0.000000000000000e+000	 3.319123356161407e+000
1	 4.173145782048277e+000	 3.942293105996187e-002	 3.261451471265999e+000
1	 4.172584254346157e+000	 7.899562750955259e-002	 3.182470070794614e+000
1	 4.171643144927797e+000	 1.187135100694056e-001	 3.085340047731159e+000
1	 4.170318236220768e+000	 1.585718816028597e-001	 2.973112267391269e+000
1	 4.168605368353229e+000	 1.985659273293367e-001	 2.848720254362588e+000
1	 4.166500442495146e+000	 2.386907151372550e-001	 2.714972851320979e+000
1	 4.163999424227287e+000	 2.789411959988172e-001	 2.574546862357510e+000
1	 4.161098346934876e+000	 3.193122044889346e-001	 2.429979693945508e+000
1	 4.157793315222783e+000	 3.597984594104604e-001	 2.283662007154992e+000
1	 4.154080508348820e+000	 4.003945645278036e-001	 2.137830395183353e+000
1	 4.200000000000001e+000	 0.000000000000000e+000	 2.646086437379640e+000
1	 4.199812592100591e+000	 3.967484744844298e-002	 2.616459219921837e+000
1	 4.199247476181254e+000	 7.950041730204951e-002	 2.567879672522552e+000
1	 4.198300352981237e+000	 1.194721010194014e-001	 2.503065675218187e+000
1	 4.196966977977437e+000	 1.595851714486656e-001	 2.424625902985896e+000
1	 4.195243164716060e+000	 1.998347830423366e-001	 2.335053148934692e+000
1	 4.193124788175180e+000	 2.402159721721477e-001	 2.236717635344339e+000
1	 4.190607788155260e+000	 2.807236575465109e-001	 2.131860324525229e+000
1	 4.187688172694504e+000	 3.213526407327567e-001	 2.022586241909168e+000
1	 4.184362021505856e+000	 3.620976067863622e-001	 1.910857824201628e+000
1	 4.180625489432249e+000	 4.029531249892535e-001	 1.798488305828923e+000
1	 3.915175678595246e+000	 3.773675203732345e-001	 7.201354855451061e+000
1	 3.911289159882991e+000	 4.157214995353987e-001	 6.533642935022795e+000
1	 3.907011458158685e+000	 4.541685722679180e-001	 5.855202797669991e+000
1	 3.902339205074782e+000	 4.927034190860264e-001	 5.170379339086924e+000
1	 3.897269115457639e+000	 5.313206183671849e-001	 4.483405232038832e+000
1	 3.891797990537994e+000	 5.700146475776188e-001	 3.798392467238978e+000
1	 3.885922721176181e+000	 6.087798846073804e-001	 3.119323881446463e+000
1	 3.879640291078204e+000	 6.476106092149703e-001	 2.450044688641816e+000
1	 3.872947779998714e+000	 6.865010045823983e-001	 1.794254030628772e+000
1	 3.865842366926857e+000	 7.254451589814351e-001	 1.155496563870756e+000
1	 3.858321333250832e+000	 7.644370675516264e-001	 5.371540998016634e-001
1	 3.941720659679418e+000	 3.799260808354097e-001	 6.457327953873541e+000
1	 3.937807790280955e+000	 4.185401008579659e-001	 5.868917600765977e+000
1	 3.933501085640565e+000	 4.572478456274203e-001	 5.267973978326701e+000
1	 3.928797154573237e+000	 4.960439595927763e-001	 4.658489080475779e+000
1	 3.923692689631787e+000	 5.349229843727675e-001	 4.044357505299557e+000
1	 3.918184470359235e+000	 5.738793599907123e-001	 3.429368794129868e+000
1	 3.912269366535888e+000	 6.129074262186267e-001	 2.817199752758358e+000
1	 3.905944341417220e+000	 6.520014240316406e-001	 2.211406768987752e+000
1	 3.899206454958562e+000	 6.911554971736033e-001	 1.615418141175045e+000
1	 3.892052867022555e+000	 7.303636938346295e-001	 1.032526432850074e+000
1	 3.884480840565159e+000	 7.696199684411721e-001	 4.658808688929317e-001
1	 3.968265640763441e+000	 3.824846412973638e-001	 5.759227015837853e+000
1	 3.964326420678744e+000	 4.213587021803618e-001	 5.243980498722720e+000
1	 3.959990713122277e+000	 4.603271189867886e-001	 4.714766576209695e+000
1	 3.955255104071564e+000	 4.993845000994172e-001	 4.175236818359902e+000
1	 3.950116263805866e+000	 5.385253503782557e-001	 3.628959043397512e+000
1	 3.944570950180483e+000	 5.777440724037150e-001	 3.079410413953927e+000
1	 3.938616011895684e+000	 6.170349678297757e-001	 2.529970511244815e+000
1	 3.932248391756403e+000	 6.563922388481975e-001	 1.983914399826031e+000
1	 3.925465129918650e+000	 6.958099897646696e-001	 1.444405695992898e+000
1	 3.918263367118544e+000	 7.352822286876528e-001	 9.144896532827826e-001
1	 3.910640347879802e+000	 7.748028693305062e-001	 3.970862789125275e-001
1	 3.994810621847332e+000	 3.850432017591319e-001	 5.106796814940494e+000
1	 3.990845051076375e+000	 4.241773035026022e-001	 4.658845561026830e+000
1	 3.986480340603841e+000	 4.634063923460213e-001	 4.195838803226006e+000
1	 3.981713053569776e+000	 5.027250406059335e-001	 3.721099920633555e+000
1	 3.976539837979888e+000	 5.421277163836207e-001	 3.237881018258836e+000
1	 3.970957430001741e+000	 5.816087848165876e-001	 2.749356739942897e+000
1	 3.964962657255564e+000	 6.211625094407804e-001	 2.258618055880254e+000
1	 3.958552442095746e+000	 6.607830536645895e-001	 1.768666035935651e+000
1	 3.951723804878960e+000	 7.004644823555440e-001	 1.282405620329645e+000
1	 3.944473867214805e+000	 7.402007635404504e-001	 8.026393996311827e-001
1	 3.936799855194743e+000	 7.799857702195772e-001	 3.320614163378360e-001
1	 4.021355602931107e+000	 3.876017622207494e-001	 4.499788863777106e+000
1	 4.017363681473869e+000	 4.269959048247033e-001	 4.113526351946771e+000
1	 4.012969968085275e+000	 4.664856657051180e-001	 3.711442053451715e+000
1	 4.008171003067891e+000	 5.060655811123093e-001	 3.296543150762945e+000
1	 4.002963412153861e+000	 5.457300823888341e-001	 2.871776880177954e+000
1	 3.997343909823011e+000	 5.854734972292921e-001	 2.440025021451443e+000
1	 3.991309302615524e+000	 6.252900510515952e-001	 2.004098359566789e+000
1	 3.984856492435233e+000	 6.651738684807650e-001	 1.566731128482337e+000
1	 3.977982479839473e+000	 7.051189749461716e-001	 1.130575447035777e+000
1	 3.970684367311317e+000	 7.451192983929695e-001	 6.981957575230264e-001
1	 3.962959362509964e+000	 7.851686711083349e-001	 2.720632777821527e-001
1	 4.047900584014782e+000	 3.901603226822512e-001	 3.937961192980573e+000
1	 4.043882311871244e+000	 4.298145061466807e-001	 3.608036079947485e+000
1	 4.039459595566599e+000	 4.695649390640772e-001	 3.261821126678967e+000
1	 4.034628952565923e+000	 5.094061216185286e-001	 2.902019081067787e+000
1	 4.029386986327793e+000	 5.493324483938677e-001	 2.531282938884827e+000
1	 4.023730389644293e+000	 5.893382096417900e-001	 2.152211070679333e+000
1	 4.017655947975552e+000	 6.294175926621729e-001	 1.767342319213313e+000
1	 4.011160542774849e+000	 6.695646832966722e-001	 1.379151076005660e+000
1	 4.004241154800173e+000	 7.097734675364990e-001	 9.900423458768646e-001
1	 3.996894867408061e+000	 7.500378332451562e-001	 6.023468086877517e-001
1	 3.989118869825450e+000	 7.903515719967292e-001	 2.183158877528534e-001
1	 4.074445565098373e+000	 3.927188831436725e-001	 3.421078138896382e+000
1	 4.070400942268521e+000	 4.326331074685511e-001	 3.142387609280827e+000
1	 4.065949223047831e+000	 4.726442124228984e-001	 2.847214443224724e+000
1	 4.061086902063884e+000	 5.127466621245758e-001	 2.537968489847367e+000
1	 4.055810560501691e+000	 5.529348143986932e-001	 2.217018921898195e+000
1	 4.050116869465589e+000	 5.932029220540418e-001	 1.886689960985892e+000
1	 4.044002593335647e+000	 6.335451342724678e-001	 1.549256572585028e+000
1	 4.037464593114587e+000	 6.739554981122600e-001	 1.206940138232448e+000
1	 4.030499829761044e+000	 7.144279601264721e-001	 8.619041126099383e-001
1	 4.023105367505020e+000	 7.549563680969565e-001	 5.162496734819293e-001
1	 4.015278377141184e+000	 7.955344728847097e-001	 1.720113727163442e-001
1	 4.100990546181900e+000	 3.952774436050482e-001	 2.948910139504063e+000
1	 4.096919572665721e+000	 4.354517087903299e-001	 2.716593471125938e+000
1	 4.092438850528989e+000	 4.757234857815803e-001	 2.467854250396737e+000
1	 4.087544851561791e+000	 5.160872026304351e-001	 2.204820743083663e+000
1	 4.082234134675567e+000	 5.565371804032819e-001	 1.929588511194078e+000
1	 4.076503349286900e+000	 5.970676344660097e-001	 1.644216698084135e+000
1	 4.070349238695803e+000	 6.376726758824337e-001	 1.350724283429031e+000
1	 4.063768643454428e+000	 6.783463129274764e-001	 1.051086314400151e+000
1	 4.056758504722066e+000	 7.190824527160370e-001	 7.472301196472061e-001
1	 4.049315867602173e+000	 7.598749029483172e-001	 4.410315129266198e-001
1	 4.041437884457146e+000	 8.007173737722259e-001	 1.343109934498866e-001
1	 4.127535527265377e+000	 3.978360040664135e-001	 2.521233538213414e+000
1	 4.123438203062861e+000	 4.382703101120334e-001	 2.330665874299590e+000
1	 4.118928478010090e+000	 4.788027591401218e-001	 2.123966820992954e+000
1	 4.114002801059660e+000	 5.194277431360904e-001	 1.902994161415539e+000
1	 4.108657708849427e+000	 5.601395464076056e-001	 1.669579859165905e+000
1	 4.102889829108228e+000	 6.009323468776551e-001	 1.425526865335476e+000
1	 4.096695884056011e+000	 6.418002174920235e-001	 1.172605896304221e+000
1	 4.090072693794363e+000	 6.827371277422706e-001	 9.125521876884781e-001
1	 4.083017179683222e+000	 7.237369453051398e-001	 6.470622300361414e-001
1	 4.075526367699502e+000	 7.647934377991846e-001	 3.777904920789337e-001
1	 4.067597391773322e+000	 8.059002746592269e-001	 1.063461375575985e-001
1	 4.154080508348820e+000	 4.003945645278036e-001	 2.137830395183352e+000
1	 4.149956833459963e+000	 4.410889114336775e-001	 1.984616715556038e+000
1	 4.145418105491158e+000	 4.818820324985224e-001	 1.815772644190018e+000
1	 4.140460750557502e+000	 5.227682836415259e-001	 1.632896373042916e+000
1	 4.135081283023280e+000	 5.637419124116356e-001	 1.437566084802257e+000
1	 4.129276308929573e+000	 6.047970592889388e-001	 1.231337244303352e+000
1	 4.123042529416265e+000	 6.459277591011916e-001	 1.015739862470439e+000
1	 4.116376744134380e+000	 6.871279425565907e-001	 7.922757372748520e-001
1	 4.109275854644496e+000	 7.283914378937263e-001	 5.624156763972333e-001
1	 4.101736867796986e+000	 7.697119726495050e-001	 3.275967064671777e-001
1	 4.093756899089693e+000	 8.110831755456631e-001	 8.921927393307923e-002
1	 4.180625489432249e+000	 4.029531249892535e-001	 1.798488305828923e+000
1	 4.176475463857044e+000	 4.439075127552786e-001	 1.678457589494381e+000
1	 4.171907732972210e+000	 4.849613058567809e-001	 1.543486609159610e+000
1	 4.166918700055335e+000	 5.261088241467261e-001	 1.394924653186374e+000
1	 4.161504857197135e+000	 5.673442784153436e-001	 1.234105750961803e+000
1	 4.155662788750936e+000	 6.086617716998225e-001	 1.062346411665666e+000
1	 4.149389174776560e+000	 6.500553007098914e-001	 8.809433381234193e-001
1	 4.142680794474464e+000	 6.915187573703855e-001	 6.911711194528886e-001
1	 4.135534529605870e+000	 7.330459304817428e-001	 4.942799063766702e-001
1	 4.127947367894608e+000	 7.746305074992249e-001	 2.914930732315539e-001
1	 4.119916406406245e+000	 8.162660764314833e-001	 8.400487085950845e-002
1	 3.858321333250832e+000	 7.644370675516264e-001	 5.371540998016632e-001
1	 3.850380843942109e+000	 8.034764911172418e-001	-6.871026582664203e-002
1	 3.842019493278809e+000	 8.425513879866889e-001	-6.707914454157926e-001
1	 3.833234890918528e+000	 8.816554735420564e-001	-1.267275152753931e+000
1	 3.824024761409275e+000	 9.207823780247851e-001	-1.856389672161517e+000
1	 3.814386947187075e+000	 9.599256488797630e-001	-2.436408729269572e+000
1	 3.804319411526238e+000	 9.990787532115453e-001	-3.005654341586089e+000
1	 3.793820241437710e+000	 1.038235080352055e+000	-3.562499642911721e+000
1	 3.782887650511028e+000	 1.077387944538931e+000	-4.105371675577072e+000
1	 3.771519981695345e+000	 1.116530587703505e+000	-4.632754144397477e+000
1	 3.759715710014934e+000	 1.155656182367169e+000	-5.143190126180472e+000
1	 3.884480840565159e+000	 7.696199684411721e-001	 4.658808688929323e-001
1	 3.876486514556274e+000	 8.089240801958826e-001	-9.144850749666983e-002
1	 3.868068473743194e+000	 8.482639057642207e-001	-6.470567621484060e-001
1	 3.859224311576942e+000	 8.876331179184213e-001	-1.199176001497732e+000
1	 3.849951737177909e+000	 9.270253037128126e-001	-1.746068033999543e+000
1	 3.840248578353792e+000	 9.664339668438116e-001	-2.286026956761038e+000
1	 3.830112784569850e+000	 1.005852530122790e+000	-2.817381737712794e+000
1	 3.819542429866924e+000	 1.045274338061189e+000	-3.338498788300026e+000
1	 3.808535715722648e+000	 1.084692659567023e+000	-3.847784521569198e+000
1	 3.797090973851327e+000	 1.124100690751761e+000	-4.343687890432716e+000
1	 3.785206668937873e+000	 1.163491557846334e+000	-4.824702900813010e+000
1	 3.910640347879802e+000	 7.748028693305062e-001	 3.970862789125273e-001
1	 3.902592185170744e+000	 8.143716692742634e-001	-1.138112409246013e-001
1	 3.894117454207847e+000	 8.539764235414398e-001	-6.247859293051297e-001
1	 3.885213732235560e+000	 8.936107622944155e-001	-1.134122126493530e+000
1	 3.875878712946665e+000	 9.332682294004112e-001	-1.640122522784652e+000
1	 3.866110209520530e+000	 9.729422848073702e-001	-2.141110482699481e+000
1	 3.855906157613377e+000	 1.012626307033486e+000	-2.635432378448966e+000
1	 3.845264618295935e+000	 1.052313595769716e+000	-3.121459928475399e+000
1	 3.834183780933947e+000	 1.091997374594454e+000	-3.597592536764034e+000
1	 3.822661966006884e+000	 1.131670793799310e+000	-4.062259628508315e+000
1	 3.810697627860288e+000	 1.171326933324751e+000	-4.513922977613959e+000
1	 3.936799855194743e+000	 7.799857702195772e-001	 3.320614163378357e-001
1	 3.928697855785512e+000	 8.198192583523399e-001	-1.344947980050103e-001
1	 3.920166434672769e+000	 8.596889413183102e-001	-6.026869464522777e-001
1	 3.911203152894398e+000	 8.995884066700153e-001	-1.070857407106908e+000
1	 3.901805688715572e+000	 9.395111550875679e-001	-1.537357051953750e+000
1	 3.891971840687339e+000	 9.794506027704418e-001	-2.000547330023460e+000
1	 3.881699530656881e+000	 1.019400083943650e+000	-2.458802371552709e+000
1	 3.870986806724833e+000	 1.059352853477671e+000	-2.910511109689602e+000
1	 3.859831846145038e+000	 1.099302089621277e+000	-3.354079416165920e+000
1	 3.848232958162134e+000	 1.139240896846218e+000	-3.787932247237781e+000
1	 3.836188586782309e+000	 1.179162308802503e+000	-4.210515796082006e+000
1	 3.962959362509964e+000	 7.851686711083349e-001	 2.720632777821525e-001
1	 3.954803526400566e+000	 8.252668474300684e-001	-1.522299327025428e-001
1	 3.946215415137962e+000	 8.654014590947966e-001	-5.795019271532316e-001
1	 3.937192573553473e+000	 9.055660510451958e-001	-1.008158889330027e+000
1	 3.927732664484666e+000	 9.457540807742725e-001	-1.436607116430238e+000
1	 3.917833471854273e+000	 9.859589207330297e-001	-1.863254882329654e+000
1	 3.907492903700438e+000	 1.026173860853301e+000	-2.286514331567472e+000
1	 3.896708995153702e+000	 1.066392111185088e+000	-2.704803401273986e+000
1	 3.885479911356018e+000	 1.106606804647541e+000	-3.116547768106981e+000
1	 3.873803950317198e+000	 1.146810999892552e+000	-3.520182817132012e+000
1	 3.861679545704069e+000	 1.186997684279673e+000	-3.914155629456747e+000
1	 3.989118869825450e+000	 7.903515719967292e-001	 2.183158877528536e-001
1	 3.980909197015897e+000	 8.307144365074038e-001	-1.657806924011208e-001
1	 3.972264395603426e+000	 8.711139768708636e-001	-5.540059804190507e-001
1	 3.963181994212799e+000	 9.115436954199335e-001	-9.448356982952696e-001
1	 3.953659640253977e+000	 9.519970064605123e-001	-1.336738757111942e+000
1	 3.943695103021376e+000	 9.924672386951351e-001	-1.728178921178821e+000
1	 3.933286276744112e+000	 1.032947637762458e+000	-2.117616510702177e+000
1	 3.922431183582630e+000	 1.073431368892000e+000	-2.503510140745529e+000
1	 3.911127976566998e+000	 1.113911519673297e+000	-2.884318494106182e+000
1	 3.899374942472197e+000	 1.154381102938380e+000	-3.258502125595003e+000
1	 3.887170504625702e+000	 1.194833059756341e+000	-3.624525295073104e+000
1	 4.015278377141184e+000	 7.955344728847097e-001	 1.720113727163449e-001
1	 4.007014867631494e+000	 8.361620255843024e-001	-1.739433333721856e-001
1	 3.998313376069162e+000	 8.768264946464753e-001	-5.250061358829374e-001
1	 3.989171414872387e+000	 9.175213397942025e-001	-8.797279932984421e-001
1	 3.979586616023536e+000	 9.582399321462761e-001	-1.236647565837368e+000
1	 3.969556734188702e+000	 9.989755566567616e-001	-1.594292701033299e+000
1	 3.959079649787975e+000	 1.039721414671136e+000	-1.951181963685576e+000
1	 3.948153372011706e+000	 1.080470626598443e+000	-2.305826208421657e+000
1	 3.936776041778080e+000	 1.121216234698595e+000	-2.656730192969412e+000
1	 3.924945934627249e+000	 1.161951205983767e+000	-3.002394230096757e+000
1	 3.912661463547339e+000	 1.202668435232591e+000	-3.341315876037536e+000
1	 4.041437884457146e+000	 8.007173737722259e-001	 1.343109934498866e-001
1	 4.033120538247349e+000	 8.416096146607200e-001	-1.755452783627352e-001
1	 4.024362356535170e+000	 8.825390124215965e-001	-4.913403107179657e-001
1	 4.015160835532259e+000	 9.234989841679794e-001	-8.117059634058746e-001
1	 4.005513591793375e+000	 9.644828578315521e-001	-1.135257728995791e+000
1	 3.995418365356301e+000	 1.005483874617912e+000	-1.460596060121019e+000
1	 3.984873022832094e+000	 1.046495191579357e+000	-1.786307745054593e+000
1	 3.973875560441019e+000	 1.087509884304450e+000	-2.110967330206766e+000
1	 3.962424106989368e+000	 1.128520949723485e+000	-2.433138588032860e+000
1	 3.950516926782475e+000	 1.169521309028779e+000	-2.751376028699395e+000
1	 3.938152422469113e+000	 1.210503810708505e+000	-3.064226453714064e+000
1	 4.067597391773322e+000	 8.059002746592269e-001	 1.063461375575985e-001
1	 4.059226208863447e+000	 8.470572037366113e-001	-1.694441144071817e-001
1	 4.050411337001455e+000	 8.882515301961920e-001	-4.518763164181612e-001
1	 4.041150256192424e+000	 9.294766285412385e-001	-7.396688618180363e-001
1	 4.031440567563525e+000	 9.707257835163288e-001	-1.031521108041927e+000
1	 4.021279996524220e+000	 1.011992192578588e+000	-1.326114565608942e+000
1	 4.010666395876541e+000	 1.053268968487136e+000	-1.622114137417612e+000
1	 3.999597748870652e+000	 1.094549142010055e+000	-1.918169407282238e+000
1	 3.988072172200968e+000	 1.135825664748018e+000	-2.212915976507053e+000
1	 3.976087918937997e+000	 1.177091412073484e+000	-2.504976847155636e+000
1	 3.963643381391156e+000	 1.218339186184163e+000	-2.792963850532277e+000
1	 4.093756899089693e+000	 8.110831755456631e-001	 8.921927393307920e-002
1	 4.085331879479782e+000	 8.525047928119331e-001	-1.545266290635767e-001
1	 4.076460317468012e+000	 8.939640479702253e-001	-4.055109036605409e-001
1	 4.067139676852903e+000	 9.354542729139562e-001	-6.625440772563170e-001
1	 4.057367543334021e+000	 9.769687092005943e-001	-9.244163552640609e-001
1	 4.047141627692514e+000	 1.018500510538794e+000	-1.189898691550905e+000
1	 4.036459768921380e+000	 1.060042745394492e+000	-1.457743909306125e+000
1	 4.025319937300696e+000	 1.101588399715292e+000	-1.726687871496609e+000
1	 4.013720237412985e+000	 1.143130379772244e+000	-1.995450699933519e+000
1	 4.001658911093933e+000	 1.184661515117947e+000	-2.262738041838004e+000
1	 3.989134340313600e+000	 1.226174561659649e+000	-2.527242382656826e+000
1	 4.119916406406245e+000	 8.162660764314833e-001	 8.400487085950829e-002
1	 4.111437550096344e+000	 8.579523818866409e-001	-1.297078833665623e-001
1	 4.102509297934843e+000	 8.996765657436617e-001	-3.511688435548614e-001
1	 4.093129097513706e+000	 9.414319172861080e-001	-5.792862407273189e-001
1	 4.083294519104891e+000	 9.832116348843372e-001	-8.129480632389733e-001
1	 4.073003258861229e+000	 1.025008828498531e+000	-1.051023028153362e+000
1	 4.062253141966685e+000	 1.066816522301443e+000	-1.292361601300352e+000
1	 4.051042125731239e+000	 1.108627657420195e+000	-1.535797065313454e+000
1	 4.039368302625527e+000	 1.150435094796214e+000	-1.780146634815795e+000
1	 4.027229903250404e+000	 1.192231618162235e+000	-2.024212617795374e+000
1	 4.014625299236578e+000	 1.234009937135045e+000	-2.266783622079084e+000
1	 3.759715710014934e+000	 1.155656182367169e+000	-5.143190126180472e+000
1	 3.747473444274480e+000	 1.194757834072111e+000	-5.633132845444688e+000
1	 3.734791926805089e+000	 1.233828582715533e+000	-6.099621451076087e+000
1	 3.721670038772552e+000	 1.272861407380663e+000	-6.542243462338291e+000
1	 3.708106803531545e+000	 1.311849230209201e+000	-6.960747852142417e+000
1	 3.694101388953216e+000	 1.350784919814787e+000	-7.355047630212249e+000
1	 3.679653109660587e+000	 1.389661294793495e+000	-7.725222189319261e+000
1	 3.664761429167448e+000	 1.428471127328699e+000	-8.071519405061224e+000
1	 3.649425961916560e+000	 1.467207146887431e+000	-8.394357480049218e+000
1	 3.633646475212943e+000	 1.505862044005179e+000	-8.694326523795199e+000
1	 3.617422891048259e+000	 1.544428474155829e+000	-8.972189860057110e+000
1	 3.785206668937873e+000	 1.163491557846334e+000	-4.824702900813010e+000
1	 3.772881400354629e+000	 1.202858319648345e+000	-5.287866764207642e+000
1	 3.760113901905669e+000	 1.242193968865346e+000	-5.730749735353028e+000
1	 3.746903047171049e+000	 1.281491436978598e+000	-6.152791657547400e+000
1	 3.733247852883756e+000	 1.320743598141761e+000	-6.553582621876464e+000
1	 3.719147481273076e+000	 1.359943272617522e+000	-6.932865619973802e+000
1	 3.704601242315142e+000	 1.399083230311878e+000	-7.290538979667036e+000
1	 3.689608595886351e+000	 1.438156194403447e+000	-7.626658574210885e+000
1	 3.674169153815358e+000	 1.477154845064890e+000	-7.941439796155316e+000
1	 3.658282681829496e+000	 1.516071823273362e+000	-8.235259287280746e+000
1	 3.641949101391516e+000	 1.554899734706702e+000	-8.508656416448948e+000
1	 3.810697627860288e+000	 1.171326933324751e+000	-4.513922977613959e+000
1	 3.798289356434169e+000	 1.210958805223801e+000	-4.950242230593962e+000
1	 3.785435877005572e+000	 1.250559355014358e+000	-5.369355698289564e+000
1	 3.772136055568818e+000	 1.290121466575712e+000	-5.770570513531103e+000
1	 3.758388902235206e+000	 1.329637966073492e+000	-6.153331694974598e+000
1	 3.744193573592157e+000	 1.369101625419422e+000	-6.517224830317760e+000
1	 3.729549374968920e+000	 1.408505165829424e+000	-6.861978563635759e+000
1	 3.714455762604491e+000	 1.447841261477359e+000	-7.187466877871824e+000
1	 3.698912345713430e+000	 1.487102543241513e+000	-7.493711163819355e+000
1	 3.682918888445374e+000	 1.526281602540710e+000	-7.780882067269476e+000
1	 3.666475311734168e+000	 1.565370995256741e+000	-8.049301106366084e+000
1	 3.836188586782309e+000	 1.179162308802503e+000	-4.210515796082006e+000
1	 3.823697312513242e+000	 1.219059290798574e+000	-4.620129720415234e+000
1	 3.810757852104945e+000	 1.258924741162679e+000	-5.015496426483293e+000
1	 3.797369063966007e+000	 1.298751496172132e+000	-5.395805049473434e+000
1	 3.783529951586039e+000	 1.338532334004527e+000	-5.760369106429416e+000
1	 3.769239665910597e+000	 1.378259978220629e+000	-6.108629171217158e+000
1	 3.754497507622050e+000	 1.417927101346283e+000	-6.440155376251383e+000
1	 3.739302929321989e+000	 1.457526328550590e+000	-6.754649732456630e+000
1	 3.723655537610877e+000	 1.497050241417461e+000	-7.051948259192119e+000
1	 3.707555095060664e+000	 1.536491381807390e+000	-7.332022916158334e+000
1	 3.691001522076283e+000	 1.575842255806114e+000	-7.594983329620360e+000
1	 3.861679545704069e+000	 1.186997684279673e+000	-3.914155629456747e+000
1	 3.849105268591986e+000	 1.227159776372762e+000	-4.297403129442393e+000
1	 3.836079827203931e+000	 1.267290127310417e+000	-4.669227499217389e+000
1	 3.822602072362763e+000	 1.307381525767979e+000	-5.028714343149724e+000
1	 3.808671000936400e+000	 1.347426701935000e+000	-5.375059015209221e+000
1	 3.794285758228536e+000	 1.387418331021288e+000	-5.707569247399900e+000
1	 3.779445640274659e+000	 1.427349036862606e+000	-6.025667628989746e+000
1	 3.764150096038960e+000	 1.467211395623299e+000	-6.328893928553949e+000
1	 3.748398729507805e+000	 1.506997939592899e+000	-6.616907251057342e+000
1	 3.732191301675452e+000	 1.546701161073566e+000	-6.889488022437880e+000
1	 3.715527732417928e+000	 1.586313516354986e+000	-7.146539794419646e+000
1	 3.887170504625702e+000	 1.194833059756341e+000	-3.624525295073104e+000
1	 3.874513224670546e+000	 1.235260261946463e+000	-3.981939661270205e+000
1	 3.861401802302679e+000	 1.275655513457684e+000	-4.330603037883281e+000
1	 3.847835080759229e+000	 1.316011555363373e+000	-4.669511725736683e+000
1	 3.833812050286429e+000	 1.356321069865043e+000	-4.997756028078741e+000
1	 3.819331850546111e+000	 1.396576683821539e+000	-5.314522794608884e+000
1	 3.804393772926877e+000	 1.436770972378545e+000	-5.619097841723550e+000
1	 3.788997262755523e+000	 1.476896462695642e+000	-5.910868241642623e+000
1	 3.773141921404314e+000	 1.516945637767987e+000	-6.189324473238784e+000
1	 3.756827508289828e+000	 1.556910940339404e+000	-6.454062427578562e+000
1	 3.740053942759174e+000	 1.596784776903525e+000	-6.704785261392953e+000
1	 3.912661463547339e+000	 1.202668435232591e+000	-3.341315876037536e+000
1	 3.899921180749059e+000	 1.243360747519771e+000	-3.673619719564849e+000
1	 3.886723777401333e+000	 1.284020899604590e+000	-3.999675753471354e+000
1	 3.873068089155554e+000	 1.324641584958439e+000	-4.318404969007960e+000
1	 3.858953099636274e+000	 1.365215437794790e+000	-4.628805510761857e+000
1	 3.844377942863459e+000	 1.405735036621528e+000	-4.929955098808477e+000
1	 3.829341905578835e+000	 1.446192907894251e+000	-5.221013353875851e+000
1	 3.813844429471796e+000	 1.486581529767779e+000	-5.501224018933113e+000
1	 3.797885113300513e+000	 1.526893335942890e+000	-5.769917070723324e+000
1	 3.781463714903873e+000	 1.567120719605069e+000	-6.026510714894052e+000
1	 3.764580153100085e+000	 1.607256037451897e+000	-6.270513258532062e+000
1	 3.938152422469113e+000	 1.210503810708505e+000	-3.064226453714064e+000
1	 3.925329136827668e+000	 1.251461233092785e+000	-3.372326804496707e+000
1	 3.912045752500035e+000	 1.292386285751245e+000	-3.676496992217397e+000
1	 3.898301097551885e+000	 1.333271614553299e+000	-3.975596465258815e+000
1	 3.884094148986077e+000	 1.374109805724376e+000	-4.268543887019558e+000
1	 3.869424035180721e+000	 1.414893389421397e+000	-4.554319399110606e+000
1	 3.854290038230659e+000	 1.455614843409874e+000	-4.831966815721438e+000
1	 3.838691596187895e+000	 1.496266596839866e+000	-5.100595743417814e+000
1	 3.822628305196501e+000	 1.536841034117768e+000	-5.359383620690511e+000
1	 3.806099921517679e+000	 1.577330498870728e+000	-5.607577671651135e+000
1	 3.789106363440732e+000	 1.617727298000268e+000	-5.844496768366696e+000
1	 3.963643381391156e+000	 1.218339186184163e+000	-2.792963850532277e+000
1	 3.950737092906511e+000	 1.259561718665599e+000	-3.077947413169053e+000
1	 3.937367727598935e+000	 1.300751671897758e+000	-3.361116779487636e+000
1	 3.923534105948365e+000	 1.341901644148074e+000	-3.641283400288839e+000
1	 3.909235198335982e+000	 1.383004173653933e+000	-3.917298926187369e+000
1	 3.894470127498032e+000	 1.424051742221287e+000	-4.188057275152838e+000
1	 3.879238170882482e+000	 1.465036778925566e+000	-4.452496660730759e+000
1	 3.863538762903939e+000	 1.505951663912062e+000	-4.709601576156345e+000
1	 3.847371497092383e+000	 1.546788732292785e+000	-4.958404729578287e+000
1	 3.830736128131332e+000	 1.587540278136545e+000	-5.197988925630713e+000
1	 3.813632573781182e+000	 1.628198558548805e+000	-5.427488888623785e+000
1	 3.989134340313600e+000	 1.226174561659649e+000	-2.527242382656826e+000
1	 3.976145048985732e+000	 1.267662204238311e+000	-2.790370943864845e+000
1	 3.962689702698176e+000	 1.309117058044240e+000	-3.053583861981074e+000
1	 3.948767114345144e+000	 1.350531673742888e+000	-3.315657919751800e+000
1	 3.934376247686132e+000	 1.391898541583594e+000	-3.575390019688494e+000
1	 3.919516219815531e+000	 1.433210095021344e+000	-3.831599019624272e+000
1	 3.904186303534432e+000	 1.474458714441479e+000	-4.083127559803708e+000
1	 3.888385929620047e+000	 1.515636730984523e+000	-4.328843877768926e+000
1	 3.872114688988263e+000	 1.556736430468103e+000	-4.567643607256834e+000
1	 3.855372334744916e+000	 1.597750057402686e+000	-4.798451557282648e+000
1	 3.838158784121502e+000	 1.638669819097676e+000	-5.020223467556489e+000
1	 4.014625299236578e+000	 1.234009937135045e+000	-2.266783622079084e+000
1	 4.001553005065471e+000	 1.275762689811019e+000	-2.509489603941109e+000
1	 3.988011677797905e+000	 1.317482444190801e+000	-2.753945748324172e+000
1	 3.974000122742365e+000	 1.359161703337862e+000	-2.998907289168268e+000
1	 3.959517297036671e+000	 1.400792909513493e+000	-3.243128447012410e+000
1	 3.944562312133359e+000	 1.442368447821711e+000	-3.485363996599154e+000
1	 3.929134436186638e+000	 1.483880649957763e+000	-3.724370858198254e+000
1	 3.913233096336334e+000	 1.525321798057408e+000	-3.958909710063018e+000
1	 3.896857880884244e+000	 1.566684128643885e+000	-4.187746619328205e+000
1	 3.880008541358523e+000	 1.607959836669317e+000	-4.409654688559318e+000
1	 3.862684994461763e+000	 1.649141079647046e+000	-4.623415715069128e+000
1	 3.617422891048259e+000	 1.544428474155829e+000	-8.972189860057108e+000
1	 3.600757821582671e+000	 1.582893299281493e+000	-9.220688477859779e+000
1	 3.583649105312324e+000	 1.621254913125378e+000	-9.432349992245868e+000
1	 3.566097140681105e+000	 1.659505895371513e+000	-9.607664959814475e+000
1	 3.548102486840681e+000	 1.697638806993271e+000	-9.747173106498996e+000
1	 3.529665864868949e+000	 1.735646194488917e+000	-9.851463174534128e+000
1	 3.510788158857956e+000	 1.773520594178442e+000	-9.921172693326863e+000
1	 3.491470416868223e+000	 1.811254536557092e+000	-9.956987673538396e+000
1	 3.471713851746570e+000	 1.848840550700881e+000	-9.959642223854878e+000
1	 3.451519841804725e+000	 1.886271168719184e+000	-9.929918090098855e+000
1	 3.430889931356198e+000	 1.923538930249378e+000	-9.868644116510589e+000
1	 3.641949101391516e+000	 1.554899734706702e+000	-8.508656416448948e+000
1	 3.625171042372079e+000	 1.593625352230693e+000	-8.753326259200746e+000
1	 3.607946328612285e+000	 1.632247058698082e+000	-8.961005214418837e+000
1	 3.590275361257489e+000	 1.670757383482981e+000	-9.132345870805006e+000
1	 3.572158703250427e+000	 1.709148837121984e+000	-9.268063255959641e+000
1	 3.553597080557928e+000	 1.747413915578442e+000	-9.368934535196301e+000
1	 3.534591383266208e+000	 1.785545104568416e+000	-9.435798608269689e+000
1	 3.515142666541674e+000	 1.823534883943736e+000	-9.469555603267800e+000
1	 3.495252151454281e+000	 1.861375732127374e+000	-9.471166267152187e+000
1	 3.474921225660750e+000	 1.899060130596229e+000	-9.441651252671850e+000
1	 3.454151443945081e+000	 1.936580568406245e+000	-9.382090301619884e+000
1	 3.666475311734168e+000	 1.565370995256741e+000	-8.049301106366084e+000
1	 3.649584263160967e+000	 1.604357405179059e+000	-8.289770093806029e+000
1	 3.632243551911827e+000	 1.643239204269950e+000	-8.493363902734275e+000
1	 3.614453581833563e+000	 1.682008871593611e+000	-8.660867061084680e+000
1	 3.596214919659974e+000	 1.720658867249862e+000	-8.793138570447326e+000
1	 3.577528296246815e+000	 1.759181636667133e+000	-8.891111491847608e+000
1	 3.558394607674471e+000	 1.797569614957564e+000	-8.955792406027365e+000
1	 3.538814916215225e+000	 1.835815231329566e+000	-8.988260747384143e+000
1	 3.518790451162161e+000	 1.873910913553071e+000	-8.989668011018580e+000
1	 3.498322609516990e+000	 1.911849092472505e+000	-8.961236832637221e+000
1	 3.477412956534195e+000	 1.949622206562376e+000	-8.904259941364686e+000
1	 3.691001522076283e+000	 1.575842255806114e+000	-7.594983329620360e+000
1	 3.673997483949385e+000	 1.615089458126757e+000	-7.830892469678224e+000
1	 3.656540775210977e+000	 1.654231349841147e+000	-8.030295608870461e+000
1	 3.638631802409331e+000	 1.693260359703563e+000	-8.194079690365422e+000
1	 3.620271136069302e+000	 1.732168897377055e+000	-8.323216948716810e+000
1	 3.601459511935572e+000	 1.770949357755138e+000	-8.418764417345741e+000
1	 3.582197832082684e+000	 1.809594125346024e+000	-8.481863289662194e+000
1	 3.562487165888796e+000	 1.848095578714712e+000	-8.513738132853829e+000
1	 3.542328750870121e+000	 1.886446094978093e+000	-8.515695953713740e+000
1	 3.521723993373348e+000	 1.924638054348121e+000	-8.489125116228772e+000
1	 3.500674469123442e+000	 1.962663844717872e+000	-8.435494111009671e+000
1	 3.715527732417928e+000	 1.586313516354986e+000	-7.146539794419646e+000
1	 3.698410704737381e+000	 1.625821511073953e+000	-7.377542837634871e+000
1	 3.680837998509759e+000	 1.665223495411833e+000	-7.572646924851313e+000
1	 3.662810022984793e+000	 1.704511847812997e+000	-7.732812444326384e+000
1	 3.644327352478393e+000	 1.743678927503718e+000	-7.859094693712896e+000
1	 3.625390727624157e+000	 1.782717078842601e+000	-7.952643343612660e+000
1	 3.606001056490789e+000	 1.821618635733935e+000	-8.014701736428863e+000
1	 3.586159415562316e+000	 1.860375926099302e+000	-8.046606019382242e+000
1	 3.565867050578072e+000	 1.898981276402559e+000	-8.049784110941499e+000
1	 3.545125377229727e+000	 1.937427016223188e+000	-8.025754500316133e+000
1	 3.523935981712723e+000	 1.975705482872835e+000	-7.976124880063374e+000
1	 3.740053942759174e+000	 1.596784776903525e+000	-6.704785261392953e+000
1	 3.722823925524999e+000	 1.636553564020810e+000	-6.930548366665029e+000
1	 3.705135221808200e+000	 1.676215640982174e+000	-7.121242235860789e+000
1	 3.686988243559954e+000	 1.715763335922070e+000	-7.277872271505528e+000
1	 3.668383568887227e+000	 1.755188957630004e+000	-7.401547220666176e+000
1	 3.649321943312529e+000	 1.794484799929669e+000	-7.493478628584954e+000
1	 3.629804280898727e+000	 1.833643146121435e+000	-7.554980111767052e+000
1	 3.609831665235705e+000	 1.872656273483467e+000	-7.587466449188439e+000
1	 3.589405350285926e+000	 1.911516457826590e+000	-7.592452490712343e+000
1	 3.568526761086031e+000	 1.950215978097816e+000	-7.571551882240109e+000
1	 3.547197494301936e+000	 1.988747121027364e+000	-7.526475607563964e+000
1	 3.764580153100085e+000	 1.607256037451897e+000	-6.270513258532062e+000
1	 3.747237146312289e+000	 1.647285616967498e+000	-6.490714669758848e+000
1	 3.729432445106323e+000	 1.687207786552331e+000	-6.676884443629646e+000
1	 3.711166464134817e+000	 1.727014824030942e+000	-6.830045091386027e+000
1	 3.692439785295785e+000	 1.766698987756068e+000	-6.951329737509403e+000
1	 3.673253159000652e+000	 1.806252521016491e+000	-7.041981597093116e+000
1	 3.653607505306437e+000	 1.845667656508661e+000	-7.103353259293076e+000
1	 3.633503914908891e+000	 1.884936620867336e+000	-7.136905775289089e+000
1	 3.612943649993593e+000	 1.924051639250306e+000	-7.144207549643304e+000
1	 3.591928144942162e+000	 1.963004939972116e+000	-7.126933034409448e+000
1	 3.570459006890980e+000	 2.001788759181559e+000	-7.086861225822814e+000
1	 3.789106363440732e+000	 1.617727298000268e+000	-5.844496768366694e+000
1	 3.771650367099297e+000	 1.658017669914180e+000	-6.058826501548127e+000
1	 3.753729668404155e+000	 1.698199932122468e+000	-6.240355661728337e+000
1	 3.735344684709383e+000	 1.738266312139772e+000	-6.390096474982907e+000
1	 3.716496001704046e+000	 1.778209017882060e+000	-6.509177898868749e+000
1	 3.697184374688481e+000	 1.818020242103210e+000	-6.598845156851079e+000
1	 3.677410729713860e+000	 1.857692166895753e+000	-6.660459067877964e+000
1	 3.657176164581798e+000	 1.897216968251039e+000	-6.695495169265516e+000
1	 3.636481949700988e+000	 1.936586820673828e+000	-6.705542631536885e+000
1	 3.615329528798024e+000	 1.975793901846200e+000	-6.692302964349327e+000
1	 3.593720519479760e+000	 2.014830397335523e+000	-6.657588513147634e+000
1	 3.813632573781182e+000	 1.628198558548805e+000	-5.427488888623785e+000
1	 3.796063587886068e+000	 1.668749722861022e+000	-5.635648429027133e+000
1	 3.778026891701722e+000	 1.709192077692748e+000	-5.812417884030178e+000
1	 3.759522905283656e+000	 1.749517800248717e+000	-5.958772299167620e+000
1	 3.740552218111992e+000	 1.789719048008136e+000	-6.075808434819174e+000
1	 3.721115590375978e+000	 1.829787963189973e+000	-6.164744390676276e+000
1	 3.701213954120939e+000	 1.869716677282848e+000	-6.226919016843779e+000
1	 3.680848414254348e+000	 1.909497315634706e+000	-6.263791109437490e+000
1	 3.660020249408020e+000	 1.949122002097276e+000	-6.276938389036243e+000
1	 3.638730912653521e+000	 1.988582863720177e+000	-6.268056260856662e+000
1	 3.616982032068172e+000	 2.027872035489355e+000	-6.238956356042659e+000
1	 3.838158784121502e+000	 1.638669819097676e+000	-5.020223467556489e+000
1	 3.820476808672654e+000	 1.679481775808191e+000	-5.221925476557204e+000
1	 3.802324114999044e+000	 1.720184223263334e+000	-5.393813627545682e+000
1	 3.783701125857638e+000	 1.760769288357938e+000	-5.536799375905568e+000
1	 3.764608434519604e+000	 1.801229078134447e+000	-5.651919755533149e+000
1	 3.745046806063103e+000	 1.841555684276927e+000	-5.740337126003952e+000
1	 3.725017178527611e+000	 1.881741187670086e+000	-5.803338700256727e+000
1	 3.704520663926468e+000	 1.921777663018466e+000	-5.842335850319976e+000
1	 3.683558549114604e+000	 1.961657183520769e+000	-5.858863189113862e+000
1	 3.662132296508556e+000	 2.001371825594157e+000	-5.854577426883456e+000
1	 3.640243544656117e+000	 2.040913673643154e+000	-5.831256001355528e+000
1	 3.862684994461763e+000	 1.649141079647046e+000	-4.623415715069128e+000
1	 3.844890029459100e+000	 1.690213828755853e+000	-4.818383746298879e+000
1	 3.826621338296152e+000	 1.731176368834391e+000	-4.985266550766331e+000
1	 3.807879346431334e+000	 1.772020776467594e+000	-5.124886057521408e+000
1	 3.788664650926863e+000	 1.812739108261148e+000	-5.238192532893820e+000
1	 3.768978021749815e+000	 1.853323405364218e+000	-5.326264482704206e+000
1	 3.748820402933820e+000	 1.893765698057605e+000	-5.390308331246148e+000
1	 3.728192913598082e+000	 1.934058010402449e+000	-5.431657874195244e+000
1	 3.707096848820650e+000	 1.974192364944430e+000	-5.451773503112523e+000
1	 3.685533680363033e+000	 2.014160787468251e+000	-5.452241199738506e+000
1	 3.663505057243499e+000	 2.053955311797023e+000	-5.434771298818177e+000
1	 3.430889931356198e+000	 1.923538930249378e+000	-9.868644116510589e+000
1	 3.409822639161488e+000	 1.960641939370820e+000	-9.779722106085529e+000
1	 3.388322907875672e+000	 1.997567159735842e+000	-9.667119517658080e+000
1	 3.366392785299044e+000	 2.034307179775804e+000	-9.531829728480641e+000
1	 3.344034485992657e+000	 2.070854613836993e+000	-9.374933112772082e+000
1	 3.321250391072290e+000	 2.107202106807173e+000	-9.197596270273310e+000
1	 3.298043047850050e+000	 2.143342338751271e+000	-9.001071100396368e+000
1	 3.274415169322649e+000	 2.179268029550415e+000	-8.786693722094929e+000
1	 3.250369633505694e+000	 2.214971943538432e+000	-8.555883239968171e+000
1	 3.225909482613576e+000	 2.250446894129934e+000	-8.310140357498140e+000
1	 3.201037922084772e+000	 2.285685748434004e+000	-8.051045838711771e+000
1	 3.454151443945081e+000	 1.936580568406245e+000	-9.382090301619884e+000
1	 3.432941315024939e+000	 1.973935136782385e+000	-9.296833119852675e+000
1	 3.411295815066716e+000	 2.011110710990247e+000	-9.190029718856897e+000
1	 3.389217005754840e+000	 2.048099829210576e+000	-9.062528058008038e+000
1	 3.366707116665132e+000	 2.084895055714759e+000	-8.915252216460532e+000
1	 3.343768545057394e+000	 2.121488985522725e+000	-8.749201795359509e+000
1	 3.320403855514564e+000	 2.157874249070071e+000	-8.565451186193954e+000
1	 3.296615779427529e+000	 2.194043516878546e+000	-8.365148705238127e+000
1	 3.272407214324911e+000	 2.229989504223994e+000	-8.149515594359491e+000
1	 3.247781223047381e+000	 2.265704975795809e+000	-7.919844888805626e+000
1	 3.222741032766358e+000	 2.301182750341904e+000	-7.677500152920660e+000
1	 3.477412956534195e+000	 1.949622206562376e+000	-8.904259941364686e+000
1	 3.456059990888607e+000	 1.987228334193261e+000	-8.823369227038338e+000
1	 3.434268722257934e+000	 2.024654262244012e+000	-8.722773955745439e+000
1	 3.412041226210740e+000	 2.061892478644770e+000	-8.603203050431239e+000
1	 3.389379747337627e+000	 2.098935497592009e+000	-8.465451961515404e+000
1	 3.366286699042418e+000	 2.135775864237826e+000	-8.310382204993667e+000
1	 3.342764663178889e+000	 2.172406159388485e+000	-8.138920784653868e+000
1	 3.318816389532113e+000	 2.208819004206358e+000	-7.952059498229287e+000
1	 3.294444795143723e+000	 2.245007064909298e+000	-7.750854127597168e+000
1	 3.269652963480678e+000	 2.280963057461482e+000	-7.536423513418651e+000
1	 3.244444143447349e+000	 2.316679752249656e+000	-7.309948514906639e+000
1	 3.500674469123442e+000	 1.962663844717872e+000	-8.435494111009673e+000
1	 3.479178666752395e+000	 2.000521531603535e+000	-8.359565848165692e+000
1	 3.457241629449238e+000	 2.038197813497221e+000	-8.265499313803511e+000
1	 3.434865446666673e+000	 2.075685128078454e+000	-8.153930218468856e+000
1	 3.412052378010083e+000	 2.112975939468804e+000	-8.025552474809217e+000
1	 3.388804853027324e+000	 2.150062742952529e+000	-7.881117834234781e+000
1	 3.365125470843007e+000	 2.186938069706559e+000	-7.721435423120147e+000
1	 3.341016999636398e+000	 2.223594491533885e+000	-7.547371178301493e+000
1	 3.316482375962149e+000	 2.260024625594372e+000	-7.359847181870030e+000
1	 3.291524703913511e+000	 2.296221139126977e+000	-7.159840895511592e+000
1	 3.266147254127807e+000	 2.332176754157270e+000	-6.948384294892102e+000
1	 3.523935981712723e+000	 1.975705482872835e+000	-7.976124880063374e+000
1	 3.502297342616207e+000	 2.013814729013301e+000	-7.905652187711086e+000
1	 3.480214536640536e+000	 2.051741364749952e+000	-7.818348994863771e+000
1	 3.457689667122557e+000	 2.089477777511701e+000	-7.714783081000653e+000
1	 3.434725008682438e+000	 2.127016381345206e+000	-7.595573351784251e+000
1	 3.411323007012064e+000	 2.164349621666887e+000	-7.461389537375203e+000
1	 3.387486278506896e+000	 2.201469980024336e+000	-7.312951803193486e+000
1	 3.363217609740386e+000	 2.238369978861166e+000	-7.151030272869449e+000
1	 3.338519956780215e+000	 2.275042186279247e+000	-6.976444463340644e+000
1	 3.313396444345926e+000	 2.311479220792314e+000	-6.790062632266727e+000
1	 3.287850364807801e+000	 2.347673756064768e+000	-6.592801038152547e+000
1	 3.547197494301936e+000	 1.988747121027364e+000	-7.526475607563966e+000
1	 3.525416018479945e+000	 2.027107926422647e+000	-7.461851437919181e+000
1	 3.503187443831741e+000	 2.065284916002287e+000	-7.381462444450964e+000
1	 3.480513887578316e+000	 2.103270426944581e+000	-7.285833228442505e+000
1	 3.457397639354630e+000	 2.141056823221275e+000	-7.175533673877363e+000
1	 3.433841160996598e+000	 2.178636500380949e+000	-7.051178670915721e+000
1	 3.409847086170532e+000	 2.216001890341861e+000	-6.913427762228998e+000
1	 3.385418219844079e+000	 2.253145466188234e+000	-6.762984711980093e+000
1	 3.360557537597944e+000	 2.290059746963950e+000	-6.600596997422515e+000
1	 3.335268184777967e+000	 2.326737302457518e+000	-6.427055223282125e+000
1	 3.309553475487395e+000	 2.363170757972164e+000	-6.243192459276695e+000
1	 3.570459006890980e+000	 2.001788759181559e+000	-7.086861225822813e+000
1	 3.548534694343512e+000	 2.040401123831664e+000	-7.028380974651434e+000
1	 3.526160351022761e+000	 2.078828467254305e+000	-6.954975474143640e+000
1	 3.503338108033874e+000	 2.117063076377164e+000	-6.867150385566118e+000
1	 3.480070270026597e+000	 2.155097265097074e+000	-6.765452025263679e+000
1	 3.456359314980884e+000	 2.192923379094772e+000	-6.650467077206203e+000
1	 3.432207893833895e+000	 2.230533800659177e+000	-6.522822236339197e+000
1	 3.407618829947475e+000	 2.267920953515127e+000	-6.383183782621873e+000
1	 3.382595118415355e+000	 2.305077307648510e+000	-6.232257085805592e+000
1	 3.357139925209682e+000	 2.341995384122610e+000	-6.070786041175625e+000
1	 3.331256586166656e+000	 2.378667759879475e+000	-5.899552436651189e+000
1	 3.593720519479760e+000	 2.014830397335523e+000	-6.657588513147635e+000
1	 3.571653370206811e+000	 2.053694321240442e+000	-6.605452545628008e+000
1	 3.549133258213510e+000	 2.092372018506088e+000	-6.539020379183334e+000
1	 3.526162328489153e+000	 2.130855725809522e+000	-6.458802471879052e+000
1	 3.502742900698278e+000	 2.169137706972663e+000	-6.365346508950103e+000
1	 3.478877468964877e+000	 2.207210257808406e+000	-6.259237068721497e+000
1	 3.454568701496962e+000	 2.245065710976327e+000	-6.141095224833562e+000
1	 3.429819440050576e+000	 2.282696440841880e+000	-6.011578084808553e+000
1	 3.404632699232478e+000	 2.320094868332957e+000	-5.871378265150686e+000
1	 3.379011665641112e+000	 2.357253465787613e+000	-5.721223303330207e+000
1	 3.352959696845650e+000	 2.394164761786719e+000	-5.561875007159450e+000
1	 3.616982032068172e+000	 2.027872035489355e+000	-6.238956356042660e+000
1	 3.594772046069744e+000	 2.066987518649074e+000	-6.193272451406150e+000
1	 3.572106165403897e+000	 2.105915569757717e+000	-6.133726051546139e+000
1	 3.548986548944076e+000	 2.144648375241726e+000	-6.060855659674645e+000
1	 3.525415531369613e+000	 2.183178148848105e+000	-5.975234762247760e+000
1	 3.501395622948538e+000	 2.221497136521904e+000	-5.877471412944122e+000
1	 3.476929509159713e+000	 2.259597621293357e+000	-5.768207756030548e+000
1	 3.452020050153380e+000	 2.297471928168530e+000	-5.648119489357642e+000
1	 3.426670280049329e+000	 2.335112429017319e+000	-5.517915267377830e+000
1	 3.400883406072305e+000	 2.372511547452548e+000	-5.378336044729811e+000
1	 3.374662807524445e+000	 2.409661763693914e+000	-5.230154361084969e+000
1	 3.640243544656117e+000	 2.040913673643154e+000	-5.831256001355528e+000
1	 3.617890721932214e+000	 2.080280716057648e+000	-5.792041719419795e+000
1	 3.595079072593832e+000	 2.119459121009271e+000	-5.739218088678568e+000
1	 3.571810769398565e+000	 2.158441024673847e+000	-5.673374429856424e+000
1	 3.548088162040541e+000	 2.197218590723461e+000	-5.595133971651189e+000
1	 3.523913776931821e+000	 2.235784015235318e+000	-5.505153317826587e+000
1	 3.499290316822126e+000	 2.274129531610310e+000	-5.404121854380128e+000
1	 3.474220660255889e+000	 2.312247415495113e+000	-5.292761097287627e+000
1	 3.448707860865933e+000	 2.350129989701623e+000	-5.171823981477146e+000
1	 3.422755146503306e+000	 2.387769629117440e+000	-5.042094091836553e+000
1	 3.396365918203102e+000	 2.425158765601074e+000	-4.904384837210166e+000
1	 3.663505057243499e+000	 2.053955311797023e+000	-5.434771298818177e+000
1	 3.641009397794123e+000	 2.093573913466255e+000	-5.401956271388589e+000
1	 3.618051979783225e+000	 2.133002672260832e+000	-5.355618898090969e+000
1	 3.594634989852544e+000	 2.172233674105955e+000	-5.296421625635772e+000
1	 3.570760792710999e+000	 2.211259032598792e+000	-5.225060887150771e+000
1	 3.546431930914687e+000	 2.250070893948702e+000	-5.142266417807563e+000
1	 3.521651124484179e+000	 2.288661441927230e+000	-5.048800508839161e+000
1	 3.496421270358106e+000	 2.327022902821665e+000	-4.945457200762001e+000
1	 3.470745441682316e+000	 2.365147550385902e+000	-4.833061416774582e+000
1	 3.444626886934158e+000	 2.403027710782309e+000	-4.712468037463246e+000
1	 3.418069028881693e+000	 2.440655767508218e+000	-4.584560918101843e+000
1	 3.201037922084772e+000	 2.285685748434004e+000	-8.051045838711771e+000
1	 3.175758318549517e+000	 2.320681431073920e+000	-7.781943328946549e+000
1	 3.150074195862331e+000	 2.355426926386116e+000	-7.504571443616646e+000
1	 3.123989236422097e+000	 2.389915285194917e+000	-7.218141779084379e+000
1	 3.097507280498922e+000	 2.424139630075088e+000	-6.921839642837756e+000
1	 3.070632324500330e+000	 2.458093159808781e+000	-6.614825694776618e+000
1	 3.043368519087291e+000	 2.491769153792504e+000	-6.296237648409303e+000
1	 3.015720167141756e+000	 2.525160976388238e+000	-5.965192028594663e+000
1	 2.987691721587631e+000	 2.558262081212876e+000	-5.620785982292346e+000
1	 2.959287783067377e+000	 2.591066015360246e+000	-5.262099138622773e+000
1	 2.930513097476696e+000	 2.623566423550066e+000	-4.888195514386703e+000
1	 3.222741032766358e+000	 2.301182750341904e+000	-7.677500152920659e+000
1	 3.197290032937910e+000	 2.336415704514344e+000	-7.425028654295238e+000
1	 3.171431771308376e+000	 2.371396775083201e+000	-7.163571704957851e+000
1	 3.145169955243394e+000	 2.406118965757234e+000	-6.892419991916246e+000
1	 3.118508451050198e+000	 2.440575352482112e+000	-6.610844028984183e+000
1	 3.091451282232049e+000	 2.474759087927573e+000	-6.318095677407126e+000
1	 3.064002627591507e+000	 2.508663405924287e+000	-6.013409714949049e+000
1	 3.036166819184162e+000	 2.542281625844456e+000	-5.696005450286134e+000
1	 3.007948340124858e+000	 2.575607156920352e+000	-5.365088379410758e+000
1	 2.979351822248521e+000	 2.608633502494952e+000	-5.019851880617233e+000
1	 2.950382043628141e+000	 2.641354264199035e+000	-4.659478944518193e+000
1	 3.244444143447349e+000	 2.316679752249656e+000	-7.309948514906639e+000
1	 3.218821747325636e+000	 2.352149977954659e+000	-7.073302254141220e+000
1	 3.192789346753698e+000	 2.387366623780209e+000	-6.827118755704871e+000
1	 3.166350674063928e+000	 2.422322646319497e+000	-6.570754360142415e+000
1	 3.139509621600685e+000	 2.457011074889095e+000	-6.303550911762665e+000
1	 3.112270239962972e+000	 2.491425016046331e+000	-6.024837180547751e+000
1	 3.084636736094925e+000	 2.525557658056029e+000	-5.733930321908866e+000
1	 3.056613471225788e+000	 2.559402275300625e+000	-5.430137371301491e+000
1	 3.028204958661326e+000	 2.592952232627757e+000	-5.112756770599086e+000
1	 2.999415861428939e+000	 2.626200989629562e+000	-4.781079923019033e+000
1	 2.970250989778902e+000	 2.659142104847870e+000	-4.434392773298910e+000
1	 3.266147254127807e+000	 2.332176754157270e+000	-6.948384294892100e+000
1	 3.240353461712776e+000	 2.367884251394873e+000	-6.726789006152673e+000
1	 3.214146922198397e+000	 2.403336472477147e+000	-6.495262834179779e+000
1	 3.187531392883817e+000	 2.438526326881711e+000	-6.253214608610043e+000
1	 3.160510792150514e+000	 2.473446797296040e+000	-6.000043907231092e+000
1	 3.133089197693234e+000	 2.508090944165058e+000	-5.735142400863350e+000
1	 3.105270844597697e+000	 2.542451910187743e+000	-5.457895226298882e+000
1	 3.077060123266782e+000	 2.576522924756755e+000	-5.167682384434779e+000
1	 3.048461577197192e+000	 2.610297308335112e+000	-4.863880160650322e+000
1	 3.019479900608787e+000	 2.643768476764097e+000	-4.545862564397335e+000
1	 2.990119935929130e+000	 2.676929945496605e+000	-4.213002784901940e+000
1	 3.287850364807801e+000	 2.347673756064768e+000	-6.592801038152547e+000
1	 3.261885176099419e+000	 2.383618524835003e+000	-6.385513131127757e+000
1	 3.235504497642578e+000	 2.419306321174022e+000	-6.168052852211669e+000
1	 3.208712111703173e+000	 2.454730007443882e+000	-5.939868621150959e+000
1	 3.181511962699815e+000	 2.489882519702957e+000	-5.700404423648259e+000
1	 3.153908155422980e+000	 2.524756872283762e+000	-5.449101100657104e+000
1	 3.125904953099966e+000	 2.559346162319434e+000	-5.185397656760190e+000
1	 3.097506775307298e+000	 2.593643574212859e+000	-4.908732584851028e+000
1	 3.068718195732605e+000	 2.627642384042430e+000	-4.618545204274029e+000
1	 3.039543939788214e+000	 2.661335963898584e+000	-4.314277009521074e+000
1	 3.009988882078974e+000	 2.694717786145272e+000	-3.995373026534514e+000
1	 3.309553475487395e+000	 2.363170757972164e+000	-6.243192459276695e+000
1	 3.283416890485646e+000	 2.399352798275059e+000	-6.049498214532597e+000
1	 3.256862073086340e+000	 2.435276169870848e+000	-5.845536438630519e+000
1	 3.229892830522119e+000	 2.470933688006018e+000	-5.630782500945762e+000
1	 3.202513133248716e+000	 2.506318242109850e+000	-5.404711733864416e+000
1	 3.174727113152346e+000	 2.541422800402450e+000	-5.166800687689934e+000
1	 3.146539061601881e+000	 2.576240414451112e+000	-4.916528396466536e+000
1	 3.117953427347487e+000	 2.610764223668948e+000	-4.653377651979938e+000
1	 3.088974814267724e+000	 2.644987459749731e+000	-4.376836283152324e+000
1	 3.059607978967379e+000	 2.678903451033047e+000	-4.086398438011829e+000
1	 3.029857828228584e+000	 2.712505626793908e+000	-3.781565865390563e+000
1	 3.331256586166656e+000	 2.378667759879475e+000	-5.899552436651189e+000
1	 3.304948604871547e+000	 2.415087071715054e+000	-5.718767227197046e+000
1	 3.278219648529785e+000	 2.451246018567628e+000	-5.527759981060783e+000
1	 3.251073549340771e+000	 2.487137368568124e+000	-5.326020628528627e+000
1	 3.223514303797350e+000	 2.522753964516725e+000	-5.113043044882152e+000
1	 3.195546070881469e+000	 2.558088728521126e+000	-4.888326291879560e+000
1	 3.167173170103585e+000	 2.593134666582783e+000	-4.651375862785261e+000
1	 3.138400079387502e+000	 2.627884873125036e+000	-4.401704928208361e+000
1	 3.109231432802700e+000	 2.662332535457032e+000	-4.138835579983535e+000
1	 3.079672018146432e+000	 2.696470938167512e+000	-3.862300070312799e+000
1	 3.049726774378111e+000	 2.730293467442543e+000	-3.571642043377120e+000
1	 3.352959696845650e+000	 2.394164761786719e+000	-5.561875007159450e+000
1	 3.326480319257204e+000	 2.430821345154998e+000	-5.393342545206919e+000
1	 3.299577223973019e+000	 2.467215867264375e+000	-5.214768666091901e+000
1	 3.272254268159244e+000	 2.503341049130208e+000	-5.025645717539033e+000
1	 3.244515474345840e+000	 2.539189686923587e+000	-4.825473564715650e+000
1	 3.216365028610494e+000	 2.574754656639799e+000	-4.613760839020739e+000
1	 3.187807278605230e+000	 2.610028918714459e+000	-4.390026183844571e+000
1	 3.158846731427493e+000	 2.645005522581133e+000	-4.153799494516573e+000
1	 3.129488051337689e+000	 2.679677611164347e+000	-3.904623149650430e+000
1	 3.099736057325528e+000	 2.714038425301999e+000	-3.642053231095890e+000
1	 3.069595720527704e+000	 2.748081308091211e+000	-3.365660729715269e+000
1	 3.374662807524445e+000	 2.409661763693914e+000	-5.230154361084969e+000
1	 3.348012033642701e+000	 2.446555618594907e+000	-5.073245969028533e+000
1	 3.320934799416141e+000	 2.483185715961096e+000	-4.906606517898720e+000
1	 3.293434986977655e+000	 2.519544729692277e+000	-4.729718868322557e+000
1	 3.265516644894319e+000	 2.555625409330442e+000	-4.542076566670115e+000
1	 3.237183986339556e+000	 2.591420584758473e+000	-4.343185121661204e+000
1	 3.208441387106961e+000	 2.626923170846145e+000	-4.132563272146198e+000
1	 3.179293383467613e+000	 2.662126172037250e+000	-3.909744243196042e+000
1	 3.149744669872843e+000	 2.697022686871697e+000	-3.674276987642107e+000
1	 3.119800096504819e+000	 2.731605912436534e+000	-3.425727410222062e+000
1	 3.089464666677513e+000	 2.765869148739946e+000	-3.163679571511370e+000
1	 3.396365918203102e+000	 2.425158765601074e+000	-4.904384837210166e+000
1	 3.369543748028126e+000	 2.462289892034790e+000	-4.758498741900041e+000
1	 3.342292374859253e+000	 2.499155564657801e+000	-4.603316435381301e+000
1	 3.314615705796120e+000	 2.535748410254336e+000	-4.438299619476243e+000
1	 3.286517815442918e+000	 2.572061131737296e+000	-4.262923451156667e+000
1	 3.258002944068795e+000	 2.608086512877155e+000	-4.076677867259741e+000
1	 3.229075495608925e+000	 2.643817422977850e+000	-3.879068895355730e+000
1	 3.199740035508015e+000	 2.679246821493403e+000	-3.669619947779032e+000
1	 3.170001288408318e+000	 2.714367762579098e+000	-3.447873095852722e+000
1	 3.139864135684460e+000	 2.749173399571143e+000	-3.213390321364455e+000
1	 3.109333612827688e+000	 2.783656989388781e+000	-2.965754742389351e+000
1	 3.418069028881693e+000	 2.440655767508218e+000	-4.584560918101843e+000
1	 3.391075462413564e+000	 2.478024165474663e+000	-4.449121567522076e+000
1	 3.363649950302459e+000	 2.515125413354499e+000	-4.304940227889550e+000
1	 3.335796424614757e+000	 2.551952090816394e+000	-4.151445997430487e+000
1	 3.307518985991763e+000	 2.588496854144156e+000	-3.988083805152260e+000
1	 3.278821901798352e+000	 2.624752440995851e+000	-3.814315803747927e+000
1	 3.249709604111268e+000	 2.660711675109584e+000	-3.629622744396043e+000
1	 3.220186687548849e+000	 2.696367470949601e+000	-3.433505330304217e+000
1	 3.190257906944267e+000	 2.731712838286569e+000	-3.225485545873243e+000
1	 3.159928174864604e+000	 2.766740886705849e+000	-3.005107958398070e+000
1	 3.129202558978380e+000	 2.801444830037749e+000	-2.771940989270244e+000
1	 2.930513097476696e+000	 2.623566423550066e+000	-4.888195514386703e+000
1	 2.901376951840289e+000	 2.655752247797149e+000	-4.504574017825259e+000
1	 2.871880086178356e+000	 2.687622242784177e+000	-4.118135685191074e+000
1	 2.842027666154427e+000	 2.719170375440287e+000	-3.730219075465239e+000
1	 2.811824991326779e+000	 2.750390726063579e+000	-3.342174392811387e+000
1	 2.781277492018158e+000	 2.781277492018158e+000	-2.955361221338801e+000
1	 2.750390726063578e+000	 2.811824991326778e+000	-2.571146240399755e+000
1	 2.719170375440287e+000	 2.842027666154426e+000	-2.190900925198598e+000
1	 2.687622242784177e+000	 2.871880086178356e+000	-1.815999237529893e+000
1	 2.655752247797149e+000	 2.901376951840288e+000	-1.447815311490119e+000
1	 2.623566423550066e+000	 2.930513097476694e+000	-1.087721139018290e+000
1	 2.950382043628141e+000	 2.641354264199035e+000	-4.659478944518193e+000
1	 2.921048354254667e+000	 2.673758309074019e+000	-4.289748576245041e+000
1	 2.891351499165647e+000	 2.705844383359315e+000	-3.917704052312411e+000
1	 2.861296679047927e+000	 2.737606413079703e+000	-3.544593017202671e+000
1	 2.830889229390904e+000	 2.769038438397574e+000	-3.171673829387576e+000
1	 2.800134617335034e+000	 2.800134617335034e+000	-2.800213444312657e+000
1	 2.769038438397575e+000	 2.830889229390904e+000	-2.431485279366993e+000
1	 2.737606413079704e+000	 2.861296679047927e+000	-2.066767065305104e+000
1	 2.705844383359315e+000	 2.891351499165647e+000	-1.707338688625703e+000
1	 2.673758309074018e+000	 2.921048354254666e+000	-1.354480029436189e+000
1	 2.641354264199035e+000	 2.950382043628141e+000	-1.009468799342016e+000
1	 2.970250989778902e+000	 2.659142104847870e+000	-4.434392773298910e+000
1	 2.940719756668409e+000	 2.691764370350712e+000	-4.078702633266222e+000
1	 2.910822912152358e+000	 2.724066523934227e+000	-3.721158576641420e+000
1	 2.880565691940904e+000	 2.756042450718837e+000	-3.362924059015065e+000
1	 2.849953467454567e+000	 2.787686150731229e+000	-3.005172320325413e+000
1	 2.818991742651509e+000	 2.818991742651508e+000	-2.649084404462369e+000
1	 2.787686150731230e+000	 2.849953467454566e+000	-2.295847162325332e+000
1	 2.756042450718838e+000	 2.880565691940904e+000	-1.946651242516263e+000
1	 2.724066523934227e+000	 2.910822912152358e+000	-1.602689073883717e+000
1	 2.691764370350712e+000	 2.940719756668409e+000	-1.265152844155759e+000
1	 2.659142104847869e+000	 2.970250989778902e+000	-9.352324789084068e-001
1	 2.990119935929130e+000	 2.676929945496605e+000	-4.213002784901940e+000
1	 2.960391159081659e+000	 2.709770431627274e+000	-3.871486786021100e+000
1	 2.930294325138621e+000	 2.742288664508966e+000	-3.528534821655170e+000
1	 2.899834704833481e+000	 2.774478488357760e+000	-3.185232739903721e+000
1	 2.869017705517879e+000	 2.806333863064627e+000	-2.842675245126037e+000
1	 2.837848867967678e+000	 2.837848867967678e+000	-2.501964042709162e+000
1	 2.806333863064627e+000	 2.869017705517878e+000	-2.164205968776362e+000
1	 2.774478488357759e+000	 2.899834704833481e+000	-1.830511108755610e+000
1	 2.742288664508966e+000	 2.930294325138621e+000	-1.501990908759320e+000
1	 2.709770431627273e+000	 2.960391159081659e+000	-1.179756283745977e+000
1	 2.676929945496605e+000	 2.990119935929130e+000	-8.649157264414211e-001
1	 3.009988882078974e+000	 2.694717786145272e+000	-3.995373026534514e+000
1	 2.980062561494562e+000	 2.727776492903745e+000	-3.668150295674800e+000
1	 2.949765738124572e+000	 2.760510805083593e+000	-3.339867411812357e+000
1	 2.919103717725782e+000	 2.792914525996539e+000	-3.011539056558043e+000
1	 2.888081943580947e+000	 2.824981575397850e+000	-2.684187841250231e+000
1	 2.856705993283643e+000	 2.856705993283643e+000	-2.358842565574333e+000
1	 2.824981575397851e+000	 2.888081943580947e+000	-2.036536462626776e+000
1	 2.792914525996538e+000	 2.919103717725782e+000	-1.718305434105704e+000
1	 2.760510805083593e+000	 2.949765738124572e+000	-1.405186279338416e+000
1	 2.727776492903746e+000	 2.980062561494562e+000	-1.098214921872834e+000
1	 2.694717786145272e+000	 3.009988882078973e+000	-7.984246373654519e-001
1	 3.029857828228584e+000	 2.712505626793908e+000	-3.781565865390562e+000
1	 2.999733963907260e+000	 2.745782554180174e+000	-3.468741131229849e+000
1	 2.969237151110346e+000	 2.778732945658162e+000	-3.155190063342423e+000
1	 2.938372730617930e+000	 2.811350563635247e+000	-2.841862481137108e+000
1	 2.907146181643887e+000	 2.843629287730986e+000	-2.529715208775740e+000
1	 2.875563118599497e+000	 2.875563118599497e+000	-2.219710436470552e+000
1	 2.843629287730986e+000	 2.907146181643888e+000	-1.912814069747695e+000
1	 2.811350563635246e+000	 2.938372730617930e+000	-1.609994070145280e+000
1	 2.778732945658162e+000	 2.969237151110347e+000	-1.312218790838626e+000
1	 2.745782554180173e+000	 2.999733963907259e+000	-1.020455310699959e+000
1	 2.712505626793908e+000	 3.029857828228585e+000	-7.356677703026840e-001
1	 3.049726774378111e+000	 2.730293467442543e+000	-3.571642043377120e+000
1	 3.019405366319895e+000	 2.763788615456600e+000	-3.273306011618226e+000
1	 2.988708564096076e+000	 2.796955086232729e+000	-2.974535613831106e+000
1	 2.957641743510049e+000	 2.829786601273951e+000	-2.676221978356234e+000
1	 2.926210419706810e+000	 2.862277000064116e+000	-2.379262314872436e+000
1	 2.894420243915343e+000	 2.894420243915343e+000	-2.084558367333637e+000
1	 2.862277000064116e+000	 2.926210419706810e+000	-1.793014856411211e+000
1	 2.829786601273951e+000	 2.957641743510049e+000	-1.505537914719546e+000
1	 2.796955086232729e+000	 2.988708564096076e+000	-1.223033518123691e+000
1	 2.763788615456600e+000	 3.019405366319896e+000	-9.464059164390517e-001
1	 2.730293467442543e+000	 3.049726774378111e+000	-6.765560668344696e-001
1	 3.069595720527704e+000	 2.748081308091211e+000	-3.365660729715269e+000
1	 3.039076768732614e+000	 2.781794676733072e+000	-3.081890446158789e+000
1	 3.008179977081899e+000	 2.815177226807353e+000	-2.797936050656824e+000
1	 2.976910756402264e+000	 2.848222638912723e+000	-2.514636021909929e+000
1	 2.945274657769825e+000	 2.880924712397324e+000	-2.232833998103840e+000
1	 2.913277369231275e+000	 2.913277369231274e+000	-1.953377310579337e+000
1	 2.880924712397324e+000	 2.945274657769825e+000	-1.677115508564351e+000
1	 2.848222638912722e+000	 2.976910756402263e+000	-1.404898878078736e+000
1	 2.815177226807354e+000	 3.008179977081899e+000	-1.137576958139641e+000
1	 2.781794676733072e+000	 3.039076768732615e+000	-8.759970574034557e-001
1	 2.748081308091210e+000	 3.069595720527704e+000	-6.210027743790246e-001
1	 3.089464666677513e+000	 2.765869148739946e+000	-3.163679571511370e+000
1	 3.058748171145560e+000	 2.799800738009633e+000	-2.894538773453571e+000
1	 3.027651390067949e+000	 2.833399367382091e+000	-2.625422538330096e+000
1	 2.996179769294696e+000	 2.866658676551633e+000	-2.357122610261153e+000
1	 2.964338895833045e+000	 2.899572424730694e+000	-2.090434972562523e+000
1	 2.932134494547392e+000	 2.932134494547392e+000	-1.826158451370433e+000
1	 2.899572424730695e+000	 2.964338895833045e+000	-1.565093311902853e+000
1	 2.866658676551633e+000	 2.996179769294697e+000	-1.308039850323181e+000
1	 2.833399367382091e+000	 3.027651390067948e+000	-1.055796984186378e+000
1	 2.799800738009632e+000	 3.058748171145560e+000	-8.091608444520476e-001
1	 2.765869148739947e+000	 3.089464666677513e+000	-5.689233720449934e-001
1	 3.109333612827688e+000	 2.783656989388781e+000	-2.965754742389351e+000
1	 3.078419573558874e+000	 2.817806799286326e+000	-2.711294198792714e+000
1	 3.047122803054358e+000	 2.851621507956997e+000	-2.457025444784391e+000
1	 3.015448782187471e+000	 2.885094714190751e+000	-2.203699281825147e+000
1	 2.983403133896581e+000	 2.918220137064311e+000	-1.952069831847025e+000
1	 2.950991619863794e+000	 2.950991619863793e+000	-1.702893200180380e+000
1	 2.918220137064311e+000	 2.983403133896581e+000	-1.456926132708859e+000
1	 2.885094714190750e+000	 3.015448782187472e+000	-1.214924670096640e+000
1	 2.851621507956998e+000	 3.047122803054358e+000	-9.776428019425043e-001
1	 2.817806799286325e+000	 3.078419573558874e+000	-7.458311237165120e-001
1	 2.783656989388781e+000	 3.109333612827688e+000	-5.202354993278434e-001
1	 3.129202558978380e+000	 2.801444830037749e+000	-2.771940989270244e+000
1	 3.098090975972703e+000	 2.835812860563197e+000	-2.532198830134438e+000
1	 3.066594216041264e+000	 2.869843648532129e+000	-2.292774366665623e+000
1	 3.034717795080713e+000	 2.903530751830148e+000	-2.054383129574876e+000
1	 3.002467371960544e+000	 2.936867849398260e+000	-1.817743052887232e+000
1	 2.969848745180577e+000	 2.969848745180577e+000	-1.583573185640183e+000
1	 2.936867849398259e+000	 3.002467371960544e+000	-1.352592399418715e+000
1	 2.903530751830149e+000	 3.034717795080715e+000	-1.125518094472318e+000
1	 2.869843648532129e+000	 3.066594216041264e+000	-9.030649071654288e-001
1	 2.835812860563195e+000	 3.098090975972702e+000	-6.859434215105617e-001
1	 2.801444830037748e+000	 3.129202558978380e+000	-4.748588875227386e-001
1	 2.623566423550066e+000	 2.930513097476694e+000	-1.087721139018291e+000
1	 2.591066015360247e+000	 2.959287783067377e+000	-7.416683548983155e-001
1	 2.558262081212877e+000	 2.987691721587632e+000	-4.138103445497248e-001
1	 2.525160976388239e+000	 3.015720167141756e+000	-1.026391470699181e-001
1	 2.491769153792504e+000	 3.043368519087291e+000	 1.933768423908210e-001
1	 2.458093159808781e+000	 3.070632324500330e+000	 4.757898193319050e-001
1	 2.424139630075088e+000	 3.097507280498923e+000	 7.461694977534475e-001
1	 2.389915285194917e+000	 3.123989236422097e+000	 1.006100025821266e+000
1	 2.355426926386115e+000	 3.150074195862330e+000	 1.257176896001987e+000
1	 2.320681431073919e+000	 3.175758318549517e+000	 1.501003856294406e+000
1	 2.285685748434003e+000	 3.201037922084772e+000	 1.739189829133349e+000
1	 2.641354264199035e+000	 2.950382043628141e+000	-1.009468799342016e+000
1	 2.608633502494953e+000	 2.979351822248522e+000	-6.780417738474311e-001
1	 2.575607156920352e+000	 3.007948340124857e+000	-3.642719735502628e-001
1	 2.542281625844456e+000	 3.036166819184163e+000	-6.676364194612899e-002
1	 2.508663405924287e+000	 3.064002627591506e+000	 2.159054889018572e-001
1	 2.474759087927574e+000	 3.091451282232050e+000	 4.851813112357903e-001
1	 2.440575352482112e+000	 3.118508451050198e+000	 7.425304293483418e-001
1	 2.406118965757234e+000	 3.145169955243393e+000	 9.894372285649933e-001
1	 2.371396775083201e+000	 3.171431771308376e+000	 1.227400931835694e+000
1	 2.336415704514343e+000	 3.197290032937910e+000	 1.457932650298084e+000
1	 2.301182750341905e+000	 3.222741032766358e+000	 1.682552434144125e+000
1	 2.659142104847869e+000	 2.970250989778902e+000	-9.352324789084073e-001
1	 2.626200989629562e+000	 2.999415861428939e+000	-6.184371136043715e-001
1	 2.592952232627758e+000	 3.028204958661326e+000	-3.187359334969670e-001
1	 2.559402275300624e+000	 3.056613471225787e+000	-3.483599653617671e-002
1	 2.525557658056029e+000	 3.084636736094926e+000	 2.345847395278236e-001
1	 2.491425016046331e+000	 3.112270239962971e+000	 4.908746825990117e-001
1	 2.457011074889095e+000	 3.139509621600685e+000	 7.354058408506218e-001
1	 2.422322646319498e+000	 3.166350674063928e+000	 9.695710325878494e-001
1	 2.387366623780208e+000	 3.192789346753697e+000	 1.194781077470291e+000
1	 2.352149977954658e+000	 3.218821747325635e+000	 1.412461975213137e+000
1	 2.316679752249655e+000	 3.244444143447348e+000	 1.624052077873926e+000
1	 2.676929945496605e+000	 2.990119935929130e+000	-8.649157264414217e-001
1	 2.643768476764097e+000	 3.019479900608787e+000	-5.627401567316964e-001
1	 2.610297308335112e+000	 3.048461577197192e+000	-2.770738776927077e-001
1	 2.576522924756755e+000	 3.077060123266782e+000	-6.717547423117785e-003
1	 2.542451910187743e+000	 3.105270844597697e+000	 2.495595902125817e-001
1	 2.508090944165058e+000	 3.133089197693234e+000	 4.930171101948787e-001
1	 2.473446797296041e+000	 3.160510792150513e+000	 7.249407749664089e-001
1	 2.438526326881711e+000	 3.187531392883816e+000	 9.466398728890239e-001
1	 2.403336472477147e+000	 3.214146922198397e+000	 1.159444532415076e+000
1	 2.367884251394874e+000	 3.240353461712777e+000	 1.364703017869563e+000
1	 2.332176754157270e+000	 3.266147254127807e+000	 1.563779012744224e+000
1	 2.694717786145272e+000	 3.009988882078973e+000	-7.984246373654519e-001
1	 2.661335963898585e+000	 3.039543939788214e+000	-5.108397015903351e-001
1	 2.627642384042430e+000	 3.068718195732604e+000	-2.391608483078634e-001
1	 2.593643574212858e+000	 3.097506775307298e+000	 1.772670753969770e-002
1	 2.559346162319434e+000	 3.125904953099965e+000	 2.609712084255946e-001
1	 2.524756872283762e+000	 3.153908155422980e+000	 4.917518847396623e-001
1	 2.489882519702958e+000	 3.181511962699814e+000	 7.112764446927057e-001
1	 2.454730007443883e+000	 3.208712111703173e+000	 9.207785292285747e-001
1	 2.419306321174022e+000	 3.235504497642577e+000	 1.121515137602224e+000
1	 2.383618524835003e+000	 3.261885176099418e+000	 1.314764029319207e+000
1	 2.347673756064768e+000	 3.287850364807801e+000	 1.501821108150703e+000
1	 2.712505626793908e+000	 3.029857828228585e+000	-7.356677703026840e-001
1	 2.678903451033047e+000	 3.059607978967379e+000	-4.626274634558289e-001
1	 2.644987459749730e+000	 3.088974814267723e+000	-2.048751652641677e-001
1	 2.610764223668948e+000	 3.117953427347487e+000	 3.862822927648842e-002
1	 2.576240414451112e+000	 3.146539061601881e+000	 2.689570586921780e-001
1	 2.541422800402450e+000	 3.174727113152346e+000	 4.872185383108623e-001
1	 2.506318242109850e+000	 3.202513133248717e+000	 6.945503588881629e-001
1	 2.470933688006018e+000	 3.229892830522120e+000	 8.921182459775259e-001
1	 2.435276169870846e+000	 3.256862073086340e+000	 1.081113485509746e+000
1	 2.399352798275060e+000	 3.283416890485647e+000	 1.262750421095798e+000
1	 2.363170757972164e+000	 3.309553475487395e+000	 1.438263928599312e+000
1	 2.730293467442543e+000	 3.049726774378111e+000	-6.765560668344700e-001
1	 2.696470938167511e+000	 3.079672018146433e+000	-4.179979795000096e-001
1	 2.662332535457031e+000	 3.109231432802700e+000	-1.740983194620703e-001
1	 2.627884873125035e+000	 3.138400079387501e+000	 5.611505284419707e-002
1	 2.593134666582783e+000	 3.167173170103586e+000	 2.736510232167205e-001
1	 2.558088728521126e+000	 3.195546070881469e+000	 4.795529667847560e-001
1	 2.522753964516725e+000	 3.223514303797348e+000	 6.748964429351604e-001
1	 2.487137368568124e+000	 3.251073549340771e+000	 8.607868472830279e-001
1	 2.451246018567628e+000	 3.278219648529786e+000	 1.038357025979790e+000
1	 2.415087071715054e+000	 3.304948604871548e+000	 1.208764857712051e+000
1	 2.378667759879475e+000	 3.331256586166656e+000	 1.373190808787910e+000
1	 2.748081308091210e+000	 3.069595720527704e+000	-6.210027743790246e-001
1	 2.714038425301999e+000	 3.099736057325528e+000	-3.768485174627833e-001
1	 2.679677611164348e+000	 3.129488051337687e+000	-1.467148701548990e-001
1	 2.645005522581133e+000	 3.158846731427493e+000	 7.031189830764197e-002
1	 2.610028918714459e+000	 3.187807278605231e+000	 2.751835178213229e-001
1	 2.574754656639798e+000	 3.216365028610493e+000	 4.688875475187534e-001
1	 2.539189686923587e+000	 3.244515474345840e+000	 6.524451547158948e-001
1	 2.503341049130209e+000	 3.272254268159244e+000	 8.269088477608285e-001
1	 2.467215867264374e+000	 3.299577223973019e+000	 9.933601679271817e-001
1	 2.430821345154999e+000	 3.326480319257203e+000	 1.152907345564612e+000
1	 2.394164761786720e+000	 3.352959696845651e+000	 1.306682925772050e+000
1	 2.765869148739947e+000	 3.089464666677513e+000	-5.689233720449934e-001
1	 2.731605912436535e+000	 3.119800096504819e+000	-3.390789878481050e-001
1	 2.697022686871698e+000	 3.149744669872843e+000	-1.226123462829450e-001
1	 2.662126172037251e+000	 3.179293383467614e+000	 8.134027733631143e-002
1	 2.626923170846145e+000	 3.208441387106961e+000	 2.736816034106669e-001
1	 2.591420584758473e+000	 3.237183986339555e+000	 4.553512524928033e-001
1	 2.555625409330443e+000	 3.265516644894320e+000	 6.273235961131373e-001
1	 2.519544729692277e+000	 3.293434986977655e+000	 7.906055589164769e-001
1	 2.483185715961096e+000	 3.320934799416142e+000	 9.462343771234424e-001
1	 2.446555618594906e+000	 3.348012033642701e+000	 1.095275318408322e+000
1	 2.409661763693914e+000	 3.374662807524445e+000	 1.238819368346034e+000
1	 2.783656989388781e+000	 3.109333612827688e+000	-5.202354993278434e-001
1	 2.749173399571143e+000	 3.139864135684460e+000	-3.045918594863747e-001
1	 2.714367762579100e+000	 3.170001288408317e+000	-1.016811515905265e-001
1	 2.679246821493404e+000	 3.199740035508015e+000	 8.931859571412798e-002
1	 2.643817422977850e+000	 3.229075495608925e+000	 2.692690931632833e-001
1	 2.608086512877154e+000	 3.258002944068795e+000	 4.390697571128667e-001
1	 2.572061131737296e+000	 3.286517815442916e+000	 5.996556202361022e-001
1	 2.535748410254337e+000	 3.314615705796119e+000	 7.519951914862348e-001
1	 2.499155564657801e+000	 3.342292374859254e+000	 8.970882702316090e-001
1	 2.462289892034790e+000	 3.369543748028127e+000	 1.035963719553373e+000
1	 2.425158765601074e+000	 3.396365918203103e+000	 1.169677203763888e+000
1	 2.801444830037748e+000	 3.129202558978380e+000	-4.748588875227383e-001
1	 2.766740886705849e+000	 3.159928174864604e+000	-2.732920783136512e-001
1	 2.731712838286569e+000	 3.190257906944266e+000	-8.381447335783397e-002
1	 2.696367470949601e+000	 3.220186687548849e+000	 9.436225194393004e-002
1	 2.660711675109584e+000	 3.249709604111268e+000	 2.620666556390837e-001
1	 2.624752440995853e+000	 3.278821901798352e+000	 4.201655448692657e-001
1	 2.588496854144156e+000	 3.307518985991762e+000	 5.695619345612165e-001
1	 2.551952090816394e+000	 3.335796424614757e+000	 7.111929538791241e-001
1	 2.515125413354498e+000	 3.363649950302459e+000	 8.460277052586545e-001
1	 2.478024165474663e+000	 3.391075462413564e+000	 9.750650809310097e-001
1	 2.440655767508217e+000	 3.418069028881693e+000	 1.099331541918434e+000
1	 2.285685748434003e+000	 3.201037922084772e+000	 1.739189829133349e+000
1	 2.250446894129934e+000	 3.225909482613576e+000	 1.973657332403564e+000
1	 2.214971943538431e+000	 3.250369633505693e+000	 2.203819394287273e+000
1	 2.179268029550415e+000	 3.274415169322649e+000	 2.427548661245940e+000
1	 2.143342338751272e+000	 3.298043047850051e+000	 2.642754800940667e+000
1	 2.107202106807173e+000	 3.321250391072290e+000	 2.847387505824556e+000
1	 2.070854613836993e+000	 3.344034485992657e+000	 3.039439404254433e+000
1	 2.034307179775804e+000	 3.366392785299043e+000	 3.216948874055894e+000
1	 1.997567159735842e+000	 3.388322907875671e+000	 3.378002753769912e+000
1	 1.960641939370820e+000	 3.409822639161488e+000	 3.520738947114724e+000
1	 1.923538930249378e+000	 3.430889931356199e+000	 3.643348916511342e+000
1	 2.301182750341905e+000	 3.222741032766358e+000	 1.682552434144125e+000
1	 2.265704975795809e+000	 3.247781223047380e+000	 1.903259250799469e+000
1	 2.229989504223994e+000	 3.272407214324913e+000	 2.119742570205767e+000
1	 2.194043516878546e+000	 3.296615779427530e+000	 2.330086098517655e+000
1	 2.157874249070071e+000	 3.320403855514564e+000	 2.532406373214227e+000
1	 2.121488985522725e+000	 3.343768545057394e+000	 2.724855463042836e+000
1	 2.084895055714760e+000	 3.366707116665132e+000	 2.905623585869171e+000
1	 2.048099829210577e+000	 3.389217005754840e+000	 3.072941639870765e+000
1	 2.011110710990247e+000	 3.411295815066718e+000	 3.225083643773435e+000
1	 1.973935136782386e+000	 3.432941315024939e+000	 3.360369082101523e+000
1	 1.936580568406245e+000	 3.454151443945082e+000	 3.477165151693463e+000
1	 2.316679752249655e+000	 3.244444143447348e+000	 1.624052077873926e+000
1	 2.280963057461482e+000	 3.269652963480678e+000	 1.831585245428236e+000
1	 2.245007064909297e+000	 3.294444795143722e+000	 2.034964387502147e+000
1	 2.208819004206357e+000	 3.318816389532113e+000	 2.232459391640155e+000
1	 2.172406159388486e+000	 3.342764663178889e+000	 2.422369330197804e+000
1	 2.135775864237826e+000	 3.366286699042419e+000	 2.603024893601680e+000
1	 2.098935497592009e+000	 3.389379747337628e+000	 2.772790750570522e+000
1	 2.061892478644770e+000	 3.412041226210741e+000	 2.930067831176888e+000
1	 2.024654262244012e+000	 3.434268722257935e+000	 3.073295528862586e+000
1	 1.987228334193261e+000	 3.456059990888608e+000	 3.200953817763452e+000
1	 1.949622206562376e+000	 3.477412956534195e+000	 3.311565281949618e+000
1	 2.332176754157270e+000	 3.266147254127807e+000	 1.563779012744224e+000
1	 2.296221139126976e+000	 3.291524703913511e+000	 1.758704948584641e+000
1	 2.260024625594372e+000	 3.316482375962150e+000	 1.949539830898155e+000
1	 2.223594491533885e+000	 3.341016999636398e+000	 2.134715337246156e+000
1	 2.186938069706560e+000	 3.365125470843009e+000	 2.312689218967318e+000
1	 2.150062742952529e+000	 3.388804853027323e+000	 2.481947504286254e+000
1	 2.112975939468804e+000	 3.412052378010083e+000	 2.641006636120549e+000
1	 2.075685128078455e+000	 3.434865446666672e+000	 2.788415540847220e+000
1	 2.038197813497221e+000	 3.457241629449239e+000	 2.922757624499285e+000
1	 2.000521531603536e+000	 3.479178666752396e+000	 3.042652693080277e+000
1	 1.962663844717872e+000	 3.500674469123442e+000	 3.146758793909517e+000
1	 2.347673756064768e+000	 3.287850364807801e+000	 1.501821108150703e+000
1	 2.311479220792314e+000	 3.313396444345925e+000	 1.684686153991711e+000
1	 2.275042186279247e+000	 3.338519956780215e+000	 1.863522433298443e+000
1	 2.238369978861165e+000	 3.363217609740386e+000	 2.036899496349607e+000
1	 2.201469980024336e+000	 3.387486278506896e+000	 2.203410383973167e+000
1	 2.164349621666887e+000	 3.411323007012064e+000	 2.361673636615137e+000
1	 2.127016381345206e+000	 3.434725008682438e+000	 2.510335244540523e+000
1	 2.089477777511701e+000	 3.457689667122556e+000	 2.648070535749190e+000
1	 2.051741364749952e+000	 3.480214536640536e+000	 2.773585998378612e+000
1	 2.013814729013301e+000	 3.502297342616207e+000	 2.885621034562196e+000
1	 1.975705482872835e+000	 3.523935981712723e+000	 2.982949642914794e+000
1	 2.363170757972164e+000	 3.309553475487395e+000	 1.438263928599312e+000
1	 2.326737302457517e+000	 3.335268184777968e+000	 1.609594877084895e+000
1	 2.290059746963950e+000	 3.360557537597944e+000	 1.776964323393633e+000
1	 2.253145466188234e+000	 3.385418219844079e+000	 1.939056234859945e+000
1	 2.216001890341861e+000	 3.409847086170533e+000	 2.094576006472654e+000
1	 2.178636500380949e+000	 3.433841160996598e+000	 2.242252311605427e+000
1	 2.141056823221275e+000	 3.457397639354630e+000	 2.380838899023408e+000
1	 2.103270426944581e+000	 3.480513887578316e+000	 2.509116333011143e+000
1	 2.065284916002286e+000	 3.503187443831742e+000	 2.625893673639627e+000
1	 2.027107926422647e+000	 3.525416018479945e+000	 2.730010094370640e+000
1	 1.988747121027364e+000	 3.547197494301935e+000	 2.820336434382017e+000
1	 2.378667759879475e+000	 3.331256586166656e+000	 1.373190808787910e+000
1	 2.341995384122610e+000	 3.357139925209682e+000	 1.533495412939737e+000
1	 2.305077307648510e+000	 3.382595118415356e+000	 1.689916271402489e+000
1	 2.267920953515127e+000	 3.407618829947475e+000	 1.841228762512520e+000
1	 2.230533800659176e+000	 3.432207893833895e+000	 1.986228142420948e+000
1	 2.192923379094772e+000	 3.456359314980883e+000	 2.123731272788069e+000
1	 2.155097265097074e+000	 3.480070270026597e+000	 2.252578298621645e+000
1	 2.117063076377164e+000	 3.503338108033873e+000	 2.371634273307518e+000
1	 2.078828467254304e+000	 3.526160351022762e+000	 2.479790728041655e+000
1	 2.040401123831664e+000	 3.548534694343511e+000	 2.575967183040106e+000
1	 2.001788759181560e+000	 3.570459006890981e+000	 2.659112598076363e+000
1	 2.394164761786720e+000	 3.352959696845651e+000	 1.306682925772050e+000
1	 2.357253465787613e+000	 3.379011665641112e+000	 1.456450391949741e+000
1	 2.320094868332957e+000	 3.404632699232478e+000	 1.602427733037676e+000
1	 2.282696440841880e+000	 3.429819440050575e+000	 1.743459170287188e+000
1	 2.245065710976327e+000	 3.454568701496963e+000	 1.878407758890504e+000
1	 2.207210257808406e+000	 3.478877468964878e+000	 2.006157027552560e+000
1	 2.169137706972663e+000	 3.502742900698278e+000	 2.125612570810985e+000
1	 2.130855725809523e+000	 3.526162328489153e+000	 2.235703591297833e+000
1	 2.092372018506088e+000	 3.549133258213510e+000	 2.335384389288875e+000
1	 2.053694321240442e+000	 3.571653370206810e+000	 2.423635797045344e+000
1	 2.014830397335523e+000	 3.593720519479760e+000	 2.499466555616910e+000
1	 2.409661763693914e+000	 3.374662807524445e+000	 1.238819368346034e+000
1	 2.372511547452549e+000	 3.400883406072305e+000	 1.378520833355873e+000
1	 2.335112429017319e+000	 3.426670280049329e+000	 1.514546891774972e+000
1	 2.297471928168530e+000	 3.452020050153380e+000	 1.645788466382955e+000
1	 2.259597621293357e+000	 3.476929509159713e+000	 1.771154769085145e+000
1	 2.221497136521904e+000	 3.501395622948537e+000	 1.889574886896280e+000
1	 2.183178148848105e+000	 3.525415531369613e+000	 1.999999322026127e+000
1	 2.144648375241727e+000	 3.548986548944076e+000	 2.101401483347643e+000
1	 2.105915569757716e+000	 3.572106165403896e+000	 2.192779126676648e+000
1	 2.066987518649074e+000	 3.594772046069743e+000	 2.273155741446228e+000
1	 2.027872035489354e+000	 3.616982032068171e+000	 2.341581881518454e+000
1	 2.425158765601074e+000	 3.396365918203103e+000	 1.169677203763888e+000
1	 2.387769629117440e+000	 3.422755146503306e+000	 1.299766196723637e+000
1	 2.350129989701624e+000	 3.448707860865934e+000	 1.426320699501857e+000
1	 2.312247415495113e+000	 3.474220660255889e+000	 1.548256610813384e+000
1	 2.274129531610309e+000	 3.499290316822126e+000	 1.664508066011671e+000
1	 2.235784015235318e+000	 3.523913776931821e+000	 1.774029003649818e+000
1	 2.197218590723461e+000	 3.548088162040541e+000	 1.875794686258710e+000
1	 2.158441024673848e+000	 3.571810769398565e+000	 1.968803172653075e+000
1	 2.119459121009271e+000	 3.595079072593830e+000	 2.052076739224010e+000
1	 2.080280716057648e+000	 3.617890721932214e+000	 2.124663247830190e+000
1	 2.040913673643154e+000	 3.640243544656117e+000	 2.185637458058867e+000
1	 2.440655767508217e+000	 3.418069028881693e+000	 1.099331541918434e+000
1	 2.403027710782309e+000	 3.444626886934158e+000	 1.220244431459078e+000
1	 2.365147550385903e+000	 3.470745441682317e+000	 1.337794915617516e+000
1	 2.327022902821665e+000	 3.496421270358104e+000	 1.450902548683947e+000
1	 2.288661441927230e+000	 3.521651124484178e+000	 1.558505554868708e+000
1	 2.250070893948702e+000	 3.546431930914687e+000	 1.659562409246011e+000
1	 2.211259032598793e+000	 3.570760792711000e+000	 1.753053371803867e+000
1	 2.172233674105955e+000	 3.594634989852545e+000	 1.837981971884231e+000
1	 2.133002672260832e+000	 3.618051979783225e+000	 1.913376440448619e+000
1	 2.093573913466255e+000	 3.641009397794124e+000	 1.978291087761545e+000
1	 2.053955311797024e+000	 3.663505057243499e+000	 2.031807624246427e+000
1	 1.923538930249378e+000	 3.430889931356199e+000	 3.643348916511342e+000
1	 1.886271168719185e+000	 3.451519841804724e+000	 3.744614569754445e+000
1	 1.848840550700881e+000	 3.471713851746570e+000	 3.823736057186160e+000
1	 1.811254536557092e+000	 3.491470416868223e+000	 3.879552367342605e+000
1	 1.773520594178441e+000	 3.510788158857956e+000	 3.910941949569799e+000
1	 1.735646194488917e+000	 3.529665864868950e+000	 3.916823757266730e+000
1	 1.697638806993271e+000	 3.548102486840682e+000	 3.896158216568446e+000
1	 1.659505895371513e+000	 3.566097140681105e+000	 3.847948119647009e+000
1	 1.621254913125377e+000	 3.583649105312324e+000	 3.771239441997809e+000
1	 1.582893299281493e+000	 3.600757821582674e+000	 3.665122083267344e+000
1	 1.544428474155829e+000	 3.617422891048259e+000	 3.528730531364479e+000
1	 1.936580568406245e+000	 3.454151443945082e+000	 3.477165151693463e+000
1	 1.899060130596229e+000	 3.474921225660750e+000	 3.574262828490028e+000
1	 1.861375732127374e+000	 3.495252151454281e+000	 3.650596538034112e+000
1	 1.823534883943736e+000	 3.515142666541675e+000	 3.704770238838131e+000
1	 1.785545104568417e+000	 3.534591383266208e+000	 3.735432616085128e+000
1	 1.747413915578442e+000	 3.553597080557927e+000	 3.741278479124834e+000
1	 1.709148837121985e+000	 3.572158703250428e+000	 3.721050069362859e+000
1	 1.670757383482980e+000	 3.590275361257489e+000	 3.673538277239008e+000
1	 1.632247058698082e+000	 3.607946328612285e+000	 3.597583767227379e+000
1	 1.593625352230694e+000	 3.625171042372080e+000	 3.492078010026374e+000
1	 1.554899734706702e+000	 3.641949101391516e+000	 3.355964221340343e+000
1	 1.949622206562376e+000	 3.477412956534195e+000	 3.311565281949618e+000
1	 1.911849092472506e+000	 3.498322609516991e+000	 3.403977995164766e+000
1	 1.873910913553071e+000	 3.518790451162160e+000	 3.476948358847007e+000
1	 1.835815231329566e+000	 3.538814916215224e+000	 3.528885027664483e+000
1	 1.797569614957565e+000	 3.558394607674471e+000	 3.558246303781781e+000
1	 1.759181636667133e+000	 3.577528296246814e+000	 3.563541828036256e+000
1	 1.720658867249861e+000	 3.596214919659974e+000	 3.543334167940222e+000
1	 1.682008871593610e+000	 3.614453581833564e+000	 3.496240300822198e+000
1	 1.643239204269950e+000	 3.632243551911827e+000	 3.420932990698316e+000
1	 1.604357405179059e+000	 3.649584263160969e+000	 3.316142057741584e+000
1	 1.565370995256741e+000	 3.666475311734168e+000	 3.180655539492140e+000
1	 1.962663844717872e+000	 3.500674469123442e+000	 3.146758793909517e+000
1	 1.924638054348121e+000	 3.521723993373348e+000	 3.234024212038969e+000
1	 1.886446094978093e+000	 3.542328750870120e+000	 3.303109342514805e+000
1	 1.848095578714712e+000	 3.562487165888798e+000	 3.352266506794897e+000
1	 1.809594125346025e+000	 3.582197832082684e+000	 3.379802255634231e+000
1	 1.770949357755138e+000	 3.601459511935572e+000	 3.384079294051249e+000
1	 1.732168897377055e+000	 3.620271136069303e+000	 3.363518291015970e+000
1	 1.693260359703563e+000	 3.638631802409330e+000	 3.316599571888335e+000
1	 1.654231349841147e+000	 3.656540775210977e+000	 3.241864691948085e+000
1	 1.615089458126757e+000	 3.673997483949385e+000	 3.137917889670845e+000
1	 1.575842255806114e+000	 3.691001522076283e+000	 3.003427418715587e+000
1	 1.975705482872835e+000	 3.523935981712723e+000	 2.982949642914794e+000
1	 1.937427016223188e+000	 3.545125377229726e+000	 3.064658646956823e+000
1	 1.898981276402560e+000	 3.565867050578072e+000	 3.129388920127189e+000
1	 1.860375926099302e+000	 3.586159415562315e+000	 3.175274685711678e+000
1	 1.821618635733935e+000	 3.606001056490789e+000	 3.200508644919478e+000
1	 1.782717078842601e+000	 3.625390727624157e+000	 3.203344076414166e+000
1	 1.743678927503718e+000	 3.644327352478393e+000	 3.182096809909262e+000
1	 1.704511847812996e+000	 3.662810022984794e+000	 3.135147071668773e+000
1	 1.665223495411833e+000	 3.680837998509759e+000	 3.060941200096226e+000
1	 1.625821511073953e+000	 3.698410704737381e+000	 2.957993229939288e+000
1	 1.586313516354986e+000	 3.715527732417929e+000	 2.824886343978004e+000
1	 1.988747121027364e+000	 3.547197494301935e+000	 2.820336434382017e+000
1	 1.950215978097817e+000	 3.568526761086030e+000	 2.896131722027517e+000
1	 1.911516457826590e+000	 3.589405350285925e+000	 2.956088406128812e+000
1	 1.872656273483467e+000	 3.609831665235706e+000	 2.998260130537119e+000
1	 1.833643146121435e+000	 3.629804280898727e+000	 3.020762938176598e+000
1	 1.794484799929670e+000	 3.649321943312530e+000	 3.021777486561520e+000
1	 1.755188957630005e+000	 3.668383568887227e+000	 2.999551128152377e+000
1	 1.715763335922069e+000	 3.686988243559954e+000	 2.952399853298486e+000
1	 1.676215640982173e+000	 3.705135221808200e+000	 2.878710093883780e+000
1	 1.636553564020811e+000	 3.722823925524999e+000	 2.776940386160749e+000
1	 1.596784776903525e+000	 3.740053942759174e+000	 2.645622891622475e+000
1	 2.001788759181560e+000	 3.570459006890981e+000	 2.659112598076363e+000
1	 1.963004939972117e+000	 3.591928144942161e+000	 2.728687333367313e+000
1	 1.924051639250307e+000	 3.612943649993593e+000	 2.783501262718596e+000
1	 1.884936620867336e+000	 3.633503914908892e+000	 2.821564271650650e+000
1	 1.845667656508661e+000	 3.653607505306437e+000	 2.840952243978324e+000
1	 1.806252521016491e+000	 3.673253159000651e+000	 2.839809335366807e+000
1	 1.766698987756068e+000	 3.692439785295785e+000	 2.816350103915846e+000
1	 1.727014824030942e+000	 3.711166464134818e+000	 2.768861495523157e+000
1	 1.687207786552331e+000	 3.729432445106324e+000	 2.695704682166273e+000
1	 1.647285616967498e+000	 3.747237146312289e+000	 2.595316751630004e+000
1	 1.607256037451896e+000	 3.764580153100085e+000	 2.466212247590581e+000
1	 2.014830397335523e+000	 3.593720519479760e+000	 2.499466555616910e+000
1	 1.975793901846201e+000	 3.615329528798024e+000	 2.562563062307513e+000
1	 1.936586820673828e+000	 3.636481949700988e+000	 2.611913353980772e+000
1	 1.897216968251039e+000	 3.657176164581797e+000	 2.645519699358891e+000
1	 1.857692166895753e+000	 3.677410729713860e+000	 2.661453648157391e+000
1	 1.818020242103209e+000	 3.697184374688481e+000	 2.657858305345955e+000
1	 1.778209017882060e+000	 3.716496001704045e+000	 2.632950456027861e+000
1	 1.738266312139771e+000	 3.735344684709383e+000	 2.585022538785833e+000
1	 1.698199932122467e+000	 3.753729668404155e+000	 2.512444465745816e+000
1	 1.658017669914180e+000	 3.771650367099296e+000	 2.413665288011325e+000
1	 1.617727298000268e+000	 3.789106363440732e+000	 2.287214705519034e+000
1	 2.027872035489354e+000	 3.616982032068171e+000	 2.341581881518454e+000
1	 1.988582863720177e+000	 3.638730912653521e+000	 2.397990378452442e+000
1	 1.949122002097276e+000	 3.660020249408020e+000	 2.441603190209511e+000
1	 1.909497315634706e+000	 3.680848414254348e+000	 2.470450448156816e+000
1	 1.869716677282848e+000	 3.701213954120939e+000	 2.482634536097364e+000
1	 1.829787963189973e+000	 3.721115590375979e+000	 2.476332308500415e+000
1	 1.789719048008136e+000	 3.740552218111991e+000	 2.449797154326530e+000
1	 1.749517800248717e+000	 3.759522905283656e+000	 2.401360904486067e+000
1	 1.709192077692748e+000	 3.778026891701722e+000	 2.329435581382369e+000
1	 1.668749722861022e+000	 3.796063587886068e+000	 2.232514989401562e+000
1	 1.628198558548805e+000	 3.813632573781181e+000	 2.109176145616066e+000
1	 2.040913673643154e+000	 3.640243544656117e+000	 2.185637458058867e+000
1	 2.001371825594157e+000	 3.662132296508555e+000	 2.235194834952163e+000
1	 1.961657183520769e+000	 3.683558549114604e+000	 2.272842162866136e+000
1	 1.921777663018466e+000	 3.704520663926468e+000	 2.296672270090070e+000
1	 1.881741187670086e+000	 3.725017178527611e+000	 2.304852902666797e+000
1	 1.841555684276927e+000	 3.745046806063103e+000	 2.295628830440321e+000
1	 1.801229078134447e+000	 3.764608434519604e+000	 2.267323795045878e+000
1	 1.760769288357938e+000	 3.783701125857639e+000	 2.218342298164516e+000
1	 1.720184223263335e+000	 3.802324114999045e+000	 2.147171228781404e+000
1	 1.679481775808191e+000	 3.820476808672654e+000	 2.052381328600634e+000
1	 1.638669819097675e+000	 3.838158784121502e+000	 1.932628495177520e+000
1	 2.053955311797024e+000	 3.663505057243499e+000	 2.031807624246427e+000
1	 2.014160787468252e+000	 3.685533680363033e+000	 2.074396256335725e+000
1	 1.974192364944430e+000	 3.707096848820648e+000	 2.105894770585118e+000
1	 1.934058010402449e+000	 3.728192913598081e+000	 2.124492897703005e+000
1	 1.893765698057606e+000	 3.748820402933820e+000	 2.128457650345605e+000
1	 1.853323405364218e+000	 3.768978021749815e+000	 2.116135261397574e+000
1	 1.812739108261148e+000	 3.788664650926862e+000	 2.085952961900591e+000
1	 1.772020776467593e+000	 3.807879346431334e+000	 2.036420597327325e+000
1	 1.731176368834391e+000	 3.826621338296152e+000	 1.966132081314488e+000
1	 1.690213828755852e+000	 3.844890029459100e+000	 1.873766686380495e+000
1	 1.649141079647045e+000	 3.862684994461763e+000	 1.758090171558491e+000
1	 1.544428474155829e+000	 3.617422891048259e+000	 3.528730531364479e+000
1	 1.505862044005179e+000	 3.633646475212943e+000	 3.362368255069291e+000
1	 1.467207146887432e+000	 3.649425961916560e+000	 3.167017619951568e+000
1	 1.428471127328698e+000	 3.664761429167448e+000	 2.942896895254741e+000
1	 1.389661294793495e+000	 3.679653109660585e+000	 2.690356098824998e+000
1	 1.350784919814787e+000	 3.694101388953216e+000	 2.409874932460074e+000
1	 1.311849230209201e+000	 3.708106803531543e+000	 2.102060531988879e+000
1	 1.272861407380663e+000	 3.721670038772552e+000	 1.767645039899160e+000
1	 1.233828582715532e+000	 3.734791926805090e+000	 1.407483008593840e+000
1	 1.194757834072111e+000	 3.747473444274481e+000	 1.022548642590767e+000
1	 1.155656182367169e+000	 3.759715710014934e+000	 6.139328881856547e-001
1	 1.554899734706702e+000	 3.641949101391516e+000	 3.355964221340342e+000
1	 1.516071823273362e+000	 3.658282681829495e+000	 3.190130203992715e+000
1	 1.477154845064890e+000	 3.674169153815358e+000	 2.996473543691645e+000
1	 1.438156194403447e+000	 3.689608595886352e+000	 2.775519232447583e+000
1	 1.399083230311878e+000	 3.704601242315142e+000	 2.527918488158996e+000
1	 1.359943272617522e+000	 3.719147481273074e+000	 2.254446267148800e+000
1	 1.320743598141761e+000	 3.733247852883756e+000	 1.955998608440486e+000
1	 1.281491436978598e+000	 3.746903047171049e+000	 1.633589818086351e+000
1	 1.242193968865346e+000	 3.760113901905669e+000	 1.288349502071828e+000
1	 1.202858319648345e+000	 3.772881400354630e+000	 9.215194565009648e-001
1	 1.163491557846333e+000	 3.785206668937872e+000	 5.344504239210359e-001
1	 1.565370995256741e+000	 3.666475311734168e+000	 3.180655539492140e+000
1	 1.526281602540710e+000	 3.682918888445374e+000	 3.015905109942421e+000
1	 1.487102543241513e+000	 3.698912345713429e+000	 2.824619418500591e+000
1	 1.447841261477359e+000	 3.714455762604492e+000	 2.607599374133189e+000
1	 1.408505165829424e+000	 3.729549374968920e+000	 2.365765267305521e+000
1	 1.369101625419422e+000	 3.744193573592156e+000	 2.100153931632749e+000
1	 1.329637966073492e+000	 3.758388902235207e+000	 1.811915755214718e+000
1	 1.290121466575712e+000	 3.772136055568817e+000	 1.502311550299160e+000
1	 1.250559355014358e+000	 3.785435877005572e+000	 1.172709290077996e+000
1	 1.210958805223801e+000	 3.798289356434168e+000	 8.245807215526027e-001
1	 1.171326933324751e+000	 3.810697627860288e+000	 4.594978635061155e-001
1	 1.575842255806114e+000	 3.691001522076283e+000	 3.003427418715587e+000
1	 1.536491381807390e+000	 3.707555095060664e+000	 2.840319601737093e+000
1	 1.497050241417462e+000	 3.723655537610877e+000	 2.652062117406210e+000
1	 1.457526328550590e+000	 3.739302929321990e+000	 2.439701635378512e+000
1	 1.417927101346283e+000	 3.754497507622050e+000	 2.204396056204248e+000
1	 1.378259978220630e+000	 3.769239665910598e+000	 1.947411393182044e+000
1	 1.338532334004527e+000	 3.783529951586039e+000	 1.670118522769657e+000
1	 1.298751496172133e+000	 3.797369063966007e+000	 1.373989812366343e+000
1	 1.258924741162678e+000	 3.810757852104945e+000	 1.060595634392190e+000
1	 1.219059290798574e+000	 3.823697312513241e+000	 7.316007756721850e-001
1	 1.179162308802503e+000	 3.836188586782309e+000	 3.887607511874860e-001
1	 1.586313516354986e+000	 3.715527732417929e+000	 2.824886343978004e+000
1	 1.546701161073566e+000	 3.732191301675452e+000	 2.663983762679981e+000
1	 1.506997939592899e+000	 3.748398729507804e+000	 2.479392489553121e+000
1	 1.467211395623298e+000	 3.764150096038961e+000	 2.272375431068354e+000
1	 1.427349036862606e+000	 3.779445640274658e+000	 2.044297282823753e+000
1	 1.387418331021288e+000	 3.794285758228537e+000	 1.796621201872052e+000
1	 1.347426701935000e+000	 3.808671000936399e+000	 1.530905367401576e+000
1	 1.307381525767979e+000	 3.822602072362762e+000	 1.248799438594688e+000
1	 1.267290127310417e+000	 3.836079827203932e+000	 9.520409185503924e-001
1	 1.227159776372762e+000	 3.849105268591987e+000	 6.424514331940463e-001
1	 1.186997684279672e+000	 3.861679545704069e+000	 3.219329341063783e-001
1	 1.596784776903525e+000	 3.740053942759174e+000	 2.645622891622475e+000
1	 1.556910940339404e+000	 3.756827508289827e+000	 2.487491673062728e+000
1	 1.516945637767987e+000	 3.773141921404314e+000	 2.307185885603035e+000
1	 1.476896462695642e+000	 3.788997262755524e+000	 2.106155764461102e+000
1	 1.436770972378545e+000	 3.804393772926877e+000	 1.885942615707468e+000
1	 1.396576683821540e+000	 3.819331850546112e+000	 1.648175348542573e+000
1	 1.356321069865043e+000	 3.833812050286429e+000	 1.394566916640968e+000
1	 1.316011555363373e+000	 3.847835080759229e+000	 1.126910677236778e+000
1	 1.275655513457684e+000	 3.861401802302679e+000	 8.470766766411332e-001
1	 1.235260261946462e+000	 3.874513224670545e+000	 5.570078708739306e-001
1	 1.194833059756341e+000	 3.887170504625702e+000	 2.587162900585568e-001
1	 1.607256037451896e+000	 3.764580153100085e+000	 2.466212247590581e+000
1	 1.567120719605069e+000	 3.781463714903873e+000	 2.311421931462837e+000
1	 1.526893335942890e+000	 3.797885113300513e+000	 2.136002662597214e+000
1	 1.486581529767779e+000	 3.813844429471796e+000	 1.941563696646917e+000
1	 1.446192907894250e+000	 3.829341905578835e+000	 1.729793379611440e+000
1	 1.405735036621528e+000	 3.844377942863460e+000	 1.502455608764548e+000
1	 1.365215437794790e+000	 3.858953099636274e+000	 1.261386224274240e+000
1	 1.324641584958439e+000	 3.873068089155554e+000	 1.008489339881456e+000
1	 1.284020899604590e+000	 3.886723777401333e+000	 7.457336209761594e-001
1	 1.243360747519771e+000	 3.899921180749059e+000	 4.751485183581803e-001
1	 1.202668435232591e+000	 3.912661463547339e+000	 1.988204658961407e-001
1	 1.617727298000268e+000	 3.789106363440732e+000	 2.287214705519034e+000
1	 1.577330498870728e+000	 3.806099921517680e+000	 2.136338155795478e+000
1	 1.536841034117768e+000	 3.822628305196501e+000	 1.966388669211554e+000
1	 1.496266596839867e+000	 3.838691596187896e+000	 1.779106797773412e+000
1	 1.455614843409874e+000	 3.854290038230659e+000	 1.576298954999935e+000
1	 1.414893389421396e+000	 3.869424035180721e+000	 1.359833873448117e+000
1	 1.374109805724376e+000	 3.884094148986077e+000	 1.131639015461226e+000
1	 1.333271614553298e+000	 3.898301097551884e+000	 8.936969450425725e-001
1	 1.292386285751244e+000	 3.912045752500035e+000	 6.480416686865839e-001
1	 1.251461233092784e+000	 3.925329136827668e+000	 3.967549529069289e-001
1	 1.210503810708504e+000	 3.938152422469113e+000	 1.419626260890228e-001
1	 1.628198558548805e+000	 3.813632573781181e+000	 2.109176145616066e+000
1	 1.587540278136545e+000	 3.830736128131332e+000	 1.962789465031189e+000
1	 1.546788732292785e+000	 3.847371497092383e+000	 1.798875712287116e+000
1	 1.505951663912061e+000	 3.863538762903940e+000	 1.619279580860095e+000
1	 1.465036778925567e+000	 3.879238170882482e+000	 1.425897162125724e+000
1	 1.424051742221288e+000	 3.894470127498032e+000	 1.220672466693383e+000
1	 1.383004173653933e+000	 3.909235198335982e+000	 1.005593922394209e+000
1	 1.341901644148074e+000	 3.923534105948366e+000	 7.826908562069077e-001
1	 1.300751671897757e+000	 3.937367727598935e+000	 5.540299672926576e-001
1	 1.259561718665599e+000	 3.950737092906512e+000	 3.217117981795080e-001
1	 1.218339186184163e+000	 3.963643381391156e+000	 8.786721098867677e-002
1	 1.638669819097675e+000	 3.838158784121502e+000	 1.932628495177520e+000
1	 1.597750057402686e+000	 3.855372334744917e+000	 1.791310942444159e+000
1	 1.556736430468104e+000	 3.872114688988262e+000	 1.633982005473570e+000
1	 1.515636730984523e+000	 3.888385929620046e+000	 1.462563918979846e+000
1	 1.474458714441479e+000	 3.904186303534432e+000	 1.279014630384426e+000
1	 1.433210095021344e+000	 3.919516219815531e+000	 1.085324451454684e+000
1	 1.391898541583594e+000	 3.934376247686132e+000	 8.835127109217172e-001
1	 1.350531673742887e+000	 3.948767114345144e+000	 6.756244145893625e-001
1	 1.309117058044239e+000	 3.962689702698176e+000	 4.637269192932285e-001
1	 1.267662204238311e+000	 3.976145048985732e+000	 2.499066269005576e-001
1	 1.226174561659649e+000	 3.989134340313600e+000	 3.626570436015136e-002
1	 1.649141079647045e+000	 3.862684994461763e+000	 1.758090171558491e+000
1	 1.607959836669317e+000	 3.880008541358522e+000	 1.622424081212143e+000
1	 1.566684128643885e+000	 3.896857880884244e+000	 1.472212600780567e+000
1	 1.525321798057408e+000	 3.913233096336334e+000	 1.309429446547099e+000
1	 1.483880649957763e+000	 3.929134436186638e+000	 1.136067153597534e+000
1	 1.442368447821710e+000	 3.944562312133359e+000	 9.541339235598848e-001
1	 1.400792909513493e+000	 3.959517297036671e+000	 7.656504985385467e-001
1	 1.359161703337863e+000	 3.974000122742366e+000	 5.726470668304469e-001
1	 1.317482444190801e+000	 3.988011677797904e+000	 3.771602058184131e-001
1	 1.275762689811018e+000	 4.001553005065471e+000	 1.812298672342466e-001
1	 1.234009937135045e+000	 4.014625299236578e+000	-1.310359022943698e-002
1	 1.155656182367169e+000	 3.759715710014934e+000	 6.139328881856547e-001
1	 1.116530587703505e+000	 3.771519981695344e+000	 1.840870974547081e-001
1	 1.077387944538932e+000	 3.782887650511029e+000	-2.640117688172197e-001
1	 1.038235080352055e+000	 3.793820241437709e+000	-7.283670093935101e-001
1	 9.990787532115453e-001	 3.804319411526238e+000	-1.206942260833287e+000
1	 9.599256488797626e-001	 3.814386947187074e+000	-1.697664599341118e+000
1	 9.207823780247851e-001	 3.824024761409275e+000	-2.198427644471150e+000
1	 8.816554735420569e-001	 3.833234890918529e+000	-2.707094658882426e+000
1	 8.425513879866883e-001	 3.842019493278808e+000	-3.221501638492149e+000
1	 8.034764911172414e-001	 3.850380843942109e+000	-3.739460387534842e+000
1	 7.644370675516263e-001	 3.858321333250832e+000	-4.258761573207027e+000
1	 1.163491557846333e+000	 3.785206668937872e+000	 5.344504239210359e-001
1	 1.124100690751761e+000	 3.797090973851327e+000	 1.293439476701324e-001
1	 1.084692659567023e+000	 3.808535715722647e+000	-2.912128777820166e-001
1	 1.045274338061189e+000	 3.819542429866925e+000	-7.251884206355617e-001
1	 1.005852530122790e+000	 3.830112784569851e+000	-1.170522929467550e+000
1	 9.664339668438114e-001	 3.840248578353792e+000	-1.625131479518314e+000
1	 9.270253037128128e-001	 3.849951737177909e+000	-2.086906905416581e+000
1	 8.876331179184214e-001	 3.859224311576942e+000	-2.553722715220883e+000
1	 8.482639057642203e-001	 3.868068473743193e+000	-3.023435980821693e+000
1	 8.089240801958820e-001	 3.876486514556273e+000	-3.493890199923999e+000
1	 7.696199684411721e-001	 3.884480840565159e+000	-3.962918125014268e+000
1	 1.171326933324751e+000	 3.810697627860288e+000	 4.594978635061155e-001
1	 1.131670793799310e+000	 3.822661966006884e+000	 7.934492303097898e-002
1	 1.091997374594454e+000	 3.834183780933947e+000	-3.137301532102841e-001
1	 1.052313595769715e+000	 3.845264618295934e+000	-7.176715310185899e-001
1	 1.012626307033486e+000	 3.855906157613378e+000	-1.130405426383032e+000
1	 9.729422848073700e-001	 3.866110209520529e+000	-1.549842910600927e+000
1	 9.332682294004113e-001	 3.875878712946665e+000	-1.973882688286474e+000
1	 8.936107622944156e-001	 3.885213732235561e+000	-2.400413843750573e+000
1	 8.539764235414393e-001	 3.894117454207846e+000	-2.827318551416263e+000
1	 8.143716692742630e-001	 3.902592185170743e+000	-3.252474746121636e+000
1	 7.748028693305061e-001	 3.910640347879802e+000	-3.673758749357536e+000
1	 1.179162308802503e+000	 3.836188586782309e+000	 3.887607511874860e-001
1	 1.139240896846218e+000	 3.848232958162135e+000	 3.359415620876369e-002
1	 1.099302089621277e+000	 3.859831846145037e+000	-3.322206639926499e-001
1	 1.059352853477670e+000	 3.870986806724833e+000	-7.066143034813434e-001
1	 1.019400083943650e+000	 3.881699530656881e+000	-1.087508221664855e+000
1	 9.794506027704419e-001	 3.891971840687340e+000	-1.472817421435825e+000
1	 9.395111550875679e-001	 3.901805688715573e+000	-1.860453088498975e+000
1	 8.995884066700155e-001	 3.911203152894399e+000	-2.248325187896260e+000
1	 8.596889413183100e-001	 3.920166434672770e+000	-2.634345013936982e+000
1	 8.198192583523397e-001	 3.928697855785512e+000	-3.016427689939249e+000
1	 7.799857702195771e-001	 3.936799855194743e+000	-3.392494614391691e+000
1	 1.186997684279672e+000	 3.861679545704069e+000	 3.219329341063783e-001
1	 1.146810999892553e+000	 3.873803950317198e+000	-8.391127236655790e-003
1	 1.106606804647542e+000	 3.885479911356019e+000	-3.473241297632039e-001
1	 1.066392111185087e+000	 3.896708995153701e+000	-6.927936315377192e-001
1	 1.026173860853301e+000	 3.907492903700438e+000	-1.042725534101064e+000
1	 9.859589207330294e-001	 3.917833471854272e+000	-1.395046647619951e+000
1	 9.457540807742724e-001	 3.927732664484666e+000	-1.747687207345649e+000
1	 9.055660510451961e-001	 3.937192573553473e+000	-2.098583337851854e+000
1	 8.654014590947963e-001	 3.946215415137962e+000	-2.445679461725642e+000
1	 8.252668474300681e-001	 3.954803526400567e+000	-2.786930649593099e+000
1	 7.851686711083348e-001	 3.962959362509964e+000	-3.120304908572054e+000
1	 1.194833059756341e+000	 3.887170504625702e+000	 2.587162900585568e-001
1	 1.154381102938380e+000	 3.899374942472197e+000	-4.708103815426234e-002
1	 1.113911519673297e+000	 3.911127976566997e+000	-3.596634897569158e-001
1	 1.073431368892000e+000	 3.922431183582631e+000	-6.769660301131586e-001
1	 1.032947637762457e+000	 3.933286276744112e+000	-9.969281263480512e-001
1	 9.924672386951353e-001	 3.943695103021376e+000	-1.317496213291738e+000
1	 9.519970064605124e-001	 3.953659640253977e+000	-1.636626102667562e+000
1	 9.115436954199336e-001	 3.963181994212798e+000	-1.952285332377531e+000
1	 8.711139768708629e-001	 3.972264395603426e+000	-2.262455452950518e+000
1	 8.307144365074037e-001	 3.980909197015899e+000	-2.565134248433637e+000
1	 7.903515719967293e-001	 3.989118869825450e+000	-2.858337889223228e+000
1	 1.202668435232591e+000	 3.912661463547339e+000	 1.988204658961407e-001
1	 1.161951205983767e+000	 3.924945934627250e+000	-8.293343631777873e-002
1	 1.121216234698595e+000	 3.936776041778079e+000	-3.698454494303672e-001
1	 1.080470626598442e+000	 3.948153372011706e+000	-6.598682993763344e-001
1	 1.039721414671136e+000	 3.959079649787976e+000	-9.509640690130881e-001
1	 9.989755566567614e-001	 3.969556734188701e+000	-1.241106578453246e+000
1	 9.582399321462762e-001	 3.979586616023536e+000	-1.528283702369634e+000
1	 9.175213397942027e-001	 3.989171414872387e+000	-1.810499621436378e+000
1	 8.768264946464748e-001	 3.998313376069162e+000	-2.085777005288432e+000
1	 8.361620255843021e-001	 4.007014867631495e+000	-2.352159124602109e+000
1	 7.955344728847096e-001	 4.015278377141183e+000	-2.607711890119515e+000
1	 1.210503810708504e+000	 3.938152422469113e+000	 1.419626260890228e-001
1	 1.169521309028779e+000	 3.950516926782475e+000	-1.163943269207458e-001
1	 1.128520949723485e+000	 3.962424106989368e+000	-3.784610058534889e-001
1	 1.087509884304450e+000	 3.973875560441019e+000	-6.422181627896110e-001
1	 1.046495191579356e+000	 3.984873022832095e+000	-9.056594750622173e-001
1	 1.005483874617912e+000	 3.995418365356301e+000	-1.166793853384958e+000
1	 9.644828578315521e-001	 4.005513591793374e+000	-1.423647682456714e+000
1	 9.234989841679795e-001	 4.015160835532258e+000	-1.674266991445392e+000
1	 8.825390124215962e-001	 4.024362356535170e+000	-1.916719551976434e+000
1	 8.416096146607194e-001	 4.033120538247348e+000	-2.149096901475042e+000
1	 8.007173737722254e-001	 4.041437884457145e+000	-2.369516289933909e+000
1	 1.218339186184163e+000	 3.963643381391156e+000	 8.786721098867677e-002
1	 1.177091412073484e+000	 3.976087918937997e+000	-1.478982417720453e-001
1	 1.135825664748019e+000	 3.988072172200968e+000	-3.860859528279207e-001
1	 1.094549142010054e+000	 3.999597748870652e+000	-6.247148805389607e-001
1	 1.053268968487136e+000	 4.010666395876541e+000	-8.618192058894109e-001
1	 1.011992192578588e+000	 4.021279996524220e+000	-1.095450581634648e+000
1	 9.707257835163287e-001	 4.031440567563524e+000	-1.323680311188846e+000
1	 9.294766285412390e-001	 4.041150256192425e+000	-1.544601454823462e+000
1	 8.882515301961914e-001	 4.050411337001454e+000	-1.756330860972116e+000
1	 8.470572037366110e-001	 4.059226208863447e+000	-1.957011120662116e+000
1	 8.059002746592268e-001	 4.067597391773322e+000	-2.144812443317461e+000
1	 1.226174561659649e+000	 3.989134340313600e+000	 3.626570436015136e-002
1	 1.184661515117946e+000	 4.001658911093932e+000	-1.778686058760032e-001
1	 1.143130379772245e+000	 4.013720237412986e+000	-3.932813666387509e-001
1	 1.101588399715292e+000	 4.025319937300696e+000	-6.080398394445750e-001
1	 1.060042745394492e+000	 4.036459768921380e+000	-8.202275503146267e-001
1	 1.018500510538793e+000	 4.047141627692513e+000	-1.027946492985928e+000
1	 9.769687092005943e-001	 4.057367543334020e+000	-1.229319260871092e+000
1	 9.354542729139564e-001	 4.067139676852902e+000	-1.422491105433790e+000
1	 8.939640479702249e-001	 4.076460317468011e+000	-1.605631918872790e+000
1	 8.525047928119328e-001	 4.085331879479782e+000	-1.776938139232368e+000
1	 8.110831755456627e-001	 4.093756899089693e+000	-1.934634576280494e+000
1	 1.234009937135045e+000	 4.014625299236578e+000	-1.310359022943698e-002
1	 1.192231618162235e+000	 4.027229903250403e+000	-2.067180900470038e-001
1	 1.150435094796215e+000	 4.039368302625527e+000	-4.005940733005894e-001
1	 1.108627657420195e+000	 4.051042125731239e+000	-5.928571203976519e-001
1	 1.066816522301443e+000	 4.062253141966685e+000	-7.816488777139833e-001
1	 1.025008828498531e+000	 4.073003258861230e+000	-9.651292277408542e-001
1	 9.832116348843374e-001	 4.083294519104892e+000	-1.141478388716464e+000
1	 9.414319172861082e-001	 4.093129097513706e+000	-1.308898941436135e+000
1	 8.996765657436613e-001	 4.102509297934844e+000	-1.465617781159862e+000
1	 8.579523818866406e-001	 4.111437550096344e+000	-1.609887992758576e+000
1	 8.162660764314832e-001	 4.119916406406245e+000	-1.739990647462264e+000
1	 7.644370675516263e-001	 3.858321333250832e+000	-4.258761573207027e+000
1	 7.254451589814354e-001	 3.865842366926856e+000	-4.785306217526523e+000
1	 6.865010045823983e-001	 3.872947779998714e+000	-5.319893824860262e+000
1	 6.476106092149704e-001	 3.879640291078204e+000	-5.852360856935087e+000
1	 6.087798846073803e-001	 3.885922721176180e+000	-6.372484999021951e+000
1	 5.700146475776188e-001	 3.891797990537994e+000	-6.870001850835340e+000
1	 5.313206183671851e-001	 3.897269115457639e+000	-7.334621283132205e+000
1	 4.927034190860264e-001	 3.902339205074782e+000	-7.756043438307781e+000
1	 4.541685722679184e-001	 3.907011458158686e+000	-8.123974354744012e+000
1	 4.157214995353986e-001	 3.911289159882991e+000	-8.428141196131911e+000
1	 3.773675203732346e-001	 3.915175678595245e+000	-8.658307068454747e+000
1	 7.696199684411721e-001	 3.884480840565159e+000	-3.962918125014268e+000
1	 7.303636938346297e-001	 3.892052867022554e+000	-4.435290503566905e+000
1	 6.911554971736030e-001	 3.899206454958563e+000	-4.911172456817558e+000
1	 6.520014240316410e-001	 3.905944341417220e+000	-5.381225828267253e+000
1	 6.129074262186264e-001	 3.912269366535887e+000	-5.836063957119986e+000
1	 5.738793599907122e-001	 3.918184470359234e+000	-6.266266942243462e+000
1	 5.349229843727678e-001	 3.923692689631786e+000	-6.662396592289406e+000
1	 4.960439595927762e-001	 3.928797154573237e+000	-7.015011042335478e+000
1	 4.572478456274206e-001	 3.933501085640565e+000	-7.314679018756228e+000
1	 4.185401008579657e-001	 3.937807790280956e+000	-7.551993735381574e+000
1	 3.799260808354098e-001	 3.941720659679418e+000	-7.717586405352284e+000
1	 7.748028693305061e-001	 3.910640347879802e+000	-3.673758749357536e+000
1	 7.352822286876530e-001	 3.918263367118544e+000	-4.094905598242024e+000
1	 6.958099897646695e-001	 3.925465129918650e+000	-4.515521597462203e+000
1	 6.563922388481979e-001	 3.932248391756403e+000	-4.927064101542369e+000
1	 6.170349678297755e-001	 3.938616011895684e+000	-5.320951324084767e+000
1	 5.777440724037148e-001	 3.944570950180484e+000	-5.688576233398143e+000
1	 5.385253503782560e-001	 3.950116263805866e+000	-6.021320154667385e+000
1	 4.993845000994172e-001	 3.955255104071564e+000	-6.310566060985781e+000
1	 4.603271189867887e-001	 3.959990713122276e+000	-6.547711536808131e+000
1	 4.213587021803617e-001	 3.964326420678744e+000	-6.724181398623333e+000
1	 3.824846412973639e-001	 3.968265640763441e+000	-6.831439958884220e+000
1	 7.799857702195771e-001	 3.936799855194743e+000	-3.392494614391691e+000
1	 7.402007635404505e-001	 3.944473867214804e+000	-3.765338111204507e+000
1	 7.004644823555437e-001	 3.951723804878959e+000	-4.134080050181006e+000
1	 6.607830536645897e-001	 3.958552442095747e+000	-4.490944050688690e+000
1	 6.211625094407802e-001	 3.964962657255565e+000	-4.828123057290398e+000
1	 5.816087848165875e-001	 3.970957430001741e+000	-5.137791924856824e+000
1	 5.421277163836210e-001	 3.976539837979888e+000	-5.412119730526364e+000
1	 5.027250406059334e-001	 3.981713053569776e+000	-5.643281796690709e+000
1	 4.634063923460216e-001	 3.986480340603840e+000	-5.823471410314636e+000
1	 4.241773035026020e-001	 3.990845051076375e+000	-5.944911225032992e+000
1	 3.850432017591321e-001	 3.994810621847332e+000	-5.999864333598032e+000
1	 7.851686711083348e-001	 3.962959362509964e+000	-3.120304908572054e+000
1	 7.451192983929696e-001	 3.970684367311316e+000	-3.447743320850849e+000
1	 7.051189749461714e-001	 3.977982479839472e+000	-3.767956549382078e+000
1	 6.651738684807651e-001	 3.984856492435232e+000	-4.073905840276167e+000
1	 6.252900510515949e-001	 3.991309302615523e+000	-4.358529344920728e+000
1	 5.854734972292921e-001	 3.997343909823010e+000	-4.614753451623098e+000
1	 5.457300823888345e-001	 4.002963412153861e+000	-4.835503864335866e+000
1	 5.060655811123092e-001	 4.008171003067890e+000	-5.013716414397611e+000
1	 4.664856657051182e-001	 4.012969968085276e+000	-5.142347592249748e+000
1	 4.269959048247031e-001	 4.017363681473869e+000	-5.214384787120376e+000
1	 3.876017622207496e-001	 4.021355602931107e+000	-5.222856223693196e+000
1	 7.903515719967293e-001	 3.989118869825450e+000	-2.858337889223228e+000
1	 7.500378332451563e-001	 3.996894867408061e+000	-3.143246201628621e+000
1	 7.097734675364987e-001	 4.004241154800174e+000	-3.418230746413921e+000
1	 6.695646832966722e-001	 4.011160542774849e+000	-3.676962350461347e+000
1	 6.294175926621726e-001	 4.017655947975553e+000	-3.913095450904378e+000
1	 5.893382096417900e-001	 4.023730389644293e+000	-4.120278229596730e+000
1	 5.493324483938681e-001	 4.029386986327793e+000	-4.292162514832979e+000
1	 5.094061216185285e-001	 4.034628952565923e+000	-4.422413437905806e+000
1	 4.695649390640774e-001	 4.039459595566599e+000	-4.504718833015089e+000
1	 4.298145061466805e-001	 4.043882311871244e+000	-4.532798369973611e+000
1	 3.901603226822515e-001	 4.047900584014783e+000	-4.500412410081779e+000
1	 7.955344728847096e-001	 4.015278377141183e+000	-2.607711890119514e+000
1	 7.549563680969569e-001	 4.023105367505020e+000	-2.852942411186533e+000
1	 7.144279601264719e-001	 4.030499829761045e+000	-3.085954156944906e+000
1	 6.739554981122601e-001	 4.037464593114587e+000	-3.301100065776018e+000
1	 6.335451342724675e-001	 4.044002593335647e+000	-3.492722526821487e+000
1	 5.932029220540419e-001	 4.050116869465589e+000	-3.655162372845188e+000
1	 5.529348143986934e-001	 4.055810560501691e+000	-3.782767660452016e+000
1	 5.127466621245758e-001	 4.061086902063884e+000	-3.869902226801420e+000
1	 4.726442124228987e-001	 4.065949223047830e+000	-3.910954012788299e+000
1	 4.326331074685508e-001	 4.070400942268520e+000	-3.900343143496842e+000
1	 3.927188831436725e-001	 4.074445565098373e+000	-3.832529757563991e+000
1	 8.007173737722254e-001	 4.041437884457145e+000	-2.369516289933910e+000
1	 7.598749029483174e-001	 4.049315867602173e+000	-2.577899239186437e+000
1	 7.190824527160368e-001	 4.056758504722065e+000	-2.772151071549562e+000
1	 6.783463129274767e-001	 4.063768643454428e+000	-2.947279929398109e+000
1	 6.376726758824334e-001	 4.070349238695802e+000	-3.098288392278370e+000
1	 5.970676344660097e-001	 4.076503349286900e+000	-3.220181383018495e+000
1	 5.565371804032823e-001	 4.082234134675567e+000	-3.307973881241001e+000
1	 5.160872026304350e-001	 4.087544851561791e+000	-3.356698434869601e+000
1	 4.757234857815805e-001	 4.092438850528989e+000	-3.361412460964194e+000
1	 4.354517087903297e-001	 4.096919572665722e+000	-3.317205327958646e+000
1	 3.952774436050484e-001	 4.100990546181900e+000	-3.219205212113298e+000
1	 8.059002746592268e-001	 4.067597391773322e+000	-2.144812443317461e+000
1	 7.647934377991849e-001	 4.075526367699502e+000	-2.319156519503433e+000
1	 7.237369453051394e-001	 4.083017179683221e+000	-2.477819431157822e+000
1	 6.827371277422707e-001	 4.090072693794364e+000	-2.616438164458658e+000
1	 6.418002174920232e-001	 4.096695884056009e+000	-2.730648285169711e+000
1	 6.009323468776550e-001	 4.102889829108227e+000	-2.816090812161423e+000
1	 5.601395464076058e-001	 4.108657708849426e+000	-2.868418918323679e+000
1	 5.194277431360902e-001	 4.114002801059661e+000	-2.883304450817875e+000
1	 4.788027591401222e-001	 4.118928478010091e+000	-2.856444263269449e+000
1	 4.382703101120333e-001	 4.123438203062862e+000	-2.783566353152561e+000
1	 3.978360040664137e-001	 4.127535527265377e+000	-2.660435798266418e+000
1	 8.110831755456627e-001	 4.093756899089693e+000	-1.934634576280494e+000
1	 7.697119726495051e-001	 4.101736867796985e+000	-2.077727507451730e+000
1	 7.283914378937261e-001	 4.109275854644495e+000	-2.203931668939050e+000
1	 6.871279425565910e-001	 4.116376744134380e+000	-2.309487063859466e+000
1	 6.459277591011915e-001	 4.123042529416265e+000	-2.390635583175333e+000
1	 6.047970592889386e-001	 4.129276308929572e+000	-2.443626900113249e+000
1	 5.637419124116360e-001	 4.135081283023280e+000	-2.464724211911368e+000
1	 5.227682836415258e-001	 4.140460750557502e+000	-2.450209822101890e+000
1	 4.818820324985227e-001	 4.145418105491159e+000	-2.396390557102442e+000
1	 4.410889114336774e-001	 4.149956833459963e+000	-2.299603011455115e+000
1	 4.003945645278038e-001	 4.154080508348820e+000	-2.156218616613338e+000
1	 8.162660764314832e-001	 4.119916406406245e+000	-1.739990647462264e+000
1	 7.746305074992251e-001	 4.127947367894609e+000	-1.854599723590646e+000
1	 7.330459304817425e-001	 4.135534529605869e+000	-1.951435520112733e+000
1	 6.915187573703857e-001	 4.142680794474465e+000	-2.027315750000822e+000
1	 6.500553007098910e-001	 4.149389174776561e+000	-2.079062497770029e+000
1	 6.086617716998224e-001	 4.155662788750935e+000	-2.103507187624263e+000
1	 5.673442784153442e-001	 4.161504857197135e+000	-2.097495418818205e+000
1	 5.261088241467260e-001	 4.166918700055335e+000	-2.057891662604682e+000
1	 4.849613058567812e-001	 4.171907732972209e+000	-1.981583815621399e+000
1	 4.439075127552784e-001	 4.176475463857045e+000	-1.865487605052935e+000
1	 4.029531249892538e-001	 4.180625489432248e+000	-1.706550841382936e+000
1	 3.773675203732346e-001	 3.915175678595245e+000	-8.658307068454747e+000
1	 3.391061330280596e-001	 3.918674958673670e+000	-8.819783016030867e+000
1	 3.009482782972789e-001	 3.921789915098675e+000	-8.915746996821950e+000
1	 2.628990420740376e-001	 3.924524148878315e+000	-8.932890076885872e+000
1	 2.249634018290041e-001	 3.926881331380236e+000	-8.857927634843106e+000
1	 1.871462259189420e-001	 3.928865201095816e+000	-8.677618357432419e+000
1	 1.494522729974377e-001	 3.930479560421402e+000	-8.378782652509303e+000
1	 1.118861915258198e-001	 3.931728272459813e+000	-7.948320464395680e+000
1	 7.445251938222409e-002	 3.932615257845103e+000	-7.373228478291741e+000
1	 3.715568356668002e-002	 3.933144491593509e+000	-6.640616702231451e+000
1	 0.000000000000000e+000	 3.933319999983334e+000	-5.737724416793542e+000
1	 3.799260808354098e-001	 3.941720659679418e+000	-7.717586405352283e+000
1	 3.414052804044881e-001	 3.945243664957141e+000	-7.816551647017456e+000
1	 3.029887145414698e-001	 3.948379740858184e+000	-7.851545431554504e+000
1	 2.646815036219775e-001	 3.951132512805529e+000	-7.809642375532722e+000
1	 2.264886588640513e-001	 3.953505677058801e+000	-7.677942958827456e+000
1	 1.884150816320309e-001	 3.955502997456446e+000	-7.443592085080765e+000
1	 1.504655628432893e-001	 3.957128302175167e+000	-7.093797067570566e+000
1	 1.126447824758348e-001	 3.958385480509716e+000	-6.615845025896279e+000
1	 7.495730917472680e-002	 3.959278479676159e+000	-5.997119680660267e+000
1	 3.740759995516190e-002	 3.959811301641445e+000	-5.225117535060251e+000
1	 0.000000000000000e+000	 3.959987999982150e+000	-4.287463434005455e+000
1	 3.824846412973639e-001	 3.968265640763441e+000	-6.831439958884220e+000
1	 3.437044277806350e-001	 3.971812371240532e+000	-6.874323340060449e+000
1	 3.050291507853137e-001	 3.974969566617713e+000	-6.855015310043872e+000
1	 2.664639651695104e-001	 3.977740876732895e+000	-6.761078172102839e+000
1	 2.280139158986443e-001	 3.980130022737658e+000	-6.580100062514860e+000
1	 1.896839373446401e-001	 3.982140793817518e+000	-6.299712945952242e+000
1	 1.514788526886652e-001	 3.983777043929510e+000	-5.907610050696953e+000
1	 1.134033734254162e-001	 3.985042688560327e+000	-5.391562729616444e+000
1	 7.546209896688400e-002	 3.985941701508024e+000	-4.739436734554164e+000
1	 3.765951634344023e-002	 3.986478111690256e+000	-3.939207893476872e+000
1	 0.000000000000000e+000	 3.986655999981866e+000	-2.978977181372496e+000
1	 3.850432017591321e-001	 3.994810621847332e+000	-5.999864333598032e+000
1	 3.460035751565559e-001	 3.998381077523853e+000	-5.992876351827820e+000
1	 3.070695870288875e-001	 4.001559392377267e+000	-5.925716836475672e+000
1	 2.682464267167312e-001	 4.004349240660396e+000	-5.786537751996766e+000
1	 2.295391729328923e-001	 4.006754368416778e+000	-5.563515311125039e+000
1	 1.909527930568868e-001	 4.008778590178979e+000	-5.244867276493380e+000
1	 1.524921425336830e-001	 4.010425785684370e+000	-4.818869722895543e+000
1	 1.141619643746719e-001	 4.011699896611567e+000	-4.273873246666551e+000
1	 7.596688875878188e-002	 4.012604923340605e+000	-3.598318610317985e+000
1	 3.791143273156587e-002	 4.013144921739845e+000	-2.780751812190693e+000
1	 0.000000000000000e+000	 4.013323999982382e+000	-1.809838572478482e+000
1	 3.876017622207496e-001	 4.021355602931107e+000	-5.222856223693196e+000
1	 3.483027225323065e-001	 4.024949783807112e+000	-5.171994793899178e+000
1	 3.091100232722676e-001	 4.028149218136837e+000	-5.063221827407527e+000
1	 2.700288882637348e-001	 4.030957604588014e+000	-4.885378819725681e+000
1	 2.310644299669047e-001	 4.033378714096125e+000	-4.627328401380037e+000
1	 1.922216487688887e-001	 4.035416386540782e+000	-4.277970818336644e+000
1	 1.535054323784604e-001	 4.037074527439684e+000	-3.826259900204139e+000
1	 1.149205553237097e-001	 4.038357104663355e+000	-3.261218503263583e+000
1	 7.647167855050675e-002	 4.039268145173817e+000	-2.571953416951454e+000
1	 3.816334911958967e-002	 4.039811731790116e+000	-1.747669723972802e+000
1	 0.000000000000000e+000	 4.039991999983599e+000	-7.776846057375478e-001
1	 3.901603226822515e-001	 4.047900584014783e+000	-4.500412410081778e+000
1	 3.506018699079427e-001	 4.051518490090317e+000	-4.411468440791832e+000
1	 3.111504595155301e-001	 4.054739043896424e+000	-4.267113331016178e+000
1	 2.718113498106161e-001	 4.057565968515733e+000	-4.056975927763667e+000
1	 2.325896870007905e-001	 4.060003059775668e+000	-3.770701596497695e+000
1	 1.934905044807632e-001	 4.062054182902880e+000	-3.397967754146331e+000
1	 1.545187222231151e-001	 4.063723269195385e+000	-2.928498923302075e+000
1	 1.156791462726375e-001	 4.065014312715616e+000	-2.352081295246289e+000
1	 7.697646834214469e-002	 4.065931367007567e+000	-1.658576790922437e+000
1	 3.841526550756252e-002	 4.066478541840969e+000	-8.379366104428508e-001
1	 0.000000000000000e+000	 4.066659999985416e+000	 1.197857368575538e-001
1	 3.927188831436725e-001	 4.074445565098373e+000	-3.832529757563990e+000
1	 3.529010172835206e-001	 4.078087196373478e+000	-3.711092545490999e+000
1	 3.131908957587517e-001	 4.081328869656023e+000	-3.536985261228109e+000
1	 2.735938113574701e-001	 4.084174332443537e+000	-3.300719927726233e+000
1	 2.341149440346593e-001	 4.086627405455375e+000	-2.992818991089202e+000
1	 1.947593601926277e-001	 4.088691979265223e+000	-2.603829781153308e+000
1	 1.555320120677647e-001	 4.090372010951406e+000	-2.124338532871357e+000
1	 1.164377372215631e-001	 4.091671520768268e+000	-1.544983956748686e+000
1	 7.748125813378200e-002	 4.092594588841764e+000	-8.564703479611928e-001
1	 3.866718189553529e-002	 4.093145351892309e+000	-4.958022514194475e-002
1	 0.000000000000000e+000	 4.093327999987731e+000	 8.848135088492990e-001
1	 3.952774436050484e-001	 4.100990546181900e+000	-3.219205212113298e+000
1	 3.552001646590955e-001	 4.104655902656603e+000	-3.070667662144275e+000
1	 3.152313320020088e-001	 4.107918695415634e+000	-2.872442046059515e+000
1	 2.753762729043917e-001	 4.110782696371410e+000	-2.616017442863436e+000
1	 2.356402010686201e-001	 4.113251751135212e+000	-2.292885804605695e+000
1	 1.960282159045999e-001	 4.115329775627761e+000	-1.894555220670721e+000
1	 1.565453019125270e-001	 4.117020752707689e+000	-1.412562788635523e+000
1	 1.171963281705945e-001	 4.118328728821235e+000	-8.384870805783982e-001
1	 7.798604792550493e-002	 4.119257810676323e+000	-1.639601949822623e-001
1	 3.891909828355884e-002	 4.119812161944039e+000	 6.193206143843594e-001
1	 0.000000000000000e+000	 4.119995999990449e+000	 1.519581740012797e+000
1	 3.978360040664137e-001	 4.127535527265377e+000	-2.660435798266418e+000
1	 3.574993120347237e-001	 4.131224608939702e+000	-2.489999475597825e+000
1	 3.172717682453777e-001	 4.134508521175254e+000	-2.273098289525805e+000
1	 2.771587344514757e-001	 4.137391060299332e+000	-2.002290360907899e+000
1	 2.371654581027822e-001	 4.139876096815146e+000	-1.670127702048856e+000
1	 1.972970716167970e-001	 4.141967571990445e+000	-1.269168161971071e+000
1	 1.575585917575194e-001	 4.143669494464162e+000	-7.919870301096057e-001
1	 1.179549191198395e-001	 4.144985936874437e+000	-2.311882879717681e-001
1	 7.849083771739961e-002	 4.145921032511149e+000	 4.205845005729885e-001
1	 3.917101467168404e-002	 4.146478971996061e+000	 1.170637668599004e+000
1	 0.000000000000000e+000	 4.146663999993465e+000	 2.026217302167369e+000
1	 4.003945645278038e-001	 4.154080508348820e+000	-2.156218616613338e+000
1	 3.597984594104606e-001	 4.157793315222784e+000	-1.968898637468255e+000
1	 3.193122044889351e-001	 4.161098346934876e+000	-1.738578446513633e+000
1	 2.789411959988171e-001	 4.163999424227288e+000	-1.458975346367353e+000
1	 2.386907151372550e-001	 4.166500442495146e+000	-1.123790140725720e+000
1	 1.985659273293368e-001	 4.168605368353228e+000	-7.267176389874250e-001
1	 1.585718816028598e-001	 4.170318236220767e+000	-2.614568771955835e-001
1	 1.187135100694059e-001	 4.171643144927797e+000	 2.782789544825143e-001
1	 7.899562750955232e-002	 4.172584254346155e+000	 8.987528865414620e-001
1	 3.942293105996174e-002	 4.173145782048278e+000	 1.606194855030882e+000
1	 0.000000000000000e+000	 4.173331999996682e+000	 2.406792703451497e+000
1	 4.029531249892538e-001	 4.180625489432248e+000	-1.706550841382936e+000
1	 3.620976067863624e-001	 4.184362021505855e+000	-1.507180608459632e+000
1	 3.213526407327571e-001	 4.187688172694503e+000	-1.268516510039437e+000
1	 2.807236575465107e-001	 4.190607788155261e+000	-9.855233713974424e-001
1	 2.402159721721477e-001	 4.193124788175180e+000	-6.531377418903560e-001
1	 1.998347830423366e-001	 4.195243164716059e+000	-2.662768383800632e-001
1	 1.595851714486658e-001	 4.196966977977436e+000	 1.801527311477377e-001
1	 1.194721010194017e-001	 4.198300352981236e+000	 6.912464728480828e-001
1	 7.950041730204928e-002	 4.199247476181253e+000	 1.272093749429303e+000
1	 3.967484744844285e-002	 4.199812592100591e+000	 1.927769767174514e+000
1	 0.000000000000000e+000	 4.200000000000001e+000	 2.663327814241210e+000
1	 4.200000000000001e+000	 0.000000000000000e+000	 2.646086437379640e+000
1	 4.199812592100591e+000	 3.967484744844298e-002	 2.616459219921837e+000
1	 4.199247476181254e+000	 7.950041730204951e-002	 2.567879672522552e+000
1	 4.198300352981237e+000	 1.194721010194014e-001	 2.503065675218187e+000
1	 4.196966977977437e+000	 1.595851714486656e-001	 2.424625902985896e+000
1	 4.195243164716060e+000	 1.998347830423366e-001	 2.335053148934692e+000
1	 4.193124788175180e+000	 2.402159721721477e-001	 2.236717635344339e+000
1	 4.190607788155260e+000	 2.807236575465109e-001	 2.131860324525229e+000
1	 4.187688172694504e+000	 3.213526407327567e-001	 2.022586241909168e+000
1	 4.184362021505856e+000	 3.620976067863622e-001	 1.910857824201628e+000
1	 4.180625489432249e+000	 4.029531249892535e-001	 1.798488305828923e+000
1	 4.226668000003317e+000	 0.000000000000000e+000	 2.060943014635064e+000
1	 4.226479402152905e+000	 3.992676383716136e-002	 2.054114446111801e+000
1	 4.225910698016349e+000	 8.000520709494818e-002	 2.030762655982999e+000
1	 4.224957561034674e+000	 1.202306919698985e-001	 1.993173390665348e+000
1	 4.223615719734106e+000	 1.605984612950158e-001	 1.943524328193382e+000
1	 4.221880961078891e+000	 2.011036387558750e-001	 1.883879037125707e+000
1	 4.219749133855213e+000	 2.417412292075336e-001	 1.816180938832962e+000
1	 4.217216152083234e+000	 2.825061190946210e-001	 1.742247284464550e+000
1	 4.214277998454134e+000	 3.233930769768958e-001	 1.663763158270650e+000
1	 4.210930727788929e+000	 3.643967541624678e-001	 1.582275519319169e+000
1	 4.207170470515677e+000	 4.055116854507894e-001	 1.499187293993015e+000
1	 4.253336000006533e+000	 0.000000000000000e+000	 1.548648920350805e+000
1	 4.253146212205121e+000	 4.017868022608315e-002	 1.561268433222403e+000
1	 4.252573919851357e+000	 8.050999688819119e-002	 1.559594783204069e+000
1	 4.251614769088036e+000	 1.209892829208253e-001	 1.545512695531247e+000
1	 4.250264461490711e+000	 1.616117511418325e-001	 1.520801134561302e+000
1	 4.248518757441675e+000	 2.023724944698755e-001	 1.487127886247105e+000
1	 4.246373479535218e+000	 2.432664862433427e-001	 1.446044157405428e+000
1	 4.243824516011197e+000	 2.842885806430889e-001	 1.398979202355309e+000
1	 4.240867824213766e+000	 3.254335132213078e-001	 1.347234987826989e+000
1	 4.237499434072025e+000	 3.666959015387498e-001	 1.291980907350850e+000
1	 4.233715451599139e+000	 4.080702459124010e-001	 1.234248556627606e+000
1	 4.280004000009551e+000	 0.000000000000000e+000	 1.103914891230127e+000
1	 4.279813022257142e+000	 4.043059661515750e-002	 1.132855318515216e+000
1	 4.279237141686183e+000	 8.101478668169247e-002	 1.149544133834876e+000
1	 4.278271977141237e+000	 1.217478738720743e-001	 1.155495632779598e+000
1	 4.276913203247188e+000	 1.626250409889992e-001	 1.152121814807573e+000
1	 4.275156553804367e+000	 2.036413501842226e-001	 1.140727577294908e+000
1	 4.272997825215164e+000	 2.447917432794693e-001	 1.122505937693115e+000
1	 4.270432879939135e+000	 2.860710421918251e-001	 1.098533293601509e+000
1	 4.267457649973411e+000	 3.274739494659243e-001	 1.069764730836903e+000
1	 4.264068140355160e+000	 3.689950489151640e-001	 1.037029389840936e+000
1	 4.260260432682666e+000	 4.106288063740697e-001	 1.001025901006295e+000
1	 4.306672000012267e+000	 0.000000000000000e+000	 7.215826737844804e-001
1	 4.306479832308872e+000	 4.068251300433352e-002	 7.639347156509083e-001
1	 4.305900363520743e+000	 8.151957647536590e-002	 7.958984694035205e-001
1	 4.304929185194208e+000	 1.225064648235383e-001	 8.186478845243871e-001
1	 4.303561945003476e+000	 1.636383308363991e-001	 8.332592231016645e-001
1	 4.301794350166916e+000	 2.049102058988005e-001	 8.407068536193654e-001
1	 4.299622170895022e+000	 2.463170003158075e-001	 8.418590820852958e-001
1	 4.297041243867040e+000	 2.878535037407402e-001	 8.374740294925738e-001
1	 4.294047475733072e+000	 3.295143857106775e-001	 8.281955648367942e-001
1	 4.290636846638357e+000	 3.712941962916665e-001	 8.145493031211609e-001
1	 4.286805413766293e+000	 4.131873668357764e-001	 7.969386779758165e-001
1	 4.333340000014584e+000	 0.000000000000000e+000	 3.966209930683370e-001
1	 4.333146642360213e+000	 4.093442939356041e-002	 4.496878536907084e-001
1	 4.332563585354944e+000	 8.202436626912543e-002	 4.940615506199106e-001
1	 4.331586393246865e+000	 1.232650557751097e-001	 5.306052752714867e-001
1	 4.330210686759509e+000	 1.646516206839158e-001	 5.600902714753581e-001
1	 4.328432146529278e+000	 2.061790616134940e-001	 5.831922173175147e-001
1	 4.326246516574763e+000	 2.478422573522515e-001	 6.004876514884303e-001
1	 4.323649607794899e+000	 2.896359652897447e-001	 6.124504522767251e-001
1	 4.320637301492754e+000	 3.315548219554990e-001	 6.194483775279812e-001
1	 4.317205552921638e+000	 3.735933436682132e-001	 6.217396740546363e-001
1	 4.313350394850049e+000	 4.157459272975019e-001	 6.194697651329600e-001
1	 4.360008000016401e+000	 0.000000000000000e+000	 1.241216693573108e-001
1	 4.359813452411068e+000	 4.118634578278727e-002	 1.854138577925696e-001
1	 4.359226807188694e+000	 8.252915606288491e-002	 2.395495898297180e-001
1	 4.358243601299131e+000	 1.240236467266810e-001	 2.871104034878517e-001
1	 4.356859428515223e+000	 1.656649105314324e-001	 3.285927474720234e-001
1	 4.355069942891405e+000	 2.074479173281874e-001	 3.644049395251481e-001
1	 4.352870862254358e+000	 2.493675143886955e-001	 3.948641744114461e-001
1	 4.350257971722702e+000	 2.914184268387492e-001	 4.201935887685241e-001
1	 4.347227127252464e+000	 3.335952582003203e-001	 4.405193902045467e-001
1	 4.343774259205020e+000	 3.758924910447598e-001	 4.558680581416932e-001
1	 4.339895375933968e+000	 4.183044877592276e-001	 4.661636240168431e-001
1	 4.386676000017618e+000	 0.000000000000000e+000	-1.007041235261437e-001
1	 4.386480262461337e+000	 4.143826217196327e-002	-3.347383442771885e-002
1	 4.385890029021907e+000	 8.303394585655828e-002	 2.798783286835962e-002
1	 4.384900809350929e+000	 1.247822376781449e-001	 8.400939603727746e-002
1	 4.383508170270558e+000	 1.666782003788322e-001	 1.348422478749957e-001
1	 4.381707739253251e+000	 2.087167730427653e-001	 1.806581797610914e-001
1	 4.379495207933779e+000	 2.508927714250337e-001	 2.215469578521466e-001
1	 4.376866335650435e+000	 2.932008883876641e-001	 2.575139582974801e-001
1	 4.373816953012211e+000	 3.356356944450734e-001	 2.884778678688790e-001
1	 4.370342965488526e+000	 3.781916384212622e-001	 3.142684564828924e-001
1	 4.366440357018084e+000	 4.208630482209341e-001	 3.346244281669206e-001
1	 4.413344000018133e+000	 0.000000000000000e+000	-2.825294642309014e-001
1	 4.413147072510928e+000	 4.169017856103756e-002	-2.114509266089285e-001
1	 4.412553250854495e+000	 8.353873565005951e-002	-1.448927351585617e-001
1	 4.411558017402181e+000	 1.255408286293939e-001	-8.275121971436353e-002
1	 4.410156912025450e+000	 1.676914902259988e-001	-2.499077639480906e-002
1	 4.408345535614768e+000	 2.099856287571122e-001	 2.835420971110552e-002
1	 4.406119553612993e+000	 2.524180284611601e-001	 7.717749567881661e-002
1	 4.403474699578092e+000	 2.949833499364003e-001	 1.212991710072414e-001
1	 4.400406778771991e+000	 3.376761306896900e-001	 1.604639123681000e-001
1	 4.396911671772176e+000	 3.804907857976765e-001	 1.943393082635373e-001
1	 4.392985338102428e+000	 4.234216086826028e-001	 2.225142590492626e-001
1	 4.440012000017850e+000	 0.000000000000000e+000	-4.259151599427239e-001
1	 4.439813882559738e+000	 4.194209494995928e-002	-3.528855928928664e-001
1	 4.439216472686361e+000	 8.404352544330236e-002	-2.832585653785804e-001
1	 4.438215225452806e+000	 1.262994195803206e-001	-2.171275310716002e-001
1	 4.436805653779830e+000	 1.687047800728155e-001	-1.546438688861197e-001
1	 4.434983331975912e+000	 2.112544844711125e-001	-9.601826293964522e-002
1	 4.432743899291975e+000	 2.539432854969692e-001	-4.152202959208557e-002
1	 4.430083063505655e+000	 2.967658114848681e-001	 8.511612706709601e-003
1	 4.426996604531820e+000	 3.397165669341018e-001	 5.368633506095653e-002
1	 4.423480378055991e+000	 3.827899331739585e-001	 9.354155558460629e-002
1	 4.419530319187035e+000	 4.259801691442145e-001	 1.275513669975381e-001
1	 4.466680000016666e+000	 0.000000000000000e+000	-5.353130979282976e-001
1	 4.466480692607678e+000	 4.219401133867761e-002	-4.620416879106974e-001
1	 4.465879694517425e+000	 8.454831523620093e-002	-3.911766069010925e-001
1	 4.464872433502731e+000	 1.270580105308174e-001	-3.229811471706429e-001
1	 4.463454395533637e+000	 1.697180699191653e-001	-2.577653141800247e-001
1	 4.461621128336632e+000	 2.125233401846509e-001	-1.958866748068870e-001
1	 4.459368244970698e+000	 2.554685425323549e-001	-1.377511555254386e-001
1	 4.456691427433116e+000	 2.985482730329781e-001	-8.381378734425110e-002
1	 4.453586430291698e+000	 3.417570031782408e-001	-3.457939430873654e-002
1	 4.450049084339993e+000	 3.850890805500641e-001	 9.396777616416054e-003
1	 4.446075300271936e+000	 4.285387296057503e-001	 4.750849445162640e-002
1	 4.180625489432249e+000	 4.029531249892535e-001	 1.798488305828923e+000
1	 4.176475463857044e+000	 4.439075127552786e-001	 1.678457589494381e+000
1	 4.171907732972210e+000	 4.849613058567809e-001	 1.543486609159610e+000
1	 4.166918700055335e+000	 5.261088241467261e-001	 1.394924653186374e+000
1	 4.161504857197135e+000	 5.673442784153436e-001	 1.234105750961803e+000
1	 4.155662788750936e+000	 6.086617716998225e-001	 1.062346411665666e+000
1	 4.149389174776560e+000	 6.500553007098914e-001	 8.809433381234193e-001
1	 4.142680794474464e+000	 6.915187573703855e-001	 6.911711194528886e-001
1	 4.135534529605870e+000	 7.330459304817428e-001	 4.942799063766702e-001
1	 4.127947367894608e+000	 7.746305074992249e-001	 2.914930732315539e-001
1	 4.119916406406245e+000	 8.162660764314833e-001	 8.400487085950845e-002
1	 4.207170470515677e+000	 4.055116854507894e-001	 1.499187293993015e+000
1	 4.202994094254132e+000	 4.467261140768506e-001	 1.408298219704571e+000
1	 4.198397360453264e+000	 4.880405792149010e-001	 1.303270493714461e+000
1	 4.193376649553178e+000	 5.294493646516859e-001	 1.185219425520294e+000
1	 4.187928431371006e+000	 5.709466444187180e-001	 1.055249098022431e+000
1	 4.182049268572324e+000	 6.125264841102887e-001	 9.144505183863292e-001
1	 4.175735820136896e+000	 6.541828423181010e-001	 7.638997468782935e-001
1	 4.168984844814609e+000	 6.959095721836307e-001	 6.046560066724522e-001
1	 4.161793204567331e+000	 7.377004230691650e-001	 4.377597777629769e-001
1	 4.154157867992349e+000	 7.795490423483209e-001	 2.642308782495531e-001
1	 4.146075913722957e+000	 8.214489773166679e-001	 8.506653639165146e-002
1	 4.233715451599139e+000	 4.080702459124010e-001	 1.234248556627606e+000
1	 4.229512724651258e+000	 4.495447153984008e-001	 1.168643873419847e+000
1	 4.224886987934366e+000	 4.911198525729065e-001	 1.089741921548238e+000
1	 4.219834599051070e+000	 5.327899051564446e-001	 9.984431253146788e-001
1	 4.214352005544933e+000	 5.745490104218120e-001	 8.956403334937372e-001
1	 4.208435748393774e+000	 6.163911965204039e-001	 7.822173487921402e-001
1	 4.202082465497299e+000	 6.583103839258993e-001	 6.590474380070708e-001
1	 4.195288895154834e+000	 7.003003869964145e-001	 5.269918252287833e-001
1	 4.188051879528886e+000	 7.423549156560877e-001	 3.868981705457139e-001
1	 4.180368368090208e+000	 7.844675771968940e-001	 2.395990368187596e-001
1	 4.172235421039816e+000	 8.266318782013202e-001	 8.591034719678470e-002
1	 4.260260432682666e+000	 4.106288063740697e-001	 1.001025901006295e+000
1	 4.256031355048466e+000	 4.523633167199346e-001	 9.571440142050623e-001
1	 4.251376615415561e+000	 4.941991259308262e-001	 9.008348131853722e-001
1	 4.246292548549062e+000	 5.361304456610526e-001	 8.328026340060636e-001
1	 4.240775579718958e+000	 5.781513764246955e-001	 7.537475124704079e-001
1	 4.234822228215323e+000	 6.202559089302560e-001	 6.643640590610367e-001
1	 4.228429110857804e+000	 6.624379255333882e-001	 5.653403171373826e-001
1	 4.221592945495160e+000	 7.046912018088519e-001	 4.573566061483004e-001
1	 4.214310554490549e+000	 7.470094082426364e-001	 3.410843517014157e-001
1	 4.206578868188181e+000	 7.893861120450735e-001	 2.171849044177746e-001
1	 4.198394928356806e+000	 8.318147790855721e-001	 8.630834958409679e-002
1	 4.286805413766293e+000	 4.131873668357764e-001	 7.969386779758165e-001
1	 4.282549985445800e+000	 4.551819180414574e-001	 7.715063260847873e-001
1	 4.277866242896896e+000	 4.972783992886886e-001	 7.345342638929333e-001
1	 4.272750498047201e+000	 5.394709861655601e-001	 6.865492468022418e-001
1	 4.267199153893132e+000	 5.817537424274391e-001	 6.280766348057443e-001
1	 4.261208708037016e+000	 6.241206213399325e-001	 5.596395801424994e-001
1	 4.254775756218444e+000	 6.665654671406718e-001	 4.817582006192115e-001
1	 4.247896995835610e+000	 7.090820166210586e-001	 3.949487398157490e-001
1	 4.240569229452331e+000	 7.516639008289350e-001	 2.997227154598399e-001
1	 4.232789368286272e+000	 7.943046468929923e-001	 1.965860573225767e-001
1	 4.224554435673913e+000	 8.369976799695581e-001	 8.603823605140615e-002
1	 4.313350394850049e+000	 4.157459272975019e-001	 6.194697651329604e-001
1	 4.309068615843296e+000	 4.580005193629748e-001	 6.094949220576484e-001
1	 4.304355870378412e+000	 5.003576726465224e-001	 5.888749689967542e-001
1	 4.299208447545528e+000	 5.428115266700171e-001	 5.579773060383908e-001
1	 4.293622728067492e+000	 5.853561084301129e-001	 5.171704775238564e-001
1	 4.287595187858888e+000	 6.279853337495214e-001	 4.668236400248360e-001
1	 4.281122401579249e+000	 6.706930087478523e-001	 4.073060182330809e-001
1	 4.274201046176213e+000	 7.134728314331501e-001	 3.389863495019090e-001
1	 4.266827904414244e+000	 7.563183934151092e-001	 2.622323178272796e-001
1	 4.258999868384476e+000	 7.992231817407798e-001	 1.774099781050426e-001
1	 4.250713942991122e+000	 8.421805808534110e-001	 8.488317154762119e-002
1	 4.339895375933968e+000	 4.183044877592276e-001	 4.661636240168430e-001
1	 4.335587246240998e+000	 4.608191206844922e-001	 4.689286183564589e-001
1	 4.330845497860159e+000	 5.034369460043562e-001	 4.619397069869771e-001
1	 4.325666397044096e+000	 5.461520671744742e-001	 4.454228846876984e-001
1	 4.320046302242091e+000	 5.889584744327863e-001	 4.196074700813191e-001
1	 4.313981667680984e+000	 6.318500461591105e-001	 3.847258218841626e-001
1	 4.307469046940256e+000	 6.748205503550326e-001	 3.410130451581658e-001
1	 4.300505096516986e+000	 7.178636462452411e-001	 2.887066878821863e-001
1	 4.293086579376300e+000	 7.609728860012833e-001	 2.280464281924858e-001
1	 4.285210368482795e+000	 8.041417165885675e-001	 1.592737526733379e-001
1	 4.276873450308417e+000	 8.473634817372634e-001	 8.263162611124245e-002
1	 4.366440357018084e+000	 4.208630482209341e-001	 3.346244281669206e-001
1	 4.362105876638948e+000	 4.636377220060151e-001	 3.476792716562979e-001
1	 4.357335125342182e+000	 5.065162193622186e-001	 3.518578779536194e-001
1	 4.352124346542950e+000	 5.494926076789815e-001	 3.472625178920782e-001
1	 4.346469876416969e+000	 5.925608404355300e-001	 3.340006106546136e-001
1	 4.340368147503342e+000	 6.357147585687870e-001	 3.121846565884341e-001
1	 4.333815692301494e+000	 6.789480919623160e-001	 2.819321619549591e-001
1	 4.326809146857958e+000	 7.222544610574481e-001	 2.433655555678198e-001
1	 4.319345254338513e+000	 7.656273785875819e-001	 1.966120972880421e-001
1	 4.311420868581225e+000	 8.090602514364861e-001	 1.418037783630182e-001
1	 4.303032957625782e+000	 8.525463826212496e-001	 7.907721361353874e-002
1	 4.392985338102428e+000	 4.234216086826028e-001	 2.225142590492626e-001
1	 4.388624507037182e+000	 4.664563233275488e-001	 2.436701765679686e-001
1	 4.383824752824527e+000	 5.095954927201384e-001	 2.568040950120163e-001
1	 4.378582296042137e+000	 5.528331481835895e-001	 2.619119804819575e-001
1	 4.372893450592175e+000	 5.961632064384138e-001	 2.589964217181995e-001
1	 4.366754627326002e+000	 6.395794709786391e-001	 2.480667481030170e-001
1	 4.360162337663001e+000	 6.830756335698054e-001	 2.291391413777683e-001
1	 4.353113197199151e+000	 7.266452758698855e-001	 2.022367407183960e-001
1	 4.345603929300892e+000	 7.702818711741306e-001	 1.673897408156658e-001
1	 4.337631368679769e+000	 8.139787862846662e-001	 1.246354826114975e-001
1	 4.329192464943203e+000	 8.577292835055018e-001	 7.401853634815259e-002
1	 4.419530319187035e+000	 4.259801691442145e-001	 1.275513669975382e-001
1	 4.415143137435748e+000	 4.692749246490990e-001	 1.548745208822019e-001
1	 4.410314380307235e+000	 5.126747660781439e-001	 1.749968264900809e-001
1	 4.405040245541704e+000	 5.561736886883483e-001	 1.878251085514820e-001
1	 4.399317024767751e+000	 5.997655724415077e-001	 1.932739432611151e-001
1	 4.393141107149004e+000	 6.434441833887548e-001	 1.912659304148290e-001
1	 4.386508983024807e+000	 6.872031751776035e-001	 1.817319608887859e-001
1	 4.379417247540587e+000	 7.310360906826693e-001	 1.646114788496134e-001
1	 4.371862604263452e+000	 7.749363637610534e-001	 1.398527380765994e-001
1	 4.363841868778422e+000	 8.188973211332392e-001	 1.074130517707952e-001
1	 4.355351972260665e+000	 8.629121843901541e-001	 6.725903522130659e-002
1	 4.446075300271936e+000	 4.285387296057503e-001	 4.750849445162633e-002
1	 4.441661767834682e+000	 4.720935259706711e-001	 7.931389615101028e-002
1	 4.436804007790361e+000	 5.157540394362641e-001	 1.046970867559161e-001
1	 4.431498195041699e+000	 5.595142291933083e-001	 1.234926632479546e-001
1	 4.425740598943744e+000	 6.033679384448822e-001	 1.355437620692479e-001
1	 4.419527586972393e+000	 6.473088957992210e-001	 1.407024546575682e-001
1	 4.412855628386947e+000	 6.913307167858135e-001	 1.388301397997282e-001
1	 4.405721297882294e+000	 7.354269054959151e-001	 1.297979319920639e-001
1	 4.398121279226208e+000	 7.795908563484759e-001	 1.134870449801606e-001
1	 4.390052368877188e+000	 8.238158559823358e-001	 8.978916963491949e-002
1	 4.381511479578153e+000	 8.680950852753392e-001	 5.860684530867478e-002
1	 4.119916406406245e+000	 8.162660764314833e-001	 8.400487085950829e-002
1	 4.111437550096344e+000	 8.579523818866409e-001	-1.297078833665623e-001
1	 4.102509297934843e+000	 8.996765657436617e-001	-3.511688435548614e-001
1	 4.093129097513706e+000	 9.414319172861080e-001	-5.792862407273189e-001
1	 4.083294519104891e+000	 9.832116348843372e-001	-8.129480632389733e-001
1	 4.073003258861229e+000	 1.025008828498531e+000	-1.051023028153362e+000
1	 4.062253141966685e+000	 1.066816522301443e+000	-1.292361601300352e+000
1	 4.051042125731239e+000	 1.108627657420195e+000	-1.535797065313454e+000
1	 4.039368302625527e+000	 1.150435094796214e+000	-1.780146634815795e+000
1	 4.027229903250404e+000	 1.192231618162235e+000	-2.024212617795374e+000
1	 4.014625299236578e+000	 1.234009937135045e+000	-2.266783622079084e+000
1	 4.146075913722957e+000	 8.214489773166679e-001	 8.506653639165179e-002
1	 4.137543220713117e+000	 8.633999709607193e-001	-1.010371332547436e-001
1	 4.128558278401947e+000	 9.053890835164926e-001	-2.953288142894920e-001
1	 4.119118518174838e+000	 9.474095616576926e-001	-4.968130807199984e-001
1	 4.109221494876151e+000	 9.894545605675654e-001	-7.044748477634731e-001
1	 4.098864890030392e+000	 1.031517146457817e+000	-9.172802547373029e-001
1	 4.088046515012491e+000	 1.073590299208018e+000	-1.134177594251712e+000
1	 4.076764314162331e+000	 1.115666915124804e+000	-1.354098287105073e+000
1	 4.065016367838656e+000	 1.157739809819977e+000	-1.575957902162309e+000
1	 4.052800895407486e+000	 1.199801721206408e+000	-1.798657220374735e+000
1	 4.040116258160177e+000	 1.241845312610418e+000	-2.021083341976708e+000
1	 4.172235421039816e+000	 8.266318782013202e-001	 8.591034719678445e-002
1	 4.163648891330076e+000	 8.688475600342713e-001	-7.530591942283439e-002
1	 4.154607258869276e+000	 9.111016012888170e-001	-2.450809440605839e-001
1	 4.145107938836247e+000	 9.533872060288049e-001	-4.225074181603911e-001
1	 4.135148470647740e+000	 9.956974862503657e-001	-6.066586159484594e-001
1	 4.124726521199935e+000	 1.038025464416730e+000	-7.965891906750119e-001
1	 4.113839888058725e+000	 1.080364076114282e+000	-9.913360153680377e-001
1	 4.102486502593892e+000	 1.122706172829172e+000	-1.189919067614873e+000
1	 4.090664433052283e+000	 1.165044524843574e+000	-1.391342357773188e+000
1	 4.078371887565092e+000	 1.207371824250492e+000	-1.594594899898034e+000
1	 4.065607217084311e+000	 1.249680688085785e+000	-1.798651724554685e+000
1	 4.198394928356806e+000	 8.318147790855721e-001	 8.630834958409667e-002
1	 4.189754561947186e+000	 8.742951491074279e-001	-5.256247775184483e-002
1	 4.180656239336789e+000	 9.168141190607618e-001	-2.002902321346314e-001
1	 4.171097359497876e+000	 9.593648503995625e-001	-3.560475632281362e-001
1	 4.161075446419581e+000	 1.001940411932846e+000	-5.189876067482673e-001
1	 4.150588152369765e+000	 1.044533782375364e+000	-6.882446958956184e-001
1	 4.139633261105279e+000	 1.087137853020315e+000	-8.629351160949863e-001
1	 4.128208691025804e+000	 1.129745430533360e+000	-1.042157902683896e+000
1	 4.116312498266289e+000	 1.172349239867047e+000	-1.224995681084554e+000
1	 4.103942879723094e+000	 1.214941927294513e+000	-1.410515548882955e+000
1	 4.091098176008842e+000	 1.257516063561146e+000	-1.597769999128028e+000
1	 4.224554435673913e+000	 8.369976799695581e-001	 8.603823605140633e-002
1	 4.215860232564423e+000	 8.797427381803210e-001	-3.285384936615425e-002
1	 4.206705219804441e+000	 9.225266368324538e-001	-1.608250216108571e-001
1	 4.197086780159656e+000	 9.653424947700836e-001	-2.971197940393838e-001
1	 4.187002422191599e+000	 1.008183337615112e+000	-4.409627349297594e-001
1	 4.176449783539792e+000	 1.051042100333811e+000	-5.915590959478514e-001
1	 4.165426634152051e+000	 1.093911629926192e+000	-7.480954832952662e-001
1	 4.153930879457953e+000	 1.136784688237429e+000	-9.097405713189516e-001
1	 4.141960563480546e+000	 1.179653954890438e+000	-1.075645858260066e+000
1	 4.129513871881355e+000	 1.222512030338490e+000	-1.244946463713127e+000
1	 4.116589134933640e+000	 1.265351439036504e+000	-1.416761967258983e+000
1	 4.250713942991122e+000	 8.421805808534110e-001	 8.488317154762101e-002
1	 4.241965903181751e+000	 8.851903272530826e-001	-1.622591739728714e-002
1	 4.232754200272183e+000	 9.282391546040192e-001	-1.265568965293700e-001
1	 4.223076200821531e+000	 9.713201391404873e-001	-2.454181114678597e-001
1	 4.212929397963710e+000	 1.014426263297271e+000	-3.720972010286361e-001
1	 4.202311414709921e+000	 1.057550418292166e+000	-5.058616445704751e-001
1	 4.191220007198933e+000	 1.100685406831993e+000	-6.459593519720427e-001
1	 4.179653067890218e+000	 1.143823945941438e+000	-7.916192961701019e-001
1	 4.167608628694930e+000	 1.186958669913788e+000	-9.420521880897548e-001
1	 4.155084864039748e+000	 1.230082133382446e+000	-1.096451193694404e+000
1	 4.142080093858573e+000	 1.273186814511861e+000	-1.253992692778349e+000
1	 4.276873450308417e+000	 8.473634817372634e-001	 8.263162611124210e-002
1	 4.268071573799144e+000	 8.906379163258444e-001	-2.723442398433880e-003
1	 4.258803180739969e+000	 9.339516723755845e-001	-9.736058275517928e-002
1	 4.249065621483434e+000	 9.772977835108906e-001	-2.006440029637498e-001
1	 4.238856373735842e+000	 1.020669188979430e+000	-3.119161156200223e-001
1	 4.228173045880061e+000	 1.064058736250520e+000	-4.304980059859247e-001
1	 4.217013380245823e+000	 1.107459183737793e+000	-5.556899432145466e-001
1	 4.205375256322487e+000	 1.150863203645447e+000	-6.867719348178699e-001
1	 4.193256693909314e+000	 1.194263384937138e+000	-8.230043243714041e-001
1	 4.180655856198142e+000	 1.237652236426401e+000	-9.636284323494903e-001
1	 4.167571052783504e+000	 1.281022189987216e+000	-1.107867239881746e+000
1	 4.303032957625782e+000	 8.525463826212496e-001	 7.907721361353874e-002
1	 4.294177244416570e+000	 8.960855053987377e-001	 7.609903532724491e-003
1	 4.284852161207753e+000	 9.396641901472765e-001	-7.311385247774897e-002
1	 4.275055042145304e+000	 9.832754278814120e-001	-1.625062149875425e-001
1	 4.264783349507913e+000	 1.026912114661696e+000	-2.599561372940840e-001
1	 4.254034677050120e+000	 1.070567054208968e+000	-3.648297560777697e-001
1	 4.242806753292610e+000	 1.114232960643671e+000	-4.764708262928081e-001
1	 4.231097444754642e+000	 1.157902461349516e+000	-5.942012005588507e-001
1	 4.218904759123573e+000	 1.201568099960529e+000	-7.173213532219395e-001
1	 4.206226848356404e+000	 1.245222339470378e+000	-8.451109491537440e-001
1	 4.193062011708302e+000	 1.288857565462575e+000	-9.768294572549413e-001
1	 4.329192464943203e+000	 8.577292835055018e-001	 7.401853634815246e-002
1	 4.320282915033995e+000	 9.015330944718943e-001	 1.473150386847394e-002
1	 4.310901141675489e+000	 9.453767079192216e-001	-5.369743217280153e-002
1	 4.301044462807080e+000	 9.892530722521699e-001	-1.307205336944087e-001
1	 4.290710325279849e+000	 1.033155040344177e+000	-2.157651237570228e-001
1	 4.279896308220005e+000	 1.077075372167601e+000	-3.082339016532600e-001
1	 4.268600126339194e+000	 1.121006737549704e+000	-4.075053038800109e-001
1	 4.256819633186567e+000	 1.164941719053704e+000	-5.129339114422538e-001
1	 4.244552824337582e+000	 1.208872814984002e+000	-6.238509038413749e-001
1	 4.231797840514404e+000	 1.252792442514398e+000	-7.395645600012232e-001
1	 4.218552970632834e+000	 1.296692940937936e+000	-8.593608062813232e-001
1	 4.355351972260665e+000	 8.629121843901541e-001	 6.725903522130673e-002
1	 4.346388585651393e+000	 9.069806835454463e-001	 1.859976595046472e-002
1	 4.336950122143130e+000	 9.510892256915464e-001	-3.899491388107179e-002
1	 4.327033883468699e+000	 9.952307166232823e-001	-1.050095735221302e-001
1	 4.316637301051570e+000	 1.039397966026977e+000	-1.789017955055949e-001
1	 4.305757939389625e+000	 1.083583690126515e+000	-2.601024170304739e-001
1	 4.294393499385466e+000	 1.127780514455969e+000	-3.480158194299020e-001
1	 4.282541821618144e+000	 1.171980976758072e+000	-4.420202663693447e-001
1	 4.270200889551217e+000	 1.216177530007600e+000	-5.414682913227498e-001
1	 4.257368832672011e+000	 1.260362545558484e+000	-6.456871347730401e-001
1	 4.244043929556965e+000	 1.304528316413302e+000	-7.539792314781552e-001
1	 4.381511479578153e+000	 8.680950852753392e-001	 5.860684530867470e-002
1	 4.372494256268734e+000	 9.124282726195251e-001	 1.917409042485137e-002
1	 4.362999102610631e+000	 9.568017434643775e-001	-2.889266966524993e-002
1	 4.353023304130100e+000	 1.001208360994867e+000	-8.510257335244438e-002
1	 4.342564276822998e+000	 1.045640891710206e+000	-1.489354115496918e-001
1	 4.331619570558887e+000	 1.090092008085801e+000	-2.198417972261834e-001
1	 4.320186872431323e+000	 1.134554291362543e+000	-2.972433857835675e-001
1	 4.308264010049258e+000	 1.179020234462681e+000	-3.805331471249410e-001
1	 4.295848954764352e+000	 1.223482245031362e+000	-4.690756901688189e-001
1	 4.282939824829096e+000	 1.267932648602656e+000	-5.622076404569800e-001
1	 4.269534888480566e+000	 1.312363691888676e+000	-6.592380713966123e-001
1	 4.014625299236578e+000	 1.234009937135045e+000	-2.266783622079084e+000
1	 4.001553005065471e+000	 1.275762689811019e+000	-2.509489603941109e+000
1	 3.988011677797905e+000	 1.317482444190801e+000	-2.753945748324172e+000
1	 3.974000122742365e+000	 1.359161703337862e+000	-2.998907289168268e+000
1	 3.959517297036671e+000	 1.400792909513493e+000	-3.243128447012410e+000
1	 3.944562312133359e+000	 1.442368447821711e+000	-3.485363996599154e+000
1	 3.929134436186638e+000	 1.483880649957763e+000	-3.724370858198254e+000
1	 3.913233096336334e+000	 1.525321798057408e+000	-3.958909710063018e+000
1	 3.896857880884244e+000	 1.566684128643885e+000	-4.187746619328205e+000
1	 3.880008541358523e+000	 1.607959836669317e+000	-4.409654688559318e+000
1	 3.862684994461763e+000	 1.649141079647046e+000	-4.623415715069128e+000
1	 4.040116258160177e+000	 1.241845312610418e+000	-2.021083341976708e+000
1	 4.026960961145822e+000	 1.283863175383798e+000	-2.244953201551089e+000
1	 4.013333652898217e+000	 1.325847830337527e+000	-2.471907165815312e+000
1	 3.999233131140133e+000	 1.367791732933090e+000	-2.700691451496110e+000
1	 3.984658346387703e+000	 1.409687277443729e+000	-2.930031335481935e+000
1	 3.969608404451609e+000	 1.451526800622489e+000	-3.158632453592587e+000
1	 3.954082568839193e+000	 1.493302585474527e+000	-3.385182153248399e+000
1	 3.938080263052889e+000	 1.535006865130829e+000	-3.608350898566810e+000
1	 3.921601072780403e+000	 1.576631826820246e+000	-3.826793726258241e+000
1	 3.904644747972214e+000	 1.618169615936556e+000	-4.039151750537764e+000
1	 3.887211204802014e+000	 1.659612340197034e+000	-4.244053715115393e+000
1	 4.065607217084311e+000	 1.249680688085785e+000	-1.798651724554685e+000
1	 4.052368917226699e+000	 1.291963660956650e+000	-2.005188177697582e+000
1	 4.038655627999037e+000	 1.334213216484404e+000	-2.215754715269418e+000
1	 4.024466139538371e+000	 1.376421762528545e+000	-2.429100496876146e+000
1	 4.009799395739160e+000	 1.418581645374264e+000	-2.643937244888869e+000
1	 3.994654496770230e+000	 1.460685153423632e+000	-2.858940308059501e+000
1	 3.979030701492055e+000	 1.502724520991713e+000	-3.072749803913048e+000
1	 3.962927429769677e+000	 1.544691932204722e+000	-3.283971839389475e+000
1	 3.946344264676717e+000	 1.586579524997117e+000	-3.491179809011173e+000
1	 3.929280954585979e+000	 1.628379395204330e+000	-3.692915769649461e+000
1	 3.911737415142254e+000	 1.670083600747572e+000	-3.887691890761654e+000
1	 4.091098176008842e+000	 1.257516063561146e+000	-1.597769999128028e+000
1	 4.077776873307970e+000	 1.300064146529557e+000	-1.788290020538447e+000
1	 4.063977603100237e+000	 1.342578602631396e+000	-1.983446701984474e+000
1	 4.049699147936962e+000	 1.385051792124171e+000	-2.182003927404851e+000
1	 4.034940445090934e+000	 1.427476013305023e+000	-2.382675031189677e+000
1	 4.019700589089125e+000	 1.469843506225049e+000	-2.584123659903578e+000
1	 4.003978834145141e+000	 1.512146456509219e+000	-2.784964732410218e+000
1	 3.987774596486632e+000	 1.554376999278973e+000	-2.983765498649594e+000
1	 3.971087456573137e+000	 1.596527223174379e+000	-3.179046697088917e+000
1	 3.953917161199784e+000	 1.638589174472521e+000	-3.369283810631067e+000
1	 3.936263625482468e+000	 1.680554861298542e+000	-3.552908420522479e+000
1	 4.116589134933640e+000	 1.265351439036504e+000	-1.416761967258983e+000
1	 4.103184829389506e+000	 1.308164632102501e+000	-1.592401391103614e+000
1	 4.089299578201687e+000	 1.350943988778463e+000	-1.772992002014368e+000
1	 4.074932156335789e+000	 1.393681821719911e+000	-1.957324015502253e+000
1	 4.060081494442918e+000	 1.436370381235934e+000	-2.144127327429179e+000
1	 4.044746681408201e+000	 1.479001859026653e+000	-2.332072206691435e+000
1	 4.028926966798368e+000	 1.521568392026945e+000	-2.519770100726603e+000
1	 4.012621763203688e+000	 1.564062066353473e+000	-2.705774554708193e+000
1	 3.995830648469615e+000	 1.606474921351917e+000	-2.888582245037433e+000
1	 3.978553367813597e+000	 1.648798953741010e+000	-3.066634127479797e+000
1	 3.960789835822633e+000	 1.691026121849827e+000	-3.238316700023567e+000
1	 4.142080093858573e+000	 1.273186814511861e+000	-1.253992692778349e+000
1	 4.128592785471174e+000	 1.316265117675463e+000	-1.415710671751788e+000
1	 4.114621553303264e+000	 1.359309374925568e+000	-1.582448506070289e+000
1	 4.100165164734732e+000	 1.402311851315711e+000	-1.753034180130872e+000
1	 4.085222543795005e+000	 1.445264749166923e+000	-1.926228888980648e+000
1	 4.069792773727361e+000	 1.488160211828356e+000	-2.100727594414029e+000
1	 4.053875099451659e+000	 1.530990327544788e+000	-2.275159703162254e+000
1	 4.037468929920784e+000	 1.573747133428113e+000	-2.448089868487154e+000
1	 4.020573840366099e+000	 1.616422619529614e+000	-2.618018916222641e+000
1	 4.003189574427382e+000	 1.659008733009677e+000	-2.783384896030138e+000
1	 3.985316046162736e+000	 1.701497382401312e+000	-2.942564258345840e+000
1	 4.167571052783504e+000	 1.281022189987216e+000	-1.107867239881746e+000
1	 4.154000741552841e+000	 1.324365603248425e+000	-1.256450567897443e+000
1	 4.139943528404841e+000	 1.367674761072674e+000	-1.409921620529419e+000
1	 4.125398173133672e+000	 1.410941880911511e+000	-1.567157422606176e+000
1	 4.110363593147087e+000	 1.454159117097919e+000	-1.726964999514104e+000
1	 4.094838866046510e+000	 1.497318564630069e+000	-1.888081828773191e+000
1	 4.078823232104933e+000	 1.540412263062650e+000	-2.049176417867149e+000
1	 4.062316096637851e+000	 1.583432200502780e+000	-2.208849009925391e+000
1	 4.045317032262542e+000	 1.626370317707352e+000	-2.365632418580794e+000
1	 4.027825781041109e+000	 1.669218512278404e+000	-2.517992993043706e+000
1	 4.009842256502755e+000	 1.711968642952877e+000	-2.664331714138489e+000
1	 4.193062011708302e+000	 1.288857565462575e+000	-9.768294572549413e-001
1	 4.179408697634375e+000	 1.332466088821368e+000	-1.112896760741154e+000
1	 4.165265503506290e+000	 1.376040147219743e+000	-1.253562823120641e+000
1	 4.150631181532491e+000	 1.419571910507259e+000	-1.397764819461796e+000
1	 4.135504642499055e+000	 1.463053485028845e+000	-1.544369935108306e+000
1	 4.119884958365555e+000	 1.506476917431703e+000	-1.692175744418142e+000
1	 4.103771364758109e+000	 1.549834198580428e+000	-1.839910714859401e+000
1	 4.087163263354824e+000	 1.593117267577364e+000	-1.986234838183879e+000
1	 4.070060224158895e+000	 1.636318015885015e+000	-2.129740390130736e+000
1	 4.052461987654741e+000	 1.679428291547071e+000	-2.268952819832893e+000
1	 4.034368466842676e+000	 1.722439903504408e+000	-2.402331769808787e+000
1	 4.218552970632834e+000	 1.296692940937936e+000	-8.593608062813232e-001
1	 4.204816653715645e+000	 1.340566574394276e+000	-9.833666088455907e-001
1	 4.190587478607484e+000	 1.384405533366737e+000	-1.111568270974650e+000
1	 4.175864189931072e+000	 1.428201940102895e+000	-1.242974069957185e+000
1	 4.160645691850804e+000	 1.471947852959630e+000	-1.376525484047072e+000
1	 4.144931050684400e+000	 1.515635270233172e+000	-1.511097529680351e+000
1	 4.128719497411106e+000	 1.559256134098022e+000	-1.645499218136053e+000
1	 4.112010430071639e+000	 1.602802334651755e+000	-1.778474133326106e+000
1	 4.094803416055106e+000	 1.646265714062486e+000	-1.908701132143744e+000
1	 4.077098194268249e+000	 1.689638070815560e+000	-2.034795168534650e+000
1	 4.058894677182479e+000	 1.732911164055787e+000	-2.155308242178156e+000
1	 4.244043929556965e+000	 1.304528316413302e+000	-7.539792314781552e-001
1	 4.230224609796522e+000	 1.348667059967129e+000	-8.662178965040454e-001
1	 4.215909453708299e+000	 1.392770919513618e+000	-9.821774588366758e-001
1	 4.201097198329294e+000	 1.436831969698365e+000	-1.100948095929306e+000
1	 4.185786741202223e+000	 1.480842220890200e+000	-1.221559519958881e+000
1	 4.169977143002949e+000	 1.524793623034385e+000	-1.342981304473851e+000
1	 4.153667630063845e+000	 1.568678069615330e+000	-1.464123319602090e+000
1	 4.136857596788231e+000	 1.612487401725842e+000	-1.583836277309506e+000
1	 4.119546607951128e+000	 1.656213412239648e+000	-1.700912387967048e+000
1	 4.101734400881598e+000	 1.699847850083750e+000	-1.814086129241119e+000
1	 4.083420887522148e+000	 1.743382424606897e+000	-1.922035128071029e+000
1	 4.269534888480566e+000	 1.312363691888676e+000	-6.592380713966123e-001
1	 4.255632565876872e+000	 1.356767545539909e+000	-7.598476269454474e-001
1	 4.241231428808608e+000	 1.401136305660351e+000	-8.636719253455238e-001
1	 4.226330206727042e+000	 1.445461999293613e+000	-9.698936918015343e-001
1	 4.210927790553208e+000	 1.489736588820483e+000	-1.077644626070139e+000
1	 4.195023235321111e+000	 1.533951975835254e+000	-1.186005749138645e+000
1	 4.178615762716243e+000	 1.578100005132252e+000	-1.294007842652038e+000
1	 4.161704763504535e+000	 1.622172468799514e+000	-1.400631982227381e+000
1	 4.144289799846913e+000	 1.666161110416385e+000	-1.504810165592948e+000
1	 4.126370607494755e+000	 1.710057629351524e+000	-1.605426036279801e+000
1	 4.107947097861664e+000	 1.753853685157622e+000	-1.701315703376887e+000
1	 3.862684994461763e+000	 1.649141079647046e+000	-4.623415715069128e+000
1	 3.844890029459100e+000	 1.690213828755853e+000	-4.818383746298879e+000
1	 3.826621338296152e+000	 1.731176368834391e+000	-4.985266550766331e+000
1	 3.807879346431334e+000	 1.772020776467594e+000	-5.124886057521408e+000
1	 3.788664650926863e+000	 1.812739108261148e+000	-5.238192532893820e+000
1	 3.768978021749815e+000	 1.853323405364218e+000	-5.326264482704206e+000
1	 3.748820402933820e+000	 1.893765698057605e+000	-5.390308331246148e+000
1	 3.728192913598082e+000	 1.934058010402449e+000	-5.431657874195244e+000
1	 3.707096848820650e+000	 1.974192364944430e+000	-5.451773503112523e+000
1	 3.685533680363033e+000	 2.014160787468251e+000	-5.452241199738506e+000
1	 3.663505057243499e+000	 2.053955311797023e+000	-5.434771298818177e+000
1	 3.887211204802014e+000	 1.659612340197034e+000	-4.244053715115391e+000
1	 3.869303250245444e+000	 1.700945881704125e+000	-4.431419772861573e+000
1	 3.850918561593066e+000	 1.742168514406036e+000	-4.592566537473201e+000
1	 3.832057567004748e+000	 1.783272264577802e+000	-4.728215819059806e+000
1	 3.812720867333758e+000	 1.824249138388355e+000	-4.839218978160183e+000
1	 3.792909237436087e+000	 1.865091126451960e+000	-4.926556986190215e+000
1	 3.772623627339523e+000	 1.905790208445514e+000	-4.991340261707102e+000
1	 3.751865163269136e+000	 1.946338357786760e+000	-5.034808279307571e+000
1	 3.730635148526093e+000	 1.986727546368357e+000	-5.058328948488143e+000
1	 3.708935064216884e+000	 2.026949749342556e+000	-5.063397760322894e+000
1	 3.686766569830242e+000	 2.066996949951050e+000	-5.051636700358031e+000
1	 3.911737415142254e+000	 1.670083600747572e+000	-3.887691890761654e+000
1	 3.893716471031692e+000	 1.711677934652946e+000	-4.066159229884784e+000
1	 3.875215784889801e+000	 1.753160659978216e+000	-4.220385475515335e+000
1	 3.856235787577899e+000	 1.794523752688520e+000	-4.350996745774737e+000
1	 3.836777083740312e+000	 1.835759168516035e+000	-4.458747943123766e+000
1	 3.816840453121951e+000	 1.876858847540135e+000	-4.544522947480624e+000
1	 3.796426851744760e+000	 1.917814718833813e+000	-4.609334587406665e+000
1	 3.775537412939671e+000	 1.958618705171413e+000	-4.654324385936575e+000
1	 3.754173448230980e+000	 1.999262727792576e+000	-4.680762078131015e+000
1	 3.732336448070155e+000	 2.039738711217104e+000	-4.690044897949853e+000
1	 3.710028082416403e+000	 2.080038588105279e+000	-4.683696632580141e+000
1	 3.936263625482468e+000	 1.680554861298542e+000	-3.552908420522480e+000
1	 3.918129691817839e+000	 1.722409987602205e+000	-3.721430416100847e+000
1	 3.899513008186363e+000	 1.764152805550830e+000	-3.867774322723341e+000
1	 3.880414008150813e+000	 1.805775240799661e+000	-3.992474972263787e+000
1	 3.860833300146564e+000	 1.847269198644123e+000	-4.096193260293044e+000
1	 3.840771668807452e+000	 1.888626568628696e+000	-4.179716446575224e+000
1	 3.820230076149580e+000	 1.929839229222470e+000	-4.243958239059340e+000
1	 3.799209662609751e+000	 1.970899052556393e+000	-4.289958657797731e+000
1	 3.777711747935383e+000	 2.011797909217094e+000	-4.318883675709384e+000
1	 3.755737831922926e+000	 2.052527673091919e+000	-4.332024633610560e+000
1	 3.733289595002064e+000	 2.093080226259743e+000	-4.330797427457515e+000
1	 3.960789835822633e+000	 1.691026121849827e+000	-3.238316700023567e+000
1	 3.942542912603886e+000	 1.733142040551793e+000	-3.396090652123179e+000
1	 3.923810231482769e+000	 1.775144951123781e+000	-3.533807543763639e+000
1	 3.904592228723509e+000	 1.817026728911143e+000	-3.651915305625140e+000
1	 3.884889516552546e+000	 1.858779228772551e+000	-3.750983280965836e+000
1	 3.864702884492635e+000	 1.900394289717593e+000	-3.831702608471743e+000
1	 3.844033300554041e+000	 1.941863739611454e+000	-3.894886397177019e+000
1	 3.822881912279439e+000	 1.983179399941691e+000	-3.941469689836064e+000
1	 3.801250047639373e+000	 2.024333090641914e+000	-3.972509211593393e+000
1	 3.779139215775277e+000	 2.065316634967020e+000	-3.989182901280456e+000
1	 3.756551107587308e+000	 2.106121864414475e+000	-3.992789223168483e+000
1	 3.985316046162736e+000	 1.701497382401312e+000	-2.942564258345840e+000
1	 3.966956133389826e+000	 1.743874093501599e+000	-3.089025387422038e+000
1	 3.948107454779023e+000	 1.786137096696969e+000	-3.217582386816095e+000
1	 3.928770449296013e+000	 1.828278217022881e+000	-3.328600650891201e+000
1	 3.908945732958295e+000	 1.870289258901252e+000	-3.422560428475714e+000
1	 3.888634100177546e+000	 1.912162010806776e+000	-3.500057263303142e+000
1	 3.867836524958197e+000	 1.953888250000736e+000	-3.561802238216704e+000
1	 3.846554161948798e+000	 1.995459747327294e+000	-3.608622019563733e+000
1	 3.824788347343020e+000	 2.036868272067042e+000	-3.641458698641897e+000
1	 3.802540599627279e+000	 2.078105596842430e+000	-3.661369427513790e+000
1	 3.779812620172218e+000	 2.119163502569507e+000	-3.669525846976926e+000
1	 4.009842256502755e+000	 1.711968642952877e+000	-2.664331714138489e+000
1	 3.991369354175657e+000	 1.754606146451514e+000	-2.799147340073326e+000
1	 3.972404678075141e+000	 1.797129242270298e+000	-2.918218186796792e+000
1	 3.952948669868348e+000	 1.839529705134791e+000	-3.021831457548150e+000
1	 3.933001949363844e+000	 1.881799289030159e+000	-3.110380767833604e+000
1	 3.912565315862232e+000	 1.923929731896198e+000	-3.184366618947620e+000
1	 3.891639749362105e+000	 1.965912760390285e+000	-3.244396690044266e+000
1	 3.870226411617892e+000	 2.007740094713190e+000	-3.291185945321270e+000
1	 3.848326647046395e+000	 2.049403453492485e+000	-3.325556553281656e+000
1	 3.825941983479015e+000	 2.090894558718166e+000	-3.348437615456997e+000
1	 3.803074132756878e+000	 2.132205140724873e+000	-3.360864702410745e+000
1	 4.034368466842676e+000	 1.722439903504408e+000	-2.402331769808787e+000
1	 4.015782574961378e+000	 1.765338199401428e+000	-2.525395667885846e+000
1	 3.996701901371128e+000	 1.808121387843667e+000	-2.634855693996537e+000
1	 3.977126890440536e+000	 1.850781193246789e+000	-2.730925186244303e+000
1	 3.957058165769226e+000	 1.893309319159202e+000	-2.813913591067271e+000
1	 3.936496531546734e+000	 1.935697452985806e+000	-2.884226945580441e+000
1	 3.915442973765818e+000	 1.977937270780072e+000	-2.942368196318019e+000
1	 3.893898661286784e+000	 2.020020442099369e+000	-2.988937351168049e+000
1	 3.871864946749569e+000	 2.061938634918248e+000	-3.024631461653796e+000
1	 3.849343367330560e+000	 2.103683520594251e+000	-3.050244433092781e+000
1	 3.826335645341370e+000	 2.145246778880603e+000	-3.066666660555597e+000
1	 4.058894677182479e+000	 1.732911164055787e+000	-2.155308242178156e+000
1	 4.040195795746983e+000	 1.776070252351231e+000	-2.266735169579673e+000
1	 4.020999124666998e+000	 1.819113533416977e+000	-2.366656427059725e+000
1	 4.001305111012599e+000	 1.862032681358789e+000	-2.455215794833190e+000
1	 3.981114382174480e+000	 1.904819349288316e+000	-2.532641017594432e+000
1	 3.960427747231099e+000	 1.947465174075554e+000	-2.599244271662546e+000
1	 3.939246198169390e+000	 1.989961781170066e+000	-2.655422489414605e+000
1	 3.917570910955537e+000	 2.032300789485816e+000	-2.701657538121261e+000
1	 3.895403246452611e+000	 2.074473816344336e+000	-2.738516250613220e+000
1	 3.872744751181992e+000	 2.116472482470704e+000	-2.766650305535912e+000
1	 3.849597157925777e+000	 2.158288417036733e+000	-2.786795955289811e+000
1	 4.083420887522148e+000	 1.743382424606897e+000	-1.922035128071029e+000
1	 4.064609016532470e+000	 1.786802305300813e+000	-2.022155514752492e+000
1	 4.045296347962761e+000	 1.830105678990131e+000	-2.112802049280575e+000
1	 4.025483331584564e+000	 1.873284169470709e+000	-2.194053242938456e+000
1	 4.005170598579635e+000	 1.916329379417432e+000	-2.266057608997609e+000
1	 3.984358962915372e+000	 1.959232895165391e+000	-2.329034090884921e+000
1	 3.963049422572877e+000	 2.001986291560236e+000	-2.383272371538136e+000
1	 3.941243160624216e+000	 2.044581136872523e+000	-2.429133061476798e+000
1	 3.918941546155594e+000	 2.087008997770753e+000	-2.467047763376921e+000
1	 3.896146135033390e+000	 2.129261444347548e+000	-2.497519011210579e+000
1	 3.872858670510183e+000	 2.171330055193294e+000	-2.521120082294777e+000
1	 4.107947097861664e+000	 1.753853685157622e+000	-1.701315703376887e+000
1	 4.089022237317836e+000	 1.797534358250065e+000	-1.790670501430182e+000
1	 4.069593571258428e+000	 1.841097824563030e+000	-1.872493767241924e+000
1	 4.049661552156451e+000	 1.884535657582464e+000	-1.946803014266567e+000
1	 4.029226814984733e+000	 1.927839409546484e+000	-2.013669997598611e+000
1	 4.008290178599602e+000	 1.971000616255271e+000	-2.073221079611137e+000
1	 3.986852646976334e+000	 2.014010801950552e+000	-2.125637503670581e+000
1	 3.964915410292882e+000	 2.056861484259474e+000	-2.171155573957683e+000
1	 3.942479845858591e+000	 2.099544179197508e+000	-2.210066739626880e+000
1	 3.919547518884828e+000	 2.142050406224803e+000	-2.242717581746726e+000
1	 3.896120183094670e+000	 2.184371693350319e+000	-2.269509701683111e+000
1	 3.663505057243499e+000	 2.053955311797023e+000	-5.434771298818177e+000
1	 3.641009397794123e+000	 2.093573913466255e+000	-5.401956271388589e+000
1	 3.618051979783225e+000	 2.133002672260832e+000	-5.355618898090969e+000
1	 3.594634989852544e+000	 2.172233674105955e+000	-5.296421625635772e+000
1	 3.570760792710999e+000	 2.211259032598792e+000	-5.225060887150771e+000
1	 3.546431930914687e+000	 2.250070893948702e+000	-5.142266417807563e+000
1	 3.521651124484179e+000	 2.288661441927230e+000	-5.048800508839161e+000
1	 3.496421270358106e+000	 2.327022902821665e+000	-4.945457200762001e+000
1	 3.470745441682316e+000	 2.365147550385902e+000	-4.833061416774582e+000
1	 3.444626886934158e+000	 2.403027710782309e+000	-4.712468037463246e+000
1	 3.418069028881693e+000	 2.440655767508218e+000	-4.584560918101843e+000
1	 3.686766569830242e+000	 2.066996949951050e+000	-5.051636700358033e+000
1	 3.664128073655406e+000	 2.106867110874977e+000	-5.025046420654215e+000
1	 3.641024886972017e+000	 2.146546223512473e+000	-4.984962890841107e+000
1	 3.617459210305964e+000	 2.186026323538118e+000	-4.932122835711196e+000
1	 3.593433423380952e+000	 2.225299474474158e+000	-4.867297667458698e+000
1	 3.568950084897113e+000	 2.264357772662105e+000	-4.791292649998662e+000
1	 3.544011932145869e+000	 2.303193352244160e+000	-4.704945998871025e+000
1	 3.518621880460040e+000	 2.341798390148221e+000	-4.609127917845608e+000
1	 3.492783022498507e+000	 2.380165111070182e+000	-4.504739573512874e+000
1	 3.466498627364912e+000	 2.418285792447179e+000	-4.392712009312913e+000
1	 3.439772139560280e+000	 2.456152769415361e+000	-4.274005000620431e+000
1	 3.710028082416403e+000	 2.080038588105279e+000	-4.683696632580141e+000
1	 3.687246749516120e+000	 2.120160308283865e+000	-4.663104492720238e+000
1	 3.663997794160270e+000	 2.160089774764248e+000	-4.629090693040058e+000
1	 3.640283430758890e+000	 2.199818972970387e+000	-4.582446779836500e+000
1	 3.616106054050469e+000	 2.239339916349607e+000	-4.523999788263279e+000
1	 3.591468238879172e+000	 2.278644651375573e+000	-4.454611289753188e+000
1	 3.566372739807267e+000	 2.317725262561141e+000	-4.375176372331628e+000
1	 3.540822490561769e+000	 2.356573877474814e+000	-4.286622555168120e+000
1	 3.514820603314580e+000	 2.395182671754490e+000	-4.189908638891408e+000
1	 3.488370367795640e+000	 2.433543874112070e+000	-4.086023493370078e+000
1	 3.461475250238931e+000	 2.471649771322522e+000	-3.975984784833451e+000
1	 3.733289595002064e+000	 2.093080226259743e+000	-4.330797427457515e+000
1	 3.710365425376351e+000	 2.133453505692957e+000	-4.315968775897106e+000
1	 3.686970701348076e+000	 2.173633326016202e+000	-4.287834892061482e+000
1	 3.663107651211413e+000	 2.213611622402809e+000	-4.247223046822350e+000
1	 3.638778684719642e+000	 2.253380358225186e+000	-4.194996900855080e+000
1	 3.613986392860958e+000	 2.292931530089150e+000	-4.132055469207212e+000
1	 3.588733547468467e+000	 2.332257172878211e+000	-4.059332016174617e+000
1	 3.563023100663378e+000	 2.371349364801481e+000	-3.977792881992950e+000
1	 3.536858184130617e+000	 2.410200232438856e+000	-3.888436243039090e+000
1	 3.510242108226416e+000	 2.448801955777007e+000	-3.792290807421278e+000
1	 3.483178360917712e+000	 2.487146773229715e+000	-3.690414448017858e+000
1	 3.756551107587308e+000	 2.106121864414475e+000	-3.992789223168483e+000
1	 3.733484101236188e+000	 2.146746703102298e+000	-3.983481563933975e+000
1	 3.709943608535523e+000	 2.187176877268379e+000	-3.961032221924129e+000
1	 3.685931871663629e+000	 2.227404271835431e+000	-3.926285446395744e+000
1	 3.661451315388570e+000	 2.267420800100942e+000	-3.880122875893401e+000
1	 3.636504546842562e+000	 2.307218408802882e+000	-3.823462453648321e+000
1	 3.611094355129560e+000	 2.346789083195411e+000	-3.757257270810368e+000
1	 3.585223710764961e+000	 2.386124852128256e+000	-3.682494339111710e+000
1	 3.558895764946704e+000	 2.425217793123311e+000	-3.600193294754990e+000
1	 3.532113848657316e+000	 2.464060037442009e+000	-3.511405035510441e+000
1	 3.504881471596689e+000	 2.502643775136960e+000	-3.417210293194044e+000
1	 3.779812620172218e+000	 2.119163502569507e+000	-3.669525846976926e+000
1	 3.756602777095718e+000	 2.160039900511925e+000	-3.665489032768381e+000
1	 3.732916515722703e+000	 2.200720428520828e+000	-3.648523435696492e+000
1	 3.708756092115631e+000	 2.241196921268303e+000	-3.619471879319405e+000
1	 3.684123946057342e+000	 2.281461241976923e+000	-3.579215673573206e+000
1	 3.659022700824080e+000	 2.321505287516809e+000	-3.528673514335567e+000
1	 3.633455162790639e+000	 2.361320993512781e+000	-3.468800308455388e+000
1	 3.607424320866600e+000	 2.400900339455173e+000	-3.400585925868651e+000
1	 3.580933345762922e+000	 2.440235353807876e+000	-3.325053880621459e+000
1	 3.553985589088418e+000	 2.479318119107103e+000	-3.243259942819230e+000
1	 3.526584582275933e+000	 2.518140777044271e+000	-3.156290683715216e+000
1	 3.803074132756878e+000	 2.132205140724873e+000	-3.360864702410745e+000
1	 3.779721452955027e+000	 2.173333097921881e+000	-3.361841121799167e+000
1	 3.755889422909708e+000	 2.214263979773591e+000	-3.350153182584246e+000
1	 3.731580312567512e+000	 2.254989570701472e+000	-3.326624212277617e+000
1	 3.706796576726056e+000	 2.295501683853173e+000	-3.292117218556842e+000
1	 3.681540854805605e+000	 2.335792166230978e+000	-3.247533805986790e+000
1	 3.655815970451795e+000	 2.375852903830360e+000	-3.193813015945999e+000
1	 3.629624930968386e+000	 2.415675826782265e+000	-3.131930091331180e+000
1	 3.602970926579353e+000	 2.455252914492587e+000	-3.062895167819411e+000
1	 3.575857329519796e+000	 2.494576200772307e+000	-2.987751893671098e+000
1	 3.548287692955508e+000	 2.533637778951668e+000	-2.907575980257317e+000
1	 3.826335645341370e+000	 2.145246778880603e+000	-3.066666660555597e+000
1	 3.802840128814207e+000	 2.186626295332207e+000	-3.072391419489998e+000
1	 3.778862330096631e+000	 2.227807531026718e+000	-3.065769889500855e+000
1	 3.754404533019363e+000	 2.268782220134982e+000	-3.047588157325727e+000
1	 3.729469207394803e+000	 2.309542125729742e+000	-3.018673279467749e+000
1	 3.704059008787232e+000	 2.350079044945431e+000	-2.979892248734686e+000
1	 3.678176778113120e+000	 2.390384814148187e+000	-2.932150881826567e+000
1	 3.651825541070408e+000	 2.430451314109565e+000	-2.876392629430082e+000
1	 3.625008507396081e+000	 2.470270475177468e+000	-2.813597310488729e+000
1	 3.597729069951527e+000	 2.509834282437646e+000	-2.744779772526302e+000
1	 3.569990803635482e+000	 2.549134780859165e+000	-2.670988480107160e+000
1	 3.849597157925777e+000	 2.158288417036733e+000	-2.786795955289811e+000
1	 3.825958804673342e+000	 2.199919492742945e+000	-2.796997053120550e+000
1	 3.801835237283558e+000	 2.241351082280251e+000	-2.795225646932023e+000
1	 3.777228753471282e+000	 2.282574869568885e+000	-2.782213155710197e+000
1	 3.752141838063679e+000	 2.323582567606674e+000	-2.758733352753166e+000
1	 3.726577162769054e+000	 2.364365923660214e+000	-2.725601414362687e+000
1	 3.700537585774705e+000	 2.404916724466300e+000	-2.683672887531429e+000
1	 3.674026151172752e+000	 2.445226801437110e+000	-2.633842577901420e+000
1	 3.647046088213190e+000	 2.485288035862547e+000	-2.577043359483529e+000
1	 3.619600810383686e+000	 2.525092364103141e+000	-2.514244907841144e+000
1	 3.591693914315921e+000	 2.564631782766781e+000	-2.446452358651825e+000
1	 3.872858670510183e+000	 2.171330055193294e+000	-2.521120082294777e+000
1	 3.849077480532519e+000	 2.213212690154133e+000	-2.535518582510593e+000
1	 3.824808144470582e+000	 2.254894633534237e+000	-2.538376098913271e+000
1	 3.800052973923359e+000	 2.296367519003227e+000	-2.530352265875679e+000
1	 3.774814468732779e+000	 2.337623009484017e+000	-2.512150550732218e+000
1	 3.749095316751165e+000	 2.378652802375369e+000	-2.484517416640563e+000
1	 3.722898393436643e+000	 2.419448634784743e+000	-2.448241402488341e+000
1	 3.696226761275508e+000	 2.460002288764933e+000	-2.404152120870394e+000
1	 3.669083669030763e+000	 2.500305596547855e+000	-2.353119175379592e+000
1	 3.641472550816348e+000	 2.540350445768814e+000	-2.296050998671352e+000
1	 3.613397024996892e+000	 2.580128784674530e+000	-2.233893612976606e+000
1	 3.896120183094670e+000	 2.184371693350319e+000	-2.269509701683111e+000
1	 3.872196156391829e+000	 2.226505887565815e+000	-2.287819897551332e+000
1	 3.847781051657800e+000	 2.268438184788724e+000	-2.295080336948808e+000
1	 3.822877194375688e+000	 2.310160168438054e+000	-2.291862055483755e+000
1	 3.797487099402197e+000	 2.351663451361818e+000	-2.278781493654286e+000
1	 3.771613470733660e+000	 2.392939681090943e+000	-2.256499805588516e+000
1	 3.745259201099025e+000	 2.433980545103553e+000	-2.225722082979597e+000
1	 3.718427371378763e+000	 2.474777776093069e+000	-2.187196494924852e+000
1	 3.691121249848879e+000	 2.515323157233418e+000	-2.141713344598208e+000
1	 3.663344291249592e+000	 2.555608527434690e+000	-2.090104043904533e+000
1	 3.635100135678463e+000	 2.595625786582434e+000	-2.033240007483399e+000
1	 3.418069028881693e+000	 2.440655767508218e+000	-4.584560918101843e+000
1	 3.391075462413564e+000	 2.478024165474663e+000	-4.449121567522076e+000
1	 3.363649950302459e+000	 2.515125413354499e+000	-4.304940227889550e+000
1	 3.335796424614757e+000	 2.551952090816394e+000	-4.151445997430487e+000
1	 3.307518985991763e+000	 2.588496854144156e+000	-3.988083805152260e+000
1	 3.278821901798352e+000	 2.624752440995851e+000	-3.814315803747927e+000
1	 3.249709604111268e+000	 2.660711675109584e+000	-3.629622744396043e+000
1	 3.220186687548849e+000	 2.696367470949601e+000	-3.433505330304217e+000
1	 3.190257906944267e+000	 2.731712838286569e+000	-3.225485545873243e+000
1	 3.159928174864604e+000	 2.766740886705849e+000	-3.005107958398070e+000
1	 3.129202558978380e+000	 2.801444830037749e+000	-2.771940989270244e+000
1	 3.439772139560280e+000	 2.456152769415361e+000	-4.274005000620431e+000
1	 3.412607176799093e+000	 2.493758438914534e+000	-4.148407128772227e+000
1	 3.385007525745849e+000	 2.531095262051197e+000	-4.014646719725511e+000
1	 3.356977143433667e+000	 2.568155771378457e+000	-3.872126587357327e+000
1	 3.328520156540966e+000	 2.604932576551026e+000	-3.720267502223233e+000
1	 3.299640859528343e+000	 2.641418369114569e+000	-3.558509640989187e+000
1	 3.270343712614111e+000	 2.677605927241352e+000	-3.386314013897280e+000
1	 3.240633339590238e+000	 2.713488120405851e+000	-3.203163866976222e+000
1	 3.210514525480813e+000	 2.749057913994119e+000	-3.008566055745972e+000
1	 3.179992214045370e+000	 2.784308373840670e+000	-2.802052387214723e+000
1	 3.149071505129704e+000	 2.819232670686875e+000	-2.583180927025709e+000
1	 3.461475250238931e+000	 2.471649771322522e+000	-3.975984784833450e+000
1	 3.434138891184774e+000	 2.509492712354418e+000	-3.859595014558532e+000
1	 3.406365101189477e+000	 2.547065110747905e+000	-3.735555088153214e+000
1	 3.378157862252897e+000	 2.584359451940527e+000	-3.603265174151765e+000
1	 3.349521327090561e+000	 2.621368298957909e+000	-3.462145415733349e+000
1	 3.320459817258791e+000	 2.658084297233306e+000	-3.311637393722092e+000
1	 3.290977821117469e+000	 2.694500179373152e+000	-3.151205563787988e+000
1	 3.261079991632188e+000	 2.730608769862155e+000	-2.980338664513616e+000
1	 3.230771144017953e+000	 2.766402989701747e+000	-2.798551093039907e+000
1	 3.200056253226749e+000	 2.801875860975600e+000	-2.605384245063474e+000
1	 3.168940451281643e+000	 2.837020511336151e+000	-2.400407816026830e+000
1	 3.483178360917712e+000	 2.487146773229715e+000	-3.690414448017858e+000
1	 3.455670605570664e+000	 2.525226985794328e+000	-3.582627002308176e+000
1	 3.427722676633387e+000	 2.563034959444631e+000	-3.467632500963764e+000
1	 3.399338581072477e+000	 2.600563132502615e+000	-3.344851670653904e+000
1	 3.370522497640568e+000	 2.637804021364807e+000	-3.213727124363007e+000
1	 3.341278774989704e+000	 2.674750225352066e+000	-3.073724795446941e+000
1	 3.311611929621332e+000	 2.711394431504984e+000	-2.924335342084921e+000
1	 3.281526643674674e+000	 2.747729419318505e+000	-2.765075518836651e+000
1	 3.251027762555652e+000	 2.783748065409441e+000	-2.595489512073120e+000
1	 3.220120292408699e+000	 2.819443348110628e+000	-2.415150236118351e+000
1	 3.188809397434150e+000	 2.854808351985561e+000	-2.223660587018171e+000
1	 3.504881471596689e+000	 2.502643775136960e+000	-3.417210293194045e+000
1	 3.477202319956819e+000	 2.540961259234274e+000	-3.317446311563435e+000
1	 3.449080252077624e+000	 2.579004808141385e+000	-3.210846939169219e+000
1	 3.420519299892435e+000	 2.616766813064722e+000	-3.096876239552453e+000
1	 3.391523668190996e+000	 2.654239743771722e+000	-2.975021969537818e+000
1	 3.362097732721078e+000	 2.691416153470843e+000	-2.844796942270400e+000
1	 3.332246038125687e+000	 2.728288683636842e+000	-2.705740356869689e+000
1	 3.301973295717675e+000	 2.764850068774896e+000	-2.557419091545683e+000
1	 3.271284381093876e+000	 2.801093141117198e+000	-2.399428957090363e+000
1	 3.240184331591173e+000	 2.837010835245739e+000	-2.231395907736989e+000
1	 3.208678343587173e+000	 2.872596192635086e+000	-2.052977206468119e+000
1	 3.526584582275933e+000	 2.518140777044271e+000	-3.156290683715216e+000
1	 3.498734034343295e+000	 2.556695532674269e+000	-3.063997559606759e+000
1	 3.470437827522229e+000	 2.594974656838175e+000	-2.965167171979218e+000
1	 3.441700018712804e+000	 2.632970493626855e+000	-2.859329285696740e+000
1	 3.412524838741869e+000	 2.670675466178660e+000	-2.746039062729191e+000
1	 3.382916690452920e+000	 2.708082081589644e+000	-2.624878312518582e+000
1	 3.352880146630525e+000	 2.745182935768729e+000	-2.495456705211330e+000
1	 3.322419947761166e+000	 2.781970718231322e+000	-2.357412944825096e+000
1	 3.291540999632590e+000	 2.818438216825004e+000	-2.210415899497907e+000
1	 3.260248370774131e+000	 2.854578322380924e+000	-2.054165686056762e+000
1	 3.228547289740663e+000	 2.890384033284712e+000	-1.888394706240351e+000
1	 3.548287692955508e+000	 2.533637778951668e+000	-2.907575980257317e+000
1	 3.520265748730149e+000	 2.572429806114325e+000	-2.822226718714399e+000
1	 3.491795402967247e+000	 2.610944505535007e+000	-2.730562732695885e+000
1	 3.462880737533611e+000	 2.649174174189020e+000	-2.632201448690847e+000
1	 3.433526009293199e+000	 2.687111188585622e+000	-2.526787292486878e+000
1	 3.403735648185229e+000	 2.724748009708466e+000	-2.413992785630361e+000
1	 3.373514255135836e+000	 2.762077187900637e+000	-2.293519601027402e+000
1	 3.342866599805126e+000	 2.799091367687780e+000	-2.165099575066178e+000
1	 3.311797618171760e+000	 2.835783292532855e+000	-2.028495673731895e+000
1	 3.280312409957527e+000	 2.872145809516171e+000	-1.883502910284548e+000
1	 3.248416235894569e+000	 2.908171873934421e+000	-1.729949212176418e+000
1	 3.569990803635482e+000	 2.549134780859165e+000	-2.670988480107160e+000
1	 3.541797463117435e+000	 2.588164079554456e+000	-2.592081074969250e+000
1	 3.513152978412721e+000	 2.626914354231893e+000	-2.507003895488086e+000
1	 3.484061456354890e+000	 2.665377854751221e+000	-2.415483595757886e+000
1	 3.454527179845004e+000	 2.703546910992610e+000	-2.317275331215077e+000
1	 3.424554605918008e+000	 2.741413937827308e+000	-2.212163660361534e+000
1	 3.394148363641605e+000	 2.778971440032568e+000	-2.099963401928758e+000
1	 3.363313251849526e+000	 2.816212017144263e+000	-1.980520445263645e+000
1	 3.332054236711354e+000	 2.853128368240739e+000	-1.853712511818416e+000
1	 3.300376449141319e+000	 2.889713296651466e+000	-1.719449865735669e+000
1	 3.268285182048842e+000	 2.925959714584197e+000	-1.577675971635773e+000
1	 3.591693914315921e+000	 2.564631782766781e+000	-2.446452358651825e+000
1	 3.563329177505210e+000	 2.603898352994673e+000	-2.373509188566906e+000
1	 3.534510553858697e+000	 2.642884202928837e+000	-2.294461653007717e+000
1	 3.505242175176668e+000	 2.681581535313464e+000	-2.209166814862988e+000
1	 3.475528350397301e+000	 2.719982633399626e+000	-2.117511641702846e+000
1	 3.445373563651263e+000	 2.758079865946172e+000	-2.019413672328954e+000
1	 3.414782472147824e+000	 2.795865692164516e+000	-1.914821635091096e+000
1	 3.383759903894348e+000	 2.833332666600768e+000	-1.803716016237597e+000
1	 3.352310855251333e+000	 2.870473443948652e+000	-1.686109576680532e+000
1	 3.320440488325464e+000	 2.907280783786796e+000	-1.562047815675115e+000
1	 3.288154128203432e+000	 2.943747555234022e+000	-1.431609380037278e+000
1	 3.613397024996892e+000	 2.580128784674530e+000	-2.233893612976606e+000
1	 3.584860891893530e+000	 2.619632626434988e+000	-2.166460855552258e+000
1	 3.555868129305216e+000	 2.658854051625854e+000	-2.092907694812573e+000
1	 3.526422893998978e+000	 2.697785215875753e+000	-2.013242408084121e+000
1	 3.496529520950103e+000	 2.736418355806673e+000	-1.927504483419180e+000
1	 3.466192521384992e+000	 2.774745794065057e+000	-1.835765010922466e+000
1	 3.435416580654481e+000	 2.812759944296481e+000	-1.738127022194204e+000
1	 3.404206555939567e+000	 2.850453316057287e+000	-1.634725776730281e+000
1	 3.372567473791665e+000	 2.887818519656581e+000	-1.525728994245035e+000
1	 3.340504527509917e+000	 2.924848270922151e+000	-1.411337032011218e+000
1	 3.308023074358290e+000	 2.961535395883882e+000	-1.291783006444253e+000
1	 3.635100135678463e+000	 2.595625786582434e+000	-2.033240007483399e+000
1	 3.606392606282453e+000	 2.635366899875415e+000	-1.970887070926723e+000
1	 3.577225704752324e+000	 2.674823900322948e+000	-1.902314386562311e+000
1	 3.547603612821848e+000	 2.713988896438097e+000	-1.827701885220392e+000
1	 3.517530691503431e+000	 2.752854078213755e+000	-1.747261918582554e+000
1	 3.487011479119200e+000	 2.791411722183962e+000	-1.661239335610921e+000
1	 3.456050689161567e+000	 2.829654196428459e+000	-1.569911503467720e+000
1	 3.424653207985159e+000	 2.867573965513815e+000	-1.473588272424746e+000
1	 3.392824092332316e+000	 2.905163595364521e+000	-1.372611884399008e+000
1	 3.360568566694637e+000	 2.942415758057519e+000	-1.267356824889756e+000
1	 3.327892020513366e+000	 2.979323236533758e+000	-1.158229618232961e+000
1	 3.129202558978380e+000	 2.801444830037749e+000	-2.771940989270244e+000
1	 3.098090975972703e+000	 2.835812860563197e+000	-2.532198830134438e+000
1	 3.066594216041264e+000	 2.869843648532129e+000	-2.292774366665623e+000
1	 3.034717795080713e+000	 2.903530751830148e+000	-2.054383129574876e+000
1	 3.002467371960544e+000	 2.936867849398260e+000	-1.817743052887232e+000
1	 2.969848745180577e+000	 2.969848745180577e+000	-1.583573185640183e+000
1	 2.936867849398259e+000	 3.002467371960544e+000	-1.352592399418715e+000
1	 2.903530751830149e+000	 3.034717795080715e+000	-1.125518094472318e+000
1	 2.869843648532129e+000	 3.066594216041264e+000	-9.030649071654288e-001
1	 2.835812860563195e+000	 3.098090975972702e+000	-6.859434215105617e-001
1	 2.801444830037748e+000	 3.129202558978380e+000	-4.748588875227386e-001
1	 3.149071505129704e+000	 2.819232670686875e+000	-2.583180927025709e+000
1	 3.117762378387155e+000	 2.853818921840275e+000	-2.358030516241666e+000
1	 3.086065629028769e+000	 2.888065789107530e+000	-2.133340610696002e+000
1	 3.053986807974516e+000	 2.921966789469875e+000	-1.909783794084782e+000
1	 3.021531610025019e+000	 2.955515561732601e+000	-1.688034080144565e+000
1	 2.988705870497814e+000	 2.988705870497813e+000	-1.468765687013854e+000
1	 2.955515561732601e+000	 3.021531610025019e+000	-1.252651809131306e+000
1	 2.921966789469875e+000	 3.053986807974516e+000	-1.040363389287279e+000
1	 2.888065789107531e+000	 3.086065629028768e+000	-8.325678934473377e-001
1	 2.853818921840275e+000	 3.117762378387155e+000	-6.299280909604420e-001
1	 2.819232670686875e+000	 3.149071505129704e+000	-4.331008427506370e-001
1	 3.168940451281643e+000	 2.837020511336151e+000	-2.400407816026830e+000
1	 3.137433780802209e+000	 2.871824983117554e+000	-2.189558159184848e+000
1	 3.105537042016849e+000	 2.906287929683184e+000	-1.979385882772280e+000
1	 3.073255820868855e+000	 2.940402827109916e+000	-1.770499933990266e+000
1	 3.040595848089982e+000	 2.974163274067317e+000	-1.563509603735545e+000
1	 3.007562995815484e+000	 3.007562995815484e+000	-1.359023401598380e+000
1	 2.974163274067317e+000	 3.040595848089982e+000	-1.157647930262164e+000
1	 2.940402827109914e+000	 3.073255820868856e+000	-9.599867617112161e-001
1	 2.906287929683185e+000	 3.105537042016849e+000	-7.666393176511140e-001
1	 2.871824983117554e+000	 3.137433780802210e+000	-5.781997565361365e-001
1	 2.837020511336150e+000	 3.168940451281644e+000	-3.952558695815244e-001
1	 3.188809397434150e+000	 2.854808351985561e+000	-2.223660587018171e+000
1	 3.157105183217814e+000	 2.889831044395010e+000	-2.026809123531144e+000
1	 3.125008455005451e+000	 2.924510070259066e+000	-1.830924541026509e+000
1	 3.092524833763677e+000	 2.958838864750235e+000	-1.636531838254634e+000
1	 3.059660086155382e+000	 2.992810986402366e+000	-1.444155159318613e+000
1	 3.026420121133540e+000	 3.026420121133540e+000	-1.254316806898229e+000
1	 2.992810986402366e+000	 3.059660086155382e+000	-1.067536256904014e+000
1	 2.958838864750234e+000	 3.092524833763677e+000	-8.843291766773569e-001
1	 2.924510070259066e+000	 3.125008455005450e+000	-7.052064488456830e-001
1	 2.889831044395010e+000	 3.157105183217814e+000	-5.306732029285104e-001
1	 2.854808351985561e+000	 3.188809397434150e+000	-3.612278567702603e-001
1	 3.208678343587173e+000	 2.872596192635086e+000	-2.052977206468119e+000
1	 3.176776585633916e+000	 2.907837105672620e+000	-1.869810096054281e+000
1	 3.144479867994520e+000	 2.942732210835146e+000	-1.687970587953884e+000
1	 3.111793846658930e+000	 2.977274902390801e+000	-1.507879788683781e+000
1	 3.078724324221172e+000	 3.011458698737709e+000	-1.329956640819597e+000
1	 3.045277246451941e+000	 3.045277246451941e+000	-1.154617111660848e+000
1	 3.011458698737709e+000	 3.078724324221171e+000	-9.822733855169142e-001
1	 2.977274902390800e+000	 3.111793846658930e+000	-8.133330613592045e-001
1	 2.942732210835144e+000	 3.144479867994519e+000	-6.481983575732591e-001
1	 2.907837105672620e+000	 3.176776585633916e+000	-4.872653255274125e-001
1	 2.872596192635086e+000	 3.208678343587173e+000	-3.309230736522588e-001
1	 3.228547289740663e+000	 2.890384033284712e+000	-1.888394706240351e+000
1	 3.196447988050458e+000	 2.925843166950362e+000	-1.718587106590821e+000
1	 3.163951280984001e+000	 2.960954351411395e+000	-1.550537681355998e+000
1	 3.131062859554559e+000	 2.995710940031576e+000	-1.384544060146462e+000
1	 3.097788562287297e+000	 3.030106411073305e+000	-1.220900289407585e+000
1	 3.064134371770637e+000	 3.064134371770636e+000	-1.059896233375821e+000
1	 3.030106411073305e+000	 3.097788562287298e+000	-9.018169810075714e-001
1	 2.995710940031576e+000	 3.131062859554560e+000	-7.469422601763072e-001
1	 2.960954351411395e+000	 3.163951280984001e+000	-5.955458604167270e-001
1	 2.925843166950362e+000	 3.196447988050459e+000	-4.478950654739895e-001
1	 2.890384033284712e+000	 3.228547289740663e+000	-3.042500968913446e-001
1	 3.248416235894569e+000	 2.908171873934421e+000	-1.729949212176418e+000
1	 3.216119390467393e+000	 2.943849228228216e+000	-1.573165548130938e+000
1	 3.183422693973840e+000	 2.979176491987786e+000	-1.418639144882418e+000
1	 3.150331872450513e+000	 3.014146977672529e+000	-1.266524920786401e+000
1	 3.116852800353711e+000	 3.048754123409113e+000	-1.116972682875340e+000
1	 3.082991497089581e+000	 3.082991497089581e+000	-9.701267765997524e-001
1	 3.048754123409115e+000	 3.116852800353711e+000	-8.261257440536214e-001
1	 3.014146977672528e+000	 3.150331872450513e+000	-6.851019914513441e-001
1	 2.979176491987786e+000	 3.183422693973840e+000	-5.471814666012907e-001
1	 2.943849228228216e+000	 3.216119390467392e+000	-4.124833470964178e-001
1	 2.908171873934421e+000	 3.248416235894569e+000	-2.811197399157956e-001
1	 3.268285182048842e+000	 2.925959714584197e+000	-1.577675971635773e+000
1	 3.235790792884662e+000	 2.961855289506158e+000	-1.433570196176426e+000
1	 3.202894106963983e+000	 2.997398632564291e+000	-1.292287978187822e+000
1	 3.169600885346736e+000	 3.032583015313622e+000	-1.153822632226783e+000
1	 3.135917038420363e+000	 3.067401835745095e+000	-1.018160725407116e+000
1	 3.101848622408732e+000	 3.101848622408731e+000	-8.852820120717677e-001
1	 3.067401835745095e+000	 3.135917038420363e+000	-7.551593796196668e-001
1	 3.032583015313622e+000	 3.169600885346737e+000	-6.277588056481208e-001
1	 2.997398632564291e+000	 3.202894106963983e+000	-5.030393265439214e-001
1	 2.961855289506158e+000	 3.235790792884662e+000	-3.809530176277704e-001
1	 2.925959714584196e+000	 3.268285182048841e+000	-2.614449849283402e-001
1	 3.288154128203432e+000	 2.943747555234022e+000	-1.431609380037278e+000
1	 3.255462195302213e+000	 2.979861350784167e+000	-1.299825227396796e+000
1	 3.222365519954375e+000	 3.015620773140882e+000	-1.171496866720803e+000
1	 3.188869898243178e+000	 3.051019052954823e+000	-1.046437449767224e+000
1	 3.154981276487200e+000	 3.086049548081208e+000	-9.244516377174027e-001
1	 3.120705747728039e+000	 3.120705747728038e+000	-8.053358565862018e-001
1	 3.086049548081208e+000	 3.154981276487199e+000	-6.888785666148668e-001
1	 3.051019052954824e+000	 3.188869898243179e+000	-5.748605451237182e-001
1	 3.015620773140882e+000	 3.222365519954374e+000	-4.630551822681691e-001
1	 2.979861350784166e+000	 3.255462195302214e+000	-3.532287891094447e-001
1	 2.943747555234023e+000	 3.288154128203432e+000	-2.451409173811135e-001
1	 3.308023074358290e+000	 2.961535395883882e+000	-1.291783006444253e+000
1	 3.275133597719994e+000	 2.997867412062219e+000	-1.171954237613145e+000
1	 3.241836932944962e+000	 3.033842913717531e+000	-1.056278191159980e+000
1	 3.208138911139784e+000	 3.069455090596099e+000	-9.443696225737143e-001
1	 3.174045514554174e+000	 3.104697260417412e+000	-8.358329475450824e-001
1	 3.139562873047459e+000	 3.139562873047459e+000	-7.302628535906232e-001
1	 3.104697260417412e+000	 3.174045514554175e+000	-6.272449286439614e-001
1	 3.069455090596098e+000	 3.208138911139783e+000	-5.263563053310255e-001
1	 3.033842913717530e+000	 3.241836932944962e+000	-4.271663196058781e-001
1	 2.997867412062220e+000	 3.275133597719995e+000	-3.292371823882562e-001
1	 2.961535395883882e+000	 3.308023074358290e+000	-2.321246628120393e-001
1	 3.327892020513366e+000	 2.979323236533758e+000	-1.158229618232961e+000
1	 3.294805000137952e+000	 3.015873473340294e+000	-1.049980259137695e+000
1	 3.261308345935689e+000	 3.052065054294208e+000	-9.466440365120222e-001
1	 3.227407924036499e+000	 3.087891128237413e+000	-8.476193938617010e-001
1	 3.193109752621236e+000	 3.123344972753669e+000	-7.522924804880992e-001
1	 3.158419998366947e+000	 3.158419998366946e+000	-6.600381544788921e-001
1	 3.123344972753669e+000	 3.193109752621236e+000	-5.702210058060807e-001
1	 3.087891128237412e+000	 3.227407924036499e+000	-4.821963974111711e-001
1	 3.052065054294209e+000	 3.261308345935690e+000	-3.953115221111933e-001
1	 3.015873473340295e+000	 3.294805000137951e+000	-3.089064731196821e-001
1	 2.979323236533757e+000	 3.327892020513365e+000	-2.223153259438360e-001
1	 2.801444830037748e+000	 3.129202558978380e+000	-4.748588875227383e-001
1	 2.766740886705849e+000	 3.159928174864604e+000	-2.732920783136512e-001
1	 2.731712838286569e+000	 3.190257906944266e+000	-8.381447335783397e-002
1	 2.696367470949601e+000	 3.220186687548849e+000	 9.436225194393004e-002
1	 2.660711675109584e+000	 3.249709604111268e+000	 2.620666556390837e-001
1	 2.624752440995853e+000	 3.278821901798352e+000	 4.201655448692657e-001
1	 2.588496854144156e+000	 3.307518985991762e+000	 5.695619345612165e-001
1	 2.551952090816394e+000	 3.335796424614757e+000	 7.111929538791241e-001
1	 2.515125413354498e+000	 3.363649950302459e+000	 8.460277052586545e-001
1	 2.478024165474663e+000	 3.391075462413564e+000	 9.750650809310097e-001
1	 2.440655767508217e+000	 3.418069028881693e+000	 1.099331541918434e+000
1	 2.819232670686875e+000	 3.149071505129704e+000	-4.331008427506373e-001
1	 2.784308373840670e+000	 3.179992214045370e+000	-2.453082256687001e-001
1	 2.749057913994120e+000	 3.210514525480813e+000	-6.891761931013250e-002
1	 2.713488120405852e+000	 3.240633339590237e+000	 9.681994581414750e-002
1	 2.677605927241350e+000	 3.270343712614112e+000	 2.526938836649618e-001
1	 2.641418369114568e+000	 3.299640859528343e+000	 3.995321304000306e-001
1	 2.604932576551026e+000	 3.328520156540966e+000	 5.381991641616482e-001
1	 2.568155771378458e+000	 3.356977143433668e+000	 6.695939715222324e-001
1	 2.531095262051196e+000	 3.385007525745849e+000	 7.946479652906220e-001
1	 2.493758438914534e+000	 3.412607176799092e+000	 9.143228584741184e-001
1	 2.456152769415361e+000	 3.439772139560280e+000	 1.029608499268370e+000
1	 2.837020511336150e+000	 3.168940451281644e+000	-3.952558695815247e-001
1	 2.801875860975600e+000	 3.200056253226749e+000	-2.207606549267625e-001
1	 2.766402989701746e+000	 3.230771144017952e+000	-5.689346652092028e-002
1	 2.730608769862155e+000	 3.261079991632188e+000	 9.703612898301872e-002
1	 2.694500179373152e+000	 3.290977821117469e+000	 2.417589041713626e-001
1	 2.658084297233307e+000	 3.320459817258793e+000	 3.780441480661980e-001
1	 2.621368298957908e+000	 3.349521327090561e+000	 5.066977847464065e-001
1	 2.584359451940528e+000	 3.378157862252897e+000	 6.285604377856748e-001
1	 2.547065110747905e+000	 3.406365101189477e+000	 7.445054450106590e-001
1	 2.509492712354418e+000	 3.434138891184774e+000	 8.554368281788001e-001
1	 2.471649771322522e+000	 3.461475250238931e+000	 9.622872222567377e-001
1	 2.854808351985561e+000	 3.188809397434150e+000	-3.612278567702605e-001
1	 2.819443348110627e+000	 3.220120292408698e+000	-1.995457543778220e-001
1	 2.783748065409441e+000	 3.251027762555651e+000	-4.763561763998286e-002
1	 2.747729419318505e+000	 3.281526643674674e+000	 9.511563269601098e-002
1	 2.711394431504983e+000	 3.311611929621332e+000	 2.293609971675350e-001
1	 2.674750225352066e+000	 3.341278774989703e+000	 3.557917112754248e-001
1	 2.637804021364806e+000	 3.370522497640566e+000	 4.751355002909935e-001
1	 2.600563132502615e+000	 3.399338581072477e+000	 5.881547792993502e-001
1	 2.563034959444631e+000	 3.427722676633387e+000	 6.956448027011342e-001
1	 2.525226985794328e+000	 3.455670605570664e+000	 7.984317674950089e-001
1	 2.487146773229715e+000	 3.483178360917711e+000	 8.973708747496101e-001
1	 2.872596192635086e+000	 3.208678343587173e+000	-3.309230736522588e-001
1	 2.837010835245739e+000	 3.240184331591172e+000	-1.815624786715362e-001
1	 2.801093141117197e+000	 3.271284381093875e+000	-4.104031067437861e-002
1	 2.764850068774895e+000	 3.301973295717676e+000	 9.116069163219698e-002
1	 2.728288683636842e+000	 3.332246038125688e+000	 2.155969835949605e-001
1	 2.691416153470845e+000	 3.362097732721078e+000	 3.328627014152527e-001
1	 2.654239743771723e+000	 3.391523668190996e+000	 4.435880901201272e-001
1	 2.616766813064722e+000	 3.420519299892435e+000	 5.484378764471011e-001
1	 2.579004808141385e+000	 3.449080252077623e+000	 6.481095905027425e-001
1	 2.540961259234273e+000	 3.477202319956819e+000	 7.433318401595603e-001
1	 2.502643775136960e+000	 3.504881471596689e+000	 8.348625422469982e-001
1	 2.890384033284712e+000	 3.228547289740663e+000	-3.042500968913449e-001
1	 2.854578322380925e+000	 3.260248370774131e+000	-1.667122698485151e-001
1	 2.818438216825004e+000	 3.291540999632588e+000	-3.700633789653324e-002
1	 2.781970718231322e+000	 3.322419947761167e+000	 8.527102380249821e-002
1	 2.745182935768730e+000	 3.352880146630527e+000	 2.005613009946458e-001
1	 2.708082081589644e+000	 3.382916690452919e+000	 3.093428365339803e-001
1	 2.670675466178660e+000	 3.412524838741869e+000	 4.121294681306705e-001
1	 2.632970493626855e+000	 3.441700018712804e+000	 5.094691109458442e-001
1	 2.594974656838174e+000	 3.470437827522229e+000	 6.019422884513057e-001
1	 2.556695532674268e+000	 3.498734034343295e+000	 6.901606150805368e-001
1	 2.518140777044271e+000	 3.526584582275933e+000	 7.747652342942559e-001
1	 2.908171873934421e+000	 3.248416235894569e+000	-2.811197399157956e-001
1	 2.872145809516170e+000	 3.280312409957526e+000	-1.548989812696038e-001
1	 2.835783292532855e+000	 3.311797618171761e+000	-3.543496772839985e-002
1	 2.799091367687780e+000	 3.342866599805125e+000	 7.754390751574310e-002
1	 2.762077187900638e+000	 3.373514255135836e+000	 1.843460763975558e-001
1	 2.724748009708466e+000	 3.403735648185227e+000	 2.853157375010487e-001
1	 2.687111188585623e+000	 3.433526009293199e+000	 3.808317398411114e-001
1	 2.649174174189020e+000	 3.462880737533612e+000	 4.713064116786023e-001
1	 2.610944505535007e+000	 3.491795402967248e+000	 5.571843372654395e-001
1	 2.572429806114326e+000	 3.520265748730149e+000	 6.389410845286920e-001
1	 2.533637778951669e+000	 3.548287692955509e+000	 7.170818868049697e-001
1	 2.925959714584196e+000	 3.268285182048841e+000	-2.614449849283402e-001
1	 2.889713296651465e+000	 3.300376449141319e+000	-1.460288043199673e-001
1	 2.853128368240741e+000	 3.332054236711353e+000	-3.622986947490669e-002
1	 2.816212017144263e+000	 3.363313251849527e+000	 6.807425553732267e-002
1	 2.778971440032567e+000	 3.394148363641605e+000	 1.670411965562342e-001
1	 2.741413937827308e+000	 3.424554605918009e+000	 2.608629917541509e-001
1	 2.703546910992609e+000	 3.454527179845005e+000	 3.497652573601413e-001
1	 2.665377854751221e+000	 3.484061456354890e+000	 4.340062988557081e-001
1	 2.626914354231892e+000	 3.513152978412723e+000	 5.138761699382971e-001
1	 2.588164079554456e+000	 3.541797463117435e+000	 5.896956816652570e-001
1	 2.549134780859165e+000	 3.569990803635482e+000	 6.618153642991462e-001
1	 2.943747555234023e+000	 3.288154128203432e+000	-2.451409173811138e-001
1	 2.907280783786796e+000	 3.320440488325464e+000	-1.400101977705270e-001
1	 2.870473443948652e+000	 3.352310855251332e+000	-3.929704078627293e-002
1	 2.833332666600767e+000	 3.383759903894349e+000	 5.695468655918280e-002
1	 2.795865692164516e+000	 3.414782472147824e+000	 1.487343756302008e-001
1	 2.758079865946173e+000	 3.445373563651262e+000	 2.360642147351637e-001
1	 2.719982633399626e+000	 3.475528350397300e+000	 3.189986723622890e-001
1	 2.681581535313463e+000	 3.505242175176668e+000	 3.976239265749570e-001
1	 2.642884202928838e+000	 3.534510553858697e+000	 4.720572421839009e-001
1	 2.603898352994673e+000	 3.563329177505211e+000	 5.424462974342914e-001
1	 2.564631782766780e+000	 3.591693914315921e+000	 6.089684620602247e-001
1	 2.961535395883882e+000	 3.308023074358290e+000	-2.321246628120393e-001
1	 2.924848270922151e+000	 3.340504527509917e+000	-1.367538196850597e-001
1	 2.887818519656582e+000	 3.372567473791665e+000	-4.454473773437741e-002
1	 2.850453316057286e+000	 3.404206555939566e+000	 4.427559409418901e-002
1	 2.812759944296481e+000	 3.435416580654481e+000	 1.295112204320752e-001
1	 2.774745794065056e+000	 3.466192521384992e+000	 2.109971091120605e-001
1	 2.736418355806673e+000	 3.496529520950103e+000	 2.885989871544463e-001
1	 2.697785215875753e+000	 3.526422893998977e+000	 3.622131238479496e-001
1	 2.658854051625854e+000	 3.555868129305217e+000	 4.317660617862784e-001
1	 2.619632626434987e+000	 3.584860891893531e+000	 4.972142968462832e-001
1	 2.580128784674530e+000	 3.613397024996892e+000	 5.585439082143874e-001
1	 2.979323236533757e+000	 3.327892020513365e+000	-2.223153259438361e-001
1	 2.942415758057520e+000	 3.360568566694637e+000	-1.361724617665555e-001
1	 2.905163595364522e+000	 3.392824092332316e+000	-5.188340739403034e-002
1	 2.867573965513814e+000	 3.424653207985159e+000	 3.012521290254117e-002
1	 2.829654196428458e+000	 3.456050689161565e+000	 1.094552933364425e-001
1	 2.791411722183963e+000	 3.487011479119200e+000	 1.857375218793439e-001
1	 2.752854078213755e+000	 3.517530691503430e+000	 2.586316039130705e-001
1	 2.713988896438097e+000	 3.547603612821848e+000	 3.278264341567985e-001
1	 2.674823900322948e+000	 3.577225704752323e+000	 3.930402168972236e-001
1	 2.635366899875414e+000	 3.606392606282453e+000	 4.540205346784020e-001
1	 2.595625786582433e+000	 3.635100135678463e+000	 5.105443657353523e-001
1	 2.440655767508217e+000	 3.418069028881693e+000	 1.099331541918434e+000
1	 2.403027710782309e+000	 3.444626886934158e+000	 1.220244431459078e+000
1	 2.365147550385903e+000	 3.470745441682317e+000	 1.337794915617516e+000
1	 2.327022902821665e+000	 3.496421270358104e+000	 1.450902548683947e+000
1	 2.288661441927230e+000	 3.521651124484178e+000	 1.558505554868708e+000
1	 2.250070893948702e+000	 3.546431930914687e+000	 1.659562409246011e+000
1	 2.211259032598793e+000	 3.570760792711000e+000	 1.753053371803867e+000
1	 2.172233674105955e+000	 3.594634989852545e+000	 1.837981971884231e+000
1	 2.133002672260832e+000	 3.618051979783225e+000	 1.913376440448619e+000
1	 2.093573913466255e+000	 3.641009397794124e+000	 1.978291087761545e+000
1	 2.053955311797024e+000	 3.663505057243499e+000	 2.031807624246427e+000
1	 2.456152769415361e+000	 3.439772139560280e+000	 1.029608499268370e+000
1	 2.418285792447178e+000	 3.466498627364912e+000	 1.141794681363932e+000
1	 2.380165111070181e+000	 3.492783022498506e+000	 1.250769230600640e+000
1	 2.341798390148221e+000	 3.518621880460040e+000	 1.355452412647528e+000
1	 2.303193352244160e+000	 3.544011932145869e+000	 1.454783914432698e+000
1	 2.264357772662105e+000	 3.568950084897113e+000	 1.547724441873962e+000
1	 2.225299474474157e+000	 3.593433423380952e+000	 1.633257269012947e+000
1	 2.186026323538119e+000	 3.617459210305963e+000	 1.710389735811920e+000
1	 2.146546223512473e+000	 3.641024886972018e+000	 1.778154692028444e+000
1	 2.106867110874978e+000	 3.664128073655407e+000	 1.835611884744954e+000
1	 2.066996949951050e+000	 3.686766569830242e+000	 1.881849287297531e+000
1	 2.471649771322522e+000	 3.461475250238931e+000	 9.622872222567377e-001
1	 2.433543874112069e+000	 3.488370367795640e+000	 1.066206202971990e+000
1	 2.395182671754490e+000	 3.514820603314579e+000	 1.166989243169966e+000
1	 2.356573877474814e+000	 3.540822490561769e+000	 1.263572292067197e+000
1	 2.317725262561141e+000	 3.566372739807267e+000	 1.354911625221611e+000
1	 2.278644651375573e+000	 3.591468238879172e+000	 1.439985430489738e+000
1	 2.239339916349607e+000	 3.616106054050469e+000	 1.517795343719448e+000
1	 2.199818972970387e+000	 3.640283430758890e+000	 1.587367931472019e+000
1	 2.160089774764248e+000	 3.663997794160270e+000	 1.647756118227206e+000
1	 2.120160308283865e+000	 3.687246749516119e+000	 1.698040555690792e+000
1	 2.080038588105280e+000	 3.710028082416403e+000	 1.737330931994862e+000
1	 2.487146773229715e+000	 3.483178360917711e+000	 8.973708747496101e-001
1	 2.448801955777006e+000	 3.510242108226416e+000	 9.934613471252565e-001
1	 2.410200232438857e+000	 3.536858184130617e+000	 1.086419381034825e+000
1	 2.371349364801481e+000	 3.563023100663378e+000	 1.175211294689839e+000
1	 2.332257172878211e+000	 3.588733547468468e+000	 1.258824790154609e+000
1	 2.292931530089150e+000	 3.613986392860957e+000	 1.336270499266845e+000
1	 2.253380358225186e+000	 3.638778684719643e+000	 1.406583477659651e+000
1	 2.213611622402809e+000	 3.663107651211413e+000	 1.468824644272304e+000
1	 2.173633326016202e+000	 3.686970701348076e+000	 1.522082163900142e+000
1	 2.133453505692958e+000	 3.710365425376351e+000	 1.565472770502601e+000
1	 2.093080226259744e+000	 3.733289595002065e+000	 1.598143029161429e+000
1	 2.502643775136960e+000	 3.504881471596689e+000	 8.348625422469982e-001
1	 2.464060037442010e+000	 3.532113848657317e+000	 9.235429018176850e-001
1	 2.425217793123311e+000	 3.558895764946705e+000	 1.009024952994760e+000
1	 2.386124852128256e+000	 3.585223710764960e+000	 1.090319788812874e+000
1	 2.346789083195411e+000	 3.611094355129560e+000	 1.166461094818139e+000
1	 2.307218408802882e+000	 3.636504546842562e+000	 1.236506626978786e+000
1	 2.267420800100942e+000	 3.661451315388569e+000	 1.299539636095933e+000
1	 2.227404271835432e+000	 3.685931871663630e+000	 1.354670236254065e+000
1	 2.187176877268379e+000	 3.709943608535522e+000	 1.401036715016007e+000
1	 2.146746703102297e+000	 3.733484101236188e+000	 1.437806783237380e+000
1	 2.106121864414475e+000	 3.756551107587308e+000	 1.464178762549925e+000
1	 2.518140777044271e+000	 3.526584582275933e+000	 7.747652342942559e-001
1	 2.479318119107102e+000	 3.553985589088418e+000	 8.564340787437044e-001
1	 2.440235353807877e+000	 3.580933345762920e+000	 9.347721218277854e-001
1	 2.400900339455172e+000	 3.607424320866600e+000	 1.008849364496237e+000
1	 2.361320993512781e+000	 3.633455162790639e+000	 1.077759758766139e+000
1	 2.321505287516809e+000	 3.659022700824079e+000	 1.140622589931703e+000
1	 2.281461241976922e+000	 3.684123946057341e+000	 1.196583803705142e+000
1	 2.241196921268304e+000	 3.708756092115631e+000	 1.244817276038419e+000
1	 2.200720428520828e+000	 3.732916515722704e+000	 1.284526023542221e+000
1	 2.160039900511925e+000	 3.756602777095718e+000	 1.314943352589304e+000
1	 2.119163502569507e+000	 3.779812620172219e+000	 1.335333945363857e+000
1	 2.533637778951669e+000	 3.548287692955509e+000	 7.170818868049697e-001
1	 2.494576200772307e+000	 3.575857329519796e+000	 7.921185003404231e-001
1	 2.455252914492587e+000	 3.602970926579353e+000	 8.636278781735478e-001
1	 2.415675826782263e+000	 3.629624930968387e+000	 9.307527961978057e-001
1	 2.375852903830360e+000	 3.655815970451795e+000	 9.926614886074656e-001
1	 2.335792166230977e+000	 3.681540854805605e+000	 1.048548906991313e+000
1	 2.295501683853174e+000	 3.706796576726056e+000	 1.097637922819863e+000
1	 2.254989570701472e+000	 3.731580312567512e+000	 1.139180471343590e+000
1	 2.214263979773591e+000	 3.755889422909708e+000	 1.172458635086703e+000
1	 2.173333097921881e+000	 3.779721452955029e+000	 1.196785665291602e+000
1	 2.132205140724873e+000	 3.803074132756878e+000	 1.211506939842328e+000
1	 2.549134780859165e+000	 3.569990803635482e+000	 6.618153642991462e-001
1	 2.509834282437646e+000	 3.597729069951527e+000	 7.305801873024550e-001
1	 2.470270475177469e+000	 3.625008507396082e+000	 7.955600153692006e-001
1	 2.430451314109564e+000	 3.651825541070408e+000	 8.559840067717832e-001
1	 2.390384814148186e+000	 3.678176778113120e+000	 9.111084328045024e-001
1	 2.350079044945431e+000	 3.704059008787232e+000	 9.602177866150297e-001
1	 2.309542125729742e+000	 3.729469207394803e+000	 1.002625833922350e+000
1	 2.268782220134983e+000	 3.754404533019364e+000	 1.037676603963629e+000
1	 2.227807531026718e+000	 3.778862330096631e+000	 1.064745319178996e+000
1	 2.186626295332208e+000	 3.802840128814207e+000	 1.083239262312445e+000
1	 2.145246778880603e+000	 3.826335645341369e+000	 1.092598579778021e+000
1	 2.564631782766780e+000	 3.591693914315921e+000	 6.089684620602247e-001
1	 2.525092364103141e+000	 3.619600810383686e+000	 6.718035465494352e-001
1	 2.485288035862548e+000	 3.647046088213191e+000	 7.305371051975929e-001
1	 2.445226801437110e+000	 3.674026151172752e+000	 7.844980327722749e-001
1	 2.404916724466301e+000	 3.700537585774706e+000	 8.330441381105713e-001
1	 2.364365923660214e+000	 3.726577162769055e+000	 8.755630758045010e-001
1	 2.323582567606674e+000	 3.752141838063679e+000	 9.114732182958768e-001
1	 2.282574869568885e+000	 3.777228753471282e+000	 9.402244671045209e-001
1	 2.241351082280251e+000	 3.801835237283559e+000	 9.612990020790850e-001
1	 2.199919492742944e+000	 3.825958804673341e+000	 9.742119677266005e-001
1	 2.158288417036733e+000	 3.849597157925777e+000	 9.785120958443070e-001
1	 2.580128784674530e+000	 3.613397024996892e+000	 5.585439082143874e-001
1	 2.540350445768814e+000	 3.641472550816348e+000	 6.157733596271273e-001
1	 2.500305596547855e+000	 3.669083669030762e+000	 6.685284745094056e-001
1	 2.460002288764932e+000	 3.696226761275509e+000	 7.162509910073082e-001
1	 2.419448634784743e+000	 3.722898393436643e+000	 7.584135075772439e-001
1	 2.378652802375369e+000	 3.749095316751165e+000	 7.945202108977468e-001
1	 2.337623009484017e+000	 3.774814468732779e+000	 8.241075427428373e-001
1	 2.296367519003227e+000	 3.800052973923358e+000	 8.467448049785806e-001
1	 2.254894633534237e+000	 3.824808144470584e+000	 8.620347020076740e-001
1	 2.213212690154133e+000	 3.849077480532520e+000	 8.696138201504341e-001
1	 2.171330055193294e+000	 3.872858670510183e+000	 8.691530436134289e-001
1	 2.595625786582433e+000	 3.635100135678463e+000	 5.105443657353523e-001
1	 2.555608527434690e+000	 3.663344291249593e+000	 5.624747715240528e-001
1	 2.515323157233419e+000	 3.691121249848880e+000	 6.095041826827953e-001
1	 2.474777776093069e+000	 3.718427371378763e+000	 6.512000462909255e-001
1	 2.433980545103553e+000	 3.745259201099026e+000	 6.871627600659233e-001
1	 2.392939681090943e+000	 3.771613470733660e+000	 7.170261701240459e-001
1	 2.351663451361818e+000	 3.797487099402197e+000	 7.404580062831402e-001
1	 2.310160168438054e+000	 3.822877194375687e+000	 7.571602545627046e-001
1	 2.268438184788723e+000	 3.847781051657798e+000	 7.668694666966202e-001
1	 2.226505887565815e+000	 3.872196156391829e+000	 7.693570066330554e-001
1	 2.184371693350319e+000	 3.896120183094671e+000	 7.644292341532525e-001
1	 2.053955311797024e+000	 3.663505057243499e+000	 2.031807624246427e+000
1	 2.014160787468252e+000	 3.685533680363033e+000	 2.074396256335725e+000
1	 1.974192364944430e+000	 3.707096848820648e+000	 2.105894770585118e+000
1	 1.934058010402449e+000	 3.728192913598081e+000	 2.124492897703005e+000
1	 1.893765698057606e+000	 3.748820402933820e+000	 2.128457650345605e+000
1	 1.853323405364218e+000	 3.768978021749815e+000	 2.116135261397574e+000
1	 1.812739108261148e+000	 3.788664650926862e+000	 2.085952961900591e+000
1	 1.772020776467593e+000	 3.807879346431334e+000	 2.036420597327325e+000
1	 1.731176368834391e+000	 3.826621338296152e+000	 1.966132081314488e+000
1	 1.690213828755852e+000	 3.844890029459100e+000	 1.873766686380495e+000
1	 1.649141079647045e+000	 3.862684994461763e+000	 1.758090171558491e+000
1	 2.066996949951050e+000	 3.686766569830242e+000	 1.881849287297531e+000
1	 2.026949749342556e+000	 3.708935064216883e+000	 1.917629464908955e+000
1	 1.986727546368358e+000	 3.730635148526094e+000	 1.943150772006635e+000
1	 1.946338357786760e+000	 3.751865163269136e+000	 1.956716589509900e+000
1	 1.905790208445515e+000	 3.772623627339524e+000	 1.956709052899172e+000
1	 1.865091126451960e+000	 3.792909237436087e+000	 1.941590804188692e+000
1	 1.824249138388354e+000	 3.812720867333757e+000	 1.909906583104324e+000
1	 1.783272264577802e+000	 3.832057567004748e+000	 1.860284656547074e+000
1	 1.742168514406036e+000	 3.850918561593067e+000	 1.791438085833855e+000
1	 1.700945881704125e+000	 3.869303250245444e+000	 1.702165831612436e+000
1	 1.659612340197034e+000	 3.887211204802014e+000	 1.591353696745080e+000
1	 2.080038588105280e+000	 3.710028082416403e+000	 1.737330931994862e+000
1	 2.039738711217104e+000	 3.732336448070155e+000	 1.766700983546083e+000
1	 1.999262727792577e+000	 3.754173448230980e+000	 1.786718823748210e+000
1	 1.958618705171412e+000	 3.775537412939670e+000	 1.795801198493386e+000
1	 1.917814718833813e+000	 3.796426851744760e+000	 1.792443607902041e+000
1	 1.876858847540136e+000	 3.816840453121951e+000	 1.775221889975604e+000
1	 1.835759168516035e+000	 3.836777083740311e+000	 1.742793645351010e+000
1	 1.794523752688518e+000	 3.856235787577900e+000	 1.693899502546108e+000
1	 1.753160659978216e+000	 3.875215784889800e+000	 1.627364223486175e+000
1	 1.711677934652947e+000	 3.893716471031692e+000	 1.542097649496159e+000
1	 1.670083600747572e+000	 3.911737415142255e+000	 1.437095488330028e+000
1	 2.093080226259744e+000	 3.733289595002065e+000	 1.598143029161429e+000
1	 2.052527673091920e+000	 3.755737831922926e+000	 1.621486370718911e+000
1	 2.011797909217094e+000	 3.777711747935385e+000	 1.636439764877636e+000
1	 1.970899052556393e+000	 3.799209662609751e+000	 1.641533057096765e+000
1	 1.929839229222469e+000	 3.820230076149579e+000	 1.635373391983098e+000
1	 1.888626568628697e+000	 3.840771668807451e+000	 1.616646646400814e+000
1	 1.847269198644123e+000	 3.860833300146565e+000	 1.584118707898133e+000
1	 1.805775240799660e+000	 3.880414008150812e+000	 1.536636598073960e+000
1	 1.764152805550830e+000	 3.899513008186364e+000	 1.473129440894849e+000
1	 1.722409987602206e+000	 3.918129691817841e+000	 1.392609276352234e+000
1	 1.680554861298542e+000	 3.936263625482468e+000	 1.294171720221566e+000
1	 2.106121864414475e+000	 3.756551107587308e+000	 1.464178762549925e+000
1	 2.065316634967021e+000	 3.779139215775277e+000	 1.481864267193192e+000
1	 2.024333090641914e+000	 3.801250047639374e+000	 1.492158376721996e+000
1	 1.983179399941691e+000	 3.822881912279439e+000	 1.493703790097833e+000
1	 1.941863739611455e+000	 3.844033300554042e+000	 1.485217613348730e+000
1	 1.900394289717594e+000	 3.864702884492636e+000	 1.465492659707733e+000
1	 1.858779228772551e+000	 3.884889516552547e+000	 1.433398601580565e+000
1	 1.817026728911142e+000	 3.904592228723509e+000	 1.387882974126193e+000
1	 1.775144951123781e+000	 3.923810231482768e+000	 1.327972030602675e+000
1	 1.733142040551793e+000	 3.942542912603885e+000	 1.252771449991703e+000
1	 1.691026121849827e+000	 3.960789835822633e+000	 1.161466897768147e+000
1	 2.119163502569507e+000	 3.779812620172219e+000	 1.335333945363857e+000
1	 2.078105596842430e+000	 3.802540599627279e+000	 1.347716301184213e+000
1	 2.036868272067042e+000	 3.824788347343020e+000	 1.353723261561481e+000
1	 1.995459747327293e+000	 3.846554161948798e+000	 1.352110151759901e+000
1	 1.953888250000736e+000	 3.867836524958197e+000	 1.341702392339073e+000
1	 1.912162010806777e+000	 3.888634100177547e+000	 1.321396683692695e+000
1	 1.870289258901252e+000	 3.908945732958296e+000	 1.290162051205182e+000
1	 1.828278217022880e+000	 3.928770449296013e+000	 1.247040750898194e+000
1	 1.786137096696969e+000	 3.948107454779024e+000	 1.191149035783922e+000
1	 1.743874093501599e+000	 3.966956133389826e+000	 1.121677783481040e+000
1	 1.701497382401312e+000	 3.985316046162736e+000	 1.037892985979510e+000
1	 2.132205140724873e+000	 3.803074132756878e+000	 1.211506939842328e+000
1	 2.090894558718166e+000	 3.825941983479015e+000	 1.218926996993005e+000
1	 2.049403453492485e+000	 3.848326647046395e+000	 1.220986725775015e+000
1	 2.007740094713190e+000	 3.870226411617892e+000	 1.216553868959146e+000
1	 1.965912760390286e+000	 3.891639749362105e+000	 1.204560550037475e+000
1	 1.923929731896198e+000	 3.912565315862232e+000	 1.184004359338033e+000
1	 1.881799289030159e+000	 3.933001949363844e+000	 1.153949311803276e+000
1	 1.839529705134790e+000	 3.952948669868349e+000	 1.113526676319508e+000
1	 1.797129242270298e+000	 3.972404678075140e+000	 1.061935676802868e+000
1	 1.754606146451515e+000	 3.991369354175658e+000	 9.984440655593883e-001
1	 1.711968642952877e+000	 4.009842256502755e+000	 9.223885697411948e-001
1	 2.145246778880603e+000	 3.826335645341369e+000	 1.092598579778021e+000
1	 2.103683520594251e+000	 3.849343367330560e+000	 1.095383686975201e+000
1	 2.061938634918248e+000	 3.871864946749569e+000	 1.093804667248190e+000
1	 2.020020442099368e+000	 3.893898661286785e+000	 1.086841490034139e+000
1	 1.977937270780072e+000	 3.915442973765817e+000	 1.073531404590697e+000
1	 1.935697452985807e+000	 3.936496531546734e+000	 1.052969944671928e+000
1	 1.893309319159202e+000	 3.957058165769227e+000	 1.024311818150963e+000
1	 1.850781193246788e+000	 3.977126890440536e+000	 9.867716814204450e-001
1	 1.808121387843667e+000	 3.996701901371128e+000	 9.396247986890618e-001
1	 1.765338199401428e+000	 4.015782574961377e+000	 8.822075865736032e-001
1	 1.722439903504408e+000	 4.034368466842676e+000	 8.139180446610219e-001
1	 2.158288417036733e+000	 3.849597157925777e+000	 9.785120958443070e-001
1	 2.116472482470704e+000	 3.872744751181992e+000	 9.769764267014447e-001
1	 2.074473816344336e+000	 3.895403246452611e+000	 9.720364668633739e-001
1	 2.032300789485816e+000	 3.917570910955538e+000	 9.627842391152922e-001
1	 1.989961781170066e+000	 3.939246198169390e+000	 9.483605749136188e-001
1	 1.947465174075554e+000	 3.960427747231099e+000	 9.279560544222019e-001
1	 1.904819349288316e+000	 3.981114382174480e+000	 9.008118469964155e-001
1	 1.862032681358789e+000	 4.001305111012600e+000	 8.662204518192165e-001
1	 1.819113533416977e+000	 4.020999124666999e+000	 8.235263386447621e-001
1	 1.776070252351231e+000	 4.040195795746982e+000	 7.721264888518917e-001
1	 1.732911164055787e+000	 4.058894677182480e+000	 7.114708372517855e-001
1	 2.171330055193294e+000	 3.872858670510183e+000	 8.691530436134289e-001
1	 2.129261444347548e+000	 3.896146135033388e+000	 8.635979131753118e-001
1	 2.087008997770753e+000	 3.918941546155594e+000	 8.555448839001923e-001
1	 2.044581136872522e+000	 3.941243160624216e+000	 8.441978757040395e-001
1	 2.001986291560236e+000	 3.963049422572876e+000	 8.287997914680194e-001
1	 1.959232895165393e+000	 3.984358962915372e+000	 8.086334090524870e-001
1	 1.916329379417432e+000	 4.005170598579635e+000	 7.830221914596647e-001
1	 1.873284169470709e+000	 4.025483331584564e+000	 7.513310146516529e-001
1	 1.830105678990131e+000	 4.045296347962762e+000	 7.129668127421237e-001
1	 1.786802305300814e+000	 4.064609016532470e+000	 6.673791404885406e-001
1	 1.743382424606897e+000	 4.083420887522147e+000	 6.140606532168541e-001
1	 2.184371693350319e+000	 3.896120183094671e+000	 7.644292341532523e-001
1	 2.142050406224803e+000	 3.919547518884829e+000	 7.551434059807728e-001
1	 2.099544179197507e+000	 3.942479845858591e+000	 7.441959551830892e-001
1	 2.056861484259474e+000	 3.964915410292883e+000	 7.309025592821993e-001
1	 2.014010801950552e+000	 3.986852646976335e+000	 7.146067138196545e-001
1	 1.971000616255271e+000	 4.008290178599602e+000	 6.946805927885120e-001
1	 1.927839409546484e+000	 4.029226814984732e+000	 6.705258470962480e-001
1	 1.884535657582464e+000	 4.049661552156452e+000	 6.415743402981552e-001
1	 1.841097824563030e+000	 4.069593571258429e+000	 6.072888210082438e-001
1	 1.797534358250065e+000	 4.089022237317836e+000	 5.671635315612601e-001
1	 1.753853685157622e+000	 4.107947097861665e+000	 5.207247526640646e-001
1	 1.649141079647045e+000	 3.862684994461763e+000	 1.758090171558491e+000
1	 1.607959836669317e+000	 3.880008541358522e+000	 1.622424081212143e+000
1	 1.566684128643885e+000	 3.896857880884244e+000	 1.472212600780567e+000
1	 1.525321798057408e+000	 3.913233096336334e+000	 1.309429446547099e+000
1	 1.483880649957763e+000	 3.929134436186638e+000	 1.136067153597534e+000
1	 1.442368447821710e+000	 3.944562312133359e+000	 9.541339235598848e-001
1	 1.400792909513493e+000	 3.959517297036671e+000	 7.656504985385467e-001
1	 1.359161703337863e+000	 3.974000122742366e+000	 5.726470668304469e-001
1	 1.317482444190801e+000	 3.988011677797904e+000	 3.771602058184131e-001
1	 1.275762689811018e+000	 4.001553005065471e+000	 1.812298672342466e-001
1	 1.234009937135045e+000	 4.014625299236578e+000	-1.310359022943698e-002
1	 1.659612340197034e+000	 3.887211204802014e+000	 1.591353696745080e+000
1	 1.618169615936555e+000	 3.904644747972214e+000	 1.462123705608471e+000
1	 1.576631826820247e+000	 3.921601072780403e+000	 1.319665906397746e+000
1	 1.535006865130829e+000	 3.938080263052890e+000	 1.165982662096795e+000
1	 1.493302585474527e+000	 3.954082568839195e+000	 1.003079003344281e+000
1	 1.451526800622489e+000	 3.969608404451610e+000	 8.329596968994852e-001
1	 1.409687277443730e+000	 3.984658346387703e+000	 6.576263638423722e-001
1	 1.367791732933090e+000	 3.999233131140132e+000	 4.790746521564439e-001
1	 1.325847830337527e+000	 4.013333652898218e+000	 2.992914681163687e-001
1	 1.283863175383798e+000	 4.026960961145822e+000	 1.202522706683691e-001
1	 1.241845312610418e+000	 4.040116258160178e+000	-5.608156724889615e-002
1	 1.670083600747572e+000	 3.911737415142255e+000	 1.437095488330028e+000
1	 1.628379395204329e+000	 3.929280954585979e+000	 1.315162292005706e+000
1	 1.586579524997117e+000	 3.946344264676716e+000	 1.181108603650431e+000
1	 1.544691932204722e+000	 3.962927429769678e+000	 1.036945626317746e+000
1	 1.502724520991713e+000	 3.979030701492055e+000	 8.846737423173054e-001
1	 1.460685153423631e+000	 3.994654496770230e+000	 7.262797864802657e-001
1	 1.418581645374264e+000	 4.009799395739160e+000	 5.637343884890039e-001
1	 1.376421762528546e+000	 4.024466139538372e+000	 3.989893881025983e-001
1	 1.334213216484404e+000	 4.038655627999038e+000	 2.339753268558323e-001
1	 1.291963660956650e+000	 4.052368917226700e+000	 7.059901955123826e-002
1	 1.249680688085785e+000	 4.065607217084311e+000	-8.925879139747468e-002
1	 1.680554861298542e+000	 3.936263625482468e+000	 1.294171720221566e+000
1	 1.638589174472520e+000	 3.953917161199783e+000	 1.180213149595322e+000
1	 1.596527223174380e+000	 3.971087456573137e+000	 1.055066612845171e+000
1	 1.554376999278973e+000	 3.987774596486632e+000	 9.207325774863039e-001
1	 1.512146456509218e+000	 4.003978834145139e+000	 7.791898306902838e-001
1	 1.469843506225049e+000	 4.019700589089125e+000	 6.323929416651344e-001
1	 1.427476013305023e+000	 4.034940445090934e+000	 4.822698082600355e-001
1	 1.385051792124171e+000	 4.049699147936963e+000	 3.307192909299738e-001
1	 1.342578602631395e+000	 4.063977603100238e+000	 1.796089369218940e-001
1	 1.300064146529557e+000	 4.077776873307971e+000	 3.077279726773442e-002
1	 1.257516063561146e+000	 4.091098176008841e+000	-1.139906611061742e-001
1	 1.691026121849827e+000	 3.960789835822633e+000	 1.161466897768148e+000
1	 1.648798953741009e+000	 3.978553367813596e+000	 1.055982448386819e+000
1	 1.606474921351918e+000	 3.995830648469615e+000	 9.401023657832236e-001
1	 1.564062066353473e+000	 4.012621763203689e+000	 8.157970316267228e-001
1	 1.521568392026944e+000	 4.028926966798368e+000	 6.850068833332975e-001
1	 1.479001859026653e+000	 4.044746681408201e+000	 5.496400501108019e-001
1	 1.436370381235935e+000	 4.060081494442918e+000	 4.115700842586332e-001
1	 1.393681821719912e+000	 4.074932156335789e+000	 2.726337902810653e-001
1	 1.350943988778462e+000	 4.089299578201687e+000	 1.346291540856725e-001
1	 1.308164632102501e+000	 4.103184829389508e+000	-6.866257478812905e-004
1	 1.265351439036504e+000	 4.116589134933640e+000	-1.315990029297049e-001
1	 1.701497382401312e+000	 3.985316046162736e+000	 1.037892985979510e+000
1	 1.659008733009677e+000	 4.003189574427382e+000	 9.412082080566555e-001
1	 1.616422619529614e+000	 4.020573840366099e+000	 8.348136822754988e-001
1	 1.573747133428113e+000	 4.037468929920784e+000	 7.206305739065290e-001
1	 1.530990327544788e+000	 4.053875099451660e+000	 6.005444034531335e-001
1	 1.488160211828356e+000	 4.069792773727361e+000	 4.764028411420028e-001
1	 1.445264749166924e+000	 4.085222543795005e+000	 3.500136036059536e-001
1	 1.402311851315711e+000	 4.100165164734731e+000	 2.231424548601660e-001
1	 1.359309374925568e+000	 4.114621553303265e+000	 9.751131337944652e-002
1	 1.316265117675463e+000	 4.128592785471173e+000	-2.520353320719750e-002
1	 1.273186814511861e+000	 4.142080093858573e+000	-1.433731045772833e-001
1	 1.711968642952877e+000	 4.009842256502755e+000	 9.223885697411948e-001
1	 1.669218512278404e+000	 4.027825781041109e+000	 8.346593239053408e-001
1	 1.626370317707353e+000	 4.045317032262544e+000	 7.378326878882552e-001
1	 1.583432200502779e+000	 4.062316096637850e+000	 6.337616943864367e-001
1	 1.540412263062650e+000	 4.078823232104933e+000	 5.242605627076686e-001
1	 1.497318564630068e+000	 4.094838866046509e+000	 4.111026367107228e-001
1	 1.454159117097919e+000	 4.110363593147087e+000	 2.960184278206683e-001
1	 1.410941880911512e+000	 4.125398173133672e+000	 1.806937648800870e-001
1	 1.367674761072674e+000	 4.139943528404842e+000	 6.676805230417629e-002
1	 1.324365603248425e+000	 4.154000741552840e+000	-4.416736228207780e-002
1	 1.281022189987216e+000	 4.167571052783504e+000	-1.505707100322003e-001
1	 1.722439903504408e+000	 4.034368466842676e+000	 8.139180446610221e-001
1	 1.679428291547071e+000	 4.052461987654741e+000	 7.351346283436977e-001
1	 1.636318015885016e+000	 4.070060224158895e+000	 6.478247711650516e-001
1	 1.593117267577364e+000	 4.087163263354825e+000	 5.537546662373378e-001
1	 1.549834198580428e+000	 4.103771364758110e+000	 4.546510258167583e-001
1	 1.506476917431703e+000	 4.119884958365555e+000	 3.521991479152130e-001
1	 1.463053485028845e+000	 4.135504642499055e+000	 2.480410868524922e-001
1	 1.419571910507259e+000	 4.150631181532491e+000	 1.437739292848742e-001
1	 1.376040147219742e+000	 4.165265503506291e+000	 4.094817696162127e-002
1	 1.332466088821368e+000	 4.179408697634375e+000	-5.893376282071706e-002
1	 1.288857565462575e+000	 4.193062011708301e+000	-1.544189783734990e-001
1	 1.732911164055787e+000	 4.058894677182480e+000	 7.114708372517853e-001
1	 1.689638070815559e+000	 4.077098194268250e+000	 6.414619864053206e-001
1	 1.646265714062487e+000	 4.094803416055106e+000	 5.634875786550961e-001
1	 1.602802334651755e+000	 4.112010430071640e+000	 4.792084646281045e-001
1	 1.559256134098022e+000	 4.128719497411107e+000	 3.902478177873875e-001
1	 1.515635270233171e+000	 4.144931050684400e+000	 2.981893151518741e-001
1	 1.471947852959630e+000	 4.160645691850804e+000	 2.045754168386541e-001
1	 1.428201940102896e+000	 4.175864189931072e+000	 1.109057458547573e-001
1	 1.384405533366737e+000	 4.190587478607486e+000	 1.863556929540613e-002
1	 1.340566574394276e+000	 4.204816653715645e+000	-7.082561816118836e-002
1	 1.296692940937935e+000	 4.218552970632833e+000	-1.561154078351395e-001
1	 1.743382424606897e+000	 4.083420887522147e+000	 6.140606532168541e-001
1	 1.699847850083750e+000	 4.101734400881598e+000	 5.524974238547791e-001
1	 1.656213412239648e+000	 4.119546607951128e+000	 4.835500461584981e-001
1	 1.612487401725841e+000	 4.136857596788231e+000	 4.087557245742129e-001
1	 1.568678069615330e+000	 4.153667630063846e+000	 3.296182319614936e-001
1	 1.524793623034385e+000	 4.169977143002951e+000	 2.476061900653794e-001
1	 1.480842220890201e+000	 4.185786741202223e+000	 1.641514397449065e-001
1	 1.436831969698366e+000	 4.201097198329295e+000	 8.064750239033300e-002
1	 1.392770919513618e+000	 4.215909453708301e+000	-1.551866287403766e-003
1	 1.348667059967129e+000	 4.230224609796522e+000	-8.113402915730350e-002
1	 1.304528316413302e+000	 4.244043929556965e+000	-1.568287265641346e-001
1	 1.753853685157622e+000	 4.107947097861665e+000	 5.207247526640646e-001
1	 1.710057629351524e+000	 4.126370607494756e+000	 4.671242865292103e-001
1	 1.666161110416385e+000	 4.144289799846914e+000	 4.067714646748321e-001
1	 1.622172468799514e+000	 4.161704763504537e+000	 3.410617361189193e-001
1	 1.578100005132252e+000	 4.178615762716244e+000	 2.713637771802787e-001
1	 1.533951975835255e+000	 4.195023235321111e+000	 1.990178575502574e-001
1	 1.489736588820484e+000	 4.210927790553209e+000	 1.253342831407610e-001
1	 1.445461999293614e+000	 4.226330206727043e+000	 5.159191725911570e-002
1	 1.401136305660350e+000	 4.241231428808610e+000	-2.096321855997331e-002
1	 1.356767545539909e+000	 4.255632565876874e+000	-9.111926295403705e-002
1	 1.312363691888676e+000	 4.269534888480566e+000	-1.576997514694641e-001
1	 1.234009937135045e+000	 4.014625299236578e+000	-1.310359022943698e-002
1	 1.192231618162235e+000	 4.027229903250403e+000	-2.067180900470038e-001
1	 1.150435094796215e+000	 4.039368302625527e+000	-4.005940733005894e-001
1	 1.108627657420195e+000	 4.051042125731239e+000	-5.928571203976519e-001
1	 1.066816522301443e+000	 4.062253141966685e+000	-7.816488777139833e-001
1	 1.025008828498531e+000	 4.073003258861230e+000	-9.651292277408542e-001
1	 9.832116348843374e-001	 4.083294519104892e+000	-1.141478388716464e+000
1	 9.414319172861082e-001	 4.093129097513706e+000	-1.308898941436135e+000
1	 8.996765657436613e-001	 4.102509297934844e+000	-1.465617781159862e+000
1	 8.579523818866406e-001	 4.111437550096344e+000	-1.609887992758576e+000
1	 8.162660764314832e-001	 4.119916406406245e+000	-1.739990647462264e+000
1	 1.241845312610418e+000	 4.040116258160178e+000	-5.608156724889615e-002
1	 1.199801721206407e+000	 4.052800895407485e+000	-2.306948594555985e-001
1	 1.157739809819977e+000	 4.065016367838656e+000	-4.046557950216939e-001
1	 1.115666915124803e+000	 4.076764314162330e+000	-5.761504021695997e-001
1	 1.073590299208018e+000	 4.088046515012492e+000	-7.433801024546931e-001
1	 1.031517146457816e+000	 4.098864890030392e+000	-9.045638538608196e-001
1	 9.894545605675654e-001	 4.109221494876151e+000	-1.057940224756381e+000
1	 9.474095616576930e-001	 4.119118518174838e+000	-1.201769396405381e+000
1	 9.053890835164922e-001	 4.128558278401947e+000	-1.334335091949102e+000
1	 8.633999709607189e-001	 4.137543220713116e+000	-1.453946429994381e+000
1	 8.214489773166679e-001	 4.146075913722957e+000	-1.558939701163953e+000
1	 1.249680688085785e+000	 4.065607217084311e+000	-8.925879139747468e-002
1	 1.207371824250493e+000	 4.078371887565093e+000	-2.465903185121673e-001
1	 1.165044524843574e+000	 4.090664433052284e+000	-4.024482166677090e-001
1	 1.122706172829171e+000	 4.102486502593892e+000	-5.550732743632010e-001
1	 1.080364076114282e+000	 4.113839888058725e+000	-7.027212808558915e-001
1	 1.038025464416730e+000	 4.124726521199935e+000	-8.436651414935946e-001
1	 9.956974862503660e-001	 4.135148470647740e+000	-9.761969248500489e-001
1	 9.533872060288052e-001	 4.145107938836248e+000	-1.098629839371569e+000
1	 9.111016012888167e-001	 4.154607258869276e+000	-1.209300137461847e+000
1	 8.688475600342709e-001	 4.163648891330075e+000	-1.306568945150870e+000
1	 8.266318782013200e-001	 4.172235421039815e+000	-1.388824015710858e+000
1	 1.257516063561146e+000	 4.091098176008841e+000	-1.139906611061742e-001
1	 1.214941927294513e+000	 4.103942879723094e+000	-2.556013374330529e-001
1	 1.172349239867047e+000	 4.116312498266290e+000	-3.950128526233142e-001
1	 1.129745430533360e+000	 4.128208691025804e+000	-5.305150933555424e-001
1	 1.087137853020315e+000	 4.139633261105280e+000	-6.604128311666783e-001
1	 1.044533782375364e+000	 4.150588152369766e+000	-7.830278093420597e-001
1	 1.001940411932846e+000	 4.161075446419583e+000	-8.967007621208071e-001
1	 9.593648503995628e-001	 4.171097359497876e+000	-9.997933639519351e-001
1	 9.168141190607614e-001	 4.180656239336790e+000	-1.090690106754330e+000
1	 8.742951491074273e-001	 4.189754561947185e+000	-1.167800103350714e+000
1	 8.318147790855720e-001	 4.198394928356807e+000	-1.229558815461787e+000
1	 1.265351439036504e+000	 4.116589134933640e+000	-1.315990029297049e-001
1	 1.222512030338491e+000	 4.129513871881357e+000	-2.588951411454246e-001
1	 1.179653954890438e+000	 4.141960563480546e+000	-3.833654199943261e-001
1	 1.136784688237429e+000	 4.153930879457952e+000	-5.033431870481696e-001
1	 1.093911629926192e+000	 4.165426634152051e+000	-6.171768322106039e-001
1	 1.051042100333811e+000	 4.176449783539791e+000	-7.232318455171229e-001
1	 1.008183337615112e+000	 4.187002422191599e+000	-8.198928073359454e-001
1	 9.653424947700844e-001	 4.197086780159657e+000	-9.055653087461829e-001
1	 9.225266368324533e-001	 4.206705219804441e+000	-9.786778000865228e-001
1	 8.797427381803207e-001	 4.215860232564423e+000	-1.037683365883713e+000
1	 8.369976799695581e-001	 4.224554435673913e+000	-1.081061424585157e+000
1	 1.273186814511861e+000	 4.142080093858573e+000	-1.433731045772833e-001
1	 1.230082133382446e+000	 4.155084864039749e+000	-2.576102214941329e-001
1	 1.186958669913788e+000	 4.167608628694931e+000	-3.684966324084169e-001
1	 1.143823945941437e+000	 4.179653067890219e+000	-4.744035326989864e-001
1	 1.100685406831993e+000	 4.191220007198934e+000	-5.737175877029317e-001
1	 1.057550418292166e+000	 4.202311414709921e+000	-6.648429608084903e-001
1	 1.014426263297271e+000	 4.212929397963709e+000	-7.462032736111492e-001
1	 9.713201391404875e-001	 4.223076200821530e+000	-8.162434959638066e-001
1	 9.282391546040187e-001	 4.232754200272183e+000	-8.734317639684763e-001
1	 8.851903272530822e-001	 4.241965903181751e+000	-9.162611241724155e-001
1	 8.421805808534109e-001	 4.250713942991122e+000	-9.432512024462351e-001
1	 1.281022189987216e+000	 4.167571052783504e+000	-1.505707100322003e-001
1	 1.237652236426401e+000	 4.180655856198142e+000	-2.528572159714302e-001
1	 1.194263384937138e+000	 4.193256693909315e+000	-3.513729646842574e-001
1	 1.150863203645446e+000	 4.205375256322486e+000	-4.445214098785059e-001
1	 1.107459183737793e+000	 4.217013380245822e+000	-5.307221698579393e-001
1	 1.064058736250520e+000	 4.228173045880061e+000	-6.084130253208806e-001
1	 1.020669188979431e+000	 4.238856373735842e+000	-6.760518484645913e-001
1	 9.772977835108908e-001	 4.249065621483434e+000	-7.321184612940355e-001
1	 9.339516723755841e-001	 4.258803180739971e+000	-7.751164212504789e-001
1	 8.906379163258440e-001	 4.268071573799145e+000	-8.035747324911804e-001
1	 8.473634817372634e-001	 4.276873450308417e+000	-8.160494813655317e-001
1	 1.288857565462575e+000	 4.193062011708301e+000	-1.544189783734990e-001
1	 1.245222339470378e+000	 4.206226848356404e+000	-2.457197543942965e-001
1	 1.201568099960529e+000	 4.218904759123572e+000	-3.329373896085074e-001
1	 1.157902461349515e+000	 4.231097444754642e+000	-4.145020296088334e-001
1	 1.114232960643671e+000	 4.242806753292610e+000	-4.888609431676703e-001
1	 1.070567054208968e+000	 4.254034677050119e+000	-5.544804891834944e-001
1	 1.026912114661696e+000	 4.264783349507912e+000	-6.098480137590805e-001
1	 9.832754278814122e-001	 4.275055042145304e+000	-6.534736753910422e-001
1	 9.396641901472760e-001	 4.284852161207754e+000	-6.838921964681272e-001
1	 8.960855053987374e-001	 4.294177244416569e+000	-6.996645394918131e-001
1	 8.525463826212494e-001	 4.303032957625782e+000	-6.993795066475830e-001
1	 1.296692940937935e+000	 4.218552970632833e+000	-1.561154078351395e-001
1	 1.252792442514398e+000	 4.231797840514404e+000	-2.372552748850236e-001
1	 1.208872814984002e+000	 4.244552824337582e+000	-3.141100880007198e-001
1	 1.164941719053704e+000	 4.256819633186568e+000	-3.851311406929793e-001
1	 1.121006737549704e+000	 4.268600126339194e+000	-4.487880691908460e-001
1	 1.077075372167601e+000	 4.279896308220005e+000	-5.035707880065118e-001
1	 1.033155040344177e+000	 4.290710325279848e+000	-5.479913540445067e-001
1	 9.892530722521703e-001	 4.301044462807081e+000	-5.805857573291376e-001
1	 9.453767079192210e-001	 4.310901141675489e+000	-5.999156366429082e-001
1	 9.015330944718941e-001	 4.320282915033996e+000	-6.045699185862027e-001
1	 8.577292835055019e-001	 4.329192464943204e+000	-5.931663787839603e-001
1	 1.304528316413302e+000	 4.244043929556965e+000	-1.568287265641346e-001
1	 1.260362545558484e+000	 4.257368832672012e+000	-2.284958104457069e-001
1	 1.216177530007600e+000	 4.270200889551218e+000	-2.957891331890708e-001
1	 1.171980976758072e+000	 4.282541821618144e+000	-3.571756141933640e-001
1	 1.127780514455968e+000	 4.294393499385465e+000	-4.111419931503141e-001
1	 1.083583690126515e+000	 4.305757939389624e+000	-4.561967337258055e-001
1	 1.039397966026977e+000	 4.316637301051570e+000	-4.908718537883706e-001
1	 9.952307166232824e-001	 4.327033883468700e+000	-5.137246803654718e-001
1	 9.510892256915459e-001	 4.336950122143130e+000	-5.233395277294426e-001
1	 9.069806835454459e-001	 4.346388585651395e+000	-5.183292972340506e-001
1	 8.629121843901538e-001	 4.355351972260665e+000	-4.973369977391956e-001
1	 1.312363691888676e+000	 4.269534888480566e+000	-1.576997514694641e-001
1	 1.267932648602657e+000	 4.282939824829096e+000	-2.204487473556359e-001
1	 1.223482245031363e+000	 4.295848954764352e+000	-2.788511509663739e-001
1	 1.179020234462681e+000	 4.308264010049258e+000	-3.313840069728852e-001
1	 1.134554291362543e+000	 4.320186872431324e+000	-3.765459130993162e-001
1	 1.090092008085801e+000	 4.331619570558885e+000	-4.128588914466301e-001
1	 1.045640891710206e+000	 4.342564276822999e+000	-4.388701839587255e-001
1	 1.001208360994867e+000	 4.353023304130099e+000	-4.531539703318134e-001
1	 9.568017434643769e-001	 4.362999102610631e+000	-4.543130068912498e-001
1	 9.124282726195250e-001	 4.372494256268735e+000	-4.409801851814260e-001
1	 8.680950852753391e-001	 4.381511479578151e+000	-4.118200092325045e-001
1	 8.162660764314832e-001	 4.119916406406245e+000	-1.739990647462264e+000
1	 7.746305074992251e-001	 4.127947367894609e+000	-1.854599723590646e+000
1	 7.330459304817425e-001	 4.135534529605869e+000	-1.951435520112733e+000
1	 6.915187573703857e-001	 4.142680794474465e+000	-2.027315750000822e+000
1	 6.500553007098910e-001	 4.149389174776561e+000	-2.079062497770029e+000
1	 6.086617716998224e-001	 4.155662788750935e+000	-2.103507187624263e+000
1	 5.673442784153442e-001	 4.161504857197135e+000	-2.097495418818205e+000
1	 5.261088241467260e-001	 4.166918700055335e+000	-2.057891662604682e+000
1	 4.849613058567812e-001	 4.171907732972209e+000	-1.981583815621399e+000
1	 4.439075127552784e-001	 4.176475463857045e+000	-1.865487605052935e+000
1	 4.029531249892538e-001	 4.180625489432248e+000	-1.706550841382936e+000
1	 8.214489773166679e-001	 4.146075913722957e+000	-1.558939701163954e+000
1	 7.795490423483210e-001	 4.154157867992348e+000	-1.647733944655439e+000
1	 7.377004230691648e-001	 4.161793204567332e+000	-1.718111996976021e+000
1	 6.959095721836308e-001	 4.168984844814609e+000	-1.767435788855407e+000
1	 6.541828423181006e-001	 4.175735820136897e+000	-1.793073600820618e+000
1	 6.125264841102887e-001	 4.182049268572325e+000	-1.792404163103392e+000
1	 5.709466444187183e-001	 4.187928431371006e+000	-1.762820641967839e+000
1	 5.294493646516858e-001	 4.193376649553176e+000	-1.701734507903103e+000
1	 4.880405792149012e-001	 4.198397360453264e+000	-1.606579281531510e+000
1	 4.467261140768504e-001	 4.202994094254131e+000	-1.474814153486656e+000
1	 4.055116854507895e-001	 4.207170470515678e+000	-1.303927474916538e+000
1	 8.266318782013200e-001	 4.172235421039815e+000	-1.388824015710858e+000
1	 7.844675771968939e-001	 4.180368368090208e+000	-1.454296363113918e+000
1	 7.423549156560875e-001	 4.188051879528887e+000	-1.500873814981583e+000
1	 7.003003869964146e-001	 4.195288895154834e+000	-1.526421012016302e+000
1	 6.583103839258989e-001	 4.202082465497299e+000	-1.528810731502927e+000
1	 6.163911965204039e-001	 4.208435748393775e+000	-1.505927182161852e+000
1	 5.745490104218124e-001	 4.214352005544932e+000	-1.455669203317372e+000
1	 5.327899051564446e-001	 4.219834599051070e+000	-1.375953364821530e+000
1	 4.911198525729068e-001	 4.224886987934367e+000	-1.264716964507039e+000
1	 4.495447153984006e-001	 4.229512724651258e+000	-1.119920920273649e+000
1	 4.080702459124012e-001	 4.233715451599140e+000	-9.395525542403629e-001
1	 8.318147790855720e-001	 4.198394928356807e+000	-1.229558815461787e+000
1	 7.893861120450737e-001	 4.206578868188181e+000	-1.274067983813838e+000
1	 7.470094082426360e-001	 4.214310554490548e+000	-1.299355178956533e+000
1	 7.046912018088520e-001	 4.221592945495159e+000	-1.303746993372115e+000
1	 6.624379255333880e-001	 4.228429110857804e+000	-1.285579753100654e+000
1	 6.202559089302560e-001	 4.234822228215323e+000	-1.243202070008925e+000
1	 5.781513764246962e-001	 4.240775579718960e+000	-1.174977314974329e+000
1	 5.361304456610525e-001	 4.246292548549063e+000	-1.079286009341251e+000
1	 4.941991259308264e-001	 4.251376615415562e+000	-9.545281322730919e-001
1	 4.523633167199344e-001	 4.256031355048466e+000	-7.991253418867649e-001
1	 4.106288063740699e-001	 4.260260432682666e+000	-6.115231083170998e-001
1	 8.369976799695581e-001	 4.224554435673913e+000	-1.081061424585157e+000
1	 7.943046468929925e-001	 4.232789368286273e+000	-1.106835235896796e+000
1	 7.516639008289349e-001	 4.240569229452331e+000	-1.113199354112780e+000
1	 7.090820166210586e-001	 4.247896995835609e+000	-1.098902296327339e+000
1	 6.665654671406717e-001	 4.254775756218443e+000	-1.062703721976900e+000
1	 6.241206213399322e-001	 4.261208708037015e+000	-1.003376304297983e+000
1	 5.817537424274395e-001	 4.267199153893132e+000	-9.197075380190032e-001
1	 5.394709861655601e-001	 4.272750498047199e+000	-8.105014814825599e-001
1	 4.972783992886888e-001	 4.277866242896895e+000	-6.745804315986745e-001
1	 4.551819180414574e-001	 4.282549985445801e+000	-5.107865302310700e-001
1	 4.131873668357766e-001	 4.286805413766293e+000	-3.179833008173300e-001
1	 8.421805808534109e-001	 4.250713942991122e+000	-9.432512024462348e-001
1	 7.992231817407802e-001	 4.258999868384477e+000	-9.523898058886441e-001
1	 7.563183934151089e-001	 4.266827904414242e+000	-9.420583872523513e-001
1	 7.134728314331503e-001	 4.274201046176213e+000	-9.113880741055260e-001
1	 6.706930087478520e-001	 4.281122401579249e+000	-8.595223585306205e-001
1	 6.279853337495213e-001	 4.287595187858888e+000	-7.856183488650714e-001
1	 5.853561084301131e-001	 4.293622728067493e+000	-6.888479717274371e-001
1	 5.428115266700170e-001	 4.299208447545529e+000	-5.683991232876241e-001
1	 5.003576726465228e-001	 4.304355870378412e+000	-4.234767688872070e-001
1	 4.580005193629747e-001	 4.309068615843296e+000	-2.533039902606186e-001
1	 4.157459272975020e-001	 4.313350394850049e+000	-5.712297975045926e-002
1	 8.473634817372634e-001	 4.276873450308417e+000	-8.160494813655318e-001
1	 8.041417165885678e-001	 4.285210368482794e+000	-8.105284769153518e-001
1	 7.609728860012828e-001	 4.293086579376300e+000	-7.855928382041739e-001
1	 7.178636462452411e-001	 4.300505096516986e+000	-7.407176847208193e-001
1	 6.748205503550323e-001	 4.307469046940256e+000	-6.753915375684061e-001
1	 6.318500461591106e-001	 4.313981667680984e+000	-5.891170119186322e-001
1	 5.889584744327866e-001	 4.320046302242091e+000	-4.814114725491559e-001
1	 5.461520671744742e-001	 4.325666397044096e+000	-3.518076521084432e-001
1	 5.034369460043564e-001	 4.330845497860159e+000	-1.998542318482318e-001
1	 4.608191206844920e-001	 4.335587246240998e+000	-2.511638465749516e-002
1	 4.183044877592277e-001	 4.339895375933969e+000	 1.728237196771795e-001
1	 8.525463826212494e-001	 4.303032957625782e+000	-6.993795066475830e-001
1	 8.090602514364863e-001	 4.311420868581226e+000	-6.810529737836165e-001
1	 7.656273785875816e-001	 4.319345254338512e+000	-6.434715210569670e-001
1	 7.222544610574481e-001	 4.326809146857958e+000	-5.864163199938712e-001
1	 6.789480919623159e-001	 4.333815692301495e+000	-5.096827972655139e-001
1	 6.357147585687870e-001	 4.340368147503342e+000	-4.130808276398376e-001
1	 5.925608404355304e-001	 4.346469876416972e+000	-2.964349015734238e-001
1	 5.494926076789813e-001	 4.352124346542950e+000	-1.595842676975061e-001
1	 5.065162193622189e-001	 4.357335125342182e+000	-2.383050502176954e-003
1	 4.636377220060149e-001	 4.362105876638947e+000	 1.752996564297004e-001
1	 4.208630482209342e-001	 4.366440357018083e+000	 3.735797212421600e-001
1	 8.577292835055019e-001	 4.329192464943204e+000	-5.931663787839604e-001
1	 8.139787862846666e-001	 4.337631368679769e+000	-5.637698136781386e-001
1	 7.702818711741304e-001	 4.345603929300893e+000	-5.153712547738482e-001
1	 7.266452758698856e-001	 4.353113197199152e+000	-4.480206480178999e-001
1	 6.830756335698049e-001	 4.360162337663001e+000	-3.617828659296645e-001
1	 6.395794709786391e-001	 4.366754627326000e+000	-2.567374602033294e-001
1	 5.961632064384143e-001	 4.372893450592176e+000	-1.329783992789557e-001
1	 5.528331481835894e-001	 4.378582296042136e+000	 9.386208328692799e-003
1	 5.095954927201386e-001	 4.383824752824525e+000	 1.702344041456001e-001
1	 4.664563233275486e-001	 4.388624507037183e+000	 3.494306824938069e-001
1	 4.234216086826029e-001	 4.392985338102428e+000	 5.468263050774304e-001
1	 8.629121843901538e-001	 4.355351972260665e+000	-4.973369977391957e-001
1	 8.188973211332394e-001	 4.363841868778422e+000	-4.584901622394420e-001
1	 7.749363637610531e-001	 4.371862604263454e+000	-4.009766227942638e-001
1	 7.310360906826695e-001	 4.379417247540587e+000	-3.250784685094816e-001
1	 6.872031751776031e-001	 4.386508983024806e+000	-2.310932058192974e-001
1	 6.434441833887548e-001	 4.393141107149004e+000	-1.193331292757179e-001
1	 5.997655724415082e-001	 4.399317024767751e+000	 9.875313579946683e-003
1	 5.561736886883482e-001	 4.405040245541704e+000	 1.561921620143002e-001
1	 5.126747660781442e-001	 4.410314380307236e+000	 3.192645853452032e-001
1	 4.692749246490988e-001	 4.415143137435748e+000	 4.987275284378612e-001
1	 4.259801691442147e-001	 4.419530319187034e+000	 6.942043582912721e-001
1	 8.680950852753391e-001	 4.381511479578151e+000	-4.118200092325045e-001
1	 8.238158559823361e-001	 4.390052368877189e+000	-3.650296947973708e-001
1	 7.795908563484760e-001	 4.398121279226209e+000	-2.999797412475505e-001
1	 7.354269054959154e-001	 4.405721297882294e+000	-2.171483805055916e-001
1	 6.913307167858134e-001	 4.412855628386947e+000	-1.170295733033582e-001
1	 6.473088957992209e-001	 4.419527586972392e+000	-1.320560941796042e-004
1	 6.033679384448826e-001	 4.425740598943745e+000	 1.330216100431988e-001
1	 5.595142291933083e-001	 4.431498195041700e+000	 2.818959868730818e-001
1	 5.157540394362644e-001	 4.436804007790360e+000	 4.459437012652088e-001
1	 4.720935259706708e-001	 4.441661767834681e+000	 6.246063807323790e-001
1	 4.285387296057504e-001	 4.446075300271935e+000	 8.173155807858914e-001
1	 4.029531249892538e-001	 4.180625489432248e+000	-1.706550841382936e+000
1	 3.620976067863624e-001	 4.184362021505855e+000	-1.507180608459632e+000
1	 3.213526407327571e-001	 4.187688172694503e+000	-1.268516510039437e+000
1	 2.807236575465107e-001	 4.190607788155261e+000	-9.855233713974424e-001
1	 2.402159721721477e-001	 4.193124788175180e+000	-6.531377418903560e-001
1	 1.998347830423366e-001	 4.195243164716059e+000	-2.662768383800632e-001
1	 1.595851714486658e-001	 4.196966977977436e+000	 1.801527311477377e-001
1	 1.194721010194017e-001	 4.198300352981236e+000	 6.912464728480828e-001
1	 7.950041730204928e-002	 4.199247476181253e+000	 1.272093749429303e+000
1	 3.967484744844285e-002	 4.199812592100591e+000	 1.927769767174514e+000
1	 0.000000000000000e+000	 4.200000000000001e+000	 2.663327814241210e+000
1	 4.055116854507895e-001	 4.207170470515678e+000	-1.303927474916537e+000
1	 3.643967541624681e-001	 4.210930727788929e+000	-1.096088102924129e+000
1	 3.233930769768961e-001	 4.214277998454132e+000	-8.526669781250321e-001
1	 2.825061190946209e-001	 4.217216152083235e+000	-5.698591400076744e-001
1	 2.417412292075336e-001	 4.219749133855214e+000	-2.438199619715767e-001
1	 2.011036387558750e-001	 4.221880961078892e+000	 1.293274676213953e-001
1	 1.605984612950160e-001	 4.223615719734105e+000	 5.534851206929077e-001
1	 1.202306919698988e-001	 4.224957561034674e+000	 1.032572969350104e+000
1	 8.000520709494793e-002	 4.225910698016350e+000	 1.570522098152928e+000
1	 3.992676383716123e-002	 4.226479402152904e+000	 2.171267995810506e+000
1	 0.000000000000000e+000	 4.226668000003317e+000	 2.838744032732570e+000
1	 4.080702459124012e-001	 4.233715451599140e+000	-9.395525542403630e-001
1	 3.666959015387499e-001	 4.237499434072024e+000	-7.255405627087029e-001
1	 3.254335132213082e-001	 4.240867824213765e+000	-4.794309813691701e-001
1	 2.842885806430887e-001	 4.243824516011196e+000	-1.985287776425883e-001
1	 2.432664862433427e-001	 4.246373479535219e+000	 1.199100115323569e-001
1	 2.023724944698756e-001	 4.248518757441675e+000	 4.786723443691120e-001
1	 1.616117511418327e-001	 4.250264461490711e+000	 8.805823383325535e-001
1	 1.209892829208255e-001	 4.251614769088035e+000	 1.328495541296707e+000
1	 8.050999688819097e-002	 4.252573919851358e+000	 1.825293316888929e+000
1	 4.017868022608303e-002	 4.253146212205121e+000	 2.373877350649346e+000
1	 0.000000000000000e+000	 4.253336000006533e+000	 2.977164283136504e+000
1	 4.106288063740699e-001	 4.260260432682666e+000	-6.115231083170997e-001
1	 3.689950489151643e-001	 4.264068140355160e+000	-3.934125416818008e-001
1	 3.274739494659248e-001	 4.267457649973411e+000	-1.464640915714720e-001
1	 2.860710421918249e-001	 4.270432879939134e+000	 1.310254323455333e-001
1	 2.447917432794692e-001	 4.272997825215163e+000	 4.408153189725772e-001
1	 2.036413501842226e-001	 4.275156553804367e+000	 7.847163507846665e-001
1	 1.626250409889994e-001	 4.276913203247188e+000	 1.164586247963654e+000
1	 1.217478738720746e-001	 4.278271977141238e+000	 1.582325168555634e+000
1	 8.101478668169221e-002	 4.279237141686184e+000	 2.039871271173518e+000
1	 4.043059661515737e-002	 4.279813022257143e+000	 2.539196346399930e+000
1	 0.000000000000000e+000	 4.280004000009551e+000	 3.082301522676675e+000
1	 4.131873668357766e-001	 4.286805413766293e+000	-3.179833008173300e-001
1	 3.712941962916668e-001	 4.290636846638357e+000	-9.763123890739775e-002
1	 3.295143857106780e-001	 4.294047475733071e+000	 1.485200503039888e-001
1	 2.878535037407400e-001	 4.297041243867040e+000	 4.212978544965629e-001
1	 2.463170003158075e-001	 4.299622170895022e+000	 7.215906604508655e-001
1	 2.049102058988005e-001	 4.301794350166915e+000	 1.050344765216282e+000
1	 1.636383308363993e-001	 4.303561945003477e+000	 1.408560892627592e+000
1	 1.225064648235386e-001	 4.304929185194208e+000	 1.797290821304529e+000
1	 8.151957647536566e-002	 4.305900363520745e+000	 2.217634030026820e+000
1	 4.068251300433339e-002	 4.306479832308872e+000	 2.670734366129166e+000
1	 0.000000000000000e+000	 4.306672000012267e+000	 3.157776742307580e+000
1	 4.157459272975020e-001	 4.313350394850049e+000	-5.712297975045933e-002
1	 3.735933436682135e-001	 4.317205552921639e+000	 1.638251212856475e-001
1	 3.315548219554992e-001	 4.320637301492754e+000	 4.077515209588181e-001
1	 2.896359652897446e-001	 4.323649607794899e+000	 6.747214506325383e-001
1	 2.478422573522515e-001	 4.326246516574762e+000	 9.648644017755381e-001
1	 2.061790616134940e-001	 4.328432146529279e+000	 1.278371840334760e+000
1	 1.646516206839160e-001	 4.330210686759509e+000	 1.615494889113850e+000
1	 1.232650557751100e-001	 4.331586393246865e+000	 1.976541983528000e+000
1	 8.202436626912517e-002	 4.332563585354943e+000	 2.361876505973244e+000
1	 4.093442939356026e-002	 4.333146642360212e+000	 2.771914403906294e+000
1	 0.000000000000000e+000	 4.333340000014584e+000	 3.207121796582181e+000
1	 4.183044877592277e-001	 4.339895375933969e+000	 1.728237196771795e-001
1	 3.758924910447601e-001	 4.343774259205020e+000	 3.929288497844751e-001
1	 3.335952582003206e-001	 4.347227127252465e+000	 6.334058360155512e-001
1	 2.914184268387489e-001	 4.350257971722702e+000	 8.936696577071142e-001
1	 2.493675143886955e-001	 4.352870862254359e+000	 1.173200603130738e+000
1	 2.074479173281874e-001	 4.355069942891405e+000	 1.471542975277135e+000
1	 1.656649105314326e-001	 4.356859428515224e+000	 1.788303734684089e+000
1	 1.240236467266813e-001	 4.358243601299131e+000	 2.123151083904773e+000
1	 8.252915606288463e-002	 4.359226807188695e+000	 2.475812998175580e+000
1	 4.118634578278713e-002	 4.359813452411068e+000	 2.846075706794902e+000
1	 0.000000000000000e+000	 4.360008000016401e+000	 3.233782129666342e+000
1	 4.208630482209342e-001	 4.366440357018083e+000	 3.735797212421601e-001
1	 3.781916384212626e-001	 4.370342965488527e+000	 5.916042962530573e-001
1	 3.356356944450737e-001	 4.373816953012210e+000	 8.276056084884704e-001
1	 2.932008883876640e-001	 4.376866335650436e+000	 1.080458197158597e+000
1	 2.508927714250336e-001	 4.379495207933778e+000	 1.349100973748171e+000
1	 2.087167730427654e-001	 4.381707739253252e+000	 1.632536808559258e+000
1	 1.666782003788324e-001	 4.383508170270559e+000	 1.929832029656462e+000
1	 1.247822376781452e-001	 4.384900809350929e+000	 2.240115838026092e+000
1	 8.303394585655800e-002	 4.385890029021907e+000	 2.562579642806076e+000
1	 4.143826217196314e-002	 4.386480262461337e+000	 2.896476320475971e+000
1	 0.000000000000000e+000	 4.386676000017618e+000	 3.241119401919473e+000
1	 4.234216086826029e-001	 4.392985338102428e+000	 5.468263050774304e-001
1	 3.804907857976769e-001	 4.396911671772176e+000	 7.617292981806768e-001
1	 3.376761306896904e-001	 4.400406778771993e+000	 9.924221471257185e-001
1	 2.949833499364001e-001	 4.403474699578090e+000	 1.237346818664092e+000
1	 2.524180284611601e-001	 4.406119553612994e+000	 1.495006755711280e+000
1	 2.099856287571123e-001	 4.408345535614769e+000	 1.763967235108899e+000
1	 1.676914902259990e-001	 4.410156912025449e+000	 2.042855619408890e+000
1	 1.255408286293942e-001	 4.411558017402181e+000	 2.330361505695935e+000
1	 8.353873565005922e-002	 4.412553250854495e+000	 2.625236774578083e+000
1	 4.169017856103743e-002	 4.413147072510928e+000	 2.926295542578213e+000
1	 0.000000000000000e+000	 4.413344000018133e+000	 3.232414021247271e+000
1	 4.259801691442147e-001	 4.419530319187034e+000	 6.942043582912721e-001
1	 3.827899331739587e-001	 4.423480378055990e+000	 9.051365777099627e-001
1	 3.397165669341023e-001	 4.426996604531820e+000	 1.129876997150776e+000
1	 2.967658114848678e-001	 4.430083063505653e+000	 1.366540981052512e+000
1	 2.539432854969691e-001	 4.432743899291976e+000	 1.613300539871259e+000
1	 2.112544844711126e-001	 4.434983331975912e+000	 1.868385350609436e+000
1	 1.687047800728156e-001	 4.436805653779828e+000	 2.130083659189597e+000
1	 1.262994195803208e-001	 4.438215225452806e+000	 2.396743066883006e+000
1	 8.404352544330211e-002	 4.439216472686363e+000	 2.666771203173584e+000
1	 4.194209494995915e-002	 4.439813882559738e+000	 2.938636287595850e+000
1	 0.000000000000000e+000	 4.440012000017850e+000	 3.210867583230347e+000
1	 4.285387296057504e-001	 4.446075300271935e+000	 8.173155807858914e-001
1	 3.850890805500643e-001	 4.450049084339991e+000	 1.023615088426902e+000
1	 3.417570031782413e-001	 4.453586430291698e+000	 1.241943425810623e+000
1	 2.985482730329779e-001	 4.456691427433116e+000	 1.470193473003118e+000
1	 2.554685425323549e-001	 4.459368244970696e+000	 1.706308016712318e+000
1	 2.125233401846509e-001	 4.461621128336633e+000	 1.948281326192151e+000
1	 1.697180699191656e-001	 4.463454395533640e+000	 2.194160604960495e+000
1	 1.270580105308178e-001	 4.464872433502731e+000	 2.442047319724839e+000
1	 8.454831523620064e-002	 4.465879694517425e+000	 2.690098408123113e+000
1	 4.219401133867746e-002	 4.466480692607675e+000	 2.936527367089138e+000
1	 0.000000000000000e+000	 4.466680000016666e+000	 3.179605223841199e+000
1	 4.466680000016666e+000	 0.000000000000000e+000	-5.353130979282976e-001
1	 4.466480692607678e+000	 4.219401133867761e-002	-4.620416879106973e-001
1	 4.465879694517425e+000	 8.454831523620093e-002	-3.911766069010925e-001
1	 4.464872433502731e+000	 1.270580105308174e-001	-3.229811471706429e-001
1	 4.463454395533637e+000	 1.697180699191653e-001	-2.577653141800247e-001
1	 4.461621128336632e+000	 2.125233401846509e-001	-1.958866748068870e-001
1	 4.459368244970698e+000	 2.554685425323549e-001	-1.377511555254386e-001
1	 4.456691427433116e+000	 2.985482730329781e-001	-8.381378734425110e-002
1	 4.453586430291698e+000	 3.417570031782408e-001	-3.457939430873647e-002
1	 4.450049084339993e+000	 3.850890805500641e-001	 9.396777616416189e-003
1	 4.446075300271936e+000	 4.285387296057503e-001	 4.750849445162640e-002
1	 4.493344001125478e+000	 0.000000000000000e+000	-6.117589765496622e-001
1	 4.493143503944068e+000	 4.244588995207979e-002	-5.402274017533535e-001
1	 4.492538918175068e+000	 8.505302933503604e-002	-4.701650437682264e-001
1	 4.491525644281115e+000	 1.278164877294522e-001	-4.019774251983187e-001
1	 4.490099141285576e+000	 1.707312078212957e-001	-3.361057360199210e-001
1	 4.488254930336908e+000	 2.137920056316579e-001	-2.730271926743042e-001
1	 4.485988598306077e+000	 2.569935708536612e-001	-2.132553509072960e-001
1	 4.483295801413886e+000	 3.003304672990532e-001	-1.573403701890450e-001
1	 4.480172268884857e+000	 3.437971334569228e-001	-1.058692275746339e-001
1	 4.476613806624296e+000	 3.873878831668750e-001	-5.946587890014728e-002
1	 4.472616300914868e+000	 4.310969064089002e-001	-1.879136525000313e-002
1	 4.520008008899155e+000	 0.000000000000000e+000	-6.564333563789530e-001
1	 4.519806321945047e+000	 4.269776862821971e-002	-5.886973534704978e-001
1	 4.519198148496463e+000	 8.555774355965612e-002	-5.215167349548986e-001
1	 4.518178861721835e+000	 1.285749651172135e-001	-4.554113943256013e-001
1	 4.516743893697841e+000	 1.717443459761730e-001	-3.909272274748734e-001
1	 4.514888738994899e+000	 2.150606713952958e-001	-3.286360762659814e-001
1	 4.512608958295947e+000	 2.585185995557294e-001	-2.691356295270499e-001
1	 4.509900182045277e+000	 3.021126620102522e-001	-2.130492801882112e-001
1	 4.506758114124131e+000	 3.458372642453049e-001	-1.610259373332708e-001
1	 4.503178535549549e+000	 3.896866863581595e-001	-1.137397919920324e-001
1	 4.499157308192905e+000	 4.336550838514770e-001	-7.189003555966887e-002
1	 4.546672030003566e+000	 0.000000000000000e+000	-6.738034435538899e-001
1	 4.546469153276179e+000	 4.294964743008928e-002	-6.114446772257839e-001
1	 4.545857392146254e+000	 8.606245803627632e-002	-5.487819113143115e-001
1	 4.544832092488003e+000	 1.293334428837648e-001	-4.864220105627191e-001
1	 4.543388659431392e+000	 1.727574846371274e-001	-4.249895408448036e-001
1	 4.541522560968784e+000	 2.163293377927727e-001	-3.651263700649530e-001
1	 4.539229331595075e+000	 2.600436290198506e-001	-3.074912300354956e-001
1	 4.536504575978026e+000	 3.038948576121461e-001	-2.527592388032847e-001
1	 4.533343972655578e+000	 3.478773960534280e-001	-2.016213829650522e-001
1	 4.529743277756488e+000	 3.919854906986114e-001	-1.547839595825497e-001
1	 4.525698328740825e+000	 4.362132625730023e-001	-1.129679773838787e-001
1	 4.573336071104578e+000	 0.000000000000000e+000	-6.682322656006355e-001
1	 4.573132004603027e+000	 4.320152642068042e-002	-6.123693854343918e-001
1	 4.572516655789086e+000	 8.656717289111188e-002	-5.554280115929019e-001
1	 4.571485343242733e+000	 1.300919212187695e-001	-4.980750295473370e-001
1	 4.570033445147191e+000	 1.737706240574890e-001	-4.409880715955454e-001
1	 4.568156402916756e+000	 2.175980051412970e-001	-3.848548471904452e-001
1	 4.565849724858240e+000	 2.615686596273152e-001	-3.303724376826505e-001
1	 4.563108989862871e+000	 3.056770545503059e-001	-2.782465555629189e-001
1	 4.559929851125256e+000	 3.499175293913336e-001	-2.291907683711373e-001
1	 4.556308039885856e+000	 3.942842967629248e-001	-1.839256875223133e-001
1	 4.552239369193409e+000	 4.387714432129977e-001	-1.431781223868274e-001
1	 4.600000138868055e+000	 0.000000000000000e+000	-6.439816910418442e-001
1	 4.599794882591152e+000	 4.345340566298505e-002	-5.952810679308166e-001
1	 4.599175946089608e+000	 8.707188825037808e-002	-5.448420822258955e-001
1	 4.598138620649134e+000	 1.308504003118912e-001	-4.933651283467027e-001
1	 4.596678257506200e+000	 1.747837644905879e-001	-4.415557238457047e-001
1	 4.594790271496990e+000	 2.188666737580766e-001	-3.901236405346600e-001
1	 4.592470144740218e+000	 2.630936917594146e-001	-3.397820033441871e-001
1	 4.589713430350549e+000	 3.074592532703026e-001	-2.912463574800559e-001
1	 4.586515756179225e+000	 3.519576647690627e-001	-2.452337045301030e-001
1	 4.582872828578392e+000	 3.965831051257931e-001	-2.024615082677658e-001
1	 4.578780436185433e+000	 4.413296264109848e-001	-1.636466709920049e-001
1	 4.626664239959867e+000	 0.000000000000000e+000	-6.052153444726937e-001
1	 4.626457793906115e+000	 4.370528521999508e-002	-5.639014976975370e-001
1	 4.625835269712468e+000	 8.757660424029021e-002	-5.203330940573149e-001
1	 4.624791931370330e+000	 1.316088803527934e-001	-4.752179538078075e-001
1	 4.623323103169381e+000	 1.757969061897542e-001	-4.292647112745910e-001
1	 4.621424173367672e+000	 2.201353439603201e-001	-3.831818174333140e-001
1	 4.619090597895790e+000	 2.646187257974394e-001	-3.376765134244117e-001
1	 4.616317904091795e+000	 3.092414542177068e-001	-2.934537759094326e-001
1	 4.613101694463548e+000	 3.539978026966565e-001	-2.512152352713227e-001
1	 4.609437650474842e+000	 3.988819163619110e-001	-2.116580677571504e-001
1	 4.605321536351673e+000	 4.438878128064857e-001	-1.754738627588013e-001
1	 4.653328381045878e+000	 0.000000000000000e+000	-5.560014213024223e-001
1	 4.653120745213482e+000	 4.395716515470247e-002	-5.218671469066841e-001
1	 4.652494633322307e+000	 8.808132098706338e-002	-4.851341793204709e-001
1	 4.651445282069430e+000	 1.323673615311397e-001	-4.464921004050717e-001
1	 4.649967988797696e+000	 1.768100494083182e-001	-4.066282960444356e-001
1	 4.648058115186988e+000	 2.214040160652356e-001	-3.662269001373559e-001
1	 4.645711090979728e+000	 2.661437621226807e-001	-3.259677126083098e-001
1	 4.642922417737346e+000	 3.110236578380899e-001	-2.865250925545049e-001
1	 4.639687672624278e+000	 3.560379436841560e-001	-2.485668277421067e-001
1	 4.636002512215940e+000	 4.011807310459719e-001	-2.127529817609658e-001
1	 4.631862676326912e+000	 4.464460030390216e-001	-1.797347202434218e-001
1	 4.679992568791956e+000	 0.000000000000000e+000	-5.003154061674130e-001
1	 4.679783743178811e+000	 4.420904553009910e-002	-4.727316168556285e-001
1	 4.679154043583775e+000	 8.858603861691294e-002	-4.424047920626302e-001
1	 4.678098679409549e+000	 1.331258440365935e-001	-4.099810204004685e-001
1	 4.676612921052107e+000	 1.778231943996098e-001	-3.761024682117568e-001
1	 4.674692103613120e+000	 2.226726903900312e-001	-3.414063342498196e-001
1	 4.672331630646809e+000	 2.676688011164292e-001	-3.065237813453113e-001
1	 4.669526977937935e+000	 3.128058645770228e-001	-2.720788462547531e-001
1	 4.666273697307479e+000	 3.580780882416026e-001	-2.386873289782523e-001
1	 4.662567420442431e+000	 4.034795497526699e-001	-2.069556629257182e-001
1	 4.658403862745927e+000	 4.490041977481146e-001	-1.774797674027872e-001
1	 4.706656809863968e+000	 0.000000000000000e+000	-4.420426988400589e-001
1	 4.706446794467666e+000	 4.446092640917691e-002	-4.199679852148940e-001
1	 4.705813507161521e+000	 8.909075725605414e-002	-3.952327950531072e-001
1	 4.704752130053802e+000	 1.338843280588184e-001	-3.684148690033003e-001
1	 4.703257906593572e+000	 1.788363414169591e-001	-3.400875679904697e-001
1	 4.701326145304251e+000	 2.239413672519153e-001	-3.108189071936630e-001
1	 4.698952223551813e+000	 2.691938431599761e-001	-2.811705698618773e-001
1	 4.696131591344302e+000	 3.145880748800765e-001	-2.516969021104228e-001
1	 4.692859775159207e+000	 3.601182368790375e-001	-2.229438899237285e-001
1	 4.689132381795057e+000	 4.057783730566991e-001	-1.954481196744013e-001
1	 4.684945102243493e+000	 4.515623975732859e-001	-1.697357235520570e-001
1	 4.733321110927780e+000	 0.000000000000000e+000	-3.849811512851452e-001
1	 4.733109905745614e+000	 4.471280785492782e-002	-3.669710738525872e-001
1	 4.732473030720188e+000	 8.959547703070217e-002	-3.466364760770179e-001
1	 4.731405640665302e+000	 1.346428137874779e-001	-3.244622870955969e-001
1	 4.729902952083056e+000	 1.798494907136964e-001	-3.009298531227467e-001
1	 4.727960246918567e+000	 2.252100469680961e-001	-2.765161186830921e-001
1	 4.725572876349514e+000	 2.707188886346120e-001	-2.516927904190073e-001
1	 4.722736264607185e+000	 3.163702891928218e-001	-2.269254844314663e-001
1	 4.719445912825525e+000	 3.621583901065016e-001	-2.026728581844350e-001
1	 4.715697402914556e+000	 4.080772015327532e-001	-1.793857280747263e-001
1	 4.711486401454396e+000	 4.541206031540578e-001	-1.575061738408542e-001
1	 4.446075300271936e+000	 4.285387296057503e-001	 4.750849445162633e-002
1	 4.441661767834682e+000	 4.720935259706711e-001	 7.931389615101021e-002
1	 4.436804007790361e+000	 5.157540394362641e-001	 1.046970867559162e-001
1	 4.431498195041699e+000	 5.595142291933083e-001	 1.234926632479545e-001
1	 4.425740598943744e+000	 6.033679384448822e-001	 1.355437620692479e-001
1	 4.419527586972393e+000	 6.473088957992210e-001	 1.407024546575682e-001
1	 4.412855628386947e+000	 6.913307167858135e-001	 1.388301397997282e-001
1	 4.405721297882294e+000	 7.354269054959151e-001	 1.297979319920638e-001
1	 4.398121279226208e+000	 7.795908563484759e-001	 1.134870449801607e-001
1	 4.390052368877188e+000	 8.238158559823358e-001	 8.978916963491948e-002
1	 4.381511479578153e+000	 8.680950852753392e-001	 5.860684530867481e-002
1	 4.472616300914868e+000	 4.310969064089002e-001	-1.879136525000310e-002
1	 4.468176421743035e+000	 4.749117046406274e-001	 1.602163060770843e-002
1	 4.463289663131958e+000	 5.188328510548873e-001	 4.515795787796790e-002
1	 4.457952177150323e+000	 5.628542687816454e-001	 6.839454893172814e-002
1	 4.452160210882960e+000	 6.069697642707739e-001	 8.551731004375728e-002
1	 4.445910110121298e+000	 6.511730286932238e-001	 9.632161221394367e-002
1	 4.439198323047760e+000	 6.954576394661729e-001	 1.006127802064651e-001
1	 4.432021403909766e+000	 7.398170619033307e-001	 9.820657884780792e-002
1	 4.424376016678721e+000	 7.842446509914089e-001	 8.892969560043509e-002
1	 4.416258938689485e+000	 8.287336532936123e-001	 7.262021840636565e-002
1	 4.407667064255488e+000	 8.732772089808063e-001	 4.912810777466019e-002
1	 4.499157308192905e+000	 4.336550838514770e-001	-7.189003555966880e-002
1	 4.494691082279964e+000	 4.777298840151175e-001	-3.538890428303616e-002
1	 4.489775325094918e+000	 5.219116634433038e-001	-3.841765814242905e-003
1	 4.484406165872398e+000	 5.661943092051770e-001	 2.248287904857987e-002
1	 4.478579829427026e+000	 6.105715909973927e-001	 4.332557174393497e-002
1	 4.472292639865749e+000	 6.550371625536072e-001	 5.843645656385524e-002
1	 4.465541024294119e+000	 6.995845631786763e-001	 6.757584088680674e-002
1	 4.458321516512072e+000	 7.442072194087523e-001	 7.051475396880973e-002
1	 4.450630760694662e+000	 7.888984467982982e-001	 6.703550320446752e-002
1	 4.442465515053096e+000	 8.336514518348713e-001	 5.693222674131900e-002
1	 4.433822655471317e+000	 8.784593339823469e-001	 4.001144130446703e-002
1	 4.525698328740825e+000	 4.362132625730023e-001	-1.129679773838787e-001
1	 4.521205756073643e+000	 4.805480647986484e-001	-7.594097635712847e-002
1	 4.516261000300145e+000	 5.249904773711638e-001	-4.317639491988766e-002
1	 4.510860167820908e+000	 5.695343512988462e-001	-1.497612065121830e-002
1	 4.504999461180328e+000	 6.141734195251155e-001	 8.366707775360556e-003
1	 4.498675182800866e+000	 6.589012983463134e-001	 2.656830576733778e-002
1	 4.491883738711193e+000	 7.037114889549527e-001	 3.935484900168149e-002
1	 4.484621642263761e+000	 7.485973791096093e-001	 4.646307951812716e-002
1	 4.476885517837253e+000	 7.935522449324756e-001	 4.764091057398551e-002
1	 4.468672104519222e+000	 8.385692528354408e-001	 4.264802908411530e-002
1	 4.459978259764122e+000	 8.836414615753685e-001	 3.125649443877792e-002
1	 4.552239369193409e+000	 4.387714432129977e-001	-1.431781223868275e-001
1	 4.547720449752237e+000	 4.833662476957265e-001	-1.066339892039951e-001
1	 4.542746695368543e+000	 5.280692936081171e-001	-7.369984866796694e-002
1	 4.537314189608826e+000	 5.728743958975963e-001	-4.469910950490718e-002
1	 4.531419112747249e+000	 6.177752507543191e-001	-1.994708218715240e-002
1	 4.525057745521771e+000	 6.627654370372837e-001	 2.496458116855771e-004
1	 4.518226472884162e+000	 7.078384178266318e-001	 1.559383717049585e-002
1	 4.510921787739378e+000	 7.529875421033310e-001	 2.579823317290451e-002
1	 4.503140294669723e+000	 7.982060465572731e-001	 3.058618230920454e-002
1	 4.494878713639076e+000	 8.434870575246495e-001	 2.969226784281945e-002
1	 4.486133883672388e+000	 8.888235930552790e-001	 2.286293312179098e-002
1	 4.578780436185433e+000	 4.413296264109848e-001	-1.636466709920050e-001
1	 4.574235169943915e+000	 4.861844334108586e-001	-1.284441739181062e-001
1	 4.569232416921015e+000	 5.311481129238141e-001	-9.624624598488180e-002
1	 4.563768237849136e+000	 5.762144438363704e-001	-6.738612801221826e-002
1	 4.557838790732178e+000	 6.213770855853804e-001	-4.218996629530037e-002
1	 4.551440334623584e+000	 6.666295795924608e-001	-2.097619303733920e-002
1	 4.544569233398201e+000	 7.119653508253427e-001	-4.054902978535387e-003
1	 4.537221959513468e+000	 7.573777094873466e-001	 8.272772713849000e-003
1	 4.529395097755288e+000	 8.028598528360238e-001	 1.571529418923701e-002
1	 4.521085348963855e+000	 8.484048671318256e-001	 1.799134114779608e-002
1	 4.512289533734597e+000	 8.940057297174857e-001	 1.483044038471830e-002
1	 4.605321536351673e+000	 4.438878128064857e-001	-1.754738627588013e-001
1	 4.600749923276847e+000	 4.890026226485517e-001	-1.423252569036135e-001
1	 4.595718171578466e+000	 5.342269360879051e-001	-1.116304761006373e-001
1	 4.590222319154813e+000	 5.795544959501117e-001	-8.372107673738251e-002
1	 4.584258501739503e+000	 6.249789249186765e-001	-5.892287333723049e-002
1	 4.577822956701428e+000	 6.704937269777870e-001	-3.755534868031851e-002
1	 4.570912026838485e+000	 7.160922889827146e-001	-1.993105872659113e-002
1	 4.563522164160577e+000	 7.617678823590853e-001	-6.355033312996131e-003
1	 4.555649933657178e+000	 8.075136649320591e-001	 2.875826362560331e-003
1	 4.547292017044766e+000	 8.533226828862969e-001	 7.473352418717760e-003
1	 4.538445216489230e+000	 8.991878728573967e-001	 7.158716040197035e-003
1	 4.631862676326912e+000	 4.464460030390216e-001	-1.797347202434217e-001
1	 4.627264716379196e+000	 4.918208161133120e-001	-1.492091046937563e-001
1	 4.622203965961801e+000	 5.373057638700399e-001	-1.206487495152727e-001
1	 4.616676440138840e+000	 5.828945530737638e-001	-9.437217872774403e-002
1	 4.610678252373610e+000	 6.285807696545841e-001	-7.069387202732157e-002
1	 4.604205618350422e+000	 6.743578801592035e-001	-4.992372887493970e-002
1	 4.597254859790193e+000	 7.202192333303771e-001	-3.236652599351543e-002
1	 4.589822408255249e+000	 7.661580618159762e-001	-1.832136910602436e-002
1	 4.581904808938610e+000	 8.121674840087109e-001	-8.081139786249855e-003
1	 4.573498724433014e+000	 8.582405060173919e-001	-1.931938332594799e-003
1	 4.564600938474771e+000	 9.043700237704185e-001	-1.525236128034831e-004
1	 4.658403862745927e+000	 4.490041977481146e-001	-1.774797674027872e-001
1	 4.653779555879138e+000	 4.946390145096463e-001	-1.500063467027231e-001
1	 4.648689806691922e+000	 5.403845970398687e-001	-1.240791301096783e-001
1	 4.643130607414196e+000	 5.862346160422692e-001	-9.999242610713503e-002
1	 4.637098049238887e+000	 6.321826206934798e-001	-7.803853731562482e-002
1	 4.630588326165689e+000	 6.782220401026525e-001	-5.850730260207169e-002
1	 4.623597738838499e+000	 7.243461848999591e-001	-4.168563120513368e-002
1	 4.616122698372031e+000	 7.705482489554486e-001	-2.785702952210758e-002
1	 4.608159730162813e+000	 8.168213112293123e-001	-1.730112124032878e-002
1	 4.599705477679802e+000	 8.631583377544388e-001	-1.029316153282973e-002
1	 4.590756706229706e+000	 9.095521837519599e-001	-7.103546074037845e-003
1	 4.684945102243493e+000	 4.515623975732859e-001	-1.697357235520570e-001
1	 4.680294448404837e+000	 4.974572185420616e-001	-1.456069767860760e-001
1	 4.675175700389737e+000	 5.434634363670420e-001	-1.226820491493682e-001
1	 4.669584827593855e+000	 5.895746856905717e-001	-1.012200114722543e-001
1	 4.663517898939720e+000	 6.357844789357413e-001	-8.148030423227230e-002
1	 4.656971086742348e+000	 6.820862077740765e-001	-6.372238151703728e-002
1	 4.649940670568578e+000	 7.284731447230901e-001	-4.820534561074164e-002
1	 4.642423041085466e+000	 7.749384448749320e-001	-3.518757261706495e-002
1	 4.634414703893005e+000	 8.214751477571947e-001	-2.492632956495570e-002
1	 4.625912283336335e+000	 8.680761793267663e-001	-1.767738347747365e-002
1	 4.616912526292515e+000	 9.147343540974277e-001	-1.369460291736428e-002
1	 4.711486401454396e+000	 4.541206031540578e-001	-1.575061738408542e-001
1	 4.706809400584461e+000	 5.002754289150643e-001	-1.368809344462796e-001
1	 4.701661653676148e+000	 5.465422826212096e-001	-1.172008018960105e-001
1	 4.696039107290806e+000	 5.929147628536142e-001	-9.867874469197528e-002
1	 4.689937808080498e+000	 6.393863452817449e-001	-8.153080975893635e-002
1	 4.683353906675524e+000	 6.859503841394172e-001	-6.597589187750771e-002
1	 4.676283661565610e+000	 7.326001138313998e-001	-5.223549234879154e-002
1	 4.668723442970103e+000	 7.793286506718558e-001	-4.053346702466914e-002
1	 4.660669736692414e+000	 8.261289947556906e-001	-3.109576386644314e-002
1	 4.652119147953820e+000	 8.729940319637025e-001	-2.415015022393419e-002
1	 4.643068405201682e+000	 9.199165361022299e-001	-1.992593005687283e-002
1	 4.381511479578153e+000	 8.680950852753392e-001	 5.860684530867473e-002
1	 4.372494256268734e+000	 9.124282726195251e-001	 1.917409042485131e-002
1	 4.362999102610631e+000	 9.568017434643775e-001	-2.889266966524995e-002
1	 4.353023304130100e+000	 1.001208360994867e+000	-8.510257335244433e-002
1	 4.342564276822998e+000	 1.045640891710206e+000	-1.489354115496917e-001
1	 4.331619570558887e+000	 1.090092008085801e+000	-2.198417972261834e-001
1	 4.320186872431323e+000	 1.134554291362543e+000	-2.972433857835676e-001
1	 4.308264010049258e+000	 1.179020234462681e+000	-3.805331471249409e-001
1	 4.295848954764352e+000	 1.223482245031362e+000	-4.690756901688187e-001
1	 4.282939824829096e+000	 1.267932648602656e+000	-5.622076404569800e-001
1	 4.269534888480566e+000	 1.312363691888676e+000	-6.592380713966125e-001
1	 4.407667064255488e+000	 8.732772089808063e-001	 4.912810777466015e-002
1	 4.398596012318690e+000	 9.178750448236624e-001	 1.772371533291541e-002
1	 4.389044177011387e+000	 9.625134046409613e-001	-2.192370000869694e-002
1	 4.379008827655715e+000	 1.007185109014209e+000	-6.934526905189502e-002
1	 4.368487364822227e+000	 1.051882881261982e+000	-1.240407411865048e-001
1	 4.357477323754350e+000	 1.096599350117776e+000	-1.854785900079169e-001
1	 4.345976377738679e+000	 1.141327052535939e+000	-2.530961721415151e-001
1	 4.333982341416010e+000	 1.186058436624959e+000	-3.262999403068822e-001
1	 4.321493174027922e+000	 1.230785864707158e+000	-4.044657115550541e-001
1	 4.308506982593759e+000	 1.275501616503612e+000	-4.869389915067749e-001
1	 4.295022025012785e+000	 1.320197892442914e+000	-5.730353553089340e-001
1	 4.433822655471317e+000	 8.784593339823469e-001	 4.001144130446701e-002
1	 4.424697774893605e+000	 9.233218183900277e-001	 1.558826308809928e-002
1	 4.415089257922868e+000	 9.682250672459721e-001	-1.661349584879109e-002
1	 4.404994357677095e+000	 1.013161858528212e+000	-5.614949074145240e-002
1	 4.394410459301542e+000	 1.058124872374679e+000	-1.025429174288101e-001
1	 4.383335083413516e+000	 1.103106693776948e+000	-1.552845679297362e-001
1	 4.371765889492628e+000	 1.148099815402816e+000	-2.138329402670395e-001
1	 4.359700679211524e+000	 1.193096640547001e+000	-2.776144036957043e-001
1	 4.347137399701697e+000	 1.238089486208987e+000	-3.460234203925957e-001
1	 4.334074146749346e+000	 1.283070586296851e+000	-4.184228245598107e-001
1	 4.320509167915921e+000	 1.328032094955653e+000	-4.941441597827522e-001
1	 4.459978259764122e+000	 8.836414615753685e-001	 3.125649443877793e-002
1	 4.450799550518535e+000	 9.287685946801909e-001	 1.283276955070527e-002
1	 4.441134351855977e+000	 9.739367327072045e-001	-1.284481919400539e-002
1	 4.430979900690285e+000	 1.019138611030946e+000	-4.535895052670896e-002
1	 4.420333566741421e+000	 1.064366866608685e+000	-8.425971047306785e-002
1	 4.409192856000539e+000	 1.109614040690050e+000	-1.290646116098667e-001
1	 4.397555414140287e+000	 1.154872581656271e+000	-1.792586662977405e-001
1	 4.385419029865138e+000	 1.200134847988272e+000	-2.342945151118022e-001
1	 4.372781638196507e+000	 1.245393111362680e+000	-2.935926115952293e-001
1	 4.359641323687431e+000	 1.290639559874549e+000	-3.565414643575190e-001
1	 4.345996323561553e+000	 1.335866301385387e+000	-4.224979374299516e-001
1	 4.486133883672388e+000	 8.888235930552790e-001	 2.286293312179094e-002
1	 4.476901345718530e+000	 9.342153750557224e-001	 9.520763835436281e-003
1	 4.467179465321620e+000	 9.796484024524531e-001	-1.050315552764013e-002
1	 4.456965463191335e+000	 1.025115368016482e+000	-3.682099406145353e-002
1	 4.446256693622319e+000	 1.070608865524384e+000	-6.901312850704729e-002
1	 4.435050647979574e+000	 1.116121392483815e+000	-1.066281397614371e-001
1	 4.423344958128768e+000	 1.161645352989399e+000	-1.491828617891787e-001
1	 4.411137399806195e+000	 1.207173060708235e+000	-1.961624841666194e-001
1	 4.398425895923182e+000	 1.252696741994063e+000	-2.470207093955903e-001
1	 4.385208519799599e+000	 1.298208539128881e+000	-3.011799660239082e-001
1	 4.371483498321260e+000	 1.343700513690607e+000	-3.580316785046400e-001
1	 4.512289533734597e+000	 8.940057297174857e-001	 1.483044038471833e-002
1	 4.503003167018644e+000	 9.396621608781911e-001	 5.714312196768366e-003
1	 4.493224604830710e+000	 9.853600779095113e-001	-9.476634632062542e-003
1	 4.482951051676290e+000	 1.031092130978891e+000	-3.038649497080777e-002
1	 4.472179846424698e+000	 1.076850870682165e+000	-5.662929459124978e-002
1	 4.460908465814776e+000	 1.122628750784973e+000	-8.778897735387047e-002
1	 4.449134527905187e+000	 1.168418131095294e+000	-1.234194419326759e-001
1	 4.436855795464037e+000	 1.214211280466358e+000	-1.630446292598626e-001
1	 4.424070179292549e+000	 1.260000379928967e+000	-2.061586617834491e-001
1	 4.410775741477422e+000	 1.305777525952022e+000	-2.522260355372260e-001
1	 4.396970698566631e+000	 1.351534733829807e+000	-3.006818659229780e-001
1	 4.538445216489230e+000	 8.991878728573967e-001	 7.158716040197081e-003
1	 4.529105020943929e+000	 9.451089535091676e-001	 1.474060395069384e-003
1	 4.519269776894151e+000	 9.910717605061750e-001	-9.655954153914662e-003
1	 4.508936672641196e+000	 1.037068901412242e+000	-2.590975292925506e-002
1	 4.498103031629028e+000	 1.083092883642414e+000	-4.693832780242527e-002
1	 4.486766315970298e+000	 1.129136117220259e+000	-7.236522833834433e-002
1	 4.474924129916655e+000	 1.175190917667052e+000	-1.017865983351910e-001
1	 4.462574223268007e+000	 1.221249509022102e+000	-1.347712588348290e-001
1	 4.449714494715444e+000	 1.267304026993219e+000	-1.708608385983272e-001
1	 4.436342995112481e+000	 1.313346522236146e+000	-2.095699529547513e-001
1	 4.422457930669241e+000	 1.359368963761479e+000	-2.503864318401797e-001
1	 4.564600938474771e+000	 9.043700237704185e-001	-1.525236128034588e-004
1	 4.555206914019435e+000	 9.505557543102214e-001	-3.140725395513818e-003
1	 4.545314988022852e+000	 9.967834516702375e-001	-1.093430580013949e-002
1	 4.534922332582100e+000	 1.043045680810607e+000	-2.324839524677709e-002
1	 4.524026255715766e+000	 1.089334905965518e+000	-3.977422846812657e-002
1	 4.512624204910296e+000	 1.135643493416402e+000	-6.017915275395962e-002
1	 4.500713770610291e+000	 1.181963714397768e+000	-8.410667617802603e-002
1	 4.488292689647441e+000	 1.228287748134932e+000	-1.111765567208636e-001
1	 4.475358848602695e+000	 1.274607685012647e+000	-1.409849331297469e-001
1	 4.461910287096350e+000	 1.320915529873429e+000	-1.731044982801959e-001
1	 4.447945201000673e+000	 1.367203205444115e+000	-2.070847157221730e-001
1	 4.590756706229706e+000	 9.095521837519599e-001	-7.103546074037837e-003
1	 4.581308852770215e+000	 9.560025646429226e-001	-8.072119079213241e-003
1	 4.571360244727722e+000	 1.002495152829494e+000	-1.320730405988368e-002
1	 4.560908037995049e+000	 1.049022470668055e+000	-2.226328182304240e-002
1	 4.549949525165379e+000	 1.095576939211864e+000	-3.497476732887105e-002
1	 4.538482139098918e+000	 1.142150881000136e+000	-5.105704803973459e-002
1	 4.526503456433209e+000	 1.188736522980538e+000	-7.020605557959932e-002
1	 4.514011201031685e+000	 1.235325999564314e+000	-9.209847139980369e-002
1	 4.501003247365126e+000	 1.281911355813081e+000	-1.163918670850739e-001
1	 4.487477623820609e+000	 1.328484550756046e+000	-1.427248798681595e-001
1	 4.473432515932508e+000	 1.375037460836209e+000	-1.707174238522054e-001
1	 4.616912526292515e+000	 9.147343540974277e-001	-1.369460291736427e-002
1	 4.607410843721322e+000	 9.614493858688408e-001	-1.326349647524056e-002
1	 4.597405553519670e+000	 1.008206865411738e+000	-1.637291735190816e-002
1	 4.586893795376091e+000	 1.054999272478657e+000	-2.281841333592894e-002
1	 4.575872846458330e+000	 1.101818984941837e+000	-3.238137847205350e-002
1	 4.564340125000325e+000	 1.148658281598193e+000	-4.482913438546862e-002
1	 4.552293193832522e+000	 1.195509345108456e+000	-5.991503699532320e-002
1	 4.539729763850074e+000	 1.242364265069712e+000	-7.737860904058645e-002
1	 4.526647697413574e+000	 1.289215041220347e+000	-9.694569879120908e-002
1	 4.513045011676836e+000	 1.336053586776172e+000	-1.183286652650020e-001
1	 4.498919881836328e+000	 1.382871731896253e+000	-1.412265902154834e-001
1	 4.643068405201682e+000	 9.199165361022299e-001	-1.992593005687283e-002
1	 4.633512893397807e+000	 9.668962193495462e-001	-1.865949844575913e-002
1	 4.623450920909602e+000	 1.013918590844765e+000	-2.033140150184033e-002
1	 4.612879611221273e+000	 1.060976087736484e+000	-2.478084253672654e-002
1	 4.601796226075082e+000	 1.108061044715826e+000	-3.183905588868201e-002
1	 4.590198169078671e+000	 1.155165696837305e+000	-4.132944396202615e-002
1	 4.578082989255348e+000	 1.202282182474619e+000	-5.306773049526373e-002
1	 4.565448384531957e+000	 1.249402546410591e+000	-6.686213015330453e-002
1	 4.552292205158868e+000	 1.296518743060276e+000	-8.251353450255002e-002
1	 4.538612457056609e+000	 1.343622639825983e+000	-9.981571438985860e-002
1	 4.524407305083716e+000	 1.390706020582740e+000	-1.185555387073811e-001
1	 4.269534888480566e+000	 1.312363691888676e+000	-6.592380713966125e-001
1	 4.255632565876872e+000	 1.356767545539909e+000	-7.598476269454473e-001
1	 4.241231428808608e+000	 1.401136305660351e+000	-8.636719253455238e-001
1	 4.226330206727042e+000	 1.445461999293613e+000	-9.698936918015341e-001
1	 4.210927790553208e+000	 1.489736588820483e+000	-1.077644626070139e+000
1	 4.195023235321111e+000	 1.533951975835254e+000	-1.186005749138644e+000
1	 4.178615762716243e+000	 1.578100005132252e+000	-1.294007842652038e+000
1	 4.161704763504535e+000	 1.622172468799514e+000	-1.400631982227381e+000
1	 4.144289799846913e+000	 1.666161110416385e+000	-1.504810165592948e+000
1	 4.126370607494755e+000	 1.710057629351524e+000	-1.605426036279801e+000
1	 4.107947097861664e+000	 1.753853685157622e+000	-1.701315703376887e+000
1	 4.295022025012785e+000	 1.320197892442914e+000	-5.730353553089340e-001
1	 4.281036712012197e+000	 1.364866816437977e+000	-6.623259836768275e-001
1	 4.266549606856836e+000	 1.409500437410215e+000	-7.543913036076713e-001
1	 4.251559431413378e+000	 1.454090734808399e+000	-8.485077181015761e-001
1	 4.236065069982165e+000	 1.498629623032470e+000	-9.439107454741340e-001
1	 4.220065571956186e+000	 1.543108955333008e+000	-1.039795394222980e+000
1	 4.203560154374750e+000	 1.587520527821554e+000	-1.135316613702159e+000
1	 4.186548204366940e+000	 1.631856083588732e+000	-1.229589821353268e+000
1	 4.169029281479970e+000	 1.676107316926896e+000	-1.321691507074035e+000
1	 4.151003119887775e+000	 1.720265877653798e+000	-1.410659915130529e+000
1	 4.132469630475130e+000	 1.764323375533540e+000	-1.495495803839554e+000
1	 4.320509167915921e+000	 1.328032094955653e+000	-4.941441597827522e-001
1	 4.306440864497702e+000	 1.372966089360724e+000	-5.727285595929139e-001
1	 4.291867791233776e+000	 1.417864571250883e+000	-6.537692212121226e-001
1	 4.276788662406223e+000	 1.462719472480056e+000	-7.366280395225825e-001
1	 4.261202355694691e+000	 1.507522659467327e+000	-8.206345025176941e-001
1	 4.245107914851145e+000	 1.552265937119550e+000	-9.050860804254862e-001
1	 4.228504552268713e+000	 1.596941052865475e+000	-9.892486763198890e-001
1	 4.211391651439615e+000	 1.641539700798301e+000	-1.072357138657340e+000
1	 4.193768769297368e+000	 1.686053525923383e+000	-1.153615836036875e+000
1	 4.175635638438451e+000	 1.730474128507555e+000	-1.232199294337018e+000
1	 4.156992169218810e+000	 1.774793068526321e+000	-1.307252896235155e+000
1	 4.345996323561553e+000	 1.335866301385387e+000	-4.224979374299516e-001
1	 4.331845029684224e+000	 1.381065366332917e+000	-4.910352088292465e-001
1	 4.317185988268775e+000	 1.426228709273348e+000	-5.618100280554734e-001
1	 4.302017906012684e+000	 1.471348214465735e+000	-6.342617047151888e-001
1	 4.286339653974895e+000	 1.516415700348281e+000	-7.078039765638767e-001
1	 4.270150270266356e+000	 1.561422923484098e+000	-7.818253991223806e-001
1	 4.253448962634001e+000	 1.606361582619120e+000	-8.556897850576287e-001
1	 4.236235110933194e+000	 1.651223322849098e+000	-9.287366935321909e-001
1	 4.218508269483743e+000	 1.695999739892365e+000	-1.000281969611068e+000
1	 4.200268169304669e+000	 1.740682384464818e+000	-1.069618333694944e+000
1	 4.181514720223089e+000	 1.785262766753336e+000	-1.136016020826977e+000
1	 4.371483498321260e+000	 1.343700513690607e+000	-3.580316785046400e-001
1	 4.357249213922601e+000	 1.389164649379327e+000	-4.172262406330984e-001
1	 4.342504204291177e+000	 1.434592853568603e+000	-4.785179574742557e-001
1	 4.327247168539863e+000	 1.479976962922586e+000	-5.414155824300290e-001
1	 4.311476971106893e+000	 1.525308747898565e+000	-6.054075090717417e-001
1	 4.295192644462189e+000	 1.570579916715873e+000	-6.699621476487911e-001
1	 4.278393391706491e+000	 1.615782119437594e+000	-7.345283422114097e-001
1	 4.261078589058305e+000	 1.660906952161998e+000	-7.985358283962356e-001
1	 4.243247788223721e+000	 1.705945961320360e+000	-8.613957318263803e-001
1	 4.224900718644309e+000	 1.750890648077604e+000	-9.225011069783256e-001
1	 4.206037289618354e+000	 1.795732472831950e+000	-9.812275162667299e-001
1	 4.396970698566631e+000	 1.351534733829807e+000	-3.006818659229780e-001
1	 4.382653423563671e+000	 1.397263940524723e+000	-3.512824057365058e-001
1	 4.367822445630329e+000	 1.442957006227640e+000	-4.038971291644389e-001
1	 4.352476456294863e+000	 1.488605720007758e+000	-4.580963662504777e-001
1	 4.336614313374794e+000	 1.534201804341407e+000	-5.134336954962646e-001
1	 4.320235043699010e+000	 1.579736919104094e+000	-5.694462938209808e-001
1	 4.303337845722058e+000	 1.625202665676005e+000	-6.256553205352294e-001
1	 4.285922092025571e+000	 1.670590591157880e+000	-6.815663352989585e-001
1	 4.267987331701934e+000	 1.715892192693890e+000	-7.366697499502884e-001
1	 4.249533292615256e+000	 1.761098921897935e+000	-7.904413140077853e-001
1	 4.230559883534988e+000	 1.806202189379531e+000	-8.423426335629139e-001
1	 4.422457930669241e+000	 1.359368963761479e+000	-2.503864318401797e-001
1	 4.408057664958273e+000	 1.405363241793874e+000	-2.931848832011237e-001
1	 4.393140718615578e+000	 1.451321169341453e+000	-3.379515519999276e-001
1	 4.377705775584789e+000	 1.497234487878403e+000	-3.843105791616093e-001
1	 4.361751687062711e+000	 1.543094871900039e+000	-4.318713774688307e-001
1	 4.345277474237193e+000	 1.588893932937980e+000	-4.802289416868074e-001
1	 4.328282330916576e+000	 1.634623223689457e+000	-5.289641886309282e-001
1	 4.310765626045626e+000	 1.680274242257618e+000	-5.776443271438967e-001
1	 4.292726906103013e+000	 1.725838436499470e+000	-6.258232578757953e-001
1	 4.274165897375392e+000	 1.771307208477830e+000	-6.730420026863666e-001
1	 4.255082508103374e+000	 1.816671919013446e+000	-7.188291634128569e-001
1	 4.447945201000673e+000	 1.367203205444115e+000	-2.070847157221730e-001
1	 4.433461944457242e+000	 1.413462555211549e+000	-2.429152677159081e-001
1	 4.418459029576267e+000	 1.459685345001031e+000	-2.806851267540913e-001
1	 4.402935132716746e+000	 1.505863268691669e+000	-3.200645779619608e-001
1	 4.386889098454756e+000	 1.551987952797688e+000	-3.607096352468847e-001
1	 4.370319942337102e+000	 1.598050960506750e+000	-4.022622984550822e-001
1	 4.353226853525914e+000	 1.644043795833055e+000	-4.443508389061444e-001
1	 4.335609197329095e+000	 1.689957907882090e+000	-4.865901133441773e-001
1	 4.317466517611591e+000	 1.735784695223622e+000	-5.285819062766775e-001
1	 4.298798539082598e+000	 1.781515510369310e+000	-5.699153006027956e-001
1	 4.279605169453902e+000	 1.827141664351063e+000	-6.101670763617094e-001
1	 4.473432515932508e+000	 1.375037460836209e+000	-1.707174238522054e-001
1	 4.458866268411421e+000	 1.421561882802518e+000	-2.004555573296059e-001
1	 4.443777384841743e+000	 1.468049535297369e+000	-2.321016487282391e-001
1	 4.428164533997837e+000	 1.514492064604708e+000	-2.653645575243989e-001
1	 4.412026553835039e+000	 1.560881049257587e+000	-2.999377804220377e-001
1	 4.395362454259105e+000	 1.607208004099624e+000	-3.354996425567934e-001
1	 4.378171419785953e+000	 1.653464384461907e+000	-3.717135179978258e-001
1	 4.360452812086606e+000	 1.699641590452172e+000	-4.082280797335173e-001
1	 4.342206172412295e+000	 1.745730971352862e+000	-4.446775792597224e-001
1	 4.323431223894759e+000	 1.791723830124395e+000	-4.806821558200421e-001
1	 4.304127873716955e+000	 1.837611428009748e+000	-5.158481752762837e-001
1	 4.498919881836328e+000	 1.382871731896253e+000	-1.412265902154834e-001
1	 4.484270643171641e+000	 1.429661226591549e+000	-1.657881416007007e-001
1	 4.469095790741352e+000	 1.476413742321459e+000	-1.922048102907217e-001
1	 4.453393985735166e+000	 1.523120877774670e+000	-2.202165549120118e-001
1	 4.437164059487675e+000	 1.569774163502965e+000	-2.495453488764111e-001
1	 4.420405016263574e+000	 1.616365066005822e+000	-2.798952927931896e-001
1	 4.403116035932563e+000	 1.662884991931116e+000	-3.109527595634006e-001
1	 4.385296476528788e+000	 1.709325292388740e+000	-3.423865725637761e-001
1	 4.366945876689758e+000	 1.755677267373712e+000	-3.738482172561852e-001
1	 4.348063957969758e+000	 1.801932170295104e+000	-4.049720864845926e-001
1	 4.328650627022915e+000	 1.848081212606869e+000	-4.353757596448435e-001
1	 4.524407305083716e+000	 1.390706020582740e+000	-1.185555387073811e-001
1	 4.509675075088746e+000	 1.437760588603412e+000	-1.388957901484532e-001
1	 4.494414253604441e+000	 1.484777968164294e+000	-1.609982033301720e-001
1	 4.478623494235841e+000	 1.531749710358706e+000	-1.846264533548738e-001
1	 4.462301621696776e+000	 1.578667297757051e+000	-2.095220939773566e-001
1	 4.445447634610877e+000	 1.625522148514563e+000	-2.354045785279177e-001
1	 4.428060708201621e+000	 1.672305620595791e+000	-2.619713193461778e-001
1	 4.410140196866269e+000	 1.719009016112672e+000	-2.888977864277481e-001
1	 4.391685636628613e+000	 1.765623585772688e+000	-3.158376459060926e-001
1	 4.372696747465477e+000	 1.812140533433459e+000	-3.424229389082634e-001
1	 4.353173435502172e+000	 1.858551020759794e+000	-3.682643012359826e-001
1	 4.107947097861664e+000	 1.753853685157622e+000	-1.701315703376887e+000
1	 4.089022237317836e+000	 1.797534358250065e+000	-1.790670501430182e+000
1	 4.069593571258428e+000	 1.841097824563030e+000	-1.872493767241924e+000
1	 4.049661552156451e+000	 1.884535657582464e+000	-1.946803014266567e+000
1	 4.029226814984733e+000	 1.927839409546484e+000	-2.013669997598610e+000
1	 4.008290178599602e+000	 1.971000616255271e+000	-2.073221079611137e+000
1	 3.986852646976334e+000	 2.014010801950552e+000	-2.125637503670581e+000
1	 3.964915410292882e+000	 2.056861484259474e+000	-2.171155573957683e+000
1	 3.942479845858591e+000	 2.099544179197508e+000	-2.210066739626880e+000
1	 3.919547518884828e+000	 2.142050406224803e+000	-2.242717581746726e+000
1	 3.896120183094670e+000	 2.184371693350319e+000	-2.269509701683110e+000
1	 4.132469630475130e+000	 1.764323375533540e+000	-1.495495803839553e+000
1	 4.113431797320074e+000	 1.808264801918528e+000	-1.575034691908363e+000
1	 4.093887151164926e+000	 1.852088321854113e+000	-1.648777967314389e+000
1	 4.073836147183756e+000	 1.895785458523871e+000	-1.716689285149958e+000
1	 4.053279424139898e+000	 1.939347713736705e+000	-1.778770983445920e+000
1	 4.032217805777887e+000	 1.982766572765458e+000	-1.835064378364799e+000
1	 4.010652302066275e+000	 2.026033509255521e+000	-1.885649993985484e+000
1	 3.988584110287832e+000	 2.069139990198221e+000	-1.930647725224393e+000
1	 3.966014615973810e+000	 2.112077480963578e+000	-1.970216932580575e+000
1	 3.942945393679174e+000	 2.154837450386865e+000	-2.004556467542317e+000
1	 3.919378207595922e+000	 2.197411375903190e+000	-2.033904627648647e+000
1	 4.156992169218810e+000	 1.774793068526321e+000	-1.307252896235155e+000
1	 4.137841363424330e+000	 1.818995248269089e+000	-1.378097460192599e+000
1	 4.118180737144486e+000	 1.863078821892374e+000	-1.444593631625211e+000
1	 4.098010748254415e+000	 1.907035262277361e+000	-1.506661086764393e+000
1	 4.077332039307959e+000	 1.950856020803727e+000	-1.564244790763429e+000
1	 4.056145438937857e+000	 1.994532532216958e+000	-1.617315229925081e+000
1	 4.034451963105935e+000	 2.038056219566090e+000	-1.665868601353301e+000
1	 4.012252816199793e+000	 2.081418499206607e+000	-1.709926959020664e+000
1	 3.989549391972591e+000	 2.124610785863070e+000	-1.749538315336323e+000
1	 3.966343274322895e+000	 2.167624497745854e+000	-1.784776697395970e+000
1	 3.942636237911626e+000	 2.210451061716201e+000	-1.815742157197323e+000
1	 4.181514720223089e+000	 1.785262766753336e+000	-1.136016020826977e+000
1	 4.162250941732745e+000	 1.829725699984286e+000	-1.199146590379268e+000
1	 4.142474335270258e+000	 1.874069327425340e+000	-1.259115144352756e+000
1	 4.122185361411839e+000	 1.918285071655267e+000	-1.315807079301128e+000
1	 4.101384666501830e+000	 1.962364333624481e+000	-1.369121825038049e+000
1	 4.080073084061181e+000	 2.006298497551087e+000	-1.418973021287303e+000
1	 4.058251636045005e+000	 2.050078935887735e+000	-1.465288670940086e+000
1	 4.035921533945723e+000	 2.093697014354039e+000	-1.508011269291854e+000
1	 4.013084179738415e+000	 2.137144097029069e+000	-1.547097908681924e+000
1	 3.989741166665249e+000	 2.180411551498271e+000	-1.582520358011835e+000
1	 3.965894279856078e+000	 2.223490754048992e+000	-1.614265116674385e+000
1	 4.206037289618354e+000	 1.795732472831950e+000	-9.812275162667299e-001
1	 4.186660538347462e+000	 1.840456159746657e+000	-1.037486459413134e+000
1	 4.166767951615396e+000	 1.885059841200544e+000	-1.091536127485268e+000
1	 4.146359992699433e+000	 1.929534889469920e+000	-1.143237160416668e+000
1	 4.125437311734429e+000	 1.973872655075903e+000	-1.192455088375140e+000
1	 4.104000747129545e+000	 2.018064471709167e+000	-1.239060460133228e+000
1	 4.082051326833178e+000	 2.062101661225940e+000	-1.282928963613114e+000
1	 4.059590269442583e+000	 2.105975538709923e+000	-1.323941538293088e+000
1	 4.036618985154762e+000	 2.149677417594655e+000	-1.361984479179472e+000
1	 4.013139076555490e+000	 2.193198614840611e+000	-1.396949532064842e+000
1	 3.989152339243564e+000	 2.236530456161203e+000	-1.428733979812193e+000
1	 4.230559883534988e+000	 1.806202189379531e+000	-8.423426335629139e-001
1	 4.211070159370624e+000	 1.851186630238740e+000	-8.924375555680293e-001
1	 4.191061592253049e+000	 1.896050365965515e+000	-9.410688826435986e-001
1	 4.170534648160610e+000	 1.940784718533653e+000	-9.880818491056764e-001
1	 4.149489981018677e+000	 1.985380988034921e+000	-1.033319523989728e+000
1	 4.127928434124628e+000	 2.029830457632516e+000	-1.076622898351375e+000
1	 4.105851041420148e+000	 2.074124398586184e+000	-1.117830976725407e+000
1	 4.083259028607333e+000	 2.118254075343664e+000	-1.156780872679929e+000
1	 4.060153814105110e+000	 2.162210750692910e+000	-1.193307908392617e+000
1	 4.036537009842877e+000	 2.205985690969373e+000	-1.227245718165864e+000
1	 4.012410421888376e+000	 2.249570171312477e+000	-1.258426355787697e+000
1	 4.255082508103374e+000	 1.816671919013446e+000	-7.188291634128566e-001
1	 4.235479810904371e+000	 1.861917114143071e+000	-7.633360135967152e-001
1	 4.215355263256366e+000	 1.907040904467783e+000	-8.069438522269647e-001
1	 4.194709333838777e+000	 1.952034561658800e+000	-8.494916909028628e-001
1	 4.173542680367494e+000	 1.996889335378473e+000	-8.908113833900606e-001
1	 4.151856151028107e+000	 2.041596458262454e+000	-9.307276789755415e-001
1	 4.129650785755607e+000	 2.086147150973949e+000	-9.690582884132453e-001
1	 4.106927817356930e+000	 2.130532627324669e+000	-1.005613962582092e+000
1	 4.083688672472943e+000	 2.174744099456915e+000	-1.040198583949791e+000
1	 4.059934972376665e+000	 2.218772783081055e+000	-1.072609270906486e+000
1	 4.035668533604805e+000	 2.262609902762454e+000	-1.102636495002263e+000
1	 4.279605169453902e+000	 1.827141664351063e+000	-6.101670763617094e-001
1	 4.259889499050845e+000	 1.872647614142192e+000	-6.495331658805172e-001
1	 4.239648970698495e+000	 1.918031459454879e+000	-6.884090991055855e-001
1	 4.218884055777344e+000	 1.963284421657692e+000	-7.266366835573689e-001
1	 4.197595415793796e+000	 2.008397699983488e+000	-7.640476153421745e-001
1	 4.175783903821666e+000	 2.053362476540301e+000	-8.004635056012187e-001
1	 4.153450565789250e+000	 2.098169921394717e+000	-8.356959244624208e-001
1	 4.130596641608336e+000	 2.142811197722343e+000	-8.695464627372977e-001
1	 4.107223566141736e+000	 2.187277467019753e+000	-9.018068115665007e-001
1	 4.083332970006111e+000	 2.231559894372153e+000	-9.322588601769182e-001
1	 4.058926680207141e+000	 2.275649653770777e+000	-9.606748118721441e-001
1	 4.304127873716955e+000	 1.837611428009748e+000	-5.158481752762837e-001
1	 4.284299229912194e+000	 1.883378132918639e+000	-5.503951089400079e-001
1	 4.263942720652592e+000	 1.929022033674333e+000	-5.847298041198000e-001
1	 4.243058820019718e+000	 1.974534301342661e+000	-6.187057223622262e-001
1	 4.221648193310499e+000	 2.019906084726900e+000	-6.521652757458802e-001
1	 4.199711698486983e+000	 2.065128515407376e+000	-6.849398333823653e-001
1	 4.177250387470769e+000	 2.110192712853969e+000	-7.168497468421513e-001
1	 4.154265507278509e+000	 2.155089789606091e+000	-7.477043948046153e-001
1	 4.130758500994972e+000	 2.199810856514507e+000	-7.773022471899872e-001
1	 4.106731008580471e+000	 2.244347028039165e+000	-8.054309489876770e-001
1	 4.082184867509671e+000	 2.288689427597086e+000	-8.318674239504921e-001
1	 4.328650627022915e+000	 1.848081212606869e+000	-4.353757596448435e-001
1	 4.308709009590553e+000	 1.894108673154950e+000	-4.653022846967936e-001
1	 4.288236519191803e+000	 1.940012629873676e+000	-4.951877806787128e-001
1	 4.267233632609309e+000	 1.985784203526040e+000	-5.249060643586747e-001
1	 4.245701018930528e+000	 2.031414492485641e+000	-5.543209575920141e-001
1	 4.223639541005738e+000	 2.076894577804998e+000	-5.832862807518879e-001
1	 4.201050256749856e+000	 2.122215528357184e+000	-6.116458630465106e-001
1	 4.177934420284409e+000	 2.167368406045322e+000	-6.392335700162458e-001
1	 4.154293482916130e+000	 2.212344271074256e+000	-6.658733484673141e-001
1	 4.130129093949002e+000	 2.257134187278590e+000	-6.913792890603329e-001
1	 4.105443101326692e+000	 2.301729227501026e+000	-7.155557067324589e-001
1	 4.353173435502172e+000	 1.858551020759794e+000	-3.682643012359826e-001
1	 4.333118844188068e+000	 1.904839237533664e+000	-3.936490759041887e-001
1	 4.312530372389279e+000	 1.951003250800439e+000	-4.190810057833559e-001
1	 4.291408499589530e+000	 1.997034131020163e+000	-4.444628106700862e-001
1	 4.269753898666800e+000	 2.042922926136646e+000	-4.696902402081318e-001
1	 4.247567437359612e+000	 2.088660666674489e+000	-4.946520610476821e-001
1	 4.224850179576209e+000	 2.134238370909848e+000	-5.192300554218595e-001
1	 4.201603386542995e+000	 2.179647050109439e+000	-5.432990313651155e-001
1	 4.177828517788692e+000	 2.224877713832085e+000	-5.667268447740381e-001
1	 4.153527231960959e+000	 2.269921375286926e+000	-5.893744334859470e-001
1	 4.128701387472490e+000	 2.314769056742235e+000	-6.110958635243641e-001
1	 3.896120183094670e+000	 2.184371693350319e+000	-2.269509701683110e+000
1	 3.872196156391829e+000	 2.226505887565815e+000	-2.287819897551332e+000
1	 3.847781051657800e+000	 2.268438184788724e+000	-2.295080336948808e+000
1	 3.822877194375688e+000	 2.310160168438054e+000	-2.291862055483755e+000
1	 3.797487099402197e+000	 2.351663451361818e+000	-2.278781493654286e+000
1	 3.771613470733660e+000	 2.392939681090943e+000	-2.256499805588516e+000
1	 3.745259201099025e+000	 2.433980545103553e+000	-2.225722082979597e+000
1	 3.718427371378763e+000	 2.474777776093069e+000	-2.187196494924852e+000
1	 3.691121249848879e+000	 2.515323157233418e+000	-2.141713344598208e+000
1	 3.663344291249592e+000	 2.555608527434690e+000	-2.090104043904533e+000
1	 3.635100135678463e+000	 2.595625786582434e+000	-2.033240007483399e+000
1	 3.919378207595922e+000	 2.197411375903190e+000	-2.033904627648646e+000
1	 3.895311365586440e+000	 2.239797091651857e+000	-2.055457195607592e+000
1	 3.870750514038508e+000	 2.281979705176810e+000	-2.066517715489245e+000
1	 3.845697992317274e+000	 2.323950749653989e+000	-2.067563005190774e+000
1	 3.820156330291953e+000	 2.365701787864013e+000	-2.059116486339284e+000
1	 3.794128248100461e+000	 2.407224417477454e+000	-2.041747648423482e+000
1	 3.767616655739987e+000	 2.448510276350555e+000	-2.016071427021097e+000
1	 3.740624652482406e+000	 2.489551047824762e+000	-1.982747496501010e+000
1	 3.713155526113802e+000	 2.530338466023375e+000	-1.942479477798878e+000
1	 3.685212751997570e+000	 2.570864321138577e+000	-1.896014062085263e+000
1	 3.656799991960951e+000	 2.611120464702003e+000	-1.844140051366267e+000
1	 3.942636237911626e+000	 2.210451061716201e+000	-1.815742157197323e+000
1	 3.918426580559851e+000	 2.253088299060945e+000	-1.839563102934544e+000
1	 3.893719982161631e+000	 2.295521228950526e+000	-1.853514571906709e+000
1	 3.868518795964158e+000	 2.337741334317804e+000	-1.857984474548804e+000
1	 3.842825566849163e+000	 2.379740127875997e+000	-1.853407692022762e+000
1	 3.816643031096151e+000	 2.421509157435315e+000	-1.840265683394059e+000
1	 3.789974115970546e+000	 2.463040011230107e+000	-1.819086007198411e+000
1	 3.762821939135638e+000	 2.504324323249834e+000	-1.790441757484639e+000
1	 3.735189807887587e+000	 2.545353778567168e+000	-1.754950914636061e+000
1	 3.707081218212969e+000	 2.586120118656368e+000	-1.713275611490799e+000
1	 3.678499853668706e+000	 2.626615146695153e+000	-1.666121315500640e+000
1	 3.965894279856078e+000	 2.223490754048992e+000	-1.614265116674385e+000
1	 3.941541807090636e+000	 2.266379513115587e+000	-1.639488585058809e+000
1	 3.916689461769292e+000	 2.309062759494951e+000	-1.655519316059231e+000
1	 3.891339611021287e+000	 2.351531925876843e+000	-1.662661565795584e+000
1	 3.865494814740869e+000	 2.393778474907056e+000	-1.661266105977111e+000
1	 3.839157825349139e+000	 2.435793904535413e+000	-1.651729961901511e+000
1	 3.812331587379767e+000	 2.477569753374350e+000	-1.634496066519735e+000
1	 3.785019236887463e+000	 2.519097606061324e+000	-1.610052830396717e+000
1	 3.757224100678466e+000	 2.560369098618346e+000	-1.578933627607693e+000
1	 3.728949695362553e+000	 2.601375923801743e+000	-1.541716197822531e+000
1	 3.700199726226330e+000	 2.642109836435286e+000	-1.499021965044390e+000
1	 3.989152339243564e+000	 2.236530456161203e+000	-1.428733979812192e+000
1	 3.964657050957377e+000	 2.279670737138295e+000	-1.454599733675979e+000
1	 3.939658958603628e+000	 2.322604300195173e+000	-1.471993212092841e+000
1	 3.914160443193614e+000	 2.365322527778455e+000	-1.481140214240118e+000
1	 3.888164079634114e+000	 2.407816832466474e+000	-1.482311787095466e+000
1	 3.861672636487839e+000	 2.450078662348639e+000	-1.475824082157350e+000
1	 3.834689075556711e+000	 2.492099506415425e+000	-1.462038131276263e+000
1	 3.807216551286875e+000	 2.533870899952260e+000	-1.441359541207409e+000
1	 3.779258409994675e+000	 2.575384429930460e+000	-1.414238106695856e+000
1	 3.750818188913088e+000	 2.616631740388381e+000	-1.381167342108363e+000
1	 3.721899615058423e+000	 2.657604537795814e+000	-1.342683931832058e+000
1	 4.012410421888376e+000	 2.249570171312477e+000	-1.258426355787697e+000
1	 3.987772317938652e+000	 2.292961974451581e+000	-1.284277327802657e+000
1	 3.962628478406766e+000	 2.336145854436272e+000	-1.302410005459992e+000
1	 3.936981298186090e+000	 2.379113143469984e+000	-1.312976873880676e+000
1	 3.910833367195940e+000	 2.421855204063538e+000	-1.316173594810244e+000
1	 3.884187470140660e+000	 2.464363434445877e+000	-1.312238970078048e+000
1	 3.857046586090441e+000	 2.506629273985478e+000	-1.301454828569884e+000
1	 3.829413887882881e+000	 2.548644208615681e+000	-1.284145836141794e+000
1	 3.801292741344446e+000	 2.590399776257064e+000	-1.260679228090340e+000
1	 3.772686704331336e+000	 2.631887572229962e+000	-1.231464463985663e+000
1	 3.743599525589591e+000	 2.673099254650146e+000	-1.196952804867750e+000
1	 4.035668533604805e+000	 2.262609902762454e+000	-1.102636495002263e+000
1	 4.010887613813039e+000	 2.306253228377955e+000	-1.127916410120487e+000
1	 3.985598026920840e+000	 2.349687425603333e+000	-1.146255562849823e+000
1	 3.959802181703660e+000	 2.392903776398775e+000	-1.157738213905936e+000
1	 3.933502683093391e+000	 2.435893593207532e+000	-1.162488935118953e+000
1	 3.906702331936014e+000	 2.478648224398017e+000	-1.160672667764600e+000
1	 3.879404124570022e+000	 2.521159059716648e+000	-1.152494710157671e+000
1	 3.851611252224484e+000	 2.563417535744618e+000	-1.138200633788737e+000
1	 3.823327100236012e+000	 2.605415141351707e+000	-1.118076127456597e+000
1	 3.794555247084062e+000	 2.647143423140168e+000	-1.092446769024783e+000
1	 3.765299463244429e+000	 2.688593990871691e+000	-1.061677724608968e+000
1	 4.058926680207141e+000	 2.275649653770777e+000	-9.606748118721441e-001
1	 4.034002944359119e+000	 2.319544502239928e+000	-9.849258779021234e-001
1	 4.008567609887977e+000	 2.363229017081439e+000	-1.003027524511738e+000
1	 3.982623099451280e+000	 2.406694430012176e+000	-1.015000825642373e+000
1	 3.956172032993508e+000	 2.449932003407742e+000	-1.020903515351614e+000
1	 3.929217227502315e+000	 2.492933035775949e+000	-1.020830129262551e+000
1	 3.901761696584512e+000	 2.535688867241081e+000	-1.014912082359555e+000
1	 3.873808649860681e+000	 2.578190885032107e+000	-1.003317682300170e+000
1	 3.845361492177609e+000	 2.620430528967939e+000	-9.862520775658350e-001
1	 3.816423822638035e+000	 2.662399296932676e+000	-9.639571399308033e-001
1	 3.786999433447542e+000	 2.704088750333855e+000	-9.367112808891071e-001
1	 4.082184867509671e+000	 2.288689427597086e+000	-8.318674239504921e-001
1	 4.057118315355471e+000	 2.332835799360011e+000	-8.547280879368608e-001
1	 4.031537233050311e+000	 2.376770632255675e+000	-8.722349684775029e-001
1	 4.005444057133899e+000	 2.420485107757529e+000	-8.843509395307846e-001
1	 3.978841422563335e+000	 2.463970438173453e+000	-8.910711073307870e-001
1	 3.951732162467971e+000	 2.507217872150561e+000	-8.924230233117135e-001
1	 3.924119307722977e+000	 2.550218700190915e+000	-8.884668417870080e-001
1	 3.896006086340478e+000	 2.592964260171184e+000	-8.792954214774214e-001
1	 3.867395922677467e+000	 2.635445942859313e+000	-8.650343701129426e-001
1	 3.838292436460014e+000	 2.677655197421170e+000	-8.458420314687193e-001
1	 3.808699441623531e+000	 2.719583536910049e+000	-8.219094143333726e-001
1	 4.105443101326692e+000	 2.301729227501026e+000	-7.155557067324589e-001
1	 4.080233732580672e+000	 2.346127123060713e+000	-7.367584749002080e-001
1	 4.054506902149972e+000	 2.390312274511121e+000	-7.533980862094767e-001
1	 4.028265060456468e+000	 2.434275813082186e+000	-7.653841517337506e-001
1	 4.001510857469911e+000	 2.478008901013949e+000	-7.726533185909977e-001
1	 3.974247142461394e+000	 2.521502737092740e+000	-7.751695428080616e-001
1	 3.946476963574480e+000	 2.564748562198295e+000	-7.729243166617952e-001
1	 3.918203567212872e+000	 2.607737664854879e+000	-7.659368495505960e-001
1	 3.889430397243821e+000	 2.650461386779379e+000	-7.542542015560546e-001
1	 3.860161094016767e+000	 2.692911128419327e+000	-7.379513689642113e-001
1	 3.830399493196997e+000	 2.735078354473679e+000	-7.171313211294399e-001
1	 4.128701387472490e+000	 2.314769056742235e+000	-6.110958635243641e-001
1	 4.103349201813303e+000	 2.359418476664549e+000	-6.304651826366811e-001
1	 4.077476622929091e+000	 2.403853947232864e+000	-6.460478692239118e-001
1	 4.051086115123939e+000	 2.448066549433488e+000	-6.577051599939024e-001
1	 4.024180343380284e+000	 2.492047395438518e+000	-6.653193713393760e-001
1	 3.996762173110999e+000	 2.535787634173376e+000	-6.687942207129165e-001
1	 3.968834669728083e+000	 2.579278456895365e+000	-6.680551135039449e-001
1	 3.940401098026868e+000	 2.622511102776230e+000	-6.630493944657649e-001
1	 3.911464921384907e+000	 2.665476864481691e+000	-6.537465628189372e-001
1	 3.882029800775059e+000	 2.708167093740830e+000	-6.401384502388429e-001
1	 3.852099593592544e+000	 2.750573206898158e+000	-6.222393610203633e-001
1	 3.635100135678463e+000	 2.595625786582434e+000	-2.033240007483399e+000
1	 3.606392606282453e+000	 2.635366899875415e+000	-1.970887070926722e+000
1	 3.577225704752324e+000	 2.674823900322948e+000	-1.902314386562311e+000
1	 3.547603612821848e+000	 2.713988896438097e+000	-1.827701885220392e+000
1	 3.517530691503431e+000	 2.752854078213755e+000	-1.747261918582554e+000
1	 3.487011479119200e+000	 2.791411722183962e+000	-1.661239335610920e+000
1	 3.456050689161567e+000	 2.829654196428459e+000	-1.569911503467721e+000
1	 3.424653207985159e+000	 2.867573965513815e+000	-1.473588272424746e+000
1	 3.392824092332316e+000	 2.905163595364521e+000	-1.372611884399008e+000
1	 3.360568566694637e+000	 2.942415758057519e+000	-1.267356824889756e+000
1	 3.327892020513366e+000	 2.979323236533758e+000	-1.158229618232961e+000
1	 3.656799991960951e+000	 2.611120464702003e+000	-1.844140051366267e+000
1	 3.627921091973301e+000	 2.651098813948400e+000	-1.786557515713848e+000
1	 3.598580077613613e+000	 2.690791354327859e+000	-1.722637113359062e+000
1	 3.568781155578661e+000	 2.730190147244944e+000	-1.652729745752721e+000
1	 3.538528712914067e+000	 2.769287336070452e+000	-1.577219829198983e+000
1	 3.507827315033624e+000	 2.808075151232928e+000	-1.496525054749149e+000
1	 3.476681703567104e+000	 2.846545915253110e+000	-1.411096089166350e+000
1	 3.445096794038395e+000	 2.884692047714543e+000	-1.321416217124822e+000
1	 3.413077673376231e+000	 2.922506070163753e+000	-1.228000924955507e+000
1	 3.380629597259997e+000	 2.959980610933397e+000	-1.131397426398531e+000
1	 3.347757987303395e+000	 2.997108409881948e+000	-1.032184130970953e+000
1	 3.678499853668706e+000	 2.626615146695153e+000	-1.666121315500640e+000
1	 3.649449583046558e+000	 2.666830731954233e+000	-1.613110224040855e+000
1	 3.619934455813749e+000	 2.706758812324470e+000	-1.553689229544538e+000
1	 3.589958703630073e+000	 2.746391402101920e+000	-1.488358946858288e+000
1	 3.559526739574368e+000	 2.785720598035260e+000	-1.417654463993012e+000
1	 3.528643156152110e+000	 2.824738584447534e+000	-1.342144821281581e+000
1	 3.497312723130439e+000	 2.863437638300464e+000	-1.262432428573490e+000
1	 3.465540385202507e+000	 2.901810134194557e+000	-1.179152421220465e+000
1	 3.433331259483469e+000	 2.939848549298364e+000	-1.092971955765461e+000
1	 3.400690632840491e+000	 2.977545468200245e+000	-1.004589446404679e+000
1	 3.367623959059742e+000	 3.014893587676185e+000	-9.147337434467430e-001
1	 3.700199726226330e+000	 2.642109836435286e+000	-1.499021965044390e+000
1	 3.670978084883970e+000	 2.682562657825637e+000	-1.450387840046424e+000
1	 3.641288844690951e+000	 2.722726278304399e+000	-1.395316604810272e+000
1	 3.611136262270088e+000	 2.762592665059089e+000	-1.334437703307846e+000
1	 3.580524776733460e+000	 2.802153868216250e+000	-1.268415877048638e+000
1	 3.549459007678244e+000	 2.841402025993399e+000	-1.197950398928613e+000
1	 3.517943753008951e+000	 2.880329369793212e+000	-1.123774242463918e+000
1	 3.485983986588032e+000	 2.918928229233141e+000	-1.046653187680556e+000
1	 3.453584855717059e+000	 2.957191037103733e+000	-9.673848650988841e-001
1	 3.420751678451020e+000	 2.995110334249034e+000	-8.867977394162043e-001
1	 3.387489940748560e+000	 3.032678774362513e+000	-8.057500346512889e-001
1	 3.721899615058423e+000	 2.657604537795814e+000	-1.342683931832058e+000
1	 3.692506602867291e+000	 2.698294595495337e+000	-1.298236669959795e+000
1	 3.662643249583429e+000	 2.738693756259258e+000	-1.247368695533011e+000
1	 3.632313836792711e+000	 2.778793940166521e+000	-1.190817761660266e+000
1	 3.601522829640472e+000	 2.818587150721498e+000	-1.129357611135938e+000
1	 3.570274874815602e+000	 2.858065480036140e+000	-1.063797000044430e+000
1	 3.538574798360021e+000	 2.897221113954047e+000	-9.949786544749628e-001
1	 3.506427603305496e+000	 2.936046337109576e+000	-9.237781620630455e-001
1	 3.473838467140046e+000	 2.974533537915240e+000	-8.511028002500950e-001
1	 3.440812739106494e+000	 3.012675213470732e+000	-7.778903033234816e-001
1	 3.407355937335999e+000	 3.050463974386978e+000	-7.051075704649928e-001
1	 3.743599525589591e+000	 2.673099254650146e+000	-1.196952804867750e+000
1	 3.714035142378266e+000	 2.714026548896057e+000	-1.156506575626022e+000
1	 3.683997675829406e+000	 2.754661250180662e+000	-1.109698440484921e+000
1	 3.653491432491949e+000	 2.794995231474284e+000	-1.057354297562504e+000
1	 3.622520903544523e+000	 2.835020449659075e+000	-1.000336596258937e+000
1	 3.591090762767767e+000	 2.874728950741376e+000	-9.395431853251419e-001
1	 3.559205864341032e+000	 2.914112875005660e+000	-8.759060921422670e-001
1	 3.526871240465430e+000	 2.953164462103145e+000	-8.103902353011172e-001
1	 3.494092098815462e+000	 2.991876056068264e+000	-7.439920727526311e-001
1	 3.460873819821821e+000	 3.030240110256312e+000	-6.777381879767270e-001
1	 3.427221953788212e+000	 3.068249192195625e+000	-6.126838167866452e-001
1	 3.765299463244429e+000	 2.688593990871691e+000	-1.061677724608968e+000
1	 3.735563708798650e+000	 2.729758521960522e+000	-1.025050871717164e+000
1	 3.705352128767096e+000	 2.770628764060227e+000	-9.821621601541287e-001
1	 3.674669054661810e+000	 2.811196543032450e+000	-9.339058166048428e-001
1	 3.643519003694747e+000	 2.851453769137058e+000	-8.812130517154528e-001
1	 3.611906676738323e+000	 2.891392442274725e+000	-8.250507669887464e-001
1	 3.579836956109366e+000	 2.931004657170744e+000	-7.664201913614696e-001
1	 3.547314903178364e+000	 2.970282608493129e+000	-7.063554498547038e-001
1	 3.514345755806345e+000	 3.009218595898184e+000	-6.459220668754477e-001
1	 3.480934925611909e+000	 3.047805028996744e+000	-5.862154069283446e-001
1	 3.447087995071351e+000	 3.086034432234503e+000	-5.283590556696620e-001
1	 3.786999433447542e+000	 2.704088750333855e+000	-9.367112808891071e-001
1	 3.757092307510190e+000	 2.745490518621454e+000	-9.037262264814374e-001
1	 3.726706613734713e+000	 2.786596301889565e+000	-8.646194595305787e-001
1	 3.695846708596300e+000	 2.827397878891083e+000	-8.203340585886016e-001
1	 3.664517135340263e+000	 2.867887113263518e+000	-7.718503915280551e-001
1	 3.632722621930851e+000	 2.908055958801806e+000	-7.201847152876214e-001
1	 3.600468078822399e+000	 2.947896464671987e+000	-6.663877041382579e-001
1	 3.567758596554828e+000	 2.987400780558812e+000	-6.115429090922232e-001
1	 3.534599443175730e+000	 3.026561161740376e+000	-5.567651512686191e-001
1	 3.500996061491667e+000	 3.065369974082997e+000	-5.031988522130433e-001
1	 3.466954066151565e+000	 3.103819698949656e+000	-4.520163043448689e-001
1	 3.808699441623531e+000	 2.719583536910049e+000	-8.219094143333726e-001
1	 3.778620943894639e+000	 2.761222542811580e+000	-7.923925658890264e-001
1	 3.748061136070473e+000	 2.802563867660294e+000	-7.569331342188549e-001
1	 3.717024399589421e+000	 2.843599243100253e+000	-7.165039050701672e-001
1	 3.685515303730202e+000	 2.884320486146530e+000	-6.721151331114518e-001
1	 3.653538603548932e+000	 2.924719504488238e+000	-6.248130682204791e-001
1	 3.621099237637516e+000	 2.964788301732086e+000	-5.756784094955455e-001
1	 3.588202325705353e+000	 3.004518982579476e+000	-5.258246897735666e-001
1	 3.554853165986656e+000	 3.043903757930221e+000	-4.763965936328360e-001
1	 3.521057232475999e+000	 3.082934949906039e+000	-4.285682120444836e-001
1	 3.486820171995006e+000	 3.121604996787129e+000	-3.835412370146076e-001
1	 3.830399493196997e+000	 2.735078354473679e+000	-7.171313211294399e-001
1	 3.800149623333742e+000	 2.776954598463621e+000	-6.909129810397257e-001
1	 3.769415701112595e+000	 2.818531465364028e+000	-6.589690797459422e-001
1	 3.738202132935184e+000	 2.859800639710028e+000	-6.222832900511781e-001
1	 3.706513514113687e+000	 2.900753891894165e+000	-5.818768090478595e-001
1	 3.674354626796148e+000	 2.941383083499638e+000	-5.388068443167107e-001
1	 3.641730437712097e+000	 2.981680172573729e+000	-4.941650274123748e-001
1	 3.608646095740468e+000	 3.021637218834404e+000	-4.490757575112168e-001
1	 3.575106929302158e+000	 3.061246388803097e+000	-4.046944782925994e-001
1	 3.541118443579816e+000	 3.100499960856845e+000	-3.622058913126125e-001
1	 3.506686317567826e+000	 3.139390330192968e+000	-3.228221093081086e-001
1	 3.852099593592544e+000	 2.750573206898158e+000	-6.222393610203632e-001
1	 3.821678351209255e+000	 2.792686689510306e+000	-5.991536387036508e-001
1	 3.790770314199296e+000	 2.834499098992382e+000	-5.705962039377004e-001
1	 3.759379913927593e+000	 2.876002072770478e+000	-5.375431136907169e-001
1	 3.727511771739844e+000	 2.917187334614500e+000	-5.010078818476300e-001
1	 3.695170696876085e+000	 2.958046700001626e+000	-4.620399583718749e-001
1	 3.662361684203526e+000	 2.998572081419612e+000	-4.217231356749047e-001
1	 3.629089911770705e+000	 3.038755493602876e+000	-3.811738850919204e-001
1	 3.595360738185273e+000	 3.078589058694386e+000	-3.415396265585364e-001
1	 3.561179699818027e+000	 3.118065011326384e+000	-3.039969347711637e-001
1	 3.526552507836178e+000	 3.157175703613221e+000	-2.697496852930884e-001
1	 3.327892020513366e+000	 2.979323236533758e+000	-1.158229618232961e+000
1	 3.294805000137952e+000	 3.015873473340294e+000	-1.049980259137695e+000
1	 3.261308345935689e+000	 3.052065054294208e+000	-9.466440365120222e-001
1	 3.227407924036499e+000	 3.087891128237413e+000	-8.476193938617014e-001
1	 3.193109752621236e+000	 3.123344972753669e+000	-7.522924804880994e-001
1	 3.158419998366947e+000	 3.158419998366946e+000	-6.600381544788924e-001
1	 3.123344972753669e+000	 3.193109752621236e+000	-5.702210058060805e-001
1	 3.087891128237412e+000	 3.227407924036499e+000	-4.821963974111713e-001
1	 3.052065054294209e+000	 3.261308345935690e+000	-3.953115221111933e-001
1	 3.015873473340295e+000	 3.294805000137951e+000	-3.089064731196821e-001
1	 2.979323236533757e+000	 3.327892020513365e+000	-2.223153259438361e-001
1	 3.347757987303395e+000	 2.997108409881948e+000	-1.032184130970953e+000
1	 3.314473452812669e+000	 3.033876834594318e+000	-9.349687839480299e-001
1	 3.280776839171726e+000	 3.070284462445565e+000	-8.433946029429023e-001
1	 3.246674047528561e+000	 3.106324401379362e+000	-7.566499473785218e-001
1	 3.212171131989779e+000	 3.141989888849766e+000	-6.739090032825899e-001
1	 3.177274296044633e+000	 3.177274296044633e+000	-5.943331691933034e-001
1	 3.141989888849765e+000	 3.212171131989779e+000	-5.170724651912119e-001
1	 3.106324401379361e+000	 3.246674047528561e+000	-4.412669621171762e-001
1	 3.070284462445565e+000	 3.280776839171725e+000	-3.660482279842686e-001
1	 3.033876834594319e+000	 3.314473452812669e+000	-2.905407885481575e-001
1	 2.997108409881948e+000	 3.347757987303394e+000	-2.138635989667761e-001
1	 3.367623959059742e+000	 3.014893587676185e+000	-9.147337434467430e-001
1	 3.334141910404290e+000	 3.051880200348930e+000	-8.278538586024170e-001
1	 3.300245337274650e+000	 3.088503875151511e+000	-7.472181890972925e-001
1	 3.265940175836902e+000	 3.124757679129364e+000	-6.718347549783517e-001
1	 3.231232516123408e+000	 3.160634809606826e+000	-6.006957762332581e-001
1	 3.196128598435629e+000	 3.196128598435629e+000	-5.327793902464082e-001
1	 3.160634809606826e+000	 3.231232516123408e+000	-4.670513950060963e-001
1	 3.124757679129364e+000	 3.265940175836902e+000	-4.024670144116602e-001
1	 3.088503875151512e+000	 3.300245337274650e+000	-3.379726819720664e-001
1	 3.051880200348930e+000	 3.334141910404290e+000	-2.725078391409720e-001
1	 3.014893587676185e+000	 3.367623959059741e+000	-2.050067444986031e-001
1	 3.387489940748560e+000	 3.032678774362513e+000	-8.057500346512889e-001
1	 3.353810377829602e+000	 3.069883575104714e+000	-7.285166133071640e-001
1	 3.319713845111269e+000	 3.106723296966643e+000	-6.580087793589927e-001
1	 3.285206313777744e+000	 3.143190966095471e+000	-5.930834405980218e-001
1	 3.250293909787164e+000	 3.179279739685799e+000	-5.325803278262918e-001
1	 3.214982910253217e+000	 3.214982910253217e+000	-4.753239930247068e-001
1	 3.179279739685799e+000	 3.250293909787164e+000	-4.201258355069003e-001
1	 3.143190966095470e+000	 3.285206313777744e+000	-3.657861518045652e-001
1	 3.106723296966643e+000	 3.319713845111268e+000	-3.110962049677749e-001
1	 3.069883575104714e+000	 3.353810377829601e+000	-2.548403089148822e-001
1	 3.032678774362512e+000	 3.387489940748560e+000	-1.957979234309990e-001
1	 3.407355937335999e+000	 3.050463974386978e+000	-7.051075704649926e-001
1	 3.373478860005382e+000	 3.087886963362258e+000	-6.368409429121237e-001
1	 3.339182367548385e+000	 3.124942732445551e+000	-5.756628236254072e-001
1	 3.304472466167311e+000	 3.161624266885730e+000	-5.203077297078195e-001
1	 3.269355317746096e+000	 3.197924683747635e+000	-4.694918713496328e-001
1	 3.233837236210685e+000	 3.233837236210685e+000	-4.219153803843734e-001
1	 3.197924683747635e+000	 3.269355317746097e+000	-3.762645686785440e-001
1	 3.161624266885730e+000	 3.304472466167311e+000	-3.312142116042934e-001
1	 3.124942732445551e+000	 3.339182367548385e+000	-2.854298517783858e-001
1	 3.087886963362259e+000	 3.373478860005382e+000	-2.375701181996008e-001
1	 3.050463974386978e+000	 3.407355937335999e+000	-1.862890558804663e-001
1	 3.427221953788212e+000	 3.068249192195625e+000	-6.126838167866452e-001
1	 3.393147361848419e+000	 3.105890369622151e+000	-5.527134265022096e-001
1	 3.358650909452801e+000	 3.143162186142826e+000	-5.000791655945570e-001
1	 3.323738637821821e+000	 3.180057586108190e+000	-4.534213881769896e-001
1	 3.288416744765252e+000	 3.216569646453285e+000	-4.113612558680790e-001
1	 3.252691581021320e+000	 3.252691581021320e+000	-3.725031469137995e-001
1	 3.216569646453285e+000	 3.288416744765251e+000	-3.354370966079398e-001
1	 3.180057586108189e+000	 3.323738637821821e+000	-2.987412638695524e-001
1	 3.143162186142825e+000	 3.358650909452801e+000	-2.609844187672574e-001
1	 3.105890369622150e+000	 3.393147361848419e+000	-2.207284457273019e-001
1	 3.068249192195627e+000	 3.427221953788212e+000	-1.765308571253915e-001
1	 3.447087995071351e+000	 3.086034432234503e+000	-5.283590556696621e-001
1	 3.412815888275492e+000	 3.123893798384978e+000	-4.760232497724869e-001
1	 3.378119475691321e+000	 3.161381662613056e+000	-4.311589735346650e-001
1	 3.343004833557501e+000	 3.198490928370902e+000	-3.923401632555871e-001
1	 3.307478195609674e+000	 3.235214632463700e+000	-3.581209188955837e-001
1	 3.271545949398408e+000	 3.271545949398408e+000	-3.270380444333169e-001
1	 3.235214632463700e+000	 3.307478195609674e+000	-2.976136206059170e-001
1	 3.198490928370902e+000	 3.343004833557501e+000	-2.683576046051883e-001
1	 3.161381662613058e+000	 3.378119475691321e+000	-2.377704512321101e-001
1	 3.123893798384977e+000	 3.412815888275493e+000	-2.043457499574387e-001
1	 3.086034432234504e+000	 3.447087995071351e+000	-1.665728722990446e-001
1	 3.466954066151565e+000	 3.103819698949656e+000	-4.520163043448689e-001
1	 3.432484444203388e+000	 3.141897254151326e+000	-4.066621300751131e-001
1	 3.397588071130751e+000	 3.179601166410839e+000	-3.688056734366291e-001
1	 3.362271058190569e+000	 3.216924298281913e+000	-3.369817265877250e-001
1	 3.326539675044415e+000	 3.253859646439833e+000	-3.097048406965291e-001
1	 3.290400346055237e+000	 3.290400346055237e+000	-2.854719486824128e-001
1	 3.253859646439832e+000	 3.326539675044415e+000	-2.627650210477596e-001
1	 3.216924298281913e+000	 3.362271058190569e+000	-2.400537491922429e-001
1	 3.179601166410840e+000	 3.397588071130752e+000	-2.157982505290864e-001
1	 3.141897254151326e+000	 3.432484444203388e+000	-1.884517896675883e-001
1	 3.103819698949656e+000	 3.466954066151564e+000	-1.564635098884835e-001
1	 3.486820171995006e+000	 3.121604996787129e+000	-3.835412370146076e-001
1	 3.452153034548887e+000	 3.159900741421783e+000	-3.445242440313805e-001
1	 3.417056700637892e+000	 3.197820702090761e+000	-3.129248844542202e-001
1	 3.381537316537248e+000	 3.235357700449275e+000	-2.872656191750775e-001
1	 3.345601187834515e+000	 3.272504693042630e+000	-2.660485001509651e-001
1	 3.309254775705090e+000	 3.309254775705090e+000	-2.477578271469955e-001
1	 3.272504693042630e+000	 3.345601187834515e+000	-2.308628379036825e-001
1	 3.235357700449274e+000	 3.381537316537249e+000	-2.138204260428400e-001
1	 3.197820702090761e+000	 3.417056700637892e+000	-1.950778809530201e-001
1	 3.159900741421783e+000	 3.452153034548888e+000	-1.730756438396322e-001
1	 3.121604996787129e+000	 3.486820171995005e+000	-1.462500740870432e-001
1	 3.506686317567826e+000	 3.139390330192968e+000	-3.228221093081086e-001
1	 3.471821664228771e+000	 3.177904264696934e+000	-2.895061576070800e-001
1	 3.436525369079552e+000	 3.216040274207416e+000	-2.634243565412142e-001
1	 3.400803613413762e+000	 3.253791139481034e+000	-2.431131982132464e-001
1	 3.364662738745025e+000	 3.291149776933046e+000	-2.270888321217302e-001
1	 3.328109243061256e+000	 3.328109243061256e+000	-2.138497079815155e-001
1	 3.291149776933045e+000	 3.364662738745025e+000	-2.018792519318345e-001
1	 3.253791139481035e+000	 3.400803613413763e+000	-1.896485704710301e-001
1	 3.216040274207415e+000	 3.436525369079551e+000	-1.756191763835823e-001
1	 3.177904264696934e+000	 3.471821664228771e+000	-1.582457308692259e-001
1	 3.139390330192968e+000	 3.506686317567826e+000	-1.359787960458992e-001
1	 3.526552507836178e+000	 3.157175703613221e+000	-2.697496852930885e-001
1	 3.491490338159828e+000	 3.195907828477368e+000	-2.415067585539214e-001
1	 3.455994081322530e+000	 3.234259887315395e+000	-2.202139101987018e-001
1	 3.420069953636332e+000	 3.272224619985245e+000	-2.044475857270371e-001
1	 3.383724332540992e+000	 3.309794902772032e+000	-1.927641862641473e-001
1	 3.346963752837024e+000	 3.346963752837023e+000	-1.837026499826493e-001
1	 3.309794902772032e+000	 3.383724332540992e+000	-1.757870665077005e-001
1	 3.272224619985245e+000	 3.420069953636333e+000	-1.675293187710115e-001
1	 3.234259887315396e+000	 3.455994081322531e+000	-1.574317467065569e-001
1	 3.195907828477369e+000	 3.491490338159829e+000	-1.439898271253112e-001
1	 3.157175703613221e+000	 3.526552507836178e+000	-1.256948640681929e-001
1	 2.979323236533757e+000	 3.327892020513365e+000	-2.223153259438362e-001
1	 2.942415758057520e+000	 3.360568566694637e+000	-1.361724617665555e-001
1	 2.905163595364522e+000	 3.392824092332316e+000	-5.188340739403020e-002
1	 2.867573965513814e+000	 3.424653207985159e+000	 3.012521290254104e-002
1	 2.829654196428458e+000	 3.456050689161565e+000	 1.094552933364425e-001
1	 2.791411722183963e+000	 3.487011479119200e+000	 1.857375218793439e-001
1	 2.752854078213755e+000	 3.517530691503430e+000	 2.586316039130706e-001
1	 2.713988896438097e+000	 3.547603612821848e+000	 3.278264341567985e-001
1	 2.674823900322948e+000	 3.577225704752323e+000	 3.930402168972236e-001
1	 2.635366899875414e+000	 3.606392606282453e+000	 4.540205346784020e-001
1	 2.595625786582433e+000	 3.635100135678463e+000	 5.105443657353522e-001
1	 2.997108409881948e+000	 3.347757987303394e+000	-2.138635989667762e-001
1	 2.959980610933398e+000	 3.380629597259997e+000	-1.363808893015722e-001
1	 2.922506070163753e+000	 3.413077673376230e+000	-5.949656446114324e-002
1	 2.884692047714542e+000	 3.445096794038394e+000	 1.616816636456049e-002
1	 2.846545915253110e+000	 3.476681703567104e+000	 9.001806822807923e-002
1	 2.808075151232929e+000	 3.507827315033624e+000	 1.614845353218906e-001
1	 2.769287336070453e+000	 3.538528712914067e+000	 2.300261963692821e-001
1	 2.730190147244945e+000	 3.568781155578661e+000	 2.951294695819930e-001
1	 2.690791354327859e+000	 3.598580077613613e+000	 3.563090663892113e-001
1	 2.651098813948400e+000	 3.627921091973301e+000	 4.131084432755099e-001
1	 2.611120464702003e+000	 3.656799991960951e+000	 4.651002011989997e-001
1	 3.014893587676185e+000	 3.367623959059741e+000	-2.050067444986030e-001
1	 2.977545468200246e+000	 3.400690632840491e+000	-1.355993431962428e-001
1	 2.939848549298365e+000	 3.433331259483467e+000	-6.568652705364009e-002
1	 2.901810134194557e+000	 3.465540385202508e+000	 3.941947385411505e-003
1	 2.863437638300464e+000	 3.497312723130438e+000	 7.251998127063460e-002
1	 2.824738584447536e+000	 3.528643156152111e+000	 1.393061219757026e-001
1	 2.785720598035260e+000	 3.559526739574368e+000	 2.035845041178340e-001
1	 2.746391402101920e+000	 3.589958703630074e+000	 2.646657414128556e-001
1	 2.706758812324470e+000	 3.619934455813751e+000	 3.218877678442504e-001
1	 2.666830731954233e+000	 3.649449583046558e+000	 3.746166267605914e-001
1	 2.626615146695152e+000	 3.678499853668705e+000	 4.222472066549015e-001
1	 3.032678774362512e+000	 3.387489940748560e+000	-1.957979234309990e-001
1	 2.995110334249033e+000	 3.420751678451020e+000	-1.338987917016230e-001
1	 2.957191037103733e+000	 3.453584855717059e+000	-7.053826965941258e-002
1	 2.918928229233141e+000	 3.485983986588032e+000	-6.649086701987517e-003
1	 2.880329369793212e+000	 3.517943753008950e+000	 5.685759431641992e-002
1	 2.841402025993399e+000	 3.549459007678244e+000	 1.190934537355059e-001
1	 2.802153868216250e+000	 3.580524776733461e+000	 1.791942461053040e-001
1	 2.762592665059089e+000	 3.611136262270088e+000	 2.363209832842010e-001
1	 2.722726278304399e+000	 3.641288844690951e+000	 2.896610674668793e-001
1	 2.682562657825637e+000	 3.670978084883970e+000	 3.384293721286850e-001
1	 2.642109836435286e+000	 3.700199726226330e+000	 3.818692690162522e-001
1	 3.050463974386978e+000	 3.407355937335999e+000	-1.862890558804663e-001
1	 3.012675213470734e+000	 3.440812739106494e+000	-1.313485472804127e-001
1	 2.974533537915240e+000	 3.473838467140046e+000	-7.413478445035640e-002
1	 2.936046337109576e+000	 3.506427603305496e+000	-1.569834743890290e-002
1	 2.897221113954047e+000	 3.538574798360020e+000	 4.292988225653396e-002
1	 2.858065480036139e+000	 3.570274874815601e+000	 1.007402414140387e-001
1	 2.818587150721498e+000	 3.601522829640471e+000	 1.567457609359315e-001
1	 2.778793940166522e+000	 3.632313836792711e+000	 2.099835950026659e-001
1	 2.738693756259257e+000	 3.662643249583430e+000	 2.595164008451187e-001
1	 2.698294595495338e+000	 3.692506602867291e+000	 3.044336665882529e-001
1	 2.657604537795815e+000	 3.721899615058424e+000	 3.438529847655609e-001
1	 3.068249192195627e+000	 3.427221953788212e+000	-1.765308571253914e-001
1	 3.030240110256312e+000	 3.460873819821820e+000	-1.280163145866346e-001
1	 2.991876056068266e+000	 3.494092098815463e+000	-7.655713873478232e-002
1	 2.953164462103144e+000	 3.526871240465430e+000	-2.329707990911661e-002
1	 2.914112875005661e+000	 3.559205864341033e+000	 3.063816307877170e-002
1	 2.874728950741376e+000	 3.591090762767767e+000	 8.414266115251559e-002
1	 2.835020449659075e+000	 3.622520903544523e+000	 1.361319309441577e-001
1	 2.794995231474285e+000	 3.653491432491950e+000	 1.855445652735193e-001
1	 2.754661250180662e+000	 3.683997675829406e+000	 2.313438150061295e-001
1	 2.714026548896058e+000	 3.714035142378267e+000	 2.725191193027317e-001
1	 2.673099254650146e+000	 3.743599525589590e+000	 3.080875814219392e-001
1	 3.086034432234504e+000	 3.447087995071351e+000	-1.665728722990445e-001
1	 3.047805028996744e+000	 3.480934925611909e+000	-1.239682367843724e-001
1	 3.009218595898184e+000	 3.514345755806345e+000	-7.788453042096631e-002
1	 2.970282608493129e+000	 3.547314903178364e+000	-2.953442516860465e-002
1	 2.931004657170742e+000	 3.579836956109365e+000	 1.988603034676461e-002
1	 2.891392442274725e+000	 3.611906676738323e+000	 6.919928337857333e-002
1	 2.851453769137057e+000	 3.643519003694747e+000	 1.172481088955956e-001
1	 2.811196543032450e+000	 3.674669054661810e+000	 1.628973971024994e-001
1	 2.770628764060226e+000	 3.705352128767094e+000	 2.050358931701225e-001
1	 2.729758521960522e+000	 3.735563708798650e+000	 2.425778858411823e-001
1	 2.688593990871690e+000	 3.765299463244428e+000	 2.744648417269909e-001
1	 3.103819698949656e+000	 3.466954066151564e+000	-1.564635098884835e-001
1	 3.065369974082997e+000	 3.500996061491667e+000	-1.192689402722521e-001
1	 3.026561161740377e+000	 3.534599443175730e+000	-7.819434157168390e-002
1	 2.987400780558812e+000	 3.567758596554827e+000	-3.449748052643066e-002
1	 2.947896464671988e+000	 3.600468078822398e+000	 1.057928800311779e-002
1	 2.908055958801806e+000	 3.632722621930851e+000	 5.581100420943440e-002
1	 2.867887113263519e+000	 3.664517135340264e+000	 9.999204721088395e-002
1	 2.827397878891083e+000	 3.695846708596299e+000	 1.419380357652343e-001
1	 2.786596301889565e+000	 3.726706613734713e+000	 1.804876820941623e-001
1	 2.745490518621454e+000	 3.757092307510191e+000	 2.145045952292917e-001
1	 2.704088750333855e+000	 3.786999433447542e+000	 2.428790304401663e-001
1	 3.121604996787129e+000	 3.486820171995005e+000	-1.462500740870432e-001
1	 3.082934949906041e+000	 3.521057232476000e+000	-1.139815778773403e-001
1	 3.043903757930221e+000	 3.554853165986655e+000	-7.756219012595794e-002
1	 3.004518982579476e+000	 3.588202325705353e+000	-3.827135776266422e-002
1	 2.964788301732086e+000	 3.621099237637516e+000	 2.625887403776121e-003
1	 2.924719504488238e+000	 3.653538603548932e+000	 4.388097920262580e-002
1	 2.884320486146530e+000	 3.685515303730201e+000	 8.426382961170661e-002
1	 2.843599243100252e+000	 3.717024399589421e+000	 1.225647992417509e-001
1	 2.802563867660294e+000	 3.748061136070473e+000	 1.575966219024735e-001
1	 2.761222542811580e+000	 3.778620943894639e+000	 1.881962794968802e-001
1	 2.719583536910048e+000	 3.808699441623531e+000	 2.132268236393705e-001
1	 3.139390330192968e+000	 3.506686317567826e+000	-1.359787960458991e-001
1	 3.100499960856846e+000	 3.541118443579816e+000	-1.081678705792050e-001
1	 3.061246388803097e+000	 3.575106929302157e+000	-7.606197986079756e-002
1	 3.021637218834404e+000	 3.608646095740469e+000	-4.093923936522159e-002
1	 2.981680172573729e+000	 3.641730437712096e+000	-4.064133504977204e-003
1	 2.941383083499637e+000	 3.674354626796148e+000	 3.331455936108843e-002
1	 2.900753891894165e+000	 3.706513514113686e+000	 6.996580509278313e-002
1	 2.859800639710027e+000	 3.738202132935184e+000	 1.046783110182075e-001
1	 2.818531465364027e+000	 3.769415701112596e+000	 1.362624783045185e-001
1	 2.776954598463622e+000	 3.800149623333742e+000	 1.635523056228157e-001
1	 2.735078354473680e+000	 3.830399493196998e+000	 1.854072404273765e-001
1	 3.157175703613221e+000	 3.526552507836178e+000	-1.256948640681929e-001
1	 3.118065011326384e+000	 3.561179699818027e+000	-1.018881478221718e-001
1	 3.078589058694385e+000	 3.595360738185272e+000	-7.376594866238471e-002
1	 3.038755493602876e+000	 3.629089911770705e+000	-4.258243286383539e-002
1	 2.998572081419611e+000	 3.662361684203525e+000	-9.578708951472125e-003
1	 2.958046700001627e+000	 3.695170696876085e+000	 2.401922930365367e-002
1	 2.917187334614500e+000	 3.727511771739845e+000	 5.700252412805206e-002
1	 2.876002072770478e+000	 3.759379913927594e+000	 8.818143516239325e-002
1	 2.834499098992381e+000	 3.790770314199297e+000	 1.163872771065952e-001
1	 2.792686689510306e+000	 3.821678351209255e+000	 1.404743097826817e-001
1	 2.750573206898158e+000	 3.852099593592544e+000	 1.593215769490692e-001
1	 2.595625786582433e+000	 3.635100135678463e+000	 5.105443657353522e-001
1	 2.555608527434690e+000	 3.663344291249593e+000	 5.624747715240526e-001
1	 2.515323157233419e+000	 3.691121249848880e+000	 6.095041826827953e-001
1	 2.474777776093069e+000	 3.718427371378763e+000	 6.512000462909255e-001
1	 2.433980545103553e+000	 3.745259201099026e+000	 6.871627600659234e-001
1	 2.392939681090943e+000	 3.771613470733660e+000	 7.170261701240461e-001
1	 2.351663451361818e+000	 3.797487099402197e+000	 7.404580062831402e-001
1	 2.310160168438054e+000	 3.822877194375687e+000	 7.571602545627043e-001
1	 2.268438184788723e+000	 3.847781051657798e+000	 7.668694666966202e-001
1	 2.226505887565815e+000	 3.872196156391829e+000	 7.693570066330553e-001
1	 2.184371693350319e+000	 3.896120183094671e+000	 7.644292341532522e-001
1	 2.611120464702003e+000	 3.656799991960951e+000	 4.651002011989997e-001
1	 2.570864321138576e+000	 3.685212751997569e+000	 5.120156891643289e-001
1	 2.530338466023376e+000	 3.713155526113802e+000	 5.536357260093632e-001
1	 2.489551047824762e+000	 3.740624652482407e+000	 5.896550628598353e-001
1	 2.448510276350555e+000	 3.767616655739987e+000	 6.198032036163463e-001
1	 2.407224417477455e+000	 3.794128248100461e+000	 6.438446701389005e-001
1	 2.365701787864013e+000	 3.820156330291954e+000	 6.615792040947034e-001
1	 2.323950749653989e+000	 3.845697992317275e+000	 6.728419056175575e-001
1	 2.281979705176810e+000	 3.870750514038510e+000	 6.775033090832503e-001
1	 2.239797091651857e+000	 3.895311365586440e+000	 6.754693964586783e-001
1	 2.197411375903191e+000	 3.919378207595922e+000	 6.666815488326495e-001
1	 2.626615146695152e+000	 3.678499853668705e+000	 4.222472066549015e-001
1	 2.586120118656368e+000	 3.707081218212970e+000	 4.644157788329082e-001
1	 2.545353778567168e+000	 3.735189807887587e+000	 5.010045715713671e-001
1	 2.504324323249834e+000	 3.762821939135639e+000	 5.318262739359120e-001
1	 2.463040011230107e+000	 3.789974115970545e+000	 5.567294162692799e-001
1	 2.421509157435315e+000	 3.816643031096151e+000	 5.755984239398311e-001
1	 2.379740127875997e+000	 3.842825566849163e+000	 5.883536079208988e-001
1	 2.337741334317804e+000	 3.868518795964159e+000	 5.949510927870999e-001
1	 2.295521228950525e+000	 3.893719982161630e+000	 5.953826828637057e-001
1	 2.253088299060944e+000	 3.918426580559851e+000	 5.896756674110892e-001
1	 2.210451061716201e+000	 3.942636237911626e+000	 5.778925658678786e-001
1	 2.642109836435286e+000	 3.700199726226330e+000	 3.818692690162522e-001
1	 2.601375923801742e+000	 3.728949695362553e+000	 4.195536367904163e-001
1	 2.560369098618346e+000	 3.757224100678466e+000	 4.514746024959469e-001
1	 2.519097606061323e+000	 3.785019236887461e+000	 4.775535914950561e-001
1	 2.477569753374350e+000	 3.812331587379766e+000	 4.977482533442396e-001
1	 2.435793904535414e+000	 3.839157825349139e+000	 5.120523250244956e-001
1	 2.393778474907056e+000	 3.865494814740869e+000	 5.204954322074332e-001
1	 2.351531925876844e+000	 3.891339611021289e+000	 5.231428295263395e-001
1	 2.309062759494951e+000	 3.916689461769292e+000	 5.200950809631328e-001
1	 2.266379513115586e+000	 3.941541807090635e+000	 5.114876815990997e-001
1	 2.223490754048992e+000	 3.965894279856078e+000	 4.974906221086591e-001
1	 2.657604537795815e+000	 3.721899615058424e+000	 3.438529847655609e-001
1	 2.616631740388380e+000	 3.750818188913088e+000	 3.773106921560810e-001
1	 2.575384429930460e+000	 3.779258409994674e+000	 4.049128776826179e-001
1	 2.533870899952260e+000	 3.807216551286875e+000	 4.266806619975219e-001
1	 2.492099506415425e+000	 3.834689075556711e+000	 4.426710751423060e-001
1	 2.450078662348638e+000	 3.861672636487839e+000	 4.529767499600388e-001
1	 2.407816832466474e+000	 3.888164079634114e+000	 4.577255557775014e-001
1	 2.365322527778456e+000	 3.914160443193614e+000	 4.570801736546152e-001
1	 2.322604300195172e+000	 3.939658958603628e+000	 4.512376146306492e-001
1	 2.279670737138295e+000	 3.964657050957376e+000	 4.404286825229100e-001
1	 2.236530456161203e+000	 3.989152339243565e+000	 4.249173829534788e-001
1	 2.673099254650146e+000	 3.743599525589590e+000	 3.080875814219392e-001
1	 2.631887572229961e+000	 3.772686704331335e+000	 3.375711247950227e-001
1	 2.590399776257064e+000	 3.801292741344445e+000	 3.611895397417845e-001
1	 2.548644208615680e+000	 3.829413887882882e+000	 3.790547581200807e-001
1	 2.506629273985478e+000	 3.857046586090442e+000	 3.913136163310182e-001
1	 2.464363434445877e+000	 3.884187470140660e+000	 3.981473994018071e-001
1	 2.421855204063538e+000	 3.910833367195940e+000	 3.997713285924865e-001
1	 2.379113143469984e+000	 3.936981298186089e+000	 3.964339940985324e-001
1	 2.336145854436271e+000	 3.962628478406766e+000	 3.884167345415867e-001
1	 2.292961974451582e+000	 3.987772317938653e+000	 3.760329650543177e-001
1	 2.249570171312477e+000	 4.012410421888376e+000	 3.596274558723349e-001
1	 2.688593990871690e+000	 3.765299463244428e+000	 2.744648417269909e-001
1	 2.647143423140168e+000	 3.794555247084063e+000	 3.002217860481235e-001
1	 2.605415141351708e+000	 3.823327100236014e+000	 3.201777261202259e-001
1	 2.563417535744618e+000	 3.851611252224485e+000	 3.345266742361697e-001
1	 2.521159059716648e+000	 3.879404124570021e+000	 3.434958598508867e-001
1	 2.478648224398018e+000	 3.906702331936015e+000	 3.473451446156368e-001
1	 2.435893593207532e+000	 3.933502683093391e+000	 3.463663852021588e-001
1	 2.392903776398776e+000	 3.959802181703660e+000	 3.408827457097048e-001
1	 2.349687425603333e+000	 3.985598026920839e+000	 3.312479615545736e-001
1	 2.306253228377954e+000	 4.010887613813039e+000	 3.178455568414601e-001
1	 2.262609902762454e+000	 4.035668533604806e+000	 3.010880173084496e-001
1	 2.704088750333855e+000	 3.786999433447542e+000	 2.428790304401663e-001
1	 2.662399296932676e+000	 3.816423822638034e+000	 2.651521221902669e-001
1	 2.620430528967939e+000	 3.845361492177609e+000	 2.817534832855428e-001
1	 2.578190885032107e+000	 3.873808649860682e+000	 2.929506254935046e-001
1	 2.535688867241081e+000	 3.901761696584513e+000	 2.990419151619064e-001
1	 2.492933035775950e+000	 3.929217227502316e+000	 3.003558792827149e-001
1	 2.449932003407742e+000	 3.956172032993508e+000	 2.972504646157819e-001
1	 2.406694430012176e+000	 3.982623099451280e+000	 2.901122518330954e-001
1	 2.363229017081439e+000	 4.008567609887977e+000	 2.793556267356943e-001
1	 2.319544502239928e+000	 4.034002944359120e+000	 2.654219106793538e-001
1	 2.275649653770777e+000	 4.058926680207140e+000	 2.487784524217121e-001
1	 2.719583536910048e+000	 3.808699441623531e+000	 2.132268236393705e-001
1	 2.677655197421170e+000	 3.838292436460014e+000	 2.322541005080785e-001
1	 2.635445942859313e+000	 3.867395922677467e+000	 2.457956838474532e-001
1	 2.592964260171184e+000	 3.896006086340477e+000	 2.541841503455611e-001
1	 2.550218700190915e+000	 3.924119307722978e+000	 2.577799006568479e-001
1	 2.507217872150561e+000	 3.951732162467970e+000	 2.569703763760957e-001
1	 2.463970438173452e+000	 3.978841422563334e+000	 2.521692363377140e-001
1	 2.420485107757531e+000	 4.005444057133899e+000	 2.438154943164784e-001
1	 2.376770632255675e+000	 4.031537233050311e+000	 2.323726202798061e-001
1	 2.332835799360011e+000	 4.057118315355471e+000	 2.183276074083844e-001
1	 2.288689427597086e+000	 4.082184867509672e+000	 2.021900071611489e-001
1	 2.735078354473680e+000	 3.830399493196998e+000	 1.854072404273765e-001
1	 2.692911128419328e+000	 3.860161094016767e+000	 2.014221378931120e-001
1	 2.650461386779380e+000	 3.889430397243821e+000	 2.121859464993421e-001
1	 2.607737664854879e+000	 3.918203567212871e+000	 2.180880163997583e-001
1	 2.564748562198296e+000	 3.946476963574480e+000	 2.195418300758449e-001
1	 2.521502737092740e+000	 3.974247142461395e+000	 2.169841499075252e-001
1	 2.478008901013948e+000	 4.001510857469911e+000	 2.108741323228216e-001
1	 2.434275813082186e+000	 4.028265060456468e+000	 2.016924106656319e-001
1	 2.390312274511121e+000	 4.054506902149972e+000	 1.899401489757246e-001
1	 2.346127123060713e+000	 4.080233732580672e+000	 1.761380689227980e-001
1	 2.301729227501026e+000	 4.105443101326692e+000	 1.608254521769160e-001
1	 2.750573206898158e+000	 3.852099593592544e+000	 1.593215769490692e-001
1	 2.708167093740830e+000	 3.882029800775059e+000	 1.725530318512302e-001
1	 2.665476864481691e+000	 3.911464921384907e+000	 1.808085586687288e-001
1	 2.622511102776230e+000	 3.940401098026868e+000	 1.845261294514503e-001
1	 2.579278456895366e+000	 3.968834669728083e+000	 1.841635027643620e-001
1	 2.535787634173377e+000	 3.996762173110999e+000	 1.801973213523160e-001
1	 2.492047395438517e+000	 4.024180343380285e+000	 1.731221846179731e-001
1	 2.448066549433489e+000	 4.051086115123940e+000	 1.634496980631425e-001
1	 2.403853947232864e+000	 4.077476622929091e+000	 1.517075018780282e-001
1	 2.359418476664550e+000	 4.103349201813303e+000	 1.384382808900863e-001
1	 2.314769056742236e+000	 4.128701387472491e+000	 1.241987581044721e-001
1	 2.184371693350319e+000	 3.896120183094671e+000	 7.644292341532523e-001
1	 2.142050406224803e+000	 3.919547518884829e+000	 7.551434059807728e-001
1	 2.099544179197507e+000	 3.942479845858591e+000	 7.441959551830892e-001
1	 2.056861484259474e+000	 3.964915410292883e+000	 7.309025592821993e-001
1	 2.014010801950552e+000	 3.986852646976335e+000	 7.146067138196541e-001
1	 1.971000616255271e+000	 4.008290178599602e+000	 6.946805927885118e-001
1	 1.927839409546484e+000	 4.029226814984732e+000	 6.705258470962480e-001
1	 1.884535657582464e+000	 4.049661552156452e+000	 6.415743402981552e-001
1	 1.841097824563030e+000	 4.069593571258429e+000	 6.072888210082440e-001
1	 1.797534358250065e+000	 4.089022237317836e+000	 5.671635315612602e-001
1	 1.753853685157622e+000	 4.107947097861665e+000	 5.207247526640646e-001
1	 2.197411375903191e+000	 3.919378207595922e+000	 6.666815488326495e-001
1	 2.154837450386865e+000	 3.942945393679175e+000	 6.542342940846109e-001
1	 2.112077480963578e+000	 3.966014615973811e+000	 6.408455373053807e-001
1	 2.069139990198221e+000	 3.988584110287832e+000	 6.259357904242361e-001
1	 2.026033509255522e+000	 4.010652302066275e+000	 6.089423910871332e-001
1	 1.982766572765459e+000	 4.032217805777887e+000	 5.893203391787181e-001
1	 1.939347713736705e+000	 4.053279424139899e+000	 5.665430909029682e-001
1	 1.895785458523871e+000	 4.073836147183757e+000	 5.401033093849025e-001
1	 1.852088321854113e+000	 4.093887151164926e+000	 5.095135708806409e-001
1	 1.808264801918528e+000	 4.113431797320074e+000	 4.743070258084278e-001
1	 1.764323375533540e+000	 4.132469630475131e+000	 4.340380139385474e-001
1	 2.210451061716201e+000	 3.942636237911626e+000	 5.778925658678789e-001
1	 2.167624497745855e+000	 3.966343274322894e+000	 5.630883204571429e-001
1	 2.124610785863071e+000	 3.989549391972592e+000	 5.479253736450729e-001
1	 2.081418499206607e+000	 4.012252816199792e+000	 5.319155101982738e-001
1	 2.038056219566090e+000	 4.034451963105934e+000	 5.145780056754675e-001
1	 1.994532532216958e+000	 4.056145438937855e+000	 4.954404380742457e-001
1	 1.950856020803727e+000	 4.077332039307960e+000	 4.740394737088471e-001
1	 1.907035262277360e+000	 4.098010748254415e+000	 4.499216260542765e-001
1	 1.863078821892374e+000	 4.118180737144485e+000	 4.226439863799986e-001
1	 1.818995248269089e+000	 4.137841363424329e+000	 3.917749250865906e-001
1	 1.774793068526321e+000	 4.156992169218810e+000	 3.568947627500581e-001
1	 2.223490754048992e+000	 3.965894279856078e+000	 4.974906221086591e-001
1	 2.180411551498271e+000	 3.989741166665249e+000	 4.810564811222232e-001
1	 2.137144097029070e+000	 4.013084179738415e+000	 4.647293399839510e-001
1	 2.093697014354038e+000	 4.035921533945723e+000	 4.480988755898488e-001
1	 2.050078935887736e+000	 4.058251636045005e+000	 4.307545580840272e-001
1	 2.006298497551088e+000	 4.080073084061181e+000	 4.122864366962063e-001
1	 1.962364333624481e+000	 4.101384666501830e+000	 3.922859136537787e-001
1	 1.918285071655266e+000	 4.122185361411838e+000	 3.703465047258021e-001
1	 1.874069327425340e+000	 4.142474335270259e+000	 3.460645850135649e-001
1	 1.829725699984286e+000	 4.162250941732745e+000	 3.190401186628259e-001
1	 1.785262766753336e+000	 4.181514720223090e+000	 2.888773712358960e-001
1	 2.236530456161203e+000	 3.989152339243565e+000	 4.249173829534788e-001
1	 2.193198614840611e+000	 4.013139076555489e+000	 4.075049035815218e-001
1	 2.149677417594655e+000	 4.036618985154762e+000	 3.905677749616984e-001
1	 2.105975538709923e+000	 4.059590269442583e+000	 3.737603620726759e-001
1	 2.062101661225939e+000	 4.082051326833177e+000	 3.567307434441085e-001
1	 2.018064471709168e+000	 4.104000747129544e+000	 3.391214702816738e-001
1	 1.973872655075903e+000	 4.125437311734431e+000	 3.205703247068482e-001
1	 1.929534889469919e+000	 4.146359992699434e+000	 3.007110755397302e-001
1	 1.885059841200544e+000	 4.166767951615396e+000	 2.791742300858568e-001
1	 1.840456159746657e+000	 4.186660538347462e+000	 2.555877804243292e-001
1	 1.795732472831950e+000	 4.206037289618354e+000	 2.295779427348809e-001
1	 2.249570171312477e+000	 4.012410421888376e+000	 3.596274558723349e-001
1	 2.205985690969373e+000	 4.036537009842877e+000	 3.418144080606042e-001
1	 2.162210750692910e+000	 4.060153814105111e+000	 3.247670027133978e-001
1	 2.118254075343664e+000	 4.083259028607333e+000	 3.081912614279201e-001
1	 2.074124398586184e+000	 4.105851041420147e+000	 2.917824384191892e-001
1	 2.029830457632516e+000	 4.127928434124628e+000	 2.752257520593699e-001
1	 1.985380988034921e+000	 4.149489981018679e+000	 2.581971237936747e-001
1	 1.940784718533653e+000	 4.170534648160611e+000	 2.403639227806496e-001
1	 1.896050365965514e+000	 4.191061592253049e+000	 2.213857146182632e-001
1	 1.851186630238740e+000	 4.211070159370624e+000	 2.009150125355729e-001
1	 1.806202189379531e+000	 4.230559883534988e+000	 1.785980294523265e-001
1	 2.262609902762454e+000	 4.035668533604806e+000	 3.010880173084496e-001
1	 2.218772783081055e+000	 4.059934972376666e+000	 2.833800839436666e-001
1	 2.174744099456915e+000	 4.083688672472943e+000	 2.666688720322367e-001
1	 2.130532627324668e+000	 4.106927817356930e+000	 2.506991969478898e-001
1	 2.086147150973949e+000	 4.129650785755607e+000	 2.352022058675941e-001
1	 2.041596458262454e+000	 4.151856151028106e+000	 2.198960808812402e-001
1	 1.996889335378473e+000	 4.173542680367493e+000	 2.044867549858889e-001
1	 1.952034561658799e+000	 4.194709333838777e+000	 1.886686392798391e-001
1	 1.907040904467783e+000	 4.215355263256366e+000	 1.721253596724485e-001
1	 1.861917114143072e+000	 4.235479810904370e+000	 1.545305014313133e-001
1	 1.816671919013446e+000	 4.255082508103376e+000	 1.355483598988558e-001
1	 2.275649653770777e+000	 4.058926680207140e+000	 2.487784524217122e-001
1	 2.231559894372153e+000	 4.083332970006111e+000	 2.316108807870417e-001
1	 2.187277467019754e+000	 4.107223566141736e+000	 2.156303113938495e-001
1	 2.142811197722343e+000	 4.130596641608336e+000	 2.006076553259955e-001
1	 2.098169921394717e+000	 4.153450565789250e+000	 1.862988165542331e-001
1	 2.053362476540301e+000	 4.175783903821666e+000	 1.724453658009796e-001
1	 2.008397699983487e+000	 4.197595415793795e+000	 1.587752300676248e-001
1	 1.963284421657691e+000	 4.218884055777343e+000	 1.450033961547554e-001
1	 1.918031459454879e+000	 4.239648970698496e+000	 1.308326264991480e-001
1	 1.872647614142193e+000	 4.259889499050847e+000	 1.159541856500148e-001
1	 1.827141664351063e+000	 4.279605169453904e+000	 1.000485757105692e-001
1	 2.288689427597086e+000	 4.082184867509672e+000	 2.021900071611489e-001
1	 2.244347028039166e+000	 4.106731008580471e+000	 1.859292133293842e-001
1	 2.199810856514507e+000	 4.130758500994972e+000	 1.710228992090129e-001
1	 2.155089789606092e+000	 4.154265507278510e+000	 1.572555345667774e-001
1	 2.110192712853969e+000	 4.177250387470769e+000	 1.443967872307410e-001
1	 2.065128515407376e+000	 4.199711698486983e+000	 1.322021669228043e-001
1	 2.019906084726899e+000	 4.221648193310500e+000	 1.204136848251468e-001
1	 1.974534301342661e+000	 4.243058820019718e+000	 1.087605272732608e-001
1	 1.929022033674333e+000	 4.263942720652591e+000	 9.695974196034808e-002
1	 1.883378132918639e+000	 4.284299229912193e+000	 8.471693503500512e-002
1	 1.837611428009748e+000	 4.304127873716954e+000	 7.172697747600930e-002
1	 2.301729227501026e+000	 4.105443101326692e+000	 1.608254521769160e-001
1	 2.257134187278591e+000	 4.130129093949001e+000	 1.457705799428918e-001
1	 2.212344271074256e+000	 4.154293482916130e+000	 1.322324487000896e-001
1	 2.167368406045321e+000	 4.177934420284410e+000	 1.199967072800029e-001
1	 2.122215528357185e+000	 4.201050256749856e+000	 1.088359344341962e-001
1	 2.076894577804999e+000	 4.223639541005737e+000	 9.851025187461147e-002
1	 2.031414492485641e+000	 4.245701018930528e+000	 8.876795043540547e-002
1	 1.985784203526040e+000	 4.267233632609310e+000	 7.934612785803757e-002
1	 1.940012629873676e+000	 4.288236519191803e+000	 6.997133669792066e-002
1	 1.894108673154950e+000	 4.308709009590554e+000	 6.036024085203200e-002
1	 1.848081212606869e+000	 4.328650627022916e+000	 5.022027921233010e-002
1	 2.314769056742236e+000	 4.128701387472491e+000	 1.241987581044721e-001
1	 2.269921375286927e+000	 4.153527231960959e+000	 1.105831939949212e-001
1	 2.224877713832085e+000	 4.177828517788692e+000	 9.865860682397629e-002
1	 2.179647050109438e+000	 4.201603386542996e+000	 8.819959875152242e-002
1	 2.134238370909848e+000	 4.224850179576209e+000	 7.897094338387405e-002
1	 2.088660666674489e+000	 4.247567437359611e+000	 7.072816728868890e-002
1	 2.042922926136646e+000	 4.269753898666801e+000	 6.321813935747477e-002
1	 1.997034131020162e+000	 4.291408499589529e+000	 5.617966667298966e-002
1	 1.951003250800438e+000	 4.312530372389278e+000	 4.934409554549345e-002
1	 1.904839237533663e+000	 4.333118844188068e+000	 4.243591639229362e-002
1	 1.858551020759794e+000	 4.353173435502171e+000	 3.517337114927046e-002
1	 1.753853685157622e+000	 4.107947097861665e+000	 5.207247526640644e-001
1	 1.710057629351524e+000	 4.126370607494756e+000	 4.671242865292103e-001
1	 1.666161110416385e+000	 4.144289799846914e+000	 4.067714646748321e-001
1	 1.622172468799514e+000	 4.161704763504537e+000	 3.410617361189192e-001
1	 1.578100005132252e+000	 4.178615762716244e+000	 2.713637771802787e-001
1	 1.533951975835255e+000	 4.195023235321111e+000	 1.990178575502574e-001
1	 1.489736588820484e+000	 4.210927790553209e+000	 1.253342831407608e-001
1	 1.445461999293614e+000	 4.226330206727043e+000	 5.159191725911545e-002
1	 1.401136305660350e+000	 4.241231428808610e+000	-2.096321855997341e-002
1	 1.356767545539909e+000	 4.255632565876874e+000	-9.111926295403705e-002
1	 1.312363691888676e+000	 4.269534888480566e+000	-1.576997514694640e-001
1	 1.764323375533540e+000	 4.132469630475131e+000	 4.340380139385474e-001
1	 1.720265877653797e+000	 4.151003119887775e+000	 3.876284692596700e-001
1	 1.676107316926896e+000	 4.169029281479971e+000	 3.351420562576650e-001
1	 1.631856083588732e+000	 4.186548204366939e+000	 2.778288966927548e-001
1	 1.587520527821553e+000	 4.203560154374750e+000	 2.169195302964865e-001
1	 1.543108955333008e+000	 4.220065571956186e+000	 1.536233637732722e-001
1	 1.498629623032470e+000	 4.236065069982164e+000	 8.912718270106700e-002
1	 1.454090734808400e+000	 4.251559431413378e+000	 2.459372802474262e-002
1	 1.409500437410214e+000	 4.266549606856837e+000	-3.883966135471263e-002
1	 1.364866816437977e+000	 4.281036712012199e+000	-1.000623385824507e-001
1	 1.320197892442914e+000	 4.295022025012785e+000	-1.579915703201788e-001
1	 1.774793068526321e+000	 4.156992169218810e+000	 3.568947627500583e-001
1	 1.730474128507555e+000	 4.175635638438452e+000	 3.167943373415335e-001
1	 1.686053525923382e+000	 4.193768769297368e+000	 2.712990772279884e-001
1	 1.641539700798301e+000	 4.211391651439615e+000	 2.215244949783523e-001
1	 1.596941052865475e+000	 4.228504552268712e+000	 1.685723939229279e-001
1	 1.552265937119550e+000	 4.245107914851144e+000	 1.135294087128577e-001
1	 1.507522659467327e+000	 4.261202355694691e+000	 5.746559698233807e-002
1	 1.462719472480057e+000	 4.276788662406223e+000	 1.433083887348238e-003
1	 1.417864571250882e+000	 4.291867791233776e+000	-5.353523886957699e-002
1	 1.372966089360723e+000	 4.306440864497702e+000	-1.064269580839839e-001
1	 1.328032094955653e+000	 4.320509167915921e+000	-1.562513268840369e-001
1	 1.785262766753336e+000	 4.181514720223090e+000	 2.888773712358960e-001
1	 1.740682384464818e+000	 4.200268169304669e+000	 2.543161839499799e-001
1	 1.695999739892365e+000	 4.218508269483743e+000	 2.150323706847807e-001
1	 1.651223322849097e+000	 4.236235110933195e+000	 1.720174423700976e-001
1	 1.606361582619119e+000	 4.253448962634002e+000	 1.262537715198950e-001
1	 1.561422923484098e+000	 4.270150270266356e+000	 7.871323286672438e-002
1	 1.516415700348281e+000	 4.286339653974895e+000	 3.035588536445032e-002
1	 1.471348214465735e+000	 4.302017906012684e+000	-1.787130264911302e-002
1	 1.426228709273348e+000	 4.317185988268775e+000	-6.503568347954608e-002
1	 1.381065366332916e+000	 4.331845029684224e+000	-1.102201137857430e-001
1	 1.335866301385387e+000	 4.345996323561552e+000	-1.525240906086164e-001
1	 1.795732472831950e+000	 4.206037289618354e+000	 2.295779427348809e-001
1	 1.750890648077604e+000	 4.224900718644310e+000	 1.998954232755963e-001
1	 1.705945961320361e+000	 4.243247788223719e+000	 1.661366724336191e-001
1	 1.660906952161998e+000	 4.261078589058305e+000	 1.291796991033125e-001
1	 1.615782119437594e+000	 4.278393391706492e+000	 8.989665816261862e-002
1	 1.570579916715873e+000	 4.295192644462189e+000	 4.915259959096528e-002
1	 1.525308747898565e+000	 4.311476971106893e+000	 7.804251264588394e-003
1	 1.479976962922586e+000	 4.327247168539862e+000	-3.330116282324323e-002
1	 1.434592853568603e+000	 4.342504204291177e+000	-7.332706729153525e-002
1	 1.389164649379327e+000	 4.357249213922600e+000	-1.114486415486064e-001
1	 1.343700513690607e+000	 4.371483498321261e+000	-1.468538860400603e-001
1	 1.806202189379531e+000	 4.230559883534988e+000	 1.785980294523265e-001
1	 1.761098921897934e+000	 4.249533292615256e+000	 1.532403838458235e-001
1	 1.715892192693890e+000	 4.267987331701934e+000	 1.244114688994312e-001
1	 1.670590591157879e+000	 4.285922092025571e+000	 9.288618561839832e-002
1	 1.625202665676004e+000	 4.303337845722058e+000	 5.943559415285196e-002
1	 1.579736919104094e+000	 4.320235043699012e+000	 2.482577970181239e-002
1	 1.534201804341407e+000	 4.336614313374795e+000	-1.018325357086347e-002
1	 1.488605720007758e+000	 4.352476456294862e+000	-4.483865896643173e-002
1	 1.442957006227640e+000	 4.367822445630329e+000	-7.839579249086116e-002
1	 1.397263940524723e+000	 4.382653423563673e+000	-1.101192254756272e-001
1	 1.351534733829807e+000	 4.396970698566631e+000	-1.392837232606183e-001
1	 1.816671919013446e+000	 4.255082508103376e+000	 1.355483598988558e-001
1	 1.771307208477830e+000	 4.274165897375390e+000	 1.140661090011974e-001
1	 1.725838436499470e+000	 4.292726906103013e+000	 8.966085995805824e-002
1	 1.680274242257617e+000	 4.310765626045626e+000	 6.301469699338973e-002
1	 1.634623223689456e+000	 4.328282330916574e+000	 3.480662023634529e-002
1	 1.588893932937980e+000	 4.345277474237194e+000	 5.711536610438280e-003
1	 1.543094871900039e+000	 4.361751687062710e+000	-2.360072492299048e-002
1	 1.497234487878402e+000	 4.377705775584788e+000	-5.246637229096302e-002
1	 1.451321169341452e+000	 4.393140718615578e+000	-8.022858202185119e-002
1	 1.405363241793874e+000	 4.408057664958274e+000	-1.062384024574057e-001
1	 1.359368963761479e+000	 4.422457930669241e+000	-1.298556272724456e-001
1	 1.827141664351063e+000	 4.279605169453904e+000	 1.000485757105693e-001
1	 1.781515510369310e+000	 4.298798539082597e+000	 8.209416423903519e-002
1	 1.735784695223622e+000	 4.317466517611590e+000	 6.169342648901267e-002
1	 1.689957907882089e+000	 4.335609197329096e+000	 3.944582032169024e-002
1	 1.644043795833055e+000	 4.353226853525915e+000	 1.594723436172621e-002
1	 1.598050960506749e+000	 4.370319942337101e+000	-8.210888030531945e-003
1	 1.551987952797689e+000	 4.386889098454755e+000	-3.244240209959661e-002
1	 1.505863268691669e+000	 4.402935132716745e+000	-5.616729109841854e-002
1	 1.459685345001030e+000	 4.418459029576267e+000	-7.881247058919946e-002
1	 1.413462555211549e+000	 4.433461944457243e+000	-9.981256656099724e-002
1	 1.367203205444115e+000	 4.447945201000673e+000	-1.186106663700506e-001
1	 1.837611428009748e+000	 4.304127873716954e+000	 7.172697747600930e-002
1	 1.791723830124394e+000	 4.323431223894759e+000	 5.705245115041648e-002
1	 1.745730971352862e+000	 4.342206172412294e+000	 4.032210246104846e-002
1	 1.699641590452171e+000	 4.360452812086607e+000	 2.206285491741968e-002
1	 1.653464384461906e+000	 4.378171419785954e+000	 2.796349919255084e-003
1	 1.607208004099624e+000	 4.395362454259105e+000	-1.696178818926798e-002
1	 1.560881049257587e+000	 4.412026553835040e+000	-3.670266407131589e-002
1	 1.514492064604708e+000	 4.428164533997836e+000	-5.592479939158856e-002
1	 1.468049535297369e+000	 4.443777384841744e+000	-7.413479596723789e-002
1	 1.421561882802517e+000	 4.458866268411420e+000	-9.084797326857665e-002
1	 1.375037460836209e+000	 4.473432515932509e+000	-1.055889795417055e-001
1	 1.848081212606869e+000	 4.328650627022916e+000	 5.022027921233006e-002
1	 1.801932170295104e+000	 4.348063957969758e+000	 3.867502768868236e-002
1	 1.755677267373712e+000	 4.366945876689758e+000	 2.536405137049053e-002
1	 1.709325292388740e+000	 4.385296476528788e+000	 1.075173523610811e-002
1	 1.662884991931116e+000	 4.403116035932563e+000	-4.705744599309568e-003
1	 1.616365066005822e+000	 4.420405016263575e+000	-2.056100684524130e-002
1	 1.569774163502965e+000	 4.437164059487676e+000	-3.637602573920651e-002
1	 1.523120877774671e+000	 4.453393985735167e+000	-5.172266587387458e-002
1	 1.476413742321459e+000	 4.469095790741354e+000	-6.618319060492764e-002
1	 1.429661226591549e+000	 4.484270643171642e+000	-7.935074357185090e-002
1	 1.382871731896253e+000	 4.498919881836328e+000	-9.082980293839915e-002
1	 1.858551020759794e+000	 4.353173435502171e+000	 3.517337114927046e-002
1	 1.812140533433458e+000	 4.372696747465477e+000	 2.670193451952314e-002
1	 1.765623585772689e+000	 4.391685636628613e+000	 1.664054686055728e-002
1	 1.719009016112671e+000	 4.410140196866270e+000	 5.400956403539619e-003
1	 1.672305620595791e+000	 4.428060708201621e+000	-6.617424575818833e-003
1	 1.625522148514562e+000	 4.445447634610877e+000	-1.902794892658428e-002
1	 1.578667297757052e+000	 4.462301621696777e+000	-3.145713432857231e-002
1	 1.531749710358706e+000	 4.478623494235841e+000	-4.354503332088318e-002
1	 1.484777968164294e+000	 4.494414253604442e+000	-5.494557351486551e-002
1	 1.437760588603412e+000	 4.509675075088746e+000	-6.532686792788781e-002
1	 1.390706020582741e+000	 4.524407305083716e+000	-7.437149544714014e-002
1	 1.312363691888676e+000	 4.269534888480566e+000	-1.576997514694640e-001
1	 1.267932648602657e+000	 4.282939824829096e+000	-2.204487473556359e-001
1	 1.223482245031363e+000	 4.295848954764352e+000	-2.788511509663738e-001
1	 1.179020234462681e+000	 4.308264010049258e+000	-3.313840069728853e-001
1	 1.134554291362543e+000	 4.320186872431324e+000	-3.765459130993161e-001
1	 1.090092008085801e+000	 4.331619570558885e+000	-4.128588914466300e-001
1	 1.045640891710206e+000	 4.342564276822999e+000	-4.388701839587254e-001
1	 1.001208360994867e+000	 4.353023304130099e+000	-4.531539703318135e-001
1	 9.568017434643769e-001	 4.362999102610631e+000	-4.543130068912498e-001
1	 9.124282726195250e-001	 4.372494256268735e+000	-4.409801851814261e-001
1	 8.680950852753391e-001	 4.381511479578151e+000	-4.118200092325045e-001
1	 1.320197892442914e+000	 4.295022025012785e+000	-1.579915703201788e-001
1	 1.275501616503612e+000	 4.308506982593760e+000	-2.123143478444857e-001
1	 1.230785864707158e+000	 4.321493174027922e+000	-2.624079933697389e-001
1	 1.186058436624959e+000	 4.333982341416011e+000	-3.067630530089456e-001
1	 1.141327052535938e+000	 4.345976377738679e+000	-3.438931257343744e-001
1	 1.096599350117776e+000	 4.357477323754349e+000	-3.723366997100508e-001
1	 1.051882881261982e+000	 4.368487364822227e+000	-3.906589108095702e-001
1	 1.007185109014209e+000	 4.379008827655715e+000	-3.974532217345915e-001
1	 9.625134046409606e-001	 4.389044177011387e+000	-3.913430203745292e-001
1	 9.178750448236620e-001	 4.398596012318689e+000	-3.709831362702949e-001
1	 8.732772089808063e-001	 4.407667064255488e+000	-3.350612742641611e-001
1	 1.328032094955653e+000	 4.320509167915921e+000	-1.562513268840369e-001
1	 1.283070586296851e+000	 4.334074146749346e+000	-2.026906204608809e-001
1	 1.238089486208987e+000	 4.347137399701696e+000	-2.450759254316079e-001
1	 1.193096640547000e+000	 4.359700679211523e+000	-2.819234087573737e-001
1	 1.148099815402816e+000	 4.371765889492630e+000	-3.117730770992490e-001
1	 1.103106693776948e+000	 4.383335083413516e+000	-3.331905733588305e-001
1	 1.058124872374679e+000	 4.394410459301542e+000	-3.447688947389822e-001
1	 1.013161858528212e+000	 4.404994357677095e+000	-3.451300308311545e-001
1	 9.682250672459715e-001	 4.415089257922869e+000	-3.329265204601327e-001
1	 9.233218183900274e-001	 4.424697774893605e+000	-3.068429262383781e-001
1	 8.784593339823467e-001	 4.433822655471317e+000	-2.655972260001709e-001
1	 1.335866301385387e+000	 4.345996323561552e+000	-1.525240906086164e-001
1	 1.290639559874550e+000	 4.359641323687433e+000	-1.916652732630367e-001
1	 1.245393111362680e+000	 4.372781638196507e+000	-2.269774818384354e-001
1	 1.200134847988272e+000	 4.385419029865138e+000	-2.570144441332731e-001
1	 1.154872581656271e+000	 4.397555414140287e+000	-2.803538099286868e-001
1	 1.109614040690050e+000	 4.409192856000539e+000	-2.955989029658099e-001
1	 1.064366866608685e+000	 4.420333566741420e+000	-3.013803950586095e-001
1	 1.019138611030946e+000	 4.430979900690285e+000	-2.963579009165972e-001
1	 9.739367327072042e-001	 4.441134351855978e+000	-2.792214924728822e-001
1	 9.287685946801907e-001	 4.450799550518534e+000	-2.486931317314240e-001
1	 8.836414615753684e-001	 4.459978259764122e+000	-2.035280213618479e-001
1	 1.343700513690607e+000	 4.371483498321261e+000	-1.468538860400603e-001
1	 1.298208539128881e+000	 4.385208519799600e+000	-1.793239745482946e-001
1	 1.252696741994064e+000	 4.398425895923181e+000	-2.082323447801519e-001
1	 1.207173060708235e+000	 4.411137399806195e+000	-2.321820501086194e-001
1	 1.161645352989398e+000	 4.423344958128768e+000	-2.497994518269887e-001
1	 1.116121392483815e+000	 4.435050647979575e+000	-2.597359218199106e-001
1	 1.070608865524384e+000	 4.446256693622319e+000	-2.606694692550141e-001
1	 1.025115368016482e+000	 4.456965463191335e+000	-2.513062899141953e-001
1	 9.796484024524523e-001	 4.467179465321619e+000	-2.303822369995045e-001
1	 9.342153750557217e-001	 4.476901345718529e+000	-1.966642124614115e-001
1	 8.888235930552790e-001	 4.486133883672388e+000	-1.489514781065570e-001
1	 1.351534733829807e+000	 4.396970698566631e+000	-1.392837232606183e-001
1	 1.305777525952022e+000	 4.410775741477424e+000	-1.657504121032265e-001
1	 1.260000379928967e+000	 4.424070179292549e+000	-1.889574267328741e-001
1	 1.214211280466357e+000	 4.436855795464039e+000	-2.075687396263921e-001
1	 1.168418131095294e+000	 4.449134527905186e+000	-2.202703287968253e-001
1	 1.122628750784974e+000	 4.460908465814775e+000	-2.257718264430519e-001
1	 1.076850870682165e+000	 4.472179846424699e+000	-2.228080947638905e-001
1	 1.031092130978891e+000	 4.482951051676290e+000	-2.101407275777905e-001
1	 9.853600779095110e-001	 4.493224604830711e+000	-1.865594765972713e-001
1	 9.396621608781907e-001	 4.503003167018645e+000	-1.508836014125602e-001
1	 8.940057297174856e-001	 4.512289533734595e+000	-1.019631424409235e-001
1	 1.359368963761479e+000	 4.422457930669241e+000	-1.298556272724456e-001
1	 1.313346522236146e+000	 4.436342995112480e+000	-1.510263504025993e-001
1	 1.267304026993219e+000	 4.449714494715444e+000	-1.692669503758429e-001
1	 1.221249509022101e+000	 4.462574223268007e+000	-1.833137450212779e-001
1	 1.175190917667051e+000	 4.474924129916656e+000	-1.919230748379499e-001
1	 1.129136117220259e+000	 4.486766315970297e+000	-1.938728929350073e-001
1	 1.083092883642415e+000	 4.498103031629028e+000	-1.879642865287374e-001
1	 1.037068901412243e+000	 4.508936672641196e+000	-1.730229286368689e-001
1	 9.910717605061742e-001	 4.519269776894150e+000	-1.479004588086310e-001
1	 9.451089535091670e-001	 4.529105020943928e+000	-1.114757919246488e-001
1	 8.991878728573962e-001	 4.538445216489230e+000	-6.265635429343004e-002
1	 1.367203205444115e+000	 4.447945201000673e+000	-1.186106663700506e-001
1	 1.320915529873429e+000	 4.461910287096349e+000	-1.352316858395722e-001
1	 1.274607685012648e+000	 4.475358848602692e+000	-1.492725257576749e-001
1	 1.228287748134932e+000	 4.488292689647440e+000	-1.595531120872311e-001
1	 1.181963714397768e+000	 4.500713770610291e+000	-1.649107377735786e-001
1	 1.135643493416402e+000	 4.512624204910294e+000	-1.642015893137693e-001
1	 1.089334905965519e+000	 4.524026255715766e+000	-1.563022105132560e-001
1	 1.043045680810607e+000	 4.534922332582100e+000	-1.401109020472962e-001
1	 9.967834516702370e-001	 4.545314988022852e+000	-1.145490556301553e-001
1	 9.505557543102210e-001	 4.555206914019435e+000	-7.856242177896519e-002
1	 9.043700237704184e-001	 4.564600938474771e+000	-3.112231034039919e-002
1	 1.375037460836209e+000	 4.473432515932509e+000	-1.055889795417055e-001
1	 1.328484550756046e+000	 4.487477623820608e+000	-1.184445000657437e-001
1	 1.281911355813081e+000	 4.501003247365126e+000	-1.290832248217363e-001
1	 1.235325999564314e+000	 4.514011201031684e+000	-1.364197909257327e-001
1	 1.188736522980537e+000	 4.526503456433209e+000	-1.393828814550862e-001
1	 1.142150881000136e+000	 4.538482139098919e+000	-1.369166840112888e-001
1	 1.095576939211864e+000	 4.549949525165379e+000	-1.279822933290000e-001
1	 1.049022470668055e+000	 4.560908037995049e+000	-1.115590565031616e-001
1	 1.002495152829493e+000	 4.571360244727723e+000	-8.664585957739061e-002
1	 9.560025646429224e-001	 4.581308852770217e+000	-5.226235440663393e-002
1	 9.095521837519596e-001	 4.590756706229706e+000	-7.450124875059896e-003
1	 1.382871731896253e+000	 4.498919881836328e+000	-9.082980293839915e-002
1	 1.336053586776172e+000	 4.513045011676836e+000	-1.007411115160671e-001
1	 1.289215041220348e+000	 4.526647697413575e+000	-1.088056533954914e-001
1	 1.242364265069711e+000	 4.539729763850075e+000	-1.140437237025957e-001
1	 1.195509345108456e+000	 4.552293193832522e+000	-1.154856844887826e-001
1	 1.148658281598193e+000	 4.564340125000327e+000	-1.121733506772349e-001
1	 1.101818984941837e+000	 4.575872846458329e+000	-1.031613281325500e-001
1	 1.054999272478657e+000	 4.586893795376091e+000	-8.751830235819612e-002
1	 1.008206865411738e+000	 4.597405553519671e+000	-6.432827648072972e-002
1	 9.614493858688403e-001	 4.607410843721321e+000	-3.269175733351800e-002
1	 9.147343540974272e-001	 4.616912526292514e+000	 8.273111394663758e-003
1	 1.390706020582741e+000	 4.524407305083716e+000	-7.437149544714014e-002
1	 1.343622639825983e+000	 4.538612457056611e+000	-8.219612519030956e-002
1	 1.296518743060277e+000	 4.552292205158869e+000	-8.854402074393136e-002
1	 1.249402546410590e+000	 4.565448384531957e+000	-9.255192943532237e-002
1	 1.202282182474618e+000	 4.578082989255348e+000	-9.336203562207374e-002
1	 1.155165696837305e+000	 4.590198169078671e+000	-9.012326943650402e-002
1	 1.108061044715827e+000	 4.601796226075082e+000	-8.199257693943894e-002
1	 1.060976087736485e+000	 4.612879611221273e+000	-6.813615009847752e-002
1	 1.013918590844765e+000	 4.623450920909603e+000	-4.773061514137608e-002
1	 9.668962193495460e-001	 4.633512893397808e+000	-1.996417797080646e-002
1	 9.199165361022298e-001	 4.643068405201682e+000	 1.596227453789185e-002
1	 8.680950852753391e-001	 4.381511479578151e+000	-4.118200092325045e-001
1	 8.238158559823361e-001	 4.390052368877189e+000	-3.650296947973708e-001
1	 7.795908563484760e-001	 4.398121279226209e+000	-2.999797412475505e-001
1	 7.354269054959154e-001	 4.405721297882294e+000	-2.171483805055916e-001
1	 6.913307167858134e-001	 4.412855628386947e+000	-1.170295733033583e-001
1	 6.473088957992209e-001	 4.419527586972392e+000	-1.320560941795547e-004
1	 6.033679384448826e-001	 4.425740598943745e+000	 1.330216100431988e-001
1	 5.595142291933083e-001	 4.431498195041700e+000	 2.818959868730819e-001
1	 5.157540394362644e-001	 4.436804007790360e+000	 4.459437012652086e-001
1	 4.720935259706708e-001	 4.441661767834681e+000	 6.246063807323788e-001
1	 4.285387296057504e-001	 4.446075300271935e+000	 8.173155807858913e-001
1	 8.732772089808063e-001	 4.407667064255488e+000	-3.350612742641611e-001
1	 8.287336532936124e-001	 4.416258938689484e+000	-2.818498106593412e-001
1	 7.842446509914092e-001	 4.424376016678724e+000	-2.108840862596121e-001
1	 7.398170619033307e-001	 4.432021403909765e+000	-1.228041619993491e-001
1	 6.954576394661727e-001	 4.439198323047760e+000	-1.826588694838724e-002
1	 6.511730286932236e-001	 4.445910110121298e+000	 1.020603207606160e-001
1	 6.069697642707742e-001	 4.452160210882961e+000	 2.374906842035353e-001
1	 5.628542687816454e-001	 4.457952177150323e+000	 3.873292671893097e-001
1	 5.188328510548876e-001	 4.463289663131957e+000	 5.508691611751426e-001
1	 4.749117046406270e-001	 4.468176421743034e+000	 7.273936577950473e-001
1	 4.310969064089004e-001	 4.472616300914868e+000	 9.161774053112933e-001
1	 8.784593339823467e-001	 4.433822655471317e+000	-2.655972260001709e-001
1	 8.336514518348716e-001	 4.442465515053096e+000	-2.075445461373237e-001
1	 7.888984467982979e-001	 4.450630760694662e+000	-1.323672099177700e-001
1	 7.442072194087525e-001	 4.458321516512071e+000	-4.083450949135533e-002
1	 6.995845631786759e-001	 4.465541024294118e+000	 6.626873966866664e-002
1	 6.550371625536070e-001	 4.472292639865747e+000	 1.881436260561051e-001
1	 6.105715909973929e-001	 4.478579829427027e+000	 3.239785548076168e-001
1	 5.661943092051769e-001	 4.484406165872398e+000	 4.729506435881300e-001
1	 5.219116634433041e-001	 4.489775325094919e+000	 6.342270996142305e-001
1	 4.777298840151175e-001	 4.494691082279965e+000	 8.069665758495607e-001
1	 4.336550838514772e-001	 4.499157308192906e+000	 9.903205045137514e-001
1	 8.836414615753684e-001	 4.459978259764122e+000	-2.035280213618478e-001
1	 8.385692528354413e-001	 4.468672104519223e+000	-1.421702437862453e-001
1	 7.935522449324753e-001	 4.476885517837254e+000	-6.443030751941474e-002
1	 7.485973791096096e-001	 4.484621642263762e+000	 2.882528853263728e-002
1	 7.037114889549524e-001	 4.491883738711194e+000	 1.367151085195773e-001
1	 6.589012983463134e-001	 4.498675182800865e+000	 2.583443579596155e-001
1	 6.141734195251157e-001	 4.504999461180328e+000	 3.928064426101753e-001
1	 5.695343512988461e-001	 4.510860167820907e+000	 5.391845055698608e-001
1	 5.249904773711640e-001	 4.516261000300146e+000	 6.965529404048758e-001
1	 4.805480647986481e-001	 4.521205756073643e+000	 8.639788782148561e-001
1	 4.362132625730023e-001	 4.525698328740825e+000	 1.040523646676039e+000
1	 8.888235930552790e-001	 4.486133883672388e+000	-1.489514781065570e-001
1	 8.434870575246498e-001	 4.494878713639076e+000	-8.578192699791169e-002
1	 7.982060465572729e-001	 4.503140294669722e+000	-7.074539345351116e-003
1	 7.529875421033313e-001	 4.510921787739378e+000	 8.623844363871923e-002
1	 7.078384178266317e-001	 4.518226472884164e+000	 1.932107492320268e-001
1	 6.627654370372837e-001	 4.525057745521771e+000	 3.128837459003920e-001
1	 6.177752507543193e-001	 4.531419112747249e+000	 4.442880927022646e-001
1	 5.728743958975961e-001	 4.537314189608826e+000	 5.864453630007420e-001
1	 5.280692936081175e-001	 4.542746695368543e+000	 7.383696402149325e-001
1	 4.833662476957264e-001	 4.547720449752236e+000	 8.990690834752568e-001
1	 4.387714432129979e-001	 4.552239369193409e+000	 1.067547461180874e+000
1	 8.940057297174856e-001	 4.512289533734595e+000	-1.019631424409235e-001
1	 8.484048671318258e-001	 4.521085348963855e+000	-3.843333799601738e-002
1	 8.028598528360235e-001	 4.529395097755289e+000	 3.969896862292661e-002
1	 7.573777094873467e-001	 4.537221959513468e+000	 1.314667112772609e-001
1	 7.119653508253424e-001	 4.544569233398201e+000	 2.358900143543668e-001
1	 6.666295795924608e-001	 4.551440334623584e+000	 3.519779037587290e-001
1	 6.213770855853806e-001	 4.557838790732177e+000	 4.787299917250495e-001
1	 5.762144438363704e-001	 4.563768237849135e+000	 6.151381330595023e-001
1	 5.311481129238144e-001	 4.569232416921015e+000	 7.601880505527703e-001
1	 4.861844334108584e-001	 4.574235169943914e+000	 9.128609274472835e-001
1	 4.413296264109850e-001	 4.578780436185433e+000	 1.072134964980855e+000
1	 8.991878728573962e-001	 4.538445216489230e+000	-6.265635429343004e-002
1	 8.533226828862972e-001	 4.547292017044767e+000	-1.769745158557913e-004
1	 8.075136649320586e-001	 4.555649933657177e+000	 7.588912401078371e-002
1	 7.617678823590857e-001	 4.563522164160577e+000	 1.645704330979431e-001
1	 7.160922889827143e-001	 4.570912026838485e+000	 2.648841713225250e-001
1	 6.704937269777868e-001	 4.577822956701428e+000	 3.758379777519658e-001
1	 6.249789249186767e-001	 4.584258501739503e+000	 4.964315775641137e-001
1	 5.795544959501117e-001	 4.590222319154812e+000	 6.256584172504967e-001
1	 5.342269360879054e-001	 4.595718171578467e+000	 7.625072672307515e-001
1	 4.890026226485514e-001	 4.600749923276846e+000	 9.059637898464383e-001
1	 4.438878128064858e-001	 4.605321536351674e+000	 1.055012070843143e+000
1	 9.043700237704184e-001	 4.564600938474771e+000	-3.112231034039918e-002
1	 8.582405060173920e-001	 4.573498724433014e+000	 2.893587477842629e-002
1	 8.121674840087108e-001	 4.581904808938609e+000	 1.014948673817916e-001
1	 7.661580618159765e-001	 4.589822408255249e+000	 1.856085778082915e-001
1	 7.202192333303767e-001	 4.597254859790194e+000	 2.803214912614355e-001
1	 6.743578801592034e-001	 4.604205618350421e+000	 3.846702892303429e-001
1	 6.285807696545844e-001	 4.610678252373612e+000	 4.976854418262046e-001
1	 5.828945530737637e-001	 4.616676440138839e+000	 6.183927688821465e-001
1	 5.373057638700403e-001	 4.622203965961802e+000	 7.458149678004939e-001
1	 4.918208161133116e-001	 4.627264716379196e+000	 8.789731062684498e-001
1	 4.464460030390218e-001	 4.631862676326913e+000	 1.016888078100680e+000
1	 9.095521837519596e-001	 4.590756706229706e+000	-7.450124875059897e-003
1	 8.631583377544390e-001	 4.599705477679803e+000	 4.885509608862729e-002
1	 8.168213112293120e-001	 4.608159730162813e+000	 1.165151715919270e-001
1	 7.705482489554487e-001	 4.616122698372030e+000	 1.946387806338899e-001
1	 7.243461848999587e-001	 4.623597738838499e+000	 2.823273347473837e-001
1	 6.782220401026525e-001	 4.630588326165689e+000	 3.786764725859305e-001
1	 6.321826206934803e-001	 4.637098049238887e+000	 4.827775253865769e-001
1	 5.862346160422692e-001	 4.643130607414196e+000	 5.937189513915137e-001
1	 5.403845970398691e-001	 4.648689806691922e+000	 7.105877374400029e-001
1	 4.946390145096462e-001	 4.653779555879138e+000	 8.324707660712767e-001
1	 4.490041977481147e-001	 4.658403862745925e+000	 9.584561466084307e-001
1	 9.147343540974272e-001	 4.616912526292514e+000	 8.273111394663758e-003
1	 8.680761793267666e-001	 4.625912283336335e+000	 5.953171744124319e-002
1	 8.214751477571944e-001	 4.634414703893005e+000	 1.209490411657287e-001
1	 7.749384448749321e-001	 4.642423041085466e+000	 1.917173814357764e-001
1	 7.284731447230899e-001	 4.649940670568578e+000	 2.710242346519210e-001
1	 6.820862077740764e-001	 4.656971086742350e+000	 3.580536084686081e-001
1	 6.357844789357414e-001	 4.663517898939720e+000	 4.519873072820563e-001
1	 5.895746856905716e-001	 4.669584827593856e+000	 5.520061878782789e-001
1	 5.434634363670423e-001	 4.675175700389738e+000	 6.572913837512043e-001
1	 4.974572185420614e-001	 4.680294448404837e+000	 7.670254967175635e-001
1	 4.515623975732861e-001	 4.684945102243493e+000	 8.803937545714305e-001
1	 9.199165361022298e-001	 4.643068405201682e+000	 1.596227453789186e-002
1	 8.729940319637027e-001	 4.652119147953820e+000	 6.091787676419468e-002
1	 8.261289947556902e-001	 4.660669736692415e+000	 1.147955116935210e-001
1	 7.793286506718555e-001	 4.668723442970103e+000	 1.768994615380202e-001
1	 7.326001138313993e-001	 4.676283661565610e+000	 2.465319761825692e-001
1	 6.859503841394172e-001	 4.683353906675524e+000	 3.229943524944147e-001
1	 6.393863452817451e-001	 4.689937808080498e+000	 4.055879872124921e-001
1	 5.929147628536142e-001	 4.696039107290805e+000	 4.936154021952406e-001
1	 5.465422826212100e-001	 4.701661653676148e+000	 5.863812409056924e-001
1	 5.002754289150642e-001	 4.706809400584463e+000	 6.831932351121015e-001
1	 4.541206031540580e-001	 4.711486401454395e+000	 7.833631408812429e-001
1	 4.285387296057504e-001	 4.446075300271935e+000	 8.173155807858913e-001
1	 3.850890805500643e-001	 4.450049084339991e+000	 1.023615088426902e+000
1	 3.417570031782413e-001	 4.453586430291698e+000	 1.241943425810623e+000
1	 2.985482730329779e-001	 4.456691427433116e+000	 1.470193473003118e+000
1	 2.554685425323549e-001	 4.459368244970696e+000	 1.706308016712318e+000
1	 2.125233401846509e-001	 4.461621128336633e+000	 1.948281326192150e+000
1	 1.697180699191656e-001	 4.463454395533640e+000	 2.194160604960495e+000
1	 1.270580105308178e-001	 4.464872433502731e+000	 2.442047319724839e+000
1	 8.454831523620064e-002	 4.465879694517425e+000	 2.690098408123113e+000
1	 4.219401133867746e-002	 4.466480692607675e+000	 2.936527367089138e+000
1	 0.000000000000000e+000	 4.466680000016666e+000	 3.179605223841199e+000
1	 4.310969064089004e-001	 4.472616300914868e+000	 9.161774053112933e-001
1	 3.873878831668753e-001	 4.476613806624297e+000	 1.116828271491096e+000
1	 3.437971334569232e-001	 4.480172268884856e+000	 1.327859470362647e+000
1	 3.003304672990531e-001	 4.483295801413886e+000	 1.547016140801915e+000
1	 2.569935708536610e-001	 4.485988598306078e+000	 1.772086010511807e+000
1	 2.137920056316580e-001	 4.488254930336909e+000	 2.000901428924817e+000
1	 1.707312078212959e-001	 4.490099141285577e+000	 2.231341273700778e+000
1	 1.278164877294525e-001	 4.491525644281117e+000	 2.461332731448181e+000
1	 8.505302933503577e-002	 4.492538918175070e+000	 2.688852953544793e+000
1	 4.244588995207965e-002	 4.493143503944065e+000	 2.911930588168871e+000
1	 0.000000000000000e+000	 4.493344001125478e+000	 3.128647189875827e+000
1	 4.336550838514772e-001	 4.499157308192906e+000	 9.903205045137513e-001
1	 3.896866863581598e-001	 4.503178535549549e+000	 1.183924098115731e+000
1	 3.458372642453053e-001	 4.506758114124130e+000	 1.386336753689262e+000
1	 3.021126620102520e-001	 4.509900182045276e+000	 1.595201826477712e+000
1	 2.585185995557294e-001	 4.512608958295947e+000	 1.808198671159910e+000
1	 2.150606713952958e-001	 4.514888738994899e+000	 2.023045042456803e+000
1	 1.717443459761731e-001	 4.516743893697840e+000	 2.237499368618597e+000
1	 1.285749651172138e-001	 4.518178861721836e+000	 2.449362897767285e+000
1	 8.555774355965584e-002	 4.519198148496463e+000	 2.656481717342259e+000
1	 4.269776862821956e-002	 4.519806321945047e+000	 2.856748647159441e+000
1	 0.000000000000000e+000	 4.520008008899155e+000	 3.048105006844768e+000
1	 4.362132625730023e-001	 4.525698328740825e+000	 1.040523646676039e+000
1	 3.919854906986117e-001	 4.529743277756488e+000	 1.225821861889047e+000
1	 3.478773960534283e-001	 4.533343972655577e+000	 1.418459179479844e+000
1	 3.038948576121460e-001	 4.536504575978025e+000	 1.616022285299912e+000
1	 2.600436290198505e-001	 4.539229331595073e+000	 1.816127995741301e+000
1	 2.163293377927728e-001	 4.541522560968785e+000	 2.016425937652807e+000
1	 1.727574846371275e-001	 4.543388659431392e+000	 2.214601101911969e+000
1	 1.293334428837651e-001	 4.544832092488000e+000	 2.408376270084427e+000
1	 8.606245803627605e-002	 4.545857392146253e+000	 2.595514313894486e+000
1	 4.294964743008914e-002	 4.546469153276179e+000	 2.773820367511642e+000
1	 0.000000000000000e+000	 4.546672030003566e+000	 2.941143872929095e+000
1	 4.387714432129979e-001	 4.552239369193409e+000	 1.067547461180874e+000
1	 3.942842967629250e-001	 4.556308039885857e+000	 1.243419441593154e+000
1	 3.499175293913340e-001	 4.559929851125254e+000	 1.425285398710630e+000
1	 3.056770545503056e-001	 4.563108989862871e+000	 1.610719639520421e+000
1	 2.615686596273151e-001	 4.565849724858241e+000	 1.797321445408995e+000
1	 2.175980051412969e-001	 4.568156402916755e+000	 1.982717943872562e+000
1	 1.737706240574891e-001	 4.570033445147191e+000	 2.164566856134444e+000
1	 1.300919212187698e-001	 4.571485343242732e+000	 2.340559119667583e+000
1	 8.656717289111159e-002	 4.572516655789086e+000	 2.508421384924076e+000
1	 4.320152642068027e-002	 4.573132004603027e+000	 2.665918385866857e+000
1	 0.000000000000000e+000	 4.573336071104578e+000	 2.810855184182171e+000
1	 4.413296264109850e-001	 4.578780436185433e+000	 1.072134964980855e+000
1	 3.965831051257935e-001	 4.582872828578392e+000	 1.237593922653507e+000
1	 3.519576647690631e-001	 4.586515756179225e+000	 1.407849542353069e+000
1	 3.074592532703023e-001	 4.589713430350549e+000	 1.580507238050076e+000
1	 2.630936917594145e-001	 4.592470144740219e+000	 1.753192947162590e+000
1	 2.188666737580767e-001	 4.594790271496990e+000	 1.923556107404468e+000
1	 1.747837644905881e-001	 4.596678257506201e+000	 2.089272513253789e+000
1	 1.308504003118915e-001	 4.598138620649134e+000	 2.248047050715503e+000
1	 8.707188825037780e-002	 4.599175946089609e+000	 2.397616309359422e+000
1	 4.345340566298491e-002	 4.599794882591152e+000	 2.535751070913832e+000
1	 0.000000000000000e+000	 4.600000138868055e+000	 2.660258673983230e+000
1	 4.438878128064858e-001	 4.605321536351674e+000	 1.055012070843143e+000
1	 3.988819163619112e-001	 4.609437650474841e+000	 1.209202197075199e+000
1	 3.539978026966568e-001	 4.613101694463545e+000	 1.367161928717350e+000
1	 3.092414542177066e-001	 4.616317904091794e+000	 1.526570486374820e+000
1	 2.646187257974394e-001	 4.619090597895789e+000	 1.685123860947118e+000
1	 2.201353439603201e-001	 4.621424173367672e+000	 1.840537809796930e+000
1	 1.757969061897544e-001	 4.623323103169382e+000	 1.990550737701524e+000
1	 1.316088803527938e-001	 4.624791931370332e+000	 2.132926461043821e+000
1	 8.757660424028992e-002	 4.625835269712468e+000	 2.265456854005306e+000
1	 4.370528521999494e-002	 4.626457793906114e+000	 2.385964375818920e+000
1	 0.000000000000000e+000	 4.626664239959867e+000	 2.492304478427931e+000
1	 4.464460030390218e-001	 4.631862676326913e+000	 1.016888078100680e+000
1	 4.011807310459722e-001	 4.636002512215940e+000	 1.159081542729849e+000
1	 3.560379436841565e-001	 4.639687672624278e+000	 1.304209746449754e+000
1	 3.110236578380897e-001	 4.642922417737343e+000	 1.450067647906911e+000
1	 2.661437621226806e-001	 4.645711090979727e+000	 1.594463913465038e+000
1	 2.214040160652356e-001	 4.648058115186988e+000	 1.735223847697589e+000
1	 1.768100494083184e-001	 4.649967988797697e+000	 1.870192215260916e+000
1	 1.323673615311400e-001	 4.651445282069431e+000	 1.997235952495596e+000
1	 8.808132098706309e-002	 4.652494633322308e+000	 2.114246767398720e+000
1	 4.395716515470233e-002	 4.653120745213482e+000	 2.219143626897122e+000
1	 0.000000000000000e+000	 4.653328381045878e+000	 2.309875130629755e+000
1	 4.490041977481147e-001	 4.658403862745925e+000	 9.584561466084307e-001
1	 4.034795497526701e-001	 4.662567420442431e+000	 1.088050182817542e+000
1	 3.580780882416032e-001	 4.666273697307478e+000	 1.219957714155693e+000
1	 3.128058645770226e-001	 4.669526977937935e+000	 1.352130617911367e+000
1	 2.676688011164292e-001	 4.672331630646809e+000	 1.482532100030449e+000
1	 2.226726903900313e-001	 4.674692103613121e+000	 1.609139475737223e+000
1	 1.778231943996100e-001	 4.676612921052107e+000	 1.729946849556703e+000
1	 1.331258440365939e-001	 4.678098679409549e+000	 1.842967693083317e+000
1	 8.858603861691267e-002	 4.679154043583776e+000	 1.946237319118364e+000
1	 4.420904553009895e-002	 4.679783743178811e+000	 2.037815251069718e+000
1	 0.000000000000000e+000	 4.679992568791956e+000	 2.115787486770743e+000
1	 4.515623975732861e-001	 4.684945102243493e+000	 8.803937545714304e-001
1	 4.057783730566993e-001	 4.689132381795057e+000	 9.969078262909227e-001
1	 3.601182368790378e-001	 4.692859775159207e+000	 1.115348717576677e+000
1	 3.145880748800762e-001	 4.696131591344303e+000	 1.233865671096725e+000
1	 2.691938431599759e-001	 4.698952223551812e+000	 1.350617555734385e+000
1	 2.239413672519154e-001	 4.701326145304251e+000	 1.463775413925595e+000
1	 1.788363414169593e-001	 4.703257906593571e+000	 1.571524917829497e+000
1	 1.338843280588187e-001	 4.704752130053802e+000	 1.672068732779086e+000
1	 8.909075725605382e-002	 4.705813507161520e+000	 1.763628786713196e+000
1	 4.446092640917675e-002	 4.706446794467667e+000	 1.844448444538498e+000
1	 0.000000000000000e+000	 4.706656809863968e+000	 1.912794586611040e+000
1	 4.541206031540580e-001	 4.711486401454395e+000	 7.833631408812429e-001
1	 4.080772015327535e-001	 4.715697402914556e+000	 8.864361899929265e-001
1	 3.621583901065020e-001	 4.719445912825524e+000	 9.913044252069172e-001
1	 3.163702891928216e-001	 4.722736264607185e+000	 1.096354183909492e+000
1	 2.707188886346119e-001	 4.725572876349515e+000	 1.199980397132229e+000
1	 2.252100469680961e-001	 4.727960246918567e+000	 1.300588820960064e+000
1	 1.798494907136967e-001	 4.729902952083056e+000	 1.396598187602526e+000
1	 1.346428137874782e-001	 4.731405640665301e+000	 1.486442274782277e+000
1	 8.959547703070191e-002	 4.732473030720189e+000	 1.568571892318081e+000
1	 4.471280785492766e-002	 4.733109905745613e+000	 1.641456784997355e+000
1	 0.000000000000000e+000	 4.733321110927780e+000	 1.703587451044630e+000
1	 4.733321110927780e+000	 0.000000000000000e+000	-3.849811512851452e-001
1	 4.733109905745614e+000	 4.471280785492782e-002	-3.669710738525872e-001
1	 4.732473030720188e+000	 8.959547703070217e-002	-3.466364760770179e-001
1	 4.731405640665302e+000	 1.346428137874779e-001	-3.244622870955969e-001
1	 4.729902952083056e+000	 1.798494907136964e-001	-3.009298531227467e-001
1	 4.727960246918567e+000	 2.252100469680961e-001	-2.765161186830920e-001
1	 4.725572876349514e+000	 2.707188886346120e-001	-2.516927904190073e-001
1	 4.722736264607185e+000	 3.163702891928218e-001	-2.269254844314663e-001
1	 4.719445912825525e+000	 3.621583901065016e-001	-2.026728581844350e-001
1	 4.715697402914556e+000	 4.080772015327532e-001	-1.793857280747264e-001
1	 4.711486401454396e+000	 4.541206031540578e-001	-1.575061738408542e-001
1	 4.759989469820151e+000	 0.000000000000000e+000	-3.343677542990434e-001
1	 4.759777074671016e+000	 4.496472763253102e-002	-3.190206560761646e-001
1	 4.759136611380217e+000	 9.010027361466881e-002	-3.018206691179764e-001
1	 4.758063207462941e+000	 1.354014149440845e-001	-2.831522561164030e-001
1	 4.756552052470238e+000	 1.808627941936055e-001	-2.633975350919601e-001
1	 4.754598401764884e+000	 2.264789197545885e-001	-2.429356321829312e-001
1	 4.752197580332300e+000	 2.722441661938199e-001	-2.221420197286413e-001
1	 4.749344986623096e+000	 3.181527747266116e-001	-2.013878403757999e-001
1	 4.746036096423839e+000	 3.641988538086731e-001	-1.810392179946463e-001
1	 4.742266466752271e+000	 4.103763798492339e-001	-1.614565562496441e-001
1	 4.738031739773277e+000	 4.566791980477859e-001	-1.429938257274909e-001
1	 4.786657848721421e+000	 0.000000000000000e+000	-2.920978241183970e-001
1	 4.786444263604396e+000	 4.521664759929026e-002	-2.784648342816110e-001
1	 4.785800212045456e+000	 9.060507057761931e-002	-2.634455443374157e-001
1	 4.784720794261157e+000	 1.361600166701585e-001	-2.473328107687290e-001
1	 4.783201172851483e+000	 1.818760984341038e-001	-2.304180244847888e-001
1	 4.781236576596880e+000	 2.277477934934140e-001	-2.129906163087115e-001
1	 4.778822304290480e+000	 2.737694448977088e-001	-1.953375505589017e-001
1	 4.775953728602227e+000	 3.199352615980164e-001	-1.777428072605466e-001
1	 4.772626299971281e+000	 3.662393190419610e-001	-1.604868535684265e-001
1	 4.768835550523108e+000	 4.126755598908812e-001	-1.438461050276176e-001
1	 4.764577098007343e+000	 4.592377948612594e-001	-1.280923773440761e-001
1	 4.813326200962828e+000	 0.000000000000000e+000	-2.568893655126043e-001
1	 4.813111425879085e+000	 4.546856731450769e-002	-2.442381848453771e-001
1	 4.812463786055540e+000	 9.110986703643684e-002	-2.306541515180448e-001
1	 4.811378354410160e+000	 1.369186176384996e-001	-2.163472750044483e-001
1	 4.809850266591902e+000	 1.828894016623030e-001	-2.015266236710631e-001
1	 4.807874724798891e+000	 2.290166659644496e-001	-1.863999642897764e-001
1	 4.805447001632020e+000	 2.752947220774363e-001	-1.711733925239181e-001
1	 4.802562443980586e+000	 3.217177466880521e-001	-1.560509547677236e-001
1	 4.799216476936393e+000	 3.682797822358816e-001	-1.412342617526670e-001
1	 4.795404607732644e+000	 4.149747376344186e-001	-1.269220943677982e-001
1	 4.791122429703764e+000	 4.617963891171834e-001	-1.133100021748606e-001
1	 4.839994479875599e+000	 0.000000000000000e+000	-2.274886719365092e-001
1	 4.839778514828407e+000	 4.572048633748538e-002	-2.152987995588734e-001
1	 4.839127286750117e+000	 9.161466210800462e-002	-2.026084606590729e-001
1	 4.838035841260179e+000	 1.376772165219083e-001	-1.895534781603863e-001
1	 4.836499287056592e+000	 1.839027021053143e-001	-1.762689081326395e-001
1	 4.834512799755251e+000	 2.302855349475718e-001	-1.628887948374296e-001
1	 4.832071625764876e+000	 2.768199950641596e-001	-1.495459197051288e-001
1	 4.829171086194195e+000	 3.235002268777344e-001	-1.363715445040820e-001
1	 4.825806580787717e+000	 3.703202398199507e-001	-1.234951489851532e-001
1	 4.821973591886459e+000	 4.172739090565691e-001	-1.110441633075641e-001
1	 4.817667688409711e+000	 4.643549763382627e-001	-9.914369557501467e-002
1	 4.866662638790971e+000	 0.000000000000000e+000	-2.026695516362526e-001
1	 4.866445483785694e+000	 4.597240422752544e-002	-1.906276424769935e-001
1	 4.865790667468827e+000	 9.211945490920574e-002	-1.784888446772911e-001
1	 4.864693208161425e+000	 1.384358119931847e-001	-1.663233585612785e-001
1	 4.863148187610657e+000	 1.849159979902493e-001	-1.542004459595967e-001
1	 4.861150754850293e+000	 2.315543982226573e-001	-1.421882824706665e-001
1	 4.858696130097010e+000	 2.783452611890360e-001	-1.303538066907147e-001
1	 4.855779608679063e+000	 3.252826990480789e-001	-1.187625665894028e-001
1	 4.852396564993790e+000	 3.723606882236841e-001	-1.074785632209351e-001
1	 4.848542456490132e+000	 4.195730701340565e-001	-9.656409197360538e-002
1	 4.844212827672349e+000	 4.669135520472020e-001	-8.607958157382926e-002
1	 4.893330631040176e+000	 0.000000000000000e+000	-1.812325788317835e-001
1	 4.893112286084271e+000	 4.622432054392998e-002	-1.692279276069305e-001
1	 4.892453881551311e+000	 9.262424455692345e-002	-1.574935788705995e-001
1	 4.891350408464123e+000	 1.391944027251289e-001	-1.460425799676600e-001
1	 4.889796921619200e+000	 1.859292875442192e-001	-1.348865264361609e-001
1	 4.887788543468358e+000	 2.328232535695832e-001	-1.240354933404997e-001
1	 4.885320468036373e+000	 2.798705177832224e-001	-1.134979666882916e-001
1	 4.882387964871203e+000	 3.270651600801012e-001	-1.032807750599954e-001
1	 4.878986383023156e+000	 3.744011238765979e-001	-9.338902158474043e-002
1	 4.875111155049246e+000	 4.218722168436039e-001	-8.382601640009037e-002
1	 4.870757801038845e+000	 4.694721117667059e-001	-7.459320973754940e-002
1	 4.919998409954449e+000	 0.000000000000000e+000	-1.620043690332782e-001
1	 4.919778875057467e+000	 4.647623484600112e-002	-1.501245166538343e-001
1	 4.919116882337212e+000	 9.312903016804093e-002	-1.388383565137504e-001
1	 4.918007395518489e+000	 1.399529873905411e-001	-1.281101603857945e-001
1	 4.916445442447325e+000	 1.869425689943357e-001	-1.179018973746485e-001
1	 4.914426118993778e+000	 2.340920987682258e-001	-1.081732263462014e-001
1	 4.911944592990930e+000	 2.813957621778768e-001	-9.888149163290765e-002
1	 4.908996108206632e+000	 3.288476068548174e-001	-8.998172213200856e-002
1	 4.905575988344355e+000	 3.764415432082078e-001	-8.142663391014536e-002
1	 4.901679641069378e+000	 4.241713451619347e-001	-7.316663642437876e-002
1	 4.897302562056371e+000	 4.720306510194794e-001	-6.514984246556162e-002
1	 4.946665928865022e+000	 0.000000000000000e+000	-1.438368775889981e-001
1	 4.946445204038611e+000	 4.672814669304094e-002	-1.323633360733085e-001
1	 4.945779623166172e+000	 9.363381085944132e-002	-1.217558199831158e-001
1	 4.944664122674740e+000	 1.407115646622214e-001	-1.119381127773896e-001
1	 4.943093703460129e+000	 1.879558405677100e-001	-1.028305108703269e-001
1	 4.941063434810887e+000	 2.353609315984621e-001	-9.434985934557799e-002
1	 4.938568458368636e+000	 2.829209917041559e-001	-8.640959421577910e-002
1	 4.935603992121361e+000	 3.306300362532426e-001	-7.891979136719032e-002
1	 4.932165334425927e+000	 3.784819426480299e-001	-7.178722231934179e-002
1	 4.928247868056106e+000	 4.264704510657721e-001	-6.491541691915438e-002
1	 4.923847064272091e+000	 4.745891653282273e-001	-5.820473307771269e-002
1	 4.973333141103128e+000	 0.000000000000000e+000	-1.256067206005024e-001
1	 4.973111226361028e+000	 4.698005564435157e-002	-1.150108127126148e-001
1	 4.972442057377832e+000	 9.413858574800782e-002	-1.054951068328698e-001
1	 4.971320543283099e+000	 1.414701332129701e-001	-9.695109722650964e-002
1	 4.969741658022721e+000	 1.889691004914536e-001	-8.926527716400437e-002
1	 4.967700444304020e+000	 2.366297498401687e-001	-8.231920026985583e-002
1	 4.965192017577452e+000	 2.844462036932173e-001	-7.598955176234751e-002
1	 4.962211570051403e+000	 3.324124451563927e-001	-7.014822978196507e-002
1	 4.958754374736414e+000	 3.805223186255800e-001	-6.466243699081649e-002
1	 4.954815789515014e+000	 4.287695305318400e-001	-5.939478260888551e-002
1	 4.950391261233177e+000	 4.771476502156544e-001	-5.420339503532114e-002
1	 5.000000000000000e+000	 0.000000000000000e+000	-1.062145173776311e-001
1	 4.999776895358052e+000	 4.723196125923512e-002	-9.715332735283683e-002
1	 4.999104138311836e+000	 9.464335395062359e-002	-8.932141026941506e-002
1	 4.997976610693785e+000	 1.422286917155873e-001	-8.258608413980155e-002
1	 4.996389259500201e+000	 1.899823469926779e-001	-7.680782631237519e-002
1	 4.994337100857515e+000	 2.378985512732224e-001	-7.184034296171078e-002
1	 4.991815224025335e+000	 2.859713954762181e-001	-6.753065189126511e-002
1	 4.988818795432773e+000	 3.341948304452838e-001	-6.371917893894584e-002
1	 4.985343062744358e+000	 3.825626675703741e-001	-6.023986825599065e-002
1	 4.981383358951679e+000	 4.310685795368612e-001	-5.692030670800798e-002
1	 4.976935106486797e+000	 4.797061012044654e-001	-5.358186262396867e-002
1	 4.711486401454396e+000	 4.541206031540578e-001	-1.575061738408542e-001
1	 4.706809400584461e+000	 5.002754289150643e-001	-1.368809344462796e-001
1	 4.701661653676148e+000	 5.465422826212096e-001	-1.172008018960105e-001
1	 4.696039107290806e+000	 5.929147628536142e-001	-9.867874469197530e-002
1	 4.689937808080498e+000	 6.393863452817449e-001	-8.153080975893635e-002
1	 4.683353906675524e+000	 6.859503841394172e-001	-6.597589187750773e-002
1	 4.676283661565610e+000	 7.326001138313998e-001	-5.223549234879154e-002
1	 4.668723442970103e+000	 7.793286506718558e-001	-4.053346702466915e-002
1	 4.660669736692414e+000	 8.261289947556906e-001	-3.109576386644314e-002
1	 4.652119147953820e+000	 8.729940319637025e-001	-2.415015022393419e-002
1	 4.643068405201682e+000	 9.199165361022299e-001	-1.992593005687284e-002
1	 4.738031739773277e+000	 4.566791980477859e-001	-1.429938257274909e-001
1	 4.733328387862385e+000	 5.030940681690770e-001	-1.255370694897964e-001
1	 4.728151637647651e+000	 5.496215974204831e-001	-1.088423758735549e-001
1	 4.722497412852645e+000	 5.962553483164128e-001	-9.307573488624266e-002
1	 4.716361737855573e+000	 6.429887597671158e-001	-7.840866459534808e-002
1	 4.709740741598712e+000	 6.898151485630015e-001	-6.501810173638420e-002
1	 4.702630661491456e+000	 7.367277109902937e-001	-5.308628046312951e-002
1	 4.695027847302340e+000	 7.837195245792673e-001	-4.280059911168253e-002
1	 4.686928765035166e+000	 8.307835499861415e-001	-3.435347487343284e-002
1	 4.678330000784434e+000	 8.779126330095242e-001	-2.794218629672898e-002
1	 4.669228264565003e+000	 9.250995067421184e-001	-2.376870356281411e-002
1	 4.764577098007343e+000	 4.592377948612594e-001	-1.280923773440761e-001
1	 4.759847395035628e+000	 5.059127095378930e-001	-1.131493105764161e-001
1	 4.754641641492657e+000	 5.527009145300991e-001	-9.883901175385322e-002
1	 4.748955738264196e+000	 5.995959362855475e-001	-8.528941945012990e-002
1	 4.742785687454573e+000	 6.465911769552420e-001	-7.263560634827035e-002
1	 4.736127596318020e+000	 6.936799158861571e-001	-6.101975912702344e-002
1	 4.728977681183593e+000	 7.408553112459421e-001	-5.059114600242517e-002
1	 4.721332271368975e+000	 7.881104017809547e-001	-4.150607161160617e-002
1	 4.713187813078357e+000	 8.354381087086968e-001	-3.392781894521282e-002
1	 4.704540873279440e+000	 8.828312377455565e-001	-2.802657805557684e-002
1	 4.695388143554560e+000	 9.302824812705676e-001	-2.397936129005553e-002
1	 4.791122429703764e+000	 4.617963891171834e-001	-1.133100021748606e-001
1	 4.786366375697530e+000	 5.087313480891076e-001	-1.003549842452254e-001
1	 4.781131618855300e+000	 5.557802285614466e-001	-8.794333898652872e-002
1	 4.775414037225055e+000	 6.029365209151659e-001	-7.617373679460202e-002
1	 4.769209610637268e+000	 6.501935905420583e-001	-6.515275397620851e-002
1	 4.762514424658146e+000	 6.975446793456980e-001	-5.499491032701485e-002
1	 4.755324674536412e+000	 7.449829073751971e-001	-4.582269447516602e-002
1	 4.747636669138935e+000	 7.925012745930328e-001	-3.776657657049788e-002
1	 4.739446834870297e+000	 8.400926627780260e-001	-3.096500791527648e-002
1	 4.730751719571419e+000	 8.877498375643830e-001	-2.556440714996750e-002
1	 4.721547996392131e+000	 9.354654506175090e-001	-2.171913262678482e-002
1	 4.817667688409711e+000	 4.643549763382627e-001	-9.914369557501468e-002
1	 4.812885283441428e+000	 5.115499788903157e-001	-8.777739083429548e-002
1	 4.807621523379715e+000	 5.588595341259147e-001	-7.689141816267901e-002
1	 4.801872263434824e+000	 6.062770963594154e-001	-6.656382248164572e-002
1	 4.795633461163435e+000	 6.537959942234990e-001	-5.688050130363447e-002
1	 4.788901180443781e+000	 7.014094321784387e-001	-4.793526871716076e-002
1	 4.781671595444322e+000	 7.491104921549108e-001	-3.982990784103300e-002
1	 4.773940994581147e+000	 7.968921353316147e-001	-3.267421129737360e-002
1	 4.765705784459295e+000	 8.447472040487973e-001	-2.658600926653997e-002
1	 4.756962493792951e+000	 8.926684238585888e-001	-2.169118470212078e-002
1	 4.747707777299494e+000	 9.406484057128738e-001	-1.812367530102443e-002
1	 4.844212827672349e+000	 4.669135520472020e-001	-8.607958157382926e-002
1	 4.839404071860662e+000	 5.143685970091132e-001	-7.602618925395568e-002
1	 4.834111308710036e+000	 5.619388258348922e-001	-6.640319539515792e-002
1	 4.828330370593108e+000	 6.096176567724444e-001	-5.727652476181153e-002
1	 4.822057192792849e+000	 6.573983816954989e-001	-4.871908518498441e-002
1	 4.815287817499625e+000	 7.052741676211931e-001	-4.081082696587187e-002
1	 4.808018397801715e+000	 7.532380583619343e-001	-3.363879204038551e-002
1	 4.800245201664535e+000	 8.012829763128148e-001	-2.729715250044188e-002
1	 4.791964615893655e+000	 8.494017243756789e-001	-2.188723807927687e-002
1	 4.783173150076617e+000	 8.975869880207577e-001	-1.751755222143218e-002
1	 4.773867440498422e+000	 9.458313374865937e-001	-1.430377637293820e-002
1	 4.870757801038845e+000	 4.694721117667059e-001	-7.459320973754940e-002
1	 4.865922694548569e+000	 5.171871975130948e-001	-6.569776929324764e-002
1	 4.860600928490404e+000	 5.650180982997678e-001	-5.718294197660864e-002
1	 4.854788312399505e+000	 6.129581963083999e-001	-4.911090340787683e-002
1	 4.848480759285287e+000	 6.610007466539924e-001	-4.154913525955224e-002
1	 4.841674289650374e+000	 7.091388789107757e-001	-3.457044937809499e-002
1	 4.834365035503001e+000	 7.573655987731198e-001	-2.825300354304725e-002
1	 4.826549244358028e+000	 8.056737898527467e-001	-2.268030858053210e-002
1	 4.818223283221691e+000	 8.540562156133400e-001	-1.794122655914366e-002
1	 4.809383642555000e+000	 9.025055214434747e-001	-1.412995980851729e-002
1	 4.800026940210696e+000	 9.510142368686005e-001	-1.134603051427997e-002
1	 4.897302562056371e+000	 4.720306510194794e-001	-6.514984246556162e-002
1	 4.892441105098484e+000	 5.200057754698558e-001	-5.737561192831527e-002
1	 4.887090336364951e+000	 5.680973461319306e-001	-4.991967986877828e-002
1	 4.881246042553618e+000	 6.162987091214294e-001	-4.284871247263729e-002
1	 4.874904114400523e+000	 6.646030827949143e-001	-3.623220598940376e-002
1	 4.868060550720721e+000	 7.130035592839998e-001	-3.014244515453286e-002
1	 4.860711462442573e+000	 7.614931061653185e-001	-2.465445570517867e-002
1	 4.852853076630552e+000	 8.100645682675247e-001	-1.984595090293769e-002
1	 4.844481740491708e+000	 8.587106696164488e-001	-1.579727198821636e-002
1	 4.835593925360677e+000	 9.074240155193241e-001	-1.259132250270487e-002
1	 4.826186230658091e+000	 9.561970947888256e-001	-1.031349642892048e-002
1	 4.923847064272091e+000	 4.745891653282273e-001	-5.820473307771269e-002
1	 4.918959257103752e+000	 5.228243259469916e-001	-5.163063808140445e-002
1	 4.913579485977811e+000	 5.711765639427692e-001	-4.528759355297589e-002
1	 4.907703514755047e+000	 6.196391893656807e-001	-3.925486757201745e-002
1	 4.901327211898328e+000	 6.682053838141988e-001	-3.361129164286283e-002
1	 4.894446554535365e+000	 7.168682019776804e-001	-2.843512327504246e-002
1	 4.887057632514837e+000	 7.656205733153826e-001	-2.380390568935351e-002
1	 4.879156652451032e+000	 8.144553038732628e-001	-1.979432483379956e-002
1	 4.870739941752015e+000	 8.633650782396735e-001	-1.648206390593269e-002
1	 4.861803952626233e+000	 9.123424616408908e-001	-1.394165559032289e-002
1	 4.852345266062381e+000	 9.613799021772007e-001	-1.224633223189187e-002
1	 4.950391261233177e+000	 4.771476502156544e-001	-5.420339503532114e-002
1	 4.945477104157705e+000	 5.256428440120975e-001	-4.902154626009545e-002
1	 4.940068330973120e+000	 5.742557463436725e-001	-4.394642874900845e-002
1	 4.934160682703396e+000	 6.229796311953015e-001	-3.907789826911951e-002
1	 4.927750005538484e+000	 6.718076434077811e-001	-3.451132485796087e-002
1	 4.920832254918999e+000	 7.207328002286313e-001	-3.033732968973315e-002
1	 4.913403499614191e+000	 7.697479930001636e-001	-2.664152267083259e-002
1	 4.905459925788396e+000	 8.188459889860744e-001	-2.350424129374147e-002
1	 4.896997841050921e+000	 8.680194333376835e-001	-2.100029129253151e-002
1	 4.888013678484247e+000	 9.172608512007584e-001	-1.919868965639335e-002
1	 4.878504000645348e+000	 9.665626499636572e-001	-1.816241056965222e-002
1	 4.976935106486797e+000	 4.797061012044654e-001	-5.358186262396867e-002
1	 4.971994599853684e+000	 5.284613247327683e-001	-5.009513948823353e-002
1	 4.966556824995020e+000	 5.773348879460297e-001	-4.654187848849385e-002
1	 4.960617500098262e+000	 6.263200287644395e-001	-4.305038611050495e-002
1	 4.954172449080763e+000	 6.754098552715953e-001	-3.973965939339936e-002
1	 4.947217605696318e+000	 7.245973472736667e-001	-3.671896747242501e-002
1	 4.939749017635035e+000	 7.738753579965135e-001	-3.408743802247879e-002
1	 4.931762850611571e+000	 8.232366159220740e-001	-3.193364954964486e-002
1	 4.923255392436735e+000	 8.726737267651470e-001	-3.033523049493682e-002
1	 4.914223057067300e+000	 9.221791755915121e-001	-2.935846612925234e-002
1	 4.904662388628768e+000	 9.717453290781268e-001	-2.905791423116492e-002
1	 4.643068405201682e+000	 9.199165361022299e-001	-1.992593005687284e-002
1	 4.633512893397807e+000	 9.668962193495462e-001	-1.865949844575914e-002
1	 4.623450920909602e+000	 1.013918590844765e+000	-2.033140150184034e-002
1	 4.612879611221273e+000	 1.060976087736484e+000	-2.478084253672655e-002
1	 4.601796226075082e+000	 1.108061044715826e+000	-3.183905588868200e-002
1	 4.590198169078671e+000	 1.155165696837305e+000	-4.132944396202616e-002
1	 4.578082989255348e+000	 1.202282182474619e+000	-5.306773049526373e-002
1	 4.565448384531957e+000	 1.249402546410591e+000	-6.686213015330453e-002
1	 4.552292205158868e+000	 1.296518743060276e+000	-8.251353450255002e-002
1	 4.538612457056609e+000	 1.343622639825983e+000	-9.981571438985862e-002
1	 4.524407305083716e+000	 1.390706020582740e+000	-1.185555387073811e-001
1	 4.669228264565003e+000	 9.250995067421184e-001	-2.376870356281410e-002
1	 4.659618915336746e+000	 9.723438817405616e-001	-2.202947023625262e-002
1	 4.649500251936108e+000	 1.019631185499926e+000	-2.270581218398800e-002
1	 4.638869381640498e+000	 1.066953812558382e+000	-2.567737808203663e-002
1	 4.627723550764356e+000	 1.114304054419368e+000	-3.082168065668152e-002
1	 4.616060148286781e+000	 1.161674102388337e+000	-3.801428624037799e-002
1	 4.603876709421853e+000	 1.209056050545213e+000	-4.712901188391905e-002
1	 4.591170919126121e+000	 1.256441898851737e+000	-5.803812981044475e-002
1	 4.577940615537888e+000	 1.303823556392735e+000	-7.061257897315489e-002
1	 4.564183793342687e+000	 1.351192844750042e+000	-8.472218345483087e-002
1	 4.549898607059532e+000	 1.398541501507601e+000	-1.002358774235900e-001
1	 4.695388143554560e+000	 9.302824812705676e-001	-2.397936129005552e-002
1	 4.685724956861634e+000	 9.777915482187314e-001	-2.195306148547070e-002
1	 4.675549602506141e+000	 1.025343784441016e+000	-2.193408971591404e-002
1	 4.664859171558672e+000	 1.072931541865137e+000	-2.383388731179590e-002
1	 4.653650894905826e+000	 1.120547068806811e+000	-2.756603251831653e-002
1	 4.641922146898159e+000	 1.168182512822401e+000	-3.304646364135986e-002
1	 4.629670448940495e+000	 1.215829923698024e+000	-4.019370327702167e-002
1	 4.616893473019093e+000	 1.263481256574304e+000	-4.892908319064590e-002
1	 4.603589045160168e+000	 1.311128375205806e+000	-5.917696939738725e-002
1	 4.589755148814240e+000	 1.358763055353852e+000	-7.086498698335896e-002
1	 4.575389928160807e+000	 1.406376988311272e+000	-8.392424419439985e-002
1	 4.721547996392131e+000	 9.354654506175090e-001	-2.171913262678482e-002
1	 4.711830972288418e+000	 9.832392092507670e-001	-1.957444253663153e-002
1	 4.701598927034792e+000	 1.031056377671105e+000	-1.912374025498657e-002
1	 4.690848935495056e+000	 1.078909265195828e+000	-2.030168251717238e-002
1	 4.679578213127978e+000	 1.126790076952974e+000	-2.304779292327955e-002
1	 4.667784119655580e+000	 1.174690916749863e+000	-2.730669995908544e-002
1	 4.655464162673451e+000	 1.222603790078849e+000	-3.302837180983622e-002
1	 4.642616001197560e+000	 1.270520607259488e+000	-4.016834740236475e-002
1	 4.629237449142049e+000	 1.318433186716127e+000	-4.868796310411639e-002
1	 4.615326478722450e+000	 1.366333258389628e+000	-5.855457450220190e-002
1	 4.600881223778736e+000	 1.414212467281752e+000	-6.974177268166032e-002
1	 4.747707777299494e+000	 9.406484057128738e-001	-1.812367530102443e-002
1	 4.737936915933036e+000	 9.886868553033804e-001	-1.601259074359071e-002
1	 4.727648179937163e+000	 1.036768955193263e+000	-1.535788824563182e-002
1	 4.716838627968923e+000	 1.084886972089533e+000	-1.610893641261674e-002
1	 4.705505460059300e+000	 1.133033067932675e+000	-1.822117459938167e-002
1	 4.693646021301823e+000	 1.181199302781087e+000	-2.165634729779415e-002
1	 4.681257805482885e+000	 1.229377637833485e+000	-2.638273319081083e-002
1	 4.668338458648202e+000	 1.277559938588484e+000	-3.237536826656816e-002
1	 4.654885782599884e+000	 1.325737978140340e+000	-3.961626238330161e-002
1	 4.640897738318490e+000	 1.373903440609585e+000	-4.809460867472479e-002
1	 4.626372449304512e+000	 1.422047924707039e+000	-5.780698518608119e-002
1	 4.773867440498422e+000	 9.458313374865937e-001	-1.430377637293820e-002
1	 4.764042742111434e+000	 9.941344768432839e-001	-1.236198115237249e-002
1	 4.753697315628352e+000	 1.042481507010558e+000	-1.169594495345905e-002
1	 4.742828203499542e+000	 1.090864652085331e+000	-1.226131673140965e-002
1	 4.731432590328278e+000	 1.139276030820732e+000	-1.401951047418528e-002
1	 4.719507806579668e+000	 1.187707659526438e+000	-1.693791765060924e-002
1	 4.707051332230972e+000	 1.236151455107730e+000	-2.099011434552855e-002
1	 4.694060800357711e+000	 1.284599238242489e+000	-2.615606252169914e-002
1	 4.680534000650018e+000	 1.333042736695088e+000	-3.242230484640676e-002
1	 4.666468882853537e+000	 1.381473588765937e+000	-3.978215252074229e-002
1	 4.651863560129326e+000	 1.429883346875132e+000	-4.823586555100449e-002
1	 4.800026940210696e+000	 9.510142368686005e-001	-1.134603051427997e-002
1	 4.790148405139556e+000	 9.995820643371889e-001	-9.693254804005983e-003
1	 4.779746288523451e+000	 1.048194023126059e+000	-9.174255338407019e-003
1	 4.768817616606178e+000	 1.096842294722300e+000	-9.742600260001174e-003
1	 4.757359558563400e+000	 1.145518954691962e+000	-1.135582351546618e-002
1	 4.745369430231897e+000	 1.194215975596279e+000	-1.397559725526977e-002
1	 4.732844697779878e+000	 1.242925230047382e+000	-1.756790107136544e-002
1	 4.719782981312769e+000	 1.291638493902698e+000	-2.210318764584269e-002
1	 4.706182058408797e+000	 1.340347449597011e+000	-2.755654438007084e-002
1	 4.692039867578769e+000	 1.389043689610899e+000	-3.390785057166819e-002
1	 4.677354511644375e+000	 1.437718720074028e+000	-4.114192970563046e-002
1	 4.826186230658091e+000	 9.561970947888256e-001	-1.031349642892048e-002
1	 4.816253859333342e+000	 1.005029608251808e+000	-9.053865500045888e-003
1	 4.805795053037557e+000	 1.053906493542835e+000	-8.806724081296872e-003
1	 4.794806821808104e+000	 1.102819889539520e+000	-9.515267084196083e-003
1	 4.783286319393154e+000	 1.151761828621185e+000	-1.112337820791434e-002
1	 4.771230847001283e+000	 1.200724239600977e+000	-1.357574437437495e-002
1	 4.758637856991777e+000	 1.249698950798238e+000	-1.681797126642685e-002
1	 4.745504956500062e+000	 1.298677693250309e+000	-2.079669976168157e-002
1	 4.731829910992569e+000	 1.347652104062751e+000	-2.545972304673747e-002
1	 4.717610647745362e+000	 1.396613729896686e+000	-3.075610418903141e-002
1	 4.702845259240852e+000	 1.445554030591728e+000	-3.663629393649686e-002
1	 4.852345266062381e+000	 9.613799021772007e-001	-1.224633223189187e-002
1	 4.842359059008737e+000	 1.010477099053851e+000	-1.146870583619285e-002
1	 4.831843563585774e+000	 1.059618908263955e+000	-1.158542154339206e-002
1	 4.820795773624588e+000	 1.108797426076069e+000	-1.252107578720028e-002
1	 4.809212827446027e+000	 1.158004641683217e+000	-1.419621435282615e-002
1	 4.797092011630610e+000	 1.207232440150896e+000	-1.652737112003780e-002
1	 4.784430764728838e+000	 1.256472605506095e+000	-1.942711427227167e-002
1	 4.771226680906277e+000	 1.305716823966516e+000	-2.280410006993703e-002
1	 4.757477513517682e+000	 1.354956687308949e+000	-2.656313427083265e-002
1	 4.743181178604490e+000	 1.404183696375512e+000	-3.060524126468447e-002
1	 4.728335758309949e+000	 1.453389264716227e+000	-3.482774097223489e-002
1	 4.878504000645348e+000	 9.665626499636572e-001	-1.816241056965222e-002
1	 4.868463958481681e+000	 1.015924527210032e+000	-1.794071327519984e-002
1	 4.857891774583191e+000	 1.065331257292488e+000	-1.848117040541419e-002
1	 4.846784426574896e+000	 1.114774893871026e+000	-1.968162030808448e-002
1	 4.835139037350504e+000	 1.164247382952877e+000	-2.142966384835185e-002
1	 4.822952878862654e+000	 1.213740565856399e+000	-2.360260991647487e-002
1	 4.810223375853233e+000	 1.263246182316751e+000	-2.606743684697727e-002
1	 4.796948109518097e+000	 1.312755873732517e+000	-2.868077023804590e-002
1	 4.783124821100483e+000	 1.362261186552246e+000	-3.128887763469360e-002
1	 4.768751415407335e+000	 1.411753575799593e+000	-3.372768051172822e-002
1	 4.753825964242860e+000	 1.461224408735526e+000	-3.582278396298444e-002
1	 4.904662388628768e+000	 9.717453290781268e-001	-2.905791423116491e-002
1	 4.894568512068120e+000	 1.021371883187062e+000	-2.945145699763726e-002
1	 4.883939640444909e+000	 1.071043530631502e+000	-3.044411370091145e-002
1	 4.872772735178299e+000	 1.120752282463470e+000	-3.189886913927231e-002
1	 4.861064903735073e+000	 1.170490041504983e+000	-3.366085108005318e-002
1	 4.848813403440197e+000	 1.220248605327853e+000	-3.555716516897726e-002
1	 4.836015645227128e+000	 1.270019669376003e+000	-3.739675626327922e-002
1	 4.822669197322209e+000	 1.319794830229507e+000	-3.897029715277483e-002
1	 4.808771788857317e+000	 1.369565589009283e+000	-4.005010559474555e-002
1	 4.794321313405072e+000	 1.419323354921142e+000	-4.039009054636587e-002
1	 4.779315832430783e+000	 1.469059448937622e+000	-3.972572843243261e-002
1	 4.524407305083716e+000	 1.390706020582740e+000	-1.185555387073811e-001
1	 4.509675075088746e+000	 1.437760588603412e+000	-1.388957901484532e-001
1	 4.494414253604441e+000	 1.484777968164294e+000	-1.609982033301720e-001
1	 4.478623494235841e+000	 1.531749710358706e+000	-1.846264533548738e-001
1	 4.462301621696776e+000	 1.578667297757051e+000	-2.095220939773566e-001
1	 4.445447634610877e+000	 1.625522148514563e+000	-2.354045785279177e-001
1	 4.428060708201621e+000	 1.672305620595791e+000	-2.619713193461778e-001
1	 4.410140196866269e+000	 1.719009016112672e+000	-2.888977864277481e-001
1	 4.391685636628613e+000	 1.765623585772688e+000	-3.158376459060926e-001
1	 4.372696747465477e+000	 1.812140533433459e+000	-3.424229389082633e-001
1	 4.353173435502172e+000	 1.858551020759794e+000	-3.682643012359827e-001
1	 4.549898607059532e+000	 1.398541501507601e+000	-1.002358774235900e-001
1	 4.535083373104526e+000	 1.445861183193071e+000	-1.172621004766366e-001
1	 4.519736569483269e+000	 1.493143466892460e+000	-1.358672055806384e-001
1	 4.503856842214986e+000	 1.540379856096477e+000	-1.558372405260311e-001
1	 4.487443009391756e+000	 1.587561785386847e+000	-1.769325394607277e-001
1	 4.470494063995282e+000	 1.634680624567193e+000	-1.988876615936512e-001
1	 4.453009176602114e+000	 1.681727682911336e+000	-2.214113734620775e-001
1	 4.434987697972090e+000	 1.728694213525793e+000	-2.441866757267900e-001
1	 4.416429161514877e+000	 1.775571417823013e+000	-2.668708753719598e-001
1	 4.397333285629620e+000	 1.822350450101617e+000	-2.890957040948795e-001
1	 4.377699975912726e+000	 1.869022422229697e+000	-3.104674835743004e-001
1	 4.575389928160807e+000	 1.406376988311272e+000	-8.392424419439985e-002
1	 4.560491690183496e+000	 1.453961783860481e+000	-9.834730382056850e-002
1	 4.545058904360769e+000	 1.501508971897163e+000	-1.140594658834044e-001
1	 4.529090209126037e+000	 1.549010008309379e+000	-1.308737296910583e-001
1	 4.512584415949610e+000	 1.596456279690133e+000	-1.485763606842960e-001
1	 4.495540512171280e+000	 1.643839107491402e+000	-1.669267778781406e-001
1	 4.477957663720667e+000	 1.691149752296235e+000	-1.856574859589049e-001
1	 4.459835217720181e+000	 1.738379418205699e+000	-2.044740531240993e-001
1	 4.441172704965378e+000	 1.785519257337162e+000	-2.230551356653384e-001
1	 4.421969842277712e+000	 1.832560374430207e+000	-2.410525502018399e-001
1	 4.402226534724702e+000	 1.879493831556170e+000	-2.580913943745680e-001
1	 4.600881223778736e+000	 1.414212467281752e+000	-6.974177268166032e-002
1	 4.585899981862074e+000	 1.462062376429718e+000	-8.209012435548947e-002
1	 4.570381213923802e+000	 1.509874468538930e+000	-9.536344276117457e-002
1	 4.554323550811519e+000	 1.557640151894844e+000	-1.094061844241298e-001
1	 4.537725797373788e+000	 1.605350765101788e+000	-1.240375951176224e-001
1	 4.520586935308484e+000	 1.652997581260137e+000	-1.390515766838777e-001
1	 4.502906125898312e+000	 1.700571812262213e+000	-1.542165956733564e-001
1	 4.484682712628256e+000	 1.748064613203672e+000	-1.692756348759973e-001
1	 4.465916223679772e+000	 1.795467086906851e+000	-1.839461887373472e-001
1	 4.446606374296626e+000	 1.842770288552342e+000	-1.979203035666669e-001
1	 4.426753069017446e+000	 1.889965230414766e+000	-2.108646633535157e-001
1	 4.626372449304512e+000	 1.422047924707039e+000	-5.780698518608119e-002
1	 4.611308203676677e+000	 1.470162946724857e+000	-6.843069741416037e-002
1	 4.595703453859223e+000	 1.518239942178288e+000	-7.957231917913393e-002
1	 4.579556823113963e+000	 1.566270271750308e+000	-9.111219845868583e-002
1	 4.562867109667729e+000	 1.614245226056694e+000	-1.029095108635120e-001
1	 4.545633289576500e+000	 1.662156029846346e+000	-1.148021361702119e-001
1	 4.527854519476074e+000	 1.709993846320988e+000	-1.266065699383335e-001
1	 4.509530139214028e+000	 1.757749781570994e+000	-1.381178711355290e-001
1	 4.490659674357717e+000	 1.805414889123798e+000	-1.491096466272069e-001
1	 4.471242838573231e+000	 1.852980174601130e+000	-1.593340733153456e-001
1	 4.451279535870309e+000	 1.900436600481029e+000	-1.685219586352984e-001
1	 4.651863560129326e+000	 1.429883346875132e+000	-4.823586555100449e-002
1	 4.636716311163720e+000	 1.478263480569973e+000	-5.731053224807532e-002
1	 4.621025579853891e+000	 1.526605378175764e+000	-6.648387457932402e-002
1	 4.604789981875902e+000	 1.574900352773203e+000	-7.567649636642690e-002
1	 4.588008308834882e+000	 1.623139646989730e+000	-8.479435529143729e-002
1	 4.570679531144937e+000	 1.671314437222977e+000	-9.372867917185415e-002
1	 4.552802800794987e+000	 1.719415837984281e+000	-1.023559067202756e-001
1	 4.534377453995210e+000	 1.767434906358946e+000	-1.105376534276292e-001
1	 4.515403013698872e+000	 1.815362646579719e+000	-1.181207031615569e-001
1	 4.495879191994396e+000	 1.863190014709682e+000	-1.249370260211884e-001
1	 4.475805892362633e+000	 1.910907923430507e+000	-1.308038229363570e-001
1	 4.677354511644375e+000	 1.437718720074028e+000	-4.114192970563046e-002
1	 4.662124259859619e+000	 1.486363963789141e+000	-4.867247599702562e-002
1	 4.646347547594663e+000	 1.534970761891882e+000	-5.590036106314723e-002
1	 4.630022982939863e+000	 1.583530379860966e+000	-6.279074069650834e-002
1	 4.613149350878688e+000	 1.632034012335777e+000	-6.930311181753292e-002
1	 4.595725616183406e+000	 1.680472787362977e+000	-7.539129822719438e-002
1	 4.577750926196078e+000	 1.728837770763812e+000	-8.100344640958179e-002
1	 4.559224613489509e+000	 1.777119970618810e+000	-8.608203160440832e-002
1	 4.540146198402895e+000	 1.825310341866332e+000	-9.056387434889851e-002
1	 4.520515391446991e+000	 1.873399791011110e+000	-9.438016766683265e-002
1	 4.500332095573771e+000	 1.921379180938751e+000	-9.745651505978703e-002
1	 4.702845259240852e+000	 1.445554030591728e+000	-3.663629393649686e-002
1	 4.687532005300790e+000	 1.494464382206437e+000	-4.246067882164693e-002
1	 4.671669312768399e+000	 1.543336078687172e+000	-4.762838356609173e-002
1	 4.655255782148381e+000	 1.592160337911028e+000	-5.215334533209815e-002
1	 4.638290191802595e+000	 1.640928306529714e+000	-5.605526452495070e-002
1	 4.620771500861515e+000	 1.689631064239296e+000	-5.935968947025971e-002
1	 4.602698852020377e+000	 1.738259628171301e+000	-6.209809290126930e-002
1	 4.584071574214639e+000	 1.786804957401869e+000	-6.430793992416301e-002
1	 4.564889185169442e+000	 1.835257957575353e+000	-6.603274714234068e-002
1	 4.545151393817889e+000	 1.883609485638523e+000	-6.732213263485647e-002
1	 4.524858102583068e+000	 1.931850354681308e+000	-6.823185649969825e-002
1	 4.728335758309949e+000	 1.453389264716227e+000	-3.482774097223489e-002
1	 4.712939503023649e+000	 1.502564721645936e+000	-3.862056015551806e-002
1	 4.696990831061950e+000	 1.551701313922157e+000	-4.147878387545768e-002
1	 4.680488335343984e+000	 1.600790211820825e+000	-4.346929483188178e-002
1	 4.663430787610049e+000	 1.649822514006423e+000	-4.467857033142698e-002
1	 4.645817141348873e+000	 1.698789251824879e+000	-4.521289505489549e-002
1	 4.627646534608913e+000	 1.747681393718468e+000	-4.519854361850571e-002
1	 4.608918292688312e+000	 1.796489849759405e+000	-4.478193191300953e-002
1	 4.589631930698174e+000	 1.845205476298499e+000	-4.412973625777344e-002
1	 4.569787155993959e+000	 1.893819080725033e+000	-4.342897946423533e-002
1	 4.549383870469874e+000	 1.942321426333725e+000	-4.288708296452322e-002
1	 4.753825964242860e+000	 1.461224408735526e+000	-3.582278396298444e-002
1	 4.738346708564612e+000	 1.510664967931713e+000	-3.709877603522238e-002
1	 4.722312058162186e+000	 1.560066452957368e+000	-3.726652834819023e-002
1	 4.705720598369203e+000	 1.609419986487791e+000	-3.644996953394101e-002
1	 4.688571094304491e+000	 1.658716619200784e+000	-3.480883842341277e-002
1	 4.670862493815088e+000	 1.707947334092675e+000	-3.253905379387626e-002
1	 4.652593930302718e+000	 1.757103050917035e+000	-2.987302814644354e-002
1	 4.633764725428239e+000	 1.806174630742699e+000	-2.707992368250391e-002
1	 4.614374391688747e+000	 1.855152880627489e+000	-2.446584874789141e-002
1	 4.594422634862072e+000	 1.904028558403749e+000	-2.237399312103671e-002
1	 4.573909356313535e+000	 1.952792377571551e+000	-2.118470063637081e-002
1	 4.779315832430783e+000	 1.469059448937622e+000	-3.972572843243261e-002
1	 4.763753577460099e+000	 1.518765106887844e+000	-3.784318746855492e-002
1	 4.747632949755955e+000	 1.568431481153328e+000	-3.481059919198454e-002
1	 4.730952527066571e+000	 1.618049646809360e+000	-3.081297620886467e-002
1	 4.713711067889371e+000	 1.667610606547676e+000	-2.608971668794338e-002
1	 4.695907514429774e+000	 1.717105295015633e+000	-2.093515970904924e-002
1	 4.677540995442822e+000	 1.766524583278722e+000	-1.569905515782715e-002
1	 4.658610828952133e+000	 1.815859283403033e+000	-1.078694539044478e-002
1	 4.639116524840821e+000	 1.865100153154037e+000	-6.660456045150434e-003
1	 4.619057787309097e+000	 1.914237900807783e+000	-3.837493542381474e-003
1	 4.598434517193399e+000	 1.963263190070334e+000	-2.892346991241844e-003
1	 4.353173435502172e+000	 1.858551020759794e+000	-3.682643012359826e-001
1	 4.333118844188068e+000	 1.904839237533664e+000	-3.936490759041887e-001
1	 4.312530372389279e+000	 1.951003250800439e+000	-4.190810057833559e-001
1	 4.291408499589530e+000	 1.997034131020163e+000	-4.444628106700863e-001
1	 4.269753898666800e+000	 2.042922926136646e+000	-4.696902402081318e-001
1	 4.247567437359612e+000	 2.088660666674489e+000	-4.946520610476821e-001
1	 4.224850179576209e+000	 2.134238370909848e+000	-5.192300554218594e-001
1	 4.201603386542995e+000	 2.179647050109439e+000	-5.432990313651156e-001
1	 4.177828517788692e+000	 2.224877713832085e+000	-5.667268447740381e-001
1	 4.153527231960959e+000	 2.269921375286926e+000	-5.893744334859468e-001
1	 4.128701387472490e+000	 2.314769056742235e+000	-6.110958635243643e-001
1	 4.377699975912726e+000	 1.869022422229697e+000	-3.104674835743005e-001
1	 4.357532393524315e+000	 1.915571434911691e+000	-3.313686119353962e-001
1	 4.336827922675254e+000	 1.961995544302362e+000	-3.524185832355278e-001
1	 4.315587045550744e+000	 2.008285770551152e+000	-3.735481881780655e-001
1	 4.293810438819873e+000	 2.054433111164409e+000	-3.946843639971369e-001
1	 4.271498975110129e+000	 2.100428546131130e+000	-4.157501777010747e-001
1	 4.248653724323997e+000	 2.146263043122858e+000	-4.366648151215262e-001
1	 4.225275954793839e+000	 2.191927562762203e+000	-4.573435759173848e-001
1	 4.201367134271600e+000	 2.237413063954258e+000	-4.776978746713078e-001
1	 4.176928930750042e+000	 2.282710509275001e+000	-4.976352482048168e-001
1	 4.151963213112460e+000	 2.327810870410583e+000	-5.170593692254047e-001
1	 4.402226534724702e+000	 1.879493831556170e+000	-2.580913943745680e-001
1	 4.381945961177230e+000	 1.926303640341893e+000	-2.746988235072419e-001
1	 4.361125491190895e+000	 1.972987846051518e+000	-2.916372946367880e-001
1	 4.339765609652384e+000	 2.019537418523855e+000	-3.088556665442257e-001
1	 4.317866997021875e+000	 2.065943304827759e+000	-3.263003017991389e-001
1	 4.295430530815842e+000	 2.112196434416587e+000	-3.439150440720065e-001
1	 4.272457286930998e+000	 2.158287724357238e+000	-3.616411987531688e-001
1	 4.248948540805664e+000	 2.204208084628180e+000	-3.794175169999278e-001
1	 4.224905768415010e+000	 2.249948423480746e+000	-3.971801833280695e-001
1	 4.200330647096902e+000	 2.295499652857716e+000	-4.148628068579372e-001
1	 4.175225056205250e+000	 2.340852693863086e+000	-4.323964163190829e-001
1	 4.426753069017446e+000	 1.889965230414766e+000	-2.108646633535157e-001
1	 4.406359504423866e+000	 1.937035835043452e+000	-2.234750293378390e-001
1	 4.385423035416232e+000	 1.983980136811944e+000	-2.366585233572087e-001
1	 4.363944149582699e+000	 2.030789055248471e+000	-2.503722443430348e-001
1	 4.341923531174544e+000	 2.077453486984452e+000	-2.645704126687086e-001
1	 4.319362062597205e+000	 2.123964310937663e+000	-2.792043395463677e-001
1	 4.296260825741616e+000	 2.170312393570410e+000	-2.942224003173639e-001
1	 4.272621103152047e+000	 2.216488594217080e+000	-3.095700117782859e-001
1	 4.248444379026887e+000	 2.262483770475299e+000	-3.251896136777310e-001
1	 4.223732340049086e+000	 2.308288783654709e+000	-3.410206545118396e-001
1	 4.198486876043155e+000	 2.353894504277207e+000	-3.569995817388009e-001
1	 4.451279535870309e+000	 1.900436600481029e+000	-1.685219586352984e-001
1	 4.430772980541286e+000	 1.947768000235553e+000	-1.775362351141263e-001
1	 4.409720512831290e+000	 1.994972397347677e+000	-1.874054434593748e-001
1	 4.388122623029949e+000	 2.042040661035201e+000	-1.980852657720985e-001
1	 4.365979999179608e+000	 2.088963637492247e+000	-2.095264030109443e-001
1	 4.343293528574663e+000	 2.135732155101159e+000	-2.216745345188032e-001
1	 4.320064299100253e+000	 2.182337029719798e+000	-2.344702850909801e-001
1	 4.296293600406571e+000	 2.228769070038614e+000	-2.478491997942853e-001
1	 4.271982924915197e+000	 2.275019083001672e+000	-2.617417267316878e-001
1	 4.247133968654143e+000	 2.321077879285622e+000	-2.760732079313314e-001
1	 4.221748631918484e+000	 2.366936278830407e+000	-2.907638785222519e-001
1	 4.475805892362633e+000	 1.910907923430507e+000	-1.308038229363570e-001
1	 4.455186346806543e+000	 1.958500117137379e+000	-1.367250341533396e-001
1	 4.434017880916100e+000	 2.005964608422758e+000	-1.438029723787868e-001
1	 4.412300987682382e+000	 2.053292216194244e+000	-1.519824129994592e-001
1	 4.390036358938797e+000	 2.100473736208904e+000	-1.611993463610771e-001
1	 4.367224886868669e+000	 2.147499946313880e+000	-1.713809254996585e-001
1	 4.343867665351314e+000	 2.194361611762826e+000	-1.824454280979145e-001
1	 4.319965991142815e+000	 2.241049490602491e+000	-1.943022329906545e-001
1	 4.295521364887908e+000	 2.287554339123615e+000	-2.068518115132208e-001
1	 4.270535491959617e+000	 2.333866917370093e+000	-2.199857339555512e-001
1	 4.245010283123539e+000	 2.379977994700152e+000	-2.335866913516093e-001
1	 4.500332095573771e+000	 1.921379180938751e+000	-9.745651505978703e-002
1	 4.479599560496697e+000	 1.969232166968115e+000	-1.008875112848274e-001
1	 4.458315097150689e+000	 2.016956750801223e+000	-1.057777251391282e-001
1	 4.436479201228257e+000	 2.064543701035800e+000	-1.120516987604512e-001
1	 4.414092568353847e+000	 2.111983762992179e+000	-1.196197025248213e-001
1	 4.391156095599677e+000	 2.159267663982629e+000	-1.283776690860309e-001
1	 4.367670882839205e+000	 2.206386118656919e+000	-1.382071513350590e-001
1	 4.343638233934361e+000	 2.253329834418422e+000	-1.489753047645327e-001
1	 4.319059657752982e+000	 2.300089516904883e+000	-1.605348946713693e-001
1	 4.293936869013054e+000	 2.346655875527764e+000	-1.727243285765012e-001
1	 4.268271788950622e+000	 2.393019629063903e+000	-1.853677141841564e-001
1	 4.524858102583068e+000	 1.931850354681308e+000	-6.823185649969828e-002
1	 4.504012578888808e+000	 1.979964130946945e+000	-6.987314983122274e-002
1	 4.482612119015089e+000	 2.027948805247112e+000	-7.325797004474169e-002
1	 4.460657221355826e+000	 2.075795095870069e+000	-7.828145919482481e-002
1	 4.438148585326482e+000	 2.123493697699832e+000	-8.481733610358415e-002
1	 4.415087112888133e+000	 2.171035287514209e+000	-9.271781483978529e-002
1	 4.391473909908328e+000	 2.218410529359499e+000	-1.018135598003206e-001
1	 4.367310287354787e+000	 2.265610079996117e+000	-1.119136780864920e-001
1	 4.342597762318389e+000	 2.312624594409228e+000	-1.228057497867954e-001
1	 4.317338058861998e+000	 2.359444731378275e+000	-1.342558966937315e-001
1	 4.291533108692034e+000	 2.406061159099123e+000	-1.460088898948476e-001
1	 4.549383870469874e+000	 1.942321426333725e+000	-4.288708296452322e-002
1	 4.528425359259934e+000	 1.990695990293054e+000	-4.353474157310825e-002
1	 4.506908903989322e+000	 2.038940752524462e+000	-4.617358579510738e-002
1	 4.484835005753348e+000	 2.087046381007252e+000	-5.066034691521641e-002
1	 4.462204367758439e+000	 2.135003520189621e+000	-5.682153442758659e-002
1	 4.439017896854491e+000	 2.182802796315421e+000	-6.445333711341414e-002
1	 4.415276704903087e+000	 2.230434822827990e+000	-7.332157636758774e-002
1	 4.390982109977674e+000	 2.277890205845287e+000	-8.316171272006016e-002
1	 4.366135637392091e+000	 2.325159549700400e+000	-9.367890638129243e-002
1	 4.340739020553997e+000	 2.372233462541265e+000	-1.045481325199521e-001
1	 4.314794201640082e+000	 2.419102561983274e+000	-1.154143518556538e-001
1	 4.573909356313535e+000	 1.952792377571551e+000	-2.118470063637081e-002
1	 4.552837858887132e+000	 2.001427726225625e+000	-2.172829958627772e-002
1	 4.531205409553421e+000	 2.049932573397313e+000	-2.445601996854004e-002
1	 4.509012512109073e+000	 2.098297536757549e+000	-2.917732429840685e-002
1	 4.486259873551445e+000	 2.146513210319305e+000	-3.566102491899885e-002
1	 4.462948405619200e+000	 2.194570169793071e+000	-4.363516586298934e-002
1	 4.439079226167888e+000	 2.242458978019816e+000	-5.278697555159498e-002
1	 4.414653660376605e+000	 2.290170190475642e+000	-6.276289157529363e-002
1	 4.389673241782057e+000	 2.337694360842154e+000	-7.316865864200473e-002
1	 4.364139713136595e+000	 2.385022046636375e+000	-8.356950061346755e-002
1	 4.338055027087065e+000	 2.432143814893820e+000	-9.349036737971153e-002
1	 4.598434517193399e+000	 1.963263190070334e+000	-2.892346991241844e-003
1	 4.577250035047463e+000	 2.012159319963842e+000	-4.312973845355632e-003
1	 4.555501593187413e+000	 2.060924248629703e+000	-8.038248824457177e-003
1	 4.533189698111257e+000	 2.109548543431159e+000	-1.382165699121088e-002
1	 4.510315060607234e+000	 2.158022747946641e+000	-2.136399190624012e-002
1	 4.486878597302711e+000	 2.206337387353961e+000	-3.031321648571795e-002
1	 4.462881432047135e+000	 2.254482973892403e+000	-4.026441620383393e-002
1	 4.438324897125158e+000	 2.302450012396893e+000	-5.075984622851201e-002
1	 4.413210534296251e+000	 2.350229005898243e+000	-6.128907387102090e-002
1	 4.387540095657340e+000	 2.397810461283245e+000	-7.128921751428756e-002
1	 4.361315544325288e+000	 2.445184895008222e+000	-8.014528296136818e-002
1	 4.128701387472490e+000	 2.314769056742235e+000	-6.110958635243641e-001
1	 4.103349201813303e+000	 2.359418476664549e+000	-6.304651826366811e-001
1	 4.077476622929091e+000	 2.403853947232864e+000	-6.460478692239118e-001
1	 4.051086115123939e+000	 2.448066549433488e+000	-6.577051599939026e-001
1	 4.024180343380284e+000	 2.492047395438518e+000	-6.653193713393760e-001
1	 3.996762173110999e+000	 2.535787634173376e+000	-6.687942207129165e-001
1	 3.968834669728083e+000	 2.579278456895365e+000	-6.680551135039449e-001
1	 3.940401098026868e+000	 2.622511102776230e+000	-6.630493944657648e-001
1	 3.911464921384907e+000	 2.665476864481691e+000	-6.537465628189372e-001
1	 3.882029800775059e+000	 2.708167093740830e+000	-6.401384502388429e-001
1	 3.852099593592544e+000	 2.750573206898158e+000	-6.222393610203633e-001
1	 4.151963213112460e+000	 2.327810870410583e+000	-5.170593692254049e-001
1	 4.126468188805896e+000	 2.372711852972974e+000	-5.347119167453605e-001
1	 4.100449839287810e+000	 2.417397680753247e+000	-5.492688146276614e-001
1	 4.073910642746603e+000	 2.461859384486436e+000	-5.605520946372929e-001
1	 4.046853279179697e+000	 2.506088026269067e+000	-5.683991116837615e-001
1	 4.019280630144203e+000	 2.550074705158072e+000	-5.726628999849992e-001
1	 3.991195778323188e+000	 2.593810562780759e+000	-5.732125053099841e-001
1	 3.962602006906415e+000	 2.637286788948846e+000	-5.699332923673458e-001
1	 3.933502798784717e+000	 2.680494627269417e+000	-5.627272264584833e-001
1	 3.903901835557514e+000	 2.723425380745691e+000	-5.515131285686930e-001
1	 3.873802996353269e+000	 2.766070417360369e+000	-5.362269031275615e-001
1	 4.175225056205250e+000	 2.340852693863086e+000	-4.323964163190828e-001
1	 4.149587193144094e+000	 2.386005239254254e+000	-4.486315102047189e-001
1	 4.123423072882692e+000	 2.430941424434304e+000	-4.623195334226596e-001
1	 4.096735187493784e+000	 2.475652229886951e+000	-4.732566478519398e-001
1	 4.069526231989785e+000	 2.520128667633114e+000	-4.812497293645653e-001
1	 4.041799104072064e+000	 2.564361786861186e+000	-4.861167427828281e-001
1	 4.013556903694774e+000	 2.608342679568453e+000	-4.876871013081699e-001
1	 3.984802932442126e+000	 2.652062486206557e+000	-4.858020095221711e-001
1	 3.955540692718248e+000	 2.695512401323906e+000	-4.803147890907017e-001
1	 3.925773886749148e+000	 2.738683679197817e+000	-4.710911863357745e-001
1	 3.895506415396551e+000	 2.781567639449147e+000	-4.580096608761410e-001
1	 4.198486876043155e+000	 2.353894504277207e+000	-3.569995817388009e-001
1	 4.172706174370148e+000	 2.399298612245635e+000	-3.720429345647773e-001
1	 4.146396283511082e+000	 2.444485154575171e+000	-3.849584413648006e-001
1	 4.119559709423028e+000	 2.489445061498262e+000	-3.955294919523083e-001
1	 4.092199162133382e+000	 2.534169294960265e+000	-4.035467153062585e-001
1	 4.064317555487758e+000	 2.578648854281084e+000	-4.088083574746386e-001
1	 4.035918006711386e+000	 2.622874781828017e+000	-4.111206501773319e-001
1	 4.007003835782910e+000	 2.666838168692685e+000	-4.102981692564483e-001
1	 3.977578564619736e+000	 2.710530160364864e+000	-4.061641821373499e-001
1	 3.947645916074441e+000	 2.753941962396012e+000	-3.985509834816135e-001
1	 3.917209812741994e+000	 2.797064846045182e+000	-3.873002182336651e-001
1	 4.221748631918484e+000	 2.366936278830407e+000	-2.907638785222519e-001
1	 4.195825092026315e+000	 2.412591948684358e+000	-3.047692191246240e-001
1	 4.169369430970327e+000	 2.458028847474985e+000	-3.169493451662933e-001
1	 4.142384168591881e+000	 2.503237855183603e+000	-3.270877403379070e-001
1	 4.114872029933324e+000	 2.548209883680131e+000	-3.349727742263858e-001
1	 4.086835944984467e+000	 2.592935882416122e+000	-3.403980674623486e-001
1	 4.058279048241575e+000	 2.637406844129022e+000	-3.431628516480876e-001
1	 4.029204678077674e+000	 2.681613810550553e+000	-3.430723232758597e-001
1	 3.999616375923409e+000	 2.725547878111994e+000	-3.399379908516509e-001
1	 3.969517885257865e+000	 2.769200203639073e+000	-3.335780144475276e-001
1	 3.938913150409198e+000	 2.812562010029166e+000	-3.238175369159531e-001
1	 4.245010283123539e+000	 2.379977994700152e+000	-2.335866913516093e-001
1	 4.218943905654852e+000	 2.425885225307669e+000	-2.466373420404363e-001
1	 4.192342475057771e+000	 2.471572479432886e+000	-2.580612970480189e-001
1	 4.165208525057892e+000	 2.517030586806201e+000	-2.676547732232469e-001
1	 4.137544795712442e+000	 2.562250409222323e+000	-2.752176291254002e-001
1	 4.109354233155368e+000	 2.607222846264664e+000	-2.805537018547186e-001
1	 4.080639989153886e+000	 2.651938841041037e+000	-2.834711406161959e-001
1	 4.051405420475334e+000	 2.696389385923487e+000	-2.837827363019799e-001
1	 4.021654088063499e+000	 2.740565528285002e+000	-2.813062463790432e-001
1	 3.991389756023894e+000	 2.784458376225799e+000	-2.758647143721555e-001
1	 3.960616390417768e+000	 2.828059104281789e+000	-2.672867832378476e-001
1	 4.268271788950622e+000	 2.393019629063903e+000	-1.853677141841564e-001
1	 4.242062574798013e+000	 2.439178418852811e+000	-1.974781249636278e-001
1	 4.215315375570760e+000	 2.485116026748010e+000	-2.080684540064315e-001
1	 4.188032738878609e+000	 2.530823232229287e+000	-2.169600690162247e-001
1	 4.160217419793572e+000	 2.576290847016447e+000	-2.239778321130601e-001
1	 4.131872380593638e+000	 2.621509720825070e+000	-2.289503929246385e-001
1	 4.103000790316869e+000	 2.666470747133635e+000	-2.317104782525189e-001
1	 4.073606024124797e+000	 2.711164868954810e+000	-2.320951776882357e-001
1	 4.043691662474240e+000	 2.755583084603597e+000	-2.299462245568283e-001
1	 4.013261490097003e+000	 2.799716453454992e+000	-2.251102715697492e-001
1	 3.982319494787302e+000	 2.843556101683741e+000	-2.174391605754711e-001
1	 4.291533108692034e+000	 2.406061159099123e+000	-1.460088898948476e-001
1	 4.265181058998054e+000	 2.452471506057028e+000	-1.571261310764750e-001
1	 4.238288092306640e+000	 2.498659465719494e+000	-1.667499416178400e-001
1	 4.210856770111574e+000	 2.544615767316092e+000	-1.747390411325837e-001
1	 4.182889862499549e+000	 2.590331172492116e+000	-1.809565813331953e-001
1	 4.154390347892455e+000	 2.635796481095701e+000	-1.852703800955801e-001
1	 4.125361412599069e+000	 2.681002536976384e+000	-1.875531498466275e-001
1	 4.095806450174976e+000	 2.725940233787844e+000	-1.876827197530910e-001
1	 4.065729060589863e+000	 2.770600520787480e+000	-1.855422511994294e-001
1	 4.035133049201670e+000	 2.814974408625452e+000	-1.810204460531792e-001
1	 4.004022425537404e+000	 2.859052975115712e+000	-1.740117472290832e-001
1	 4.314794201640082e+000	 2.419102561983274e+000	-1.154143518556538e-001
1	 4.288299317797230e+000	 2.465764463657564e+000	-1.254195663982472e-001
1	 4.261260585062755e+000	 2.512202772646476e+000	-1.338897222104647e-001
1	 4.233680578814340e+000	 2.558408167929847e+000	-1.407328800432968e-001
1	 4.205562084153207e+000	 2.604371361078937e+000	-1.458635437588881e-001
1	 4.176908095644997e+000	 2.650083102074917e+000	-1.492028202131036e-001
1	 4.147721816869038e+000	 2.695534185138858e+000	-1.506785691322462e-001
1	 4.118006659774780e+000	 2.740715454565915e+000	-1.502255425793190e-001
1	 4.087766243844597e+000	 2.785617810556358e+000	-1.477855136267910e-001
1	 4.057004395062369e+000	 2.830232215035975e+000	-1.433073938756176e-001
1	 4.025725144687676e+000	 2.874549697458392e+000	-1.367473394845937e-001
1	 4.338055027087065e+000	 2.432143814893820e+000	-9.349036737971152e-002
1	 4.311417310737799e+000	 2.479057268391663e+000	-1.022001842402567e-001
1	 4.284232813636448e+000	 2.525745923828093e+000	-1.092764672418898e-001
1	 4.256504125044452e+000	 2.572200409933782e+000	-1.146884003602613e-001
1	 4.228234045077379e+000	 2.618411388206522e+000	-1.184146836397532e-001
1	 4.199425584444444e+000	 2.664369558761082e+000	-1.204436038677207e-001
1	 4.170081963995317e+000	 2.710065666190624e+000	-1.207730888535796e-001
1	 4.140206614073119e+000	 2.755490505432348e+000	-1.194107450389057e-001
1	 4.109803173672678e+000	 2.800634927629938e+000	-1.163738782037528e-001
1	 4.078875489403575e+000	 2.845489845985365e+000	-1.116894970745740e-001
1	 4.047427614257718e+000	 2.890046241592473e+000	-1.053942996804402e-001
1	 4.361315544325288e+000	 2.445184895008222e+000	-8.014528296136818e-002
1	 4.334534997362014e+000	 2.492349896996569e+000	-8.731319269342666e-002
1	 4.307204737825070e+000	 2.539288895563483e+000	-9.270343372637645e-002
1	 4.279327368859456e+000	 2.585992469191127e+000	-9.635789277398935e-002
1	 4.250905705594900e+000	 2.632451229304479e+000	-9.833209639229988e-002
1	 4.221942774883971e+000	 2.678655826152554e+000	-9.869517754526315e-002
1	 4.192441814846461e+000	 2.724596954701255e+000	-9.752981734160182e-002
1	 4.162406274218904e+000	 2.770265360530463e+000	-9.493216181329187e-002
1	 4.131839811508336e+000	 2.815651845727923e+000	-9.101171366802982e-002
1	 4.100746293949762e+000	 2.860747274772420e+000	-8.589119901098059e-002
1	 4.069129796267132e+000	 2.905542580398644e+000	-7.970640909466993e-002
1	 3.852099593592544e+000	 2.750573206898158e+000	-6.222393610203632e-001
1	 3.821678351209255e+000	 2.792686689510306e+000	-5.991536387036508e-001
1	 3.790770314199296e+000	 2.834499098992382e+000	-5.705962039377004e-001
1	 3.759379913927593e+000	 2.876002072770478e+000	-5.375431136907169e-001
1	 3.727511771739844e+000	 2.917187334614500e+000	-5.010078818476299e-001
1	 3.695170696876085e+000	 2.958046700001626e+000	-4.620399583718749e-001
1	 3.662361684203526e+000	 2.998572081419612e+000	-4.217231356749047e-001
1	 3.629089911770705e+000	 3.038755493602876e+000	-3.811738850919204e-001
1	 3.595360738185273e+000	 3.078589058694386e+000	-3.415396265585364e-001
1	 3.561179699818027e+000	 3.118065011326384e+000	-3.039969347711637e-001
1	 3.526552507836178e+000	 3.157175703613221e+000	-2.697496852930884e-001
1	 3.873802996353269e+000	 2.766070417360369e+000	-5.362269031275615e-001
1	 3.843210355370016e+000	 2.808421174698224e+000	-5.159930689556442e-001
1	 3.812128177074004e+000	 2.850469162607365e+000	-4.905865711204752e-001
1	 3.780560917797259e+000	 2.892205971397670e+000	-4.609605896169858e-001
1	 3.748513224922961e+000	 2.933623278209317e+000	-4.281054216523476e-001
1	 3.715989934787253e+000	 2.974712852406442e+000	-3.930469811396762e-001
1	 3.682996070399315e+000	 3.015466560910336e+000	-3.568452259258012e-001
1	 3.649536838981732e+000	 3.055876373465035e+000	-3.205925156184886e-001
1	 3.615617629333495e+000	 3.095934367828269e+000	-2.854119030733334e-001
1	 3.581244009018294e+000	 3.135632734880840e+000	-2.524553627874390e-001
1	 3.546421721381069e+000	 3.174963783647567e+000	-2.229019596250776e-001
1	 3.895506415396551e+000	 2.781567639449147e+000	-4.580096608761411e-001
1	 3.864742375684650e+000	 2.824155671690768e+000	-4.402539420949447e-001
1	 3.833486055971865e+000	 2.866439238203753e+000	-4.176757336926345e-001
1	 3.801741937557329e+000	 2.908409882181733e+000	-3.911932619298656e-001
1	 3.769514693861728e+000	 2.950059234135116e+000	-3.617611108219842e-001
1	 3.736809188317338e+000	 2.991379017314970e+000	-3.303687637187387e-001
1	 3.703630472075320e+000	 3.032361053076081e+000	-2.980390739946851e-001
1	 3.669983781532329e+000	 3.072997266172066e+000	-2.658266676390695e-001
1	 3.635874535678719e+000	 3.113279689975391e+000	-2.348162807251462e-001
1	 3.601308333271101e+000	 3.153200471615381e+000	-2.061210349223151e-001
1	 3.566290949832161e+000	 3.192751877027289e+000	-1.808806543893994e-001
1	 3.917209812741994e+000	 2.797064846045182e+000	-3.873002182336650e-001
1	 3.886274374472733e+000	 2.839890152953399e+000	-3.716860218652975e-001
1	 3.854843913517218e+000	 2.882409297834738e+000	-3.516461143056576e-001
1	 3.822922936141673e+000	 2.924613776766639e+000	-3.280519058963970e-001
1	 3.790516141804253e+000	 2.966495173629784e+000	-3.018099901063408e-001
1	 3.757628421033338e+000	 3.008045165562214e+000	-2.738607487495895e-001
1	 3.724264853122052e+000	 3.049255528352266e+000	-2.451768885342480e-001
1	 3.690430703641079e+000	 3.090118141763178e+000	-2.167619116107323e-001
1	 3.656131421772110e+000	 3.130624994782196e+000	-1.896485229739682e-001
1	 3.621372637464639e+000	 3.170768190787212e+000	-1.648969777514745e-001
1	 3.586160158419070e+000	 3.210539952623959e+000	-1.435933715789858e-001
1	 3.938913150409198e+000	 2.812562010029166e+000	-3.238175369159531e-001
1	 3.907806314053837e+000	 2.855624590951576e+000	-3.100446285350068e-001
1	 3.876201712334408e+000	 2.898379313553518e+000	-2.922849711577927e-001
1	 3.844103876484156e+000	 2.940817626796362e+000	-2.713515067363272e-001
1	 3.811517531998638e+000	 2.982931067931204e+000	-2.480907750298431e-001
1	 3.778447596502258e+000	 3.024711267983181e+000	-2.233816038167140e-001
1	 3.744899177430023e+000	 3.066149957174311e+000	-1.981337334932529e-001
1	 3.710877569526564e+000	 3.107238970277573e+000	-1.732863785658746e-001
1	 3.676388252164828e+000	 3.147970251895124e+000	-1.498067287200285e-001
1	 3.641436886487100e+000	 3.188335861653542e+000	-1.286883923192879e-001
1	 3.606029312371414e+000	 3.228327979309159e+000	-1.109497853502209e-001
1	 3.960616390417768e+000	 2.828059104281789e+000	-2.672867832378476e-001
1	 3.929338156747529e+000	 2.871358958150761e+000	-2.550904881835640e-001
1	 3.897559415047773e+000	 2.914349257413284e+000	-2.393842669846007e-001
1	 3.865284721518648e+000	 2.957021403914880e+000	-2.209111457143543e-001
1	 3.832518827692987e+000	 2.999366888277262e+000	-2.004457566158195e-001
1	 3.799266678291103e+000	 3.041377295412881e+000	-1.787931344702839e-001
1	 3.765533408889745e+000	 3.083044309977635e+000	-1.567874512388602e-001
1	 3.731324343407371e+000	 3.124359721754460e+000	-1.352906912783514e-001
1	 3.696644991408034e+000	 3.165315430960619e+000	-1.151912695992385e-001
1	 3.661501045226677e+000	 3.205903453471577e+000	-9.740259579356939e-002
1	 3.625898376918811e+000	 3.246115925954463e+000	-8.286158641337663e-002
1	 3.982319494787302e+000	 2.843556101683741e+000	-2.174391605754711e-001
1	 3.950869864873384e+000	 2.887093227016413e+000	-2.065895868727467e-001
1	 3.918916984281657e+000	 2.930319101467231e+000	-1.927405422955095e-001
1	 3.886465434179013e+000	 2.973225079766164e+000	-1.765538899242628e-001
1	 3.853519992135404e+000	 3.015802605905841e+000	-1.587207053285195e-001
1	 3.820085629966870e+000	 3.058043218686316e+000	-1.399602000671944e-001
1	 3.786167511391733e+000	 3.099938557197659e+000	-1.210185881709743e-001
1	 3.751770989502083e+000	 3.141480366233044e+000	-1.026678976609751e-001
1	 3.716901604052891e+000	 3.182660501625122e+000	-8.570472931140363e-002
1	 3.681565078571562e+000	 3.223470935498525e+000	-7.094896501180402e-002
1	 3.645767317290876e+000	 3.263903761431448e+000	-5.924242822587141e-002
1	 4.004022425537404e+000	 2.859052975115712e+000	-1.740117472290832e-001
1	 3.972401400750971e+000	 2.902827370013992e+000	-1.643130295186450e-001
1	 3.940274382660400e+000	 2.946288817768555e+000	-1.521547926967950e-001
1	 3.907645977399121e+000	 2.989428625994191e+000	-1.381066856261580e-001
1	 3.874520988573994e+000	 3.032238192054827e+000	-1.227647781119643e-001
1	 3.840904415096563e+000	 3.074709008638496e+000	-1.067506323254243e-001
1	 3.806801448826499e+000	 3.116832669269804e+000	-9.071032273495286e-002
1	 3.772217472029282e+000	 3.158600873752531e+000	-7.531340631054558e-002
1	 3.737158054650565e+000	 3.200005433535078e+000	-6.125184490481945e-002
1	 3.701628951409946e+000	 3.241038276991590e+000	-4.923888184780918e-002
1	 3.665636098717228e+000	 3.281691454611689e+000	-4.000787492059968e-002
1	 4.025725144687676e+000	 2.874549697458392e+000	-1.367473394845937e-001
1	 3.993932726699862e+000	 2.918561359608961e+000	-1.280369032888186e-001
1	 3.961631572808341e+000	 2.962258378370446e+000	-1.174323501482322e-001
1	 3.928826314112840e+000	 3.005632014242935e+000	-1.054002550039927e-001
1	 3.895521780256860e+000	 3.048673617962106e+000	-9.243042840986319e-002
1	 3.861722997247186e+000	 3.091374636104424e+000	-7.903515649033120e-002
1	 3.827435185084556e+000	 3.133726616629490e+000	-6.574839574304336e-002
1	 3.792663755207555e+000	 3.175721214352128e+000	-5.312492412014472e-002
1	 3.757414307752212e+000	 3.217350196336925e+000	-4.173944994412802e-002
1	 3.721692628630024e+000	 3.258605447207982e+000	-3.218568033078292e-002
1	 3.685504686427484e+000	 3.299478974366764e+000	-2.507535090449799e-002
1	 4.047427614257718e+000	 2.890046241592473e+000	-1.053942996804402e-001
1	 4.015463805039629e+000	 2.934295168266779e+000	-9.754214535635954e-002
1	 3.982988517349825e+000	 2.978227755326101e+000	-8.838276800712229e-002
1	 3.950006407254037e+000	 3.021835216156370e+000	-7.826899621621845e-002
1	 3.916522330432105e+000	 3.065108854865561e+000	-6.757331905574869e-002
1	 3.882541339985741e+000	 3.108040071919109e+000	-5.668731501575475e-002
1	 3.848068684056416e+000	 3.150620369712136e+000	-4.602104291870671e-002
1	 3.813109803255483e+000	 3.192841358071038e+000	-3.600239588184083e-002
1	 3.777670327908999e+000	 3.234694759677108e+000	-2.707641949143794e-002
1	 3.741756075119985e+000	 3.276172415404907e+000	-1.970459545159692e-002
1	 3.705373045651260e+000	 3.317266289568248e+000	-1.436409206525381e-002
1	 4.069129796267132e+000	 2.905542580398644e+000	-7.970640909466993e-002
1	 4.036994598089843e+000	 2.950028768452905e+000	-7.261441484966853e-002
1	 4.004345178909193e+000	 2.994196920688713e+000	-6.481970971963680e-002
1	 3.971186219756580e+000	 3.038038203378471e+000	-5.655088661773801e-002
1	 3.937522602347835e+000	 3.081543874003077e+000	-4.805223792718920e-002
1	 3.903359406879230e+000	 3.124705286917557e+000	-3.958339366691775e-002
1	 3.868701909632592e+000	 3.167513898953164e+000	-3.141892958163505e-002
1	 3.833555580391654e+000	 3.209961274948470e+000	-2.384794580620667e-002
1	 3.797926079672085e+000	 3.252039093202069e+000	-1.717361683364955e-002
1	 3.761819255768023e+000	 3.293739150839572e+000	-1.171271359395050e-002
1	 3.725241141618175e+000	 3.335053369087720e+000	-7.795098526698256e-003
1	 3.526552507836178e+000	 3.157175703613221e+000	-2.697496852930885e-001
1	 3.491490338159828e+000	 3.195907828477368e+000	-2.415067585539214e-001
1	 3.455994081322530e+000	 3.234259887315395e+000	-2.202139101987017e-001
1	 3.420069953636332e+000	 3.272224619985245e+000	-2.044475857270371e-001
1	 3.383724332540992e+000	 3.309794902772032e+000	-1.927641862641474e-001
1	 3.346963752837024e+000	 3.346963752837023e+000	-1.837026499826493e-001
1	 3.309794902772032e+000	 3.383724332540992e+000	-1.757870665077005e-001
1	 3.272224619985245e+000	 3.420069953636333e+000	-1.675293187710115e-001
1	 3.234259887315396e+000	 3.455994081322531e+000	-1.574317467065569e-001
1	 3.195907828477369e+000	 3.491490338159829e+000	-1.439898271253112e-001
1	 3.157175703613221e+000	 3.526552507836178e+000	-1.256948640681929e-001
1	 3.546421721381069e+000	 3.174963783647567e+000	-2.229019596250776e-001
1	 3.511162005309020e+000	 3.213914132076515e+000	-1.991993081373251e-001
1	 3.475465756353109e+000	 3.252482273120869e+000	-1.820890596222413e-001
1	 3.439339225849170e+000	 3.290660905733674e+000	-1.702067733749548e-001
1	 3.402788827168555e+000	 3.328442866063796e+000	-1.621684993581607e-001
1	 3.365821131929980e+000	 3.365821131929980e+000	-1.565732627269278e-001
1	 3.328442866063796e+000	 3.402788827168555e+000	-1.520055805410084e-001
1	 3.290660905733673e+000	 3.439339225849170e+000	-1.470380053330007e-001
1	 3.252482273120868e+000	 3.475465756353109e+000	-1.402336901295632e-001
1	 3.213914132076515e+000	 3.511162005309020e+000	-1.301489694683720e-001
1	 3.174963783647567e+000	 3.546421721381069e+000	-1.153359509156795e-001
1	 3.566290949832161e+000	 3.192751877027289e+000	-1.808806543893994e-001
1	 3.530833687216242e+000	 3.231920449184716e+000	-1.612772610980556e-001
1	 3.494937445991728e+000	 3.270704672597463e+000	-1.478620911056603e-001
1	 3.458608512518249e+000	 3.309097205313643e+000	-1.393423500336883e-001
1	 3.421853336098788e+000	 3.347090843345853e+000	-1.344065106805197e-001
1	 3.384678525170281e+000	 3.384678525170280e+000	-1.317266770019378e-001
1	 3.347090843345852e+000	 3.421853336098788e+000	-1.299609790680502e-001
1	 3.309097205313644e+000	 3.458608512518250e+000	-1.277559939190241e-001
1	 3.270704672597464e+000	 3.494937445991728e+000	-1.237491871734079e-001
1	 3.231920449184716e+000	 3.530833687216242e+000	-1.165713701900601e-001
1	 3.192751877027288e+000	 3.566290949832161e+000	-1.048491675478183e-001
1	 3.586160158419070e+000	 3.210539952623959e+000	-1.435933715789858e-001
1	 3.550505349456825e+000	 3.249926748291658e+000	-1.276529664926194e-001
1	 3.514409116163698e+000	 3.288927053856720e+000	-1.174528346263222e-001
1	 3.477877779923087e+000	 3.327533486462375e+000	-1.117841557764567e-001
1	 3.440917825969560e+000	 3.365738801984989e+000	-1.094203923998038e-001
1	 3.403535899558242e+000	 3.403535899558242e+000	-1.091195096105662e-001
1	 3.365738801984989e+000	 3.440917825969561e+000	-1.096262245307860e-001
1	 3.327533486462375e+000	 3.477877779923087e+000	-1.096742802214478e-001
1	 3.288927053856719e+000	 3.514409116163698e+000	-1.079887393564377e-001
1	 3.249926748291657e+000	 3.550505349456825e+000	-1.032882927512650e-001
1	 3.210539952623960e+000	 3.586160158419070e+000	-9.428757782320504e-002
1	 3.606029312371414e+000	 3.228327979309159e+000	-1.109497853502209e-001
1	 3.570176957606095e+000	 3.267932997887018e+000	-9.824073876306758e-002
1	 3.533880732794333e+000	 3.307149385010174e+000	-9.078291791177411e-002
1	 3.497146994343197e+000	 3.345969716917085e+000	-8.746360459450986e-002
1	 3.459982263418742e+000	 3.384386709347995e+000	-8.715361529200694e-002
1	 3.422393222094180e+000	 3.422393222094181e+000	-8.870935394513115e-002
1	 3.384386709347995e+000	 3.459982263418742e+000	-9.097489205418276e-002
1	 3.345969716917085e+000	 3.497146994343197e+000	-9.278407168254801e-002
1	 3.307149385010175e+000	 3.533880732794334e+000	-9.296262688666919e-002
1	 3.267932997887018e+000	 3.570176957606095e+000	-9.033031904736129e-002
1	 3.228327979309159e+000	 3.606029312371414e+000	-8.370308154447458e-002
1	 3.625898376918811e+000	 3.246115925954463e+000	-8.286158641337663e-002
1	 3.589848477239379e+000	 3.285939166460482e+000	-7.295680496778295e-002
1	 3.553352261808945e+000	 3.325371634169370e+000	-6.777571816399929e-002
1	 3.516416122058093e+000	 3.364405864414994e+000	-6.631364214406539e-002
1	 3.479046615084206e+000	 3.403034532801657e+000	-6.755091391391520e-002
1	 3.441250459778411e+000	 3.441250459778410e+000	-7.045475386413344e-002
1	 3.403034532801657e+000	 3.479046615084205e+000	-7.398115317521360e-002
1	 3.364405864414993e+000	 3.516416122058093e+000	-7.707678209542722e-002
1	 3.325371634169370e+000	 3.553352261808945e+000	-7.868091502410823e-002
1	 3.285939166460482e+000	 3.589848477239380e+000	-7.772736829034645e-002
1	 3.246115925954463e+000	 3.625898376918810e+000	-7.314644648690141e-002
1	 3.645767317290876e+000	 3.263903761431448e+000	-5.924242822587141e-002
1	 3.609519873932002e+000	 3.303945222501730e+000	-5.171925372299754e-002
1	 3.572823669132848e+000	 3.343593769445843e+000	-4.835631534874256e-002
1	 3.535685129347288e+000	 3.382841896693317e+000	-4.826870486306752e-002
1	 3.498110847603819e+000	 3.421682239712764e+000	-5.055825290557977e-002
1	 3.460107579611251e+000	 3.460107579611250e+000	-5.431517841601206e-002
1	 3.421682239712764e+000	 3.498110847603818e+000	-5.861976009953549e-002
1	 3.382841896693318e+000	 3.535685129347289e+000	-6.254402638024643e-002
1	 3.343593769445843e+000	 3.572823669132847e+000	-6.515346023719845e-002
1	 3.303945222501731e+000	 3.609519873932002e+000	-6.550871527938272e-002
1	 3.263903761431447e+000	 3.645767317290875e+000	-6.266733938939463e-002
1	 3.665636098717228e+000	 3.281691454611689e+000	-4.000787492059969e-002
1	 3.629191113259290e+000	 3.321951134500448e+000	-3.444798579075465e-002
1	 3.592294920691352e+000	 3.361815758951137e+000	-3.245144699108706e-002
1	 3.554953982490301e+000	 3.401277781489275e+000	-3.326468040631961e-002
1	 3.517174927615451e+000	 3.440329797448102e+000	-3.612279437948152e-002
1	 3.478964548593018e+000	 3.478964548593018e+000	-4.025099737808291e-002
1	 3.440329797448102e+000	 3.517174927615451e+000	-4.486603046601526e-002
1	 3.401277781489275e+000	 3.554953982490301e+000	-4.917761552918908e-002
1	 3.361815758951137e+000	 3.592294920691351e+000	-5.238991616116067e-002
1	 3.321951134500448e+000	 3.629191113259292e+000	-5.370300808273065e-002
1	 3.281691454611689e+000	 3.665636098717227e+000	-5.231435594686810e-002
1	 3.685504686427484e+000	 3.299478974366764e+000	-2.507535090449799e-002
1	 3.648862160796576e+000	 3.339956870946316e+000	-2.106466625179168e-002
1	 3.611765982409771e+000	 3.380037570796788e+000	-1.998946442098886e-002
1	 3.574222647766643e+000	 3.419713486540085e+000	-2.123886934969688e-002
1	 3.536238821756975e+000	 3.458977173374460e+000	-2.419286635576753e-002
1	 3.497821333724026e+000	 3.497821333724026e+000	-2.822345758019636e-002
1	 3.458977173374461e+000	 3.536238821756975e+000	-3.269583260014709e-002
1	 3.419713486540085e+000	 3.574222647766643e+000	-3.696955171386644e-002
1	 3.380037570796788e+000	 3.611765982409771e+000	-4.039973936563972e-002
1	 3.339956870946316e+000	 3.648862160796576e+000	-4.233828515311380e-002
1	 3.299478974366763e+000	 3.685504686427483e+000	-4.213504984136549e-002
1	 3.705373045651260e+000	 3.317266289568248e+000	-1.436409206525381e-002
1	 3.668532982119181e+000	 3.357962400329018e+000	-1.149267820441956e-002
1	 3.631236820213418e+000	 3.398259173094338e+000	-1.090029041487546e-002
1	 3.593491091455829e+000	 3.438148979582966e+000	-1.212994811627626e-002
1	 3.555302496666260e+000	 3.477624334858628e+000	-1.471793220467234e-002
1	 3.516677902004593e+000	 3.516677902004593e+000	-1.819465998395014e-002
1	 3.477624334858627e+000	 3.555302496666260e+000	-2.208557123817954e-002
1	 3.438148979582966e+000	 3.593491091455829e+000	-2.591202354913923e-002
1	 3.398259173094338e+000	 3.631236820213418e+000	-2.919219493876096e-002
1	 3.357962400329018e+000	 3.668532982119181e+000	-3.144199189758589e-002
1	 3.317266289568248e+000	 3.705373045651260e+000	-3.217596084768794e-002
1	 3.725241141618175e+000	 3.335053369087720e+000	-7.795098526698257e-003
1	 3.688203542802433e+000	 3.375967691138236e+000	-5.657077932978451e-003
1	 3.650707400027606e+000	 3.416480533955327e+000	-5.115378181682941e-003
1	 3.612759279837374e+000	 3.456584228355136e+000	-5.877933079200226e-003
1	 3.574365918981176e+000	 3.496271249267390e+000	-7.648561058892585e-003
1	 3.535534220435035e+000	 3.535534220435034e+000	-1.012753748952480e-002
1	 3.496271249267390e+000	 3.574365918981176e+000	-1.301217370456438e-002
1	 3.456584228355136e+000	 3.612759279837374e+000	-1.599740150758017e-002
1	 3.416480533955327e+000	 3.650707400027606e+000	-1.877636189441123e-002
1	 3.375967691138236e+000	 3.688203542802433e+000	-2.104099672209342e-002
1	 3.335053369087720e+000	 3.725241141618175e+000	-2.248264204777052e-002
1	 3.157175703613221e+000	 3.526552507836178e+000	-1.256948640681929e-001
1	 3.118065011326384e+000	 3.561179699818027e+000	-1.018881478221718e-001
1	 3.078589058694385e+000	 3.595360738185272e+000	-7.376594866238471e-002
1	 3.038755493602876e+000	 3.629089911770705e+000	-4.258243286383535e-002
1	 2.998572081419611e+000	 3.662361684203525e+000	-9.578708951472026e-003
1	 2.958046700001627e+000	 3.695170696876085e+000	 2.401922930365370e-002
1	 2.917187334614500e+000	 3.727511771739845e+000	 5.700252412805213e-002
1	 2.876002072770478e+000	 3.759379913927594e+000	 8.818143516239325e-002
1	 2.834499098992381e+000	 3.790770314199297e+000	 1.163872771065952e-001
1	 2.792686689510306e+000	 3.821678351209255e+000	 1.404743097826817e-001
1	 2.750573206898158e+000	 3.852099593592544e+000	 1.593215769490692e-001
1	 3.174963783647567e+000	 3.546421721381069e+000	-1.153359509156795e-001
1	 3.135632734880840e+000	 3.581244009018294e+000	-9.514451394788454e-002
1	 3.095934367828270e+000	 3.615617629333495e+000	-7.070928588177020e-002
1	 3.055876373465033e+000	 3.649536838981733e+000	-4.324168773942193e-002
1	 3.015466560910336e+000	 3.682996070399315e+000	-1.394051978988221e-002
1	 2.974712852406443e+000	 3.715989934787254e+000	 1.601004181805442e-002
1	 2.933623278209317e+000	 3.748513224922959e+000	 4.544241370542220e-002
1	 2.892205971397670e+000	 3.780560917797260e+000	 7.320753522609337e-002
1	 2.850469162607365e+000	 3.812128177074004e+000	 9.817675589343984e-002
1	 2.808421174698224e+000	 3.843210355370014e+000	 1.192436765509777e-001
1	 2.766070417360369e+000	 3.873802996353269e+000	 1.353259407079046e-001
1	 3.192751877027288e+000	 3.566290949832161e+000	-1.048491675478183e-001
1	 3.153200471615381e+000	 3.601308333271101e+000	-8.795206747897229e-002
1	 3.113279689975391e+000	 3.635874535678719e+000	-6.694501405446096e-002
1	 3.072997266172066e+000	 3.669983781532329e+000	-4.298163710451227e-002
1	 3.032361053076081e+000	 3.703630472075320e+000	-1.720331971560345e-002
1	 2.991379017314971e+000	 3.736809188317337e+000	 9.262722589622168e-003
1	 2.950059234135116e+000	 3.769514693861728e+000	 3.530532906178469e-002
1	 2.908409882181733e+000	 3.801741937557330e+000	 5.983124351400716e-002
1	 2.866439238203751e+000	 3.833486055971865e+000	 8.176692299663281e-002
1	 2.824155671690768e+000	 3.864742375684651e+000	 1.000603017887790e-001
1	 2.781567639449146e+000	 3.895506415396550e+000	 1.136825072738279e-001
1	 3.210539952623960e+000	 3.586160158419070e+000	-9.428757782320502e-002
1	 3.170768190787212e+000	 3.621372637464638e+000	-8.038542878119930e-002
1	 3.130624994782196e+000	 3.656131421772108e+000	-6.256809547875418e-002
1	 3.090118141763177e+000	 3.690430703641078e+000	-4.191663019748893e-002
1	 3.049255528352266e+000	 3.724264853122051e+000	-1.950014996183269e-002
1	 3.008045165562214e+000	 3.757628421033338e+000	 3.625973088071870e-003
1	 2.966495173629784e+000	 3.790516141804253e+000	 2.642188888359525e-002
1	 2.924613776766639e+000	 3.822922936141672e+000	 4.786501058583389e-002
1	 2.882409297834738e+000	 3.854843913517219e+000	 6.695171623624534e-002
1	 2.839890152953399e+000	 3.886274374472734e+000	 8.269900754159790e-002
1	 2.797064846045182e+000	 3.917209812741993e+000	 9.414612256500914e-002
1	 3.228327979309159e+000	 3.606029312371414e+000	-8.370308154447459e-002
1	 3.188335861653542e+000	 3.641436886487099e+000	-7.251757780787300e-002
1	 3.147970251895125e+000	 3.676388252164827e+000	-5.767140309698289e-002
1	 3.107238970277573e+000	 3.710877569526563e+000	-4.015849947889676e-002
1	 3.066149957174312e+000	 3.744899177430023e+000	-2.096112318153632e-002
1	 3.024711267983182e+000	 3.778447596502260e+000	-1.048174546905957e-003
1	 2.982931067931204e+000	 3.811517531998638e+000	 1.862644080975294e-002
1	 2.940817626796362e+000	 3.844103876484156e+000	 3.712541632670253e-002
1	 2.898379313553517e+000	 3.876201712334408e+000	 5.352961110542712e-002
1	 2.855624590951576e+000	 3.907806314053837e+000	 6.693957571479951e-002
1	 2.812562010029165e+000	 3.938913150409198e+000	 7.647703422419867e-002
1	 3.246115925954463e+000	 3.625898376918810e+000	-7.314644648690141e-002
1	 3.205903453471578e+000	 3.661501045226677e+000	-6.441989912691855e-002
1	 3.165315430960621e+000	 3.696644991408035e+000	-5.234577778698152e-002
1	 3.124359721754459e+000	 3.731324343407371e+000	-3.781662961027139e-002
1	 3.083044309977635e+000	 3.765533408889745e+000	-2.171350369389331e-002
1	 3.041377295412882e+000	 3.799266678291102e+000	-4.904448757375287e-003
1	 2.999366888277262e+000	 3.832518827692987e+000	 1.175695927952715e-002
1	 2.957021403914880e+000	 3.865284721518647e+000	 2.743305684252301e-002
1	 2.914349257413283e+000	 3.897559415047773e+000	 4.130349650412965e-002
1	 2.871358958150760e+000	 3.929338156747529e+000	 5.256661228034360e-002
1	 2.828059104281789e+000	 3.960616390417767e+000	 6.044074377749158e-002
1	 3.263903761431447e+000	 3.645767317290875e+000	-6.266733938939463e-002
1	 3.223470935498525e+000	 3.681565078571562e+000	-5.616222548911559e-002
1	 3.182660501625123e+000	 3.716901604052892e+000	-4.668008379732312e-002
1	 3.141480366233044e+000	 3.751770989502083e+000	-3.499802419803243e-002
1	 3.099938557197659e+000	 3.786167511391734e+000	-2.188178513071775e-002
1	 3.058043218686317e+000	 3.820085629966870e+000	-8.084426862291376e-003
1	 3.015802605905841e+000	 3.853519992135404e+000	 5.654946690260490e-003
1	 2.973225079766165e+000	 3.886465434179013e+000	 1.861243501999575e-002
1	 2.930319101467231e+000	 3.918916984281657e+000	 3.008055449915604e-002
1	 2.887093227016413e+000	 3.950869864873384e+000	 3.936941588337142e-002
1	 2.843556101683741e+000	 3.982319494787302e+000	 4.580786358335730e-002
1	 3.281691454611689e+000	 3.665636098717227e+000	-5.231435594686811e-002
1	 3.241038276991591e+000	 3.701628951409947e+000	-4.781287999235392e-002
1	 3.200005433535079e+000	 3.737158054650565e+000	-4.076126239610282e-002
1	 3.158600873752532e+000	 3.772217472029283e+000	-3.180737038647799e-002
1	 3.116832669269804e+000	 3.806801448826499e+000	-2.158776558062846e-002
1	 3.074709008638497e+000	 3.840904415096564e+000	-1.072662050719548e-002
1	 3.032238192054828e+000	 3.874520988573996e+000	 1.653377404184757e-004
1	 2.989428625994191e+000	 3.907645977399120e+000	 1.049185461350945e-002
1	 2.946288817768555e+000	 3.940274382660400e+000	 1.967214395916539e-002
1	 2.902827370013992e+000	 3.972401400750971e+000	 2.714185068322094e-002
1	 2.859052975115711e+000	 4.004022425537404e+000	 3.235397839184105e-002
1	 3.299478974366763e+000	 3.685504686427483e+000	-4.213504984136549e-002
1	 3.258605447207982e+000	 3.721692628630023e+000	-3.943871689442264e-002
1	 3.217350196336926e+000	 3.757414307752213e+000	-3.467438380009220e-002
1	 3.175721214352127e+000	 3.792663755207555e+000	-2.834710138031754e-002
1	 3.133726616629490e+000	 3.827435185084556e+000	-2.095062032452051e-002
1	 3.091374636104424e+000	 3.861722997247187e+000	-1.296655837488331e-002
1	 3.048673617962106e+000	 3.895521780256860e+000	-4.863593161139259e-003
1	 3.005632014242934e+000	 3.928826314112840e+000	 2.903317727023247e-003
1	 2.962258378370446e+000	 3.961631572808341e+000	 9.893687919719549e-003
1	 2.918561359608961e+000	 3.993932726699862e+000	 1.568222327052199e-002
1	 2.874549697458392e+000	 4.025725144687677e+000	 1.985951134154012e-002
1	 3.317266289568248e+000	 3.705373045651260e+000	-3.217596084768794e-002
1	 3.276172415404907e+000	 3.741756075119985e+000	-3.110516112459492e-002
1	 3.234694759677108e+000	 3.777670327908998e+000	-2.850269744822506e-002
1	 3.192841358071037e+000	 3.813109803255483e+000	-2.471745697375000e-002
1	 3.150620369712136e+000	 3.848068684056416e+000	-2.008697225196243e-002
1	 3.108040071919110e+000	 3.882541339985742e+000	-1.493686625892585e-002
1	 3.065108854865560e+000	 3.916522330432104e+000	-9.580321533720144e-003
1	 3.021835216156370e+000	 3.950006407254037e+000	-4.317574435338627e-003
1	 2.978227755326099e+000	 3.982988517349826e+000	 5.645645396277462e-004
1	 2.934295168266778e+000	 4.015463805039629e+000	 4.793163508755751e-003
1	 2.890046241592473e+000	 4.047427614257718e+000	 8.109594229285368e-003
1	 3.335053369087720e+000	 3.725241141618175e+000	-2.248264204777052e-002
1	 3.293739150839573e+000	 3.761819255768024e+000	-2.287624654216954e-002
1	 3.252039093202069e+000	 3.797926079672084e+000	-2.232768068067790e-002
1	 3.209961274948469e+000	 3.833555580391654e+000	-2.101654215986440e-002
1	 3.167513898953163e+000	 3.868701909632593e+000	-1.911096004430153e-002
1	 3.124705286917558e+000	 3.903359406879230e+000	-1.676734459762900e-002
1	 3.081543874003077e+000	 3.937522602347834e+000	-1.413015962042660e-002
1	 3.038038203378471e+000	 3.971186219756580e+000	-1.133171767093633e-002
1	 2.994196920688713e+000	 4.004345178909193e+000	-8.491998484291096e-003
1	 2.950028768452905e+000	 4.036994598089843e+000	-5.718490844931714e-003
1	 2.905542580398644e+000	 4.069129796267133e+000	-3.106058105563324e-003
1	 2.750573206898158e+000	 3.852099593592544e+000	 1.593215769490692e-001
1	 2.708167093740830e+000	 3.882029800775059e+000	 1.725530318512301e-001
1	 2.665476864481691e+000	 3.911464921384907e+000	 1.808085586687288e-001
1	 2.622511102776230e+000	 3.940401098026868e+000	 1.845261294514503e-001
1	 2.579278456895366e+000	 3.968834669728083e+000	 1.841635027643621e-001
1	 2.535787634173377e+000	 3.996762173110999e+000	 1.801973213523160e-001
1	 2.492047395438517e+000	 4.024180343380285e+000	 1.731221846179732e-001
1	 2.448066549433489e+000	 4.051086115123940e+000	 1.634496980631424e-001
1	 2.403853947232864e+000	 4.077476622929091e+000	 1.517075018780281e-001
1	 2.359418476664550e+000	 4.103349201813303e+000	 1.384382808900863e-001
1	 2.314769056742236e+000	 4.128701387472491e+000	 1.241987581044721e-001
1	 2.766070417360369e+000	 3.873802996353269e+000	 1.353259407079046e-001
1	 2.723425380745691e+000	 3.903901835557514e+000	 1.460696435847939e-001
1	 2.680494627269417e+000	 3.933502798784716e+000	 1.521369539209680e-001
1	 2.637286788948846e+000	 3.962602006906416e+000	 1.540008650791551e-001
1	 2.593810562780759e+000	 3.991195778323189e+000	 1.521498520720027e-001
1	 2.550074705158071e+000	 4.019280630144203e+000	 1.470869424597825e-001
1	 2.506088026269068e+000	 4.046853279179696e+000	 1.393287699900087e-001
1	 2.461859384486437e+000	 4.073910642746603e+000	 1.294046130957957e-001
1	 2.417397680753247e+000	 4.100449839287810e+000	 1.178554203844788e-001
1	 2.372711852972975e+000	 4.126468188805896e+000	 1.052328252561919e-001
1	 2.327810870410583e+000	 4.151963213112461e+000	 9.209815179373741e-002
1	 2.781567639449146e+000	 3.895506415396550e+000	 1.136825072738279e-001
1	 2.738683679197817e+000	 3.925773886749149e+000	 1.222932370154744e-001
1	 2.695512401323906e+000	 3.955540692718250e+000	 1.265455613068230e-001
1	 2.652062486206556e+000	 3.984802932442126e+000	 1.269285445566067e-001
1	 2.608342679568453e+000	 4.013556903694774e+000	 1.239431550563182e-001
1	 2.564361786861187e+000	 4.041799104072063e+000	 1.181013358636864e-001
1	 2.520128667633114e+000	 4.069526231989785e+000	 1.099250647776209e-001
1	 2.475652229886951e+000	 4.096735187493784e+000	 9.994540545032200e-002
1	 2.430941424434304e+000	 4.123423072882693e+000	 8.870155168191536e-002
1	 2.386005239254254e+000	 4.149587193144094e+000	 7.673986693662753e-002
1	 2.340852693863086e+000	 4.175225056205249e+000	 6.461292110706962e-002
1	 2.797064846045182e+000	 3.917209812741993e+000	 9.414612256500914e-002
1	 2.753941962396011e+000	 3.947645916074441e+000	 1.009618218769972e-001
1	 2.710530160364864e+000	 3.977578564619736e+000	 1.037630706442427e-001
1	 2.666838168692685e+000	 4.007003835782910e+000	 1.030363554103520e-001
1	 2.622874781828017e+000	 4.035918006711387e+000	 9.927720726106810e-002
1	 2.578648854281084e+000	 4.064317555487758e+000	 9.298929920579624e-002
1	 2.534169294960265e+000	 4.092199162133383e+000	 8.468353743480724e-002
1	 2.489445061498263e+000	 4.119559709423028e+000	 7.487714838923706e-002
1	 2.444485154575171e+000	 4.146396283511083e+000	 6.409276357019250e-002
1	 2.399298612245635e+000	 4.172706174370148e+000	 5.285750399678626e-002
1	 2.353894504277207e+000	 4.198486876043154e+000	 4.170206620097818e-002
1	 2.812562010029165e+000	 3.938913150409198e+000	 7.647703422419867e-002
1	 2.769200203639073e+000	 3.969517885257865e+000	 8.181918310696273e-002
1	 2.725547878111994e+000	 3.999616375923409e+000	 8.352415545524730e-002
1	 2.681613810550553e+000	 4.029204678077674e+000	 8.205750555764345e-002
1	 2.637406844129022e+000	 4.058279048241575e+000	 7.789168285720850e-002
1	 2.592935882416122e+000	 4.086835944984467e+000	 7.150518210834114e-002
1	 2.548209883680132e+000	 4.114872029933324e+000	 6.338169064169735e-002
1	 2.503237855183603e+000	 4.142384168591883e+000	 5.400923452860101e-002
1	 2.458028847474985e+000	 4.169369430970327e+000	 4.387932541945015e-002
1	 2.412591948684358e+000	 4.195825092026315e+000	 3.348610980854638e-002
1	 2.366936278830408e+000	 4.221748631918484e+000	 2.332552245071344e-002
1	 2.828059104281789e+000	 3.960616390417767e+000	 6.044074377749158e-002
1	 2.784458376225800e+000	 3.991389756023894e+000	 6.461472285148071e-002
1	 2.740565528285003e+000	 4.021654088063499e+000	 6.556930935233307e-002
1	 2.696389385923487e+000	 4.051405420475334e+000	 6.373105879246317e-002
1	 2.651938841041037e+000	 4.080639989153886e+000	 5.953197412312181e-002
1	 2.607222846264664e+000	 4.109354233155368e+000	 5.340873471437541e-002
1	 2.562250409222322e+000	 4.137544795712441e+000	 4.580192413685928e-002
1	 2.517030586806201e+000	 4.165208525057891e+000	 3.715525835426034e-002
1	 2.471572479432886e+000	 4.192342475057773e+000	 2.791481591676484e-002
1	 2.425885225307669e+000	 4.218943905654851e+000	 1.852827172240859e-002
1	 2.379977994700152e+000	 4.245010283123538e+000	 9.444135885591823e-003
1	 2.843556101683741e+000	 3.982319494787302e+000	 4.580786358335730e-002
1	 2.799716453454992e+000	 4.013261490097004e+000	 4.910330758914808e-002
1	 2.755583084603597e+000	 4.043691662474240e+000	 4.964468772635136e-002
1	 2.711164868954809e+000	 4.073606024124798e+000	 4.780177560229380e-002
1	 2.666470747133636e+000	 4.103000790316870e+000	 4.394903612627432e-002
1	 2.621509720825070e+000	 4.131872380593638e+000	 3.846496113612430e-002
1	 2.576290847016447e+000	 4.160217419793572e+000	 3.173140199458623e-002
1	 2.530823232229287e+000	 4.188032738878607e+000	 2.413290254538182e-002
1	 2.485116026748009e+000	 4.215315375570761e+000	 1.605603380267695e-002
1	 2.439178418852812e+000	 4.242062574798013e+000	 7.888731727540595e-003
1	 2.393019629063903e+000	 4.268271788950621e+000	 1.963942109277466e-005
1	 2.859052975115711e+000	 4.004022425537404e+000	 3.235397839184105e-002
1	 2.814974408625451e+000	 4.035133049201670e+000	 3.504512018190945e-002
1	 2.770600520787481e+000	 4.065729060589862e+000	 3.550195453654067e-002
1	 2.725940233787844e+000	 4.095806450174977e+000	 3.401995911522403e-002
1	 2.681002536976385e+000	 4.125361412599069e+000	 3.089923641076075e-002
1	 2.635796481095702e+000	 4.154390347892455e+000	 2.644397762678749e-002
1	 2.590331172492116e+000	 4.182889862499548e+000	 2.096192418008995e-002
1	 2.544615767316093e+000	 4.210856770111573e+000	 1.476382796217043e-002
1	 2.498659465719494e+000	 4.238288092306640e+000	 8.162911485213649e-003
1	 2.452471506057028e+000	 4.265181058998053e+000	 1.474329025026379e-003
1	 2.406061159099123e+000	 4.291533108692034e+000	-4.985370142193447e-003
1	 2.874549697458392e+000	 4.025725144687677e+000	 1.985951134154012e-002
1	 2.830232215035976e+000	 4.057004395062370e+000	 2.220551666855793e-002
1	 2.785617810556359e+000	 4.087766243844597e+000	 2.289813401193735e-002
1	 2.740715454565916e+000	 4.118006659774781e+000	 2.214130598554764e-002
1	 2.695534185138857e+000	 4.147721816869036e+000	 2.014420950355189e-002
1	 2.650083102074918e+000	 4.176908095644997e+000	 1.712087529919571e-002
1	 2.604371361078937e+000	 4.205562084153207e+000	 1.328980222263973e-002
1	 2.558408167929847e+000	 4.233680578814339e+000	 8.873567160778167e-003
1	 2.512202772646476e+000	 4.261260585062754e+000	 4.098431423834808e-003
1	 2.465764463657564e+000	 4.288299317797230e+000	-8.060555571953147e-004
1	 2.419102561983274e+000	 4.314794201640082e+000	-5.607454381410177e-003
1	 2.890046241592473e+000	 4.047427614257718e+000	 8.109594229285368e-003
1	 2.845489845985365e+000	 4.078875489403575e+000	 1.035488762447095e-002
1	 2.800634927629938e+000	 4.109803173672678e+000	 1.159546708147493e-002
1	 2.755490505432347e+000	 4.140206614073120e+000	 1.192676203417848e-002
1	 2.710065666190624e+000	 4.170081963995318e+000	 1.145071606022491e-002
1	 2.664369558761082e+000	 4.199425584444443e+000	 1.027558722221324e-002
1	 2.618411388206522e+000	 4.228234045077379e+000	 8.515738853501875e-003
1	 2.572200409933783e+000	 4.256504125044452e+000	 6.291421304217464e-003
1	 2.525745923828092e+000	 4.284232813636448e+000	 3.728545180299026e-003
1	 2.479057268391664e+000	 4.311417310737799e+000	 9.584466238278142e-004
1	 2.432143814893819e+000	 4.338055027087065e+000	-1.882354803494038e-003
1	 2.905542580398644e+000	 4.069129796267133e+000	-3.106058105563324e-003
1	 2.860747274772420e+000	 4.100746293949762e+000	-7.314760813656422e-004
1	 2.815651845727925e+000	 4.131839811508338e+000	 1.361272357821198e-003
1	 2.770265360530463e+000	 4.162406274218905e+000	 3.142382467952336e-003
1	 2.724596954701255e+000	 4.192441814846461e+000	 4.590506478526374e-003
1	 2.678655826152554e+000	 4.221942774883971e+000	 5.692759732918747e-003
1	 2.632451229304479e+000	 4.250905705594900e+000	 6.444711461999189e-003
1	 2.585992469191127e+000	 4.279327368859455e+000	 6.850360343671000e-003
1	 2.539288895563483e+000	 4.307204737825071e+000	 6.922095037802214e-003
1	 2.492349896996570e+000	 4.334534997362014e+000	 6.680639921862727e-003
1	 2.445184895008223e+000	 4.361315544325288e+000	 6.154986287287458e-003
1	 2.314769056742236e+000	 4.128701387472491e+000	 1.241987581044722e-001
1	 2.269921375286927e+000	 4.153527231960959e+000	 1.105831939949213e-001
1	 2.224877713832085e+000	 4.177828517788692e+000	 9.865860682397629e-002
1	 2.179647050109438e+000	 4.201603386542996e+000	 8.819959875152247e-002
1	 2.134238370909848e+000	 4.224850179576209e+000	 7.897094338387405e-002
1	 2.088660666674489e+000	 4.247567437359611e+000	 7.072816728868896e-002
1	 2.042922926136646e+000	 4.269753898666801e+000	 6.321813935747474e-002
1	 1.997034131020162e+000	 4.291408499589529e+000	 5.617966667298972e-002
1	 1.951003250800438e+000	 4.312530372389278e+000	 4.934409554549338e-002
1	 1.904839237533663e+000	 4.333118844188068e+000	 4.243591639229365e-002
1	 1.858551020759794e+000	 4.353173435502171e+000	 3.517337114927052e-002
1	 2.327810870410583e+000	 4.151963213112461e+000	 9.209815179373741e-002
1	 2.282710509275002e+000	 4.176928930750042e+000	 7.990834265442989e-002
1	 2.237413063954258e+000	 4.201367134271600e+000	 6.958295044117928e-002
1	 2.191927562762202e+000	 4.225275954793839e+000	 6.088456822263222e-002
1	 2.146263043122858e+000	 4.248653724323997e+000	 5.356922184985493e-002
1	 2.100428546131131e+000	 4.271498975110129e+000	 4.738692114927589e-002
1	 2.054433111164409e+000	 4.293810438819873e+000	 4.208221363387724e-002
1	 2.008285770551152e+000	 4.315587045550745e+000	 3.739473954406253e-002
1	 1.961995544302362e+000	 4.336827922675253e+000	 3.305978704649376e-002
1	 1.915571434911692e+000	 4.357532393524315e+000	 2.880884643932330e-002
1	 1.869022422229697e+000	 4.377699975912726e+000	 2.437016223533661e-002
1	 2.340852693863086e+000	 4.175225056205249e+000	 6.461292110706962e-002
1	 2.295499652857716e+000	 4.200330647096901e+000	 5.367003602175594e-002
1	 2.249948423480745e+000	 4.224905768415010e+000	 4.472888702818272e-002
1	 2.204208084628181e+000	 4.248948540805665e+000	 3.755018103713349e-002
1	 2.158287724357238e+000	 4.272457286930998e+000	 3.188987013864120e-002
1	 2.112196434416588e+000	 4.295430530815842e+000	 2.749967556912064e-002
1	 2.065943304827759e+000	 4.317866997021875e+000	 2.412761139104878e-002
1	 2.019537418523855e+000	 4.339765609652385e+000	 2.151850680182486e-002
1	 1.972987846051518e+000	 4.361125491190895e+000	 1.941452601033312e-002
1	 1.926303640341893e+000	 4.381945961177230e+000	 1.755568464430882e-002
1	 1.879493831556171e+000	 4.402226534724702e+000	 1.568036167886070e-002
1	 2.353894504277207e+000	 4.198486876043154e+000	 4.170206620097818e-002
1	 2.308288783654709e+000	 4.223732340049086e+000	 3.188483918938622e-002
1	 2.262483770475299e+000	 4.248444379026887e+000	 2.415397878849181e-002
1	 2.216488594217080e+000	 4.272621103152047e+000	 1.827830746399475e-002
1	 2.170312393570410e+000	 4.296260825741617e+000	 1.402227275839219e-002
1	 2.123964310937664e+000	 4.319362062597204e+000	 1.114644707549714e-002
1	 2.077453486984452e+000	 4.341923531174544e+000	 9.408026874175744e-003
1	 2.030789055248471e+000	 4.363944149582699e+000	 8.561330244760758e-003
1	 1.983980136811944e+000	 4.385423035416231e+000	 8.358291863106255e-003
1	 1.937035835043453e+000	 4.406359504423866e+000	 8.548954341353101e-003
1	 1.889965230414765e+000	 4.426753069017446e+000	 8.881955021041296e-003
1	 2.366936278830408e+000	 4.221748631918484e+000	 2.332552245071344e-002
1	 2.321077879285621e+000	 4.247133968654143e+000	 1.456898518213610e-002
1	 2.275019083001671e+000	 4.271982924915197e+000	 7.914553051993041e-003
1	 2.228769070038613e+000	 4.296293600406571e+000	 3.149047351126147e-003
1	 2.182337029719799e+000	 4.320064299100254e+000	 5.387790827763473e-005
1	 2.135732155101160e+000	 4.343293528574663e+000	-1.594478316618342e-003
1	 2.088963637492247e+000	 4.365979999179607e+000	-2.023997051563902e-003
1	 2.042040661035200e+000	 4.388122623029947e+000	-1.466625961823506e-003
1	 1.994972397347677e+000	 4.409720512831290e+000	-1.578043312934653e-004
1	 1.947768000235553e+000	 4.430772980541284e+000	 1.664015840822342e-003
1	 1.900436600481028e+000	 4.451279535870308e+000	 3.757846365945663e-003
1	 2.379977994700152e+000	 4.245010283123538e+000	 9.444135885591823e-003
1	 2.333866917370094e+000	 4.270535491959619e+000	 1.738385138178654e-003
1	 2.287554339123615e+000	 4.295521364887908e+000	-3.934262804908688e-003
1	 2.241049490602490e+000	 4.319965991142815e+000	-7.759220295195551e-003
1	 2.194361611762827e+000	 4.343867665351315e+000	-9.929748425939064e-003
1	 2.147499946313881e+000	 4.367224886868669e+000	-1.064649668931491e-002
1	 2.100473736208903e+000	 4.390036358938797e+000	-1.011703640621513e-002
1	 2.053292216194243e+000	 4.412300987682381e+000	-8.555388985305827e-003
1	 2.005964608422758e+000	 4.434017880916100e+000	-6.181550062876972e-003
1	 1.958500117137380e+000	 4.455186346806542e+000	-3.221010566864962e-003
1	 1.910907923430507e+000	 4.475805892362633e+000	 9.572426261788124e-005
1	 2.393019629063903e+000	 4.268271788950621e+000	 1.963942109277466e-005
1	 2.346655875527765e+000	 4.293936869013054e+000	-6.591361838935816e-003
1	 2.300089516904883e+000	 4.319059657752982e+000	-1.133850756974089e-002
1	 2.253329834418422e+000	 4.343638233934360e+000	-1.436978933647277e-002
1	 2.206386118656919e+000	 4.367670882839204e+000	-1.584487012821077e-002
1	 2.159267663982630e+000	 4.391156095599676e+000	-1.593463937437929e-002
1	 2.111983762992179e+000	 4.414092568353846e+000	-1.482075465228502e-002
1	 2.064543701035800e+000	 4.436479201228258e+000	-1.269517122856722e-002
1	 2.016956750801223e+000	 4.458315097150689e+000	-9.759660588188121e-003
1	 1.969232166968115e+000	 4.479599560496697e+000	-6.225319111852156e-003
1	 1.921379180938751e+000	 4.500332095573771e+000	-2.312068066414449e-003
1	 2.406061159099123e+000	 4.291533108692034e+000	-4.985370142193447e-003
1	 2.359444731378276e+000	 4.317338058861998e+000	-1.040495914487439e-002
1	 2.312624594409227e+000	 4.342597762318389e+000	-1.424535349245274e-002
1	 2.265610079996117e+000	 4.367310287354787e+000	-1.660758007329632e-002
1	 2.218410529359499e+000	 4.391473909908328e+000	-1.760953029452527e-002
1	 2.171035287514209e+000	 4.415087112888133e+000	-1.738552761480726e-002
1	 2.123493697699832e+000	 4.438148585326483e+000	-1.608587226442881e-002
1	 2.075795095870068e+000	 4.460657221355827e+000	-1.387636442843943e-002
1	 2.027948805247112e+000	 4.482612119015087e+000	-1.093780720063617e-002
1	 1.979964130946946e+000	 4.504012578888808e+000	-7.465490643668157e-003
1	 1.931850354681307e+000	 4.524858102583068e+000	-3.668658313614074e-003
1	 2.419102561983274e+000	 4.314794201640082e+000	-5.607454381410177e-003
1	 2.372233462541266e+000	 4.340739020553997e+000	-9.687403443846991e-003
1	 2.325159549700400e+000	 4.366135637392092e+000	-1.260307463122804e-002
1	 2.277890205845287e+000	 4.390982109977675e+000	-1.439909430400534e-002
1	 2.230434822827990e+000	 4.415276704903087e+000	-1.514350219813383e-002
1	 2.182802796315422e+000	 4.439017896854491e+000	-1.492732867873282e-002
1	 2.135003520189621e+000	 4.462204367758440e+000	-1.386413727367703e-002
1	 2.087046381007252e+000	 4.484835005753348e+000	-1.208953394244596e-002
1	 2.038940752524462e+000	 4.506908903989322e+000	-9.760644593742105e-003
1	 1.990695990293054e+000	 4.528425359259935e+000	-7.055562418044004e-003
1	 1.942321426333725e+000	 4.549383870469874e+000	-4.172766648293711e-003
1	 2.432143814893819e+000	 4.338055027087065e+000	-1.882354803494038e-003
1	 2.385022046636375e+000	 4.364139713136595e+000	-4.423975731295173e-003
1	 2.337694360842154e+000	 4.389673241782057e+000	-6.361016206622188e-003
1	 2.290170190475642e+000	 4.414653660376604e+000	-7.672371815329702e-003
1	 2.242458978019817e+000	 4.439079226167888e+000	-8.368241817294002e-003
1	 2.194570169793072e+000	 4.462948405619200e+000	-8.489713371713234e-003
1	 2.146513210319304e+000	 4.486259873551445e+000	-8.108296749929274e-003
1	 2.098297536757549e+000	 4.509012512109074e+000	-7.325413216785336e-003
1	 2.049932573397312e+000	 4.531205409553420e+000	-6.271837351005788e-003
1	 2.001427726225625e+000	 4.552837858887132e+000	-5.107095657692305e-003
1	 1.952792377571551e+000	 4.573909356313535e+000	-4.018823401606775e-003
1	 2.445184895008223e+000	 4.361315544325288e+000	 6.154986287287458e-003
1	 2.397810461283245e+000	 4.387540095657339e+000	 5.399767320948321e-003
1	 2.350229005898243e+000	 4.413210534296250e+000	 4.530435073321508e-003
1	 2.302450012396893e+000	 4.438324897125159e+000	 3.643051748000925e-003
1	 2.254482973892404e+000	 4.462881432047135e+000	 2.793158132326827e-003
1	 2.206337387353962e+000	 4.486878597302711e+000	 1.996185104401008e-003
1	 2.158022747946641e+000	 4.510315060607234e+000	 1.227930812041865e-003
1	 2.109548543431158e+000	 4.533189698111257e+000	 4.251015711695923e-004
1	 2.060924248629702e+000	 4.555501593187414e+000	-5.140855946827184e-004
1	 2.012159319963842e+000	 4.577250035047464e+000	-1.729240969389270e-003
1	 1.963263190070333e+000	 4.598434517193399e+000	-3.397083018095530e-003
1	 1.858551020759794e+000	 4.353173435502171e+000	 3.517337114927052e-002
1	 1.812140533433458e+000	 4.372696747465477e+000	 2.670193451952311e-002
1	 1.765623585772689e+000	 4.391685636628613e+000	 1.664054686055728e-002
1	 1.719009016112671e+000	 4.410140196866270e+000	 5.400956403539588e-003
1	 1.672305620595791e+000	 4.428060708201621e+000	-6.617424575818833e-003
1	 1.625522148514562e+000	 4.445447634610877e+000	-1.902794892658431e-002
1	 1.578667297757052e+000	 4.462301621696777e+000	-3.145713432857227e-002
1	 1.531749710358706e+000	 4.478623494235841e+000	-4.354503332088314e-002
1	 1.484777968164294e+000	 4.494414253604442e+000	-5.494557351486551e-002
1	 1.437760588603412e+000	 4.509675075088746e+000	-6.532686792788782e-002
1	 1.390706020582741e+000	 4.524407305083716e+000	-7.437149544714020e-002
1	 1.869022422229697e+000	 4.377699975912726e+000	 2.437016223533654e-002
1	 1.822350450101617e+000	 4.397333285629620e+000	 1.886156441275196e-002
1	 1.775571417823013e+000	 4.416429161514879e+000	 1.183620545127392e-002
1	 1.728694213525793e+000	 4.434987697972089e+000	 3.659319297713968e-003
1	 1.681727682911335e+000	 4.453009176602113e+000	-5.319859208010706e-003
1	 1.634680624567193e+000	 4.470494063995282e+000	-1.476838421621738e-002
1	 1.587561785386847e+000	 4.487443009391756e+000	-2.436985553010524e-002
1	 1.540379856096477e+000	 4.503856842214985e+000	-3.382464219369546e-002
1	 1.493143466892459e+000	 4.519736569483269e+000	-4.285007322754232e-002
1	 1.445861183193071e+000	 4.535083373104527e+000	-5.118059580874561e-002
1	 1.398541501507601e+000	 4.549898607059533e+000	-5.856790126314346e-002
1	 1.879493831556171e+000	 4.402226534724702e+000	 1.568036167886064e-002
1	 1.832560374430207e+000	 4.421969842277712e+000	 1.284394674233125e-002
1	 1.785519257337162e+000	 4.441172704965379e+000	 8.500176129604914e-003
1	 1.738379418205698e+000	 4.459835217720181e+000	 2.970104038077944e-003
1	 1.691149752296235e+000	 4.477957663720667e+000	-3.442772379768841e-003
1	 1.643839107491402e+000	 4.495540512171281e+000	-1.045270612542553e-002
1	 1.596456279690133e+000	 4.512584415949611e+000	-1.779185929822935e-002
1	 1.549010008309379e+000	 4.529090209126037e+000	-2.521042823398692e-002
1	 1.501508971897163e+000	 4.545058904360770e+000	-3.247673527204856e-002
1	 1.453961783860480e+000	 4.560491690183496e+000	-3.937728765531052e-002
1	 1.406376988311272e+000	 4.575389928160809e+000	-4.571680413519366e-002
1	 1.889965230414765e+000	 4.426753069017446e+000	 8.881955021041327e-003
1	 1.842770288552342e+000	 4.446606374296625e+000	 8.337265038899231e-003
1	 1.795467086906851e+000	 4.465916223679772e+000	 6.257350564882471e-003
1	 1.748064613203671e+000	 4.484682712628255e+000	 2.921295856384119e-003
1	 1.700571812262212e+000	 4.502906125898311e+000	-1.408847517188449e-003
1	 1.652997581260137e+000	 4.520586935308484e+000	-6.488199086624293e-003
1	 1.605350765101788e+000	 4.537725797373788e+000	-1.208915557563186e-002
1	 1.557640151894845e+000	 4.554323550811518e+000	-1.800146510298788e-002
1	 1.509874468538930e+000	 4.570381213923803e+000	-2.403226999084137e-002
1	 1.462062376429717e+000	 4.585899981862074e+000	-3.000611874062150e-002
1	 1.414212467281752e+000	 4.600881223778737e+000	-3.576494779952126e-002
1	 1.900436600481028e+000	 4.451279535870308e+000	 3.757846365945663e-003
1	 1.852980174601130e+000	 4.471242838573231e+000	 5.036598361731260e-003
1	 1.805414889123797e+000	 4.490659674357718e+000	 4.740908382692979e-003
1	 1.757749781570993e+000	 4.509530139214029e+000	 3.109978590828703e-003
1	 1.709993846320988e+000	 4.527854519476076e+000	 3.685627203294307e-004
1	 1.662156029846346e+000	 4.545633289576499e+000	-3.273159290977846e-003
1	 1.614245226056694e+000	 4.562867109667729e+000	-7.619678964395664e-003
1	 1.566270271750308e+000	 4.579556823113962e+000	-1.249022959147209e-002
1	 1.518239942178288e+000	 4.595703453859223e+000	-1.771882960615486e-002
1	 1.470162946724856e+000	 4.611308203676677e+000	-2.315429948662913e-002
1	 1.422047924707039e+000	 4.626372449304512e+000	-2.866025270870942e-002
1	 1.910907923430507e+000	 4.475805892362633e+000	 9.572426261788124e-005
1	 1.863190014709682e+000	 4.495879191994394e+000	 2.643732919106790e-003
1	 1.815362646579719e+000	 4.515403013698873e+000	 3.592090534685055e-003
1	 1.767434906358945e+000	 4.534377453995209e+000	 3.142085741334808e-003
1	 1.719415837984281e+000	 4.552802800794987e+000	 1.485181027878285e-003
1	 1.671314437222977e+000	 4.570679531144937e+000	-1.197140823591655e-003
1	 1.623139646989730e+000	 4.588008308834882e+000	-4.733509955565948e-003
1	 1.574900352773204e+000	 4.604789981875901e+000	-8.962782443951545e-003
1	 1.526605378175763e+000	 4.621025579853892e+000	-1.373413328065478e-002
1	 1.478263480569972e+000	 4.636716311163720e+000	-1.890712955712774e-002
1	 1.429883346875132e+000	 4.651863560129327e+000	-2.435178411877946e-002
1	 1.921379180938751e+000	 4.500332095573771e+000	-2.312068066414449e-003
1	 1.873399791011110e+000	 4.520515391446992e+000	 8.669797932120988e-004
1	 1.825310341866332e+000	 4.540146198402895e+000	 2.459980012245651e-003
1	 1.777119970618810e+000	 4.559224613489509e+000	 2.632159591668887e-003
1	 1.728837770763811e+000	 4.577750926196077e+000	 1.545558319168689e-003
1	 1.680472787362977e+000	 4.595725616183406e+000	-6.411938230672296e-004
1	 1.632034012335777e+000	 4.613149350878687e+000	-3.773088990154845e-003
1	 1.583530379860965e+000	 4.630022982939862e+000	-7.698943323601853e-003
1	 1.534970761891882e+000	 4.646347547594663e+000	-1.227158812575811e-002
1	 1.486363963789141e+000	 4.662124259859619e+000	-1.734805019792265e-002
1	 1.437718720074029e+000	 4.677354511644375e+000	-2.278972121033333e-002
1	 1.931850354681307e+000	 4.524858102583068e+000	-3.668658313614074e-003
1	 1.883609485638523e+000	 4.545151393817890e+000	-5.790014599098076e-004
1	 1.835257957575353e+000	 4.564889185169442e+000	 1.001289627960205e-003
1	 1.786804957401869e+000	 4.584071574214638e+000	 1.203118095121787e-003
1	 1.738259628171301e+000	 4.602698852020377e+000	 1.628345558160200e-004
1	 1.689631064239296e+000	 4.620771500861515e+000	-1.978094965252938e-003
1	 1.640928306529714e+000	 4.638290191802595e+000	-5.073423621078830e-003
1	 1.592160337911028e+000	 4.655255782148380e+000	-8.972460138204146e-003
1	 1.543336078687171e+000	 4.671669312768398e+000	-1.352040630996613e-002
1	 1.494464382206437e+000	 4.687532005300789e+000	-1.855869489012939e-002
1	 1.445554030591727e+000	 4.702845259240850e+000	-2.392532720488303e-002
1	 1.942321426333725e+000	 4.549383870469874e+000	-4.172766648293703e-003
1	 1.893819080725033e+000	 4.569787155993959e+000	-1.973373555034158e-003
1	 1.845205476298500e+000	 4.589631930698174e+000	-1.119843399423721e-003
1	 1.796489849759405e+000	 4.608918292688313e+000	-1.513970766544931e-003
1	 1.747681393718468e+000	 4.627646534608914e+000	-3.041492756043479e-003
1	 1.698789251824879e+000	 4.645817141348874e+000	-5.572570558230095e-003
1	 1.649822514006423e+000	 4.663430787610048e+000	-8.962289034024467e-003
1	 1.600790211820825e+000	 4.680488335343983e+000	-1.305117293797322e-002
1	 1.551701313922157e+000	 4.696990831061952e+000	-1.766571841305807e-002
1	 1.502564721645936e+000	 4.712939503023649e+000	-2.261893837969454e-002
1	 1.453389264716227e+000	 4.728335758309949e+000	-2.771092043915937e-002
1	 1.952792377571551e+000	 4.573909356313535e+000	-4.018823401606775e-003
1	 1.904028558403749e+000	 4.594422634862072e+000	-3.589286777397856e-003
1	 1.855152880627489e+000	 4.614374391688747e+000	-4.232056309580433e-003
1	 1.806174630742698e+000	 4.633764725428240e+000	-5.880107428858329e-003
1	 1.757103050917035e+000	 4.652593930302718e+000	-8.437792687001799e-003
1	 1.707947334092676e+000	 4.670862493815091e+000	-1.178151252335921e-002
1	 1.658716619200784e+000	 4.688571094304492e+000	-1.576042217426028e-002
1	 1.609419986487791e+000	 4.705720598369203e+000	-2.019717258717583e-002
1	 1.560066452957367e+000	 4.722312058162185e+000	-2.488868316578487e-002
1	 1.510664967931713e+000	 4.738346708564613e+000	-2.960694414353559e-002
1	 1.461224408735526e+000	 4.753825964242861e+000	-3.409984636176849e-002
1	 1.963263190070333e+000	 4.598434517193399e+000	-3.397083018095530e-003
1	 1.914237900807783e+000	 4.619057787309098e+000	-5.694039038755605e-003
1	 1.865100153154037e+000	 4.639116524840821e+000	-8.656953357088319e-003
1	 1.815859283403032e+000	 4.658610828952133e+000	-1.224857226130908e-002
1	 1.766524583278722e+000	 4.677540995442822e+000	-1.638851789662096e-002
1	 1.717105295015633e+000	 4.695907514429774e+000	-2.095418752559792e-002
1	 1.667610606547676e+000	 4.713711067889371e+000	-2.578170971597181e-002
1	 1.618049646809361e+000	 4.730952527066571e+000	-3.066695440290856e-002
1	 1.568431481153328e+000	 4.747632949755955e+000	-3.536659370880430e-002
1	 1.518765106887843e+000	 4.763753577460099e+000	-3.959921035015892e-002
1	 1.469059448937622e+000	 4.779315832430783e+000	-4.304645041807938e-002
1	 1.390706020582741e+000	 4.524407305083716e+000	-7.437149544714020e-002
1	 1.343622639825983e+000	 4.538612457056611e+000	-8.219612519030954e-002
1	 1.296518743060277e+000	 4.552292205158869e+000	-8.854402074393138e-002
1	 1.249402546410590e+000	 4.565448384531957e+000	-9.255192943532235e-002
1	 1.202282182474618e+000	 4.578082989255348e+000	-9.336203562207375e-002
1	 1.155165696837305e+000	 4.590198169078671e+000	-9.012326943650399e-002
1	 1.108061044715827e+000	 4.601796226075082e+000	-8.199257693943894e-002
1	 1.060976087736485e+000	 4.612879611221273e+000	-6.813615009847752e-002
1	 1.013918590844765e+000	 4.623450920909603e+000	-4.773061514137608e-002
1	 9.668962193495460e-001	 4.633512893397808e+000	-1.996417797080645e-002
1	 9.199165361022298e-001	 4.643068405201682e+000	 1.596227453789184e-002
1	 1.398541501507601e+000	 4.549898607059533e+000	-5.856790126314346e-002
1	 1.351192844750042e+000	 4.564183793342687e+000	-6.507214531597505e-002
1	 1.303823556392736e+000	 4.577940615537889e+000	-7.041245805147788e-002
1	 1.256441898851737e+000	 4.591170919126120e+000	-7.384204353106717e-002
1	 1.209056050545213e+000	 4.603876709421853e+000	-7.461518113303325e-002
1	 1.161674102388337e+000	 4.616060148286783e+000	-7.198844900901172e-002
1	 1.114304054419368e+000	 4.627723550764355e+000	-6.522191801167700e-002
1	 1.066953812558383e+000	 4.638869381640499e+000	-5.358031444145728e-002
1	 1.019631185499925e+000	 4.649500251936108e+000	-3.633415007635603e-002
1	 9.723438817405614e-001	 4.659618915336745e+000	-1.276081806628255e-002
1	 9.250995067421181e-001	 4.669228264565003e+000	 1.785434660888059e-002
1	 1.406376988311272e+000	 4.575389928160809e+000	-4.571680413519366e-002
1	 1.358763055353852e+000	 4.589755148814241e+000	-5.145212120403895e-002
1	 1.311128375205806e+000	 4.603589045160168e+000	-5.623533483294276e-002
1	 1.263481256574304e+000	 4.616893473019093e+000	-5.942544221676487e-002
1	 1.215829923698024e+000	 4.629670448940495e+000	-6.037932965003803e-002
1	 1.168182512822401e+000	 4.641922146898160e+000	-5.845289920275709e-002
1	 1.120547068806810e+000	 4.653650894905825e+000	-5.300217328466509e-002
1	 1.072931541865138e+000	 4.664859171558672e+000	-4.338437544376277e-002
1	 1.025343784441015e+000	 4.675549602506140e+000	-2.895898584386315e-002
1	 9.777915482187310e-001	 4.685724956861635e+000	-9.088769966668429e-003
1	 9.302824812705675e-001	 4.695388143554560e+000	 1.685922081438923e-002
1	 1.414212467281752e+000	 4.600881223778737e+000	-3.576494779952126e-002
1	 1.366333258389628e+000	 4.615326478722449e+000	-4.113480004068889e-002
1	 1.318433186716127e+000	 4.629237449142049e+000	-4.567703818874002e-002
1	 1.270520607259488e+000	 4.642616001197559e+000	-4.884587446524935e-002
1	 1.222603790078848e+000	 4.655464162673450e+000	-5.009138690747977e-002
1	 1.174690916749863e+000	 4.667784119655579e+000	-4.886053789856047e-002
1	 1.126790076952974e+000	 4.679578213127977e+000	-4.459817637217288e-002
1	 1.078909265195828e+000	 4.690848935495056e+000	-3.674802210020454e-002
1	 1.031056377671105e+000	 4.701598927034792e+000	-2.475363055564881e-002
1	 9.832392092507666e-001	 4.711830972288416e+000	-8.059336928696051e-003
1	 9.354654506175086e-001	 4.721547996392132e+000	 1.388882203888549e-002
1	 1.422047924707039e+000	 4.626372449304512e+000	-2.866025270870942e-002
1	 1.373903440609585e+000	 4.640897738318490e+000	-3.392336936525398e-002
1	 1.325737978140341e+000	 4.654885782599885e+000	-3.840935796365408e-002
1	 1.277559938588484e+000	 4.668338458648202e+000	-4.165715117087545e-002
1	 1.229377637833484e+000	 4.681257805482884e+000	-4.320067484426964e-002
1	 1.181199302781087e+000	 4.693646021301823e+000	-4.256974717600264e-002
1	 1.133033067932675e+000	 4.705505460059300e+000	-3.929096567982769e-002
1	 1.084886972089533e+000	 4.716838627968924e+000	-3.288858055566733e-002
1	 1.036768955193263e+000	 4.727648179937164e+000	-2.288535303793372e-002
1	 9.886868553033802e-001	 4.737936915933037e+000	-8.803397405875433e-003
1	 9.406484057128736e-001	 4.747707777299493e+000	 9.834994591815924e-003
1	 1.429883346875132e+000	 4.651863560129327e+000	-2.435178411877946e-002
1	 1.381473588765937e+000	 4.666468882853536e+000	-2.962533578877756e-002
1	 1.333042736695088e+000	 4.680534000650019e+000	-3.411128433103091e-002
1	 1.284599238242489e+000	 4.694060800357713e+000	-3.742286988466560e-002
1	 1.236151455107730e+000	 4.707051332230971e+000	-3.916859181888468e-002
1	 1.187707659526437e+000	 4.719507806579669e+000	-3.895297737344648e-002
1	 1.139276030820732e+000	 4.731432590328278e+000	-3.637734070389558e-002
1	 1.090864652085331e+000	 4.742828203499541e+000	-3.104053105781887e-002
1	 1.042481507010558e+000	 4.753697315628349e+000	-2.253966886738707e-002
1	 9.941344768432837e-001	 4.764042742111435e+000	-1.047086860414199e-002
1	 9.458313374865938e-001	 4.773867440498423e+000	 5.570052695823527e-003
1	 1.437718720074029e+000	 4.677354511644375e+000	-2.278972121033333e-002
1	 1.389043689610899e+000	 4.692039867578768e+000	-2.805240764241044e-002
1	 1.340347449597012e+000	 4.706182058408798e+000	-3.246881193573982e-002
1	 1.291638493902698e+000	 4.719782981312770e+000	-3.571614846868113e-002
1	 1.242925230047382e+000	 4.732844697779878e+000	-3.746828383420744e-002
1	 1.194215975596279e+000	 4.745369430231895e+000	-3.739636397734531e-002
1	 1.145518954691962e+000	 4.757359558563401e+000	-3.516943270683514e-002
1	 1.096842294722300e+000	 4.768817616606178e+000	-3.045504056138913e-002
1	 1.048194023126059e+000	 4.779746288523452e+000	-2.291984306031398e-002
1	 9.995820643371887e-001	 4.790148405139557e+000	-1.223018741897275e-002
1	 9.510142368686004e-001	 4.800026940210696e+000	 1.947313138626518e-003
1	 1.445554030591727e+000	 4.702845259240850e+000	-2.392532720488303e-002
1	 1.396613729896686e+000	 4.717610647745360e+000	-2.902038140789314e-002
1	 1.347652104062751e+000	 4.731829910992570e+000	-3.317475034932244e-002
1	 1.298677693250309e+000	 4.745504956500064e+000	-3.611936733430189e-002
1	 1.249698950798238e+000	 4.758637856991777e+000	-3.758432635823405e-002
1	 1.200724239600977e+000	 4.771230847001283e+000	-3.729935685850440e-002
1	 1.151761828621185e+000	 4.783286319393155e+000	-3.499428922912042e-002
1	 1.102819889539521e+000	 4.794806821808105e+000	-3.039951039558129e-002
1	 1.053906493542834e+000	 4.805795053037559e+000	-2.324640878895672e-002
1	 1.005029608251807e+000	 4.816253859333343e+000	-1.326780810048486e-002
1	 9.561970947888254e-001	 4.826186230658090e+000	-1.983892408489526e-004
1	 1.453389264716227e+000	 4.728335758309949e+000	-2.771092043915937e-002
1	 1.404183696375512e+000	 4.743181178604490e+000	-3.234903178869321e-002
1	 1.354956687308949e+000	 4.757477513517681e+000	-3.592854060129768e-002
1	 1.305716823966516e+000	 4.771226680906276e+000	-3.822391994342451e-002
1	 1.256472605506095e+000	 4.784430764728838e+000	-3.901241634442931e-002
1	 1.207232440150895e+000	 4.797092011630609e+000	-3.807436139359213e-002
1	 1.158004641683217e+000	 4.809212827446026e+000	-3.519347191992089e-002
1	 1.108797426076070e+000	 4.820795773624587e+000	-3.015713843132464e-002
1	 1.059618908263954e+000	 4.831843563585775e+000	-2.275670152556282e-002
1	 1.010477099053851e+000	 4.842359059008735e+000	-1.278771602095989e-002
1	 9.613799021772006e-001	 4.852345266062382e+000	-5.020259014624302e-005
1	 1.461224408735526e+000	 4.753825964242861e+000	-3.409984636176849e-002
1	 1.411753575799593e+000	 4.768751415407335e+000	-3.786200528639423e-002
1	 1.362261186552246e+000	 4.783124821100481e+000	-4.043607756061266e-002
1	 1.312755873732517e+000	 4.796948109518096e+000	-4.162997126523384e-002
1	 1.263246182316751e+000	 4.810223375853232e+000	-4.125907407234068e-002
1	 1.213740565856399e+000	 4.822952878862654e+000	-3.914639102980951e-002
1	 1.164247382952877e+000	 4.835139037350503e+000	-3.512266719122844e-002
1	 1.114774893871027e+000	 4.846784426574896e+000	-2.902649520902322e-002
1	 1.065331257292487e+000	 4.857891774583192e+000	-2.070440804035316e-002
1	 1.015924527210032e+000	 4.868463958481681e+000	-1.001095694582214e-002
1	 9.665626499636570e-001	 4.878504000645348e+000	 3.191225009886665e-003
1	 1.469059448937622e+000	 4.779315832430783e+000	-4.304645041807938e-002
1	 1.419323354921142e+000	 4.794321313405072e+000	-4.538671715263722e-002
1	 1.369565589009284e+000	 4.808771788857317e+000	-4.640953795079473e-002
1	 1.319794830229506e+000	 4.822669197322210e+000	-4.594622389419446e-002
1	 1.270019669376002e+000	 4.836015645227129e+000	-4.384135444512484e-002
1	 1.220248605327853e+000	 4.848813403440197e+000	-3.995273086932167e-002
1	 1.170490041504983e+000	 4.861064903735073e+000	-3.415130922095710e-002
1	 1.120752282463471e+000	 4.872772735178299e+000	-2.632111351025364e-002
1	 1.071043530631502e+000	 4.883939640444909e+000	-1.635912970378379e-002
1	 1.021371883187062e+000	 4.894568512068119e+000	-4.175181234428683e-003
1	 9.717453290781267e-001	 4.904662388628768e+000	 1.030821327776272e-002
1	 9.199165361022298e-001	 4.643068405201682e+000	 1.596227453789185e-002
1	 8.729940319637027e-001	 4.652119147953820e+000	 6.091787676419468e-002
1	 8.261289947556902e-001	 4.660669736692415e+000	 1.147955116935210e-001
1	 7.793286506718555e-001	 4.668723442970103e+000	 1.768994615380202e-001
1	 7.326001138313993e-001	 4.676283661565610e+000	 2.465319761825692e-001
1	 6.859503841394172e-001	 4.683353906675524e+000	 3.229943524944147e-001
1	 6.393863452817451e-001	 4.689937808080498e+000	 4.055879872124920e-001
1	 5.929147628536142e-001	 4.696039107290805e+000	 4.936154021952406e-001
1	 5.465422826212100e-001	 4.701661653676148e+000	 5.863812409056924e-001
1	 5.002754289150642e-001	 4.706809400584463e+000	 6.831932351121014e-001
1	 4.541206031540580e-001	 4.711486401454395e+000	 7.833631408812427e-001
1	 9.250995067421181e-001	 4.669228264565003e+000	 1.785434660888058e-002
1	 8.779126330095246e-001	 4.678330000784435e+000	 5.628674828404281e-002
1	 8.307835499861411e-001	 4.686928765035168e+000	 1.024634825608319e-001
1	 7.837195245792673e-001	 4.695027847302340e+000	 1.558045856540567e-001
1	 7.367277109902933e-001	 4.702630661491456e+000	 2.157306176379447e-001
1	 6.898151485630014e-001	 4.709740741598712e+000	 2.816635054336608e-001
1	 6.429887597671163e-001	 4.716361737855575e+000	 3.530273615824229e-001
1	 5.962553483164127e-001	 4.722497412852645e+000	 4.292492779611097e-001
1	 5.496215974204833e-001	 4.728151637647651e+000	 5.097600936798222e-001
1	 5.030940681690768e-001	 4.733328387862385e+000	 5.939951364826712e-001
1	 4.566791980477861e-001	 4.738031739773277e+000	 6.813949370538507e-001
1	 9.302824812705675e-001	 4.695388143554560e+000	 1.685922081438923e-002
1	 8.828312377455568e-001	 4.704540873279440e+000	 4.956824323157982e-002
1	 8.354381087086966e-001	 4.713187813078358e+000	 8.898697246408184e-002
1	 7.881104017809549e-001	 4.721332271368976e+000	 1.346309068419025e-001
1	 7.408553112459415e-001	 4.728977681183592e+000	 1.860178971010714e-001
1	 6.936799158861571e-001	 4.736127596318021e+000	 2.426688022128237e-001
1	 6.465911769552424e-001	 4.742785687454572e+000	 3.041081230746907e-001
1	 5.995959362855475e-001	 4.748955738264196e+000	 3.698646135094024e-001
1	 5.527009145300994e-001	 4.754641641492657e+000	 4.394718680859648e-001
1	 5.059127095378927e-001	 4.759847395035628e+000	 5.124688863446363e-001
1	 4.592377948612595e-001	 4.764577098007342e+000	 5.884006130737479e-001
1	 9.354654506175086e-001	 4.721547996392132e+000	 1.388882203888549e-002
1	 8.877498375643833e-001	 4.730751719571418e+000	 4.168339682100626e-002
1	 8.400926627780257e-001	 4.739446834870297e+000	 7.528210805472266e-002
1	 7.925012745930328e-001	 4.747636669138935e+000	 1.142759905575902e-001
1	 7.449829073751970e-001	 4.755324674536412e+000	 1.582595396062450e-001
1	 6.975446793456980e-001	 4.762514424658146e+000	 2.068312282995848e-001
1	 6.501935905420585e-001	 4.769209610637268e+000	 2.595940047326147e-001
1	 6.029365209151658e-001	 4.775414037225054e+000	 3.161557686275835e-001
1	 5.557802285614469e-001	 4.781131618855300e+000	 3.761298271264548e-001
1	 5.087313480891073e-001	 4.786366375697530e+000	 4.391353295050803e-001
1	 4.617963891171836e-001	 4.791122429703765e+000	 5.047976806244477e-001
1	 9.406484057128736e-001	 4.747707777299493e+000	 9.834994591815917e-003
1	 8.926684238585888e-001	 4.756962493792949e+000	 3.353297049366460e-002
1	 8.447472040487972e-001	 4.765705784459295e+000	 6.224485886375856e-002
1	 7.968921353316149e-001	 4.773940994581146e+000	 9.561766338239494e-002
1	 7.491104921549106e-001	 4.781671595444320e+000	 1.333022427302791e-001
1	 7.014094321784385e-001	 4.788901180443780e+000	 1.749537377174114e-001
1	 6.537959942234994e-001	 4.795633461163435e+000	 2.202319800459350e-001
1	 6.062770963594154e-001	 4.801872263434825e+000	 2.688018824665711e-001
1	 5.588595341259153e-001	 4.807621523379716e+000	 3.203338101379298e-001
1	 5.115499788903155e-001	 4.812885283441428e+000	 3.745039330464523e-001
1	 4.643549763382629e-001	 4.817667688409712e+000	 4.309945593919070e-001
1	 9.458313374865938e-001	 4.773867440498423e+000	 5.570052695823522e-003
1	 8.975869880207580e-001	 4.783173150076617e+000	 2.599800792899520e-002
1	 8.494017243756786e-001	 4.791964615893654e+000	 5.075159037412079e-002
1	 8.012829763128150e-001	 4.800245201664534e+000	 7.951455491615124e-002
1	 7.532380583619339e-001	 4.808018397801716e+000	 1.119741992913977e-001
1	 7.052741676211933e-001	 4.815287817499627e+000	 1.478217487638365e-001
1	 6.573983816954993e-001	 4.822057192792849e+000	 1.867527241351516e-001
1	 6.096176567724443e-001	 4.828330370593107e+000	 2.284672928741983e-001
1	 5.619388258348925e-001	 4.834111308710037e+000	 2.726706031965265e-001
1	 5.143685970091130e-001	 4.839404071860662e+000	 3.190731009685202e-001
1	 4.669135520472021e-001	 4.844212827672349e+000	 3.673908293533560e-001
1	 9.510142368686004e-001	 4.800026940210696e+000	 1.947313138626517e-003
1	 9.025055214434751e-001	 4.809383642555000e+000	 1.994037304040748e-002
1	 8.540562156133398e-001	 4.818223283221690e+000	 4.165959917341686e-002
1	 8.056737898527467e-001	 4.826549244358027e+000	 6.680662211340602e-002
1	 7.573655987731195e-001	 4.834365035503001e+000	 9.508560311317044e-002
1	 7.091388789107757e-001	 4.841674289650374e+000	 1.262036236682538e-001
1	 6.610007466539928e-001	 4.848480759285287e+000	 1.598710599946348e-001
1	 6.129581963083997e-001	 4.854788312399506e+000	 1.958019421437704e-001
1	 5.650180982997681e-001	 4.860600928490404e+000	 2.337142975237894e-001
1	 5.171871975130945e-001	 4.865922694548567e+000	 2.733304786381285e-001
1	 4.694721117667061e-001	 4.870757801038844e+000	 3.143774748945377e-001
1	 9.561970947888254e-001	 4.826186230658090e+000	-1.983892408489526e-004
1	 9.074240155193247e-001	 4.835593925360678e+000	 1.620327063339149e-002
1	 8.587106696164484e-001	 4.844481740491709e+000	 3.580763086077563e-002
1	 8.100645682675248e-001	 4.852853076630551e+000	 5.831565672253472e-002
1	 7.614931061653182e-001	 4.860711462442573e+000	 8.342913849022222e-002
1	 7.130035592839998e-001	 4.868060550720722e+000	 1.108511327931344e-001
1	 6.646030827949145e-001	 4.874904114400521e+000	 1.402863903563180e-001
1	 6.162987091214293e-001	 4.881246042553617e+000	 1.714417696885445e-001
1	 5.680973461319310e-001	 4.887090336364951e+000	 2.040266363445218e-001
1	 5.200057754698557e-001	 4.892441105098486e+000	 2.377532474300649e-001
1	 4.720306510194796e-001	 4.897302562056369e+000	 2.723371210626551e-001
1	 9.613799021772006e-001	 4.852345266062382e+000	-5.020259014624302e-005
1	 9.123424616408911e-001	 4.861803952626235e+000	 1.561175037425064e-002
1	 8.633650782396735e-001	 4.870739941752015e+000	 3.401638135275818e-002
1	 8.144553038732627e-001	 4.879156652451032e+000	 5.484577645972949e-002
1	 7.656205733153824e-001	 4.887057632514837e+000	 7.778045396524813e-002
1	 7.168682019776804e-001	 4.894446554535365e+000	 1.024999039567023e-001
1	 6.682053838141991e-001	 4.901327211898328e+000	 1.286831157117685e-001
1	 6.196391893656806e-001	 4.907703514755047e+000	 1.560090921311055e-001
1	 5.711765639427697e-001	 4.913579485977811e+000	 1.841573506285251e-001
1	 5.228243259469914e-001	 4.918959257103752e+000	 2.128084099259126e-001
1	 4.745891653282275e-001	 4.923847064272092e+000	 2.416442622492815e-001
1	 9.665626499636570e-001	 4.878504000645348e+000	 3.191225009886665e-003
1	 9.172608512007585e-001	 4.888013678484246e+000	 1.897319469026390e-002
1	 8.680194333376832e-001	 4.896997841050921e+000	 3.708898220585664e-002
1	 8.188459889860744e-001	 4.905459925788397e+000	 5.718390052291791e-002
1	 7.697479930001633e-001	 4.913403499614190e+000	 7.889862100096731e-002
1	 7.207328002286312e-001	 4.920832254918998e+000	 1.018698574305982e-001
1	 6.718076434077814e-001	 4.927750005538484e+000	 1.257310390075651e-001
1	 6.229796311953014e-001	 4.934160682703395e+000	 1.501129712758865e-001
1	 5.742557463436729e-001	 4.940068330973121e+000	 1.746444841298289e-001
1	 5.256428440120972e-001	 4.945477104157705e+000	 1.989530660222668e-001
1	 4.771476502156546e-001	 4.950391261233177e+000	 2.226654835848667e-001
1	 9.717453290781267e-001	 4.904662388628768e+000	 1.030821327776273e-002
1	 9.221791755915123e-001	 4.914223057067299e+000	 2.707779119585431e-002
1	 8.726737267651468e-001	 4.923255392436735e+000	 4.581147054701195e-002
1	 8.232366159220739e-001	 4.931762850611570e+000	 6.610021002508702e-002
1	 7.738753579965130e-001	 4.939749017635035e+000	 8.752657810596039e-002
1	 7.245973472736665e-001	 4.947217605696317e+000	 1.096656271426178e-001
1	 6.754098552715956e-001	 4.954172449080763e+000	 1.320857575071787e-001
1	 6.263200287644393e-001	 4.960617500098262e+000	 1.543495704132143e-001
1	 5.773348879460301e-001	 4.966556824995019e+000	 1.760147081194350e-001
1	 5.284613247327682e-001	 4.971994599853685e+000	 1.966346802847585e-001
1	 4.797061012044656e-001	 4.976935106486796e+000	 2.157596753146912e-001
1	 4.541206031540580e-001	 4.711486401454395e+000	 7.833631408812427e-001
1	 4.080772015327535e-001	 4.715697402914556e+000	 8.864361899929265e-001
1	 3.621583901065020e-001	 4.719445912825524e+000	 9.913044252069171e-001
1	 3.163702891928216e-001	 4.722736264607185e+000	 1.096354183909492e+000
1	 2.707188886346119e-001	 4.725572876349515e+000	 1.199980397132229e+000
1	 2.252100469680961e-001	 4.727960246918567e+000	 1.300588820960065e+000
1	 1.798494907136967e-001	 4.729902952083056e+000	 1.396598187602526e+000
1	 1.346428137874782e-001	 4.731405640665301e+000	 1.486442274782277e+000
1	 8.959547703070191e-002	 4.732473030720189e+000	 1.568571892318081e+000
1	 4.471280785492766e-002	 4.733109905745613e+000	 1.641456784997355e+000
1	 0.000000000000000e+000	 4.733321110927780e+000	 1.703587451044630e+000
1	 4.566791980477861e-001	 4.738031739773277e+000	 6.813949370538507e-001
1	 4.103763798492342e-001	 4.742266466752270e+000	 7.715474316220128e-001
1	 3.641988538086733e-001	 4.746036096423838e+000	 8.634755870244663e-001
1	 3.181527747266113e-001	 4.749344986623094e+000	 9.558214206048319e-001
1	 2.722441661938198e-001	 4.752197580332298e+000	 1.047234711317369e+000
1	 2.264789197545885e-001	 4.754598401764885e+000	 1.136374877050967e+000
1	 1.808627941936057e-001	 4.756552052470236e+000	 1.221912783295212e+000
1	 1.354014149440849e-001	 4.758063207462941e+000	 1.302532482051480e+000
1	 9.010027361466855e-002	 4.759136611380218e+000	 1.376932880081164e+000
1	 4.496472763253088e-002	 4.759777074671015e+000	 1.443829335766897e+000
1	 0.000000000000000e+000	 4.759989469820151e+000	 1.501955184041993e+000
1	 4.592377948612595e-001	 4.764577098007342e+000	 5.884006130737479e-001
1	 4.126755598908816e-001	 4.768835550523108e+000	 6.668850142207496e-001
1	 3.662393190419615e-001	 4.772626299971283e+000	 7.470780574763588e-001
1	 3.199352615980161e-001	 4.775953728602224e+000	 8.278752822351614e-001
1	 2.737694448977087e-001	 4.778822304290480e+000	 9.081788956905671e-001
1	 2.277477934934141e-001	 4.781236576596879e+000	 9.868993019567613e-001
1	 1.818760984341040e-001	 4.783201172851484e+000	 1.062956574514428e+000
1	 1.361600166701588e-001	 4.784720794261157e+000	 1.135281871111725e+000
1	 9.060507057761903e-002	 4.785800212045456e+000	 1.202818790406585e+000
1	 4.521664759929012e-002	 4.786444263604397e+000	 1.264524669787449e+000
1	 0.000000000000000e+000	 4.786657848721421e+000	 1.319371823955528e+000
1	 4.617963891171836e-001	 4.791122429703765e+000	 5.047976806244477e-001
1	 4.149747376344188e-001	 4.795404607732642e+000	 5.727553797747595e-001
1	 3.682797822358820e-001	 4.799216476936393e+000	 6.423024160964341e-001
1	 3.217177466880519e-001	 4.802562443980586e+000	 7.125857046097891e-001
1	 2.752947220774362e-001	 4.805447001632021e+000	 7.827574760723234e-001
1	 2.290166659644496e-001	 4.807874724798890e+000	 8.519764636936829e-001
1	 1.828894016623032e-001	 4.809850266591902e+000	 9.194090454570787e-001
1	 1.369186176384999e-001	 4.811378354410161e+000	 9.842303413867246e-001
1	 9.110986703643656e-002	 4.812463786055542e+000	 1.045625265221533e+000
1	 4.546856731450755e-002	 4.813111425879084e+000	 1.102789530072578e+000
1	 0.000000000000000e+000	 4.813326200962828e+000	 1.154930607755992e+000
1	 4.643549763382629e-001	 4.817667688409712e+000	 4.309945593919070e-001
1	 4.172739090565695e-001	 4.821973591886457e+000	 4.894583335501031e-001
1	 3.703202398199511e-001	 4.825806580787716e+000	 5.493351656453630e-001
1	 3.235002268777343e-001	 4.829171086194195e+000	 6.100212111744540e-001
1	 2.768199950641594e-001	 4.832071625764876e+000	 6.709163345064355e-001
1	 2.302855349475718e-001	 4.834512799755250e+000	 7.314249589005633e-001
1	 1.839027021053145e-001	 4.836499287056593e+000	 7.909568847124875e-001
1	 1.376772165219087e-001	 4.838035841260179e+000	 8.489280753164179e-001
1	 9.161466210800430e-002	 4.839127286750117e+000	 9.047614103573471e-001
1	 4.572048633748523e-002	 4.839778514828407e+000	 9.578874060316217e-001
1	 0.000000000000000e+000	 4.839994479875599e+000	 1.007744902175972e+000
1	 4.669135520472021e-001	 4.844212827672349e+000	 3.673908293533560e-001
1	 4.195730701340568e-001	 4.848542456490133e+000	 4.172872293595235e-001
1	 3.723606882236846e-001	 4.852396564993791e+000	 4.683588474629756e-001
1	 3.252826990480787e-001	 4.855779608679061e+000	 5.202489555642611e-001
1	 2.783452611890358e-001	 4.858696130097008e+000	 5.726026761360236e-001
1	 2.315543982226574e-001	 4.861150754850294e+000	 6.250675011704163e-001
1	 1.849159979902495e-001	 4.863148187610658e+000	 6.772937921942412e-001
1	 1.384358119931851e-001	 4.864693208161425e+000	 7.289352610475057e-001
1	 9.211945490920545e-002	 4.865790667468827e+000	 7.796494311734452e-001
1	 4.597240422752529e-002	 4.866445483785694e+000	 8.290980792194300e-001
1	 0.000000000000000e+000	 4.866662638790971e+000	 8.769476567974422e-001
1	 4.694721117667061e-001	 4.870757801038844e+000	 3.143774748945377e-001
1	 4.218722168436042e-001	 4.875111155049245e+000	 3.565291488289029e-001
1	 3.744011238765984e-001	 4.878986383023154e+000	 3.995521530863379e-001
1	 3.270651600801012e-001	 4.882387964871204e+000	 4.433347627814133e-001
1	 2.798705177832224e-001	 4.885320468036373e+000	 4.877649971565422e-001
1	 2.328232535695833e-001	 4.887788543468358e+000	 5.327308130041376e-001
1	 1.859292875442194e-001	 4.889796921619200e+000	 5.781202923316257e-001
1	 1.391944027251293e-001	 4.891350408464122e+000	 6.238218241133208e-001
1	 9.262424455692317e-002	 4.892453881551312e+000	 6.697242799917286e-001
1	 4.622432054392983e-002	 4.893112286084270e+000	 7.157171838086305e-001
1	 0.000000000000000e+000	 4.893330631040176e+000	 7.616908748643522e-001
1	 4.720306510194796e-001	 4.897302562056369e+000	 2.723371210626551e-001
1	 4.241713451619350e-001	 4.901679641069377e+000	 3.074650748896780e-001
1	 3.764415432082083e-001	 4.905575988344355e+000	 3.430900322741333e-001
1	 3.288476068548171e-001	 4.908996108206632e+000	 3.793431690494574e-001
1	 2.813957621778767e-001	 4.911944592990930e+000	 4.163530538053756e-001
1	 2.340920987682259e-001	 4.914426118993778e+000	 4.542455212502201e-001
1	 1.869425689943359e-001	 4.916445442447325e+000	 4.931435532854677e-001
1	 1.399529873905414e-001	 4.918007395518488e+000	 5.331671677651489e-001
1	 9.312903016804063e-002	 4.919116882337212e+000	 5.744333148974978e-001
1	 4.647623484600098e-002	 4.919778875057467e+000	 6.170557812311437e-001
1	 0.000000000000000e+000	 4.919998409954449e+000	 6.611451011540240e-001
1	 4.745891653282275e-001	 4.923847064272092e+000	 2.416442622492815e-001
1	 4.264704510657725e-001	 4.928247868056106e+000	 2.703700597132509e-001
1	 3.784819426480304e-001	 4.932165334425926e+000	 2.991437975718456e-001
1	 3.306300362532424e-001	 4.935603992121360e+000	 3.283374603938313e-001
1	 2.829209917041558e-001	 4.938568458368636e+000	 3.583178323494049e-001
1	 2.353609315984621e-001	 4.941063434810887e+000	 3.894460559002146e-001
1	 1.879558405677102e-001	 4.943093703460130e+000	 4.220772119633859e-001
1	 1.407115646622218e-001	 4.944664122674740e+000	 4.565599216316107e-001
1	 9.363381085944102e-002	 4.945779623166171e+000	 4.932359694820995e-001
1	 4.672814669304079e-002	 4.946445204038611e+000	 5.324399484591906e-001
1	 0.000000000000000e+000	 4.946665928865022e+000	 5.744989262695509e-001
1	 4.771476502156546e-001	 4.950391261233177e+000	 2.226654835848667e-001
1	 4.287695305318403e-001	 4.954815789515013e+000	 2.455133872942354e-001
1	 3.805223186255805e-001	 4.958754374736414e+000	 2.678812255465656e-001
1	 3.324124451563926e-001	 4.962211570051403e+000	 2.903797099960819e-001
1	 2.844462036932172e-001	 4.965192017577452e+000	 3.136115200335994e-001
1	 2.366297498401687e-001	 4.967700444304020e+000	 3.381705521153645e-001
1	 1.889691004914538e-001	 4.969741658022721e+000	 3.646412046186703e-001
1	 1.414701332129704e-001	 4.971320543283099e+000	 3.935976983965497e-001
1	 9.413858574800750e-002	 4.972442057377831e+000	 4.256034331203761e-001
1	 4.698005564435141e-002	 4.973111226361029e+000	 4.612103794186610e-001
1	 0.000000000000000e+000	 4.973333141103128e+000	 5.009585067426314e-001
1	 4.797061012044656e-001	 4.976935106486796e+000	 2.157596753146912e-001
1	 4.310685795368616e-001	 4.981383358951680e+000	 2.331587308807100e-001
1	 3.825626675703746e-001	 4.985343062744358e+000	 2.494666548147523e-001
1	 3.341948304452835e-001	 4.988818795432772e+000	 2.655308143673787e-001
1	 2.859713954762180e-001	 4.991815224025334e+000	 2.821874769551915e-001
1	 2.378985512732225e-001	 4.994337100857515e+000	 3.002607553649266e-001
1	 1.899823469926781e-001	 4.996389259500201e+000	 3.205616028265501e-001
1	 1.422286917155876e-001	 4.997976610693785e+000	 3.438868581988602e-001
1	 9.464335395062330e-002	 4.999104138311836e+000	 3.710183413933438e-001
1	 4.723196125923496e-002	 4.999776895358052e+000	 4.027219990490351e-001
1	 0.000000000000000e+000	 5.000000000000000e+000	 4.397471003619190e-001
