patch_n	x	y	stress_yy
0	 1.000000000000000e+00	 0.000000000000000e+00	 2.968545319920297e+01
0	 9.992624332800956e-01	 3.840038326993625e-02	 2.969872531654056e+01
0	 9.970303790023951e-01	 7.700924195723169e-02	 2.956108011410896e+01
0	 9.932794519035331e-01	 1.157407898158668e-01	 2.927270878554403e+01
0	 9.879917681340538e-01	 1.545065244606617e-01	 2.883763051710161e+01
0	 9.811562764284163e-01	 1.932158410361868e-01	 2.826360084161841e+01
0	 9.727690196208938e-01	 2.317766909519847e-01	 2.756176938866104e+01
0	 9.628333196779698e-01	 2.700962763930936e-01	 2.674611862462129e+01
0	 9.513598808508044e-01	 3.080817701710963e-01	 2.583274099968257e+01
0	 9.383668071940955e-01	 3.456410495895091e-01	 2.483902804193348e+01
0	 9.238795325000000e-01	 3.826834324000000e-01	 2.378284898541921e+01
0	 1.225000000000000e+00	 0.000000000000000e+00	 2.195844504613981e+01
0	 1.224299311616137e+00	 4.932895436664743e-02	 2.199817895021877e+01
0	 1.222178860052461e+00	 9.913065674371010e-02	 2.194881472046271e+01
0	 1.218615479308776e+00	 1.492984860523764e-01	 2.181098254428926e+01
0	 1.213592179728100e+00	 1.997214453029701e-01	 2.158698179803277e+01
0	 1.207098462608171e+00	 2.502849027546139e-01	 2.128073616003951e+01
0	 1.199130568641548e+00	 3.008714004252848e-01	 2.089766333260564e+01
0	 1.189691653696391e+00	 3.513615189806576e-01	 2.044446868140404e+01
0	 1.178791886811300e+00	 4.016347863668351e-01	 1.992887916258544e+01
0	 1.166448466838237e+00	 4.515706161834425e-01	 1.935933881082356e+01
0	 1.152685555879750e+00	 5.010492607800000e-01	 1.874468919153502e+01
0	 1.450000000000000e+00	 0.000000000000000e+00	 1.737170466135183e+01
0	 1.449336189952174e+00	 6.025752546335861e-02	 1.744955930162782e+01
0	 1.447327341102506e+00	 1.212520715301885e-01	 1.746795062758040e+01
0	 1.443951506713974e+00	 1.828561822888860e-01	 1.742739935783326e+01
0	 1.439192591322068e+00	 2.449363661452787e-01	 1.732928650608872e+01
0	 1.433040648787802e+00	 3.073539644730410e-01	 1.717583407604739e+01
0	 1.425492117662024e+00	 3.699661098985848e-01	 1.697004880840500e+01
0	 1.416549987714567e+00	 4.326267615682213e-01	 1.671563224262674e+01
0	 1.406223892771475e+00	 4.951878025625737e-01	 1.641686296140506e+01
0	 1.394530126481973e+00	 5.575001827773759e-01	 1.607845885400193e+01
0	 1.381491579259000e+00	 6.194150891600000e-01	 1.570542834874291e+01
0	 1.675000000000000e+00	 0.000000000000000e+00	 1.448621058124984e+01
0	 1.674373068288205e+00	 7.118609656006981e-02	 1.459567847161172e+01
0	 1.672475822152533e+00	 1.433734863166669e-01	 1.466164748027942e+01
0	 1.669287534119129e+00	 2.164138785253956e-01	 1.468450996512361e+01
0	 1.664793002915957e+00	 2.901512869875873e-01	 1.466515852840534e+01
0	 1.658982834967310e+00	 3.644230261914682e-01	 1.460497901201154e+01
0	 1.651853666682321e+00	 4.390608193718849e-01	 1.450582448598766e+01
0	 1.643408321732500e+00	 5.138920041557854e-01	 1.436997150171833e+01
0	 1.633655898731331e+00	 5.887408187583125e-01	 1.420006106551233e+01
0	 1.622611786125305e+00	 6.634297493713093e-01	 1.399902774591688e+01
0	 1.610297602637750e+00	 7.377809175400001e-01	 1.377002096357077e+01
0	 1.900000000000000e+00	 0.000000000000000e+00	 1.262567290258917e+01
0	 1.899409946624231e+00	 8.211466765678099e-02	 1.275765069229934e+01
0	 1.897624303202541e+00	 1.654949011031453e-01	 1.285543527230526e+01
0	 1.894623561524239e+00	 2.499715747619052e-01	 1.291933433937993e+01
0	 1.890393414509767e+00	 3.353662078298959e-01	 1.294997567599853e+01
0	 1.884925021146694e+00	 4.214920879098953e-01	 1.294830617092041e+01
0	 1.878215215702439e+00	 5.081555288451849e-01	 1.291557963131471e+01
0	 1.870266655750188e+00	 5.951572467433492e-01	 1.285333390942254e+01
0	 1.861087904690867e+00	 6.822938349540510e-01	 1.276335849678115e+01
0	 1.850693445768232e+00	 7.693593159652427e-01	 1.264765427686378e+01
0	 1.839103626016000e+00	 8.561467459200001e-01	 1.250838752361747e+01
0	 2.125000000000000e+00	 0.000000000000000e+00	 1.143031781412913e+01
0	 2.124446824960253e+00	 9.304323875349216e-02	 1.157647755366029e+01
0	 2.122772784252528e+00	 1.876163158896236e-01	 1.169418242293965e+01
0	 2.119959588929305e+00	 2.835292709984149e-01	 1.178369115256394e+01
0	 2.115993826103499e+00	 3.805811286722043e-01	 1.184548474830850e+01
0	 2.110867207325954e+00	 4.785611496283224e-01	 1.188026859232186e+01
0	 2.104576764722378e+00	 5.772502383184849e-01	 1.188896714218517e+01
0	 2.097124989767633e+00	 6.764224893309132e-01	 1.187271144261047e+01
0	 2.088519910650085e+00	 7.758468511497899e-01	 1.183282004391853e+01
0	 2.078775105410753e+00	 8.752888825591758e-01	 1.177077425970811e+01
0	 2.067909649393750e+00	 9.745125742999999e-01	 1.168818896469162e+01
0	 2.350000000000000e+00	 0.000000000000000e+00	 1.069111461786443e+01
0	 2.349483703296270e+00	 1.039718098502034e-01	 1.084449213624180e+01
0	 2.347921265302496e+00	 2.097377306761020e-01	 1.097310398589371e+01
0	 2.345295616334327e+00	 3.170869672349245e-01	 1.107718123755681e+01
0	 2.341594237697151e+00	 4.257960495145130e-01	 1.115712114237009e+01
0	 2.336809393505090e+00	 5.356302113467495e-01	 1.121349087930154e+01
0	 2.330938313742138e+00	 6.463449477917848e-01	 1.124702592729801e+01
0	 2.323983323784832e+00	 7.576877319184769e-01	 1.125862314180727e+01
0	 2.315951916608982e+00	 8.693998673455282e-01	 1.124932886790774e+01
0	 2.306856765052870e+00	 9.812184491531091e-01	 1.122032265549808e+01
0	 2.296715672771000e+00	 1.092878402680000e+00	 1.117289733731433e+01
0	 2.575000000000000e+00	 0.000000000000000e+00	 1.027831096007336e+01
0	 2.574520581632282e+00	 1.149003809469145e-01	 1.043322123801334e+01
0	 2.573069746352445e+00	 2.318591454625804e-01	 1.056581404088051e+01
0	 2.570631643739305e+00	 3.506446634714341e-01	 1.067630326118327e+01
0	 2.567194649290724e+00	 4.710109703568215e-01	 1.076503579953368e+01
0	 2.562751579684102e+00	 5.926992730651766e-01	 1.083249622210072e+01
0	 2.557299862761719e+00	 7.154396572650850e-01	 1.087930719731486e+01
0	 2.550841657801789e+00	 8.389529745060408e-01	 1.090622572979139e+01
0	 2.543383922567560e+00	 9.629528835412671e-01	 1.091413539204959e+01
0	 2.534938424694583e+00	 1.087148015747042e+00	 1.090403492798361e+01
0	 2.525521696147750e+00	 1.211244231060000e+00	 1.087702375311191e+01
0	 2.800000000000000e+00	 0.000000000000000e+00	 1.010710331378122e+01
0	 2.799557459968290e+00	 1.258289520436257e-01	 1.025892053767828e+01
0	 2.798218227402373e+00	 2.539805602490589e-01	 1.039008535101572e+01
0	 2.795967671144239e+00	 3.842023597079438e-01	 1.050079798220680e+01
0	 2.792795060884218e+00	 5.162258911991301e-01	 1.059137197562952e+01
0	 2.788693765862991e+00	 6.497683347836039e-01	 1.066223935565950e+01
0	 2.783661411781122e+00	 7.845343667383847e-01	 1.071395226417815e+01
0	 2.777699991818500e+00	 9.202182170936045e-01	 1.074718106059583e+01
0	 2.770815928525818e+00	 1.056505899737006e+00	 1.076270901466751e+01
0	 2.763020084335890e+00	 1.193077582340976e+00	 1.076142385951401e+01
0	 2.754327719524000e+00	 1.329610059440000e+00	 1.074430659538993e+01
0	 3.025000000000000e+00	 0.000000000000000e+00	 1.011972433136216e+01
0	 3.024594338304293e+00	 1.367575231403369e-01	 1.026466737041440e+01
0	 3.023366708452282e+00	 2.761019750355372e-01	 1.039011258883219e+01
0	 3.021303698549128e+00	 4.177600559444534e-01	 1.049624585506413e+01
0	 3.018395472477634e+00	 5.614408120414386e-01	 1.058335506449283e+01
0	 3.014635952041755e+00	 7.068373965020308e-01	 1.065183557020021e+01
0	 3.010022960800345e+00	 8.536290762116847e-01	 1.070219252430070e+01
0	 3.004558325834968e+00	 1.001483459681169e+00	 1.073504010485142e+01
0	 2.998247934483758e+00	 1.150058915932745e+00	 1.075109771878311e+01
0	 2.991101743976792e+00	 1.299007148934909e+00	 1.075118338541560e+01
0	 2.983133742899750e+00	 1.447975887820000e+00	 1.073620460997844e+01
0	 3.250000000000000e+00	 0.000000000000000e+00	 1.027546394460066e+01
0	 3.249631216640290e+00	 1.476860942370481e-01	 1.041041872455120e+01
0	 3.248515189502173e+00	 2.982233898220156e-01	 1.052668885369206e+01
0	 3.246639725953974e+00	 4.513177521809630e-01	 1.062444271741809e+01
0	 3.243995884070971e+00	 6.066557328837472e-01	 1.070394495150425e+01
0	 3.240578138220397e+00	 7.639064582204579e-01	 1.076556198267068e+01
0	 3.236384509819390e+00	 9.227237856849848e-01	 1.080976476681423e+01
0	 3.231416659851191e+00	 1.082748702268733e+00	 1.083712869247370e+01
0	 3.225679940441377e+00	 1.243611932128483e+00	 1.084833071578736e+01
0	 3.219183403617290e+00	 1.404936715528843e+00	 1.084414389218980e+01
0	 3.211939766275000e+00	 1.566341716200000e+00	 1.082542956270215e+01
0	 9.238795325000000e-01	 3.826834324000000e-01	 2.378284898541921e+01
0	 9.079306625993185e-01	 4.191204026524825e-01	 2.267740811391201e+01
0	 8.905597319172323e-01	 4.548663143146349e-01	 2.155203428866632e+01
0	 8.718128780795600e-01	 4.898390609468311e-01	 2.042150066884902e+01
0	 8.517424401698329e-01	 5.239607004658556e-01	 1.929876344022653e+01
0	 8.304064878738605e-01	 5.571580250887354e-01	 1.819479561637553e+01
0	 8.078682901708333e-01	 5.893630678662255e-01	 1.711855103882417e+01
0	 7.841957333819556e-01	 6.205135387545597e-01	 1.607703186297918e+01
0	 7.594606992396841e-01	 6.505531848708900e-01	 1.507543082819584e+01
0	 7.337384141719187e-01	 6.794320713697604e-01	 1.411732121341816e+01
0	 7.071067812000000e-01	 7.071067812000000e-01	 1.320487121990012e+01
0	 1.152685555879750e+00	 5.010492607800000e-01	 1.874468919153502e+01
0	 1.137534129474908e+00	 5.499527634464495e-01	 1.810742873196746e+01
0	 1.121031745327441e+00	 5.981658938946098e-01	 1.745303333199223e+01
0	 1.103222234181877e+00	 6.455770514922711e-01	 1.678912409118925e+01
0	 1.084155318167572e+00	 6.920791214216636e-01	 1.612266278837882e+01
0	 1.063886163486047e+00	 7.375702700640622e-01	 1.545983834371412e+01
0	 1.042474875667537e+00	 7.819546674075726e-01	 1.480600254553146e+01
0	 1.019985946717191e+00	 8.251431260895291e-01	 1.416564950261815e+01
0	 9.964876642808501e-01	 8.670536487430058e-01	 1.354243133657607e+01
0	 9.720514934650256e-01	 9.076118775410645e-01	 1.293920181921716e+01
0	 9.467514421400001e-01	 9.467514421400001e-01	 1.235807976405445e+01
0	 1.381491579259000e+00	 6.194150891600000e-01	 1.570542834874291e+01
0	 1.367137596349912e+00	 6.807851242404169e-01	 1.532445670143967e+01
0	 1.351503758737011e+00	 7.414654734745845e-01	 1.493118738379140e+01
0	 1.334631590283532e+00	 8.013150420377110e-01	 1.452989939503684e+01
0	 1.316568196164655e+00	 8.601975423774719e-01	 1.412459669439175e+01
0	 1.297365839097614e+00	 9.179825150393891e-01	 1.371894171402548e+01
0	 1.277081461163688e+00	 9.745462669489199e-01	 1.331620956304189e+01
0	 1.255776160051971e+00	 1.029772713424498e+00	 1.291926186443468e+01
0	 1.233514629321685e+00	 1.083554112615121e+00	 1.253053814113503e+01
0	 1.210364572757954e+00	 1.135791683712369e+00	 1.215206201727409e+01
0	 1.186396103080000e+00	 1.186396103080000e+00	 1.178545919884065e+01
0	 1.610297602637750e+00	 7.377809175400001e-01	 1.377002096357077e+01
0	 1.596741063224333e+00	 8.116174850343840e-01	 1.354024405056262e+01
0	 1.581975772145942e+00	 8.847650530545592e-01	 1.330254051072676e+01
0	 1.566040946384524e+00	 9.570530325831508e-01	 1.305948268412298e+01
0	 1.548981074161082e+00	 1.028315963333280e+00	 1.281351277787964e+01
0	 1.530845514708563e+00	 1.098394760014716e+00	 1.256690461231972e+01
0	 1.511688046659288e+00	 1.167137866490267e+00	 1.232173494800436e+01
0	 1.491566373386295e+00	 1.234402300759468e+00	 1.207986431313086e+01
0	 1.470541594362188e+00	 1.300054576487237e+00	 1.184292673838371e+01
0	 1.448677652050702e+00	 1.363971489883673e+00	 1.161232742941555e+01
0	 1.426040764020000e+00	 1.426040764020000e+00	 1.138924716907196e+01
0	 1.839103626016000e+00	 8.561467459200001e-01	 1.250838752361747e+01
0	 1.826344530098167e+00	 9.424498458283511e-01	 1.237071101769308e+01
0	 1.812447785554234e+00	 1.028064632634534e+00	 1.222866538919271e+01
0	 1.797450302484853e+00	 1.112791023128591e+00	 1.208389769893347e+01
0	 1.781393952156854e+00	 1.196434384289088e+00	 1.193798409115972e+01
0	 1.764325190318892e+00	 1.278807004990043e+00	 1.179240768006650e+01
0	 1.746294632154335e+00	 1.359729466031614e+00	 1.164854133798853e+01
0	 1.727356586720161e+00	 1.439031888094436e+00	 1.150763547606919e+01
0	 1.707568559402358e+00	 1.516555040359353e+00	 1.137081064570898e+01
0	 1.686990731343271e+00	 1.592151296054977e+00	 1.123905458089565e+01
0	 1.665685424960000e+00	 1.665685424960000e+00	 1.111322315351249e+01
0	 2.067909649393750e+00	 9.745125742999999e-01	 1.168818896469162e+01
0	 2.055947996971418e+00	 1.073282206622318e+00	 1.160633600058069e+01
0	 2.042919798961886e+00	 1.171364212214509e+00	 1.152293339901096e+01
0	 2.028859658584519e+00	 1.268529013674031e+00	 1.143910658645890e+01
0	 2.013806830151969e+00	 1.364552805244896e+00	 1.135593541638833e+01
0	 1.997804865928603e+00	 1.459219249965369e+00	 1.127444131705086e+01
0	 1.980901217648830e+00	 1.552321065572961e+00	 1.119557725252173e+01
0	 1.963146800053573e+00	 1.643661475429405e+00	 1.112022057804793e+01
0	 1.944595524442198e+00	 1.733055504231468e+00	 1.104916872887224e+01
0	 1.925303810635661e+00	 1.820331102226281e+00	 1.098313756503164e+01
0	 1.905330085900000e+00	 1.905330085900000e+00	 1.092276210732534e+01
0	 2.296715672771000e+00	 1.092878402680000e+00	 1.117289733731433e+01
0	 2.285551463844083e+00	 1.204114567416285e+00	 1.112310605911486e+01
0	 2.273391812368900e+00	 1.314663791794483e+00	 1.107398614800858e+01
0	 2.260269014683523e+00	 1.424267004219471e+00	 1.102636206834575e+01
0	 2.246219708146429e+00	 1.532671226200704e+00	 1.098102370266669e+01
0	 2.231284541537695e+00	 1.639631494940697e+00	 1.093871887026190e+01
0	 2.215507803142773e+00	 1.744912665114309e+00	 1.090014769338689e+01
0	 2.198937013386527e+00	 1.848291062764375e+00	 1.086595885402350e+01
0	 2.181622489481706e+00	 1.949555968103584e+00	 1.083674770139685e+01
0	 2.163616889927872e+00	 2.048510908397585e+00	 1.081305610205315e+01
0	 2.144974746840000e+00	 2.144974746840000e+00	 1.079537387267129e+01
0	 2.525521696147750e+00	 1.211244231060000e+00	 1.087702375311191e+01
0	 2.515154930716164e+00	 1.334946928210252e+00	 1.084293392311638e+01
0	 2.503863825775275e+00	 1.457963371374458e+00	 1.081126411252519e+01
0	 2.491678370781864e+00	 1.580004994764911e+00	 1.078266342199035e+01
0	 2.478632586140232e+00	 1.700789647156512e+00	 1.075775096678782e+01
0	 2.464764217146168e+00	 1.820043739916023e+00	 1.073711151735407e+01
0	 2.450114388636163e+00	 1.937504264655656e+00	 1.072129253694373e+01
0	 2.434727226719026e+00	 2.052920650099344e+00	 1.071080262771523e+01
0	 2.418649454520882e+00	 2.166056431975699e+00	 1.070611134349927e+01
0	 2.401929969219903e+00	 2.276690714568889e+00	 1.070765028438457e+01
0	 2.384619407780000e+00	 2.384619407780000e+00	 1.071581535656954e+01
0	 2.754327719524000e+00	 1.329610059440000e+00	 1.074430659538993e+01
0	 2.744758397587660e+00	 1.465779289004219e+00	 1.071419992046540e+01
0	 2.734335839181011e+00	 1.601262950954433e+00	 1.068788984774061e+01
0	 2.723087726879543e+00	 1.735742985310351e+00	 1.066592352915530e+01
0	 2.711045464133380e+00	 1.868908068112320e+00	 1.064881976209024e+01
0	 2.698243892754022e+00	 2.000455984891350e+00	 1.063706641229060e+01
0	 2.684720974129002e+00	 2.130095864197003e+00	 1.063111902953902e+01
0	 2.670517440051068e+00	 2.257550237434313e+00	 1.063140064739701e+01
0	 2.655676419559727e+00	 2.382556895847815e+00	 1.063830272025610e+01
0	 2.640243048511755e+00	 2.504870520740193e+00	 1.065218712095604e+01
0	 2.624264068720000e+00	 2.624264068720000e+00	 1.067338910132442e+01
0	 2.983133742899750e+00	 1.447975887820000e+00	 1.073620460997844e+01
0	 2.974361864458571e+00	 1.596611649798186e+00	 1.070141403049321e+01
0	 2.964807852586108e+00	 1.744562530534408e+00	 1.067150153010176e+01
0	 2.954497082976559e+00	 1.891480975855790e+00	 1.064695582333334e+01
0	 2.943458342125873e+00	 2.037026489068128e+00	 1.062823746829253e+01
0	 2.931723568361258e+00	 2.180868229866677e+00	 1.061577724706395e+01
0	 2.919327559621289e+00	 2.322687463738350e+00	 1.060997565502193e+01
0	 2.906307653382655e+00	 2.462179824769282e+00	 1.061120347993343e+01
0	 2.892703384598240e+00	 2.599057359719930e+00	 1.061980342118287e+01
0	 2.878556127803428e+00	 2.733050326911497e+00	 1.063609267610527e+01
0	 2.863908729660000e+00	 2.863908729660000e+00	 1.066036640505161e+01
0	 3.211939766275000e+00	 1.566341716200000e+00	 1.082542956270215e+01
0	 3.203965331328898e+00	 1.727444010592154e+00	 1.077937231010681e+01
0	 3.195279865990566e+00	 1.887862110114383e+00	 1.073903818580880e+01
0	 3.185906439072912e+00	 2.047218966401230e+00	 1.070488325166493e+01
0	 3.175871220117710e+00	 2.205144910023936e+00	 1.067733487750463e+01
0	 3.165203243967874e+00	 2.361280474842004e+00	 1.065679055300128e+01
0	 3.153934145113023e+00	 2.515279063279697e+00	 1.064361778373350e+01
0	 3.142097866713786e+00	 2.666809412104251e+00	 1.063815504846137e+01
0	 3.129730349636421e+00	 2.815557823592046e+00	 1.064071376770465e+01
0	 3.116869207094922e+00	 2.961230133082801e+00	 1.065158121347394e+01
0	 3.103553390600000e+00	 3.103553390600000e+00	 1.067102427717397e+01
0	 3.250000000000000e+00	 0.000000000000000e+00	 1.027546394460066e+01
0	 3.249631216640290e+00	 1.476860942370481e-01	 1.041041872455120e+01
0	 3.248515189502173e+00	 2.982233898220156e-01	 1.052668885369206e+01
0	 3.246639725953974e+00	 4.513177521809630e-01	 1.062444271741809e+01
0	 3.243995884070971e+00	 6.066557328837472e-01	 1.070394495150425e+01
0	 3.240578138220397e+00	 7.639064582204579e-01	 1.076556198267068e+01
0	 3.236384509819390e+00	 9.227237856849848e-01	 1.080976476681423e+01
0	 3.231416659851191e+00	 1.082748702268733e+00	 1.083712869247370e+01
0	 3.225679940441377e+00	 1.243611932128483e+00	 1.084833071578736e+01
0	 3.219183403617290e+00	 1.404936715528843e+00	 1.084414389218980e+01
0	 3.211939766275000e+00	 1.566341716200000e+00	 1.082542956270215e+01
0	 3.475000000000000e+00	 0.000000000000000e+00	 1.030580009233045e+01
0	 3.474668094976284e+00	 1.586146653337593e-01	 1.043241436987108e+01
0	 3.473663670552043e+00	 3.203448046084940e-01	 1.054242667267068e+01
0	 3.471975753358776e+00	 4.848754484174727e-01	 1.063601980674998e+01
0	 3.469596295664229e+00	 6.518706537260559e-01	 1.071345293510966e+01
0	 3.466520324398914e+00	 8.209755199388851e-01	 1.077506679392271e+01
0	 3.462746058838256e+00	 9.918184951582849e-01	 1.082128660881465e+01
0	 3.458274993867171e+00	 1.164013944856296e+00	 1.085262268615309e+01
0	 3.453111946398678e+00	 1.337164948324222e+00	 1.086966872861701e+01
0	 3.447265063257382e+00	 1.510866282122776e+00	 1.087309799992582e+01
0	 3.440745789649750e+00	 1.684707544580000e+00	 1.086365753544117e+01
0	 3.700000000000001e+00	 0.000000000000000e+00	 1.031668732273708e+01
0	 3.699704973312271e+00	 1.695432364304705e-01	 1.043471758982156e+01
0	 3.698812151601894e+00	 3.424662193949724e-01	 1.053801360153658e+01
0	 3.697311780763531e+00	 5.184331446539822e-01	 1.062676787337078e+01
0	 3.695196707257408e+00	 6.970855745683643e-01	 1.070123332599866e+01
0	 3.692462510577308e+00	 8.780445816573125e-01	 1.076172816400245e+01
0	 3.689107607856943e+00	 1.060913204631585e+00	 1.080863884434351e+01
0	 3.685133327882907e+00	 1.245279187443861e+00	 1.084242111768648e+01
0	 3.680543952355657e+00	 1.430717964519960e+00	 1.086359918206504e+01
0	 3.675346722897072e+00	 1.616795848716710e+00	 1.087276304651989e+01
0	 3.669551813024001e+00	 1.803073372960000e+00	 1.087056425837053e+01
0	 3.925000000000001e+00	 0.000000000000000e+00	 1.031165182813302e+01
0	 3.924741851648256e+00	 1.804718075271817e-01	 1.042091120082853e+01
0	 3.923960632651726e+00	 3.645876341814508e-01	 1.051712494523709e+01
0	 3.922647808168246e+00	 5.519908408904919e-01	 1.060049149551450e+01
0	 3.920797118850509e+00	 7.423004954106730e-01	 1.067125674101338e+01
0	 3.918404696755578e+00	 9.351136433757395e-01	 1.072971855644110e+01
0	 3.915469156875452e+00	 1.130007914104886e+00	 1.077622973145550e+01
0	 3.911991661898399e+00	 1.326544430031424e+00	 1.081119929091115e+01
0	 3.907975958312319e+00	 1.524270980715699e+00	 1.083509223980700e+01
0	 3.903428382536354e+00	 1.722725415310643e+00	 1.084842781180289e+01
0	 3.898357836397751e+00	 1.921439201340000e+00	 1.085177634394917e+01
0	 4.150000000000000e+00	 0.000000000000000e+00	 1.029341595789949e+01
0	 4.149778729984234e+00	 1.914003786238929e-01	 1.039375857759526e+01
0	 4.149109113701539e+00	 3.867090489679292e-01	 1.048259345185441e+01
0	 4.147983835572914e+00	 5.855485371270015e-01	 1.056012184933017e+01
0	 4.146397530443529e+00	 7.875154162529816e-01	 1.062658186501579e+01
0	 4.144346882933725e+00	 9.921827050941667e-01	 1.068225259242973e+01
0	 4.141830705893782e+00	 1.199102623578185e+00	 1.072745694695520e+01
0	 4.138849995913644e+00	 1.407809672618988e+00	 1.076256313912200e+01
0	 4.135407964268661e+00	 1.617823996911438e+00	 1.078798482905337e+01
0	 4.131510042175233e+00	 1.828654981904576e+00	 1.080418002776628e+01
0	 4.127163859771001e+00	 2.039805029720000e+00	 1.081164884513312e+01
0	 4.375000000000001e+00	 0.000000000000000e+00	 1.026411492660460e+01
0	 4.374815608320207e+00	 2.023289497206041e-01	 1.035542525487910e+01
0	 4.374257594751331e+00	 4.088304637544076e-01	 1.043663766832855e+01
0	 4.373319862977540e+00	 6.191062333635112e-01	 1.050795373495425e+01
0	 4.371997942036473e+00	 8.327303370952901e-01	 1.056960303936027e+01
0	 4.370289069111746e+00	 1.049251766812594e+00	 1.062184698897911e+01
0	 4.368192254911932e+00	 1.268197333051486e+00	 1.066498148031377e+01
0	 4.365708329928649e+00	 1.489074915206553e+00	 1.069933843080459e+01
0	 4.362839970224683e+00	 1.711377013107177e+00	 1.072528620625256e+01
0	 4.359591701813705e+00	 1.934584548498509e+00	 1.074322900003429e+01
0	 4.355969883143751e+00	 2.158170858100001e+00	 1.075360524674034e+01
0	 4.600000000000001e+00	 0.000000000000000e+00	 1.022544700191670e+01
0	 4.599852486656174e+00	 2.132575208173152e-01	 1.030763230583205e+01
0	 4.599406075801104e+00	 4.309518785408861e-01	 1.038101984624760e+01
0	 4.598655890382120e+00	 6.526639296000206e-01	 1.044580938679642e+01
0	 4.597598353629336e+00	 8.779452579375986e-01	 1.050222134083681e+01
0	 4.596231255289645e+00	 1.106320828531021e+00	 1.055050020493261e+01
0	 4.594553803929904e+00	 1.337292042524785e+00	 1.059091702896526e+01
0	 4.592566663943408e+00	 1.570340157794117e+00	 1.062377093446463e+01
0	 4.590271976180385e+00	 1.804930029302916e+00	 1.064938971066556e+01
0	 4.587673361451775e+00	 2.040514115092443e+00	 1.066812953757940e+01
0	 4.584775906516001e+00	 2.276536686480001e+00	 1.068037390551201e+01
0	 4.825000000000001e+00	 0.000000000000000e+00	 1.017877983493207e+01
0	 4.824889364992139e+00	 2.241860919140264e-01	 1.025176480515105e+01
0	 4.824554556850858e+00	 4.530732933273644e-01	 1.031715751455289e+01
0	 4.823991917786658e+00	 6.862216258365306e-01	 1.037515416136282e+01
0	 4.823198765222121e+00	 9.231601787799073e-01	 1.042596538341378e+01
0	 4.822173441467419e+00	 1.163389890249448e+00	 1.046981931310872e+01
0	 4.820915352947696e+00	 1.406386751998085e+00	 1.050696382096981e+01
0	 4.819424997957923e+00	 1.651605400381680e+00	 1.053766796448507e+01
0	 4.817703982135769e+00	 1.898483045498655e+00	 1.056222267177579e+01
0	 4.815755021089439e+00	 2.146443681686377e+00	 1.058094070412470e+01
0	 4.813581929887752e+00	 2.394902514860001e+00	 1.059415595642345e+01
0	 5.050000000000002e+00	 0.000000000000000e+00	 1.012522718120011e+01
0	 5.049926243328098e+00	 2.351146630107376e-01	 1.018895000803287e+01
0	 5.049703037900592e+00	 4.751947081138429e-01	 1.024620384068232e+01
0	 5.049327945191149e+00	 7.197793220730401e-01	 1.029717982584532e+01
0	 5.048799176814827e+00	 9.683750996222159e-01	 1.034207827608792e+01
0	 5.048115627645071e+00	 1.220458951967875e+00	 1.038111134137189e+01
0	 5.047276901965310e+00	 1.475481461471385e+00	 1.041450500198270e+01
0	 5.046283331972194e+00	 1.732870642969244e+00	 1.044250040386316e+01
0	 5.045135988090832e+00	 1.992036061694393e+00	 1.046535456606657e+01
0	 5.043836680726700e+00	 2.252373248280310e+00	 1.048334050026477e+01
0	 5.042387953259002e+00	 2.513268343240000e+00	 1.049674679302881e+01
0	 5.275000000000001e+00	 0.000000000000000e+00	 1.006570520515998e+01
0	 5.274963121664054e+00	 2.460432341074489e-01	 1.012011467126630e+01
0	 5.274851518950308e+00	 4.973161229003213e-01	 1.016910651276106e+01
0	 5.274663972595598e+00	 7.533370183095496e-01	 1.021286556132092e+01
0	 5.274399588407453e+00	 1.013590020464524e+00	 1.025158130537454e+01
0	 5.274057813822599e+00	 1.277528013686303e+00	 1.028545017399676e+01
0	 5.273638450982745e+00	 1.544576170944685e+00	 1.031467725995721e+01
0	 5.273141665986220e+00	 1.814135885556808e+00	 1.033947750643834e+01
0	 5.272567994045577e+00	 2.085589077890132e+00	 1.036007638733000e+01
0	 5.271918340363553e+00	 2.358302814874243e+00	 1.037671011770081e+01
0	 5.271193976629752e+00	 2.631634171620001e+00	 1.038962543829310e+01
0	 5.500000000000000e+00	 0.000000000000000e+00	 1.000097443747107e+01
0	 5.500000000000001e+00	 2.569718052041600e-01	 1.004602773233590e+01
0	 5.499999999999998e+00	 5.194375376867996e-01	 1.008665155492095e+01
0	 5.500000000000000e+00	 7.868947145460590e-01	 1.012302334025020e+01
0	 5.500000000000001e+00	 1.058804941306833e+00	 1.015532130031028e+01
0	 5.500000000000000e+00	 1.334597075404729e+00	 1.018372631672487e+01
0	 5.500000000000000e+00	 1.613670880417985e+00	 1.020842337833301e+01
0	 5.500000000000000e+00	 1.895401128144372e+00	 1.022960259096971e+01
0	 5.500000000000000e+00	 2.179142094085869e+00	 1.024745978944639e+01
0	 5.500000000000000e+00	 2.464232381468176e+00	 1.026219678550366e+01
0	 5.500000000000000e+00	 2.750000000000000e+00	 1.027402128978179e+01
0	 3.211939766275000e+00	 1.566341716200000e+00	 1.082542956270215e+01
0	 3.203965331328898e+00	 1.727444010592154e+00	 1.077937231010681e+01
0	 3.195279865990566e+00	 1.887862110114383e+00	 1.073903818580880e+01
0	 3.185906439072912e+00	 2.047218966401230e+00	 1.070488325166493e+01
0	 3.175871220117710e+00	 2.205144910023936e+00	 1.067733487750463e+01
0	 3.165203243967874e+00	 2.361280474842004e+00	 1.065679055300128e+01
0	 3.153934145113023e+00	 2.515279063279697e+00	 1.064361778373350e+01
0	 3.142097866713786e+00	 2.666809412104251e+00	 1.063815504846137e+01
0	 3.129730349636421e+00	 2.815557823592046e+00	 1.064071376770465e+01
0	 3.116869207094922e+00	 2.961230133082801e+00	 1.065158121347394e+01
0	 3.103553390600000e+00	 3.103553390600000e+00	 1.067102427717397e+01
0	 3.440745789649750e+00	 1.684707544580000e+00	 1.086365753544117e+01
0	 3.433568798198640e+00	 1.858276371386121e+00	 1.082017533647812e+01
0	 3.425751879394385e+00	 2.031161689694358e+00	 1.078325748745416e+01
0	 3.417315795168603e+00	 2.202956956946670e+00	 1.075325966027575e+01
0	 3.408284098108890e+00	 2.373263330979744e+00	 1.073050621542749e+01
0	 3.398682919573872e+00	 2.541692719817331e+00	 1.071529020019066e+01
0	 3.388540730604206e+00	 2.707870662821044e+00	 1.070787434736456e+01
0	 3.377888080044461e+00	 2.871438999439221e+00	 1.070849302875478e+01
0	 3.366757314674272e+00	 3.032058287464162e+00	 1.071735509730154e+01
0	 3.355182286386237e+00	 3.189409939254106e+00	 1.073464753786357e+01
0	 3.343198051540000e+00	 3.343198051540000e+00	 1.076053983973306e+01
0	 3.669551813024001e+00	 1.803073372960000e+00	 1.087056425837053e+01
0	 3.663172265067797e+00	 1.989108732180088e+00	 1.082836549942710e+01
0	 3.656223892797564e+00	 2.174461269274332e+00	 1.079351964349984e+01
0	 3.648725151263631e+00	 2.358694947492110e+00	 1.076629368259807e+01
0	 3.640696976099414e+00	 2.541381751935552e+00	 1.074691995086258e+01
0	 3.632162595179251e+00	 2.722104964792659e+00	 1.073559706095732e+01
0	 3.623147316094836e+00	 2.900462262362391e+00	 1.073249179124408e+01
0	 3.613678293374678e+00	 3.076068586774190e+00	 1.073774185788055e+01
0	 3.603784279711791e+00	 3.248558751336278e+00	 1.075145948990147e+01
0	 3.593495365677373e+00	 3.417589745425410e+00	 1.077373571581441e+01
0	 3.582842712480001e+00	 3.582842712480001e+00	 1.080464526743221e+01
0	 3.898357836397751e+00	 1.921439201340000e+00	 1.085177634394917e+01
0	 3.892775731936369e+00	 2.119941092974055e+00	 1.080976611303382e+01
0	 3.886695906200107e+00	 2.317760848854308e+00	 1.077584621016032e+01
0	 3.880134507357997e+00	 2.514432938037551e+00	 1.075020402570081e+01
0	 3.873109854089283e+00	 2.709500172891360e+00	 1.073298841220926e+01
0	 3.865642270784011e+00	 2.902517209767985e+00	 1.072431136341671e+01
0	 3.857753901584915e+00	 3.093053861903740e+00	 1.072425061601293e+01
0	 3.849468506704441e+00	 3.280698174109160e+00	 1.073285309042368e+01
0	 3.840811244748978e+00	 3.465059215208394e+00	 1.075013907346161e+01
0	 3.831808444968328e+00	 3.645769551596713e+00	 1.077610703905473e+01
0	 3.822487373420001e+00	 3.822487373420001e+00	 1.081073900324658e+01
0	 4.127163859771001e+00	 2.039805029720000e+00	 1.081164884513312e+01
0	 4.122379198804357e+00	 2.250773453768022e+00	 1.076889196875031e+01
0	 4.117167919602008e+00	 2.461060428434282e+00	 1.073491448066384e+01
0	 4.111543863451701e+00	 2.670170928582990e+00	 1.070983126776459e+01
0	 4.105522732078497e+00	 2.877618593847168e+00	 1.069371439253243e+01
0	 4.099121946388152e+00	 3.082929454743311e+00	 1.068659535849317e+01
0	 4.092360487074441e+00	 3.285645461445086e+00	 1.068846828423069e+01
0	 4.085258720033747e+00	 3.485327761444128e+00	 1.069929388596846e+01
0	 4.077838209785833e+00	 3.681559679080509e+00	 1.071900415703655e+01
0	 4.070121524259105e+00	 3.873949357768018e+00	 1.074750762762845e+01
0	 4.062132034360000e+00	 4.062132034360000e+00	 1.078469509002167e+01
0	 4.355969883143751e+00	 2.158170858100001e+00	 1.075360524674034e+01
0	 4.351982665671760e+00	 2.381605814561989e+00	 1.070929732476178e+01
0	 4.347639933003271e+00	 2.604360008014257e+00	 1.067441277591527e+01
0	 4.342953219544739e+00	 2.825908919128430e+00	 1.064899957718651e+01
0	 4.337935610067054e+00	 3.045737014802977e+00	 1.063305827343094e+01
0	 4.332601621991675e+00	 3.263341699718640e+00	 1.062654470297939e+01
0	 4.326967072563415e+00	 3.478237060986434e+00	 1.062937362607507e+01
0	 4.321048933362596e+00	 3.689957348779099e+00	 1.064142314129020e+01
0	 4.314865174822357e+00	 3.898060142952625e+00	 1.066253976418566e+01
0	 4.308434603549703e+00	 4.102129163939323e+00	 1.069254403850073e+01
0	 4.301776695300001e+00	 4.301776695300001e+00	 1.073123655290613e+01
0	 4.584775906516001e+00	 2.276536686480001e+00	 1.068037390551201e+01
0	 4.581586132538577e+00	 2.512438175355956e+00	 1.063381845034893e+01
0	 4.578111946403895e+00	 2.747659587594232e+00	 1.059728870803674e+01
0	 4.574362575637118e+00	 2.981646909673871e+00	 1.057077018500654e+01
0	 4.570348488054956e+00	 3.213855435758785e+00	 1.055419608601161e+01
0	 4.566081297594578e+00	 3.443753944693966e+00	 1.054745039638261e+01
0	 4.561573658051835e+00	 3.670828660527781e+00	 1.055037186637507e+01
0	 4.556839146690989e+00	 3.894586936114068e+00	 1.056275876888113e+01
0	 4.551892139858549e+00	 4.114560606824741e+00	 1.058437429108503e+01
0	 4.546747682840121e+00	 4.330308970110627e+00	 1.061495241695946e+01
0	 4.541421356240001e+00	 4.541421356240001e+00	 1.065420416057525e+01
0	 4.813581929887752e+00	 2.394902514860001e+00	 1.059415595642345e+01
0	 4.811189599404811e+00	 2.643270536149924e+00	 1.054474620952362e+01
0	 4.808583959803880e+00	 2.890959167174207e+00	 1.050592623270079e+01
0	 4.805771931728833e+00	 3.137384900219311e+00	 1.047762260766969e+01
0	 4.802761366042201e+00	 3.381973856714593e+00	 1.045970452539961e+01
0	 4.799560973196861e+00	 3.624166189669292e+00	 1.045198713916948e+01
0	 4.796180243539706e+00	 3.863420260069129e+00	 1.045423582157748e+01
0	 4.792629360018927e+00	 4.099216523449036e+00	 1.046617118361414e+01
0	 4.788919104894410e+00	 4.331061070696857e+00	 1.048747470292618e+01
0	 4.785060762130361e+00	 4.558488776281931e+00	 1.051779480449737e+01
0	 4.781066017180001e+00	 4.781066017180001e+00	 1.055675323984347e+01
0	 5.042387953259002e+00	 2.513268343240000e+00	 1.049674679302881e+01
0	 5.040793066270459e+00	 2.774102896943891e+00	 1.044395114716818e+01
0	 5.039055973203227e+00	 3.034258746754182e+00	 1.040227423335190e+01
0	 5.037181287819886e+00	 3.293122890764750e+00	 1.037158655682573e+01
0	 5.035174244028790e+00	 3.550092277670401e+00	 1.035169595456748e+01
0	 5.033040648798528e+00	 3.804578434644619e+00	 1.034235114710552e+01
0	 5.030786829027023e+00	 4.056011859610475e+00	 1.034324619713276e+01
0	 5.028419573346409e+00	 4.303846110784006e+00	 1.035402572035376e+01
0	 5.025946069929939e+00	 4.547561534568973e+00	 1.037429068234946e+01
0	 5.023373841420420e+00	 4.786668582453236e+00	 1.040360461070302e+01
0	 5.020710678120002e+00	 5.020710678120002e+00	 1.044150005384917e+01
0	 5.271193976629752e+00	 2.631634171620001e+00	 1.038962543829310e+01
0	 5.270396533135523e+00	 2.904935257737858e+00	 1.033297565948358e+01
0	 5.269527986601934e+00	 3.177558326334156e+00	 1.028794144139423e+01
0	 5.268590643910275e+00	 3.448860881310190e+00	 1.025433951209134e+01
0	 5.267587122014724e+00	 3.718210698626209e+00	 1.023191848886440e+01
0	 5.266520324399575e+00	 3.984990679619947e+00	 1.022036256770824e+01
0	 5.265393414513788e+00	 4.248603459151822e+00	 1.021929612231123e+01
0	 5.264209786673434e+00	 4.508475698118976e+00	 1.022828904563509e+01
0	 5.262973034965136e+00	 4.764061998441088e+00	 1.024686265453128e+01
0	 5.261686920710301e+00	 5.014848388624539e+00	 1.027449597230863e+01
0	 5.260355339060001e+00	 5.260355339060001e+00	 1.031063220534358e+01
0	 5.500000000000000e+00	 2.750000000000000e+00	 1.027402128978179e+01
0	 5.499999999999999e+00	 3.035767618531824e+00	 1.021310292934920e+01
0	 5.500000000000002e+00	 3.320857905914131e+00	 1.016426754477008e+01
0	 5.499999999999999e+00	 3.604598871855629e+00	 1.012727995104271e+01
0	 5.500000000000001e+00	 3.886329119582016e+00	 1.010183126312223e+01
0	 5.500000000000000e+00	 4.165402924595273e+00	 1.008754267072171e+01
0	 5.500000000000000e+00	 4.441195058693169e+00	 1.008397012444565e+01
0	 5.500000000000000e+00	 4.713105285453943e+00	 1.009060975417046e+01
0	 5.500000000000000e+00	 4.980562462313202e+00	 1.010690382669647e+01
0	 5.499999999999999e+00	 5.243028194795841e+00	 1.013224704287413e+01
0	 5.500000000000000e+00	 5.500000000000000e+00	 1.016599297420197e+01
1	 5.500000000000000e+00	 0.000000000000000e+00	 1.016912642721466e+01
1	 5.500000000000001e+00	 2.569718052041600e-01	 1.019539326990157e+01
1	 5.499999999999998e+00	 5.194375376867996e-01	 1.022187777589650e+01
1	 5.500000000000000e+00	 7.868947145460590e-01	 1.024898735179525e+01
1	 5.500000000000001e+00	 1.058804941306833e+00	 1.027708401951334e+01
1	 5.500000000000000e+00	 1.334597075404729e+00	 1.030648866989404e+01
1	 5.500000000000000e+00	 1.613670880417985e+00	 1.033748468271519e+01
1	 5.500000000000000e+00	 1.895401128144372e+00	 1.037032099636057e+01
1	 5.500000000000000e+00	 2.179142094085869e+00	 1.040521469504091e+01
1	 5.500000000000000e+00	 2.464232381468176e+00	 1.044235316860615e+01
1	 5.500000000000000e+00	 2.750000000000000e+00	 1.048189588912636e+01
1	 5.725000000000000e+00	 0.000000000000000e+00	 1.016798480570725e+01
1	 5.726325695966757e+00	 2.604173443574782e-01	 1.018816843320708e+01
1	 5.727525157045475e+00	 5.253095755406946e-01	 1.020863100700842e+01
1	 5.728594112664268e+00	 7.942503694085959e-01	 1.022970745612629e+01
1	 5.729528698811698e+00	 1.066789542025364e+00	 1.025169570245290e+01
1	 5.730325492048058e+00	 1.342455326349802e+00	 1.027485885062542e+01
1	 5.730981540237810e+00	 1.620756914370617e+00	 1.029942707057394e+01
1	 5.731494389499149e+00	 1.901187238483552e+00	 1.032559919947883e+01
1	 5.731862106918544e+00	 2.183225960850848e+00	 1.035354408530761e+01
1	 5.732083298642056e+00	 2.466342634984634e+00	 1.038340169005246e+01
1	 5.732157123029681e+00	 2.750000000000000e+00	 1.041528396714789e+01
1	 5.950000000000000e+00	 0.000000000000000e+00	 1.016298560922396e+01
1	 5.952092339596039e+00	 2.634921322153155e-01	 1.017826968493821e+01
1	 5.953980994682282e+00	 5.305373593195087e-01	 1.019380015015422e+01
1	 5.955660608068995e+00	 8.007851765785273e-01	 1.020985605838565e+01
1	 5.957126358438959e+00	 1.073870019039702e+00	 1.022668582917707e+01
1	 5.958373994244618e+00	 1.349412795345447e+00	 1.024450816951430e+01
1	 5.959399864062656e+00	 1.627022554495980e+00	 1.026351287252248e+01
1	 5.960200943008168e+00	 1.906298271136322e+00	 1.028386149910983e+01
1	 5.960774854856029e+00	 2.186830732942017e+00	 1.030568794731849e+01
1	 5.961119889570013e+00	 2.468204511922837e+00	 1.032909891329955e+01
1	 5.961235015999728e+00	 2.750000000000000e+00	 1.035417424703154e+01
1	 6.175000000000000e+00	 0.000000000000000e+00	 1.015431165701432e+01
1	 6.177400305497411e+00	 2.661988798378742e-01	 1.016578239797056e+01
1	 6.179562463609930e+00	 5.351297482254774e-01	 1.017740484600953e+01
1	 6.181481744882682e+00	 8.065150238414757e-01	 1.018941212971646e+01
1	 6.183153912839755e+00	 1.080068213045069e+00	 1.020201207613525e+01
1	 6.184575247003170e+00	 1.355494867201875e+00	 1.021538737796661e+01
1	 6.185742563345324e+00	 1.632493600460929e+00	 1.022969573955936e+01
1	 6.186653231967632e+00	 1.910757160916748e+00	 1.024507000191762e+01
1	 6.187305191823787e+00	 2.189973547393915e+00	 1.026161824691337e+01
1	 6.187696962334813e+00	 2.469827163488200e+00	 1.027942388086120e+01
1	 6.187827651774207e+00	 2.750000000000000e+00	 1.029854569758026e+01
1	 6.400000000000000e+00	 0.000000000000000e+00	 1.014210209830374e+01
1	 6.402349103454542e+00	 2.685399654963769e-01	 1.015077123500973e+01
1	 6.404461351750465e+00	 5.390944734923960e-01	 1.015945831616180e+01
1	 6.406333329429051e+00	 8.114537120460161e-01	 1.016835622558720e+01
1	 6.407961989364567e+00	 1.085403019488549e+00	 1.017763729218152e+01
1	 6.409344665025474e+00	 1.360723428423137e+00	 1.018745305483949e+01
1	 6.410479081295795e+00	 1.637192233962034e+00	 1.019793405585909e+01
1	 6.411363363775334e+00	 1.914583583197385e+00	 1.020918966335069e+01
1	 6.411996046488270e+00	 2.192669082695087e+00	 1.022130792310823e+01
1	 6.412376077941249e+00	 2.471218420625390e+00	 1.023435544032351e+01
1	 6.412502825484345e+00	 2.750000000000000e+00	 1.024837729144714e+01
1	 6.625000000000000e+00	 0.000000000000000e+00	 1.012645711331230e+01
1	 6.627037527304700e+00	 2.705174399271406e-01	 1.013328188376244e+01
1	 6.628866844231688e+00	 5.424381712757680e-01	 1.013996772024952e+01
1	 6.630485886019598e+00	 8.156130394716781e-01	 1.014667036124268e+01
1	 6.631892816821050e+00	 1.089890535322378e+00	 1.015352933401309e+01
1	 6.633086034866732e+00	 1.365117068489179e+00	 1.016066756318108e+01
1	 6.634064176997537e+00	 1.641137249151200e+00	 1.016819102475652e+01
1	 6.634826122540955e+00	 1.917794176797378e+00	 1.017618844749941e+01
1	 6.635370996511219e+00	 2.194929735034445e+00	 1.018473106318546e+01
1	 6.635698172116243e+00	 2.472384891257934e+00	 1.019387240710574e+01
1	 6.635807272557929e+00	 2.750000000000000e+00	 1.020364816986206e+01
1	 6.850000000000000e+00	 0.000000000000000e+00	 1.010744140910495e+01
1	 6.851563801357860e+00	 2.721330308423110e-01	 1.011334238195638e+01
1	 6.852966066188836e+00	 5.451664106523594e-01	 1.011893443169799e+01
1	 6.854205777290304e+00	 8.190028731193179e-01	 1.012433789999760e+01
1	 6.855282032731666e+00	 1.093544182212543e+00	 1.012966091161412e+01
1	 6.856194047486786e+00	 1.368691247925631e+00	 1.013499899126044e+01
1	 6.856941154860118e+00	 1.644344244183735e+00	 1.014043472354987e+01
1	 6.857522807701748e+00	 1.920402728622931e+00	 1.014603745829605e+01
1	 6.857938579407231e+00	 2.196765763942324e+00	 1.015186306314619e+01
1	 6.858188164698792e+00	 2.473332040522700e+00	 1.015795372521689e+01
1	 6.858271380185260e+00	 2.750000000000000e+00	 1.016433780307209e+01
1	 7.075000000000000e+00	 0.000000000000000e+00	 1.008508670686609e+01
1	 7.076025724816605e+00	 2.733881467158592e-01	 1.009096408747453e+01
1	 7.076944611726718e+00	 5.472837169515432e-01	 1.009635424035653e+01
1	 7.077756284576690e+00	 8.216312077374848e-01	 1.010134345295658e+01
1	 7.078460410553643e+00	 1.096374807989001e+00	 1.010600944312972e+01
1	 7.079056700525711e+00	 1.371458436046461e+00	 1.011042107862718e+01
1	 7.079544909338212e+00	 1.646825777602636e+00	 1.011463812750769e+01
1	 7.079924836065256e+00	 1.922420323963699e+00	 1.011871104117538e+01
1	 7.080196324216230e+00	 2.198185410589542e+00	 1.012268077153245e+01
1	 7.080359261896843e+00	 2.474064255858373e+00	 1.012657862350570e+01
1	 7.080413581924363e+00	 2.750000000000000e+00	 1.013042614396176e+01
1	 7.300000000000001e+00	 0.000000000000000e+00	 1.005939335965693e+01
1	 7.300520814646701e+00	 2.742838798603814e-01	 1.006614233445261e+01
1	 7.300987062234102e+00	 5.487935906020481e-01	 1.007221748843430e+01
1	 7.301398657739568e+00	 8.235042132497991e-01	 1.007767278892923e+01
1	 7.301755526051630e+00	 1.098390767784932e+00	 1.008255691863550e+01
1	 7.302057602004195e+00	 1.373428220690121e+00	 1.008691312799350e+01
1	 7.302304830406275e+00	 1.648591492528424e+00	 1.009077910379777e+01
1	 7.302497166067182e+00	 1.923855465551601e+00	 1.009418685480476e+01
1	 7.302634573817159e+00	 2.199194991332929e+00	 1.009716261499637e+01
1	 7.302717028523463e+00	 2.474584898419623e+00	 1.009972676505878e+01
1	 7.302744515101848e+00	 2.750000000000000e+00	 1.010189377252899e+01
1	 7.525000000000000e+00	 0.000000000000000e+00	 1.003033119414589e+01
1	 7.525146447339418e+00	 2.748210088072765e-01	 1.003885680434220e+01
1	 7.525277497125451e+00	 5.496985216413046e-01	 1.004650914449952e+01
1	 7.525393143375494e+00	 8.246262711119506e-01	 1.005331275346668e+01
1	 7.525493380809159e+00	 1.099597986007082e+00	 1.005928977230571e+01
1	 7.525578204848905e+00	 1.374607391768981e+00	 1.006445990377716e+01
1	 7.525647611620534e+00	 1.649648210971294e+00	 1.006884037636618e+01
1	 7.525701597953643e+00	 1.924714163796429e+00	 1.007244591297489e+01
1	 7.525740161381994e+00	 2.199798968513353e+00	 1.007528870438988e+01
1	 7.525763300143781e+00	 2.474896341955682e+00	 1.007737838761740e+01
1	 7.525771013181844e+00	 2.750000000000000e+00	 1.007872202916067e+01
1	 7.750000000000000e+00	 0.000000000000000e+00	 9.997839632167832e+00
1	 7.750000000000001e+00	 2.750000000000000e-01	 1.000907163090909e+01
1	 7.750000000000000e+00	 5.500000000000000e-01	 1.001920881888112e+01
1	 7.750000000000000e+00	 8.250000000000000e-01	 1.002825119608392e+01
1	 7.750000000000001e+00	 1.100000000000000e+00	 1.003619876251748e+01
1	 7.750000000000000e+00	 1.375000000000000e+00	 1.004305151818182e+01
1	 7.750000000000000e+00	 1.650000000000000e+00	 1.004880946307692e+01
1	 7.750000000000001e+00	 1.925000000000000e+00	 1.005347259720280e+01
1	 7.750000000000002e+00	 2.200000000000000e+00	 1.005704092055944e+01
1	 7.750000000000000e+00	 2.475000000000000e+00	 1.005951443314685e+01
1	 7.750000000000000e+00	 2.750000000000000e+00	 1.006089313496503e+01
1	 5.500000000000000e+00	 2.750000000000000e+00	 1.048189588912636e+01
1	 5.499999999999999e+00	 3.035767618531824e+00	 1.043091511677667e+01
1	 5.500000000000002e+00	 3.320857905914131e+00	 1.038122783671735e+01
1	 5.499999999999999e+00	 3.604598871855629e+00	 1.033274415894449e+01
1	 5.500000000000001e+00	 3.886329119582016e+00	 1.028537975038552e+01
1	 5.500000000000000e+00	 4.165402924595273e+00	 1.023905521640131e+01
1	 5.500000000000000e+00	 4.441195058693169e+00	 1.019369553281647e+01
1	 5.500000000000000e+00	 4.713105285453943e+00	 1.014922951985212e+01
1	 5.500000000000000e+00	 4.980562462313202e+00	 1.010558935006332e+01
1	 5.499999999999999e+00	 5.243028194795841e+00	 1.006271008290404e+01
1	 5.500000000000000e+00	 5.500000000000000e+00	 1.002052921886430e+01
1	 5.732157123029681e+00	 2.750000000000000e+00	 1.041528396714789e+01
1	 5.732083298642056e+00	 3.033657365015365e+00	 1.037482474539779e+01
1	 5.731862106918545e+00	 3.316774039149152e+00	 1.033558217727112e+01
1	 5.731494389499149e+00	 3.598812761516448e+00	 1.029752401186616e+01
1	 5.730981540237809e+00	 3.879243085629384e+00	 1.026062143931618e+01
1	 5.730325492048057e+00	 4.157544673650198e+00	 1.022484896788880e+01
1	 5.729528698811700e+00	 4.433210457974636e+00	 1.019018432500057e+01
1	 5.728594112664270e+00	 4.705749630591405e+00	 1.015660838139392e+01
1	 5.727525157045478e+00	 4.974690424459308e+00	 1.012410509803929e+01
1	 5.726325695966757e+00	 5.239582655642523e+00	 1.009266149564046e+01
1	 5.725000000000000e+00	 5.500000000000000e+00	 1.006226764694144e+01
1	 5.961235015999728e+00	 2.750000000000000e+00	 1.035417424703154e+01
1	 5.961119889570014e+00	 3.031795488077162e+00	 1.032308640440445e+01
1	 5.960774854856030e+00	 3.313169267057982e+00	 1.029315766460165e+01
1	 5.960200943008169e+00	 3.593701728863679e+00	 1.026438959263149e+01
1	 5.959399864062656e+00	 3.872977445504021e+00	 1.023678524563734e+01
1	 5.958373994244619e+00	 4.150587204654554e+00	 1.021034918538172e+01
1	 5.957126358438961e+00	 4.426129980960299e+00	 1.018508749651977e+01
1	 5.955660608068995e+00	 4.699214823421475e+00	 1.016100781079546e+01
1	 5.953980994682283e+00	 4.969462640680493e+00	 1.013811933733792e+01
1	 5.952092339596041e+00	 5.236507867784688e+00	 1.011643289928014e+01
1	 5.950000000000000e+00	 5.500000000000000e+00	 1.009596097697078e+01
1	 6.187827651774207e+00	 2.750000000000000e+00	 1.029854569758026e+01
1	 6.187696962334813e+00	 3.030172836511799e+00	 1.027566806670326e+01
1	 6.187305191823787e+00	 3.310026452606086e+00	 1.025390401108853e+01
1	 6.186653231967633e+00	 3.589242839083253e+00	 1.023327163809194e+01
1	 6.185742563345324e+00	 3.867506399539071e+00	 1.021378894676037e+01
1	 6.184575247003170e+00	 4.144505132798127e+00	 1.019547383769863e+01
1	 6.183153912839756e+00	 4.419931786954933e+00	 1.017834412286448e+01
1	 6.181481744882683e+00	 4.693484976158528e+00	 1.016241753530322e+01
1	 6.179562463609929e+00	 4.964870251774525e+00	 1.014771173883293e+01
1	 6.177400305497412e+00	 5.233801120162128e+00	 1.013424433769161e+01
1	 6.175000000000000e+00	 5.500000000000000e+00	 1.012203288615720e+01
1	 6.412502825484345e+00	 2.750000000000000e+00	 1.024837729144714e+01
1	 6.412376077941248e+00	 3.028781579374610e+00	 1.023253967740808e+01
1	 6.411996046488271e+00	 3.307330917304914e+00	 1.021777600520506e+01
1	 6.411363363775334e+00	 3.585416416802616e+00	 1.020410930840090e+01
1	 6.410479081295796e+00	 3.862807766037968e+00	 1.019156134864746e+01
1	 6.409344665025474e+00	 4.139276571576864e+00	 1.018015259667375e+01
1	 6.407961989364568e+00	 4.414596980511453e+00	 1.016990221513026e+01
1	 6.406333329429054e+00	 4.688546287953985e+00	 1.016082804331949e+01
1	 6.404461351750464e+00	 4.960905526507606e+00	 1.015294658383676e+01
1	 6.402349103454542e+00	 5.231460034503625e+00	 1.014627299114119e+01
1	 6.400000000000000e+00	 5.500000000000001e+00	 1.014082106207097e+01
1	 6.635807272557929e+00	 2.750000000000000e+00	 1.020364816986206e+01
1	 6.635698172116244e+00	 3.027615108742067e+00	 1.019367336197324e+01
1	 6.635370996511220e+00	 3.305070264965555e+00	 1.018473376351017e+01
1	 6.634826122540955e+00	 3.582205823202623e+00	 1.017685041519124e+01
1	 6.634064176997538e+00	 3.858862750848800e+00	 1.017004238130984e+01
1	 6.633086034866733e+00	 4.134882931510822e+00	 1.016432671730778e+01
1	 6.631892816821050e+00	 4.410109464677624e+00	 1.015971844334463e+01
1	 6.630485886019598e+00	 4.684386960528324e+00	 1.015623052394267e+01
1	 6.628866844231687e+00	 4.957561828724233e+00	 1.015387385375341e+01
1	 6.627037527304699e+00	 5.229482560072862e+00	 1.015265724945785e+01
1	 6.625000000000000e+00	 5.500000000000000e+00	 1.015258744777936e+01
1	 6.858271380185260e+00	 2.750000000000000e+00	 1.016433780307209e+01
1	 6.858188164698790e+00	 3.026667959477299e+00	 1.015904360654882e+01
1	 6.857938579407230e+00	 3.303234236057677e+00	 1.015474292373931e+01
1	 6.857522807701748e+00	 3.579597271377069e+00	 1.015145157166653e+01
1	 6.856941154860118e+00	 3.855655755816265e+00	 1.014918312462044e+01
1	 6.856194047486789e+00	 4.131308752074370e+00	 1.014794888735037e+01
1	 6.855282032731668e+00	 4.406455817787460e+00	 1.014775787683864e+01
1	 6.854205777290304e+00	 4.680997126880683e+00	 1.014861681269849e+01
1	 6.852966066188839e+00	 4.954833589347643e+00	 1.015053011617869e+01
1	 6.851563801357860e+00	 5.227866969157692e+00	 1.015349991769835e+01
1	 6.850000000000000e+00	 5.500000000000000e+00	 1.015752607277696e+01
1	 7.080413581924363e+00	 2.750000000000000e+00	 1.013042614396176e+01
1	 7.080359261896843e+00	 3.025935744141627e+00	 1.012862740824893e+01
1	 7.080196324216229e+00	 3.301814589410458e+00	 1.012777477746659e+01
1	 7.079924836065257e+00	 3.577579676036302e+00	 1.012787826466760e+01
1	 7.079544909338215e+00	 3.853174222397366e+00	 1.012894576611949e+01
1	 7.079056700525711e+00	 4.128541563953540e+00	 1.013098304789772e+01
1	 7.078460410553643e+00	 4.403625192011001e+00	 1.013399374068830e+01
1	 7.077756284576689e+00	 4.678368792262518e+00	 1.013797934277632e+01
1	 7.076944611726718e+00	 4.952716283048459e+00	 1.014293923113893e+01
1	 7.076025724816604e+00	 5.226611853284143e+00	 1.014887068050459e+01
1	 7.075000000000000e+00	 5.500000000000000e+00	 1.015576889018568e+01
1	 7.302744515101848e+00	 2.750000000000000e+00	 1.010189377252899e+01
1	 7.302717028523463e+00	 3.025415101580377e+00	 1.010240439371280e+01
1	 7.302634573817158e+00	 3.300805008667071e+00	 1.010380634200041e+01
1	 7.302497166067181e+00	 3.576144534448400e+00	 1.010610485000404e+01
1	 7.302304830406277e+00	 3.851408507471577e+00	 1.010930349320002e+01
1	 7.302057602004196e+00	 4.126571779309880e+00	 1.011340418668726e+01
1	 7.301755526051629e+00	 4.401609232215069e+00	 1.011840718731954e+01
1	 7.301398657739568e+00	 4.676495786750203e+00	 1.012431110117372e+01
1	 7.300987062234102e+00	 4.951206409397953e+00	 1.013111289628393e+01
1	 7.300520814646701e+00	 5.225716120139620e+00	 1.013880792054123e+01
1	 7.300000000000001e+00	 5.500000000000000e+00	 1.014738992462807e+01
1	 7.525771013181844e+00	 2.750000000000000e+00	 1.007872202916067e+01
1	 7.525763300143781e+00	 3.025103658044319e+00	 1.008035690504896e+01
1	 7.525740161381994e+00	 3.300201031486647e+00	 1.008282037233296e+01
1	 7.525701597953644e+00	 3.575285836203572e+00	 1.008611447349889e+01
1	 7.525647611620535e+00	 3.850351789028708e+00	 1.009024032270713e+01
1	 7.525578204848907e+00	 4.125392608231020e+00	 1.009519810585240e+01
1	 7.525493380809161e+00	 4.400402013992920e+00	 1.010098708243449e+01
1	 7.525393143375493e+00	 4.675373728888052e+00	 1.010760558922877e+01
1	 7.525277497125452e+00	 4.950301478358697e+00	 1.011505104573891e+01
1	 7.525146447339418e+00	 5.225178991192727e+00	 1.012331996140824e+01
1	 7.525000000000000e+00	 5.500000000000000e+00	 1.013240794455982e+01
1	 7.750000000000000e+00	 2.750000000000000e+00	 1.006089313496503e+01
1	 7.750000000000001e+00	 3.025000000000001e+00	 1.006247005296037e+01
1	 7.750000000000000e+00	 3.300000000000001e+00	 1.006480531505828e+01
1	 7.750000000000000e+00	 3.575000000000001e+00	 1.006789892125874e+01
1	 7.750000000000000e+00	 3.850000000000001e+00	 1.007175087156177e+01
1	 7.750000000000000e+00	 4.125000000000001e+00	 1.007636116596737e+01
1	 7.750000000000000e+00	 4.400000000000002e+00	 1.008172980447553e+01
1	 7.750000000000001e+00	 4.675000000000002e+00	 1.008785678708625e+01
1	 7.750000000000000e+00	 4.950000000000002e+00	 1.009474211379954e+01
1	 7.750000000000000e+00	 5.225000000000001e+00	 1.010238578461538e+01
1	 7.750000000000000e+00	 5.500000000000000e+00	 1.011078779953380e+01
1	 7.750000000000000e+00	 0.000000000000000e+00	 9.997839632167832e+00
1	 7.750000000000001e+00	 2.750000000000000e-01	 1.000907163090909e+01
1	 7.750000000000000e+00	 5.500000000000000e-01	 1.001920881888112e+01
1	 7.750000000000000e+00	 8.250000000000000e-01	 1.002825119608392e+01
1	 7.750000000000001e+00	 1.100000000000000e+00	 1.003619876251748e+01
1	 7.750000000000000e+00	 1.375000000000000e+00	 1.004305151818182e+01
1	 7.750000000000000e+00	 1.650000000000000e+00	 1.004880946307692e+01
1	 7.750000000000001e+00	 1.925000000000000e+00	 1.005347259720280e+01
1	 7.750000000000002e+00	 2.200000000000000e+00	 1.005704092055944e+01
1	 7.750000000000000e+00	 2.475000000000000e+00	 1.005951443314685e+01
1	 7.750000000000000e+00	 2.750000000000000e+00	 1.006089313496503e+01
1	 7.975000000000001e+00	 0.000000000000000e+00	 9.978389400759907e+00
1	 7.975000000000001e+00	 2.750000000000001e-01	 9.988946968634263e+00
1	 7.975000000000000e+00	 5.499999999999999e-01	 9.998547687636833e+00
1	 7.975000000000001e+00	 8.250000000000002e-01	 1.000719155776760e+01
1	 7.974999999999999e+00	 1.100000000000000e+00	 1.001487857902657e+01
1	 7.975000000000001e+00	 1.375000000000000e+00	 1.002160875141375e+01
1	 7.974999999999999e+00	 1.650000000000000e+00	 1.002738207492914e+01
1	 7.974999999999999e+00	 1.925000000000000e+00	 1.003219854957273e+01
1	 7.975000000000001e+00	 2.200000000000000e+00	 1.003605817534452e+01
1	 7.975000000000001e+00	 2.475000000000000e+00	 1.003896095224452e+01
1	 7.975000000000000e+00	 2.750000000000000e+00	 1.004090688027273e+01
1	 8.200000000000001e+00	 0.000000000000000e+00	 9.956362547282051e+00
1	 8.200000000000001e+00	 2.750000000000000e-01	 9.966431003474124e+00
1	 8.200000000000001e+00	 5.500000000000000e-01	 9.975680572691846e+00
1	 8.200000000000001e+00	 8.249999999999998e-01	 9.984111254935200e+00
1	 8.200000000000001e+00	 1.100000000000000e+00	 9.991723050204197e+00
1	 8.200000000000001e+00	 1.375000000000000e+00	 9.998515958498839e+00
1	 8.200000000000001e+00	 1.650000000000000e+00	 1.000448997981912e+01
1	 8.200000000000003e+00	 1.925000000000000e+00	 1.000964511416503e+01
1	 8.199999999999999e+00	 2.200000000000000e+00	 1.001398136153660e+01
1	 8.200000000000001e+00	 2.475000000000000e+00	 1.001749872193380e+01
1	 8.200000000000001e+00	 2.750000000000000e+00	 1.002019719535664e+01
1	 8.425000000000001e+00	 0.000000000000000e+00	 9.931759071734268e+00
1	 8.425000000000001e+00	 2.750000000000000e-01	 9.941523735428671e+00
1	 8.425000000000001e+00	 5.500000000000000e-01	 9.950607474046155e+00
1	 8.425000000000001e+00	 8.250000000000002e-01	 9.959010287586716e+00
1	 8.425000000000001e+00	 1.100000000000000e+00	 9.966732176050350e+00
1	 8.425000000000001e+00	 1.375000000000000e+00	 9.973773139437062e+00
1	 8.425000000000001e+00	 1.650000000000000e+00	 9.980133177746850e+00
1	 8.425000000000002e+00	 1.925000000000000e+00	 9.985812290979723e+00
1	 8.425000000000002e+00	 2.200000000000000e+00	 9.990810479135666e+00
1	 8.425000000000001e+00	 2.475000000000000e+00	 9.995127742214688e+00
1	 8.425000000000002e+00	 2.750000000000000e+00	 9.998764080216782e+00
1	 8.650000000000000e+00	 0.000000000000000e+00	 9.904578974116550e+00
1	 8.650000000000002e+00	 2.750000000000000e-01	 9.914225164497903e+00
1	 8.650000000000000e+00	 5.500000000000000e-01	 9.923328391699769e+00
1	 8.649999999999999e+00	 8.249999999999998e-01	 9.931888655722144e+00
1	 8.650000000000004e+00	 1.100000000000001e+00	 9.939905956565042e+00
1	 8.650000000000002e+00	 1.375000000000000e+00	 9.947380294228436e+00
1	 8.650000000000000e+00	 1.650000000000000e+00	 9.954311668712357e+00
1	 8.650000000000000e+00	 1.925000000000000e+00	 9.960700080016785e+00
1	 8.650000000000002e+00	 2.200000000000000e+00	 9.966545528141726e+00
1	 8.650000000000002e+00	 2.475000000000001e+00	 9.971848013087182e+00
1	 8.650000000000000e+00	 2.750000000000000e+00	 9.976607534853150e+00
1	 8.875000000000000e+00	 0.000000000000000e+00	 9.874822254428903e+00
1	 8.874999999999998e+00	 2.750000000000000e-01	 9.884535290681821e+00
1	 8.875000000000002e+00	 5.499999999999999e-01	 9.893843325652680e+00
1	 8.875000000000004e+00	 8.250000000000002e-01	 9.902746359341492e+00
1	 8.875000000000002e+00	 1.100000000000000e+00	 9.911244391748253e+00
1	 8.875000000000000e+00	 1.375000000000000e+00	 9.919337422872960e+00
1	 8.875000000000002e+00	 1.650000000000000e+00	 9.927025452715615e+00
1	 8.875000000000002e+00	 1.925000000000000e+00	 9.934308481276219e+00
1	 8.875000000000000e+00	 2.200000000000000e+00	 9.941186508554781e+00
1	 8.875000000000000e+00	 2.475000000000000e+00	 9.947659534551283e+00
1	 8.875000000000000e+00	 2.750000000000000e+00	 9.953727559265737e+00
1	 9.100000000000001e+00	 0.000000000000000e+00	 9.842488912671326e+00
1	 9.100000000000001e+00	 2.750000000000000e-01	 9.852454113980420e+00
1	 9.100000000000001e+00	 5.499999999999998e-01	 9.862152275904894e+00
1	 9.100000000000003e+00	 8.250000000000002e-01	 9.871583398444752e+00
1	 9.100000000000000e+00	 1.100000000000000e+00	 9.880747481600002e+00
1	 9.100000000000003e+00	 1.375000000000000e+00	 9.889644525370633e+00
1	 9.100000000000005e+00	 1.650000000000000e+00	 9.898274529756646e+00
1	 9.100000000000001e+00	 1.925000000000000e+00	 9.906637494758044e+00
1	 9.100000000000000e+00	 2.200000000000000e+00	 9.914733420374828e+00
1	 9.100000000000001e+00	 2.475000000000000e+00	 9.922562306606993e+00
1	 9.100000000000000e+00	 2.750000000000000e+00	 9.930124153454548e+00
1	 9.325000000000003e+00	 0.000000000000000e+00	 9.807578948843824e+00
1	 9.325000000000001e+00	 2.750000000000000e-01	 9.817981634393709e+00
1	 9.325000000000003e+00	 5.499999999999999e-01	 9.828255242456411e+00
1	 9.325000000000003e+00	 8.250000000000001e-01	 9.838399773031934e+00
1	 9.325000000000001e+00	 1.100000000000000e+00	 9.848415226120277e+00
1	 9.325000000000001e+00	 1.375000000000000e+00	 9.858301601721447e+00
1	 9.325000000000001e+00	 1.650000000000000e+00	 9.868058899835434e+00
1	 9.325000000000001e+00	 1.925000000000000e+00	 9.877687120462237e+00
1	 9.325000000000003e+00	 2.200000000000000e+00	 9.887186263601869e+00
1	 9.325000000000003e+00	 2.475000000000000e+00	 9.896556329254313e+00
1	 9.325000000000003e+00	 2.750000000000000e+00	 9.905797317419584e+00
1	 9.550000000000001e+00	 0.000000000000000e+00	 9.770092362946391e+00
1	 9.550000000000001e+00	 2.750000000000000e-01	 9.781117851921678e+00
1	 9.550000000000001e+00	 5.499999999999999e-01	 9.792152225307225e+00
1	 9.550000000000002e+00	 8.250000000000002e-01	 9.803195483103034e+00
1	 9.549999999999999e+00	 1.100000000000000e+00	 9.814247625309093e+00
1	 9.550000000000001e+00	 1.375000000000000e+00	 9.825308651925408e+00
1	 9.550000000000001e+00	 1.650000000000000e+00	 9.836378562951985e+00
1	 9.550000000000002e+00	 1.925000000000000e+00	 9.847457358388811e+00
1	 9.550000000000002e+00	 2.200000000000000e+00	 9.858545038235896e+00
1	 9.550000000000002e+00	 2.475000000000000e+00	 9.869641602493243e+00
1	 9.550000000000001e+00	 2.750000000000000e+00	 9.880747051160840e+00
1	 9.775000000000002e+00	 0.000000000000000e+00	 9.730029154979016e+00
1	 9.775000000000002e+00	 2.750000000000001e-01	 9.741862766564340e+00
1	 9.775000000000002e+00	 5.500000000000000e-01	 9.753843224457345e+00
1	 9.775000000000002e+00	 8.250000000000001e-01	 9.765970528658041e+00
1	 9.775000000000004e+00	 1.100000000000000e+00	 9.778244679166436e+00
1	 9.775000000000002e+00	 1.375000000000000e+00	 9.790665675982520e+00
1	 9.775000000000002e+00	 1.650000000000000e+00	 9.803233519106291e+00
1	 9.775000000000002e+00	 1.925000000000000e+00	 9.815948208537758e+00
1	 9.775000000000002e+00	 2.200000000000000e+00	 9.828809744276926e+00
1	 9.775000000000002e+00	 2.475000000000000e+00	 9.841818126323778e+00
1	 9.775000000000002e+00	 2.750000000000000e+00	 9.854973354678323e+00
1	 1.000000000000000e+01	 0.000000000000000e+00	 9.687389324941726e+00
1	 1.000000000000000e+01	 2.750000000000000e-01	 9.700216378321679e+00
1	 1.000000000000000e+01	 5.500000000000000e-01	 9.713328239906762e+00
1	 1.000000000000000e+01	 8.250000000000001e-01	 9.726724909696967e+00
1	 1.000000000000000e+01	 1.100000000000000e+00	 9.740406387692307e+00
1	 1.000000000000000e+01	 1.375000000000000e+00	 9.754372673892776e+00
1	 1.000000000000000e+01	 1.650000000000000e+00	 9.768623768298369e+00
1	 1.000000000000000e+01	 1.925000000000000e+00	 9.783159670909097e+00
1	 1.000000000000000e+01	 2.200000000000000e+00	 9.797980381724940e+00
1	 1.000000000000000e+01	 2.475000000000000e+00	 9.813085900745921e+00
1	 1.000000000000000e+01	 2.750000000000000e+00	 9.828476227972027e+00
1	 7.750000000000000e+00	 2.750000000000000e+00	 1.006089313496503e+01
1	 7.750000000000001e+00	 3.025000000000001e+00	 1.006247005296037e+01
1	 7.750000000000000e+00	 3.300000000000001e+00	 1.006480531505828e+01
1	 7.750000000000000e+00	 3.575000000000001e+00	 1.006789892125874e+01
1	 7.750000000000000e+00	 3.850000000000001e+00	 1.007175087156177e+01
1	 7.750000000000000e+00	 4.125000000000001e+00	 1.007636116596737e+01
1	 7.750000000000000e+00	 4.400000000000002e+00	 1.008172980447553e+01
1	 7.750000000000001e+00	 4.675000000000002e+00	 1.008785678708625e+01
1	 7.750000000000000e+00	 4.950000000000002e+00	 1.009474211379954e+01
1	 7.750000000000000e+00	 5.225000000000001e+00	 1.010238578461538e+01
1	 7.750000000000000e+00	 5.500000000000000e+00	 1.011078779953380e+01
1	 7.975000000000000e+00	 2.750000000000000e+00	 1.004090688027273e+01
1	 7.975000000000001e+00	 3.025000000000000e+00	 1.004230407097506e+01
1	 7.975000000000001e+00	 3.300000000000001e+00	 1.004437601731842e+01
1	 7.975000000000001e+00	 3.575000000000001e+00	 1.004712271930280e+01
1	 7.975000000000000e+00	 3.850000000000001e+00	 1.005054417692820e+01
1	 7.975000000000001e+00	 4.125000000000001e+00	 1.005464039019463e+01
1	 7.975000000000001e+00	 4.400000000000002e+00	 1.005941135910210e+01
1	 7.975000000000001e+00	 4.675000000000002e+00	 1.006485708365058e+01
1	 7.975000000000000e+00	 4.950000000000003e+00	 1.007097756384009e+01
1	 7.975000000000000e+00	 5.225000000000001e+00	 1.007777279967063e+01
1	 7.975000000000001e+00	 5.500000000000000e+00	 1.008524279114219e+01
1	 8.200000000000001e+00	 2.750000000000000e+00	 1.002019719535664e+01
1	 8.199999999999999e+00	 3.025000000000001e+00	 1.002185365297716e+01
1	 8.200000000000001e+00	 3.300000000000001e+00	 1.002410127777716e+01
1	 8.199999999999999e+00	 3.575000000000001e+00	 1.002694006975664e+01
1	 8.200000000000001e+00	 3.850000000000001e+00	 1.003037002891562e+01
1	 8.199999999999999e+00	 4.125000000000002e+00	 1.003439115525408e+01
1	 8.200000000000001e+00	 4.400000000000003e+00	 1.003900344877203e+01
1	 8.200000000000001e+00	 4.675000000000001e+00	 1.004420690946947e+01
1	 8.199999999999999e+00	 4.950000000000003e+00	 1.005000153734640e+01
1	 8.200000000000001e+00	 5.225000000000003e+00	 1.005638733240280e+01
1	 8.200000000000001e+00	 5.500000000000000e+00	 1.006336429463870e+01
1	 8.425000000000002e+00	 2.750000000000000e+00	 9.998764080216782e+00
1	 8.425000000000001e+00	 3.025000000000000e+00	 1.000111879896667e+01
1	 8.425000000000001e+00	 3.300000000000000e+00	 1.000398109643450e+01
1	 8.425000000000001e+00	 3.575000000000001e+00	 1.000735097262028e+01
1	 8.424999999999999e+00	 3.850000000000001e+00	 1.001122842752401e+01
1	 8.425000000000001e+00	 4.125000000000001e+00	 1.001561346114569e+01
1	 8.424999999999999e+00	 4.400000000000001e+00	 1.002050607348532e+01
1	 8.425000000000002e+00	 4.675000000000002e+00	 1.002590626454290e+01
1	 8.425000000000001e+00	 4.950000000000002e+00	 1.003181403431842e+01
1	 8.425000000000001e+00	 5.225000000000003e+00	 1.003822938281189e+01
1	 8.425000000000001e+00	 5.500000000000000e+00	 1.004515231002331e+01
1	 8.650000000000000e+00	 2.750000000000000e+00	 9.976607534853150e+00
1	 8.650000000000000e+00	 3.025000000000001e+00	 9.980099508943587e+00
1	 8.650000000000000e+00	 3.300000000000001e+00	 9.984015473290441e+00
1	 8.650000000000000e+00	 3.575000000000001e+00	 9.988355427893708e+00
1	 8.650000000000002e+00	 3.850000000000001e+00	 9.993119372753377e+00
1	 8.650000000000002e+00	 4.125000000000002e+00	 9.998307307869466e+00
1	 8.650000000000002e+00	 4.400000000000002e+00	 1.000391923324196e+01
1	 8.650000000000002e+00	 4.675000000000002e+00	 1.000995514887086e+01
1	 8.650000000000002e+00	 4.950000000000003e+00	 1.001641505475617e+01
1	 8.650000000000000e+00	 5.225000000000002e+00	 1.002329895089790e+01
1	 8.650000000000000e+00	 5.500000000000000e+00	 1.003060683729604e+01
1	 8.875000000000000e+00	 2.750000000000000e+00	 9.953727559265737e+00
1	 8.875000000000002e+00	 3.025000000000001e+00	 9.958795782907927e+00
1	 8.875000000000000e+00	 3.300000000000000e+00	 9.964204408344990e+00
1	 8.875000000000002e+00	 3.575000000000001e+00	 9.969953435576924e+00
1	 8.875000000000002e+00	 3.850000000000001e+00	 9.976042864603730e+00
1	 8.875000000000000e+00	 4.125000000000002e+00	 9.982472695425413e+00
1	 8.875000000000002e+00	 4.400000000000001e+00	 9.989242928041957e+00
1	 8.875000000000002e+00	 4.675000000000002e+00	 9.996353562453379e+00
1	 8.875000000000000e+00	 4.950000000000003e+00	 1.000380459865967e+01
1	 8.875000000000000e+00	 5.225000000000001e+00	 1.001159603666084e+01
1	 8.875000000000000e+00	 5.500000000000000e+00	 1.001972787645688e+01
1	 9.100000000000000e+00	 2.750000000000000e+00	 9.930124153454548e+00
1	 9.099999999999998e+00	 3.024999999999999e+00	 9.937207620859679e+00
1	 9.100000000000000e+00	 3.300000000000001e+00	 9.944547901598135e+00
1	 9.100000000000000e+00	 3.575000000000001e+00	 9.952144995669933e+00
1	 9.100000000000003e+00	 3.850000000000001e+00	 9.959998903075059e+00
1	 9.100000000000001e+00	 4.125000000000001e+00	 9.968109623813527e+00
1	 9.100000000000001e+00	 4.400000000000002e+00	 9.976477157885316e+00
1	 9.100000000000001e+00	 4.675000000000002e+00	 9.985101505290444e+00
1	 9.100000000000001e+00	 4.950000000000002e+00	 9.993982666028902e+00
1	 9.100000000000001e+00	 5.225000000000001e+00	 1.000312064010070e+01
1	 9.100000000000001e+00	 5.500000000000000e+00	 1.001251542750583e+01
1	 9.325000000000003e+00	 2.750000000000000e+00	 9.905797317419584e+00
1	 9.325000000000001e+00	 3.024999999999999e+00	 9.915335022798832e+00
1	 9.325000000000001e+00	 3.300000000000001e+00	 9.925045953049889e+00
1	 9.325000000000005e+00	 3.575000000000001e+00	 9.934930108172729e+00
1	 9.325000000000001e+00	 3.850000000000001e+00	 9.944987488167367e+00
1	 9.325000000000003e+00	 4.125000000000001e+00	 9.955218093033801e+00
1	 9.325000000000003e+00	 4.400000000000002e+00	 9.965621922772026e+00
1	 9.325000000000001e+00	 4.675000000000002e+00	 9.976198977382056e+00
1	 9.325000000000003e+00	 4.950000000000002e+00	 9.986949256863868e+00
1	 9.325000000000001e+00	 5.225000000000002e+00	 9.997872761217476e+00
1	 9.325000000000003e+00	 5.500000000000000e+00	 1.000896949044289e+01
1	 9.550000000000001e+00	 2.750000000000000e+00	 9.880747051160840e+00
1	 9.550000000000001e+00	 3.025000000000000e+00	 9.893177988725412e+00
1	 9.550000000000001e+00	 3.300000000000001e+00	 9.905698562700231e+00
1	 9.550000000000002e+00	 3.575000000000001e+00	 9.918308773085315e+00
1	 9.550000000000001e+00	 3.850000000000001e+00	 9.931008619880652e+00
1	 9.550000000000001e+00	 4.125000000000002e+00	 9.943798103086246e+00
1	 9.550000000000002e+00	 4.400000000000001e+00	 9.956677222702098e+00
1	 9.550000000000001e+00	 4.675000000000002e+00	 9.969645978728202e+00
1	 9.550000000000001e+00	 4.950000000000003e+00	 9.982704371164571e+00
1	 9.550000000000001e+00	 5.225000000000001e+00	 9.995852400011190e+00
1	 9.550000000000001e+00	 5.500000000000000e+00	 1.000909006526807e+01
1	 9.775000000000002e+00	 2.750000000000000e+00	 9.854973354678323e+00
1	 9.775000000000004e+00	 3.025000000000001e+00	 9.870736518639397e+00
1	 9.775000000000004e+00	 3.300000000000001e+00	 9.886505730549187e+00
1	 9.775000000000002e+00	 3.575000000000001e+00	 9.902280990407693e+00
1	 9.775000000000002e+00	 3.850000000000001e+00	 9.918062298214913e+00
1	 9.775000000000002e+00	 4.125000000000002e+00	 9.933849653970862e+00
1	 9.775000000000002e+00	 4.400000000000001e+00	 9.949643057675527e+00
1	 9.775000000000002e+00	 4.675000000000002e+00	 9.965442509328909e+00
1	 9.775000000000002e+00	 4.950000000000002e+00	 9.981248008930997e+00
1	 9.775000000000002e+00	 5.225000000000002e+00	 9.997059556481830e+00
1	 9.775000000000002e+00	 5.499999999999999e+00	 1.001287715198136e+01
1	 1.000000000000000e+01	 2.750000000000000e+00	 9.828476227972027e+00
1	 9.999999999999998e+00	 3.025000000000000e+00	 9.848010612540794e+00
1	 1.000000000000000e+01	 3.300000000000001e+00	 9.867467456596739e+00
1	 1.000000000000000e+01	 3.575000000000001e+00	 9.886846760139857e+00
1	 1.000000000000000e+01	 3.850000000000001e+00	 9.906148523170167e+00
1	 1.000000000000000e+01	 4.125000000000001e+00	 9.925372745687639e+00
1	 1.000000000000000e+01	 4.400000000000002e+00	 9.944519427692310e+00
1	 1.000000000000000e+01	 4.675000000000002e+00	 9.963588569184148e+00
1	 1.000000000000000e+01	 4.950000000000002e+00	 9.982580170163169e+00
1	 1.000000000000000e+01	 5.225000000000001e+00	 1.000149423062937e+01
1	 1.000000000000000e+01	 5.500000000000000e+00	 1.002033075058275e+01
2	 5.500000000000000e+00	 5.500000000000000e+00	 1.022555124786324e+01
2	 5.500000000000000e+00	 5.725000000000000e+00	 1.021009080348718e+01
2	 5.500000000000000e+00	 5.950000000000000e+00	 1.019429078659830e+01
2	 5.500000000000000e+00	 6.175000000000000e+00	 1.017815119719657e+01
2	 5.500000000000001e+00	 6.400000000000000e+00	 1.016167203528205e+01
2	 5.500000000000000e+00	 6.625000000000000e+00	 1.014485330085470e+01
2	 5.500000000000000e+00	 6.850000000000000e+00	 1.012769499391453e+01
2	 5.500000000000000e+00	 7.075000000000000e+00	 1.011019711446154e+01
2	 5.500000000000000e+00	 7.300000000000001e+00	 1.009235966249573e+01
2	 5.500000000000000e+00	 7.525000000000000e+00	 1.007418263801710e+01
2	 5.500000000000000e+00	 7.750000000000000e+00	 1.005566604102564e+01
2	 5.725000000000000e+00	 5.500000000000000e+00	 1.020455062188034e+01
2	 5.725000000000001e+00	 5.725000000000001e+00	 1.019090168639487e+01
2	 5.724999999999999e+00	 5.949999999999998e+00	 1.017693388298119e+01
2	 5.725000000000001e+00	 6.175000000000000e+00	 1.016264721163931e+01
2	 5.724999999999999e+00	 6.399999999999999e+00	 1.014804167236924e+01
2	 5.725000000000001e+00	 6.625000000000000e+00	 1.013311726517094e+01
2	 5.725000000000000e+00	 6.849999999999999e+00	 1.011787399004444e+01
2	 5.725000000000001e+00	 7.075000000000000e+00	 1.010231184698974e+01
2	 5.725000000000001e+00	 7.300000000000001e+00	 1.008643083600684e+01
2	 5.725000000000000e+00	 7.525000000000000e+00	 1.007023095709572e+01
2	 5.725000000000001e+00	 7.750000000000001e+00	 1.005371221025640e+01
2	 5.950000000000000e+00	 5.500000000000000e+00	 1.018483374564101e+01
2	 5.950000000000000e+00	 5.725000000000001e+00	 1.017284154437948e+01
2	 5.949999999999998e+00	 5.949999999999998e+00	 1.016055117977436e+01
2	 5.950000000000000e+00	 6.174999999999999e+00	 1.014796265182564e+01
2	 5.950000000000001e+00	 6.400000000000000e+00	 1.013507596053333e+01
2	 5.950000000000001e+00	 6.625000000000001e+00	 1.012189110589742e+01
2	 5.950000000000000e+00	 6.849999999999998e+00	 1.010840808791795e+01
2	 5.950000000000001e+00	 7.075000000000001e+00	 1.009462690659487e+01
2	 5.950000000000000e+00	 7.299999999999999e+00	 1.008054756192820e+01
2	 5.950000000000000e+00	 7.524999999999999e+00	 1.006617005391795e+01
2	 5.950000000000000e+00	 7.750000000000000e+00	 1.005149438256410e+01
2	 6.175000000000000e+00	 5.500000000000000e+00	 1.016640061914530e+01
2	 6.175000000000000e+00	 5.725000000000001e+00	 1.015591037744102e+01
2	 6.175000000000001e+00	 5.950000000000001e+00	 1.014514267697778e+01
2	 6.175000000000001e+00	 6.175000000000000e+00	 1.013409751775556e+01
2	 6.175000000000001e+00	 6.399999999999999e+00	 1.012277489977435e+01
2	 6.175000000000001e+00	 6.625000000000001e+00	 1.011117482303420e+01
2	 6.175000000000000e+00	 6.850000000000001e+00	 1.009929728753504e+01
2	 6.175000000000002e+00	 7.075000000000000e+00	 1.008714229327692e+01
2	 6.174999999999999e+00	 7.299999999999998e+00	 1.007470984025983e+01
2	 6.175000000000001e+00	 7.525000000000001e+00	 1.006199992848376e+01
2	 6.175000000000002e+00	 7.750000000000001e+00	 1.004901255794873e+01
2	 6.400000000000000e+00	 5.500000000000001e+00	 1.014925124239315e+01
2	 6.399999999999999e+00	 5.724999999999998e+00	 1.014010818557948e+01
2	 6.400000000000001e+00	 5.950000000000000e+00	 1.013070837459145e+01
2	 6.399999999999999e+00	 6.175000000000001e+00	 1.012105180942906e+01
2	 6.399999999999999e+00	 6.399999999999999e+00	 1.011113849009230e+01
2	 6.400000000000001e+00	 6.625000000000000e+00	 1.010096841658119e+01
2	 6.400000000000000e+00	 6.850000000000001e+00	 1.009054158889573e+01
2	 6.400000000000000e+00	 7.075000000000001e+00	 1.007985800703590e+01
2	 6.399999999999999e+00	 7.299999999999998e+00	 1.006891767100171e+01
2	 6.399999999999999e+00	 7.524999999999999e+00	 1.005772058079317e+01
2	 6.400000000000001e+00	 7.750000000000001e+00	 1.004626673641026e+01
2	 6.625000000000000e+00	 5.500000000000000e+00	 1.013338561538460e+01
2	 6.625000000000001e+00	 5.725000000000001e+00	 1.012543496879487e+01
2	 6.625000000000001e+00	 5.950000000000002e+00	 1.011724827261538e+01
2	 6.625000000000000e+00	 6.175000000000001e+00	 1.010882552684615e+01
2	 6.625000000000000e+00	 6.399999999999999e+00	 1.010016673148717e+01
2	 6.625000000000000e+00	 6.625000000000000e+00	 1.009127188653846e+01
2	 6.624999999999999e+00	 6.850000000000000e+00	 1.008214099200000e+01
2	 6.625000000000000e+00	 7.075000000000000e+00	 1.007277404787180e+01
2	 6.624999999999999e+00	 7.300000000000000e+00	 1.006317105415385e+01
2	 6.625000000000000e+00	 7.524999999999999e+00	 1.005333201084616e+01
2	 6.625000000000000e+00	 7.750000000000000e+00	 1.004325691794872e+01
2	 6.850000000000000e+00	 5.500000000000000e+00	 1.011880373811965e+01
2	 6.849999999999999e+00	 5.724999999999999e+00	 1.011189072708718e+01
2	 6.849999999999999e+00	 5.950000000000000e+00	 1.010476237104958e+01
2	 6.850000000000000e+00	 6.175000000000000e+00	 1.009741867000683e+01
2	 6.850000000000000e+00	 6.400000000000000e+00	 1.008985962395898e+01
2	 6.849999999999999e+00	 6.624999999999998e+00	 1.008208523290598e+01
2	 6.849999999999998e+00	 6.850000000000000e+00	 1.007409549684786e+01
2	 6.849999999999999e+00	 7.074999999999999e+00	 1.006589041578462e+01
2	 6.849999999999999e+00	 7.299999999999999e+00	 1.005746998971625e+01
2	 6.850000000000000e+00	 7.524999999999999e+00	 1.004883421864274e+01
2	 6.850000000000001e+00	 7.750000000000001e+00	 1.003998310256411e+01
2	 7.075000000000000e+00	 5.500000000000000e+00	 1.010550561059828e+01
2	 7.074999999999999e+00	 5.725000000000000e+00	 1.009947546045641e+01
2	 7.075000000000000e+00	 5.950000000000001e+00	 1.009325066989401e+01
2	 7.075000000000000e+00	 6.175000000000001e+00	 1.008683123891112e+01
2	 7.075000000000000e+00	 6.400000000000000e+00	 1.008021716750769e+01
2	 7.075000000000001e+00	 6.625000000000000e+00	 1.007340845568376e+01
2	 7.074999999999999e+00	 6.849999999999999e+00	 1.006640510343932e+01
2	 7.075000000000001e+00	 7.075000000000000e+00	 1.005920711077436e+01
2	 7.074999999999999e+00	 7.300000000000000e+00	 1.005181447768889e+01
2	 7.074999999999999e+00	 7.525000000000000e+00	 1.004422720418291e+01
2	 7.075000000000000e+00	 7.750000000000000e+00	 1.003644529025642e+01
2	 7.300000000000001e+00	 5.500000000000000e+00	 1.009349123282051e+01
2	 7.299999999999998e+00	 5.725000000000000e+00	 1.008818916890256e+01
2	 7.300000000000000e+00	 5.949999999999999e+00	 1.008271316914870e+01
2	 7.299999999999999e+00	 6.174999999999999e+00	 1.007706323355897e+01
2	 7.299999999999998e+00	 6.399999999999999e+00	 1.007123936213333e+01
2	 7.300000000000000e+00	 6.624999999999999e+00	 1.006524155487180e+01
2	 7.299999999999998e+00	 6.849999999999999e+00	 1.005906981177435e+01
2	 7.299999999999999e+00	 7.075000000000000e+00	 1.005272413284102e+01
2	 7.299999999999999e+00	 7.300000000000000e+00	 1.004620451807179e+01
2	 7.299999999999999e+00	 7.524999999999999e+00	 1.003951096746667e+01
2	 7.300000000000001e+00	 7.750000000000001e+00	 1.003264348102565e+01
2	 7.525000000000000e+00	 5.500000000000000e+00	 1.008276060478632e+01
2	 7.525000000000000e+00	 5.725000000000000e+00	 1.007803185242564e+01
2	 7.524999999999999e+00	 5.950000000000000e+00	 1.007314986881367e+01
2	 7.524999999999999e+00	 6.175000000000001e+00	 1.006811465395043e+01
2	 7.525000000000000e+00	 6.400000000000000e+00	 1.006292620783589e+01
2	 7.524999999999999e+00	 6.625000000000000e+00	 1.005758453047008e+01
2	 7.525000000000000e+00	 6.850000000000001e+00	 1.005208962185299e+01
2	 7.525000000000000e+00	 7.075000000000001e+00	 1.004644148198462e+01
2	 7.524999999999999e+00	 7.299999999999999e+00	 1.004064011086496e+01
2	 7.524999999999999e+00	 7.524999999999999e+00	 1.003468550849402e+01
2	 7.525000000000000e+00	 7.750000000000000e+00	 1.002857767487180e+01
2	 7.750000000000000e+00	 5.500000000000000e+00	 1.007331372649572e+01
2	 7.750000000000001e+00	 5.725000000000001e+00	 1.006900351102564e+01
2	 7.750000000000000e+00	 5.950000000000001e+00	 1.006456076888889e+01
2	 7.750000000000000e+00	 6.175000000000000e+00	 1.005998550008547e+01
2	 7.750000000000001e+00	 6.400000000000001e+00	 1.005527770461538e+01
2	 7.750000000000000e+00	 6.625000000000000e+00	 1.005043738247863e+01
2	 7.750000000000000e+00	 6.850000000000000e+00	 1.004546453367521e+01
2	 7.750000000000001e+00	 7.075000000000000e+00	 1.004035915820513e+01
2	 7.750000000000002e+00	 7.300000000000001e+00	 1.003512125606837e+01
2	 7.750000000000000e+00	 7.525000000000000e+00	 1.002975082726496e+01
2	 7.750000000000000e+00	 7.750000000000000e+00	 1.002424787179487e+01
2	 5.500000000000000e+00	 7.750000000000000e+00	 1.005566604102564e+01
2	 5.500000000000000e+00	 7.975000000000001e+00	 1.005156890174359e+01
2	 5.500000000000000e+00	 8.200000000000001e+00	 1.004655805210257e+01
2	 5.500000000000000e+00	 8.425000000000001e+00	 1.004063349210257e+01
2	 5.500000000000000e+00	 8.650000000000000e+00	 1.003379522174360e+01
2	 5.500000000000000e+00	 8.875000000000000e+00	 1.002604324102563e+01
2	 5.500000000000000e+00	 9.100000000000001e+00	 1.001737754994872e+01
2	 5.500000000000000e+00	 9.325000000000003e+00	 1.000779814851282e+01
2	 5.500000000000000e+00	 9.550000000000001e+00	 9.997305036717961e+00
2	 5.499999999999999e+00	 9.775000000000002e+00	 9.985898214564116e+00
2	 5.500000000000000e+00	 1.000000000000000e+01	 9.973577682051289e+00
2	 5.725000000000001e+00	 7.750000000000001e+00	 1.005371221025640e+01
2	 5.724999999999999e+00	 7.975000000000000e+00	 1.005006630622735e+01
2	 5.725000000000001e+00	 8.200000000000001e+00	 1.004554211010598e+01
2	 5.725000000000000e+00	 8.425000000000001e+00	 1.004013962189231e+01
2	 5.725000000000000e+00	 8.650000000000004e+00	 1.003385884158632e+01
2	 5.724999999999999e+00	 8.874999999999998e+00	 1.002669976918804e+01
2	 5.725000000000001e+00	 9.100000000000001e+00	 1.001866240469743e+01
2	 5.725000000000000e+00	 9.325000000000003e+00	 1.000974674811453e+01
2	 5.725000000000001e+00	 9.550000000000004e+00	 9.999952799439326e+00
2	 5.725000000000001e+00	 9.775000000000004e+00	 9.989280558671791e+00
2	 5.725000000000000e+00	 1.000000000000000e+01	 9.977730025811969e+00
2	 5.950000000000000e+00	 7.750000000000000e+00	 1.005149438256410e+01
2	 5.950000000000001e+00	 7.974999999999999e+00	 1.004826313382223e+01
2	 5.950000000000001e+00	 8.200000000000003e+00	 1.004418901125470e+01
2	 5.950000000000001e+00	 8.425000000000001e+00	 1.003927201486154e+01
2	 5.950000000000000e+00	 8.650000000000000e+00	 1.003351214464274e+01
2	 5.950000000000001e+00	 8.875000000000002e+00	 1.002690940059830e+01
2	 5.950000000000001e+00	 9.100000000000001e+00	 1.001946378272820e+01
2	 5.949999999999999e+00	 9.325000000000001e+00	 1.001117529103248e+01
2	 5.950000000000000e+00	 9.550000000000001e+00	 1.000204392551111e+01
2	 5.950000000000001e+00	 9.775000000000004e+00	 9.992069686164111e+00
2	 5.950000000000000e+00	 1.000000000000000e+01	 9.981252572991460e+00
2	 6.175000000000002e+00	 7.750000000000001e+00	 1.004901255794873e+01
2	 6.175000000000000e+00	 7.974999999999999e+00	 1.004615938452820e+01
2	 6.175000000000001e+00	 8.200000000000001e+00	 1.004249875554872e+01
2	 6.175000000000002e+00	 8.425000000000004e+00	 1.003803067101025e+01
2	 6.175000000000001e+00	 8.650000000000004e+00	 1.003275513091282e+01
2	 6.175000000000001e+00	 8.875000000000004e+00	 1.002667213525641e+01
2	 6.175000000000001e+00	 9.100000000000001e+00	 1.001978168404102e+01
2	 6.175000000000001e+00	 9.325000000000005e+00	 1.001208377726667e+01
2	 6.175000000000000e+00	 9.550000000000004e+00	 1.000357841493334e+01
2	 6.175000000000001e+00	 9.775000000000002e+00	 9.994265597041021e+00
2	 6.175000000000000e+00	 1.000000000000000e+01	 9.984145323589733e+00
2	 6.400000000000001e+00	 7.750000000000001e+00	 1.004626673641026e+01
2	 6.400000000000001e+00	 7.975000000000001e+00	 1.004375505834530e+01
2	 6.400000000000001e+00	 8.200000000000001e+00	 1.004047134298803e+01
2	 6.400000000000000e+00	 8.425000000000002e+00	 1.003641559033846e+01
2	 6.400000000000001e+00	 8.650000000000004e+00	 1.003158780039658e+01
2	 6.400000000000001e+00	 8.875000000000002e+00	 1.002598797316239e+01
2	 6.399999999999999e+00	 9.100000000000001e+00	 1.001961610863591e+01
2	 6.400000000000001e+00	 9.325000000000001e+00	 1.001247220681710e+01
2	 6.400000000000000e+00	 9.550000000000001e+00	 1.000455626770598e+01
2	 6.400000000000000e+00	 9.775000000000004e+00	 9.995868291302568e+00
2	 6.400000000000000e+00	 1.000000000000000e+01	 9.986408277606849e+00
2	 6.625000000000000e+00	 7.750000000000000e+00	 1.004325691794872e+01
2	 6.625000000000001e+00	 7.975000000000001e+00	 1.004105015527350e+01
2	 6.624999999999998e+00	 8.199999999999999e+00	 1.003810677357265e+01
2	 6.625000000000000e+00	 8.425000000000001e+00	 1.003442677284615e+01
2	 6.624999999999998e+00	 8.650000000000000e+00	 1.003001015309402e+01
2	 6.625000000000001e+00	 8.875000000000000e+00	 1.002485691431624e+01
2	 6.624999999999999e+00	 9.100000000000000e+00	 1.001896705651282e+01
2	 6.625000000000000e+00	 9.325000000000003e+00	 1.001234057968376e+01
2	 6.625000000000000e+00	 9.550000000000001e+00	 1.000497748382906e+01
2	 6.625000000000000e+00	 9.775000000000000e+00	 9.996877768948719e+00
2	 6.625000000000000e+00	 1.000000000000000e+01	 9.988041435042735e+00
2	 6.850000000000001e+00	 7.750000000000001e+00	 1.003998310256411e+01
2	 6.850000000000000e+00	 7.975000000000000e+00	 1.003804467531283e+01
2	 6.850000000000001e+00	 8.200000000000003e+00	 1.003540504730256e+01
2	 6.850000000000001e+00	 8.425000000000002e+00	 1.003206421853334e+01
2	 6.850000000000000e+00	 8.650000000000002e+00	 1.002802218900513e+01
2	 6.850000000000001e+00	 8.875000000000004e+00	 1.002327895871795e+01
2	 6.850000000000001e+00	 9.100000000000003e+00	 1.001783452767180e+01
2	 6.850000000000001e+00	 9.325000000000003e+00	 1.001168889586667e+01
2	 6.850000000000001e+00	 9.550000000000002e+00	 1.000484206330256e+01
2	 6.850000000000000e+00	 9.775000000000004e+00	 9.997294029979489e+00
2	 6.850000000000000e+00	 1.000000000000000e+01	 9.989044795897428e+00
2	 7.075000000000000e+00	 7.750000000000000e+00	 1.003644529025642e+01
2	 7.074999999999998e+00	 7.975000000000000e+00	 1.003473861846325e+01
2	 7.075000000000000e+00	 8.200000000000001e+00	 1.003236616417778e+01
2	 7.075000000000000e+00	 8.425000000000001e+00	 1.002932792740000e+01
2	 7.075000000000002e+00	 8.650000000000004e+00	 1.002562390812991e+01
2	 7.075000000000001e+00	 8.875000000000000e+00	 1.002125410636753e+01
2	 7.075000000000001e+00	 9.100000000000001e+00	 1.001621852211283e+01
2	 7.074999999999999e+00	 9.325000000000001e+00	 1.001051715536581e+01
2	 7.074999999999999e+00	 9.550000000000001e+00	 1.000415000612650e+01
2	 7.074999999999999e+00	 9.775000000000002e+00	 9.997117074394881e+00
2	 7.075000000000000e+00	 1.000000000000000e+01	 9.989418360170925e+00
2	 7.300000000000001e+00	 7.750000000000001e+00	 1.003264348102565e+01
2	 7.300000000000000e+00	 7.975000000000000e+00	 1.003113198472479e+01
2	 7.300000000000001e+00	 8.200000000000001e+00	 1.002899012419830e+01
2	 7.300000000000000e+00	 8.425000000000001e+00	 1.002621789944616e+01
2	 7.300000000000002e+00	 8.650000000000002e+00	 1.002281531046838e+01
2	 7.300000000000001e+00	 8.875000000000002e+00	 1.001878235726496e+01
2	 7.299999999999999e+00	 9.100000000000000e+00	 1.001411903983590e+01
2	 7.299999999999999e+00	 9.325000000000001e+00	 1.000882535818120e+01
2	 7.300000000000001e+00	 9.550000000000002e+00	 1.000290131230085e+01
2	 7.300000000000001e+00	 9.775000000000002e+00	 9.996346902194864e+00
2	 7.300000000000001e+00	 1.000000000000000e+01	 9.989162127863244e+00
2	 7.525000000000000e+00	 7.750000000000000e+00	 1.002857767487180e+01
2	 7.525000000000000e+00	 7.975000000000001e+00	 1.002722477409744e+01
2	 7.524999999999999e+00	 8.199999999999999e+00	 1.002527692736410e+01
2	 7.525000000000000e+00	 8.425000000000002e+00	 1.002273413467180e+01
2	 7.524999999999999e+00	 8.649999999999999e+00	 1.001959639602051e+01
2	 7.525000000000000e+00	 8.875000000000002e+00	 1.001586371141026e+01
2	 7.525000000000001e+00	 9.100000000000003e+00	 1.001153608084103e+01
2	 7.525000000000000e+00	 9.325000000000003e+00	 1.000661350431283e+01
2	 7.524999999999999e+00	 9.550000000000001e+00	 1.000109598182563e+01
2	 7.524999999999999e+00	 9.775000000000002e+00	 9.994983513379491e+00
2	 7.525000000000000e+00	 1.000000000000000e+01	 9.988276098974353e+00
2	 7.750000000000000e+00	 7.750000000000000e+00	 1.002424787179487e+01
2	 7.750000000000001e+00	 7.975000000000001e+00	 1.002301698658120e+01
2	 7.750000000000000e+00	 8.200000000000001e+00	 1.002122657367522e+01
2	 7.750000000000000e+00	 8.425000000000001e+00	 1.001887663307692e+01
2	 7.750000000000000e+00	 8.650000000000000e+00	 1.001596716478633e+01
2	 7.750000000000000e+00	 8.875000000000000e+00	 1.001249816880342e+01
2	 7.750000000000000e+00	 9.100000000000001e+00	 1.000846964512820e+01
2	 7.750000000000001e+00	 9.325000000000005e+00	 1.000388159376068e+01
2	 7.750000000000000e+00	 9.550000000000001e+00	 9.998734014700863e+00
2	 7.750000000000000e+00	 9.775000000000002e+00	 9.993026907948735e+00
2	 7.750000000000000e+00	 1.000000000000000e+01	 9.986760273504274e+00
2	 7.750000000000000e+00	 5.500000000000000e+00	 1.007331372649572e+01
2	 7.750000000000001e+00	 5.725000000000001e+00	 1.006900351102564e+01
2	 7.750000000000000e+00	 5.950000000000001e+00	 1.006456076888889e+01
2	 7.750000000000000e+00	 6.175000000000000e+00	 1.005998550008547e+01
2	 7.750000000000001e+00	 6.400000000000001e+00	 1.005527770461538e+01
2	 7.750000000000000e+00	 6.625000000000000e+00	 1.005043738247863e+01
2	 7.750000000000000e+00	 6.850000000000000e+00	 1.004546453367521e+01
2	 7.750000000000001e+00	 7.075000000000000e+00	 1.004035915820513e+01
2	 7.750000000000002e+00	 7.300000000000001e+00	 1.003512125606837e+01
2	 7.750000000000000e+00	 7.525000000000000e+00	 1.002975082726496e+01
2	 7.750000000000000e+00	 7.750000000000000e+00	 1.002424787179487e+01
2	 7.975000000000001e+00	 5.500000000000000e+00	 1.006243819418804e+01
2	 7.975000000000001e+00	 5.725000000000000e+00	 1.005865610901708e+01
2	 7.975000000000000e+00	 5.950000000000000e+00	 1.005477875148717e+01
2	 7.975000000000001e+00	 6.175000000000001e+00	 1.005080612159828e+01
2	 7.974999999999999e+00	 6.399999999999999e+00	 1.004673821935042e+01
2	 7.975000000000001e+00	 6.625000000000001e+00	 1.004257504474359e+01
2	 7.974999999999999e+00	 6.850000000000001e+00	 1.003831659777778e+01
2	 7.974999999999999e+00	 7.074999999999997e+00	 1.003396287845299e+01
2	 7.975000000000001e+00	 7.300000000000001e+00	 1.002951388676923e+01
2	 7.975000000000001e+00	 7.525000000000000e+00	 1.002496962272650e+01
2	 7.975000000000000e+00	 7.750000000000000e+00	 1.002033008632479e+01
2	 8.200000000000001e+00	 5.500000000000000e+00	 1.005224939897436e+01
2	 8.200000000000001e+00	 5.725000000000001e+00	 1.004897212560684e+01
2	 8.200000000000001e+00	 5.950000000000002e+00	 1.004563683418802e+01
2	 8.200000000000001e+00	 6.174999999999999e+00	 1.004224352471795e+01
2	 8.200000000000001e+00	 6.400000000000000e+00	 1.003879219719658e+01
2	 8.200000000000001e+00	 6.625000000000000e+00	 1.003528285162393e+01
2	 8.200000000000001e+00	 6.850000000000000e+00	 1.003171548800000e+01
2	 8.200000000000003e+00	 7.075000000000000e+00	 1.002809010632479e+01
2	 8.199999999999999e+00	 7.299999999999999e+00	 1.002440670659829e+01
2	 8.200000000000001e+00	 7.525000000000000e+00	 1.002066528882051e+01
2	 8.200000000000001e+00	 7.750000000000001e+00	 1.001686585299146e+01
2	 8.425000000000001e+00	 5.500000000000000e+00	 1.004274734085469e+01
2	 8.425000000000001e+00	 5.724999999999999e+00	 1.003995156079487e+01
2	 8.425000000000001e+00	 5.950000000000000e+00	 1.003713501699145e+01
2	 8.425000000000001e+00	 6.175000000000001e+00	 1.003429770944444e+01
2	 8.425000000000001e+00	 6.399999999999999e+00	 1.003143963815385e+01
2	 8.425000000000001e+00	 6.624999999999999e+00	 1.002856080311966e+01
2	 8.425000000000001e+00	 6.850000000000000e+00	 1.002566120434188e+01
2	 8.425000000000002e+00	 7.075000000000000e+00	 1.002274084182051e+01
2	 8.425000000000002e+00	 7.300000000000000e+00	 1.001979971555555e+01
2	 8.425000000000001e+00	 7.524999999999999e+00	 1.001683782554701e+01
2	 8.425000000000002e+00	 7.750000000000001e+00	 1.001385517179488e+01
2	 8.650000000000000e+00	 5.500000000000000e+00	 1.003393201982906e+01
2	 8.650000000000002e+00	 5.725000000000001e+00	 1.003159441458119e+01
2	 8.650000000000000e+00	 5.950000000000001e+00	 1.002927329989745e+01
2	 8.649999999999999e+00	 6.174999999999997e+00	 1.002696867577778e+01
2	 8.650000000000004e+00	 6.400000000000002e+00	 1.002468054222222e+01
2	 8.650000000000002e+00	 6.625000000000000e+00	 1.002240889923077e+01
2	 8.650000000000000e+00	 6.850000000000001e+00	 1.002015374680342e+01
2	 8.650000000000000e+00	 7.074999999999999e+00	 1.001791508494017e+01
2	 8.650000000000002e+00	 7.300000000000001e+00	 1.001569291364102e+01
2	 8.650000000000002e+00	 7.525000000000001e+00	 1.001348723290598e+01
2	 8.650000000000000e+00	 7.750000000000000e+00	 1.001129804273504e+01
2	 8.875000000000000e+00	 5.500000000000000e+00	 1.002580343589744e+01
2	 8.874999999999998e+00	 5.724999999999999e+00	 1.002390068696581e+01
2	 8.875000000000002e+00	 5.950000000000000e+00	 1.002205168290599e+01
2	 8.875000000000004e+00	 6.175000000000001e+00	 1.002025642371795e+01
2	 8.875000000000002e+00	 6.400000000000000e+00	 1.001851490940171e+01
2	 8.875000000000000e+00	 6.625000000000001e+00	 1.001682713995726e+01
2	 8.875000000000002e+00	 6.850000000000001e+00	 1.001519311538461e+01
2	 8.875000000000002e+00	 7.075000000000000e+00	 1.001361283568376e+01
2	 8.875000000000000e+00	 7.300000000000000e+00	 1.001208630085470e+01
2	 8.875000000000000e+00	 7.525000000000000e+00	 1.001061351089744e+01
2	 8.875000000000000e+00	 7.750000000000000e+00	 1.000919446581196e+01
2	 9.100000000000001e+00	 5.500000000000000e+00	 1.001836158905983e+01
2	 9.100000000000001e+00	 5.725000000000001e+00	 1.001687037794872e+01
2	 9.100000000000001e+00	 5.950000000000000e+00	 1.001547016601710e+01
2	 9.100000000000003e+00	 6.175000000000001e+00	 1.001416095326496e+01
2	 9.100000000000000e+00	 6.399999999999999e+00	 1.001294273969230e+01
2	 9.100000000000003e+00	 6.625000000000000e+00	 1.001181552529914e+01
2	 9.100000000000005e+00	 6.850000000000001e+00	 1.001077931008547e+01
2	 9.100000000000001e+00	 7.075000000000001e+00	 1.000983409405129e+01
2	 9.100000000000000e+00	 7.300000000000000e+00	 1.000897987719658e+01
2	 9.100000000000001e+00	 7.525000000000001e+00	 1.000821665952137e+01
2	 9.100000000000000e+00	 7.749999999999999e+00	 1.000754444102564e+01
2	 9.325000000000003e+00	 5.500000000000000e+00	 1.001160647931625e+01
2	 9.325000000000001e+00	 5.724999999999999e+00	 1.001050348752992e+01
2	 9.325000000000003e+00	 5.950000000000000e+00	 1.000952874923077e+01
2	 9.325000000000003e+00	 6.175000000000000e+00	 1.000868226441881e+01
2	 9.325000000000001e+00	 6.400000000000001e+00	 1.000796403309401e+01
2	 9.325000000000001e+00	 6.625000000000001e+00	 1.000737405525641e+01
2	 9.325000000000001e+00	 6.850000000000001e+00	 1.000691233090599e+01
2	 9.325000000000001e+00	 7.074999999999999e+00	 1.000657886004273e+01
2	 9.325000000000003e+00	 7.300000000000001e+00	 1.000637364266666e+01
2	 9.325000000000003e+00	 7.525000000000000e+00	 1.000629667877778e+01
2	 9.325000000000003e+00	 7.750000000000000e+00	 1.000634796837606e+01
2	 9.550000000000001e+00	 5.500000000000000e+00	 1.000553810666667e+01
2	 9.550000000000001e+00	 5.725000000000001e+00	 1.000480001570940e+01
2	 9.550000000000001e+00	 5.950000000000000e+00	 1.000422743254702e+01
2	 9.550000000000002e+00	 6.175000000000001e+00	 1.000382035717949e+01
2	 9.549999999999999e+00	 6.399999999999998e+00	 1.000357878960684e+01
2	 9.550000000000001e+00	 6.625000000000000e+00	 1.000350272982906e+01
2	 9.550000000000001e+00	 6.850000000000000e+00	 1.000359217784616e+01
2	 9.550000000000002e+00	 7.075000000000000e+00	 1.000384713365812e+01
2	 9.550000000000002e+00	 7.300000000000001e+00	 1.000426759726495e+01
2	 9.550000000000002e+00	 7.525000000000000e+00	 1.000485356866667e+01
2	 9.550000000000001e+00	 7.750000000000000e+00	 1.000560504786325e+01
2	 9.775000000000002e+00	 5.499999999999999e+00	 1.000015647111111e+01
2	 9.775000000000002e+00	 5.725000000000001e+00	 9.999759962487179e+00
2	 9.775000000000002e+00	 5.950000000000000e+00	 9.999566215965821e+00
2	 9.775000000000002e+00	 6.175000000000000e+00	 9.999575231547016e+00
2	 9.775000000000004e+00	 6.400000000000001e+00	 9.999787009230776e+00
2	 9.775000000000002e+00	 6.625000000000001e+00	 1.000020154901710e+01
2	 9.775000000000002e+00	 6.850000000000001e+00	 1.000081885090598e+01
2	 9.775000000000002e+00	 7.075000000000000e+00	 1.000163891489744e+01
2	 9.775000000000002e+00	 7.299999999999999e+00	 1.000266174099145e+01
2	 9.775000000000002e+00	 7.524999999999999e+00	 1.000388732918803e+01
2	 9.775000000000002e+00	 7.750000000000000e+00	 1.000531567948718e+01
2	 1.000000000000000e+01	 5.500000000000000e+00	 9.995461572649578e+00
2	 1.000000000000000e+01	 5.725000000000000e+00	 9.995383327863250e+00
2	 1.000000000000000e+01	 5.950000000000000e+00	 9.995545099487188e+00
2	 1.000000000000000e+01	 6.175000000000000e+00	 9.995946887521367e+00
2	 1.000000000000000e+01	 6.400000000000000e+00	 9.996588691965810e+00
2	 1.000000000000000e+01	 6.625000000000000e+00	 9.997470512820515e+00
2	 1.000000000000000e+01	 6.850000000000000e+00	 9.998592350085472e+00
2	 1.000000000000000e+01	 7.075000000000000e+00	 9.999954203760684e+00
2	 1.000000000000000e+01	 7.300000000000001e+00	 1.000155607384615e+01
2	 1.000000000000000e+01	 7.525000000000000e+00	 1.000339796034188e+01
2	 1.000000000000000e+01	 7.750000000000000e+00	 1.000547986324786e+01
2	 7.750000000000000e+00	 7.750000000000000e+00	 1.002424787179487e+01
2	 7.750000000000001e+00	 7.975000000000001e+00	 1.002301698658120e+01
2	 7.750000000000000e+00	 8.200000000000001e+00	 1.002122657367522e+01
2	 7.750000000000000e+00	 8.425000000000001e+00	 1.001887663307692e+01
2	 7.750000000000000e+00	 8.650000000000000e+00	 1.001596716478633e+01
2	 7.750000000000000e+00	 8.875000000000000e+00	 1.001249816880342e+01
2	 7.750000000000000e+00	 9.100000000000001e+00	 1.000846964512820e+01
2	 7.750000000000001e+00	 9.325000000000005e+00	 1.000388159376068e+01
2	 7.750000000000000e+00	 9.550000000000001e+00	 9.998734014700863e+00
2	 7.750000000000000e+00	 9.775000000000002e+00	 9.993026907948735e+00
2	 7.750000000000000e+00	 1.000000000000000e+01	 9.986760273504274e+00
2	 7.975000000000000e+00	 7.750000000000000e+00	 1.002033008632479e+01
2	 7.975000000000001e+00	 7.975000000000001e+00	 1.001952107238462e+01
2	 7.975000000000001e+00	 8.200000000000003e+00	 1.001820527203419e+01
2	 7.975000000000001e+00	 8.425000000000001e+00	 1.001638268527351e+01
2	 7.975000000000000e+00	 8.650000000000000e+00	 1.001405331210256e+01
2	 7.975000000000001e+00	 8.875000000000000e+00	 1.001121715252137e+01
2	 7.975000000000001e+00	 9.100000000000001e+00	 1.000787420652991e+01
2	 7.975000000000001e+00	 9.325000000000001e+00	 1.000402447412822e+01
2	 7.975000000000000e+00	 9.550000000000001e+00	 9.999667955316236e+00
2	 7.975000000000000e+00	 9.775000000000000e+00	 9.994804650094025e+00
2	 7.975000000000001e+00	 9.999999999999998e+00	 9.989434558461539e+00
2	 8.200000000000001e+00	 7.750000000000001e+00	 1.001686585299146e+01
2	 8.199999999999999e+00	 7.975000000000001e+00	 1.001638595398291e+01
2	 8.200000000000001e+00	 8.200000000000001e+00	 1.001545200984616e+01
2	 8.199999999999999e+00	 8.424999999999999e+00	 1.001406402058120e+01
2	 8.200000000000001e+00	 8.650000000000004e+00	 1.001222198618805e+01
2	 8.199999999999999e+00	 8.875000000000002e+00	 1.000992590666668e+01
2	 8.200000000000001e+00	 9.100000000000001e+00	 1.000717578201710e+01
2	 8.200000000000001e+00	 9.325000000000001e+00	 1.000397161223933e+01
2	 8.199999999999999e+00	 9.550000000000002e+00	 1.000031339733334e+01
2	 8.200000000000001e+00	 9.775000000000002e+00	 9.996201137299158e+00
2	 8.200000000000001e+00	 1.000000000000000e+01	 9.991634832136757e+00
2	 8.425000000000002e+00	 7.750000000000001e+00	 1.001385517179488e+01
2	 8.425000000000001e+00	 7.975000000000001e+00	 1.001361163137607e+01
2	 8.425000000000001e+00	 8.200000000000001e+00	 1.001296678711111e+01
2	 8.425000000000001e+00	 8.425000000000002e+00	 1.001192063900000e+01
2	 8.424999999999999e+00	 8.650000000000000e+00	 1.001047318704274e+01
2	 8.425000000000001e+00	 8.875000000000002e+00	 1.000862443123932e+01
2	 8.424999999999999e+00	 9.100000000000001e+00	 1.000637437158974e+01
2	 8.425000000000002e+00	 9.325000000000005e+00	 1.000372300809402e+01
2	 8.425000000000001e+00	 9.550000000000002e+00	 1.000067034075214e+01
2	 8.425000000000001e+00	 9.775000000000002e+00	 9.997216369564114e+00
2	 8.425000000000001e+00	 1.000000000000000e+01	 9.993361094529913e+00
2	 8.650000000000000e+00	 7.750000000000000e+00	 1.001129804273504e+01
2	 8.650000000000000e+00	 7.975000000000001e+00	 1.001119810456411e+01
2	 8.650000000000000e+00	 8.200000000000001e+00	 1.001074960382906e+01
2	 8.650000000000000e+00	 8.425000000000001e+00	 1.000995254052992e+01
2	 8.650000000000002e+00	 8.650000000000002e+00	 1.000880691466667e+01
2	 8.650000000000002e+00	 8.875000000000005e+00	 1.000731272623932e+01
2	 8.650000000000002e+00	 9.100000000000001e+00	 1.000546997524786e+01
2	 8.650000000000002e+00	 9.325000000000003e+00	 1.000327866169231e+01
2	 8.650000000000002e+00	 9.550000000000002e+00	 1.000073878557266e+01
2	 8.650000000000000e+00	 9.775000000000002e+00	 9.997850346888905e+00
2	 8.650000000000000e+00	 1.000000000000000e+01	 9.994613345641039e+00
2	 8.875000000000000e+00	 7.750000000000000e+00	 1.000919446581196e+01
2	 8.875000000000002e+00	 7.975000000000001e+00	 1.000914537354701e+01
2	 8.875000000000000e+00	 8.200000000000001e+00	 1.000880046000001e+01
2	 8.875000000000002e+00	 8.425000000000001e+00	 1.000815972517094e+01
2	 8.875000000000002e+00	 8.650000000000002e+00	 1.000722316905984e+01
2	 8.875000000000000e+00	 8.875000000000000e+00	 1.000599079166666e+01
2	 8.875000000000002e+00	 9.100000000000003e+00	 1.000446259299146e+01
2	 8.875000000000002e+00	 9.325000000000001e+00	 1.000263857303419e+01
2	 8.875000000000000e+00	 9.550000000000002e+00	 1.000051873179488e+01
2	 8.875000000000000e+00	 9.775000000000000e+00	 9.998103069273514e+00
2	 8.875000000000000e+00	 1.000000000000000e+01	 9.995391585470086e+00
2	 9.100000000000000e+00	 7.749999999999999e+00	 1.000754444102564e+01
2	 9.099999999999998e+00	 7.974999999999999e+00	 1.000745343832479e+01
2	 9.100000000000000e+00	 8.200000000000001e+00	 1.000711935562394e+01
2	 9.100000000000000e+00	 8.424999999999999e+00	 1.000654219292308e+01
2	 9.100000000000003e+00	 8.650000000000000e+00	 1.000572195022223e+01
2	 9.100000000000001e+00	 8.875000000000000e+00	 1.000465862752136e+01
2	 9.100000000000001e+00	 9.100000000000001e+00	 1.000335222482051e+01
2	 9.100000000000001e+00	 9.325000000000003e+00	 1.000180274211965e+01
2	 9.100000000000001e+00	 9.550000000000002e+00	 1.000001017941882e+01
2	 9.100000000000001e+00	 9.775000000000002e+00	 9.997974536717948e+00
2	 9.100000000000001e+00	 1.000000000000000e+01	 9.995695814017100e+00
2	 9.325000000000003e+00	 7.750000000000000e+00	 1.000634796837606e+01
2	 9.325000000000001e+00	 7.974999999999999e+00	 1.000612229889744e+01
2	 9.325000000000001e+00	 8.200000000000001e+00	 1.000570629070085e+01
2	 9.325000000000005e+00	 8.425000000000002e+00	 1.000509994378633e+01
2	 9.325000000000001e+00	 8.650000000000000e+00	 1.000430325815385e+01
2	 9.325000000000003e+00	 8.875000000000002e+00	 1.000331623380343e+01
2	 9.325000000000003e+00	 9.100000000000001e+00	 1.000213887073505e+01
2	 9.325000000000001e+00	 9.325000000000001e+00	 1.000077116894872e+01
2	 9.325000000000003e+00	 9.550000000000001e+00	 9.999213128444438e+00
2	 9.325000000000001e+00	 9.775000000000000e+00	 9.997464749222225e+00
2	 9.325000000000003e+00	 1.000000000000000e+01	 9.995526031282051e+00
2	 9.550000000000001e+00	 7.750000000000000e+00	 1.000560504786325e+01
2	 9.550000000000001e+00	 7.975000000000001e+00	 1.000515195526497e+01
2	 9.550000000000001e+00	 8.199999999999999e+00	 1.000456126523077e+01
2	 9.550000000000002e+00	 8.425000000000001e+00	 1.000383297776069e+01
2	 9.550000000000001e+00	 8.649999999999999e+00	 1.000296709285470e+01
2	 9.550000000000001e+00	 8.875000000000002e+00	 1.000196361051282e+01
2	 9.550000000000002e+00	 9.100000000000001e+00	 1.000082253073504e+01
2	 9.550000000000001e+00	 9.325000000000001e+00	 9.999543853521370e+00
2	 9.550000000000001e+00	 9.550000000000001e+00	 9.998127578871792e+00
2	 9.550000000000001e+00	 9.775000000000000e+00	 9.996573706786338e+00
2	 9.550000000000001e+00	 1.000000000000000e+01	 9.994882237264971e+00
2	 9.775000000000002e+00	 7.750000000000000e+00	 1.000531567948718e+01
2	 9.775000000000004e+00	 7.975000000000001e+00	 1.000454240742735e+01
2	 9.775000000000004e+00	 8.200000000000001e+00	 1.000368427921368e+01
2	 9.775000000000002e+00	 8.425000000000001e+00	 1.000274129484616e+01
2	 9.775000000000002e+00	 8.650000000000000e+00	 1.000171345432479e+01
2	 9.775000000000002e+00	 8.875000000000002e+00	 1.000060075764957e+01
2	 9.775000000000002e+00	 9.100000000000001e+00	 9.999403204820524e+00
2	 9.775000000000002e+00	 9.325000000000001e+00	 9.998120795837616e+00
2	 9.775000000000002e+00	 9.550000000000002e+00	 9.996753530700872e+00
2	 9.775000000000002e+00	 9.775000000000002e+00	 9.995301409410246e+00
2	 9.775000000000002e+00	 1.000000000000000e+01	 9.993764431965809e+00
2	 1.000000000000000e+01	 7.750000000000000e+00	 1.000547986324786e+01
2	 9.999999999999998e+00	 7.975000000000001e+00	 1.000429365538461e+01
2	 1.000000000000000e+01	 8.200000000000001e+00	 1.000307533264957e+01
2	 1.000000000000000e+01	 8.425000000000001e+00	 1.000182489504274e+01
2	 1.000000000000000e+01	 8.650000000000000e+00	 1.000054234256410e+01
2	 1.000000000000000e+01	 8.875000000000000e+00	 9.999227675213682e+00
2	 1.000000000000000e+01	 9.100000000000001e+00	 9.997880892991462e+00
2	 1.000000000000000e+01	 9.325000000000003e+00	 9.996501995897443e+00
2	 1.000000000000000e+01	 9.550000000000001e+00	 9.995090983931631e+00
2	 1.000000000000000e+01	 9.775000000000002e+00	 9.993647857094023e+00
2	 1.000000000000000e+01	 1.000000000000000e+01	 9.992172615384614e+00
3	 0.000000000000000e+00	 5.500000000000000e+00	 9.496057549339547e+00
3	 0.000000000000000e+00	 5.725000000000000e+00	 9.529313105238540e+00
3	 0.000000000000000e+00	 5.950000000000000e+00	 9.565541811599068e+00
3	 0.000000000000000e+00	 6.175000000000000e+00	 9.604743668421136e+00
3	 0.000000000000000e+00	 6.400000000000000e+00	 9.646918675704732e+00
3	 0.000000000000000e+00	 6.625000000000000e+00	 9.692066833449886e+00
3	 0.000000000000000e+00	 6.850000000000000e+00	 9.740188141656564e+00
3	 0.000000000000000e+00	 7.075000000000000e+00	 9.791282600324784e+00
3	 0.000000000000000e+00	 7.300000000000001e+00	 9.845350209454553e+00
3	 0.000000000000000e+00	 7.525000000000000e+00	 9.902390969045848e+00
3	 0.000000000000000e+00	 7.750000000000000e+00	 9.962404879098681e+00
3	 2.750000000000000e-01	 5.500000000000000e+00	 9.559344096239313e+00
3	 2.750000000000000e-01	 5.725000000000001e+00	 9.587053737641108e+00
3	 2.749999999999999e-01	 5.949999999999998e+00	 9.617211402803735e+00
3	 2.750000000000000e-01	 6.175000000000000e+00	 9.649817091727201e+00
3	 2.750000000000000e-01	 6.399999999999999e+00	 9.684870804411496e+00
3	 2.750000000000000e-01	 6.625000000000000e+00	 9.722372540856645e+00
3	 2.750000000000000e-01	 6.849999999999999e+00	 9.762322301062627e+00
3	 2.750000000000000e-01	 7.075000000000000e+00	 9.804720085029452e+00
3	 2.750000000000000e-01	 7.300000000000001e+00	 9.849565892757113e+00
3	 2.750000000000001e-01	 7.525000000000000e+00	 9.896859724245608e+00
3	 2.750000000000000e-01	 7.750000000000001e+00	 9.946601579494953e+00
3	 5.500000000000000e-01	 5.500000000000000e+00	 9.617596460916864e+00
3	 5.500000000000000e-01	 5.725000000000001e+00	 9.640632117154777e+00
3	 5.499999999999999e-01	 5.949999999999998e+00	 9.665590670452843e+00
3	 5.499999999999999e-01	 6.174999999999999e+00	 9.692472120811031e+00
3	 5.500000000000000e-01	 6.400000000000000e+00	 9.721276468229377e+00
3	 5.500000000000000e-01	 6.625000000000001e+00	 9.752003712707847e+00
3	 5.500000000000000e-01	 6.849999999999998e+00	 9.784653854246468e+00
3	 5.500000000000000e-01	 7.075000000000001e+00	 9.819226892845222e+00
3	 5.499999999999999e-01	 7.299999999999999e+00	 9.855722828504117e+00
3	 5.500000000000000e-01	 7.524999999999999e+00	 9.894141661223157e+00
3	 5.500000000000000e-01	 7.750000000000000e+00	 9.934483391002331e+00
3	 8.250000000000001e-01	 5.500000000000000e+00	 9.670814643372191e+00
3	 8.250000000000001e-01	 5.725000000000001e+00	 9.690048243779563e+00
3	 8.250000000000002e-01	 5.950000000000001e+00	 9.710679614546393e+00
3	 8.250000000000002e-01	 6.175000000000000e+00	 9.732708755672652e+00
3	 8.250000000000002e-01	 6.399999999999999e+00	 9.756135667158361e+00
3	 8.250000000000003e-01	 6.625000000000001e+00	 9.780960349003506e+00
3	 8.250000000000001e-01	 6.850000000000001e+00	 9.807182801208082e+00
3	 8.250000000000003e-01	 7.075000000000000e+00	 9.834803023772107e+00
3	 8.250000000000000e-01	 7.299999999999998e+00	 9.863821016695573e+00
3	 8.250000000000001e-01	 7.525000000000001e+00	 9.894236779978474e+00
3	 8.250000000000001e-01	 7.750000000000001e+00	 9.926050313620832e+00
3	 1.100000000000000e+00	 5.500000000000001e+00	 9.718998643605293e+00
3	 1.100000000000000e+00	 5.724999999999998e+00	 9.735302117515470e+00
3	 1.100000000000000e+00	 5.950000000000000e+00	 9.752478235084387e+00
3	 1.100000000000000e+00	 6.175000000000001e+00	 9.770526996312046e+00
3	 1.100000000000000e+00	 6.399999999999999e+00	 9.789448401198445e+00
3	 1.100000000000000e+00	 6.625000000000000e+00	 9.809242449743589e+00
3	 1.100000000000001e+00	 6.850000000000001e+00	 9.829909141947482e+00
3	 1.100000000000000e+00	 7.075000000000001e+00	 9.851448477810099e+00
3	 1.100000000000000e+00	 7.299999999999998e+00	 9.873860457331467e+00
3	 1.100000000000000e+00	 7.524999999999999e+00	 9.897145080511581e+00
3	 1.100000000000000e+00	 7.750000000000001e+00	 9.921302347350423e+00
3	 1.375000000000000e+00	 5.500000000000000e+00	 9.762148461616167e+00
3	 1.375000000000000e+00	 5.725000000000001e+00	 9.776393738362474e+00
3	 1.375000000000000e+00	 5.950000000000002e+00	 9.790986532066830e+00
3	 1.375000000000000e+00	 6.175000000000001e+00	 9.805926842729217e+00
3	 1.375000000000000e+00	 6.399999999999999e+00	 9.821214670349651e+00
3	 1.375000000000000e+00	 6.625000000000000e+00	 9.836850014928132e+00
3	 1.375000000000000e+00	 6.850000000000000e+00	 9.852832876464650e+00
3	 1.375000000000000e+00	 7.075000000000000e+00	 9.869163254959206e+00
3	 1.375000000000000e+00	 7.300000000000000e+00	 9.885841150411817e+00
3	 1.375000000000000e+00	 7.524999999999999e+00	 9.902866562822458e+00
3	 1.375000000000000e+00	 7.750000000000000e+00	 9.920239492191140e+00
3	 1.650000000000000e+00	 5.500000000000000e+00	 9.800264097404819e+00
3	 1.650000000000000e+00	 5.724999999999999e+00	 9.813323106320592e+00
3	 1.650000000000000e+00	 5.950000000000000e+00	 9.826204505493708e+00
3	 1.650000000000000e+00	 6.175000000000000e+00	 9.838908294924165e+00
3	 1.650000000000000e+00	 6.400000000000000e+00	 9.851434474611976e+00
3	 1.650000000000000e+00	 6.624999999999998e+00	 9.863783044557110e+00
3	 1.650000000000000e+00	 6.850000000000000e+00	 9.875954004759596e+00
3	 1.650000000000000e+00	 7.074999999999999e+00	 9.887947355219426e+00
3	 1.650000000000000e+00	 7.299999999999999e+00	 9.899763095936599e+00
3	 1.650000000000000e+00	 7.524999999999999e+00	 9.911401226911110e+00
3	 1.650000000000000e+00	 7.750000000000001e+00	 9.922861748142967e+00
3	 1.925000000000000e+00	 5.500000000000000e+00	 9.833345550971259e+00
3	 1.925000000000000e+00	 5.725000000000000e+00	 9.846090221389822e+00
3	 1.925000000000000e+00	 5.950000000000001e+00	 9.858132155365029e+00
3	 1.925000000000000e+00	 6.175000000000001e+00	 9.869471352896902e+00
3	 1.925000000000000e+00	 6.400000000000000e+00	 9.880107813985401e+00
3	 1.925000000000000e+00	 6.625000000000000e+00	 9.890041538630538e+00
3	 1.925000000000000e+00	 6.849999999999999e+00	 9.899272526832327e+00
3	 1.925000000000000e+00	 7.075000000000000e+00	 9.907800778590753e+00
3	 1.925000000000000e+00	 7.300000000000000e+00	 9.915626293905829e+00
3	 1.925000000000000e+00	 7.525000000000000e+00	 9.922749072777542e+00
3	 1.925000000000000e+00	 7.750000000000000e+00	 9.929169115205911e+00
3	 2.200000000000000e+00	 5.500000000000000e+00	 9.861392822315462e+00
3	 2.200000000000000e+00	 5.725000000000000e+00	 9.874695083570177e+00
3	 2.200000000000000e+00	 5.949999999999999e+00	 9.886769481680815e+00
3	 2.200000000000000e+00	 6.174999999999999e+00	 9.897616016647399e+00
3	 2.200000000000000e+00	 6.399999999999999e+00	 9.907234688469938e+00
3	 2.200000000000000e+00	 6.624999999999999e+00	 9.915625497148408e+00
3	 2.199999999999999e+00	 6.849999999999999e+00	 9.922788442682826e+00
3	 2.200000000000000e+00	 7.075000000000000e+00	 9.928723525073192e+00
3	 2.200000000000000e+00	 7.300000000000000e+00	 9.933430744319498e+00
3	 2.199999999999999e+00	 7.524999999999999e+00	 9.936910100421759e+00
3	 2.200000000000000e+00	 7.750000000000001e+00	 9.939161593379957e+00
3	 2.475000000000000e+00	 5.500000000000000e+00	 9.884405911437463e+00
3	 2.475000000000000e+00	 5.725000000000000e+00	 9.899137692861620e+00
3	 2.475000000000000e+00	 5.950000000000000e+00	 9.912116484441032e+00
3	 2.475000000000000e+00	 6.175000000000001e+00	 9.923342286175677e+00
3	 2.475000000000000e+00	 6.400000000000000e+00	 9.932815098065578e+00
3	 2.475000000000000e+00	 6.625000000000000e+00	 9.940534920110725e+00
3	 2.475000000000000e+00	 6.850000000000001e+00	 9.946501752311114e+00
3	 2.475000000000001e+00	 7.075000000000001e+00	 9.950715594666741e+00
3	 2.475000000000000e+00	 7.299999999999999e+00	 9.953176447177624e+00
3	 2.475000000000000e+00	 7.524999999999999e+00	 9.953884309843742e+00
3	 2.475000000000000e+00	 7.750000000000000e+00	 9.952839182665109e+00
3	 2.750000000000000e+00	 5.500000000000000e+00	 9.902384818337222e+00
3	 2.750000000000000e+00	 5.725000000000001e+00	 9.919418049264189e+00
3	 2.750000000000000e+00	 5.950000000000001e+00	 9.934173163645687e+00
3	 2.750000000000000e+00	 6.175000000000000e+00	 9.946650161481740e+00
3	 2.750000000000000e+00	 6.400000000000001e+00	 9.956849042772342e+00
3	 2.750000000000000e+00	 6.625000000000000e+00	 9.964769807517483e+00
3	 2.750000000000000e+00	 6.850000000000000e+00	 9.970412455717172e+00
3	 2.750000000000000e+00	 7.075000000000000e+00	 9.973776987371410e+00
3	 2.750000000000000e+00	 7.300000000000001e+00	 9.974863402480183e+00
3	 2.750000000000000e+00	 7.525000000000000e+00	 9.973671701043513e+00
3	 2.750000000000000e+00	 7.750000000000000e+00	 9.970201883061380e+00
3	 0.000000000000000e+00	 7.750000000000000e+00	 9.962404879098681e+00
3	 0.000000000000000e+00	 7.975000000000001e+00	 9.958550856790987e+00
3	 0.000000000000000e+00	 8.200000000000001e+00	 9.956937754343432e+00
3	 0.000000000000000e+00	 8.425000000000001e+00	 9.957565571756025e+00
3	 0.000000000000000e+00	 8.650000000000000e+00	 9.960434309028749e+00
3	 0.000000000000000e+00	 8.875000000000000e+00	 9.965543966161619e+00
3	 0.000000000000000e+00	 9.100000000000001e+00	 9.972894543154624e+00
3	 0.000000000000000e+00	 9.325000000000003e+00	 9.982486040007757e+00
3	 0.000000000000000e+00	 9.550000000000001e+00	 9.994318456721039e+00
3	 0.000000000000000e+00	 9.775000000000002e+00	 1.000839179329447e+01
3	 0.000000000000000e+00	 1.000000000000000e+01	 1.002470604972804e+01
3	 2.750000000000000e-01	 7.750000000000001e+00	 9.946601579494953e+00
3	 2.750000000000000e-01	 7.975000000000000e+00	 9.945161936034108e+00
3	 2.750000000000000e-01	 8.200000000000001e+00	 9.945810699973274e+00
3	 2.749999999999999e-01	 8.425000000000001e+00	 9.948547871312428e+00
3	 2.750000000000001e-01	 8.650000000000004e+00	 9.953373450051592e+00
3	 2.750000000000000e-01	 8.874999999999998e+00	 9.960287436190757e+00
3	 2.750000000000000e-01	 9.100000000000001e+00	 9.969289829729910e+00
3	 2.750000000000000e-01	 9.325000000000003e+00	 9.980380630669060e+00
3	 2.750000000000000e-01	 9.550000000000004e+00	 9.993559839008231e+00
3	 2.750000000000001e-01	 9.775000000000004e+00	 1.000882745474739e+01
3	 2.750000000000000e-01	 1.000000000000000e+01	 1.002618347788654e+01
3	 5.500000000000000e-01	 7.750000000000000e+00	 9.934483391002331e+00
3	 5.499999999999999e-01	 7.974999999999999e+00	 9.935050102012276e+00
3	 5.500000000000000e-01	 8.200000000000003e+00	 9.937552707962086e+00
3	 5.500000000000000e-01	 8.425000000000001e+00	 9.941991208851752e+00
3	 5.500000000000000e-01	 8.650000000000000e+00	 9.948365604681278e+00
3	 5.499999999999999e-01	 8.875000000000002e+00	 9.956675895450660e+00
3	 5.500000000000000e-01	 9.100000000000001e+00	 9.966922081159909e+00
3	 5.500000000000000e-01	 9.325000000000001e+00	 9.979104161809017e+00
3	 5.499999999999999e-01	 9.550000000000001e+00	 9.993222137397984e+00
3	 5.500000000000002e-01	 9.775000000000004e+00	 1.000927600792680e+01
3	 5.500000000000000e-01	 1.000000000000000e+01	 1.002726577339549e+01
3	 8.250000000000001e-01	 7.750000000000001e+00	 9.926050313620832e+00
3	 8.249999999999998e-01	 7.974999999999999e+00	 9.928215354725481e+00
3	 8.250000000000001e-01	 8.200000000000001e+00	 9.932163778309866e+00
3	 8.250000000000003e-01	 8.425000000000004e+00	 9.937895584373971e+00
3	 8.250000000000002e-01	 8.650000000000004e+00	 9.945410772917786e+00
3	 8.250000000000002e-01	 8.875000000000004e+00	 9.954709343941335e+00
3	 8.250000000000001e-01	 9.100000000000001e+00	 9.965791297444603e+00
3	 8.250000000000002e-01	 9.325000000000005e+00	 9.978656633427576e+00
3	 8.250000000000002e-01	 9.550000000000004e+00	 9.993305351890289e+00
3	 8.250000000000002e-01	 9.775000000000002e+00	 1.000973745283270e+01
3	 8.250000000000001e-01	 1.000000000000000e+01	 1.002795293625484e+01
3	 1.100000000000000e+00	 7.750000000000001e+00	 9.921302347350423e+00
3	 1.100000000000000e+00	 7.975000000000001e+00	 9.924657694173744e+00
3	 1.100000000000000e+00	 8.200000000000001e+00	 9.929643911016626e+00
3	 1.100000000000000e+00	 8.425000000000002e+00	 9.936260997879096e+00
3	 1.100000000000000e+00	 8.650000000000004e+00	 9.944508954761153e+00
3	 1.100000000000000e+00	 8.875000000000002e+00	 9.954387781662781e+00
3	 1.100000000000000e+00	 9.100000000000001e+00	 9.965897478584003e+00
3	 1.100000000000000e+00	 9.325000000000001e+00	 9.979038045524788e+00
3	 1.100000000000000e+00	 9.550000000000001e+00	 9.993809482485158e+00
3	 1.100000000000000e+00	 9.775000000000004e+00	 1.001021178946512e+01
3	 1.100000000000000e+00	 1.000000000000000e+01	 1.002824496646466e+01
3	 1.375000000000000e+00	 7.750000000000000e+00	 9.920239492191140e+00
3	 1.375000000000000e+00	 7.975000000000001e+00	 9.924377120357034e+00
3	 1.375000000000000e+00	 8.199999999999999e+00	 9.929993106082362e+00
3	 1.375000000000000e+00	 8.425000000000001e+00	 9.937087449367132e+00
3	 1.375000000000000e+00	 8.650000000000000e+00	 9.945660150211349e+00
3	 1.375000000000000e+00	 8.875000000000000e+00	 9.955711208614993e+00
3	 1.375000000000000e+00	 9.100000000000000e+00	 9.967240624578087e+00
3	 1.375000000000000e+00	 9.325000000000003e+00	 9.980248398100624e+00
3	 1.375000000000000e+00	 9.550000000000001e+00	 9.994734529182589e+00
3	 1.375000000000000e+00	 9.775000000000000e+00	 1.001069901782401e+01
3	 1.375000000000000e+00	 1.000000000000000e+01	 1.002814186402487e+01
3	 1.650000000000000e+00	 7.750000000000001e+00	 9.922861748142967e+00
3	 1.650000000000000e+00	 7.975000000000000e+00	 9.927373633275375e+00
3	 1.650000000000000e+00	 8.200000000000003e+00	 9.933211363507072e+00
3	 1.650000000000000e+00	 8.425000000000002e+00	 9.940374938838076e+00
3	 1.650000000000000e+00	 8.650000000000002e+00	 9.948864359268375e+00
3	 1.650000000000000e+00	 8.875000000000004e+00	 9.958679624797981e+00
3	 1.650000000000000e+00	 9.100000000000003e+00	 9.969820735426886e+00
3	 1.650000000000000e+00	 9.325000000000003e+00	 9.982287691155088e+00
3	 1.650000000000000e+00	 9.550000000000002e+00	 9.996080491982593e+00
3	 1.650000000000000e+00	 9.775000000000004e+00	 1.001119913790940e+01
3	 1.650000000000000e+00	 1.000000000000000e+01	 1.002764362893551e+01
3	 1.925000000000000e+00	 7.750000000000000e+00	 9.929169115205911e+00
3	 1.925000000000000e+00	 7.975000000000000e+00	 9.933647232928747e+00
3	 1.925000000000000e+00	 8.200000000000001e+00	 9.939298683290749e+00
3	 1.925000000000000e+00	 8.425000000000001e+00	 9.946123466291917e+00
3	 1.925000000000000e+00	 8.650000000000004e+00	 9.954121581932245e+00
3	 1.925000000000000e+00	 8.875000000000000e+00	 9.963293030211736e+00
3	 1.925000000000000e+00	 9.100000000000001e+00	 9.973637811130381e+00
3	 1.925000000000000e+00	 9.325000000000001e+00	 9.985155924688190e+00
3	 1.925000000000000e+00	 9.550000000000001e+00	 9.997847370885170e+00
3	 1.925000000000000e+00	 9.775000000000002e+00	 1.001171214972129e+01
3	 1.925000000000000e+00	 1.000000000000000e+01	 1.002675026119658e+01
3	 2.200000000000000e+00	 7.750000000000001e+00	 9.939161593379957e+00
3	 2.199999999999999e+00	 7.975000000000000e+00	 9.943197919317170e+00
3	 2.200000000000000e+00	 8.200000000000001e+00	 9.948255065433411e+00
3	 2.200000000000000e+00	 8.425000000000001e+00	 9.954333031728673e+00
3	 2.200000000000000e+00	 8.650000000000002e+00	 9.961431818202955e+00
3	 2.200000000000000e+00	 8.875000000000002e+00	 9.969551424856256e+00
3	 2.200000000000000e+00	 9.100000000000000e+00	 9.978691851688579e+00
3	 2.200000000000000e+00	 9.325000000000001e+00	 9.988853098699931e+00
3	 2.200000000000000e+00	 9.550000000000002e+00	 1.000003516589030e+01
3	 2.200000000000000e+00	 9.775000000000002e+00	 1.001223805325968e+01
3	 2.200000000000000e+00	 1.000000000000000e+01	 1.002546176080808e+01
3	 2.475000000000000e+00	 7.750000000000000e+00	 9.952839182665109e+00
3	 2.475000000000000e+00	 7.975000000000001e+00	 9.956025692440640e+00
3	 2.474999999999999e+00	 8.199999999999999e+00	 9.960080509935041e+00
3	 2.475000000000000e+00	 8.425000000000002e+00	 9.965003635148332e+00
3	 2.475000000000000e+00	 8.649999999999999e+00	 9.970795068080502e+00
3	 2.475000000000000e+00	 8.875000000000002e+00	 9.977454808731544e+00
3	 2.475000000000000e+00	 9.100000000000003e+00	 9.984982857101482e+00
3	 2.475000000000000e+00	 9.325000000000003e+00	 9.993379213190288e+00
3	 2.474999999999999e+00	 9.550000000000001e+00	 1.000264387699798e+01
3	 2.475000000000000e+00	 9.775000000000002e+00	 1.001277684852456e+01
3	 2.475000000000000e+00	 1.000000000000000e+01	 1.002377812777001e+01
3	 2.750000000000000e+00	 7.750000000000000e+00	 9.970201883061380e+00
3	 2.750000000000000e+00	 7.975000000000001e+00	 9.972130552299145e+00
3	 2.750000000000000e+00	 8.200000000000001e+00	 9.974775016795647e+00
3	 2.750000000000000e+00	 8.425000000000001e+00	 9.978135276550892e+00
3	 2.750000000000000e+00	 8.650000000000000e+00	 9.982211331564878e+00
3	 2.750000000000000e+00	 8.875000000000000e+00	 9.987003181837606e+00
3	 2.750000000000000e+00	 9.100000000000001e+00	 9.992510827369079e+00
3	 2.750000000000000e+00	 9.325000000000005e+00	 9.998734268159282e+00
3	 2.750000000000000e+00	 9.550000000000001e+00	 1.000567350420823e+01
3	 2.750000000000000e+00	 9.775000000000002e+00	 1.001332853551594e+01
3	 2.750000000000000e+00	 1.000000000000000e+01	 1.002169936208237e+01
3	 2.750000000000000e+00	 5.500000000000000e+00	 9.902384818337222e+00
3	 2.750000000000000e+00	 5.725000000000001e+00	 9.919418049264189e+00
3	 2.750000000000000e+00	 5.950000000000001e+00	 9.934173163645687e+00
3	 2.750000000000000e+00	 6.175000000000000e+00	 9.946650161481740e+00
3	 2.750000000000000e+00	 6.400000000000001e+00	 9.956849042772342e+00
3	 2.750000000000000e+00	 6.625000000000000e+00	 9.964769807517483e+00
3	 2.750000000000000e+00	 6.850000000000000e+00	 9.970412455717172e+00
3	 2.750000000000000e+00	 7.075000000000000e+00	 9.973776987371410e+00
3	 2.750000000000000e+00	 7.300000000000001e+00	 9.974863402480183e+00
3	 2.750000000000000e+00	 7.525000000000000e+00	 9.973671701043513e+00
3	 2.750000000000000e+00	 7.750000000000000e+00	 9.970201883061380e+00
3	 3.025000000000000e+00	 5.500000000000000e+00	 9.957798454996119e+00
3	 3.025000000000000e+00	 5.725000000000000e+00	 9.968931925465963e+00
3	 3.025000000000000e+00	 5.950000000000000e+00	 9.978211148303647e+00
3	 3.025000000000000e+00	 6.175000000000001e+00	 9.985636123509167e+00
3	 3.024999999999999e+00	 6.399999999999999e+00	 9.991206851082515e+00
3	 3.025000000000001e+00	 6.625000000000001e+00	 9.994923331023699e+00
3	 3.025000000000000e+00	 6.850000000000001e+00	 9.996785563332708e+00
3	 3.025000000000000e+00	 7.074999999999997e+00	 9.996793548009553e+00
3	 3.025000000000001e+00	 7.300000000000001e+00	 9.994947285054229e+00
3	 3.025000000000001e+00	 7.525000000000000e+00	 9.991246774466745e+00
3	 3.025000000000000e+00	 7.750000000000000e+00	 9.985692016247082e+00
3	 3.300000000000001e+00	 5.500000000000000e+00	 1.000916142738151e+01
3	 3.300000000000001e+00	 5.725000000000001e+00	 1.001461498693271e+01
3	 3.300000000000001e+00	 5.950000000000002e+00	 1.001863816776504e+01
3	 3.299999999999999e+00	 6.174999999999999e+00	 1.002123096987848e+01
3	 3.300000000000000e+00	 6.400000000000000e+00	 1.002239339327304e+01
3	 3.300000000000000e+00	 6.625000000000000e+00	 1.002212543794871e+01
3	 3.300000000000001e+00	 6.850000000000000e+00	 1.002042710390552e+01
3	 3.300000000000000e+00	 7.075000000000000e+00	 1.001729839114343e+01
3	 3.300000000000001e+00	 7.299999999999999e+00	 1.001273929966247e+01
3	 3.300000000000001e+00	 7.525000000000000e+00	 1.000674982946262e+01
3	 3.300000000000001e+00	 7.750000000000001e+00	 9.999329980543896e+00
3	 3.575000000000001e+00	 5.500000000000000e+00	 1.005647373549339e+01
3	 3.575000000000000e+00	 5.724999999999999e+00	 1.005646723366442e+01
3	 3.575000000000001e+00	 5.950000000000000e+00	 1.005545422202983e+01
3	 3.575000000000001e+00	 6.175000000000001e+00	 1.005343470058967e+01
3	 3.575000000000000e+00	 6.399999999999999e+00	 1.005040866934390e+01
3	 3.575000000000001e+00	 6.624999999999999e+00	 1.004637612829254e+01
3	 3.575000000000001e+00	 6.850000000000000e+00	 1.004133707743559e+01
3	 3.575000000000001e+00	 7.075000000000000e+00	 1.003529151677303e+01
3	 3.575000000000001e+00	 7.300000000000000e+00	 1.002823944630489e+01
3	 3.575000000000001e+00	 7.524999999999999e+00	 1.002018086603115e+01
3	 3.575000000000001e+00	 7.750000000000001e+00	 1.001111577595183e+01
3	 3.850000000000001e+00	 5.500000000000000e+00	 1.009973537933178e+01
3	 3.850000000000001e+00	 5.725000000000001e+00	 1.009448866566107e+01
3	 3.850000000000001e+00	 5.950000000000001e+00	 1.008865931109806e+01
3	 3.850000000000000e+00	 6.174999999999997e+00	 1.008224731564273e+01
3	 3.850000000000001e+00	 6.400000000000002e+00	 1.007525267929511e+01
3	 3.850000000000001e+00	 6.625000000000000e+00	 1.006767540205516e+01
3	 3.850000000000001e+00	 6.850000000000001e+00	 1.005951548392292e+01
3	 3.850000000000001e+00	 7.074999999999999e+00	 1.005077292489836e+01
3	 3.850000000000001e+00	 7.300000000000001e+00	 1.004144772498150e+01
3	 3.850000000000002e+00	 7.525000000000001e+00	 1.003153988417233e+01
3	 3.850000000000001e+00	 7.750000000000000e+00	 1.002104940247086e+01
3	 4.125000000000001e+00	 5.500000000000000e+00	 1.013894635889667e+01
3	 4.125000000000001e+00	 5.724999999999999e+00	 1.012867928292269e+01
3	 4.125000000000001e+00	 5.950000000000000e+00	 1.011825343496970e+01
3	 4.125000000000003e+00	 6.175000000000001e+00	 1.010766881503769e+01
3	 4.125000000000002e+00	 6.400000000000000e+00	 1.009692542312665e+01
3	 4.125000000000001e+00	 6.625000000000001e+00	 1.008602325923660e+01
3	 4.125000000000002e+00	 6.850000000000001e+00	 1.007496232336752e+01
3	 4.125000000000002e+00	 7.075000000000000e+00	 1.006374261551942e+01
3	 4.125000000000002e+00	 7.300000000000000e+00	 1.005236413569231e+01
3	 4.125000000000002e+00	 7.525000000000000e+00	 1.004082688388616e+01
3	 4.125000000000002e+00	 7.750000000000000e+00	 1.002913086010100e+01
3	 4.400000000000002e+00	 5.500000000000000e+00	 1.017410667418803e+01
3	 4.400000000000002e+00	 5.725000000000001e+00	 1.015903908544926e+01
3	 4.400000000000000e+00	 5.950000000000000e+00	 1.014423659364475e+01
3	 4.400000000000001e+00	 6.175000000000001e+00	 1.012969919877451e+01
3	 4.400000000000001e+00	 6.399999999999999e+00	 1.011542690083853e+01
3	 4.400000000000002e+00	 6.625000000000000e+00	 1.010141969983683e+01
3	 4.400000000000003e+00	 6.850000000000001e+00	 1.008767759576938e+01
3	 4.400000000000002e+00	 7.075000000000001e+00	 1.007420058863621e+01
3	 4.400000000000001e+00	 7.300000000000000e+00	 1.006098867843729e+01
3	 4.400000000000002e+00	 7.525000000000001e+00	 1.004804186517265e+01
3	 4.400000000000001e+00	 7.749999999999999e+00	 1.003536014884227e+01
3	 4.675000000000002e+00	 5.500000000000000e+00	 1.020521632520590e+01
3	 4.675000000000000e+00	 5.724999999999999e+00	 1.018556807324079e+01
3	 4.675000000000002e+00	 5.950000000000000e+00	 1.016660878712322e+01
3	 4.675000000000001e+00	 6.175000000000000e+00	 1.014833846685322e+01
3	 4.675000000000002e+00	 6.400000000000001e+00	 1.013075711243077e+01
3	 4.675000000000002e+00	 6.625000000000001e+00	 1.011386472385586e+01
3	 4.675000000000002e+00	 6.850000000000001e+00	 1.009766130112851e+01
3	 4.675000000000002e+00	 7.074999999999999e+00	 1.008214684424871e+01
3	 4.675000000000002e+00	 7.300000000000001e+00	 1.006732135321647e+01
3	 4.675000000000002e+00	 7.525000000000000e+00	 1.005318482803178e+01
3	 4.675000000000002e+00	 7.750000000000000e+00	 1.003973726869463e+01
3	 4.950000000000002e+00	 5.500000000000000e+00	 1.023227531195027e+01
3	 4.950000000000002e+00	 5.725000000000001e+00	 1.020826624629728e+01
3	 4.950000000000002e+00	 5.950000000000000e+00	 1.018537001540512e+01
3	 4.950000000000003e+00	 6.175000000000001e+00	 1.016358661927381e+01
3	 4.950000000000002e+00	 6.399999999999998e+00	 1.014291605790334e+01
3	 4.950000000000002e+00	 6.625000000000000e+00	 1.012335833129370e+01
3	 4.950000000000001e+00	 6.850000000000000e+00	 1.010491343944491e+01
3	 4.950000000000003e+00	 7.075000000000000e+00	 1.008758138235695e+01
3	 4.950000000000003e+00	 7.300000000000001e+00	 1.007136216002983e+01
3	 4.950000000000002e+00	 7.525000000000000e+00	 1.005625577246356e+01
3	 4.950000000000002e+00	 7.750000000000000e+00	 1.004226221965812e+01
3	 5.225000000000001e+00	 5.499999999999999e+00	 1.025528363442113e+01
3	 5.225000000000002e+00	 5.725000000000001e+00	 1.022713360461872e+01
3	 5.225000000000002e+00	 5.950000000000000e+00	 1.020052027849044e+01
3	 5.225000000000001e+00	 6.175000000000000e+00	 1.017544365603628e+01
3	 5.225000000000003e+00	 6.400000000000001e+00	 1.015190373725625e+01
3	 5.225000000000002e+00	 6.625000000000001e+00	 1.012990052215035e+01
3	 5.225000000000002e+00	 6.850000000000001e+00	 1.010943401071857e+01
3	 5.225000000000002e+00	 7.075000000000000e+00	 1.009050420296091e+01
3	 5.225000000000002e+00	 7.299999999999999e+00	 1.007311109887739e+01
3	 5.225000000000001e+00	 7.524999999999999e+00	 1.005725469846798e+01
3	 5.225000000000001e+00	 7.750000000000000e+00	 1.004293500173270e+01
3	 5.500000000000000e+00	 5.500000000000000e+00	 1.027424129261849e+01
3	 5.500000000000000e+00	 5.725000000000000e+00	 1.024217014820513e+01
3	 5.500000000000000e+00	 5.950000000000000e+00	 1.021205957637918e+01
3	 5.500000000000000e+00	 6.175000000000000e+00	 1.018390957714063e+01
3	 5.500000000000001e+00	 6.400000000000000e+00	 1.015772015048951e+01
3	 5.500000000000000e+00	 6.625000000000000e+00	 1.013349129642579e+01
3	 5.500000000000000e+00	 6.850000000000000e+00	 1.011122301494949e+01
3	 5.500000000000000e+00	 7.075000000000000e+00	 1.009091530606061e+01
3	 5.500000000000000e+00	 7.300000000000001e+00	 1.007256816975913e+01
3	 5.500000000000000e+00	 7.525000000000000e+00	 1.005618160604507e+01
3	 5.500000000000000e+00	 7.750000000000000e+00	 1.004175561491841e+01
3	 2.750000000000000e+00	 7.750000000000000e+00	 9.970201883061380e+00
3	 2.750000000000000e+00	 7.975000000000001e+00	 9.972130552299145e+00
3	 2.750000000000000e+00	 8.200000000000001e+00	 9.974775016795647e+00
3	 2.750000000000000e+00	 8.425000000000001e+00	 9.978135276550892e+00
3	 2.750000000000000e+00	 8.650000000000000e+00	 9.982211331564878e+00
3	 2.750000000000000e+00	 8.875000000000000e+00	 9.987003181837606e+00
3	 2.750000000000000e+00	 9.100000000000001e+00	 9.992510827369079e+00
3	 2.750000000000000e+00	 9.325000000000005e+00	 9.998734268159282e+00
3	 2.750000000000000e+00	 9.550000000000001e+00	 1.000567350420823e+01
3	 2.750000000000000e+00	 9.775000000000002e+00	 1.001332853551594e+01
3	 2.750000000000000e+00	 1.000000000000000e+01	 1.002169936208237e+01
3	 3.025000000000000e+00	 7.750000000000000e+00	 9.985692016247082e+00
3	 3.025000000000001e+00	 7.975000000000001e+00	 9.986490188288814e+00
3	 3.025000000000001e+00	 8.200000000000003e+00	 9.987753596348716e+00
3	 3.025000000000000e+00	 8.425000000000001e+00	 9.989482240426812e+00
3	 3.025000000000000e+00	 8.650000000000000e+00	 9.991676120523074e+00
3	 3.025000000000000e+00	 8.875000000000000e+00	 9.994335236637529e+00
3	 3.025000000000001e+00	 9.100000000000001e+00	 9.997459588770166e+00
3	 3.025000000000000e+00	 9.325000000000001e+00	 1.000104917692099e+01
3	 3.025000000000000e+00	 9.550000000000001e+00	 1.000510400108998e+01
3	 3.024999999999999e+00	 9.775000000000000e+00	 1.000962406127716e+01
3	 3.025000000000000e+00	 9.999999999999998e+00	 1.001460935748254e+01
3	 3.300000000000001e+00	 7.750000000000001e+00	 9.999329980543896e+00
3	 3.300000000000001e+00	 7.975000000000001e+00	 9.999221695355400e+00
3	 3.300000000000001e+00	 8.200000000000001e+00	 9.999328086944516e+00
3	 3.300000000000000e+00	 8.424999999999999e+00	 9.999649155311269e+00
3	 3.300000000000001e+00	 8.650000000000004e+00	 1.000018490045564e+01
3	 3.300000000000000e+00	 8.875000000000002e+00	 1.000093532237763e+01
3	 3.300000000000001e+00	 9.100000000000001e+00	 1.000190042107724e+01
3	 3.300000000000001e+00	 9.325000000000001e+00	 1.000308019655448e+01
3	 3.300000000000000e+00	 9.550000000000002e+00	 1.000447464880933e+01
3	 3.300000000000001e+00	 9.775000000000002e+00	 1.000608377784182e+01
3	 3.300000000000001e+00	 1.000000000000000e+01	 1.000790758365193e+01
3	 3.575000000000001e+00	 7.750000000000001e+00	 1.001111577595183e+01
3	 3.575000000000001e+00	 7.975000000000001e+00	 1.001032507349891e+01
3	 3.575000000000001e+00	 8.200000000000001e+00	 1.000949848858306e+01
3	 3.575000000000002e+00	 8.425000000000002e+00	 1.000863602120427e+01
3	 3.575000000000001e+00	 8.650000000000000e+00	 1.000773767136255e+01
3	 3.575000000000001e+00	 8.875000000000002e+00	 1.000680343905788e+01
3	 3.575000000000001e+00	 9.100000000000001e+00	 1.000583332429030e+01
3	 3.575000000000001e+00	 9.325000000000005e+00	 1.000482732705975e+01
3	 3.575000000000001e+00	 9.550000000000002e+00	 1.000378544736629e+01
3	 3.575000000000000e+00	 9.775000000000002e+00	 1.000270768520987e+01
3	 3.575000000000001e+00	 1.000000000000000e+01	 1.000159404059052e+01
3	 3.850000000000001e+00	 7.750000000000000e+00	 1.002104940247086e+01
3	 3.850000000000001e+00	 7.975000000000001e+00	 1.001980032271935e+01
3	 3.850000000000001e+00	 8.200000000000001e+00	 1.001826480126433e+01
3	 3.850000000000001e+00	 8.425000000000001e+00	 1.001644283810583e+01
3	 3.850000000000001e+00	 8.650000000000002e+00	 1.001433443324383e+01
3	 3.850000000000001e+00	 8.875000000000005e+00	 1.001193958667833e+01
3	 3.850000000000001e+00	 9.100000000000001e+00	 1.000925829840932e+01
3	 3.850000000000001e+00	 9.325000000000003e+00	 1.000629056843684e+01
3	 3.850000000000001e+00	 9.550000000000002e+00	 1.000303639676085e+01
3	 3.850000000000001e+00	 9.775000000000002e+00	 9.999495783381366e+00
3	 3.850000000000001e+00	 1.000000000000000e+01	 9.995668728298373e+00
3	 4.125000000000002e+00	 7.750000000000000e+00	 1.002913086010100e+01
3	 4.125000000000001e+00	 7.975000000000001e+00	 1.002764744301671e+01
3	 4.125000000000002e+00	 8.200000000000001e+00	 1.002562702498834e+01
3	 4.125000000000001e+00	 8.425000000000001e+00	 1.002306960601593e+01
3	 4.125000000000001e+00	 8.650000000000002e+00	 1.001997518609946e+01
3	 4.125000000000001e+00	 8.875000000000000e+00	 1.001634376523893e+01
3	 4.125000000000002e+00	 9.100000000000003e+00	 1.001217534343435e+01
3	 4.125000000000001e+00	 9.325000000000001e+00	 1.000746992068571e+01
3	 4.125000000000002e+00	 9.550000000000002e+00	 1.000222749699302e+01
3	 4.125000000000001e+00	 9.775000000000000e+00	 9.996448072356262e+00
3	 4.125000000000001e+00	 1.000000000000000e+01	 9.990131646775444e+00
3	 4.400000000000001e+00	 7.749999999999999e+00	 1.003536014884227e+01
3	 4.400000000000000e+00	 7.974999999999999e+00	 1.003386643439098e+01
3	 4.400000000000002e+00	 8.200000000000001e+00	 1.003158515975509e+01
3	 4.400000000000000e+00	 8.424999999999999e+00	 1.002851632493458e+01
3	 4.400000000000002e+00	 8.650000000000000e+00	 1.002465992992945e+01
3	 4.400000000000001e+00	 8.875000000000000e+00	 1.002001597473970e+01
3	 4.400000000000002e+00	 9.100000000000001e+00	 1.001458445936535e+01
3	 4.400000000000002e+00	 9.325000000000003e+00	 1.000836538380637e+01
3	 4.400000000000001e+00	 9.550000000000002e+00	 1.000135874806280e+01
3	 4.400000000000001e+00	 9.775000000000002e+00	 9.993564552134574e+00
3	 4.400000000000002e+00	 1.000000000000000e+01	 9.984982796021757e+00
3	 4.675000000000002e+00	 7.750000000000000e+00	 1.003973726869463e+01
3	 4.675000000000001e+00	 7.974999999999999e+00	 1.003845729684219e+01
3	 4.675000000000002e+00	 8.200000000000001e+00	 1.003613920556457e+01
3	 4.675000000000002e+00	 8.425000000000002e+00	 1.003278299486177e+01
3	 4.675000000000002e+00	 8.650000000000000e+00	 1.002838866473380e+01
3	 4.675000000000002e+00	 8.875000000000002e+00	 1.002295621518066e+01
3	 4.675000000000002e+00	 9.100000000000001e+00	 1.001648564620233e+01
3	 4.675000000000002e+00	 9.325000000000001e+00	 1.000897695779884e+01
3	 4.675000000000002e+00	 9.550000000000001e+00	 1.000043014997016e+01
3	 4.675000000000002e+00	 9.775000000000000e+00	 9.990845222716318e+00
3	 4.675000000000002e+00	 1.000000000000000e+01	 9.980222176037293e+00
3	 4.950000000000002e+00	 7.750000000000000e+00	 1.004226221965812e+01
3	 4.950000000000003e+00	 7.975000000000001e+00	 1.004142003037032e+01
3	 4.950000000000003e+00	 8.199999999999999e+00	 1.003928916241678e+01
3	 4.950000000000002e+00	 8.425000000000001e+00	 1.003586961579751e+01
3	 4.950000000000001e+00	 8.649999999999999e+00	 1.003116139051251e+01
3	 4.950000000000002e+00	 8.875000000000002e+00	 1.002516448656177e+01
3	 4.950000000000002e+00	 9.100000000000001e+00	 1.001787890394530e+01
3	 4.950000000000002e+00	 9.325000000000001e+00	 1.000930464266310e+01
3	 4.950000000000003e+00	 9.550000000000001e+00	 9.999441702715149e+00
3	 4.950000000000001e+00	 9.775000000000000e+00	 9.988290084101489e+00
3	 4.950000000000002e+00	 1.000000000000000e+01	 9.975849786822074e+00
3	 5.225000000000001e+00	 7.750000000000000e+00	 1.004293500173270e+01
3	 5.225000000000003e+00	 7.975000000000001e+00	 1.004275463497537e+01
3	 5.225000000000002e+00	 8.200000000000001e+00	 1.004103503031173e+01
3	 5.225000000000002e+00	 8.425000000000001e+00	 1.003777618774180e+01
3	 5.225000000000001e+00	 8.650000000000000e+00	 1.003297810726558e+01
3	 5.225000000000002e+00	 8.875000000000002e+00	 1.002664078888306e+01
3	 5.225000000000002e+00	 9.100000000000001e+00	 1.001876423259425e+01
3	 5.225000000000002e+00	 9.325000000000001e+00	 1.000934843839916e+01
3	 5.225000000000002e+00	 9.550000000000002e+00	 9.998393406297772e+00
3	 5.225000000000002e+00	 9.775000000000002e+00	 9.985899136290051e+00
3	 5.225000000000001e+00	 1.000000000000000e+01	 9.971865628376070e+00
3	 5.500000000000000e+00	 7.750000000000000e+00	 1.004175561491841e+01
3	 5.500000000000000e+00	 7.975000000000001e+00	 1.004246111065734e+01
3	 5.500000000000000e+00	 8.200000000000001e+00	 1.004137680924942e+01
3	 5.500000000000000e+00	 8.425000000000001e+00	 1.003850271069464e+01
3	 5.500000000000000e+00	 8.650000000000000e+00	 1.003383881499301e+01
3	 5.500000000000000e+00	 8.875000000000000e+00	 1.002738512214452e+01
3	 5.500000000000000e+00	 9.100000000000001e+00	 1.001914163214919e+01
3	 5.500000000000000e+00	 9.325000000000003e+00	 1.000910834500699e+01
3	 5.500000000000000e+00	 9.550000000000001e+00	 9.997285260717963e+00
3	 5.499999999999999e+00	 9.775000000000002e+00	 9.983672379282062e+00
3	 5.500000000000000e+00	 1.000000000000000e+01	 9.968269700699306e+00
4	 7.071067812000000e-01	 7.071067812000000e-01	 1.547179205256201e+01
4	 6.794320713697602e-01	 7.337384141719189e-01	 1.464632831668091e+01
4	 6.505531848708898e-01	 7.594606992396842e-01	 1.378706423416667e+01
4	 6.205135387545595e-01	 7.841957333819557e-01	 1.289839438026690e+01
4	 5.893630678662253e-01	 8.078682901708334e-01	 1.198613584390340e+01
4	 5.571580250887352e-01	 8.304064878738605e-01	 1.105767474237437e+01
4	 5.239607004658556e-01	 8.517424401698329e-01	 1.012207063719820e+01
4	 4.898390609468311e-01	 8.718128780795601e-01	 9.190096328471888e+00
4	 4.548663143146348e-01	 8.905597319172320e-01	 8.274188780387723e+00
4	 4.191204026524825e-01	 9.079306625993184e-01	 7.388287946748443e+00
4	 3.826834324000000e-01	 9.238795325000000e-01	 6.547545131110508e+00
4	 9.467514421400001e-01	 9.467514421400001e-01	 1.304319228764963e+01
4	 9.076118775410643e-01	 9.720514934650257e-01	 1.241459488270490e+01
4	 8.670536487430054e-01	 9.964876642808504e-01	 1.176749285981104e+01
4	 8.251431260895286e-01	 1.019985946717191e+00	 1.110613003238102e+01
4	 7.819546674075721e-01	 1.042474875667537e+00	 1.043561602739939e+01
4	 7.375702700640620e-01	 1.063886163486047e+00	 9.761957386538020e+00
4	 6.920791214216635e-01	 1.084155318167572e+00	 9.092056343839008e+00
4	 6.455770514922710e-01	 1.103222234181877e+00	 8.433668535313450e+00
4	 5.981658938946097e-01	 1.121031745327441e+00	 7.795311754456493e+00
4	 5.499527634464494e-01	 1.137534129474908e+00	 7.186119923747148e+00
4	 5.010492607799999e-01	 1.152685555879750e+00	 6.615639851316433e+00
4	 1.186396103080000e+00	 1.186396103080000e+00	 1.157781047411947e+01
4	 1.135791683712368e+00	 1.210364572757954e+00	 1.110588132486959e+01
4	 1.083554112615121e+00	 1.233514629321684e+00	 1.062181472850961e+01
4	 1.029772713424498e+00	 1.255776160051971e+00	 1.012921143017349e+01
4	 9.745462669489193e-01	 1.277081461163688e+00	 9.632210455586446e+00
4	 9.179825150393887e-01	 1.297365839097614e+00	 9.135485471187291e+00
4	 8.601975423774718e-01	 1.316568196164655e+00	 8.644219986864524e+00
4	 8.013150420377108e-01	 1.334631590283532e+00	 8.164057930488868e+00
4	 7.414654734745845e-01	 1.351503758737011e+00	 7.701027023510287e+00
4	 6.807851242404167e-01	 1.367137596349912e+00	 7.261433790096586e+00
4	 6.194150891600000e-01	 1.381491579259000e+00	 6.851730922045402e+00
4	 1.426040764020000e+00	 1.426040764020000e+00	 1.073218762820076e+01
4	 1.363971489883672e+00	 1.448677652050702e+00	 1.038123899374576e+01
4	 1.300054576487236e+00	 1.470541594362187e+00	 1.001995590924223e+01
4	 1.234402300759467e+00	 1.491566373386295e+00	 9.651300752104705e+00
4	 1.167137866490266e+00	 1.511688046659288e+00	 9.278585411678755e+00
4	 1.098394760014716e+00	 1.530845514708563e+00	 8.905459745492518e+00
4	 1.028315963333280e+00	 1.548981074161082e+00	 8.535886290274769e+00
4	 9.570530325831508e-01	 1.566040946384524e+00	 8.174099773935286e+00
4	 8.847650530545591e-01	 1.581975772145942e+00	 7.824550612190759e+00
4	 8.116174850343840e-01	 1.596741063224333e+00	 7.491832435169875e+00
4	 7.377809175400000e-01	 1.610297602637750e+00	 7.180594742637521e+00
4	 1.665685424960000e+00	 1.665685424960000e+00	 1.030880965508816e+01
4	 1.592151296054976e+00	 1.686990731343271e+00	 1.004957751656452e+01
4	 1.516555040359352e+00	 1.707568559402359e+00	 9.779481891460248e+00
4	 1.439031888094435e+00	 1.727356586720161e+00	 9.500963913768556e+00
4	 1.359729466031614e+00	 1.746294632154335e+00	 9.216703920086415e+00
4	 1.278807004990043e+00	 1.764325190318893e+00	 8.929610702879613e+00
4	 1.196434384289088e+00	 1.781393952156853e+00	 8.642801495489408e+00
4	 1.112791023128591e+00	 1.797450302484853e+00	 8.359572021449310e+00
4	 1.028064632634534e+00	 1.812447785554233e+00	 8.083356363987466e+00
4	 9.424498458283511e-01	 1.826344530098168e+00	 7.817676944869884e+00
4	 8.561467459200002e-01	 1.839103626016000e+00	 7.566085519690317e+00
4	 1.905330085900000e+00	 1.905330085900000e+00	 1.018603174896678e+01
4	 1.820331102226280e+00	 1.925303810635661e+00	 9.994968264827707e+00
4	 1.733055504231467e+00	 1.944595524442198e+00	 9.791352484551808e+00
4	 1.643661475429405e+00	 1.963146800053573e+00	 9.577226255734528e+00
4	 1.552321065572961e+00	 1.980901217648830e+00	 9.354804820275975e+00
4	 1.459219249965369e+00	 1.997804865928603e+00	 9.126469346693263e+00
4	 1.364552805244896e+00	 2.013806830151969e+00	 8.894752842973755e+00
4	 1.268529013674031e+00	 2.028859658584519e+00	 8.662319091367205e+00
4	 1.171364212214509e+00	 2.042919798961886e+00	 8.431934529409517e+00
4	 1.073282206622318e+00	 2.055947996971418e+00	 8.206433345564069e+00
4	 9.745125742999999e-01	 2.067909649393750e+00	 7.988676445784613e+00
4	 2.144974746840000e+00	 2.144974746840000e+00	 1.028484142347060e+01
4	 2.048510908397585e+00	 2.163616889927872e+00	 1.014299854461514e+01
4	 1.949555968103583e+00	 2.181622489481706e+00	 9.986386086666133e+00
4	 1.848291062764374e+00	 2.198937013386528e+00	 9.816746846727931e+00
4	 1.744912665114308e+00	 2.215507803142773e+00	 9.635957073047168e+00
4	 1.639631494940696e+00	 2.231284541537695e+00	 9.446022627762744e+00
4	 1.532671226200704e+00	 2.246219708146429e+00	 9.249070091131388e+00
4	 1.424267004219471e+00	 2.260269014683523e+00	 9.047332567613024e+00
4	 1.314663791794483e+00	 2.273391812368900e+00	 8.843130149444429e+00
4	 1.204114567416285e+00	 2.285551463844083e+00	 8.638845227983285e+00
4	 1.092878402680000e+00	 2.296715672771000e+00	 8.436893105345542e+00
4	 2.384619407780000e+00	 2.384619407780000e+00	 1.055168660106730e+01
4	 2.276690714568888e+00	 2.401929969219903e+00	 1.044371430294013e+01
4	 2.166056431975699e+00	 2.418649454520883e+00	 1.031857226335144e+01
4	 2.052920650099344e+00	 2.434727226719026e+00	 1.017778005016097e+01
4	 1.937504264655656e+00	 2.450114388636164e+00	 1.002296628537132e+01
4	 1.820043739916023e+00	 2.464764217146168e+00	 9.855868101490882e+00
4	 1.700789647156512e+00	 2.478632586140233e+00	 9.678326454286992e+00
4	 1.580004994764910e+00	 2.491678370781864e+00	 9.492277095260842e+00
4	 1.457963371374458e+00	 2.503863825775274e+00	 9.299737147966724e+00
4	 1.334946928210252e+00	 2.515154930716164e+00	 9.102787402353497e+00
4	 1.211244231060000e+00	 2.525521696147750e+00	 8.903550632300048e+00
4	 2.624264068720000e+00	 2.624264068720000e+00	 1.094898494301227e+01
4	 2.504870520740192e+00	 2.640243048511755e+00	 1.086233407329939e+01
4	 2.382556895847814e+00	 2.655676419559727e+00	 1.075612030806792e+01
4	 2.257550237434312e+00	 2.670517440051069e+00	 1.063169504669689e+01
4	 2.130095864197002e+00	 2.684720974129002e+00	 1.049050406588082e+01
4	 2.000455984891350e+00	 2.698243892754022e+00	 1.033408975708036e+01
4	 1.868908068112319e+00	 2.711045464133380e+00	 1.016408974776089e+01
4	 1.735742985310350e+00	 2.723087726879542e+00	 9.982231722854987e+00
4	 1.601262950954433e+00	 2.734335839181010e+00	 9.790324369516419e+00
4	 1.465779289004219e+00	 2.744758397587660e+00	 9.590244499215745e+00
4	 1.329610059440000e+00	 2.754327719524000e+00	 9.383920550366700e+00
4	 2.863908729660000e+00	 2.863908729660000e+00	 1.144958395190524e+01
4	 2.733050326911497e+00	 2.878556127803428e+00	 1.137389503671718e+01
4	 2.599057359719930e+00	 2.892703384598240e+00	 1.127635989872327e+01
4	 2.462179824769281e+00	 2.906307653382656e+00	 1.115820068296271e+01
4	 2.322687463738349e+00	 2.919327559621289e+00	 1.102072559013757e+01
4	 2.180868229866676e+00	 2.931723568361257e+00	 1.086533338273734e+01
4	 2.037026489068127e+00	 2.943458342125872e+00	 1.069351456737072e+01
4	 1.891480975855789e+00	 2.954497082976558e+00	 1.050684907190411e+01
4	 1.744562530534408e+00	 2.964807852586108e+00	 1.030700032091545e+01
4	 1.596611649798187e+00	 2.974361864458571e+00	 1.009570571975857e+01
4	 1.447975887820000e+00	 2.983133742899750e+00	 9.874763681276036e+00
4	 3.103553390600000e+00	 3.103553390600000e+00	 1.203337760100421e+01
4	 2.961230133082800e+00	 3.116869207094922e+00	 1.196001672129432e+01
4	 2.815557823592045e+00	 3.129730349636422e+00	 1.186268931263998e+01
4	 2.666809412104250e+00	 3.142097866713787e+00	 1.174251508076933e+01
4	 2.515279063279697e+00	 3.153934145113024e+00	 1.160069582994841e+01
4	 2.361280474842003e+00	 3.165203243967874e+00	 1.143852177812489e+01
4	 2.205144910023935e+00	 3.175871220117709e+00	 1.125737469742467e+01
4	 2.047218966401230e+00	 3.185906439072912e+00	 1.105872769737464e+01
4	 1.887862110114382e+00	 3.195279865990566e+00	 1.084414153916205e+01
4	 1.727444010592153e+00	 3.203965331328898e+00	 1.061525746074863e+01
4	 1.566341716200000e+00	 3.211939766275000e+00	 1.037378660056497e+01
4	 3.826834324000000e-01	 9.238795325000000e-01	 6.547545131110508e+00
4	 3.456410495895091e-01	 9.383668071940955e-01	 5.462049249291873e+00
4	 3.080817701710963e-01	 9.513598808508045e-01	 4.450721160489728e+00
4	 2.700962763930935e-01	 9.628333196779698e-01	 3.529959059227040e+00
4	 2.317766909519846e-01	 9.727690196208938e-01	 2.715345429936947e+00
4	 1.932158410361867e-01	 9.811562764284163e-01	 2.020870682889059e+00
4	 1.545065244606614e-01	 9.879917681340539e-01	 1.458191489426064e+00
4	 1.157407898158666e-01	 9.932794519035331e-01	 1.035997137466936e+00
4	 7.700924195723143e-02	 9.970303790023951e-01	 7.595502949957158e-01
4	 3.840038326993594e-02	 9.992624332800956e-01	 6.304504695648294e-01
4	 0.000000000000000e+00	 1.000000000000000e+00	 6.466420127317898e-01
4	 5.010492607799999e-01	 1.152685555879750e+00	 6.615639851316433e+00
4	 4.515706161834426e-01	 1.166448466838237e+00	 5.757876696712515e+00
4	 4.016347863668351e-01	 1.178791886811300e+00	 4.971596229118809e+00
4	 3.513615189806574e-01	 1.189691653696391e+00	 4.267278172537452e+00
4	 3.008714004252846e-01	 1.199130568641548e+00	 3.654610324551843e+00
4	 2.502849027546137e-01	 1.207098462608171e+00	 3.142093110084687e+00
4	 1.997214453029699e-01	 1.213592179728100e+00	 2.736678623604639e+00
4	 1.492984860523761e-01	 1.218615479308776e+00	 2.443473076463965e+00
4	 9.913065674370974e-02	 1.222178860052461e+00	 2.265527387262374e+00
4	 4.932895436664704e-02	 1.224299311616136e+00	 2.203733145286703e+00
4	 0.000000000000000e+00	 1.225000000000000e+00	 2.256831327350191e+00
4	 6.194150891600000e-01	 1.381491579259000e+00	 6.851730922045402e+00
4	 5.575001827773759e-01	 1.394530126481973e+00	 6.135644586395838e+00
4	 4.951878025625736e-01	 1.406223892771475e+00	 5.486856852037831e+00
4	 4.326267615682213e-01	 1.416549987714568e+00	 4.912772155605057e+00
4	 3.699661098985846e-01	 1.425492117662024e+00	 4.420124872325701e+00
4	 3.073539644730408e-01	 1.433040648787802e+00	 4.014746788557584e+00
4	 2.449363661452784e-01	 1.439192591322068e+00	 3.701361213966031e+00
4	 1.828561822888856e-01	 1.443951506713974e+00	 3.483417650244830e+00
4	 1.212520715301880e-01	 1.447327341102507e+00	 3.362978441724208e+00
4	 6.025752546335814e-02	 1.449336189952173e+00	 3.340665054806484e+00
4	 0.000000000000000e+00	 1.450000000000000e+00	 3.415666998418919e+00
4	 7.377809175400000e-01	 1.610297602637750e+00	 7.180594742637521e+00
4	 6.634297493713094e-01	 1.622611786125305e+00	 6.558185458971241e+00
4	 5.887408187583124e-01	 1.633655898731331e+00	 5.999077182434911e+00
4	 5.138920041557853e-01	 1.643408321732500e+00	 5.508899836612008e+00
4	 4.390608193718846e-01	 1.651853666682321e+00	 5.092723161392312e+00
4	 3.644230261914678e-01	 1.658982834967311e+00	 4.754905295428070e+00
4	 2.901512869875869e-01	 1.664793002915957e+00	 4.498961797784455e+00
4	 2.164138785253952e-01	 1.669287534119129e+00	 4.327462807012795e+00
4	 1.433734863166664e-01	 1.672475822152533e+00	 4.241964444135962e+00
4	 7.118609656006923e-02	 1.674373068288205e+00	 4.242978380766676e+00
4	 0.000000000000000e+00	 1.675000000000000e+00	 4.329980936037773e+00
4	 8.561467459200002e-01	 1.839103626016000e+00	 7.566085519690317e+00
4	 7.693593159652424e-01	 1.850693445768231e+00	 7.007858000323670e+00
4	 6.822938349540510e-01	 1.861087904690867e+00	 6.509466364008725e+00
4	 5.951572467433491e-01	 1.870266655750189e+00	 6.075439225088262e+00
4	 5.081555288451846e-01	 1.878215215702439e+00	 5.709829140731216e+00
4	 4.214920879098949e-01	 1.884925021146694e+00	 5.416106163497862e+00
4	 3.353662078298953e-01	 1.890393414509767e+00	 5.197067585109782e+00
4	 2.499715747619047e-01	 1.894623561524239e+00	 5.054768595542640e+00
4	 1.654949011031447e-01	 1.897624303202540e+00	 4.990477489029304e+00
4	 8.211466765678034e-02	 1.899409946624232e+00	 5.004657644859327e+00
4	 0.000000000000000e+00	 1.900000000000000e+00	 5.096976924867751e+00
4	 9.745125742999999e-01	 2.067909649393750e+00	 7.988676445784613e+00
4	 8.752888825591758e-01	 2.078775105410753e+00	 7.475212931755355e+00
4	 7.758468511497897e-01	 2.088519910650084e+00	 7.018667412490979e+00
4	 6.764224893309130e-01	 2.097124989767632e+00	 6.622847938672838e+00
4	 5.772502383184847e-01	 2.104576764722379e+00	 6.291147938613673e+00
4	 4.785611496283219e-01	 2.110867207325954e+00	 6.026466784104079e+00
4	 3.805811286722038e-01	 2.115993826103498e+00	 5.831143675510319e+00
4	 2.835292709984142e-01	 2.119959588929305e+00	 5.706907989071335e+00
4	 1.876163158896229e-01	 2.122772784252528e+00	 5.654848430751999e+00
4	 9.304323875349142e-02	 2.124446824960254e+00	 5.675402362749212e+00
4	 0.000000000000000e+00	 2.125000000000000e+00	 5.768365593600391e+00
4	 1.092878402680000e+00	 2.296715672771000e+00	 8.436893105345542e+00
4	 9.812184491531091e-01	 2.306856765052870e+00	 7.954732487393036e+00
4	 8.693998673455282e-01	 2.315951916608981e+00	 7.527053827258360e+00
4	 7.576877319184767e-01	 2.323983323784832e+00	 7.157174846104377e+00
4	 6.463449477917845e-01	 2.330938313742138e+00	 6.848042481371670e+00
4	 5.356302113467489e-01	 2.336809393505090e+00	 6.602170712930009e+00
4	 4.257960495145124e-01	 2.341594237697151e+00	 6.421589737060803e+00
4	 3.170869672349237e-01	 2.345295616334327e+00	 6.307808718756311e+00
4	 2.097377306761013e-01	 2.347921265302496e+00	 6.261793737324014e+00
4	 1.039718098502025e-01	 2.349483703296270e+00	 6.283961813062736e+00
4	 0.000000000000000e+00	 2.350000000000000e+00	 6.374191121305874e+00
4	 1.211244231060000e+00	 2.525521696147750e+00	 8.903550632300048e+00
4	 1.087148015747043e+00	 2.534938424694583e+00	 8.442978353148298e+00
4	 9.629528835412670e-01	 2.543383922567560e+00	 8.034857405935629e+00
4	 8.389529745060406e-01	 2.550841657801788e+00	 7.682161861660501e+00
4	 7.154396572650844e-01	 2.557299862761720e+00	 7.387525586414766e+00
4	 5.926992730651760e-01	 2.562751579684102e+00	 7.153191646691601e+00
4	 4.710109703568208e-01	 2.567194649290724e+00	 6.980971678350247e+00
4	 3.506446634714332e-01	 2.570631643739305e+00	 6.872216887289953e+00
4	 2.318591454625796e-01	 2.573069746352445e+00	 6.827801854105735e+00
4	 1.149003809469136e-01	 2.574520581632282e+00	 6.848121745648423e+00
4	 0.000000000000000e+00	 2.575000000000000e+00	 6.933102935973465e+00
4	 1.329610059440000e+00	 2.754327719524000e+00	 9.383920550366700e+00
4	 1.193077582340976e+00	 2.763020084335890e+00	 8.937696422935829e+00
4	 1.056505899737005e+00	 2.770815928525818e+00	 8.542229622996846e+00
4	 9.202182170936044e-01	 2.777699991818501e+00	 8.200248011389206e+00
4	 7.845343667383843e-01	 2.783661411781122e+00	 7.914159837558103e+00
4	 6.497683347836031e-01	 2.788693765862991e+00	 7.686011221963677e+00
4	 5.162258911991293e-01	 2.792795060884218e+00	 7.517452606717995e+00
4	 3.842023597079428e-01	 2.795967671144238e+00	 7.409715476352362e+00
4	 2.539805602490579e-01	 2.798218227402373e+00	 7.363600236334472e+00
4	 1.258289520436247e-01	 2.799557459968290e+00	 7.379475672042355e+00
4	 0.000000000000000e+00	 2.800000000000000e+00	 7.457289928395406e+00
4	 1.447975887820000e+00	 2.983133742899750e+00	 9.874763681276036e+00
4	 1.299007148934909e+00	 2.991101743976792e+00	 9.437347392166052e+00
4	 1.150058915932744e+00	 2.998247934483757e+00	 9.049273648232489e+00
4	 1.001483459681168e+00	 3.004558325834967e+00	 8.713091086717695e+00
4	 8.536290762116844e-01	 3.010022960800345e+00	 8.431041740560824e+00
4	 7.068373965020301e-01	 3.014635952041756e+00	 8.205024335555947e+00
4	 5.614408120414377e-01	 3.018395472477634e+00	 8.036565822837083e+00
4	 4.177600559444523e-01	 3.021303698549128e+00	 7.926802198856575e+00
4	 2.761019750355361e-01	 3.023366708452282e+00	 7.876469308053290e+00
4	 1.367575231403358e-01	 3.024594338304292e+00	 7.885903930410280e+00
4	 0.000000000000000e+00	 3.025000000000000e+00	 7.955055053845935e+00
4	 1.566341716200000e+00	 3.211939766275000e+00	 1.037378660056497e+01
4	 1.404936715528843e+00	 3.219183403617290e+00	 9.940844231118531e+00
4	 1.243611932128483e+00	 3.225679940441377e+00	 9.556062180235092e+00
4	 1.082748702268732e+00	 3.231416659851192e+00	 9.221857246762589e+00
4	 9.227237856849845e-01	 3.236384509819390e+00	 8.940346798143459e+00
4	 7.639064582204571e-01	 3.240578138220397e+00	 8.713316361944242e+00
4	 6.066557328837463e-01	 3.243995884070971e+00	 8.542194900760387e+00
4	 4.513177521809619e-01	 3.246639725953974e+00	 8.428038645245506e+00
4	 2.982233898220145e-01	 3.248515189502172e+00	 8.371524044391141e+00
4	 1.476860942370469e-01	 3.249631216640290e+00	 8.372950050278201e+00
4	 0.000000000000000e+00	 3.250000000000000e+00	 8.432249608766663e+00
4	 3.103553390600000e+00	 3.103553390600000e+00	 1.203337760100421e+01
4	 2.961230133082800e+00	 3.116869207094922e+00	 1.196001672129432e+01
4	 2.815557823592045e+00	 3.129730349636422e+00	 1.186268931263998e+01
4	 2.666809412104250e+00	 3.142097866713787e+00	 1.174251508076933e+01
4	 2.515279063279697e+00	 3.153934145113024e+00	 1.160069582994841e+01
4	 2.361280474842003e+00	 3.165203243967874e+00	 1.143852177812489e+01
4	 2.205144910023935e+00	 3.175871220117709e+00	 1.125737469742467e+01
4	 2.047218966401230e+00	 3.185906439072912e+00	 1.105872769737464e+01
4	 1.887862110114382e+00	 3.195279865990566e+00	 1.084414153916205e+01
4	 1.727444010592153e+00	 3.203965331328898e+00	 1.061525746074863e+01
4	 1.566341716200000e+00	 3.211939766275000e+00	 1.037378660056497e+01
4	 3.343198051540000e+00	 3.343198051540000e+00	 1.141571790419409e+01
4	 3.189377934441936e+00	 3.355338506083860e+00	 1.139458533875895e+01
4	 3.032019109289461e+00	 3.367053624188764e+00	 1.134875882301185e+01
4	 2.871414965403073e+00	 3.378308067975184e+00	 1.127912426826056e+01
4	 2.707881178501511e+00	 3.389067760770475e+00	 1.118660785053712e+01
4	 2.541753910733668e+00	 3.399300188054155e+00	 1.107218295440910e+01
4	 2.373387712732282e+00	 3.408974690004143e+00	 1.093687504109225e+01
4	 2.203153151489220e+00	 3.418062740551672e+00	 1.078176434770765e+01
4	 2.031434194747730e+00	 3.426538207956866e+00	 1.060798635078916e+01
4	 1.858625388904994e+00	 3.434377592165794e+00	 1.041672996432454e+01
4	 1.685128872872880e+00	 3.441560234600184e+00	 1.020923348904948e+01
4	 3.582842712480001e+00	 3.582842712480001e+00	 1.091741074162597e+01
4	 3.417395289953709e+00	 3.594050692148058e+00	 1.094253366310760e+01
4	 3.248281865504155e+00	 3.604837385819771e+00	 1.094193797330811e+01
4	 3.075810610538204e+00	 3.615170697708197e+00	 1.091629798217401e+01
4	 2.900312150413304e+00	 3.625019798988839e+00	 1.086630473952081e+01
4	 2.722137712948073e+00	 3.634355395128008e+00	 1.079267306624157e+01
4	 2.541656985326747e+00	 3.643149984325372e+00	 1.069614715836972e+01
4	 2.359255703387101e+00	 3.651378102662604e+00	 1.057750470654593e+01
4	 2.175333003828312e+00	 3.659016551671784e+00	 1.043755948118055e+01
4	 1.990298575834296e+00	 3.666044604280352e+00	 1.027716234781098e+01
4	 1.804569653753698e+00	 3.672444185450565e+00	 1.009720069714615e+01
4	 3.822487373420001e+00	 3.822487373420001e+00	 1.052099455155375e+01
4	 3.645182696031698e+00	 3.832901346032355e+00	 1.058645328608313e+01
4	 3.464166305538266e+00	 3.842883109078413e+00	 1.062510910362507e+01
4	 3.279754392387692e+00	 3.852403774859719e+00	 1.063742790402308e+01
4	 3.092284746979508e+00	 3.861435760673996e+00	 1.062388249098283e+01
4	 2.902114933448058e+00	 3.869953019777727e+00	 1.058495921884791e+01
4	 2.709620197108696e+00	 3.877931262832017e+00	 1.052116365024853e+01
4	 2.515191128329626e+00	 3.885348166195920e+00	 1.043302517611550e+01
4	 2.319231111261661e+00	 3.892183563570206e+00	 1.032110055067984e+01
4	 2.122153590994917e+00	 3.898419617728676e+00	 1.018597629929237e+01
4	 1.924379197130288e+00	 3.904040969399160e+00	 1.002826996593997e+01
4	 4.062132034360000e+00	 4.062132034360000e+00	 1.021119507006271e+01
4	 3.872640965685343e+00	 4.071786049143257e+00	 1.031148158683329e+01
4	 3.679493670694762e+00	 4.080992273069523e+00	 1.038395999893218e+01
4	 3.483006189693369e+00	 4.089725331464747e+00	 1.042887627959759e+01
4	 3.283514246827639e+00	 4.097961172818661e+00	 1.044648412383854e+01
4	 3.081371534261355e+00	 4.105677258857300e+00	 1.043705100565341e+01
4	 2.876947771910676e+00	 4.112852744946606e+00	 1.040086357222442e+01
4	 2.670626562846852e+00	 4.119468648042380e+00	 1.033823232214559e+01
4	 2.462803068885907e+00	 4.125507999543745e+00	 1.024949551426207e+01
4	 2.253881534856717e+00	 4.130955980616535e+00	 1.013502225595729e+01
4	 2.044272693439855e+00	 4.135800037825865e+00	 9.995214724671458e+00
4	 4.301776695300001e+00	 4.301776695300001e+00	 9.974653799527378e+00
4	 4.099671372179784e+00	 4.310600535390711e+00	 1.010488188438505e+01
4	 3.894086721664775e+00	 4.318966911100619e+00	 1.020644330531410e+01
4	 3.685328651986772e+00	 4.326854523393377e+00	 1.027934327288840e+01
4	 3.473719836566699e+00	 4.334243347365712e+00	 1.032360379741041e+01
4	 3.259598198335703e+00	 4.341114776945907e+00	 1.033926933177186e+01
4	 3.043315223022347e+00	 4.347451760698346e+00	 1.032641198860061e+01
4	 2.825234117605877e+00	 4.353238926825354e+00	 1.028513626790484e+01
4	 2.605727833136789e+00	 4.358462695581380e+00	 1.021558323080886e+01
4	 2.385176973808324e+00	 4.363111377479562e+00	 1.011793405644337e+01
4	 2.163967616445805e+00	 4.367175255874210e+00	 9.992412922664306e+00
4	 4.541421356240001e+00	 4.541421356240001e+00	 9.799684918242519e+00
4	 4.326175791316812e+00	 4.549240842300383e+00	 9.955698523128804e+00
4	 4.107770221168964e+00	 4.556610155295367e+00	 1.008235283141757e+01
4	 3.886488113547715e+00	 4.563512726611741e+00	 1.017938674394455e+01
4	 3.662625966648231e+00	 4.569933111153442e+00	 1.024657113413801e+01
4	 3.436492080258656e+00	 4.575857084893181e+00	 1.028371469945824e+01
4	 3.208405213197853e+00	 4.581271735352361e+00	 1.029066952493986e+01
4	 2.978693138510724e+00	 4.586165543902311e+00	 1.026733627816301e+01
4	 2.747691109592607e+00	 4.590528458867653e+00	 1.021366895413230e+01
4	 2.515740251922360e+00	 4.594351958520752e+00	 1.012967908972944e+01
4	 2.283185896358352e+00	 4.597629103183036e+00	 1.001543937075019e+01
4	 4.781066017180001e+00	 4.781066017180001e+00	 9.676060013065083e+00
4	 4.552056841908152e+00	 4.787603460938329e+00	 9.854472757990331e+00
4	 4.320371405115033e+00	 4.793726773051513e+00	 1.000298876542005e+01
4	 4.086255477090628e+00	 4.799424610069463e+00	 1.012105352540898e+01
4	 3.849963652225392e+00	 4.804686489371266e+00	 1.020816371101800e+01
4	 3.611758476396265e+00	 4.809502843178545e+00	 1.026387433959780e+01
4	 3.371909512818164e+00	 4.813865068048465e+00	 1.028780566829975e+01
4	 3.130692353007066e+00	 4.817765569354379e+00	 1.027964971171983e+01
4	 2.888387580234979e+00	 4.821197800308257e+00	 1.023917626823057e+01
4	 2.645279693500421e+00	 4.824156295132448e+00	 1.016623834292983e+01
4	 2.401656000577444e+00	 4.826636696048290e+00	 1.006077685942734e+01
4	 5.020710678120002e+00	 5.020710678120002e+00	 9.594818932183733e+00
4	 4.777218024021496e+00	 5.025585484197002e+00	 9.793008041679052e+00
4	 4.531720439646227e+00	 5.030123692311633e+00	 9.960891138046266e+00
4	 4.284407060296485e+00	 5.034319176693153e+00	 1.009759331177729e+01
4	 4.035471706435191e+00	 5.038166325870484e+00	 1.020231213612141e+01
4	 3.785112395683645e+00	 5.041660063549126e+00	 1.027432771980396e+01
4	 3.533530831683949e+00	 5.044795867505732e+00	 1.031301239835695e+01
4	 3.280931872512554e+00	 5.047569786365139e+00	 1.031783988639367e+01
4	 3.027522981526263e+00	 5.049978454139414e+00	 1.028839371156265e+01
4	 2.773513663690573e+00	 5.052019102424531e+00	 1.022437475414168e+01
4	 2.519114890580425e+00	 5.053689570167518e+00	 1.012560772458117e+01
4	 5.260355339060001e+00	 5.260355339060001e+00	 9.548104513107152e+00
4	 5.001563854591338e+00	 5.263084753000681e+00	 9.764175531792588e+00
4	 4.741650861592979e+00	 5.265610512734320e+00	 9.949626106543841e+00
4	 4.480725398820805e+00	 5.267930764446336e+00	 1.010323448133239e+01
4	 4.218897894701461e+00	 5.270043824866146e+00	 1.022387295600086e+01
4	 3.956280014328110e+00	 5.271948184644931e+00	 1.031052287735847e+01
4	 3.692984502821847e+00	 5.273642511374446e+00	 1.036228908115383e+01
4	 3.429125025513564e+00	 5.275125652235229e+00	 1.037841347530171e+01
4	 3.164816005417257e+00	 5.276396636264072e+00	 1.035828745324921e+01
4	 2.900172458479526e+00	 5.277454676232027e+00	 1.030146283492278e+01
4	 2.635309827101351e+00	 5.278299170125857e+00	 1.020766105180682e+01
4	 5.500000000000000e+00	 5.500000000000000e+00	 9.529018740162458e+00
4	 5.225000000000000e+00	 5.500000000000000e+00	 9.761752419200324e+00
4	 4.950000000000000e+00	 5.500000000000000e+00	 9.963613442190235e+00
4	 4.675000000000000e+00	 5.500000000000000e+00	 1.013300685099353e+01
4	 4.400000000000000e+00	 5.500000000000001e+00	 1.026845190128807e+01
4	 4.125000000000000e+00	 5.500000000000000e+00	 1.036860448465960e+01
4	 3.850000000000000e+00	 5.500000000000000e+00	 1.043227878465908e+01
4	 3.575000000000000e+00	 5.500000000000000e+00	 1.045846761337135e+01
4	 3.300000000000001e+00	 5.500000000000000e+00	 1.044636087187024e+01
4	 3.025000000000000e+00	 5.500000000000000e+00	 1.039536159666781e+01
4	 2.750000000000000e+00	 5.500000000000000e+00	 1.030509909591429e+01
4	 1.566341716200000e+00	 3.211939766275000e+00	 1.037378660056497e+01
4	 1.404936715528843e+00	 3.219183403617290e+00	 9.940844231118531e+00
4	 1.243611932128483e+00	 3.225679940441377e+00	 9.556062180235092e+00
4	 1.082748702268732e+00	 3.231416659851192e+00	 9.221857246762589e+00
4	 9.227237856849845e-01	 3.236384509819390e+00	 8.940346798143459e+00
4	 7.639064582204571e-01	 3.240578138220397e+00	 8.713316361944242e+00
4	 6.066557328837463e-01	 3.243995884070971e+00	 8.542194900760387e+00
4	 4.513177521809619e-01	 3.246639725953974e+00	 8.428038645245506e+00
4	 2.982233898220145e-01	 3.248515189502172e+00	 8.371524044391141e+00
4	 1.476860942370469e-01	 3.249631216640290e+00	 8.372950050278201e+00
4	 0.000000000000000e+00	 3.250000000000000e+00	 8.432249608766663e+00
4	 1.685128872872880e+00	 3.441560234600184e+00	 1.020923348904948e+01
4	 1.511351274739447e+00	 3.448068496554149e+00	 9.831757800527098e+00
4	 1.337700541219091e+00	 3.453887903009056e+00	 9.496325083738650e+00
4	 1.164582751667843e+00	 3.459007249416664e+00	 9.204872791418810e+00
4	 9.923989687766711e-01	 3.463418669807588e+00	 8.959149531955106e+00
4	 8.215421769279375e-01	 3.467117665428851e+00	 8.760693599435841e+00
4	 6.523943566810810e-01	 3.470103093980160e+00	 8.610815888472450e+00
4	 4.853237400296210e-01	 3.472377120364349e+00	 8.510587734400930e+00
4	 3.206822861133715e-01	 3.473945130668187e+00	 8.460834078555397e+00
4	 1.588034111796424e-01	 3.474815611819221e+00	 8.462132201413416e+00
4	 0.000000000000000e+00	 3.475000000000000e+00	 8.514816102443266e+00
4	 1.804569653753698e+00	 3.672444185450565e+00	 1.009720069714615e+01
4	 1.618567896611254e+00	 3.678200024302243e+00	 9.767184808304814e+00
4	 1.432716203173209e+00	 3.683299775070714e+00	 9.473898196509172e+00
4	 1.247435512956119e+00	 3.687734104898826e+00	 9.218928781766571e+00
4	 1.063141643865100e+00	 3.691496747161914e+00	 9.003748081526432e+00
4	 8.802422160643382e-01	 3.694584519754314e+00	 8.829696592231931e+00
4	 6.991337092885250e-01	 3.696997308509536e+00	 8.697971740532639e+00
4	 5.201986971764198e-01	 3.698738016649450e+00	 8.609618745999374e+00
4	 3.438032975046879e-01	 3.699812481840945e+00	 8.565524673461582e+00
4	 1.702948716073488e-01	 3.700229363059542e+00	 8.566415879996612e+00
4	 0.000000000000000e+00	 3.700000000000001e+00	 8.612858982814471e+00
4	 1.924379197130288e+00	 3.904040969399160e+00	 1.002826996593997e+01
4	 1.726332765292869e+00	 3.909034860765469e+00	 9.739180318869479e+00
4	 1.528440300631863e+00	 3.913391231539059e+00	 9.482188743829973e+00
4	 1.331125928773141e+00	 3.917102786090034e+00	 9.258621606294174e+00
4	 1.134808879941314e+00	 3.920165030705271e+00	 9.069735949733397e+00
4	 9.399005510397668e-01	 3.922576280638379e+00	 8.916709129273631e+00
4	 7.468016884293714e-01	 3.924337637221705e+00	 8.800629969133769e+00
4	 5.558997310386055e-01	 3.925452935896586e+00	 8.722491665373521e+00
4	 3.675663493992309e-01	 3.925928666569905e+00	 8.683186626162048e+00
4	 1.821552113836790e-01	 3.925773868206099e+00	 8.683503406829464e+00
4	 0.000000000000000e+00	 3.925000000000001e+00	 8.724125857943985e+00
4	 2.044272693439855e+00	 4.135800037825865e+00	 9.995214724671458e+00
4	 1.834391085184502e+00	 4.140029977247520e+00	 9.741664384104165e+00
4	 1.624652330236797e+00	 4.143638035603556e+00	 9.516156860706781e+00
4	 1.415470389403318e+00	 4.146618927386557e+00	 9.319817671517026e+00
4	 1.207254852369540e+00	 4.148969867378793e+00	 9.153733267193015e+00
4	 1.000408290189521e+00	 4.150690568423858e+00	 9.018943235859709e+00
4	 7.953237076064750e-01	 4.151783214764674e+00	 8.916433397141253e+00
4	 5.923821283908027e-01	 4.152252411700893e+00	 8.847129934522192e+00
4	 3.919503437859519e-01	 4.152105112732071e+00	 8.811894700304268e+00
4	 1.943788504401542e-01	 4.151350525728543e+00	 8.811521809935886e+00
4	 0.000000000000000e+00	 4.150000000000000e+00	 8.846735622059253e+00
4	 2.163967616445805e+00	 4.367175255874210e+00	 9.992412922664306e+00
4	 1.942489066396466e+00	 4.370646652740182e+00	 9.769920939151287e+00
4	 1.721131577086386e+00	 4.373519976733108e+00	 9.571899338405863e+00
4	 1.500284061241978e+00	 4.375791752903649e+00	 9.399315601692098e+00
4	 1.280331821910000e+00	 4.377460633739496e+00	 9.253117352335087e+00
4	 1.061654330948669e+00	 4.378527391512495e+00	 9.134226032893025e+00
4	 8.446230816373393e-01	 4.378994892215215e+00	 9.043531072758661e+00
4	 6.295995404780645e-01	 4.378868051665330e+00	 8.981884651143126e+00
4	 4.169332211974652e-01	 4.378153774633561e+00	 8.950097153669475e+00
4	 2.069599014649794e-01	 4.376860878104144e+00	 8.948933411535913e+00
4	 0.000000000000000e+00	 4.375000000000001e+00	 8.979109800691115e+00
4	 2.283185896358352e+00	 4.597629103183036e+00	 1.001543937075019e+01
4	 2.050375870960723e+00	 4.600354575792322e+00	 9.820250475021490e+00
4	 1.817658769013327e+00	 4.602524710449285e+00	 9.646360896321760e+00
4	 1.585382211326970e+00	 4.604137508624440e+00	 9.494611170651796e+00
4	 1.353891120985268e+00	 4.605192642878787e+00	 9.365834107260143e+00
4	 1.123526028443617e+00	 4.605691448122982e+00	 9.260849223565391e+00
4	 8.946214243340245e-01	 4.605636900614268e+00	 9.180457413942811e+00
4	 6.675041764629541e-01	 4.605033585056927e+00	 9.125435935519455e+00
4	 4.424920263467416e-01	 4.603887650330019e+00	 9.096533791015823e+00
4	 2.198921792386379e-01	 4.602206754511732e+00	 9.094467583535966e+00
4	 0.000000000000000e+00	 4.600000000000001e+00	 9.119917911167724e+00
4	 2.401656000577444e+00	 4.826636696048290e+00	 1.006077685942734e+01
4	 2.157805489131162e+00	 4.828635773814761e+00	 9.889724302182849e+00
4	 1.914017685183874e+00	 4.830151441618585e+00	 9.737129792963543e+00
4	 1.670581508389840e+00	 4.831182762192125e+00	 9.603730433884314e+00
4	 1.427784133612059e+00	 4.831729948110182e+00	 9.490263436682779e+00
4	 1.185909868190272e+00	 4.831794355290313e+00	 9.397460848091786e+00
4	 9.452390540614221e-01	 4.831378469797450e+00	 9.326044346307523e+00
4	 7.060470035337489e-01	 4.830485888125808e+00	 9.276720186449646e+00
4	 4.686029770372684e-01	 4.829121291200269e+00	 9.250174371832385e+00
4	 2.331692105856448e-01	 4.827290412404221e+00	 9.247068124812419e+00
4	 0.000000000000000e+00	 4.825000000000001e+00	 9.268033726016231e+00
4	 2.519114890580425e+00	 5.053689570167518e+00	 1.012560772458117e+01
4	 2.264538517353373e+00	 5.054988310935618e+00	 9.976007528211962e+00
4	 2.009996695069642e+00	 5.055914397636914e+00	 9.842290537021414e+00
4	 1.755701281780532e+00	 5.056467524663023e+00	 9.725109188573226e+00
4	 1.501863255816144e+00	 5.056648007444402e+00	 9.625121580085221e+00
4	 1.248692134675474e+00	 5.056456779427596e+00	 9.542986170819201e+00
4	 9.963954028661181e-01	 5.055895386504671e+00	 9.479356454373036e+00
4	 7.451779519488805e-01	 5.054965978944378e+00	 9.434875687419115e+00
4	 4.952415359197551e-01	 5.053671300893364e+00	 9.410171761378521e+00
4	 2.467842449093388e-01	 5.052014677533720e+00	 9.405852301036299e+00
4	 0.000000000000000e+00	 5.050000000000002e+00	 9.422500069259703e+00
4	 2.635309827101351e+00	 5.278299170125857e+00	 1.020766105180682e+01
4	 2.370343812437369e+00	 5.278929702227494e+00	 1.007722950363874e+01
4	 2.105390205982639e+00	 5.279346043787174e+00	 9.960316077990868e+00
4	 1.840564720962108e+00	 5.279548153288274e+00	 9.857504559756624e+00
4	 1.575982824038841e+00	 5.279536176303525e+00	 9.769389173529563e+00
4	 1.311759567853382e+00	 5.279310444943263e+00	 9.696569028897757e+00
4	 1.048009424903469e+00	 5.278871476898527e+00	 9.639642468392267e+00
4	 7.848461232657363e-01	 5.278219974083433e+00	 9.599201426297537e+00
4	 5.223824846512568e-01	 5.277356820882711e+00	 9.575825906552240e+00
4	 2.607302652744248e-01	 5.276283082012020e+00	 9.570078684441777e+00
4	 0.000000000000000e+00	 5.275000000000001e+00	 9.582500329870049e+00
4	 2.750000000000000e+00	 5.500000000000000e+00	 1.030509909591429e+01
4	 2.475000000000000e+00	 5.500000000000000e+00	 1.019188769208514e+01
4	 2.199999999999999e+00	 5.500000000000000e+00	 1.008998781851340e+01
4	 1.924999999999999e+00	 5.500000000000000e+00	 9.999929285096101e+00
4	 1.649999999999999e+00	 5.500000000000000e+00	 9.922257572772700e+00
4	 1.374999999999999e+00	 5.500000000000000e+00	 9.857527800568970e+00
4	 1.099999999999999e+00	 5.500000000000000e+00	 9.806298532255818e+00
4	 8.249999999999982e-01	 5.500000000000000e+00	 9.769125567161694e+00
4	 5.499999999999980e-01	 5.500000000000000e+00	 9.746555858886504e+00
4	 2.749999999999978e-01	 5.499999999999999e+00	 9.739121699222286e+00
4	 0.000000000000000e+00	 5.500000000000000e+00	 9.747335292929289e+00
