label=Stress xy
num_items=45

0:-3.0409336999047148e-01
1:3.4855906294694855e-01
2:1.5938642590914873e-01
3:-1.1001847947867363e+00
4:7.0629237826513080e-01
5:1.1189030048707840e-01
6:-1.7388191220285711e+00
7:7.8109512423427327e-02
8:-4.0036575603176550e-01
9:4.3591444579656968e-02
10:8.4762034462325664e-02
11:-3.0102473098534033e-02
12:1.0924679520006637e-01
13:6.6684917795685222e-02
14:5.4366500754314803e-02
15:-1.7079956916548999e-03
16:5.5508080256936189e-02
17:2.1856112241208326e-03
18:-1.0776325331497784e-01
19:4.6096417209597666e-02
20:-2.2030293221128271e-02
21:-3.6407852497080825e-02
22:-5.7750461075530855e-02
23:3.2233591254188183e-02
24:-6.2205142076185972e-02
25:2.9461444757110489e-02
26:-2.6648092985984251e-02
27:-9.8419656100606059e-02
28:-2.6620201562150048e-01
29:-2.1980112635019067e-01
30:-1.8229710185728800e-02
31:-2.0158293070796574e-01
32:-1.5155900370461267e-01
33:-4.3750615639976863e-02
34:-4.5240184176200571e-02
35:-4.6946816675087169e-02
36:-1.9923639266087445e+00
37:-5.0642210756770301e-01
38:1.1265529163304595e-01
39:-2.0522709188645534e+00
40:-1.4477173146166196e+00
41:-2.5151750481609220e-01
42:-4.9770249572945308e-01
43:-6.3613828724662991e-01
44:-3.0245257180827073e-01
