x	y	stress_yy
 1.000000000000000e+00	 0.000000000000000e+00	 2.447835558966735e+01
 9.998426119581704e-01	 1.774123198744521e-02	 2.450991664641978e+01
 9.993659466402713e-01	 3.560484089073321e-02	 2.449580960014736e+01
 9.985633751090949e-01	 5.358344789747921e-02	 2.443597968759417e+01
 9.974284469032259e-01	 7.166933308134273e-02	 2.433047209650632e+01
 9.959549086084808e-01	 8.985443791194039e-02	 2.417943490358125e+01
 9.941367226520526e-01	 1.081303688402291e-01	 2.398312165938643e+01
 9.919680862544972e-01	 1.264884019976692e-01	 2.374189358741012e+01
 9.894434504702301e-01	 1.449194890435835e-01	 2.345622136556270e+01
 9.865575392429453e-01	 1.634142641907508e-01	 2.312668645998168e+01
 9.833053683983746e-01	 1.819630524344169e-01	 2.275398198291727e+01
 1.012500000000000e+00	 0.000000000000000e+00	 2.374450859561260e+01
 1.012340644607676e+00	 1.796299738536411e-02	 2.378298104133147e+01
 1.011858020973390e+00	 3.604990139831822e-02	 2.377655455605160e+01
 1.011045417298220e+00	 5.425324099133014e-02	 2.372517704234248e+01
 1.009896302489983e+00	 7.256519973898737e-02	 2.362889540539958e+01
 1.008404344966822e+00	 9.097761837928382e-02	 2.348785845055881e+01
 1.006563431686269e+00	 1.094819984438203e-01	 2.330231942854392e+01
 1.004367687334138e+00	 1.280695070157070e-01	 2.307263819584480e+01
 1.001811493603026e+00	 1.467309826500149e-01	 2.279928295879757e+01
 9.988895084859243e-01	 1.654569424871888e-01	 2.248283157148819e+01
 9.955966855063876e-01	 1.842375905849211e-01	 2.212397235954243e+01
 1.025000000000000e+00	 0.000000000000000e+00	 2.306148849870505e+01
 1.024838677257182e+00	 1.818476278346252e-02	 2.310643418385875e+01
 1.024350095306508e+00	 3.649496190623553e-02	 2.310723687896766e+01
 1.023527459487344e+00	 5.492303408563875e-02	 2.306384768003566e+01
 1.022364158076741e+00	 7.346106639718697e-02	 2.297631578759285e+01
 1.020853781325163e+00	 9.210079884725078e-02	 2.284479136367541e+01
 1.018990140720485e+00	 1.108336280480742e-01	 2.266952803704581e+01
 1.016767288413778e+00	 1.296506120344168e-01	 2.245088502427444e+01
 1.014179536735822e+00	 1.485424762570972e-01	 2.218932883549568e+01
 1.011221477728904e+00	 1.674996207842254e-01	 2.188543453522117e+01
 1.007888002614400e+00	 1.865121287359399e-01	 2.153988653055092e+01
 1.037500000000000e+00	 0.000000000000000e+00	 2.242750291802862e+01
 1.037336709906687e+00	 1.840652818174046e-02	 2.247849412659539e+01
 1.036842169639627e+00	 3.694002241448514e-02	 2.248608539447735e+01
 1.036009501676469e+00	 5.559282718040499e-02	 2.245023153110057e+01
 1.034832013663499e+00	 7.435693305594146e-02	 2.237098460166582e+01
 1.033303217683504e+00	 9.322397931584123e-02	 2.224849674347772e+01
 1.031416849754700e+00	 1.121852576529908e-01	 2.208302263076785e+01
 1.029166889493419e+00	 1.312317170537988e-01	 2.187492155584558e+01
 1.026547579868618e+00	 1.503539698648304e-01	 2.162465909562049e+01
 1.023553446971883e+00	 1.695422990818606e-01	 2.133280833413223e+01
 1.020179319722413e+00	 1.887866668874734e-01	 2.100005061369994e+01
 1.050000000000000e+00	 0.000000000000000e+00	 2.184084482413576e+01
 1.049834742556193e+00	 1.862829358019793e-02	 2.189746370542483e+01
 1.049334243972746e+00	 3.738508292306705e-02	 2.191141312546919e+01
 1.048491543865594e+00	 5.626262027562888e-02	 2.188265211999565e+01
 1.047299869250256e+00	 7.525279971525092e-02	 2.181123618022928e+01
 1.045752654041845e+00	 9.434715978505519e-02	 2.169732002843957e+01
 1.043843558788917e+00	 1.135368872585703e-01	 2.154116004198440e+01
 1.041566490573060e+00	 1.328128220738529e-01	 2.134311629388459e+01
 1.038915623001414e+00	 1.521654634732144e-01	 2.110365417919649e+01
 1.035885416214862e+00	 1.715849773800943e-01	 2.082334559806111e+01
 1.032470636830427e+00	 1.910612050395216e-01	 2.050286966830847e+01
 1.062500000000000e+00	 0.000000000000000e+00	 2.129988751837312e+01
 1.062332775205699e+00	 1.885005897883492e-02	 2.136172555226785e+01
 1.061826318305864e+00	 3.783014343198125e-02	 2.138161233935581e+01
 1.060973586054718e+00	 5.693241337131042e-02	 2.135951164791524e+01
 1.059767724837014e+00	 7.614866637511535e-02	 2.129548294909969e+01
 1.058202090400185e+00	 9.547034025489266e-02	 2.118968415155464e+01
 1.056270267823133e+00	 1.148885168648125e-01	 2.104237398428615e+01
 1.053966091652700e+00	 1.343939270945790e-01	 2.085391399600468e+01
 1.051283666134210e+00	 1.539769570822494e-01	 2.062477014042323e+01
 1.048217385457841e+00	 1.736276556789267e-01	 2.035551391862458e+01
 1.044761953938439e+00	 1.933357431920845e-01	 2.004682305163600e+01
 1.075000000000000e+00	 0.000000000000000e+00	 2.080307996248665e+01
 1.074830807855204e+00	 1.907182437765143e-02	 2.086973745577839e+01
 1.074318392638983e+00	 3.827520394122774e-02	 2.089514994083445e+01
 1.073455628243843e+00	 5.760220646744962e-02	 2.087928641856066e+01
 1.072235580423771e+00	 7.704453303553466e-02	 2.082221088699675e+01
 1.070651526758527e+00	 9.659352072535370e-02	 2.072408503484104e+01
 1.068696976857348e+00	 1.162401464717175e-01	 2.058517058273623e+01
 1.066365692732341e+00	 1.359750321159773e-01	 2.040583124071706e+01
 1.063651709267006e+00	 1.557884506919352e-01	 2.018653425150223e+01
 1.060549354700821e+00	 1.756703339783577e-01	 1.992785149097358e+01
 1.057053271046452e+00	 1.956102813451620e-01	 1.963046009923463e+01
 1.087500000000000e+00	 0.000000000000000e+00	 2.034894243032302e+01
 1.087328840504711e+00	 1.929358977664748e-02	 2.042002804199105e+01
 1.086810466972101e+00	 3.872026445080654e-02	 2.045056318238781e+01
 1.085937670432968e+00	 5.827199956404649e-02	 2.044052257937578e+01
 1.084703436010529e+00	 7.794039969650891e-02	 2.038997529836501e+01
 1.083100963116868e+00	 9.771670119643823e-02	 2.029908739456990e+01
 1.081123685891564e+00	 1.175917760792853e-01	 2.016812421229136e+01
 1.078765293811981e+00	 1.375561371380476e-01	 1.999745229979325e+01
 1.076019752399802e+00	 1.575999443022719e-01	 1.978754090964839e+01
 1.072881323943800e+00	 1.777130122783873e-01	 1.953896305611856e+01
 1.069344588154466e+00	 1.978848194987542e-01	 1.925239610320811e+01
 1.100000000000000e+00	 0.000000000000000e+00	 1.993606245600587e+01
 1.099826873154216e+00	 1.951535517582304e-02	 2.001119274947023e+01
 1.099302541305220e+00	 3.916532496071764e-02	 2.004645566725098e+01
 1.098419712622092e+00	 5.894179266110097e-02	 2.004183215315243e+01
 1.097171291597287e+00	 7.883626635803816e-02	 1.999739687441238e+01
 1.095550399475209e+00	 9.883988166814628e-02	 1.991332083250103e+01
 1.093550394925780e+00	 1.189434056875159e-01	 1.978987361996703e+01
 1.091164894891622e+00	 1.391372421607900e-01	 1.962742529205698e+01
 1.088387795532598e+00	 1.594114379132595e-01	 1.942644782316878e+01
 1.085213293186779e+00	 1.797556905790154e-01	 1.918751611991504e+01
 1.081635905262479e+00	 2.001593576528611e-01	 1.891130856468035e+01
 1.112500000000000e+00	 0.000000000000000e+00	 1.956309105526868e+01
 1.112324905803722e+00	 1.973712057517813e-02	 1.964189007579716e+01
 1.111794615638338e+00	 3.961038547096103e-02	 1.968149362184120e+01
 1.110901754811217e+00	 5.961158575861313e-02	 1.968188933716832e+01
 1.109639147184044e+00	 7.973213302012230e-02	 1.964315801969644e+01
 1.107999835833550e+00	 9.996306214047786e-02	 1.956547619063078e+01
 1.105977103959996e+00	 1.202950352964092e-01	 1.944911830842954e+01
 1.103564495971262e+00	 1.407183471842045e-01	 1.929445859647127e+01
 1.100755838665393e+00	 1.612229315248979e-01	 1.910197245465960e+01
 1.097545262429758e+00	 1.817983688802421e-01	 1.887223742694835e+01
 1.093927222370492e+00	 2.024338958074826e-01	 1.860593369890671e+01
 1.125000000000000e+00	 0.000000000000000e+00	 1.922873919869889e+01
 1.124822938453228e+00	 1.995888597471274e-02	 1.931083807429154e+01
 1.124286689971457e+00	 4.005544598153672e-02	 1.935440241669228e+01
 1.123383797000342e+00	 6.028137885658293e-02	 1.935942704904908e+01
 1.122107002770802e+00	 8.062799968276138e-02	 1.932599942360515e+01
 1.120449272191891e+00	 1.010862426134330e-01	 1.925430214895674e+01
 1.118403812994212e+00	 1.216466649059652e-01	 1.914461516068235e+01
 1.115964097050903e+00	 1.422994522082910e-01	 1.899731750435273e+01
 1.113123881798189e+00	 1.630344251371873e-01	 1.881288870132352e+01
 1.109877231672737e+00	 1.838410471820675e-01	 1.859190966949322e+01
 1.106218539478505e+00	 2.047084339626188e-01	 1.833506317337758e+01
 9.833053683983746e-01	 1.819630524344169e-01	 2.275398198291727e+01
 9.796822644935034e-01	 2.005558790047255e-01	 2.242769026026042e+01
 9.756838834365029e-01	 2.191824800562895e-01	 2.205951505939331e+01
 9.713062287906588e-01	 2.378323146029681e-01	 2.165120382273479e+01
 9.665456696731551e-01	 2.564945776994924e-01	 2.120463752671277e+01
 9.613989581557346e-01	 2.751582148638952e-01	 2.072182661326007e+01
 9.558632460744549e-01	 2.938119377279353e-01	 2.020490613492269e+01
 9.499361011546518e-01	 3.124442408950446e-01	 1.965613011569938e+01
 9.436155223571460e-01	 3.310434199775670e-01	 1.907786513631333e+01
 9.368999543523497e-01	 3.495975907771368e-01	 1.847258315942484e+01
 9.297883010302649e-01	 3.680947095640363e-01	 1.784285361725636e+01
 9.955966855063876e-01	 1.842375905849211e-01	 2.212397235954243e+01
 9.919282928033321e-01	 2.030628274885299e-01	 2.182091940316696e+01
 9.878799319837496e-01	 2.219222610543536e-01	 2.147690577286745e+01
 9.834475566554662e-01	 2.408052185339226e-01	 2.109363248899000e+01
 9.786274905496307e-01	 2.597007599201509e-01	 2.067293116310865e+01
 9.734164451388825e-01	 2.785976925500452e-01	 2.021675999881299e+01
 9.678115366572296e-01	 2.974845869507597e-01	 1.972719902119236e+01
 9.618103024265737e-01	 3.163497939082676e-01	 1.920644453736220e+01
 9.554107163947458e-01	 3.351814627300659e-01	 1.865680283686279e+01
 9.486112037905381e-01	 3.539675606653077e-01	 1.808068314746386e+01
 9.414106548025766e-01	 3.726958934376526e-01	 1.748058986876320e+01
 1.007888002614400e+00	 1.865121287359399e-01	 2.153988653055092e+01
 1.004174321113151e+00	 2.055697759727489e-01	 2.125903665215211e+01
 1.000075980530958e+00	 2.246620420527318e-01	 2.093813705803159e+01
 9.955888845201883e-01	 2.437781224650910e-01	 2.057884408498260e+01
 9.907093114259543e-01	 2.629069421409228e-01	 2.018294178703508e+01
 9.854339321217915e-01	 2.820371702362078e-01	 1.975233800100125e+01
 9.797598272396584e-01	 3.011572361734960e-01	 1.928905965532028e+01
 9.736845036980223e-01	 3.202553469213019e-01	 1.879524732478774e+01
 9.672059104317243e-01	 3.393195054822754e-01	 1.827314904014623e+01
 9.603224532279363e-01	 3.583375305530889e-01	 1.772511336811950e+01
 9.530330085739085e-01	 3.772970773107793e-01	 1.715358178421910e+01
 1.020179319722413e+00	 1.887866668874734e-01	 2.100005061369994e+01
 1.016420349422961e+00	 2.080767244573826e-01	 2.074039938479848e+01
 1.012272029078130e+00	 2.274018230514244e-01	 2.044159799243131e+01
 1.007730212384825e+00	 2.467510263964731e-01	 2.010525978416537e+01
 1.002791132302125e+00	 2.661131243618078e-01	 1.973312301750623e+01
 9.974514191044608e-01	 2.854766479223831e-01	 1.932704698574528e+01
 9.917081178217403e-01	 3.048298853961441e-01	 1.888900740123977e+01
 9.855587049689970e-01	 3.241608999341473e-01	 1.842109103896318e+01
 9.790011044680813e-01	 3.434575482341956e-01	 1.792548964946701e+01
 9.720337026645446e-01	 3.627075004404805e-01	 1.740449315690625e+01
 9.646553623442610e-01	 3.818982611834161e-01	 1.686048216442603e+01
 1.032470636830427e+00	 1.910612050395216e-01	 2.050286966830847e+01
 1.028666377732762e+00	 2.105836729424308e-01	 2.026344235188978e+01
 1.024468077625263e+00	 2.301416040504314e-01	 1.998575343778685e+01
 1.019871540249377e+00	 2.497239303280692e-01	 1.967137493681525e+01
 1.014872953178144e+00	 2.693193065828061e-01	 1.932200102713091e+01
 1.009468906086891e+00	 2.889161256085709e-01	 1.893944423599709e+01
 1.003656408403476e+00	 3.085025346187041e-01	 1.852563089265871e+01
 9.974329062394982e-01	 3.280664529468040e-01	 1.808259585542717e+01
 9.907962985038169e-01	 3.475955909858267e-01	 1.761247652229962e+01
 9.837449521003627e-01	 3.670774703274826e-01	 1.711750614085598e+01
 9.762777161136343e-01	 3.864994450555633e-01	 1.660000643972603e+01
 1.044761953938439e+00	 1.933357431920845e-01	 2.004682305163600e+01
 1.040912406042553e+00	 2.130906214278937e-01	 1.982667312604586e+01
 1.036664126172359e+00	 2.328813850497527e-01	 1.956913958210063e+01
 1.032012868113843e+00	 2.526968342598790e-01	 1.927575470669053e+01
 1.026954774054010e+00	 2.725254888039177e-01	 1.894817027425389e+01
 1.021486393069082e+00	 2.923556032947711e-01	 1.858815378015017e+01
 1.015604698984865e+00	 3.121751838411760e-01	 1.819758395836691e+01
 1.009307107509526e+00	 3.319720059592721e-01	 1.777844558694315e+01
 1.002591492538931e+00	 3.517336337371683e-01	 1.733282359063265e+01
 9.954562015353910e-01	 3.714474402140948e-01	 1.686289645666410e+01
 9.879000698820278e-01	 3.911006289272207e-01	 1.637092898591090e+01
 1.057053271046452e+00	 1.956102813451620e-01	 1.963046009923463e+01
 1.053158434352335e+00	 2.155975699137711e-01	 1.942866786789508e+01
 1.048860174719417e+00	 2.356211660493882e-01	 1.919035979278016e+01
 1.044154195978224e+00	 2.556697381919028e-01	 1.891703001210754e+01
 1.039036594929724e+00	 2.757316710251425e-01	 1.861028953285503e+01
 1.033503880051033e+00	 2.957950809809841e-01	 1.827186251149045e+01
 1.027552989565909e+00	 3.158478330635599e-01	 1.790358183182440e+01
 1.021181308779080e+00	 3.358775589715513e-01	 1.750738398366070e+01
 1.014386686573424e+00	 3.558716764882207e-01	 1.708530325198531e+01
 1.007167450969629e+00	 3.758174101003176e-01	 1.663946523268585e+01
 9.995224236494423e-01	 3.957018127983884e-01	 1.617207969716100e+01
 1.069344588154466e+00	 1.978848194987542e-01	 1.925239610320811e+01
 1.065404462662107e+00	 2.181045184000633e-01	 1.906806738423456e+01
 1.061056223266437e+00	 2.383609470493381e-01	 1.884808075575267e+01
 1.056295523842520e+00	 2.586426421241405e-01	 1.859389374694307e+01
 1.051118415805285e+00	 2.789378532464805e-01	 1.830707819624836e+01
 1.045521367032745e+00	 2.992345586672095e-01	 1.798931657527150e+01
 1.039501280146605e+00	 3.195204822858554e-01	 1.764239762215726e+01
 1.033055510048160e+00	 3.397831119836419e-01	 1.726821128843807e+01
 1.026181880607295e+00	 3.600097192389838e-01	 1.686874300931944e+01
 1.018878700403077e+00	 3.801873799861507e-01	 1.644606731355355e+01
 1.011144777415877e+00	 4.003029966690664e-01	 1.600234079533327e+01
 1.081635905262479e+00	 2.001593576528611e-01	 1.891130856468035e+01
 1.077650490971870e+00	 2.206114668867699e-01	 1.874357345495238e+01
 1.073252271813420e+00	 2.411007280496023e-01	 1.854102887782191e+01
 1.068436851706730e+00	 2.616155460565918e-01	 1.830509725929545e+01
 1.063200236680694e+00	 2.821440354679318e-01	 1.803731283280155e+01
 1.057538854014219e+00	 3.026740363534475e-01	 1.773931800212525e+01
 1.051449570726956e+00	 3.231931315080629e-01	 1.741285902576747e+01
 1.044929711316766e+00	 3.436886649955435e-01	 1.705978102702922e+01
 1.037977074640545e+00	 3.641477619894577e-01	 1.668202234004839e+01
 1.030589949835735e+00	 3.845573498715942e-01	 1.628160820811535e+01
 1.022767131181332e+00	 4.049041805392548e-01	 1.586064385679780e+01
 1.093927222370492e+00	 2.024338958074826e-01	 1.860593369890671e+01
 1.089896519281624e+00	 2.231184153738912e-01	 1.845394540757305e+01
 1.085448320360364e+00	 2.438405090501808e-01	 1.826798693156258e+01
 1.080578179570856e+00	 2.645884499892571e-01	 1.804944706753967e+01
 1.075282057555951e+00	 2.853502176894963e-01	 1.779982397385433e+01
 1.069556340995452e+00	 3.061135140396980e-01	 1.752072156843414e+01
 1.063397861306960e+00	 3.268657807301824e-01	 1.721384525963208e+01
 1.056803912584899e+00	 3.475942180072564e-01	 1.688099701466275e+01
 1.049772268673173e+00	 3.682858047396423e-01	 1.652406977612413e+01
 1.042301199267603e+00	 3.889273197566481e-01	 1.614504124313092e+01
 1.034389484945809e+00	 4.095053644089534e-01	 1.574596703971240e+01
 1.106218539478505e+00	 2.047084339626188e-01	 1.833506317337758e+01
 1.102142547591368e+00	 2.256253638614272e-01	 1.819799692016637e+01
 1.097644368907272e+00	 2.465802900510737e-01	 1.802779092388860e+01
 1.092719507434896e+00	 2.675613539221362e-01	 1.782580179531184e+01
 1.087363878431055e+00	 2.885563999111739e-01	 1.759349311577552e+01
 1.081573827976446e+00	 3.095529917259612e-01	 1.733243186601151e+01
 1.075346151886618e+00	 3.305384299522137e-01	 1.704428419904889e+01
 1.068678113852559e+00	 3.514997710187806e-01	 1.673081056218197e+01
 1.061567462705179e+00	 3.724238474895377e-01	 1.639386017878497e+01
 1.054012448698681e+00	 3.932972896413123e-01	 1.603536490672081e+01
 1.046011838709305e+00	 4.141065482781622e-01	 1.565733249614532e+01
 9.297883010302649e-01	 3.680947095640363e-01	 1.784285361725636e+01
 9.222799379563009e-01	 3.865225944039564e-01	 1.721769846631068e+01
 9.143747236862125e-01	 4.048689474701951e-01	 1.657005707239099e+01
 9.060730098564396e-01	 4.231213782743761e-01	 1.590343584650845e+01
 8.973756499704220e-01	 4.412674277413337e-01	 1.522142529299218e+01
 8.882840068073012e-01	 4.592945930433334e-01	 1.452768652402555e+01
 8.787999583847406e-01	 4.771903531042267e-01	 1.382593713134635e+01
 8.689259024143142e-01	 4.949421946770166e-01	 1.311993649579165e+01
 8.586647591951593e-01	 5.125376388923134e-01	 1.241347062225690e+01
 8.480199728994641e-01	 5.299642681697645e-01	 1.171033659380837e+01
 8.369955112118155e-01	 5.472097533798151e-01	 1.101432674403384e+01
 9.414106548025766e-01	 3.726958934376526e-01	 1.748058986876320e+01
 9.338084371907733e-01	 3.913541268386016e-01	 1.689265975278565e+01
 9.258044077427657e-01	 4.099298093186076e-01	 1.628239887838061e+01
 9.173989224904455e-01	 4.284103955081879e-01	 1.565316442289393e+01
 9.085928456060454e-01	 4.467832705937361e-01	 1.500839536480603e+01
 8.993875569034437e-01	 4.650357754621704e-01	 1.435159952145979e+01
 8.897849578755234e-01	 4.831552325238889e-01	 1.368633996656223e+01
 8.797874762052527e-01	 5.011289721163065e-01	 1.301622090540641e+01
 8.693980686955066e-01	 5.189443593841651e-01	 1.234487309239953e+01
 8.586202225706245e-01	 5.365888215273571e-01	 1.167593888141981e+01
 8.474579551112504e-01	 5.540498753022077e-01	 1.101305700467110e+01
 9.530330085739085e-01	 3.772970773107793e-01	 1.715358178421910e+01
 9.453369364240809e-01	 3.961856592726618e-01	 1.660098828812550e+01
 9.372340917979960e-01	 4.149906711663489e-01	 1.602622891237668e+01
 9.287248351230007e-01	 4.336994127412525e-01	 1.543251528096586e+01
 9.198100412401194e-01	 4.522991134453253e-01	 1.482313855037353e+01
 9.104911069979682e-01	 4.707769578801373e-01	 1.420145695733669e+01
 9.007699573646499e-01	 4.891201119426346e-01	 1.357088276865806e+01
 8.906490499945261e-01	 5.073157495546431e-01	 1.293486870834718e+01
 8.801313781942111e-01	 5.253510798750376e-01	 1.229689394377890e+01
 8.692204722401954e-01	 5.432133748839548e-01	 1.166044971826450e+01
 8.579203990091799e-01	 5.608899972236004e-01	 1.102902472237717e+01
 9.646553623442610e-01	 3.818982611834161e-01	 1.686048216442603e+01
 9.568654356562231e-01	 4.010171917061370e-01	 1.634139994050008e+01
 9.486637758519040e-01	 4.200515330134196e-01	 1.580032597498339e+01
 9.400507477541058e-01	 4.389884299735700e-01	 1.524032990394181e+01
 9.310272368726441e-01	 4.578149562961006e-01	 1.466455864932382e+01
 9.215946570908742e-01	 4.765181402972340e-01	 1.407622446398530e+01
 9.117549568521194e-01	 4.950849913604636e-01	 1.347859240069194e+01
 9.015106237821341e-01	 5.135025269920270e-01	 1.287496727781406e+01
 8.908646876912724e-01	 5.317578003649310e-01	 1.226868022057952e+01
 8.798207219081765e-01	 5.498379282395579e-01	 1.166307486224143e+01
 8.683828429056041e-01	 5.677301191439930e-01	 1.106149329425817e+01
 9.762777161136343e-01	 3.864994450555633e-01	 1.660000643972603e+01
 9.683939348872000e-01	 4.058487241390272e-01	 1.611267013851095e+01
 9.600934599044899e-01	 4.251123948598194e-01	 1.560352536727978e+01
 9.513766603837601e-01	 4.442774472051405e-01	 1.507550323040756e+01
 9.422444325036197e-01	 4.633307991460626e-01	 1.453160989215937e+01
 9.326982071821625e-01	 4.822593227134609e-01	 1.397491510653033e+01
 9.227399563379315e-01	 5.010498707773759e-01	 1.340854019268720e+01
 9.123721975680773e-01	 5.196893044284582e-01	 1.283564552622370e+01
 9.015979971866909e-01	 5.381645208538457e-01	 1.225941762235530e+01
 8.904209715745676e-01	 5.564624815941661e-01	 1.168305589245512e+01
 8.788452868005231e-01	 5.745702410633855e-01	 1.110975915987131e+01
 9.879000698820278e-01	 3.911006289272207e-01	 1.637092898591090e+01
 9.799224341170119e-01	 4.106802565713322e-01	 1.591363036763669e+01
 9.715231439557533e-01	 4.301732567055483e-01	 1.543471556726260e+01
 9.627025730119644e-01	 4.495664644359640e-01	 1.493698050988423e+01
 9.534616281330460e-01	 4.688466419952109e-01	 1.442329397373438e+01
 9.438017572718324e-01	 4.880005051288175e-01	 1.389658659272760e+01
 9.337249558220870e-01	 5.070147501933717e-01	 1.335983932592833e+01
 9.232337713523547e-01	 5.258760818639360e-01	 1.281607146172607e+01
 9.123313066804664e-01	 5.445712413417811e-01	 1.226832823018413e+01
 9.010212212393695e-01	 5.630870349477797e-01	 1.171966810208629e+01
 8.893077306939365e-01	 5.814103629817780e-01	 1.117314985755112e+01
 9.995224236494423e-01	 3.957018127983884e-01	 1.617207969716100e+01
 9.914509333456585e-01	 4.155117890030526e-01	 1.574316491111216e+01
 9.829528280056942e-01	 4.352341185506064e-01	 1.529283513816498e+01
 9.740284856387178e-01	 4.548554816660403e-01	 1.482375437777330e+01
 9.646788237609235e-01	 4.743624848435458e-01	 1.433865729369910e+01
 9.549053073598841e-01	 4.937416875433039e-01	 1.384033867746251e+01
 9.447099553045856e-01	 5.129796296084510e-01	 1.333164239974820e+01
 9.340953451349669e-01	 5.320628592984610e-01	 1.281544991519660e+01
 9.230646161725991e-01	 5.509779618287377e-01	 1.229466839146312e+01
 9.116214709025816e-01	 5.697115883003986e-01	 1.177221853827100e+01
 8.997701745858451e-01	 5.882504848991706e-01	 1.125102221634104e+01
 1.011144777415877e+00	 4.003029966690664e-01	 1.600234079533327e+01
 1.002979432573140e+00	 4.203433214341877e-01	 1.560020781557451e+01
 9.943825120543131e-01	 4.402949803949937e-01	 1.517686984999462e+01
 9.853543982640206e-01	 4.601444988953695e-01	 1.473486213203054e+01
 9.758960193872512e-01	 4.798783276910670e-01	 1.427678838725894e+01
 9.660088574463180e-01	 4.994828699569205e-01	 1.380531074624803e+01
 9.556949547854272e-01	 5.189445090226136e-01	 1.332313916612287e+01
 9.449569189159139e-01	 5.382496367320331e-01	 1.283302042398782e+01
 9.337979256630885e-01	 5.573846823147149e-01	 1.233772675057984e+01
 9.222217205642039e-01	 5.763361416520226e-01	 1.184004417716061e+01
 9.102326184762480e-01	 5.950906068155633e-01	 1.134276067261931e+01
 1.022767131181332e+00	 4.049041805392548e-01	 1.586064385679780e+01
 1.014507931799456e+00	 4.251748538647378e-01	 1.548374006359732e+01
 1.005812196101609e+00	 4.453558422387101e-01	 1.508584999733058e+01
 9.966803108878730e-01	 4.654335161239517e-01	 1.466938319552079e+01
 9.871132150120300e-01	 4.853941705377748e-01	 1.423681553110868e+01
 9.771124075311334e-01	 5.052240523696667e-01	 1.379067956348468e+01
 9.666799542646118e-01	 5.249093884358594e-01	 1.333355441872626e+01
 9.558184926951958e-01	 5.444364141646523e-01	 1.286805525997009e+01
 9.445312351519353e-01	 5.637914027997134e-01	 1.239682241385614e+01
 9.328219702242366e-01	 5.829606950026520e-01	 1.192251022340951e+01
 9.206950623651458e-01	 6.019307287309560e-01	 1.144777570150035e+01
 1.034389484945809e+00	 4.095053644089534e-01	 1.574596703971240e+01
 1.026036431024607e+00	 4.300063862947030e-01	 1.539278693684010e+01
 1.017241880147583e+00	 4.504167040817556e-01	 1.501884789794299e+01
 1.008006223510275e+00	 4.707225333517867e-01	 1.462643674944994e+01
 9.983304106352595e-01	 4.909100133836690e-01	 1.421790451076454e+01
 9.882159576143311e-01	 5.109652347815431e-01	 1.379565717252293e+01
 9.776649537421397e-01	 5.308742678481889e-01	 1.336214602429512e+01
 9.666800664728121e-01	 5.506231915963183e-01	 1.291985759051393e+01
 9.552645446391390e-01	 5.701981232837328e-01	 1.247130323820328e+01
 9.434222198826796e-01	 5.895852483522865e-01	 1.201900852430437e+01
 9.311575062525380e-01	 6.087708506453484e-01	 1.156550235398454e+01
 1.046011838709305e+00	 4.141065482781622e-01	 1.565733249614532e+01
 1.037564930248593e+00	 4.348379187240830e-01	 1.532641555498801e+01
 1.028671564192235e+00	 4.554775659241303e-01	 1.497497555817115e+01
 1.019332136131226e+00	 4.760115505788748e-01	 1.460517952456826e+01
 1.009547606256940e+00	 4.964258562287497e-01	 1.421925653674086e+01
 9.993195076959104e-01	 5.167064171925492e-01	 1.381948893572152e+01
 9.886499532180107e-01	 5.368391472596017e-01	 1.340820308523677e+01
 9.775416402487633e-01	 5.568099690270316e-01	 1.298775976207339e+01
 9.659978541247000e-01	 5.766048437667730e-01	 1.256054423386728e+01
 9.540224695395332e-01	 5.962098017009265e-01	 1.212895608961762e+01
 9.416199501384250e-01	 6.156109725587411e-01	 1.169539889163099e+01
 8.369955112118155e-01	 5.472097533798151e-01	 1.101432674403384e+01
 8.255958632931958e-01	 5.642618811384013e-01	 1.032220531272430e+01
 8.138260360506314e-01	 5.811085811170719e-01	 9.630970951522887e+00
 8.016915487021741e-01	 5.977379532449607e-01	 8.944518768713458e+00
 7.891984256370140e-01	 6.141382946773878e-01	 8.266727270825559e+00
 7.763531875817183e-01	 6.302981264093361e-01	 7.601442189905442e+00
 7.631628410930560e-01	 6.462062194093811e-01	 6.952460399779491e+00
 7.496348664083717e-01	 6.618516201518141e-01	 6.323514031007133e+00
 7.357772036946522e-01	 6.772236754270479e-01	 5.718254893210801e+00
 7.215982377473873e-01	 6.923120563137026e-01	 5.140239311322826e+00
 7.071067811999999e-01	 7.071067811999999e-01	 4.592913479015059e+00
 8.474579551112504e-01	 5.540498753022077e-01	 1.101305700467110e+01
 8.359158115929692e-01	 5.713151546574315e-01	 1.035522558638513e+01
 8.239988615092374e-01	 5.883724383855524e-01	 9.697604832716729e+00
 8.117126930683318e-01	 6.052096776648181e-01	 9.043907402188932e+00
 7.990634059643095e-01	 6.218150233649912e-01	 8.397830377735673e+00
 7.860576024328196e-01	 6.381768529934919e-01	 7.763039829387494e+00
 7.727023766125910e-01	 6.542837971560034e-01	 7.143155467166088e+00
 7.590053022439359e-01	 6.701247654077456e-01	 6.541735489086945e+00
 7.449744187459286e-01	 6.856889713740123e-01	 5.962261728116532e+00
 7.306182157240029e-01	 7.009659570219055e-01	 5.408125199775483e+00
 7.159456159695000e-01	 7.159456159695000e-01	 4.882612148861363e+00
 8.579203990091799e-01	 5.608899972236004e-01	 1.102902472237717e+01
 8.462357598913327e-01	 5.783684281754621e-01	 1.040347946086865e+01
 8.341716869665182e-01	 5.956362956530330e-01	 9.777496208980002e+00
 8.217338374332409e-01	 6.126814020836755e-01	 9.154609128949412e+00
 8.089283862904220e-01	 6.294917520515947e-01	 8.538337769761620e+00
 7.957620172827934e-01	 6.460555795766478e-01	 7.932172350552998e+00
 7.822419121310444e-01	 6.623613749016258e-01	 7.339559135742928e+00
 7.683757380784541e-01	 6.783979106626776e-01	 6.763886002087181e+00
 7.541716337961848e-01	 6.941542673199765e-01	 6.208468296750656e+00
 7.396381936996136e-01	 7.096198577291084e-01	 5.676535083336310e+00
 7.247844507379998e-01	 7.247844507379999e-01	 5.171215869630195e+00
 8.683828429056041e-01	 5.677301191439930e-01	 1.106149329425817e+01
 8.565557081882860e-01	 5.854217016924925e-01	 1.046630033593345e+01
 8.443445124224748e-01	 6.029001529195133e-01	 9.870047824202777e+00
 8.317549817969009e-01	 6.201531265015331e-01	 9.276095242812408e+00
 8.187933666153511e-01	 6.371684807371980e-01	 8.687788361537342e+00
 8.054664321316400e-01	 6.539343061588038e-01	 8.108445226098768e+00
 7.917814476484165e-01	 6.704389526462485e-01	 7.541342241620600e+00
 7.777461739119264e-01	 6.866710559166093e-01	 6.989700445218138e+00
 7.633688488454204e-01	 7.026195632649410e-01	 6.456672062151537e+00
 7.486581716742190e-01	 7.182737584353109e-01	 5.945327437813192e+00
 7.336232855055000e-01	 7.336232855055000e-01	 5.458642434682275e+00
 8.788452868005231e-01	 5.745702410633855e-01	 1.110975915987131e+01
 8.668756564838288e-01	 5.924749752085229e-01	 1.054305129066555e+01
 8.545173378771065e-01	 6.101640101849937e-01	 9.974688774312510e+00
 8.417761261593122e-01	 6.276248509183908e-01	 9.407860104725028e+00
 8.286583469390975e-01	 6.448452094218015e-01	 8.845740898796093e+00
 8.151708469793590e-01	 6.618130327399596e-01	 8.291480579079947e+00
 8.013209831647067e-01	 6.785165303898708e-01	 7.748189152127996e+00
 7.871166097443530e-01	 6.949442011695413e-01	 7.218924173553491e+00
 7.725660638936355e-01	 7.110848592089053e-01	 6.706677989683051e+00
 7.576781496478195e-01	 7.269276591405139e-01	 6.214365343482729e+00
 7.424621202719999e-01	 7.424621202720001e-01	 5.744811429338381e+00
 8.893077306939365e-01	 5.814103629817780e-01	 1.117314985755112e+01
 8.771956047779617e-01	 5.995282487235530e-01	 1.063312333763586e+01
 8.646901633304135e-01	 6.174278674494742e-01	 1.009087295715382e+01
 8.517972705204740e-01	 6.350965753342479e-01	 9.549419785874205e+00
 8.385233272616601e-01	 6.525219381054047e-01	 9.011772791834087e+00
 8.248752618259512e-01	 6.696917593201157e-01	 8.480916203477115e+00
 8.108605186799150e-01	 6.865941081324930e-01	 7.959796969859157e+00
 7.964870455757337e-01	 7.032173464214730e-01	 7.451312405567715e+00
 7.817632789408300e-01	 7.195501551518694e-01	 6.958298105722133e+00
 7.666981276204146e-01	 7.355815598447166e-01	 6.483516214239007e+00
 7.513009550375001e-01	 7.513009550375001e-01	 6.029644125469958e+00
 8.997701745858451e-01	 5.882504848991706e-01	 1.125102221634104e+01
 8.875155530706845e-01	 6.065815222375835e-01	 1.073593379886038e+01
 8.748629887823961e-01	 6.246917247129546e-01	 1.021807763051689e+01
 8.618184148803874e-01	 6.425682997491056e-01	 9.700310805462852e+00
 8.483883075830400e-01	 6.601986667880082e-01	 9.185479030362307e+00
 8.345796766714155e-01	 6.775704858992714e-01	 8.676404653096231e+00
 8.204000541940423e-01	 6.946716858741154e-01	 8.175874792250372e+00
 8.058574814060682e-01	 7.114904916724046e-01	 7.686629649682611e+00
 7.909604939870044e-01	 7.280154510938338e-01	 7.211351087134170e+00
 7.757181055920049e-01	 7.442354605479196e-01	 6.752651545639177e+00
 7.601397898020000e-01	 7.601397898019999e-01	 6.313063383443994e+00
 9.102326184762480e-01	 5.950906068155633e-01	 1.134276067261931e+01
 8.978355013619972e-01	 6.136347957506137e-01	 1.085092479376304e+01
 8.850358142330540e-01	 6.319555819754350e-01	 1.035580206961144e+01
 8.718395592390517e-01	 6.500400241629630e-01	 9.860088955537385e+00
 8.582532879032364e-01	 6.678753954696115e-01	 9.366471173195025e+00
 8.442840915157530e-01	 6.854492124774274e-01	 8.877612393302885e+00
 8.299395897070877e-01	 7.027492636147378e-01	 8.396143022221443e+00
 8.152279172353567e-01	 7.197636369223365e-01	 7.924649170362247e+00
 8.001577090321583e-01	 7.364807470347983e-01	 7.465661879061455e+00
 7.847380835625897e-01	 7.528893612501224e-01	 7.021646680325275e+00
 7.689786245654999e-01	 7.689786245654999e-01	 6.594993560830026e+00
 9.206950623651458e-01	 6.019307287309560e-01	 1.144777570150035e+01
 9.081554496518998e-01	 6.206880692626442e-01	 1.097756183023192e+01
 8.952086396823874e-01	 6.392194392369155e-01	 1.050356631607754e+01
 8.818607035964670e-01	 6.575117485758205e-01	 1.002832820593901e+01
 8.681182682222500e-01	 6.755521241502151e-01	 9.554376406823488e+00
 8.539885063589624e-01	 6.933279390545832e-01	 9.084219010592085e+00
 8.394791252190520e-01	 7.108268413543603e-01	 8.620332725818868e+00
 8.245983530635995e-01	 7.280367821712683e-01	 8.165152490610566e+00
 8.093549240762918e-01	 7.449460429747625e-01	 7.721061338770695e+00
 7.937580615321697e-01	 7.615432619513252e-01	 7.290380589439511e+00
 7.778174593279999e-01	 7.778174593279999e-01	 6.875360427331925e+00
 9.311575062525380e-01	 6.087708506453484e-01	 1.156550235398454e+01
 9.184753979403921e-01	 6.277413427736747e-01	 1.111533249066100e+01
 9.053814651303959e-01	 6.464832964973959e-01	 1.066091001133159e+01
 8.918818479526330e-01	 6.649834729876779e-01	 1.020461968307977e+01
 8.779832485400803e-01	 6.832288528298185e-01	 9.748836667456398e+00
 8.636929212010450e-01	 7.012066656307392e-01	 9.295916475446932e+00
 8.490186607299344e-01	 7.189044190929826e-01	 8.848185033163691e+00
 8.339687888907961e-01	 7.363099274192001e-01	 8.407928928008330e+00
 8.185521391194046e-01	 7.534113389137267e-01	 7.977385903511659e+00
 8.027780395007446e-01	 7.701971626515282e-01	 7.558735668776279e+00
 7.866562940895000e-01	 7.866562940895000e-01	 7.154091085454349e+00
 9.416199501384250e-01	 6.156109725587411e-01	 1.169539889163099e+01
 9.287953462274744e-01	 6.347946162837050e-01	 1.126374520558820e+01
 9.155542905770797e-01	 6.537471537568762e-01	 1.082739130769037e+01
 9.019029923075504e-01	 6.724551973985354e-01	 1.038857071679945e+01
 8.878482288567273e-01	 6.909055815084219e-01	 9.949507821591446e+00
 8.733973360420002e-01	 7.090853922058951e-01	 9.512408454338903e+00
 8.585581962397351e-01	 7.269819968306050e-01	 9.079450579336193e+00
 8.433392247169470e-01	 7.445830726661317e-01	 8.652775161681413e+00
 8.277493541614975e-01	 7.618766348516912e-01	 8.234477280517629e+00
 8.117980174683143e-01	 7.788510633507310e-01	 7.826597548523490e+00
 7.954951288500001e-01	 7.954951288500001e-01	 7.431113896458443e+00
 7.071067811999999e-01	 7.071067811999999e-01	 4.592913479015059e+00
 6.923120563137025e-01	 7.215982377473872e-01	 4.083960383442352e+00
 6.772236754270478e-01	 7.357772036946522e-01	 3.591570489659753e+00
 6.618516201518141e-01	 7.496348664083716e-01	 3.118723145726063e+00
 6.462062194093813e-01	 7.631628410930559e-01	 2.668313110000144e+00
 6.302981264093362e-01	 7.763531875817182e-01	 2.243139540067785e+00
 6.141382946773881e-01	 7.891984256370137e-01	 1.845895588136707e+00
 5.977379532449610e-01	 8.016915487021739e-01	 1.479158664084275e+00
 5.811085811170723e-01	 8.138260360506312e-01	 1.145381420930303e+00
 5.642618811384018e-01	 8.255958632931955e-01	 8.468835106429631e-01
 5.472097533798151e-01	 8.369955112118155e-01	 5.858441509778293e-01
 7.159456159695000e-01	 7.159456159695000e-01	 4.882612148861363e+00
 7.009659570219053e-01	 7.306182157240030e-01	 4.391965897909678e+00
 6.856889713740122e-01	 7.449744187459286e-01	 3.916372444502662e+00
 6.701247654077458e-01	 7.590053022439357e-01	 3.458632878177563e+00
 6.542837971560036e-01	 7.727023766125908e-01	 3.021469054085770e+00
 6.381768529934920e-01	 7.860576024328195e-01	 2.607513299945414e+00
 6.218150233649915e-01	 7.990634059643091e-01	 2.219298697307495e+00
 6.052096776648186e-01	 8.117126930683318e-01	 1.859249993804734e+00
 5.883724383855530e-01	 8.239988615092370e-01	 1.529675196959721e+00
 5.713151546574324e-01	 8.359158115929688e-01	 1.232757893622087e+00
 5.540498753022077e-01	 8.474579551112504e-01	 9.705503322972366e-01
 7.247844507379998e-01	 7.247844507379999e-01	 5.171215869630195e+00
 7.096198577291083e-01	 7.396381936996136e-01	 4.696992554376029e+00
 6.941542673199766e-01	 7.541716337961849e-01	 4.236353228854884e+00
 6.783979106626776e-01	 7.683757380784542e-01	 3.791924120530208e+00
 6.623613749016261e-01	 7.822419121310443e-01	 3.366257442367886e+00
 6.460555795766482e-01	 7.957620172827933e-01	 2.961821807128203e+00
 6.294917520515949e-01	 8.089283862904216e-01	 2.580993184631792e+00
 6.126814020836757e-01	 8.217338374332406e-01	 2.226046454205554e+00
 5.956362956530332e-01	 8.341716869665180e-01	 1.899147598731157e+00
 5.783684281754625e-01	 8.462357598913323e-01	 1.602346580570587e+00
 5.608899972236003e-01	 8.579203990091798e-01	 1.337570933218152e+00
 7.336232855055000e-01	 7.336232855055000e-01	 5.458642434682275e+00
 7.182737584353108e-01	 7.486581716742190e-01	 4.999027392705181e+00
 7.026195632649409e-01	 7.633688488454202e-01	 4.551567970246920e+00
 6.866710559166094e-01	 7.777461739119265e-01	 4.118718797583840e+00
 6.704389526462485e-01	 7.917814476484162e-01	 3.702865578371787e+00
 6.539343061588040e-01	 8.054664321316398e-01	 3.306316201044483e+00
 6.371684807371982e-01	 8.187933666153508e-01	 2.931292362640538e+00
 6.201531265015334e-01	 8.317549817969007e-01	 2.579921752850490e+00
 6.029001529195136e-01	 8.443445124224743e-01	 2.254230840598981e+00
 5.854217016924929e-01	 8.565557081882855e-01	 1.956138299671258e+00
 5.677301191439930e-01	 8.683828429056042e-01	 1.687449103851786e+00
 7.424621202719999e-01	 7.424621202720001e-01	 5.744811429338381e+00
 7.269276591405137e-01	 7.576781496478194e-01	 5.298055963955981e+00
 7.110848592089053e-01	 7.725660638936355e-01	 4.862067086279279e+00
 6.949442011695413e-01	 7.871166097443529e-01	 4.439130968875452e+00
 6.785165303898705e-01	 8.013209831647063e-01	 4.031469816790188e+00
 6.618130327399598e-01	 8.151708469793592e-01	 3.641233666252426e+00
 6.448452094218017e-01	 8.286583469390970e-01	 3.270492666035439e+00
 6.276248509183910e-01	 8.417761261593117e-01	 2.921229884902115e+00
 6.101640101849942e-01	 8.545173378771063e-01	 2.595334683380278e+00
 5.924749752085233e-01	 8.668756564838282e-01	 2.294596682646854e+00
 5.745702410633855e-01	 8.788452868005230e-01	 2.020700357629742e+00
 7.513009550375001e-01	 7.513009550375001e-01	 6.029644125469958e+00
 7.355815598447167e-01	 7.666981276204147e-01	 5.594062417959129e+00
 7.195501551518695e-01	 7.817632789408299e-01	 5.167896561677598e+00
 7.032173464214733e-01	 7.964870455757336e-01	 4.753267291341858e+00
 6.865941081324931e-01	 8.108605186799150e-01	 4.352236207532228e+00
 6.696917593201157e-01	 8.248752618259508e-01	 3.966798253314322e+00
 6.525219381054053e-01	 8.385233272616602e-01	 3.598874644502501e+00
 6.350965753342483e-01	 8.517972705204742e-01	 3.250306292674524e+00
 6.174278674494746e-01	 8.646901633304133e-01	 2.922847755151439e+00
 5.995282487235538e-01	 8.771956047779614e-01	 2.618161741022776e+00
 5.814103629817781e-01	 8.893077306939365e-01	 2.337814196990679e+00
 7.601397898020000e-01	 7.601397898019999e-01	 6.313063383443994e+00
 7.442354605479196e-01	 7.757181055920047e-01	 5.887029584784023e+00
 7.280154510938339e-01	 7.909604939870044e-01	 5.469098206017520e+00
 7.114904916724047e-01	 8.058574814060682e-01	 5.061227449703457e+00
 6.946716858741158e-01	 8.204000541940424e-01	 4.665321094838748e+00
 6.775704858992717e-01	 8.345796766714155e-01	 4.283221642401008e+00
 6.601986667880085e-01	 8.483883075830395e-01	 3.916703886259605e+00
 6.425682997491058e-01	 8.618184148803871e-01	 3.567468944287586e+00
 6.246917247129552e-01	 8.748629887823960e-01	 3.237138779895520e+00
 6.065815222375840e-01	 8.875155530706840e-01	 2.927251239394235e+00
 5.882504848991708e-01	 8.997701745858451e-01	 2.639255625648032e+00
 7.689786245654999e-01	 7.689786245654999e-01	 6.594993560830026e+00
 7.528893612501225e-01	 7.847380835625901e-01	 6.176939050587045e+00
 7.364807470347983e-01	 8.001577090321584e-01	 5.765709893675954e+00
 7.197636369223366e-01	 8.152279172353567e-01	 5.363104557166241e+00
 7.027492636147382e-01	 8.299395897070879e-01	 4.970871675079468e+00
 6.854492124774276e-01	 8.442840915157526e-01	 4.590703854234262e+00
 6.678753954696118e-01	 8.582532879032362e-01	 4.224231877910702e+00
 6.500400241629634e-01	 8.718395592390513e-01	 3.873019337930796e+00
 6.319555819754356e-01	 8.850358142330536e-01	 3.538557721415987e+00
 6.136347957506144e-01	 8.978355013619969e-01	 3.222261973985596e+00
 5.950906068155634e-01	 9.102326184762480e-01	 2.925466556562076e+00
 7.778174593279999e-01	 7.778174593279999e-01	 6.875360427331925e+00
 7.615432619513252e-01	 7.937580615321698e-01	 6.463771228288473e+00
 7.449460429747624e-01	 8.093549240762917e-01	 6.057765787421856e+00
 7.280367821712684e-01	 8.245983530635994e-01	 5.658985528803198e+00
 7.108268413543607e-01	 8.394791252190520e-01	 5.269026516518059e+00
 6.933279390545833e-01	 8.539885063589621e-01	 4.889433912555226e+00
 6.755521241502154e-01	 8.681182682222498e-01	 4.521696805674509e+00
 6.575117485758207e-01	 8.818607035964664e-01	 4.167243437654942e+00
 6.392194392369160e-01	 8.952086396823867e-01	 3.827436849255803e+00
 6.206880692626449e-01	 9.081554496518994e-01	 3.503570964035084e+00
 6.019307287309560e-01	 9.206950623651458e-01	 3.196867123914844e+00
 7.866562940895000e-01	 7.866562940895000e-01	 7.154091085454349e+00
 7.701971626515279e-01	 8.027780395007448e-01	 6.747505423484526e+00
 7.534113389137267e-01	 8.185521391194046e-01	 6.345296546933758e+00
 7.363099274192003e-01	 8.339687888907965e-01	 5.948951429764326e+00
 7.189044190929827e-01	 8.490186607299340e-01	 5.559916044037668e+00
 7.012066656307393e-01	 8.636929212010448e-01	 5.179590461932308e+00
 6.832288528298186e-01	 8.779832485400799e-01	 4.809324302596329e+00
 6.649834729876783e-01	 8.918818479526329e-01	 4.450412546076249e+00
 6.464832964973964e-01	 9.053814651303955e-01	 4.104091732757151e+00
 6.277413427736752e-01	 9.184753979403918e-01	 3.771536562861114e+00
 6.087708506453484e-01	 9.311575062525379e-01	 3.453856906636979e+00
 7.954951288500001e-01	 7.954951288500001e-01	 7.431113896458443e+00
 7.788510633507308e-01	 8.117980174683144e-01	 7.028119895965568e+00
 7.618766348516911e-01	 8.277493541614976e-01	 6.628329523415636e+00
 7.445830726661320e-01	 8.433392247169471e-01	 6.233077800272081e+00
 7.269819968306053e-01	 8.585581962397351e-01	 5.843662991550651e+00
 7.090853922058953e-01	 8.733973360420000e-01	 5.461342344381953e+00
 6.909055815084221e-01	 8.878482288567272e-01	 5.087328145947116e+00
 6.724551973985359e-01	 9.019029923075501e-01	 4.722784118900960e+00
 6.537471537568769e-01	 9.155542905770793e-01	 4.368822168850148e+00
 6.347946162837055e-01	 9.287953462274742e-01	 4.026499494858319e+00
 6.156109725587411e-01	 9.416199501384250e-01	 3.696816070366136e+00
 5.472097533798151e-01	 8.369955112118155e-01	 5.858441509778293e-01
 5.299642681697644e-01	 8.480199728994640e-01	 3.997611368959533e-01
 5.125376388923134e-01	 8.586647591951594e-01	 2.242466949878671e-01
 4.949421946770166e-01	 8.689259024143141e-01	 6.032843968595754e-02
 4.771903531042269e-01	 8.787999583847403e-01	-9.100466021855663e-02
 4.592945930433337e-01	 8.882840068073012e-01	-2.288049730955145e-01
 4.412674277413340e-01	 8.973756499704219e-01	-3.521686426537164e-01
 4.231213782743766e-01	 9.060730098564395e-01	-4.602377676817828e-01
 4.048689474701956e-01	 9.143747236862123e-01	-5.522023203055126e-01
 3.865225944039570e-01	 9.222799379563006e-01	-6.273018016938555e-01
 3.680947095640363e-01	 9.297883010302649e-01	-6.848266360199178e-01
 5.540498753022077e-01	 8.474579551112504e-01	 9.705503322972366e-01
 5.365888215273570e-01	 8.586202225706244e-01	 7.723831309565393e-01
 5.189443593841651e-01	 8.693980686955066e-01	 5.850503666133802e-01
 5.011289721163066e-01	 8.797874762052528e-01	 4.095659981059167e-01
 4.831552325238891e-01	 8.897849578755235e-01	 2.469032007878069e-01
 4.650357754621707e-01	 8.993875569034435e-01	 9.799183356180619e-02
 4.467832705937365e-01	 9.085928456060449e-01	-3.628383232337051e-02
 4.284103955081883e-01	 9.173989224904452e-01	-1.550871191906446e-01
 4.099298093186080e-01	 9.258044077427652e-01	-2.576306820937559e-01
 3.913541268386022e-01	 9.338084371907733e-01	-3.431779817245257e-01
 3.726958934376526e-01	 9.414106548025766e-01	-4.110444934234156e-01
 5.608899972236003e-01	 8.579203990091798e-01	 1.337570933218152e+00
 5.432133748839548e-01	 8.692204722401957e-01	 1.127189075383058e+00
 5.253510798750377e-01	 8.801313781942111e-01	 9.278953277321896e-01
 5.073157495546432e-01	 8.906490499945261e-01	 7.406901392239802e-01
 4.891201119426348e-01	 9.007699573646497e-01	 5.665310605334399e-01
 4.707769578801375e-01	 9.104911069979682e-01	 4.063303696102559e-01
 4.522991134453255e-01	 9.198100412401192e-01	 2.609529673207884e-01
 4.336994127412528e-01	 9.287248351230004e-01	 1.312145451287827e-01
 4.149906711663495e-01	 9.372340917979960e-01	 1.788002470105221e-02
 3.961856592726625e-01	 9.453369364240807e-01	-7.833773263565935e-02
 3.772970773107793e-01	 9.530330085739084e-01	-1.567789504908623e-01
 5.677301191439930e-01	 8.683828429056042e-01	 1.687449103851786e+00
 5.498379282395577e-01	 8.798207219081762e-01	 1.464730878599243e+00
 5.317578003649310e-01	 8.908646876912723e-01	 1.253342885572712e+00
 5.135025269920271e-01	 9.015106237821341e-01	 1.054272184659918e+00
 4.950849913604638e-01	 9.117549568521192e-01	 8.684608443879193e-01
 4.765181402972344e-01	 9.215946570908742e-01	 6.968037261001934e-01
 4.578149562961010e-01	 9.310272368726438e-01	 5.401465464427513e-01
 4.389884299735704e-01	 9.400507477541058e-01	 3.992842185421857e-01
 4.200515330134201e-01	 9.486637758519038e-01	 2.749594701770199e-01
 4.010171917061375e-01	 9.568654356562227e-01	 1.678617352949170e-01
 3.818982611834161e-01	 9.646553623442610e-01	 7.862631342237880e-02
 5.745702410633855e-01	 8.788452868005230e-01	 2.020700357629742e+00
 5.564624815941662e-01	 8.904209715745679e-01	 1.785532449442753e+00
 5.381645208538457e-01	 9.015979971866910e-01	 1.561925956986187e+00
 5.196893044284583e-01	 9.123721975680770e-01	 1.350854647915373e+00
 5.010498707773762e-01	 9.227399563379314e-01	 1.153245225905850e+00
 4.822593227134611e-01	 9.326982071821623e-01	 9.699752736607141e-01
 4.633307991460628e-01	 9.422444325036196e-01	 8.018714823610659e-01
 4.442774472051409e-01	 9.513766603837600e-01	 6.497081663659885e-01
 4.251123948598199e-01	 9.600934599044898e-01	 5.142060598749871e-01
 4.058487241390278e-01	 9.683939348871998e-01	 3.960313903265869e-01
 3.864994450555633e-01	 9.762777161136343e-01	 2.957952215349255e-01
 5.814103629817781e-01	 8.893077306939365e-01	 2.337814196990679e+00
 5.630870349477796e-01	 9.010212212393696e-01	 2.090091344200110e+00
 5.445712413417813e-01	 9.123313066804662e-01	 1.854150738468765e+00
 5.258760818639362e-01	 9.232337713523550e-01	 1.630952928969176e+00
 5.070147501933719e-01	 9.337249558220868e-01	 1.421409347522442e+00
 4.880005051288177e-01	 9.438017572718324e-01	 1.226380410759470e+00
 4.688466419952113e-01	 9.534616281330459e-01	 1.046673916775309e+00
 4.495664644359644e-01	 9.627025730119640e-01	 8.830437334941821e-01
 4.301732567055489e-01	 9.715231439557529e-01	 7.361887738689270e-01
 4.106802565713329e-01	 9.799224341170115e-01	 6.067522511071222e-01
 3.911006289272207e-01	 9.879000698820278e-01	 4.953212053711575e-01
 5.882504848991708e-01	 8.997701745858451e-01	 2.639255625648032e+00
 5.697115883003985e-01	 9.116214709025819e-01	 2.378880298731625e+00
 5.509779618287376e-01	 9.230646161725989e-01	 2.130498259670207e+00
 5.320628592984612e-01	 9.340953451349671e-01	 1.895056890644994e+00
 5.129796296084511e-01	 9.447099553045852e-01	 1.673452421199646e+00
 4.937416875433043e-01	 9.549053073598841e-01	 1.466528189991576e+00
 4.743624848435461e-01	 9.646788237609232e-01	 1.275073209000121e+00
 4.548554816660406e-01	 9.740284856387172e-01	 1.099821025818017e+00
 4.352341185506070e-01	 9.829528280056942e-01	 9.414488775502898e-01
 4.155117890030531e-01	 9.914509333456581e-01	 8.005771279284624e-01
 3.957018127983884e-01	 9.995224236494423e-01	 6.777689775336233e-01
 5.950906068155634e-01	 9.102326184762480e-01	 2.925466556562076e+00
 5.763361416520227e-01	 9.222217205642042e-01	 2.652348654932745e+00
 5.573846823147151e-01	 9.337979256630887e-01	 2.391425829764484e+00
 5.382496367320332e-01	 9.449569189159140e-01	 2.143632326263819e+00
 5.189445090226138e-01	 9.556949547854271e-01	 1.909849218683735e+00
 4.994828699569208e-01	 9.660088574463179e-01	 1.690902832209683e+00
 4.798783276910674e-01	 9.758960193872510e-01	 1.487563475182314e+00
 4.601444988953700e-01	 9.853543982640203e-01	 1.300544475686221e+00
 4.402949803949942e-01	 9.943825120543127e-01	 1.130501514424509e+00
 4.203433214341882e-01	 1.002979432573140e+00	 9.780322438972915e-01
 4.003029966690664e-01	 1.011144777415877e+00	 8.436761822160164e-01
 6.019307287309560e-01	 9.206950623651458e-01	 3.196867123914844e+00
 5.829606950026519e-01	 9.328219702242370e-01	 2.910923689936452e+00
 5.637914027997134e-01	 9.445312351519353e-01	 2.637368385204537e+00
 5.444364141646524e-01	 9.558184926951957e-01	 2.377122327229193e+00
 5.249093884358597e-01	 9.666799542646118e-01	 2.131051460153266e+00
 5.052240523696671e-01	 9.771124075311334e-01	 1.899965137418740e+00
 4.853941705377752e-01	 9.871132150120299e-01	 1.684615022571832e+00
 4.654335161239521e-01	 9.966803108878728e-01	 1.485694300628607e+00
 4.453558422387106e-01	 1.005812196101609e+00	 1.303837190310289e+00
 4.251748538647384e-01	 1.014507931799456e+00	 1.139618745570254e+00
 4.049041805392548e-01	 1.022767131181332e+00	 9.935549331807054e-01
 6.087708506453484e-01	 9.311575062525379e-01	 3.453856906636979e+00
 5.895852483522863e-01	 9.434222198826796e-01	 3.155011855706603e+00
 5.701981232837326e-01	 9.552645446391391e-01	 2.868739746616285e+00
 5.506231915963185e-01	 9.666800664728121e-01	 2.595948558416484e+00
 5.308742678481890e-01	 9.776649537421396e-01	 2.337489109251559e+00
 5.109652347815433e-01	 9.882159576143307e-01	 2.094153800553871e+00
 4.909100133836695e-01	 9.983304106352595e-01	 1.866675687100313e+00
 4.707225333517872e-01	 1.008006223510275e+00	 1.655727863739304e+00
 4.504167040817562e-01	 1.017241880147583e+00	 1.461923157478176e+00
 4.300063862947036e-01	 1.026036431024607e+00	 1.285814111749163e+00
 4.095053644089534e-01	 1.034389484945808e+00	 1.127893248053021e+00
 6.156109725587411e-01	 9.416199501384250e-01	 3.696816070366136e+00
 5.962098017009264e-01	 9.540224695395332e-01	 3.384999935992266e+00
 5.766048437667730e-01	 9.659978541247000e-01	 3.085933791900223e+00
 5.568099690270316e-01	 9.775416402487633e-01	 2.800512448534505e+00
 5.368391472596018e-01	 9.886499532180105e-01	 2.529571581782664e+00
 5.167064171925495e-01	 9.993195076959103e-01	 2.273886639539818e+00
 4.964258562287501e-01	 1.009547606256940e+00	 2.034172081787724e+00
 4.760115505788752e-01	 1.019332136131226e+00	 1.811080943368066e+00
 4.554775659241308e-01	 1.028671564192235e+00	 1.605204706515402e+00
 4.348379187240837e-01	 1.037564930248593e+00	 1.417073468355786e+00
 4.141065482781622e-01	 1.046011838709305e+00	 1.247156386995186e+00
 3.680947095640363e-01	 9.297883010302649e-01	-6.848266360199178e-01
 3.495975907771368e-01	 9.368999543523497e-01	-6.845538024409148e-01
 3.310434199775671e-01	 9.436155223571460e-01	-6.814031001802654e-01
 3.124442408950447e-01	 9.499361011546517e-01	-6.752771049565847e-01
 2.938119377279355e-01	 9.558632460744549e-01	-6.660678503219493e-01
 2.751582148638955e-01	 9.613989581557346e-01	-6.536572642750036e-01
 2.564945776994927e-01	 9.665456696731550e-01	-6.379176870536951e-01
 2.378323146029685e-01	 9.713062287906586e-01	-6.187124652850495e-01
 2.191824800562900e-01	 9.756838834365028e-01	-5.958966169090245e-01
 2.005558790047262e-01	 9.796822644935033e-01	-5.693175606218879e-01
 1.819630524344169e-01	 9.833053683983746e-01	-5.388159030115967e-01
 3.726958934376526e-01	 9.414106548025766e-01	-4.110444934234156e-01
 3.539675606653077e-01	 9.486112037905382e-01	-4.280244679019638e-01
 3.351814627300657e-01	 9.554107163947457e-01	-4.414656147505316e-01
 3.163497939082678e-01	 9.618103024265738e-01	-4.512685437779722e-01
 2.974845869507599e-01	 9.678115366572296e-01	-4.573262501078874e-01
 2.785976925500455e-01	 9.734164451388825e-01	-4.595244066628150e-01
 2.597007599201513e-01	 9.786274905496308e-01	-4.577417301443378e-01
 2.408052185339230e-01	 9.834475566554659e-01	-4.518504170905664e-01
 2.219222610543540e-01	 9.878799319837492e-01	-4.417166458041000e-01
 2.030628274885305e-01	 9.919282928033322e-01	-4.272011392334067e-01
 1.842375905849211e-01	 9.955966855063876e-01	-4.081597832603396e-01
 3.772970773107793e-01	 9.530330085739084e-01	-1.567789504908623e-01
 3.583375305530888e-01	 9.603224532279364e-01	-1.908070652275835e-01
 3.393195054822754e-01	 9.672059104317243e-01	-2.206609090659144e-01
 3.202553469213020e-01	 9.736845036980224e-01	-2.462393205789311e-01
 3.011572361734961e-01	 9.797598272396583e-01	-2.674363821857209e-01
 2.820371702362082e-01	 9.854339321217914e-01	-2.841415691758451e-01
 2.629069421409231e-01	 9.907093114259542e-01	-2.962399648624441e-01
 2.437781224650914e-01	 9.955888845201885e-01	-3.036125398446168e-01
 2.246620420527323e-01	 1.000075980530958e+00	-3.061364925263783e-01
 2.055697759727496e-01	 1.004174321113151e+00	-3.036856472925580e-01
 1.865121287359399e-01	 1.007888002614400e+00	-2.961309060581607e-01
 3.818982611834161e-01	 9.646553623442610e-01	 7.862631342237880e-02
 3.627075004404804e-01	 9.720337026645445e-01	 2.775245235553059e-02
 3.434575482341956e-01	 9.790011044680814e-01	-1.833629219778898e-02
 3.241608999341474e-01	 9.855587049689971e-01	-5.953719447862049e-02
 3.048298853961442e-01	 9.917081178217401e-01	-9.574556403898971e-02
 2.854766479223834e-01	 9.974514191044608e-01	-1.268547518636343e-01
 2.661131243618082e-01	 1.002791132302125e+00	-1.527562155786160e-01
 2.467510263964736e-01	 1.007730212384825e+00	-1.733396430990166e-01
 2.274018230514250e-01	 1.012272029078129e+00	-1.884931332110922e-01
 2.080767244573832e-01	 1.016420349422961e+00	-1.981034307832323e-01
 1.887866668874734e-01	 1.020179319722413e+00	-2.020562135681696e-01
 3.864994450555633e-01	 9.762777161136343e-01	 2.957952215349255e-01
 3.670774703274824e-01	 9.837449521003626e-01	 2.282759111116406e-01
 3.475955909858267e-01	 9.907962985038169e-01	 1.661288394915359e-01
 3.280664529468041e-01	 9.974329062394982e-01	 1.094580779669343e-01
 3.085025346187044e-01	 1.003656408403476e+00	 5.836693633950807e-02
 2.889161256085711e-01	 1.009468906086891e+00	 1.295809923947600e-02
 2.693193065828065e-01	 1.014872953178144e+00	-2.666628990985265e-02
 2.497239303280696e-01	 1.019871540249376e+00	-6.040459800131703e-02
 2.301416040504319e-01	 1.024468077625263e+00	-8.815572424730300e-02
 2.105836729424314e-01	 1.028666377732761e+00	-1.098191740559784e-01
 1.910612050395216e-01	 1.032470636830427e+00	-1.252951829642894e-01
 3.911006289272207e-01	 9.879000698820278e-01	 4.953212053711575e-01
 3.714474402140946e-01	 9.954562015353907e-01	 4.113548121188917e-01
 3.517336337371683e-01	 1.002591492538931e+00	 3.333248898346406e-01
 3.319720059592722e-01	 1.009307107509526e+00	 2.613366249680193e-01
 3.121751838411762e-01	 1.015604698984865e+00	 1.954917798894638e-01
 2.923556032947714e-01	 1.021486393069082e+00	 1.358889712902283e-01
 2.725254888039181e-01	 1.026954774054010e+00	 8.262390264670305e-02
 2.526968342598795e-01	 1.032012868113843e+00	 3.578954868049289e-02
 2.328813850497531e-01	 1.036664126172358e+00	-4.523709322049374e-03
 2.130906214278943e-01	 1.040912406042553e+00	-3.822799757107287e-02
 1.933357431920845e-01	 1.044761953938439e+00	-6.523791260661138e-02
 3.957018127983884e-01	 9.995224236494423e-01	 6.777689775336233e-01
 3.758174101003174e-01	 1.007167450969629e+00	 5.775520943624997e-01
 3.558716764882207e-01	 1.014386686573424e+00	 4.838138186632936e-01
 3.358775589715515e-01	 1.021181308779080e+00	 3.966602103864112e-01
 3.158478330635600e-01	 1.027552989565908e+00	 3.161913048008280e-01
 2.957950809809843e-01	 1.033503880051033e+00	 2.425015327065934e-01
 2.757316710251428e-01	 1.039036594929724e+00	 1.756801008246560e-01
 2.556697381919033e-01	 1.044154195978224e+00	 1.158113289550933e-01
 2.356211660493888e-01	 1.048860174719417e+00	 6.297494146854543e-02
 2.155975699137717e-01	 1.053158434352334e+00	 1.724631164235824e-02
 1.956102813451620e-01	 1.057053271046452e+00	-2.130334174074378e-02
 4.003029966690664e-01	 1.011144777415877e+00	 8.436761822160164e-01
 3.801873799861506e-01	 1.018878700403077e+00	 7.274037762341703e-01
 3.600097192389839e-01	 1.026181880607295e+00	 6.181307765202106e-01
 3.397831119836419e-01	 1.033055510048160e+00	 5.159638638704791e-01
 3.195204822858556e-01	 1.039501280146605e+00	 4.210011542581440e-01
 2.992345586672098e-01	 1.045521367032745e+00	 3.333327606817940e-01
 2.789378532464808e-01	 1.051118415805285e+00	 2.530413209992441e-01
 2.586426421241408e-01	 1.056295523842520e+00	 1.802024870110581e-01
 2.383609470493386e-01	 1.061056223266437e+00	 1.148853710691191e-01
 2.181045184000638e-01	 1.065404462662107e+00	 5.715294749095046e-02
 1.978848194987542e-01	 1.069344588154466e+00	 7.062407025037576e-03
 4.049041805392548e-01	 1.022767131181332e+00	 9.935549331807054e-01
 3.845573498715942e-01	 1.030589949835736e+00	 8.614204851110838e-01
 3.641477619894577e-01	 1.037977074640545e+00	 7.367856279142695e-01
 3.436886649955436e-01	 1.044929711316767e+00	 6.197573998446400e-01
 3.231931315080631e-01	 1.051449570726956e+00	 5.104317932023745e-01
 3.026740363534478e-01	 1.057538854014218e+00	 4.088944577307823e-01
 2.821440354679321e-01	 1.063200236680694e+00	 3.152213755038682e-01
 2.616155460565923e-01	 1.068436851706730e+00	 2.294795012526003e-01
 2.411007280496028e-01	 1.073252271813419e+00	 1.517273631322991e-01
 2.206114668867706e-01	 1.077650490971870e+00	 8.201561999074558e-02
 2.001593576528611e-01	 1.081635905262479e+00	 2.038757222900101e-02
 4.095053644089534e-01	 1.034389484945808e+00	 1.127893248053021e+00
 3.889273197566479e-01	 1.042301199267603e+00	 9.800888838172410e-01
 3.682858047396424e-01	 1.049772268673173e+00	 8.402643718847607e-01
 3.475942180072565e-01	 1.056803912584900e+00	 7.085268340949364e-01
 3.268657807301825e-01	 1.063397861306960e+00	 5.849699228386349e-01
 3.061135140396982e-01	 1.069556340995452e+00	 4.696746659982858e-01
 2.853502176894966e-01	 1.075282057555951e+00	 3.627102885871083e-01
 2.645884499892575e-01	 1.080578179570855e+00	 2.641350037256283e-01
 2.438405090501814e-01	 1.085448320360364e+00	 1.739967666987585e-01
 2.231184153738919e-01	 1.089896519281624e+00	 9.233398694674921e-02
 2.024338958074826e-01	 1.093927222370491e+00	 1.917619394080372e-02
 4.141065482781622e-01	 1.046011838709305e+00	 1.247156386995186e+00
 3.932972896413123e-01	 1.054012448698682e+00	 1.083873001988057e+00
 3.724238474895377e-01	 1.061567462705179e+00	 9.290304678601233e-01
 3.514997710187807e-01	 1.068678113852559e+00	 7.827357059157449e-01
 3.305384299522138e-01	 1.075346151886617e+00	 6.450798008440930e-01
 3.095529917259615e-01	 1.081573827976446e+00	 5.161389872796061e-01
 2.885563999111744e-01	 1.087363878431055e+00	 3.959756179731728e-01
 2.675613539221366e-01	 1.092719507434895e+00	 2.846391049147794e-01
 2.465802900510743e-01	 1.097644368907271e+00	 1.821668258973324e-01
 2.256253638614278e-01	 1.102142547591368e+00	 8.858499018665578e-02
 2.047084339626188e-01	 1.106218539478505e+00	 3.909458120880949e-03
 1.819630524344169e-01	 9.833053683983746e-01	-5.388159030115967e-01
 1.634142641907509e-01	 9.865575392429453e-01	-4.920699502179957e-01
 1.449194890435836e-01	 9.894434504702300e-01	-4.499924851323693e-01
 1.264884019976694e-01	 9.919680862544974e-01	-4.126432128730899e-01
 1.081303688402294e-01	 9.941367226520524e-01	-3.800425858690870e-01
 8.985443791194073e-02	 9.959549086084808e-01	-3.521734030462809e-01
 7.166933308134309e-02	 9.974284469032259e-01	-3.289825547239071e-01
 5.358344789747966e-02	 9.985633751090948e-01	-3.103828939287450e-01
 3.560484089073371e-02	 9.993659466402712e-01	-2.962552148270285e-01
 1.774123198744578e-02	 9.998426119581703e-01	-2.864503191680789e-01
 0.000000000000000e+00	 1.000000000000000e+00	-2.807911520064135e-01
 1.842375905849211e-01	 9.955966855063876e-01	-4.081597832603396e-01
 1.654569424871889e-01	 9.988895084859244e-01	-3.765608453528277e-01
 1.467309826500151e-01	 1.001811493603026e+00	-3.478236155525178e-01
 1.280695070157072e-01	 1.004367687334138e+00	-3.220322110207077e-01
 1.094819984438205e-01	 1.006563431686268e+00	-2.992366225359935e-01
 9.097761837928414e-02	 1.008404344966822e+00	-2.794539663335902e-01
 7.256519973898776e-02	 1.009896302489984e+00	-2.626698771404978e-01
 5.425324099133060e-02	 1.011045417298220e+00	-2.488400254139234e-01
 3.604990139831873e-02	 1.011858020973390e+00	-2.378917416430615e-01
 1.796299738536468e-02	 1.012340644607676e+00	-2.297257306430676e-01
 0.000000000000000e+00	 1.012500000000000e+00	-2.242178589853743e-01
 1.865121287359399e-01	 1.007888002614400e+00	-2.961309060581607e-01
 1.674996207842255e-01	 1.011221477728904e+00	-2.794494464123463e-01
 1.485424762570973e-01	 1.014179536735822e+00	-2.638785987029713e-01
 1.296506120344171e-01	 1.016767288413778e+00	-2.495263002497570e-01
 1.108336280480745e-01	 1.018990140720485e+00	-2.364713733234391e-01
 9.210079884725111e-02	 1.020853781325163e+00	-2.247644357021836e-01
 7.346106639718736e-02	 1.022364158076741e+00	-2.144289481549375e-01
 5.492303408563919e-02	 1.023527459487344e+00	-2.054623841025354e-01
 3.649496190623605e-02	 1.024350095306508e+00	-1.978375064477866e-01
 1.818476278346310e-02	 1.024838677257182e+00	-1.915037364762022e-01
 0.000000000000000e+00	 1.025000000000000e+00	-1.863885998162540e-01
 1.887866668874734e-01	 1.020179319722413e+00	-2.020562135681696e-01
 1.695422990818606e-01	 1.023553446971883e+00	-2.000666890812859e-01
 1.503539698648305e-01	 1.026547579868618e+00	-1.974905123867297e-01
 1.312317170537990e-01	 1.029166889493419e+00	-1.944588809003291e-01
 1.121852576529911e-01	 1.031416849754700e+00	-1.910787764360933e-01
 9.322397931584156e-02	 1.033303217683504e+00	-1.874335403188616e-01
 7.435693305594188e-02	 1.034832013663499e+00	-1.835835813975524e-01
 5.559282718040544e-02	 1.036009501676469e+00	-1.795672044108430e-01
 3.694002241448566e-02	 1.036842169639627e+00	-1.754015457704377e-01
 1.840652818174105e-02	 1.037336709906688e+00	-1.710836036071037e-01
 0.000000000000000e+00	 1.037500000000000e+00	-1.665913488602078e-01
 1.910612050395216e-01	 1.032470636830427e+00	-1.252951829642894e-01
 1.715849773800944e-01	 1.035885416214862e+00	-1.377757950595133e-01
 1.521654634732146e-01	 1.038915623001414e+00	-1.480245615899265e-01
 1.328128220738531e-01	 1.041566490573059e+00	-1.561954104498642e-01
 1.135368872585706e-01	 1.043843558788917e+00	-1.624228444151070e-01
 9.434715978505553e-02	 1.045752654041845e+00	-1.668221864412578e-01
 7.525279971525133e-02	 1.047299869250256e+00	-1.694899540752037e-01
 5.626262027562935e-02	 1.048491543865594e+00	-1.705043525883063e-01
 3.738508292306758e-02	 1.049334243972746e+00	-1.699258759293709e-01
 1.862829358019852e-02	 1.049834742556193e+00	-1.677980042391547e-01
 0.000000000000000e+00	 1.050000000000000e+00	-1.641479864598381e-01
 1.933357431920845e-01	 1.044761953938439e+00	-6.523791260661138e-02
 1.736276556789268e-01	 1.048217385457841e+00	-9.197037288431975e-02
 1.539769570822495e-01	 1.051283666134210e+00	-1.148761886474250e-01
 1.343939270945792e-01	 1.053966091652700e+00	-1.341315177979197e-01
 1.148885168648128e-01	 1.056270267823132e+00	-1.498977774114203e-01
 9.547034025489304e-02	 1.058202090400186e+00	-1.623215646491252e-01
 7.614866637511571e-02	 1.059767724837014e+00	-1.715347032312313e-01
 5.693241337131089e-02	 1.060973586054718e+00	-1.776544071980468e-01
 3.783014343198180e-02	 1.061826318305864e+00	-1.807835530444986e-01
 1.885005897883552e-02	 1.062332775205699e+00	-1.810110508235367e-01
 0.000000000000000e+00	 1.062500000000000e+00	-1.784123044696675e-01
 1.956102813451620e-01	 1.057053271046452e+00	-2.130334174074378e-02
 1.756703339783578e-01	 1.060549354700821e+00	-6.207265125364714e-02
 1.557884506919354e-01	 1.063651709267005e+00	-9.746931525764024e-02
 1.359750321159775e-01	 1.066365692732341e+00	-1.276912491143292e-01
 1.162401464717178e-01	 1.068696976857348e+00	-1.529262080928904e-01
 9.659352072535407e-02	 1.070651526758527e+00	-1.733513891275829e-01
 7.704453303553507e-02	 1.072235580423771e+00	-1.891331548249324e-01
 5.760220646745011e-02	 1.073455628243843e+00	-2.004268735176615e-01
 3.827520394122830e-02	 1.074318392638983e+00	-2.073768683975397e-01
 1.907182437765204e-02	 1.074830807855205e+00	-2.101164681386134e-01
 0.000000000000000e+00	 1.075000000000000e+00	-2.087681509356072e-01
 1.978848194987542e-01	 1.069344588154466e+00	 7.062407025037576e-03
 1.777130122783873e-01	 1.072881323943800e+00	-4.753183418932894e-02
 1.575999443022721e-01	 1.076019752399801e+00	-9.525470573688510e-02
 1.375561371380478e-01	 1.078765293811981e+00	-1.363254346626812e-01
 1.175917760792856e-01	 1.081123685891564e+00	-1.709575675909658e-01
 9.771670119643860e-02	 1.083100963116868e+00	-1.993582583791595e-01
 7.794039969650934e-02	 1.084703436010529e+00	-2.217276749432715e-01
 5.827199956404695e-02	 1.085937670432968e+00	-2.382585210837513e-01
 3.872026445080710e-02	 1.086810466972101e+00	-2.491356682505681e-01
 1.929358977664810e-02	 1.087328840504710e+00	-2.545358914315630e-01
 0.000000000000000e+00	 1.087500000000000e+00	-2.546277027281625e-01
 2.001593576528611e-01	 1.081635905262479e+00	 2.038757222900101e-02
 1.797556905790155e-01	 1.085213293186779e+00	-4.782256834844567e-02
 1.594114379132596e-01	 1.088387795532598e+00	-1.077084418713579e-01
 1.391372421607902e-01	 1.091164894891622e+00	-1.595101669764456e-01
 1.189434056875161e-01	 1.093550394925780e+00	-2.034665628611436e-01
 9.883988166814665e-02	 1.095550399475209e+00	-2.398141277063788e-01
 7.883626635803856e-02	 1.097171291597286e+00	-2.687861334301327e-01
 5.894179266110147e-02	 1.098419712622093e+00	-2.906118345870938e-01
 3.916532496071819e-02	 1.099302541305220e+00	-3.055157882221704e-01
 1.951535517582367e-02	 1.099826873154216e+00	-3.137172805965034e-01
 0.000000000000000e+00	 1.100000000000000e+00	-3.154298559497031e-01
 2.024338958074826e-01	 1.093927222370491e+00	 1.917619394080372e-02
 1.817983688802422e-01	 1.097545262429758e+00	-6.244351366136680e-02
 1.612229315248981e-01	 1.100755838665393e+00	-1.343305005867772e-01
 1.407183471842047e-01	 1.103564495971262e+00	-1.967453816310001e-01
 1.202950352964094e-01	 1.105977103959997e+00	-2.499517566926417e-01
 9.996306214047822e-02	 1.107999835833549e+00	-2.942148846719350e-01
 7.973213302012272e-02	 1.109639147184044e+00	-3.298004710908642e-01
 5.961158575861362e-02	 1.110901754811217e+00	-3.569735692003353e-01
 3.961038547096159e-02	 1.111794615638339e+00	-3.759975932110864e-01
 1.973712057517876e-02	 1.112324905803722e+00	-3.871334412619474e-01
 0.000000000000000e+00	 1.112500000000000e+00	-3.906387248544028e-01
 2.047084339626188e-01	 1.106218539478505e+00	 3.909458120880949e-03
 1.838410471820675e-01	 1.109877231672737e+00	-9.091600926128329e-02
 1.630344251371875e-01	 1.113123881798189e+00	-1.746434264408596e-01
 1.422994522082913e-01	 1.115964097050903e+00	-2.475535326295817e-01
 1.216466649059655e-01	 1.118403812994212e+00	-3.099342423845490e-01
 1.010862426134333e-01	 1.120449272191891e+00	-3.620790195291843e-01
 8.062799968276181e-02	 1.122107002770802e+00	-4.042853624166760e-01
 6.028137885658343e-02	 1.123383797000342e+00	-4.368534022185016e-01
 4.005544598153728e-02	 1.124286689971457e+00	-4.600846146586015e-01
 1.995888597471339e-02	 1.124822938453228e+00	-4.742806444719878e-01
 0.000000000000000e+00	 1.125000000000000e+00	-4.797422408396130e-01
 1.125000000000000e+00	 0.000000000000000e+00	 1.922873919869889e+01
 1.124822938453228e+00	 1.995888597471274e-02	 1.931083807429154e+01
 1.124286689971457e+00	 4.005544598153672e-02	 1.935440241669228e+01
 1.123383797000342e+00	 6.028137885658293e-02	 1.935942704904908e+01
 1.122107002770802e+00	 8.062799968276138e-02	 1.932599942360515e+01
 1.120449272191891e+00	 1.010862426134330e-01	 1.925430214895674e+01
 1.118403812994212e+00	 1.216466649059652e-01	 1.914461516068235e+01
 1.115964097050903e+00	 1.422994522082910e-01	 1.899731750435273e+01
 1.113123881798189e+00	 1.630344251371873e-01	 1.881288870132352e+01
 1.109877231672737e+00	 1.838410471820675e-01	 1.859190966949322e+01
 1.106218539478505e+00	 2.047084339626188e-01	 1.833506317337758e+01
 1.137500000000000e+00	 0.000000000000000e+00	 1.881646278239402e+01
 1.137320971102731e+00	 2.018065137442460e-02	 1.890167939390884e+01
 1.136778764304567e+00	 4.050050649243549e-02	 1.894870836442170e+01
 1.135865839189446e+00	 6.095117195498952e-02	 1.895757826370608e+01
 1.134574858357522e+00	 8.152386634591800e-02	 1.892841130974250e+01
 1.132898708550173e+00	 1.022094230869528e-01	 1.886142580722401e+01
 1.130830522028343e+00	 1.229982945160989e-01	 1.875693821842876e+01
 1.128363698130427e+00	 1.438805572329329e-01	 1.861536483541335e+01
 1.125491924930832e+00	 1.648459187499742e-01	 1.843722302396981e+01
 1.122209200915521e+00	 1.858837254842960e-01	 1.822313201166715e+01
 1.118509856586275e+00	 2.069829721180270e-01	 1.797381319457586e+01
 1.150000000000000e+00	 0.000000000000000e+00	 1.842885600797057e+01
 1.149819003752230e+00	 2.040241677431140e-02	 1.851719547127154e+01
 1.149270838637657e+00	 4.094556700364810e-02	 1.856768645181872e+01
 1.148347881378508e+00	 6.162096505381197e-02	 1.858039124134598e+01
 1.147042713944167e+00	 8.241973300955485e-02	 1.855546682048754e+01
 1.145348144908337e+00	 1.033326035609785e-01	 1.849316720901944e+01
 1.143257231062303e+00	 1.243499241267248e-01	 1.839384543735122e+01
 1.140763299209717e+00	 1.454616622580135e-01	 1.825795510815983e+01
 1.137859968063168e+00	 1.666574123631049e-01	 1.808605151864105e+01
 1.134541170157914e+00	 1.879264037867323e-01	 1.787879231583223e+01
 1.130801173693560e+00	 2.092575102734646e-01	 1.763693765984589e+01
 1.162500000000000e+00	 0.000000000000000e+00	 1.806516300604639e+01
 1.162317036401724e+00	 2.062418217437315e-02	 1.815662480533062e+01
 1.161762912970730e+00	 4.139062751517460e-02	 1.821056965701933e+01
 1.160829923567528e+00	 6.229075815305031e-02	 1.822709356249780e+01
 1.159510569530738e+00	 8.331559967367190e-02	 1.820638827452295e+01
 1.157797581266385e+00	 1.044557840355102e-01	 1.814874355965287e+01
 1.155683940096093e+00	 1.257015537378430e-01	 1.805454907069499e+01
 1.153162900288774e+00	 1.470427672835326e-01	 1.792429579799624e+01
 1.150228011195196e+00	 1.684689059765797e-01	 1.775857707007444e+01
 1.146873139399917e+00	 1.899690820893765e-01	 1.755808907617314e+01
 1.143092490800359e+00	 2.115320484289315e-01	 1.732363088581424e+01
 1.175000000000000e+00	 0.000000000000000e+00	 1.772466007189269e+01
 1.174815069051214e+00	 2.084594757460985e-02	 1.781923823558030e+01
 1.174254987303784e+00	 4.183568802701497e-02	 1.787662346841161e+01
 1.173311965756507e+00	 6.296055125270457e-02	 1.789694548107749e+01
 1.171978425117234e+00	 8.421146633826908e-02	 1.788043082008762e+01
 1.170247017624314e+00	 1.055789645105478e-01	 1.782740504280538e+01
 1.168110649129713e+00	 1.270531833494537e-01	 1.773829449115284e+01
 1.165562501367597e+00	 1.486238723094903e-01	 1.761362763273199e+01
 1.162596054326918e+00	 1.702803995903985e-01	 1.745403593987986e+01
 1.159205108641529e+00	 1.920117603922284e-01	 1.726025427936028e+01
 1.155383807906674e+00	 2.138065865844276e-01	 1.703312078799781e+01
 1.187500000000000e+00	 0.000000000000000e+00	 1.740665397255757e+01
 1.187313101700699e+00	 2.106771297502151e-02	 1.750433723992418e+01
 1.186747061636820e+00	 4.228074853916918e-02	 1.756514417356978e+01
 1.185794007945443e+00	 6.363034435277468e-02	 1.758923820473596e+01
 1.184446280703655e+00	 8.510733300334646e-02	 1.757688070710538e+01
 1.182696453982126e+00	 1.067021449860912e-01	 1.752843308482574e+01
 1.180537358163162e+00	 1.284048129615565e-01	 1.744435844773602e+01
 1.177962102446187e+00	 1.502049773358866e-01	 1.732522284245517e+01
 1.174964097458333e+00	 1.720918932045612e-01	 1.717169600986241e+01
 1.171537077882749e+00	 1.940544386952882e-01	 1.698455164178741e+01
 1.167675125012503e+00	 2.160811247399532e-01	 1.676466711244106e+01
 1.200000000000000e+00	 0.000000000000000e+00	 1.711048035979436e+01
 1.199811134350180e+00	 2.128947837560811e-02	 1.721125233892483e+01
 1.199239135969837e+00	 4.272580905163728e-02	 1.727545725513002e+01
 1.198276050134338e+00	 6.430013745326070e-02	 1.730329228268554e+01
 1.196914136290001e+00	 8.600319966890399e-02	 1.729505366730552e+01
 1.195145890339820e+00	 1.078253254621407e-01	 1.725113872750796e+01
 1.192964067196440e+00	 1.297564425741518e-01	 1.717204743159121e+01
 1.190361703524544e+00	 1.517860823627215e-01	 1.705838351878890e+01
 1.187332140589441e+00	 1.739033868190680e-01	 1.691085513513721e+01
 1.183869047123579e+00	 1.960971169985557e-01	 1.673027495698174e+01
 1.179966442117847e+00	 2.183556628955082e-01	 1.651755977787595e+01
 1.212500000000000e+00	 0.000000000000000e+00	 1.683550228115940e+01
 1.212309166999656e+00	 2.151124377636965e-02	 1.693934159875952e+01
 1.211731210302836e+00	 4.317086956441923e-02	 1.700691588589039e+01
 1.210758092323192e+00	 6.496993055416259e-02	 1.703845609324821e+01
 1.209381991876273e+00	 8.689906633494171e-02	 1.703429339454213e+01
 1.207595326697396e+00	 1.089485059386960e-01	 1.699486110152202e+01
 1.205390776229548e+00	 1.311080721872393e-01	 1.692069614290057e+01
 1.202761304602666e+00	 1.533671873899949e-01	 1.681244007563689e+01
 1.199700183720242e+00	 1.757148804339188e-01	 1.667083959911336e+01
 1.196201016364018e+00	 1.981397953020310e-01	 1.649674654523631e+01
 1.192257759222705e+00	 2.206302010510924e-01	 1.629111732042880e+01
 1.225000000000000e+00	 0.000000000000000e+00	 1.658110878226699e+01
 1.224807199649127e+00	 2.173300917730615e-02	 1.668798922583176e+01
 1.224223284635816e+00	 4.361593007751505e-02	 1.675889951604750e+01
 1.223240134512003e+00	 6.563972365548039e-02	 1.679410442400318e+01
 1.221849847462470e+00	 8.779493300145964e-02	 1.679397011815510e+01
 1.220044763054855e+00	 1.100716864157573e-01	 1.675896599330797e+01
 1.217817485262486e+00	 1.324597018008191e-01	 1.668966605164530e+01
 1.215160905680556e+00	 1.549482924177070e-01	 1.658674980416910e+01
 1.212068226850737e+00	 1.775263740491136e-01	 1.645100266307078e+01
 1.208532985604066e+00	 2.001824736057143e-01	 1.628331579816258e+01
 1.204549076327078e+00	 2.229047392067060e-01	 1.608468543354910e+01
 1.237500000000000e+00	 0.000000000000000e+00	 1.634671359375623e+01
 1.237305232298594e+00	 2.195477457841760e-02	 1.645660424655792e+01
 1.236715358968778e+00	 4.406099059092473e-02	 1.653081254605518e+01
 1.235722176700773e+00	 6.630951675721405e-02	 1.656963713798606e+01
 1.234317703048592e+00	 8.869079966845773e-02	 1.657347926279412e+01
 1.232494199412197e+00	 1.111948668933245e-01	 1.654284449882488e+01
 1.230244194295253e+00	 1.338113314148913e-01	 1.647834404559566e+01
 1.227560506758211e+00	 1.565293974458576e-01	 1.638069551538408e+01
 1.224436269980924e+00	 1.793378676646523e-01	 1.625072320364142e+01
 1.220864954843724e+00	 2.022251519096052e-01	 1.608935781145221e+01
 1.216840393430966e+00	 2.251792773623488e-01	 1.589763559642733e+01
 1.250000000000000e+00	 0.000000000000000e+00	 1.613175389703980e+01
 1.249803264948056e+00	 2.217653997970400e-02	 1.624461926636664e+01
 1.249207433301722e+00	 4.450605110464827e-02	 1.632208307911172e+01
 1.248204218889501e+00	 6.697930985936361e-02	 1.636447791991598e+01
 1.246785558634639e+00	 8.958666633593600e-02	 1.637224018865312e+01
 1.244943635769421e+00	 1.123180473713976e-01	 1.634591175807492e+01
 1.242670903327850e+00	 1.351629610294558e-01	 1.628614115942136e+01
 1.239960107835634e+00	 1.581105024744469e-01	 1.619368426411750e+01
 1.236804313110804e+00	 1.811493612805350e-01	 1.606940443204167e+01
 1.233196924082991e+00	 2.042678302137040e-01	 1.591427209967294e+01
 1.229131710534368e+00	 2.274538155180211e-01	 1.572936378470813e+01
 1.106218539478505e+00	 2.047084339626188e-01	 1.833506317337758e+01
 1.102142547591368e+00	 2.256253638614272e-01	 1.819799692016637e+01
 1.097644368907272e+00	 2.465802900510737e-01	 1.802779092388860e+01
 1.092719507434896e+00	 2.675613539221362e-01	 1.782580179531184e+01
 1.087363878431055e+00	 2.885563999111739e-01	 1.759349311577552e+01
 1.081573827976446e+00	 3.095529917259612e-01	 1.733243186601151e+01
 1.075346151886618e+00	 3.305384299522137e-01	 1.704428419904889e+01
 1.068678113852559e+00	 3.514997710187806e-01	 1.673081056218197e+01
 1.061567462705179e+00	 3.724238474895377e-01	 1.639386017878497e+01
 1.054012448698681e+00	 3.932972896413123e-01	 1.603536490672081e+01
 1.046011838709305e+00	 4.141065482781622e-01	 1.565733249614532e+01
 1.118509856586275e+00	 2.069829721180270e-01	 1.797381319457586e+01
 1.114388575900822e+00	 2.281323123490921e-01	 1.784912916774094e+01
 1.109840417453845e+00	 2.493200710519664e-01	 1.769181958380567e+01
 1.104860835298564e+00	 2.705342578549000e-01	 1.750323028029157e+01
 1.099445699305754e+00	 2.917625821326358e-01	 1.728481294504947e+01
 1.093591314957006e+00	 3.129924694119225e-01	 1.703812152520435e+01
 1.087294442465818e+00	 3.342110791738725e-01	 1.676480798341063e+01
 1.080552315119742e+00	 3.554053240298770e-01	 1.646661740678638e+01
 1.073362656736697e+00	 3.765618902389651e-01	 1.614538247970561e+01
 1.065723698129263e+00	 3.976672595254847e-01	 1.580301733759272e+01
 1.057634192472302e+00	 4.187077321468711e-01	 1.544151082491310e+01
 1.130801173693560e+00	 2.092575102734646e-01	 1.763693765984589e+01
 1.126634604209704e+00	 2.306392608366003e-01	 1.752408530248615e+01
 1.122036465999790e+00	 2.520598520525441e-01	 1.737911650688005e+01
 1.117002163161574e+00	 2.735071617872195e-01	 1.720336737794357e+01
 1.111527520179795e+00	 2.949687643535529e-01	 1.699827878679540e+01
 1.105608801936938e+00	 3.164319470972682e-01	 1.676539275658934e+01
 1.099242733044450e+00	 3.378837283948746e-01	 1.650634819859070e+01
 1.092426516386447e+00	 3.593108770403062e-01	 1.622287600426773e+01
 1.085157850767857e+00	 3.806999329877463e-01	 1.591679350498873e+01
 1.077434947559639e+00	 4.020372294090629e-01	 1.558999831688448e+01
 1.069256546235278e+00	 4.233089160150696e-01	 1.524446159448535e+01
 1.143092490800359e+00	 2.115320484289315e-01	 1.732363088581424e+01
 1.138880632518016e+00	 2.331462093239517e-01	 1.722207116943021e+01
 1.134232514545106e+00	 2.547996330528071e-01	 1.708889924332556e+01
 1.129143491023926e+00	 2.764800657190944e-01	 1.692544250566004e+01
 1.123609341053178e+00	 2.981749465739247e-01	 1.673313207200964e+01
 1.117626288916241e+00	 3.198714247819978e-01	 1.651349913486792e+01
 1.111191023622513e+00	 3.415563776152200e-01	 1.626817067603610e+01
 1.104300717652674e+00	 3.632164300500684e-01	 1.599886453808863e+01
 1.096953044798661e+00	 3.848379757358811e-01	 1.570738386693241e+01
 1.089146196989810e+00	 4.064071992920468e-01	 1.539561094345377e+01
 1.080878899998233e+00	 4.279100998827580e-01	 1.506550042829960e+01
 1.155383807906674e+00	 2.138065865844276e-01	 1.703312078799781e+01
 1.151126660825756e+00	 2.356531578111465e-01	 1.694232565061279e+01
 1.146428563089792e+00	 2.575394140527553e-01	 1.682041781122807e+01
 1.141284818885619e+00	 2.794529696505251e-01	 1.666871697314622e+01
 1.135691161925902e+00	 3.013811287937518e-01	 1.648864554290104e+01
 1.129643775894916e+00	 3.233109024661115e-01	 1.628172496022546e+01
 1.123139314200007e+00	 3.452290268349085e-01	 1.604957138326795e+01
 1.116174918918422e+00	 3.671219830591637e-01	 1.579389073567313e+01
 1.108748238829107e+00	 3.889760184833697e-01	 1.551647312798758e+01
 1.100857446419777e+00	 4.107771691744366e-01	 1.521918667183967e+01
 1.092501253761168e+00	 4.325112837499361e-01	 1.490397071139778e+01
 1.167675125012503e+00	 2.160811247399532e-01	 1.676466711244106e+01
 1.163372689132924e+00	 2.381601062981845e-01	 1.668411892629478e+01
 1.158624611633849e+00	 2.602791950523886e-01	 1.657295298770999e+01
 1.153426146746654e+00	 2.824258735815113e-01	 1.643248230387751e+01
 1.147772982797968e+00	 3.045873110130340e-01	 1.626412160493232e+01
 1.141661262872963e+00	 3.267503801496095e-01	 1.606938364120039e+01
 1.135087604776933e+00	 3.489016760539403e-01	 1.584987483777235e+01
 1.128049120183692e+00	 3.710275360675916e-01	 1.560729031346127e+01
 1.120543432859196e+00	 3.931140612302118e-01	 1.534340827706564e+01
 1.112568695849540e+00	 4.151471390562321e-01	 1.506008381985855e+01
 1.104123607524082e+00	 4.371124676166038e-01	 1.475924212928906e+01
 1.179966442117847e+00	 2.183556628955082e-01	 1.651755977787595e+01
 1.175618717439522e+00	 2.406670547850658e-01	 1.644675084484264e+01
 1.170820660177278e+00	 2.630189760517072e-01	 1.634581470689715e+01
 1.165567474607031e+00	 2.853987775120529e-01	 1.621605866146559e+01
 1.159854803669377e+00	 3.077934932317711e-01	 1.605889078185895e+01
 1.153678749850381e+00	 3.301898578324914e-01	 1.587581617862426e+01
 1.147035895353290e+00	 3.525743252723154e-01	 1.566843262002296e+01
 1.139923321448485e+00	 3.749330890753527e-01	 1.543842551914801e+01
 1.132338626888928e+00	 3.972521039764076e-01	 1.518756230107714e+01
 1.124279945279097e+00	 4.195171089374333e-01	 1.491768616947501e+01
 1.115745961286976e+00	 4.417136514827613e-01	 1.463070929813386e+01
 1.192257759222705e+00	 2.206302010510924e-01	 1.629111732042880e+01
 1.187864745745548e+00	 2.431740032717905e-01	 1.622954939344453e+01
 1.183016708720077e+00	 2.657587570507109e-01	 1.613834055698043e+01
 1.177708802466750e+00	 2.883716814421504e-01	 1.601879337336278e+01
 1.171936624540126e+00	 3.109996754499633e-01	 1.587231026633257e+01
 1.165696236827171e+00	 3.336293355147576e-01	 1.570038974333849e+01
 1.158984185929078e+00	 3.562469744900338e-01	 1.550462197848170e+01
 1.151797522712798e+00	 3.788386420824467e-01	 1.528668376409261e+01
 1.144133820918304e+00	 4.013901467219569e-01	 1.504833284482852e+01
 1.135991194708451e+00	 4.238870788180404e-01	 1.479140165421695e+01
 1.127368315049849e+00	 4.463148353484084e-01	 1.451779047965882e+01
 1.204549076327078e+00	 2.229047392067060e-01	 1.608468543354910e+01
 1.200110774051002e+00	 2.456809517583584e-01	 1.603186926245609e+01
 1.195212757262247e+00	 2.684985380493998e-01	 1.594989436929403e+01
 1.189850130325810e+00	 2.913445853718033e-01	 1.584005954495165e+01
 1.184018445410218e+00	 3.142058576676106e-01	 1.570376255924302e+01
 1.177713723803332e+00	 3.370688131964078e-01	 1.554249634098973e+01
 1.170932476504299e+00	 3.599196237070955e-01	 1.535784452000747e+01
 1.163671723976633e+00	 3.827441950888736e-01	 1.515147633945828e+01
 1.155929014947322e+00	 4.055281894668601e-01	 1.492514095296640e+01
 1.147702444137599e+00	 4.282570486980532e-01	 1.468066112695285e+01
 1.138990668812702e+00	 4.509160192135453e-01	 1.441992637475020e+01
 1.216840393430966e+00	 2.251792773623488e-01	 1.589763559642733e+01
 1.212356802355885e+00	 2.481879002447696e-01	 1.585309049675561e+01
 1.207408805803788e+00	 2.712383190477738e-01	 1.577986489290415e+01
 1.201991458184212e+00	 2.943174893010117e-01	 1.567925475762944e+01
 1.196100266279652e+00	 3.174120398847128e-01	 1.555265419152445e+01
 1.189731210778864e+00	 3.405082908774421e-01	 1.540155155774691e+01
 1.182880767078950e+00	 3.635922729235002e-01	 1.522752497963407e+01
 1.175545925239990e+00	 3.866497480946335e-01	 1.503223721016137e+01
 1.167724208975982e+00	 4.096662322111168e-01	 1.481742988816727e+01
 1.159413693566543e+00	 4.326270185774718e-01	 1.458491720234938e+01
 1.150613022575534e+00	 4.555172030781720e-01	 1.433657899016322e+01
 1.229131710534368e+00	 2.274538155180211e-01	 1.572936378470813e+01
 1.224602830660197e+00	 2.506948487310240e-01	 1.569261722801788e+01
 1.219604854344699e+00	 2.739781000458331e-01	 1.562766454872246e+01
 1.214132786041956e+00	 2.972903932297759e-01	 1.553579984500724e+01
 1.208182087148427e+00	 3.206182221012702e-01	 1.541841452265317e+01
 1.201748697753769e+00	 3.439477685578606e-01	 1.527699338127498e+01
 1.194829057653032e+00	 3.672649221392482e-01	 1.511311006416143e+01
 1.187420126502869e+00	 3.905553010997262e-01	 1.492842188118387e+01
 1.179519403004286e+00	 4.138042749547273e-01	 1.472466402023616e+01
 1.171124942995283e+00	 4.369969884562962e-01	 1.450364316878152e+01
 1.162235376338345e+00	 4.601183869422883e-01	 1.426723057322849e+01
 1.046011838709305e+00	 4.141065482781622e-01	 1.565733249614532e+01
 1.037564930248593e+00	 4.348379187240830e-01	 1.532641555498801e+01
 1.028671564192235e+00	 4.554775659241303e-01	 1.497497555817115e+01
 1.019332136131226e+00	 4.760115505788748e-01	 1.460517952456826e+01
 1.009547606256940e+00	 4.964258562287497e-01	 1.421925653674086e+01
 9.993195076959104e-01	 5.167064171925492e-01	 1.381948893572152e+01
 9.886499532180107e-01	 5.368391472596017e-01	 1.340820308523677e+01
 9.775416402487633e-01	 5.568099690270316e-01	 1.298775976207339e+01
 9.659978541247000e-01	 5.766048437667730e-01	 1.256054423386728e+01
 9.540224695395332e-01	 5.962098017009265e-01	 1.212895608961762e+01
 9.416199501384250e-01	 6.156109725587411e-01	 1.169539889163099e+01
 1.057634192472302e+00	 4.187077321468711e-01	 1.544151082491310e+01
 1.049093429472079e+00	 4.396694511529656e-01	 1.512799172474377e+01
 1.040101248236386e+00	 4.605384277660148e-01	 1.479463394449443e+01
 1.030658048751678e+00	 4.813005678054846e-01	 1.444353970732408e+01
 1.020764801878120e+00	 5.019416990733694e-01	 1.407687019596343e+01
 1.010423057776990e+00	 5.224475996031163e-01	 1.369683691411228e+01
 9.996349526933814e-01	 5.428040266706026e-01	 1.330569263734271e+01
 9.884032140242147e-01	 5.629967464573652e-01	 1.290572200980257e+01
 9.767311636097610e-01	 5.830115642494709e-01	 1.249923184741284e+01
 9.646227191958864e-01	 6.028343550492662e-01	 1.208854121209391e+01
 9.520823940238123e-01	 6.224510944718811e-01	 1.167597132478041e+01
 1.069256546235278e+00	 4.233089160150696e-01	 1.524446159448535e+01
 1.060621928695730e+00	 4.445009835814379e-01	 1.494738085704968e+01
 1.051530932280860e+00	 4.655992896075891e-01	 1.463114327602419e+01
 1.041983961372580e+00	 4.865895850318852e-01	 1.429778816231145e+01
 1.031981997499850e+00	 5.074575419178803e-01	 1.394941070751678e+01
 1.021526607858687e+00	 5.281887820136757e-01	 1.358815350501511e+01
 1.010619952169409e+00	 5.487689060816964e-01	 1.321619768036553e+01
 9.992647878003310e-01	 5.691835238878922e-01	 1.283575368700293e+01
 9.874644730954648e-01	 5.894182847324629e-01	 1.244905182736128e+01
 9.752229688528294e-01	 6.094589083980005e-01	 1.205833256324703e+01
 9.625448379097046e-01	 6.292912163855157e-01	 1.166583668232480e+01
 1.080878899998233e+00	 4.279100998827580e-01	 1.506550042829960e+01
 1.072150427919546e+00	 4.493325160095001e-01	 1.478392430034161e+01
 1.062960616325657e+00	 4.706601514488539e-01	 1.448387091534020e+01
 1.053309873993932e+00	 4.918786022580766e-01	 1.416731851288593e+01
 1.043199193122128e+00	 5.129733847622828e-01	 1.383629815818714e+01
 1.032630157941003e+00	 5.339299644242272e-01	 1.349288541597479e+01
 1.021604951646094e+00	 5.547337854928831e-01	 1.313919165338152e+01
 1.010126361577113e+00	 5.753703013186130e-01	 1.277735502740417e+01
 9.981977825818115e-01	 5.958250052157493e-01	 1.240953121661124e+01
 9.858232185103620e-01	 6.160834617471294e-01	 1.203788396024511e+01
 9.730072817961023e-01	 6.361313382996451e-01	 1.166457547073557e+01
 1.092501253761168e+00	 4.325112837499361e-01	 1.490397071139778e+01
 1.083678927143527e+00	 4.541640484371521e-01	 1.463699001108922e+01
 1.074390300370775e+00	 4.757210132898089e-01	 1.435220966961760e+01
 1.064635786615735e+00	 4.971676194840585e-01	 1.405154865570470e+01
 1.054416388744956e+00	 5.184892276065766e-01	 1.373697573098096e+01
 1.043733708023937e+00	 5.396711468347709e-01	 1.341050127000337e+01
 1.032589951123436e+00	 5.606986649041628e-01	 1.307416872866846e+01
 1.020987935354560e+00	 5.815570787495272e-01	 1.273004581635341e+01
 1.008931092068801e+00	 6.022317256993295e-01	 1.238021543099864e+01
 9.964234681684848e-01	 6.227080150966529e-01	 1.202676641966205e+01
 9.834697256830054e-01	 6.429714602142690e-01	 1.167178422976458e+01
 1.104123607524082e+00	 4.371124676166038e-01	 1.475924212928906e+01
 1.095207426367674e+00	 4.589955808643940e-01	 1.450597115337302e+01
 1.085819984416216e+00	 4.807818751304540e-01	 1.423557645143766e+01
 1.075961699237989e+00	 5.024566367098313e-01	 1.394991948318462e+01
 1.065633584368334e+00	 5.240050704507618e-01	 1.365090848953462e+01
 1.054837258107488e+00	 5.454123292453066e-01	 1.334049045213462e+01
 1.043574950601434e+00	 5.666635443155353e-01	 1.302064272048458e+01
 1.031849509132672e+00	 5.877438561806352e-01	 1.269336436178249e+01
 1.019664401556434e+00	 6.086384461832040e-01	 1.236066729230003e+01
 1.007023717827197e+00	 6.293325684465709e-01	 1.202456725224562e+01
 9.939321695704136e-01	 6.498115821293877e-01	 1.168707468858708e+01
 1.115745961286976e+00	 4.417136514827613e-01	 1.463070929813386e+01
 1.106735925591986e+00	 4.638271132912256e-01	 1.439028478598821e+01
 1.097249668461980e+00	 4.858427369707892e-01	 1.413341102329797e+01
 1.087287611860693e+00	 5.077456539353947e-01	 1.386189368580619e+01
 1.076850779992260e+00	 5.295209132948384e-01	 1.357758223849797e+01
 1.065940808191658e+00	 5.511535116558346e-01	 1.328236202806874e+01
 1.054559950080090e+00	 5.726284237270007e-01	 1.297814606204876e+01
 1.042711082911450e+00	 5.939306336119368e-01	 1.266686652949010e+01
 1.030397711044709e+00	 6.150451666673727e-01	 1.235046612167322e+01
 1.017623967486499e+00	 6.359571217968834e-01	 1.203088921426266e+01
 1.004394613458327e+00	 6.566517040450012e-01	 1.171007297468599e+01
 1.127368315049849e+00	 4.463148353484084e-01	 1.451779047965882e+01
 1.118264424816463e+00	 4.686586457176470e-01	 1.428937063075819e+01
 1.108679352508066e+00	 4.909035988108147e-01	 1.404517481978163e+01
 1.098613524483847e+00	 5.130346711607490e-01	 1.378695462850224e+01
 1.088067975616736e+00	 5.350367561388065e-01	 1.351650245441015e+01
 1.077044358276446e+00	 5.568946940663547e-01	 1.323564372970500e+01
 1.065544949559402e+00	 5.785933031385589e-01	 1.294622884580022e+01
 1.053572656690893e+00	 6.001174110434317e-01	 1.265012483809710e+01
 1.041131020533627e+00	 6.214518871518355e-01	 1.234920688917370e+01
 1.028224217146390e+00	 6.425816751475903e-01	 1.204534971133839e+01
 1.014857057346746e+00	 6.634918259611092e-01	 1.174041887167119e+01
 1.138990668812702e+00	 4.509160192135453e-01	 1.441992637475020e+01
 1.129792924041105e+00	 4.734901781436583e-01	 1.420268991625774e+01
 1.120109036554474e+00	 4.959644606505302e-01	 1.397034984183865e+01
 1.109939437107452e+00	 5.183236883858939e-01	 1.372460529583873e+01
 1.099285171241760e+00	 5.405525989826659e-01	 1.346719328203175e+01
 1.088147908361853e+00	 5.626358764768669e-01	 1.319988100278467e+01
 1.076529949039371e+00	 5.845581825502102e-01	 1.292445792241804e+01
 1.064434230471001e+00	 6.063041884751205e-01	 1.264272760941278e+01
 1.051864330023189e+00	 6.278586076365928e-01	 1.235649941534152e+01
 1.038824466806871e+00	 6.492062284986921e-01	 1.206758005104000e+01
 1.025319501235670e+00	 6.703319478777121e-01	 1.177776512253824e+01
 1.150613022575534e+00	 4.555172030781720e-01	 1.433657899016322e+01
 1.141321423265912e+00	 4.783217105692595e-01	 1.412972429161329e+01
 1.131538720601204e+00	 5.010253224899361e-01	 1.390843761808057e+01
 1.121265349731507e+00	 5.236127056108295e-01	 1.367436730112438e+01
 1.110502366867334e+00	 5.460684418264167e-01	 1.342919659150530e+01
 1.099251458447877e+00	 5.683770588873712e-01	 1.317463611225257e+01
 1.087514948519997e+00	 5.905230619619543e-01	 1.291241605444532e+01
 1.075295804251774e+00	 6.124909659070027e-01	 1.264427817029400e+01
 1.062597639513394e+00	 6.342653281216439e-01	 1.237196762117680e+01
 1.049424716467942e+00	 6.558307818501883e-01	 1.209722474075848e+01
 1.035781945125100e+00	 6.771720697948095e-01	 1.182177677515404e+01
 1.162235376338345e+00	 4.601183869422883e-01	 1.426723057322849e+01
 1.152849922490885e+00	 4.831532429944503e-01	 1.406997480547555e+01
 1.142968404648257e+00	 5.060861843290319e-01	 1.385895822839732e+01
 1.132591262356013e+00	 5.289017228355558e-01	 1.363577995497343e+01
 1.121719562493458e+00	 5.515842846700590e-01	 1.340207109208621e+01
 1.110355008534519e+00	 5.741182412978676e-01	 1.315948730129685e+01
 1.098499948001281e+00	 5.964879413737912e-01	 1.290970112069599e+01
 1.086157378033213e+00	 6.186777433390787e-01	 1.265439410239284e+01
 1.073330949004241e+00	 6.406720486069893e-01	 1.239524882311682e+01
 1.060024966129602e+00	 6.624553352020790e-01	 1.213394082771748e+01
 1.046244389015035e+00	 6.840121917124017e-01	 1.187213056701328e+01
 9.416199501384250e-01	 6.156109725587411e-01	 1.169539889163099e+01
 9.287953462274744e-01	 6.347946162837050e-01	 1.126374520558820e+01
 9.155542905770797e-01	 6.537471537568762e-01	 1.082739130769037e+01
 9.019029923075504e-01	 6.724551973985354e-01	 1.038857071679945e+01
 8.878482288567273e-01	 6.909055815084219e-01	 9.949507821591446e+00
 8.733973360420002e-01	 7.090853922058951e-01	 9.512408454338903e+00
 8.585581962397351e-01	 7.269819968306050e-01	 9.079450579336193e+00
 8.433392247169470e-01	 7.445830726661317e-01	 8.652775161681413e+00
 8.277493541614975e-01	 7.618766348516912e-01	 8.234477280517629e+00
 8.117980174683143e-01	 7.788510633507310e-01	 7.826597548523490e+00
 7.954951288500001e-01	 7.954951288500001e-01	 7.431113896458443e+00
 9.520823940238123e-01	 6.224510944718811e-01	 1.167597132478041e+01
 9.391152945140595e-01	 6.418478897935279e-01	 1.126399613234910e+01
 9.257271160232740e-01	 6.610110110161846e-01	 1.084695501165264e+01
 9.119241366619902e-01	 6.799269218092460e-01	 1.042694554482586e+01
 8.977132091729143e-01	 6.985823101868938e-01	 1.000605647416147e+01
 8.831017508825175e-01	 7.169641187809249e-01	 9.586358826172733e+00
 8.680977317491259e-01	 7.350595745680968e-01	 9.169897154801664e+00
 8.527096605427205e-01	 7.528562179129182e-01	 8.758680965926676e+00
 8.369465692032501e-01	 7.703419307894854e-01	 8.354676383636850e+00
 8.208179954355866e-01	 7.875049640497287e-01	 7.959798116384873e+00
 8.043339636102501e-01	 8.043339636102501e-01	 7.575901778142076e+00
 9.625448379097046e-01	 6.292912163855157e-01	 1.166583668232480e+01
 9.494352428010591e-01	 6.489011633039358e-01	 1.127222419537641e+01
 9.358999414698121e-01	 6.682748682761483e-01	 1.087320163182407e+01
 9.219452810167237e-01	 6.873986462206629e-01	 1.047073325797429e+01
 9.075781894893646e-01	 7.062590388661032e-01	 1.006677473368135e+01
 8.928061657232872e-01	 7.248428453567026e-01	 9.663264776757654e+00
 8.776372672587778e-01	 7.431371523063274e-01	 9.262116951334924e+00
 8.620800963687846e-01	 7.611293631604144e-01	 8.865211638835765e+00
 8.461437842453429e-01	 7.788072267279392e-01	 8.474388248449305e+00
 8.298379734032688e-01	 7.961588647493163e-01	 8.091437721606127e+00
 8.131727983709998e-01	 8.131727983709998e-01	 7.718095381950508e+00
 9.730072817961023e-01	 6.361313382996451e-01	 1.166457547073557e+01
 9.597551910884740e-01	 6.559544368149283e-01	 1.128804991294934e+01
 9.460727669166951e-01	 6.755387255367674e-01	 1.090579135042937e+01
 9.319664253717509e-01	 6.948703706327861e-01	 1.051963327724850e+01
 9.174431698060769e-01	 7.139357675460493e-01	 1.013140075776088e+01
 9.025105805643084e-01	 7.327215719332285e-01	 9.742902621702841e+00
 8.871768027686909e-01	 7.512147300452967e-01	 9.355923788352056e+00
 8.714505321951391e-01	 7.694025084086192e-01	 8.972217774975388e+00
 8.553409992877762e-01	 7.872725226670531e-01	 8.593499442947650e+00
 8.388579513713611e-01	 8.048127654494942e-01	 8.221438032476390e+00
 8.220116331322499e-01	 8.220116331322499e-01	 7.857650533859321e+00
 9.834697256830054e-01	 6.429714602142690e-01	 1.167178422976458e+01
 9.700751393763041e-01	 6.630077103265059e-01	 1.131110810748954e+01
 9.562455923639225e-01	 6.828025827980423e-01	 1.094439694349898e+01
 9.419875697270718e-01	 7.023420950456155e-01	 1.057335592929162e+01
 9.273081501230523e-01	 7.216124962267327e-01	 1.019968194699269e+01
 9.122149954055820e-01	 7.406002985105027e-01	 9.825056285750058e+00
 8.967163382788652e-01	 7.592923077850046e-01	 9.451137492600447e+00
 8.808209680217846e-01	 7.776756536575339e-01	 9.079554409668496e+00
 8.645382143305497e-01	 7.957378186068262e-01	 8.711899447630552e+00
 8.478779293398637e-01	 8.134666661502616e-01	 8.349722142874295e+00
 8.308504678940001e-01	 8.308504678940001e-01	 7.994523042760860e+00
 9.939321695704136e-01	 6.498115821293877e-01	 1.168707468858708e+01
 9.803950876645493e-01	 6.700609838386684e-01	 1.134104715271148e+01
 9.664184178114943e-01	 6.900664400599723e-01	 1.098870311803729e+01
 9.520087140826864e-01	 7.098138194591513e-01	 1.063162187240526e+01
 9.371731304402908e-01	 7.292892249081534e-01	 1.027137445847906e+01
 9.219194102471076e-01	 7.484790250885244e-01	 9.909516902292676e+00
 9.062558737893012e-01	 7.673698855254514e-01	 9.547583581983444e+00
 8.901914038487204e-01	 7.859487989071573e-01	 9.187080785270268e+00
 8.737354293736630e-01	 8.042031145472591e-01	 8.829480502212945e+00
 8.568979073087760e-01	 8.221205668516193e-01	 8.476214497237427e+00
 8.396893026562502e-01	 8.396893026562502e-01	 8.128668701363495e+00
 1.004394613458327e+00	 6.566517040450012e-01	 1.171007297468599e+01
 9.907150359532092e-01	 6.771142573514157e-01	 1.137752826782586e+01
 9.765912432594107e-01	 6.973302973225582e-01	 1.103840589061766e+01
 9.620298584385946e-01	 7.172855438733935e-01	 1.069416155844222e+01
 9.470381107577920e-01	 7.369659535903109e-01	 1.034624274976413e+01
 9.316238250888850e-01	 7.563577516672941e-01	 9.996082437925010e+00
 9.157954092999983e-01	 7.754474632666368e-01	 9.645092969146042e+00
 8.995618396759473e-01	 7.942219441574904e-01	 9.294660132051902e+00
 8.829326444171172e-01	 8.126684104883521e-01	 8.946137461916608e+00
 8.659178852780987e-01	 8.307744675535668e-01	 8.600840820220306e+00
 8.485281374190000e-01	 8.485281374190000e-01	 8.260043287034364e+00
 1.014857057346746e+00	 6.634918259611092e-01	 1.174041887167119e+01
 1.001034984242285e+00	 6.841675308647481e-01	 1.142022485540080e+01
 9.867640687076716e-01	 7.045941545857993e-01	 1.109321200441496e+01
 9.720510027947967e-01	 7.247572682883416e-01	 1.076071472798446e+01
 9.569030910755562e-01	 7.446426822732061e-01	 1.042405915097577e+01
 9.413282399309146e-01	 7.642364782468121e-01	 1.008455734021573e+01
 9.253349448109566e-01	 7.835250410085610e-01	 9.743501683395294e+00
 9.089322755034644e-01	 8.024950894085326e-01	 9.402159462637901e+00
 8.921298594609115e-01	 8.211337064301045e-01	 9.061767662650343e+00
 8.749378632478313e-01	 8.394283682561041e-01	 8.723528050704193e+00
 8.573669721822499e-01	 8.573669721822500e-01	 8.388602562590378e+00
 1.025319501235670e+00	 6.703319478777121e-01	 1.177776512253824e+01
 1.011354932531775e+00	 6.912208043786654e-01	 1.146882187976190e+01
 9.969368941562768e-01	 7.118580118496960e-01	 1.115283838193002e+01
 9.820721471512923e-01	 7.322289927039963e-01	 1.083102993642802e+01
 9.667680713935828e-01	 7.523194109568380e-01	 1.050460346316329e+01
 9.510326547731961e-01	 7.721152048270781e-01	 1.017475220704567e+01
 9.348744803221760e-01	 7.916026187512237e-01	 9.842650609646462e+00
 9.183027113312726e-01	 8.107682346602844e-01	 9.509449379028903e+00
 9.013270745050462e-01	 8.295990023725169e-01	 9.176270794444452e+00
 8.839578412179739e-01	 8.480822689592314e-01	 8.844204279846362e+00
 8.662058069460000e-01	 8.662058069460000e-01	 8.514302277040438e+00
 1.035781945125100e+00	 6.771720697948095e-01	 1.182177677515404e+01
 1.021674880821681e+00	 6.982740778931678e-01	 1.152301528306510e+01
 1.007109719605227e+00	 7.191218691142480e-01	 1.121701161088240e+01
 9.920932915080820e-01	 7.397007171203575e-01	 1.090486410879076e+01
 9.766330517118729e-01	 7.599961396412075e-01	 1.058766258097803e+01
 9.607370696157297e-01	 7.799939314080919e-01	 1.026648347598623e+01
 9.444140158336568e-01	 7.996801964946254e-01	 9.942385243189674e+00
 9.276731471593713e-01	 8.190413799127453e-01	 9.616403891319974e+00
 9.105242895495208e-01	 8.380642983155886e-01	 9.289548782555395e+00
 8.929778191885266e-01	 8.567361696629487e-01	 8.962798692884686e+00
 8.750446417102501e-01	 8.750446417102501e-01	 8.637098166282772e+00
 1.046244389015035e+00	 6.840121917124017e-01	 1.187213056701328e+01
 1.031994829112001e+00	 7.053273514082546e-01	 1.158251143640512e+01
 1.017282545054521e+00	 7.263857263794559e-01	 1.128546746094909e+01
 1.002114435865165e+00	 7.471724415374245e-01	 1.098198212123094e+01
 9.864980320304253e-01	 7.676728683263137e-01	 1.067303013799354e+01
 9.704414844585151e-01	 7.878726579898537e-01	 1.035957313231454e+01
 9.539535513453987e-01	 8.077577742387658e-01	 1.004255545917185e+01
 9.370435829877606e-01	 8.273145251659155e-01	 9.722900247295982e+00
 9.197215045943361e-01	 8.465295942593203e-01	 9.401505675704771e+00
 9.019977971594894e-01	 8.653900703672559e-01	 9.079241514433352e+00
 8.838834764750000e-01	 8.838834764750000e-01	 8.756945953760678e+00
 7.954951288500001e-01	 7.954951288500001e-01	 7.431113896458443e+00
 7.788510633507308e-01	 8.117980174683144e-01	 7.028119895965568e+00
 7.618766348516911e-01	 8.277493541614976e-01	 6.628329523415636e+00
 7.445830726661320e-01	 8.433392247169471e-01	 6.233077800272081e+00
 7.269819968306053e-01	 8.585581962397351e-01	 5.843662991550651e+00
 7.090853922058953e-01	 8.733973360420000e-01	 5.461342344381953e+00
 6.909055815084221e-01	 8.878482288567272e-01	 5.087328145947116e+00
 6.724551973985359e-01	 9.019029923075501e-01	 4.722784118900960e+00
 6.537471537568769e-01	 9.155542905770793e-01	 4.368822168850148e+00
 6.347946162837055e-01	 9.287953462274742e-01	 4.026499494858319e+00
 6.156109725587411e-01	 9.416199501384250e-01	 3.696816070366136e+00
 8.043339636102501e-01	 8.043339636102501e-01	 7.575901778142076e+00
 7.875049640497286e-01	 8.208179954355866e-01	 7.179798600538634e+00
 7.703419307894857e-01	 8.369465692032504e-01	 6.786864365045107e+00
 7.528562179129183e-01	 8.527096605427203e-01	 6.398396991568835e+00
 7.350595745680969e-01	 8.680977317491256e-01	 6.015657033075618e+00
 7.169641187809250e-01	 8.831017508825173e-01	 5.639863589833658e+00
 6.985823101868941e-01	 8.977132091729141e-01	 5.272190547859847e+00
 6.799269218092464e-01	 9.119241366619899e-01	 4.913763158282022e+00
 6.610110110161852e-01	 9.257271160232733e-01	 4.565654970740743e+00
 6.418478897935284e-01	 9.391152945140590e-01	 4.228885130339100e+00
 6.224510944718810e-01	 9.520823940238121e-01	 3.904416044055209e+00
 8.131727983709998e-01	 8.131727983709998e-01	 7.718095381950508e+00
 7.961588647493163e-01	 8.298379734032689e-01	 7.328573445409190e+00
 7.788072267279395e-01	 8.461437842453429e-01	 6.942195212405009e+00
 7.611293631604142e-01	 8.620800963687844e-01	 6.560221941541794e+00
 7.431371523063276e-01	 8.776372672587778e-01	 6.183876873009420e+00
 7.248428453567030e-01	 8.928061657232867e-01	 5.814341317789368e+00
 7.062590388661033e-01	 9.075781894893641e-01	 5.452751076168446e+00
 6.873986462206633e-01	 9.219452810167234e-01	 5.100193200868799e+00
 6.682748682761487e-01	 9.358999414698115e-01	 4.757703116469040e+00
 6.489011633039364e-01	 9.494352428010588e-01	 4.426262103150793e+00
 6.292912163855158e-01	 9.625448379097047e-01	 4.106795149204021e+00
 8.220116331322499e-01	 8.220116331322499e-01	 7.857650533859321e+00
 8.048127654494940e-01	 8.388579513713611e-01	 7.474411423176242e+00
 7.872725226670528e-01	 8.553409992877761e-01	 7.094300267817396e+00
 7.694025084086196e-01	 8.714505321951391e-01	 6.718542082264221e+00
 7.512147300452968e-01	 8.871768027686908e-01	 6.348323169965789e+00
 7.327215719332288e-01	 9.025105805643083e-01	 5.984787386876763e+00
 7.139357675460497e-01	 9.174431698060764e-01	 5.629032739685492e+00
 6.948703706327866e-01	 9.319664253717506e-01	 5.282108332630616e+00
 6.755387255367677e-01	 9.460727669166946e-01	 4.945011673127354e+00
 6.559544368149288e-01	 9.597551910884736e-01	 4.618686342752454e+00
 6.361313382996451e-01	 9.730072817961023e-01	 4.304020036530206e+00
 8.308504678940001e-01	 8.308504678940001e-01	 7.994523042760860e+00
 8.134666661502615e-01	 8.478779293398638e-01	 7.617279049092456e+00
 7.957378186068262e-01	 8.645382143305497e-01	 7.243156798143972e+00
 7.776756536575337e-01	 8.808209680217844e-01	 6.873345455264912e+00
 7.592923077850048e-01	 8.967163382788653e-01	 6.508994740831849e+00
 7.406002985105028e-01	 9.122149954055819e-01	 6.151211367575605e+00
 7.216124962267330e-01	 9.273081501230521e-01	 5.801055818257925e+00
 7.023420950456158e-01	 9.419875697270713e-01	 5.459539476182054e+00
 6.828025827980426e-01	 9.562455923639220e-01	 5.127622117296327e+00
 6.630077103265065e-01	 9.700751393763041e-01	 4.806209768946792e+00
 6.429714602142689e-01	 9.834697256830051e-01	 4.496152936714166e+00
 8.396893026562502e-01	 8.396893026562502e-01	 8.128668701363495e+00
 8.221205668516191e-01	 8.568979073087760e-01	 7.757142386187580e+00
 8.042031145472591e-01	 8.737354293736630e-01	 7.388741184020756e+00
 7.859487989071573e-01	 8.901914038487202e-01	 7.024618784715019e+00
 7.673698855254515e-01	 9.062558737893011e-01	 6.665888657701324e+00
 7.484790250885247e-01	 9.219194102471072e-01	 6.313620662646480e+00
 7.292892249081535e-01	 9.371731304402904e-01	 5.968838006396783e+00
 7.098138194591518e-01	 9.520087140826861e-01	 5.632514557275496e+00
 6.900664400599729e-01	 9.664184178114940e-01	 5.305572524019969e+00
 6.700609838386691e-01	 9.803950876645489e-01	 4.988880502914352e+00
 6.498115821293877e-01	 9.939321695704137e-01	 4.683251893032686e+00
 8.485281374190000e-01	 8.485281374190000e-01	 8.260043287034364e+00
 8.307744675535665e-01	 8.659178852780989e-01	 7.893967068821953e+00
 8.126684104883521e-01	 8.829326444171173e-01	 7.531028966015619e+00
 7.942219441574904e-01	 8.995618396759469e-01	 7.172347546040124e+00
 7.754474632666368e-01	 9.157954092999980e-01	 6.819000338748966e+00
 7.563577516672944e-01	 9.316238250888849e-01	 6.472020620032526e+00
 7.369659535903115e-01	 9.470381107577917e-01	 6.132394547930248e+00
 7.172855438733938e-01	 9.620298584385945e-01	 5.801058660887683e+00
 6.973302973225586e-01	 9.765912432594104e-01	 5.478897743968339e+00
 6.771142573514164e-01	 9.907150359532090e-01	 5.166743065058778e+00
 6.566517040450012e-01	 1.004394613458327e+00	 4.865370979452560e+00
 8.573669721822499e-01	 8.573669721822500e-01	 8.388602562590378e+00
 8.394283682561042e-01	 8.749378632478314e-01	 8.027718324782359e+00
 8.211337064301045e-01	 8.921298594609115e-01	 7.669994887930789e+00
 8.024950894085328e-01	 9.089322755034644e-01	 7.316516030288756e+00
 7.835250410085610e-01	 9.253349448109562e-01	 6.968323633484164e+00
 7.642364782468123e-01	 9.413282399309145e-01	 6.626414638778446e+00
 7.446426822732063e-01	 9.569030910755558e-01	 6.291738362327157e+00
 7.247572682883421e-01	 9.720510027947962e-01	 5.965194177651395e+00
 7.045941545857998e-01	 9.867640687076713e-01	 5.647629569642762e+00
 6.841675308647487e-01	 1.001034984242284e+00	 5.339838560613602e+00
 6.634918259611091e-01	 1.014857057346746e+00	 5.042560505234551e+00
 8.662058069460000e-01	 8.662058069460000e-01	 8.514302277040438e+00
 8.480822689592312e-01	 8.839578412179739e-01	 8.158360996026181e+00
 8.295990023725168e-01	 9.013270745050461e-01	 7.805612937454103e+00
 8.107682346602842e-01	 9.183027113312724e-01	 7.457107404559766e+00
 7.916026187512240e-01	 9.348744803221758e-01	 7.113850902784844e+00
 7.721152048270784e-01	 9.510326547731961e-01	 6.776804268463518e+00
 7.523194109568384e-01	 9.667680713935827e-01	 6.446880163287069e+00
 7.322289927039969e-01	 9.820721471512921e-01	 6.124940941322193e+00
 7.118580118496967e-01	 9.969368941562767e-01	 5.811796891404734e+00
 6.912208043786661e-01	 1.011354932531775e+00	 5.508204853885771e+00
 6.703319478777120e-01	 1.025319501235670e+00	 5.214867207010121e+00
 8.750446417102501e-01	 8.750446417102501e-01	 8.637098166282772e+00
 8.567361696629487e-01	 8.929778191885266e-01	 8.285859558167214e+00
 8.380642983155886e-01	 9.105242895495208e-01	 7.937856384346825e+00
 8.190413799127454e-01	 9.276731471593713e-01	 7.594103768767212e+00
 7.996801964946257e-01	 9.444140158336568e-01	 7.255573094081171e+00
 7.799939314080920e-01	 9.607370696157294e-01	 6.923189302609366e+00
 7.599961396412075e-01	 9.766330517118722e-01	 6.597828570142776e+00
 7.397007171203579e-01	 9.920932915080817e-01	 6.280316357913184e+00
 7.191218691142488e-01	 1.007109719605227e+00	 5.971425844048518e+00
 6.982740778931683e-01	 1.021674880821680e+00	 5.671876731938546e+00
 6.771720697948095e-01	 1.035781945125100e+00	 5.382334429217112e+00
 8.838834764750000e-01	 8.838834764750000e-01	 8.756945953760678e+00
 8.653900703672558e-01	 9.019977971594894e-01	 8.410178138793235e+00
 8.465295942593203e-01	 9.197215045943362e-01	 8.066697816339561e+00
 8.273145251659157e-01	 9.370435829877607e-01	 7.727486209000110e+00
 8.077577742387659e-01	 9.539535513453987e-01	 7.393479812027435e+00
 7.878726579898540e-01	 9.704414844585149e-01	 7.065567866482523e+00
 7.676728683263140e-01	 9.864980320304252e-01	 6.744590212578398e+00
 7.471724415374250e-01	 1.002114435865165e+00	 6.431335527082618e+00
 7.263857263794565e-01	 1.017282545054521e+00	 6.126539944579767e+00
 7.053273514082554e-01	 1.031994829112000e+00	 5.830886058454066e+00
 6.840121917124017e-01	 1.046244389015035e+00	 5.545002293709485e+00
 6.156109725587411e-01	 9.416199501384250e-01	 3.696816070366136e+00
 5.962098017009264e-01	 9.540224695395332e-01	 3.384999935992266e+00
 5.766048437667730e-01	 9.659978541247000e-01	 3.085933791900223e+00
 5.568099690270316e-01	 9.775416402487633e-01	 2.800512448534505e+00
 5.368391472596018e-01	 9.886499532180105e-01	 2.529571581782664e+00
 5.167064171925495e-01	 9.993195076959103e-01	 2.273886639539818e+00
 4.964258562287501e-01	 1.009547606256940e+00	 2.034172081787724e+00
 4.760115505788752e-01	 1.019332136131226e+00	 1.811080943368066e+00
 4.554775659241308e-01	 1.028671564192235e+00	 1.605204706515402e+00
 4.348379187240837e-01	 1.037564930248593e+00	 1.417073468355786e+00
 4.141065482781622e-01	 1.046011838709305e+00	 1.247156386995186e+00
 6.224510944718810e-01	 9.520823940238121e-01	 3.904416044055209e+00
 6.028343550492661e-01	 9.646227191958865e-01	 3.596984480673274e+00
 5.830115642494710e-01	 9.767311636097610e-01	 3.300587477119725e+00
 5.629967464573653e-01	 9.884032140242146e-01	 3.016015984311703e+00
 5.428040266706029e-01	 9.996349526933817e-01	 2.744009174405702e+00
 5.224475996031166e-01	 1.010423057776989e+00	 2.485253666335974e+00
 5.019416990733697e-01	 1.020764801878120e+00	 2.240383039781516e+00
 4.813005678054852e-01	 1.030658048751678e+00	 2.009977625716099e+00
 4.605384277660153e-01	 1.040101248236386e+00	 1.794564559984650e+00
 4.396694511529662e-01	 1.049093429472078e+00	 1.594618084892121e+00
 4.187077321468711e-01	 1.057634192472302e+00	 1.410560082598783e+00
 6.292912163855158e-01	 9.625448379097047e-01	 4.106795149204021e+00
 6.094589083980003e-01	 9.752229688528293e-01	 3.802822916659494e+00
 5.894182847324629e-01	 9.874644730954647e-01	 3.508211253955423e+00
 5.691835238878924e-01	 9.992647878003311e-01	 3.223648374304202e+00
 5.487689060816965e-01	 1.010619952169409e+00	 2.949777941698923e+00
 5.281887820136760e-01	 1.021526607858687e+00	 2.687198614906336e+00
 5.074575419178806e-01	 1.031981997499849e+00	 2.436463835415802e+00
 4.865895850318857e-01	 1.041983961372579e+00	 2.198081846454254e+00
 4.655992896075897e-01	 1.051530932280860e+00	 1.972515928863225e+00
 4.445009835814387e-01	 1.060621928695729e+00	 1.760184838575356e+00
 4.233089160150698e-01	 1.069256546235278e+00	 1.561463429623859e+00
 6.361313382996451e-01	 9.730072817961023e-01	 4.304020036530206e+00
 6.160834617471291e-01	 9.858232185103623e-01	 4.002615838156256e+00
 5.958250052157492e-01	 9.981977825818114e-01	 3.708938525266319e+00
 5.753703013186131e-01	 1.010126361577113e+00	 3.423574639220597e+00
 5.547337854928833e-01	 1.021604951646094e+00	 3.147073279027898e+00
 5.339299644242276e-01	 1.032630157941003e+00	 2.879945963410862e+00
 5.129733847622833e-01	 1.043199193122128e+00	 2.622666692951127e+00
 4.918786022580771e-01	 1.053309873993932e+00	 2.375672198355853e+00
 4.706601514488546e-01	 1.062960616325656e+00	 2.139362359971011e+00
 4.493325160095007e-01	 1.072150427919546e+00	 1.914100783001004e+00
 4.279100998827580e-01	 1.080878899998233e+00	 1.700215512477157e+00
 6.429714602142689e-01	 9.834697256830051e-01	 4.496152936714166e+00
 6.227080150966526e-01	 9.964234681684844e-01	 4.196458023322969e+00
 6.022317256993296e-01	 1.008931092068801e+00	 3.902895532483235e+00
 5.815570787495273e-01	 1.020987935354560e+00	 3.615951345745342e+00
 5.606986649041629e-01	 1.032589951123436e+00	 3.336080889924060e+00
 5.396711468347712e-01	 1.043733708023936e+00	 3.063709316990180e+00
 5.184892276065770e-01	 1.054416388744956e+00	 2.799231840740060e+00
 4.971676194840591e-01	 1.064635786615735e+00	 2.543014215197096e+00
 4.757210132898095e-01	 1.074390300370775e+00	 2.295393339173187e+00
 4.541640484371527e-01	 1.083678927143527e+00	 2.056677971143977e+00
 4.325112837499361e-01	 1.092501253761168e+00	 1.827149538557336e+00
 6.498115821293877e-01	 9.939321695704137e-01	 4.683251893032686e+00
 6.293325684465706e-01	 1.007023717827196e+00	 4.384438740381071e+00
 6.086384461832042e-01	 1.019664401556434e+00	 4.090201732526932e+00
 5.877438561806352e-01	 1.031849509132672e+00	 3.800927051487544e+00
 5.666635443155355e-01	 1.043574950601434e+00	 3.516977296181537e+00
 5.454123292453070e-01	 1.054837258107488e+00	 3.238691980029760e+00
 5.240050704507622e-01	 1.065633584368333e+00	 2.966388142590549e+00
 5.024566367098319e-01	 1.075961699237989e+00	 2.700361059072743e+00
 4.807818751304545e-01	 1.085819984416216e+00	 2.440885031430944e+00
 4.589955808643948e-01	 1.095207426367674e+00	 2.188214244864830e+00
 4.371124676166038e-01	 1.104123607524082e+00	 1.942583673886695e+00
 6.566517040450012e-01	 1.004394613458327e+00	 4.865370979452560e+00
 6.359571217968834e-01	 1.017623967486498e+00	 4.566642034589466e+00
 6.150451666673726e-01	 1.030397711044709e+00	 4.270970151167494e+00
 5.939306336119369e-01	 1.042711082911450e+00	 3.978642722120499e+00
 5.726284237270008e-01	 1.054559950080089e+00	 3.689930316072534e+00
 5.511535116558349e-01	 1.065940808191658e+00	 3.405087492657376e+00
 5.295209132948389e-01	 1.076850779992260e+00	 3.124353689669444e+00
 5.077456539353953e-01	 1.087287611860692e+00	 2.847954164754176e+00
 4.858427369707898e-01	 1.097249668461979e+00	 2.576100974597928e+00
 4.638271132912263e-01	 1.106735925591985e+00	 2.308993975072116e+00
 4.417136514827614e-01	 1.115745961286976e+00	 2.046821826516272e+00
 6.634918259611091e-01	 1.014857057346746e+00	 5.042560505234551e+00
 6.425816751475903e-01	 1.028224217146390e+00	 4.743146997469871e+00
 6.214518871518357e-01	 1.041131020533627e+00	 4.445307714527010e+00
 6.001174110434320e-01	 1.053572656690893e+00	 4.149232122718153e+00
 5.785933031385591e-01	 1.065544949559402e+00	 3.855099512982274e+00
 5.568946940663551e-01	 1.077044358276446e+00	 3.563080134055777e+00
 5.350367561388070e-01	 1.088067975616736e+00	 3.273336355793168e+00
 5.130346711607495e-01	 1.098613524483847e+00	 2.986023844191297e+00
 4.909035988108152e-01	 1.108679352508065e+00	 2.701292730302375e+00
 4.686586457176479e-01	 1.118264424816463e+00	 2.419288756101150e+00
 4.463148353484084e-01	 1.127368315049849e+00	 2.140154381472818e+00
 6.703319478777120e-01	 1.025319501235670e+00	 5.214867207010121e+00
 6.492062284986920e-01	 1.038824466806871e+00	 4.914028019548010e+00
 6.278586076365926e-01	 1.051864330023189e+00	 4.613315560286283e+00
 6.063041884751207e-01	 1.064434230471001e+00	 4.312822185133009e+00
 5.845581825502105e-01	 1.076529949039371e+00	 4.012636616577079e+00
 5.626358764768672e-01	 1.088147908361853e+00	 3.712845394959396e+00
 5.405525989826665e-01	 1.099285171241760e+00	 3.413534318721048e+00
 5.183236883858944e-01	 1.109939437107452e+00	 3.114789854002543e+00
 4.959644606505308e-01	 1.120109036554474e+00	 2.816700494979220e+00
 4.734901781436591e-01	 1.129792924041105e+00	 2.519358057580155e+00
 4.509160192135453e-01	 1.138990668812702e+00	 2.222858890708876e+00
 6.771720697948095e-01	 1.035781945125100e+00	 5.382334429217112e+00
 6.558307818501883e-01	 1.049424716467942e+00	 5.079355027778305e+00
 6.342653281216438e-01	 1.062597639513393e+00	 4.775089330030150e+00
 6.124909659070029e-01	 1.075295804251774e+00	 4.469533353108137e+00
 5.905230619619546e-01	 1.087514948519997e+00	 4.162685918446440e+00
 5.683770588873716e-01	 1.099251458447877e+00	 3.854550421515725e+00
 5.460684418264172e-01	 1.110502366867334e+00	 3.545136549855622e+00
 5.236127056108301e-01	 1.121265349731507e+00	 3.234461928573247e+00
 5.010253224899366e-01	 1.131538720601204e+00	 2.922553673869498e+00
 4.783217105692602e-01	 1.141321423265912e+00	 2.609449836789124e+00
 4.555172030781719e-01	 1.150613022575534e+00	 2.295200721238168e+00
 6.840121917124017e-01	 1.046244389015035e+00	 5.545002293709485e+00
 6.624553352020789e-01	 1.060024966129602e+00	 5.239193708721709e+00
 6.406720486069893e-01	 1.073330949004241e+00	 4.930719444052341e+00
 6.186777433390788e-01	 1.086157378033213e+00	 4.619479906682462e+00
 5.964879413737916e-01	 1.098499948001280e+00	 4.305384644006899e+00
 5.741182412978680e-01	 1.110355008534519e+00	 3.988354432514558e+00
 5.515842846700593e-01	 1.121719562493458e+00	 3.668323274559631e+00
 5.289017228355563e-01	 1.132591262356013e+00	 3.345240281166614e+00
 5.060861843290325e-01	 1.142968404648257e+00	 3.019071420579916e+00
 4.831532429944511e-01	 1.152849922490885e+00	 2.689801114277226e+00
 4.601183869422882e-01	 1.162235376338345e+00	 2.357433664382076e+00
 4.141065482781622e-01	 1.046011838709305e+00	 1.247156386995186e+00
 3.932972896413123e-01	 1.054012448698682e+00	 1.083873001988057e+00
 3.724238474895377e-01	 1.061567462705179e+00	 9.290304678601233e-01
 3.514997710187807e-01	 1.068678113852559e+00	 7.827357059157449e-01
 3.305384299522138e-01	 1.075346151886617e+00	 6.450798008440930e-01
 3.095529917259615e-01	 1.081573827976446e+00	 5.161389872796061e-01
 2.885563999111744e-01	 1.087363878431055e+00	 3.959756179731728e-01
 2.675613539221366e-01	 1.092719507434895e+00	 2.846391049147794e-01
 2.465802900510743e-01	 1.097644368907271e+00	 1.821668258973324e-01
 2.256253638614278e-01	 1.102142547591368e+00	 8.858499018665578e-02
 2.047084339626188e-01	 1.106218539478505e+00	 3.909458120880949e-03
 4.187077321468711e-01	 1.057634192472302e+00	 1.410560082598783e+00
 3.976672595254846e-01	 1.065723698129262e+00	 1.229873315502679e+00
 3.765618902389651e-01	 1.073362656736697e+00	 1.059471079194275e+00
 3.554053240298771e-01	 1.080552315119742e+00	 8.994776505347328e-01
 3.342110791738727e-01	 1.087294442465818e+00	 7.499936807917555e-01
 3.129924694119229e-01	 1.093591314957006e+00	 6.110974360420542e-01
 2.917625821326362e-01	 1.099445699305754e+00	 4.828460466187918e-01
 2.705342578549005e-01	 1.104860835298564e+00	 3.652767539271204e-01
 2.493200710519669e-01	 1.109840417453845e+00	 2.584081440701795e-01
 2.281323123490928e-01	 1.114388575900822e+00	 1.622413588902014e-01
 2.069829721180270e-01	 1.118509856586275e+00	 7.676127621742523e-02
 4.233089160150698e-01	 1.069256546235278e+00	 1.561463429623859e+00
 4.020372294090627e-01	 1.077434947559639e+00	 1.363925888821482e+00
 3.806999329877463e-01	 1.085157850767857e+00	 1.178467863399235e+00
 3.593108770403063e-01	 1.092426516386447e+00	 1.005230493875756e+00
 3.378837283948748e-01	 1.099242733044450e+00	 8.443236380160617e-01
 3.164319470972685e-01	 1.105608801936938e+00	 6.958273636273025e-01
 2.949687643535532e-01	 1.111527520179795e+00	 5.597934772527395e-01
 2.735071617872199e-01	 1.117002163161573e+00	 4.362470741020117e-01
 2.520598520525447e-01	 1.122036465999790e+00	 3.251880956421751e-01
 2.306392608366009e-01	 1.126634604209704e+00	 2.265928824339254e-01
 2.092575102734646e-01	 1.130801173693560e+00	 1.404157110119382e-01
 4.279100998827580e-01	 1.080878899998233e+00	 1.700215512477157e+00
 4.064071992920467e-01	 1.089146196989810e+00	 1.486367173032517e+00
 3.848379757358810e-01	 1.096953044798660e+00	 1.286346205443961e+00
 3.632164300500685e-01	 1.104300717652674e+00	 1.100310118438173e+00
 3.415563776152200e-01	 1.111191023622512e+00	 9.283776090066520e-01
 3.198714247819980e-01	 1.117626288916241e+00	 7.706303062760711e-01
 2.981749465739252e-01	 1.123609341053177e+00	 6.271145775585780e-01
 2.764800657190950e-01	 1.129143491023926e+00	 4.978433789676573e-01
 2.547996330528077e-01	 1.134232514545106e+00	 3.827981340364948e-01
 2.331462093239524e-01	 1.138880632518015e+00	 2.819306249386373e-01
 2.115320484289314e-01	 1.143092490800359e+00	 1.951648821529410e-01
 4.325112837499361e-01	 1.092501253761168e+00	 1.827149538557336e+00
 4.107771691744364e-01	 1.100857446419777e+00	 1.597518341138034e+00
 3.889760184833697e-01	 1.108748238829107e+00	 1.383416744460883e+00
 3.671219830591637e-01	 1.116174918918422e+00	 1.185018126390331e+00
 3.452290268349087e-01	 1.123139314200007e+00	 1.002449648778184e+00
 3.233109024661119e-01	 1.129643775894916e+00	 8.357942512096339e-01
 3.013811287937522e-01	 1.135691161925902e+00	 6.850927326569864e-01
 2.794529696505255e-01	 1.141284818885619e+00	 5.503459004949720e-01
 2.575394140527559e-01	 1.146428563089792e+00	 4.315167673617646e-01
 2.356531578111472e-01	 1.151126660825756e+00	 3.285327775122977e-01
 2.138065865844276e-01	 1.155383807906674e+00	 2.412880455854600e-01
 4.371124676166038e-01	 1.104123607524082e+00	 1.942583673886695e+00
 4.151471390562320e-01	 1.112568695849540e+00	 1.697686092164976e+00
 3.931140612302117e-01	 1.120543432859196e+00	 1.469976149841881e+00
 3.710275360675918e-01	 1.128049120183693e+00	 1.259642591166300e+00
 3.489016760539405e-01	 1.135087604776933e+00	 1.066820661474232e+00
 3.267503801496099e-01	 1.141661262872963e+00	 8.915943497358809e-01
 3.045873110130343e-01	 1.147772982797968e+00	 7.339987441876159e-01
 2.824258735815118e-01	 1.153426146746654e+00	 5.940224776005256e-01
 2.602791950523892e-01	 1.158624611633849e+00	 4.716102397446431e-01
 2.381601062981852e-01	 1.163372689132924e+00	 3.666653357770298e-01
 2.160811247399532e-01	 1.167675125012503e+00	 2.790522705880150e-01
 4.417136514827614e-01	 1.115745961286976e+00	 2.046821826516272e+00
 4.195171089374332e-01	 1.124279945279097e+00	 1.787163405016867e+00
 3.972521039764076e-01	 1.132338626888928e+00	 1.546307848829749e+00
 3.749330890753527e-01	 1.139923321448485e+00	 1.324458762087397e+00
 3.525743252723156e-01	 1.147035895353290e+00	 1.121759085308517e+00
 3.301898578324918e-01	 1.153678749850381e+00	 9.382935857864925e-01
 3.077934932317715e-01	 1.159854803669376e+00	 7.740914856991878e-01
 2.853987775120535e-01	 1.165567474607031e+00	 6.291292016182284e-01
 2.630189760517078e-01	 1.170820660177278e+00	 5.033331700786086e-01
 2.406670547850666e-01	 1.175618717439521e+00	 3.965827350507283e-01
 2.183556628955082e-01	 1.179966442117847e+00	 3.087130744947559e-01
 4.463148353484084e-01	 1.127368315049849e+00	 2.140154381472818e+00
 4.238870788180403e-01	 1.135991194708451e+00	 1.866230245697446e+00
 4.013901467219571e-01	 1.144133820918303e+00	 1.612682709102965e+00
 3.788386420824468e-01	 1.151797522712798e+00	 1.379729725398506e+00
 3.562469744900341e-01	 1.158984185929079e+00	 1.167521535138562e+00
 3.336293355147580e-01	 1.165696236827171e+00	 9.761434031014582e-01
 3.109996754499638e-01	 1.171936624540127e+00	 8.056185174994988e-01
 2.883716814421509e-01	 1.177708802466749e+00	 6.559110218447122e-01
 2.657587570507115e-01	 1.183016708720077e+00	 5.269291512629681e-01
 2.431740032717912e-01	 1.187864745745547e+00	 4.185284462392331e-01
 2.206302010510924e-01	 1.192257759222705e+00	 3.305150181565821e-01
 4.509160192135453e-01	 1.138990668812702e+00	 2.222858890708876e+00
 4.282570486980531e-01	 1.147702444137599e+00	 1.935154231234023e+00
 4.055281894668601e-01	 1.155929014947321e+00	 1.669359679569229e+00
 3.827441950888737e-01	 1.163671723976633e+00	 1.425707024833966e+00
 3.599196237070956e-01	 1.170932476504298e+00	 1.204353405698517e+00
 3.370688131964081e-01	 1.177713723803332e+00	 1.005384294014237e+00
 3.142058576676110e-01	 1.184018445410219e+00	 8.288166638612409e-01
 2.913445853718038e-01	 1.189850130325810e+00	 6.746023140108881e-01
 2.684985380494003e-01	 1.195212757262246e+00	 5.426313127534044e-01
 2.456809517583592e-01	 1.200110774051002e+00	 4.327355352446776e-01
 2.229047392067060e-01	 1.204549076327078e+00	 3.446922649456516e-01
 4.555172030781719e-01	 1.150613022575534e+00	 2.295200721238168e+00
 4.326270185774718e-01	 1.159413693566544e+00	 1.994191253362773e+00
 4.096662322111168e-01	 1.167724208975982e+00	 1.716586392324479e+00
 3.866497480946336e-01	 1.175545925239990e+00	 1.462631244571667e+00
 3.635922729235004e-01	 1.182880767078950e+00	 1.232489438271308e+00
 3.405082908774424e-01	 1.189731210778864e+00	 1.026246352553137e+00
 3.174120398847132e-01	 1.196100266279651e+00	 8.439125552463940e-01
 2.943174893010123e-01	 1.201991458184212e+00	 6.854274143000529e-01
 2.712383190477745e-01	 1.207408805803788e+00	 5.506628490189664e-01
 2.481879002447703e-01	 1.212356802355885e+00	 4.394271884710506e-01
 2.251792773623489e-01	 1.216840393430966e+00	 3.514691058801462e-01
 4.601183869422882e-01	 1.162235376338345e+00	 2.357433664382076e+00
 4.369969884562961e-01	 1.171124942995283e+00	 2.043586064793616e+00
 4.138042749547273e-01	 1.179519403004286e+00	 1.754599728492765e+00
 3.905553010997264e-01	 1.187420126502869e+00	 1.490732557211923e+00
 3.672649221392484e-01	 1.194829057653032e+00	 1.252154253362106e+00
 3.439477685578608e-01	 1.201748697753768e+00	 1.038949794356664e+00
 3.206182221012706e-01	 1.208182087148427e+00	 8.511231379967057e-01
 2.972903932297764e-01	 1.214132786041956e+00	 6.886011213256553e-01
 2.739781000458337e-01	 1.219604854344699e+00	 5.512375162912653e-01
 2.506948487310247e-01	 1.224602830660197e+00	 4.388172067990528e-01
 2.274538155180211e-01	 1.229131710534368e+00	 3.510604532423260e-01
 2.047084339626188e-01	 1.106218539478505e+00	 3.909458120880949e-03
 1.838410471820675e-01	 1.109877231672737e+00	-9.091600926128329e-02
 1.630344251371875e-01	 1.113123881798189e+00	-1.746434264408596e-01
 1.422994522082913e-01	 1.115964097050903e+00	-2.475535326295817e-01
 1.216466649059655e-01	 1.118403812994212e+00	-3.099342423845490e-01
 1.010862426134333e-01	 1.120449272191891e+00	-3.620790195291843e-01
 8.062799968276181e-02	 1.122107002770802e+00	-4.042853624166760e-01
 6.028137885658343e-02	 1.123383797000342e+00	-4.368534022185016e-01
 4.005544598153728e-02	 1.124286689971457e+00	-4.600846146586015e-01
 1.995888597471339e-02	 1.124822938453228e+00	-4.742806444719878e-01
 0.000000000000000e+00	 1.125000000000000e+00	-4.797422408396130e-01
 2.069829721180270e-01	 1.118509856586275e+00	 7.676127621742523e-02
 1.858837254842960e-01	 1.122209200915521e+00	-1.993364938769027e-02
 1.648459187499743e-01	 1.125491924930832e+00	-1.047448799598802e-01
 1.438805572329332e-01	 1.128363698130427e+00	-1.779569765741689e-01
 1.229982945160992e-01	 1.130830522028343e+00	-2.398645781745554e-01
 1.022094230869531e-01	 1.132898708550173e+00	-2.907706043390950e-01
 8.152386634591845e-02	 1.134574858357522e+00	-3.309845661867394e-01
 6.095117195499002e-02	 1.135865839189446e+00	-3.608209883035647e-01
 4.050050649243606e-02	 1.136778764304567e+00	-3.805979432371331e-01
 2.018065137442525e-02	 1.137320971102731e+00	-3.906356988930351e-01
 0.000000000000000e+00	 1.137500000000000e+00	-3.912554780637700e-01
 2.092575102734646e-01	 1.130801173693560e+00	 1.404157110119382e-01
 1.879264037867324e-01	 1.134541170157915e+00	 4.216668649014865e-02
 1.666574123631051e-01	 1.137859968063168e+00	-4.344206857277166e-02
 1.454616622580137e-01	 1.140763299209717e+00	-1.166990269161061e-01
 1.243499241267251e-01	 1.143257231062304e+00	-1.779055646239858e-01
 1.033326035609789e-01	 1.145348144908337e+00	-2.273739951595268e-01
 8.241973300955530e-02	 1.147042713944167e+00	-2.654257086014464e-01
 6.162096505381248e-02	 1.148347881378508e+00	-2.923894201246022e-01
 4.094556700364869e-02	 1.149270838637658e+00	-3.085995303753897e-01
 2.040241677431206e-02	 1.149819003752230e+00	-3.143945990999837e-01
 0.000000000000000e+00	 1.150000000000000e+00	-3.101159322092437e-01
 2.115320484289314e-01	 1.143092490800359e+00	 1.951648821529410e-01
 1.899690820893766e-01	 1.146873139399917e+00	 9.567131678834029e-02
 1.684689059765799e-01	 1.150228011195196e+00	 9.546300663131335e-03
 1.470427672835328e-01	 1.153162900288774e+00	-6.350264806973316e-02
 1.257015537378434e-01	 1.155683940096093e+00	-1.237836644384258e-01
 1.044557840355105e-01	 1.157797581266385e+00	-1.716184042997126e-01
 8.331559967367232e-02	 1.159510569530738e+00	-2.073400145061679e-01
 6.229075815305083e-02	 1.160829923567528e+00	-2.312912107750684e-01
 4.139062751517519e-02	 1.161762912970730e+00	-2.438224669801001e-01
 2.062418217437382e-02	 1.162317036401724e+00	-2.452903182212505e-01
 0.000000000000000e+00	 1.162500000000000e+00	-2.360557787799942e-01
 2.138065865844276e-01	 1.155383807906674e+00	 2.412880455854600e-01
 1.920117603922285e-01	 1.159205108641528e+00	 1.408539956504675e-01
 1.702803995903987e-01	 1.162596054326918e+00	 5.448922104843801e-02
 1.486238723094905e-01	 1.165562501367597e+00	-1.810287405748490e-02
 1.270531833494540e-01	 1.168110649129712e+00	-7.723721421979035e-02
 1.055789645105481e-01	 1.170247017624314e+00	-1.232447562303209e-01
 8.421146633826952e-02	 1.171978425117234e+00	-1.564702927418684e-01
 6.296055125270505e-02	 1.173311965756507e+00	-1.772703622776721e-01
 4.183568802701556e-02	 1.174254987303784e+00	-1.860112703929218e-01
 2.084594757461052e-02	 1.174815069051214e+00	-1.830672253154288e-01
 0.000000000000000e+00	 1.175000000000000e+00	-1.688185900665429e-01
 2.160811247399532e-01	 1.167675125012503e+00	 2.790522705880150e-01
 1.940544386952883e-01	 1.171537077882749e+00	 1.779765742245607e-01
 1.720918932045614e-01	 1.174964097458333e+00	 9.164403359135309e-02
 1.502049773358868e-01	 1.177962102446187e+00	 1.975382673207249e-02
 1.284048129615569e-01	 1.180537358163162e+00	-3.801579952379042e-02
 1.067021449860916e-01	 1.182696453982126e+00	-8.200507115345967e-02
 8.510733300334690e-02	 1.184446280703655e+00	-1.125703264611839e-01
 6.363034435277519e-02	 1.185794007945443e+00	-1.300817609035521e-01
 4.228074853916980e-02	 1.186747061636820e+00	-1.349212829980704e-01
 2.106771297502218e-02	 1.187313101700699e+00	-1.274804855859279e-01
 0.000000000000000e+00	 1.187500000000000e+00	-1.081587353151841e-01
 2.183556628955082e-01	 1.179966442117847e+00	 3.087130744947559e-01
 1.960971169985559e-01	 1.183869047123579e+00	 2.072896206114330e-01
 1.739033868190682e-01	 1.187332140589441e+00	 1.212570338974701e-01
 1.517860823627217e-01	 1.190361703524544e+00	 5.031014708483839e-02
 1.297564425741521e-01	 1.192964067196440e+00	-5.879668977430308e-03
 1.078253254621411e-01	 1.195145890339820e+00	-4.766188710081587e-02
 8.600319966890443e-02	 1.196914136290001e+00	-7.540430154997591e-02
 6.430013745326123e-02	 1.198276050134339e+00	-8.949061028471039e-02
 4.272580905163788e-02	 1.199239135969837e+00	-9.031810841903787e-02
 2.128947837560878e-02	 1.199811134350180e+00	-7.829549808134550e-02
 0.000000000000000e+00	 1.200000000000000e+00	-5.384081838653576e-02
 2.206302010510924e-01	 1.192257759222705e+00	 3.305150181565821e-01
 1.981397953020312e-01	 1.196201016364018e+00	 2.290330014646609e-01
 1.757148804339190e-01	 1.199700183720243e+00	 1.435640415210846e-01
 1.533671873899952e-01	 1.202761304602666e+00	 7.379849966301721e-02
 1.311080721872396e-01	 1.205390776229548e+00	 1.940081536416760e-02
 1.089485059386964e-01	 1.207595326697396e+00	-1.998771777679798e-02
 8.689906633494215e-02	 1.209381991876273e+00	-4.474627040341606e-02
 6.496993055416314e-02	 1.210758092323192e+00	-5.527189959119938e-02
 4.317086956441985e-02	 1.211731210302836e+00	-5.197708258776768e-02
 2.151124377637034e-02	 1.212309166999656e+00	-3.528736817823797e-02
 0.000000000000000e+00	 1.212500000000000e+00	-5.639150198286202e-03
 2.229047392067060e-01	 1.204549076327078e+00	 3.446922649456516e-01
 2.001824736057144e-01	 1.208532985604066e+00	 2.434364279829568e-01
 1.775263740491137e-01	 1.212068226850737e+00	 1.587909344570568e-01
 1.549482924177072e-01	 1.215160905680556e+00	 9.044154150144657e-02
 1.324597018008195e-01	 1.217817485262486e+00	 3.804569400881341e-02
 1.100716864157577e-01	 1.220044763054856e+00	 1.235456404067303e-03
 8.779493300146010e-02	 1.221849847462470e+00	-2.037964853318619e-02
 6.563972365548093e-02	 1.223240134512003e+00	-2.720990426880920e-02
 4.361593007751567e-02	 1.224223284635816e+00	-1.968277719909484e-02
 2.173300917730685e-02	 1.224807199649127e+00	 1.759587640522087e-03
 0.000000000000000e+00	 1.225000000000000e+00	 3.666274653307133e-02
 2.251792773623489e-01	 1.216840393430966e+00	 3.514691058801462e-01
 2.022251519096053e-01	 1.220864954843724e+00	 2.507199688118096e-01
 1.793378676646525e-01	 1.224436269980924e+00	 1.671541512401840e-01
 1.565293974458579e-01	 1.227560506758212e+00	 1.004526667159926e-01
 1.338113314148917e-01	 1.230244194295253e+00	 5.026589474651955e-02
 1.111948668933249e-01	 1.232494199412197e+00	 1.621666643402198e-02
 8.869079966845822e-02	 1.234317703048592e+00	-2.096741682629855e-03
 6.630951675721461e-02	 1.235722176700773e+00	-5.097717035581040e-03
 4.406099059092536e-02	 1.236715358968778e+00	 6.771466742323762e-03
 2.195477457841831e-02	 1.237305232298594e+00	 3.305230699202011e-02
 0.000000000000000e+00	 1.237500000000000e+00	 7.327260253437951e-02
 2.274538155180211e-01	 1.229131710534368e+00	 3.510604532423260e-01
 2.042678302137041e-01	 1.233196924082991e+00	 2.510945321713005e-01
 1.811493612805352e-01	 1.236804313110804e+00	 1.688611629179717e-01
 1.581105024744471e-01	 1.239960107835634e+00	 1.040364696496747e-01
 1.351629610294562e-01	 1.242670903327850e+00	 5.626368828504025e-02
 1.123180473713980e-01	 1.244943635769421e+00	 2.515640414111742e-02
 8.958666633593650e-02	 1.246785558634639e+00	 1.030169868489206e-02
 6.697930985936418e-02	 1.248204218889501e+00	 1.126319298217937e-02
 4.450605110464890e-02	 1.249207433301722e+00	 2.758397738750484e-02
 2.217653997970472e-02	 1.249803264948056e+00	 5.878941888949596e-02
 0.000000000000000e+00	 1.250000000000000e+00	 1.043898393037646e-01
 1.250000000000000e+00	 0.000000000000000e+00	 1.613175389703980e+01
 1.249803264948056e+00	 2.217653997970400e-02	 1.624461926636664e+01
 1.249207433301722e+00	 4.450605110464827e-02	 1.632208307911172e+01
 1.248204218889501e+00	 6.697930985936361e-02	 1.636447791991598e+01
 1.246785558634639e+00	 8.958666633593600e-02	 1.637224018865312e+01
 1.244943635769421e+00	 1.123180473713976e-01	 1.634591175807492e+01
 1.242670903327850e+00	 1.351629610294558e-01	 1.628614115942136e+01
 1.239960107835634e+00	 1.581105024744469e-01	 1.619368426411750e+01
 1.236804313110804e+00	 1.811493612805350e-01	 1.606940443204167e+01
 1.233196924082991e+00	 2.042678302137040e-01	 1.591427209967294e+01
 1.229131710534368e+00	 2.274538155180211e-01	 1.572936378470813e+01
 1.262500000000000e+00	 0.000000000000000e+00	 1.588245734592394e+01
 1.262301297597516e+00	 2.239830538099040e-02	 1.599550674449977e+01
 1.261699507634656e+00	 4.495111161837182e-02	 1.607110978574322e+01
 1.260686261078208e+00	 6.764910296151318e-02	 1.610978772563898e+01
 1.259253414220649e+00	 9.048253300341427e-02	 1.611215495121788e+01
 1.257393072126586e+00	 1.134412278494708e-01	 1.607892103229864e+01
 1.255097612360361e+00	 1.365145906440204e-01	 1.601089250226286e+01
 1.252359708912939e+00	 1.596916075030361e-01	 1.590897433958700e+01
 1.249172356240532e+00	 1.829608548964178e-01	 1.577935769564944e+01
 1.245528893322062e+00	 2.063105085178028e-01	 1.563477171817112e+01
 1.241423027637528e+00	 2.297283536736933e-01	 1.546101945227872e+01
 1.275000000000000e+00	 0.000000000000000e+00	 1.564955363743161e+01
 1.274799330246976e+00	 2.262007078210185e-02	 1.576378241776099e+01
 1.274191581967590e+00	 4.539617213178149e-02	 1.584146908002531e+01
 1.273168303266915e+00	 6.831889606324687e-02	 1.588311697207809e+01
 1.271721269806660e+00	 9.137839967041235e-02	 1.588931944696671e+01
 1.269842508483751e+00	 1.145644083270380e-01	 1.586076189775172e+01
 1.267524321392873e+00	 1.378662202580925e-01	 1.579822353719642e+01
 1.264759309990245e+00	 1.612727125311867e-01	 1.570257889482273e+01
 1.261540399370259e+00	 1.847723485119565e-01	 1.557479900349670e+01
 1.257860862561133e+00	 2.083531868216938e-01	 1.541595224759629e+01
 1.253714344740687e+00	 2.320028918293363e-01	 1.522720484495236e+01
 1.287500000000000e+00	 0.000000000000000e+00	 1.543249352438906e+01
 1.287297362896436e+00	 2.284183618303835e-02	 1.554736088729995e+01
 1.286683656300524e+00	 4.584123264487731e-02	 1.562657628097922e+01
 1.285650345455622e+00	 6.898868916456465e-02	 1.567062545956568e+01
 1.284189125392670e+00	 9.227426633693030e-02	 1.568008109493823e+01
 1.282291944840916e+00	 1.156875888040993e-01	 1.565560479596347e+01
 1.279951030425384e+00	 1.392178498716724e-01	 1.559794888839351e+01
 1.277158911067551e+00	 1.628538175588988e-01	 1.550795792867057e+01
 1.273908442499985e+00	 1.865838421271512e-01	 1.538656992446028e+01
 1.270192831800205e+00	 2.103958651253769e-01	 1.523481723451328e+01
 1.266005661843847e+00	 2.342774299849499e-01	 1.505382712046450e+01
 1.300000000000000e+00	 0.000000000000000e+00	 1.523074888451481e+01
 1.299795395545896e+00	 2.306360158379989e-02	 1.534573003952686e+01
 1.299175730633459e+00	 4.628629315765927e-02	 1.542593574829174e+01
 1.298132387644330e+00	 6.965848226546656e-02	 1.547183446824190e+01
 1.296656980978680e+00	 9.317013300296803e-02	 1.548397852390422e+01
 1.294741381198081e+00	 1.168107692806546e-01	 1.546300611192840e+01
 1.292377739457895e+00	 1.405694794847599e-01	 1.540964308249699e+01
 1.289558512144857e+00	 1.644349225861723e-01	 1.532470447112019e+01
 1.286276485629712e+00	 1.883953357420020e-01	 1.520909575428351e+01
 1.282524801039276e+00	 2.124385434288523e-01	 1.506381380207880e+01
 1.278296978947007e+00	 2.365519681405341e-01	 1.488994750083307e+01
 1.312500000000000e+00	 0.000000000000000e+00	 1.504381171447253e+01
 1.312293428195356e+00	 2.328536698438650e-02	 1.515839735741946e+01
 1.311667804966393e+00	 4.673135367012735e-02	 1.523907089892892e+01
 1.310614429833036e+00	 7.032827536595254e-02	 1.528628377978639e+01
 1.309124836564690e+00	 9.406599966852559e-02	 1.530056829249557e+01
 1.307190817555246e+00	 1.179339497567040e-01	 1.528253957344251e+01
 1.304804448490407e+00	 1.419211090973551e-01	 1.523289738713177e+01
 1.301958113222162e+00	 1.660160276130072e-01	 1.515242767723042e+01
 1.298644528759440e+00	 1.902068293565088e-01	 1.504200385852165e+01
 1.294856770278347e+00	 2.144812217321199e-01	 1.490258782341438e+01
 1.290588296050166e+00	 2.388265062960890e-01	 1.473523063641372e+01
 1.325000000000000e+00	 0.000000000000000e+00	 1.487119318086397e+01
 1.324791460844817e+00	 2.350713238479816e-02	 1.498488899615681e+01
 1.324159879299327e+00	 4.717641418228159e-02	 1.506552330820797e+01
 1.323096472021744e+00	 7.099806846602269e-02	 1.511353080470435e+01
 1.321592692150699e+00	 9.496186633360294e-02	 1.512942404345435e+01
 1.319640253912411e+00	 1.190571302322476e-01	 1.511379543304671e+01
 1.317231157522919e+00	 1.432727387094580e-01	 1.506731902123593e+01
 1.314357714299468e+00	 1.675971326394035e-01	 1.499075206651286e+01
 1.311012571889166e+00	 1.920183229706716e-01	 1.488493636758027e+01
 1.307188739517419e+00	 2.165239000351796e-01	 1.475079932488386e+01
 1.302879613153326e+00	 2.411010444516146e-01	 1.458935470797656e+01
 1.337500000000000e+00	 0.000000000000000e+00	 1.471242272443754e+01
 1.337289493494276e+00	 2.372889778503485e-02	 1.482474891058634e+01
 1.336651953632262e+00	 4.762147469412194e-02	 1.490485186127595e+01
 1.335578514210450e+00	 7.166786156567692e-02	 1.495314975854927e+01
 1.334060547736709e+00	 9.585773299820013e-02	 1.497013570531082e+01
 1.332089690269576e+00	 1.201803107072851e-01	 1.495637969584238e+01
 1.329657866555430e+00	 1.446243683210686e-01	 1.491253040967223e+01
 1.326757315376773e+00	 1.691782376653612e-01	 1.483931680496663e+01
 1.323380615018894e+00	 1.938298165844904e-01	 1.473754948676904e+01
 1.319520708756490e+00	 2.185665783380315e-01	 1.460812182472693e+01
 1.315170930256486e+00	 2.433755826071108e-01	 1.445201079444380e+01
 1.350000000000000e+00	 0.000000000000000e+00	 1.456704721406284e+01
 1.349787526143736e+00	 2.395066318509660e-02	 1.467753803116516e+01
 1.349144027965196e+00	 4.806653520564843e-02	 1.475663195172893e+01
 1.348060556399157e+00	 7.233765466491528e-02	 1.480473088391178e+01
 1.346528403322719e+00	 9.675359966231714e-02	 1.482230873841174e+01
 1.344539126626741e+00	 1.213034911818168e-01	 1.480991339020620e+01
 1.342084575587941e+00	 1.459759979321868e-01	 1.476816847925011e+01
 1.339156916454079e+00	 1.707593426908803e-01	 1.469777502700044e+01
 1.335748658148621e+00	 1.956413101979651e-01	 1.459951284468560e+01
 1.331852677995562e+00	 2.206092566406757e-01	 1.447424170843528e+01
 1.327462247359646e+00	 2.456501207625777e-01	 1.432290227575312e+01
 1.362500000000000e+00	 0.000000000000000e+00	 1.443463014727565e+01
 1.362285558793196e+00	 2.417242858498341e-02	 1.454283348526238e+01
 1.361636102298130e+00	 4.851159571686106e-02	 1.462045472434355e+01
 1.360542598587865e+00	 7.300744776373773e-02	 1.466787971523420e+01
 1.358996258908729e+00	 9.764946632595396e-02	 1.468556342245171e+01
 1.356988562983906e+00	 1.224266716558425e-01	 1.467403187864911e+01
 1.354511284620453e+00	 1.473276275428128e-01	 1.463388399349882e+01
 1.351556517531384e+00	 1.723404477159608e-01	 1.456579319467974e+01
 1.348116701278348e+00	 1.974528038110959e-01	 1.447050887746862e+01
 1.344184647234633e+00	 2.226519349431120e-01	 1.434885763851177e+01
 1.339753564462805e+00	 2.479246589180152e-01	 1.420174426859093e+01
 1.375000000000000e+00	 0.000000000000000e+00	 1.431475089442935e+01
 1.374783591442656e+00	 2.439419398469526e-02	 1.442022786093569e+01
 1.374128176631064e+00	 4.895665622775984e-02	 1.449592635911429e+01
 1.373024640776572e+00	 7.367724086214431e-02	 1.454221638372650e+01
 1.371464114494739e+00	 9.854533298911061e-02	 1.455953418286636e+01
 1.369437999341071e+00	 1.235498521293624e-01	 1.454838420626471e+01
 1.366937993652964e+00	 1.486792571529464e-01	 1.450934092372551e+01
 1.363956118608690e+00	 1.739215527406027e-01	 1.444305049192423e+01
 1.360484744408075e+00	 1.992642974238827e-01	 1.435023224663675e+01
 1.356516616473704e+00	 2.246946132453406e-01	 1.423167999642432e+01
 1.352044881565965e+00	 2.501991970734234e-01	 1.408826309290384e+01
 1.229131710534368e+00	 2.274538155180211e-01	 1.572936378470813e+01
 1.224602830660197e+00	 2.506948487310240e-01	 1.569261722801788e+01
 1.219604854344699e+00	 2.739781000458331e-01	 1.562766454872246e+01
 1.214132786041956e+00	 2.972903932297759e-01	 1.553579984500724e+01
 1.208182087148427e+00	 3.206182221012702e-01	 1.541841452265317e+01
 1.201748697753769e+00	 3.439477685578606e-01	 1.527699338127498e+01
 1.194829057653032e+00	 3.672649221392482e-01	 1.511311006416143e+01
 1.187420126502869e+00	 3.905553010997262e-01	 1.492842188118387e+01
 1.179519403004286e+00	 4.138042749547273e-01	 1.472466402023616e+01
 1.171124942995283e+00	 4.369969884562962e-01	 1.450364316878152e+01
 1.162235376338345e+00	 4.601183869422883e-01	 1.426723057322849e+01
 1.241423027637528e+00	 2.297283536736933e-01	 1.546101945227872e+01
 1.236848858964224e+00	 2.532017972172809e-01	 1.543628168393914e+01
 1.231800902885296e+00	 2.767178810439017e-01	 1.538370878315651e+01
 1.226274113899371e+00	 3.002632971585613e-01	 1.530457707629520e+01
 1.220263908016873e+00	 3.238244043178657e-01	 1.520025903025017e+01
 1.213766184728358e+00	 3.473872462383388e-01	 1.507221933282210e+01
 1.206777348226831e+00	 3.709375713550829e-01	 1.492201034071967e+01
 1.199294327765508e+00	 3.944608541049375e-01	 1.475126690504405e+01
 1.191314597032411e+00	 4.179423176984929e-01	 1.456170059011176e+01
 1.182836192423920e+00	 4.413669583353181e-01	 1.435509330757890e+01
 1.173857730101146e+00	 4.647195708066494e-01	 1.413329039397091e+01
 1.253714344740687e+00	 2.320028918293363e-01	 1.522720484495236e+01
 1.249094887268250e+00	 2.557087457036991e-01	 1.519242576323542e+01
 1.243996951425893e+00	 2.794576620423040e-01	 1.515166144216063e+01
 1.238415441756786e+00	 3.032362010878337e-01	 1.508468825216467e+01
 1.232345728885320e+00	 3.270305865350823e-01	 1.499286085614344e+01
 1.225783671702949e+00	 3.508267239195527e-01	 1.487762499725227e+01
 1.218725638800629e+00	 3.746102205717475e-01	 1.474051294123729e+01
 1.211168529028148e+00	 3.983664071110527e-01	 1.458313830037535e+01
 1.203109791060537e+00	 4.220803604432159e-01	 1.440719025528774e+01
 1.194547441852557e+00	 4.457369282153292e-01	 1.421442719700136e+01
 1.185480083863948e+00	 4.693207546720106e-01	 1.400666981776599e+01
 1.266005661843847e+00	 2.342774299849499e-01	 1.505382712046450e+01
 1.261340915572276e+00	 2.582156941902787e-01	 1.502304799245064e+01
 1.256192999966490e+00	 2.821974430410401e-01	 1.496419047659478e+01
 1.250556769614201e+00	 3.062091050175934e-01	 1.487864261186715e+01
 1.244427549753766e+00	 3.302367687529200e-01	 1.479585795125861e+01
 1.237801158677538e+00	 3.542662016015020e-01	 1.469285904416315e+01
 1.230673929374427e+00	 3.782828697892420e-01	 1.456827733962860e+01
 1.223042730290788e+00	 4.022719601180717e-01	 1.442370641541995e+01
 1.214904985088662e+00	 4.262184031888958e-01	 1.426081429214241e+01
 1.206258691281194e+00	 4.501068980963296e-01	 1.408133707862816e+01
 1.197102437626749e+00	 4.739219385383718e-01	 1.388707207120807e+01
 1.278296978947007e+00	 2.365519681405341e-01	 1.488994750083307e+01
 1.273586943876303e+00	 2.607226426770197e-01	 1.486780559797516e+01
 1.268389048507087e+00	 2.849372240401096e-01	 1.481800032776358e+01
 1.262698097471615e+00	 3.091820089478399e-01	 1.474189448533233e+01
 1.256509370622212e+00	 3.334429509713790e-01	 1.464094811292686e+01
 1.249818645652128e+00	 3.577056792841868e-01	 1.451758271830476e+01
 1.242622219948226e+00	 3.819555190075664e-01	 1.440497510808723e+01
 1.234916931553427e+00	 4.061775131259946e-01	 1.427265321835477e+01
 1.226700179116788e+00	 4.303564459355328e-01	 1.412226511799652e+01
 1.217969940709831e+00	 4.544768679783192e-01	 1.395552585618437e+01
 1.208724791389550e+00	 4.785231224057330e-01	 1.377421056529717e+01
 1.290588296050166e+00	 2.388265062960890e-01	 1.473523063641372e+01
 1.285832972180329e+00	 2.632295911639221e-01	 1.472129804291383e+01
 1.280585097047684e+00	 2.876770050395130e-01	 1.468011275422984e+01
 1.274839425329030e+00	 3.121549128785735e-01	 1.461301274101905e+01
 1.268591191490658e+00	 3.366491331904589e-01	 1.452143210350127e+01
 1.261836132626718e+00	 3.611451569676073e-01	 1.440689980620091e+01
 1.254570510522024e+00	 3.856281682267207e-01	 1.427103790543992e+01
 1.246791132816067e+00	 4.100830661348213e-01	 1.412967174396136e+01
 1.238495373144913e+00	 4.344944886831269e-01	 1.399124576059222e+01
 1.229681190138469e+00	 4.588468378612980e-01	 1.383670658781972e+01
 1.220347145152352e+00	 4.831243062740942e-01	 1.366780841046726e+01
 1.302879613153326e+00	 2.411010444516146e-01	 1.458935470797656e+01
 1.298079000484355e+00	 2.657365396509859e-01	 1.458321634398644e+01
 1.292781145588281e+00	 2.904167860392501e-01	 1.455023168854229e+01
 1.286980753186445e+00	 3.151278168097941e-01	 1.449171428435801e+01
 1.280673012359105e+00	 3.398553154101601e-01	 1.440907271428262e+01
 1.273853619601308e+00	 3.645846346517633e-01	 1.430380945682239e+01
 1.266518801095822e+00	 3.893008174467049e-01	 1.417751924337419e+01
 1.258665334078706e+00	 4.139886191445518e-01	 1.403188689470360e+01
 1.250290567173038e+00	 4.386325314316781e-01	 1.386868461675536e+01
 1.241392439567106e+00	 4.632168077452660e-01	 1.372460200712630e+01
 1.231969498915152e+00	 4.877254901434555e-01	 1.356759795906569e+01
 1.315170930256486e+00	 2.433755826071108e-01	 1.445201079444380e+01
 1.310325028788382e+00	 2.682434881382111e-01	 1.445326401987911e+01
 1.304977194128878e+00	 2.931565670393207e-01	 1.442807316451057e+01
 1.299122081043860e+00	 3.181007207415019e-01	 1.437772771741754e+01
 1.292754833227551e+00	 3.430614976304824e-01	 1.430361114588551e+01
 1.285871106575899e+00	 3.680241123366550e-01	 1.420719987253792e+01
 1.278467091669621e+00	 3.929734666675191e-01	 1.409006176304111e+01
 1.270539535341346e+00	 4.178941721551863e-01	 1.395385410107582e+01
 1.262085761201164e+00	 4.427705741811864e-01	 1.380032102970593e+01
 1.253103688995743e+00	 4.675867776302233e-01	 1.363129044114689e+01
 1.243591852677954e+00	 4.923266740138165e-01	 1.347332037348813e+01
 1.327462247359646e+00	 2.456501207625777e-01	 1.432290227575312e+01
 1.322571057092408e+00	 2.707504366255978e-01	 1.433115651244968e+01
 1.317173242669475e+00	 2.958963480397251e-01	 1.431336475696160e+01
 1.311263408901274e+00	 3.210736246736966e-01	 1.427079279739276e+01
 1.304836654095997e+00	 3.462676798514259e-01	 1.420479936502244e+01
 1.297888593550488e+00	 3.714635900222821e-01	 1.411683523394449e+01
 1.290415382243419e+00	 3.966461158891632e-01	 1.400844184004648e+01
 1.282413736603985e+00	 4.217997251667246e-01	 1.388124939516679e+01
 1.273880955229289e+00	 4.469086169316517e-01	 1.373697447458531e+01
 1.264814938424380e+00	 4.719567475161698e-01	 1.357741705876333e+01
 1.255214206440755e+00	 4.969278578851778e-01	 1.340445701345706e+01
 1.339753564462805e+00	 2.479246589180152e-01	 1.420174426859093e+01
 1.334817085396434e+00	 2.732573851131458e-01	 1.421662063979314e+01
 1.329369291210072e+00	 2.986361290404630e-01	 1.420584505233526e+01
 1.323404736758689e+00	 3.240465286063783e-01	 1.417065992490234e+01
 1.316918474964443e+00	 3.494738620729904e-01	 1.411239961064600e+01
 1.309906080525078e+00	 3.749030677086448e-01	 1.403248962029360e+01
 1.302363672817217e+00	 4.003187651116372e-01	 1.393244537327543e+01
 1.294287937866625e+00	 4.257052781791670e-01	 1.381387045183459e+01
 1.285676149257414e+00	 4.510466596830741e-01	 1.367845433528265e+01
 1.276526187853017e+00	 4.763267174031054e-01	 1.352796959421214e+01
 1.266836560203556e+00	 5.015290417575390e-01	 1.336426852758316e+01
 1.352044881565965e+00	 2.501991970734234e-01	 1.408826309290384e+01
 1.347063113700461e+00	 2.757643336008552e-01	 1.410939407914011e+01
 1.341565339750669e+00	 3.013759100415347e-01	 1.410526314815645e+01
 1.335546064616104e+00	 3.270194325395472e-01	 1.407708966019670e+01
 1.329000295832889e+00	 3.526800442951761e-01	 1.402618392702897e+01
 1.321923567499668e+00	 3.783425453957430e-01	 1.395394655955250e+01
 1.314311963391016e+00	 4.039914143349411e-01	 1.386186735201615e+01
 1.306162139129264e+00	 4.296108311925129e-01	 1.375152367692195e+01
 1.297471343285539e+00	 4.551847024354536e-01	 1.362457836676653e+01
 1.288237437281654e+00	 4.806966872910303e-01	 1.348277706130914e+01
 1.278458913966357e+00	 5.061302256309002e-01	 1.332794500205721e+01
 1.162235376338345e+00	 4.601183869422883e-01	 1.426723057322849e+01
 1.152849922490885e+00	 4.831532429944503e-01	 1.406997480547555e+01
 1.142968404648257e+00	 5.060861843290319e-01	 1.385895822839732e+01
 1.132591262356013e+00	 5.289017228355558e-01	 1.363577995497343e+01
 1.121719562493458e+00	 5.515842846700590e-01	 1.340207109208621e+01
 1.110355008534519e+00	 5.741182412978676e-01	 1.315948730129685e+01
 1.098499948001281e+00	 5.964879413737912e-01	 1.290970112069599e+01
 1.086157378033213e+00	 6.186777433390787e-01	 1.265439410239284e+01
 1.073330949004241e+00	 6.406720486069893e-01	 1.239524882311682e+01
 1.060024966129602e+00	 6.624553352020790e-01	 1.213394082771748e+01
 1.046244389015035e+00	 6.840121917124017e-01	 1.187213056701328e+01
 1.173857730101146e+00	 4.647195708066494e-01	 1.413329039397091e+01
 1.164378421715943e+00	 4.879847754199314e-01	 1.394771079508194e+01
 1.154398088695481e+00	 5.111470461684536e-01	 1.374827854574172e+01
 1.143917174980766e+00	 5.341907400606339e-01	 1.353657551985062e+01
 1.132936758119894e+00	 5.571001275140689e-01	 1.331421571552682e+01
 1.121458558621532e+00	 5.798594237087382e-01	 1.308283784487697e+01
 1.109484947482980e+00	 6.024528207859984e-01	 1.284409768578555e+01
 1.097018951815104e+00	 6.248645207715108e-01	 1.259966025041564e+01
 1.084064258495567e+00	 6.470787690926668e-01	 1.235119182801399e+01
 1.070625215791757e+00	 6.690798885542671e-01	 1.210035196190932e+01
 1.056706832905469e+00	 6.908523136302467e-01	 1.184878542224043e+01
 1.185480083863948e+00	 4.693207546720106e-01	 1.400666981776599e+01
 1.175906920941005e+00	 4.928163078464028e-01	 1.383233449124638e+01
 1.165827772742723e+00	 5.162079080088365e-01	 1.364406728848169e+01
 1.155243087605563e+00	 5.394797572866247e-01	 1.344343392764058e+01
 1.144153953746409e+00	 5.626159703589233e-01	 1.323203235583078e+01
 1.132562108708666e+00	 5.856006061203647e-01	 1.301148536270780e+01
 1.120469946964856e+00	 6.084177001988529e-01	 1.278343295710273e+01
 1.107880525597237e+00	 6.310512982044613e-01	 1.254952456152985e+01
 1.094797567987208e+00	 6.534854895787139e-01	 1.231141108232486e+01
 1.081225465454313e+00	 6.757044419066560e-01	 1.207073691544813e+01
 1.067169276796399e+00	 6.976924355481020e-01	 1.182913194961250e+01
 1.197102437626749e+00	 4.739219385383718e-01	 1.388707207120807e+01
 1.187435420166073e+00	 4.976478402738645e-01	 1.372355644408821e+01
 1.177257456789986e+00	 5.212687698501810e-01	 1.354604217217690e+01
 1.166569000230403e+00	 5.447687745135282e-01	 1.335607988803440e+01
 1.155371149373001e+00	 5.681318132046219e-01	 1.315525253237885e+01
 1.143665658795923e+00	 5.913417885327469e-01	 1.294516798641608e+01
 1.131454946446909e+00	 6.143825796123552e-01	 1.272745146824512e+01
 1.118742099379610e+00	 6.372380756379310e-01	 1.250373774840677e+01
 1.105530877479165e+00	 6.598922100651305e-01	 1.227566324252644e+01
 1.091825715117267e+00	 6.823289952592448e-01	 1.204485804126779e+01
 1.077631720687823e+00	 7.045325574659680e-01	 1.181293793942239e+01
 1.208724791389550e+00	 4.785231224057330e-01	 1.377421056529717e+01
 1.198963919391144e+00	 5.024793727023167e-01	 1.362109705323101e+01
 1.188687140837268e+00	 5.263296316924868e-01	 1.345393043527242e+01
 1.177894912855287e+00	 5.500577917413444e-01	 1.327424731596408e+01
 1.166588344999672e+00	 5.736476560511649e-01	 1.308361666180520e+01
 1.154769208883302e+00	 5.970829709458854e-01	 1.288363244722136e+01
 1.142439945929137e+00	 6.203474590265043e-01	 1.267590606572278e+01
 1.129603673162223e+00	 6.434248530719191e-01	 1.246205856156696e+01
 1.116264186971437e+00	 6.662989305519170e-01	 1.224371274011344e+01
 1.102425964780622e+00	 6.889535486120343e-01	 1.202248521731322e+01
 1.088094164579742e+00	 7.113726793838446e-01	 1.179997847035864e+01
 1.220347145152352e+00	 4.831243062740942e-01	 1.366780841046726e+01
 1.210492418616221e+00	 5.073109051317592e-01	 1.352468609877875e+01
 1.200116824884569e+00	 5.313904935357540e-01	 1.336746838562768e+01
 1.189220825480215e+00	 5.553468089700732e-01	 1.319767889325760e+01
 1.177805540626420e+00	 5.791634988985520e-01	 1.301687363431892e+01
 1.165872758970802e+00	 6.028241533597791e-01	 1.282663366643139e+01
 1.153424945411542e+00	 6.263123384413013e-01	 1.262855751310547e+01
 1.140465246945077e+00	 6.496116305064259e-01	 1.242425340662526e+01
 1.126997496464023e+00	 6.727056510390734e-01	 1.221533141135964e+01
 1.113026214444376e+00	 6.955781019650239e-01	 1.200339548820649e+01
 1.098556608472156e+00	 7.182128013017320e-01	 1.179003556243888e+01
 1.231969498915152e+00	 4.877254901434555e-01	 1.356759795906569e+01
 1.222020917841303e+00	 5.121424375621921e-01	 1.343406229884024e+01
 1.211546508931890e+00	 5.364513553799823e-01	 1.328640097271418e+01
 1.200546738105186e+00	 5.606358261997149e-01	 1.312612565510612e+01
 1.189022736253246e+00	 5.846793417467834e-01	 1.295478041400678e+01
 1.176976309058426e+00	 6.085653357744293e-01	 1.277393436911738e+01
 1.164409944894123e+00	 6.322772178567456e-01	 1.258517411757629e+01
 1.151326820728172e+00	 6.557984079414517e-01	 1.239009598320172e+01
 1.137730805956926e+00	 6.791123715265995e-01	 1.219029814803550e+01
 1.123626464108531e+00	 7.022026553182141e-01	 1.198737272719601e+01
 1.109019052365064e+00	 7.250529232196299e-01	 1.178289784958850e+01
 1.243591852677954e+00	 4.923266740138165e-01	 1.347332037348813e+01
 1.233549417066389e+00	 5.169739699936152e-01	 1.334897289186537e+01
 1.222976192979229e+00	 5.415122172251722e-01	 1.321048138380163e+01
 1.211872650730201e+00	 5.659248434302693e-01	 1.305934659972000e+01
 1.200239931880150e+00	 5.901951845958592e-01	 1.289710166154935e+01
 1.188079859146171e+00	 6.143065181898351e-01	 1.272530471945200e+01
 1.175394944376881e+00	 6.382420972728371e-01	 1.254553137742643e+01
 1.162188394511508e+00	 6.619851853769962e-01	 1.235936694407989e+01
 1.148464115450142e+00	 6.855190920144951e-01	 1.216839856771235e+01
 1.134226713773085e+00	 7.088272086716045e-01	 1.197420731706192e+01
 1.119481496258467e+00	 7.318930451375384e-01	 1.177836027057975e+01
 1.255214206440755e+00	 4.969278578851778e-01	 1.340445701345706e+01
 1.245077916291481e+00	 5.218055024260289e-01	 1.326917324218485e+01
 1.234405877026588e+00	 5.465730790713230e-01	 1.313947066257849e+01
 1.223198563355260e+00	 5.712138606617362e-01	 1.299710831967026e+01
 1.211457127507132e+00	 5.957110274457791e-01	 1.284360937789731e+01
 1.199183409234037e+00	 6.200477006059969e-01	 1.268052197630663e+01
 1.186379943859815e+00	 6.442069766895762e-01	 1.250941164913349e+01
 1.173049968295084e+00	 6.681719628130592e-01	 1.233185357330145e+01
 1.159197424943675e+00	 6.919258125027606e-01	 1.214942470238251e+01
 1.144826963438039e+00	 7.154517620251954e-01	 1.196369584874870e+01
 1.129943940152365e+00	 7.387331670554576e-01	 1.177622377714046e+01
 1.266836560203556e+00	 5.015290417575390e-01	 1.336426852758316e+01
 1.256606415516577e+00	 5.266370348594331e-01	 1.321821339547164e+01
 1.245835561073966e+00	 5.516339409184358e-01	 1.307313734876580e+01
 1.234524475980362e+00	 5.765028778941159e-01	 1.293918465352371e+01
 1.222674323134192e+00	 6.012268702965434e-01	 1.279408256756165e+01
 1.210286959322027e+00	 6.257888830229146e-01	 1.263937016780636e+01
 1.197364943342925e+00	 6.501718561069625e-01	 1.247660383276568e+01
 1.183911542078901e+00	 6.743587402496409e-01	 1.230734948197968e+01
 1.169930734437522e+00	 6.983325329913959e-01	 1.213317470421986e+01
 1.155427213103392e+00	 7.220763153789866e-01	 1.195564083658712e+01
 1.140406384046757e+00	 7.455732889733871e-01	 1.177629505813053e+01
 1.278458913966357e+00	 5.061302256309002e-01	 1.332794500205721e+01
 1.268134914741677e+00	 5.314685672938273e-01	 1.318882601381475e+01
 1.257265245121364e+00	 5.566948027665093e-01	 1.303615013849810e+01
 1.245850388605507e+00	 5.817918951274083e-01	 1.288535635647926e+01
 1.233891518761329e+00	 6.067427131481519e-01	 1.274830692027001e+01
 1.221390509410137e+00	 6.315300654405880e-01	 1.260163978363673e+01
 1.208349942826211e+00	 6.561367355249965e-01	 1.244690307454601e+01
 1.194773115862958e+00	 6.805455176867415e-01	 1.228565432070559e+01
 1.180664043931685e+00	 7.047392534804008e-01	 1.211945256738977e+01
 1.166027462769146e+00	 7.287008687329783e-01	 1.194985044904931e+01
 1.150868827941644e+00	 7.524134108913275e-01	 1.177838627876312e+01
 1.046244389015035e+00	 6.840121917124017e-01	 1.187213056701328e+01
 1.031994829112001e+00	 7.053273514082546e-01	 1.158251143640512e+01
 1.017282545054521e+00	 7.263857263794559e-01	 1.128546746094909e+01
 1.002114435865165e+00	 7.471724415374245e-01	 1.098198212123094e+01
 9.864980320304253e-01	 7.676728683263137e-01	 1.067303013799354e+01
 9.704414844585151e-01	 7.878726579898537e-01	 1.035957313231454e+01
 9.539535513453987e-01	 8.077577742387658e-01	 1.004255545917185e+01
 9.370435829877606e-01	 8.273145251659155e-01	 9.722900247295982e+00
 9.197215045943361e-01	 8.465295942593203e-01	 9.401505675704771e+00
 9.019977971594894e-01	 8.653900703672559e-01	 9.079241514433352e+00
 8.838834764750000e-01	 8.838834764750000e-01	 8.756945953760678e+00
 1.056706832905469e+00	 6.908523136302467e-01	 1.184878542224043e+01
 1.042314777402819e+00	 7.123806249235496e-01	 1.156514633729529e+01
 1.027455370504306e+00	 7.336495836448358e-01	 1.127502445066772e+01
 1.012135580222726e+00	 7.546441659546386e-01	 1.097940332745695e+01
 9.963630123494379e-01	 7.753495970115514e-01	 1.067925399863834e+01
 9.801458993017382e-01	 7.957513845717418e-01	 1.037553057726352e+01
 9.634930868575512e-01	 8.158353519830368e-01	 1.006916607128150e+01
 9.464140188165280e-01	 8.355876704192311e-01	 9.761068426409194e+00
 9.289187196394912e-01	 8.549948902032221e-01	 9.452116829751816e+00
 9.110177751307498e-01	 8.740439710717682e-01	 9.143158301760865e+00
 8.927223112400001e-01	 8.927223112400001e-01	 8.835004600670107e+00
 1.067169276796399e+00	 6.976924355481020e-01	 1.182913194961250e+01
 1.052634725694217e+00	 7.194338984386744e-01	 1.155132581354981e+01
 1.037628195954726e+00	 7.409134409099047e-01	 1.126797723686567e+01
 1.022156724580948e+00	 7.621158903714401e-01	 1.098007017925613e+01
 1.006227992669108e+00	 7.830263256963153e-01	 1.068857228036182e+01
 9.898503141455847e-01	 8.036301111531332e-01	 1.039443043053058e+01
 9.730326223702622e-01	 8.239129297268302e-01	 1.009856656157458e+01
 9.557844546457592e-01	 8.438608156721282e-01	 9.801873691490542e+00
 9.381159346849866e-01	 8.634601861468045e-01	 9.505212254159282e+00
 9.200377531021950e-01	 8.826978717761008e-01	 9.209406741695481e+00
 9.015611460049998e-01	 9.015611460049998e-01	 8.915242683433615e+00
 1.077631720687823e+00	 7.045325574659680e-01	 1.181293793942239e+01
 1.062954673986195e+00	 7.264871719536292e-01	 1.154081950115992e+01
 1.047801021405781e+00	 7.481772981746628e-01	 1.126409770082518e+01
 1.032177868939832e+00	 7.695876147878290e-01	 1.098375720102663e+01
 1.016092972989436e+00	 7.907030543806040e-01	 1.070076254552666e+01
 9.995547289900544e-01	 8.115088377340292e-01	 1.041605368310443e+01
 9.825721578835327e-01	 8.319905074701464e-01	 1.013054173493171e+01
 9.651548904754556e-01	 8.521339609246066e-01	 9.845105039984555e+00
 9.473131497308213e-01	 8.719254820900676e-01	 9.560585509832103e+00
 9.290577310738252e-01	 8.913517724802531e-01	 9.277785320565533e+00
 9.103999807700000e-01	 9.103999807700000e-01	 8.997463965704316e+00
 1.088094164579742e+00	 7.113726793838446e-01	 1.179997847035864e+01
 1.073274622278753e+00	 7.335404454684142e-01	 1.153340422956490e+01
 1.057973846857473e+00	 7.554411554391099e-01	 1.126316481057430e+01
 1.042199013299377e+00	 7.770593392038053e-01	 1.099024588559499e+01
 1.025957953310421e+00	 7.983797830644190e-01	 1.071560919516256e+01
 1.009259143835148e+00	 8.193875643144291e-01	 1.044018802363645e+01
 9.921116933973619e-01	 8.400680852129850e-01	 1.016488294188042e+01
 9.745253263056164e-01	 8.604071061766666e-01	 9.890557852216173e+00
 9.565103647769959e-01	 8.803907780330110e-01	 9.618036367327935e+00
 9.380777090456406e-01	 9.000056731842258e-01	 9.348098550980414e+00
 9.192388155350000e-01	 9.192388155350000e-01	 9.081478044245262e+00
 1.098556608472156e+00	 7.182128013017320e-01	 1.179003556243888e+01
 1.083594570571891e+00	 7.405937189830295e-01	 1.152886367910691e+01
 1.068146672309800e+00	 7.627050127032456e-01	 1.126496428342262e+01
 1.052220157659584e+00	 7.845310636193691e-01	 1.099932436238616e+01
 1.035822933632064e+00	 8.060565117477595e-01	 1.073290314331538e+01
 1.018963558680864e+00	 8.272662908943328e-01	 1.046662751950455e+01
 1.001651228911751e+00	 8.481456629553464e-01	 1.020138776689774e+01
 9.838957621362415e-01	 8.686802514283076e-01	 9.938033587444071e+00
 9.657075798235105e-01	 8.888560739756349e-01	 9.677370511159481e+00
 9.470976870176407e-01	 9.086595738880187e-01	 9.420156684865240e+00
 9.280776503000001e-01	 9.280776503000001e-01	 9.167100071162665e+00
 1.109019052365064e+00	 7.250529232196299e-01	 1.178289784958850e+01
 1.093914518865609e+00	 7.476469924974751e-01	 1.152698805787510e+01
 1.078319497762762e+00	 7.699688699670706e-01	 1.126928826759891e+01
 1.062241302020453e+00	 7.920027880345202e-01	 1.101078708437658e+01
 1.045687913954364e+00	 8.137332404306257e-01	 1.075244150982945e+01
 1.028667973527204e+00	 8.351450174737410e-01	 1.049517231592958e+01
 1.011190764426698e+00	 8.562232406972299e-01	 1.023985973435579e+01
 9.932661979673315e-01	 8.769533966795300e-01	 9.987339497118402e+00
 9.749047948703654e-01	 8.973213699179398e-01	 9.738399260834283e+00
 9.561176649898260e-01	 9.173134745916315e-01	 9.493775442738144e+00
 9.369164850650002e-01	 9.369164850650001e-01	 9.254150491860836e+00
 1.119481496258467e+00	 7.318930451375384e-01	 1.177836027057975e+01
 1.104234467159906e+00	 7.547002660117507e-01	 1.152757379667069e+01
 1.088492323216361e+00	 7.772327272305846e-01	 1.127593504174099e+01
 1.072262446381982e+00	 7.994745124492590e-01	 1.102443453260100e+01
 1.055552894277321e+00	 8.214099691130178e-01	 1.077402733035698e+01
 1.038372388374167e+00	 8.430237440526529e-01	 1.052562835196407e+01
 1.020730299942205e+00	 8.643008184386362e-01	 1.028010803095667e+01
 1.002636633798886e+00	 8.852265419303337e-01	 1.003828835421781e+01
 9.841020099175596e-01	 9.057866658599246e-01	 9.800939307537174e+00
 9.651376429621962e-01	 9.259673752950645e-01	 9.568775758168579e+00
 9.457553198299999e-01	 9.457553198299999e-01	 9.342454797692355e+00
 1.129943940152365e+00	 7.387331670554576e-01	 1.177622377714046e+01
 1.114554415454784e+00	 7.617535395258563e-01	 1.153042326091862e+01
 1.098665148670595e+00	 7.844965844937873e-01	 1.128470873108034e+01
 1.082283590744174e+00	 8.069462368635849e-01	 1.104007293707560e+01
 1.065417874600936e+00	 8.290866977949353e-01	 1.079746928247792e+01
 1.048076803221754e+00	 8.509024706310688e-01	 1.055780709225940e+01
 1.030269835458270e+00	 8.723783961795647e-01	 1.032194724358780e+01
 1.012007069630905e+00	 8.934996871807190e-01	 1.009069819762302e+01
 9.932992249650937e-01	 9.142519618015905e-01	 9.864812465441773e+00
 9.741576209347511e-01	 9.346212759983175e-01	 9.644983536432481e+00
 9.545941545949999e-01	 9.545941545949999e-01	 9.431843292349111e+00
 1.140406384046757e+00	 7.455732889733871e-01	 1.177629505813053e+01
 1.124874363750242e+00	 7.688068130397925e-01	 1.153534447843680e+01
 1.108837974125464e+00	 7.917604417566795e-01	 1.129541903924989e+01
 1.092304735107027e+00	 8.144179612774985e-01	 1.105751401308354e+01
 1.075282854925209e+00	 8.367634264763789e-01	 1.082258142689623e+01
 1.057781218069964e+00	 8.587811972089886e-01	 1.059152527359784e+01
 1.039809370974894e+00	 8.804559739200161e-01	 1.036519711160649e+01
 1.021377505463388e+00	 9.017728324306855e-01	 1.014439209056163e+01
 1.002496440012967e+00	 9.227172577429366e-01	 9.929845436710661e+00
 9.831775989074915e-01	 9.432751767013908e-01	 9.722229426452204e+00
 9.634329893600002e-01	 9.634329893600002e-01	 9.522150871112782e+00
 1.150868827941644e+00	 7.524134108913275e-01	 1.177838627876312e+01
 1.135194312046280e+00	 7.758600865535584e-01	 1.154215088205486e+01
 1.119010799580969e+00	 7.990242990192602e-01	 1.130788099472015e+01
 1.102325879470541e+00	 8.218896856909992e-01	 1.107657471184432e+01
 1.085147835250138e+00	 8.444401551573477e-01	 1.084918296275208e+01
 1.067485632918797e+00	 8.666599237864125e-01	 1.062660466525015e+01
 1.049348906492078e+00	 8.885335516599897e-01	 1.040968229263731e+01
 1.030747941296336e+00	 9.100459776802332e-01	 1.019919789222901e+01
 1.011693655061181e+00	 9.311825536839639e-01	 9.995869589314331e+00
 9.921975768804164e-01	 9.519290774042841e-01	 9.800348605176350e+00
 9.722718241249999e-01	 9.722718241249999e-01	 9.613216812146410e+00
 8.838834764750000e-01	 8.838834764750000e-01	 8.756945953760678e+00
 8.653900703672558e-01	 9.019977971594894e-01	 8.410178138793235e+00
 8.465295942593203e-01	 9.197215045943362e-01	 8.066697816339561e+00
 8.273145251659157e-01	 9.370435829877607e-01	 7.727486209000110e+00
 8.077577742387659e-01	 9.539535513453987e-01	 7.393479812027435e+00
 7.878726579898540e-01	 9.704414844585149e-01	 7.065567866482523e+00
 7.676728683263140e-01	 9.864980320304252e-01	 6.744590212578398e+00
 7.471724415374250e-01	 1.002114435865165e+00	 6.431335527082618e+00
 7.263857263794565e-01	 1.017282545054521e+00	 6.126539944579767e+00
 7.053273514082554e-01	 1.031994829112000e+00	 5.830886058454066e+00
 6.840121917124017e-01	 1.046244389015035e+00	 5.545002293709485e+00
 8.927223112400001e-01	 8.927223112400001e-01	 8.835004600670107e+00
 8.740439710717682e-01	 9.110177751307497e-01	 8.503014947434977e+00
 8.549948902032222e-01	 9.289187196394916e-01	 8.172322670983664e+00
 8.355876704192313e-01	 9.464140188165279e-01	 7.843704421993864e+00
 8.158353519830368e-01	 9.634930868575508e-01	 7.517900435067538e+00
 7.957513845717418e-01	 9.801458993017379e-01	 7.195612822533944e+00
 7.753495970115517e-01	 9.963630123494376e-01	 6.877504199458039e+00
 7.546441659546392e-01	 1.012135580222726e+00	 6.564196638659775e+00
 7.336495836448365e-01	 1.027455370504305e+00	 6.256270950939225e+00
 7.123806249235501e-01	 1.042314777402819e+00	 5.954266282275279e+00
 6.908523136302465e-01	 1.056706832905469e+00	 5.658680016565005e+00
 9.015611460049998e-01	 9.015611460049998e-01	 8.915242683433615e+00
 8.826978717761006e-01	 9.200377531021950e-01	 8.596499799819570e+00
 8.634601861468045e-01	 9.381159346849864e-01	 8.277118252087817e+00
 8.438608156721283e-01	 9.557844546457592e-01	 7.957672771377727e+00
 8.239129297268304e-01	 9.730326223702622e-01	 7.638709816716919e+00
 8.036301111531335e-01	 9.898503141455844e-01	 7.320746681775832e+00
 7.830263256963154e-01	 1.006227992669108e+00	 7.004270884802374e+00
 7.621158903714405e-01	 1.022156724580948e+00	 6.689739835504530e+00
 7.409134409099053e-01	 1.037628195954725e+00	 6.377580769495500e+00
 7.194338984386750e-01	 1.052634725694217e+00	 6.068190937987870e+00
 6.976924355481020e-01	 1.067169276796399e+00	 5.761938037761961e+00
 9.103999807700000e-01	 9.103999807700000e-01	 8.997463965704316e+00
 8.913517724802530e-01	 9.290577310738252e-01	 8.690482264883510e+00
 8.719254820900674e-01	 9.473131497308210e-01	 8.380978709306321e+00
 8.521339609246068e-01	 9.651548904754556e-01	 8.069328676776628e+00
 8.319905074701465e-01	 9.825721578835326e-01	 7.755887253018752e+00
 8.115088377340296e-01	 9.995547289900545e-01	 7.440989143980326e+00
 7.907030543806044e-01	 1.016092972989435e+00	 7.124948824226408e+00
 7.695876147878296e-01	 1.032177868939832e+00	 6.808060910185491e+00
 7.481772981746633e-01	 1.047801021405781e+00	 6.490600744303009e+00
 7.264871719536298e-01	 1.062954673986194e+00	 6.172825173720179e+00
 7.045325574659680e-01	 1.077631720687823e+00	 5.854973504966861e+00
 9.192388155350000e-01	 9.192388155350000e-01	 9.081478044245262e+00
 9.000056731842259e-01	 9.380777090456406e-01	 8.784815996410185e+00
 8.803907780330109e-01	 9.565103647769959e-01	 8.483800579575922e+00
 8.604071061766667e-01	 9.745253263056164e-01	 8.178610301455910e+00
 8.400680852129850e-01	 9.921116933973620e-01	 7.869411197016049e+00
 8.193875643144292e-01	 1.009259143835148e+00	 7.556357539203328e+00
 7.983797830644193e-01	 1.025957953310421e+00	 7.239592739595411e+00
 7.770593392038057e-01	 1.042199013299377e+00	 6.919250422754471e+00
 7.554411554391103e-01	 1.057973846857472e+00	 6.595455655801096e+00
 7.335404454684151e-01	 1.073274622278753e+00	 6.268326312769590e+00
 7.113726793838446e-01	 1.088094164579742e+00	 5.937974551698618e+00
 9.280776503000001e-01	 9.280776503000001e-01	 9.167100071162665e+00
 9.086595738880183e-01	 9.470976870176407e-01	 8.879358538513305e+00
 8.888560739756349e-01	 9.657075798235105e-01	 8.585482673435958e+00
 8.686802514283077e-01	 9.838957621362414e-01	 8.285456516910266e+00
 8.481456629553463e-01	 1.001651228911750e+00	 7.979259298894754e+00
 8.272662908943332e-01	 1.018963558680864e+00	 7.666866940628161e+00
 8.060565117477597e-01	 1.035822933632063e+00	 7.348253701584351e+00
 7.845310636193695e-01	 1.052220157659584e+00	 7.023393949914195e+00
 7.627050127032463e-01	 1.068146672309799e+00	 6.692264033367850e+00
 7.405937189830302e-01	 1.083594570571890e+00	 6.354844226213375e+00
 7.182128013017320e-01	 1.098556608472156e+00	 6.011120726573769e+00
 9.369164850650002e-01	 9.369164850650001e-01	 9.254150491860836e+00
 9.173134745916314e-01	 9.561176649898259e-01	 8.973971142130910e+00
 8.973213699179396e-01	 9.749047948703653e-01	 8.685925967782625e+00
 8.769533966795300e-01	 9.932661979673313e-01	 8.389806869456381e+00
 8.562232406972300e-01	 1.011190764426698e+00	 8.085408443854227e+00
 8.351450174737411e-01	 1.028667973527204e+00	 7.772530271021708e+00
 8.137332404306261e-01	 1.045687913954363e+00	 7.450979301903834e+00
 7.920027880345210e-01	 1.062241302020452e+00	 7.120572320081751e+00
 7.699688699670710e-01	 1.078319497762762e+00	 6.781138450180846e+00
 7.476469924974758e-01	 1.093914518865608e+00	 6.432521684428783e+00
 7.250529232196300e-01	 1.109019052365064e+00	 6.074583398254493e+00
 9.457553198299999e-01	 9.457553198299999e-01	 9.342454797692355e+00
 9.259673752950643e-01	 9.651376429621963e-01	 9.068518591809113e+00
 9.057866658599246e-01	 9.841020099175595e-01	 8.785033504637630e+00
 8.852265419303337e-01	 1.002636633798885e+00	 8.491601548699421e+00
 8.643008184386362e-01	 1.020730299942204e+00	 8.187834787854174e+00
 8.430237440526532e-01	 1.038372388374167e+00	 7.873358403221298e+00
 8.214099691130180e-01	 1.055552894277321e+00	 7.547813815868526e+00
 7.994745124492595e-01	 1.072262446381982e+00	 7.210861835271036e+00
 7.772327272305850e-01	 1.088492323216360e+00	 6.862185801544573e+00
 7.547002660117512e-01	 1.104234467159906e+00	 6.501494688901154e+00
 7.318930451375383e-01	 1.119481496258467e+00	 6.128526137689798e+00
 9.545941545949999e-01	 9.545941545949999e-01	 9.431843292349111e+00
 9.346212759983176e-01	 9.741576209347513e-01	 9.162869042109225e+00
 9.142519618015904e-01	 9.932992249650935e-01	 8.882710295540281e+00
 8.934996871807190e-01	 1.012007069630904e+00	 8.590781357751148e+00
 8.723783961795650e-01	 1.030269835458270e+00	 8.286513791375885e+00
 8.509024706310692e-01	 1.048076803221754e+00	 7.969360255038682e+00
 8.290866977949357e-01	 1.065417874600936e+00	 7.638798355933976e+00
 8.069462368635854e-01	 1.082283590744173e+00	 7.294334480648851e+00
 7.844965844937880e-01	 1.098665148670594e+00	 6.935507567755005e+00
 7.617535395258571e-01	 1.114554415454784e+00	 6.561892785599018e+00
 7.387331670554576e-01	 1.129943940152365e+00	 6.173105079120683e+00
 9.634329893600002e-01	 9.634329893600002e-01	 9.522150871112782e+00
 9.432751767013909e-01	 9.831775989074915e-01	 9.256893863019876e+00
 9.227172577429366e-01	 1.002496440012967e+00	 8.978863231202919e+00
 9.017728324306855e-01	 1.021377505463388e+00	 8.687287685087128e+00
 8.804559739200162e-01	 1.039809370974894e+00	 8.381420251324990e+00
 8.587811972089889e-01	 1.057781218069964e+00	 8.060542878940282e+00
 8.367634264763789e-01	 1.075282854925208e+00	 7.723971016782041e+00
 8.144179612774990e-01	 1.092304735107027e+00	 7.371058122555022e+00
 7.917604417566800e-01	 1.108837974125464e+00	 7.001200062494283e+00
 7.688068130397931e-01	 1.124874363750241e+00	 6.613839361098067e+00
 7.455732889733871e-01	 1.140406384046757e+00	 6.208469261213304e+00
 9.722718241249999e-01	 9.722718241249999e-01	 9.613216812146410e+00
 9.519290774042841e-01	 9.921975768804165e-01	 9.350467493801343e+00
 9.311825536839636e-01	 1.011693655061181e+00	 9.073400996093623e+00
 9.100459776802337e-01	 1.030747941296336e+00	 8.781062477939727e+00
 8.885335516599900e-01	 1.049348906492078e+00	 8.472528331193738e+00
 8.666599237864129e-01	 1.067485632918797e+00	 8.146911546835401e+00
 8.444401551573482e-01	 1.085147835250138e+00	 7.803367012492242e+00
 8.218896856909996e-01	 1.102325879470541e+00	 7.441096695721777e+00
 7.990242990192610e-01	 1.119010799580969e+00	 7.059354667676944e+00
 7.758600865535591e-01	 1.135194312046279e+00	 6.657451922554269e+00
 7.524134108913274e-01	 1.150868827941644e+00	 6.234760949585504e+00
 6.840121917124017e-01	 1.046244389015035e+00	 5.545002293709485e+00
 6.624553352020789e-01	 1.060024966129602e+00	 5.239193708721709e+00
 6.406720486069893e-01	 1.073330949004241e+00	 4.930719444052341e+00
 6.186777433390788e-01	 1.086157378033213e+00	 4.619479906682462e+00
 5.964879413737916e-01	 1.098499948001280e+00	 4.305384644006899e+00
 5.741182412978680e-01	 1.110355008534519e+00	 3.988354432514558e+00
 5.515842846700593e-01	 1.121719562493458e+00	 3.668323274559631e+00
 5.289017228355563e-01	 1.132591262356013e+00	 3.345240281166614e+00
 5.060861843290325e-01	 1.142968404648257e+00	 3.019071420579916e+00
 4.831532429944511e-01	 1.152849922490885e+00	 2.689801114277226e+00
 4.601183869422882e-01	 1.162235376338345e+00	 2.357433664382076e+00
 6.908523136302465e-01	 1.056706832905469e+00	 5.658680016565005e+00
 6.690798885542670e-01	 1.070625215791757e+00	 5.339216839519827e+00
 6.470787690926667e-01	 1.084064258495567e+00	 5.021939090714639e+00
 6.248645207715108e-01	 1.097018951815105e+00	 4.706894917655763e+00
 6.024528207859987e-01	 1.109484947482980e+00	 4.394119769574801e+00
 5.798594237087384e-01	 1.121458558621532e+00	 4.083638395055086e+00
 5.571001275140695e-01	 1.132936758119894e+00	 3.775466864730394e+00
 5.341907400606344e-01	 1.143917174980766e+00	 3.469614593747419e+00
 5.111470461684543e-01	 1.154398088695481e+00	 3.166086339619147e+00
 4.879847754199321e-01	 1.164378421715942e+00	 2.864884152346950e+00
 4.647195708066494e-01	 1.173857730101146e+00	 2.566009255216574e+00
 6.976924355481020e-01	 1.067169276796399e+00	 5.761938037761961e+00
 6.757044419066557e-01	 1.081225465454312e+00	 5.430541249465660e+00
 6.534854895787137e-01	 1.094797567987208e+00	 5.106084136254614e+00
 6.310512982044615e-01	 1.107880525597236e+00	 4.788759977121986e+00
 6.084177001988532e-01	 1.120469946964856e+00	 4.478727787712603e+00
 5.856006061203651e-01	 1.132562108708666e+00	 4.176114231989635e+00
 5.626159703589236e-01	 1.144153953746409e+00	 3.881015674566171e+00
 5.394797572866252e-01	 1.155243087605563e+00	 3.593500345140164e+00
 5.162079080088372e-01	 1.165827772742723e+00	 3.313610586591212e+00
 4.928163078464036e-01	 1.175906920941005e+00	 3.041365158795013e+00
 4.693207546720107e-01	 1.185480083863948e+00	 2.776761571065109e+00
 7.045325574659680e-01	 1.077631720687823e+00	 5.854973504966861e+00
 6.823289952592447e-01	 1.091825715117267e+00	 5.513318101494718e+00
 6.598922100651304e-01	 1.105530877479165e+00	 5.183262783740064e+00
 6.372380756379310e-01	 1.118742099379610e+00	 4.865143409239769e+00
 6.143825796123554e-01	 1.131454946446909e+00	 4.559240272259004e+00
 5.913417885327474e-01	 1.143665658795923e+00	 4.265779934566596e+00
 5.681318132046224e-01	 1.155371149373001e+00	 3.984937311118702e+00
 5.447687745135287e-01	 1.166569000230403e+00	 3.716837978836558e+00
 5.212687698501816e-01	 1.177257456789986e+00	 3.461560675977752e+00
 4.976478402738654e-01	 1.187435420166072e+00	 3.219139959355121e+00
 4.739219385383718e-01	 1.197102437626749e+00	 2.989568986850768e+00
 7.113726793838446e-01	 1.088094164579742e+00	 5.937974551698618e+00
 6.889535486120340e-01	 1.102425964780622e+00	 5.587691356780088e+00
 6.662989305519171e-01	 1.116264186971437e+00	 5.253577732631965e+00
 6.434248530719193e-01	 1.129603673162223e+00	 4.936109616128357e+00
 6.203474590265048e-01	 1.142439945929137e+00	 4.635686337953574e+00
 5.970829709458856e-01	 1.154769208883302e+00	 4.352632377532469e+00
 5.736476560511651e-01	 1.166588344999672e+00	 4.087199485799905e+00
 5.500577917413448e-01	 1.177894912855286e+00	 3.839569140745367e+00
 5.263296316924875e-01	 1.188687140837267e+00	 3.609855299179292e+00
 5.024793727023174e-01	 1.198963919391144e+00	 3.398107407194700e+00
 4.785231224057330e-01	 1.208724791389550e+00	 3.204313631334657e+00
 7.182128013017320e-01	 1.098556608472156e+00	 6.011120726573769e+00
 6.955781019650238e-01	 1.113026214444376e+00	 5.653798117673841e+00
 6.727056510390736e-01	 1.126997496464024e+00	 5.317126440861667e+00
 6.496116305064261e-01	 1.140465246945077e+00	 5.001719264631515e+00
 6.263123384413014e-01	 1.153424945411542e+00	 4.708092757536882e+00
 6.028241533597797e-01	 1.165872758970803e+00	 4.436667372298716e+00
 5.791634988985525e-01	 1.177805540626420e+00	 4.187770009412312e+00
 5.553468089700738e-01	 1.189220825480215e+00	 3.961636621934695e+00
 5.313904935357544e-01	 1.200116824884568e+00	 3.758415220853530e+00
 5.073109051317600e-01	 1.210492418616221e+00	 3.578169238751189e+00
 4.831243062740943e-01	 1.220347145152352e+00	 3.420881208361601e+00
 7.250529232196300e-01	 1.109019052365064e+00	 6.074583398254493e+00
 7.022026553182140e-01	 1.123626464108531e+00	 5.711768951236108e+00
 6.791123715265995e-01	 1.137730805956926e+00	 5.374001372072359e+00
 6.557984079414519e-01	 1.151326820728172e+00	 5.062029462509900e+00
 6.322772178567455e-01	 1.164409944894123e+00	 4.776484072222027e+00
 6.085653357744295e-01	 1.176976309058425e+00	 4.517879717099013e+00
 5.846793417467839e-01	 1.189022736253246e+00	 4.286616787461068e+00
 5.606358261997154e-01	 1.200546738105186e+00	 4.082984304614572e+00
 5.364513553799830e-01	 1.211546508931889e+00	 3.907163181119204e+00
 5.121424375621928e-01	 1.222020917841302e+00	 3.759229937728899e+00
 4.877254901434555e-01	 1.231969498915153e+00	 3.639160828224011e+00
 7.318930451375383e-01	 1.119481496258467e+00	 6.128526137689798e+00
 7.088272086716046e-01	 1.134226713773085e+00	 5.761728194622718e+00
 6.855190920144951e-01	 1.148464115450143e+00	 5.424290228997277e+00
 6.619851853769962e-01	 1.162188394511507e+00	 5.117093924753259e+00
 6.382420972728374e-01	 1.175394944376881e+00	 4.840882695971468e+00
 6.143065181898355e-01	 1.188079859146170e+00	 4.596263244334112e+00
 5.901951845958594e-01	 1.200239931880150e+00	 4.383707815728143e+00
 5.659248434302697e-01	 1.211872650730201e+00	 4.203557111149706e+00
 5.415122172251726e-01	 1.222976192979229e+00	 4.056023803245068e+00
 5.169739699936161e-01	 1.233549417066389e+00	 3.941196606721906e+00
 4.923266740138165e-01	 1.243591852677954e+00	 3.859044848482490e+00
 7.387331670554576e-01	 1.129943940152365e+00	 6.173105079120683e+00
 7.154517620251952e-01	 1.144826963438039e+00	 5.803794243506374e+00
 6.919258125027606e-01	 1.159197424943675e+00	 5.468076173872085e+00
 6.681719628130595e-01	 1.173049968295084e+00	 5.166963130653137e+00
 6.442069766895764e-01	 1.186379943859815e+00	 4.901309013981145e+00
 6.200477006059973e-01	 1.199183409234037e+00	 4.671810865286207e+00
 5.957110274457796e-01	 1.211457127507132e+00	 4.479011176093344e+00
 5.712138606617366e-01	 1.223198563355260e+00	 4.323300955903418e+00
 5.465730790713239e-01	 1.234405877026588e+00	 4.204923506467566e+00
 5.218055024260299e-01	 1.245077916291480e+00	 4.123978845969279e+00
 4.969278578851778e-01	 1.255214206440755e+00	 3.870929007998386e+00
 7.455732889733871e-01	 1.140406384046757e+00	 6.208469261213304e+00
 7.220763153789865e-01	 1.155427213103392e+00	 5.838079824622403e+00
 6.983325329913959e-01	 1.169930734437522e+00	 5.505438036714812e+00
 6.743587402496412e-01	 1.183911542078901e+00	 5.211684472229516e+00
 6.501718561069627e-01	 1.197364943342925e+00	 4.957781475742953e+00
 6.257888830229149e-01	 1.210286959322026e+00	 4.744514612372102e+00
 6.012268702965438e-01	 1.222674323134191e+00	 4.572495032584499e+00
 5.765028778941165e-01	 1.234524475980362e+00	 4.442162699733871e+00
 5.516339409184363e-01	 1.245835561073966e+00	 4.353790423606295e+00
 5.266370348594338e-01	 1.256606415516577e+00	 4.045613489983218e+00
 5.015290417575390e-01	 1.266836560203556e+00	 3.627783256473528e+00
 7.524134108913274e-01	 1.150868827941644e+00	 6.234760949585504e+00
 7.287008687329781e-01	 1.166027462769146e+00	 5.864692253447008e+00
 7.047392534804007e-01	 1.180664043931685e+00	 5.536450512244535e+00
 6.805455176867415e-01	 1.194773115862958e+00	 5.251302394560961e+00
 6.561367355249966e-01	 1.208349942826211e+00	 5.010316683031387e+00
 6.315300654405884e-01	 1.221390509410137e+00	 4.814365679091700e+00
 6.067427131481523e-01	 1.233891518761329e+00	 4.664127627643518e+00
 5.817918951274087e-01	 1.245850388605507e+00	 4.560090106970890e+00
 5.566948027665101e-01	 1.257265245121364e+00	 4.218713121282619e+00
 5.314685672938282e-01	 1.268134914741677e+00	 3.774082427702504e+00
 5.061302256309000e-01	 1.278458913966357e+00	 3.387407044435306e+00
 4.601183869422882e-01	 1.162235376338345e+00	 2.357433664382076e+00
 4.369969884562961e-01	 1.171124942995283e+00	 2.043586064793616e+00
 4.138042749547273e-01	 1.179519403004286e+00	 1.754599728492765e+00
 3.905553010997264e-01	 1.187420126502869e+00	 1.490732557211923e+00
 3.672649221392484e-01	 1.194829057653032e+00	 1.252154253362106e+00
 3.439477685578608e-01	 1.201748697753768e+00	 1.038949794356664e+00
 3.206182221012706e-01	 1.208182087148427e+00	 8.511231379967057e-01
 2.972903932297764e-01	 1.214132786041956e+00	 6.886011213256553e-01
 2.739781000458337e-01	 1.219604854344699e+00	 5.512375162912653e-01
 2.506948487310247e-01	 1.224602830660197e+00	 4.388172067990528e-01
 2.274538155180211e-01	 1.229131710534368e+00	 3.510604532423260e-01
 4.647195708066494e-01	 1.173857730101146e+00	 2.566009255216574e+00
 4.413669583353180e-01	 1.182836192423920e+00	 2.293106670843803e+00
 4.179423176984929e-01	 1.191314597032411e+00	 2.043867880143335e+00
 3.944608541049377e-01	 1.199294327765508e+00	 1.818456998068686e+00
 3.709375713550830e-01	 1.206777348226831e+00	 1.616955933542442e+00
 3.473872462383391e-01	 1.213766184728358e+00	 1.439368047062074e+00
 3.238244043178661e-01	 1.220263908016873e+00	 1.285622002353001e+00
 3.002632971585618e-01	 1.226274113899371e+00	 1.155575774845287e+00
 2.767178810439023e-01	 1.231800902885296e+00	 1.049020780971941e+00
 2.532017972172816e-01	 1.236848858964223e+00	 9.656860937878431e-01
 2.297283536736934e-01	 1.241423027637528e+00	 9.052427121571878e-01
 4.693207546720107e-01	 1.185480083863948e+00	 2.776761571065109e+00
 4.457369282153291e-01	 1.194547441852557e+00	 2.544275557287280e+00
 4.220803604432159e-01	 1.203109791060537e+00	 2.334278239485838e+00
 3.983664071110528e-01	 1.211168529028148e+00	 2.146840284211646e+00
 3.746102205717478e-01	 1.218725638800630e+00	 1.981956087832495e+00
 3.508267239195530e-01	 1.225783671702948e+00	 1.839547618903972e+00
 3.270305865350828e-01	 1.232345728885319e+00	 1.719468417728880e+00
 3.032362010878344e-01	 1.238415441756786e+00	 1.621507716234396e+00
 2.794576620423047e-01	 1.243996951425893e+00	 1.545394642803434e+00
 2.557087457036998e-01	 1.249094887268250e+00	 1.490802478459310e+00
 2.320028918293363e-01	 1.253714344740687e+00	 1.294106374263141e+00
 4.739219385383718e-01	 1.197102437626749e+00	 2.989568986850768e+00
 4.501068980963295e-01	 1.206258691281194e+00	 2.796991739000680e+00
 4.262184031888958e-01	 1.214904985088661e+00	 2.625749806615166e+00
 4.022719601180718e-01	 1.223042730290787e+00	 2.475820716823272e+00
 3.782828697892422e-01	 1.230673929374427e+00	 2.347111607263990e+00
 3.542662016015024e-01	 1.237801158677538e+00	 2.239463254745593e+00
 3.302367687529205e-01	 1.244427549753766e+00	 2.152654224375945e+00
 3.062091050175939e-01	 1.250556769614200e+00	 2.062422106718856e+00
 2.821974430410407e-01	 1.256192999966490e+00	 1.771685019894708e+00
 2.582156941902795e-01	 1.261340915572276e+00	 1.518794944889336e+00
 2.342774299849499e-01	 1.266005661843847e+00	 1.303782835969765e+00
 4.785231224057330e-01	 1.208724791389550e+00	 3.204313631334657e+00
 4.544768679783190e-01	 1.217969940709831e+00	 3.051157246290716e+00
 4.303564459355328e-01	 1.226700179116788e+00	 2.918203883845790e+00
 4.061775131259946e-01	 1.234916931553427e+00	 2.805338212222047e+00
 3.819555190075666e-01	 1.242622219948226e+00	 2.712380337899411e+00
 3.577056792841872e-01	 1.249818645652129e+00	 2.639090022119947e+00
 3.334429509713793e-01	 1.256509370622212e+00	 2.306988725065135e+00
 3.091820089478404e-01	 1.262698097471615e+00	 2.003368535627519e+00
 2.849372240401104e-01	 1.268389048507087e+00	 1.736138331681167e+00
 2.607226426770205e-01	 1.273586943876302e+00	 1.505409046546135e+00
 2.365519681405341e-01	 1.278296978947007e+00	 1.311183089998507e+00
 4.831243062740943e-01	 1.220347145152352e+00	 3.420881208361601e+00
 4.588468378612978e-01	 1.229681190138469e+00	 3.306676981303567e+00
 4.344944886831269e-01	 1.238495373144913e+00	 3.211563966081949e+00
 4.100830661348214e-01	 1.246791132816067e+00	 3.135334224951698e+00
 3.856281682267209e-01	 1.254570510522024e+00	 2.885787256038158e+00
 3.611451569676077e-01	 1.261836132626718e+00	 2.536949435133527e+00
 3.366491331904594e-01	 1.268591191490658e+00	 2.222734668799712e+00
 3.121549128785740e-01	 1.274839425329030e+00	 1.943437116253154e+00
 2.876770050395138e-01	 1.280585097047684e+00	 1.699242112694868e+00
 2.632295911639229e-01	 1.285832972180329e+00	 1.490228214243423e+00
 2.388265062960890e-01	 1.290588296050166e+00	 1.316369737127320e+00
 4.877254901434555e-01	 1.231969498915153e+00	 3.639160828224011e+00
 4.632168077452659e-01	 1.241392439567105e+00	 3.563458582559563e+00
 4.386325314316782e-01	 1.250290567173038e+00	 3.493795390249906e+00
 4.139886191445520e-01	 1.258665334078706e+00	 3.105519202934369e+00
 3.893008174467052e-01	 1.266518801095822e+00	 2.749853679921064e+00
 3.645846346517638e-01	 1.273853619601308e+00	 2.427265590063469e+00
 3.398553154101606e-01	 1.280673012359104e+00	 2.138114719745027e+00
 3.151278168097947e-01	 1.286980753186445e+00	 1.882654829074241e+00
 2.904167860392506e-01	 1.292781145588281e+00	 1.661035147765383e+00
 2.657365396509867e-01	 1.298079000484355e+00	 1.473302381769479e+00
 2.411010444516146e-01	 1.302879613153326e+00	 1.319403198519716e+00
 4.923266740138165e-01	 1.243591852677954e+00	 3.859044848482490e+00
 4.675867776302232e-01	 1.253103688995743e+00	 3.695135799567017e+00
 4.427705741811864e-01	 1.262085761201164e+00	 3.303760012863798e+00
 4.178941721551864e-01	 1.270539535341346e+00	 2.943402663440708e+00
 3.929734666675194e-01	 1.278467091669621e+00	 2.614585477013077e+00
 3.680241123366553e-01	 1.285871106575899e+00	 2.317727031881913e+00
 3.430614976304829e-01	 1.292754833227551e+00	 2.053143163143450e+00
 3.181007207415024e-01	 1.299122081043860e+00	 1.821047913944179e+00
 2.931565670393215e-01	 1.304977194128878e+00	 1.621555009340217e+00
 2.682434881382119e-01	 1.310325028788381e+00	 1.454679824715503e+00
 2.433755826071108e-01	 1.315170930256486e+00	 1.320341817575972e+00
 4.969278578851778e-01	 1.255214206440755e+00	 3.870929007998386e+00
 4.719567475161696e-01	 1.264814938424380e+00	 3.478468293781920e+00
 4.469086169316517e-01	 1.273880955229289e+00	 3.115458974645478e+00
 4.217997251667246e-01	 1.282413736603985e+00	 2.782470132204921e+00
 3.966461158891635e-01	 1.290415382243419e+00	 2.479971982846075e+00
 3.714635900222824e-01	 1.297888593550488e+00	 2.208335744421045e+00
 3.462676798514263e-01	 1.304836654095997e+00	 1.967834052195448e+00
 3.210736246736973e-01	 1.311263408901275e+00	 1.758641904379657e+00
 2.958963480397257e-01	 1.317173242669475e+00	 1.580838113613982e+00
 2.707504366255986e-01	 1.322571057092408e+00	 1.434407237242925e+00
 2.456501207625777e-01	 1.327462247359646e+00	 1.319241956125933e+00
 5.015290417575390e-01	 1.266836560203556e+00	 3.627783256473528e+00
 4.763267174031054e-01	 1.276526187853017e+00	 3.264055997154007e+00
 4.510466596830741e-01	 1.285676149257414e+00	 2.928856438197037e+00
 4.257052781791671e-01	 1.294287937866625e+00	 2.622699000568903e+00
 4.003187651116374e-01	 1.302363672817217e+00	 2.346003284713428e+00
 3.749030677086451e-01	 1.309906080525078e+00	 2.099093965505686e+00
 3.494738620729909e-01	 1.316918474964443e+00	 1.882201218703957e+00
 3.240465286063789e-01	 1.323404736758689e+00	 1.695461659960937e+00
 2.986361290404637e-01	 1.329369291210072e+00	 1.538919773567321e+00
 2.732573851131466e-01	 1.334817085396434e+00	 1.412529804626893e+00
 2.479246589180153e-01	 1.339753564462806e+00	 1.316158085326401e+00
 5.061302256309000e-01	 1.278458913966357e+00	 3.387407044435306e+00
 4.806966872910303e-01	 1.288237437281654e+00	 3.051851590623126e+00
 4.551847024354536e-01	 1.297471343285539e+00	 2.743918295961461e+00
 4.296108311925131e-01	 1.306162139129264e+00	 2.464067873455511e+00
 4.039914143349413e-01	 1.314311963391015e+00	 2.212670187499333e+00
 3.783425453957433e-01	 1.321923567499668e+00	 1.990004175408673e+00
 3.526800442951766e-01	 1.329000295832889e+00	 1.796258283137906e+00
 3.270194325395477e-01	 1.335546064616104e+00	 1.631531396965838e+00
 3.013759100415353e-01	 1.341565339750669e+00	 1.495834249112963e+00
 2.757643336008559e-01	 1.347063113700460e+00	 1.389091271841646e+00
 2.501991970734234e-01	 1.352044881565965e+00	 1.311142871601226e+00
 2.274538155180211e-01	 1.229131710534368e+00	 3.510604532423260e-01
 2.042678302137041e-01	 1.233196924082991e+00	 2.510945321713005e-01
 1.811493612805352e-01	 1.236804313110804e+00	 1.688611629179717e-01
 1.581105024744471e-01	 1.239960107835634e+00	 1.040364696496747e-01
 1.351629610294562e-01	 1.242670903327850e+00	 5.626368828504025e-02
 1.123180473713980e-01	 1.244943635769421e+00	 2.515640414111742e-02
 8.958666633593650e-02	 1.246785558634639e+00	 1.030169868489206e-02
 6.697930985936418e-02	 1.248204218889501e+00	 1.126319298217937e-02
 4.450605110464890e-02	 1.249207433301722e+00	 2.758397738750484e-02
 2.217653997970472e-02	 1.249803264948056e+00	 5.878941888949596e-02
 0.000000000000000e+00	 1.250000000000000e+00	 1.043898393037646e-01
 2.297283536736934e-01	 1.241423027637528e+00	 9.052427121571878e-01
 2.063105085178029e-01	 1.245528893322062e+00	 8.296826379751059e-01
 1.829608548964180e-01	 1.249172356240531e+00	 7.684424589384506e-01
 1.596916075030363e-01	 1.252359708912939e+00	 6.158438935251069e-01
 1.365145906440207e-01	 1.255097612360361e+00	 4.589680560276417e-01
 1.134412278494712e-01	 1.257393072126586e+00	 3.343127408545006e-01
 9.048253300341476e-02	 1.259253414220649e+00	 2.415264049308612e-01
 6.764910296151375e-02	 1.260686261078208e+00	 1.801817281802212e-01
 4.495111161837246e-02	 1.261699507634656e+00	 1.497799156169533e-01
 2.239830538099112e-02	 1.262301297597516e+00	 1.497551603044458e-01
 0.000000000000000e+00	 1.262500000000000e+00	 1.794792309371842e-01
 2.320028918293363e-01	 1.253714344740687e+00	 1.294106374263141e+00
 2.083531868216939e-01	 1.257860862561134e+00	 1.058361734639457e+00
 1.847723485119567e-01	 1.261540399370259e+00	 8.523914421021310e-01
 1.612727125311870e-01	 1.264759309990245e+00	 6.761083834385060e-01
 1.378662202580929e-01	 1.267524321392872e+00	 5.293465210521047e-01
 1.145644083270384e-01	 1.269842508483751e+00	 4.118640597680103e-01
 9.137839967041286e-02	 1.271721269806659e+00	 3.233468721410977e-01
 6.831889606324743e-02	 1.273168303266915e+00	 2.634121477059814e-01
 4.539617213178213e-02	 1.274191581967590e+00	 2.316122316698397e-01
 2.262007078210258e-02	 1.274799330246976e+00	 2.274386189617774e-01
 0.000000000000000e+00	 1.275000000000000e+00	 2.503260702640919e-01
 2.342774299849499e-01	 1.266005661843847e+00	 1.303782835969765e+00
 2.103958651253771e-01	 1.270192831800205e+00	 1.086685717045670e+00
 1.865838421271515e-01	 1.273908442499986e+00	 8.964154184048769e-01
 1.628538175588991e-01	 1.277158911067550e+00	 7.328979378166243e-01
 1.392178498716727e-01	 1.279951030425384e+00	 5.959886374368408e-01
 1.156875888040997e-01	 1.282291944840916e+00	 4.854749885005940e-01
 9.227426633693080e-02	 1.284189125392670e+00	 4.010795598654036e-01
 6.898868916456520e-02	 1.285650345455622e+00	 3.424632190635757e-01
 4.584123264487796e-02	 1.286683656300524e+00	 3.092285144726339e-01
 2.284183618303908e-02	 1.287297362896436e+00	 3.009232074893156e-01
 0.000000000000000e+00	 1.287500000000000e+00	 3.170439241549121e-01
 2.365519681405341e-01	 1.278296978947007e+00	 1.311183089998507e+00
 2.124385434288524e-01	 1.282524801039276e+00	 1.112308232116876e+00
 1.883953357420022e-01	 1.286276485629713e+00	 9.373698667859278e-01
 1.644349225861726e-01	 1.289558512144856e+00	 7.863067733651690e-01
 1.405694794847602e-01	 1.292377739457896e+00	 6.589952559583085e-01
 1.168107692806550e-01	 1.294741381198081e+00	 5.552514719252950e-01
 9.317013300296850e-02	 1.296656980978679e+00	 4.748339898985754e-01
 6.965848226546710e-02	 1.298132387644329e+00	 4.174465491332402e-01
 4.628629315765993e-02	 1.299175730633459e+00	 3.827409918575091e-01
 2.306360158380064e-02	 1.299795395545896e+00	 3.703203404292168e-01
 0.000000000000000e+00	 1.300000000000000e+00	 3.797419915234219e-01
 2.388265062960890e-01	 1.290588296050166e+00	 1.316369737127320e+00
 2.144812217321199e-01	 1.294856770278347e+00	 1.135302784199989e+00
 1.902068293565090e-01	 1.298644528759439e+00	 9.753376660173023e-01
 1.660160276130074e-01	 1.301958113222162e+00	 8.364256278191065e-01
 1.419211090973555e-01	 1.304804448490407e+00	 7.184634744518317e-01
 1.179339497567045e-01	 1.307190817555246e+00	 6.212954884730484e-01
 9.406599966852608e-02	 1.309124836564689e+00	 5.447155637186780e-01
 7.032827536595314e-02	 1.310614429833036e+00	 4.884695292822232e-01
 4.673135367012803e-02	 1.311667804966393e+00	 4.522576385777195e-01
 2.328536698438725e-02	 1.312293428195356e+00	 4.357371981701528e-01
 0.000000000000000e+00	 1.312500000000000e+00	 4.385253113244245e-01
 2.411010444516146e-01	 1.302879613153326e+00	 1.319403198519716e+00
 2.165239000351797e-01	 1.307188739517419e+00	 1.155740260399797e+00
 1.920183229706717e-01	 1.311012571889167e+00	 1.010398699365620e+00
 1.675971326394038e-01	 1.314357714299468e+00	 8.833419240451810e-01
 1.432727387094584e-01	 1.317231157522919e+00	 7.744868148363582e-01
 1.190571302322480e-01	 1.319640253912411e+00	 6.837052372283356e-01
 9.496186633360344e-02	 1.321592692150699e+00	 6.108257568419091e-01
 7.099806846602327e-02	 1.323096472021744e+00	 5.556355342092041e-01
 4.717641418228224e-02	 1.324159879299327e+00	 5.178823769234815e-01
 2.350713238479890e-02	 1.324791460844816e+00	 4.972769266709547e-01
 0.000000000000000e+00	 1.325000000000000e+00	 4.934949587784125e-01
 2.433755826071108e-01	 1.315170930256486e+00	 1.320341817575972e+00
 2.185665783380317e-01	 1.319520708756490e+00	 1.173689052879732e+00
 1.938298165844906e-01	 1.323380615018894e+00	 1.042629994569552e+00
 1.691782376653614e-01	 1.326757315376773e+00	 9.271399249423713e-01
 1.446243683210689e-01	 1.329657866555430e+00	 8.271553902136404e-01
 1.201803107072856e-01	 1.332089690269576e+00	 7.425753145347886e-01
 9.585773299820063e-02	 1.334060547736709e+00	 6.732623022785593e-01
 7.166786156567753e-02	 1.335578514210451e+00	 6.190441096395394e-01
 4.762147469412262e-02	 1.336651953632262e+00	 5.797152660901044e-01
 2.372889778503561e-02	 1.337289493494276e+00	 5.550388259855961e-01
 0.000000000000000e+00	 1.337500000000000e+00	 5.447482305928173e-01
 2.456501207625777e-01	 1.327462247359646e+00	 1.319241956125933e+00
 2.206092566406758e-01	 1.331852677995562e+00	 1.189215174368535e+00
 1.956413101979653e-01	 1.335748658148621e+00	 1.072105856039897e+00
 1.707593426908806e-01	 1.339156916454079e+00	 9.679008797363258e-01
 1.459759979321872e-01	 1.342084575587941e+00	 8.765560626838884e-01
 1.213034911818173e-01	 1.344539126626741e+00	 7.979968807884354e-01
 9.675359966231767e-02	 1.346528403322719e+00	 7.321193637973382e-01
 7.233765466491589e-02	 1.348060556399157e+00	 6.787911495926020e-01
 4.806653520564912e-02	 1.349144027965196e+00	 6.378526810247060e-01
 2.395066318509738e-02	 1.349787526143736e+00	 6.091185283144140e-01
 0.000000000000000e+00	 1.350000000000000e+00	 5.923788198931697e-01
 2.479246589180153e-01	 1.339753564462806e+00	 1.316158085326401e+00
 2.226519349431121e-01	 1.344184647234633e+00	 1.202382367308680e+00
 1.974528038110961e-01	 1.348116701278348e+00	 1.098897989782627e+00
 1.723404477159611e-01	 1.351556517531384e+00	 1.005703162221762e+00
 1.473276275428132e-01	 1.354511284620453e+00	 9.227725924741488e-01
 1.224266716558430e-01	 1.356988562983906e+00	 8.500578180502800e-01
 9.764946632595450e-02	 1.358996258908729e+00	 7.874876996518227e-01
 7.300744776373835e-02	 1.360542598587865e+00	 7.349690638907078e-01
 4.851159571686176e-02	 1.361636102298130e+00	 6.923874814284294e-01
 2.417242858498419e-02	 1.362285558793196e+00	 6.596081662539752e-01
 0.000000000000000e+00	 1.362500000000000e+00	 6.364769815248967e-01
 2.501991970734234e-01	 1.352044881565965e+00	 1.311142871601226e+00
 2.246946132453406e-01	 1.356516616473704e+00	 1.213252207050933e+00
 1.992642974238829e-01	 1.360484744408075e+00	 1.123075621508753e+00
 1.739215527406030e-01	 1.363956118608690e+00	 1.040622401463507e+00
 1.486792571529468e-01	 1.366937993652964e+00	 9.658857789325552e-01
 1.235498521293628e-01	 1.369437999341071e+00	 8.988428790612024e-01
 9.854533298911115e-02	 1.371464114494739e+00	 8.394548173768324e-01
 7.367724086214492e-02	 1.373024640776572e+00	 7.876669365323348e-01
 4.895665622776053e-02	 1.374128176631064e+00	 7.434091715404547e-01
 2.439419398469604e-02	 1.374783591442656e+00	 7.065965318708511e-01
 0.000000000000000e+00	 1.375000000000000e+00	 6.771296883389899e-01
 1.375000000000000e+00	 0.000000000000000e+00	 1.431475089442935e+01
 1.374783591442656e+00	 2.439419398469526e-02	 1.442022786093569e+01
 1.374128176631064e+00	 4.895665622775984e-02	 1.449592635911429e+01
 1.373024640776572e+00	 7.367724086214431e-02	 1.454221638372650e+01
 1.371464114494739e+00	 9.854533298911061e-02	 1.455953418286636e+01
 1.369437999341071e+00	 1.235498521293624e-01	 1.454838420626471e+01
 1.366937993652964e+00	 1.486792571529464e-01	 1.450934092372551e+01
 1.363956118608690e+00	 1.739215527406027e-01	 1.444305049192423e+01
 1.360484744408075e+00	 1.992642974238827e-01	 1.435023224663675e+01
 1.356516616473704e+00	 2.246946132453406e-01	 1.423167999642432e+01
 1.352044881565965e+00	 2.501991970734234e-01	 1.408826309290384e+01
 1.387500000000000e+00	 0.000000000000000e+00	 1.417220283145201e+01
 1.387281624092118e+00	 2.461595938431963e-02	 1.427655415045902e+01
 1.386620250964008e+00	 4.940171673850166e-02	 1.435134414006611e+01
 1.385506682965300e+00	 7.434703396034295e-02	 1.439696892825515e+01
 1.383931970080787e+00	 9.944119965202716e-02	 1.441389156774906e+01
 1.381887435698295e+00	 1.246730326026292e-01	 1.440264397033993e+01
 1.379364702685561e+00	 1.500308867628339e-01	 1.436382870967438e+01
 1.376355719686112e+00	 1.755026577650253e-01	 1.429812067053655e+01
 1.372852787537955e+00	 2.010757910364976e-01	 1.420626852148229e+01
 1.368848585712971e+00	 2.267372915474652e-01	 1.408909598660907e+01
 1.364336198669367e+00	 2.524737352288170e-01	 1.394750289132471e+01
 1.400000000000000e+00	 0.000000000000000e+00	 1.403797055986218e+01
 1.399779656741585e+00	 2.483772478394402e-02	 1.414127562506366e+01
 1.399112325296970e+00	 4.984677724924350e-02	 1.421523843886176e+01
 1.397988725154069e+00	 7.501682705854158e-02	 1.426028092994342e+01
 1.396399825666909e+00	 1.003370663149437e-01	 1.427689260585144e+01
 1.394336872055636e+00	 1.257962130758961e-01	 1.426563247466009e+01
 1.391791411718328e+00	 1.513825163727214e-01	 1.422713083361798e+01
 1.388755320763768e+00	 1.770837627894480e-01	 1.416209090260846e+01
 1.385220830668143e+00	 2.028872846491123e-01	 1.407129027906296e+01
 1.381180554952629e+00	 2.287799698495898e-01	 1.395558218986531e+01
 1.376627515773255e+00	 2.547482733842105e-01	 1.381589651483665e+01
 1.412500000000000e+00	 0.000000000000000e+00	 1.391176787343387e+01
 1.412277689391056e+00	 2.505949018356840e-02	 1.401410507844813e+01
 1.411604399629950e+00	 5.029183775998533e-02	 1.408732105773113e+01
 1.410470767342881e+00	 7.568662015674019e-02	 1.413186320760876e+01
 1.408867681253106e+00	 1.012329329778603e-01	 1.414824714002382e+01
 1.406786308413095e+00	 1.269193935491629e-01	 1.413705859289020e+01
 1.404218120751266e+00	 1.527341459826088e-01	 1.409895520611091e+01
 1.401154921841658e+00	 1.786648678138706e-01	 1.403466814091879e+01
 1.397588873798637e+00	 2.046987782617271e-01	 1.394500351895373e+01
 1.393512524192677e+00	 2.308226481517144e-01	 1.383084365636295e+01
 1.388918832877628e+00	 2.570228115396040e-01	 1.369314806723329e+01
 1.425000000000000e+00	 0.000000000000000e+00	 1.379331860826473e+01
 1.424775722040532e+00	 2.528125558319277e-02	 1.389476546229664e+01
 1.424096473962949e+00	 5.073689827072717e-02	 1.396731407297509e+01
 1.422952809531734e+00	 7.635641325493886e-02	 1.401143697048003e+01
 1.421335536839377e+00	 1.021287996407769e-01	 1.402767551994880e+01
 1.419235744770672e+00	 1.280425740224298e-01	 1.401664182184854e+01
 1.416644829784374e+00	 1.540857755924963e-01	 1.397902047689630e+01
 1.413554522919780e+00	 1.802459728382932e-01	 1.391557019299318e+01
 1.409956916929438e+00	 2.065102718743419e-01	 1.382712521036190e+01
 1.405844493433116e+00	 2.328653264538391e-01	 1.371459651991714e+01
 1.401210149982486e+00	 2.592973496949976e-01	 1.357897284888940e+01
 1.437500000000000e+00	 0.000000000000000e+00	 1.368235620615343e+01
 1.437273754690013e+00	 2.550302098281715e-02	 1.378298944462750e+01
 1.436588548295966e+00	 5.118195878146901e-02	 1.385494938826690e+01
 1.435434851720629e+00	 7.702620635313746e-02	 1.389873336644047e+01
 1.433803392425724e+00	 1.030246663036934e-01	 1.391490814532248e+01
 1.431685181128366e+00	 1.291657544956966e-01	 1.390411181963049e+01
 1.429071538817652e+00	 1.554374052023837e-01	 1.386705556798453e+01
 1.425954123998137e+00	 1.818270778627159e-01	 1.380452524915858e+01
 1.422324960060546e+00	 2.083217654869567e-01	 1.371738281518667e+01
 1.418176462673946e+00	 2.349080047559637e-01	 1.360656751609051e+01
 1.413501467087830e+00	 2.615718878503911e-01	 1.347309686995312e+01
 1.450000000000000e+00	 0.000000000000000e+00	 1.357862330056066e+01
 1.449771787339498e+00	 2.572478638244153e-02	 1.367851899098569e+01
 1.449080622629002e+00	 5.162701929221086e-02	 1.374996831105840e+01
 1.447916893909566e+00	 7.769599945133610e-02	 1.379349305363755e+01
 1.446271248012145e+00	 1.039205329666100e-01	 1.380968503266424e+01
 1.444134617486178e+00	 1.302889349689635e-01	 1.379920796762242e+01
 1.441498247851101e+00	 1.567890348122712e-01	 1.376279923088307e+01
 1.438353725076727e+00	 1.834081828871385e-01	 1.370127143500865e+01
 1.434693003191961e+00	 2.101332590995715e-01	 1.361551383574792e+01
 1.430508431915167e+00	 2.369506830580883e-01	 1.350649352522144e+01
 1.425792784193659e+00	 2.638464260057847e-01	 1.337525638871760e+01
 1.462500000000000e+00	 0.000000000000000e+00	 1.348187132380321e+01
 1.462269819988988e+00	 2.594655178206591e-02	 1.358110496711260e+01
 1.461572696962056e+00	 5.207207980295267e-02	 1.365212115070925e+01
 1.460398936098544e+00	 7.836579254953473e-02	 1.369546579406119e+01
 1.458739103598641e+00	 1.048163996295265e-01	 1.371175540434137e+01
 1.456584053844107e+00	 1.314121154422303e-01	 1.370167895497637e+01
 1.453924956884720e+00	 1.581406644221587e-01	 1.366599962653255e+01
 1.450753326155549e+00	 1.849892879115611e-01	 1.360555638681979e+01
 1.447061046323683e+00	 2.119447527121864e-01	 1.352126538570839e+01
 1.442840401156778e+00	 2.389933613602129e-01	 1.341412113888652e+01
 1.438084101299973e+00	 2.661209641611783e-01	 1.328519747366629e+01
 1.475000000000000e+00	 0.000000000000000e+00	 1.339186013422098e+01
 1.474767852638482e+00	 2.616831718169029e-02	 1.349050676181908e+01
 1.474064771295128e+00	 5.251714031369450e-02	 1.356116683705017e+01
 1.472880978287565e+00	 7.903558564773337e-02	 1.360441006778795e+01
 1.471206959185211e+00	 1.057122662924431e-01	 1.362087729849078e+01
 1.469033490202154e+00	 1.325352959154971e-01	 1.361128238421332e+01
 1.466351665918510e+00	 1.594922940320462e-01	 1.357641392660193e+01
 1.463152927234607e+00	 1.865703929359837e-01	 1.351713684855604e+01
 1.459429089455712e+00	 2.137562463248012e-01	 1.343439378281338e+01
 1.455172370398780e+00	 2.410360396623376e-01	 1.332920624840744e+01
 1.450375418406773e+00	 2.683955023165718e-01	 1.320267558778668e+01
 1.487500000000000e+00	 0.000000000000000e+00	 1.330835766214246e+01
 1.487265885287981e+00	 2.639008258131467e-02	 1.340649192887331e+01
 1.486556845628220e+00	 5.296220082443635e-02	 1.347687255817817e+01
 1.485363020476627e+00	 7.970537874593198e-02	 1.352009270667473e+01
 1.483674814771857e+00	 1.066081329553596e-01	 1.353681719860851e+01
 1.481482926560319e+00	 1.336584763887640e-01	 1.352778439671179e+01
 1.478778374952471e+00	 1.608439236419336e-01	 1.349380793488646e+01
 1.475552528313897e+00	 1.881514979604064e-01	 1.343577828919321e+01
 1.471797132588047e+00	 2.155677399374159e-01	 1.335466416216459e+01
 1.467504339641173e+00	 2.430787179644622e-01	 1.325151365410544e+01
 1.462666735514058e+00	 2.706700404719652e-01	 1.312745519384350e+01
 1.500000000000000e+00	 0.000000000000000e+00	 1.323113957355184e+01
 1.499763917937484e+00	 2.661184798093904e-02	 1.332883584679418e+01
 1.499048919961329e+00	 5.340726133517817e-02	 1.339901341636222e+01
 1.497845062665731e+00	 8.037517184413061e-02	 1.344228854636799e+01
 1.496142670358577e+00	 1.075039996182762e-01	 1.345934968165972e+01
 1.493932362918601e+00	 1.347816568620308e-01	 1.345095931692220e+01
 1.491205083986601e+00	 1.621955532518211e-01	 1.341795572763577e+01
 1.487952129393420e+00	 1.897326029848289e-01	 1.336125453917660e+01
 1.484165175720690e+00	 2.173792335500308e-01	 1.328185010883028e+01
 1.479836308883957e+00	 2.451213962665869e-01	 1.318081669409295e+01
 1.474958052621828e+00	 2.729445786273588e-01	 1.305930937938771e+01
 1.352044881565965e+00	 2.501991970734234e-01	 1.408826309290384e+01
 1.347063113700461e+00	 2.757643336008552e-01	 1.410939407914011e+01
 1.341565339750669e+00	 3.013759100415347e-01	 1.410526314815645e+01
 1.335546064616104e+00	 3.270194325395472e-01	 1.407708966019670e+01
 1.329000295832889e+00	 3.526800442951761e-01	 1.402618392702897e+01
 1.321923567499668e+00	 3.783425453957430e-01	 1.395394655955250e+01
 1.314311963391016e+00	 4.039914143349411e-01	 1.386186735201615e+01
 1.306162139129264e+00	 4.296108311925129e-01	 1.375152367692195e+01
 1.297471343285539e+00	 4.551847024354536e-01	 1.362457836676653e+01
 1.288237437281654e+00	 4.806966872910303e-01	 1.348277706130914e+01
 1.278458913966357e+00	 5.061302256309002e-01	 1.332794500205721e+01
 1.364336198669367e+00	 2.524737352288170e-01	 1.394750289132471e+01
 1.359309142004773e+00	 2.782712820886430e-01	 1.397281753276639e+01
 1.353761388291581e+00	 3.041156910427638e-01	 1.397354439107887e+01
 1.347687392473848e+00	 3.299923364729382e-01	 1.395084522295555e+01
 1.341082116701665e+00	 3.558862265176344e-01	 1.390596981358599e+01
 1.333941054474572e+00	 3.817820230831492e-01	 1.384025552923291e+01
 1.326260253965098e+00	 4.076640635585734e-01	 1.375512642772474e+01
 1.318036340392143e+00	 4.335163842061925e-01	 1.365209190001106e+01
 1.309266537313843e+00	 4.593227451881562e-01	 1.353274481778315e+01
 1.299948686710394e+00	 4.850666571792523e-01	 1.339875916447850e+01
 1.290081267729169e+00	 5.107314095045163e-01	 1.325188712977513e+01
 1.376627515773255e+00	 2.547482733842105e-01	 1.381589651483665e+01
 1.371555170309656e+00	 2.807782305764259e-01	 1.384472613058694e+01
 1.365957436833121e+00	 3.068554720439740e-01	 1.384963251397454e+01
 1.359828720332250e+00	 3.329652404062867e-01	 1.383172054922247e+01
 1.353163937571098e+00	 3.590924087400163e-01	 1.379218027516524e+01
 1.345958541450105e+00	 3.852215007704358e-01	 1.373228664312061e+01
 1.338208544539750e+00	 4.113367127820325e-01	 1.365339885376753e+01
 1.329910541655500e+00	 4.374219372196355e-01	 1.355695924523178e+01
 1.321061731342504e+00	 4.634607879405481e-01	 1.344449170621449e+01
 1.311659936139337e+00	 4.894366270670794e-01	 1.331759959009420e+01
 1.301703621492001e+00	 5.153325933776431e-01	 1.317796310850902e+01
 1.388918832877628e+00	 2.570228115396040e-01	 1.369314806723329e+01
 1.383801198615110e+00	 2.832851790642043e-01	 1.372484296373661e+01
 1.378153485375291e+00	 3.095952530451653e-01	 1.373326979906753e+01
 1.371970048191311e+00	 3.359381443395925e-01	 1.371947728470570e+01
 1.365245758441190e+00	 3.622985909623221e-01	 1.368459646085650e+01
 1.357976028426266e+00	 3.886609784576026e-01	 1.362984066002649e+01
 1.350156835114969e+00	 4.150093620053185e-01	 1.355650507048926e+01
 1.341784742919335e+00	 4.413274902328413e-01	 1.346596587087953e+01
 1.332856925371522e+00	 4.675988306926294e-01	 1.335967890856438e+01
 1.323371185568486e+00	 4.938065969545113e-01	 1.323917789631830e+01
 1.313325975254853e+00	 5.199337772502799e-01	 1.310607210419143e+01
 1.401210149982486e+00	 2.592973496949976e-01	 1.357897284888940e+01
 1.396047226921136e+00	 2.857921275519781e-01	 1.361290173223446e+01
 1.390349533918090e+00	 3.123350340463378e-01	 1.362420854118076e+01
 1.384111376051029e+00	 3.389110482728556e-01	 1.361388648370269e+01
 1.377327579311940e+00	 3.655047731845517e-01	 1.358300831751013e+01
 1.369993515403056e+00	 3.921004561446497e-01	 1.353272651981865e+01
 1.362105125690758e+00	 4.186820112284312e-01	 1.346427307769548e+01
 1.353658944183649e+00	 4.452330432458106e-01	 1.337895886923728e+01
 1.344652119400897e+00	 4.717368734443999e-01	 1.327817260702352e+01
 1.335082434997839e+00	 4.981765668415484e-01	 1.316337931695035e+01
 1.324948329017727e+00	 5.245349611224271e-01	 1.303611832770081e+01
 1.413501467087830e+00	 2.615718878503911e-01	 1.347309686995312e+01
 1.408293255227734e+00	 2.882990760397471e-01	 1.350864628372802e+01
 1.402545582461518e+00	 3.150748150474914e-01	 1.352221061240561e+01
 1.396252703911406e+00	 3.418839522060762e-01	 1.351472820003094e+01
 1.389409400183348e+00	 3.687109554067051e-01	 1.348721420722573e+01
 1.382011002380474e+00	 3.955399338315773e-01	 1.344076098772428e+01
 1.374053416267115e+00	 4.223546604513709e-01	 1.337653810598021e+01
 1.365533145448441e+00	 4.491385962585428e-01	 1.329579196509779e+01
 1.356447313430629e+00	 4.758749161958595e-01	 1.319984501530905e+01
 1.346793684427397e+00	 5.025465367281904e-01	 1.309009451466062e+01
 1.336570682780620e+00	 5.291361449940847e-01	 1.296801081551603e+01
 1.425792784193659e+00	 2.638464260057847e-01	 1.337525638871760e+01
 1.420539283534902e+00	 2.908060245275114e-01	 1.341183017609545e+01
 1.414741631005576e+00	 3.178145960486264e-01	 1.342704704928860e+01
 1.408394031772441e+00	 3.448568561392540e-01	 1.342179109911776e+01
 1.401491221055414e+00	 3.719171376287824e-01	 1.339702054462583e+01
 1.394028489358520e+00	 3.989794115183852e-01	 1.335376831702967e+01
 1.386001706844041e+00	 4.260273096741372e-01	 1.329314230505396e+01
 1.377407346713711e+00	 4.530441492710384e-01	 1.321632522987952e+01
 1.368242507460718e+00	 4.800129589470085e-01	 1.312457411868500e+01
 1.358504933857160e+00	 5.069165066144373e-01	 1.301921934698707e+01
 1.348193036543535e+00	 5.337373288652523e-01	 1.290166322171630e+01
 1.438084101299973e+00	 2.661209641611783e-01	 1.328519747366629e+01
 1.432785311842642e+00	 2.933129730152711e-01	 1.332221626247841e+01
 1.426937679550262e+00	 3.205543770497423e-01	 1.333849766118801e+01
 1.420535359634135e+00	 3.478297600723892e-01	 1.333487208998272e+01
 1.413573041928139e+00	 3.751233198507835e-01	 1.331224145273105e+01
 1.406045976337195e+00	 4.024188892050735e-01	 1.327157992907768e+01
 1.397949997421535e+00	 4.296999588967306e-01	 1.321393444805513e+01
 1.389281547979460e+00	 4.569497022832971e-01	 1.314042481040341e+01
 1.380037701491165e+00	 4.841510016978469e-01	 1.305224342731504e+01
 1.370216183287127e+00	 5.112864765002894e-01	 1.295065464433240e+01
 1.359815390306469e+00	 5.383385127359304e-01	 1.283699362064790e+01
 1.450375418406773e+00	 2.683955023165718e-01	 1.320267558778668e+01
 1.445031340150954e+00	 2.958199215030261e-01	 1.323957629741497e+01
 1.439133728095578e+00	 3.232941580508395e-01	 1.325635065854460e+01
 1.432676687496486e+00	 3.508026640054819e-01	 1.325377597593280e+01
 1.425654862801522e+00	 3.783295020727082e-01	 1.323269843633299e+01
 1.418063463316499e+00	 4.058583668916420e-01	 1.319403410953659e+01
 1.409898287999598e+00	 4.333726081191508e-01	 1.313876965089620e+01
 1.401155749245687e+00	 4.608552552953189e-01	 1.306796267146047e+01
 1.391832895521968e+00	 4.882890444483744e-01	 1.298274174215648e+01
 1.381927432717298e+00	 5.156564463857464e-01	 1.288430599924942e+01
 1.371437744069425e+00	 5.429396966061187e-01	 1.277392431962464e+01
 1.462666735514058e+00	 2.706700404719652e-01	 1.312745519384350e+01
 1.457277368459836e+00	 2.983268699907763e-01	 1.316369056283141e+01
 1.451329776641522e+00	 3.260339390519178e-01	 1.318040229989490e+01
 1.444818015359496e+00	 3.537755679385318e-01	 1.317831512286982e+01
 1.437736683675562e+00	 3.815356842945568e-01	 1.315822007183583e+01
 1.430080950296430e+00	 4.092978445780909e-01	 1.312097571998292e+01
 1.421846578578230e+00	 4.370452573413978e-01	 1.306750910576059e+01
 1.413029950512391e+00	 4.647608083071040e-01	 1.299881635135932e+01
 1.403628089553128e+00	 4.924270871985911e-01	 1.291596293265804e+01
 1.393638682147674e+00	 5.200264162708083e-01	 1.282008356635075e+01
 1.383060097832401e+00	 5.475408804758173e-01	 1.271238168107216e+01
 1.474958052621828e+00	 2.729445786273588e-01	 1.305930937938771e+01
 1.469523396769290e+00	 3.008338184785218e-01	 1.309434751273429e+01
 1.463525825188096e+00	 3.287737200529772e-01	 1.311045655653393e+01
 1.456959343223164e+00	 3.567484718715391e-01	 1.310830914418211e+01
 1.449818504550261e+00	 3.847418665163292e-01	 1.308864171260578e+01
 1.442098437276991e+00	 4.127373222644202e-01	 1.305225592390542e+01
 1.433794869157430e+00	 4.407179065634715e-01	 1.300001982792481e+01
 1.424904151779575e+00	 4.686663613186522e-01	 1.293286872969623e+01
 1.415423283584646e+00	 4.965651299484973e-01	 1.285180572557277e+01
 1.405349931578255e+00	 5.243963861554752e-01	 1.275790187222306e+01
 1.394682451595397e+00	 5.521420643450261e-01	 1.265229595356490e+01
 1.278458913966357e+00	 5.061302256309002e-01	 1.332794500205721e+01
 1.268134914741677e+00	 5.314685672938273e-01	 1.318882601381475e+01
 1.257265245121364e+00	 5.566948027665093e-01	 1.303615013849810e+01
 1.245850388605507e+00	 5.817918951274083e-01	 1.288535635647926e+01
 1.233891518761329e+00	 6.067427131481519e-01	 1.274830692027001e+01
 1.221390509410137e+00	 6.315300654405880e-01	 1.260163978363673e+01
 1.208349942826211e+00	 6.561367355249965e-01	 1.244690307454601e+01
 1.194773115862958e+00	 6.805455176867415e-01	 1.228565432070559e+01
 1.180664043931685e+00	 7.047392534804008e-01	 1.211945256738977e+01
 1.166027462769146e+00	 7.287008687329783e-01	 1.194985044904931e+01
 1.150868827941644e+00	 7.524134108913275e-01	 1.177838627876312e+01
 1.290081267729169e+00	 5.107314095045163e-01	 1.325188712977513e+01
 1.279663413966696e+00	 5.363000997284292e-01	 1.311938159555774e+01
 1.268694929168601e+00	 5.617556646147478e-01	 1.297386791318690e+01
 1.257176301230428e+00	 5.870809123608272e-01	 1.281707866463795e+01
 1.245108714388191e+00	 6.122585559998535e-01	 1.266617044205819e+01
 1.232494059497939e+00	 6.372712478583265e-01	 1.252970170469860e+01
 1.219334942309169e+00	 6.621016149430717e-01	 1.238582387083073e+01
 1.205634689646682e+00	 6.867322951238657e-01	 1.223609478225150e+01
 1.191397353425526e+00	 7.111459739694163e-01	 1.208207113151645e+01
 1.176627712434604e+00	 7.353254220869723e-01	 1.192530044596950e+01
 1.161331271836279e+00	 7.592535328092679e-01	 1.176731310510510e+01
 1.301703621492001e+00	 5.153325933776431e-01	 1.317796310850902e+01
 1.291191913191545e+00	 5.411316321624557e-01	 1.305188261973082e+01
 1.280124613215495e+00	 5.668165264623538e-01	 1.291333518364253e+01
 1.268502213854855e+00	 5.923699295935861e-01	 1.276405470469612e+01
 1.256325910014428e+00	 6.177743988508976e-01	 1.260584583364158e+01
 1.243597609585001e+00	 6.430124302754390e-01	 1.245966586245433e+01
 1.230319941791294e+00	 6.680664943605835e-01	 1.232636842424423e+01
 1.216496263429501e+00	 6.929190725605179e-01	 1.218788412284425e+01
 1.202130662918409e+00	 7.175526944580828e-01	 1.204576796995903e+01
 1.187227962099074e+00	 7.419499754407718e-01	 1.190156303921009e+01
 1.171793715729913e+00	 7.660936547271976e-01	 1.175679240806641e+01
 1.313325975254853e+00	 5.199337772502799e-01	 1.310607210419143e+01
 1.302720412416223e+00	 5.459631645959069e-01	 1.298623348382694e+01
 1.291554297262048e+00	 5.718773883093278e-01	 1.285446162750427e+01
 1.279828126478787e+00	 5.976589468256857e-01	 1.271249190520589e+01
 1.267543105640037e+00	 6.232902417012837e-01	 1.256213000176556e+01
 1.254701159671323e+00	 6.487536126919254e-01	 1.240524736914510e+01
 1.241304941272585e+00	 6.740313737775310e-01	 1.226837796117139e+01
 1.227357837211414e+00	 6.991058499966986e-01	 1.214086711352688e+01
 1.212863972410334e+00	 7.239594149464007e-01	 1.201039159440443e+01
 1.197828211762553e+00	 7.485745287943757e-01	 1.187849067258170e+01
 1.182256159622547e+00	 7.729337766451166e-01	 1.174668074986151e+01
 1.324948329017727e+00	 5.245349611224271e-01	 1.303611832770081e+01
 1.314248911640731e+00	 5.507946970287825e-01	 1.292234350059245e+01
 1.302983981308260e+00	 5.769382501556699e-01	 1.279716170265516e+01
 1.291154039102225e+00	 6.029479640571251e-01	 1.266230990248855e+01
 1.278760301265018e+00	 6.288060845510121e-01	 1.251959499548725e+01
 1.265804709756905e+00	 6.544947951077862e-01	 1.237088928366299e+01
 1.252289940753044e+00	 6.799962531939144e-01	 1.221812534720939e+01
 1.238219410992422e+00	 7.052926274324078e-01	 1.209489255782313e+01
 1.223597281901301e+00	 7.303661354343699e-01	 1.197579438654810e+01
 1.208428461425044e+00	 7.551990821477844e-01	 1.185593949373355e+01
 1.192718603514182e+00	 7.797738985630251e-01	 1.173683822696282e+01
 1.336570682780620e+00	 5.291361449940847e-01	 1.296801081551603e+01
 1.325777410865070e+00	 5.556262294610830e-01	 1.286012668432041e+01
 1.314413665354130e+00	 5.819991120013793e-01	 1.274135443938524e+01
 1.302479951725169e+00	 6.082369812879048e-01	 1.261343277122418e+01
 1.289977496889373e+00	 6.343219274000825e-01	 1.247816995243957e+01
 1.276908259841745e+00	 6.602359775230207e-01	 1.233743934643236e+01
 1.263274940232669e+00	 6.859611326097342e-01	 1.219317430482008e+01
 1.249080984772522e+00	 7.114794048676448e-01	 1.204981311641201e+01
 1.234330591391309e+00	 7.367728559219902e-01	 1.194183242983290e+01
 1.219028711086545e+00	 7.618236355009983e-01	 1.183376919311697e+01
 1.203181047404816e+00	 7.866140204809229e-01	 1.172712831643722e+01
 1.348193036543535e+00	 5.337373288652523e-01	 1.290166322171630e+01
 1.337305910089237e+00	 5.604577618928078e-01	 1.279950154819771e+01
 1.325843349399657e+00	 5.870599738464568e-01	 1.268696324330519e+01
 1.313805864347619e+00	 6.135259985180249e-01	 1.256578883314308e+01
 1.301194692513100e+00	 6.398377702484953e-01	 1.243778812452256e+01
 1.288011809925847e+00	 6.659771599376293e-01	 1.230483574394357e+01
 1.274259939711461e+00	 6.919260120249896e-01	 1.216886606197473e+01
 1.259942558551717e+00	 7.176661823024106e-01	 1.203186750349007e+01
 1.245063900880360e+00	 7.431795764092617e-01	 1.190836534989100e+01
 1.229628960747055e+00	 7.684481888540168e-01	 1.181184285127853e+01
 1.213643491294451e+00	 7.934541423988104e-01	 1.171741773023101e+01
 1.359815390306469e+00	 5.383385127359304e-01	 1.283699362064790e+01
 1.348834409313236e+00	 5.652892943239575e-01	 1.274039091204469e+01
 1.337273033444844e+00	 5.921208356909020e-01	 1.263391570836666e+01
 1.325131776969575e+00	 6.188150157474851e-01	 1.251931047552793e+01
 1.312411888136201e+00	 6.453536130962503e-01	 1.239838670208011e+01
 1.299115360009208e+00	 6.717183423516120e-01	 1.227302046989259e+01
 1.285244939189419e+00	 6.978908914396811e-01	 1.214514740664430e+01
 1.270804132330007e+00	 7.238529597367049e-01	 1.201675701985316e+01
 1.255797210368453e+00	 7.495862968961844e-01	 1.188988641843951e+01
 1.240229210406577e+00	 7.750727422068403e-01	 1.179002679398404e+01
 1.224105935183085e+00	 8.002942643166867e-01	 1.170757627692694e+01
 1.371437744069425e+00	 5.429396966061187e-01	 1.277392431962464e+01
 1.360362908537064e+00	 5.701208267545316e-01	 1.268272171983062e+01
 1.348702717489688e+00	 5.971816975347151e-01	 1.258214343939035e+01
 1.336457689591036e+00	 6.241040329762855e-01	 1.247393397894456e+01
 1.323629083758674e+00	 6.508694559433473e-01	 1.235990664701680e+01
 1.310218910091828e+00	 6.774595247649685e-01	 1.224193916385885e+01
 1.296229938666545e+00	 7.038557708538085e-01	 1.212196864324637e+01
 1.281665706107390e+00	 7.300397371705269e-01	 1.200198595119256e+01
 1.266530519855588e+00	 7.559930173827586e-01	 1.188402944686858e+01
 1.250829460065109e+00	 7.816972955594688e-01	 1.177017811770147e+01
 1.234568379070720e+00	 8.071343862345530e-01	 1.169747673053103e+01
 1.383060097832401e+00	 5.475408804758173e-01	 1.271238168107216e+01
 1.371891407760723e+00	 5.749523591845306e-01	 1.262642486639015e+01
 1.360132401534192e+00	 6.022425593778959e-01	 1.253158188354196e+01
 1.347783602212004e+00	 6.293930502044260e-01	 1.242959935365869e+01
 1.334846279380521e+00	 6.563852987897866e-01	 1.232229253432881e+01
 1.321322460173709e+00	 6.832007071776993e-01	 1.221154095811689e+01
 1.307214938142837e+00	 7.098206502673718e-01	 1.209928344489531e+01
 1.292527279883867e+00	 7.362265146038777e-01	 1.198751248617465e+01
 1.277263829341764e+00	 7.623997378689840e-01	 1.187826800599171e+01
 1.261429709722652e+00	 7.883218489119022e-01	 1.177363050966062e+01
 1.245030822957354e+00	 8.139745081524086e-01	 1.168699470587481e+01
 1.394682451595397e+00	 5.521420643450261e-01	 1.265229595356490e+01
 1.383419906984210e+00	 5.797838916139538e-01	 1.257143503280390e+01
 1.371562085578352e+00	 6.073034212204445e-01	 1.248217017023458e+01
 1.359109514832477e+00	 6.346820674319068e-01	 1.238625018423172e+01
 1.346063475001740e+00	 6.619011416355681e-01	 1.228549240155854e+01
 1.332426010254849e+00	 6.889418895898038e-01	 1.218177833210731e+01
 1.318199937618296e+00	 7.157855296803712e-01	 1.207704871303979e+01
 1.303388853659439e+00	 7.424132920367565e-01	 1.197329791970709e+01
 1.287997138826982e+00	 7.688064583548604e-01	 1.187256774715472e+01
 1.272029959379205e+00	 7.949464022641402e-01	 1.177694057283465e+01
 1.255493266842989e+00	 8.208146300702533e-01	 1.168853191827618e+01
 1.150868827941644e+00	 7.524134108913275e-01	 1.177838627876312e+01
 1.135194312046280e+00	 7.758600865535584e-01	 1.154215088205486e+01
 1.119010799580969e+00	 7.990242990192602e-01	 1.130788099472015e+01
 1.102325879470541e+00	 8.218896856909992e-01	 1.107657471184432e+01
 1.085147835250138e+00	 8.444401551573477e-01	 1.084918296275208e+01
 1.067485632918797e+00	 8.666599237864125e-01	 1.062660466525015e+01
 1.049348906492078e+00	 8.885335516599897e-01	 1.040968229263731e+01
 1.030747941296336e+00	 9.100459776802332e-01	 1.019919789222901e+01
 1.011693655061181e+00	 9.311825536839639e-01	 9.995869589314331e+00
 9.921975768804164e-01	 9.519290774042841e-01	 9.800348605176350e+00
 9.722718241249999e-01	 9.722718241249999e-01	 9.613216812146410e+00
 1.161331271836279e+00	 7.592535328092679e-01	 1.176731310510510e+01
 1.145514260342112e+00	 7.829133600673248e-01	 1.154066794645966e+01
 1.129183625036312e+00	 8.062881562818414e-01	 1.131516016001039e+01
 1.112347023833931e+00	 8.293614101044999e-01	 1.109169299944092e+01
 1.095012815574977e+00	 8.521168838383165e-01	 1.087112455514477e+01
 1.077190047767566e+00	 8.745386503638365e-01	 1.065426330402790e+01
 1.058888442009220e+00	 8.966111293999636e-01	 1.044186406816133e+01
 1.040118377129261e+00	 9.183191229297812e-01	 1.023462441848005e+01
 1.020890870109385e+00	 9.396478496249905e-01	 1.003318155487858e+01
 1.001217554853339e+00	 9.605829781071776e-01	 9.838109688777260e+00
 9.811106588900002e-01	 9.811106588899999e-01	 9.649917948607598e+00
 1.171793715729913e+00	 7.660936547271976e-01	 1.175679240806641e+01
 1.155834208636955e+00	 7.899666335812606e-01	 1.153897218381154e+01
 1.139356450490695e+00	 8.135520135447331e-01	 1.132149219714630e+01
 1.122368168196411e+00	 8.368331345184133e-01	 1.110516247004848e+01
 1.104877795898975e+00	 8.597936125197603e-01	 1.089074977358414e+01
 1.086894462615585e+00	 8.824173769417563e-01	 1.067897356669441e+01
 1.068427977525723e+00	 9.046887071404149e-01	 1.047050234041319e+01
 1.049488812961676e+00	 9.265922681797479e-01	 1.026595040120719e+01
 1.030088085157229e+00	 9.481131455663370e-01	 1.006587512226300e+01
 1.010237532826072e+00	 9.692368788102509e-01	 9.870774686275471e+00
 9.899494936549997e-01	 9.899494936549997e-01	 9.681086337693710e+00
 1.182256159622547e+00	 7.729337766451166e-01	 1.174668074986151e+01
 1.166154156930807e+00	 7.970199070953664e-01	 1.153693803074910e+01
 1.149529275944117e+00	 8.208158708079358e-01	 1.132676894694972e+01
 1.132389312557980e+00	 8.443048589327393e-01	 1.111689186297807e+01
 1.114742776222132e+00	 8.674703412016775e-01	 1.090798371556149e+01
 1.096598877462853e+00	 8.902961035201722e-01	 1.070067633496358e+01
 1.077967513041584e+00	 9.127662848813437e-01	 1.049555316881564e+01
 1.058859248793580e+00	 9.348654134301332e-01	 1.029314643968729e+01
 1.039285300204712e+00	 9.565784415080028e-01	 1.009393476273718e+01
 1.019257510798614e+00	 9.778907795135040e-01	 9.898341244512785e+00
 9.987883284199998e-01	 9.987883284199998e-01	 9.706732078395545e+00
 1.192718603514182e+00	 7.797738985630251e-01	 1.173683822696282e+01
 1.176474105223669e+00	 8.040731806096418e-01	 1.153444280913872e+01
 1.159702101396579e+00	 8.280797280714499e-01	 1.133088450623693e+01
 1.142410456918639e+00	 8.517765833474782e-01	 1.112679156540830e+01
 1.124607756544448e+00	 8.751470698840697e-01	 1.092275254068087e+01
 1.106303292309371e+00	 8.981748300990842e-01	 1.071931299049691e+01
 1.087507048556805e+00	 9.208438626227500e-01	 1.051697257532759e+01
 1.068229684624973e+00	 9.431385586809372e-01	 1.031618258418206e+01
 1.048482515251834e+00	 9.650437374499877e-01	 1.011734391390795e+01
 1.028277488770966e+00	 9.865446802169371e-01	 9.920805519902986e+00
 1.007627163185000e+00	 1.007627163185000e+00	 9.726863351301390e+00
 1.203181047404816e+00	 7.866140204809229e-01	 1.172712831643722e+01
 1.186794053515542e+00	 8.111264541240873e-01	 1.153136660062996e+01
 1.169874926848081e+00	 8.353435853352749e-01	 1.133373512973207e+01
 1.152431601278387e+00	 8.592483077626292e-01	 1.113477354073881e+01
 1.134472736865924e+00	 8.828237985669359e-01	 1.093498342448027e+01
 1.116007707155137e+00	 9.060535566784921e-01	 1.073482539316671e+01
 1.097046584071386e+00	 9.289214403646335e-01	 1.053471654607296e+01
 1.077600120455857e+00	 9.514117039321597e-01	 1.033502835980783e+01
 1.057679730298597e+00	 9.735090333922922e-01	 1.013608502466127e+01
 1.037297466743129e+00	 9.951985809205499e-01	 9.938162243233206e+00
 1.016465997950000e+00	 1.016465997950000e+00	 9.741486502005841e+00
 1.213643491294451e+00	 7.934541423988104e-01	 1.171741773023101e+01
 1.197114001806424e+00	 8.181797276387025e-01	 1.152759212769927e+01
 1.180047752298623e+00	 8.426074425994110e-01	 1.133521913705369e+01
 1.162452745637224e+00	 8.667200321781930e-01	 1.114075126064976e+01
 1.144337717186559e+00	 8.905005272502764e-01	 1.094460451464133e+01
 1.125712122000154e+00	 9.139322832583960e-01	 1.074715586044343e+01
 1.106586119585325e+00	 9.369990181069947e-01	 1.054874103288522e+01
 1.086970556286230e+00	 9.596848491838008e-01	 1.034965278917149e+01
 1.066876945345000e+00	 9.819743293349166e-01	 1.015013959777947e+01
 1.046317444715101e+00	 1.003852481624343e+00	 9.950404781113287e+00
 1.025304832715000e+00	 1.025304832715000e+00	 9.750606120204274e+00
 1.224105935183085e+00	 8.002942643166867e-01	 1.170757627692694e+01
 1.207433950096316e+00	 8.252330011534879e-01	 1.152300464079428e+01
 1.190220577748204e+00	 8.498712998638577e-01	 1.133523682447158e+01
 1.172473889995152e+00	 8.741917565941695e-01	 1.114463964064550e+01
 1.154202697506354e+00	 8.981772559340911e-01	 1.095154488944481e+01
 1.135416536844419e+00	 9.218110098387959e-01	 1.075624714784022e+01
 1.116125655098625e+00	 9.450765958498334e-01	 1.055900195477284e+01
 1.096340992116092e+00	 9.679579944358603e-01	 1.036002441384512e+01
 1.076074160391042e+00	 9.904396252778599e-01	 1.015948823037305e+01
 1.055337422686883e+00	 1.012506382328315e+00	 9.957525194274083e+00
 1.034143667480000e+00	 1.034143667480000e+00	 9.754225114731391e+00
 1.234568379070720e+00	 8.071343862345530e-01	 1.169747673053103e+01
 1.217753898385218e+00	 8.322862746684426e-01	 1.151749181121631e+01
 1.200393403196825e+00	 8.571351571286158e-01	 1.133369038115020e+01
 1.182495034352168e+00	 8.816634810105580e-01	 1.114635497887531e+01
 1.164067677825308e+00	 9.058539846183804e-01	 1.095573451833829e+01
 1.145120951687934e+00	 9.296897364196918e-01	 1.076204243035191e+01
 1.125665190611283e+00	 9.531541735931494e-01	 1.056545519931032e+01
 1.105711427945443e+00	 9.762311396883390e-01	 1.036611131474879e+01
 1.085271375436723e+00	 9.989049212211228e-01	 1.016411065225660e+01
 1.064357400658475e+00	 1.021160283032468e+00	 9.959514292901066e+00
 1.042982502245000e+00	 1.042982502245000e+00	 9.752344784784061e+00
 1.245030822957354e+00	 8.139745081524086e-01	 1.168699470587481e+01
 1.228073846673131e+00	 8.393395481835675e-01	 1.151094362940379e+01
 1.210566228644485e+00	 8.643990143936846e-01	 1.133048380961545e+01
 1.192516178708275e+00	 8.891352054273600e-01	 1.114581489803939e+01
 1.173932658143422e+00	 9.135307133031441e-01	 1.095710422449235e+01
 1.154825366530698e+00	 9.375684630010837e-01	 1.076448528482960e+01
 1.135204726123301e+00	 9.612317513369427e-01	 1.056805662395865e+01
 1.115081863774285e+00	 9.845042849412358e-01	 1.036788113150568e+01
 1.094468590482045e+00	 1.007370217164705e+00	 1.016398576238977e+01
 1.073377378629877e+00	 1.029814183736800e+00	 9.956361689178534e+00
 1.051821337010000e+00	 1.051821337010000e+00	 9.744964887553198e+00
 1.255493266842989e+00	 8.208146300702533e-01	 1.168853191827618e+01
 1.238393794960052e+00	 8.463928216988620e-01	 1.150325230830161e+01
 1.220739054091186e+00	 8.716628716590645e-01	 1.132552285019781e+01
 1.202537323063470e+00	 8.966069298445739e-01	 1.114293829019899e+01
 1.183797638460694e+00	 9.212074419883817e-01	 1.095558564922868e+01
 1.164529781372711e+00	 9.454471895829715e-01	 1.076351967323674e+01
 1.144744261634678e+00	 9.693093290812137e-01	 1.056676205732033e+01
 1.124452299602615e+00	 9.927774301945512e-01	 1.036530108082955e+01
 1.103665805527006e+00	 1.015835513108607e+00	 1.015909166349633e+01
 1.082397356601088e+00	 1.038468084441313e+00	 9.948055847206177e+00
 1.060660171775000e+00	 1.060660171775000e+00	 9.732083702473968e+00
 9.722718241249999e-01	 9.722718241249999e-01	 9.613216812146410e+00
 9.519290774042841e-01	 9.921975768804165e-01	 9.350467493801343e+00
 9.311825536839636e-01	 1.011693655061181e+00	 9.073400996093623e+00
 9.100459776802337e-01	 1.030747941296336e+00	 8.781062477939727e+00
 8.885335516599900e-01	 1.049348906492078e+00	 8.472528331193738e+00
 8.666599237864129e-01	 1.067485632918797e+00	 8.146911546835401e+00
 8.444401551573482e-01	 1.085147835250138e+00	 7.803367012492242e+00
 8.218896856909996e-01	 1.102325879470541e+00	 7.441096695721777e+00
 7.990242990192610e-01	 1.119010799580969e+00	 7.059354667676944e+00
 7.758600865535591e-01	 1.135194312046279e+00	 6.657451922554269e+00
 7.524134108913274e-01	 1.150868827941644e+00	 6.234760949585504e+00
 9.811106588900002e-01	 9.811106588899999e-01	 9.649917948607598e+00
 9.605829781071776e-01	 1.001217554853339e+00	 9.377436339060683e+00
 9.396478496249905e-01	 1.020890870109385e+00	 9.094523303491268e+00
 9.183191229297815e-01	 1.040118377129261e+00	 8.800388121072061e+00
 8.966111293999636e-01	 1.058888442009220e+00	 8.494255001247833e+00
 8.745386503638366e-01	 1.077190047767566e+00	 8.175367908487939e+00
 8.521168838383170e-01	 1.095012815574976e+00	 7.842995414381630e+00
 8.293614101045006e-01	 1.112347023833931e+00	 7.496435533645606e+00
 8.062881562818418e-01	 1.129183625036312e+00	 7.135020499944853e+00
 7.829133600673254e-01	 1.145514260342112e+00	 6.758121437340159e+00
 7.592535328092677e-01	 1.161331271836278e+00	 6.365152883678384e+00
 9.899494936549997e-01	 9.899494936549997e-01	 9.681086337693710e+00
 9.692368788102508e-01	 1.010237532826071e+00	 9.400230400542402e+00
 9.481131455663370e-01	 1.030088085157229e+00	 9.112773459439389e+00
 9.265922681797482e-01	 1.049488812961676e+00	 8.818086298320646e+00
 9.046887071404153e-01	 1.068427977525723e+00	 8.515538464835593e+00
 8.824173769417565e-01	 1.086894462615585e+00	 8.204502562776527e+00
 8.597936125197605e-01	 1.104877795898974e+00	 7.884358667209449e+00
 8.368331345184140e-01	 1.122368168196410e+00	 7.554498820965672e+00
 8.135520135447336e-01	 1.139356450490694e+00	 7.214331569621420e+00
 7.899666335812616e-01	 1.155834208636955e+00	 6.863286491151664e+00
 7.660936547271977e-01	 1.171793715729913e+00	 6.500818676091547e+00
 9.987883284199998e-01	 9.987883284199998e-01	 9.706732078395545e+00
 9.778907795135039e-01	 1.019257510798614e+00	 9.418824944447202e+00
 9.565784415080025e-01	 1.039285300204712e+00	 9.128093718872602e+00
 9.348654134301334e-01	 1.058859248793580e+00	 8.834068135340347e+00
 9.127662848813437e-01	 1.077967513041584e+00	 8.536260655665236e+00
 8.902961035201726e-01	 1.096598877462853e+00	 8.234170238851712e+00
 8.674703412016779e-01	 1.114742776222131e+00	 7.927286327575638e+00
 8.443048589327401e-01	 1.132389312557980e+00	 7.615093012796082e+00
 8.208158708079366e-01	 1.149529275944116e+00	 7.297073334807665e+00
 7.970199070953669e-01	 1.166154156930806e+00	 6.972713677242214e+00
 7.729337766451166e-01	 1.182256159622547e+00	 6.641508209339824e+00
 1.007627163185000e+00	 1.007627163185000e+00	 9.726863351301390e+00
 9.865446802169368e-01	 1.028277488770966e+00	 9.433194553072633e+00
 9.650437374499879e-01	 1.048482515251834e+00	 9.140426826692726e+00
 9.431385586809371e-01	 1.068229684624974e+00	 8.848246358790446e+00
 9.208438626227501e-01	 1.087507048556805e+00	 8.556306154614532e+00
 8.981748300990846e-01	 1.106303292309370e+00	 8.264229292460824e+00
 8.751470698840700e-01	 1.124607756544448e+00	 7.971612489677183e+00
 8.517765833474784e-01	 1.142410456918638e+00	 7.678029942918466e+00
 8.280797280714506e-01	 1.159702101396579e+00	 7.383037402094604e+00
 8.040731806096427e-01	 1.176474105223669e+00	 7.086176434804671e+00
 7.797738985630250e-01	 1.192718603514182e+00	 6.786978836019513e+00
 1.016465997950000e+00	 1.016465997950000e+00	 9.741486502005841e+00
 9.951985809205498e-01	 1.037297466743129e+00	 9.443313154547850e+00
 9.735090333922922e-01	 1.057679730298597e+00	 9.149715996466092e+00
 9.514117039321597e-01	 1.077600120455857e+00	 8.860535226725885e+00
 9.289214403646335e-01	 1.097046584071385e+00	 8.575562074636629e+00
 9.060535566784923e-01	 1.116007707155137e+00	 8.294541548269583e+00
 8.828237985669360e-01	 1.134472736865924e+00	 8.017175588021724e+00
 8.592483077626301e-01	 1.152431601278386e+00	 7.743126589926623e+00
 8.353435853352754e-01	 1.169874926848081e+00	 7.472021259238232e+00
 8.111264541240881e-01	 1.186794053515541e+00	 7.203454751321535e+00
 7.866140204809230e-01	 1.203181047404816e+00	 6.936995054022017e+00
 1.025304832715000e+00	 1.025304832715000e+00	 9.750606120204274e+00
 1.003852481624343e+00	 1.046317444715101e+00	 9.449154051030781e+00
 9.819743293349165e-01	 1.066876945345000e+00	 9.155904890222216e+00
 9.596848491838006e-01	 1.086970556286229e+00	 8.870850462588805e+00
 9.369990181069949e-01	 1.106586119585325e+00	 8.593917951618854e+00
 9.139322832583963e-01	 1.125712122000153e+00	 8.324972150339480e+00
 8.905005272502765e-01	 1.144337717186559e+00	 8.063818210344674e+00
 8.667200321781937e-01	 1.162452745637224e+00	 7.810204855467669e+00
 8.426074425994116e-01	 1.180047752298622e+00	 7.563828021660337e+00
 8.181797276387035e-01	 1.197114001806424e+00	 7.324334880311431e+00
 7.934541423988104e-01	 1.213643491294451e+00	 7.091328198547059e+00
 1.034143667480000e+00	 1.034143667480000e+00	 9.754225114731391e+00
 1.012506382328315e+00	 1.055337422686883e+00	 9.450689945458771e+00
 9.904396252778600e-01	 1.076074160391042e+00	 9.158937599288926e+00
 9.679579944358603e-01	 1.096340992116092e+00	 8.879109192585087e+00
 9.450765958498334e-01	 1.116125655098624e+00	 8.611265640838344e+00
 9.218110098387960e-01	 1.135416536844419e+00	 8.355389420273667e+00
 8.981772559340918e-01	 1.154202697506354e+00	 8.111386920121262e+00
 8.741917565941700e-01	 1.172473889995151e+00	 7.879091353854896e+00
 8.498712998638585e-01	 1.190220577748203e+00	 7.658266191950293e+00
 8.252330011534884e-01	 1.207433950096316e+00	 7.448609073549496e+00
 8.002942643166867e-01	 1.224105935183085e+00	 7.249756149910111e+00
 1.042982502245000e+00	 1.042982502245000e+00	 9.752344784784061e+00
 1.021160283032468e+00	 1.064357400658475e+00	 9.447892966939444e+00
 9.989049212211227e-01	 1.085271375436723e+00	 9.158758626101649e+00
 9.762311396883389e-01	 1.105711427945443e+00	 8.885229886245243e+00
 9.531541735931496e-01	 1.125665190611283e+00	 8.627499218682960e+00
 9.296897364196920e-01	 1.145120951687934e+00	 8.385664722575209e+00
 9.058539846183808e-01	 1.164067677825307e+00	 8.159732088102698e+00
 8.816634810105588e-01	 1.182495034352168e+00	 7.949617212378749e+00
 8.571351571286164e-01	 1.200393403196824e+00	 7.755149431595411e+00
 8.322862746684434e-01	 1.217753898385218e+00	 7.576075326904236e+00
 8.071343862345530e-01	 1.234568379070720e+00	 7.412063056206909e+00
 1.051821337010000e+00	 1.051821337010000e+00	 9.744964887553198e+00
 1.029814183736800e+00	 1.073377378629877e+00	 9.440734694861144e+00
 1.007370217164705e+00	 1.094468590482045e+00	 9.155312866930004e+00
 9.845042849412359e-01	 1.115081863774285e+00	 8.889132299982242e+00
 9.612317513369429e-01	 1.135204726123301e+00	 8.642514889327385e+00
 9.375684630010840e-01	 1.154825366530698e+00	 8.415672336794120e+00
 9.135307133031443e-01	 1.173932658143421e+00	 8.208707732346882e+00
 8.891352054273607e-01	 1.192516178708274e+00	 8.021617881685795e+00
 8.643990143936855e-01	 1.210566228644485e+00	 7.854296344220087e+00
 8.393395481835683e-01	 1.228073846673130e+00	 7.706537138988685e+00
 8.139745081524083e-01	 1.245030822957354e+00	 7.578039069961394e+00
 1.060660171775000e+00	 1.060660171775000e+00	 9.732083702473968e+00
 1.038468084441312e+00	 1.082397356601088e+00	 9.429186181797892e+00
 1.015835513108607e+00	 1.103665805527006e+00	 9.148545595467978e+00
 9.927774301945514e-01	 1.124452299602615e+00	 8.890737423471462e+00
 9.693093290812139e-01	 1.144744261634678e+00	 8.656210896075077e+00
 9.454471895829717e-01	 1.164529781372711e+00	 8.445289336066859e+00
 9.212074419883821e-01	 1.183797638460694e+00	 8.258171366246902e+00
 8.966069298445744e-01	 1.202537323063470e+00	 8.094932955638809e+00
 8.716628716590653e-01	 1.220739054091185e+00	 7.955530269663871e+00
 8.463928216988629e-01	 1.238393794960052e+00	 7.839803281879925e+00
 8.208146300702533e-01	 1.255493266842989e+00	 7.566240853834881e+00
 7.524134108913274e-01	 1.150868827941644e+00	 6.234760949585504e+00
 7.287008687329781e-01	 1.166027462769146e+00	 5.864692253447008e+00
 7.047392534804007e-01	 1.180664043931685e+00	 5.536450512244535e+00
 6.805455176867415e-01	 1.194773115862958e+00	 5.251302394560961e+00
 6.561367355249966e-01	 1.208349942826211e+00	 5.010316683031387e+00
 6.315300654405884e-01	 1.221390509410137e+00	 4.814365679091700e+00
 6.067427131481523e-01	 1.233891518761329e+00	 4.664127627643518e+00
 5.817918951274087e-01	 1.245850388605507e+00	 4.560090106970890e+00
 5.566948027665101e-01	 1.257265245121364e+00	 4.218713121282619e+00
 5.314685672938282e-01	 1.268134914741677e+00	 3.774082427702504e+00
 5.061302256309000e-01	 1.278458913966357e+00	 3.387407044435306e+00
 7.592535328092677e-01	 1.161331271836278e+00	 6.365152883678384e+00
 7.353254220869722e-01	 1.176627712434605e+00	 6.044017680334321e+00
 7.111459739694163e-01	 1.191397353425526e+00	 5.763642040291486e+00
 6.867322951238658e-01	 1.205634689646682e+00	 5.525138458152686e+00
 6.621016149430722e-01	 1.219334942309169e+00	 5.329427103541804e+00
 6.372712478583268e-01	 1.232494059497939e+00	 5.177237753680860e+00
 6.122585559998541e-01	 1.245108714388192e+00	 5.069112706077942e+00
 5.870809123608277e-01	 1.257176301230428e+00	 4.729374130001331e+00
 5.617556646147485e-01	 1.268694929168600e+00	 4.257464043829513e+00
 5.363000997284300e-01	 1.279663413966696e+00	 3.840269439589383e+00
 5.107314095045163e-01	 1.290081267729169e+00	 3.478942528024144e+00
 7.660936547271977e-01	 1.171793715729913e+00	 6.500818676091547e+00
 7.419499754407716e-01	 1.187227962099074e+00	 6.227791208782492e+00
 7.175526944580827e-01	 1.202130662918409e+00	 5.994487315799386e+00
 6.929190725605181e-01	 1.216496263429501e+00	 5.801866292503292e+00
 6.680664943605837e-01	 1.230319941791294e+00	 5.650700569940339e+00
 6.430124302754393e-01	 1.243597609585001e+00	 5.541578174978863e+00
 6.177743988508980e-01	 1.256325910014428e+00	 5.235600651705436e+00
 5.923699295935869e-01	 1.268502213854855e+00	 4.740940478917118e+00
 5.668165264623545e-01	 1.280124613215495e+00	 4.297721652347171e+00
 5.411316321624565e-01	 1.291191913191544e+00	 3.907227719433672e+00
 5.153325933776431e-01	 1.301703621492001e+00	 3.570548915193647e+00
 7.729337766451166e-01	 1.182256159622547e+00	 6.641508209339824e+00
 7.485745287943755e-01	 1.197828211762553e+00	 6.415788821099945e+00
 7.239594149464007e-01	 1.212863972410334e+00	 6.228787792246972e+00
 6.991058499966988e-01	 1.227357837211414e+00	 6.081312147769594e+00
 6.740313737775313e-01	 1.241304941272586e+00	 5.973987410867282e+00
 6.487536126919259e-01	 1.254701159671323e+00	 5.732557882523183e+00
 6.232902417012843e-01	 1.267543105640036e+00	 5.219575846356690e+00
 5.976589468256861e-01	 1.279828126478787e+00	 4.754745752102645e+00
 5.718773883093287e-01	 1.291554297262048e+00	 4.339467283797539e+00
 5.459631645959077e-01	 1.302720412416223e+00	 3.974956064792096e+00
 5.199337772502799e-01	 1.313325975254853e+00	 3.662241534268464e+00
 7.797738985630250e-01	 1.192718603514182e+00	 6.786978836019513e+00
 7.551990821477842e-01	 1.208428461425044e+00	 6.607793093798984e+00
 7.303661354343698e-01	 1.223597281901301e+00	 6.466350665422040e+00
 7.052926274324078e-01	 1.238219410992421e+00	 6.363307189932298e+00
 6.799962531939148e-01	 1.252289940753043e+00	 6.215646818261278e+00
 6.544947951077865e-01	 1.265804709756905e+00	 5.688649512180440e+00
 6.288060845510125e-01	 1.278760301265018e+00	 5.206518829508569e+00
 6.029479640571257e-01	 1.291154039102225e+00	 4.770754804535430e+00
 5.769382501556705e-01	 1.302983981308259e+00	 4.382683483743215e+00
 5.507946970287833e-01	 1.314248911640731e+00	 4.043453832997771e+00
 5.245349611224271e-01	 1.324948329017727e+00	 3.754035657496430e+00
 7.866140204809230e-01	 1.203181047404816e+00	 6.936995054022017e+00
 7.618236355009980e-01	 1.219028711086544e+00	 6.803592910891528e+00
 7.367728559219902e-01	 1.234330591391309e+00	 6.706988623756563e+00
 7.114794048676450e-01	 1.249080984772522e+00	 6.647687287064561e+00
 6.859611326097343e-01	 1.263274940232669e+00	 6.143675646426640e+00
 6.602359775230212e-01	 1.276908259841746e+00	 5.648432490701130e+00
 6.343219274000830e-01	 1.289977496889372e+00	 5.196378395970057e+00
 6.082369812879054e-01	 1.302479951725169e+00	 4.788934298627527e+00
 5.819991120013801e-01	 1.314413665354129e+00	 4.427353953799959e+00
 5.556262294610839e-01	 1.325777410865069e+00	 4.112720916822333e+00
 5.291361449940846e-01	 1.336570682780620e+00	 3.845946503486629e+00
 7.934541423988104e-01	 1.213643491294451e+00	 7.091328198547059e+00
 7.684481888540168e-01	 1.229628960747055e+00	 7.002983192013575e+00
 7.431795764092617e-01	 1.245063900880360e+00	 6.950519611574743e+00
 7.176661823024110e-01	 1.259942558551717e+00	 6.580422497525747e+00
 6.919260120249895e-01	 1.274259939711460e+00	 6.076112203430376e+00
 6.659771599376296e-01	 1.288011809925846e+00	 5.611839999989691e+00
 6.398377702484958e-01	 1.301194692513100e+00	 5.189105722000064e+00
 6.135259985180255e-01	 1.313805864347619e+00	 4.809252626318324e+00
 5.870599738464576e-01	 1.325843349399657e+00	 4.473463501806307e+00
 5.604577618928086e-01	 1.337305910089237e+00	 4.182757721396557e+00
 5.337373288652524e-01	 1.348193036543535e+00	 3.937989239521504e+00
 8.002942643166867e-01	 1.224105935183085e+00	 7.249756149910111e+00
 7.750727422068404e-01	 1.240229210406577e+00	 7.205764634493122e+00
 7.495862968961846e-01	 1.255797210368453e+00	 6.994931251367289e+00
 7.238529597367048e-01	 1.270804132330007e+00	 6.485436361140030e+00
 6.978908914396812e-01	 1.285244939189419e+00	 6.012874527947826e+00
 6.717183423516123e-01	 1.299115360009208e+00	 5.578808152215773e+00
 6.453536130962506e-01	 1.312411888136201e+00	 5.184654263535746e+00
 6.188150157474855e-01	 1.325131776969574e+00	 4.831679835163946e+00
 5.921208356909027e-01	 1.337273033444843e+00	 4.520997994549354e+00
 5.652892943239584e-01	 1.348834409313236e+00	 4.253565142314677e+00
 5.383385127359304e-01	 1.359815390306469e+00	 4.030178983750301e+00
 8.071343862345530e-01	 1.234568379070720e+00	 7.412063056206909e+00
 7.816972955594687e-01	 1.250829460065110e+00	 7.383534335362916e+00
 7.559930173827586e-01	 1.266530519855587e+00	 6.872554928691705e+00
 7.300397371705273e-01	 1.281665706107390e+00	 6.395468715854552e+00
 7.038557708538088e-01	 1.296229938666545e+00	 5.953884112266110e+00
 6.774595247649688e-01	 1.310218910091828e+00	 5.549275865650365e+00
 6.508694559433478e-01	 1.323629083758674e+00	 5.182979659596266e+00
 6.241040329762860e-01	 1.336457689591036e+00	 4.856187558183195e+00
 5.971816975347158e-01	 1.348702717489688e+00	 4.569944312894217e+00
 5.701208267545327e-01	 1.360362908537064e+00	 4.325144544852217e+00
 5.429396966061187e-01	 1.371437744069425e+00	 4.122530807270888e+00
 8.139745081524083e-01	 1.245030822957354e+00	 7.578039069961394e+00
 7.883218489119019e-01	 1.261429709722652e+00	 7.233907532042014e+00
 7.623997378689837e-01	 1.277263829341764e+00	 6.755879558545168e+00
 7.362265146038778e-01	 1.292527279883868e+00	 6.310426897654478e+00
 7.098206502673721e-01	 1.307214938142837e+00	 5.899065757174311e+00
 6.832007071776995e-01	 1.321322460173709e+00	 5.523184746762564e+00
 6.563852987897871e-01	 1.334846279380521e+00	 5.184039640556801e+00
 6.293930502044267e-01	 1.347783602212004e+00	 4.882748947242064e+00
 6.022425593778966e-01	 1.360132401534191e+00	 4.620290309175489e+00
 5.749523591845315e-01	 1.371891407760722e+00	 4.397497744231288e+00
 5.475408804758173e-01	 1.383060097832401e+00	 4.215059736106910e+00
 8.208146300702533e-01	 1.255493266842989e+00	 7.566240853834881e+00
 7.949464022641402e-01	 1.272029959379205e+00	 7.090652187082590e+00
 7.688064583548604e-01	 1.287997138826982e+00	 6.644798800941418e+00
 7.424132920367567e-01	 1.303388853659439e+00	 6.230222029210267e+00
 7.157855296803717e-01	 1.318199937618296e+00	 5.848347434109208e+00
 6.889418895898042e-01	 1.332426010254849e+00	 5.500478978211233e+00
 6.619011416355685e-01	 1.346063475001740e+00	 5.187793941008106e+00
 6.346820674319077e-01	 1.359109514832477e+00	 4.911338609767994e+00
 6.073034212204453e-01	 1.371562085578352e+00	 4.672024766719079e+00
 5.797838916139548e-01	 1.383419906984210e+00	 4.470626986872862e+00
 5.521420643450261e-01	 1.394682451595397e+00	 4.307780753085497e+00
 5.061302256309000e-01	 1.278458913966357e+00	 3.387407044435306e+00
 4.806966872910303e-01	 1.288237437281654e+00	 3.051851590623126e+00
 4.551847024354536e-01	 1.297471343285539e+00	 2.743918295961461e+00
 4.296108311925131e-01	 1.306162139129264e+00	 2.464067873455511e+00
 4.039914143349413e-01	 1.314311963391015e+00	 2.212670187499333e+00
 3.783425453957433e-01	 1.321923567499668e+00	 1.990004175408673e+00
 3.526800442951766e-01	 1.329000295832889e+00	 1.796258283137906e+00
 3.270194325395477e-01	 1.335546064616104e+00	 1.631531396965838e+00
 3.013759100415353e-01	 1.341565339750669e+00	 1.495834249112963e+00
 2.757643336008559e-01	 1.347063113700460e+00	 1.389091271841646e+00
 2.501991970734234e-01	 1.352044881565965e+00	 1.311142871601226e+00
 5.107314095045163e-01	 1.290081267729169e+00	 3.478942528024144e+00
 4.850666571792522e-01	 1.299948686710393e+00	 3.160673776335067e+00
 4.593227451881562e-01	 1.309266537313843e+00	 2.866575486608244e+00
 4.335163842061927e-01	 1.318036340392143e+00	 2.597102124975798e+00
 4.076640635585735e-01	 1.326260253965098e+00	 2.352628802643243e+00
 3.817820230831497e-01	 1.333941054474572e+00	 2.133450800140530e+00
 3.558862265176348e-01	 1.341082116701665e+00	 1.939783567388219e+00
 3.299923364729388e-01	 1.347687392473848e+00	 1.771763185646199e+00
 3.041156910427644e-01	 1.353761388291580e+00	 1.629447273644847e+00
 2.782712820886437e-01	 1.359309142004772e+00	 1.512816316787485e+00
 2.524737352288170e-01	 1.364336198669367e+00	 1.421775395297008e+00
 5.153325933776431e-01	 1.301703621492001e+00	 3.570548915193647e+00
 4.894366270670793e-01	 1.311659936139338e+00	 3.269027934063983e+00
 4.634607879405481e-01	 1.321061731342504e+00	 2.988285280082052e+00
 4.374219372196355e-01	 1.329910541655500e+00	 2.728769474005603e+00
 4.113367127820329e-01	 1.338208544539750e+00	 2.490861018077267e+00
 3.852215007704361e-01	 1.345958541450105e+00	 2.274871525973479e+00
 3.590924087400167e-01	 1.353163937571098e+00	 2.081043290851543e+00
 3.329652404062873e-01	 1.359828720332250e+00	 1.909549281801622e+00
 3.068554720439746e-01	 1.365957436833121e+00	 1.760493555291564e+00
 2.807782305764268e-01	 1.371555170309656e+00	 1.633912064785199e+00
 2.547482733842105e-01	 1.376627515773255e+00	 1.529773848663965e+00
 5.199337772502799e-01	 1.313325975254853e+00	 3.662241534268464e+00
 4.938065969545112e-01	 1.323371185568486e+00	 3.376941650436367e+00
 4.675988306926293e-01	 1.332856925371522e+00	 3.109085965443265e+00
 4.413274902328415e-01	 1.341784742919335e+00	 2.859117359704346e+00
 4.150093620053187e-01	 1.350156835114969e+00	 2.627421877841231e+00
 3.886609784576029e-01	 1.357976028426266e+00	 2.414327467187110e+00
 3.622985909623225e-01	 1.365245758441190e+00	 2.220103117310148e+00
 3.359381443395930e-01	 1.371970048191310e+00	 2.044958395064092e+00
 3.095952530451660e-01	 1.378153485375291e+00	 1.889043365993859e+00
 2.832851790642052e-01	 1.383801198615110e+00	 1.752448889520738e+00
 2.570228115396040e-01	 1.388918832877628e+00	 1.635207272246020e+00
 5.245349611224271e-01	 1.324948329017727e+00	 3.754035657496430e+00
 4.981765668415482e-01	 1.335082434997839e+00	 3.484441990543298e+00
 4.717368734443999e-01	 1.344652119400897e+00	 3.229014899969229e+00
 4.452330432458106e-01	 1.353658944183649e+00	 2.988191934412137e+00
 4.186820112284315e-01	 1.362105125690758e+00	 2.762364839203115e+00
 3.921004561446502e-01	 1.369993515403056e+00	 2.551877906161264e+00
 3.655047731845522e-01	 1.377327579311940e+00	 2.357026687961368e+00
 3.389110482728562e-01	 1.384111376051029e+00	 2.178057075736846e+00
 3.123350340463384e-01	 1.390349533918090e+00	 2.015164734944280e+00
 2.857921275519789e-01	 1.396047226921136e+00	 1.868494891112317e+00
 2.592973496949976e-01	 1.401210149982486e+00	 1.738142453971500e+00
 5.291361449940846e-01	 1.336570682780620e+00	 3.845946503486629e+00
 5.025465367281904e-01	 1.346793684427397e+00	 3.591555520617074e+00
 4.758749161958596e-01	 1.356447313430629e+00	 3.348108549666038e+00
 4.491385962585430e-01	 1.365533145448441e+00	 3.116038119598859e+00
 4.223546604513710e-01	 1.374053416267115e+00	 2.895741841648776e+00
 3.955399338315778e-01	 1.382011002380474e+00	 2.687580373023693e+00
 3.687109554067056e-01	 1.389409400183348e+00	 2.491875709356191e+00
 3.418839522060768e-01	 1.396252703911406e+00	 2.308909808677878e+00
 3.150748150474922e-01	 1.402545582461518e+00	 2.138923546097721e+00
 2.882990760397479e-01	 1.408293255227734e+00	 1.982115994960826e+00
 2.615718878503911e-01	 1.413501467087830e+00	 1.838644027092559e+00
 5.337373288652524e-01	 1.348193036543535e+00	 3.937989239521504e+00
 5.069165066144372e-01	 1.358504933857160e+00	 3.698308329532969e+00
 4.800129589470085e-01	 1.368242507460719e+00	 3.466402527686120e+00
 4.530441492710384e-01	 1.377407346713711e+00	 3.242699658918606e+00
 4.260273096741375e-01	 1.386001706844041e+00	 3.027603372304013e+00
 3.989794115183856e-01	 1.394028489358520e+00	 2.821490721178499e+00
 3.719171376287828e-01	 1.401491221055414e+00	 2.624710036789211e+00
 3.448568561392546e-01	 1.408394031772441e+00	 2.437579102327851e+00
 3.178145960486270e-01	 1.414741631005575e+00	 2.260383630638913e+00
 2.908060245275123e-01	 1.420539283534902e+00	 2.093376045487944e+00
 2.638464260057847e-01	 1.425792784193659e+00	 1.936774563059297e+00
 5.383385127359304e-01	 1.359815390306469e+00	 4.030178983750301e+00
 5.112864765002892e-01	 1.370216183287127e+00	 3.804726049209360e+00
 4.841510016978469e-01	 1.380037701491165e+00	 3.583931630774466e+00
 4.569497022832972e-01	 1.389281547979459e+00	 3.368219168543465e+00
 4.296999588967309e-01	 1.397949997421536e+00	 3.157998528000972e+00
 4.024188892050738e-01	 1.406045976337196e+00	 2.953663198960746e+00
 3.751233198507839e-01	 1.413573041928139e+00	 2.755587753412271e+00
 3.478297600723899e-01	 1.420535359634134e+00	 2.564125573172582e+00
 3.205543770497430e-01	 1.426937679550262e+00	 2.379606854707190e+00
 2.933129730152719e-01	 1.432785311842642e+00	 2.202336895066846e+00
 2.661209641611783e-01	 1.438084101299974e+00	 2.032594659630952e+00
 5.429396966061187e-01	 1.371437744069425e+00	 4.122530807270888e+00
 5.156564463857463e-01	 1.381927432717298e+00	 3.910833873970483e+00
 4.882890444483744e-01	 1.391832895521968e+00	 3.700729873862320e+00
 4.608552552953190e-01	 1.401155749245686e+00	 3.492638184939043e+00
 4.333726081191510e-01	 1.409898287999599e+00	 3.286975074189100e+00
 4.058583668916424e-01	 1.418063463316499e+00	 3.084150517647969e+00
 3.783295020727088e-01	 1.425654862801521e+00	 2.884565245324811e+00
 3.508026640054825e-01	 1.432676687496486e+00	 2.688608025910340e+00
 3.232941580508401e-01	 1.439133728095577e+00	 2.496653202661455e+00
 2.958199215030269e-01	 1.445031340150954e+00	 2.309058488430754e+00
 2.683955023165718e-01	 1.450375418406773e+00	 2.126163024507044e+00
 5.475408804758173e-01	 1.383060097832401e+00	 4.215059736106910e+00
 5.200264162708083e-01	 1.393638682147674e+00	 4.016656578932505e+00
 4.924270871985911e-01	 1.403628089553128e+00	 3.816830522916532e+00
 4.647608083071041e-01	 1.413029950512392e+00	 3.615997210229233e+00
 4.370452573413979e-01	 1.421846578578230e+00	 3.414579500875363e+00
 4.092978445780913e-01	 1.430080950296430e+00	 3.213003916042344e+00
 3.815356842945573e-01	 1.437736683675562e+00	 3.011697272879193e+00
 3.537755679385325e-01	 1.444818015359496e+00	 2.811083529577576e+00
 3.260339390519186e-01	 1.451329776641522e+00	 2.611580856146436e+00
 2.983268699907771e-01	 1.457277368459836e+00	 2.413598942826216e+00
 2.706700404719653e-01	 1.462666735514058e+00	 2.217536554741240e+00
 5.521420643450261e-01	 1.394682451595397e+00	 4.307780753085497e+00
 5.243963861554752e-01	 1.405349931578255e+00	 4.122218537470532e+00
 4.965651299484972e-01	 1.415423283584646e+00	 3.932266126146263e+00
 4.686663613186524e-01	 1.424904151779574e+00	 3.738335755294545e+00
 4.407179065634718e-01	 1.433794869157430e+00	 3.540857075767866e+00
 4.127373222644204e-01	 1.442098437276991e+00	 3.340273221824042e+00
 3.847418665163297e-01	 1.449818504550261e+00	 3.137037038419660e+00
 3.567484718715399e-01	 1.456959343223164e+00	 2.931607489868011e+00
 3.287737200529779e-01	 1.463525825188096e+00	 2.724446269205853e+00
 3.008338184785227e-01	 1.469523396769290e+00	 2.516014624158134e+00
 2.729445786273588e-01	 1.474958052621828e+00	 2.306770412185388e+00
 2.501991970734234e-01	 1.352044881565965e+00	 1.311142871601226e+00
 2.246946132453406e-01	 1.356516616473704e+00	 1.213252207050933e+00
 1.992642974238829e-01	 1.360484744408075e+00	 1.123075621508753e+00
 1.739215527406030e-01	 1.363956118608690e+00	 1.040622401463507e+00
 1.486792571529468e-01	 1.366937993652964e+00	 9.658857789325552e-01
 1.235498521293628e-01	 1.369437999341071e+00	 8.988428790612024e-01
 9.854533298911115e-02	 1.371464114494739e+00	 8.394548173768324e-01
 7.367724086214492e-02	 1.373024640776572e+00	 7.876669365323348e-01
 4.895665622776053e-02	 1.374128176631064e+00	 7.434091715404547e-01
 2.439419398469604e-02	 1.374783591442656e+00	 7.065965318708511e-01
 0.000000000000000e+00	 1.375000000000000e+00	 6.771296883389899e-01
 2.524737352288170e-01	 1.364336198669367e+00	 1.421775395297008e+00
 2.267372915474652e-01	 1.368848585712971e+00	 1.310058993390433e+00
 2.010757910364978e-01	 1.372852787537955e+00	 1.208736063636760e+00
 1.755026577650256e-01	 1.376355719686112e+00	 1.117810613457599e+00
 1.500308867628343e-01	 1.379364702685561e+00	 1.037261158816853e+00
 1.246730326026296e-01	 1.381887435698295e+00	 9.670411159869350e-01
 9.944119965202770e-02	 1.383931970080786e+00	 9.070793665986285e-01
 7.434703396034356e-02	 1.385506682965300e+00	 8.572809817329741e-01
 4.940171673850238e-02	 1.386620250964008e+00	 8.175280900700024e-01
 2.461595938432043e-02	 1.387281624092119e+00	 7.876808745914698e-01
 0.000000000000000e+00	 1.387500000000000e+00	 7.675786820461151e-01
 2.547482733842105e-01	 1.376627515773255e+00	 1.529773848663965e+00
 2.287799698495900e-01	 1.381180554952629e+00	 1.404527261045064e+00
 2.028872846491126e-01	 1.385220830668143e+00	 1.292305603831706e+00
 1.770837627894483e-01	 1.388755320763768e+00	 1.193108196599794e+00
 1.513825163727218e-01	 1.391791411718328e+00	 1.106899509157081e+00
 1.257962130758965e-01	 1.394336872055636e+00	 1.033609992469942e+00
 1.003370663149443e-01	 1.396399825666909e+00	 9.731371064550618e-01
 7.501682705854221e-02	 1.397988725154069e+00	 9.253465263495524e-01
 4.984677724924420e-02	 1.399112325296969e+00	 8.900735087066658e-01
 2.483772478394482e-02	 1.399779656741585e+00	 8.671243976719184e-01
 0.000000000000000e+00	 1.400000000000000e+00	 8.562782520430452e-01
 2.570228115396040e-01	 1.388918832877628e+00	 1.635207272246020e+00
 2.308226481517145e-01	 1.393512524192677e+00	 1.496716849201779e+00
 2.046987782617274e-01	 1.397588873798637e+00	 1.373836262672775e+00
 1.786648678138709e-01	 1.401154921841657e+00	 1.266560724266112e+00
 1.527341459826092e-01	 1.404218120751266e+00	 1.174841313330485e+00
 1.269193935491633e-01	 1.406786308413095e+00	 1.098586242182527e+00
 1.012329329778609e-01	 1.408867681253106e+00	 1.037662341740251e+00
 7.568662015674081e-02	 1.410470767342880e+00	 9.918967452535690e-01
 5.029183775998605e-02	 1.411604399629950e+00	 9.610787472410737e-01
 2.505949018356920e-02	 1.412277689391056e+00	 9.449618144666262e-01
 0.000000000000000e+00	 1.412500000000000e+00	 9.432657257783413e-01
 2.592973496949976e-01	 1.401210149982486e+00	 1.738142453971500e+00
 2.328653264538391e-01	 1.405844493433116e+00	 1.586685642950655e+00
 2.065102718743421e-01	 1.409956916929438e+00	 1.453378358188522e+00
 1.802459728382935e-01	 1.413554522919780e+00	 1.338212272301066e+00
 1.540857755924967e-01	 1.416644829784374e+00	 1.241125716211485e+00
 1.280425740224302e-01	 1.419235744770672e+00	 1.162005373958014e+00
 1.021287996407774e-01	 1.421335536839377e+00	 1.100688221413219e+00
 7.635641325493947e-02	 1.422952809531733e+00	 1.056963682607567e+00
 5.073689827072789e-02	 1.424096473962949e+00	 1.030575976856764e+00
 2.528125558319359e-02	 1.424775722040532e+00	 1.021226629721599e+00
 0.000000000000000e+00	 1.425000000000000e+00	 1.028577120965547e+00
 2.615718878503911e-01	 1.413501467087830e+00	 1.838644027092559e+00
 2.349080047559638e-01	 1.418176462673946e+00	 1.674489658245349e+00
 2.083217654869569e-01	 1.422324960060546e+00	 1.530980579880836e+00
 1.818270778627161e-01	 1.425954123998136e+00	 1.408105484127400e+00
 1.554374052023842e-01	 1.429071538817652e+00	 1.305790582368038e+00
 1.291657544956971e-01	 1.431685181128366e+00	 1.223901725045038e+00
 1.030246663036940e-01	 1.433803392425723e+00	 1.162246788851015e+00
 7.702620635313809e-02	 1.435434851720629e+00	 1.120578301026068e+00
 5.118195878146975e-02	 1.436588548295966e+00	 1.098596270070338e+00
 2.550302098281797e-02	 1.437273754690013e+00	 1.095951192122313e+00
 0.000000000000000e+00	 1.437500000000000e+00	 1.112247202528203e+00
 2.638464260057847e-01	 1.425792784193659e+00	 1.936774563059297e+00
 2.369506830580884e-01	 1.430508431915166e+00	 1.760183122469611e+00
 2.101332590995718e-01	 1.434693003191961e+00	 1.606690058919708e+00
 1.834081828871388e-01	 1.438353725076726e+00	 1.476281632488822e+00
 1.567890348122716e-01	 1.441498247851101e+00	 1.368872551246980e+00
 1.302889349689639e-01	 1.444134617486177e+00	 1.284308511606051e+00
 1.039205329666105e-01	 1.446271248012144e+00	 1.222369029503642e+00
 7.769599945133675e-02	 1.447916893909566e+00	 1.182770528194336e+00
 5.162701929221158e-02	 1.449080622629002e+00	 1.165169648087272e+00
 2.572478638244236e-02	 1.449771787339498e+00	 1.169166744123955e+00
 0.000000000000000e+00	 1.450000000000000e+00	 1.194309536599414e+00
 2.661209641611783e-01	 1.438084101299974e+00	 2.032594659630952e+00
 2.389933613602131e-01	 1.442840401156778e+00	 1.843818550871859e+00
 2.119447527121866e-01	 1.447061046323683e+00	 1.680552434739281e+00
 1.849892879115614e-01	 1.450753326155550e+00	 1.542780678025732e+00
 1.581406644221591e-01	 1.453924956884721e+00	 1.430407089529736e+00
 1.314121154422308e-01	 1.456584053844107e+00	 1.343257876627472e+00
 1.048163996295271e-01	 1.458739103598640e+00	 1.281084916104359e+00
 7.836579254953538e-02	 1.460398936098545e+00	 1.243569301095810e+00
 5.207207980295342e-02	 1.461572696962056e+00	 1.230325125729921e+00
 2.594655178206674e-02	 1.462269819988988e+00	 1.240903469226269e+00
 0.000000000000000e+00	 1.462500000000000e+00	 1.274796541752069e+00
 2.683955023165718e-01	 1.450375418406773e+00	 2.126163024507044e+00
 2.410360396623377e-01	 1.455172370398780e+00	 1.925446819113204e+00
 2.137562463248014e-01	 1.459429089455712e+00	 1.752611918246299e+00
 1.865703929359840e-01	 1.463152927234606e+00	 1.607641324872911e+00
 1.594922940320465e-01	 1.466351665918511e+00	 1.490428540825714e+00
 1.325352959154976e-01	 1.469033490202154e+00	 1.400780935393319e+00
 1.057122662924437e-01	 1.471206959185211e+00	 1.338423451581423e+00
 7.903558564773400e-02	 1.472880978287564e+00	 1.303002607991103e+00
 5.251714031369526e-02	 1.474064771295128e+00	 1.294090754080758e+00
 2.616831718169113e-02	 1.474767852638482e+00	 1.311190536844609e+00
 0.000000000000000e+00	 1.475000000000000e+00	 1.353739537624515e+00
 2.706700404719653e-01	 1.462666735514058e+00	 2.217536554741240e+00
 2.430787179644623e-01	 1.467504339641174e+00	 2.005117232157646e+00
 2.155677399374162e-01	 1.471797132588047e+00	 1.822911351842444e+00
 1.881514979604067e-01	 1.475552528313897e+00	 1.670901073453781e+00
 1.608439236419340e-01	 1.478778374952471e+00	 1.548970172860255e+00
 1.336584763887645e-01	 1.481482926560319e+00	 1.456907818665761e+00
 1.066081329553602e-01	 1.483674814771857e+00	 1.394412709806061e+00
 7.970537874593264e-02	 1.485363020476627e+00	 1.361097528280366e+00
 5.296220082443710e-02	 1.486556845628219e+00	 1.356493660975771e+00
 2.639008258131552e-02	 1.487265885287981e+00	 1.380056144918105e+00
 0.000000000000000e+00	 1.487500000000000e+00	 1.431168791094060e+00
 2.729445786273588e-01	 1.474958052621828e+00	 2.306770412185388e+00
 2.451213962665869e-01	 1.479836308883957e+00	 2.082877589717881e+00
 2.173792335500309e-01	 1.484165175720690e+00	 1.891492266445877e+00
 1.897326029848293e-01	 1.487952129393421e+00	 1.732596270635461e+00
 1.621955532518215e-01	 1.491205083986602e+00	 1.606064222303050e+00
 1.347816568620313e-01	 1.493932362918601e+00	 1.511667713706757e+00
 1.075039996182768e-01	 1.496142670358577e+00	 1.449079874303571e+00
 8.037517184413129e-02	 1.497845062665731e+00	 1.417880270372414e+00
 5.340726133517893e-02	 1.499048919961328e+00	 1.417560089473163e+00
 2.661184798093990e-02	 1.499763917937484e+00	 1.447527560388775e+00
 0.000000000000000e+00	 1.500000000000000e+00	 1.507113560142131e+00
 1.500000000000000e+00	 0.000000000000000e+00	 1.323113957355184e+01
 1.499763917937484e+00	 2.661184798093904e-02	 1.332883584679418e+01
 1.499048919961329e+00	 5.340726133517817e-02	 1.339901341636222e+01
 1.497845062665731e+00	 8.037517184413061e-02	 1.344228854636799e+01
 1.496142670358577e+00	 1.075039996182762e-01	 1.345934968165972e+01
 1.493932362918601e+00	 1.347816568620308e-01	 1.345095931692220e+01
 1.491205083986601e+00	 1.621955532518211e-01	 1.341795572763577e+01
 1.487952129393420e+00	 1.897326029848289e-01	 1.336125453917660e+01
 1.484165175720690e+00	 2.173792335500308e-01	 1.328185010883028e+01
 1.479836308883957e+00	 2.451213962665869e-01	 1.318081669409295e+01
 1.474958052621828e+00	 2.729445786273588e-01	 1.305930937938771e+01
 1.512500000000000e+00	 0.000000000000000e+00	 1.314607242808930e+01
 1.512261950586988e+00	 2.683361338056342e-02	 1.324162989821020e+01
 1.511540994294438e+00	 5.385232184592000e-02	 1.331039265902162e+01
 1.510327104854835e+00	 8.104496494232924e-02	 1.335298594856445e+01
 1.508610525945297e+00	 1.083998662811928e-01	 1.337010545611925e+01
 1.506381799276883e+00	 1.359048373352977e-01	 1.336251914647025e+01
 1.503631793020732e+00	 1.635471828617086e-01	 1.333106895479360e+01
 1.500351730472945e+00	 1.913137080092516e-01	 1.327667232897625e+01
 1.496533218853332e+00	 2.191907271626456e-01	 1.320032359458930e+01
 1.492168278126741e+00	 2.471640745687115e-01	 1.310309511626561e+01
 1.487249369729599e+00	 2.752191167827523e-01	 1.298613822789565e+01
 1.525000000000000e+00	 0.000000000000000e+00	 1.306731467625174e+01
 1.524759983236486e+00	 2.705537878018779e-02	 1.316060574831985e+01
 1.524033068627529e+00	 5.429738235666183e-02	 1.322781874036748e+01
 1.522809147043897e+00	 8.171475804052787e-02	 1.326958763911785e+01
 1.521078381531942e+00	 1.092957329441093e-01	 1.328661515937975e+01
 1.518831235635048e+00	 1.370280178085645e-01	 1.327967452545157e+01
 1.516058502054693e+00	 1.648988124715960e-01	 1.324961113203414e+01
 1.512751331552235e+00	 1.928948130336742e-01	 1.319734406197157e+01
 1.508901261985667e+00	 2.210022207752603e-01	 1.312386743648806e+01
 1.504500247369134e+00	 2.492067528708361e-01	 1.303025157203088e+01
 1.499540686836884e+00	 2.774936549381459e-01	 1.291764391640705e+01
 1.537500000000000e+00	 0.000000000000000e+00	 1.299465231714270e+01
 1.537258015885981e+00	 2.727714417981218e-02	 1.308555427272255e+01
 1.536525142960601e+00	 5.474244286740368e-02	 1.315108765405545e+01
 1.535291189232917e+00	 8.238455113872650e-02	 1.319189496643904e+01
 1.533546237118513e+00	 1.101915996070258e-01	 1.320868572573582e+01
 1.531280671993095e+00	 1.381511982818314e-01	 1.320223819889088e+01
 1.528485211088482e+00	 1.662504420814835e-01	 1.317340103296393e+01
 1.525150932631292e+00	 1.944759180580968e-01	 1.312309475049996e+01
 1.521269305117696e+00	 2.228137143878751e-01	 1.305231308733911e+01
 1.516832216611136e+00	 2.512494311729607e-01	 1.296212414732571e+01
 1.511832003943683e+00	 2.797681930935394e-01	 1.285367134686164e+01
 1.550000000000000e+00	 0.000000000000000e+00	 1.292787825312046e+01
 1.549756048535470e+00	 2.749890957943656e-02	 1.301627316703996e+01
 1.549017217293655e+00	 5.518750337814550e-02	 1.308000212340568e+01
 1.547773231421895e+00	 8.305434423692513e-02	 1.311971591110439e+01
 1.546014092705009e+00	 1.110874662699424e-01	 1.313613061700705e+01
 1.543730108351024e+00	 1.392743787550982e-01	 1.313002932757117e+01
 1.540911920122102e+00	 1.676020716913709e-01	 1.310226372808699e+01
 1.537550533710115e+00	 1.960570230825194e-01	 1.305375557788991e+01
 1.533637348249418e+00	 2.246252080004899e-01	 1.298549803806097e+01
 1.529164185852748e+00	 2.532921094750853e-01	 1.289855682641349e+01
 1.524123321049998e+00	 2.820427312489329e-01	 1.279407117295450e+01
 1.562500000000000e+00	 0.000000000000000e+00	 1.286679201366783e+01
 1.562254081184955e+00	 2.772067497906093e-02	 1.295256667411516e+01
 1.561509291626691e+00	 5.563256388888735e-02	 1.301437133221626e+01
 1.560255273610832e+00	 8.372413733512374e-02	 1.305286482056922e+01
 1.558481948291430e+00	 1.119833329328590e-01	 1.306876956143715e+01
 1.556179544708835e+00	 1.403975592283651e-01	 1.306287323140343e+01
 1.553338629155550e+00	 1.689537013012584e-01	 1.303603033292881e+01
 1.549950134788705e+00	 1.976381281069421e-01	 1.298916365162139e+01
 1.546005391380833e+00	 2.264367016131047e-01	 1.292326557615384e+01
 1.541496155093968e+00	 2.553347877772099e-01	 1.283939925595093e+01
 1.536414638155826e+00	 2.843172694043264e-01	 1.273869957006580e+01
 1.575000000000000e+00	 0.000000000000000e+00	 1.281119949241099e+01
 1.574752113834436e+00	 2.794244037868531e-02	 1.289424532420229e+01
 1.574001365959708e+00	 5.607762439962918e-02	 1.295401066839492e+01
 1.572737315799726e+00	 8.439393043332238e-02	 1.299116215651384e+01
 1.570949803877776e+00	 1.128791995957756e-01	 1.300642830502618e+01
 1.568628981066530e+00	 1.415207397016319e-01	 1.300060114501690e+01
 1.565765338188829e+00	 1.703053309111458e-01	 1.297453776815461e+01
 1.562349735867061e+00	 1.992192331313647e-01	 1.292916176824048e+01
 1.558373434511941e+00	 2.282481952257195e-01	 1.286546455567661e+01
 1.553828124334798e+00	 2.573774660793345e-01	 1.278450652028996e+01
 1.548705955261170e+00	 2.865918075597200e-01	 1.268741801614630e+01
 1.587500000000000e+00	 0.000000000000000e+00	 1.276091269656273e+01
 1.587250146483912e+00	 2.816420577830969e-02	 1.284112568743060e+01
 1.586493440292707e+00	 5.652268491037100e-02	 1.289874147970297e+01
 1.585219357988580e+00	 8.506372353152102e-02	 1.293443425412606e+01
 1.583417659464048e+00	 1.137750662586921e-01	 1.294893837461109e+01
 1.581078417424106e+00	 1.426439201748988e-01	 1.294304998489600e+01
 1.578192047221937e+00	 1.716569605210333e-01	 1.291762853102044e+01
 1.574749336945184e+00	 2.008003381557873e-01	 1.287359818938036e+01
 1.570741477642742e+00	 2.300596888383343e-01	 1.281194917809092e+01
 1.566160093575237e+00	 2.594201443814592e-01	 1.273373892739525e+01
 1.560997272366028e+00	 2.888663457151135e-01	 1.264009308295477e+01
 1.600000000000000e+00	 0.000000000000000e+00	 1.271574950811040e+01
 1.599748179133383e+00	 2.838597117793407e-02	 1.279303013787194e+01
 1.598985514625687e+00	 5.696774542111284e-02	 1.284839084094826e+01
 1.597701400177391e+00	 8.573351662971965e-02	 1.288251309266726e+01
 1.595885515050245e+00	 1.146709329216086e-01	 1.289613685205175e+01
 1.593527853781565e+00	 1.437671006481656e-01	 1.289006212743299e+01
 1.590618756254874e+00	 1.730085901309208e-01	 1.286515047753770e+01
 1.587148938023073e+00	 2.023814431802099e-01	 1.282232642828135e+01
 1.583109520773236e+00	 2.318711824509491e-01	 1.276257878337830e+01
 1.578492062815286e+00	 2.614628226835838e-01	 1.268696180479678e+01
 1.573288589470401e+00	 2.911408838705071e-01	 1.259659623708108e+01
 1.612500000000000e+00	 0.000000000000000e+00	 1.267553345611154e+01
 1.612246211782850e+00	 2.860773657755843e-02	 1.274978662858166e+01
 1.611477588958649e+00	 5.741280593185468e-02	 1.280279133200683e+01
 1.610183442366161e+00	 8.640330972791826e-02	 1.283523607670987e+01
 1.608353370636367e+00	 1.155667995845252e-01	 1.284786615892001e+01
 1.605977290138907e+00	 1.448902811214324e-01	 1.284148519730353e+01
 1.603045465287642e+00	 1.743602197408082e-01	 1.281695661476946e+01
 1.599548539100729e+00	 2.039625482046325e-01	 1.277520504624026e+01
 1.595477563903424e+00	 2.336826760635639e-01	 1.271721765087272e+01
 1.590824032054943e+00	 2.635055009857084e-01	 1.264404530503309e+01
 1.585579906574289e+00	 2.934154220259006e-01	 1.255680365022412e+01
 1.625000000000000e+00	 0.000000000000000e+00	 1.264009349949879e+01
 1.624744244432312e+00	 2.882950197718282e-02	 1.271122847702238e+01
 1.623969663291593e+00	 5.785786644259652e-02	 1.276178082608945e+01
 1.622665484554890e+00	 8.707310282611692e-02	 1.279244582747164e+01
 1.620821226222414e+00	 1.164626662474418e-01	 1.280397385112611e+01
 1.618426726496131e+00	 1.460134615946994e-01	 1.279717186560976e+01
 1.615472174320238e+00	 1.757118493506957e-01	 1.277290490271290e+01
 1.611948140178151e+00	 2.055436532290552e-01	 1.273209745845437e+01
 1.607845607033305e+00	 2.354941696761788e-01	 1.267573480928543e+01
 1.603156001294210e+00	 2.655481792878331e-01	 1.260486422007406e+01
 1.597871223677692e+00	 2.956899601812942e-01	 1.252059601822596e+01
 1.474958052621828e+00	 2.729445786273588e-01	 1.305930937938771e+01
 1.469523396769290e+00	 3.008338184785218e-01	 1.309434751273429e+01
 1.463525825188096e+00	 3.287737200529772e-01	 1.311045655653393e+01
 1.456959343223164e+00	 3.567484718715391e-01	 1.310830914418211e+01
 1.449818504550261e+00	 3.847418665163292e-01	 1.308864171260578e+01
 1.442098437276991e+00	 4.127373222644202e-01	 1.305225592390542e+01
 1.433794869157430e+00	 4.407179065634715e-01	 1.300001982792481e+01
 1.424904151779575e+00	 4.686663613186522e-01	 1.293286872969623e+01
 1.415423283584646e+00	 4.965651299484973e-01	 1.285180572557277e+01
 1.405349931578255e+00	 5.243963861554752e-01	 1.275790187222306e+01
 1.394682451595397e+00	 5.521420643450261e-01	 1.265229595356490e+01
 1.487249369729599e+00	 2.752191167827523e-01	 1.298613822789565e+01
 1.481769425078744e+00	 3.033407669662652e-01	 1.302159137179796e+01
 1.475721873734670e+00	 3.315135010540273e-01	 1.303826204988601e+01
 1.469100671086833e+00	 3.597213758045253e-01	 1.303680383186542e+01
 1.461900325424960e+00	 3.879480487380636e-01	 1.301793408701815e+01
 1.454115924257551e+00	 4.161767999506894e-01	 1.298243556468857e+01
 1.445743159736630e+00	 4.443905557854587e-01	 1.293115772075442e+01
 1.436778353046758e+00	 4.725719143300821e-01	 1.286501775269033e+01
 1.427218477616163e+00	 5.007031726982478e-01	 1.278500130558308e+01
 1.417061181008836e+00	 5.287663560399447e-01	 1.269216281171861e+01
 1.406304805358394e+00	 5.567432482139901e-01	 1.258762542717656e+01
 1.499540686836884e+00	 2.774936549381459e-01	 1.291764391640705e+01
 1.494015453387626e+00	 3.058477154540085e-01	 1.295330678755280e+01
 1.487917922280615e+00	 3.342532820550773e-01	 1.297033387043415e+01
 1.481241998949843e+00	 3.626942797375113e-01	 1.296935974149160e+01
 1.473982146299001e+00	 3.911542309597980e-01	 1.295108278424311e+01
 1.466133411237483e+00	 4.196162776369589e-01	 1.291626693017692e+01
 1.457691450315262e+00	 4.480632050074460e-01	 1.286574315068411e+01
 1.448652554313463e+00	 4.764774673415118e-01	 1.280041066128071e+01
 1.439013671647323e+00	 5.048412154479985e-01	 1.272123779900520e+01
 1.428772430439212e+00	 5.331363259244142e-01	 1.262926253403656e+01
 1.417927159121370e+00	 5.613444320829541e-01	 1.252559257730559e+01
 1.511832003943683e+00	 2.797681930935394e-01	 1.285367134686164e+01
 1.506261481695937e+00	 3.083546639417515e-01	 1.288934553101120e+01
 1.500113970825930e+00	 3.369930630561272e-01	 1.290653059705262e+01
 1.493383326812194e+00	 3.656671836704973e-01	 1.290584218371019e+01
 1.486063967172383e+00	 3.943604131815324e-01	 1.288795975561748e+01
 1.478150898216786e+00	 4.230557553232283e-01	 1.285362850623773e+01
 1.469639740893325e+00	 4.517358542294331e-01	 1.280366101687942e+01
 1.460526755579689e+00	 4.803830203529415e-01	 1.273893863167958e+01
 1.450808865678127e+00	 5.089792581977491e-01	 1.266041250794790e+01
 1.440483679869384e+00	 5.375062958088838e-01	 1.256910430131992e+01
 1.429549512884325e+00	 5.659456159519182e-01	 1.246610644580872e+01
 1.524123321049998e+00	 2.820427312489329e-01	 1.279407117295450e+01
 1.518507510003678e+00	 3.108616124294948e-01	 1.282956497555075e+01
 1.512310019370616e+00	 3.397328440571772e-01	 1.284671626224199e+01
 1.505524654673888e+00	 3.686400876034834e-01	 1.284612177497236e+01
 1.498145788045108e+00	 3.975665954032666e-01	 1.282844211163699e+01
 1.490168385195461e+00	 4.264952330094976e-01	 1.279440379270835e+01
 1.481588031470819e+00	 4.554085034514203e-01	 1.274480108901576e+01
 1.472400956845438e+00	 4.842885733643713e-01	 1.268049756915490e+01
 1.462604059708573e+00	 5.131173009474997e-01	 1.260242732440599e+01
 1.452194929299351e+00	 5.418762656933532e-01	 1.251159582899210e+01
 1.441171866647260e+00	 5.705467998208821e-01	 1.240908039405990e+01
 1.536414638155826e+00	 2.843172694043264e-01	 1.273869957006580e+01
 1.530753538310847e+00	 3.133685609172381e-01	 1.277382787281970e+01
 1.524506067914674e+00	 3.424726250582273e-01	 1.279076013398406e+01
 1.517665982534923e+00	 3.716129915364694e-01	 1.279007422529876e+01
 1.510227608917174e+00	 4.007727776250010e-01	 1.277241191558998e+01
 1.502185872173508e+00	 4.299347106957671e-01	 1.273848110283741e+01
 1.493536322047746e+00	 4.590811526734075e-01	 1.268905781245813e+01
 1.484275158110709e+00	 4.881941263758013e-01	 1.262498791886804e+01
 1.474399253738662e+00	 5.172553436972505e-01	 1.254718854666494e+01
 1.463906178729113e+00	 5.462462355778226e-01	 1.245664910762557e+01
 1.452794220410174e+00	 5.751479836898462e-01	 1.235443193016964e+01
 1.548705955261170e+00	 2.865918075597200e-01	 1.268741801614630e+01
 1.542999566617443e+00	 3.158755094049813e-01	 1.272200213931338e+01
 1.536702116458102e+00	 3.452124060592773e-01	 1.273853650798463e+01
 1.529807310395300e+00	 3.745858954694554e-01	 1.273758013615379e+01
 1.522309429788582e+00	 4.039789598467353e-01	 1.271975598701795e+01
 1.514203359150925e+00	 4.333741883820365e-01	 1.268575337227643e+01
 1.505484612624103e+00	 4.627538018953948e-01	 1.263633012271781e+01
 1.496149359375500e+00	 4.920996793872311e-01	 1.257231448571936e+01
 1.486194447768395e+00	 5.213933864470012e-01	 1.249460670444806e+01
 1.475617428158671e+00	 5.506162054622920e-01	 1.240418023329312e+01
 1.464416574173068e+00	 5.797491675588102e-01	 1.230208254443195e+01
 1.560997272366028e+00	 2.888663457151135e-01	 1.264009308295477e+01
 1.555245594923469e+00	 3.183824578927246e-01	 1.267396065303393e+01
 1.548898165000901e+00	 3.479521870603273e-01	 1.268992450973164e+01
 1.541948638255018e+00	 3.775587994024414e-01	 1.268852480786909e+01
 1.534391250659332e+00	 4.071851420684697e-01	 1.267036571446155e+01
 1.526220846127715e+00	 4.368136660683060e-01	 1.263611797709552e+01
 1.517432903199891e+00	 4.664264511173821e-01	 1.258652126867495e+01
 1.508023560639813e+00	 4.960052323986609e-01	 1.252238626270492e+01
 1.497989641797769e+00	 5.255314291967518e-01	 1.244459639232442e+01
 1.487328677588024e+00	 5.549861753467614e-01	 1.235410924593403e+01
 1.476038927935941e+00	 5.843503514277741e-01	 1.225195755254552e+01
 1.573288589470401e+00	 2.911408838705071e-01	 1.259659623708108e+01
 1.567491623228924e+00	 3.208894063804678e-01	 1.262958105968133e+01
 1.561094213543070e+00	 3.506919680613774e-01	 1.264480790583182e+01
 1.554089966114079e+00	 3.805317033354274e-01	 1.264279805609398e+01
 1.546473071529424e+00	 4.103913242902040e-01	 1.262413687698403e+01
 1.538238333103876e+00	 4.402531437545753e-01	 1.258947656032940e+01
 1.529381193775111e+00	 4.700991003393692e-01	 1.253953864408764e+01
 1.519897761903649e+00	 4.999107854100907e-01	 1.247511626731904e+01
 1.509784835826787e+00	 5.296694719465024e-01	 1.239707611092589e+01
 1.499039927017173e+00	 5.593561452312309e-01	 1.230635997529670e+01
 1.487661281698794e+00	 5.889515352967382e-01	 1.220398594618372e+01
 1.585579906574289e+00	 2.934154220259006e-01	 1.255680365022412e+01
 1.579737651533808e+00	 3.233963548682111e-01	 1.258874558785895e+01
 1.573290262084611e+00	 3.534317490624274e-01	 1.260307492412236e+01
 1.566231293972480e+00	 3.835046072684134e-01	 1.260029403678321e+01
 1.558554892398857e+00	 4.135975065119385e-01	 1.258096947399592e+01
 1.550255820079409e+00	 4.436926214408446e-01	 1.254573486659127e+01
 1.541329484349762e+00	 4.737717495613564e-01	 1.249529362693766e+01
 1.531771963167006e+00	 5.038163384215205e-01	 1.243042138556590e+01
 1.521580029855448e+00	 5.338075146962531e-01	 1.235196811554927e+01
 1.510751176446117e+00	 5.637261151157004e-01	 1.226085989404691e+01
 1.499283635461626e+00	 5.935527191657022e-01	 1.215810025051512e+01
 1.597871223677692e+00	 2.956899601812942e-01	 1.252059601822596e+01
 1.591983679838119e+00	 3.259033033559543e-01	 1.255134087280803e+01
 1.585486310625523e+00	 3.561715300634776e-01	 1.256461808208508e+01
 1.578372621830225e+00	 3.864775112013996e-01	 1.256091107926212e+01
 1.570636713267633e+00	 4.168036887336729e-01	 1.254076756293404e+01
 1.562273307054313e+00	 4.471320991271141e-01	 1.250480258431980e+01
 1.553277774923845e+00	 4.774443987833438e-01	 1.245370142619117e+01
 1.543646164429884e+00	 5.077218914329503e-01	 1.238822222317072e+01
 1.533375223883753e+00	 5.379455574460040e-01	 1.230919827174616e+01
 1.522462425874856e+00	 5.680960850001699e-01	 1.221753997765556e+01
 1.510905989224438e+00	 5.981539030346663e-01	 1.211423638829969e+01
 1.394682451595397e+00	 5.521420643450261e-01	 1.265229595356490e+01
 1.383419906984210e+00	 5.797838916139538e-01	 1.257143503280390e+01
 1.371562085578352e+00	 6.073034212204445e-01	 1.248217017023458e+01
 1.359109514832477e+00	 6.346820674319068e-01	 1.238625018423172e+01
 1.346063475001740e+00	 6.619011416355681e-01	 1.228549240155854e+01
 1.332426010254849e+00	 6.889418895898038e-01	 1.218177833210731e+01
 1.318199937618296e+00	 7.157855296803712e-01	 1.207704871303979e+01
 1.303388853659439e+00	 7.424132920367565e-01	 1.197329791970709e+01
 1.287997138826982e+00	 7.688064583548604e-01	 1.187256774715472e+01
 1.272029959379205e+00	 7.949464022641402e-01	 1.177694057283465e+01
 1.255493266842989e+00	 8.208146300702533e-01	 1.168853191827618e+01
 1.406304805358394e+00	 5.567432482139901e-01	 1.258762542717656e+01
 1.394948406207697e+00	 5.846154240430896e-01	 1.251102068862011e+01
 1.382991769622504e+00	 6.123642830626772e-01	 1.242663617804544e+01
 1.370435427452928e+00	 6.399710846590581e-01	 1.233619614615157e+01
 1.357280670622920e+00	 6.674169844810206e-01	 1.224149230888240e+01
 1.343529560335928e+00	 6.946830720015954e-01	 1.214437965498713e+01
 1.329184937093667e+00	 7.217504090930887e-01	 1.204677162531789e+01
 1.314250427434890e+00	 7.486000694693998e-01	 1.195063465993704e+01
 1.298730448312043e+00	 7.752131788405625e-01	 1.185798211551755e+01
 1.282630209035559e+00	 8.015709556162806e-01	 1.177086756234238e+01
 1.265955710728375e+00	 8.276547519880928e-01	 1.169137747736173e+01
 1.417927159121370e+00	 5.613444320829541e-01	 1.252559257730559e+01
 1.406476905431348e+00	 5.894469564722256e-01	 1.245290907705408e+01
 1.394421453666978e+00	 6.174251449049096e-01	 1.237306039949542e+01
 1.381761340073830e+00	 6.452601018862087e-01	 1.228774661828003e+01
 1.368497866244649e+00	 6.729328273264731e-01	 1.219873428334472e+01
 1.354633110417626e+00	 7.004242544133872e-01	 1.210785236195835e+01
 1.340169936569694e+00	 7.277152885058061e-01	 1.201698755349590e+01
 1.325112001211006e+00	 7.547868469020427e-01	 1.192807897268489e+01
 1.309463757797747e+00	 7.816198993262644e-01	 1.184311220246856e+01
 1.293230458692502e+00	 8.081955089684213e-01	 1.176411272446018e+01
 1.276418154614268e+00	 8.344948739059324e-01	 1.169313874214438e+01
 1.429549512884325e+00	 5.659456159519182e-01	 1.246610644580872e+01
 1.418005404655163e+00	 5.942784889013609e-01	 1.239701811951783e+01
 1.405851137711774e+00	 6.224860067471424e-01	 1.232136969639032e+01
 1.393087252695183e+00	 6.505491191133597e-01	 1.224083744695374e+01
 1.379715061866928e+00	 6.784486701719254e-01	 1.215716318304815e+01
 1.365736660499942e+00	 7.061654368251790e-01	 1.207215033308547e+01
 1.351154936046379e+00	 7.336801679185235e-01	 1.198765939268396e+01
 1.335973574987789e+00	 7.609736243346858e-01	 1.190560274407153e+01
 1.320197067284093e+00	 7.880266198119669e-01	 1.182793884404468e+01
 1.303830708350034e+00	 8.148200623205618e-01	 1.175666578711198e+01
 1.286880598500666e+00	 8.413349958237717e-01	 1.169381425766272e+01
 1.441171866647260e+00	 5.705467998208821e-01	 1.240908039405990e+01
 1.429533903879145e+00	 5.991100213304970e-01	 1.234326982003003e+01
 1.417280821756893e+00	 6.275468685893746e-01	 1.227149477094821e+01
 1.404413165316985e+00	 6.558381363405106e-01	 1.219540807182561e+01
 1.390932257489756e+00	 6.839645130173780e-01	 1.211672720781417e+01
 1.376840210582875e+00	 7.119066192369704e-01	 1.203723053447154e+01
 1.362139935523721e+00	 7.396450473312408e-01	 1.195875286470322e+01
 1.346835148765235e+00	 7.671604017673291e-01	 1.188318042440460e+01
 1.330930376771083e+00	 7.944333402976689e-01	 1.181244517521420e+01
 1.314430958008157e+00	 8.214446156727025e-01	 1.174851850964457e+01
 1.297343042387568e+00	 8.481751177416111e-01	 1.169340433110611e+01
 1.452794220410174e+00	 5.751479836898462e-01	 1.235443193016964e+01
 1.441062403103291e+00	 6.039415537596327e-01	 1.229159010191159e+01
 1.428710505802334e+00	 6.326077304316072e-01	 1.222337001218312e+01
 1.415739077939239e+00	 6.611271535676618e-01	 1.215140138213204e+01
 1.402149453113134e+00	 6.894803558628307e-01	 1.207737776551424e+01
 1.387943760666427e+00	 7.176478016487620e-01	 1.200305289481671e+01
 1.373124935001719e+00	 7.456099267439583e-01	 1.193023640501725e+01
 1.357696722543348e+00	 7.733471791999721e-01	 1.186078892561110e+01
 1.341663686258716e+00	 8.008400607833710e-01	 1.179661653791950e+01
 1.325031207666869e+00	 8.280691690248431e-01	 1.173966460157070e+01
 1.307805486274977e+00	 8.550152396594507e-01	 1.169191096132875e+01
 1.464416574173068e+00	 5.797491675588102e-01	 1.230208254443195e+01
 1.452590902327603e+00	 6.087730861887682e-01	 1.224190865225794e+01
 1.440140189848097e+00	 6.376685922738400e-01	 1.217693334960346e+01
 1.427064990561943e+00	 6.664161707948125e-01	 1.210876357980477e+01
 1.413366648737060e+00	 6.949961987082831e-01	 1.203906934476631e+01
 1.399047310750597e+00	 7.233889840605537e-01	 1.196958018785469e+01
 1.384109934480375e+00	 7.515748061566756e-01	 1.190208105504792e+01
 1.368558296322125e+00	 7.795339566326149e-01	 1.183840752355395e+01
 1.352396995746991e+00	 8.072467812690729e-01	 1.178044039349879e+01
 1.335631457326171e+00	 8.346937223769836e-01	 1.173009964518157e+01
 1.318267930162891e+00	 8.618553615772905e-01	 1.168933777172011e+01
 1.476038927935941e+00	 5.843503514277741e-01	 1.225195755254552e+01
 1.464119401552080e+00	 6.136046186179041e-01	 1.219415877375881e+01
 1.451569873894183e+00	 6.427294541160723e-01	 1.213212611382244e+01
 1.438390903185097e+00	 6.717051880219633e-01	 1.206744404904983e+01
 1.424583844361535e+00	 7.005120415537357e-01	 1.200175939364553e+01
 1.410150860835385e+00	 7.291301664723454e-01	 1.193677792034367e+01
 1.395094933959687e+00	 7.575396855693931e-01	 1.187426035957859e+01
 1.379419870101568e+00	 7.857207340652584e-01	 1.181601776496381e+01
 1.363130305235910e+00	 8.136535017547750e-01	 1.176390623924533e+01
 1.346231706986062e+00	 8.413182757291240e-01	 1.171982102181547e+01
 1.328730374051309e+00	 8.686954834951300e-01	 1.168568994624679e+01
 1.487661281698794e+00	 5.889515352967382e-01	 1.220398594618372e+01
 1.475647900776722e+00	 6.184361510470401e-01	 1.214827724346418e+01
 1.462999557940591e+00	 6.477903159583051e-01	 1.208889290370266e+01
 1.449716815808702e+00	 6.769942052491146e-01	 1.202739523203984e+01
 1.435801039986560e+00	 7.060278843991882e-01	 1.196540820408048e+01
 1.421254410920791e+00	 7.348713488841370e-01	 1.190461422530757e+01
 1.406079933439656e+00	 7.635045649821103e-01	 1.184675026896646e+01
 1.390281443881676e+00	 7.919075114979012e-01	 1.179360337873317e+01
 1.373863614725471e+00	 8.200602222404771e-01	 1.174700552887787e+01
 1.356831956646543e+00	 8.479428290812646e-01	 1.170882784158228e+01
 1.339192817940233e+00	 8.755356054129694e-01	 1.168097416849251e+01
 1.499283635461626e+00	 5.935527191657022e-01	 1.215810025051512e+01
 1.487176400001530e+00	 6.232676834761757e-01	 1.210420417811904e+01
 1.474429241987322e+00	 6.528511778005376e-01	 1.204718145967943e+01
 1.461042728432757e+00	 6.822832224762654e-01	 1.198857251038827e+01
 1.447018235612134e+00	 7.115437272446408e-01	 1.192997880162626e+01
 1.432357961006815e+00	 7.406125312959287e-01	 1.187305976024273e+01
 1.417064932920283e+00	 7.694694443948278e-01	 1.181952904590345e+01
 1.401143017662449e+00	 7.980942889305445e-01	 1.177115019133653e+01
 1.384596924215675e+00	 8.264669427261790e-01	 1.172973159671021e+01
 1.367432206307614e+00	 8.545673824334052e-01	 1.169712087635700e+01
 1.349655261829663e+00	 8.823757273308089e-01	 1.167519856353344e+01
 1.510905989224438e+00	 5.981539030346663e-01	 1.211423638829969e+01
 1.498704899226502e+00	 6.280992159053116e-01	 1.206188290571368e+01
 1.485858926034374e+00	 6.579120396427700e-01	 1.200694254293135e+01
 1.472368641057263e+00	 6.875722397034166e-01	 1.195093409209397e+01
 1.458235431238258e+00	 7.170595700900936e-01	 1.189543684032508e+01
 1.443461511093458e+00	 7.463537137077204e-01	 1.184208761002277e+01
 1.428049932401566e+00	 7.754343238075454e-01	 1.179257717648010e+01
 1.412004591443889e+00	 8.042810663631879e-01	 1.174864604615415e+01
 1.395330233706523e+00	 8.328736632118814e-01	 1.171207958532070e+01
 1.378032455969274e+00	 8.611919357855460e-01	 1.168470249586576e+01
 1.360117705719598e+00	 8.892158492486488e-01	 1.166837264249615e+01
 1.255493266842989e+00	 8.208146300702533e-01	 1.168853191827618e+01
 1.238393794960052e+00	 8.463928216988620e-01	 1.150325230830161e+01
 1.220739054091186e+00	 8.716628716590645e-01	 1.132552285019781e+01
 1.202537323063470e+00	 8.966069298445739e-01	 1.114293829019899e+01
 1.183797638460694e+00	 9.212074419883817e-01	 1.095558564922868e+01
 1.164529781372711e+00	 9.454471895829715e-01	 1.076351967323674e+01
 1.144744261634678e+00	 9.693093290812137e-01	 1.056676205732033e+01
 1.124452299602615e+00	 9.927774301945512e-01	 1.036530108082955e+01
 1.103665805527006e+00	 1.015835513108607e+00	 1.015909166349633e+01
 1.082397356601088e+00	 1.038468084441313e+00	 9.948055847206177e+00
 1.060660171775000e+00	 1.060660171775000e+00	 9.732083702473968e+00
 1.265955710728375e+00	 8.276547519880928e-01	 1.169137747736173e+01
 1.248713743246684e+00	 8.534460952142418e-01	 1.148494091398946e+01
 1.230911879537568e+00	 8.789267289246001e-01	 1.131038104596103e+01
 1.212558467418335e+00	 9.040786542619943e-01	 1.113121417703532e+01
 1.193662618777638e+00	 9.288841706738568e-01	 1.094750049665963e+01
 1.174234196214413e+00	 9.533259161651070e-01	 1.075926637198738e+01
 1.154283797145776e+00	 9.773869068257236e-01	 1.056650366552907e+01
 1.133822735430714e+00	 1.001050575448077e+00	 1.036916947765210e+01
 1.112863020571797e+00	 1.024300809052669e+00	 1.016718632348197e+01
 1.091417334572207e+00	 1.047121985145915e+00	 9.960442748174724e+00
 1.069499006540000e+00	 1.069499006540000e+00	 9.748794378811137e+00
 1.276418154614268e+00	 8.344948739059324e-01	 1.169313874214438e+01
 1.259033691533726e+00	 8.604993687296211e-01	 1.148461407688993e+01
 1.241084704984276e+00	 8.861905861901355e-01	 1.129328364925491e+01
 1.222579611773449e+00	 9.115503786794145e-01	 1.111729313094362e+01
 1.203527599094765e+00	 9.365608993593316e-01	 1.093699247531150e+01
 1.183938611056242e+00	 9.612046427472428e-01	 1.075238016804420e+01
 1.163823332656955e+00	 9.854644845702333e-01	 1.056341867677376e+01
 1.143193171258858e+00	 1.009323720701601e+00	 1.037003429887765e+01
 1.122060235616609e+00	 1.032766104996730e+00	 1.017211745745376e+01
 1.100437312543332e+00	 1.055775885850517e+00	 9.969523448805736e+00
 1.078337841305000e+00	 1.078337841305000e+00	 9.762073638890278e+00
 1.286880598500666e+00	 8.413349958237717e-01	 1.169381425766272e+01
 1.269353639821178e+00	 8.675526422450008e-01	 1.148572644746024e+01
 1.251257530431308e+00	 8.934544434556709e-01	 1.127673679955045e+01
 1.232600756128812e+00	 9.190221030968349e-01	 1.110109027413187e+01
 1.213392579412076e+00	 9.442376280448065e-01	 1.092398085517958e+01
 1.193643025898199e+00	 9.690833693293788e-01	 1.074278446321609e+01
 1.173362868168216e+00	 9.935420623147427e-01	 1.055743460051966e+01
 1.152563607087049e+00	 1.017596865955126e+00	 1.036782712912718e+01
 1.131257450661441e+00	 1.041231400940791e+00	 1.017382068421305e+01
 1.109457290514461e+00	 1.064429786555119e+00	 9.975237552530869e+00
 1.087176676070000e+00	 1.087176676070000e+00	 9.771865012580060e+00
 1.297343042387568e+00	 8.481751177416111e-01	 1.169340433110611e+01
 1.279673588109040e+00	 8.746059157603802e-01	 1.148550509646680e+01
 1.261430355878664e+00	 9.007183007212065e-01	 1.127678189660531e+01
 1.242621900484424e+00	 9.264938275142550e-01	 1.108252203788316e+01
 1.223257559729569e+00	 9.519143567302811e-01	 1.090838607070134e+01
 1.203347440740282e+00	 9.769620959115145e-01	 1.073040368280915e+01
 1.182902403679558e+00	 1.001619640059252e+00	 1.054847983275591e+01
 1.161934042915285e+00	 1.025870011208651e+00	 1.036248030681897e+01
 1.140454665706294e+00	 1.049696696884853e+00	 1.017223224814444e+01
 1.118477268485596e+00	 1.073083687259721e+00	 9.977525164917846e+00
 1.096015510835000e+00	 1.096015510835000e+00	 9.778112413447772e+00
 1.307805486274977e+00	 8.550152396594507e-01	 1.169191096132875e+01
 1.289993536397313e+00	 8.816591892757599e-01	 1.148395683184379e+01
 1.271603181326345e+00	 9.079821579867418e-01	 1.127525725008855e+01
 1.252643044840285e+00	 9.339655519316756e-01	 1.106673879742818e+01
 1.233122540047246e+00	 9.595910854157564e-01	 1.089012967417879e+01
 1.213051855582494e+00	 9.848408224936503e-01	 1.071516323468661e+01
 1.192441939190983e+00	 1.009697217803762e+00	 1.053648362053441e+01
 1.171304478743568e+00	 1.034143156462176e+00	 1.035392689401675e+01
 1.149651880751167e+00	 1.058161992828914e+00	 1.016728899419243e+01
 1.127497246456736e+00	 1.081737587964323e+00	 9.976326873584831e+00
 1.104854345600000e+00	 1.104854345600000e+00	 9.780760123411191e+00
 1.318267930162891e+00	 8.618553615772905e-01	 1.168933777172011e+01
 1.300313484685995e+00	 8.887124627911391e-01	 1.148108994416062e+01
 1.281776006774351e+00	 9.152460152522772e-01	 1.127217560830915e+01
 1.262664189196394e+00	 9.414372763490958e-01	 1.106351319251578e+01
 1.242987520365106e+00	 9.672678141012309e-01	 1.086913429141870e+01
 1.222756270424832e+00	 9.927195490757862e-01	 1.069698947027864e+01
 1.201981474702488e+00	 1.017774795548272e+00	 1.052137602819743e+01
 1.180674914571895e+00	 1.042416301715701e+00	 1.034210064771368e+01
 1.158849095796060e+00	 1.066627288772976e+00	 1.015892834402971e+01
 1.136517224427881e+00	 1.090391488668925e+00	 9.971583729071694e+00
 1.113693180365000e+00	 1.113693180365000e+00	 9.779752778121594e+00
 1.328730374051309e+00	 8.686954834951300e-01	 1.168568994624679e+01
 1.310633432975088e+00	 8.957657363065190e-01	 1.147691414825061e+01
 1.291948832222681e+00	 9.225098725178128e-01	 1.126755101000089e+01
 1.272685333552753e+00	 9.489090007665163e-01	 1.105851141353932e+01
 1.252852500683149e+00	 9.749445427867061e-01	 1.085076101172369e+01
 1.232460685267298e+00	 1.000598275657922e+00	 1.067580964743394e+01
 1.211521010214075e+00	 1.025852373292782e+00	 1.050308790520112e+01
 1.190045350400269e+00	 1.050689446969226e+00	 1.032693599247278e+01
 1.168046310840973e+00	 1.075092584717037e+00	 1.014708827335133e+01
 1.145537202399030e+00	 1.099045389373528e+00	 9.963237226614723e+00
 1.122532015130000e+00	 1.122532015130000e+00	 9.775035353037214e+00
 1.339192817940233e+00	 8.755356054129694e-01	 1.168097416849251e+01
 1.320953381264590e+00	 9.028190098218986e-01	 1.147144052757561e+01
 1.302121657671336e+00	 9.297737297833478e-01	 1.126139873391513e+01
 1.282706477909361e+00	 9.563807251839367e-01	 1.105175272208270e+01
 1.262717481001375e+00	 9.826212714721810e-01	 1.084346310256750e+01
 1.242165100109891e+00	 1.008477002240058e+00	 1.065155189501274e+01
 1.221060545725744e+00	 1.033929951037291e+00	 1.048155085544670e+01
 1.199415786228689e+00	 1.058962592222751e+00	 1.030836799435011e+01
 1.177243525885908e+00	 1.083557880661099e+00	 1.013170729023316e+01
 1.154557180370186e+00	 1.107699290078130e+00	 9.951229288775410e+00
 1.131370849895000e+00	 1.131370849895000e+00	 9.766553150149511e+00
 1.349655261829663e+00	 8.823757273308089e-01	 1.167519856353344e+01
 1.331273329554503e+00	 9.098722833372782e-01	 1.146468148117833e+01
 1.312294483120316e+00	 9.370375870488835e-01	 1.125373525075800e+01
 1.292727622266217e+00	 9.638524496013569e-01	 1.104325745059249e+01
 1.272582461319784e+00	 9.902980001576561e-01	 1.083420427567180e+01
 1.251869514952611e+00	 1.016355728822194e+00	 1.062758655971408e+01
 1.230600081237495e+00	 1.042007528781801e+00	 1.045669720803852e+01
 1.208786222057155e+00	 1.067235737476276e+00	 1.028633233603068e+01
 1.186440740930863e+00	 1.092023176605160e+00	 1.011272441449699e+01
 1.163577158341345e+00	 1.116353190782732e+00	 9.935502248877720e+00
 1.140209684660000e+00	 1.140209684660000e+00	 9.754251785326879e+00
 1.360117705719598e+00	 8.892158492486488e-01	 1.166837264249615e+01
 1.341593277844827e+00	 9.169255568526578e-01	 1.145665067308314e+01
 1.322467308569620e+00	 9.443014443144191e-01	 1.124457817734614e+01
 1.302748766623323e+00	 9.713241740187775e-01	 1.103304696119111e+01
 1.282447441638377e+00	 9.979747288431313e-01	 1.082300942431999e+01
 1.261573929795459e+00	 1.024234455404330e+00	 1.061547460833307e+01
 1.240139616749326e+00	 1.050085106526311e+00	 1.042845998939169e+01
 1.218156657885667e+00	 1.075508882729801e+00	 1.026076529311180e+01
 1.195637955975838e+00	 1.100488472549222e+00	 1.009007915802806e+01
 1.172597136312511e+00	 1.125007091487334e+00	 9.915998835209441e+00
 1.149048519425000e+00	 1.149048519425000e+00	 9.738077176242491e+00
 1.060660171775000e+00	 1.060660171775000e+00	 9.732083702473968e+00
 1.038468084441312e+00	 1.082397356601088e+00	 9.429186181797892e+00
 1.015835513108607e+00	 1.103665805527006e+00	 9.148545595467978e+00
 9.927774301945514e-01	 1.124452299602615e+00	 8.890737423471462e+00
 9.693093290812139e-01	 1.144744261634678e+00	 8.656210896075077e+00
 9.454471895829717e-01	 1.164529781372711e+00	 8.445289336066859e+00
 9.212074419883821e-01	 1.183797638460694e+00	 8.258171366246902e+00
 8.966069298445744e-01	 1.202537323063470e+00	 8.094932955638809e+00
 8.716628716590653e-01	 1.220739054091185e+00	 7.955530269663871e+00
 8.463928216988629e-01	 1.238393794960052e+00	 7.839803281879925e+00
 8.208146300702533e-01	 1.255493266842989e+00	 7.566240853834881e+00
 1.069499006540000e+00	 1.069499006540000e+00	 9.748794378811137e+00
 1.047121985145914e+00	 1.091417334572208e+00	 9.457902058806649e+00
 1.024300809052668e+00	 1.112863020571797e+00	 9.192534196675261e+00
 1.001050575448077e+00	 1.133822735430714e+00	 8.953376925252154e+00
 9.773869068257237e-01	 1.154283797145776e+00	 8.740975873375334e+00
 9.533259161651076e-01	 1.174234196214413e+00	 8.555736157980540e+00
 9.288841706738570e-01	 1.193662618777638e+00	 8.397923326085213e+00
 9.040786542619949e-01	 1.212558467418335e+00	 8.267665221145363e+00
 8.789267289246008e-01	 1.230911879537568e+00	 8.164954739276403e+00
 8.534460952142426e-01	 1.248713743246684e+00	 8.089653432440347e+00
 8.276547519880928e-01	 1.265955710728375e+00	 7.517945397863409e+00
 1.078337841305000e+00	 1.078337841305000e+00	 9.762073638890278e+00
 1.055775885850517e+00	 1.100437312543332e+00	 9.484090656593981e+00
 1.032766104996730e+00	 1.122060235616609e+00	 9.234863753153689e+00
 1.009323720701601e+00	 1.143193171258858e+00	 9.015187903253521e+00
 9.854644845702336e-01	 1.163823332656955e+00	 8.825703404224377e+00
 9.612046427472433e-01	 1.183938611056242e+00	 8.666895524669290e+00
 9.365608993593318e-01	 1.203527599094765e+00	 8.539095187264319e+00
 9.115503786794150e-01	 1.222579611773449e+00	 8.442480661185988e+00
 8.861905861901361e-01	 1.241084704984275e+00	 8.377080229866586e+00
 8.604993687296220e-01	 1.259033691533725e+00	 8.054436275024266e+00
 8.344948739059326e-01	 1.276418154614268e+00	 7.477268583975453e+00
 1.087176676070000e+00	 1.087176676070000e+00	 9.771865012580060e+00
 1.064429786555119e+00	 1.109457290514461e+00	 9.507674687076808e+00
 1.041231400940791e+00	 1.131257450661441e+00	 9.275437388869431e+00
 1.017596865955126e+00	 1.152563607087049e+00	 9.076055158647716e+00
 9.935420623147430e-01	 1.173362868168216e+00	 8.910261263831490e+00
 9.690833693293790e-01	 1.193643025898198e+00	 8.778619510308197e+00
 9.442376280448070e-01	 1.213392579412075e+00	 8.681524672297609e+00
 9.190221030968353e-01	 1.232600756128811e+00	 8.619204016716445e+00
 8.934544434556715e-01	 1.251257530431307e+00	 8.552744222991439e+00
 8.675526422450017e-01	 1.269353639821178e+00	 7.985024899377862e+00
 8.413349958237718e-01	 1.286880598500666e+00	 7.444065670150407e+00
 1.096015510835000e+00	 1.096015510835000e+00	 9.778112413447772e+00
 1.073083687259721e+00	 1.118477268485596e+00	 9.528577928721809e+00
 1.049696696884853e+00	 1.140454665706294e+00	 9.314159940531834e+00
 1.025870011208651e+00	 1.161934042915285e+00	 9.135865813675018e+00
 1.001619640059253e+00	 1.182902403679558e+00	 8.994520117819700e+00
 9.769620959115149e-01	 1.203347440740282e+00	 8.890763608845811e+00
 9.519143567302818e-01	 1.223257559729569e+00	 8.825053411944150e+00
 9.264938275142555e-01	 1.242621900484423e+00	 8.797664383730393e+00
 9.007183007212070e-01	 1.261430355878663e+00	 8.456813214892186e+00
 8.746059157603812e-01	 1.279673588109040e+00	 7.922594496777991e+00
 8.481751177416113e-01	 1.297343042387569e+00	 7.418197353464720e+00
 1.104854345600000e+00	 1.104854345600000e+00	 9.780760123411191e+00
 1.081737587964323e+00	 1.127497246456736e+00	 9.546725183883410e+00
 1.058161992828914e+00	 1.149651880751166e+00	 9.350937889083491e+00
 1.034143156462176e+00	 1.171304478743567e+00	 9.194509218800848e+00
 1.009697217803762e+00	 1.192441939190982e+00	 9.078353406609658e+00
 9.848408224936508e-01	 1.213051855582493e+00	 9.003186597212872e+00
 9.595910854157568e-01	 1.233122540047245e+00	 8.969526788878225e+00
 9.339655519316761e-01	 1.252643044840284e+00	 8.898886793107764e+00
 9.079821579867426e-01	 1.271603181326344e+00	 8.367340309995082e+00
 8.816591892757606e-01	 1.289993536397312e+00	 7.867021148375685e+00
 8.550152396594509e-01	 1.307805486274977e+00	 7.399529552528335e+00
 1.113693180365000e+00	 1.113693180365000e+00	 9.779752778121594e+00
 1.090391488668925e+00	 1.136517224427881e+00	 9.562042238173397e+00
 1.066627288772976e+00	 1.158849095796060e+00	 9.385679294453041e+00
 1.042416301715701e+00	 1.180674914571895e+00	 9.251876864294474e+00
 1.017774795548272e+00	 1.201981474702488e+00	 9.161637235308085e+00
 9.927195490757867e-01	 1.222756270424832e+00	 9.115750405045558e+00
 9.672678141012316e-01	 1.242987520365105e+00	 9.114793788804317e+00
 9.414372763490964e-01	 1.262664189196394e+00	 8.784376367397320e+00
 9.152460152522779e-01	 1.281776006774350e+00	 8.284217365446763e+00
 8.887124627911401e-01	 1.300313484685995e+00	 7.818185656373458e+00
 8.618553615772904e-01	 1.318267930162891e+00	 7.387933200280498e+00
 1.122532015130000e+00	 1.122532015130000e+00	 9.775035353037214e+00
 1.099045389373527e+00	 1.145537202399030e+00	 9.574455821749963e+00
 1.075092584717037e+00	 1.168046310840974e+00	 9.418293733390440e+00
 1.050689446969226e+00	 1.190045350400269e+00	 9.307862295984417e+00
 1.025852373292782e+00	 1.211521010214075e+00	 9.244250268799330e+00
 1.000598275657922e+00	 1.232460685267297e+00	 9.228319990563081e+00
 9.749445427867065e-01	 1.252852500683148e+00	 9.179176354678626e+00
 9.489090007665166e-01	 1.272685333552752e+00	 8.675681782110875e+00
 9.225098725178134e-01	 1.291948832222681e+00	 8.207340453425680e+00
 8.957657363065197e-01	 1.310633432975087e+00	 7.775973358157156e+00
 8.686954834951300e-01	 1.328730374051309e+00	 7.383284046575627e+00
 1.131370849895000e+00	 1.131370849895000e+00	 9.766553150149511e+00
 1.107699290078130e+00	 1.154557180370186e+00	 9.583893572421310e+00
 1.083557880661099e+00	 1.177243525885908e+00	 9.448692240215847e+00
 1.058962592222751e+00	 1.199415786228689e+00	 9.362361034963570e+00
 1.033929951037292e+00	 1.221060545725744e+00	 9.326073631753680e+00
 1.008477002240058e+00	 1.242165100109890e+00	 9.340763222263657e+00
 9.826212714721815e-01	 1.262717481001375e+00	 9.046704864824409e+00
 9.563807251839371e-01	 1.282706477909361e+00	 8.572714680994489e+00
 9.297737297833488e-01	 1.302121657671336e+00	 8.136609696491901e+00
 9.028190098218994e-01	 1.320953381264590e+00	 7.740273949140541e+00
 8.755356054129694e-01	 1.339192817940233e+00	 7.385462470022390e+00
 1.140209684660000e+00	 1.140209684660000e+00	 9.754251785326879e+00
 1.116353190782732e+00	 1.163577158341346e+00	 9.590284000465523e+00
 1.092023176605160e+00	 1.186440740930862e+00	 9.476787250324923e+00
 1.067235737476276e+00	 1.208786222057155e+00	 9.415270501028139e+00
 1.042007528781801e+00	 1.230600081237494e+00	 9.406990813287297e+00
 1.016355728822194e+00	 1.251869514952611e+00	 9.401933959279262e+00
 9.902980001576563e-01	 1.272582461319784e+00	 8.919417938506729e+00
 9.638524496013575e-01	 1.292727622266217e+00	 8.475390270346541e+00
 9.370375870488843e-01	 1.312294483120315e+00	 8.071929110596043e+00
 9.098722833372790e-01	 1.331273329554503e+00	 7.710981313849157e+00
 8.823757273308089e-01	 1.349655261829663e+00	 7.394353298574694e+00
 1.149048519425000e+00	 1.149048519425000e+00	 9.738077176242491e+00
 1.125007091487334e+00	 1.172597136312511e+00	 9.593556455073941e+00
 1.100488472549222e+00	 1.195637955975838e+00	 9.502492546301145e+00
 1.075508882729801e+00	 1.218156657885667e+00	 9.466489939650852e+00
 1.050085106526311e+00	 1.240139616749326e+00	 9.486887576021449e+00
 1.024234455404330e+00	 1.261573929795459e+00	 9.251911368152722e+00
 9.979747288431317e-01	 1.282447441638376e+00	 8.797246086677319e+00
 9.713241740187781e-01	 1.302748766623323e+00	 8.383627181996161e+00
 9.443014443144199e-01	 1.322467308569620e+00	 8.013206455333179e+00
 9.169255568526588e-01	 1.341593277844826e+00	 7.687993364800757e+00
 8.892158492486486e-01	 1.360117705719598e+00	 7.409845638402872e+00
 8.208146300702533e-01	 1.255493266842989e+00	 7.566240853834881e+00
 7.949464022641402e-01	 1.272029959379205e+00	 7.090652187082590e+00
 7.688064583548604e-01	 1.287997138826982e+00	 6.644798800941418e+00
 7.424132920367567e-01	 1.303388853659439e+00	 6.230222029210267e+00
 7.157855296803717e-01	 1.318199937618296e+00	 5.848347434109208e+00
 6.889418895898042e-01	 1.332426010254849e+00	 5.500478978211233e+00
 6.619011416355685e-01	 1.346063475001740e+00	 5.187793941008106e+00
 6.346820674319077e-01	 1.359109514832477e+00	 4.911338609767994e+00
 6.073034212204453e-01	 1.371562085578352e+00	 4.672024766719079e+00
 5.797838916139548e-01	 1.383419906984210e+00	 4.470626986872862e+00
 5.521420643450261e-01	 1.394682451595397e+00	 4.307780753085497e+00
 8.276547519880928e-01	 1.265955710728375e+00	 7.517945397863409e+00
 8.015709556162803e-01	 1.282630209035559e+00	 7.080026831159830e+00
 7.752131788405626e-01	 1.298730448312043e+00	 6.666983320243998e+00
 7.486000694693997e-01	 1.314250427434890e+00	 6.280200561667105e+00
 7.217504090930887e-01	 1.329184937093667e+00	 5.920969082353880e+00
 6.946830720015958e-01	 1.343529560335928e+00	 5.590478531031602e+00
 6.674169844810209e-01	 1.357280670622919e+00	 5.289812605746234e+00
 6.399710846590586e-01	 1.370435427452928e+00	 5.019944649988393e+00
 6.123642830626780e-01	 1.382991769622504e+00	 4.781733943088614e+00
 5.846154240430909e-01	 1.394948406207696e+00	 4.575922703513977e+00
 5.567432482139901e-01	 1.406304805358394e+00	 4.403133816617078e+00
 8.344948739059326e-01	 1.276418154614268e+00	 7.477268583975453e+00
 8.081955089684212e-01	 1.293230458692502e+00	 7.075632982347166e+00
 7.816198993262644e-01	 1.309463757797747e+00	 6.694089432472969e+00
 7.547868469020430e-01	 1.325112001211007e+00	 6.333870193675005e+00
 7.277152885058064e-01	 1.340169936569694e+00	 5.996132734147718e+00
 7.004242544133874e-01	 1.354633110417626e+00	 5.681954137249681e+00
 6.729328273264735e-01	 1.368497866244649e+00	 5.392326036503537e+00
 6.452601018862094e-01	 1.381761340073830e+00	 5.128150114694529e+00
 6.174251449049104e-01	 1.394421453666977e+00	 4.890234196343886e+00
 5.894469564722263e-01	 1.406476905431347e+00	 4.679288956494469e+00
 5.613444320829541e-01	 1.417927159121370e+00	 4.495925262281542e+00
 8.413349958237718e-01	 1.286880598500666e+00	 7.444065670150407e+00
 8.148200623205618e-01	 1.303830708350034e+00	 7.077357966626552e+00
 7.880266198119669e-01	 1.320197067284093e+00	 6.726034540226507e+00
 7.609736243346860e-01	 1.335973574987789e+00	 6.391176373537347e+00
 7.336801679185236e-01	 1.351154936046379e+00	 6.073809818645193e+00
 7.061654368251792e-01	 1.365736660499941e+00	 5.774901113677465e+00
 6.784486701719261e-01	 1.379715061866928e+00	 5.495351321816996e+00
 6.505491191133607e-01	 1.393087252695183e+00	 5.235991731048623e+00
 6.224860067471428e-01	 1.405851137711774e+00	 4.997579747524424e+00
 5.942784889013624e-01	 1.418005404655163e+00	 4.780795309773543e+00
 5.659456159519182e-01	 1.429549512884325e+00	 4.586237845130226e+00
 8.481751177416113e-01	 1.297343042387569e+00	 7.418197353464720e+00
 8.214446156727022e-01	 1.314430958008157e+00	 7.085093483850157e+00
 7.944333402976689e-01	 1.330930376771083e+00	 6.762739418168431e+00
 7.671604017673291e-01	 1.346835148765235e+00	 6.452066984662506e+00
 7.396450473312413e-01	 1.362139935523721e+00	 6.153973329229124e+00
 7.119066192369707e-01	 1.376840210582875e+00	 5.869315537622208e+00
 6.839645130173785e-01	 1.390932257489756e+00	 5.598905575007830e+00
 6.558381363405112e-01	 1.404413165316985e+00	 5.343505584005085e+00
 6.275468685893755e-01	 1.417280821756893e+00	 5.103823577703483e+00
 5.991100213304978e-01	 1.429533903879145e+00	 4.880509559156897e+00
 5.705467998208821e-01	 1.441171866647260e+00	 4.674152093604315e+00
 8.550152396594509e-01	 1.307805486274977e+00	 7.399529552528335e+00
 8.280691690248427e-01	 1.325031207666869e+00	 7.098735432785386e+00
 8.008400607833710e-01	 1.341663686258716e+00	 6.804128078145938e+00
 7.733471791999721e-01	 1.357696722543348e+00	 6.516492248159530e+00
 7.456099267439583e-01	 1.373124935001719e+00	 6.236597760941154e+00
 7.176478016487626e-01	 1.387943760666427e+00	 5.965194216466564e+00
 6.894803558628312e-01	 1.402149453113133e+00	 5.703005933190447e+00
 6.611271535676622e-01	 1.415739077939239e+00	 5.450727141998744e+00
 6.326077304316081e-01	 1.428710505802333e+00	 5.209017477586841e+00
 6.039415537596337e-01	 1.441062403103291e+00	 4.978497803022364e+00
 5.751479836898462e-01	 1.452794220410174e+00	 4.759746398599003e+00
 8.618553615772904e-01	 1.318267930162891e+00	 7.387933200280498e+00
 8.346937223769834e-01	 1.335631457326171e+00	 7.118183744491464e+00
 8.072467812690728e-01	 1.352396995746991e+00	 6.850127640729780e+00
 7.795339566326152e-01	 1.368558296322125e+00	 6.584404630072016e+00
 7.515748061566757e-01	 1.384109934480375e+00	 6.321659050891956e+00
 7.233889840605542e-01	 1.399047310750597e+00	 6.062534658697416e+00
 6.949961987082838e-01	 1.413366648737060e+00	 5.807669556328078e+00
 6.664161707948132e-01	 1.427064990561942e+00	 5.557691281409737e+00
 6.376685922738407e-01	 1.440140189848097e+00	 5.313212094749076e+00
 6.087730861887695e-01	 1.452590902327603e+00	 5.074824509678093e+00
 5.797491675588102e-01	 1.464416574173068e+00	 4.843097098287181e+00
 8.686954834951300e-01	 1.328730374051309e+00	 7.383284046575627e+00
 8.413182757291239e-01	 1.346231706986062e+00	 7.143342223567728e+00
 8.136535017547751e-01	 1.363130305235910e+00	 6.900668212823552e+00
 7.857207340652586e-01	 1.379419870101568e+00	 6.655758752995218e+00
 7.575396855693932e-01	 1.395094933959687e+00	 6.409134521487358e+00
 7.291301664723457e-01	 1.410150860835385e+00	 6.161335046303082e+00
 7.005120415537363e-01	 1.424583844361535e+00	 5.912913626333448e+00
 6.717051880219642e-01	 1.438390903185097e+00	 5.664432309873082e+00
 6.427294541160733e-01	 1.451569873894183e+00	 5.416456978639264e+00
 6.136046186179049e-01	 1.464119401552080e+00	 5.169552581538754e+00
 5.843503514277741e-01	 1.476038927935941e+00	 4.924278558934823e+00
 8.755356054129694e-01	 1.339192817940233e+00	 7.385462470022390e+00
 8.479428290812644e-01	 1.356831956646543e+00	 7.174118396843343e+00
 8.200602222404771e-01	 1.373863614725471e+00	 6.955682771010315e+00
 7.919075114979014e-01	 1.390281443881676e+00	 6.730511311835647e+00
 7.635045649821107e-01	 1.406079933439657e+00	 6.499002826314952e+00
 7.348713488841375e-01	 1.421254410920791e+00	 6.261594208465217e+00
 7.060278843991887e-01	 1.435801039986560e+00	 6.018755346211059e+00
 6.769942052491154e-01	 1.449716815808702e+00	 5.770983988494740e+00
 6.477903159583056e-01	 1.462999557940591e+00	 5.518800623476332e+00
 6.184361510470409e-01	 1.475647900776722e+00	 5.262743416293192e+00
 5.889515352967382e-01	 1.487661281698794e+00	 5.003363251928996e+00
 8.823757273308089e-01	 1.349655261829663e+00	 7.394353298574694e+00
 8.545673824334050e-01	 1.367432206307614e+00	 7.210423369104943e+00
 8.264669427261790e-01	 1.384596924215675e+00	 7.015107050324350e+00
 7.980942889305445e-01	 1.401143017662449e+00	 6.808620993488823e+00
 7.694694443948279e-01	 1.417064932920282e+00	 6.591243898547810e+00
 7.406125312959290e-01	 1.432357961006815e+00	 6.363311596473149e+00
 7.115437272446413e-01	 1.447018235612134e+00	 6.125211939239960e+00
 6.822832224762662e-01	 1.461042728432757e+00	 5.877379553035667e+00
 6.528511778005384e-01	 1.474429241987322e+00	 5.620290509149251e+00
 6.232676834761766e-01	 1.487176400001529e+00	 5.354456965227203e+00
 5.935527191657022e-01	 1.499283635461626e+00	 5.080421827222289e+00
 8.892158492486486e-01	 1.360117705719598e+00	 7.409845638402872e+00
 8.611919357855461e-01	 1.378032455969275e+00	 7.252171685482942e+00
 8.328736632118816e-01	 1.395330233706523e+00	 7.078879438157131e+00
 8.042810663631879e-01	 1.412004591443889e+00	 6.890048400224289e+00
 7.754343238075456e-01	 1.428049932401566e+00	 6.685838901729825e+00
 7.463537137077207e-01	 1.443461511093458e+00	 6.466487259797042e+00
 7.170595700900940e-01	 1.458235431238257e+00	 6.232300648193964e+00
 6.875722397034173e-01	 1.472368641057263e+00	 5.983651734116762e+00
 6.579120396427711e-01	 1.485858926034374e+00	 5.720973140230033e+00
 6.280992159053126e-01	 1.498704899226502e+00	 5.444751788854170e+00
 5.981539030346663e-01	 1.510905989224438e+00	 5.155523183388595e+00
 5.521420643450261e-01	 1.394682451595397e+00	 4.307780753085497e+00
 5.243963861554752e-01	 1.405349931578255e+00	 4.122218537470532e+00
 4.965651299484972e-01	 1.415423283584646e+00	 3.932266126146263e+00
 4.686663613186524e-01	 1.424904151779574e+00	 3.738335755294545e+00
 4.407179065634718e-01	 1.433794869157430e+00	 3.540857075767866e+00
 4.127373222644204e-01	 1.442098437276991e+00	 3.340273221824042e+00
 3.847418665163297e-01	 1.449818504550261e+00	 3.137037038419660e+00
 3.567484718715399e-01	 1.456959343223164e+00	 2.931607489868011e+00
 3.287737200529779e-01	 1.463525825188096e+00	 2.724446269205853e+00
 3.008338184785227e-01	 1.469523396769290e+00	 2.516014624158134e+00
 2.729445786273588e-01	 1.474958052621828e+00	 2.306770412185388e+00
 5.567432482139901e-01	 1.406304805358394e+00	 4.403133816617078e+00
 5.287663560399445e-01	 1.417061181008836e+00	 4.202250967847242e+00
 5.007031726982477e-01	 1.427218477616163e+00	 3.999338162190570e+00
 4.725719143300822e-01	 1.436778353046758e+00	 3.794860921925576e+00
 4.443905557854591e-01	 1.445743159736631e+00	 3.589291621188623e+00
 4.161767999506898e-01	 1.454115924257551e+00	 3.383105676639412e+00
 3.879480487380641e-01	 1.461900325424960e+00	 3.176777947174448e+00
 3.597213758045257e-01	 1.469100671086833e+00	 2.970779362532772e+00
 3.315135010540280e-01	 1.475721873734670e+00	 2.765573796922009e+00
 3.033407669662659e-01	 1.481769425078743e+00	 2.561615200109197e+00
 2.752191167827523e-01	 1.487249369729599e+00	 2.359344994848966e+00
 5.613444320829541e-01	 1.417927159121370e+00	 4.495925262281542e+00
 5.331363259244141e-01	 1.428772430439212e+00	 4.280163067656479e+00
 5.048412154479984e-01	 1.439013671647323e+00	 4.064687653645565e+00
 4.764774673415119e-01	 1.448652554313463e+00	 3.850017948437922e+00
 4.480632050074462e-01	 1.457691450315262e+00	 3.636669262806132e+00
 4.196162776369592e-01	 1.466133411237483e+00	 3.425149598798859e+00
 3.911542309597985e-01	 1.473982146299001e+00	 3.215956217747917e+00
 3.626942797375119e-01	 1.481241998949842e+00	 3.009572484515211e+00
 3.342532820550780e-01	 1.487917922280614e+00	 2.806465000915465e+00
 3.058477154540093e-01	 1.494015453387626e+00	 2.607081037355258e+00
 2.774936549381459e-01	 1.499540686836884e+00	 2.411846267974731e+00
 5.659456159519182e-01	 1.429549512884325e+00	 4.586237845130226e+00
 5.375062958088834e-01	 1.440483679869384e+00	 4.356024618302447e+00
 5.089792581977491e-01	 1.450808865678127e+00	 4.128372498367305e+00
 4.803830203529417e-01	 1.460526755579689e+00	 3.903853948091546e+00
 4.517358542294334e-01	 1.469639740893325e+00	 3.683027434204162e+00
 4.230557553232287e-01	 1.478150898216786e+00	 3.466433850259159e+00
 3.943604131815328e-01	 1.486063967172383e+00	 3.254593248875512e+00
 3.656671836704979e-01	 1.493383326812194e+00	 3.048001897387371e+00
 3.369930630561280e-01	 1.500113970825930e+00	 2.847129666686310e+00
 3.083546639417524e-01	 1.506261481695937e+00	 2.652417758920013e+00
 2.797681930935394e-01	 1.511832003943683e+00	 2.464276775780518e+00
 5.705467998208821e-01	 1.441171866647260e+00	 4.674152093604315e+00
 5.418762656933529e-01	 1.452194929299350e+00	 4.429903560591949e+00
 5.131173009474997e-01	 1.462604059708573e+00	 4.190449105030478e+00
 4.842885733643716e-01	 1.472400956845438e+00	 3.956414861616279e+00
 4.554085034514207e-01	 1.481588031470819e+00	 3.728402678239148e+00
 4.264952330094980e-01	 1.490168385195461e+00	 3.506986649208887e+00
 3.975665954032672e-01	 1.498145788045108e+00	 3.292710007724286e+00
 3.686400876034840e-01	 1.505524654673887e+00	 3.086082388759706e+00
 3.397328440571781e-01	 1.512310019370616e+00	 2.887577469028387e+00
 3.108616124294957e-01	 1.518507510003677e+00	 2.697630986341942e+00
 2.820427312489330e-01	 1.524123321049998e+00	 2.516639136573859e+00
 5.751479836898462e-01	 1.452794220410174e+00	 4.759746398599003e+00
 5.462462355778224e-01	 1.463906178729113e+00	 4.501866068358178e+00
 5.172553436972506e-01	 1.474399253738663e+00	 4.250972452695885e+00
 4.881941263758014e-01	 1.484275158110708e+00	 4.007745504112414e+00
 4.590811526734078e-01	 1.493536322047745e+00	 3.772830682669392e+00
 4.299347106957674e-01	 1.502185872173508e+00	 3.546835595819041e+00
 4.007727776250016e-01	 1.510227608917174e+00	 3.330327047155688e+00
 3.716129915364700e-01	 1.517665982534923e+00	 3.123828502439236e+00
 3.424726250582280e-01	 1.524506067914673e+00	 2.927817976458175e+00
 3.133685609172390e-01	 1.530753538310846e+00	 2.742726339734788e+00
 2.843172694043264e-01	 1.536414638155826e+00	 2.568936039788132e+00
 5.797491675588102e-01	 1.464416574173068e+00	 4.843097098287181e+00
 5.506162054622918e-01	 1.475617428158671e+00	 4.571976618579051e+00
 5.213933864470012e-01	 1.486194447768394e+00	 4.309996147541239e+00
 4.920996793872311e-01	 1.496149359375500e+00	 4.057889609718856e+00
 4.627538018953951e-01	 1.505484612624103e+00	 3.816346314087460e+00
 4.333741883820368e-01	 1.514203359150925e+00	 3.586007696767376e+00
 4.039789598467358e-01	 1.522309429788582e+00	 3.367464522166118e+00
 3.745858954694560e-01	 1.529807310395299e+00	 3.161254548104598e+00
 3.452124060592781e-01	 1.536702116458102e+00	 2.967860655431296e+00
 3.158755094049823e-01	 1.542999566617443e+00	 2.787709437843313e+00
 2.865918075597200e-01	 1.548705955261170e+00	 2.621170243160238e+00
 5.843503514277741e-01	 1.476038927935941e+00	 4.924278558934823e+00
 5.549861753467613e-01	 1.487328677588024e+00	 4.640298058182282e+00
 5.255314291967518e-01	 1.497989641797769e+00	 4.367572476911360e+00
 4.960052323986610e-01	 1.508023560639814e+00	 4.106889874170601e+00
 4.664264511173823e-01	 1.517432903199891e+00	 3.858983650249772e+00
 4.368136660683061e-01	 1.526220846127715e+00	 3.624529388604306e+00
 4.071851420684702e-01	 1.534391250659332e+00	 3.404142205550997e+00
 3.775587994024420e-01	 1.541948638255018e+00	 3.198374610523159e+00
 3.479521870603281e-01	 1.548898165000901e+00	 3.007714874361496e+00
 3.183824578927254e-01	 1.555245594923469e+00	 2.832585898097706e+00
 2.888663457151135e-01	 1.560997272366028e+00	 2.673344570041341e+00
 5.889515352967382e-01	 1.487661281698794e+00	 5.003363251928996e+00
 5.593561452312308e-01	 1.499039927017173e+00	 4.706891667719304e+00
 5.296694719465024e-01	 1.509784835826787e+00	 4.423752460835279e+00
 4.999107854100908e-01	 1.519897761903649e+00	 4.154787995361300e+00
 4.700991003393695e-01	 1.529381193775111e+00	 3.900776010890014e+00
 4.402531437545756e-01	 1.538238333103876e+00	 3.662426560023937e+00
 4.103913242902046e-01	 1.546473071529423e+00	 3.440379502834654e+00
 3.805317033354282e-01	 1.554089966114078e+00	 3.235202558337499e+00
 3.506919680613781e-01	 1.561094213543070e+00	 3.047389907449763e+00
 3.208894063804688e-01	 1.567491623228924e+00	 2.877361336664728e+00
 2.911408838705071e-01	 1.573288589470401e+00	 2.725461906834120e+00
 5.935527191657022e-01	 1.499283635461626e+00	 5.080421827222289e+00
 5.637261151157001e-01	 1.510751176446117e+00	 4.771817222077401e+00
 5.338075146962531e-01	 1.521580029855448e+00	 4.478585901147210e+00
 5.038163384215206e-01	 1.531771963167005e+00	 4.201624712019452e+00
 4.737717495613566e-01	 1.541329484349762e+00	 3.941755987100564e+00
 4.436926214408450e-01	 1.550255820079409e+00	 3.699724573098028e+00
 4.135975065119389e-01	 1.558554892398857e+00	 3.476195466505341e+00
 3.835046072684140e-01	 1.566231293972480e+00	 3.271752052441299e+00
 3.534317490624282e-01	 1.573290262084611e+00	 3.086894938336457e+00
 3.233963548682120e-01	 1.579737651533807e+00	 2.922041368496506e+00
 2.934154220259006e-01	 1.585579906574289e+00	 2.777525200548498e+00
 5.981539030346663e-01	 1.510905989224438e+00	 5.155523183388595e+00
 5.680960850001699e-01	 1.522462425874857e+00	 4.835133048390016e+00
 5.379455574460040e-01	 1.533375223883753e+00	 4.532121428339561e+00
 5.077218914329504e-01	 1.543646164429884e+00	 4.247439840599117e+00
 4.774443987833440e-01	 1.553277774923845e+00	 3.981955469356502e+00
 4.471320991271144e-01	 1.562273307054313e+00	 3.736448283531336e+00
 4.168036887336734e-01	 1.570636713267633e+00	 3.511608809593753e+00
 3.864775112014002e-01	 1.578372621830225e+00	 3.308036553970498e+00
 3.561715300634782e-01	 1.585486310625523e+00	 3.126239063584008e+00
 3.259033033559552e-01	 1.591983679838119e+00	 2.966631607377708e+00
 2.956899601812942e-01	 1.597871223677692e+00	 2.829537456470958e+00
 2.729445786273588e-01	 1.474958052621828e+00	 2.306770412185388e+00
 2.451213962665869e-01	 1.479836308883957e+00	 2.082877589717881e+00
 2.173792335500309e-01	 1.484165175720690e+00	 1.891492266445877e+00
 1.897326029848293e-01	 1.487952129393421e+00	 1.732596270635461e+00
 1.621955532518215e-01	 1.491205083986602e+00	 1.606064222303050e+00
 1.347816568620313e-01	 1.493932362918601e+00	 1.511667713706757e+00
 1.075039996182768e-01	 1.496142670358577e+00	 1.449079874303571e+00
 8.037517184413129e-02	 1.497845062665731e+00	 1.417880270372414e+00
 5.340726133517893e-02	 1.499048919961328e+00	 1.417560089473163e+00
 2.661184798093990e-02	 1.499763917937484e+00	 1.447527560388775e+00
 0.000000000000000e+00	 1.500000000000000e+00	 1.507113560142131e+00
 2.752191167827523e-01	 1.487249369729599e+00	 2.359344994848966e+00
 2.471640745687116e-01	 1.492168278126741e+00	 2.144464410855514e+00
 2.191907271626458e-01	 1.496533218853332e+00	 1.959982017471777e+00
 1.913137080092519e-01	 1.500351730472944e+00	 1.805896370249718e+00
 1.635471828617090e-01	 1.503631793020732e+00	 1.682104149372734e+00
 1.359048373352982e-01	 1.506381799276883e+00	 1.588404038465950e+00
 1.083998662811933e-01	 1.508610525945297e+00	 1.524500981368735e+00
 8.104496494232989e-02	 1.510327104854834e+00	 1.490010769088240e+00
 5.385232184592077e-02	 1.511540994294438e+00	 1.484464909021255e+00
 2.683361338056428e-02	 1.512261950586988e+00	 1.507315728901541e+00
 0.000000000000000e+00	 1.512500000000000e+00	 1.557941668763355e+00
 2.774936549381459e-01	 1.499540686836884e+00	 2.411846267974731e+00
 2.492067528708362e-01	 1.504500247369135e+00	 2.205700413038305e+00
 2.210022207752605e-01	 1.508901261985668e+00	 2.027881123667383e+00
 1.928948130336745e-01	 1.512751331552235e+00	 1.878403519779851e+00
 1.648988124715964e-01	 1.516058502054692e+00	 1.757186087353219e+00
 1.370280178085651e-01	 1.518831235635048e+00	 1.664054259510570e+00
 1.092957329441099e-01	 1.521078381531942e+00	 1.598744369320094e+00
 8.171475804052857e-02	 1.522809147043897e+00	 1.560907928504295e+00
 5.429738235666262e-02	 1.524033068627529e+00	 1.550116186026841e+00
 2.705537878018867e-02	 1.524759983236486e+00	 1.565864920789940e+00
 0.000000000000000e+00	 1.525000000000000e+00	 1.607579423393971e+00
 2.797681930935394e-01	 1.511832003943683e+00	 2.464276775780518e+00
 2.512494311729608e-01	 1.516832216611136e+00	 2.266593438753237e+00
 2.228137143878753e-01	 1.521269305117696e+00	 2.095201922183214e+00
 1.944759180580971e-01	 1.525150932631291e+00	 1.950133755845073e+00
 1.662504420814838e-01	 1.528485211088482e+00	 1.831328986996685e+00
 1.381511982818319e-01	 1.531280671993094e+00	 1.738639467615035e+00
 1.101915996070264e-01	 1.533546237118513e+00	 1.671832507348486e+00
 8.238455113872716e-02	 1.535291189232917e+00	 1.630594848320417e+00
 5.474244286740446e-02	 1.536525142960601e+00	 1.614536917597363e+00
 2.727714417981305e-02	 1.537258015885981e+00	 1.623197313292736e+00
 0.000000000000000e+00	 1.537500000000000e+00	 1.656047480883837e+00
 2.820427312489330e-01	 1.524123321049998e+00	 2.516639136573859e+00
 2.532921094750855e-01	 1.529164185852748e+00	 2.327151211291400e+00
 2.246252080004902e-01	 1.533637348249418e+00	 2.161956465032173e+00
 1.960570230825197e-01	 1.537550533710115e+00	 2.021102691100554e+00
 1.676020716913713e-01	 1.540911920122102e+00	 1.904551263097702e+00
 1.392743787550988e-01	 1.543730108351024e+00	 1.812180132101744e+00
 1.110874662699430e-01	 1.546014092705009e+00	 1.743787183815206e+00
 8.305434423692580e-02	 1.547773231421895e+00	 1.699093913718894e+00
 5.518750337814630e-02	 1.549017217293655e+00	 1.677749377852926e+00
 2.749890957943743e-02	 1.549756048535470e+00	 1.679334376898786e+00
 0.000000000000000e+00	 1.550000000000000e+00	 1.703365831732788e+00
 2.843172694043264e-01	 1.536414638155826e+00	 2.568936039788132e+00
 2.553347877772101e-01	 1.541496155093969e+00	 2.387381339516260e+00
 2.264367016131050e-01	 1.546005391380833e+00	 2.228156530495066e+00
 1.976381281069424e-01	 1.549950134788705e+00	 2.091325531195456e+00
 1.689537013012588e-01	 1.553338629155550e+00	 1.976870815931182e+00
 1.403975592283656e-01	 1.556179544708835e+00	 1.884696125699124e+00
 1.119833329328596e-01	 1.558481948291430e+00	 1.814629533485741e+00
 8.372413733512445e-02	 1.560255273610832e+00	 1.766426823945407e+00
 5.563256388888813e-02	 1.561509291626691e+00	 1.739775146845542e+00
 2.772067497906182e-02	 1.562254081184955e+00	 1.734296903617715e+00
 0.000000000000000e+00	 1.562500000000000e+00	 1.749553826744770e+00
 2.865918075597200e-01	 1.548705955261170e+00	 2.621170243160238e+00
 2.573774660793346e-01	 1.553828124334798e+00	 2.447291322404445e+00
 2.282481952257197e-01	 1.558373434511941e+00	 2.293813633983073e+00
 1.992192331313650e-01	 1.562349735867061e+00	 2.160817090924288e+00
 1.703053309111463e-01	 1.565765338188829e+00	 2.048305051669798e+00
 1.415207397016324e-01	 1.568628981066530e+00	 1.956206748216096e+00
 1.128791995957761e-01	 1.570949803877776e+00	 1.884380063465774e+00
 8.439393043332308e-02	 1.572737315799727e+00	 1.832614619528632e+00
 5.607762439962997e-02	 1.574001365959708e+00	 1.800635138101912e+00
 2.794244037868620e-02	 1.574752113834436e+00	 1.788105033903687e+00
 0.000000000000000e+00	 1.575000000000000e+00	 1.794630202412437e+00
 2.888663457151135e-01	 1.560997272366028e+00	 2.673344570041341e+00
 2.594201443814593e-01	 1.566160093575237e+00	 2.506888553371679e+00
 2.300596888383345e-01	 1.570741477642742e+00	 2.358939038386553e+00
 2.008003381557876e-01	 1.574749336945183e+00	 2.229591809614614e+00
 1.716569605210337e-01	 1.578192047221936e+00	 2.118870901836941e+00
 1.426439201748993e-01	 1.581078417424107e+00	 2.026730749097805e+00
 1.137750662586927e-01	 1.583417659464048e+00	 1.953058677912439e+00
 8.506372353152170e-02	 1.585219357988580e+00	 1.897677708213940e+00
 5.652268491037181e-02	 1.586493440292707e+00	 1.860349624864237e+00
 2.816420577831059e-02	 1.587250146483912e+00	 1.840778282306925e+00
 0.000000000000000e+00	 1.587500000000000e+00	 1.838613105102685e+00
 2.911408838705071e-01	 1.573288589470401e+00	 2.725461906834120e+00
 2.614628226835839e-01	 1.578492062815286e+00	 2.566180324396509e+00
 2.318711824509493e-01	 1.583109520773236e+00	 2.423543763939853e+00
 2.023814431802102e-01	 1.587148938023073e+00	 2.297663765794176e+00
 1.730085901309212e-01	 1.590618756254874e+00	 2.188584841847966e+00
 1.437671006481662e-01	 1.593527853781566e+00	 2.096286348924022e+00
 1.146709329216093e-01	 1.595885515050245e+00	 2.020684701586966e+00
 8.573351662972034e-02	 1.597701400177391e+00	 1.961635889681597e+00
 5.696774542111365e-02	 1.598985514625687e+00	 1.918938265101514e+00
 2.838597117793497e-02	 1.599748179133383e+00	 1.892335561923036e+00
 0.000000000000000e+00	 1.600000000000000e+00	 1.881520114108429e+00
 2.934154220259006e-01	 1.585579906574289e+00	 2.777525200548498e+00
 2.635055009857086e-01	 1.590824032054943e+00	 2.625173829951948e+00
 2.336826760635642e-01	 1.595477563903424e+00	 2.487638597625760e+00
 2.039625482046329e-01	 1.599548539100729e+00	 2.365046691174978e+00
 1.743602197408086e-01	 1.603045465287642e+00	 2.257462908688133e+00
 1.448902811214330e-01	 1.605977290138907e+00	 2.164891259908681e+00
 1.155667995845258e-01	 1.608353370636367e+00	 2.087276902311687e+00
 8.640330972791899e-02	 1.610183442366161e+00	 2.024508379115224e+00
 5.741280593185549e-02	 1.611477588958649e+00	 1.976420125357289e+00
 2.860773657755936e-02	 1.612246211782850e+00	 1.942795207705715e+00
 0.000000000000000e+00	 1.612500000000000e+00	 1.923368263628277e+00
 2.956899601812942e-01	 1.597871223677692e+00	 2.829537456470958e+00
 2.655481792878332e-01	 1.603156001294210e+00	 2.683876170755529e+00
 2.354941696761790e-01	 1.607845607033304e+00	 2.551234102147479e+00
 2.055436532290555e-01	 1.611948140178152e+00	 2.431753983992528e+00
 1.757118493506961e-01	 1.615472174320239e+00	 2.325520717775867e+00
 1.460134615946999e-01	 1.618426726496131e+00	 2.232562705451252e+00
 1.164626662474424e-01	 1.620821226222415e+00	 2.152853512390949e+00
 8.707310282611763e-02	 1.622665484554889e+00	 2.086313829682212e+00
 5.785786644259734e-02	 1.623969663291593e+00	 2.032813703496922e+00
 2.882950197718375e-02	 1.624744244432313e+00	 1.992174998702422e+00
 0.000000000000000e+00	 1.625000000000000e+00	 1.964174063731631e+00
 1.625000000000000e+00	 0.000000000000000e+00	 1.264009349949879e+01
 1.624744244432312e+00	 2.882950197718282e-02	 1.271122847702238e+01
 1.623969663291593e+00	 5.785786644259652e-02	 1.276178082608945e+01
 1.622665484554890e+00	 8.707310282611692e-02	 1.279244582747164e+01
 1.620821226222414e+00	 1.164626662474418e-01	 1.280397385112611e+01
 1.618426726496131e+00	 1.460134615946994e-01	 1.279717186560976e+01
 1.615472174320238e+00	 1.757118493506957e-01	 1.277290490271290e+01
 1.611948140178151e+00	 2.055436532290552e-01	 1.273209745845437e+01
 1.607845607033305e+00	 2.354941696761788e-01	 1.267573480928543e+01
 1.603156001294210e+00	 2.655481792878331e-01	 1.260486422007406e+01
 1.597871223677692e+00	 2.956899601812942e-01	 1.252059601822596e+01
 1.637500000000000e+00	 0.000000000000000e+00	 1.259368992819853e+01
 1.637242277081775e+00	 2.905126737680721e-02	 1.266387009376195e+01
 1.636461737624536e+00	 5.830292695333835e-02	 1.271383476659901e+01
 1.635147526743617e+00	 8.774289592431556e-02	 1.274426989797792e+01
 1.633289081808462e+00	 1.173585329103583e-01	 1.275591525317944e+01
 1.630876162853355e+00	 1.471366420679662e-01	 1.274956597385779e+01
 1.627898883352835e+00	 1.770634789605832e-01	 1.272607410741817e+01
 1.624347741255574e+00	 2.071247582534779e-01	 1.268635008461183e+01
 1.620213650163185e+00	 2.373056632887935e-01	 1.263136412413076e+01
 1.615487970533477e+00	 2.675908575899578e-01	 1.256214754057483e+01
 1.610162540781094e+00	 2.979644983366877e-01	 1.247979392980909e+01
 1.650000000000000e+00	 0.000000000000000e+00	 1.255188662941206e+01
 1.649740309731242e+00	 2.927303277643158e-02	 1.262095998915306e+01
 1.648953811957498e+00	 5.874798746408018e-02	 1.267018405595102e+01
 1.647629568932387e+00	 8.841268902251417e-02	 1.270023537012291e+01
 1.645756937394584e+00	 1.182543995732749e-01	 1.271184300718432e+01
 1.643325599210696e+00	 1.482598225412330e-01	 1.270579019438557e+01
 1.640325592385603e+00	 1.784151085704706e-01	 1.268291590619341e+01
 1.636747342333229e+00	 2.087058632779004e-01	 1.264411641997480e+01
 1.632581693293372e+00	 2.391171569014083e-01	 1.259034681059350e+01
 1.627819939773135e+00	 2.696335358920823e-01	 1.252262236008612e+01
 1.622453857884982e+00	 3.002390364920812e-01	 1.244201985608699e+01
 1.662500000000000e+00	 0.000000000000000e+00	 1.251452424413985e+01
 1.662238342380713e+00	 2.949479817605596e-02	 1.258234455500379e+01
 1.661445886290478e+00	 5.919304797482201e-02	 1.263068092135863e+01
 1.660111611121198e+00	 8.908248212071281e-02	 1.266020038177402e+01
 1.658224792980781e+00	 1.191502662361914e-01	 1.267162122706220e+01
 1.655775035568156e+00	 1.493830030144999e-01	 1.266571467223631e+01
 1.652752301418540e+00	 1.797667381803581e-01	 1.264330651947895e+01
 1.649146943411119e+00	 2.102869683023231e-01	 1.260527879342882e+01
 1.644949736423866e+00	 2.409286505140231e-01	 1.255257132741943e+01
 1.640151909013183e+00	 2.716762141942070e-01	 1.248618327662255e+01
 1.634745174989355e+00	 3.025135746474747e-01	 1.240717453140816e+01
 1.675000000000000e+00	 0.000000000000000e+00	 1.248144817036746e+01
 1.674736375030189e+00	 2.971656357568033e-02	 1.254787483698738e+01
 1.673937960623477e+00	 5.963810848556386e-02	 1.259518213887212e+01
 1.672593653310052e+00	 8.975227521891144e-02	 1.262402751281889e+01
 1.670692648567052e+00	 1.200461328991080e-01	 1.263511836027627e+01
 1.668224471925732e+00	 1.505061834877667e-01	 1.262921377599020e+01
 1.665179010451648e+00	 1.811183677902456e-01	 1.260712627986392e+01
 1.661546544489242e+00	 2.118680733267457e-01	 1.256972353338707e+01
 1.657317779554668e+00	 2.427401441266379e-01	 1.251793001918566e+01
 1.652483878253622e+00	 2.737188924963316e-01	 1.245272865942385e+01
 1.647036492094213e+00	 3.047881128028683e-01	 1.237516234600194e+01
 1.687500000000000e+00	 0.000000000000000e+00	 1.245250838688083e+01
 1.687234407679670e+00	 2.993832897530471e-02	 1.251740636227679e+01
 1.686430034956494e+00	 6.008316899630568e-02	 1.256354886490329e+01
 1.685075695498947e+00	 9.042206831711005e-02	 1.259158362064606e+01
 1.683160504153399e+00	 1.209419995620246e-01	 1.260220702733003e+01
 1.680673908283426e+00	 1.516293639610336e-01	 1.259616594133726e+01
 1.677605719484926e+00	 1.824699974001330e-01	 1.257425947978452e+01
 1.673946145567598e+00	 2.134491783511683e-01	 1.253734081965976e+01
 1.669685822685775e+00	 2.445516377392527e-01	 1.248631897238107e+01
 1.664815847494452e+00	 2.757615707984562e-01	 1.242216050927991e+01
 1.659327809199556e+00	 3.070626509582619e-01	 1.234589121057544e+01
 1.700000000000000e+00	 0.000000000000000e+00	 1.242755928485457e+01
 1.699732440329154e+00	 3.016009437492909e-02	 1.249079897478380e+01
 1.698922109289530e+00	 6.052822950704752e-02	 1.253564647518291e+01
 1.697557737687883e+00	 9.109186141530867e-02	 1.256273968288382e+01
 1.695628359739820e+00	 1.218378662249411e-01	 1.257276386834651e+01
 1.693123344641237e+00	 1.527525444343004e-01	 1.256645352155110e+01
 1.690032428518375e+00	 1.838216270100204e-01	 1.254459422594136e+01
 1.686345746646188e+00	 2.150302833755909e-01	 1.250802454185863e+01
 1.682053865817190e+00	 2.463631313518675e-01	 1.245763787783601e+01
 1.677147816735672e+00	 2.778042491005809e-01	 1.239438432501786e+01
 1.671619126305386e+00	 3.093371891136554e-01	 1.231927242688429e+01
 1.712500000000000e+00	 0.000000000000000e+00	 1.240645950681587e+01
 1.712230472978644e+00	 3.038185977455347e-02	 1.246791667761371e+01
 1.711414183622584e+00	 6.097329001778935e-02	 1.251134441077090e+01
 1.710039779876862e+00	 9.176165451350732e-02	 1.253737064702673e+01
 1.708096215326316e+00	 1.227337328878577e-01	 1.254666939636700e+01
 1.705572780999167e+00	 1.538757249075673e-01	 1.253996264451146e+01
 1.702459137551995e+00	 1.851732566199080e-01	 1.251802230009272e+01
 1.698745347725011e+00	 2.166113884000136e-01	 1.248167216400275e+01
 1.694421908948913e+00	 2.481746249644823e-01	 1.243178989917695e+01
 1.689479785977284e+00	 2.798469274027054e-01	 1.236930897583649e+01
 1.683910443411700e+00	 3.116117272690490e-01	 1.229522056397166e+01
 1.725000000000000e+00	 0.000000000000000e+00	 1.238907179260993e+01
 1.724728505628139e+00	 3.060362517417785e-02	 1.244862748236996e+01
 1.723906257955657e+00	 6.141835052853120e-02	 1.249051603076181e+01
 1.722521822065882e+00	 9.243144761170595e-02	 1.251535528659959e+01
 1.720564070912886e+00	 1.236295995507742e-01	 1.252380785702782e+01
 1.718022217357214e+00	 1.549989053808341e-01	 1.251658307594313e+01
 1.714885846585785e+00	 1.865248862297954e-01	 1.249443902590029e+01
 1.711144948804068e+00	 2.181924934244362e-01	 1.245818459501096e+01
 1.706789952080941e+00	 2.499861185770972e-01	 1.240868154700052e+01
 1.701811755219286e+00	 2.818896057048301e-01	 1.234684657919137e+01
 1.696201760518499e+00	 3.138862654244425e-01	 1.227365333978839e+01
 1.737499999999999e+00	 0.000000000000000e+00	 1.237526283201446e+01
 1.737226538277637e+00	 3.082539057380222e-02	 1.243280326496351e+01
 1.736398332288748e+00	 6.186341103927302e-02	 1.247303847134834e+01
 1.735003864254944e+00	 9.310124070990457e-02	 1.249657606353069e+01
 1.733031926499532e+00	 1.245254662136908e-01	 1.250406709429431e+01
 1.730471653715378e+00	 1.561220858541010e-01	 1.249620808855824e+01
 1.727312555619745e+00	 1.878765158396829e-01	 1.247374314152264e+01
 1.723544549883358e+00	 2.197735984488587e-01	 1.243746606478469e+01
 1.719157995213276e+00	 2.517976121897119e-01	 1.238822255847899e+01
 1.714143724461679e+00	 2.839322840069546e-01	 1.232691238395100e+01
 1.708493077625785e+00	 3.161608035798360e-01	 1.225449150792280e+01
 1.750000000000000e+00	 0.000000000000000e+00	 1.236490312367070e+01
 1.749724570927141e+00	 3.104715597342660e-02	 1.242031962760192e+01
 1.748890406621857e+00	 6.230847155001488e-02	 1.245879251092495e+01
 1.747485906444049e+00	 9.377103380810323e-02	 1.248091899642304e+01
 1.745499782086252e+00	 1.254213328766073e-01	 1.248733842194916e+01
 1.742921090073661e+00	 1.572452663273678e-01	 1.247873433680665e+01
 1.739739264653876e+00	 1.892281454495704e-01	 1.245583667766881e+01
 1.735944150962882e+00	 2.213547034732815e-01	 1.241942400560140e+01
 1.731526038345919e+00	 2.536091058023268e-01	 1.237032578212529e+01
 1.726475693704463e+00	 2.859749623090794e-01	 1.230942465856072e+01
 1.720784394733555e+00	 3.184353417352296e-01	 1.223765874918515e+01
 1.597871223677692e+00	 2.956899601812942e-01	 1.252059601822596e+01
 1.591983679838119e+00	 3.259033033559543e-01	 1.255134087280803e+01
 1.585486310625523e+00	 3.561715300634776e-01	 1.256461808208508e+01
 1.578372621830225e+00	 3.864775112013996e-01	 1.256091107926212e+01
 1.570636713267633e+00	 4.168036887336729e-01	 1.254076756293404e+01
 1.562273307054313e+00	 4.471320991271141e-01	 1.250480258431980e+01
 1.553277774923845e+00	 4.774443987833438e-01	 1.245370142619117e+01
 1.543646164429884e+00	 5.077218914329503e-01	 1.238822222317072e+01
 1.533375223883753e+00	 5.379455574460040e-01	 1.230919827174616e+01
 1.522462425874856e+00	 5.680960850001699e-01	 1.221753997765556e+01
 1.510905989224438e+00	 5.981539030346663e-01	 1.211423638829969e+01
 1.610162540781094e+00	 2.979644983366877e-01	 1.247979392980909e+01
 1.604229708142434e+00	 3.284102518436999e-01	 1.250832281607364e+01
 1.597682359166444e+00	 3.589113110645371e-01	 1.251991209079970e+01
 1.590513949687990e+00	 3.894504151344069e-01	 1.251504713183960e+01
 1.582718534136446e+00	 4.200098709554452e-01	 1.249427691599527e+01
 1.574290794029277e+00	 4.505715768134433e-01	 1.245821717321604e+01
 1.565226065498014e+00	 4.811170480054174e-01	 1.240755333758133e+01
 1.555520365692882e+00	 5.116274444444987e-01	 1.234304324390579e+01
 1.545170417912212e+00	 5.420836001959101e-01	 1.226551951738136e+01
 1.534173675303793e+00	 5.724660548848370e-01	 1.217589160288979e+01
 1.522528342987494e+00	 6.027550869038752e-01	 1.207514738054532e+01
 1.622453857884982e+00	 3.002390364920812e-01	 1.244201985608699e+01
 1.616475736447324e+00	 3.309172003314502e-01	 1.246829270008730e+01
 1.609878407708013e+00	 3.616510920656152e-01	 1.247814801562434e+01
 1.602655277546456e+00	 3.924233190674569e-01	 1.247207280076162e+01
 1.594800355005993e+00	 4.232160531772940e-01	 1.245061700322511e+01
 1.586308281004989e+00	 4.540110544998922e-01	 1.241439674473190e+01
 1.577174356072925e+00	 4.847896972276646e-01	 1.236409734721878e+01
 1.567394566956594e+00	 5.155329974562836e-01	 1.230047610894383e+01
 1.556965611941338e+00	 5.462216429461266e-01	 1.222436477691286e+01
 1.545884924733330e+00	 5.768360247698988e-01	 1.213667166121212e+01
 1.534150696751060e+00	 6.073562707735738e-01	 1.203838333667838e+01
 1.634745174989355e+00	 3.025135746474747e-01	 1.240717453140816e+01
 1.628721764752790e+00	 3.334241488192052e-01	 1.243115455834849e+01
 1.622074456250230e+00	 3.643908730667124e-01	 1.243923325570286e+01
 1.614796605405623e+00	 3.953962230005494e-01	 1.243189891043794e+01
 1.606882175876277e+00	 4.264222353992188e-01	 1.240970212681062e+01
 1.598325767981450e+00	 4.574505321864608e-01	 1.237325912402225e+01
 1.589122646648578e+00	 4.884623464500846e-01	 1.232325484091581e+01
 1.579268768221021e+00	 5.194385504683054e-01	 1.226044579479501e+01
 1.568760805971133e+00	 5.503596856966543e-01	 1.218566263982534e+01
 1.557596174163466e+00	 5.812059946553559e-01	 1.209981236951507e+01
 1.545773050515137e+00	 6.119574546437619e-01	 1.200388010754592e+01
 1.647036492094213e+00	 3.047881128028683e-01	 1.237516234600194e+01
 1.640967793058833e+00	 3.359310973069648e-01	 1.239681604856076e+01
 1.634270504793095e+00	 3.671306540678284e-01	 1.240307879949680e+01
 1.626937933265491e+00	 3.983691269336848e-01	 1.239443983650488e+01
 1.618963996747293e+00	 4.296284176212197e-01	 1.237145009888135e+01
 1.610343254958658e+00	 4.608900098731490e-01	 1.233472560172802e+01
 1.601070937224973e+00	 4.921349956726779e-01	 1.228495062237005e+01
 1.591142969486164e+00	 5.233441034805641e-01	 1.222288064514635e+01
 1.580556000001596e+00	 5.544977284474926e-01	 1.214934500900905e+01
 1.569307423594202e+00	 5.855759645412079e-01	 1.206524920131604e+01
 1.557395404279724e+00	 6.165586385144400e-01	 1.197157674089161e+01
 1.659327809199556e+00	 3.070626509582619e-01	 1.234589121057544e+01
 1.653213821365451e+00	 3.384380457947292e-01	 1.236518831840186e+01
 1.646466553336608e+00	 3.698704350689632e-01	 1.236959909184783e+01
 1.639079261126060e+00	 4.013420308668626e-01	 1.235961337429834e+01
 1.631045817619043e+00	 4.328345998432970e-01	 1.233578211151163e+01
 1.622360741936615e+00	 4.643294875599568e-01	 1.229872080562487e+01
 1.613019227802109e+00	 4.958076448954443e-01	 1.224911278657611e+01
 1.603017170752021e+00	 5.272496564930599e-01	 1.218771224615152e+01
 1.592351194032726e+00	 5.586357711986414e-01	 1.211534697804121e+01
 1.581018673025537e+00	 5.899459344274548e-01	 1.203292076614165e+01
 1.569017758044822e+00	 6.211598223856076e-01	 1.194141536295225e+01
 1.671619126305386e+00	 3.093371891136554e-01	 1.231927242688429e+01
 1.665459849672645e+00	 3.409449942824981e-01	 1.233618587721594e+01
 1.658662601880769e+00	 3.726102160701169e-01	 1.233871190690487e+01
 1.651220588987329e+00	 4.043149348000832e-01	 1.232734061312956e+01
 1.643127638491529e+00	 4.360407820654503e-01	 1.230262261245772e+01
 1.634378228915319e+00	 4.677689652468843e-01	 1.226517257793440e+01
 1.624967518379987e+00	 4.994802941183839e-01	 1.221567259882202e+01
 1.614891372018594e+00	 5.311552095057921e-01	 1.215487530722246e+01
 1.604146388064525e+00	 5.627738139501012e-01	 1.208360671388125e+01
 1.592729922457472e+00	 5.943159043140966e-01	 1.200276869423331e+01
 1.580640111810430e+00	 6.257610062572652e-01	 1.191334106527780e+01
 1.683910443411700e+00	 3.116117272690490e-01	 1.229522056397166e+01
 1.677705877980416e+00	 3.434519427702719e-01	 1.230972647332498e+01
 1.670858650425578e+00	 3.753499970712894e-01	 1.231033822661651e+01
 1.663361916849300e+00	 4.072878387333462e-01	 1.229754581606711e+01
 1.655209459364748e+00	 4.392469642876800e-01	 1.227189918633743e+01
 1.646395715894772e+00	 4.712084429339317e-01	 1.223401185800865e+01
 1.636915808958608e+00	 5.031529433414967e-01	 1.218456437898509e+01
 1.626765573285881e+00	 5.350607625187611e-01	 1.212430754704189e+01
 1.615941582096990e+00	 5.669118567018717e-01	 1.205406534470356e+01
 1.604441171890006e+00	 5.986858742011337e-01	 1.197473752630206e+01
 1.592262465576548e+00	 6.303621901294124e-01	 1.188730179650835e+01
 1.696201760518499e+00	 3.138862654244425e-01	 1.227365333978839e+01
 1.689951906288762e+00	 3.459588912580502e-01	 1.228573097667452e+01
 1.683054698971034e+00	 3.780897780724807e-01	 1.228440212450647e+01
 1.675503244711972e+00	 4.102607426666521e-01	 1.227015630494558e+01
 1.667291280238703e+00	 4.424531465099858e-01	 1.224354244097566e+01
 1.658413202874972e+00	 4.746479206210985e-01	 1.220517257011520e+01
 1.648864099537969e+00	 5.068255925647827e-01	 1.215572539085836e+01
 1.638639774553884e+00	 5.389663155319671e-01	 1.209594958453177e+01
 1.627736776130124e+00	 5.710498994539528e-01	 1.202666685260724e+01
 1.616152421323140e+00	 6.030558440885657e-01	 1.194877460807686e+01
 1.603884819343176e+00	 6.349633740020493e-01	 1.186324825885628e+01
 1.708493077625785e+00	 3.161608035798360e-01	 1.225449150792280e+01
 1.702197934597685e+00	 3.484658397458333e-01	 1.226412326654503e+01
 1.695250747517139e+00	 3.808295590736910e-01	 1.226083065446579e+01
 1.687644572575343e+00	 4.132336466000003e-01	 1.224510235033811e+01
 1.679373101113391e+00	 4.456593287323678e-01	 1.221748589865594e+01
 1.670430689855921e+00	 4.780873983083849e-01	 1.217859151606607e+01
 1.660812390118072e+00	 5.104982417882418e-01	 1.212909573625445e+01
 1.650513975822603e+00	 5.428718685454100e-01	 1.206974483452811e+01
 1.639531970163926e+00	 5.751879422063448e-01	 1.200135797095675e+01
 1.627863670756874e+00	 6.074258139763927e-01	 1.192482998940463e+01
 1.615507173110314e+00	 6.395645578751757e-01	 1.184113380905702e+01
 1.720784394733555e+00	 3.184353417352296e-01	 1.223765874918515e+01
 1.714443962907183e+00	 3.509727882336210e-01	 1.224483012407568e+01
 1.707446796063893e+00	 3.835693400749201e-01	 1.223955374431113e+01
 1.699785900439417e+00	 4.162065505333916e-01	 1.222231706624426e+01
 1.691454921988814e+00	 4.488655109548259e-01	 1.219366589203268e+01
 1.682448176837619e+00	 4.815268759957912e-01	 1.215420827244839e+01
 1.672760680698918e+00	 5.141708910118742e-01	 1.210461825364759e+01
 1.662388177092036e+00	 5.467774215590895e-01	 1.204563940792692e+01
 1.651327164198396e+00	 5.793259849590476e-01	 1.197808808612259e+01
 1.639574920191208e+00	 6.117957838646149e-01	 1.190285632767463e+01
 1.627129526877964e+00	 6.441657417487923e-01	 1.182091436356457e+01
 1.510905989224438e+00	 5.981539030346663e-01	 1.211423638829969e+01
 1.498704899226502e+00	 6.280992159053116e-01	 1.206188290571368e+01
 1.485858926034374e+00	 6.579120396427700e-01	 1.200694254293135e+01
 1.472368641057263e+00	 6.875722397034166e-01	 1.195093409209397e+01
 1.458235431238258e+00	 7.170595700900936e-01	 1.189543684032508e+01
 1.443461511093458e+00	 7.463537137077204e-01	 1.184208761002277e+01
 1.428049932401566e+00	 7.754343238075454e-01	 1.179257717648010e+01
 1.412004591443889e+00	 8.042810663631879e-01	 1.174864604615415e+01
 1.395330233706523e+00	 8.328736632118814e-01	 1.171207958532070e+01
 1.378032455969274e+00	 8.611919357855460e-01	 1.168470249586576e+01
 1.360117705719598e+00	 8.892158492486488e-01	 1.166837264249615e+01
 1.522528342987494e+00	 6.027550869038752e-01	 1.207514738054532e+01
 1.510233398451768e+00	 6.329307483347351e-01	 1.202702723464519e+01
 1.497288610081763e+00	 6.629729014853188e-01	 1.197604691750586e+01
 1.483694553682143e+00	 6.928612569308974e-01	 1.192364357286813e+01
 1.469452626864788e+00	 7.225754129358748e-01	 1.187131622218427e+01
 1.454565061180536e+00	 7.520948961198251e-01	 1.182062323664666e+01
 1.439034931883308e+00	 7.813992032205446e-01	 1.177317918179407e+01
 1.422866165225804e+00	 8.104678437960667e-01	 1.173065101447825e+01
 1.406063543197860e+00	 8.392803836977581e-01	 1.169475361838875e+01
 1.388632705631432e+00	 8.678164891377840e-01	 1.166724467138855e+01
 1.370580149610033e+00	 8.960559711664935e-01	 1.164991884552857e+01
 1.534150696751060e+00	 6.073562707735738e-01	 1.203838333667838e+01
 1.521761897677453e+00	 6.377622807647338e-01	 1.199391829204357e+01
 1.508718294129500e+00	 6.680337633284998e-01	 1.194632173806824e+01
 1.495020466307320e+00	 6.981502741590380e-01	 1.189695010677287e+01
 1.480669822491582e+00	 7.280912557823142e-01	 1.184722312628985e+01
 1.465668611267865e+00	 7.578360785325557e-01	 1.179862172314583e+01
 1.450019931365309e+00	 7.873640826341082e-01	 1.175268529206063e+01
 1.433727739008006e+00	 8.166546212294172e-01	 1.171100830950084e+01
 1.416796852689532e+00	 8.456871041839829e-01	 1.167523627364208e+01
 1.399232955293995e+00	 8.744410424902175e-01	 1.164706096049311e+01
 1.381042593500962e+00	 9.028960930843489e-01	 1.162821499363790e+01
 1.545773050515137e+00	 6.119574546437619e-01	 1.200388010754592e+01
 1.533290396903557e+00	 6.425938131953080e-01	 1.196250609020507e+01
 1.520147978177585e+00	 6.730946251723129e-01	 1.191773094363424e+01
 1.506346378932792e+00	 7.034392913878383e-01	 1.187083129558693e+01
 1.491887018118640e+00	 7.336070986294112e-01	 1.182314852434815e+01
 1.476772161355447e+00	 7.635772609459125e-01	 1.177608708990459e+01
 1.461004930847569e+00	 7.933289620482357e-01	 1.173111222725987e+01
 1.444589312790497e+00	 8.228413986632396e-01	 1.168974697458020e+01
 1.427530162181541e+00	 8.520938246705574e-01	 1.165356851527551e+01
 1.409833204956963e+00	 8.810655958428456e-01	 1.162420382026754e+01
 1.391505037392386e+00	 9.097362150022149e-01	 1.160332458449109e+01
 1.557395404279724e+00	 6.165586385144400e-01	 1.197157674089161e+01
 1.544818896130082e+00	 6.474253456264577e-01	 1.193274346142338e+01
 1.531577662226018e+00	 6.781554870167580e-01	 1.189024092025152e+01
 1.517672291558561e+00	 7.087283086172986e-01	 1.184526681981616e+01
 1.503104213745963e+00	 7.391229414771657e-01	 1.179908510387670e+01
 1.487875711443280e+00	 7.693184433598950e-01	 1.175302471631838e+01
 1.471989930330090e+00	 7.992938414629270e-01	 1.170847771642165e+01
 1.455450886573275e+00	 8.290281760975334e-01	 1.166689671971800e+01
 1.438263471673887e+00	 8.585005451574800e-01	 1.162979163998281e+01
 1.420433454620336e+00	 8.876901491956692e-01	 1.159872571511171e+01
 1.401967481284305e+00	 9.165763369200914e-01	 1.157531080751774e+01
 1.569017758044822e+00	 6.211598223856076e-01	 1.194141536295225e+01
 1.556347395357026e+00	 6.522568780581823e-01	 1.190458595354532e+01
 1.543007346274800e+00	 6.832163488618352e-01	 1.186382041036886e+01
 1.528998204184627e+00	 7.140173258474188e-01	 1.182023836170361e+01
 1.514321409373551e+00	 7.446387843255788e-01	 1.177502720465580e+01
 1.498979261531365e+00	 7.750596257745035e-01	 1.172944129046022e+01
 1.482974929812870e+00	 8.052587208781824e-01	 1.168480046025347e+01
 1.466312460356341e+00	 8.352149535322990e-01	 1.164248789686885e+01
 1.448996781166568e+00	 8.649072656447517e-01	 1.160394726464198e+01
 1.431033704284114e+00	 8.943147025486877e-01	 1.157067911646650e+01
 1.412429925176719e+00	 9.234164588379790e-01	 1.154423655532627e+01
 1.580640111810430e+00	 6.257610062572652e-01	 1.191334106527780e+01
 1.567875894584390e+00	 6.570884104904827e-01	 1.187799173013437e+01
 1.554437030323932e+00	 6.882772107075451e-01	 1.183844042620380e+01
 1.540324116810989e+00	 7.193063430781983e-01	 1.179572953163634e+01
 1.525538605001402e+00	 7.501546271746492e-01	 1.175097075798342e+01
 1.510082811619702e+00	 7.808008081897383e-01	 1.170534476096734e+01
 1.493959929295910e+00	 8.112236002940020e-01	 1.166010009541699e+01
 1.477174034139694e+00	 8.414017309675366e-01	 1.161655147633893e+01
 1.459730090659585e+00	 8.713139861323719e-01	 1.157607731454373e+01
 1.441633953948298e+00	 9.009392559019015e-01	 1.154011650255495e+01
 1.422892369069628e+00	 9.302565807558768e-01	 1.151016443461645e+01
 1.592262465576548e+00	 6.303621901294124e-01	 1.188730179650835e+01
 1.579404393812174e+00	 6.619199429233585e-01	 1.185292147500648e+01
 1.565866714373410e+00	 6.933380725538867e-01	 1.181407416690425e+01
 1.551650029437647e+00	 7.245953603096378e-01	 1.177172579777511e+01
 1.536755800629518e+00	 7.556704700243774e-01	 1.172691322859077e+01
 1.521186361708292e+00	 7.865419906055987e-01	 1.168074429103535e+01
 1.504944928779209e+00	 8.171884797103856e-01	 1.163439716036912e+01
 1.488035607923336e+00	 8.475885084032455e-01	 1.158911902421861e+01
 1.470463400152938e+00	 8.777207066203410e-01	 1.154622401213558e+01
 1.452234203612885e+00	 9.075638092553103e-01	 1.150709035813474e+01
 1.433354812963030e+00	 9.370967026737852e-01	 1.147315677661401e+01
 1.603884819343176e+00	 6.349633740020493e-01	 1.186324825885628e+01
 1.590932893040378e+00	 6.667514753568098e-01	 1.182933830091666e+01
 1.577296398423238e+00	 6.983989344008606e-01	 1.179069693931208e+01
 1.562975942064603e+00	 7.298843775417372e-01	 1.174821441874371e+01
 1.547972996257898e+00	 7.611863128747637e-01	 1.170285355908303e+01
 1.532289911797133e+00	 7.922831730220851e-01	 1.165565021441246e+01
 1.515929928262769e+00	 8.231533591273329e-01	 1.160771306268827e+01
 1.498897181707264e+00	 8.537752858394262e-01	 1.156022268079596e+01
 1.481196709646628e+00	 8.841274271086590e-01	 1.151442986625528e+01
 1.462834453277879e+00	 9.141883626089145e-01	 1.147165317426142e+01
 1.443817256856928e+00	 9.439368245917042e-01	 1.143327564705162e+01
 1.615507173110314e+00	 6.395645578751757e-01	 1.184113380905702e+01
 1.602461392269001e+00	 6.715830077908362e-01	 1.180720766218702e+01
 1.588726082473415e+00	 7.034597962484670e-01	 1.176828608214658e+01
 1.574301854691855e+00	 7.351733947744963e-01	 1.172518437922399e+01
 1.559190191886543e+00	 7.667021557258078e-01	 1.167879211677839e+01
 1.543393461886226e+00	 7.980243554391976e-01	 1.163007399329325e+01
 1.526914927746587e+00	 8.291182385448446e-01	 1.158007004781101e+01
 1.509758755491481e+00	 8.599620632760784e-01	 1.152989513990213e+01
 1.491930019140653e+00	 8.905341475973255e-01	 1.148073766182895e+01
 1.473434702943277e+00	 9.208129159627136e-01	 1.143385744806182e+01
 1.454279700751320e+00	 9.507769465096340e-01	 1.139058285571899e+01
 1.627129526877964e+00	 6.441657417487923e-01	 1.182091436356457e+01
 1.613989891498045e+00	 6.764145402254381e-01	 1.178649727107938e+01
 1.600155766523939e+00	 7.085206580967053e-01	 1.174682089343759e+01
 1.585627767319404e+00	 7.404624120079153e-01	 1.170262632831072e+01
 1.570407387515452e+00	 7.722179985775097e-01	 1.165473064282553e+01
 1.554497011975571e+00	 8.037655378569363e-01	 1.160402817801700e+01
 1.537899927230667e+00	 8.350831179629202e-01	 1.155149116910856e+01
 1.520620329275986e+00	 8.661488407132029e-01	 1.149816962914207e+01
 1.502663328635016e+00	 8.969408680863412e-01	 1.144519045001092e+01
 1.484034952609081e+00	 9.274374693167079e-01	 1.139375568251731e+01
 1.464742144646208e+00	 9.576170684275745e-01	 1.134513996560369e+01
 1.360117705719598e+00	 8.892158492486488e-01	 1.166837264249615e+01
 1.341593277844827e+00	 9.169255568526578e-01	 1.145665067308314e+01
 1.322467308569620e+00	 9.443014443144191e-01	 1.124457817734614e+01
 1.302748766623323e+00	 9.713241740187775e-01	 1.103304696119111e+01
 1.282447441638377e+00	 9.979747288431313e-01	 1.082300942431999e+01
 1.261573929795459e+00	 1.024234455404330e+00	 1.061547460833307e+01
 1.240139616749326e+00	 1.050085106526311e+00	 1.042845998939169e+01
 1.218156657885667e+00	 1.075508882729801e+00	 1.026076529311180e+01
 1.195637955975838e+00	 1.100488472549222e+00	 1.009007915802806e+01
 1.172597136312511e+00	 1.125007091487334e+00	 9.915998835209441e+00
 1.149048519425000e+00	 1.149048519425000e+00	 9.738077176242491e+00
 1.370580149610033e+00	 8.960559711664935e-01	 1.164991884552857e+01
 1.351913226135645e+00	 9.239788303679526e-01	 1.143164588353722e+01
 1.332640134019405e+00	 9.515653015797990e-01	 1.121547265493552e+01
 1.312769910980884e+00	 9.787958984359916e-01	 1.100246687321538e+01
 1.292312421957389e+00	 1.005651457528369e+00	 1.079375084078377e+01
 1.271278344638683e+00	 1.032113181986217e+00	 1.059049669427515e+01
 1.249679152261479e+00	 1.058162684270582e+00	 1.039449245558535e+01
 1.227527093714434e+00	 1.083782027983117e+00	 1.024097188860488e+01
 1.204835171020993e+00	 1.108953768493124e+00	 1.008805092383729e+01
 1.181617114283771e+00	 1.133660992191846e+00	 9.935416869671837e+00
 1.157887354190000e+00	 1.157887354190000e+00	 9.782698729246260e+00
 1.381042593500962e+00	 9.028960930843489e-01	 1.162821499363790e+01
 1.362233174427042e+00	 9.310321038830772e-01	 1.140420164618698e+01
 1.342812959469824e+00	 9.588291588448681e-01	 1.118470245878529e+01
 1.322791055339106e+00	 9.862676228527927e-01	 1.097095954250527e+01
 1.302177402277060e+00	 1.013328186213132e+00	 1.076426370880533e+01
 1.280982759482529e+00	 1.039991908567609e+00	 1.056594891779413e+01
 1.259218687774190e+00	 1.066240262014375e+00	 1.037738602539285e+01
 1.236897529543666e+00	 1.092055173236013e+00	 1.022166121381596e+01
 1.214032386066488e+00	 1.117419064436706e+00	 1.008711864933998e+01
 1.190637092255217e+00	 1.142314892896179e+00	 9.956513365433977e+00
 1.166726188955000e+00	 1.166726188955000e+00	 9.829549244383522e+00
 1.391505037392386e+00	 9.097362150022149e-01	 1.160332458449109e+01
 1.372553122719020e+00	 9.380853773980324e-01	 1.137436217547140e+01
 1.352985784920880e+00	 9.660930161096258e-01	 1.115229311684589e+01
 1.332812199697990e+00	 9.937393472691818e-01	 1.093853244745712e+01
 1.312042382597387e+00	 1.021004914897422e+00	 1.073453813329543e+01
 1.290687174326999e+00	 1.047870635148505e+00	 1.054180472430374e+01
 1.268758223287460e+00	 1.074317839757692e+00	 1.036185632585021e+01
 1.246267965373361e+00	 1.100328318488492e+00	 1.020267781074642e+01
 1.223229601112323e+00	 1.125884360379969e+00	 1.008711318514538e+01
 1.199657070226847e+00	 1.150968793600331e+00	 9.979106548236334e+00
 1.175565023720000e+00	 1.175565023720000e+00	 9.878435413533891e+00
 1.401967481284305e+00	 9.165763369200914e-01	 1.157531080751774e+01
 1.382873071011578e+00	 9.451386509128173e-01	 1.134217196333717e+01
 1.363158610372572e+00	 9.733568733740730e-01	 1.111827099860049e+01
 1.342833344057535e+00	 1.001211071685158e+00	 1.090519444910960e+01
 1.321907362918373e+00	 1.028681643581236e+00	 1.070456611885449e+01
 1.300391589172092e+00	 1.055749361728905e+00	 1.051803995080102e+01
 1.278297758801289e+00	 1.082395417500530e+00	 1.034729222742096e+01
 1.255638401203523e+00	 1.108601463740551e+00	 1.019401314823914e+01
 1.232426816158497e+00	 1.134349656322913e+00	 1.008786908816917e+01
 1.208677048198662e+00	 1.159622694304304e+00	 1.000301873169723e+01
 1.184403858485000e+00	 1.184403858485000e+00	 9.929168368357104e+00
 1.412429925176719e+00	 9.234164588379790e-01	 1.154423655532627e+01
 1.393193019304716e+00	 9.521919244274326e-01	 1.130767576896059e+01
 1.373331435824899e+00	 9.806207306382088e-01	 1.108266328389710e+01
 1.352854488417742e+00	 1.008682796100722e+00	 1.087095573993454e+01
 1.331772343240015e+00	 1.036358372264577e+00	 1.067434149941410e+01
 1.310096004017809e+00	 1.063628088308809e+00	 1.049463273728891e+01
 1.287837294315678e+00	 1.090472995242892e+00	 1.033365687531936e+01
 1.265008837034148e+00	 1.116874608992193e+00	 1.019324741307418e+01
 1.241624031205012e+00	 1.142814952265537e+00	 1.008922448436289e+01
 1.217697026170662e+00	 1.168276595008097e+00	 1.002807616590940e+01
 1.193242693250000e+00	 1.193242693250000e+00	 9.981563515856518e+00
 1.422892369069628e+00	 9.302565807558768e-01	 1.151016443461645e+01
 1.403512967598433e+00	 9.592451979418776e-01	 1.127091860892299e+01
 1.383504261277862e+00	 9.878845879020337e-01	 1.104549793315574e+01
 1.362875632778610e+00	 1.016154520515873e+00	 1.083582779488730e+01
 1.341637323562315e+00	 1.044035100947443e+00	 1.064385987098188e+01
 1.319800418864149e+00	 1.071506814888217e+00	 1.047156344210715e+01
 1.297376829830625e+00	 1.098550572984775e+00	 1.032091606506510e+01
 1.274379272865238e+00	 1.125147754243415e+00	 1.019389366099466e+01
 1.250821246251867e+00	 1.151280248207841e+00	 1.009246008700818e+01
 1.226717004142848e+00	 1.176930495711709e+00	 1.005410889271726e+01
 1.202081528015000e+00	 1.202081528015000e+00	 1.003544038119768e+01
 1.433354812963030e+00	 9.370967026737852e-01	 1.147315677661401e+01
 1.413832915892732e+00	 9.662984714561537e-01	 1.123194574781648e+01
 1.393677086731460e+00	 9.951484451655477e-01	 1.100680365888041e+01
 1.372896777140140e+00	 1.023626244930612e+00	 1.079982332460067e+01
 1.351502303885272e+00	 1.051711829629835e+00	 1.061311852733242e+01
 1.329504833711112e+00	 1.079385541467129e+00	 1.044881456097097e+01
 1.306916365346132e+00	 1.106628150726181e+00	 1.030903814575705e+01
 1.283749708696792e+00	 1.133420899494219e+00	 1.019590677729791e+01
 1.260018461299061e+00	 1.159745544149826e+00	 1.011151758270444e+01
 1.235736982115218e+00	 1.185584396415142e+00	 1.008095060733149e+01
 1.210920362780000e+00	 1.210920362780000e+00	 1.009062245741023e+01
 1.443817256856928e+00	 9.439368245917042e-01	 1.143327564705162e+01
 1.424152864187609e+00	 9.733517449702592e-01	 1.119080268925787e+01
 1.403849912185693e+00	 1.002412302428751e+00	 1.096660989840973e+01
 1.382917921502332e+00	 1.031097969344938e+00	 1.076295623061409e+01
 1.361367284208887e+00	 1.059388558311753e+00	 1.058211639849371e+01
 1.339209248558698e+00	 1.087264268045545e+00	 1.042637064952983e+01
 1.316455900862197e+00	 1.114705728467110e+00	 1.029799392755193e+01
 1.293120144528811e+00	 1.141694044744604e+00	 1.019924448606812e+01
 1.269215676346595e+00	 1.168210840091492e+00	 1.013235203165035e+01
 1.244756960087773e+00	 1.194238297118396e+00	 1.010843852596070e+01
 1.219759197545000e+00	 1.219759197545000e+00	 1.014693706162472e+01
 1.454279700751320e+00	 9.507769465096340e-01	 1.139058285571899e+01
 1.434472812483067e+00	 9.804050184841950e-01	 1.114753516729076e+01
 1.414022737640563e+00	 1.009676159691643e+00	 1.092494678784366e+01
 1.392939065865185e+00	 1.038569693758851e+00	 1.072524156253525e+01
 1.371232264533160e+00	 1.067065286993196e+00	 1.055085399188928e+01
 1.348913663406908e+00	 1.095142994623464e+00	 1.040421824926939e+01
 1.325995436378822e+00	 1.122783306207561e+00	 1.028775659313731e+01
 1.302490580361295e+00	 1.149967189994570e+00	 1.020386724806199e+01
 1.278412891394469e+00	 1.176676136032838e+00	 1.015491183798019e+01
 1.253776938060513e+00	 1.202892197821469e+00	 1.014320246397521e+01
 1.228598032310000e+00	 1.228598032310000e+00	 1.020421519751514e+01
 1.464742144646208e+00	 9.576170684275745e-01	 1.134513996560369e+01
 1.444792760779105e+00	 9.874582919979614e-01	 1.110218913815602e+01
 1.424195563096069e+00	 1.016940016954224e+00	 1.088184513708779e+01
 1.402960210228699e+00	 1.046041418172352e+00	 1.068669547703754e+01
 1.381097244858090e+00	 1.074742015674165e+00	 1.051933333600262e+01
 1.358618078255741e+00	 1.103021721200889e+00	 1.038234581658845e+01
 1.335534971896006e+00	 1.130860883947535e+00	 1.027830161299827e+01
 1.311861016194242e+00	 1.158240335244118e+00	 1.020973816297024e+01
 1.287610106442683e+00	 1.185141431973866e+00	 1.017914837342547e+01
 1.262796916033438e+00	 1.211546098524362e+00	 1.018896701732145e+01
 1.237436867075000e+00	 1.237436867075000e+00	 1.026229142363657e+01
 1.149048519425000e+00	 1.149048519425000e+00	 9.738077176242491e+00
 1.125007091487334e+00	 1.172597136312511e+00	 9.593556455073941e+00
 1.100488472549222e+00	 1.195637955975838e+00	 9.502492546301145e+00
 1.075508882729801e+00	 1.218156657885667e+00	 9.466489939650852e+00
 1.050085106526311e+00	 1.240139616749326e+00	 9.486887576021449e+00
 1.024234455404330e+00	 1.261573929795459e+00	 9.251911368152722e+00
 9.979747288431317e-01	 1.282447441638376e+00	 8.797246086677319e+00
 9.713241740187781e-01	 1.302748766623323e+00	 8.383627181996161e+00
 9.443014443144199e-01	 1.322467308569620e+00	 8.013206455333179e+00
 9.169255568526588e-01	 1.341593277844826e+00	 7.687993364800757e+00
 8.892158492486486e-01	 1.360117705719598e+00	 7.409845638402872e+00
 1.157887354190000e+00	 1.157887354190000e+00	 9.782698729246260e+00
 1.133660992191846e+00	 1.181617114283772e+00	 9.678747339433524e+00
 1.108953768493124e+00	 1.204835171020993e+00	 9.626570123910058e+00
 1.083782027983116e+00	 1.227527093714434e+00	 9.627591080843075e+00
 1.058162684270582e+00	 1.249679152261479e+00	 9.682975065704582e+00
 1.032113181986218e+00	 1.271278344638683e+00	 9.224025112804366e+00
 1.005651457528369e+00	 1.292312421957389e+00	 8.792324817678995e+00
 9.787958984359921e-01	 1.312769910980883e+00	 8.398375197178874e+00
 9.515653015798000e-01	 1.332640134019404e+00	 8.044235689797931e+00
 9.239788303679534e-01	 1.351913226135644e+00	 7.731836270836768e+00
 8.960559711664935e-01	 1.370580149610033e+00	 7.462968186905500e+00
 1.166726188955000e+00	 1.166726188955000e+00	 9.829549244383522e+00
 1.142314892896179e+00	 1.190637092255217e+00	 9.765237956863039e+00
 1.117419064436706e+00	 1.214032386066488e+00	 9.751067150406367e+00
 1.092055173236014e+00	 1.236897529543666e+00	 9.788281795395745e+00
 1.066240262014376e+00	 1.259218687774190e+00	 9.641305152944144e+00
 1.039991908567610e+00	 1.280982759482529e+00	 9.199366899621296e+00
 1.013328186213133e+00	 1.302177402277059e+00	 8.789847414189463e+00
 9.862676228527935e-01	 1.322791055339106e+00	 8.414822263089450e+00
 9.588291588448689e-01	 1.342812959469824e+00	 8.076260084353068e+00
 9.310321038830781e-01	 1.362233174427042e+00	 7.776012826001891e+00
 9.028960930843491e-01	 1.381042593500963e+00	 7.515806596674826e+00
 1.175565023720000e+00	 1.175565023720000e+00	 9.878435413533891e+00
 1.150968793600331e+00	 1.199657070226847e+00	 9.852857206065925e+00
 1.125884360379969e+00	 1.223229601112323e+00	 9.875833983137341e+00
 1.100328318488492e+00	 1.246267965373361e+00	 9.948433109053459e+00
 1.074317839757692e+00	 1.268758223287460e+00	 9.595325399368704e+00
 1.047870635148505e+00	 1.290687174326999e+00	 9.177916582229017e+00
 1.021004914897422e+00	 1.312042382597387e+00	 8.789810242060744e+00
 9.937393472691824e-01	 1.332812199697989e+00	 8.432980195439741e+00
 9.660930161096266e-01	 1.352985784920880e+00	 8.109305819397367e+00
 9.380853773980332e-01	 1.372553122719020e+00	 7.820562470390341e+00
 9.097362150022150e-01	 1.391505037392387e+00	 7.568412445709567e+00
 1.184403858485000e+00	 1.184403858485000e+00	 9.929168368357104e+00
 1.159622694304304e+00	 1.208677048198662e+00	 9.941437773096370e+00
 1.134349656322913e+00	 1.232426816158497e+00	 1.000072413949953e+01
 1.108601463740551e+00	 1.255638401203522e+00	 9.971264779272390e+00
 1.082395417500531e+00	 1.278297758801290e+00	 9.553322158452019e+00
 1.055749361728906e+00	 1.300391589172092e+00	 9.159655454662461e+00
 1.028681643581237e+00	 1.321907362918372e+00	 8.792210591897359e+00
 1.001211071685159e+00	 1.342833344057535e+00	 8.452861249354756e+00
 9.733568733740733e-01	 1.363158610372571e+00	 8.143399060523725e+00
 9.451386509128182e-01	 1.382873071011578e+00	 7.865524206907798e+00
 9.165763369200917e-01	 1.401967481284305e+00	 7.620836484903663e+00
 1.193242693250000e+00	 1.193242693250000e+00	 9.981563515856518e+00
 1.168276595008097e+00	 1.217697026170663e+00	 1.003081599108696e+01
 1.142814952265537e+00	 1.241624031205012e+00	 1.012559417989993e+01
 1.116874608992193e+00	 1.265008837034148e+00	 9.907297636598006e+00
 1.090472995242892e+00	 1.287837294315678e+00	 9.515261632433806e+00
 1.063628088308809e+00	 1.310096004017808e+00	 9.144566198017262e+00
 1.036358372264577e+00	 1.331772343240015e+00	 8.797046644805878e+00
 1.008682796100723e+00	 1.352854488417742e+00	 8.474478103098386e+00
 9.806207306382095e-01	 1.373331435824898e+00	 8.178565959067566e+00
 9.521919244274334e-01	 1.393193019304715e+00	 7.910936617463454e+00
 9.234164588379790e-01	 1.412429925176719e+00	 7.673128668680030e+00
 1.202081528015000e+00	 1.202081528015000e+00	 1.003544038119768e+01
 1.176930495711710e+00	 1.226717004142848e+00	 1.012083170616508e+01
 1.151280248207841e+00	 1.250821246251867e+00	 1.023161679055281e+01
 1.125147754243415e+00	 1.274379272865238e+00	 9.848028199368519e+00
 1.098550572984775e+00	 1.297376829830625e+00	 9.481111865224003e+00
 1.071506814888217e+00	 1.319800418864148e+00	 9.132632829455074e+00
 1.044035100947444e+00	 1.341637323562315e+00	 8.804317439655918e+00
 1.016154520515874e+00	 1.362875632778610e+00	 8.497843842516509e+00
 9.878845879020346e-01	 1.383504261277861e+00	 8.214832652630770e+00
 9.592451979418788e-01	 1.403512967598433e+00	 7.956837878447805e+00
 9.302565807558767e-01	 1.422892369069627e+00	 7.725338184272260e+00
 1.210920362780000e+00	 1.210920362780000e+00	 1.009062245741023e+01
 1.185584396415142e+00	 1.235736982115218e+00	 1.021132814924135e+01
 1.159745544149826e+00	 1.260018461299061e+00	 1.014989623146370e+01
 1.133420899494219e+00	 1.283749708696792e+00	 9.793409899582802e+00
 1.106628150726181e+00	 1.306916365346132e+00	 9.450842675188984e+00
 1.079385541467129e+00	 1.329504833711111e+00	 9.123840653441972e+00
 1.051711829629836e+00	 1.351502303885272e+00	 8.814022841775095e+00
 1.023626244930612e+00	 1.372896777140139e+00	 8.522971946162093e+00
 9.951484451655483e-01	 1.393677086731459e+00	 8.252225265583220e+00
 9.662984714561544e-01	 1.413832915892731e+00	 8.003265775532515e+00
 9.370967026737852e-01	 1.433354812963030e+00	 7.777513479724552e+00
 1.219759197545000e+00	 1.219759197545000e+00	 1.014693706162472e+01
 1.194238297118396e+00	 1.244756960087773e+00	 1.030215181337257e+01
 1.168210840091492e+00	 1.269215676346595e+00	 1.007356574239408e+01
 1.141694044744604e+00	 1.293120144528811e+00	 9.743398373427008e+00
 1.114705728467110e+00	 1.316455900862197e+00	 9.424425590859236e+00
 1.087264268045545e+00	 1.339209248558698e+00	 9.118176215106898e+00
 1.059388558311753e+00	 1.361367284208887e+00	 8.826163513004666e+00
 1.031097969344938e+00	 1.382917921502331e+00	 8.549876271066225e+00
 1.002412302428751e+00	 1.403849912185693e+00	 8.290769909541826e+00
 9.733517449702599e-01	 1.424152864187609e+00	 8.050257717827289e+00
 9.439368245917042e-01	 1.443817256856928e+00	 7.829702290673632e+00
 1.228598032310000e+00	 1.228598032310000e+00	 1.020421519751514e+01
 1.202892197821469e+00	 1.253776938060513e+00	 1.031427142907238e+01
 1.176676136032838e+00	 1.278412891394469e+00	 1.000256684194675e+01
 1.149967189994570e+00	 1.302490580361294e+00	 9.697951381987174e+00
 1.122783306207561e+00	 1.325995436378822e+00	 9.401833789413050e+00
 1.095142994623465e+00	 1.348913663406907e+00	 9.115627255613619e+00
 1.067065286993196e+00	 1.371232264533159e+00	 8.840740883048118e+00
 1.038569693758852e+00	 1.392939065865184e+00	 8.578571039124267e+00
 1.009676159691643e+00	 1.414022737640563e+00	 8.330492683829753e+00
 9.804050184841961e-01	 1.434472812483067e+00	 8.097850751424765e+00
 9.507769465096340e-01	 1.454279700751320e+00	 7.881951665975177e+00
 1.237436867075000e+00	 1.237436867075000e+00	 1.026229142363657e+01
 1.211546098524362e+00	 1.262796916033438e+00	 1.022120289376323e+01
 1.185141431973866e+00	 1.287610106442683e+00	 9.936843578939619e+00
 1.158240335244119e+00	 1.311861016194243e+00	 9.657028735360052e+00
 1.130860883947535e+00	 1.335534971896005e+00	 9.383042037795974e+00
 1.103021721200889e+00	 1.358618078255741e+00	 9.116182669445218e+00
 1.074742015674166e+00	 1.381097244858090e+00	 8.857757122047438e+00
 1.046041418172353e+00	 1.402960210228699e+00	 8.609070824064595e+00
 1.016940016954224e+00	 1.424195563096068e+00	 8.371419675915014e+00
 9.874582919979624e-01	 1.444792760779105e+00	 8.146081572365691e+00
 9.576170684275745e-01	 1.464742144646208e+00	 7.934307992231544e+00
 8.892158492486486e-01	 1.360117705719598e+00	 7.409845638402872e+00
 8.611919357855461e-01	 1.378032455969275e+00	 7.252171685482942e+00
 8.328736632118816e-01	 1.395330233706523e+00	 7.078879438157131e+00
 8.042810663631879e-01	 1.412004591443889e+00	 6.890048400224289e+00
 7.754343238075456e-01	 1.428049932401566e+00	 6.685838901729825e+00
 7.463537137077207e-01	 1.443461511093458e+00	 6.466487259797042e+00
 7.170595700900940e-01	 1.458235431238257e+00	 6.232300648193964e+00
 6.875722397034173e-01	 1.472368641057263e+00	 5.983651734116762e+00
 6.579120396427711e-01	 1.485858926034374e+00	 5.720973140230033e+00
 6.280992159053126e-01	 1.498704899226502e+00	 5.444751788854170e+00
 5.981539030346663e-01	 1.510905989224438e+00	 5.155523183388595e+00
 8.960559711664935e-01	 1.370580149610033e+00	 7.462968186905500e+00
 8.678164891377838e-01	 1.388632705631433e+00	 7.301190893571674e+00
 8.392803836977581e-01	 1.406063543197860e+00	 7.124277897009249e+00
 8.104678437960666e-01	 1.422866165225804e+00	 6.932371674449060e+00
 7.813992032205448e-01	 1.439034931883307e+00	 6.725692482340233e+00
 7.520948961198254e-01	 1.454565061180535e+00	 6.504533258797751e+00
 7.225754129358753e-01	 1.469452626864787e+00	 6.269254257915689e+00
 6.928612569308982e-01	 1.483694553682143e+00	 6.020277475831287e+00
 6.629729014853196e-01	 1.497288610081763e+00	 5.758080927723734e+00
 6.329307483347361e-01	 1.510233398451768e+00	 5.483192833522481e+00
 6.027550869038751e-01	 1.522528342987494e+00	 5.196185768032711e+00
 9.028960930843491e-01	 1.381042593500963e+00	 7.515806596674826e+00
 8.744410424902173e-01	 1.399232955293995e+00	 7.350204782917457e+00
 8.456871041839830e-01	 1.416796852689532e+00	 7.169932549214538e+00
 8.166546212294176e-01	 1.433727739008007e+00	 6.975195306925377e+00
 7.873640826341083e-01	 1.450019931365309e+00	 6.766273245644781e+00
 7.578360785325561e-01	 1.465668611267865e+00	 6.543515975285465e+00
 7.280912557823146e-01	 1.480669822491582e+00	 6.307336923002957e+00
 6.981502741590386e-01	 1.495020466307319e+00	 6.058207546271028e+00
 6.680337633285006e-01	 1.508718294129499e+00	 5.796651422464457e+00
 6.377622807647348e-01	 1.521761897677452e+00	 5.523238273629168e+00
 6.073562707735738e-01	 1.534150696751061e+00	 5.238577982789288e+00
 9.097362150022150e-01	 1.391505037392387e+00	 7.568412445709567e+00
 8.810655958428457e-01	 1.409833204956963e+00	 7.399256723533975e+00
 8.520938246705574e-01	 1.427530162181541e+00	 7.215878839765578e+00
 8.228413986632397e-01	 1.444589312790497e+00	 7.018547115904451e+00
 7.933289620482358e-01	 1.461004930847569e+00	 6.807601695834730e+00
 7.635772609459127e-01	 1.476772161355446e+00	 6.583448925516203e+00
 7.336070986294119e-01	 1.491887018118641e+00	 6.346555510343038e+00
 7.034392913878393e-01	 1.506346378932792e+00	 6.097442512929540e+00
 6.730946251723136e-01	 1.520147978177585e+00	 5.836679252871734e+00
 6.425938131953089e-01	 1.533290396903557e+00	 5.564877168097839e+00
 6.119574546437619e-01	 1.545773050515137e+00	 5.282683694819180e+00
 9.165763369200917e-01	 1.401967481284305e+00	 7.620836484903663e+00
 8.876901491956691e-01	 1.420433454620336e+00	 7.448389474865873e+00
 8.585005451574801e-01	 1.438263471673887e+00	 7.262151810420590e+00
 8.290281760975334e-01	 1.455450886573275e+00	 7.062454714213619e+00
 7.992938414629273e-01	 1.471989930330090e+00	 6.849698319669834e+00
 7.693184433598954e-01	 1.487875711443280e+00	 6.624345786220745e+00
 7.391229414771665e-01	 1.503104213745964e+00	 6.386917214881863e+00
 7.087283086172992e-01	 1.517672291558560e+00	 6.137983428411312e+00
 6.781554870167587e-01	 1.531577662226018e+00	 5.878159678817863e+00
 6.474253456264587e-01	 1.544818896130081e+00	 5.608099342785605e+00
 6.165586385144400e-01	 1.557395404279724e+00	 5.328487662714958e+00
 9.234164588379790e-01	 1.412429925176719e+00	 7.673128668680030e+00
 8.943147025486875e-01	 1.431033704284114e+00	 7.497645208402723e+00
 8.649072656447517e-01	 1.448996781166568e+00	 7.308786114637833e+00
 8.352149535322991e-01	 1.466312460356341e+00	 7.106945516864950e+00
 8.052587208781826e-01	 1.482974929812870e+00	 6.892583587123500e+00
 7.750596257745040e-01	 1.498979261531365e+00	 6.666220388661316e+00
 7.446387843255793e-01	 1.514321409373550e+00	 6.428429547473904e+00
 7.140173258474193e-01	 1.528998204184626e+00	 6.179831812465197e+00
 6.832163488618361e-01	 1.543007346274800e+00	 5.921088568240636e+00
 6.522568780581836e-01	 1.556347395357025e+00	 5.652895362077803e+00
 6.211598223856076e-01	 1.569017758044822e+00	 5.375975503485375e+00
 9.302565807558767e-01	 1.422892369069627e+00	 7.725338184272260e+00
 9.009392559019015e-01	 1.441633953948297e+00	 7.547065529294783e+00
 8.713139861323717e-01	 1.459730090659585e+00	 7.355816031851674e+00
 8.414017309675366e-01	 1.477174034139694e+00	 7.152046748327270e+00
 8.112236002940023e-01	 1.493959929295910e+00	 6.936277951999887e+00
 7.808008081897385e-01	 1.510082811619702e+00	 6.709086712950142e+00
 7.501546271746498e-01	 1.525538605001402e+00	 6.471100323267553e+00
 7.193063430781990e-01	 1.540324116810988e+00	 6.222989634809421e+00
 6.882772107075457e-01	 1.554437030323931e+00	 5.965462374788038e+00
 6.570884104904839e-01	 1.567875894584390e+00	 5.699256501736381e+00
 6.257610062572652e-01	 1.580640111810430e+00	 5.425133660995884e+00
 9.370967026737852e-01	 1.433354812963030e+00	 7.777513479724552e+00
 9.075638092553103e-01	 1.452234203612885e+00	 7.596691497022599e+00
 8.777207066203410e-01	 1.470463400152938e+00	 7.403275481122868e+00
 8.475885084032457e-01	 1.488035607923335e+00	 7.197785449480961e+00
 8.171884797103856e-01	 1.504944928779209e+00	 6.980801852524333e+00
 7.865419906055990e-01	 1.521186361708291e+00	 6.752958882617030e+00
 7.556704700243780e-01	 1.536755800629518e+00	 6.514937650600109e+00
 7.245953603096386e-01	 1.551650029437648e+00	 6.267459298709833e+00
 6.933380725538877e-01	 1.565866714373410e+00	 6.011278116441807e+00
 6.619199429233596e-01	 1.579404393812174e+00	 5.747174722937019e+00
 6.303621901294124e-01	 1.592262465576548e+00	 5.475949375791362e+00
 9.439368245917042e-01	 1.443817256856928e+00	 7.829702290673632e+00
 9.141883626089141e-01	 1.462834453277879e+00	 7.646563645167360e+00
 8.841274271086591e-01	 1.481196709646628e+00	 7.451198034195693e+00
 8.537752858394263e-01	 1.498897181707264e+00	 7.244188484269233e+00
 8.231533591273332e-01	 1.515929928262769e+00	 7.026175711907512e+00
 7.922831730220854e-01	 1.532289911797133e+00	 6.797851159413092e+00
 7.611863128747642e-01	 1.547972996257898e+00	 6.559949920374224e+00
 7.298843775417380e-01	 1.562975942064603e+00	 6.313243625271253e+00
 6.983989344008616e-01	 1.577296398423238e+00	 6.058533355070949e+00
 6.667514753568107e-01	 1.590932893040377e+00	 5.796642647435757e+00
 6.349633740020493e-01	 1.603884819343176e+00	 5.528410656230859e+00
 9.507769465096340e-01	 1.454279700751320e+00	 7.881951665975177e+00
 9.208129159627132e-01	 1.473434702943277e+00	 7.696722000328240e+00
 8.905341475973253e-01	 1.491930019140653e+00	 7.499616927991291e+00
 8.599620632760784e-01	 1.509758755491480e+00	 7.291282546063014e+00
 8.291182385448447e-01	 1.526914927746587e+00	 7.072419938885728e+00
 7.980243554391980e-01	 1.543393461886226e+00	 6.843777938338747e+00
 7.667021557258082e-01	 1.559190191886543e+00	 6.606145795894281e+00
 7.351733947744968e-01	 1.574301854691855e+00	 6.360345838407540e+00
 7.034597962484678e-01	 1.588726082473414e+00	 6.107226176866977e+00
 6.715830077908371e-01	 1.602461392269001e+00	 5.847653533806641e+00
 6.395645578751757e-01	 1.615507173110314e+00	 5.582506250868322e+00
 9.576170684275745e-01	 1.464742144646208e+00	 7.934307992231544e+00
 9.274374693167079e-01	 1.484034952609081e+00	 7.747206100229093e+00
 8.969408680863412e-01	 1.502663328635016e+00	 7.548565076565588e+00
 8.661488407132029e-01	 1.520620329275986e+00	 7.339094163752712e+00
 8.350831179629206e-01	 1.537899927230666e+00	 7.119554928237656e+00
 8.037655378569366e-01	 1.554497011975572e+00	 6.890753742884790e+00
 7.722179985775102e-01	 1.570407387515452e+00	 6.653534203137616e+00
 7.404624120079161e-01	 1.585627767319404e+00	 6.408769550455704e+00
 7.085206580967063e-01	 1.600155766523939e+00	 6.157355173618473e+00
 6.764145402254393e-01	 1.613989891498045e+00	 5.900201254698387e+00
 6.441657417487923e-01	 1.627129526877964e+00	 5.638225622017412e+00
 5.981539030346663e-01	 1.510905989224438e+00	 5.155523183388595e+00
 5.680960850001699e-01	 1.522462425874857e+00	 4.835133048390016e+00
 5.379455574460040e-01	 1.533375223883753e+00	 4.532121428339561e+00
 5.077218914329504e-01	 1.543646164429884e+00	 4.247439840599117e+00
 4.774443987833440e-01	 1.553277774923845e+00	 3.981955469356502e+00
 4.471320991271144e-01	 1.562273307054313e+00	 3.736448283531336e+00
 4.168036887336734e-01	 1.570636713267633e+00	 3.511608809593753e+00
 3.864775112014002e-01	 1.578372621830225e+00	 3.308036553970498e+00
 3.561715300634782e-01	 1.585486310625523e+00	 3.126239063584008e+00
 3.259033033559552e-01	 1.591983679838119e+00	 2.966631607377708e+00
 2.956899601812942e-01	 1.597871223677692e+00	 2.829537456470958e+00
 6.027550869038751e-01	 1.522528342987494e+00	 5.196185768032711e+00
 5.724660548848367e-01	 1.534173675303793e+00	 4.882986605249916e+00
 5.420836001959101e-01	 1.545170417912212e+00	 4.586187694041874e+00
 5.116274444444988e-01	 1.555520365692882e+00	 4.306722805378993e+00
 4.811170480054178e-01	 1.565226065498014e+00	 4.045444553147902e+00
 4.505715768134437e-01	 1.574290794029277e+00	 3.803121431744463e+00
 4.200098709554459e-01	 1.582718534136446e+00	 3.580435499768738e+00
 3.894504151344075e-01	 1.590513949687990e+00	 3.377980705509441e+00
 3.589113110645378e-01	 1.597682359166444e+00	 3.196261843761124e+00
 3.284102518437008e-01	 1.604229708142433e+00	 3.035694127796384e+00
 2.979644983366877e-01	 1.610162540781094e+00	 2.896603355075761e+00
 6.073562707735738e-01	 1.534150696751061e+00	 5.238577982789288e+00
 5.768360247698988e-01	 1.545884924733330e+00	 4.932186921470660e+00
 5.462216429461266e-01	 1.556965611941338e+00	 4.641232688804232e+00
 5.155329974562838e-01	 1.567394566956594e+00	 4.366632041242371e+00
 4.847896972276649e-01	 1.577174356072925e+00	 4.109223693019752e+00
 4.540110544998927e-01	 1.586308281004989e+00	 3.869765272013630e+00
 4.232160531772945e-01	 1.594800355005994e+00	 3.648930913284115e+00
 3.924233190674576e-01	 1.602655277546456e+00	 3.447309486990958e+00
 3.616510920656160e-01	 1.609878407708013e+00	 3.265403451214749e+00
 3.309172003314512e-01	 1.616475736447324e+00	 3.103628314464760e+00
 3.002390364920813e-01	 1.622453857884982e+00	 2.962312687378584e+00
 6.119574546437619e-01	 1.545773050515137e+00	 5.282683694819180e+00
 5.812059946553556e-01	 1.557596174163466e+00	 4.982724153127474e+00
 5.503596856966543e-01	 1.568760805971133e+00	 4.697252555066902e+00
 5.194385504683057e-01	 1.579268768221021e+00	 4.427169369915884e+00
 4.884623464500848e-01	 1.589122646648578e+00	 4.173300079140857e+00
 4.574505321864613e-01	 1.598325767981450e+00	 3.936392049089235e+00
 4.264222353992193e-01	 1.606882175876276e+00	 3.717112033330141e+00
 3.953962230005502e-01	 1.614796605405623e+00	 3.516044302336959e+00
 3.643908730667133e-01	 1.622074456250230e+00	 3.333689392019676e+00
 3.334241488192061e-01	 1.628721764752790e+00	 3.170463456833839e+00
 3.025135746474747e-01	 1.634745174989355e+00	 3.026698207881681e+00
 6.165586385144400e-01	 1.557395404279724e+00	 5.328487662714958e+00
 5.855759645412076e-01	 1.569307423594202e+00	 5.034589129931607e+00
 5.544977284474925e-01	 1.580556000001596e+00	 4.754243900667053e+00
 5.233441034805644e-01	 1.591142969486163e+00	 4.488336880084192e+00
 4.921349956726781e-01	 1.601070937224973e+00	 4.237680980213253e+00
 4.608900098731494e-01	 1.610343254958658e+00	 4.003013908031909e+00
 4.296284176212204e-01	 1.618963996747293e+00	 3.784995575542762e+00
 3.983691269336854e-01	 1.626937933265491e+00	 3.584206130539203e+00
 3.671306540678292e-01	 1.634270504793095e+00	 3.401144600535173e+00
 3.359310973069657e-01	 1.640967793058833e+00	 3.236228136520055e+00
 3.047881128028683e-01	 1.647036492094213e+00	 3.089791837848245e+00
 6.211598223856076e-01	 1.569017758044822e+00	 5.375975503485375e+00
 5.899459344274547e-01	 1.581018673025537e+00	 5.087773330280930e+00
 5.586357711986415e-01	 1.592351194032726e+00	 4.812203781602104e+00
 5.272496564930597e-01	 1.603017170752021e+00	 4.550136917502332e+00
 4.958076448954447e-01	 1.613019227802109e+00	 4.302373740563985e+00
 4.643294875599572e-01	 1.622360741936614e+00	 4.069642897904447e+00
 4.328345998432976e-01	 1.631045817619043e+00	 3.852597997912679e+00
 4.013420308668634e-01	 1.639079261126060e+00	 3.651815541397228e+00
 3.698704350689641e-01	 1.646466553336608e+00	 3.467793460580328e+00
 3.384380457947301e-01	 1.653213821365451e+00	 3.300950253521887e+00
 3.070626509582619e-01	 1.659327809199556e+00	 3.151624696163058e+00
 6.257610062572652e-01	 1.580640111810430e+00	 5.425133660995884e+00
 5.943159043140965e-01	 1.592729922457472e+00	 5.142268857411290e+00
 5.627738139501012e-01	 1.604146388064524e+00	 4.871129685552848e+00
 5.311552095057922e-01	 1.614891372018594e+00	 4.612572075544701e+00
 4.994802941183842e-01	 1.624967518379987e+00	 4.367385777364452e+00
 4.677689652468848e-01	 1.634378228915318e+00	 4.136290975301284e+00
 4.360407820654509e-01	 1.643127638491529e+00	 3.919935510257850e+00
 4.043149348000838e-01	 1.651220588987329e+00	 3.718892710562248e+00
 3.726102160701177e-01	 1.658662601880768e+00	 3.533659825673681e+00
 3.409449942824992e-01	 1.665459849672645e+00	 3.364657051278781e+00
 3.093371891136554e-01	 1.671619126305386e+00	 3.212227128831684e+00
 6.303621901294124e-01	 1.592262465576548e+00	 5.475949375791362e+00
 5.986858742011336e-01	 1.604441171890006e+00	 5.198068416592140e+00
 5.669118567018716e-01	 1.615941582096991e+00	 4.931019516128945e+00
 5.350607625187613e-01	 1.626765573285882e+00	 4.675645186168006e+00
 5.031529433414970e-01	 1.636915808958607e+00	 4.432724577972138e+00
 4.712084429339320e-01	 1.646395715894772e+00	 4.202970007723163e+00
 4.392469642876805e-01	 1.655209459364748e+00	 3.987024083280930e+00
 4.072878387333470e-01	 1.663361916849300e+00	 3.785457433922137e+00
 3.753499970712901e-01	 1.670858650425577e+00	 3.598767038387900e+00
 3.434519427702728e-01	 1.677705877980415e+00	 3.427375140633597e+00
 3.116117272690490e-01	 1.683910443411700e+00	 3.271628737187981e+00
 6.349633740020493e-01	 1.603884819343176e+00	 5.528410656230859e+00
 6.030558440885656e-01	 1.616152421323141e+00	 5.255165293313631e+00
 5.710498994539527e-01	 1.627736776130124e+00	 4.991871577798826e+00
 5.389663155319673e-01	 1.638639774553884e+00	 4.739359311266718e+00
 5.068255925647830e-01	 1.648864099537968e+00	 4.498397697387190e+00
 4.746479206210989e-01	 1.658413202874972e+00	 4.269691776805413e+00
 4.424531465099864e-01	 1.667291280238702e+00	 4.053879457232738e+00
 4.102607426666527e-01	 1.675503244711971e+00	 3.851529141361113e+00
 3.780897780724816e-01	 1.683054698971034e+00	 3.663137948862002e+00
 3.459588912580512e-01	 1.689951906288762e+00	 3.489130522752609e+00
 3.138862654244425e-01	 1.696201760518499e+00	 3.329858404874555e+00
 6.395645578751757e-01	 1.615507173110314e+00	 5.582506250868322e+00
 6.074258139763925e-01	 1.627863670756874e+00	 5.313553332415472e+00
 5.751879422063448e-01	 1.639531970163926e+00	 5.053684561470421e+00
 5.428718685454100e-01	 1.650513975822602e+00	 4.803717734402269e+00
 5.104982417882420e-01	 1.660812390118072e+00	 4.564412755819929e+00
 4.780873983083853e-01	 1.670430689855921e+00	 4.336467981406207e+00
 4.456593287323683e-01	 1.679373101113391e+00	 4.120517150201778e+00
 4.132336466000011e-01	 1.687644572575344e+00	 3.917126909925077e+00
 3.808295590736919e-01	 1.695250747517139e+00	 3.726794932514762e+00
 3.484658397458342e-01	 1.702197934597684e+00	 3.549948611056254e+00
 3.161608035798359e-01	 1.708493077625785e+00	 3.386944323659265e+00
 6.441657417487923e-01	 1.627129526877964e+00	 5.638225622017412e+00
 6.117957838646149e-01	 1.639574920191208e+00	 5.373226918110220e+00
 5.793259849590476e-01	 1.651327164198396e+00	 5.116457530689529e+00
 5.467774215590897e-01	 1.662388177092036e+00	 4.868723952885984e+00
 5.141708910118744e-01	 1.672760680698918e+00	 4.630777436361209e+00
 4.815268759957917e-01	 1.682448176837619e+00	 4.403310240563318e+00
 4.488655109548267e-01	 1.691454921988814e+00	 4.186952466049081e+00
 4.162065505333923e-01	 1.699785900439417e+00	 3.982269476423152e+00
 3.835693400749210e-01	 1.707446796063892e+00	 3.789759906999295e+00
 3.509727882336220e-01	 1.714443962907183e+00	 3.609854252210112e+00
 3.184353417352296e-01	 1.720784394733555e+00	 3.442914018145018e+00
 2.956899601812942e-01	 1.597871223677692e+00	 2.829537456470958e+00
 2.655481792878332e-01	 1.603156001294210e+00	 2.683876170755529e+00
 2.354941696761790e-01	 1.607845607033304e+00	 2.551234102147479e+00
 2.055436532290555e-01	 1.611948140178152e+00	 2.431753983992528e+00
 1.757118493506961e-01	 1.615472174320239e+00	 2.325520717775867e+00
 1.460134615946999e-01	 1.618426726496131e+00	 2.232562705451252e+00
 1.164626662474424e-01	 1.620821226222415e+00	 2.152853512390949e+00
 8.707310282611763e-02	 1.622665484554889e+00	 2.086313829682212e+00
 5.785786644259734e-02	 1.623969663291593e+00	 2.032813703496922e+00
 2.882950197718375e-02	 1.624744244432313e+00	 1.992174998702422e+00
 0.000000000000000e+00	 1.625000000000000e+00	 1.964174063731631e+00
 2.979644983366877e-01	 1.610162540781094e+00	 2.896603355075761e+00
 2.675908575899578e-01	 1.615487970533476e+00	 2.747670767371224e+00
 2.373056632887938e-01	 1.620213650163185e+00	 2.611970524198957e+00
 2.071247582534782e-01	 1.624347741255574e+00	 2.489680264376952e+00
 1.770634789605836e-01	 1.627898883352835e+00	 2.380916811422170e+00
 1.471366420679667e-01	 1.630876162853355e+00	 2.285737504806825e+00
 1.173585329103589e-01	 1.633289081808462e+00	 2.204141879065105e+00
 8.774289592431626e-02	 1.635147526743617e+00	 2.136073658347568e+00
 5.830292695333918e-02	 1.636461737624537e+00	 2.081423032955437e+00
 2.905126737680813e-02	 1.637242277081775e+00	 2.040029183778429e+00
 0.000000000000000e+00	 1.637500000000000e+00	 2.011683020382304e+00
 3.002390364920813e-01	 1.622453857884982e+00	 2.962312687378584e+00
 2.696335358920826e-01	 1.627819939773135e+00	 2.810277420560467e+00
 2.391171569014086e-01	 1.632581693293372e+00	 2.671686198821227e+00
 2.087058632779007e-01	 1.636747342333230e+00	 2.546751465846666e+00
 1.784151085704711e-01	 1.640325592385602e+00	 2.435621860033748e+00
 1.482598225412336e-01	 1.643325599210697e+00	 2.338383545125684e+00
 1.182543995732755e-01	 1.645756937394584e+00	 2.255061905994276e+00
 8.841268902251494e-02	 1.647629568932387e+00	 2.185623576025270e+00
 5.874798746408103e-02	 1.648953811957498e+00	 2.129978761437252e+00
 2.927303277643252e-02	 1.649740309731242e+00	 2.087983827206553e+00
 0.000000000000000e+00	 1.650000000000000e+00	 2.059444109060345e+00
 3.025135746474747e-01	 1.634745174989355e+00	 3.026698207881681e+00
 2.716762141942071e-01	 1.640151909013182e+00	 2.871723513001781e+00
 2.409286505140234e-01	 1.644949736423866e+00	 2.730403289116931e+00
 2.102869683023234e-01	 1.649146943411119e+00	 2.602984690955508e+00
 1.797667381803585e-01	 1.652752301418539e+00	 2.489648070773508e+00
 1.493830030145004e-01	 1.655775035568155e+00	 2.390508308826386e+00
 1.191502662361921e-01	 1.658224792980780e+00	 2.305616526349750e+00
 8.908248212071354e-02	 1.660111611121198e+00	 2.234962146358487e+00
 5.919304797482287e-02	 1.661445886290479e+00	 2.178475266381759e+00
 2.949479817605690e-02	 1.662238342380713e+00	 2.136029306548569e+00
 0.000000000000000e+00	 1.662500000000000e+00	 2.107443896190499e+00
 3.047881128028683e-01	 1.647036492094213e+00	 3.089791837848245e+00
 2.737188924963317e-01	 1.652483878253622e+00	 2.932035733783859e+00
 2.427401441266382e-01	 1.657317779554668e+00	 2.788143401018218e+00
 2.118680733267460e-01	 1.661546544489241e+00	 2.658396618113004e+00
 1.811183677902460e-01	 1.665179010451648e+00	 2.543007356144511e+00
 1.505061834877673e-01	 1.668224471925732e+00	 2.442119109471949e+00
 1.200461328991086e-01	 1.670692648567053e+00	 2.355808626446505e+00
 8.975227521891216e-02	 1.672593653310051e+00	 2.284088004214621e+00
 5.963810848556471e-02	 1.673937960623477e+00	 2.226907110513791e+00
 2.971656357568129e-02	 1.674736375030189e+00	 2.184156294603438e+00
 0.000000000000000e+00	 1.675000000000000e+00	 2.155669349199723e+00
 3.070626509582619e-01	 1.659327809199556e+00	 3.151624696163058e+00
 2.757615707984564e-01	 1.664815847494451e+00	 2.991240104094215e+00
 2.445516377392530e-01	 1.669685822685776e+00	 2.844927603922444e+00
 2.134491783511686e-01	 1.673946145567598e+00	 2.713003517293748e+00
 1.824699974001335e-01	 1.677605719484926e+00	 2.595711344903375e+00
 1.516293639610341e-01	 1.680673908283426e+00	 2.493223098024115e+00
 1.209419995620252e-01	 1.683160504153399e+00	 2.405641047478717e+00
 9.042206831711082e-02	 1.685075695498947e+00	 2.332999853048070e+00
 6.008316899630655e-02	 1.686430034956494e+00	 2.275269034981138e+00
 2.993832897530567e-02	 1.687234407679669e+00	 2.232355748472504e+00
 0.000000000000000e+00	 1.687500000000000e+00	 2.204107821665271e+00
 3.093371891136554e-01	 1.671619126305386e+00	 3.212227128831684e+00
 2.778042491005809e-01	 1.677147816735672e+00	 3.049362001774471e+00
 2.463631313518678e-01	 1.682053865817191e+00	 2.900776450417855e+00
 2.150302833755913e-01	 1.686345746646188e+00	 2.766821265052918e+00
 1.838216270100210e-01	 1.690032428518376e+00	 2.647771392491874e+00
 1.527525444343010e-01	 1.693123344641238e+00	 2.543827268820777e+00
 1.218378662249418e-01	 1.695628359739820e+00	 2.455116587178634e+00
 9.109186141530945e-02	 1.697557737687884e+00	 2.381696462377807e+00
 6.052822950704838e-02	 1.698922109289530e+00	 2.323555952794787e+00
 3.016009437493006e-02	 1.699732440329154e+00	 2.280618899107298e+00
 0.000000000000000e+00	 1.700000000000000e+00	 2.252747039117998e+00
 3.116117272690490e-01	 1.683910443411700e+00	 3.271628737187981e+00
 2.798469274027056e-01	 1.689479785977283e+00	 3.106426184799964e+00
 2.481746249644826e-01	 1.694421908948912e+00	 2.955709995144833e+00
 2.166113884000138e-01	 1.698745347725011e+00	 2.819865358885266e+00
 1.851732566199084e-01	 1.702459137551994e+00	 2.699198591012163e+00
 1.538757249075678e-01	 1.705572780999167e+00	 2.593938465292768e+00
 1.227337328878583e-01	 1.708096215326316e+00	 2.504238001402488e+00
 9.176165451350807e-02	 1.710039779876861e+00	 2.430176665376521e+00
 6.097329001779021e-02	 1.711414183622584e+00	 2.371762942556481e+00
 3.038185977455445e-02	 1.712230472978645e+00	 2.328937241315160e+00
 0.000000000000000e+00	 1.712500000000000e+00	 2.301575085467463e+00
 3.138862654244425e-01	 1.696201760518499e+00	 3.329858404874555e+00
 2.818896057048302e-01	 1.701811755219286e+00	 3.162456813738685e+00
 2.499861185770973e-01	 1.706789952080941e+00	 3.009747812838107e+00
 2.181924934244365e-01	 1.711144948804068e+00	 2.872150930958574e+00
 1.865248862297958e-01	 1.714885846585784e+00	 2.750003778768101e+00
 1.549989053808347e-01	 1.718022217357214e+00	 2.643563385430855e+00
 1.236295995507749e-01	 1.720564070912886e+00	 2.553008005648276e+00
 9.243144761170670e-02	 1.722521822065882e+00	 2.478439356564512e+00
 6.141835052853206e-02	 1.723906257955657e+00	 2.419885242459293e+00
 3.060362517417883e-02	 1.724728505628139e+00	 2.377302524198912e+00
 0.000000000000000e+00	 1.725000000000000e+00	 2.350580390017104e+00
 3.161608035798359e-01	 1.708493077625785e+00	 3.386944323659265e+00
 2.839322840069549e-01	 1.714143724461679e+00	 3.217477473240967e+00
 2.517976121897121e-01	 1.719157995213276e+00	 3.062909015589008e+00
 2.197735984488592e-01	 1.723544549883358e+00	 2.923692761255732e+00
 1.878765158396833e-01	 1.727312555619745e+00	 2.800197549394450e+00
 1.561220858541015e-01	 1.730471653715379e+00	 2.692708587018235e+00
 1.245254662136915e-01	 1.733031926499532e+00	 2.601429276506931e+00
 9.310124070990533e-02	 1.735003864254944e+00	 2.526483489602782e+00
 6.186341103927389e-02	 1.736398332288747e+00	 2.467918244546925e+00
 3.082539057380321e-02	 1.737226538277638e+00	 2.425706742009859e+00
 0.000000000000000e+00	 1.737499999999999e+00	 2.399751715040090e+00
 3.184353417352296e-01	 1.720784394733555e+00	 3.442914018145018e+00
 2.859749623090795e-01	 1.726475693704463e+00	 3.271511192607579e+00
 2.536091058023270e-01	 1.731526038345919e+00	 3.115212269369038e+00
 2.213547034732818e-01	 1.735944150962882e+00	 2.974505290151479e+00
 1.892281454495708e-01	 1.739739264653876e+00	 2.849790260595167e+00
 1.572452663273684e-01	 1.742921090073661e+00	 2.741380492637123e+00
 1.254213328766080e-01	 1.745499782086253e+00	 2.649504453052070e+00
 9.377103380810400e-02	 1.747485906444048e+00	 2.574308075180810e+00
 6.230847155001576e-02	 1.748890406621857e+00	 2.515857489218620e+00
 3.104715597342760e-02	 1.749724570927141e+00	 2.474142125392304e+00
 0.000000000000000e+00	 1.750000000000000e+00	 2.449078143887443e+00
 1.750000000000000e+00	 0.000000000000000e+00	 1.236490312367070e+01
 1.749724570927141e+00	 3.104715597342660e-02	 1.242031962760192e+01
 1.748890406621857e+00	 6.230847155001488e-02	 1.245879251092495e+01
 1.747485906444049e+00	 9.377103380810323e-02	 1.248091899642304e+01
 1.745499782086252e+00	 1.254213328766073e-01	 1.248733842194916e+01
 1.742921090073661e+00	 1.572452663273678e-01	 1.247873433680665e+01
 1.739739264653876e+00	 1.892281454495704e-01	 1.245583667766881e+01
 1.735944150962882e+00	 2.213547034732815e-01	 1.241942400560140e+01
 1.731526038345919e+00	 2.536091058023268e-01	 1.237032578212529e+01
 1.726475693704463e+00	 2.859749623090794e-01	 1.230942465856072e+01
 1.720784394733555e+00	 3.184353417352296e-01	 1.223765874918515e+01
 1.762500000000000e+00	 0.000000000000000e+00	 1.234718177223611e+01
 1.762222603576645e+00	 3.126892137305098e-02	 1.240151118325608e+01
 1.761382480954966e+00	 6.275353206075669e-02	 1.243921767804080e+01
 1.759967948633153e+00	 9.444082690630186e-02	 1.246088374036825e+01
 1.757967637672972e+00	 1.263171995395239e-01	 1.246713266169712e+01
 1.755370526431943e+00	 1.583684468006347e-01	 1.245863072080990e+01
 1.752165973688007e+00	 1.905797750594578e-01	 1.243608945692680e+01
 1.748343752042406e+00	 2.229358084977041e-01	 1.240026801780571e+01
 1.743894081478562e+00	 2.554205994149417e-01	 1.235197556056284e+01
 1.738807662947248e+00	 2.880176406112040e-01	 1.229207367909129e+01
 1.733075711841326e+00	 3.207098798906232e-01	 1.222147882807444e+01
 1.775000000000000e+00	 0.000000000000000e+00	 1.233296945905165e+01
 1.774720636226143e+00	 3.149068677267536e-02	 1.238609278640370e+01
 1.773874555288057e+00	 6.319859257149853e-02	 1.242291450394110e+01
 1.772449990822214e+00	 9.511062000450050e-02	 1.244400223286259e+01
 1.770435493259618e+00	 1.272130662024405e-01	 1.244996308607115e+01
 1.767819962790108e+00	 1.594916272739015e-01	 1.244144593233515e+01
 1.764592682721967e+00	 1.919314046693453e-01	 1.241914376801220e+01
 1.760743353121696e+00	 2.245169135221267e-01	 1.238379617779760e+01
 1.756262124610897e+00	 2.572320930275563e-01	 1.233619186202624e+01
 1.751139632189640e+00	 2.900603189133286e-01	 1.227717120403218e+01
 1.745367028948611e+00	 3.229844180460166e-01	 1.220762884701960e+01
 1.787500000000000e+00	 0.000000000000000e+00	 1.232214086213030e+01
 1.787218668875638e+00	 3.171245217229974e-02	 1.237394441365727e+01
 1.786366629621130e+00	 6.364365308224038e-02	 1.240976831603652e+01
 1.784932033011234e+00	 9.578041310269911e-02	 1.243016519500673e+01
 1.782903348846188e+00	 1.281089328653570e-01	 1.243572584301821e+01
 1.780269399148155e+00	 1.606148077471684e-01	 1.242708156918985e+01
 1.777019391755757e+00	 1.932830342792328e-01	 1.240490667108210e+01
 1.773142954200753e+00	 2.260980185465493e-01	 1.236992100969380e+01
 1.768630167742926e+00	 2.590435866401711e-01	 1.232289266499870e+01
 1.763471601431642e+00	 2.921029972154534e-01	 1.226464064514757e+01
 1.757658346055410e+00	 3.252589562014102e-01	 1.219603761823617e+01
 1.800000000000000e+00	 0.000000000000000e+00	 1.231457414065128e+01
 1.799716701525128e+00	 3.193421757192412e-02	 1.236494943939808e+01
 1.798858703954184e+00	 6.408871359298220e-02	 1.239966775523344e+01
 1.797414075200213e+00	 9.645020620089774e-02	 1.241926657635802e+01
 1.795371204432684e+00	 1.290047995282736e-01	 1.242432022325264e+01
 1.792718835506084e+00	 1.617379882204352e-01	 1.241544228572931e+01
 1.789446100789376e+00	 1.946346638891202e-01	 1.239328819621777e+01
 1.785542555279577e+00	 2.276791235709719e-01	 1.235855792063728e+01
 1.780998210874648e+00	 2.608550802527859e-01	 1.231199874395266e+01
 1.775803570673254e+00	 2.941456755175779e-01	 1.225440812315421e+01
 1.769949663161724e+00	 3.275334943568037e-01	 1.218663657599902e+01
 1.812500000000000e+00	 0.000000000000000e+00	 1.231015081491995e+01
 1.812214734174612e+00	 3.215598297154849e-02	 1.235899451861180e+01
 1.811350778287220e+00	 6.453377410372405e-02	 1.239250466167542e+01
 1.809896117389150e+00	 9.711999929909636e-02	 1.241120344360448e+01
 1.807839060019105e+00	 1.299006661911902e-01	 1.241564855188478e+01
 1.805168271863896e+00	 1.628611686937021e-01	 1.240643568745866e+01
 1.801872809822825e+00	 1.959862934990077e-01	 1.238420124101345e+01
 1.797942156358166e+00	 2.292602285953945e-01	 1.234962510138260e+01
 1.793366254006062e+00	 2.626665738654007e-01	 1.230343357293648e+01
 1.788135539914474e+00	 2.961883538197025e-01	 1.224640237430918e+01
 1.782240980267553e+00	 3.298080325121973e-01	 1.217935968622669e+01
 1.825000000000000e+00	 0.000000000000000e+00	 1.230875565126064e+01
 1.824712766824093e+00	 3.237774837117288e-02	 1.235596947453906e+01
 1.823842852620237e+00	 6.497883461446587e-02	 1.238817396518027e+01
 1.822378159578045e+00	 9.778979239729499e-02	 1.240587587381372e+01
 1.820306915605452e+00	 1.307965328541067e-01	 1.240961608450335e+01
 1.817617708221590e+00	 1.639843491669689e-01	 1.239997222996596e+01
 1.814299518856104e+00	 1.973379231088951e-01	 1.237756147237382e+01
 1.810341757436523e+00	 2.308413336198172e-01	 1.234304343096670e+01
 1.805734297137171e+00	 2.644780674780155e-01	 1.229712323312313e+01
 1.800467509155304e+00	 2.982310321218272e-01	 1.224055466083672e+01
 1.794532297372897e+00	 3.320825706675907e-01	 1.217414335978110e+01
 1.837500000000000e+00	 0.000000000000000e+00	 1.231027655160796e+01
 1.837210799473569e+00	 3.259951377079726e-02	 1.235576719091166e+01
 1.836334926953235e+00	 6.542389512520771e-02	 1.238657358014917e+01
 1.834860201766898e+00	 9.845958549549363e-02	 1.240318685203906e+01
 1.832774771191723e+00	 1.316923995170233e-01	 1.240613090749928e+01
 1.830067144579166e+00	 1.651075296402358e-01	 1.239596512198065e+01
 1.826726227889211e+00	 1.986895527187826e-01	 1.237328723231978e+01
 1.822741358514645e+00	 2.324224386442398e-01	 1.233873638527072e+01
 1.818102340267972e+00	 2.662895610906304e-01	 1.229299632413250e+01
 1.812799478395743e+00	 3.002737104239518e-01	 1.223679868501086e+01
 1.806823614477755e+00	 3.343571088229843e-01	 1.217092636930630e+01
 1.850000000000000e+00	 0.000000000000000e+00	 1.231460444757390e+01
 1.849708832123041e+00	 3.282127917042164e-02	 1.235828350855757e+01
 1.848827001286216e+00	 6.586895563594955e-02	 1.238760430473607e+01
 1.847342243955709e+00	 9.912937859369225e-02	 1.240304217307676e+01
 1.845242626777920e+00	 1.325882661799398e-01	 1.240510384243056e+01
 1.842516580936625e+00	 1.662307101135026e-01	 1.239433023236203e+01
 1.839152936922149e+00	 2.000411823286701e-01	 1.237129944761294e+01
 1.835140959592534e+00	 2.340035436686624e-01	 1.233662994928882e+01
 1.830470383398466e+00	 2.681010547032451e-01	 1.229098387894872e+01
 1.825131447635792e+00	 3.023163887260764e-01	 1.223507050672140e+01
 1.819114931582128e+00	 3.366316469783779e-01	 1.216964976943857e+01
 1.862500000000000e+00	 0.000000000000000e+00	 1.232163319878090e+01
 1.862206864772507e+00	 3.304304457004600e-02	 1.236341712616951e+01
 1.861319075619178e+00	 6.631401614669137e-02	 1.239116972407749e+01
 1.859824286144479e+00	 9.979917169189090e-02	 1.240535034717942e+01
 1.857710482364042e+00	 1.334841328428564e-01	 1.240644835423803e+01
 1.854966017293967e+00	 1.673538905867695e-01	 1.239498600083312e+01
 1.851579645954916e+00	 2.013928119385575e-01	 1.237152154301931e+01
 1.847540560670190e+00	 2.355846486930850e-01	 1.233665253292973e+01
 1.842838426528654e+00	 2.699125483158599e-01	 1.229101928226372e+01
 1.837463416875449e+00	 3.043590670282010e-01	 1.223530846435917e+01
 1.831406248686016e+00	 3.389061851337714e-01	 1.217025682022936e+01
 1.875000000000000e+00	 0.000000000000000e+00	 1.233125949526147e+01
 1.874704897421970e+00	 3.326480996967039e-02	 1.237106950504285e+01
 1.873811149952121e+00	 6.675907665743323e-02	 1.239717611739311e+01
 1.872306328333207e+00	 1.004689647900895e-01	 1.241002250954070e+01
 1.870178337950090e+00	 1.343799995057729e-01	 1.241008046313270e+01
 1.867415453651191e+00	 1.684770710600364e-01	 1.239785335228524e+01
 1.864006354987513e+00	 2.027444415484450e-01	 1.237387935804249e+01
 1.859940161747613e+00	 2.371657537175077e-01	 1.233873489018626e+01
 1.855206469658534e+00	 2.717240419284748e-01	 1.229303819208687e+01
 1.849795386114716e+00	 3.064017453303257e-01	 1.223745309886617e+01
 1.843697565789419e+00	 3.411807232891650e-01	 1.217269291363160e+01
 1.720784394733555e+00	 3.184353417352296e-01	 1.223765874918515e+01
 1.714443962907183e+00	 3.509727882336210e-01	 1.224483012407568e+01
 1.707446796063893e+00	 3.835693400749201e-01	 1.223955374431113e+01
 1.699785900439417e+00	 4.162065505333916e-01	 1.222231706624426e+01
 1.691454921988814e+00	 4.488655109548259e-01	 1.219366589203268e+01
 1.682448176837619e+00	 4.815268759957912e-01	 1.215420827244839e+01
 1.672760680698918e+00	 5.141708910118742e-01	 1.210461825364759e+01
 1.662388177092036e+00	 5.467774215590895e-01	 1.204563940792692e+01
 1.651327164198396e+00	 5.793259849590476e-01	 1.197808808612259e+01
 1.639574920191208e+00	 6.117957838646149e-01	 1.190285632767463e+01
 1.627129526877964e+00	 6.441657417487923e-01	 1.182091436356457e+01
 1.733075711841326e+00	 3.207098798906232e-01	 1.222147882807444e+01
 1.726689991216679e+00	 3.534797367214088e-01	 1.222671606965288e+01
 1.719642844610636e+00	 3.863091210761491e-01	 1.221993764421306e+01
 1.711927228303469e+00	 4.191794544667827e-01	 1.220161490209563e+01
 1.703536742864199e+00	 4.520716931772842e-01	 1.217227674539464e+01
 1.694465663819255e+00	 4.849663536831973e-01	 1.213251367916529e+01
 1.684708971279676e+00	 5.178435402355064e-01	 1.208298171522223e+01
 1.674262378361351e+00	 5.506829745727694e-01	 1.202440606724478e+01
 1.663122358232710e+00	 5.834640277117502e-01	 1.195758457338804e+01
 1.651286169625344e+00	 6.161657537528370e-01	 1.188339078082919e+01
 1.638751880645368e+00	 6.487669256224087e-01	 1.180277662574344e+01
 1.745367028948611e+00	 3.229844180460166e-01	 1.220762884701960e+01
 1.738936019525595e+00	 3.559866852091919e-01	 1.221083690364640e+01
 1.731838893156713e+00	 3.890489020773594e-01	 1.220245610980653e+01
 1.724068556166777e+00	 4.221523584001311e-01	 1.218294146595858e+01
 1.715618563738773e+00	 4.552778753996662e-01	 1.215280474853375e+01
 1.706483150800026e+00	 4.884058313704840e-01	 1.211261871259359e+01
 1.696657261859521e+00	 5.215161894589655e-01	 1.206302115572426e+01
 1.686136579629713e+00	 5.545885275862120e-01	 1.200471878054590e+01
 1.674917552266045e+00	 5.876020704641420e-01	 1.193849079054876e+01
 1.662997419058485e+00	 6.205357236406640e-01	 1.186519215206031e+01
 1.650374234411771e+00	 6.533681094955353e-01	 1.178575645409179e+01
 1.757658346055410e+00	 3.252589562014102e-01	 1.219603761823617e+01
 1.751182047833929e+00	 3.584936336969702e-01	 1.219712628609898e+01
 1.744034941702122e+00	 3.917886830785507e-01	 1.218704768507204e+01
 1.736209884029342e+00	 4.251252623334367e-01	 1.216624021190067e+01
 1.727700384612536e+00	 4.584840576219720e-01	 1.213519828155328e+01
 1.718500637779927e+00	 4.918453090576508e-01	 1.209447668441871e+01
 1.708605552438449e+00	 5.251888386822515e-01	 1.204469481340504e+01
 1.698010780897124e+00	 5.584940805994180e-01	 1.198654069695134e+01
 1.686712746298402e+00	 5.917401132162234e-01	 1.192077477114622e+01
 1.674708668490632e+00	 6.249056935280959e-01	 1.184823332210108e+01
 1.661996588177176e+00	 6.579692933681721e-01	 1.176983152854782e+01
 1.769949663161724e+00	 3.275334943568037e-01	 1.218663657599902e+01
 1.763428076141683e+00	 3.610005821847440e-01	 1.218552042661708e+01
 1.756230990246865e+00	 3.945284640797232e-01	 1.217365338891531e+01
 1.748351211891164e+00	 4.280981662666999e-01	 1.215145699222373e+01
 1.739782205485490e+00	 4.616902398442015e-01	 1.211940804414428e+01
 1.730518124758961e+00	 4.952847867446978e-01	 1.207804314541642e+01
 1.720553843016463e+00	 5.288614879053642e-01	 1.202796308336936e+01
 1.709884982163583e+00	 5.623996336123871e-01	 1.196983703857711e+01
 1.698507940329780e+00	 5.958781559679937e-01	 1.190440653636166e+01
 1.686419917921784e+00	 6.292756634151330e-01	 1.183248907260407e+01
 1.673618941941580e+00	 6.625704772403191e-01	 1.175498134202059e+01
 1.782240980267553e+00	 3.298080325121973e-01	 1.217935968622669e+01
 1.775674104448857e+00	 3.635075306725129e-01	 1.217595799645481e+01
 1.768427038790941e+00	 3.972682450808769e-01	 1.216221662982506e+01
 1.760492539752241e+00	 4.310710701999204e-01	 1.213853997476597e+01
 1.751864026357632e+00	 4.648964220663550e-01	 1.210538697559982e+01
 1.742535611737127e+00	 4.987242644316255e-01	 1.206327580824296e+01
 1.732502133593562e+00	 5.325341371283038e-01	 1.201278844320117e+01
 1.721759183429090e+00	 5.663051866251195e-01	 1.195457502905154e+01
 1.710303134360180e+00	 6.000161987194534e-01	 1.188935802647696e+01
 1.698131167351941e+00	 6.336456333017750e-01	 1.181793602059230e+01
 1.685241295704983e+00	 6.671716611119766e-01	 1.174118713787387e+01
 1.794532297372897e+00	 3.320825706675907e-01	 1.217414335978110e+01
 1.787920132755449e+00	 3.660144791602774e-01	 1.216838004421092e+01
 1.780623087334351e+00	 4.000080260820117e-01	 1.215268312403796e+01
 1.772633867612575e+00	 4.340439741330983e-01	 1.212743956360297e+01
 1.763945847228964e+00	 4.681026042884321e-01	 1.209309017811633e+01
 1.754553098714425e+00	 5.021637421184332e-01	 1.205013447339792e+01
 1.744450424169746e+00	 5.362067863510702e-01	 1.199913538164573e+01
 1.733633384693645e+00	 5.702107396376150e-01	 1.194072382497042e+01
 1.722098328389602e+00	 6.041542414706025e-01	 1.187560303515195e+01
 1.709842416781103e+00	 6.380156031880218e-01	 1.180455255560411e+01
 1.696863649467388e+00	 6.717728449831445e-01	 1.172843184997899e+01
 1.806823614477755e+00	 3.343571088229843e-01	 1.217092636930630e+01
 1.800166161061462e+00	 3.685214276480370e-01	 1.216272991496678e+01
 1.792819135877093e+00	 4.027478070831276e-01	 1.214500081704380e+01
 1.784775195472166e+00	 4.370168780662335e-01	 1.211810832298504e+01
 1.776027668099485e+00	 4.713087865104332e-01	 1.208247484322534e+01
 1.766570585690856e+00	 5.056032198051217e-01	 1.203858095820922e+01
 1.756398714745015e+00	 5.398794355736636e-01	 1.198697033020285e+01
 1.745507585957248e+00	 5.741162926498736e-01	 1.192825445014972e+01
 1.733893522418045e+00	 6.082922842214408e-01	 1.186311714638432e+01
 1.721553666209272e+00	 6.423855730738739e-01	 1.179231877940354e+01
 1.708486003228792e+00	 6.763740288538224e-01	 1.171670004521459e+01
 1.819114931582128e+00	 3.366316469783779e-01	 1.216964976943857e+01
 1.812412189366892e+00	 3.710283761357918e-01	 1.215895317270249e+01
 1.805015184419169e+00	 4.054875880842249e-01	 1.213911980827292e+01
 1.796916523331014e+00	 4.399897819993261e-01	 1.211050090435841e+01
 1.788109488969196e+00	 4.745149687323580e-01	 1.207350018120798e+01
 1.778588072666419e+00	 5.090426974916901e-01	 1.202857902869701e+01
 1.768347005319369e+00	 5.435520847960839e-01	 1.197626159749323e+01
 1.757381787219899e+00	 5.780218456618955e-01	 1.191713973254389e+01
 1.745688716445509e+00	 6.124303269719682e-01	 1.185187767402526e+01
 1.733264915636445e+00	 6.467555429593308e-01	 1.178121644813483e+01
 1.720108356989195e+00	 6.809752127240108e-01	 1.170597786829748e+01
 1.831406248686016e+00	 3.389061851337714e-01	 1.217025682022936e+01
 1.824658217671743e+00	 3.735353246235422e-01	 1.215699752583718e+01
 1.817211232960577e+00	 4.082273690853030e-01	 1.213499227881624e+01
 1.809057851189117e+00	 4.429626859323761e-01	 1.210457397632509e+01
 1.800191309838096e+00	 4.777211509542068e-01	 1.206612735335161e+01
 1.790605559641113e+00	 5.124821751781390e-01	 1.202009433418130e+01
 1.780295295892808e+00	 5.472247340183306e-01	 1.196697930626782e+01
 1.769255988481599e+00	 5.819273986736807e-01	 1.190735424370426e+01
 1.757483910471995e+00	 6.165683697221850e-01	 1.184186360373068e+01
 1.744976165062624e+00	 6.511255128443929e-01	 1.177122891680636e+01
 1.731730710748600e+00	 6.855763965937093e-01	 1.169625298883502e+01
 1.843697565789419e+00	 3.411807232891650e-01	 1.217269291363160e+01
 1.836904245976013e+00	 3.760422731112877e-01	 1.215681275574772e+01
 1.829407281501320e+00	 4.109671500863628e-01	 1.213257242203668e+01
 1.821199179046478e+00	 4.459355898653836e-01	 1.210028615740432e+01
 1.812273130706186e+00	 4.809273331759791e-01	 1.206031940691629e+01
 1.802623046614941e+00	 5.159216528644683e-01	 1.201309434450527e+01
 1.792243586465333e+00	 5.508973832404047e-01	 1.195909533293688e+01
 1.781130189742346e+00	 5.858329516852289e-01	 1.189887424065916e+01
 1.769279104497502e+00	 6.207064124720912e-01	 1.183305553723437e+01
 1.756687414487809e+00	 6.554954827290598e-01	 1.176234108599511e+01
 1.743353064507004e+00	 6.901775804629183e-01	 1.168751455049545e+01
 1.627129526877964e+00	 6.441657417487923e-01	 1.182091436356457e+01
 1.613989891498045e+00	 6.764145402254381e-01	 1.178649727107938e+01
 1.600155766523939e+00	 7.085206580967053e-01	 1.174682089343759e+01
 1.585627767319404e+00	 7.404624120079153e-01	 1.170262632831072e+01
 1.570407387515452e+00	 7.722179985775097e-01	 1.165473064282553e+01
 1.554497011975571e+00	 8.037655378569363e-01	 1.160402817801700e+01
 1.537899927230667e+00	 8.350831179629202e-01	 1.155149116910856e+01
 1.520620329275986e+00	 8.661488407132029e-01	 1.149816962914207e+01
 1.502663328635016e+00	 8.969408680863412e-01	 1.144519045001092e+01
 1.484034952609081e+00	 9.274374693167079e-01	 1.139375568251731e+01
 1.464742144646208e+00	 9.576170684275745e-01	 1.134513996560369e+01
 1.638751880645368e+00	 6.487669256224087e-01	 1.180277662574344e+01
 1.625518390726798e+00	 6.812460726600401e-01	 1.176722584775965e+01
 1.611585450574138e+00	 7.135815199449438e-01	 1.172640575469062e+01
 1.596953679946601e+00	 7.457514292413342e-01	 1.168102152457782e+01
 1.581624583143993e+00	 7.777338414292114e-01	 1.163185577171900e+01
 1.565600562064543e+00	 8.095067202746747e-01	 1.157977010846684e+01
 1.548884926714374e+00	 8.410479973809957e-01	 1.152570601295076e+01
 1.531481903060134e+00	 8.723356181503270e-01	 1.147068494764907e+01
 1.513396638129045e+00	 9.033475885753565e-01	 1.141580768033751e+01
 1.494635202274586e+00	 9.340620226707022e-01	 1.136225276661421e+01
 1.475204588540842e+00	 9.644571903455147e-01	 1.131127416186863e+01
 1.650374234411771e+00	 6.533681094955353e-01	 1.178575645409179e+01
 1.637046889954552e+00	 6.860776050940667e-01	 1.174882549245529e+01
 1.623015134623337e+00	 7.186423817925500e-01	 1.170661177893737e+01
 1.608279592572798e+00	 7.510404464740931e-01	 1.165978483959251e+01
 1.592841778771534e+00	 7.832496842802550e-01	 1.160909314453028e+01
 1.576704112152514e+00	 8.152479026917873e-01	 1.155536592809276e+01
 1.559869926197083e+00	 8.470128767985073e-01	 1.149951430475733e+01
 1.542343476843282e+00	 8.785223955869790e-01	 1.144253162307269e+01
 1.524129947622075e+00	 9.097543090640229e-01	 1.138549300660738e+01
 1.505235451939092e+00	 9.406865760245012e-01	 1.132955403867032e+01
 1.485667032434476e+00	 9.712973122634445e-01	 1.127594855637551e+01
 1.661996588177176e+00	 6.579692933681721e-01	 1.176983152854782e+01
 1.648575389181304e+00	 6.909091375275175e-01	 1.173128052618179e+01
 1.634444818671535e+00	 7.237032436395238e-01	 1.168742979360116e+01
 1.619605505197995e+00	 7.563294637061926e-01	 1.163891345800722e+01
 1.604058974398076e+00	 7.887655271306413e-01	 1.158644613977269e+01
 1.587807662239485e+00	 8.209890851082737e-01	 1.153082503209598e+01
 1.570854925678792e+00	 8.529777562154547e-01	 1.147293126588825e+01
 1.553205050625430e+00	 8.847091730231600e-01	 1.141373049955774e+01
 1.534863257114104e+00	 9.161610295523409e-01	 1.135427268010261e+01
 1.515835701602599e+00	 9.473111293781052e-01	 1.129569092981331e+01
 1.496129476327111e+00	 9.781374341813636e-01	 1.123919952184572e+01
 1.673618941941580e+00	 6.625704772403191e-01	 1.175498134202059e+01
 1.660103888407058e+00	 6.957406699603933e-01	 1.171457694109913e+01
 1.645874502718734e+00	 7.287641054858656e-01	 1.166885215630432e+01
 1.630931417822192e+00	 7.616184809376318e-01	 1.161840595487676e+01
 1.615276170023616e+00	 7.942813699803695e-01	 1.156391938798370e+01
 1.598911212325456e+00	 8.267302675241344e-01	 1.150615793101265e+01
 1.581839925159500e+00	 8.589426356318381e-01	 1.144597309830876e+01
 1.564066624406578e+00	 8.908959504588688e-01	 1.138430326935359e+01
 1.545596566605134e+00	 9.225677500403102e-01	 1.132217367020602e+01
 1.526435951265105e+00	 9.539356827315140e-01	 1.126069546202932e+01
 1.506591920218745e+00	 9.849775560992717e-01	 1.120106389763926e+01
 1.685241295704983e+00	 6.671716611119766e-01	 1.174118713787387e+01
 1.671632387631811e+00	 7.005722023926938e-01	 1.169870234288601e+01
 1.657304186764933e+00	 7.338249673315752e-01	 1.165087270210268e+01
 1.642257330445389e+00	 7.669074981684119e-01	 1.159826224771336e+01
 1.626493365648157e+00	 7.997972128294403e-01	 1.154151872855170e+01
 1.610014762410427e+00	 8.324714499393688e-01	 1.148137621225401e+01
 1.592824924639209e+00	 8.649075150476579e-01	 1.141865695077532e+01
 1.574928198186726e+00	 8.970827278941063e-01	 1.135427244356924e+01
 1.556329876095164e+00	 9.289744705279305e-01	 1.128922363963909e+01
 1.537036200926610e+00	 9.605602360847276e-01	 1.122460022778851e+01
 1.517054364109380e+00	 9.918176780171698e-01	 1.116157897366390e+01
 1.696863649467388e+00	 6.717728449831445e-01	 1.172843184997899e+01
 1.683160886855564e+00	 7.054037348244186e-01	 1.168364589548244e+01
 1.668733870810132e+00	 7.388858291766527e-01	 1.163348669288854e+01
 1.653583243067586e+00	 7.721965153985318e-01	 1.157848355051216e+01
 1.637710561271698e+00	 8.053130556778525e-01	 1.151925116831701e+01
 1.621118312494399e+00	 8.382126323539776e-01	 1.145649250322709e+01
 1.603809924117917e+00	 8.708723944629133e-01	 1.139100088641122e+01
 1.585789771965874e+00	 9.032695053288717e-01	 1.132366132413011e+01
 1.567063185584193e+00	 9.353811910152019e-01	 1.125545092071743e+01
 1.547636450587117e+00	 9.671847894377464e-01	 1.118743837050793e+01
 1.527516807999014e+00	 9.986577999350574e-01	 1.112078247494535e+01
 1.708486003228792e+00	 6.763740288538224e-01	 1.171670004521459e+01
 1.694689386078318e+00	 7.102352672555683e-01	 1.166939826808756e+01
 1.680163554854331e+00	 7.439466910210980e-01	 1.161669076885882e+01
 1.664909155688782e+00	 7.774855326279917e-01	 1.155907232965311e+01
 1.648927756894240e+00	 8.108288985256076e-01	 1.149712484186261e+01
 1.632221862577370e+00	 8.439538147679603e-01	 1.143152043596078e+01
 1.614794923595626e+00	 8.768372738776048e-01	 1.136302385160580e+01
 1.596651345744023e+00	 9.094562827631659e-01	 1.129249397687956e+01
 1.577796495072223e+00	 9.417879115021248e-01	 1.122088449257556e+01
 1.558236700246622e+00	 9.738093427905699e-01	 1.114924356581196e+01
 1.537979251887649e+00	 1.005497921852934e+00	 1.107871254682735e+01
 1.720108356989195e+00	 6.809752127240108e-01	 1.170597786829748e+01
 1.706217885300071e+00	 7.150667996861424e-01	 1.165595158430640e+01
 1.691593238897530e+00	 7.490075528649108e-01	 1.160048290195068e+01
 1.676235068308979e+00	 7.827745498567924e-01	 1.154003226159070e+01
 1.660144952515781e+00	 8.163447413727047e-01	 1.147514897341470e+01
 1.643325412659340e+00	 8.496949971813165e-01	 1.140647461316582e+01
 1.625779923072334e+00	 8.828021532917318e-01	 1.133474564617419e+01
 1.607512919521170e+00	 9.156430601969879e-01	 1.126079520577090e+01
 1.588529804559253e+00	 9.481946319886988e-01	 1.118555395931487e+01
 1.568836949905128e+00	 9.804338961431981e-01	 1.111005000355209e+01
 1.548441695775283e+00	 1.012338043770800e+00	 1.103540774077174e+01
 1.731730710748600e+00	 6.855763965937093e-01	 1.169625298883502e+01
 1.717746384520824e+00	 7.198983321161414e-01	 1.164329937334420e+01
 1.703022922939729e+00	 7.540684147080918e-01	 1.158486235115233e+01
 1.687560980928176e+00	 7.880635670849330e-01	 1.152136819224741e+01
 1.671362148136322e+00	 8.218605842191440e-01	 1.145333384027752e+01
 1.654428962740312e+00	 8.554361795940472e-01	 1.138137057566163e+01
 1.636764922548042e+00	 8.887670327052954e-01	 1.130618689471903e+01
 1.618374493297319e+00	 9.218298376303385e-01	 1.122859052809849e+01
 1.599263114045282e+00	 9.546013524749239e-01	 1.114948952903154e+01
 1.579437199562634e+00	 9.870584494956315e-01	 1.106989237055120e+01
 1.558904139661917e+00	 1.019178165688655e+00	 1.099090700073037e+01
 1.743353064507004e+00	 6.901775804629183e-01	 1.168751455049545e+01
 1.729274883740578e+00	 7.247298645455649e-01	 1.163143652315318e+01
 1.714452606980928e+00	 7.591292765506406e-01	 1.156982961960126e+01
 1.698886893546374e+00	 7.933525843124138e-01	 1.150308609803144e+01
 1.682579343755863e+00	 8.273764270649256e-01	 1.143169073773074e+01
 1.665532512820283e+00	 8.611773620061519e-01	 1.135622477110597e+01
 1.647749922022751e+00	 8.947319121182951e-01	 1.127736901913743e+01
 1.629236067072467e+00	 9.280166150632179e-01	 1.119590615071982e+01
 1.609996423530313e+00	 9.610080729608007e-01	 1.111272199368344e+01
 1.590037449219140e+00	 9.936830028478698e-01	 1.102880583403777e+01
 1.569366583547552e+00	 1.026018287606500e+00	 1.094524965006202e+01
 1.464742144646208e+00	 9.576170684275745e-01	 1.134513996560369e+01
 1.444792760779105e+00	 9.874582919979614e-01	 1.110218913815602e+01
 1.424195563096069e+00	 1.016940016954224e+00	 1.088184513708779e+01
 1.402960210228699e+00	 1.046041418172352e+00	 1.068669547703754e+01
 1.381097244858090e+00	 1.074742015674165e+00	 1.051933333600262e+01
 1.358618078255741e+00	 1.103021721200889e+00	 1.038234581658845e+01
 1.335534971896006e+00	 1.130860883947535e+00	 1.027830161299827e+01
 1.311861016194242e+00	 1.158240335244118e+00	 1.020973816297024e+01
 1.287610106442683e+00	 1.185141431973866e+00	 1.017914837342547e+01
 1.262796916033438e+00	 1.211546098524362e+00	 1.018896701732145e+01
 1.237436867075000e+00	 1.237436867075000e+00	 1.026229142363657e+01
 1.475204588540842e+00	 9.644571903455147e-01	 1.131127416186863e+01
 1.455112709074938e+00	 9.945115655117275e-01	 1.107229064800069e+01
 1.434368388551411e+00	 1.024203874216805e+00	 1.085750538189290e+01
 1.412981354592089e+00	 1.053513142585853e+00	 1.066961055865020e+01
 1.390962225182928e+00	 1.082418744355134e+00	 1.051130089188745e+01
 1.368322493104510e+00	 1.110900447778312e+00	 1.038526137944234e+01
 1.345074507413148e+00	 1.138938461687509e+00	 1.029415447724442e+01
 1.321231452027168e+00	 1.166513480493667e+00	 1.024060676399409e+01
 1.296807321490887e+00	 1.193606727914892e+00	 1.022719518894700e+01
 1.271816894006361e+00	 1.220199999227256e+00	 1.025643300388447e+01
 1.246275701840000e+00	 1.246275701840000e+00	 1.033728024706405e+01
 1.485667032434476e+00	 9.712973122634445e-01	 1.127594855637551e+01
 1.465432657369780e+00	 1.001564839025664e+00	 1.104127244600338e+01
 1.444541214005794e+00	 1.031467731479696e+00	 1.083236278903342e+01
 1.423002498954569e+00	 1.060984866999766e+00	 1.065201590683604e+01
 1.400827205506926e+00	 1.090095473036578e+00	 1.050302758614549e+01
 1.378026907952530e+00	 1.118779174356233e+00	 1.038818035140295e+01
 1.354614042929651e+00	 1.147016039427960e+00	 1.031023014705762e+01
 1.330601887859582e+00	 1.174786625743633e+00	 1.027189251591036e+01
 1.306004536538730e+00	 1.202072023856238e+00	 1.027582836931868e+01
 1.280836871979093e+00	 1.228853899930329e+00	 1.032462945392743e+01
 1.255114536605000e+00	 1.255114536605000e+00	 1.032402144669856e+01
 1.496129476327111e+00	 9.781374341813636e-01	 1.123919952184572e+01
 1.475752605663633e+00	 1.008618112539770e+00	 1.100916293601424e+01
 1.454714039459216e+00	 1.038731588742899e+00	 1.080643804718809e+01
 1.433023643316138e+00	 1.068456591414092e+00	 1.063392476617588e+01
 1.410692185830083e+00	 1.097772201718495e+00	 1.049451950740081e+01
 1.387731322799798e+00	 1.126657900934648e+00	 1.039110196997429e+01
 1.364153578445512e+00	 1.155093617168889e+00	 1.032652132991566e+01
 1.339972323691486e+00	 1.183059770994018e+00	 1.030358193301673e+01
 1.315201751586213e+00	 1.210537319797904e+00	 1.032502858768699e+01
 1.289856849951636e+00	 1.237507800633582e+00	 1.039353156602255e+01
 1.263953371370000e+00	 1.263953371370000e+00	 1.025251122347169e+01
 1.506591920218745e+00	 9.849775560992717e-01	 1.120106389763926e+01
 1.486072553956495e+00	 1.015671386054045e+00	 1.097599121930270e+01
 1.464886864911678e+00	 1.045995446006413e+00	 1.077975276255274e+01
 1.443044787676797e+00	 1.075928315828831e+00	 1.061535150770410e+01
 1.420557166152399e+00	 1.105448930400887e+00	 1.048578406805238e+01
 1.397435737646315e+00	 1.134536627513560e+00	 1.039402698171452e+01
 1.373693113960733e+00	 1.163171194910295e+00	 1.034302241518861e+01
 1.349342759522880e+00	 1.191332916244822e+00	 1.033566337153197e+01
 1.324398966633336e+00	 1.219002615739889e+00	 1.037477850600115e+01
 1.298876827923988e+00	 1.246161701337016e+00	 1.046311666097520e+01
 1.272792206135000e+00	 1.272792206135000e+00	 1.018790670677658e+01
 1.517054364109380e+00	 9.918176780171698e-01	 1.116157897366390e+01
 1.496392502248367e+00	 1.022724659568490e+00	 1.094178707050858e+01
 1.475059690363180e+00	 1.053259303270238e+00	 1.075232942720175e+01
 1.453065932036545e+00	 1.083400040243982e+00	 1.059631159006535e+01
 1.430422146473876e+00	 1.113125659083753e+00	 1.047682995862665e+01
 1.407140152492082e+00	 1.142415354092968e+00	 1.039695759019950e+01
 1.383232649475314e+00	 1.171248772652179e+00	 1.035972941614268e+01
 1.358713195353763e+00	 1.199606061496045e+00	 1.036812696608130e+01
 1.333596181680099e+00	 1.227467911682194e+00	 1.042506270643374e+01
 1.307896805896150e+00	 1.254815602040628e+00	 1.045163552133398e+01
 1.281631040900000e+00	 1.281631040900000e+00	 1.013010394749637e+01
 1.527516807999014e+00	 9.986577999350574e-01	 1.112078247494535e+01
 1.506712450539249e+00	 1.029777933083105e+00	 1.090658091458143e+01
 1.485232515813721e+00	 1.060523160534374e+00	 1.072419138874983e+01
 1.463087076395382e+00	 1.090871764659546e+00	 1.057682152226770e+01
 1.440287126794510e+00	 1.120802387767094e+00	 1.046766710400608e+01
 1.416844567337098e+00	 1.150294080672872e+00	 1.039989740612489e+01
 1.392772184989253e+00	 1.179326350394540e+00	 1.037663991432721e+01
 1.368083631184136e+00	 1.207879206747686e+00	 1.040096456879209e+01
 1.342793396726501e+00	 1.235933207624818e+00	 1.047586762561954e+01
 1.316916783868122e+00	 1.263469502744421e+00	 1.038021983347403e+01
 1.290469875665000e+00	 1.290469875665000e+00	 1.007900108701612e+01
 1.537979251887649e+00	 1.005497921852934e+00	 1.107871254682735e+01
 1.517032398829141e+00	 1.036831206597890e+00	 1.087040380466119e+01
 1.495405341263303e+00	 1.067787017798821e+00	 1.069536282125191e+01
 1.473108220753309e+00	 1.098343489075522e+00	 1.055689882795592e+01
 1.450152107114305e+00	 1.128479116450908e+00	 1.045830662144429e+01
 1.426548982181364e+00	 1.158172807253272e+00	 1.040285139944514e+01
 1.402311720502552e+00	 1.187403928137378e+00	 1.039375300623194e+01
 1.377454067013998e+00	 1.216152351999745e+00	 1.043416969087547e+01
 1.351990611772543e+00	 1.244398503567761e+00	 1.052718149157864e+01
 1.325936761839904e+00	 1.272123403448393e+00	 1.031522760553211e+01
 1.299308710430000e+00	 1.299308710430000e+00	 1.003449828611740e+01
 1.548441695775283e+00	 1.012338043770800e+00	 1.103540774077174e+01
 1.527352347118043e+00	 1.043884480112846e+00	 1.083328740085549e+01
 1.505578166711924e+00	 1.075050875063579e+00	 1.066586869728290e+01
 1.483129365110326e+00	 1.105815213491911e+00	 1.053656201113328e+01
 1.460017087433259e+00	 1.136155845135198e+00	 1.044876078028308e+01
 1.436253397024878e+00	 1.166051533834168e+00	 1.040582585345230e+01
 1.411851256015211e+00	 1.195481505880694e+00	 1.041106925210624e+01
 1.386824502843350e+00	 1.224425497252223e+00	 1.046773744657613e+01
 1.361187826818225e+00	 1.252863799511024e+00	 1.053574262039839e+01
 1.334956739811496e+00	 1.280777304152546e+00	 1.025656419845578e+01
 1.308147545195000e+00	 1.308147545195000e+00	 9.996497656755352e+00
 1.558904139661917e+00	 1.019178165688655e+00	 1.099090700073037e+01
 1.537672295405955e+00	 1.050937753627970e+00	 1.079526394987163e+01
 1.515750992159585e+00	 1.082314732328648e+00	 1.063573476114175e+01
 1.493150509466432e+00	 1.113286937908712e+00	 1.051583052326355e+01
 1.469882067751373e+00	 1.143832573819961e+00	 1.043904296329190e+01
 1.445957811867642e+00	 1.173930260415559e+00	 1.040882832070456e+01
 1.421390791527228e+00	 1.203559083624488e+00	 1.042859062683998e+01
 1.396194938672191e+00	 1.232698642505121e+00	 1.050166449937926e+01
 1.370385041863546e+00	 1.261329095454607e+00	 1.046390106244412e+01
 1.343976717782898e+00	 1.289431204856878e+00	 1.020413675820367e+01
 1.316986379960000e+00	 1.316986379960000e+00	 9.964903196583030e+00
 1.569366583547552e+00	 1.026018287606500e+00	 1.094524965006202e+01
 1.547992243692877e+00	 1.057991027143265e+00	 1.075636626546326e+01
 1.525923817606285e+00	 1.089578589594028e+00	 1.060498750312727e+01
 1.503171653821628e+00	 1.120758662325927e+00	 1.049472473168904e+01
 1.479747048068645e+00	 1.151509302505199e+00	 1.042916762955361e+01
 1.455662226709656e+00	 1.181808986997448e+00	 1.041186758071717e+01
 1.430930327038606e+00	 1.211636661368759e+00	 1.044632047280864e+01
 1.405565374500522e+00	 1.240971787758436e+00	 1.053594901036926e+01
 1.379582256908508e+00	 1.269794391398509e+00	 1.039801796741524e+01
 1.352996695754110e+00	 1.298085105561391e+00	 1.015785415624512e+01
 1.325825214725000e+00	 1.325825214725000e+00	 9.939620726094859e+00
 1.237436867075000e+00	 1.237436867075000e+00	 1.026229142363657e+01
 1.211546098524362e+00	 1.262796916033438e+00	 1.022120289376323e+01
 1.185141431973866e+00	 1.287610106442683e+00	 9.936843578939619e+00
 1.158240335244119e+00	 1.311861016194243e+00	 9.657028735360052e+00
 1.130860883947535e+00	 1.335534971896005e+00	 9.383042037795974e+00
 1.103021721200889e+00	 1.358618078255741e+00	 9.116182669445218e+00
 1.074742015674166e+00	 1.381097244858090e+00	 8.857757122047438e+00
 1.046041418172353e+00	 1.402960210228699e+00	 8.609070824064595e+00
 1.016940016954224e+00	 1.424195563096068e+00	 8.371419675915014e+00
 9.874582919979624e-01	 1.444792760779105e+00	 8.146081572365691e+00
 9.576170684275745e-01	 1.464742144646208e+00	 7.934307992231544e+00
 1.246275701840000e+00	 1.246275701840000e+00	 1.033728024706405e+01
 1.220199999227256e+00	 1.271816894006361e+00	 1.014672341600662e+01
 1.193606727914892e+00	 1.296807321490887e+00	 9.885333297952817e+00
 1.166513480493667e+00	 1.321231452027167e+00	 9.626059641063963e+00
 1.138938461687509e+00	 1.345074507413148e+00	 9.370099550734963e+00
 1.110900447778313e+00	 1.368322493104510e+00	 9.118675866724491e+00
 1.082418744355135e+00	 1.390962225182927e+00	 8.873029151751499e+00
 1.053513142585854e+00	 1.412981354592089e+00	 8.634409448440783e+00
 1.024203874216806e+00	 1.434368388551411e+00	 8.404067883739231e+00
 9.945115655117286e-01	 1.455112709074937e+00	 8.183248201557593e+00
 9.644571903455147e-01	 1.475204588540842e+00	 7.973178304930949e+00
 1.255114536605000e+00	 1.255114536605000e+00	 1.032402144669856e+01
 1.228853899930329e+00	 1.280836871979093e+00	 1.007691320461275e+01
 1.202072023856238e+00	 1.306004536538730e+00	 9.837939494658579e+00
 1.174786625743633e+00	 1.330601887859582e+00	 9.598675732390999e+00
 1.147016039427960e+00	 1.354614042929651e+00	 9.360233721644150e+00
 1.118779174356233e+00	 1.378026907952529e+00	 9.123761178284868e+00
 1.090095473036578e+00	 1.400827205506926e+00	 8.890433902032880e+00
 1.060984866999767e+00	 1.423002498954568e+00	 8.661447657138606e+00
 1.031467731479697e+00	 1.444541214005793e+00	 8.438009841213598e+00
 1.001564839025664e+00	 1.465432657369779e+00	 8.221331023651388e+00
 9.712973122634446e-01	 1.485667032434477e+00	 8.012616436111255e+00
 1.263953371370000e+00	 1.263953371370000e+00	 1.025251122347169e+01
 1.237507800633582e+00	 1.289856849951636e+00	 1.001173439398701e+01
 1.210537319797904e+00	 1.315201751586213e+00	 9.794635407385769e+00
 1.183059770994018e+00	 1.339972323691486e+00	 9.574860681918199e+00
 1.155093617168889e+00	 1.364153578445512e+00	 9.353437970634277e+00
 1.126657900934648e+00	 1.387731322799797e+00	 9.131441069928707e+00
 1.097772201718496e+00	 1.410692185830083e+00	 8.909982169364438e+00
 1.068456591414093e+00	 1.433023643316137e+00	 8.690203851078435e+00
 1.038731588742900e+00	 1.454714039459216e+00	 8.473270818274123e+00
 1.008618112539770e+00	 1.475752605663632e+00	 8.260361434959536e+00
 9.781374341813637e-01	 1.496129476327111e+00	 8.052659160614198e+00
 1.272792206135000e+00	 1.272792206135000e+00	 1.018790670677658e+01
 1.246161701337015e+00	 1.298876827923988e+00	 9.951151020769490e+00
 1.219002615739890e+00	 1.324398966633336e+00	 9.755395853291567e+00
 1.191332916244822e+00	 1.349342759522880e+00	 9.554599434552806e+00
 1.163171194910296e+00	 1.373693113960733e+00	 9.349706701119594e+00
 1.134536627513560e+00	 1.397435737646315e+00	 9.141718719723272e+00
 1.105448930400887e+00	 1.420557166152399e+00	 8.931685209902088e+00
 1.075928315828831e+00	 1.443044787676796e+00	 8.720696657156672e+00
 1.045995446006414e+00	 1.464886864911678e+00	 8.509876096369750e+00
 1.015671386054046e+00	 1.486072553956495e+00	 8.300370648404842e+00
 9.849775560992720e-01	 1.506591920218745e+00	 8.093342894813521e+00
 1.281631040900000e+00	 1.281631040900000e+00	 1.013010394749637e+01
 1.254815602040628e+00	 1.307896805896150e+00	 9.904265969183273e+00
 1.227467911682194e+00	 1.333596181680099e+00	 9.720197173918994e+00
 1.199606061496045e+00	 1.358713195353763e+00	 9.537878163658714e+00
 1.171248772652179e+00	 1.383232649475313e+00	 9.349035265910972e+00
 1.142415354092968e+00	 1.407140152492081e+00	 9.154597993439795e+00
 1.113125659083754e+00	 1.430422146473875e+00	 8.955554723633096e+00
 1.083400040243983e+00	 1.453065932036545e+00	 8.752944920453510e+00
 1.053259303270239e+00	 1.475059690363180e+00	 8.547850968065267e+00
 1.022724659568491e+00	 1.496392502248366e+00	 8.341389699843813e+00
 9.918176780171699e-01	 1.517054364109380e+00	 8.134703708975957e+00
 1.290469875665000e+00	 1.290469875665000e+00	 1.007900108701612e+01
 1.263469502744421e+00	 1.316916783868122e+00	 9.870451503610791e+00
 1.235933207624818e+00	 1.342793396726501e+00	 9.689017182991870e+00
 1.207879206747686e+00	 1.368083631184136e+00	 9.524684228986157e+00
 1.179326350394540e+00	 1.392772184989253e+00	 9.351419934702001e+00
 1.150294080672872e+00	 1.416844567337098e+00	 9.170083421002065e+00
 1.120802387767094e+00	 1.440287126794510e+00	 8.981602839176798e+00
 1.090871764659547e+00	 1.463087076395382e+00	 8.786967696760723e+00
 1.060523160534375e+00	 1.485232515813721e+00	 8.587220736660692e+00
 1.029777933083107e+00	 1.506712450539249e+00	 8.383449454130838e+00
 9.986577999350573e-01	 1.527516807999014e+00	 8.176777339114036e+00
 1.299308710430000e+00	 1.299308710430000e+00	 1.003449828611740e+01
 1.272123403448393e+00	 1.325936761839904e+00	 9.842703864397002e+00
 1.244398503567761e+00	 1.351990611772543e+00	 9.661835116340846e+00
 1.216152351999746e+00	 1.377454067013998e+00	 9.515006136318309e+00
 1.187403928137379e+00	 1.402311720502552e+00	 9.356857862882913e+00
 1.158172807253272e+00	 1.426548982181363e+00	 9.188180173896196e+00
 1.128479116450909e+00	 1.450152107114305e+00	 9.009842099205041e+00
 1.098343489075523e+00	 1.473108220753309e+00	 8.822784245414731e+00
 1.067787017798822e+00	 1.495405341263302e+00	 8.628010715826127e+00
 1.036831206597892e+00	 1.517032398829141e+00	 8.426580610934238e+00
 1.005497921852934e+00	 1.537979251887649e+00	 8.219599198355516e+00
 1.308147545195000e+00	 1.308147545195000e+00	 9.996497656755352e+00
 1.280777304152546e+00	 1.334956739811497e+00	 9.820936367711946e+00
 1.252863799511024e+00	 1.361187826818225e+00	 9.644118301220072e+00
 1.224425497252224e+00	 1.386824502843349e+00	 9.508833498754008e+00
 1.195481505880695e+00	 1.411851256015210e+00	 9.365347061617964e+00
 1.166051533834168e+00	 1.436253397024877e+00	 9.208894043496166e+00
 1.136155845135198e+00	 1.460017087433259e+00	 9.040285446453973e+00
 1.105815213491912e+00	 1.483129365110326e+00	 8.860414022420027e+00
 1.075050875063580e+00	 1.505578166711923e+00	 8.670246229251319e+00
 1.043884480112846e+00	 1.527352347118043e+00	 8.470813710317392e+00
 1.012338043770800e+00	 1.548441695775283e+00	 8.263204387851482e+00
 1.316986379960000e+00	 1.316986379960000e+00	 9.964903196583030e+00
 1.289431204856878e+00	 1.343976717782898e+00	 9.805063929696139e+00
 1.261329095454607e+00	 1.370385041863546e+00	 9.642054211627952e+00
 1.232698642505121e+00	 1.396194938672191e+00	 9.506156999549541e+00
 1.203559083624488e+00	 1.421390791527228e+00	 9.376886369128599e+00
 1.173930260415560e+00	 1.445957811867642e+00	 9.232231420262204e+00
 1.143832573819962e+00	 1.469882067751372e+00	 9.072946210299081e+00
 1.113286937908713e+00	 1.493150509466432e+00	 8.899876673849658e+00
 1.082314732328649e+00	 1.515750992159584e+00	 8.713952610309551e+00
 1.050937753627971e+00	 1.537672295405955e+00	 8.516179138094124e+00
 1.019178165688655e+00	 1.558904139661917e+00	 8.307627707245455e+00
 1.325825214725000e+00	 1.325825214725000e+00	 9.939620726094859e+00
 1.298085105561391e+00	 1.352996695754110e+00	 9.795003013127864e+00
 1.269794391398509e+00	 1.379582256908508e+00	 9.645325023801291e+00
 1.240971787758436e+00	 1.405565374500522e+00	 9.506968356446675e+00
 1.211636661368759e+00	 1.430930327038606e+00	 9.391475423124577e+00
 1.181808986997448e+00	 1.455662226709656e+00	 9.258199273771394e+00
 1.151509302505200e+00	 1.479747048068645e+00	 9.107838093867299e+00
 1.120758662325928e+00	 1.503171653821628e+00	 8.941192029509484e+00
 1.089578589594029e+00	 1.525923817606285e+00	 8.759155201734814e+00
 1.057991027143266e+00	 1.547992243692877e+00	 8.562707130970558e+00
 1.026018287606500e+00	 1.569366583547552e+00	 8.352903664723495e+00
 9.576170684275745e-01	 1.464742144646208e+00	 7.934307992231544e+00
 9.274374693167079e-01	 1.484034952609081e+00	 7.747206100229093e+00
 8.969408680863412e-01	 1.502663328635016e+00	 7.548565076565588e+00
 8.661488407132029e-01	 1.520620329275986e+00	 7.339094163752712e+00
 8.350831179629206e-01	 1.537899927230666e+00	 7.119554928237656e+00
 8.037655378569366e-01	 1.554497011975572e+00	 6.890753742884790e+00
 7.722179985775102e-01	 1.570407387515452e+00	 6.653534203137616e+00
 7.404624120079161e-01	 1.585627767319404e+00	 6.408769550455704e+00
 7.085206580967063e-01	 1.600155766523939e+00	 6.157355173618473e+00
 6.764145402254393e-01	 1.613989891498045e+00	 5.900201254698387e+00
 6.441657417487923e-01	 1.627129526877964e+00	 5.638225622017412e+00
 9.644571903455147e-01	 1.475204588540842e+00	 7.973178304930949e+00
 9.340620226707020e-01	 1.494635202274587e+00	 7.782710355670268e+00
 9.033475885753567e-01	 1.513396638129045e+00	 7.581283488751033e+00
 8.723356181503269e-01	 1.531481903060134e+00	 7.369657410443801e+00
 8.410479973809958e-01	 1.548884926714374e+00	 7.148640853830872e+00
 8.095067202746751e-01	 1.565600562064542e+00	 6.919083850056166e+00
 7.777338414292119e-01	 1.581624583143993e+00	 6.681869956737762e+00
 7.457514292413349e-01	 1.596953679946601e+00	 6.437908518284370e+00
 7.135815199449446e-01	 1.611585450574138e+00	 6.188127029600919e+00
 6.812460726600413e-01	 1.625518390726798e+00	 5.933463670621218e+00
 6.487669256224087e-01	 1.638751880645368e+00	 5.674860074357859e+00
 9.712973122634446e-01	 1.485667032434477e+00	 8.012616436111255e+00
 9.406865760245010e-01	 1.505235451939093e+00	 7.818924649210324e+00
 9.097543090640229e-01	 1.524129947622075e+00	 7.614836208280483e+00
 8.785223955869794e-01	 1.542343476843282e+00	 7.401161531338689e+00
 8.470128767985073e-01	 1.559869926197083e+00	 7.178756809807371e+00
 8.152479026917877e-01	 1.576704112152514e+00	 6.948516065499061e+00
 7.832496842802557e-01	 1.592841778771534e+00	 6.711363188127855e+00
 7.510404464740938e-01	 1.608279592572798e+00	 6.468244029263975e+00
 7.186423817925509e-01	 1.623015134623336e+00	 6.220118625140685e+00
 6.860776050940676e-01	 1.637046889954551e+00	 5.967953616414405e+00
 6.533681094955354e-01	 1.650374234411771e+00	 5.712714927972861e+00
 9.781374341813637e-01	 1.496129476327111e+00	 8.052659160614198e+00
 9.473111293781052e-01	 1.515835701602599e+00	 7.855880720569965e+00
 9.161610295523410e-01	 1.534863257114104e+00	 7.649250209336671e+00
 8.847091730231601e-01	 1.553205050625430e+00	 7.433629014144749e+00
 8.529777562154551e-01	 1.570854925678792e+00	 7.209921085144176e+00
 8.209890851082741e-01	 1.587807662239485e+00	 6.979064775063760e+00
 7.887655271306419e-01	 1.604058974398075e+00	 6.742024682645349e+00
 7.563294637061935e-01	 1.619605505197995e+00	 6.499783576977110e+00
 7.237032436395248e-01	 1.634444818671535e+00	 6.253334476087210e+00
 6.909091375275186e-01	 1.648575389181304e+00	 6.003672948590562e+00
 6.579692933681720e-01	 1.661996588177175e+00	 5.751789701914994e+00
 9.849775560992720e-01	 1.506591920218745e+00	 8.093342894813521e+00
 9.539356827315137e-01	 1.526435951265105e+00	 7.893610064365294e+00
 9.225677500403102e-01	 1.545596566605134e+00	 7.684552326170532e+00
 8.908959504588690e-01	 1.564066624406578e+00	 7.467082303481470e+00
 8.589426356318386e-01	 1.581839925159500e+00	 7.242152014130803e+00
 8.267302675241348e-01	 1.598911212325456e+00	 7.010744489776072e+00
 7.942813699803704e-01	 1.615276170023616e+00	 6.773865422058652e+00
 7.616184809376328e-01	 1.630931417822191e+00	 6.532534914037649e+00
 7.287641054858667e-01	 1.645874502718734e+00	 6.287779411240928e+00
 6.957406699603945e-01	 1.660103888407058e+00	 6.040623881847931e+00
 6.625704772403191e-01	 1.673618941941579e+00	 5.792084309988979e+00
 9.918176780171699e-01	 1.517054364109380e+00	 8.134703708975957e+00
 9.605602360847276e-01	 1.537036200926611e+00	 7.932143938559802e+00
 9.289744705279306e-01	 1.556329876095164e+00	 7.720769257926442e+00
 8.970827278941061e-01	 1.574928198186726e+00	 7.501543802366779e+00
 8.649075150476579e-01	 1.592824924639208e+00	 7.275467974806642e+00
 8.324714499393694e-01	 1.610014762410427e+00	 7.043569841520567e+00
 7.997972128294406e-01	 1.626493365648157e+00	 6.806896577793824e+00
 7.669074981684126e-01	 1.642257330445388e+00	 6.566506043159039e+00
 7.338249673315762e-01	 1.657304186764933e+00	 6.323458561561809e+00
 7.005722023926947e-01	 1.671632387631810e+00	 6.078808976718936e+00
 6.671716611119766e-01	 1.685241295704983e+00	 5.833599047139865e+00
 9.986577999350573e-01	 1.527516807999014e+00	 8.176777339114036e+00
 9.671847894377462e-01	 1.547636450587116e+00	 7.971513372568813e+00
 9.353811910152018e-01	 1.567063185584193e+00	 7.757927573269316e+00
 9.032695053288720e-01	 1.585789771965874e+00	 7.537035873641336e+00
 8.708723944629133e-01	 1.603809924117917e+00	 7.309887387462563e+00
 8.382126323539778e-01	 1.621118312494398e+00	 7.077555578901952e+00
 8.053130556778535e-01	 1.637710561271698e+00	 6.841129504439285e+00
 7.721965153985323e-01	 1.653583243067585e+00	 6.601705208588907e+00
 7.388858291766537e-01	 1.668733870810132e+00	 6.360377349821460e+00
 7.054037348244198e-01	 1.683160886855564e+00	 6.118231127726489e+00
 6.717728449831446e-01	 1.696863649467388e+00	 5.876334576400052e+00
 1.005497921852934e+00	 1.537979251887649e+00	 8.219599198355516e+00
 9.738093427905699e-01	 1.558236700246622e+00	 8.011749175033406e+00
 9.417879115021248e-01	 1.577796495072223e+00	 7.796053714822426e+00
 9.094562827631661e-01	 1.596651345744022e+00	 7.573580841335229e+00
 8.768372738776050e-01	 1.614794923595625e+00	 7.345428713203960e+00
 8.439538147679604e-01	 1.632221862577369e+00	 7.112716563274635e+00
 8.108288985256082e-01	 1.648927756894240e+00	 6.876575733515860e+00
 7.774855326279926e-01	 1.664909155688782e+00	 6.638140887893840e+00
 7.439466910210989e-01	 1.680163554854331e+00	 6.398541480677374e+00
 7.102352672555692e-01	 1.694689386078317e+00	 6.158893552023855e+00
 6.763740288538225e-01	 1.708486003228792e+00	 5.920291916369381e+00
 1.012338043770800e+00	 1.548441695775283e+00	 8.263204387851482e+00
 9.804338961431978e-01	 1.568836949905128e+00	 8.052881941278777e+00
 9.481946319886988e-01	 1.588529804559253e+00	 7.835174003425957e+00
 9.156430601969882e-01	 1.607512919521170e+00	 7.611200991979262e+00
 8.828021532917325e-01	 1.625779923072334e+00	 7.382110452571846e+00
 8.496949971813170e-01	 1.643325412659341e+00	 7.149067764933991e+00
 8.163447413727055e-01	 1.660144952515780e+00	 6.913246967499360e+00
 7.827745498567932e-01	 1.676235068308980e+00	 6.675821784076772e+00
 7.490075528649117e-01	 1.691593238897529e+00	 6.437956931150151e+00
 7.150667996861435e-01	 1.706217885300070e+00	 6.200799778495001e+00
 6.809752127240106e-01	 1.720108356989195e+00	 5.965472429202721e+00
 1.019178165688655e+00	 1.558904139661917e+00	 8.307627707245455e+00
 9.870584494956313e-01	 1.579437199562634e+00	 8.094942060472579e+00
 9.546013524749237e-01	 1.599263114045282e+00	 7.875314642223234e+00
 9.218298376303387e-01	 1.618374493297318e+00	 7.649918575863275e+00
 8.887670327052957e-01	 1.636764922548042e+00	 7.419951144219540e+00
 8.554361795940475e-01	 1.654428962740311e+00	 7.186624259460251e+00
 8.218605842191447e-01	 1.671362148136321e+00	 6.951155074083838e+00
 7.880635670849336e-01	 1.687560980928176e+00	 6.714756818012202e+00
 7.540684147080928e-01	 1.703022922939728e+00	 6.478629941483284e+00
 7.198983321161423e-01	 1.717746384520824e+00	 6.243953637293867e+00
 6.855763965937093e-01	 1.731730710748600e+00	 6.011877809081229e+00
 1.026018287606500e+00	 1.569366583547552e+00	 8.352903664723495e+00
 9.936830028478698e-01	 1.590037449219140e+00	 8.137959722496987e+00
 9.610080729608007e-01	 1.609996423530313e+00	 7.916501720584252e+00
 9.280166150632180e-01	 1.629236067072467e+00	 7.689755808243937e+00
 8.947319121182953e-01	 1.647749922022751e+00	 7.458969363641949e+00
 8.611773620061525e-01	 1.665532512820283e+00	 7.225401224209266e+00
 8.273764270649263e-01	 1.682579343755863e+00	 6.990312080674236e+00
 7.933525843124147e-01	 1.698886893546373e+00	 6.754955121183785e+00
 7.591292765506416e-01	 1.714452606980927e+00	 6.520567006369495e+00
 7.247298645455660e-01	 1.729274883740578e+00	 6.288359249801934e+00
 6.901775804629183e-01	 1.743353064507004e+00	 6.059510071144927e+00
 6.441657417487923e-01	 1.627129526877964e+00	 5.638225622017412e+00
 6.117957838646149e-01	 1.639574920191208e+00	 5.373226918110220e+00
 5.793259849590476e-01	 1.651327164198396e+00	 5.116457530689529e+00
 5.467774215590897e-01	 1.662388177092036e+00	 4.868723952885984e+00
 5.141708910118744e-01	 1.672760680698918e+00	 4.630777436361209e+00
 4.815268759957917e-01	 1.682448176837619e+00	 4.403310240563318e+00
 4.488655109548267e-01	 1.691454921988814e+00	 4.186952466049081e+00
 4.162065505333923e-01	 1.699785900439417e+00	 3.982269476423152e+00
 3.835693400749210e-01	 1.707446796063892e+00	 3.789759906999295e+00
 3.509727882336220e-01	 1.714443962907183e+00	 3.609854252210112e+00
 3.184353417352296e-01	 1.720784394733555e+00	 3.442914018145018e+00
 6.487669256224087e-01	 1.638751880645368e+00	 5.674860074357859e+00
 6.161657537528369e-01	 1.651286169625344e+00	 5.413946860396516e+00
 5.834640277117503e-01	 1.663122358232710e+00	 5.160742910970166e+00
 5.506829745727695e-01	 1.674262378361350e+00	 4.916065482768905e+00
 5.178435402355067e-01	 1.684708971279677e+00	 4.680677366222131e+00
 4.849663536831978e-01	 1.694465663819255e+00	 4.455283014679317e+00
 4.520716931772849e-01	 1.703536742864199e+00	 4.240525262724827e+00
 4.191794544667834e-01	 1.711927228303469e+00	 4.036982638836626e+00
 3.863091210761500e-01	 1.719642844610636e+00	 3.845167271043539e+00
 3.534797367214098e-01	 1.726689991216679e+00	 3.665523378045212e+00
 3.207098798906232e-01	 1.733075711841326e+00	 3.498426332507137e+00
 6.533681094955354e-01	 1.650374234411771e+00	 5.712714927972861e+00
 6.205357236406640e-01	 1.662997419058485e+00	 5.455721321273882e+00
 5.876020704641420e-01	 1.674917552266045e+00	 5.205923801177393e+00
 5.545885275862121e-01	 1.686136579629713e+00	 4.964150875337387e+00
 5.215161894589658e-01	 1.696657261859521e+00	 4.731177323214272e+00
 4.884058313704844e-01	 1.706483150800025e+00	 4.507720203801454e+00
 4.552778753996668e-01	 1.715618563738773e+00	 4.294435457837597e+00
 4.221523584001318e-01	 1.724068556166777e+00	 4.091915110374024e+00
 3.890489020773603e-01	 1.731838893156712e+00	 3.900685072894420e+00
 3.559866852091929e-01	 1.738936019525595e+00	 3.721203537884665e+00
 3.229844180460166e-01	 1.745367028948611e+00	 3.553859952885745e+00
 6.579692933681720e-01	 1.661996588177175e+00	 5.751789701914994e+00
 6.249056935280957e-01	 1.674708668490631e+00	 5.498550834980128e+00
 5.917401132162232e-01	 1.686712746298402e+00	 5.252001641393475e+00
 5.584940805994181e-01	 1.698010780897124e+00	 5.012982369106243e+00
 5.251888386822519e-01	 1.708605552438449e+00	 4.782280238953343e+00
 4.918453090576513e-01	 1.718500637779927e+00	 4.560625329528354e+00
 4.584840576219726e-01	 1.727700384612536e+00	 4.348687062183127e+00
 4.251252623334376e-01	 1.736209884029342e+00	 4.147071292675152e+00
 3.917886830785516e-01	 1.744034941702122e+00	 3.956318009202388e+00
 3.584936336969712e-01	 1.751182047833929e+00	 3.776899630146805e+00
 3.252589562014102e-01	 1.757658346055410e+00	 3.609219888872437e+00
 6.625704772403191e-01	 1.673618941941579e+00	 5.792084309988979e+00
 6.292756634151327e-01	 1.686419917921784e+00	 5.542436274326368e+00
 5.958781559679939e-01	 1.698507940329780e+00	 5.298978157621529e+00
 5.623996336123873e-01	 1.709884982163583e+00	 5.062562439432204e+00
 5.288614879053646e-01	 1.720553843016463e+00	 4.833989236428108e+00
 4.952847867446983e-01	 1.730518124758960e+00	 4.614002063001863e+00
 4.616902398442022e-01	 1.739782205485489e+00	 4.403284197927217e+00
 4.280981662667007e-01	 1.748351211891163e+00	 4.202455664244052e+00
 3.945284640797241e-01	 1.756230990246865e+00	 4.012070822644370e+00
 3.610005821847450e-01	 1.763428076141683e+00	 3.832616572099334e+00
 3.275334943568037e-01	 1.769949663161724e+00	 3.664511145375574e+00
 6.671716611119766e-01	 1.685241295704983e+00	 5.833599047139865e+00
 6.336456333017748e-01	 1.698131167351941e+00	 5.587378839022339e+00
 6.000161987194534e-01	 1.710303134360181e+00	 5.346855351926445e+00
 5.663051866251195e-01	 1.721759183429090e+00	 5.112893790346416e+00
 5.325341371283041e-01	 1.732502133593562e+00	 4.886307623401001e+00
 4.987242644316259e-01	 1.742535611737127e+00	 4.667854219749561e+00
 4.648964220663556e-01	 1.751864026357632e+00	 4.458231094765338e+00
 4.310710701999212e-01	 1.760492539752242e+00	 4.258072777798872e+00
 3.972682450808779e-01	 1.768427038790942e+00	 4.067948300337296e+00
 3.635075306725140e-01	 1.775674104448856e+00	 3.888359299209451e+00
 3.298080325121973e-01	 1.782240980267553e+00	 3.719738722781645e+00
 6.717728449831446e-01	 1.696863649467388e+00	 5.876334576400052e+00
 6.380156031880218e-01	 1.709842416781104e+00	 5.633380044481433e+00
 6.041542414706024e-01	 1.722098328389602e+00	 5.395635492980612e+00
 5.702107396376153e-01	 1.733633384693645e+00	 5.163979346723582e+00
 5.362067863510706e-01	 1.744450424169746e+00	 4.939238886080524e+00
 5.021637421184337e-01	 1.754553098714425e+00	 4.722185754740523e+00
 4.681026042884328e-01	 1.763945847228964e+00	 4.513532086239918e+00
 4.340439741330990e-01	 1.772633867612575e+00	 4.313927257729913e+00
 4.000080260820126e-01	 1.780623087334350e+00	 4.123955272315445e+00
 3.660144791602783e-01	 1.787920132755449e+00	 3.944132764520679e+00
 3.320825706675907e-01	 1.794532297372897e+00	 3.774907617110278e+00
 6.763740288538225e-01	 1.708486003228792e+00	 5.920291916369381e+00
 6.423855730738738e-01	 1.721553666209272e+00	 5.680441711082143e+00
 6.082922842214408e-01	 1.733893522418045e+00	 5.445321106995736e+00
 5.741162926498737e-01	 1.745507585957248e+00	 5.215822246769997e+00
 5.398794355736638e-01	 1.756398714745015e+00	 4.992786683051475e+00
 5.056032198051220e-01	 1.766570585690856e+00	 4.777000757642237e+00
 4.713087865104338e-01	 1.776027668099485e+00	 4.569191606208471e+00
 4.370168780662343e-01	 1.784775195472166e+00	 4.370023797661925e+00
 4.027478070831286e-01	 1.792819135877093e+00	 4.180096610071285e+00
 3.685214276480380e-01	 1.800166161061461e+00	 3.999941938055000e+00
 3.343571088229843e-01	 1.806823614477755e+00	 3.830022820162623e+00
 6.809752127240106e-01	 1.720108356989195e+00	 5.965472429202721e+00
 6.467555429593308e-01	 1.733264915636446e+00	 5.728565953865411e+00
 6.124303269719683e-01	 1.745688716445509e+00	 5.495914969021925e+00
 5.780218456618959e-01	 1.757381787219899e+00	 5.268425834816624e+00
 5.435520847960841e-01	 1.768347005319369e+00	 5.046954839451367e+00
 5.090426974916905e-01	 1.778588072666419e+00	 4.832303448270091e+00
 4.745149687323587e-01	 1.788109488969196e+00	 4.625214185454336e+00
 4.399897819993270e-01	 1.796916523331014e+00	 4.426367158115296e+00
 4.054875880842257e-01	 1.805015184419168e+00	 4.236377225154523e+00
 3.710283761357929e-01	 1.812412189366892e+00	 4.055791806239190e+00
 3.366316469783779e-01	 1.819114931582128e+00	 3.885089319663929e+00
 6.855763965937093e-01	 1.731730710748600e+00	 6.011877809081229e+00
 6.511255128443928e-01	 1.744976165062624e+00	 5.777755172646517e+00
 6.165683697221850e-01	 1.757483910471994e+00	 5.547420094597783e+00
 5.819273986736807e-01	 1.769255988481598e+00	 5.321793654401903e+00
 5.472247340183309e-01	 1.780295295892808e+00	 5.101747341381772e+00
 5.124821751781393e-01	 1.790605559641113e+00	 4.888098172219813e+00
 4.777211509542074e-01	 1.800191309838096e+00	 4.681604448434202e+00
 4.429626859323769e-01	 1.809057851189117e+00	 4.482962164260911e+00
 4.082273690853040e-01	 1.817211232960577e+00	 4.292802067828038e+00
 3.735353246235432e-01	 1.824658217671742e+00	 4.111687371354274e+00
 3.389061851337714e-01	 1.831406248686016e+00	 3.940112099400432e+00
 6.901775804629183e-01	 1.743353064507004e+00	 6.059510071144927e+00
 6.554954827290597e-01	 1.756687414487810e+00	 5.828012042522657e+00
 6.207064124720911e-01	 1.769279104497503e+00	 5.599839731733804e+00
 5.858329516852290e-01	 1.781130189742346e+00	 5.375929441631675e+00
 5.508973832404049e-01	 1.792243586465333e+00	 5.157168330542365e+00
 5.159216528644688e-01	 1.802623046614941e+00	 4.944389396675010e+00
 4.809273331759799e-01	 1.812273130706186e+00	 4.738367110155728e+00
 4.459355898653843e-01	 1.821199179046478e+00	 4.539813703765301e+00
 4.109671500863636e-01	 1.829407281501319e+00	 4.349376125777465e+00
 3.760422731112888e-01	 1.836904245976013e+00	 4.167633651007330e+00
 3.411807232891650e-01	 1.843697565789419e+00	 3.995096139350465e+00
 3.184353417352296e-01	 1.720784394733555e+00	 3.442914018145018e+00
 2.859749623090795e-01	 1.726475693704463e+00	 3.271511192607579e+00
 2.536091058023270e-01	 1.731526038345919e+00	 3.115212269369038e+00
 2.213547034732818e-01	 1.735944150962882e+00	 2.974505290151479e+00
 1.892281454495708e-01	 1.739739264653876e+00	 2.849790260595167e+00
 1.572452663273684e-01	 1.742921090073661e+00	 2.741380492637123e+00
 1.254213328766080e-01	 1.745499782086253e+00	 2.649504453052070e+00
 9.377103380810400e-02	 1.747485906444048e+00	 2.574308075180810e+00
 6.230847155001576e-02	 1.748890406621857e+00	 2.515857489218620e+00
 3.104715597342760e-02	 1.749724570927141e+00	 2.474142125392304e+00
 0.000000000000000e+00	 1.750000000000000e+00	 2.449078143887443e+00
 3.207098798906232e-01	 1.733075711841326e+00	 3.498426332507137e+00
 2.880176406112042e-01	 1.738807662947247e+00	 3.328484705311871e+00
 2.554205994149419e-01	 1.743894081478562e+00	 3.172347409886402e+00
 2.229358084977045e-01	 1.748343752042406e+00	 3.030530407962918e+00
 1.905797750594583e-01	 1.752165973688006e+00	 2.903463975340548e+00
 1.583684468006353e-01	 1.755370526431943e+00	 2.791493828097503e+00
 1.263171995395246e-01	 1.757967637672972e+00	 2.694882758733706e+00
 9.444082690630262e-02	 1.759967948633152e+00	 2.613812740167588e+00
 6.275353206075759e-02	 1.761382480954967e+00	 2.548387453754404e+00
 3.126892137305198e-02	 1.762222603576644e+00	 2.498635196345021e+00
 0.000000000000000e+00	 1.762500000000000e+00	 2.464512120843601e+00
 3.229844180460166e-01	 1.745367028948611e+00	 3.553859952885745e+00
 2.900603189133288e-01	 1.751139632189640e+00	 3.385257906340834e+00
 2.572320930275566e-01	 1.756262124610897e+00	 3.229183469363384e+00
 2.245169135221270e-01	 1.760743353121696e+00	 3.086180423784666e+00
 1.919314046693457e-01	 1.764592682721967e+00	 2.956709153616241e+00
 1.594916272739021e-01	 1.767819962790108e+00	 2.841147557693954e+00
 1.272130662024412e-01	 1.770435493259618e+00	 2.739792476223394e+00
 9.511062000450128e-02	 1.772449990822214e+00	 2.652861590020559e+00
 6.319859257149944e-02	 1.773874555288057e+00	 2.580495749379220e+00
 3.149068677267637e-02	 1.774720636226143e+00	 2.522761688250641e+00
 0.000000000000000e+00	 1.775000000000000e+00	 2.479655078761430e+00
 3.252589562014102e-01	 1.757658346055410e+00	 3.609219888872437e+00
 2.921029972154534e-01	 1.763471601431642e+00	 3.441836704071973e+00
 2.590435866401714e-01	 1.768630167742926e+00	 3.285726899610385e+00
 2.260980185465497e-01	 1.773142954200753e+00	 3.141461984175354e+00
 1.932830342792332e-01	 1.777019391755757e+00	 3.009532295207538e+00
 1.606148077471690e-01	 1.780269399148155e+00	 2.890347700535467e+00
 1.281089328653577e-01	 1.782903348846188e+00	 2.784238818084543e+00
 9.578041310269989e-02	 1.784932033011234e+00	 2.691458713295088e+00
 6.364365308224128e-02	 1.786366629621130e+00	 2.612185031919589e+00
 3.171245217230076e-02	 1.787218668875638e+00	 2.546522524523259e+00
 0.000000000000000e+00	 1.787500000000000e+00	 2.494505918254009e+00
 3.275334943568037e-01	 1.769949663161724e+00	 3.664511145375574e+00
 2.941456755175780e-01	 1.775803570673254e+00	 3.498226957967222e+00
 2.608550802527862e-01	 1.780998210874648e+00	 3.341984070384485e+00
 2.276791235709723e-01	 1.785542555279576e+00	 3.196381631448244e+00
 1.946346638891207e-01	 1.789446100789376e+00	 3.061939784240574e+00
 1.617379882204359e-01	 1.792718835506084e+00	 2.939100159249450e+00
 1.290047995282743e-01	 1.795371204432684e+00	 2.828226889961938e+00
 9.645020620089854e-02	 1.797414075200213e+00	 2.729608111355017e+00
 6.408871359298313e-02	 1.798858703954184e+00	 2.643457899665100e+00
 3.193421757192514e-02	 1.799716701525127e+00	 2.569918610371209e+00
 0.000000000000000e+00	 1.800000000000000e+00	 2.509063570473019e+00
 3.298080325121973e-01	 1.782240980267553e+00	 3.719738722781645e+00
 2.961883538197027e-01	 1.788135539914474e+00	 3.554434480259935e+00
 2.626665738654010e-01	 1.793366254006063e+00	 3.397961272218553e+00
 2.292602285953949e-01	 1.797942156358166e+00	 3.250945807265890e+00
 1.959862934990082e-01	 1.801872809822824e+00	 3.113937893170761e+00
 1.628611686937026e-01	 1.805168271863896e+00	 2.987410723997935e+00
 1.299006661911908e-01	 1.807839060019105e+00	 2.871761694268322e+00
 9.711999929909716e-02	 1.809896117389149e+00	 2.767313701379344e+00
 6.453377410372496e-02	 1.811350778287220e+00	 2.674316895352497e+00
 3.215598297154953e-02	 1.812214734174612e+00	 2.592950833424826e+00
 0.000000000000000e+00	 1.812500000000000e+00	 2.523326996055635e+00
 3.320825706675907e-01	 1.794532297372897e+00	 3.774907617110278e+00
 2.982310321218273e-01	 1.800467509155304e+00	 3.610465037572228e+00
 2.644780674780159e-01	 1.805734297137171e+00	 3.453664719134815e+00
 2.308413336198176e-01	 1.810341757436522e+00	 3.305160856087063e+00
 1.973379231088956e-01	 1.814299518856103e+00	 3.165532786606755e+00
 1.639843491669695e-01	 1.817617708221590e+00	 3.035285076329271e+00
 1.307965328541074e-01	 1.820306915605452e+00	 2.914848133719775e+00
 9.778979239729581e-02	 1.822378159578045e+00	 2.804579319245189e+00
 6.497883461446680e-02	 1.823842852620236e+00	 2.704764508068209e+00
 3.237774837117391e-02	 1.824712766824093e+00	 2.615620064338641e+00
 0.000000000000000e+00	 1.825000000000000e+00	 2.537295184114721e+00
 3.343571088229843e-01	 1.806823614477755e+00	 3.830022820162623e+00
 3.002737104239519e-01	 1.812799478395743e+00	 3.666324352466489e+00
 2.662895610906306e-01	 1.818102340267972e+00	 3.509100551246620e+00
 2.324224386442401e-01	 1.822741358514645e+00	 3.359033028472905e+00
 1.986895527187831e-01	 1.826726227889211e+00	 3.216730524979165e+00
 1.651075296402364e-01	 1.830067144579166e+00	 3.082728792872406e+00
 1.316923995170240e-01	 1.832774771191723e+00	 2.957491014726811e+00
 9.845958549549444e-02	 1.834860201766898e+00	 2.841408722293020e+00
 6.542389512520864e-02	 1.836334926953235e+00	 2.734803175072998e+00
 3.259951377079830e-02	 1.837210799473569e+00	 2.637927157368477e+00
 0.000000000000000e+00	 1.837500000000000e+00	 2.550967151270213e+00
 3.366316469783779e-01	 1.819114931582128e+00	 3.885089319663929e+00
 3.023163887260765e-01	 1.825131447635791e+00	 3.722018104933672e+00
 2.681010547032454e-01	 1.830470383398466e+00	 3.564274837256001e+00
 2.340035436686628e-01	 1.835140959592535e+00	 3.412568484259404e+00
 2.000411823286705e-01	 1.839152936922148e+00	 3.267537068059827e+00
 1.662307101135032e-01	 1.842516580936626e+00	 3.129747348881374e+00
 1.325882661799405e-01	 1.845242626777920e+00	 2.999695050648029e+00
 9.912937859369306e-02	 1.847342243955709e+00	 2.877805591980196e+00
 6.586895563595048e-02	 1.848827001286216e+00	 2.764435283552992e+00
 3.282127917042268e-02	 1.849708832123040e+00	 2.659872950925595e+00
 0.000000000000000e+00	 1.850000000000000e+00	 2.564341940719966e+00
 3.389061851337714e-01	 1.831406248686016e+00	 3.940112099400432e+00
 3.043590670282013e-01	 1.837463416875449e+00	 3.777551933822045e+00
 2.699125483158602e-01	 1.842838426528653e+00	 3.619193576849597e+00
 2.355846486930855e-01	 1.847540560670190e+00	 3.465773295601651e+00
 2.013928119385580e-01	 1.851579645954916e+00	 3.317958278339552e+00
 1.673538905867701e-01	 1.854966017293967e+00	 3.176346121637593e+00
 1.334841328428570e-01	 1.857710482364042e+00	 3.041464864912543e+00
 9.979917169189172e-02	 1.859824286144479e+00	 2.913773536427238e+00
 6.631401614669230e-02	 1.861319075619177e+00	 2.793663172300254e+00
 3.304304457004707e-02	 1.862206864772507e+00	 2.681458268108595e+00
 0.000000000000000e+00	 1.862500000000000e+00	 2.577418621347733e+00
 3.411807232891650e-01	 1.843697565789419e+00	 3.995096139350465e+00
 3.064017453303258e-01	 1.849795386114716e+00	 3.832931438208567e+00
 2.717240419284751e-01	 1.855206469658534e+00	 3.673862702999394e+00
 2.371657537175081e-01	 1.859940161747613e+00	 3.518653449896571e+00
 2.027444415484455e-01	 1.864006354987513e+00	 3.367999924271059e+00
 1.684770710600370e-01	 1.867415453651191e+00	 3.222530393714917e+00
 1.343799995057737e-01	 1.870178337950090e+00	 3.082804994017472e+00
 1.004689647900904e-01	 1.872306328333207e+00	 2.949316092862396e+00
 6.675907665743416e-02	 1.873811149952121e+00	 2.822489133325341e+00
 3.326480996967145e-02	 1.874704897421970e+00	 2.702683917213515e+00
 0.000000000000000e+00	 1.875000000000000e+00	 2.590196286867085e+00
 1.875000000000000e+00	 0.000000000000000e+00	 1.233125949526147e+01
 1.874704897421970e+00	 3.326480996967039e-02	 1.237106950504285e+01
 1.873811149952121e+00	 6.675907665743323e-02	 1.239717611739311e+01
 1.872306328333207e+00	 1.004689647900895e-01	 1.241002250954070e+01
 1.870178337950090e+00	 1.343799995057729e-01	 1.241008046313270e+01
 1.867415453651191e+00	 1.684770710600364e-01	 1.239785335228524e+01
 1.864006354987513e+00	 2.027444415484450e-01	 1.237387935804249e+01
 1.859940161747613e+00	 2.371657537175077e-01	 1.233873489018626e+01
 1.855206469658534e+00	 2.717240419284748e-01	 1.229303819208687e+01
 1.849795386114716e+00	 3.064017453303257e-01	 1.223745309886617e+01
 1.843697565789419e+00	 3.411807232891650e-01	 1.217269291363160e+01
 1.887500000000000e+00	 0.000000000000000e+00	 1.233322300352097e+01
 1.887202930071432e+00	 3.348657536938452e-02	 1.237285481842906e+01
 1.886303224285065e+00	 6.720413716834120e-02	 1.239880468487818e+01
 1.884788370521935e+00	 1.011387578885170e-01	 1.241153447596588e+01
 1.882646193536138e+00	 1.352758661689670e-01	 1.241153566089438e+01
 1.879864890008415e+00	 1.696002515336150e-01	 1.239933235930529e+01
 1.876433064020110e+00	 2.040960711586639e-01	 1.237548462465564e+01
 1.872339762825035e+00	 2.387468587422663e-01	 1.234059193699490e+01
 1.867574512788415e+00	 2.735355355414151e-01	 1.229529688014604e+01
 1.862127355353983e+00	 3.084444236327496e-01	 1.224028897276835e+01
 1.855988882892821e+00	 3.434552614448158e-01	 1.217630861716303e+01
 1.900000000000000e+00	 0.000000000000000e+00	 1.233619209317329e+01
 1.899700962720899e+00	 3.370834076927819e-02	 1.237585919411482e+01
 1.898795298618027e+00	 6.764919767958150e-02	 1.240187247089875e+01
 1.897270412710705e+00	 1.018085509874021e-01	 1.241471195988924e+01
 1.895114049122259e+00	 1.361717328327159e-01	 1.241488825030840e+01
 1.892314326365756e+00	 1.707234320078171e-01	 1.240294560646983e+01
 1.888859773052877e+00	 2.054477007695455e-01	 1.237946532197989e+01
 1.884739363902691e+00	 2.403279637676972e-01	 1.234506928568394e+01
 1.879942555918602e+00	 2.753470291550062e-01	 1.230042373367255e+01
 1.874459324593640e+00	 3.104871019357721e-01	 1.224624315602769e+01
 1.868280199996709e+00	 3.457297996009814e-01	 1.218329432126446e+01
 1.912500000000000e+00	 0.000000000000000e+00	 1.234009872060078e+01
 1.912198995370370e+00	 3.393010616935138e-02	 1.238001362205334e+01
 1.911287372951007e+00	 6.809425819115406e-02	 1.240630943408657e+01
 1.909752454899517e+00	 1.024783440867449e-01	 1.241948382165211e+01
 1.907581904708456e+00	 1.370675994970198e-01	 1.242006592443411e+01
 1.904763762723215e+00	 1.718466124826427e-01	 1.240861954861422e+01
 1.901286482085814e+00	 2.067993303810899e-01	 1.238574659382365e+01
 1.897138964980580e+00	 2.419090687937999e-01	 1.235209069447996e+01
 1.892310599049096e+00	 2.771585227692481e-01	 1.230834104913300e+01
 1.886791293833689e+00	 3.125297802393932e-01	 1.225523640569874e+01
 1.880571517101082e+00	 3.480043377576615e-01	 1.219356916462268e+01
 1.925000000000000e+00	 0.000000000000000e+00	 1.234487660955235e+01
 1.924697028019846e+00	 3.415187156960411e-02	 1.238525094431033e+01
 1.923779447284006e+00	 6.853931870305893e-02	 1.241204747215454e+01
 1.922234497088370e+00	 1.031481371865453e-01	 1.242578094978283e+01
 1.920049760294728e+00	 1.379634661618787e-01	 1.242699849566882e+01
 1.917213199080792e+00	 1.729697929580919e-01	 1.241628285300749e+01
 1.913713191118923e+00	 2.081509599932970e-01	 1.239425589136202e+01
 1.909538566058704e+00	 2.434901738205749e-01	 1.236158232563128e+01
 1.904678642179897e+00	 2.789700163841410e-01	 1.231897362527024e+01
 1.899123263074128e+00	 3.145724585436129e-01	 1.226719208083616e+01
 1.892862834205940e+00	 3.502788759148565e-01	 1.220705498898091e+01
 1.937500000000000e+00	 0.000000000000000e+00	 1.235046119413168e+01
 1.937195060669326e+00	 3.437363697003634e-02	 1.239150579531852e+01
 1.936271521617023e+00	 6.898437921529610e-02	 1.241902035934552e+01
 1.934716539277264e+00	 1.038179302868033e-01	 1.243353619557132e+01
 1.932517615881075e+00	 1.388593328272925e-01	 1.243561782738202e+01
 1.929662635438486e+00	 1.740929734341646e-01	 1.242586632798354e+01
 1.926139900152201e+00	 2.095025896061670e-01	 1.240492289870559e+01
 1.921938167137059e+00	 2.450712788480219e-01	 1.237347266785881e+01
 1.917046685311006e+00	 2.807815099996848e-01	 1.233224868238464e+01
 1.911455232314958e+00	 3.166151368484312e-01	 1.228203605855921e+01
 1.905154151311284e+00	 3.525534140725660e-01	 1.222367625194338e+01
 1.950000000000000e+00	 0.000000000000000e+00	 1.235678956397813e+01
 1.949693093318812e+00	 3.459540237064810e-02	 1.239871454442998e+01
 1.948763595950059e+00	 6.942943972786557e-02	 1.242716368628726e+01
 1.947198581466201e+00	 1.044877233875190e-01	 1.244268431016010e+01
 1.944985471467495e+00	 1.397551994932612e-01	 1.244585776817905e+01
 1.942112071796298e+00	 1.752161539108608e-01	 1.243730285431728e+01
 1.938566609185650e+00	 2.108542192196997e-01	 1.241767946133200e+01
 1.934337768215650e+00	 2.466523838761410e-01	 1.238769246178972e+01
 1.929414728442420e+00	 2.825930036158795e-01	 1.234809578472018e+01
 1.923787201556179e+00	 3.186578151538481e-01	 1.229969665334463e+01
 1.917445468417113e+00	 3.548279522307903e-01	 1.224335994313370e+01
 1.962499999999999e+00	 0.000000000000000e+00	 1.236380041154270e+01
 1.962191125968301e+00	 3.481716777143939e-02	 1.240681524066396e+01
 1.961255670283113e+00	 6.987450024076731e-02	 1.243641480214566e+01
 1.959680623655179e+00	 1.051575164886924e-01	 1.245316188403943e+01
 1.957453327053991e+00	 1.406510661597848e-01	 1.245765408867706e+01
 1.954561508154227e+00	 1.763393343881805e-01	 1.245052731922330e+01
 1.950993318219269e+00	 2.122058488338951e-01	 1.243245951725266e+01
 1.946737369294472e+00	 2.482334889049322e-01	 1.240417462824060e+01
 1.941782771574142e+00	 2.844044972327250e-01	 1.236644676581648e+01
 1.936119170797790e+00	 3.207004934598635e-01	 1.232010453940367e+01
 1.929736785523427e+00	 3.571024903895291e-01	 1.226603550355724e+01
 1.975000000000000e+00	 0.000000000000000e+00	 1.237143398136614e+01
 1.974689158617796e+00	 3.503893317241022e-02	 1.241574755955275e+01
 1.973747744616185e+00	 7.031956075400138e-02	 1.244671275897489e+01
 1.972162665844200e+00	 1.058273095903234e-01	 1.246490728884003e+01
 1.969921182640562e+00	 1.415469328268634e-01	 1.247094442068193e+01
 1.967010944512274e+00	 1.774625148661237e-01	 1.246547655286095e+01
 1.963420027253059e+00	 2.135574784487534e-01	 1.244919903079320e+01
 1.959136970373529e+00	 2.498145939343955e-01	 1.242285419922413e+01
 1.954150814706171e+00	 2.862159908502214e-01	 1.238723565669571e+01
 1.948451140039792e+00	 3.227431717664775e-01	 1.234319267600705e+01
 1.942028102630227e+00	 3.593770285487826e-01	 1.229163474802579e+01
 1.987500000000000e+00	 0.000000000000000e+00	 1.237963202127112e+01
 1.987187191267294e+00	 3.526069857356055e-02	 1.242545275199363e+01
 1.986239818949276e+00	 7.076462126756775e-02	 1.245799825816744e+01
 1.984644708033262e+00	 1.064971026924121e-01	 1.247786062132251e+01
 1.982389038227208e+00	 1.424427994944970e-01	 1.248566819866018e+01
 1.979460380870438e+00	 1.785856953446905e-01	 1.248208926723546e+01
 1.975846736287019e+00	 2.149091080642744e-01	 1.246783592887302e+01
 1.971536571452820e+00	 2.513956989645308e-01	 1.244366825155930e+01
 1.966518857838506e+00	 2.880274844683688e-01	 1.241039861675933e+01
 1.960783109282185e+00	 3.247858500736903e-01	 1.236889623562770e+01
 1.954319419737511e+00	 3.616515667085508e-01	 1.232009179050953e+01
 2.000000000000000e+00	 0.000000000000000e+00	 1.238833773538461e+01
 1.999685223916798e+00	 3.548246397489042e-02	 1.243587359501861e+01
 1.998731893282386e+00	 7.120968178146642e-02	 1.247021359891230e+01
 1.997126750222366e+00	 1.071668957949584e-01	 1.249196364946691e+01
 1.994856893813928e+00	 1.433386661626855e-01	 1.250176660340590e+01
 1.991909817228721e+00	 1.797088758238808e-01	 1.250030599739024e+01
 1.988273445321150e+00	 2.162607376804582e-01	 1.248831003967418e+01
 1.983936172532344e+00	 2.529768039953384e-01	 1.246655584297121e+01
 1.978886900971149e+00	 2.898389780871670e-01	 1.243587386727626e+01
 1.973115078524969e+00	 3.268285283815016e-01	 1.239715253477818e+01
 1.966610736845282e+00	 3.639261048688338e-01	 1.235134297228839e+01
 1.843697565789419e+00	 3.411807232891650e-01	 1.217269291363160e+01
 1.836904245976013e+00	 3.760422731112877e-01	 1.215681275574772e+01
 1.829407281501320e+00	 4.109671500863628e-01	 1.213257242203668e+01
 1.821199179046478e+00	 4.459355898653836e-01	 1.210028615740432e+01
 1.812273130706186e+00	 4.809273331759791e-01	 1.206031940691629e+01
 1.802623046614941e+00	 5.159216528644683e-01	 1.201309434450527e+01
 1.792243586465333e+00	 5.508973832404047e-01	 1.195909533293688e+01
 1.781130189742346e+00	 5.858329516852289e-01	 1.189887424065916e+01
 1.769279104497502e+00	 6.207064124720912e-01	 1.183305553723437e+01
 1.756687414487809e+00	 6.554954827290598e-01	 1.176234108599511e+01
 1.743353064507004e+00	 6.901775804629183e-01	 1.168751455049545e+01
 1.855988882892821e+00	 3.434552614448158e-01	 1.217630861716303e+01
 1.849150274280280e+00	 3.785492215992383e-01	 1.215815313651057e+01
 1.841603330042052e+00	 4.137069310875700e-01	 1.213216438696719e+01
 1.833340506903817e+00	 4.489084937984764e-01	 1.209859921673639e+01
 1.824354951574237e+00	 4.841335153977702e-01	 1.205776352098851e+01
 1.814640533588709e+00	 5.193611305507440e-01	 1.201001805759059e+01
 1.804191877037770e+00	 5.545700324623478e-01	 1.195578421448925e+01
 1.793004391002975e+00	 5.897385046965644e-01	 1.189554965252782e+01
 1.781074298522854e+00	 6.248444552216972e-01	 1.182987374328547e+01
 1.768398663912796e+00	 6.598654526133346e-01	 1.175939271821381e+01
 1.754975418265163e+00	 6.947787643316375e-01	 1.168482444303812e+01
 1.868280199996709e+00	 3.457297996009814e-01	 1.218329432126446e+01
 1.861396302585124e+00	 3.810561700876036e-01	 1.216257383962077e+01
 1.853799378583433e+00	 4.164467120890913e-01	 1.213453975808373e+01
 1.845481834761856e+00	 4.518813977317833e-01	 1.209939156096174e+01
 1.836436772443023e+00	 4.873396976196745e-01	 1.205737565664787e+01
 1.826658020563224e+00	 5.228006082370322e-01	 1.200879148296932e+01
 1.816140167610950e+00	 5.582426816842028e-01	 1.195399758453041e+01
 1.804878592264319e+00	 5.936440577077110e-01	 1.189341758395766e+01
 1.792869492548874e+00	 6.289824979710139e-01	 1.182754596449340e+01
 1.780109913338382e+00	 6.642354224972196e-01	 1.175695357781589e+01
 1.766597772023832e+00	 6.993799481998669e-01	 1.168229278841777e+01
 1.880571517101082e+00	 3.480043377576615e-01	 1.219356916462268e+01
 1.873642330890543e+00	 3.835631185763834e-01	 1.217000293604135e+01
 1.865995427125461e+00	 4.191864930909272e-01	 1.213963560021614e+01
 1.857623162620597e+00	 4.548543016653039e-01	 1.210260929387579e+01
 1.848518593312543e+00	 4.905458798416917e-01	 1.205911098480732e+01
 1.838675507538488e+00	 5.262400859233329e-01	 1.200937886947618e+01
 1.828088458184871e+00	 5.619153309059697e-01	 1.195370876293033e+01
 1.816752793526378e+00	 5.975496107186689e-01	 1.189246040099508e+01
 1.804664686575561e+00	 6.331205407200413e-01	 1.182606357003306e+01
 1.791821162764569e+00	 6.686053923807149e-01	 1.175502397571851e+01
 1.778220125783012e+00	 7.039811320676065e-01	 1.167992875949035e+01
 1.892862834205940e+00	 3.502788759148565e-01	 1.220705498898091e+01
 1.885888359196539e+00	 3.860700670655777e-01	 1.218037102591388e+01
 1.878191475668137e+00	 4.219262740930773e-01	 1.214739133082964e+01
 1.869764490480039e+00	 4.578272055990384e-01	 1.210820069295462e+01
 1.860600414182798e+00	 4.937520620638225e-01	 1.206292666896037e+01
 1.850692994514499e+00	 5.296795636096463e-01	 1.201174627555899e+01
 1.840036748759534e+00	 5.655879801276484e-01	 1.195489269462659e+01
 1.828626994789152e+00	 6.014551637294382e-01	 1.189266190893047e+01
 1.816459880602917e+00	 6.372585834687796e-01	 1.182541918153136e+01
 1.803532412191354e+00	 6.729753622638208e-01	 1.175360528784957e+01
 1.789842479542702e+00	 7.085823159348567e-01	 1.167774240635946e+01
 1.905154151311284e+00	 3.525534140725660e-01	 1.222367625194338e+01
 1.898134387503110e+00	 3.885770155551868e-01	 1.219361115697215e+01
 1.890387524211462e+00	 4.246660550955419e-01	 1.215774864413337e+01
 1.881905818340181e+00	 4.608001095329867e-01	 1.211611613923626e+01
 1.872682235053787e+00	 4.969582442860664e-01	 1.206878180090439e+01
 1.862710481491260e+00	 5.331190412959723e-01	 1.201586151090419e+01
 1.851985039334939e+00	 5.692606293492392e-01	 1.195752589720293e+01
 1.840501196052641e+00	 6.053607167400185e-01	 1.189400730587094e+01
 1.828255074630939e+00	 6.413966262172286e-01	 1.182560663266552e+01
 1.815243661618739e+00	 6.773453321465369e-01	 1.175269992079257e+01
 1.801464833302902e+00	 7.131834998016169e-01	 1.167574462807803e+01
 1.917445468417113e+00	 3.548279522307903e-01	 1.224335994313370e+01
 1.910380415810258e+00	 3.910839640452103e-01	 1.220965874609357e+01
 1.902583572755435e+00	 4.274058360983207e-01	 1.217065143810785e+01
 1.894047146201024e+00	 4.637730134671488e-01	 1.212630804989882e+01
 1.884764055925510e+00	 5.001644265084235e-01	 1.207663733893589e+01
 1.874727968468767e+00	 5.365585189823108e-01	 1.202169408030728e+01
 1.863933329911085e+00	 5.729332785707417e-01	 1.196158641048384e+01
 1.852375397316846e+00	 6.092662697504101e-01	 1.189648313809882e+01
 1.840050268659630e+00	 6.455346689653881e-01	 1.182662093031533e+01
 1.826954911046724e+00	 6.817153020288634e-01	 1.175231127875277e+01
 1.813087187063613e+00	 7.177846836678874e-01	 1.167394714543833e+01
 1.929736785523427e+00	 3.571024903895291e-01	 1.226603550355724e+01
 1.922626444117981e+00	 3.935909125356485e-01	 1.222845150384888e+01
 1.914779621300055e+00	 4.301456171014137e-01	 1.218604574432111e+01
 1.906188474062569e+00	 4.667459174015250e-01	 1.213873081341528e+01
 1.896845876797968e+00	 5.033706087308940e-01	 1.208645604840798e+01
 1.886745455447024e+00	 5.399979966686618e-01	 1.202921512968851e+01
 1.875881620487973e+00	 5.766059277921560e-01	 1.196705374805559e+01
 1.864249598581766e+00	 6.131718227606131e-01	 1.190007725713607e+01
 1.851845462688989e+00	 6.496727117132586e-01	 1.182845821719998e+01
 1.838666160475309e+00	 6.860852719108005e-01	 1.175244373178576e+01
 1.824709540824834e+00	 7.223858675336682e-01	 1.167236247480204e+01
 1.942028102630227e+00	 3.593770285487826e-01	 1.229163474802579e+01
 1.934872472426280e+00	 3.960978610265014e-01	 1.224992936191678e+01
 1.926975669845323e+00	 4.328853981048212e-01	 1.220387966041016e+01
 1.918329801924813e+00	 4.697188213361148e-01	 1.215334072717068e+01
 1.908927697671160e+00	 5.065767909534776e-01	 1.209820244454494e+01
 1.898762942426027e+00	 5.434374743550253e-01	 1.203839739415853e+01
 1.887829911065603e+00	 5.802785770134823e-01	 1.197390885062823e+01
 1.876123799847400e+00	 6.170773757706272e-01	 1.190477877843927e+01
 1.863640656719016e+00	 6.538107544608398e-01	 1.183111573593382e+01
 1.850377409904492e+00	 6.904552417923476e-01	 1.175310258523266e+01
 1.836331894586565e+00	 7.269870513989594e-01	 1.167100390292393e+01
 1.954319419737511e+00	 3.616515667085508e-01	 1.232009179050953e+01
 1.947118500735156e+00	 3.986048095177688e-01	 1.227403440323791e+01
 1.939171718391239e+00	 4.356251791085429e-01	 1.222410328511026e+01
 1.930471129787760e+00	 4.726917252709185e-01	 1.217009593743356e+01
 1.921009518545086e+00	 5.097829731761744e-01	 1.211184273741488e+01
 1.910780429405780e+00	 5.468769520414016e-01	 1.204921514804389e+01
 1.899778201643975e+00	 5.839512262347204e-01	 1.198213404115738e+01
 1.887998001113750e+00	 6.209829287804526e-01	 1.191057804165325e+01
 1.875435850749710e+00	 6.579487972081314e-01	 1.183459179443842e+01
 1.862088659334276e+00	 6.948252116735054e-01	 1.175429405030850e+01
 1.847954248348806e+00	 7.315882352637606e-01	 1.166988546272568e+01
 1.966610736845282e+00	 3.639261048688338e-01	 1.235134297228839e+01
 1.959364529044608e+00	 4.011117580094511e-01	 1.230071079478773e+01
 1.951367766937805e+00	 4.383649601125791e-01	 1.224666865572054e+01
 1.942612457651407e+00	 4.756646292059362e-01	 1.218895638157821e+01
 1.933091339419748e+00	 5.129891553989847e-01	 1.212734477896586e+01
 1.922797916386281e+00	 5.503164297277904e-01	 1.206164415678647e+01
 1.911726492223089e+00	 5.876238754558706e-01	 1.199171298164920e+01
 1.899872202380815e+00	 6.248884817900893e-01	 1.191746657235520e+01
 1.887231044781072e+00	 6.620868399551341e-01	 1.183888573265171e+01
 1.873799908764660e+00	 6.991951815542736e-01	 1.175602521579376e+01
 1.859576602111558e+00	 7.361894191280726e-01	 1.166902190997817e+01
 1.743353064507004e+00	 6.901775804629183e-01	 1.168751455049545e+01
 1.729274883740578e+00	 7.247298645455649e-01	 1.163143652315318e+01
 1.714452606980928e+00	 7.591292765506406e-01	 1.156982961960126e+01
 1.698886893546374e+00	 7.933525843124138e-01	 1.150308609803144e+01
 1.682579343755863e+00	 8.273764270649256e-01	 1.143169073773074e+01
 1.665532512820283e+00	 8.611773620061519e-01	 1.135622477110597e+01
 1.647749922022751e+00	 8.947319121182951e-01	 1.127736901913743e+01
 1.629236067072467e+00	 9.280166150632179e-01	 1.119590615071982e+01
 1.609996423530313e+00	 9.610080729608007e-01	 1.111272199368344e+01
 1.590037449219140e+00	 9.936830028478698e-01	 1.102880583403777e+01
 1.569366583547552e+00	 1.026018287606500e+00	 1.094524965006202e+01
 1.754975418265163e+00	 6.947787643316375e-01	 1.168482444303812e+01
 1.740803382960041e+00	 7.295613969744104e-01	 1.162568098069068e+01
 1.725882291021801e+00	 7.641901383925472e-01	 1.156095569391527e+01
 1.710212806164218e+00	 7.986416015392133e-01	 1.149101654431635e+01
 1.693796539375036e+00	 8.328922699100104e-01	 1.141632598975986e+01
 1.676636062899880e+00	 8.669185444175695e-01	 1.133744514681022e+01
 1.658734921497089e+00	 9.006967915306421e-01	 1.125503714247736e+01
 1.640097640847259e+00	 9.342033924955047e-01	 1.116986957312461e+01
 1.620729733015010e+00	 9.674147934461709e-01	 1.108281599583388e+01
 1.600637698875349e+00	 1.000307556199713e+00	 1.099485638642093e+01
 1.579829027432933e+00	 1.032858409524087e+00	 1.090707650856255e+01
 1.766597772023832e+00	 6.993799481998669e-01	 1.168229278841777e+01
 1.752331882179924e+00	 7.343929294026761e-01	 1.161995149495089e+01
 1.737311975063022e+00	 7.692510002338026e-01	 1.155197033593909e+01
 1.721538718782361e+00	 8.039306187653088e-01	 1.147869300848493e+01
 1.705013734994474e+00	 8.384081127543593e-01	 1.140055972479935e+01
 1.687739612979730e+00	 8.726597268282392e-01	 1.131811160704106e+01
 1.669719920971688e+00	 9.066616709422494e-01	 1.123199425705088e+01
 1.650959214622339e+00	 9.403901699270792e-01	 1.114296041619448e+01
 1.631463042500044e+00	 9.738215139308771e-01	 1.105187163808564e+01
 1.611237948531963e+00	 1.006932109550961e+00	 1.095969890600941e+01
 1.590291471318810e+00	 1.039698531441169e+00	 1.086752213732185e+01
 1.778220125783012e+00	 7.039811320676065e-01	 1.167992875949035e+01
 1.763860381400227e+00	 7.392244618303614e-01	 1.161426160990666e+01
 1.748741659104592e+00	 7.743118620744064e-01	 1.154289134103855e+01
 1.732864631400799e+00	 8.092196359907015e-01	 1.146613740735711e+01
 1.716230930614176e+00	 8.439239555979724e-01	 1.138441784131630e+01
 1.698843163059831e+00	 8.784009092381607e-01	 1.129825388263531e+01
 1.680704920446545e+00	 9.126265503531157e-01	 1.120827376776313e+01
 1.661820788397706e+00	 9.465769473579415e-01	 1.111521559207136e+01
 1.642196351985415e+00	 9.802282344149192e-01	 1.101992916499449e+01
 1.621838198188981e+00	 1.013556662901614e+00	 1.092337678753902e+01
 1.600753915205181e+00	 1.046538653357745e+00	 1.082663289223116e+01
 1.789842479542702e+00	 7.085823159348567e-01	 1.167774240635946e+01
 1.775388880620949e+00	 7.440559942574663e-01	 1.160862567312154e+01
 1.760171343146511e+00	 7.793727239143585e-01	 1.153373723494885e+01
 1.744190544019534e+00	 8.145086532153905e-01	 1.145337231547536e+01
 1.727448126234142e+00	 8.494397984408504e-01	 1.136792682356784e+01
 1.709946713140184e+00	 8.841420916473343e-01	 1.127790221914202e+01
 1.691689919921663e+00	 9.185914297632422e-01	 1.118390952414894e+01
 1.672682362173361e+00	 9.527637247880916e-01	 1.108667238857950e+01
 1.652929661471120e+00	 9.866349548982979e-01	 1.098702912912539e+01
 1.632438447846405e+00	 1.020181216251673e+00	 1.088593366749359e+01
 1.611216359092047e+00	 1.053378775273816e+00	 1.078445530621611e+01
 1.801464833302902e+00	 7.131834998016169e-01	 1.167574462807803e+01
 1.786917379842092e+00	 7.488875266839913e-01	 1.160305880982748e+01
 1.771601027188778e+00	 7.844335857536594e-01	 1.152452725021429e+01
 1.755516456638565e+00	 8.197976704393758e-01	 1.144042094388782e+01
 1.738665321854372e+00	 8.549556412829922e-01	 1.135111372270470e+01
 1.721050263220789e+00	 8.898832740557597e-01	 1.125708736021893e+01
 1.702674919397040e+00	 9.245563091726281e-01	 1.115893580602992e+01
 1.683543935949303e+00	 9.589505022175293e-01	 1.105736845710669e+01
 1.663662970957163e+00	 9.930416753810126e-01	 1.095321238111669e+01
 1.643038697504234e+00	 1.026805769601136e+00	 1.084741341630660e+01
 1.621678802979408e+00	 1.060218897189382e+00	 1.074103608352593e+01
 1.813087187063613e+00	 7.177846836678874e-01	 1.167394714543833e+01
 1.798445879063653e+00	 7.537190591099358e-01	 1.159757689799959e+01
 1.783030711231393e+00	 7.894944475923085e-01	 1.151528130353409e+01
 1.766842369257893e+00	 8.250866876626581e-01	 1.142730711974751e+01
 1.749882517474867e+00	 8.604714841243986e-01	 1.133400613860150e+01
 1.732153813301645e+00	 8.956244564634370e-01	 1.123584053166738e+01
 1.713659918872676e+00	 9.305211885812739e-01	 1.113338730972325e+01
 1.694405509725534e+00	 9.651372796462546e-01	 1.102734180095157e+01
 1.674396280443541e+00	 9.994483958630631e-01	 1.091852006012659e+01
 1.653638947162468e+00	 1.033430322950004e+00	 1.080786013086287e+01
 1.632141246867263e+00	 1.067059019104442e+00	 1.069642209424230e+01
 1.824709540824834e+00	 7.223858675336682e-01	 1.167236247480204e+01
 1.809974378285636e+00	 7.585505915353004e-01	 1.159219654438339e+01
 1.794460395274358e+00	 7.945553094303062e-01	 1.150601997397405e+01
 1.778168281877518e+00	 8.303757048852366e-01	 1.141405526669113e+01
 1.761099713095627e+00	 8.659873269650693e-01	 1.131663220238153e+01
 1.743257363382755e+00	 9.013656388703668e-01	 1.121419342607747e+01
 1.724644918348573e+00	 9.364860679891791e-01	 1.110729913477748e+01
 1.705267083502052e+00	 9.713240570742675e-01	 1.099663076411627e+01
 1.685129589930255e+00	 1.005855116344450e+00	 1.088299358464447e+01
 1.664239196821106e+00	 1.040054876298278e+00	 1.076731812728666e+01
 1.642603690755613e+00	 1.073899141018997e+00	 1.065066036899809e+01
 1.836331894586565e+00	 7.269870513989594e-01	 1.167100390292393e+01
 1.821502877508037e+00	 7.633821239600846e-01	 1.158693506143251e+01
 1.805890079317670e+00	 7.996161712676525e-01	 1.149676448200556e+01
 1.789494194497439e+00	 8.356647221071117e-01	 1.140069038596300e+01
 1.772316908716650e+00	 8.715031698050042e-01	 1.129902055960503e+01
 1.754360913464116e+00	 9.071068212765480e-01	 1.119217818805624e+01
 1.735629917824729e+00	 9.424509473963442e-01	 1.108070677121202e+01
 1.716128657278858e+00	 9.775108345015684e-01	 1.096527402052466e+01
 1.695862899417306e+00	 1.012261836825173e+00	 1.084667464365146e+01
 1.674839446480150e+00	 1.046679429645957e+00	 1.072583193400374e+01
 1.653066134644457e+00	 1.080739262933047e+00	 1.060379809389659e+01
 1.847954248348806e+00	 7.315882352637606e-01	 1.166988546272568e+01
 1.833031376730859e+00	 7.682136563842887e-01	 1.158181044511653e+01
 1.817319763361331e+00	 8.046770331043469e-01	 1.148753666933562e+01
 1.800820107117657e+00	 8.409537393282837e-01	 1.138723803825130e+01
 1.783534104337938e+00	 8.770190126442036e-01	 1.128120035409195e+01
 1.765464463545728e+00	 9.128480036819814e-01	 1.116982740001330e+01
 1.746614917301145e+00	 9.484158268027688e-01	 1.105364608723822e+01
 1.726990231055951e+00	 9.836976119281569e-01	 1.093331056364744e+01
 1.706596208904692e+00	 1.018668557305231e+00	 1.080960518811426e+01
 1.685439696139599e+00	 1.053303982993040e+00	 1.068344628506525e+01
 1.663528578533797e+00	 1.087579384846591e+00	 1.055588260562254e+01
 1.859576602111558e+00	 7.361894191280726e-01	 1.166902190997817e+01
 1.844559875954101e+00	 7.730451888079128e-01	 1.157684135356122e+01
 1.828749447405340e+00	 8.097378949403902e-01	 1.147835897949324e+01
 1.812146019738172e+00	 8.462427565487523e-01	 1.137372432620546e+01
 1.794751299959490e+00	 8.825348554826673e-01	 1.126320121235135e+01
 1.776568013627593e+00	 9.185891860866668e-01	 1.114717406847950e+01
 1.757599916777820e+00	 9.543807062084535e-01	 1.102615331744087e+01
 1.737851804833333e+00	 9.898843893540332e-01	 1.090077969651635e+01
 1.717329518392415e+00	 1.025075277784627e+00	 1.077182742279817e+01
 1.696039945799453e+00	 1.059928536339529e+00	 1.064020611372190e+01
 1.673991022423631e+00	 1.094419506759630e+00	 1.050696138673639e+01
 1.569366583547552e+00	 1.026018287606500e+00	 1.094524965006202e+01
 1.547992243692877e+00	 1.057991027143265e+00	 1.075636626546326e+01
 1.525923817606285e+00	 1.089578589594028e+00	 1.060498750312727e+01
 1.503171653821628e+00	 1.120758662325927e+00	 1.049472473168904e+01
 1.479747048068645e+00	 1.151509302505199e+00	 1.042916762955361e+01
 1.455662226709656e+00	 1.181808986997448e+00	 1.041186758071717e+01
 1.430930327038606e+00	 1.211636661368759e+00	 1.044632047280864e+01
 1.405565374500522e+00	 1.240971787758436e+00	 1.053594901036926e+01
 1.379582256908508e+00	 1.269794391398509e+00	 1.039801796741524e+01
 1.352996695754110e+00	 1.298085105561391e+00	 1.015785415624512e+01
 1.325825214725000e+00	 1.325825214725000e+00	 9.939620726094859e+00
 1.579829027432933e+00	 1.032858409524087e+00	 1.090707650856255e+01
 1.558312191979597e+00	 1.065044300658442e+00	 1.072543487443027e+01
 1.536096643052833e+00	 1.096842446859411e+00	 1.058206732674950e+01
 1.513192798176722e+00	 1.128230386743245e+00	 1.048064813015469e+01
 1.489612028385866e+00	 1.159186031190622e+00	 1.042482957550185e+01
 1.465366641551668e+00	 1.189687713579582e+00	 1.041822507064526e+01
 1.440469862550032e+00	 1.219714239113318e+00	 1.046439162039110e+01
 1.414935810328952e+00	 1.249244933012061e+00	 1.056681181074791e+01
 1.388779471953618e+00	 1.278259687342719e+00	 1.032953235394624e+01
 1.362016673725522e+00	 1.306739006266193e+00	 1.010364375330200e+01
 1.334664049490250e+00	 1.334664049490250e+00	 9.900234277128146e+00
 1.590291471318810e+00	 1.039698531441169e+00	 1.086752213732185e+01
 1.568632140266901e+00	 1.072097574173214e+00	 1.069320972736273e+01
 1.546269468500037e+00	 1.104106304124489e+00	 1.055792683733345e+01
 1.523213942532522e+00	 1.135702111160359e+00	 1.046541060116179e+01
 1.499477008703824e+00	 1.166862759875942e+00	 1.041937596897598e+01
 1.475071056394428e+00	 1.197566440161714e+00	 1.042349849299334e+01
 1.450009398062197e+00	 1.227791816857975e+00	 1.048139648899211e+01
 1.424306246158092e+00	 1.257518078265884e+00	 1.049882910430351e+01
 1.397976686999389e+00	 1.286724983287230e+00	 1.026528904848278e+01
 1.371036651697523e+00	 1.315392906971395e+00	 1.005373903936046e+01
 1.343502884256000e+00	 1.343502884256000e+00	 9.865208129989243e+00
 1.600753915205181e+00	 1.046538653357745e+00	 1.082663289223116e+01
 1.578952088554790e+00	 1.079150847687581e+00	 1.065973477406975e+01
 1.556442293947896e+00	 1.111370161389263e+00	 1.053260760140772e+01
 1.533235086889028e+00	 1.143173835577269e+00	 1.044905135669389e+01
 1.509341989022520e+00	 1.174539488561158e+00	 1.041284370230714e+01
 1.484775471237937e+00	 1.205445166743843e+00	 1.042772246169147e+01
 1.459548933575101e+00	 1.235869394602729e+00	 1.049736746192687e+01
 1.433676681987940e+00	 1.265791223519906e+00	 1.042490722508413e+01
 1.407173902045819e+00	 1.295190279232040e+00	 1.020523528651512e+01
 1.380056629670115e+00	 1.324046807676997e+00	 1.000808631367132e+01
 1.352341719022250e+00	 1.352341719022250e+00	 9.834487898578690e+00
 1.611216359092047e+00	 1.053378775273816e+00	 1.078445530621611e+01
 1.589272036843264e+00	 1.086204121201542e+00	 1.062505421270161e+01
 1.566615119396410e+00	 1.118634018653731e+00	 1.050615150115723e+01
 1.543256231246241e+00	 1.150645559993975e+00	 1.043160998756380e+01
 1.519206969341953e+00	 1.182216217246272e+00	 1.040527010554578e+01
 1.494479886082193e+00	 1.213323893325969e+00	 1.043093208286504e+01
 1.469088469088744e+00	 1.243946972347583e+00	 1.051233746464794e+01
 1.443047117818499e+00	 1.274064368774127e+00	 1.035505335177728e+01
 1.416371117092909e+00	 1.303655575177150e+00	 1.014931893152656e+01
 1.389076607643296e+00	 1.332700708382998e+00	 9.966632539209034e+00
 1.361180553789000e+00	 1.361180553789000e+00	 9.808019891350233e+00
 1.621678802979408e+00	 1.060218897189382e+00	 1.074103608352593e+01
 1.599591985132323e+00	 1.093257394715098e+00	 1.058921248173883e+01
 1.576787944845580e+00	 1.125897875917895e+00	 1.047860072424066e+01
 1.553277375604159e+00	 1.158117284410476e+00	 1.041312645119325e+01
 1.529071949662122e+00	 1.189892945931280e+00	 1.039669293234149e+01
 1.504184300927196e+00	 1.221202619908093e+00	 1.043316293895756e+01
 1.478628004603125e+00	 1.252024550092534e+00	 1.050340482614295e+01
 1.452417553649766e+00	 1.282337514028546e+00	 1.028921706275839e+01
 1.425568332140659e+00	 1.312120871122559e+00	 1.009748845473592e+01
 1.398096585617068e+00	 1.341354609089400e+00	 9.929325321260926e+00
 1.370019388556250e+00	 1.370019388556250e+00	 9.785751088905791e+00
 1.632141246867263e+00	 1.067059019104442e+00	 1.069642209424230e+01
 1.609911933421967e+00	 1.100310668228250e+00	 1.055225425228931e+01
 1.586960770295406e+00	 1.133161733181755e+00	 1.044999775399971e+01
 1.563298519962784e+00	 1.165589008826773e+00	 1.039364105986259e+01
 1.538936929983029e+00	 1.197569674616187e+00	 1.038715034636625e+01
 1.513888715772949e+00	 1.229081346490214e+00	 1.043445107346392e+01
 1.488167540118244e+00	 1.260102127837583e+00	 1.042797246451327e+01
 1.461787989481743e+00	 1.290610659283165e+00	 1.022734848666841e+01
 1.434765547189069e+00	 1.320586167068268e+00	 1.004969291561855e+01
 1.407116563591429e+00	 1.350008509796201e+00	 9.896112886840537e+00
 1.378858223324000e+00	 1.378858223324000e+00	 9.767629122452322e+00
 1.642603690755613e+00	 1.073899141018997e+00	 1.065066036899809e+01
 1.620231881712195e+00	 1.107363941740996e+00	 1.051422442067975e+01
 1.597133595745887e+00	 1.140425590445309e+00	 1.042038536004251e+01
 1.573319664322116e+00	 1.173060733242866e+00	 1.037319446940969e+01
 1.548801910304673e+00	 1.205246403300989e+00	 1.037668090825643e+01
 1.523593130619449e+00	 1.236960073072333e+00	 1.043483297624744e+01
 1.497707075634103e+00	 1.268179705582731e+00	 1.035638555170247e+01
 1.471158425314429e+00	 1.298883804537982e+00	 1.016939828488957e+01
 1.443962762238138e+00	 1.329051463014275e+00	 1.000588194317215e+01
 1.416136541566381e+00	 1.358662410503402e+00	 9.866944064887345e+00
 1.387697058092250e+00	 1.387697058092250e+00	 9.753602253081862e+00
 1.653066134644457e+00	 1.080739262933047e+00	 1.060379809389659e+01
 1.630551830003009e+00	 1.114417215253336e+00	 1.047516810132857e+01
 1.607306421197023e+00	 1.147689447708559e+00	 1.038980658918434e+01
 1.583340808682154e+00	 1.180532457658756e+00	 1.035182766835766e+01
 1.558666890627054e+00	 1.212923131985688e+00	 1.036532356305038e+01
 1.533297545466696e+00	 1.244838799654449e+00	 1.043434556941400e+01
 1.507246611150701e+00	 1.276257283327976e+00	 1.028859648930318e+01
 1.480528861147824e+00	 1.307156949792999e+00	 1.011531763468633e+01
 1.453159977287867e+00	 1.337516758960583e+00	 9.966005717894017e+00
 1.425156519541922e+00	 1.367316311211003e+00	 9.841768267218431e+00
 1.396535892861000e+00	 1.396535892861000e+00	 9.743619351838522e+00
 1.663528578533797e+00	 1.087579384846591e+00	 1.055588260562254e+01
 1.640871778294408e+00	 1.121470488765272e+00	 1.043513061988746e+01
 1.617479246648815e+00	 1.154953304971504e+00	 1.035830475673066e+01
 1.593361953042898e+00	 1.188004182074440e+00	 1.032958196745323e+01
 1.568531870950172e+00	 1.220599860670283e+00	 1.035311762810059e+01
 1.543001960314693e+00	 1.252717526236562e+00	 1.040731233649417e+01
 1.516786146668037e+00	 1.284334861073320e+00	 1.022455814003764e+01
 1.489899296981929e+00	 1.315430095048214e+00	 1.006505821298269e+01
 1.462357192338255e+00	 1.345982054907189e+00	 9.930014954438059e+00
 1.434176497518053e+00	 1.375970211919004e+00	 9.820535470198912e+00
 1.405374727630250e+00	 1.405374727630250e+00	 9.737629880537549e+00
 1.673991022423631e+00	 1.094419506759630e+00	 1.050696138673639e+01
 1.651191726586392e+00	 1.128523762276803e+00	 1.039415750664065e+01
 1.627652072101263e+00	 1.162217162234144e+00	 1.032592343808665e+01
 1.603383097404348e+00	 1.195475906489921e+00	 1.030649898959719e+01
 1.578396851274028e+00	 1.228276589354776e+00	 1.034010278143869e+01
 1.552706375163437e+00	 1.260596252818672e+00	 1.033361065930124e+01
 1.526325682186112e+00	 1.292412438818762e+00	 1.016422381334740e+01
 1.499269732816743e+00	 1.323703240303628e+00	 1.001857218074797e+01
 1.471554407389304e+00	 1.354447350854096e+00	 9.897860884922576e+00
 1.443196475494775e+00	 1.384624112627405e+00	 9.803196197100032e+00
 1.414213562400000e+00	 1.414213562400000e+00	 9.735583873303787e+00
 1.325825214725000e+00	 1.325825214725000e+00	 9.939620726094859e+00
 1.298085105561391e+00	 1.352996695754110e+00	 9.795003013127864e+00
 1.269794391398509e+00	 1.379582256908508e+00	 9.645325023801291e+00
 1.240971787758436e+00	 1.405565374500522e+00	 9.506968356446675e+00
 1.211636661368759e+00	 1.430930327038606e+00	 9.391475423124577e+00
 1.181808986997448e+00	 1.455662226709656e+00	 9.258199273771394e+00
 1.151509302505200e+00	 1.479747048068645e+00	 9.107838093867299e+00
 1.120758662325928e+00	 1.503171653821628e+00	 8.941192029509484e+00
 1.089578589594029e+00	 1.525923817606285e+00	 8.759155201734814e+00
 1.057991027143266e+00	 1.547992243692877e+00	 8.562707130970558e+00
 1.026018287606500e+00	 1.569366583547552e+00	 8.352903664723495e+00
 1.334664049490250e+00	 1.334664049490250e+00	 9.900234277128146e+00
 1.306739006266193e+00	 1.362016673725522e+00	 9.764277215102478e+00
 1.278259687342720e+00	 1.388779471953618e+00	 9.622301895102533e+00
 1.249244933012061e+00	 1.414935810328952e+00	 9.475530913143235e+00
 1.219714239113318e+00	 1.440469862550032e+00	 9.370279663069134e+00
 1.189687713579582e+00	 1.465366641551668e+00	 9.246004352919662e+00
 1.159186031190623e+00	 1.489612028385866e+00	 9.103416389141174e+00
 1.128230386743246e+00	 1.513192798176721e+00	 8.943334180932382e+00
 1.096842446859412e+00	 1.536096643052833e+00	 8.766674948178297e+00
 1.065044300658443e+00	 1.558312191979596e+00	 8.574445912956946e+00
 1.032858409524087e+00	 1.579829027432933e+00	 8.367734970196917e+00
 1.343502884256000e+00	 1.343502884256000e+00	 9.865208129989243e+00
 1.315392906971395e+00	 1.371036651697524e+00	 9.737847575674916e+00
 1.286724983287230e+00	 1.397976686999389e+00	 9.603520764106307e+00
 1.257518078265884e+00	 1.424306246158092e+00	 9.461975613946025e+00
 1.227791816857975e+00	 1.450009398062197e+00	 9.351948679676555e+00
 1.197566440161714e+00	 1.475071056394428e+00	 9.236628174905444e+00
 1.166862759875943e+00	 1.499477008703824e+00	 9.101770279785889e+00
 1.135702111160360e+00	 1.523213942532522e+00	 8.948212077426321e+00
 1.104106304124490e+00	 1.546269468500036e+00	 8.776894297539588e+00
 1.072097574173215e+00	 1.568632140266900e+00	 8.588852272174012e+00
 1.039698531441169e+00	 1.590291471318810e+00	 8.385206346510792e+00
 1.352341719022250e+00	 1.352341719022250e+00	 9.834487898578690e+00
 1.324046807676997e+00	 1.380056629670115e+00	 9.715661422281350e+00
 1.295190279232041e+00	 1.407173902045819e+00	 9.588930537156710e+00
 1.265791223519906e+00	 1.433676681987940e+00	 9.454013927176785e+00
 1.235869394602730e+00	 1.459548933575101e+00	 9.336488012039171e+00
 1.205445166743843e+00	 1.484775471237936e+00	 9.230075948993209e+00
 1.174539488561159e+00	 1.509341989022520e+00	 9.102904400266716e+00
 1.143173835577269e+00	 1.533235086889027e+00	 8.955829537889903e+00
 1.111370161389264e+00	 1.556442293947895e+00	 8.789816017249423e+00
 1.079150847687582e+00	 1.578952088554790e+00	 8.605927694181130e+00
 1.046538653357745e+00	 1.600753915205181e+00	 8.405317773043542e+00
 1.361180553789000e+00	 1.361180553789000e+00	 9.808019891350233e+00
 1.332700708382998e+00	 1.389076607643297e+00	 9.697666746971581e+00
 1.303655575177150e+00	 1.416371117092909e+00	 9.578480760224863e+00
 1.274064368774127e+00	 1.443047117818499e+00	 9.450151132700880e+00
 1.243946972347583e+00	 1.469088469088743e+00	 9.323903803923248e+00
 1.213323893325970e+00	 1.494479886082192e+00	 9.226353479202615e+00
 1.182216217246271e+00	 1.519206969341952e+00	 9.106823974934345e+00
 1.150645559993975e+00	 1.543256231246240e+00	 8.966190971277713e+00
 1.118634018653732e+00	 1.566615119396410e+00	 8.805443469984484e+00
 1.086204121201543e+00	 1.589272036843264e+00	 8.625674269958868e+00
 1.053378775273816e+00	 1.611216359092047e+00	 8.428069849708850e+00
 1.370019388556250e+00	 1.370019388556250e+00	 9.785751088905791e+00
 1.341354609089400e+00	 1.398096585617068e+00	 9.683812184969820e+00
 1.312120871122559e+00	 1.425568332140659e+00	 9.572121598275814e+00
 1.282337514028547e+00	 1.452417553649766e+00	 9.450338795313472e+00
 1.252024550092534e+00	 1.478628004603124e+00	 9.318181423323015e+00
 1.221202619908093e+00	 1.504184300927196e+00	 9.225467145122821e+00
 1.189892945931281e+00	 1.529071949662122e+00	 9.113534798996138e+00
 1.158117284410477e+00	 1.553277375604159e+00	 8.979301357566387e+00
 1.125897875917896e+00	 1.576787944845579e+00	 8.823780594466044e+00
 1.093257394715099e+00	 1.599591985132322e+00	 8.648094676379259e+00
 1.060218897189382e+00	 1.621678802979408e+00	 8.453463776938714e+00
 1.378858223324000e+00	 1.378858223324000e+00	 9.767629122452322e+00
 1.350008509796201e+00	 1.407116563591429e+00	 9.674046994060129e+00
 1.320586167068267e+00	 1.434765547189069e+00	 9.569803815428996e+00
 1.290610659283165e+00	 1.461787989481743e+00	 9.454529060238967e+00
 1.260102127837583e+00	 1.488167540118244e+00	 9.327913256470959e+00
 1.229081346490215e+00	 1.513888715772948e+00	 9.227423883464656e+00
 1.197569674616187e+00	 1.538936929983029e+00	 9.123043220219788e+00
 1.165589008826774e+00	 1.563298519962784e+00	 8.995166229452391e+00
 1.133161733181756e+00	 1.586960770295405e+00	 8.844831886996612e+00
 1.100310668228251e+00	 1.609911933421966e+00	 8.673192157427193e+00
 1.067059019104442e+00	 1.632141246867263e+00	 8.481501336435805e+00
 1.387697058092250e+00	 1.387697058092250e+00	 9.753602253081862e+00
 1.358662410503402e+00	 1.416136541566380e+00	 9.668321034759764e+00
 1.329051463014275e+00	 1.443962762238138e+00	 9.571478755876846e+00
 1.298883804537982e+00	 1.471158425314429e+00	 9.462674634645923e+00
 1.268179705582731e+00	 1.497707075634103e+00	 9.341571780132949e+00
 1.236960073072333e+00	 1.523593130619448e+00	 9.232231170318197e+00
 1.205246403300989e+00	 1.548801910304673e+00	 9.135356121335395e+00
 1.173060733242868e+00	 1.573319664322116e+00	 9.013791654749813e+00
 1.140425590445310e+00	 1.597133595745886e+00	 8.868602383703173e+00
 1.107363941740996e+00	 1.620231881712195e+00	 8.700970506139505e+00
 1.073899141018997e+00	 1.642603690755613e+00	 8.512184872661800e+00
 1.396535892861000e+00	 1.396535892861000e+00	 9.743619351838522e+00
 1.367316311211003e+00	 1.425156519541922e+00	 9.666584751245125e+00
 1.337516758960583e+00	 1.453159977287867e+00	 9.577098325528095e+00
 1.307156949792999e+00	 1.480528861147824e+00	 9.474728769864088e+00
 1.276257283327977e+00	 1.507246611150701e+00	 9.359111470055010e+00
 1.244838799654449e+00	 1.533297545466696e+00	 9.239897004083288e+00
 1.212923131985688e+00	 1.558666890627054e+00	 9.150480903106654e+00
 1.180532457658757e+00	 1.583340808682153e+00	 9.035184219456003e+00
 1.147689447708560e+00	 1.607306421197023e+00	 8.895097643453449e+00
 1.114417215253337e+00	 1.630551830003009e+00	 8.731434047230048e+00
 1.080739262933047e+00	 1.653066134644457e+00	 8.545517275028518e+00
 1.405374727630250e+00	 1.405374727630250e+00	 9.737629880537549e+00
 1.375970211919004e+00	 1.434176497518053e+00	 9.668789152997920e+00
 1.345982054907189e+00	 1.462357192338255e+00	 9.586614974343721e+00
 1.315430095048214e+00	 1.489899296981929e+00	 9.490645244272271e+00
 1.284334861073321e+00	 1.516786146668037e+00	 9.380487316304961e+00
 1.252717526236562e+00	 1.543001960314692e+00	 9.255824036364404e+00
 1.220599860670284e+00	 1.568531870950172e+00	 9.168425468040361e+00
 1.188004182074441e+00	 1.593361953042897e+00	 9.059351011456620e+00
 1.154953304971505e+00	 1.617479246648815e+00	 8.924323731418138e+00
 1.121470488765273e+00	 1.640871778294407e+00	 8.764587620370115e+00
 1.087579384846591e+00	 1.663528578533797e+00	 8.581501960761205e+00
 1.414213562400000e+00	 1.414213562400000e+00	 9.735583873303787e+00
 1.384624112627405e+00	 1.443196475494774e+00	 9.674885797139307e+00
 1.354447350854096e+00	 1.471554407389304e+00	 9.599981679335338e+00
 1.323703240303628e+00	 1.499269732816743e+00	 9.510378346828258e+00
 1.292412438818763e+00	 1.526325682186112e+00	 9.405654807200008e+00
 1.260596252818672e+00	 1.552706375163436e+00	 9.285468476974552e+00
 1.228276589354776e+00	 1.578396851274027e+00	 9.189198204706919e+00
 1.195475906489922e+00	 1.603383097404348e+00	 9.086299604841569e+00
 1.162217162234145e+00	 1.627652072101262e+00	 8.956287203248531e+00
 1.128523762276804e+00	 1.651191726586391e+00	 8.800436564096099e+00
 1.094419506759630e+00	 1.673991022423631e+00	 8.620142858404128e+00
 1.026018287606500e+00	 1.569366583547552e+00	 8.352903664723495e+00
 9.936830028478698e-01	 1.590037449219140e+00	 8.137959722496987e+00
 9.610080729608007e-01	 1.609996423530313e+00	 7.916501720584252e+00
 9.280166150632180e-01	 1.629236067072467e+00	 7.689755808243937e+00
 8.947319121182953e-01	 1.647749922022751e+00	 7.458969363641949e+00
 8.611773620061525e-01	 1.665532512820283e+00	 7.225401224209266e+00
 8.273764270649263e-01	 1.682579343755863e+00	 6.990312080674236e+00
 7.933525843124147e-01	 1.698886893546373e+00	 6.754955121183785e+00
 7.591292765506416e-01	 1.714452606980927e+00	 6.520567006369495e+00
 7.247298645455660e-01	 1.729274883740578e+00	 6.288359249801934e+00
 6.901775804629183e-01	 1.743353064507004e+00	 6.059510071144927e+00
 1.032858409524087e+00	 1.579829027432933e+00	 8.367734970196917e+00
 1.000307556199713e+00	 1.600637698875349e+00	 8.155468953662949e+00
 9.674147934461709e-01	 1.620729733015011e+00	 7.936543345133579e+00
 9.342033924955050e-01	 1.640097640847259e+00	 7.712186173867977e+00
 9.006967915306425e-01	 1.658734921497089e+00	 7.483647050757411e+00
 8.669185444175702e-01	 1.676636062899880e+00	 7.252187294700131e+00
 8.328922699100108e-01	 1.693796539375036e+00	 7.019070224625606e+00
 7.986416015392142e-01	 1.710212806164218e+00	 6.785551704754305e+00
 7.641901383925483e-01	 1.725882291021801e+00	 6.552871025033993e+00
 7.295613969744115e-01	 1.740803382960041e+00	 6.322242192188634e+00
 6.947787643316375e-01	 1.754975418265163e+00	 6.094845699574464e+00
 1.039698531441169e+00	 1.590291471318810e+00	 8.385206346510792e+00
 1.006932109550961e+00	 1.611237948531963e+00	 8.175427610881576e+00
 9.738215139308771e-01	 1.631463042500044e+00	 7.958837368586316e+00
 9.403901699270795e-01	 1.650959214622338e+00	 7.736666321084324e+00
 9.066616709422495e-01	 1.669719920971687e+00	 7.510167111250563e+00
 8.726597268282396e-01	 1.687739612979729e+00	 7.280604341429978e+00
 8.384081127543602e-01	 1.705013734994474e+00	 7.049244759201633e+00
 8.039306187653098e-01	 1.721538718782360e+00	 6.817347699640246e+00
 7.692510002338034e-01	 1.737311975063022e+00	 6.586155867135156e+00
 7.343929294026771e-01	 1.752331882179924e+00	 6.356886533220762e+00
 6.993799481998668e-01	 1.766597772023833e+00	 6.130723219522935e+00
 1.046538653357745e+00	 1.600753915205181e+00	 8.405317773043542e+00
 1.013556662901614e+00	 1.621838198188981e+00	 8.197837244834977e+00
 9.802282344149195e-01	 1.642196351985414e+00	 7.983386931458238e+00
 9.465769473579416e-01	 1.661820788397706e+00	 7.763200998140935e+00
 9.126265503531162e-01	 1.680704920446545e+00	 7.538535918346396e+00
 8.784009092381612e-01	 1.698843163059831e+00	 7.310660379163616e+00
 8.439239555979734e-01	 1.716230930614175e+00	 7.080845356550771e+00
 8.092196359907021e-01	 1.732864631400798e+00	 6.850354450457345e+00
 7.743118620744075e-01	 1.748741659104592e+00	 6.620434564031813e+00
 7.392244618303623e-01	 1.763860381400226e+00	 6.392307004415984e+00
 7.039811320676067e-01	 1.778220125783012e+00	 6.167159075166055e+00
 1.053378775273816e+00	 1.611216359092047e+00	 8.428069849708850e+00
 1.020181216251672e+00	 1.632438447846405e+00	 8.222699961147374e+00
 9.866349548982980e-01	 1.652929661471120e+00	 8.010195662476105e+00
 9.527637247880920e-01	 1.672682362173361e+00	 7.791795373761151e+00
 9.185914297632424e-01	 1.691689919921662e+00	 7.568760197140257e+00
 8.841420916473348e-01	 1.709946713140184e+00	 7.342363705195709e+00
 8.494397984408509e-01	 1.727448126234142e+00	 7.113881901411117e+00
 8.145086532153912e-01	 1.744190544019534e+00	 6.884583444005542e+00
 7.793727239143596e-01	 1.760171343146511e+00	 6.655720218530059e+00
 7.440559942574673e-01	 1.775388880620949e+00	 6.428518337802999e+00
 7.085823159348565e-01	 1.789842479542702e+00	 6.204169640184855e+00
 1.060218897189382e+00	 1.621678802979408e+00	 8.453463776938714e+00
 1.026805769601136e+00	 1.643038697504233e+00	 8.250018402483878e+00
 9.930416753810124e-01	 1.663662970957163e+00	 8.039267662828816e+00
 9.589505022175296e-01	 1.683543935949304e+00	 7.822455023580110e+00
 9.245563091726284e-01	 1.702674919397039e+00	 7.600847013246819e+00
 8.898832740557604e-01	 1.721050263220789e+00	 7.375722890236797e+00
 8.549556412829928e-01	 1.738665321854372e+00	 7.148364484252888e+00
 8.197976704393767e-01	 1.755516456638565e+00	 6.920046304682838e+00
 7.844335857536603e-01	 1.771601027188778e+00	 6.692026002578850e+00
 7.488875266839924e-01	 1.786917379842091e+00	 6.465535265905052e+00
 7.131834998016169e-01	 1.801464833302902e+00	 6.241771220039817e+00
 1.067059019104442e+00	 1.632141246867263e+00	 8.481501336435805e+00
 1.033430322950004e+00	 1.653638947162467e+00	 8.279795731337607e+00
 9.994483958630631e-01	 1.674396280443540e+00	 8.070607491024724e+00
 9.651372796462548e-01	 1.694405509725534e+00	 7.855185917102588e+00
 9.305211885812740e-01	 1.713659918872676e+00	 7.634803761885973e+00
 8.956244564634376e-01	 1.732153813301645e+00	 7.410746769650155e+00
 8.604714841243993e-01	 1.749882517474867e+00	 7.184303394684243e+00
 8.250866876626589e-01	 1.766842369257893e+00	 6.956754790074630e+00
 7.894944475923095e-01	 1.783030711231393e+00	 6.729365155053539e+00
 7.537190591099371e-01	 1.798445879063653e+00	 6.503372521723779e+00
 7.177846836678873e-01	 1.813087187063613e+00	 6.279980054157586e+00
 1.073899141018997e+00	 1.642603690755613e+00	 8.512184872661800e+00
 1.040054876298278e+00	 1.664239196821106e+00	 8.312035613474604e+00
 1.005855116344450e+00	 1.685129589930255e+00	 8.104220148326988e+00
 9.713240570742678e-01	 1.705267083502052e+00	 7.889994405159579e+00
 9.364860679891795e-01	 1.724644918348573e+00	 7.670638157386129e+00
 9.013656388703671e-01	 1.743257363382755e+00	 7.447444435023094e+00
 8.659873269650699e-01	 1.761099713095627e+00	 7.221709115109618e+00
 8.303757048852374e-01	 1.778168281877517e+00	 6.994720786712577e+00
 7.945553094303071e-01	 1.794460395274357e+00	 6.767750979624634e+00
 7.585505915353016e-01	 1.809974378285635e+00	 6.542044838724268e+00
 7.223858675336681e-01	 1.824709540824833e+00	 6.318812318033778e+00
 1.080739262933047e+00	 1.653066134644457e+00	 8.545517275028518e+00
 1.046679429645956e+00	 1.674839446480151e+00	 8.346742202007650e+00
 1.012261836825172e+00	 1.695862899417306e+00	 8.140111064742683e+00
 9.775108345015685e-01	 1.716128657278857e+00	 7.926887207840611e+00
 9.424509473963443e-01	 1.735629917824729e+00	 7.708358223085496e+00
 9.071068212765485e-01	 1.754360913464115e+00	 7.485825226059058e+00
 8.715031698050051e-01	 1.772316908716650e+00	 7.260592314628211e+00
 8.356647221071125e-01	 1.789494194497438e+00	 7.033956305993493e+00
 7.996161712676533e-01	 1.805890079317670e+00	 6.807196842707159e+00
 7.633821239600858e-01	 1.821502877508038e+00	 6.581566950820335e+00
 7.269870513989594e-01	 1.836331894586565e+00	 6.358284125256100e+00
 1.087579384846591e+00	 1.663528578533797e+00	 8.581501960761205e+00
 1.053303982993040e+00	 1.685439696139599e+00	 8.383920122070576e+00
 1.018668557305232e+00	 1.706596208904692e+00	 8.178286085539819e+00
 9.836976119281569e-01	 1.726990231055951e+00	 7.965871402882408e+00
 9.484158268027693e-01	 1.746614917301144e+00	 7.747972281615149e+00
 9.128480036819818e-01	 1.765464463545728e+00	 7.525898722774699e+00
 8.770190126442042e-01	 1.783534104337938e+00	 7.300963843163372e+00
 8.409537393282845e-01	 1.800820107117657e+00	 7.074473480253197e+00
 8.046770331043480e-01	 1.817319763361330e+00	 6.847716171487876e+00
 7.682136563842901e-01	 1.833031376730859e+00	 6.621953592360326e+00
 7.315882352637607e-01	 1.847954248348806e+00	 6.398411529451234e+00
 1.094419506759630e+00	 1.673991022423631e+00	 8.620142858404128e+00
 1.059928536339529e+00	 1.696039945799453e+00	 8.423574456067985e+00
 1.025075277784627e+00	 1.717329518392415e+00	 8.218751458270901e+00
 9.898843893540332e-01	 1.737851804833332e+00	 8.006954414491933e+00
 9.543807062084537e-01	 1.757599916777820e+00	 7.789488945545876e+00
 9.185891860866674e-01	 1.776568013627593e+00	 7.567674737990336e+00
 8.825348554826680e-01	 1.794751299959490e+00	 7.342834725811775e+00
 8.462427565487531e-01	 1.812146019738171e+00	 7.116284558987186e+00
 8.097378949403913e-01	 1.828749447405340e+00	 6.889322452025800e+00
 7.730451888079141e-01	 1.844559875954101e+00	 6.663219498113521e+00
 7.361894191280726e-01	 1.859576602111558e+00	 6.439210526158535e+00
 6.901775804629183e-01	 1.743353064507004e+00	 6.059510071144927e+00
 6.554954827290597e-01	 1.756687414487810e+00	 5.828012042522657e+00
 6.207064124720911e-01	 1.769279104497503e+00	 5.599839731733804e+00
 5.858329516852290e-01	 1.781130189742346e+00	 5.375929441631675e+00
 5.508973832404049e-01	 1.792243586465333e+00	 5.157168330542365e+00
 5.159216528644688e-01	 1.802623046614941e+00	 4.944389396675010e+00
 4.809273331759799e-01	 1.812273130706186e+00	 4.738367110155728e+00
 4.459355898653843e-01	 1.821199179046478e+00	 4.539813703765301e+00
 4.109671500863636e-01	 1.829407281501319e+00	 4.349376125777465e+00
 3.760422731112888e-01	 1.836904245976013e+00	 4.167633651007330e+00
 3.411807232891650e-01	 1.843697565789419e+00	 3.995096139350465e+00
 6.947787643316375e-01	 1.754975418265163e+00	 6.094845699574464e+00
 6.598654526133345e-01	 1.768398663912796e+00	 5.864110225199914e+00
 6.248444552216971e-01	 1.781074298522854e+00	 5.636814028340458e+00
 5.897385046965644e-01	 1.793004391002975e+00	 5.413942412647891e+00
 5.545700324623483e-01	 1.804191877037771e+00	 5.196428874329655e+00
 5.193611305507445e-01	 1.814640533588709e+00	 4.985149923913955e+00
 4.841335153977708e-01	 1.824354951574237e+00	 4.780920579973355e+00
 4.489084937984773e-01	 1.833340506903816e+00	 4.584490545962611e+00
 4.137069310875708e-01	 1.841603330042052e+00	 4.396541073410867e+00
 3.785492215992395e-01	 1.849150274280280e+00	 4.217682507197342e+00
 3.434552614448158e-01	 1.855988882892821e+00	 4.048452501606778e+00
 6.993799481998668e-01	 1.766597772023833e+00	 6.130723219522935e+00
 6.642354224972193e-01	 1.780109913338382e+00	 5.900827220717479e+00
 6.289824979710141e-01	 1.792869492548873e+00	 5.674481299307784e+00
 5.936440577077111e-01	 1.804878592264319e+00	 5.452719981787466e+00
 5.582426816842031e-01	 1.816140167610950e+00	 5.236523315712189e+00
 5.228006082370326e-01	 1.826658020563224e+00	 5.026811527418117e+00
 4.873396976196750e-01	 1.836436772443023e+00	 4.824440376194751e+00
 4.518813977317842e-01	 1.845481834761856e+00	 4.630197216149270e+00
 4.164467120890923e-01	 1.853799378583433e+00	 4.444797768847209e+00
 3.810561700876046e-01	 1.861396302585124e+00	 4.268883602077288e+00
 3.457297996009814e-01	 1.868280199996709e+00	 4.103020302851267e+00
 7.039811320676067e-01	 1.778220125783012e+00	 6.167159075166055e+00
 6.686053923807149e-01	 1.791821162764569e+00	 5.938175397888264e+00
 6.331205407200413e-01	 1.804664686575561e+00	 5.712849929392240e+00
 5.975496107186692e-01	 1.816752793526378e+00	 5.492266649008496e+00
 5.619153309059700e-01	 1.828088458184871e+00	 5.277452376591556e+00
 5.262400859233336e-01	 1.838675507538488e+00	 5.069371264769781e+00
 4.905458798416924e-01	 1.848518593312543e+00	 4.868920012311982e+00
 4.548543016653047e-01	 1.857623162620597e+00	 4.676923809932986e+00
 4.191864930909281e-01	 1.865995427125461e+00	 4.494133021468026e+00
 3.835631185763844e-01	 1.873642330890543e+00	 4.321220595383390e+00
 3.480043377576615e-01	 1.880571517101082e+00	 4.158780194144866e+00
 7.085823159348565e-01	 1.789842479542702e+00	 6.204169640184855e+00
 6.729753622638208e-01	 1.803532412191355e+00	 5.976167134721837e+00
 6.372585834687796e-01	 1.816459880602917e+00	 5.751928390323667e+00
 6.014551637294383e-01	 1.828626994789152e+00	 5.532587076992726e+00
 5.655879801276489e-01	 1.840036748759533e+00	 5.319217015210857e+00
 5.296795636096469e-01	 1.850692994514499e+00	 5.112826501280061e+00
 4.937520620638231e-01	 1.860600414182798e+00	 4.914353378612537e+00
 4.578272055990393e-01	 1.869764490480038e+00	 4.724660866379844e+00
 4.219262740930783e-01	 1.878191475668138e+00	 4.544534148297410e+00
 3.860700670655788e-01	 1.885888359196539e+00	 4.374677716131556e+00
 3.502788759148565e-01	 1.892862834205940e+00	 4.215713454858485e+00
 7.131834998016169e-01	 1.801464833302902e+00	 6.241771220039817e+00
 6.773453321465368e-01	 1.815243661618740e+00	 6.014814818127771e+00
 6.413966262172285e-01	 1.828255074630939e+00	 5.791725237999842e+00
 6.053607167400187e-01	 1.840501196052642e+00	 5.573686085896240e+00
 5.692606293492394e-01	 1.851985039334938e+00	 5.361818418530392e+00
 5.331190412959727e-01	 1.862710481491259e+00	 5.157174900061909e+00
 4.969582442860671e-01	 1.872682235053787e+00	 4.960734730024591e+00
 4.608001095329875e-01	 1.881905818340180e+00	 4.773399353709317e+00
 4.246660550955427e-01	 1.890387524211462e+00	 4.595988957626355e+00
 3.885770155551879e-01	 1.898134387503110e+00	 4.429239744253473e+00
 3.525534140725660e-01	 1.905154151311284e+00	 4.273801972404830e+00
 7.177846836678873e-01	 1.813087187063613e+00	 6.279980054157586e+00
 6.817153020288633e-01	 1.826954911046724e+00	 6.054130843630574e+00
 6.455346689653881e-01	 1.840050268659631e+00	 5.832249109788878e+00
 6.092662697504103e-01	 1.852375397316846e+00	 5.615568648302407e+00
 5.729332785707419e-01	 1.863933329911085e+00	 5.405257994897099e+00
 5.365585189823112e-01	 1.874727968468767e+00	 5.202414412485364e+00
 5.001644265084243e-01	 1.884764055925510e+00	 5.008058674429993e+00
 4.637730134671497e-01	 1.894047146201024e+00	 4.823130655539339e+00
 4.274058360983216e-01	 1.902583572755435e+00	 4.648485733266781e+00
 3.910839640452114e-01	 1.910380415810258e+00	 4.484891992938861e+00
 3.548279522307902e-01	 1.917445468417113e+00	 4.333028222750226e+00
 7.223858675336681e-01	 1.824709540824833e+00	 6.318812318033778e+00
 6.860852719108003e-01	 1.838666160475309e+00	 6.094127615095100e+00
 6.496727117132584e-01	 1.851845462688989e+00	 5.873508721934762e+00
 6.131718227606133e-01	 1.864249598581766e+00	 5.658239884367115e+00
 5.766059277921564e-01	 1.875881620487973e+00	 5.449537366994106e+00
 5.399979966686622e-01	 1.886745455447023e+00	 5.248543268997451e+00
 5.033706087308947e-01	 1.896845876797968e+00	 5.056320161423453e+00
 4.667459174015257e-01	 1.906188474062568e+00	 4.873846557656927e+00
 4.301456171014146e-01	 1.914779621300055e+00	 4.702013219408023e+00
 3.935909125356498e-01	 1.922626444117981e+00	 4.541620291653232e+00
 3.571024903895291e-01	 1.929736785523427e+00	 4.393375251670243e+00
 7.269870513989594e-01	 1.836331894586565e+00	 6.358284125256100e+00
 6.904552417923476e-01	 1.850377409904493e+00	 6.134817544462651e+00
 6.538107544608396e-01	 1.863640656719015e+00	 5.915512867060922e+00
 6.170773757706274e-01	 1.876123799847400e+00	 5.701705057149226e+00
 5.802785770134827e-01	 1.887829911065603e+00	 5.494658365057871e+00
 5.434374743550259e-01	 1.898762942426027e+00	 5.295559970290354e+00
 5.065767909534783e-01	 1.908927697671160e+00	 5.105514471498877e+00
 4.697188213361155e-01	 1.918329801924813e+00	 4.925539235291290e+00
 4.328853981048221e-01	 1.926975669845323e+00	 4.756560606047285e+00
 3.960978610265026e-01	 1.934872472426280e+00	 4.599410969799345e+00
 3.593770285487826e-01	 1.942028102630226e+00	 4.454826656718566e+00
 7.315882352637607e-01	 1.847954248348806e+00	 6.398411529451234e+00
 6.948252116735053e-01	 1.862088659334276e+00	 6.176213051497093e+00
 6.579487972081315e-01	 1.875435850749710e+00	 5.958270411768505e+00
 6.209829287804527e-01	 1.887998001113750e+00	 5.745969568116383e+00
 5.839512262347207e-01	 1.899778201643975e+00	 5.540623020351298e+00
 5.468769520414020e-01	 1.910780429405780e+00	 5.343463278803545e+00
 5.097829731761752e-01	 1.921009518545087e+00	 5.155637205644064e+00
 4.726917252709194e-01	 1.930471129787759e+00	 4.978201240867884e+00
 4.356251791085438e-01	 1.939171718391240e+00	 4.812117514971238e+00
 3.986048095177700e-01	 1.947118500735156e+00	 4.658250840996558e+00
 3.616515667085508e-01	 1.954319419737511e+00	 4.517366569874708e+00
 7.361894191280726e-01	 1.859576602111558e+00	 6.439210526158535e+00
 6.991951815542736e-01	 1.873799908764660e+00	 6.218326563540436e+00
 6.620868399551343e-01	 1.887231044781072e+00	 6.001790294324880e+00
 6.248884817900895e-01	 1.899872202380815e+00	 5.791038952820029e+00
 5.876238754558710e-01	 1.911726492223089e+00	 5.587433558881638e+00
 5.503164297277909e-01	 1.922797916386281e+00	 5.392252210543763e+00
 5.129891553989854e-01	 1.933091339419748e+00	 5.206684275324836e+00
 4.756646292059370e-01	 1.942612457651407e+00	 5.031825492219562e+00
 4.383649601125800e-01	 1.951367766937804e+00	 4.868673986262181e+00
 4.011117580094523e-01	 1.959364529044608e+00	 4.718127187948691e+00
 3.639261048688338e-01	 1.966610736845282e+00	 4.580979640843578e+00
 3.411807232891650e-01	 1.843697565789419e+00	 3.995096139350465e+00
 3.064017453303258e-01	 1.849795386114716e+00	 3.832931438208567e+00
 2.717240419284751e-01	 1.855206469658534e+00	 3.673862702999394e+00
 2.371657537175081e-01	 1.859940161747613e+00	 3.518653449896571e+00
 2.027444415484455e-01	 1.864006354987513e+00	 3.367999924271059e+00
 1.684770710600370e-01	 1.867415453651191e+00	 3.222530393714917e+00
 1.343799995057737e-01	 1.870178337950090e+00	 3.082804994017472e+00
 1.004689647900904e-01	 1.872306328333207e+00	 2.949316092862396e+00
 6.675907665743416e-02	 1.873811149952121e+00	 2.822489133325341e+00
 3.326480996967145e-02	 1.874704897421970e+00	 2.702683917213515e+00
 0.000000000000000e+00	 1.875000000000000e+00	 2.590196286867085e+00
 3.434552614448158e-01	 1.855988882892821e+00	 4.048452501606778e+00
 3.084444236327498e-01	 1.862127355353983e+00	 3.890379481662307e+00
 2.735355355414154e-01	 1.867574512788415e+00	 3.732934317223203e+00
 2.387468587422667e-01	 1.872339762825035e+00	 3.576882461263288e+00
 2.040960711586644e-01	 1.876433064020110e+00	 3.422929608468653e+00
 1.696002515336156e-01	 1.879864890008415e+00	 3.271720632639133e+00
 1.352758661689677e-01	 1.882646193536137e+00	 3.123839064204855e+00
 1.011387578885178e-01	 1.884788370521935e+00	 2.979807075299296e+00
 6.720413716834214e-02	 1.886303224285065e+00	 2.840085937041859e+00
 3.348657536938560e-02	 1.887202930071432e+00	 2.705076911521789e+00
 0.000000000000000e+00	 1.887500000000000e+00	 2.575122539435073e+00
 3.457297996009814e-01	 1.868280199996709e+00	 4.103020302851267e+00
 3.104871019357723e-01	 1.874459324593641e+00	 3.948595807024526e+00
 2.753470291550064e-01	 1.879942555918602e+00	 3.792371308314276e+00
 2.403279637676975e-01	 1.884739363902691e+00	 3.635114283694362e+00
 2.054477007695459e-01	 1.888859773052877e+00	 3.477539856573276e+00
 1.707234320078177e-01	 1.892314326365756e+00	 3.320309382357001e+00
 1.361717328327167e-01	 1.895114049122259e+00	 3.164029561633217e+00
 1.018085509874029e-01	 1.897270412710705e+00	 3.009252051049152e+00
 6.764919767958245e-02	 1.898795298618027e+00	 2.856473539062640e+00
 3.370834076927928e-02	 1.899700962720899e+00	 2.706136251474690e+00
 0.000000000000000e+00	 1.900000000000000e+00	 2.558628849977953e+00
 3.480043377576615e-01	 1.880571517101082e+00	 4.158780194144866e+00
 3.125297802393933e-01	 1.886791293833689e+00	 4.007568028766570e+00
 2.771585227692485e-01	 1.892310599049096e+00	 3.852167592288762e+00
 2.419090687938004e-01	 1.897138964980581e+00	 3.693348475801835e+00
 2.067993303810904e-01	 1.901286482085814e+00	 3.531835215058107e+00
 1.718466124826434e-01	 1.904763762723215e+00	 3.368305527920906e+00
 1.370675994970205e-01	 1.907581904708456e+00	 3.203389067280968e+00
 1.024783440867457e-01	 1.909752454899516e+00	 3.037666662101660e+00
 6.809425819115501e-02	 1.911287372951007e+00	 2.871670016259779e+00
 3.393010616935248e-02	 1.912198995370370e+00	 2.705881832460703e+00
 0.000000000000000e+00	 1.912500000000000e+00	 2.540736326709245e+00
 3.502788759148565e-01	 1.892862834205940e+00	 4.215713454858485e+00
 3.145724585436130e-01	 1.899123263074128e+00	 4.067284190786822e+00
 2.789700163841413e-01	 1.904678642179897e+00	 3.912317334042818e+00
 2.434901738205753e-01	 1.909538566058704e+00	 3.751584682824120e+00
 2.081509599932976e-01	 1.913713191118922e+00	 3.585820172982857e+00
 1.729697929580925e-01	 1.917213199080792e+00	 3.415717771024951e+00
 1.379634661618794e-01	 1.920049760294728e+00	 3.241929870762574e+00
 1.031481371865461e-01	 1.922234497088370e+00	 3.065066168827687e+00
 6.853931870305990e-02	 1.923779447284006e+00	 2.885692991157974e+00
 3.415187156960520e-02	 1.924697028019846e+00	 2.704333040066051e+00
 0.000000000000000e+00	 1.925000000000000e+00	 2.521465529577170e+00
 3.525534140725660e-01	 1.905154151311284e+00	 4.273801972404830e+00
 3.166151368484313e-01	 1.911455232314958e+00	 4.127732752558929e+00
 2.807815099996850e-01	 1.917046685311005e+00	 3.972814939323654e+00
 2.450712788480224e-01	 1.921938167137059e+00	 3.809822633831658e+00
 2.095025896061675e-01	 1.926139900152201e+00	 3.639499163846119e+00
 1.740929734341652e-01	 1.929662635438486e+00	 3.462554635919900e+00
 1.388593328272932e-01	 1.932517615881074e+00	 3.279663979728345e+00
 1.038179302868042e-01	 1.934716539277265e+00	 3.091465462289452e+00
 6.898437921529707e-02	 1.936271521617023e+00	 2.898559646590982e+00
 3.437363697003744e-02	 1.937195060669326e+00	 2.701508766520196e+00
 0.000000000000000e+00	 1.937500000000000e+00	 2.500836487950713e+00
 3.548279522307902e-01	 1.917445468417113e+00	 4.333028222750226e+00
 3.186578151538482e-01	 1.923787201556179e+00	 4.188902575811326e+00
 2.825930036158798e-01	 1.929414728442421e+00	 4.033655047010292e+00
 2.466523838761414e-01	 1.934337768215650e+00	 3.868062139039463e+00
 2.108542192197002e-01	 1.938566609185649e+00	 3.692876567365516e+00
 1.752161539108614e-01	 1.942112071796298e+00	 3.508824475100580e+00
 1.397551994932619e-01	 1.944985471467495e+00	 3.316603128900904e+00
 1.044877233875199e-01	 1.947198581466201e+00	 3.116879076077198e+00
 6.942943972786655e-02	 1.948763595950059e+00	 2.910286739794127e+00
 3.459540237064921e-02	 1.949693093318812e+00	 2.697427426508472e+00
 0.000000000000000e+00	 1.950000000000000e+00	 2.478868717625319e+00
 3.571024903895291e-01	 1.929736785523427e+00	 4.393375251670243e+00
 3.207004934598637e-01	 1.936119170797790e+00	 4.250782911717360e+00
 2.844044972327253e-01	 1.941782771574142e+00	 4.094832521688958e+00
 2.482334889049326e-01	 1.946737369294472e+00	 3.926303087223695e+00
 2.122058488338956e-01	 1.950993318219269e+00	 3.745956711191456e+00
 1.763393343881811e-01	 1.954561508154227e+00	 3.554535474775208e+00
 1.406510661597856e-01	 1.957453327053991e+00	 3.352758788767909e+00
 1.051575164886933e-01	 1.959680623655180e+00	 3.141321197693985e+00
 6.987450024076833e-02	 1.961255670283113e+00	 2.920890615958375e+00
 3.481716777144051e-02	 1.962191125968301e+00	 2.692106972380547e+00
 0.000000000000000e+00	 1.962499999999999e+00	 2.455581237178727e+00
 3.593770285487826e-01	 1.942028102630226e+00	 4.454826656718566e+00
 3.227431717664778e-01	 1.948451140039792e+00	 4.313363388570092e+00
 2.862159908502217e-01	 1.954150814706171e+00	 4.156342446510384e+00
 2.498145939343959e-01	 1.959136970373530e+00	 3.984545443235035e+00
 2.135574784487539e-01	 1.963420027253059e+00	 3.798743872553890e+00
 1.774625148661244e-01	 1.967010944512274e+00	 3.599695660128448e+00
 1.415469328268642e-01	 1.969921182640562e+00	 3.388142173943457e+00
 1.058273095903243e-01	 1.972162665844200e+00	 3.164805679507612e+00
 7.031956075400238e-02	 1.973747744616185e+00	 2.930387221270384e+00
 3.503893317241133e-02	 1.974689158617795e+00	 2.685564908781198e+00
 0.000000000000000e+00	 1.975000000000000e+00	 2.430992583705738e+00
 3.616515667085508e-01	 1.954319419737511e+00	 4.517366569874708e+00
 3.247858500736904e-01	 1.960783109282185e+00	 4.376633999924193e+00
 2.880274844683691e-01	 1.966518857838506e+00	 4.218180116316644e+00
 2.513956989645312e-01	 1.971536571452820e+00	 4.042789245606581e+00
 2.149091080642749e-01	 1.975846736287019e+00	 3.851242279848353e+00
 1.785856953446911e-01	 1.979460380870439e+00	 3.644312900384389e+00
 1.424427994944977e-01	 1.982389038227207e+00	 3.422764251214441e+00
 1.064971026924130e-01	 1.984644708033262e+00	 3.187346049289389e+00
 7.076462126756874e-02	 1.986239818949276e+00	 2.938792115458631e+00
 3.526069857356168e-02	 1.987187191267294e+00	 2.677818306729076e+00
 0.000000000000000e+00	 1.987500000000000e+00	 2.405120827959174e+00
 3.639261048688338e-01	 1.966610736845282e+00	 4.580979640843578e+00
 3.268285283815017e-01	 1.973115078524969e+00	 4.440585093181082e+00
 2.898389780871672e-01	 1.978886900971149e+00	 4.280341031026173e+00
 2.529768039953388e-01	 1.983936172532344e+00	 4.101034604251090e+00
 2.162607376804587e-01	 1.988273445321150e+00	 3.903456114162018e+00
 1.797088758238815e-01	 1.991909817228721e+00	 3.688394913680697e+00
 1.433386661626862e-01	 1.994856893813928e+00	 3.456635747285450e+00
 1.071668957949593e-01	 1.997126750222366e+00	 3.208955520358022e+00
 7.120968178146743e-02	 1.998731893282386e+00	 2.946120483871240e+00
 3.548246397489156e-02	 1.999685223916798e+00	 2.668883817167719e+00
 0.000000000000000e+00	 2.000000000000000e+00	 2.377983588923085e+00
