x	y	stress_xx
 1.0000000000e+00	 0.0000000000e+00	 3.2789164832e-01
 9.9984261196e-01	 1.7741231987e-02	 3.5262000912e-01
 9.9936594664e-01	 3.5604840891e-02	 3.8792364751e-01
 9.9856337511e-01	 5.3583447897e-02	 4.3415174186e-01
 9.9742844690e-01	 7.1669333081e-02	 4.9162985181e-01
 9.9595490861e-01	 8.9854437912e-02	 5.6065722719e-01
 9.9413672265e-01	 1.0813036884e-01	 6.4150405992e-01
 9.9196808625e-01	 1.2648840200e-01	 7.3440869117e-01
 9.8944345047e-01	 1.4491948904e-01	 8.3957478704e-01
 9.8655753924e-01	 1.6341426419e-01	 9.5716849775e-01
 9.8330536840e-01	 1.8196305243e-01	 1.0873156164e+00
 1.0125000000e+00	 0.0000000000e+00	 4.2816283109e-01
 1.0123406446e+00	 1.7962997385e-02	 4.5383503025e-01
 1.0118580210e+00	 3.6049901398e-02	 4.8838373378e-01
 1.0110454173e+00	 5.4253240991e-02	 5.3212118687e-01
 1.0098963025e+00	 7.2565199739e-02	 5.8534031566e-01
 1.0084043450e+00	 9.0977618379e-02	 6.4831235781e-01
 1.0065634317e+00	 1.0948199844e-01	 7.2128442987e-01
 1.0043676873e+00	 1.2806950702e-01	 8.0447704097e-01
 1.0018114936e+00	 1.4673098265e-01	 8.9808156416e-01
 9.9888950849e-01	 1.6545694249e-01	 1.0022576774e+00
 9.9559668551e-01	 1.8423759058e-01	 1.1171307881e+00
 1.0250000000e+00	 0.0000000000e+00	 5.5021696977e-01
 1.0248386773e+00	 1.8184762783e-02	 5.7680040076e-01
 1.0243500953e+00	 3.6494961906e-02	 6.1059795677e-01
 1.0235274595e+00	 5.4923034086e-02	 6.5188579487e-01
 1.0223641581e+00	 7.3461066397e-02	 7.0092500892e-01
 1.0208537813e+00	 9.2100798847e-02	 7.5795957753e-01
 1.0189901407e+00	 1.1083362805e-01	 8.2321424248e-01
 1.0167672884e+00	 1.2965061203e-01	 8.9689232470e-01
 1.0141795367e+00	 1.4854247626e-01	 9.7917348669e-01
 1.0112214777e+00	 1.6749962078e-01	 1.0702114511e+00
 1.0078880026e+00	 1.8651212874e-01	 1.1701316869e+00
 1.0375000000e+00	 0.0000000000e+00	 6.9328590113e-01
 1.0373367099e+00	 1.8406528182e-02	 7.2074972368e-01
 1.0368421696e+00	 3.6940022414e-02	 7.5380016856e-01
 1.0360095017e+00	 5.5592827180e-02	 7.9267811746e-01
 1.0348320137e+00	 7.4356933056e-02	 8.3761360326e-01
 1.0333032177e+00	 9.3223979316e-02	 8.8882407148e-01
 1.0314168498e+00	 1.1218525765e-01	 9.4651256541e-01
 1.0291668895e+00	 1.3123171705e-01	 1.0108658403e+00
 1.0265475799e+00	 1.5035396986e-01	 1.0820524126e+00
 1.0235534470e+00	 1.6954229908e-01	 1.1602205521e+00
 1.0201793197e+00	 1.8878666689e-01	 1.2454962250e+00
 1.0500000000e+00	 0.0000000000e+00	 8.5663804111e-01
 1.0498347426e+00	 1.8628293580e-02	 8.8495306532e-01
 1.0493342440e+00	 3.7385082923e-02	 9.1726063776e-01
 1.0484915439e+00	 5.6262620276e-02	 9.5376714660e-01
 1.0472998693e+00	 7.5252799715e-02	 9.9467230674e-01
 1.0457526540e+00	 9.4347159785e-02	 1.0401677306e+00
 1.0438435588e+00	 1.1353688726e-01	 1.0904354163e+00
 1.0415664906e+00	 1.3281282207e-01	 1.1456461556e+00
 1.0389156230e+00	 1.5216546347e-01	 1.2059578664e+00
 1.0358854162e+00	 1.7158497738e-01	 1.2715138542e+00
 1.0324706368e+00	 1.9106120504e-01	 1.3424410081e+00
 1.0625000000e+00	 0.0000000000e+00	 1.0395762331e+00
 1.0623327752e+00	 1.8850058979e-02	 1.0687148104e+00
 1.0618263183e+00	 3.7830143432e-02	 1.1002839073e+00
 1.0609735861e+00	 5.6932413371e-02	 1.1344561711e+00
 1.0597677248e+00	 7.6148666375e-02	 1.1714017146e+00
 1.0582020904e+00	 9.5470340255e-02	 1.2112869926e+00
 1.0562702678e+00	 1.1488851686e-01	 1.2542735891e+00
 1.0539660917e+00	 1.3439392709e-01	 1.3005169159e+00
 1.0512836661e+00	 1.5397695708e-01	 1.3501648235e+00
 1.0482173855e+00	 1.7362765568e-01	 1.4033561284e+00
 1.0447619539e+00	 1.9333574319e-01	 1.4602190588e+00
 1.0750000000e+00	 0.0000000000e+00	 1.2414357466e+00
 1.0748308079e+00	 1.9071824378e-02	 1.2713716669e+00
 1.0743183926e+00	 3.8275203941e-02	 1.3022068019e+00
 1.0734556282e+00	 5.7602206467e-02	 1.3340807826e+00
 1.0722355804e+00	 7.7044533036e-02	 1.3671348098e+00
 1.0706515268e+00	 9.6593520725e-02	 1.4015108330e+00
 1.0686969769e+00	 1.1624014647e-01	 1.4373506325e+00
 1.0663656927e+00	 1.3597503212e-01	 1.4747948048e+00
 1.0636517093e+00	 1.5578845069e-01	 1.5139816491e+00
 1.0605493547e+00	 1.7567033398e-01	 1.5550459561e+00
 1.0570532710e+00	 1.9561028135e-01	 1.5981176997e+00
 1.0875000000e+00	 0.0000000000e+00	 1.4615824130e+00
 1.0873288405e+00	 1.9293589777e-02	 1.4922908081e+00
 1.0868104670e+00	 3.8720264451e-02	 1.5223965724e+00
 1.0859376704e+00	 5.8271999564e-02	 1.5520070189e+00
 1.0847034360e+00	 7.7940399697e-02	 1.5812351022e+00
 1.0831009631e+00	 9.7716701196e-02	 1.6101988959e+00
 1.0811236859e+00	 1.1759177608e-01	 1.6390209672e+00
 1.0787652938e+00	 1.3755613714e-01	 1.6678276451e+00
 1.0760197524e+00	 1.5759994430e-01	 1.6967481791e+00
 1.0728813239e+00	 1.7771301228e-01	 1.7259137855e+00
 1.0693445882e+00	 1.9788481950e-01	 1.7554565819e+00
 1.1000000000e+00	 0.0000000000e+00	 1.6994108899e+00
 1.0998268732e+00	 1.9515355176e-02	 1.7308681419e+00
 1.0993025413e+00	 3.9165324961e-02	 1.7602491677e+00
 1.0984197126e+00	 5.8941792661e-02	 1.7876296346e+00
 1.0971712916e+00	 7.8836266358e-02	 1.8130948934e+00
 1.0955503995e+00	 9.8839881668e-02	 1.8367397505e+00
 1.0935503949e+00	 1.1894340569e-01	 1.8586681317e+00
 1.0911648949e+00	 1.3913724216e-01	 1.8789926300e+00
 1.0883877955e+00	 1.5941143791e-01	 1.8978339323e+00
 1.0852132932e+00	 1.7975569058e-01	 1.9153201213e+00
 1.0816359053e+00	 2.0015935765e-01	 1.9315858483e+00
 1.1125000000e+00	 0.0000000000e+00	 1.9543430413e+00
 1.1123249058e+00	 1.9737120575e-02	 1.9865266964e+00
 1.1117946156e+00	 3.9610385471e-02	 2.0151876216e+00
 1.1109017548e+00	 5.9611585759e-02	 2.0403704872e+00
 1.1096391472e+00	 7.9732133020e-02	 2.0621336597e+00
 1.1079998358e+00	 9.9963062140e-02	 2.0805492669e+00
 1.1059771040e+00	 1.2029503530e-01	 2.0957031470e+00
 1.1035644960e+00	 1.4071834718e-01	 2.1076946725e+00
 1.1007558387e+00	 1.6122293152e-01	 2.1166364424e+00
 1.0975452624e+00	 1.8179836888e-01	 2.1226538360e+00
 1.0939272224e+00	 2.0243389581e-01	 2.1258844205e+00
 1.1250000000e+00	 0.0000000000e+00	 2.2258264258e+00
 1.1248229385e+00	 1.9958885975e-02	 2.2587151133e+00
 1.1242866900e+00	 4.0055445982e-02	 2.2866605490e+00
 1.1233837970e+00	 6.0281378857e-02	 2.3096770315e+00
 1.1221070028e+00	 8.0627999683e-02	 2.3277965421e+00
 1.1204492722e+00	 1.0108624261e-01	 2.3410690991e+00
 1.1184038130e+00	 1.2164666491e-01	 2.3495629893e+00
 1.1159640971e+00	 1.4229945221e-01	 2.3533648658e+00
 1.1131238818e+00	 1.6303442514e-01	 2.3525797022e+00
 1.1098772317e+00	 1.8384104718e-01	 2.3473305940e+00
 1.1062185395e+00	 2.0470843396e-01	 2.3377584000e+00
 9.8330536840e-01	 1.8196305243e-01	 1.0873156164e+00
 9.7968226449e-01	 2.0055587900e-01	 1.2522209644e+00
 9.7568388344e-01	 2.1918248006e-01	 1.4224929230e+00
 9.7130622879e-01	 2.3783231460e-01	 1.5984017220e+00
 9.6654566967e-01	 2.5649457770e-01	 1.7801981262e+00
 9.6139895816e-01	 2.7515821486e-01	 1.9681107263e+00
 9.5586324607e-01	 2.9381193773e-01	 2.1623431847e+00
 9.4993610115e-01	 3.1244424090e-01	 2.3630714566e+00
 9.4361552236e-01	 3.3104341998e-01	 2.5704410039e+00
 9.3689995435e-01	 3.4959759078e-01	 2.7845640245e+00
 9.2978830103e-01	 3.6809470956e-01	 3.0055167183e+00
 9.9559668551e-01	 1.8423759058e-01	 1.1171307881e+00
 9.9192829280e-01	 2.0306282749e-01	 1.2695624504e+00
 9.8787993198e-01	 2.2192226105e-01	 1.4261598867e+00
 9.8344755666e-01	 2.4080521853e-01	 1.5871981042e+00
 9.7862749055e-01	 2.5970075992e-01	 1.7529370691e+00
 9.7341644514e-01	 2.7859769255e-01	 1.9236191170e+00
 9.6781153666e-01	 2.9748458695e-01	 2.0994663003e+00
 9.6181030243e-01	 3.1634979391e-01	 2.2806776885e+00
 9.5541071639e-01	 3.3518146273e-01	 2.4674266401e+00
 9.4861120379e-01	 3.5396756067e-01	 2.6598580663e+00
 9.4141065480e-01	 3.7269589344e-01	 2.8580857069e+00
 1.0078880026e+00	 1.8651212874e-01	 1.1701316869e+00
 1.0041743211e+00	 2.0556977597e-01	 1.3101674313e+00
 1.0000759805e+00	 2.2466204205e-01	 1.4531938091e+00
 9.9558888452e-01	 2.4377812247e-01	 1.5994910457e+00
 9.9070931143e-01	 2.6290694214e-01	 1.7493287077e+00
 9.8543393212e-01	 2.8203717024e-01	 1.9029632308e+00
 9.7975982724e-01	 3.0115723617e-01	 2.0606353641e+00
 9.7368450370e-01	 3.2025534692e-01	 2.2225675478e+00
 9.6720591043e-01	 3.3931950548e-01	 2.3889612395e+00
 9.6032245323e-01	 3.5833753055e-01	 2.5599942093e+00
 9.5303300857e-01	 3.7729707731e-01	 2.7358178227e+00
 1.0201793197e+00	 1.8878666689e-01	 1.2454962250e+00
 1.0164203494e+00	 2.0807672446e-01	 1.3732096119e+00
 1.0122720291e+00	 2.2740182305e-01	 1.5027630832e+00
 1.0077302124e+00	 2.4675102640e-01	 1.6344425154e+00
 1.0027911323e+00	 2.6611312436e-01	 1.7685274700e+00
 9.9745141910e-01	 2.8547664792e-01	 1.9052888351e+00
 9.9170811782e-01	 3.0482988540e-01	 2.0449863639e+00
 9.8555870497e-01	 3.2416089993e-01	 2.1878661268e+00
 9.7900110447e-01	 3.4345754823e-01	 2.3341578888e+00
 9.7203370266e-01	 3.6270750044e-01	 2.4840724335e+00
 9.6465536234e-01	 3.8189826118e-01	 2.6377988503e+00
 1.0324706368e+00	 1.9106120504e-01	 1.3424410081e+00
 1.0286663777e+00	 2.1058367294e-01	 1.4579015304e+00
 1.0244680776e+00	 2.3014160405e-01	 1.5740751252e+00
 1.0198715402e+00	 2.4972393033e-01	 1.6912537466e+00
 1.0148729532e+00	 2.6931930658e-01	 1.8097273407e+00
 1.0094689061e+00	 2.8891612561e-01	 1.9297815979e+00
 1.0036564084e+00	 3.0850253462e-01	 2.0516955840e+00
 9.9743290624e-01	 3.2806645295e-01	 2.1757392618e+00
 9.9079629850e-01	 3.4759559099e-01	 2.3021709185e+00
 9.8374495210e-01	 3.6707747033e-01	 2.4312345144e+00
 9.7627771611e-01	 3.8649944506e-01	 2.5631569719e+00
 1.0447619539e+00	 1.9333574319e-01	 1.4602190588e+00
 1.0409124060e+00	 2.1309062143e-01	 1.5634922734e+00
 1.0366641262e+00	 2.3288138505e-01	 1.6663740793e+00
 1.0320128681e+00	 2.5269683426e-01	 1.7691629274e+00
 1.0269547741e+00	 2.7252548880e-01	 1.8721595341e+00
 1.0214863931e+00	 2.9235560329e-01	 1.9756647410e+00
 1.0156046990e+00	 3.1217518384e-01	 2.0799772347e+00
 1.0093071075e+00	 3.3197200596e-01	 2.1853911369e+00
 1.0025914925e+00	 3.5173363374e-01	 2.2921934767e+00
 9.9545620154e-01	 3.7144744021e-01	 2.4006615634e+00
 9.8790006988e-01	 3.9110062893e-01	 2.5110602734e+00
 1.0570532710e+00	 1.9561028135e-01	 1.5981176997e+00
 1.0531584344e+00	 2.1559756991e-01	 1.6892653515e+00
 1.0488601747e+00	 2.3562116605e-01	 1.7789386817e+00
 1.0441541960e+00	 2.5566973819e-01	 1.8674430519e+00
 1.0390365949e+00	 2.7573167103e-01	 1.9550903300e+00
 1.0335038801e+00	 2.9579508098e-01	 2.0421968561e+00
 1.0275529896e+00	 3.1584783306e-01	 2.1290812475e+00
 1.0211813088e+00	 3.3587755897e-01	 2.2160620535e+00
 1.0143866866e+00	 3.5587167649e-01	 2.3034552721e+00
 1.0071674510e+00	 3.7581741010e-01	 2.3915717414e+00
 9.9952242365e-01	 3.9570181280e-01	 2.4807144238e+00
 1.0693445882e+00	 1.9788481950e-01	 1.7554565819e+00
 1.0654044627e+00	 2.1810451840e-01	 1.8345367206e+00
 1.0610562233e+00	 2.3836094705e-01	 1.9110802734e+00
 1.0562955238e+00	 2.5864264212e-01	 1.9853999198e+00
 1.0511184158e+00	 2.7893785325e-01	 2.0578190581e+00
 1.0455213670e+00	 2.9923455867e-01	 2.1286698726e+00
 1.0395012801e+00	 3.1952048229e-01	 2.1982912218e+00
 1.0330555100e+00	 3.3978311198e-01	 2.2670263558e+00
 1.0261818806e+00	 3.6000971924e-01	 2.3352204730e+00
 1.0188787004e+00	 3.8018737999e-01	 2.4032181295e+00
 1.0111447774e+00	 4.0030299667e-01	 2.4713605160e+00
 1.0816359053e+00	 2.0015935765e-01	 1.9315858483e+00
 1.0776504910e+00	 2.2061146689e-01	 1.9986529388e+00
 1.0732522718e+00	 2.4110072805e-01	 2.0621409468e+00
 1.0684368517e+00	 2.6161554606e-01	 2.1223702728e+00
 1.0632002367e+00	 2.8214403547e-01	 2.1796762204e+00
 1.0575388540e+00	 3.0267403635e-01	 2.2344071630e+00
 1.0514495707e+00	 3.2319313151e-01	 2.2869225123e+00
 1.0449297113e+00	 3.4368866500e-01	 2.3375904955e+00
 1.0379770746e+00	 3.6414776199e-01	 2.3867857493e+00
 1.0305899498e+00	 3.8455734987e-01	 2.4348867446e+00
 1.0227671312e+00	 4.0490418054e-01	 2.4822730538e+00
 1.0939272224e+00	 2.0243389581e-01	 2.1258844205e+00
 1.0898965193e+00	 2.2311841537e-01	 2.1809894468e+00
 1.0854483204e+00	 2.4384050905e-01	 2.2314918187e+00
 1.0805781796e+00	 2.6458844999e-01	 2.2777200560e+00
 1.0752820576e+00	 2.8535021769e-01	 2.3200217398e+00
 1.0695563410e+00	 3.0611351404e-01	 2.3587617766e+00
 1.0633978613e+00	 3.2686578073e-01	 2.3943204449e+00
 1.0568039126e+00	 3.4759421801e-01	 2.4270912285e+00
 1.0497722687e+00	 3.6828580474e-01	 2.4574784466e+00
 1.0423011993e+00	 3.8892731976e-01	 2.4858946895e+00
 1.0343894849e+00	 4.0950536441e-01	 2.5127580745e+00
 1.1062185395e+00	 2.0470843396e-01	 2.3377584000e+00
 1.1021425476e+00	 2.2562536386e-01	 2.3809489633e+00
 1.0976443689e+00	 2.4658029005e-01	 2.4185314178e+00
 1.0927195074e+00	 2.6756135392e-01	 2.4508427957e+00
 1.0873638784e+00	 2.8855639991e-01	 2.4782433255e+00
 1.0815738280e+00	 3.0955299173e-01	 2.5011147908e+00
 1.0753461519e+00	 3.3053842995e-01	 2.5198586515e+00
 1.0686781139e+00	 3.5149977102e-01	 2.5348939316e+00
 1.0615674627e+00	 3.7242384749e-01	 2.5466548821e+00
 1.0540124487e+00	 3.9329728964e-01	 2.5555884253e+00
 1.0460118387e+00	 4.1410654828e-01	 2.5621513976e+00
 9.2978830103e-01	 3.6809470956e-01	 3.0055167183e+00
 9.2227993796e-01	 3.8652259440e-01	 3.2095910334e+00
 9.1437472369e-01	 4.0486894747e-01	 3.4045883602e+00
 9.0607300986e-01	 4.2312137827e-01	 3.5909891890e+00
 8.9737564997e-01	 4.4126742774e-01	 3.7692939309e+00
 8.8828400681e-01	 4.5929459304e-01	 3.9400198910e+00
 8.7879995838e-01	 4.7719035310e-01	 4.1036980696e+00
 8.6892590241e-01	 4.9494219468e-01	 4.2608698143e+00
 8.5866475920e-01	 5.1253763889e-01	 4.4120833492e+00
 8.4801997290e-01	 5.2996426817e-01	 4.5578902084e+00
 8.3699551121e-01	 5.4720975338e-01	 4.6988416021e+00
 9.4141065480e-01	 3.7269589344e-01	 2.8580857069e+00
 9.3380843719e-01	 3.9135412684e-01	 3.0450454672e+00
 9.2580440774e-01	 4.0992980932e-01	 3.2225614801e+00
 9.1739892249e-01	 4.2841039551e-01	 3.3911238873e+00
 9.0859284561e-01	 4.4678327059e-01	 3.5512448405e+00
 8.9938755690e-01	 4.6503577546e-01	 3.7034554719e+00
 8.8978495788e-01	 4.8315523252e-01	 3.8483026822e+00
 8.7978747621e-01	 5.0112897212e-01	 3.9863457669e+00
 8.6939806870e-01	 5.1894435938e-01	 4.1181529082e+00
 8.5862022257e-01	 5.3658882153e-01	 4.2442975588e+00
 8.4745795511e-01	 5.5404987530e-01	 4.3653547473e+00
 9.5303300857e-01	 3.7729707731e-01	 2.7358178227e+00
 9.4533693642e-01	 3.9618565927e-01	 2.9054947283e+00
 9.3723409180e-01	 4.1499067117e-01	 3.0653732313e+00
 9.2872483512e-01	 4.3369941274e-01	 3.2159538093e+00
 9.1981004124e-01	 4.5229911345e-01	 3.3577610203e+00
 9.1049110700e-01	 4.7077695788e-01	 3.4913404682e+00
 9.0076995736e-01	 4.8912011194e-01	 3.6172555728e+00
 8.9064904999e-01	 5.0731574955e-01	 3.7360841676e+00
 8.8013137819e-01	 5.2535107988e-01	 3.8484149499e+00
 8.6922047224e-01	 5.4321337488e-01	 3.9548438117e+00
 8.5792039901e-01	 5.6088999722e-01	 4.0559700808e+00
 9.6465536234e-01	 3.8189826118e-01	 2.6377988503e+00
 9.5686543566e-01	 4.0101719171e-01	 2.7900280269e+00
 9.4866377585e-01	 4.2005153301e-01	 2.9321157632e+00
 9.4005074775e-01	 4.3898842997e-01	 3.0645735490e+00
 9.3102723687e-01	 4.5781495630e-01	 3.1879390081e+00
 9.2159465709e-01	 4.7651814030e-01	 3.3027728548e+00
 9.1175495685e-01	 4.9508499136e-01	 3.4096556429e+00
 9.0151062378e-01	 5.1350252699e-01	 3.5091843305e+00
 8.9086468769e-01	 5.3175780036e-01	 3.6019686851e+00
 8.7982072191e-01	 5.4983792824e-01	 3.6886275580e+00
 8.6838284291e-01	 5.6773011914e-01	 3.7697850577e+00
 9.7627771611e-01	 3.8649944506e-01	 2.5631569719e+00
 9.6839393489e-01	 4.0584872414e-01	 2.6977767339e+00
 9.6009345990e-01	 4.2511239486e-01	 2.8219231723e+00
 9.5137666038e-01	 4.4427744721e-01	 2.9361194581e+00
 9.4224443250e-01	 4.6333079915e-01	 3.0409169342e+00
 9.3269820718e-01	 4.8225932271e-01	 3.1368920593e+00
 9.2273995634e-01	 5.0104987078e-01	 3.2246431322e+00
 9.1237219757e-01	 5.1968930443e-01	 3.3047868193e+00
 9.0159799719e-01	 5.3816452085e-01	 3.3779545121e+00
 8.9042097157e-01	 5.5646248159e-01	 3.4447885410e+00
 8.7884528680e-01	 5.7457024106e-01	 3.5059382774e+00
 9.8790006988e-01	 3.9110062893e-01	 2.5110602734e+00
 9.7992243412e-01	 4.1068025657e-01	 2.6279119011e+00
 9.7152314396e-01	 4.3017325671e-01	 2.7339690349e+00
 9.6270257301e-01	 4.4956646444e-01	 2.8297671894e+00
 9.5346162813e-01	 4.6884664200e-01	 2.9158720748e+00
 9.4380175727e-01	 4.8800050513e-01	 2.9928765236e+00
 9.3372495582e-01	 5.0701475019e-01	 3.0613971866e+00
 9.2323377135e-01	 5.2587608186e-01	 3.1220710208e+00
 9.1233130668e-01	 5.4457124134e-01	 3.1755515939e+00
 9.0102122124e-01	 5.6308703495e-01	 3.2225052352e+00
 8.8930773069e-01	 5.8141036298e-01	 3.2636070625e+00
 9.9952242365e-01	 3.9570181280e-01	 2.4807144238e+00
 9.9145093335e-01	 4.1551178900e-01	 2.5796419539e+00
 9.8295282801e-01	 4.3523411855e-01	 2.6674641117e+00
 9.7402848564e-01	 4.5485548167e-01	 2.7447294125e+00
 9.6467882376e-01	 4.7436248484e-01	 2.8120185763e+00
 9.5490530736e-01	 4.9374168754e-01	 2.8699414351e+00
 9.4470995530e-01	 5.1297962961e-01	 2.9191335965e+00
 9.3409534513e-01	 5.3206285930e-01	 2.9602528877e+00
 9.2306461617e-01	 5.5097796183e-01	 2.9939756045e+00
 9.1162147090e-01	 5.6971158830e-01	 3.0209925951e+00
 8.9977017459e-01	 5.8825048490e-01	 3.0420052081e+00
 1.0111447774e+00	 4.0030299667e-01	 2.4713605160e+00
 1.0029794326e+00	 4.2034332143e-01	 2.5522105434e+00
 9.9438251205e-01	 4.4029498039e-01	 2.6216542108e+00
 9.8535439826e-01	 4.6014449890e-01	 2.6802536855e+00
 9.7589601939e-01	 4.7987832769e-01	 2.7286053359e+00
 9.6600885745e-01	 4.9948286996e-01	 2.7673366155e+00
 9.5569495479e-01	 5.1894450902e-01	 2.7971026906e+00
 9.4495691892e-01	 5.3824963673e-01	 2.8185828372e+00
 9.3379792566e-01	 5.5738468231e-01	 2.8324766305e+00
 9.2222172056e-01	 5.7633614165e-01	 2.8394999579e+00
 9.1023261848e-01	 5.9509060682e-01	 2.8403808854e+00
 1.0227671312e+00	 4.0490418054e-01	 2.4822730538e+00
 1.0145079318e+00	 4.2517485386e-01	 2.5448945451e+00
 1.0058121961e+00	 4.4535584224e-01	 2.5958181966e+00
 9.9668031089e-01	 4.6543351612e-01	 2.6356204736e+00
 9.8711321501e-01	 4.8539417054e-01	 2.6649140276e+00
 9.7711240753e-01	 5.0522405237e-01	 2.6843445526e+00
 9.6667995426e-01	 5.2490938844e-01	 2.6945873738e+00
 9.5581849270e-01	 5.4443641416e-01	 2.6963437930e+00
 9.4453123515e-01	 5.6379140280e-01	 2.6903372160e+00
 9.3282197022e-01	 5.8296069500e-01	 2.6773090908e+00
 9.2069506237e-01	 6.0193072873e-01	 2.6580146887e+00
 1.0343894849e+00	 4.0950536441e-01	 2.5127580745e+00
 1.0260364310e+00	 4.3000638629e-01	 2.5570021924e+00
 1.0172418801e+00	 4.5041670408e-01	 2.5892661321e+00
 1.0080062235e+00	 4.7072253335e-01	 2.6101412996e+00
 9.9833041064e-01	 4.9091001338e-01	 2.6202572604e+00
 9.8821595761e-01	 5.1096523478e-01	 2.6202785653e+00
 9.7766495374e-01	 5.3087426785e-01	 2.6109012966e+00
 9.6668006647e-01	 5.5062319160e-01	 2.5928493587e+00
 9.5526454464e-01	 5.7019812328e-01	 2.5668705390e+00
 9.4342221988e-01	 5.8958524835e-01	 2.5337323682e+00
 9.3115750625e-01	 6.0877085065e-01	 2.4942178134e+00
 1.0460118387e+00	 4.1410654828e-01	 2.5621513976e+00
 1.0375649302e+00	 4.3483791872e-01	 2.5878713340e+00
 1.0286715642e+00	 4.5547756592e-01	 2.6013375464e+00
 1.0193321361e+00	 4.7601155058e-01	 2.6031570191e+00
 1.0095476063e+00	 4.9642585623e-01	 2.5939768600e+00
 9.9931950770e-01	 5.1670641719e-01	 2.5744810907e+00
 9.8864995322e-01	 5.3683914726e-01	 2.5453871475e+00
 9.7754164025e-01	 5.5680996903e-01	 2.5074421136e+00
 9.6599785412e-01	 5.7660484377e-01	 2.4614187093e+00
 9.5402246954e-01	 5.9620980170e-01	 2.4081110722e+00
 9.4161995014e-01	 6.1561097256e-01	 2.3483303567e+00
 8.3699551121e-01	 5.4720975338e-01	 4.6988416021e+00
 8.2559586329e-01	 5.6426188114e-01	 4.7813656963e+00
 8.1382603605e-01	 5.8110858112e-01	 4.8331795534e+00
 8.0169154870e-01	 5.9773795324e-01	 4.8557427124e+00
 7.8919842564e-01	 6.1413829468e-01	 4.8506064829e+00
 7.7635318758e-01	 6.3029812641e-01	 4.8194072797e+00
 7.6316284109e-01	 6.4620621941e-01	 4.7638594938e+00
 7.4963486641e-01	 6.6185162015e-01	 4.6857479501e+00
 7.3577720369e-01	 6.7722367543e-01	 4.5869200039e+00
 7.2159823775e-01	 6.9231205631e-01	 4.4692773313e+00
 7.0710678120e-01	 7.0710678120e-01	 4.3347674731e+00
 8.4745795511e-01	 5.5404987530e-01	 4.3653547473e+00
 8.3591581159e-01	 5.7131515466e-01	 4.4374144289e+00
 8.2399886151e-01	 5.8837243839e-01	 4.4803560469e+00
 8.1171269307e-01	 6.0520967766e-01	 4.4955984741e+00
 7.9906340596e-01	 6.2181502336e-01	 4.4846473763e+00
 7.8605760243e-01	 6.3817685299e-01	 4.4490886766e+00
 7.7270237661e-01	 6.5428379716e-01	 4.3905815839e+00
 7.5900530224e-01	 6.7012476541e-01	 4.3108512340e+00
 7.4497441875e-01	 6.8568897137e-01	 4.2116809960e+00
 7.3061821572e-01	 7.0096595702e-01	 4.0949044973e+00
 7.1594561597e-01	 7.1594561597e-01	 3.9623974259e+00
 8.5792039901e-01	 5.6088999722e-01	 4.0559700808e+00
 8.4623575989e-01	 5.7836842818e-01	 4.1167808040e+00
 8.3417168697e-01	 5.9563629565e-01	 4.1500386498e+00
 8.2173383743e-01	 6.1268140208e-01	 4.1571234703e+00
 8.0892838629e-01	 6.2949175205e-01	 4.1394970028e+00
 7.9576201728e-01	 6.4605557958e-01	 4.0986964570e+00
 7.8224191213e-01	 6.6236137490e-01	 4.0363276940e+00
 7.6837573808e-01	 6.7839791066e-01	 3.9540580442e+00
 7.5417163380e-01	 6.9415426732e-01	 3.8536088161e+00
 7.3963819370e-01	 7.0961985773e-01	 3.7367475487e+00
 7.2478445074e-01	 7.2478445074e-01	 3.6052800640e+00
 8.6838284291e-01	 5.6773011914e-01	 3.7697850577e+00
 8.5655570819e-01	 5.8542170169e-01	 3.8185882827e+00
 8.4434451242e-01	 6.0290015292e-01	 3.8413779329e+00
 8.3175498180e-01	 6.2015312650e-01	 3.8394964430e+00
 8.1879336662e-01	 6.3716848074e-01	 3.8143632910e+00
 8.0546643213e-01	 6.5393430616e-01	 3.7674687023e+00
 7.9178144765e-01	 6.7043895265e-01	 3.7003669728e+00
 7.7774617391e-01	 6.8667105592e-01	 3.6146694566e+00
 7.6336884885e-01	 7.0261956326e-01	 3.5120372700e+00
 7.4865817167e-01	 7.1827375844e-01	 3.3941737639e+00
 7.3362328551e-01	 7.3362328551e-01	 3.2628168195e+00
 8.7884528680e-01	 5.7457024106e-01	 3.5059382774e+00
 8.6687565648e-01	 5.9247497521e-01	 3.5420001719e+00
 8.5451733788e-01	 6.1016401018e-01	 3.5535629653e+00
 8.4177612616e-01	 6.2762485092e-01	 3.5419332376e+00
 8.2865834694e-01	 6.4484520942e-01	 3.5084898329e+00
 8.1517084698e-01	 6.6181303274e-01	 3.4546776754e+00
 8.0132098316e-01	 6.7851653039e-01	 3.3820012289e+00
 7.8711660974e-01	 6.9494420117e-01	 3.2920176485e+00
 7.7256606389e-01	 7.1108485921e-01	 3.1863296725e+00
 7.5767814965e-01	 7.2692765914e-01	 3.0665783075e+00
 7.4246212027e-01	 7.4246212027e-01	 2.9344353602e+00
 8.8930773069e-01	 5.8141036298e-01	 3.2636070625e+00
 8.7719560478e-01	 5.9952824872e-01	 3.2862172801e+00
 8.6469016333e-01	 6.1742786745e-01	 3.2858190496e+00
 8.5179727052e-01	 6.3509657533e-01	 3.2636846198e+00
 8.3852332726e-01	 6.5252193811e-01	 3.2211537859e+00
 8.2487526183e-01	 6.6969175932e-01	 3.1596278094e+00
 8.1086051868e-01	 6.8659410813e-01	 3.0805630092e+00
 7.9648704558e-01	 7.0321734642e-01	 2.9854640690e+00
 7.8176327894e-01	 7.1955015515e-01	 2.8758771117e+00
 7.6669812762e-01	 7.3558155984e-01	 2.7533825897e+00
 7.5130095504e-01	 7.5130095504e-01	 2.6195880458e+00
 8.9977017459e-01	 5.8825048490e-01	 3.0420052081e+00
 8.8751555307e-01	 6.0658152224e-01	 3.0504757379e+00
 8.7486298878e-01	 6.2469172471e-01	 3.0374056152e+00
 8.6181841488e-01	 6.4256829975e-01	 3.0040342459e+00
 8.4838830758e-01	 6.6019866679e-01	 2.9516639216e+00
 8.3457967667e-01	 6.7757048590e-01	 2.8816538383e+00
 8.2040005419e-01	 6.9467168587e-01	 2.7954138121e+00
 8.0585748141e-01	 7.1149049167e-01	 2.6943977371e+00
 7.9096049399e-01	 7.2801545109e-01	 2.5800968342e+00
 7.7571810559e-01	 7.4423546055e-01	 2.4540327405e+00
 7.6013978980e-01	 7.6013978980e-01	 2.3177504925e+00
 9.1023261848e-01	 5.9509060682e-01	 2.8403808854e+00
 8.9783550136e-01	 6.1363479575e-01	 2.8340449671e+00
 8.8503581423e-01	 6.3195558198e-01	 2.8076142571e+00
 8.7183955924e-01	 6.5004002416e-01	 2.7622967722e+00
 8.5825328790e-01	 6.6787539547e-01	 2.6993588085e+00
 8.4428409152e-01	 6.8544921248e-01	 2.6201190543e+00
 8.2993958971e-01	 7.0274926361e-01	 2.5259424236e+00
 8.1522791724e-01	 7.1976363692e-01	 2.4182336575e+00
 8.0015770903e-01	 7.3648074703e-01	 2.2984307418e+00
 7.8473808356e-01	 7.5288936125e-01	 2.1679981891e+00
 7.6897862457e-01	 7.6897862457e-01	 2.0284202364e+00
 9.2069506237e-01	 6.0193072873e-01	 2.6580146887e+00
 9.0815544965e-01	 6.2068806926e-01	 2.6362257897e+00
 8.9520863968e-01	 6.3921943924e-01	 2.5957669086e+00
 8.8186070360e-01	 6.5751174858e-01	 2.5378160936e+00
 8.6811826822e-01	 6.7555212415e-01	 2.4636051195e+00
 8.5398850636e-01	 6.9332793905e-01	 2.3744136864e+00
 8.3947912522e-01	 7.1082684135e-01	 2.2715633666e+00
 8.2459835306e-01	 7.2803678217e-01	 2.1564113435e+00
 8.0935492408e-01	 7.4494604297e-01	 2.0303439906e+00
 7.9375806153e-01	 7.6154326195e-01	 1.8947703399e+00
 7.7781745933e-01	 7.7781745933e-01	 1.7511154882e+00
 9.3115750625e-01	 6.0877085065e-01	 2.4942178134e+00
 9.1847539794e-01	 6.2774134277e-01	 2.4563486636e+00
 9.0538146513e-01	 6.4648329650e-01	 2.4012141362e+00
 8.9188184795e-01	 6.6498347299e-01	 2.3299637015e+00
 8.7798324854e-01	 6.8322885283e-01	 2.2437960525e+00
 8.6369292120e-01	 7.0120666563e-01	 2.1439533860e+00
 8.4901866073e-01	 7.1890441909e-01	 2.0317154554e+00
 8.3396878889e-01	 7.3630992742e-01	 1.9083934409e+00
 8.1855213912e-01	 7.5341133891e-01	 1.7753236846e+00
 8.0277803950e-01	 7.7019716265e-01	 1.6338613381e+00
 7.8665629409e-01	 7.8665629409e-01	 1.4853739715e+00
 9.4161995014e-01	 6.1561097256e-01	 2.3483303567e+00
 9.2879534623e-01	 6.3479461628e-01	 2.2937720363e+00
 9.1555429058e-01	 6.5374715376e-01	 2.2233335495e+00
 9.0190299231e-01	 6.7245519740e-01	 2.1381371498e+00
 8.8784822886e-01	 6.9090558151e-01	 2.0393498571e+00
 8.7339733604e-01	 7.0908539221e-01	 1.9281778154e+00
 8.5855819624e-01	 7.2698199683e-01	 1.8058604459e+00
 8.4333922472e-01	 7.4458307267e-01	 1.6736644424e+00
 8.2774935416e-01	 7.6187663485e-01	 1.5328776564e+00
 8.1179801747e-01	 7.7885106335e-01	 1.3848029175e+00
 7.9549512885e-01	 7.9549512885e-01	 1.2307518388e+00
 7.0710678120e-01	 7.0710678120e-01	 4.3347674731e+00
 6.9231205631e-01	 7.2159823775e-01	 4.1458458292e+00
 6.7722367543e-01	 7.3577720369e-01	 3.9194966887e+00
 6.6185162015e-01	 7.4963486641e-01	 3.6588387593e+00
 6.4620621941e-01	 7.6316284109e-01	 3.3670881971e+00
 6.3029812641e-01	 7.7635318758e-01	 3.0475446304e+00
 6.1413829468e-01	 7.8919842564e-01	 2.7035768909e+00
 5.9773795324e-01	 8.0169154870e-01	 2.3386085512e+00
 5.8110858112e-01	 8.1382603605e-01	 1.9561033651e+00
 5.6426188114e-01	 8.2559586329e-01	 1.5595507069e+00
 5.4720975338e-01	 8.3699551121e-01	 1.1524511072e+00
 7.1594561597e-01	 7.1594561597e-01	 3.9623974259e+00
 7.0096595702e-01	 7.3061821572e-01	 3.7859526507e+00
 6.8568897137e-01	 7.4497441875e-01	 3.5747074981e+00
 6.7012476541e-01	 7.5900530224e-01	 3.3315976462e+00
 6.5428379716e-01	 7.7270237661e-01	 3.0596485282e+00
 6.3817685299e-01	 7.8605760243e-01	 2.7619621616e+00
 6.2181502336e-01	 7.9906340596e-01	 2.4417037200e+00
 6.0520967766e-01	 8.1171269307e-01	 2.1020879389e+00
 5.8837243839e-01	 8.2399886151e-01	 1.7463654467e+00
 5.7131515466e-01	 8.3591581159e-01	 1.3778091121e+00
 5.5404987530e-01	 8.4745795511e-01	 9.9970049660e-01
 7.2478445074e-01	 7.2478445074e-01	 3.6052800640e+00
 7.0961985773e-01	 7.3963819370e-01	 3.4393833951e+00
 6.9415426732e-01	 7.5417163380e-01	 3.2412646379e+00
 6.7839791066e-01	 7.6837573808e-01	 3.0136804211e+00
 6.6236137490e-01	 7.8224191213e-01	 2.7594695270e+00
 6.4605557958e-01	 7.9576201728e-01	 2.4815405107e+00
 6.2949175205e-01	 8.0892838629e-01	 2.1828590973e+00
 6.1268140208e-01	 8.2173383743e-01	 1.8664354400e+00
 5.9563629565e-01	 8.3417168697e-01	 1.5353113274e+00
 5.7836842818e-01	 8.4623575989e-01	 1.1925474223e+00
 5.6088999722e-01	 8.5792039901e-01	 8.4121061729e-01
 7.3362328551e-01	 7.3362328551e-01	 3.2628168195e+00
 7.1827375844e-01	 7.4865817167e-01	 3.1056087953e+00
 7.0261956326e-01	 7.6336884885e-01	 2.9187101604e+00
 6.8667105592e-01	 7.7774617391e-01	 2.7047023370e+00
 6.7043895265e-01	 7.9178144765e-01	 2.4662413856e+00
 6.5393430616e-01	 8.0546643213e-01	 2.2060464006e+00
 6.3716848074e-01	 8.1879336662e-01	 1.9268877170e+00
 6.2015312650e-01	 8.3175498180e-01	 1.6315750075e+00
 6.0290015292e-01	 8.4434451242e-01	 1.3229453495e+00
 5.8542170169e-01	 8.5655570819e-01	 1.0038513420e+00
 5.6773011914e-01	 8.6838284291e-01	 6.7714934856e-01
 7.4246212027e-01	 7.4246212027e-01	 2.9344353602e+00
 7.2692765914e-01	 7.5767814965e-01	 2.7841224998e+00
 7.1108485921e-01	 7.7256606389e-01	 2.6066056230e+00
 6.9494420117e-01	 7.8711660974e-01	 2.4042946568e+00
 6.7851653039e-01	 8.0132098316e-01	 2.1796667332e+00
 6.6181303274e-01	 8.1517084698e-01	 1.9352553476e+00
 6.4484520942e-01	 8.2865834694e-01	 1.6736393603e+00
 6.2762485092e-01	 8.4177612616e-01	 1.3974319183e+00
 6.1016401018e-01	 8.5451733788e-01	 1.1092693680e+00
 5.9247497521e-01	 8.6687565648e-01	 8.1180023561e-01
 5.7457024106e-01	 8.7884528680e-01	 5.0767434320e-01
 7.5130095504e-01	 7.5130095504e-01	 2.6195880458e+00
 7.3558155984e-01	 7.6669812762e-01	 2.4744397250e+00
 7.1955015515e-01	 7.8176327894e-01	 2.3045309410e+00
 7.0321734642e-01	 7.9648704558e-01	 2.1121037116e+00
 6.8659410813e-01	 8.1086051868e-01	 1.8994599047e+00
 6.6969175932e-01	 8.2487526183e-01	 1.6689511445e+00
 6.5252193811e-01	 8.3852332726e-01	 1.4229685960e+00
 6.3509657533e-01	 8.5179727052e-01	 1.1639326954e+00
 6.1742786745e-01	 8.6469016333e-01	 8.9428289662e-01
 5.9952824872e-01	 8.7719560478e-01	 6.1646750005e-01
 5.8141036298e-01	 8.8930773069e-01	 3.3293362908e-01
 7.6013978980e-01	 7.6013978980e-01	 2.3177504925e+00
 7.4423546055e-01	 7.7571810559e-01	 2.1760960013e+00
 7.2801545109e-01	 7.9096049399e-01	 2.0120833201e+00
 7.1149049167e-01	 8.0585748141e-01	 1.8277900247e+00
 6.9467168587e-01	 8.2040005419e-01	 1.6253462597e+00
 6.7757048590e-01	 8.3457967667e-01	 1.4069253795e+00
 6.6019866679e-01	 8.4838830758e-01	 1.1747345021e+00
 6.4256829975e-01	 8.6181841488e-01	 9.3100503562e-01
 6.2469172471e-01	 8.7486298878e-01	 6.7798324402e-01
 6.0658152224e-01	 8.8751555307e-01	 4.1792091204e-01
 5.8825048490e-01	 8.9977017459e-01	 1.5306616869e-01
 7.6897862457e-01	 7.6897862457e-01	 2.0284202364e+00
 7.5288936125e-01	 7.8473808356e-01	 1.8886460054e+00
 7.3648074703e-01	 8.0015770903e-01	 1.7288762627e+00
 7.1976363692e-01	 8.1522791724e-01	 1.5510274959e+00
 7.0274926361e-01	 8.2993958971e-01	 1.3570615492e+00
 6.8544921248e-01	 8.4428409152e-01	 1.1489769879e+00
 6.6787539547e-01	 8.5825328790e-01	 9.2880040699e-01
 6.5004002416e-01	 8.7183955924e-01	 6.9857774189e-01
 6.3195558198e-01	 8.8503581423e-01	 4.6036564046e-01
 6.1363479575e-01	 8.9783550136e-01	 2.1622295096e-01
 5.9509060682e-01	 9.1023261848e-01	-3.1797619831e-02
 7.7781745933e-01	 7.7781745933e-01	 1.7511154882e+00
 7.6154326195e-01	 7.9375806153e-01	 1.6116624727e+00
 7.4494604297e-01	 8.0935492408e-01	 1.4545386421e+00
 7.2803678217e-01	 8.2459835306e-01	 1.2815026413e+00
 7.1082684135e-01	 8.3947912522e-01	 1.0943513253e+00
 6.9332793905e-01	 8.5398850636e-01	 8.9491183483e-01
 6.7555212415e-01	 8.6811826822e-01	 6.8503364752e-01
 6.5751174858e-01	 8.8186070360e-01	 4.6658066053e-01
 6.3921943924e-01	 8.9520863968e-01	 2.4142335595e-01
 6.2068806926e-01	 9.0815544965e-01	 1.1431099846e-02
 6.0193072873e-01	 9.2069506237e-01	-2.2153537722e-01
 7.8665629409e-01	 7.8665629409e-01	 1.4853739715e+00
 7.7019716265e-01	 8.0277803950e-01	 1.3447351823e+00
 7.5341133891e-01	 8.1855213912e-01	 1.1887138389e+00
 7.3630992742e-01	 8.3396878889e-01	 1.0189138848e+00
 7.1890441909e-01	 8.4901866073e-01	 8.3697039040e-01
 7.0120666563e-01	 8.6369292120e-01	 6.4454232580e-01
 6.8322885283e-01	 8.7798324854e-01	 4.4330534409e-01
 6.6498347299e-01	 8.9188184795e-01	 2.3494462260e-01
 6.4648329650e-01	 9.0538146513e-01	 2.1147810343e-02
 6.2774134277e-01	 9.1847539794e-01	-1.9640187390e-01
 6.0877085065e-01	 9.3115750625e-01	-4.1603235038e-01
 7.9549512885e-01	 7.9549512885e-01	 1.2307518388e+00
 7.7885106335e-01	 8.1179801747e-01	 1.0874700110e+00
 7.6187663485e-01	 8.2774935416e-01	 9.3105893494e-01
 7.4458307267e-01	 8.4333922472e-01	 7.6297089654e-01
 7.2698199683e-01	 8.5855819624e-01	 5.8468228314e-01
 7.0908539221e-01	 8.7339733604e-01	 3.9768704352e-01
 6.9090558151e-01	 8.8784822886e-01	 2.0349019035e-01
 6.7245519740e-01	 9.0190299231e-01	 3.6013891990e-03
 6.5374715376e-01	 9.1555429058e-01	-2.0047132385e-01
 6.3479461628e-01	 9.2879534623e-01	-4.0722765655e-01
 6.1561097256e-01	 9.4161995014e-01	-6.1518096976e-01
 5.4720975338e-01	 8.3699551121e-01	 1.1524511072e+00
 5.2996426817e-01	 8.4801997290e-01	 7.3582054844e-01
 5.1253763889e-01	 8.5866475920e-01	 3.0114494816e-01
 4.9494219468e-01	 8.6892590241e-01	-1.4828510777e-01
 4.7719035310e-01	 8.7879995838e-01	-6.0916829375e-01
 4.5929459304e-01	 8.8828400681e-01	-1.0782056818e+00
 4.4126742774e-01	 8.9737564997e-01	-1.5521135689e+00
 4.2312137827e-01	 9.0607300986e-01	-2.0276359224e+00
 4.0486894747e-01	 9.1437472369e-01	-2.5015563775e+00
 3.8652259440e-01	 9.2227993796e-01	-2.9707097258e+00
 3.6809470956e-01	 9.2978830103e-01	-3.4319928393e+00
 5.5404987530e-01	 8.4745795511e-01	 9.9970049660e-01
 5.3658882153e-01	 8.5862022257e-01	 6.1052146597e-01
 5.1894435938e-01	 8.6939806870e-01	 2.0520140928e-01
 5.0112897212e-01	 8.7978747621e-01	-2.1314927496e-01
 4.8315523252e-01	 8.8978495788e-01	-6.4141364884e-01
 4.6503577546e-01	 8.9938755690e-01	-1.0764805537e+00
 4.4678327059e-01	 9.0859284561e-01	-1.5152566151e+00
 4.2841039551e-01	 9.1739892249e-01	-1.9546778678e+00
 4.0992980932e-01	 9.2580440774e-01	-2.3917209393e+00
 3.9135412684e-01	 9.3380843719e-01	-2.8234137375e+00
 3.7269589344e-01	 9.4141065480e-01	-3.2468455911e+00
 5.6088999722e-01	 8.5792039901e-01	 8.4121061729e-01
 5.4321337488e-01	 8.6922047224e-01	 4.7780506029e-01
 5.2535107988e-01	 8.8013137819e-01	 1.0012204330e-01
 5.0731574955e-01	 8.9064904999e-01	-2.8890474089e-01
 4.8912011194e-01	 9.0076995736e-01	-6.8633922302e-01
 4.7077695788e-01	 9.1049110700e-01	-1.0892544699e+00
 4.5229911345e-01	 9.1981004124e-01	-1.4947438790e+00
 4.3369941274e-01	 9.2872483512e-01	-1.8999319946e+00
 4.1499067117e-01	 9.3723409180e-01	-2.3019848900e+00
 3.9618565927e-01	 9.4533693642e-01	-2.6981200646e+00
 3.7729707731e-01	 9.5303300857e-01	-3.0856158118e+00
 5.6773011914e-01	 8.6838284291e-01	 6.7714934856e-01
 5.4983792824e-01	 8.7982072191e-01	 3.3790208179e-01
 5.3175780036e-01	 8.9086468769e-01	-1.3797818619e-02
 5.1350252699e-01	 9.0151062378e-01	-3.7519001802e-01
 4.9508499136e-01	 9.1175495685e-01	-7.4351593363e-01
 4.7651814030e-01	 9.2159465709e-01	-1.1160294525e+00
 4.5781495630e-01	 9.3102723687e-01	-1.4900073277e+00
 4.3898842997e-01	 9.4005074775e-01	-1.8627591970e+00
 4.2005153301e-01	 9.4866377585e-01	-2.2316371740e+00
 4.0101719171e-01	 9.5686543566e-01	-2.5940449667e+00
 3.8189826118e-01	 9.6465536234e-01	-2.9474464826e+00
 5.7457024106e-01	 8.7884528680e-01	 5.0767434320e-01
 5.5646248159e-01	 8.9042097157e-01	 1.9103009225e-01
 5.3816452085e-01	 9.0159799719e-01	-1.3627907245e-01
 5.1968930443e-01	 9.1237219757e-01	-4.7166295481e-01
 5.0104987078e-01	 9.2273995634e-01	-8.1253720666e-01
 4.8225932271e-01	 9.3269820718e-01	-1.1563332626e+00
 4.6333079915e-01	 9.4224443250e-01	-1.5005079486e+00
 4.4427744721e-01	 9.5137666038e-01	-1.8425527143e+00
 4.2511239486e-01	 9.6009345990e-01	-2.1800024443e+00
 4.0584872414e-01	 9.6839393489e-01	-2.5104438071e+00
 3.8649944506e-01	 9.7627771611e-01	-2.8315231081e+00
 5.8141036298e-01	 8.8930773069e-01	 3.3293362908e-01
 5.6308703495e-01	 9.0102122124e-01	 3.7394240706e-02
 5.4457124134e-01	 9.1233130668e-01	-2.6705788676e-01
 5.2587608186e-01	 9.2323377135e-01	-5.7799959826e-01
 5.0701475019e-01	 9.3372495582e-01	-8.9301765278e-01
 4.8800050513e-01	 9.4380175727e-01	-1.2097178859e+00
 4.6884664200e-01	 9.5346162813e-01	-1.5257340417e+00
 4.4956646444e-01	 9.6270257301e-01	-1.8387362290e+00
 4.3017325671e-01	 9.7152314396e-01	-2.1464389622e+00
 4.1068025657e-01	 9.7992243412e-01	-2.4466087521e+00
 3.9110062893e-01	 9.8790006988e-01	-2.7370712148e+00
 5.8825048490e-01	 8.9977017459e-01	 1.5306616869e-01
 5.6971158830e-01	 9.1162147090e-01	-1.2281201490e-01
 5.5097796183e-01	 9.2306461617e-01	-4.0588481480e-01
 5.3206285930e-01	 9.3409534513e-01	-6.9389313588e-01
 5.1297962961e-01	 9.4470995530e-01	-9.8459183559e-01
 4.9374168754e-01	 9.5490530736e-01	-1.2757581247e+00
 4.7436248484e-01	 9.6467882376e-01	-1.5651996322e+00
 4.5485548167e-01	 9.7402848564e-01	-1.8507620960e+00
 4.3523411855e-01	 9.8295282801e-01	-2.1303366435e+00
 4.1551178900e-01	 9.9145093335e-01	-2.4018666320e+00
 3.9570181280e-01	 9.9952242365e-01	-2.6633540239e+00
 5.9509060682e-01	 9.1023261848e-01	-3.1797619831e-02
 5.7633614165e-01	 9.2222172056e-01	-2.8940623581e-01
 5.5738468231e-01	 9.3379792566e-01	-5.5252396775e-01
 5.3824963673e-01	 9.4495691892e-01	-8.1905291058e-01
 5.1894450902e-01	 9.5569495479e-01	-1.0869131250e+00
 4.9948286996e-01	 9.6600885745e-01	-1.3540502860e+00
 4.7987832769e-01	 9.7589601939e-01	-1.6184429915e+00
 4.6014449890e-01	 9.8535439826e-01	-1.8781096957e+00
 4.4029498039e-01	 9.9438251205e-01	-2.1311152391e+00
 4.2034332143e-01	 1.0029794326e+00	-2.3755769484e+00
 4.0030299667e-01	 1.0111447774e+00	-2.6096702853e+00
 6.0193072873e-01	 9.2069506237e-01	-2.2153537722e-01
 5.8296069500e-01	 9.3282197022e-01	-4.6221637640e-01
 5.6379140280e-01	 9.4453123515e-01	-7.0675224441e-01
 5.4443641416e-01	 9.5581849270e-01	-9.5320350278e-01
 5.2490938844e-01	 9.6667995426e-01	-1.1996526285e+00
 5.0522405237e-01	 9.7711240753e-01	-1.4442109605e+00
 4.8539417054e-01	 9.8711321501e-01	-1.6850252600e+00
 4.6543351612e-01	 9.9668031089e-01	-1.9202838975e+00
 4.4535584224e-01	 1.0058121961e+00	-2.1482226398e+00
 4.2517485386e-01	 1.0145079318e+00	-2.3671300181e+00
 4.0490418054e-01	 1.0227671312e+00	-2.5753522590e+00
 6.0877085065e-01	 9.3115750625e-01	-4.1603235038e-01
 5.8958524835e-01	 9.4342221988e-01	-6.4108020022e-01
 5.7019812328e-01	 9.5526454464e-01	-8.6835861279e-01
 5.5062319160e-01	 9.6668006647e-01	-1.0960838743e+00
 5.3087426785e-01	 9.7766495374e-01	-1.3224981951e+00
 5.1096523478e-01	 9.8821595761e-01	-1.5458758822e+00
 4.9091001338e-01	 9.9833041064e-01	-1.7645291622e+00
 4.7072253335e-01	 1.0080062235e+00	-1.9768136286e+00
 4.5041670408e-01	 1.0172418801e+00	-2.1811332956e+00
 4.3000638629e-01	 1.0260364310e+00	-2.3759452417e+00
 4.0950536441e-01	 1.0343894849e+00	-2.5597638319e+00
 6.1561097256e-01	 9.4161995014e-01	-6.1518096976e-01
 5.9620980170e-01	 9.5402246954e-01	-8.2584473512e-01
 5.7660484377e-01	 9.6599785412e-01	-1.0371434396e+00
 5.5680996903e-01	 9.7754164025e-01	-1.2474465696e+00
 5.3683914726e-01	 9.8864995322e-01	-1.4551534845e+00
 5.1670641719e-01	 9.9931950770e-01	-1.6586988655e+00
 4.9642585623e-01	 1.0095476063e+00	-1.8565578076e+00
 4.7601155058e-01	 1.0193321361e+00	-2.0472505371e+00
 4.5547756592e-01	 1.0286715642e+00	-2.2293467398e+00
 4.3483791872e-01	 1.0375649302e+00	-2.4014694884e+00
 4.1410654828e-01	 1.0460118387e+00	-2.5622987616e+00
 3.6809470956e-01	 9.2978830103e-01	-3.4319928393e+00
 3.4959759078e-01	 9.3689995435e-01	-3.8671537723e+00
 3.3104341998e-01	 9.4361552236e-01	-4.2915526954e+00
 3.1244424090e-01	 9.4993610115e-01	-4.7032497914e+00
 2.9381193773e-01	 9.5586324607e-01	-5.1003697790e+00
 2.7515821486e-01	 9.6139895816e-01	-5.4811068732e+00
 2.5649457770e-01	 9.6654566967e-01	-5.8437292586e+00
 2.3783231460e-01	 9.7130622879e-01	-6.1865830712e+00
 2.1918248006e-01	 9.7568388344e-01	-6.5080958876e+00
 2.0055587900e-01	 9.7968226449e-01	-6.8067797227e+00
 1.8196305243e-01	 9.8330536840e-01	-7.0812335410e+00
 3.7269589344e-01	 9.4141065480e-01	-3.2468455911e+00
 3.5396756067e-01	 9.4861120379e-01	-3.6539731973e+00
 3.3518146273e-01	 9.5541071639e-01	-4.0503305736e+00
 3.1634979391e-01	 9.6181030243e-01	-4.4341003138e+00
 2.9748458695e-01	 9.6781153666e-01	-4.8035276321e+00
 2.7859769255e-01	 9.7341644514e-01	-5.1569248816e+00
 2.5970075992e-01	 9.7862749055e-01	-5.4926756109e+00
 2.4080521853e-01	 9.8344755666e-01	-5.8092381562e+00
 2.2192226105e-01	 9.8787993198e-01	-6.1051487685e+00
 2.0306282749e-01	 9.9192829280e-01	-6.3790242783e+00
 1.8423759058e-01	 9.9559668551e-01	-6.6295643060e+00
 3.7729707731e-01	 9.5303300857e-01	-3.0856158118e+00
 3.5833753055e-01	 9.6032245323e-01	-3.4659077893e+00
 3.3931950548e-01	 9.6720591043e-01	-3.8354283270e+00
 3.2025534692e-01	 9.7368450370e-01	-4.1924803565e+00
 3.0115723617e-01	 9.7975982724e-01	-4.5354275529e+00
 2.8203717024e-01	 9.8543393212e-01	-4.8626984160e+00
 2.6290694214e-01	 9.9070931143e-01	-5.1727899148e+00
 2.4377812247e-01	 9.9558888452e-01	-5.4642706940e+00
 2.2466204205e-01	 1.0000759805e+00	-5.7357838425e+00
 2.0556977597e-01	 1.0041743211e+00	-5.9860492303e+00
 1.8651212874e-01	 1.0078880026e+00	-6.2138654194e+00
 3.8189826118e-01	 9.6465536234e-01	-2.9474464826e+00
 3.6270750044e-01	 9.7203370266e-01	-3.3020530477e+00
 3.4345754823e-01	 9.7900110447e-01	-3.6458935995e+00
 3.2416089993e-01	 9.8555870497e-01	-3.9773894264e+00
 3.0482988540e-01	 9.9170811782e-01	-4.2950207198e+00
 2.8547664792e-01	 9.9745141910e-01	-4.5973302235e+00
 2.6611312436e-01	 1.0027911323e+00	-4.8829264705e+00
 2.4675102640e-01	 1.0077302124e+00	-5.1504866072e+00
 2.2740182305e-01	 1.0122720291e+00	-5.3987588081e+00
 2.0807672446e-01	 1.0164203494e+00	-5.6265642865e+00
 1.8878666689e-01	 1.0201793197e+00	-5.8327989099e+00
 3.8649944506e-01	 9.7627771611e-01	-2.8315231081e+00
 3.6707747033e-01	 9.8374495210e-01	-3.1615491831e+00
 3.4759559099e-01	 9.9079629850e-01	-3.4808209495e+00
 3.2806645295e-01	 9.9743290624e-01	-3.7878761583e+00
 3.0850253462e-01	 1.0036564084e+00	-4.0813096592e+00
 2.8891612561e-01	 1.0094689061e+00	-4.3597766222e+00
 2.6931930658e-01	 1.0148729532e+00	-4.6219953712e+00
 2.4972393033e-01	 1.0198715402e+00	-4.8667498292e+00
 2.3014160405e-01	 1.0244680776e+00	-5.0928915829e+00
 2.1058367294e-01	 1.0286663777e+00	-5.2993415703e+00
 1.9106120504e-01	 1.0324706368e+00	-5.4850914028e+00
 3.9110062893e-01	 9.8790006988e-01	-2.7370712148e+00
 3.7144744021e-01	 9.9545620154e-01	-3.0435784872e+00
 3.5173363374e-01	 1.0025914925e+00	-3.3393490896e+00
 3.3197200596e-01	 1.0093071075e+00	-3.6230354249e+00
 3.1217518384e-01	 1.0156046990e+00	-3.8933452253e+00
 2.9235560329e-01	 1.0214863931e+00	-4.1490443507e+00
 2.7252548880e-01	 1.0269547741e+00	-4.3889592218e+00
 2.5269683426e-01	 1.0320128681e+00	-4.6119788918e+00
 2.3288138505e-01	 1.0366641262e+00	-4.8170567615e+00
 2.1309062143e-01	 1.0409124060e+00	-5.0032119491e+00
 1.9333574319e-01	 1.0447619539e+00	-5.1695303202e+00
 3.9570181280e-01	 9.9952242365e-01	-2.6633540239e+00
 3.7581741010e-01	 1.0071674510e+00	-2.9473628862e+00
 3.5587167649e-01	 1.0143866866e+00	-3.2206583199e+00
 3.3587755897e-01	 1.0211813088e+00	-3.4820056486e+00
 3.1584783306e-01	 1.0275529896e+00	-3.7302237904e+00
 2.9579508098e-01	 1.0335038801e+00	-3.9641876359e+00
 2.7573167103e-01	 1.0390365949e+00	-4.1828300858e+00
 2.5566973819e-01	 1.0441541960e+00	-4.3851437503e+00
 2.3562116605e-01	 1.0488601747e+00	-4.5701823203e+00
 2.1559756991e-01	 1.0531584344e+00	-4.7370616192e+00
 1.9561028135e-01	 1.0570532710e+00	-4.8849603459e+00
 4.0030299667e-01	 1.0111447774e+00	-2.6096702853e+00
 3.8018737999e-01	 1.0188787004e+00	-2.8721616631e+00
 3.6000971924e-01	 1.0261818806e+00	-3.1239681374e+00
 3.3978311198e-01	 1.0330555100e+00	-3.3639662984e+00
 3.1952048229e-01	 1.0395012801e+00	-3.5910846283e+00
 2.9923455867e-01	 1.0455213670e+00	-3.8043054643e+00
 2.7893785325e-01	 1.0511184158e+00	-4.0026666424e+00
 2.5864264212e-01	 1.0562955238e+00	-4.1852628287e+00
 2.3836094705e-01	 1.0610562233e+00	-4.3512465492e+00
 2.1810451840e-01	 1.0654044627e+00	-4.4998289261e+00
 1.9788481950e-01	 1.0693445882e+00	-4.6302801351e+00
 4.0490418054e-01	 1.0227671312e+00	-2.5753522590e+00
 3.8455734987e-01	 1.0305899498e+00	-2.8172693351e+00
 3.6414776199e-01	 1.0379770746e+00	-3.0485350097e+00
 3.4368866500e-01	 1.0449297113e+00	-3.2681355581e+00
 3.2319313151e-01	 1.0514495707e+00	-3.4751074777e+00
 3.0267403635e-01	 1.0575388540e+00	-3.6685390388e+00
 2.8214403547e-01	 1.0632002367e+00	-3.8475715383e+00
 2.6161554606e-01	 1.0684368517e+00	-4.0114002658e+00
 2.4110072805e-01	 1.0732522718e+00	-4.1592751935e+00
 2.2061146689e-01	 1.0776504910e+00	-4.2905014008e+00
 2.0015935765e-01	 1.0816359053e+00	-4.4044392474e+00
 4.0950536441e-01	 1.0343894849e+00	-2.5597638319e+00
 3.8892731976e-01	 1.0423011993e+00	-2.7820136739e+00
 3.6828580474e-01	 1.0497722687e+00	-2.9936502972e+00
 3.4759421801e-01	 1.0568039126e+00	-3.1937681509e+00
 3.2686578073e-01	 1.0633978613e+00	-3.3815102679e+00
 3.0611351404e-01	 1.0695563410e+00	-3.5560694067e+00
 2.8535021769e-01	 1.0752820576e+00	-3.7166889175e+00
 2.6458844999e-01	 1.0805781796e+00	-3.8626633464e+00
 2.4384050905e-01	 1.0854483204e+00	-3.9933387873e+00
 2.2311841537e-01	 1.0898965193e+00	-4.1081129972e+00
 2.0243389581e-01	 1.0939272224e+00	-4.2064352870e+00
 4.1410654828e-01	 1.0460118387e+00	-2.5622987616e+00
 3.9329728964e-01	 1.0540124487e+00	-2.7657538587e+00
 3.7242384749e-01	 1.0615674627e+00	-2.9586383151e+00
 3.5149977102e-01	 1.0686781139e+00	-3.1401533097e+00
 3.3053842995e-01	 1.0753461519e+00	-3.3095469978e+00
 3.0955299173e-01	 1.0815738280e+00	-3.4661152464e+00
 2.8855639991e-01	 1.0873638784e+00	-3.6092021160e+00
 2.6756135392e-01	 1.0927195074e+00	-3.7382001048e+00
 2.4658029005e-01	 1.0976443689e+00	-3.8525501656e+00
 2.2562536386e-01	 1.1021425476e+00	-3.9517415131e+00
 2.0470843396e-01	 1.1062185395e+00	-4.0353112340e+00
 1.8196305243e-01	 9.8330536840e-01	-7.0812335410e+00
 1.6341426419e-01	 9.8655753924e-01	-7.3228143809e+00
 1.4491948904e-01	 9.8944345047e-01	-7.5399896016e+00
 1.2648840200e-01	 9.9196808625e-01	-7.7324019457e+00
 1.0813036884e-01	 9.9413672265e-01	-7.8997502663e+00
 8.9854437912e-02	 9.9595490861e-01	-8.0417884348e+00
 7.1669333081e-02	 9.9742844690e-01	-8.1583240885e+00
 5.3583447897e-02	 9.9856337511e-01	-8.2492172326e+00
 3.5604840891e-02	 9.9936594664e-01	-8.3143787135e+00
 1.7741231987e-02	 9.9984261196e-01	-8.3537685773e+00
 0.0000000000e+00	 1.0000000000e+00	-8.3673943290e+00
 1.8423759058e-01	 9.9559668551e-01	-6.6295643060e+00
 1.6545694249e-01	 9.9888950849e-01	-6.8576504420e+00
 1.4673098265e-01	 1.0018114936e+00	-7.0618965387e+00
 1.2806950702e-01	 1.0043676873e+00	-7.2420132342e+00
 1.0948199844e-01	 1.0065634317e+00	-7.3977645051e+00
 9.0977618379e-02	 1.0084043450e+00	-7.5289663941e+00
 7.2565199739e-02	 1.0098963025e+00	-7.6354856004e+00
 5.4253240991e-02	 1.0110454173e+00	-7.7172379461e+00
 3.6049901398e-02	 1.0118580210e+00	-7.7741867356e+00
 1.7962997385e-02	 1.0123406446e+00	-7.8063410217e+00
 0.0000000000e+00	 1.0125000000e+00	-7.8137537940e+00
 1.8651212874e-01	 1.0078880026e+00	-6.2138654194e+00
 1.6749962078e-01	 1.0112214777e+00	-6.4292372328e+00
 1.4854247626e-01	 1.0141795367e+00	-6.6213366151e+00
 1.2965061203e-01	 1.0167672884e+00	-6.7899409675e+00
 1.1083362805e-01	 1.0189901407e+00	-6.9348782864e+00
 9.2100798847e-02	 1.0208537813e+00	-7.0560257138e+00
 7.3461066397e-02	 1.0223641581e+00	-7.1533079711e+00
 5.4923034086e-02	 1.0235274595e+00	-7.2266956915e+00
 3.6494961906e-02	 1.0243500953e+00	-7.2762036670e+00
 1.8184762783e-02	 1.0248386773e+00	-7.3018890235e+00
 0.0000000000e+00	 1.0250000000e+00	-7.3038493380e+00
 1.8878666689e-01	 1.0201793197e+00	-5.8327989099e+00
 1.6954229908e-01	 1.0235534470e+00	-6.0362039363e+00
 1.5035396986e-01	 1.0265475799e+00	-6.2169061395e+00
 1.3123171705e-01	 1.0291668895e+00	-6.3747486070e+00
 1.1218525765e-01	 1.0314168498e+00	-6.5096223061e+00
 9.3223979316e-02	 1.0333032177e+00	-6.6214644578e+00
 7.4356933056e-02	 1.0348320137e+00	-6.7102568166e+00
 5.5592827180e-02	 1.0360095017e+00	-6.7760238698e+00
 3.6940022414e-02	 1.0368421696e+00	-6.8188309732e+00
 1.8406528182e-02	 1.0373367099e+00	-6.8387824358e+00
 0.0000000000e+00	 1.0375000000e+00	-6.8360195679e+00
 1.9106120504e-01	 1.0324706368e+00	-5.4850914028e+00
 1.7158497738e-01	 1.0358854162e+00	-5.6772458059e+00
 1.5216546347e-01	 1.0389156230e+00	-5.8472689663e+00
 1.3281282207e-01	 1.0415664906e+00	-5.9950686339e+00
 1.1353688726e-01	 1.0438435588e+00	-6.1205977496e+00
 9.4347159785e-02	 1.0457526540e+00	-6.2238526439e+00
 7.5252799715e-02	 1.0472998693e+00	-6.3048711633e+00
 5.6262620276e-02	 1.0484915439e+00	-6.3637307384e+00
 3.7385082923e-02	 1.0493342440e+00	-6.4005464095e+00
 1.8628293580e-02	 1.0498347426e+00	-6.4154688217e+00
 0.0000000000e+00	 1.0500000000e+00	-6.4086822043e+00
 1.9333574319e-01	 1.0447619539e+00	-5.1695303202e+00
 1.7362765568e-01	 1.0482173855e+00	-5.3511202793e+00
 1.5397695708e-01	 1.0512836661e+00	-5.5111525220e+00
 1.3439392709e-01	 1.0539660917e+00	-5.6495984886e+00
 1.1488851686e-01	 1.0562702678e+00	-5.7664721456e+00
 9.5470340255e-02	 1.0582020904e+00	-5.8618280111e+00
 7.6148666375e-02	 1.0597677248e+00	-5.9357591291e+00
 5.6932413371e-02	 1.0609735861e+00	-5.9883950075e+00
 3.7830143432e-02	 1.0618263183e+00	-6.0198995340e+00
 1.8850058979e-02	 1.0623327752e+00	-6.0304688833e+00
 0.0000000000e+00	 1.0625000000e+00	-6.0203294284e+00
 1.9561028135e-01	 1.0570532710e+00	-4.8849603459e+00
 1.7567033398e-01	 1.0605493547e+00	-5.0566433624e+00
 1.5578845069e-01	 1.0636517093e+00	-5.2073441094e+00
 1.3597503212e-01	 1.0663656927e+00	-5.3370967942e+00
 1.1624014647e-01	 1.0686969769e+00	-5.4459755088e+00
 9.6593520725e-02	 1.0706515268e+00	-5.5340920827e+00
 7.7044533036e-02	 1.0722355804e+00	-5.6015939075e+00
 5.7602206467e-02	 1.0734556282e+00	-5.6486617444e+00
 3.8275203941e-02	 1.0743183926e+00	-5.6755075327e+00
 1.9071824378e-02	 1.0748308079e+00	-5.6823722093e+00
 0.0000000000e+00	 1.0750000000e+00	-5.6695235522e+00
 1.9788481950e-01	 1.0693445882e+00	-4.6302801351e+00
 1.7771301228e-01	 1.0728813239e+00	-4.7926862641e+00
 1.5759994430e-01	 1.0760197524e+00	-4.9346874665e+00
 1.3755613714e-01	 1.0787652938e+00	-5.0563798405e+00
 1.1759177608e-01	 1.0811236859e+00	-5.1578967485e+00
 9.7716701196e-02	 1.0831009631e+00	-5.2394065002e+00
 7.7940399697e-02	 1.0847034360e+00	-5.3011100264e+00
 5.8271999564e-02	 1.0859376704e+00	-5.3432385593e+00
 3.8720264451e-02	 1.0868104670e+00	-5.3660513330e+00
 1.9293589777e-02	 1.0873288405e+00	-5.3698333160e+00
 0.0000000000e+00	 1.0875000000e+00	-5.3548929884e+00
 2.0015935765e-01	 1.0816359053e+00	-4.4044392474e+00
 1.7975569058e-01	 1.0852132932e+00	-4.5581722591e+00
 1.5941143791e-01	 1.0883877955e+00	-4.6920795599e+00
 1.3913724216e-01	 1.0911648949e+00	-4.8063183072e+00
 1.1894340569e-01	 1.0935503949e+00	-4.9010803230e+00
 9.8839881668e-02	 1.0955503995e+00	-4.9765896075e+00
 7.8836266358e-02	 1.0971712916e+00	-5.0330998642e+00
 5.8941792661e-02	 1.0984197126e+00	-5.0708920525e+00
 3.9165324961e-02	 1.0993025413e+00	-5.0902719818e+00
 1.9515355176e-02	 1.0998268732e+00	-5.0915679580e+00
 0.0000000000e+00	 1.1000000000e+00	-5.0751284947e+00
 2.0243389581e-01	 1.0939272224e+00	-4.2064352870e+00
 1.8179836888e-01	 1.0975452624e+00	-4.3520737634e+00
 1.6122293152e-01	 1.1007558387e+00	-4.4784675943e+00
 1.4071834718e-01	 1.1035644960e+00	-4.5858342082e+00
 1.2029503530e-01	 1.1059771040e+00	-4.6744231180e+00
 9.9963062140e-02	 1.1079998358e+00	-4.7445132657e+00
 7.9732133020e-02	 1.1096391472e+00	-4.7964103993e+00
 5.9611585759e-02	 1.1109017548e+00	-4.8304444997e+00
 3.9610385471e-02	 1.1117946156e+00	-4.8469672683e+00
 1.9737120575e-02	 1.1123249058e+00	-4.8463496884e+00
 0.0000000000e+00	 1.1125000000e+00	-4.8289796708e+00
 2.0470843396e-01	 1.1062185395e+00	-4.0353112340e+00
 1.8384104718e-01	 1.1098772317e+00	-4.1734096039e+00
 1.6303442514e-01	 1.1131238818e+00	-4.2928462215e+00
 1.4229945221e-01	 1.1159640971e+00	-4.3938980400e+00
 1.2164666491e-01	 1.1184038130e+00	-4.4768715348e+00
 1.0108624261e-01	 1.1204492722e+00	-4.5420998794e+00
 8.0627999683e-02	 1.1221070028e+00	-4.5899401767e+00
 6.0281378857e-02	 1.1233837970e+00	-4.6207707590e+00
 4.0055445982e-02	 1.1242866900e+00	-4.6349885713e+00
 1.9958885975e-02	 1.1248229385e+00	-4.6330066472e+00
 0.0000000000e+00	 1.1250000000e+00	-4.6152516902e+00
 1.1250000000e+00	 0.0000000000e+00	 2.2258264258e+00
 1.1248229385e+00	 1.9958885975e-02	 2.2587151133e+00
 1.1242866900e+00	 4.0055445982e-02	 2.2866605490e+00
 1.1233837970e+00	 6.0281378857e-02	 2.3096770315e+00
 1.1221070028e+00	 8.0627999683e-02	 2.3277965421e+00
 1.1204492722e+00	 1.0108624261e-01	 2.3410690991e+00
 1.1184038130e+00	 1.2164666491e-01	 2.3495629893e+00
 1.1159640971e+00	 1.4229945221e-01	 2.3533648658e+00
 1.1131238818e+00	 1.6303442514e-01	 2.3525797022e+00
 1.1098772317e+00	 1.8384104718e-01	 2.3473305940e+00
 1.1062185395e+00	 2.0470843396e-01	 2.3377584000e+00
 1.1375000000e+00	 0.0000000000e+00	 2.2555056584e+00
 1.1373209711e+00	 2.0180651374e-02	 2.2897762753e+00
 1.1367787643e+00	 4.0500506492e-02	 2.3182343566e+00
 1.1358658392e+00	 6.0951171955e-02	 2.3408870708e+00
 1.1345748584e+00	 8.1523866346e-02	 2.3577622482e+00
 1.1328987086e+00	 1.0220942309e-01	 2.3689088879e+00
 1.1308305220e+00	 1.2299829452e-01	 2.3743975343e+00
 1.1283636981e+00	 1.4388055723e-01	 2.3743205091e+00
 1.1254919249e+00	 1.6484591875e-01	 2.3687919883e+00
 1.1222092009e+00	 1.8588372548e-01	 2.3579479134e+00
 1.1185098566e+00	 2.0698297212e-01	 2.3419457274e+00
 1.1500000000e+00	 0.0000000000e+00	 2.2957575946e+00
 1.1498190038e+00	 2.0402416774e-02	 2.3315358750e+00
 1.1492708386e+00	 4.0945567004e-02	 2.3606446208e+00
 1.1483478814e+00	 6.1620965054e-02	 2.3830839982e+00
 1.1470427139e+00	 8.2419733010e-02	 2.3988778017e+00
 1.1453481449e+00	 1.0333260356e-01	 2.4080741146e+00
 1.1432572311e+00	 1.2434992413e-01	 2.4107458287e+00
 1.1407632992e+00	 1.4546166226e-01	 2.4069910103e+00
 1.1378599681e+00	 1.6665741236e-01	 2.3969330989e+00
 1.1345411702e+00	 1.8792640379e-01	 2.3807209266e+00
 1.1308011737e+00	 2.0925751027e-01	 2.3585285486e+00
 1.1625000000e+00	 0.0000000000e+00	 2.3462582905e+00
 1.1623170364e+00	 2.0624182174e-02	 2.3836661496e+00
 1.1617629130e+00	 4.1390627515e-02	 2.4135591558e+00
 1.1608299236e+00	 6.2290758153e-02	 2.4359305941e+00
 1.1595105695e+00	 8.3315599674e-02	 2.4508003349e+00
 1.1577975813e+00	 1.0445578404e-01	 2.4582156459e+00
 1.1556839401e+00	 1.2570155374e-01	 2.4582518550e+00
 1.1531629003e+00	 1.4704276728e-01	 2.4510128490e+00
 1.1502280112e+00	 1.6846890598e-01	 2.4366313931e+00
 1.1468731394e+00	 1.8996908209e-01	 2.4152692586e+00
 1.1430924908e+00	 2.1153204843e-01	 2.3871171455e+00
 1.1750000000e+00	 0.0000000000e+00	 2.4066975869e+00
 1.1748150691e+00	 2.0845947575e-02	 2.4458532558e+00
 1.1742549873e+00	 4.1835688027e-02	 2.4766598518e+00
 1.1733119658e+00	 6.2960551253e-02	 2.4991038953e+00
 1.1719784251e+00	 8.4211466338e-02	 2.5132014399e+00
 1.1702470176e+00	 1.0557896451e-01	 2.5189990354e+00
 1.1681106491e+00	 1.2705318335e-01	 2.5165745332e+00
 1.1655625014e+00	 1.4862387231e-01	 2.5060377165e+00
 1.1625960543e+00	 1.7028039959e-01	 2.4875307406e+00
 1.1592051086e+00	 1.9201176039e-01	 2.4612283669e+00
 1.1553838079e+00	 2.1380658658e-01	 2.4273379779e+00
 1.1875000000e+00	 0.0000000000e+00	 2.4767783838e+00
 1.1873131017e+00	 2.1067712975e-02	 2.5177965361e+00
 1.1867470616e+00	 4.2280748539e-02	 2.5496419339e+00
 1.1857940079e+00	 6.3630344353e-02	 2.5722944442e+00
 1.1844462807e+00	 8.5107333003e-02	 2.5857664073e+00
 1.1826964540e+00	 1.0670214499e-01	 2.5901037506e+00
 1.1805373582e+00	 1.2840481296e-01	 2.5853869347e+00
 1.1779621024e+00	 1.5020497734e-01	 2.5717317159e+00
 1.1749640975e+00	 1.7209189320e-01	 2.5492897051e+00
 1.1715370779e+00	 1.9405443870e-01	 2.5182487082e+00
 1.1676751250e+00	 2.1608112474e-01	 2.4788328326e+00
 1.2000000000e+00	 0.0000000000e+00	 2.5562159608e+00
 1.1998111344e+00	 2.1289478376e-02	 2.5992078331e+00
 1.1992391360e+00	 4.2725809052e-02	 2.6322132678e+00
 1.1982760501e+00	 6.4300137453e-02	 2.6552055854e+00
 1.1969141363e+00	 8.6003199669e-02	 2.6681935131e+00
 1.1951458903e+00	 1.0782532546e-01	 2.6712224479e+00
 1.1929640672e+00	 1.2975644257e-01	 2.6643755454e+00
 1.1903617035e+00	 1.5178608236e-01	 2.6477746111e+00
 1.1873321406e+00	 1.7390338682e-01	 2.6215807791e+00
 1.1838690471e+00	 1.9609711700e-01	 2.5859949574e+00
 1.1799664421e+00	 2.1835566290e-01	 2.5412580246e+00
 1.2125000000e+00	 0.0000000000e+00	 2.6447373381e+00
 1.2123091670e+00	 2.1511243776e-02	 2.6898108443e+00
 1.2117312103e+00	 4.3170869564e-02	 2.7240937084e+00
 1.2107580923e+00	 6.4969930554e-02	 2.7475528064e+00
 1.2093819919e+00	 8.6899066335e-02	 2.7601933488e+00
 1.2075953267e+00	 1.0894850594e-01	 2.7620602934e+00
 1.2053907762e+00	 1.3110807219e-01	 2.7532395741e+00
 1.2027613046e+00	 1.5336718739e-01	 2.7338591230e+00
 1.1997001837e+00	 1.7571488043e-01	 2.7040896661e+00
 1.1962010164e+00	 1.9813979530e-01	 2.6641452743e+00
 1.1922577592e+00	 2.2063020105e-01	 2.6142836488e+00
 1.2250000000e+00	 0.0000000000e+00	 2.7420806781e+00
 1.2248071996e+00	 2.1733009177e-02	 2.7893405176e+00
 1.2242232846e+00	 4.3615930078e-02	 2.8250144877e+00
 1.2232401345e+00	 6.5639723655e-02	 2.8490631173e+00
 1.2218498475e+00	 8.7794933001e-02	 2.8614881936e+00
 1.2200447631e+00	 1.1007168642e-01	 2.8623343238e+00
 1.2178174853e+00	 1.3245970180e-01	 2.8516903034e+00
 1.2151609057e+00	 1.5494829242e-01	 2.8296902678e+00
 1.2120682269e+00	 1.7752637405e-01	 2.7965146064e+00
 1.2085329856e+00	 2.0018247361e-01	 2.7523906159e+00
 1.2045490763e+00	 2.2290473921e-01	 2.6975928762e+00
 1.2375000000e+00	 0.0000000000e+00	 2.8479947226e+00
 1.2373052323e+00	 2.1954774578e-02	 2.8975424834e+00
 1.2367153590e+00	 4.4060990591e-02	 2.9347176404e+00
 1.2357221767e+00	 6.6309516757e-02	 2.9594744693e+00
 1.2343177030e+00	 8.8690799668e-02	 2.9718114241e+00
 1.2324941994e+00	 1.1119486689e-01	 2.9717728478e+00
 1.2302441943e+00	 1.3381133141e-01	 2.9594504797e+00
 1.2275605068e+00	 1.5652939745e-01	 2.9349847369e+00
 1.2244362700e+00	 1.7933786766e-01	 2.8985657438e+00
 1.2208649548e+00	 2.0222515191e-01	 2.8504340902e+00
 1.2168403934e+00	 2.2517927736e-01	 2.7908812942e+00
 1.2500000000e+00	 0.0000000000e+00	 2.9622382636e+00
 1.2498032649e+00	 2.2176539980e-02	 3.0141725200e+00
 1.2492074333e+00	 4.4506051105e-02	 3.0529554639e+00
 1.2482042189e+00	 6.6979309859e-02	 3.0785352075e+00
 1.2467855586e+00	 8.9586666336e-02	 3.0909069590e+00
 1.2449436358e+00	 1.1231804737e-01	 3.0901148816e+00
 1.2426709033e+00	 1.3516296103e-01	 3.0762537406e+00
 1.2399601078e+00	 1.5811050247e-01	 3.0494703122e+00
 1.2368043131e+00	 1.8114936128e-01	 3.0099645308e+00
 1.2331969241e+00	 2.0426783021e-01	 2.9579903481e+00
 1.2291317105e+00	 2.2745381552e-01	 2.8938562854e+00
 1.1062185395e+00	 2.0470843396e-01	 2.3377584000e+00
 1.1021425476e+00	 2.2562536386e-01	 2.3809489633e+00
 1.0976443689e+00	 2.4658029005e-01	 2.4185314178e+00
 1.0927195074e+00	 2.6756135392e-01	 2.4508427957e+00
 1.0873638784e+00	 2.8855639991e-01	 2.4782433255e+00
 1.0815738280e+00	 3.0955299173e-01	 2.5011147908e+00
 1.0753461519e+00	 3.3053842995e-01	 2.5198586515e+00
 1.0686781139e+00	 3.5149977102e-01	 2.5348939316e+00
 1.0615674627e+00	 3.7242384749e-01	 2.5466548821e+00
 1.0540124487e+00	 3.9329728964e-01	 2.5555884253e+00
 1.0460118387e+00	 4.1410654828e-01	 2.5621513976e+00
 1.1185098566e+00	 2.0698297212e-01	 2.3419457274e+00
 1.1143885759e+00	 2.2813231235e-01	 2.3797860698e+00
 1.1098404175e+00	 2.4932007105e-01	 2.4110955205e+00
 1.1048608353e+00	 2.7053425785e-01	 2.4362181657e+00
 1.0994456993e+00	 2.9176258213e-01	 2.4555250988e+00
 1.0935913150e+00	 3.1299246941e-01	 2.4694128590e+00
 1.0872944425e+00	 3.3421107917e-01	 2.4783016161e+00
 1.0805523151e+00	 3.5540532403e-01	 2.4826331011e+00
 1.0733626567e+00	 3.7656189024e-01	 2.4828682908e+00
 1.0657236981e+00	 3.9766725953e-01	 2.4794848541e+00
 1.0576341925e+00	 4.1870773215e-01	 2.4729743712e+00
 1.1308011737e+00	 2.0925751027e-01	 2.3585285486e+00
 1.1266346042e+00	 2.3063926084e-01	 2.3910711612e+00
 1.1220364660e+00	 2.5205985205e-01	 2.4161748864e+00
 1.1170021632e+00	 2.7350716179e-01	 2.4341912037e+00
 1.1115275202e+00	 2.9496876435e-01	 2.4455023926e+00
 1.1056088019e+00	 3.1643194710e-01	 2.4505200512e+00
 1.0992427330e+00	 3.3788372839e-01	 2.4496833406e+00
 1.0924265164e+00	 3.5931087704e-01	 2.4434569567e+00
 1.0851578508e+00	 3.8069993299e-01	 2.4323288347e+00
 1.0774349476e+00	 4.0203722941e-01	 2.4168075935e+00
 1.0692565462e+00	 4.2330891602e-01	 2.3974197308e+00
 1.1430924908e+00	 2.1153204843e-01	 2.3871171455e+00
 1.1388806325e+00	 2.3314620932e-01	 2.4144110329e+00
 1.1342325145e+00	 2.5479963305e-01	 2.4333721708e+00
 1.1291434910e+00	 2.7648006572e-01	 2.4443597683e+00
 1.1236093411e+00	 2.9817494657e-01	 2.4477676129e+00
 1.1176262889e+00	 3.1987142478e-01	 2.4440226655e+00
 1.1111910236e+00	 3.4155637762e-01	 2.4335833633e+00
 1.1043007177e+00	 3.6321643005e-01	 2.4169376301e+00
 1.0969530448e+00	 3.8483797574e-01	 2.3946005980e+00
 1.0891461970e+00	 4.0640719929e-01	 2.3671120482e+00
 1.0808789000e+00	 4.2791009988e-01	 2.3350335797e+00
 1.1553838079e+00	 2.1380658658e-01	 2.4273379779e+00
 1.1511266608e+00	 2.3565315781e-01	 2.4494287532e+00
 1.1464285631e+00	 2.5753941405e-01	 2.4623064217e+00
 1.1412848189e+00	 2.7945296965e-01	 2.4663382573e+00
 1.1356911619e+00	 3.0138112879e-01	 2.4619298770e+00
 1.1296437759e+00	 3.2331090247e-01	 2.4495239102e+00
 1.1231393142e+00	 3.4522902683e-01	 2.4295983580e+00
 1.1161749189e+00	 3.6712198306e-01	 2.4026646396e+00
 1.1087482388e+00	 3.8897601848e-01	 2.3692653296e+00
 1.1008574464e+00	 4.1077716917e-01	 2.3299715921e+00
 1.0925012538e+00	 4.3251128375e-01	 2.2853803206e+00
 1.1676751250e+00	 2.1608112474e-01	 2.4788328326e+00
 1.1633726891e+00	 2.3816010630e-01	 2.4957628062e+00
 1.1586246116e+00	 2.6027919505e-01	 2.5026122167e+00
 1.1534261467e+00	 2.8242587358e-01	 2.4997567366e+00
 1.1477729828e+00	 3.0458731101e-01	 2.4876141335e+00
 1.1416612629e+00	 3.2675038015e-01	 2.4666430131e+00
 1.1350876048e+00	 3.4890167605e-01	 2.4373412313e+00
 1.1280491202e+00	 3.7102753607e-01	 2.4002439751e+00
 1.1205434329e+00	 3.9311406123e-01	 2.3559215135e+00
 1.1125686958e+00	 4.1514713906e-01	 2.3049766219e+00
 1.1041236075e+00	 4.3711246762e-01	 2.2480416920e+00
 1.1799664421e+00	 2.1835566290e-01	 2.5412580246e+00
 1.1756187174e+00	 2.4066705479e-01	 2.5530662892e+00
 1.1708206602e+00	 2.6301897605e-01	 2.5539388545e+00
 1.1655674746e+00	 2.8539877751e-01	 2.5442601242e+00
 1.1598548037e+00	 3.0779349323e-01	 2.5244603385e+00
 1.1536787499e+00	 3.3018985783e-01	 2.4950143879e+00
 1.1470358954e+00	 3.5257432527e-01	 2.4564402777e+00
 1.1399233214e+00	 3.7493308908e-01	 2.4092972403e+00
 1.1323386269e+00	 3.9725210398e-01	 2.3541834967e+00
 1.1242799453e+00	 4.1951710894e-01	 2.2917336709e+00
 1.1157459613e+00	 4.4171365148e-01	 2.2226158654e+00
 1.1922577592e+00	 2.2063020105e-01	 2.6142836488e+00
 1.1878647457e+00	 2.4317400327e-01	 2.6210061593e+00
 1.1830167087e+00	 2.6575875705e-01	 2.6159495960e+00
 1.1777088025e+00	 2.8837168144e-01	 2.5995074250e+00
 1.1719366245e+00	 3.1099967545e-01	 2.5721226811e+00
 1.1656962368e+00	 3.3362933551e-01	 2.5342868509e+00
 1.1589841859e+00	 3.5624697449e-01	 2.4865383864e+00
 1.1517975227e+00	 3.7883864208e-01	 2.4294608477e+00
 1.1441338209e+00	 4.0139014672e-01	 2.3636806723e+00
 1.1359911947e+00	 4.2388707882e-01	 2.2898645773e+00
 1.1273683150e+00	 4.4631483535e-01	 2.2087165983e+00
 1.2045490763e+00	 2.2290473921e-01	 2.6975928762e+00
 1.2001107741e+00	 2.4568095176e-01	 2.6992625263e+00
 1.1952127573e+00	 2.6849853805e-01	 2.6883209518e+00
 1.1898501303e+00	 2.9134458537e-01	 2.6651710115e+00
 1.1840184454e+00	 3.1420585767e-01	 2.6302688580e+00
 1.1777137238e+00	 3.3706881320e-01	 2.5841228863e+00
 1.1709324765e+00	 3.5991962371e-01	 2.5272922965e+00
 1.1636717240e+00	 3.8274419509e-01	 2.4603852630e+00
 1.1559290149e+00	 4.0552818947e-01	 2.3840567111e+00
 1.1477024441e+00	 4.2825704870e-01	 2.2990057029e+00
 1.1389906688e+00	 4.5091601921e-01	 2.2059724392e+00
 1.2168403934e+00	 2.2517927736e-01	 2.7908812942e+00
 1.2123568024e+00	 2.4818790024e-01	 2.7875279886e+00
 1.2074088058e+00	 2.7123831905e-01	 2.7707420131e+00
 1.2019914582e+00	 2.9431748930e-01	 2.7409359495e+00
 1.1961002663e+00	 3.1741203988e-01	 2.6985793908e+00
 1.1897312108e+00	 3.4050829088e-01	 2.6441979561e+00
 1.1828807671e+00	 3.6359227292e-01	 2.5783718975e+00
 1.1755459252e+00	 3.8664974809e-01	 2.5017342957e+00
 1.1677242090e+00	 4.0966623221e-01	 2.4149688407e+00
 1.1594136936e+00	 4.3262701858e-01	 2.3188072001e+00
 1.1506130226e+00	 4.5551720308e-01	 2.2140259801e+00
 1.2291317105e+00	 2.2745381552e-01	 2.8938562854e+00
 1.2246028307e+00	 2.5069484873e-01	 2.8855070084e+00
 1.2196048543e+00	 2.7397810005e-01	 2.8629138228e+00
 1.2141327860e+00	 2.9729039323e-01	 2.8264993624e+00
 1.2081820871e+00	 3.2061822210e-01	 2.7767469852e+00
 1.2017486978e+00	 3.4394776856e-01	 2.7141998510e+00
 1.1948290577e+00	 3.6726492214e-01	 2.6394595719e+00
 1.1874201265e+00	 3.9055530110e-01	 2.5531844315e+00
 1.1795194030e+00	 4.1380427495e-01	 2.4560871680e+00
 1.1711249430e+00	 4.3699698846e-01	 2.3489323218e+00
 1.1622353763e+00	 4.6011838694e-01	 2.2325331548e+00
 1.0460118387e+00	 4.1410654828e-01	 2.5621513976e+00
 1.0375649302e+00	 4.3483791872e-01	 2.5878713340e+00
 1.0286715642e+00	 4.5547756592e-01	 2.6013375464e+00
 1.0193321361e+00	 4.7601155058e-01	 2.6031570191e+00
 1.0095476063e+00	 4.9642585623e-01	 2.5939768600e+00
 9.9931950770e-01	 5.1670641719e-01	 2.5744810907e+00
 9.8864995322e-01	 5.3683914726e-01	 2.5453871475e+00
 9.7754164025e-01	 5.5680996903e-01	 2.5074421136e+00
 9.6599785412e-01	 5.7660484377e-01	 2.4614187093e+00
 9.5402246954e-01	 5.9620980170e-01	 2.4081110722e+00
 9.4161995014e-01	 6.1561097256e-01	 2.3483303567e+00
 1.0576341925e+00	 4.1870773215e-01	 2.4729743712e+00
 1.0490934295e+00	 4.3966945115e-01	 2.4874415536e+00
 1.0401012482e+00	 4.6053842777e-01	 2.4902038879e+00
 1.0306580488e+00	 4.8130056781e-01	 2.4818792052e+00
 1.0207648019e+00	 5.0194169907e-01	 2.4631241056e+00
 1.0104230578e+00	 5.2244759960e-01	 2.4346306535e+00
 9.9963495269e-01	 5.4280402667e-01	 2.3971227859e+00
 9.8840321402e-01	 5.6299674646e-01	 2.3513524573e+00
 9.7673116361e-01	 5.8301156425e-01	 2.2980955499e+00
 9.6462271920e-01	 6.0283435505e-01	 2.2381475778e+00
 9.5208239402e-01	 6.2245109447e-01	 2.1723192212e+00
 1.0692565462e+00	 4.2330891602e-01	 2.3974197308e+00
 1.0606219287e+00	 4.4450098358e-01	 2.4004238845e+00
 1.0515309323e+00	 4.6559928961e-01	 2.3922608454e+00
 1.0419839614e+00	 4.8658958503e-01	 2.3735598573e+00
 1.0319819975e+00	 5.0745754192e-01	 2.3449876174e+00
 1.0215266079e+00	 5.2818878201e-01	 2.3072448737e+00
 1.0106199522e+00	 5.4876890608e-01	 2.2610627383e+00
 9.9926478780e-01	 5.6918352389e-01	 2.2071987428e+00
 9.8746447310e-01	 5.8941828473e-01	 2.1464326635e+00
 9.7522296885e-01	 6.0945890840e-01	 2.0795621483e+00
 9.6254483791e-01	 6.2929121639e-01	 2.0073981803e+00
 1.0808789000e+00	 4.2791009988e-01	 2.3350335797e+00
 1.0721504279e+00	 4.4933251601e-01	 2.3263681768e+00
 1.0629606163e+00	 4.7066015145e-01	 2.3070623342e+00
 1.0533098740e+00	 4.9187860226e-01	 2.2777572740e+00
 1.0431991931e+00	 5.1297338476e-01	 2.2391303943e+00
 1.0326301579e+00	 5.3392996442e-01	 2.1918917654e+00
 1.0216049516e+00	 5.5473378549e-01	 2.1367803463e+00
 1.0101263616e+00	 5.7537030132e-01	 2.0745599466e+00
 9.9819778258e-01	 5.9582500522e-01	 2.0060149650e+00
 9.8582321851e-01	 6.1608346175e-01	 1.9319459347e+00
 9.7300728180e-01	 6.3613133830e-01	 1.8531649128e+00
 1.0925012538e+00	 4.3251128375e-01	 2.2853803206e+00
 1.0836789271e+00	 4.5416404844e-01	 2.2648423541e+00
 1.0743903004e+00	 4.7572101329e-01	 2.2341801043e+00
 1.0646357866e+00	 4.9716761948e-01	 2.1940473372e+00
 1.0544163887e+00	 5.1848922761e-01	 2.1451327539e+00
 1.0437337080e+00	 5.3967114683e-01	 2.0881563840e+00
 1.0325899511e+00	 5.6069866490e-01	 2.0238657024e+00
 1.0209879354e+00	 5.8155707875e-01	 1.9530314951e+00
 1.0089310921e+00	 6.0223172570e-01	 1.8764435069e+00
 9.9642346817e-01	 6.2270801510e-01	 1.7949059024e+00
 9.8346972568e-01	 6.4297146021e-01	 1.7092325783e+00
 1.1041236075e+00	 4.3711246762e-01	 2.2480416920e+00
 1.0952074264e+00	 4.5899558086e-01	 2.2154314628e+00
 1.0858199844e+00	 4.8078187513e-01	 2.1732028027e+00
 1.0759616992e+00	 5.0245663671e-01	 2.1220225866e+00
 1.0656335844e+00	 5.2400507045e-01	 2.0625914203e+00
 1.0548372581e+00	 5.4541232925e-01	 1.9956399288e+00
 1.0435749506e+00	 5.6666354432e-01	 1.9219247693e+00
 1.0318495091e+00	 5.8774385618e-01	 1.8422243994e+00
 1.0196644016e+00	 6.0863844618e-01	 1.7573346300e+00
 1.0070237178e+00	 6.2933256845e-01	 1.6680639989e+00
 9.9393216957e-01	 6.4981158213e-01	 1.5752290023e+00
 1.1157459613e+00	 4.4171365148e-01	 2.2226158654e+00
 1.1067359256e+00	 4.6382711329e-01	 2.1777367801e+00
 1.0972496685e+00	 4.8584273697e-01	 2.1237350925e+00
 1.0872876119e+00	 5.0774565394e-01	 2.0612913519e+00
 1.0768507800e+00	 5.2952091329e-01	 1.9911186704e+00
 1.0659408082e+00	 5.5115351166e-01	 1.9139589024e+00
 1.0545599501e+00	 5.7262842373e-01	 1.8305785529e+00
 1.0427110829e+00	 5.9393063361e-01	 1.7417644431e+00
 1.0303977110e+00	 6.1504516667e-01	 1.6483191669e+00
 1.0176239675e+00	 6.3595712180e-01	 1.5510563732e+00
 1.0043946135e+00	 6.5665170405e-01	 1.4507959125e+00
 1.1273683150e+00	 4.4631483535e-01	 2.2087165983e+00
 1.1182644248e+00	 4.6865864572e-01	 2.1513749774e+00
 1.1086793525e+00	 4.9090359881e-01	 2.0853968278e+00
 1.0986135245e+00	 5.1303467116e-01	 2.0114769394e+00
 1.0880679756e+00	 5.3503675614e-01	 1.9303415316e+00
 1.0770443583e+00	 5.5689469407e-01	 1.8427443220e+00
 1.0655449496e+00	 5.7859330314e-01	 1.7494623267e+00
 1.0535726567e+00	 6.0011741104e-01	 1.6512914210e+00
 1.0411310205e+00	 6.2145188715e-01	 1.5490416955e+00
 1.0282242171e+00	 6.4258167515e-01	 1.4435326439e+00
 1.0148570573e+00	 6.6349182596e-01	 1.3355882220e+00
 1.1389906688e+00	 4.5091601921e-01	 2.2059724392e+00
 1.1297929240e+00	 4.7349017814e-01	 2.1359773349e+00
 1.1201090366e+00	 4.9596446065e-01	 2.0578222786e+00
 1.1099394371e+00	 5.1832368839e-01	 1.9722168674e+00
 1.0992851712e+00	 5.4055259898e-01	 1.8799010294e+00
 1.0881479084e+00	 5.6263587648e-01	 1.7816409786e+00
 1.0765299490e+00	 5.8455818255e-01	 1.6782249044e+00
 1.0644342305e+00	 6.0630418848e-01	 1.5704584244e+00
 1.0518643300e+00	 6.2785860764e-01	 1.4591598372e+00
 1.0388244668e+00	 6.4920622850e-01	 1.3451552122e+00
 1.0253195012e+00	 6.7033194788e-01	 1.2292733568e+00
 1.1506130226e+00	 4.5551720308e-01	 2.2140259801e+00
 1.1413214233e+00	 4.7832171057e-01	 2.1311890036e+00
 1.1315387206e+00	 5.0102532249e-01	 2.0406594024e+00
 1.1212653497e+00	 5.2361270561e-01	 1.9431621488e+00
 1.1105023669e+00	 5.4606844183e-01	 1.8394514806e+00
 1.0992514584e+00	 5.6837705889e-01	 1.7303067415e+00
 1.0875149485e+00	 5.9052306196e-01	 1.6165279554e+00
 1.0752958043e+00	 6.1249096591e-01	 1.4989311691e+00
 1.0625976395e+00	 6.3426532812e-01	 1.3783435984e+00
 1.0494247165e+00	 6.5583078185e-01	 1.2555986159e+00
 1.0357819451e+00	 6.7717206979e-01	 1.1315306237e+00
 1.1622353763e+00	 4.6011838694e-01	 2.2325331548e+00
 1.1528499225e+00	 4.8315324299e-01	 2.1366683120e+00
 1.1429684046e+00	 5.0608618433e-01	 2.0335691604e+00
 1.1325912624e+00	 5.2890172284e-01	 1.9239766158e+00
 1.1217195625e+00	 5.5158428467e-01	 1.8086598285e+00
 1.1103550085e+00	 5.7411824130e-01	 1.6884119043e+00
 1.0984999480e+00	 5.9648794137e-01	 1.5640453626e+00
 1.0861573780e+00	 6.1867774334e-01	 1.4363873649e+00
 1.0733309490e+00	 6.4067204861e-01	 1.3062747512e+00
 1.0600249661e+00	 6.6245533520e-01	 1.1745489229e+00
 1.0462443890e+00	 6.8401219171e-01	 1.0420506162e+00
 9.4161995014e-01	 6.1561097256e-01	 2.3483303567e+00
 9.2879534623e-01	 6.3479461628e-01	 2.2937720363e+00
 9.1555429058e-01	 6.5374715376e-01	 2.2233335495e+00
 9.0190299231e-01	 6.7245519740e-01	 2.1381371498e+00
 8.8784822886e-01	 6.9090558151e-01	 2.0393498571e+00
 8.7339733604e-01	 7.0908539221e-01	 1.9281778154e+00
 8.5855819624e-01	 7.2698199683e-01	 1.8058604459e+00
 8.4333922472e-01	 7.4458307267e-01	 1.6736644424e+00
 8.2774935416e-01	 7.6187663485e-01	 1.5328776564e+00
 8.1179801747e-01	 7.7885106335e-01	 1.3848029175e+00
 7.9549512885e-01	 7.9549512885e-01	 1.2307518388e+00
 9.5208239402e-01	 6.2245109447e-01	 2.1723192212e+00
 9.3911529451e-01	 6.4184788979e-01	 2.1149222986e+00
 9.2572711602e-01	 6.6101101102e-01	 2.0424813210e+00
 9.1192413666e-01	 6.7992692181e-01	 1.9560779532e+00
 8.9771320917e-01	 6.9858231019e-01	 1.8568357107e+00
 8.8310175088e-01	 7.1696411878e-01	 1.7459144394e+00
 8.6809773175e-01	 7.3505957457e-01	 1.6245046074e+00
 8.5270966054e-01	 7.5285621791e-01	 1.4938214577e+00
 8.3694656920e-01	 7.7034193079e-01	 1.3550990647e+00
 8.2081799544e-01	 7.8750496405e-01	 1.2095843430e+00
 8.0433396361e-01	 8.0433396361e-01	 1.0585310546e+00
 9.6254483791e-01	 6.2929121639e-01	 2.0073981803e+00
 9.4943524280e-01	 6.4890116330e-01	 1.9465555209e+00
 9.3589994147e-01	 6.6827486828e-01	 1.8714946105e+00
 9.2194528102e-01	 6.8739864622e-01	 1.7832579208e+00
 9.0757818949e-01	 7.0625903887e-01	 1.6829268830e+00
 8.9280616572e-01	 7.2484284536e-01	 1.5716164830e+00
 8.7763726726e-01	 7.4313715231e-01	 1.4504696871e+00
 8.6208009637e-01	 7.6112936316e-01	 1.3206517440e+00
 8.4614378425e-01	 7.7880722673e-01	 1.1833444084e+00
 8.2983797340e-01	 7.9615886475e-01	 1.0397401309e+00
 8.1317279837e-01	 8.1317279837e-01	 8.9103626232e-01
 9.7300728180e-01	 6.3613133830e-01	 1.8531649128e+00
 9.5975519109e-01	 6.5595443681e-01	 1.7882863291e+00
 9.4607276692e-01	 6.7553872554e-01	 1.7100054653e+00
 9.3196642537e-01	 6.9487037063e-01	 1.6193269680e+00
 9.1744316981e-01	 7.1393576755e-01	 1.5172915749e+00
 9.0251058056e-01	 7.3272157193e-01	 1.4049708196e+00
 8.8717680277e-01	 7.5121473005e-01	 1.2834615854e+00
 8.7145053220e-01	 7.6940250841e-01	 1.1538805508e+00
 8.5534099929e-01	 7.8727252267e-01	 1.0173585736e+00
 8.3885795137e-01	 8.0481276545e-01	 8.7503505679e-01
 8.2201163313e-01	 8.2201163313e-01	 7.2805234287e-01
 9.8346972568e-01	 6.4297146021e-01	 1.7092325783e+00
 9.7007513938e-01	 6.6300771033e-01	 1.6397440556e+00
 9.5624559236e-01	 6.8280258280e-01	 1.5576598472e+00
 9.4198756973e-01	 7.0234209505e-01	 1.4639481165e+00
 9.2730815012e-01	 7.2161249623e-01	 1.3596102706e+00
 9.1221499541e-01	 7.4060029851e-01	 1.2456757698e+00
 8.9671633828e-01	 7.5929230779e-01	 1.1231968028e+00
 8.8082096802e-01	 7.7767565366e-01	 9.9324287029e-01
 8.6453821433e-01	 7.9573781861e-01	 8.5689532368e-01
 8.4787792934e-01	 8.1346666615e-01	 7.1524190076e-01
 8.3085046789e-01	 8.3085046789e-01	 5.6937130476e-01
 9.9393216957e-01	 6.4981158213e-01	 1.5752290023e+00
 9.8039508766e-01	 6.7006098384e-01	 1.5005719648e+00
 9.6641841781e-01	 6.9006644006e-01	 1.4141168998e+00
 9.5200871408e-01	 7.0981381946e-01	 1.3167968041e+00
 9.3717313044e-01	 7.2928922491e-01	 1.2095750912e+00
 9.2191941025e-01	 7.4847902509e-01	 1.0934404992e+00
 9.0625587379e-01	 7.6736988553e-01	 9.6940188181e-01
 8.9019140385e-01	 7.8594879891e-01	 8.3848292457e-01
 8.7373542937e-01	 8.0420311455e-01	 7.0171683169e-01
 8.5689790731e-01	 8.2212056685e-01	 5.6014102639e-01
 8.3968930266e-01	 8.3968930266e-01	 4.1479190867e-01
 1.0043946135e+00	 6.5665170405e-01	 1.4507959125e+00
 9.9071503595e-01	 6.7711425735e-01	 1.3704265277e+00
 9.7659124326e-01	 6.9733029732e-01	 1.2790482618e+00
 9.6202985844e-01	 7.1728554387e-01	 1.1775602382e+00
 9.4703811076e-01	 7.3696595359e-01	 1.0668891885e+00
 9.3162382509e-01	 7.5635775167e-01	 9.4798445358e-01
 9.1579540930e-01	 7.7544746327e-01	 8.2181288432e-01
 8.9956183968e-01	 7.9422194416e-01	 6.8935368499e-01
 8.8293264442e-01	 8.1266841049e-01	 5.5159324256e-01
 8.6591788528e-01	 8.3077446755e-01	 4.0951998568e-01
 8.4852813742e-01	 8.4852813742e-01	 2.6411931590e-01
 1.0148570573e+00	 6.6349182596e-01	 1.3355882220e+00
 1.0010349842e+00	 6.8416753086e-01	 1.2489767412e+00
 9.8676406871e-01	 7.0459415459e-01	 1.1521374235e+00
 9.7205100279e-01	 7.2475726829e-01	 1.0459367894e+00
 9.5690309108e-01	 7.4464268227e-01	 9.3126617669e-01
 9.4132823993e-01	 7.6423647825e-01	 8.0903682891e-01
 9.2533494481e-01	 7.8352504101e-01	 6.8017490051e-01
 9.0893227550e-01	 8.0249508941e-01	 5.4561642111e-01
 8.9212985946e-01	 8.2113370643e-01	 4.0630226208e-01
 8.7493786325e-01	 8.3942836826e-01	 2.6317314852e-01
 8.5736697218e-01	 8.5736697218e-01	 1.1716475836e-01
 1.0253195012e+00	 6.7033194788e-01	 1.2292733568e+00
 1.0113549325e+00	 6.9122080438e-01	 1.1359034889e+00
 9.9693689416e-01	 7.1185801185e-01	 1.0330791214e+00
 9.8207214715e-01	 7.3222899270e-01	 9.2163542131e-01
 9.6676807139e-01	 7.5231941096e-01	 8.0242959801e-01
 9.5103265477e-01	 7.7211520483e-01	 6.7633607396e-01
 9.3487448032e-01	 7.9160261875e-01	 5.4424158846e-01
 9.1830271133e-01	 8.1076823466e-01	 4.0704027733e-01
 9.0132707451e-01	 8.2959900237e-01	 2.6562877120e-01
 8.8395784122e-01	 8.4808226896e-01	 1.2090135483e-01
 8.6620580695e-01	 8.6620580695e-01	-2.6254771093e-02
 1.0357819451e+00	 6.7717206979e-01	 1.1315306237e+00
 1.0216748808e+00	 6.9827407789e-01	 1.0308989409e+00
 1.0071097196e+00	 7.1912186911e-01	 9.2157877089e-01
 9.9209329151e-01	 7.3970071712e-01	 8.0437515615e-01
 9.7663305171e-01	 7.5999613964e-01	 6.8011242185e-01
 9.6073706962e-01	 7.7999393141e-01	 5.4962942295e-01
 9.4441401583e-01	 7.9968019649e-01	 4.1377474132e-01
 9.2767314716e-01	 8.1904137991e-01	 2.7340187518e-01
 9.1052428955e-01	 8.3806429832e-01	 1.2936446360e-01
 8.9297781919e-01	 8.5673616966e-01	-1.7488412170e-02
 8.7504464171e-01	 8.7504464171e-01	-1.6631680966e-01
 1.0462443890e+00	 6.8401219171e-01	 1.0420506162e+00
 1.0319948291e+00	 7.0532735141e-01	 9.3366598939e-01
 1.0172825451e+00	 7.2638572638e-01	 8.1735193184e-01
 1.0021144359e+00	 7.4717244154e-01	 6.9388457153e-01
 9.8649803203e-01	 7.6767286833e-01	 5.6405657311e-01
 9.7044148446e-01	 7.8787265799e-01	 4.2867245628e-01
 9.5395355135e-01	 8.0775777424e-01	 2.8854388061e-01
 9.3704358299e-01	 8.2731452517e-01	 1.4448493946e-01
 9.1972150459e-01	 8.4652959426e-01	-2.6924948900e-03
 9.0199779716e-01	 8.6539007037e-01	-1.5218333317e-01
 8.8388347647e-01	 8.8388347647e-01	-3.0319369805e-01
 7.9549512885e-01	 7.9549512885e-01	 1.2307518388e+00
 7.7885106335e-01	 8.1179801747e-01	 1.0874700110e+00
 7.6187663485e-01	 8.2774935416e-01	 9.3105893494e-01
 7.4458307267e-01	 8.4333922472e-01	 7.6297089654e-01
 7.2698199683e-01	 8.5855819624e-01	 5.8468228314e-01
 7.0908539221e-01	 8.7339733604e-01	 3.9768704352e-01
 6.9090558151e-01	 8.8784822886e-01	 2.0349019035e-01
 6.7245519740e-01	 9.0190299231e-01	 3.6013891990e-03
 6.5374715376e-01	 9.1555429058e-01	-2.0047132385e-01
 6.3479461628e-01	 9.2879534623e-01	-4.0722765655e-01
 6.1561097256e-01	 9.4161995014e-01	-6.1518096976e-01
 8.0433396361e-01	 8.0433396361e-01	 1.0585310546e+00
 7.8750496405e-01	 8.2081799544e-01	 9.2005205172e-01
 7.7034193079e-01	 8.3694656920e-01	 7.6963498989e-01
 7.5285621791e-01	 8.5270966054e-01	 6.0868924039e-01
 7.3505957457e-01	 8.6809773175e-01	 4.3864410626e-01
 7.1696411878e-01	 8.8310175088e-01	 2.6094247477e-01
 6.9858231019e-01	 8.9771320917e-01	 7.7034535673e-02
 6.7992692181e-01	 9.1192413666e-01	-1.1162839230e-01
 6.6101101102e-01	 9.2572711602e-01	-3.0359988636e-01
 6.4184788979e-01	 9.3911529451e-01	-4.9744425838e-01
 6.2245109447e-01	 9.5208239402e-01	-6.9174217265e-01
 8.1317279837e-01	 8.1317279837e-01	 8.9103626232e-01
 7.9615886475e-01	 8.2983797340e-01	 7.5690237938e-01
 7.7880722673e-01	 8.4614378425e-01	 6.1200677833e-01
 7.6112936316e-01	 8.6208009637e-01	 4.5771697707e-01
 7.4313715231e-01	 8.7763726726e-01	 2.9541627118e-01
 7.2484284536e-01	 8.9280616572e-01	 1.2649757467e-01
 7.0625903887e-01	 9.0757818949e-01	-4.7642650155e-02
 6.8739864622e-01	 9.2194528102e-01	-2.2561033280e-01
 6.6827486828e-01	 9.3589994147e-01	-4.0601956597e-01
 6.4890116330e-01	 9.4943524280e-01	-5.8749817265e-01
 6.2929121639e-01	 9.6254483791e-01	-7.6869303583e-01
 8.2201163313e-01	 8.2201163313e-01	 7.2805234287e-01
 8.0481276545e-01	 8.3885795137e-01	 5.9782009429e-01
 7.8727252267e-01	 8.5534099929e-01	 4.5798837063e-01
 7.6940250841e-01	 8.7145053220e-01	 3.0988386962e-01
 7.5121473005e-01	 8.8717680277e-01	 1.5484492617e-01
 7.3272157193e-01	 9.0251058056e-01	-5.7844626607e-03
 7.1393576755e-01	 9.1744316981e-01	-1.7066050029e-01
 6.9487037063e-01	 9.3196642537e-01	-3.3844530121e-01
 6.7553872554e-01	 9.4607276692e-01	-5.0781241276e-01
 6.5595443681e-01	 9.5975519109e-01	-6.7745211414e-01
 6.3613133830e-01	 9.7300728180e-01	-8.4607646184e-01
 8.3085046789e-01	 8.3085046789e-01	 5.6937130476e-01
 8.1346666615e-01	 8.4787792934e-01	 4.4261080167e-01
 7.9573781861e-01	 8.6453821433e-01	 3.0739969203e-01
 7.7767565366e-01	 8.8082096802e-01	 1.6502485974e-01
 7.5929230779e-01	 8.9671633828e-01	 1.6780697097e-02
 7.4060029851e-01	 9.1221499541e-01	-1.3603669007e-01
 7.2161249623e-01	 9.2730815012e-01	-2.9213514142e-01
 7.0234209505e-01	 9.4198756973e-01	-4.5023192706e-01
 6.8280258280e-01	 9.5624559236e-01	-6.0905902339e-01
 6.6300771033e-01	 9.7007513938e-01	-7.6736814765e-01
 6.4297146021e-01	 9.8346972568e-01	-9.2393552236e-01
 8.3968930266e-01	 8.3968930266e-01	 4.1479190867e-01
 8.2212056685e-01	 8.5689790731e-01	 2.9108626926e-01
 8.0420311455e-01	 8.7373542937e-01	 1.6006621451e-01
 7.8594879891e-01	 8.9019140385e-01	 2.2979795241e-02
 7.6736988553e-01	 9.0625587379e-01	-1.1892154825e-01
 7.4847902509e-01	 9.2191941025e-01	-2.6438860490e-01
 7.2928922491e-01	 9.3717313044e-01	-4.1217985199e-01
 7.0981381946e-01	 9.5200871408e-01	-5.6106671833e-01
 6.9006644006e-01	 9.6641841781e-01	-7.0983861767e-01
 6.7006098384e-01	 9.8039508766e-01	-8.5730772220e-01
 6.4981158213e-01	 9.9393216957e-01	-1.0023134493e+00
 8.4852813742e-01	 8.4852813742e-01	 2.6411931590e-01
 8.3077446755e-01	 8.6591788528e-01	 1.4306410636e-01
 8.1266841049e-01	 8.8293264442e-01	 1.5818667890e-02
 7.9422194416e-01	 8.9956183968e-01	-1.1640682546e-01
 7.7544746327e-01	 9.1579540930e-01	-2.5240292109e-01
 7.5635775167e-01	 9.3162382509e-01	-3.9096633414e-01
 7.3696595359e-01	 9.4703811076e-01	-5.3090521057e-01
 7.1728554387e-01	 9.6202985844e-01	-6.7104417198e-01
 6.9733029732e-01	 9.7659124326e-01	-8.1022911022e-01
 6.7711425735e-01	 9.9071503595e-01	-9.4733170308e-01
 6.5665170405e-01	 1.0043946135e+00	-1.0812536265e+00
 8.5736697218e-01	 8.5736697218e-01	 1.1716475836e-01
 8.3942836826e-01	 8.7493786325e-01	-1.6325372654e-03
 8.2113370643e-01	 8.9212985946e-01	-1.2550723117e-01
 8.0249508941e-01	 9.0893227550e-01	-2.5328609308e-01
 7.8352504101e-01	 9.2533494481e-01	-3.8380071890e-01
 7.6423647825e-01	 9.4132823993e-01	-5.1589280822e-01
 7.4464268227e-01	 9.5690309108e-01	-6.4841923498e-01
 7.2475726829e-01	 9.7205100279e-01	-7.8025687757e-01
 7.0459415459e-01	 9.8676406871e-01	-9.1030717776e-01
 6.8416753086e-01	 1.0010349842e+00	-1.0375004020e+00
 6.6349182596e-01	 1.0148570573e+00	-1.1607995818e+00
 8.6620580695e-01	 8.6620580695e-01	-2.6254771093e-02
 8.4808226896e-01	 8.8395784122e-01	-1.4317525412e-01
 8.2959900237e-01	 9.0132707451e-01	-2.6407103362e-01
 8.1076823466e-01	 9.1830271133e-01	-3.8780491253e-01
 7.9160261875e-01	 9.3487448032e-01	-5.1324862002e-01
 7.7211520483e-01	 9.5103265477e-01	-6.3928792403e-01
 7.5231941096e-01	 9.6676807139e-01	-7.6482751301e-01
 7.3222899270e-01	 9.8207214715e-01	-8.8879561460e-01
 7.1185801185e-01	 9.9693689416e-01	-1.0101483223e+00
 6.9122080438e-01	 1.0113549325e+00	-1.1278736052e+00
 6.7033194788e-01	 1.0253195012e+00	-1.2409949798e+00
 8.7504464171e-01	 8.7504464171e-01	-1.6631680966e-01
 8.5673616966e-01	 8.9297781919e-01	-2.8173064445e-01
 8.3806429832e-01	 9.1052428955e-01	-4.0002779706e-01
 8.1904137991e-01	 9.2767314716e-01	-5.2010621429e-01
 7.9968019649e-01	 9.4441401583e-01	-6.4087686642e-01
 7.7999393141e-01	 9.6073706962e-01	-7.6126869818e-01
 7.5999613964e-01	 9.7663305171e-01	-8.8023332507e-01
 7.3970071712e-01	 9.9209329151e-01	-9.9674944393e-01
 7.1912186911e-01	 1.0071097196e+00	-1.1098269304e+00
 6.9827407789e-01	 1.0216748808e+00	-1.2185106002e+00
 6.7717206979e-01	 1.0357819451e+00	-1.3218836149e+00
 8.8388347647e-01	 8.8388347647e-01	-3.0319369805e-01
 8.6539007037e-01	 9.0199779716e-01	-4.1746056591e-01
 8.4652959426e-01	 9.1972150459e-01	-5.3352831033e-01
 8.2731452517e-01	 9.3704358299e-01	-6.5032915314e-01
 8.0775777424e-01	 9.5395355135e-01	-7.6681243552e-01
 7.8787265799e-01	 9.7044148446e-01	-8.8194941099e-01
 7.6767286833e-01	 9.8649803203e-01	-9.9473775963e-01
 7.4717244154e-01	 1.0021144359e+00	-1.1042057937e+00
 7.2638572638e-01	 1.0172825451e+00	-1.2094163291e+00
 7.0532735141e-01	 1.0319948291e+00	-1.3094702006e+00
 6.8401219171e-01	 1.0462443890e+00	-1.4035094048e+00
 6.1561097256e-01	 9.4161995014e-01	-6.1518096976e-01
 5.9620980170e-01	 9.5402246954e-01	-8.2584473512e-01
 5.7660484377e-01	 9.6599785412e-01	-1.0371434396e+00
 5.5680996903e-01	 9.7754164025e-01	-1.2474465696e+00
 5.3683914726e-01	 9.8864995322e-01	-1.4551534845e+00
 5.1670641719e-01	 9.9931950770e-01	-1.6586988655e+00
 4.9642585623e-01	 1.0095476063e+00	-1.8565578076e+00
 4.7601155058e-01	 1.0193321361e+00	-2.0472505371e+00
 4.5547756592e-01	 1.0286715642e+00	-2.2293467398e+00
 4.3483791872e-01	 1.0375649302e+00	-2.4014694884e+00
 4.1410654828e-01	 1.0460118387e+00	-2.5622987616e+00
 6.2245109447e-01	 9.5208239402e-01	-6.9174217265e-01
 6.0283435505e-01	 9.6462271920e-01	-8.8678449122e-01
 5.8301156425e-01	 9.7673116361e-01	-1.0819581239e+00
 5.6299674646e-01	 9.8840321402e-01	-1.2757880905e+00
 5.4280402667e-01	 9.9963495269e-01	-1.4668288681e+00
 5.2244759960e-01	 1.0104230578e+00	-1.6536691998e+00
 5.0194169907e-01	 1.0207648019e+00	-1.8349365620e+00
 4.8130056781e-01	 1.0306580488e+00	-2.0093012773e+00
 4.6053842777e-01	 1.0401012482e+00	-2.1754802593e+00
 4.3966945115e-01	 1.0490934295e+00	-2.3322403847e+00
 4.1870773215e-01	 1.0576341925e+00	-2.4784014852e+00
 6.2929121639e-01	 9.6254483791e-01	-7.6869303583e-01
 6.0945890840e-01	 9.7522296885e-01	-9.4940465607e-01
 5.8941828473e-01	 9.8746447310e-01	-1.1297447960e+00
 5.6918352389e-01	 9.9926478780e-01	-1.3083916219e+00
 5.4876890608e-01	 1.0106199522e+00	-1.4840523897e+00
 5.2818878201e-01	 1.0215266079e+00	-1.6554676205e+00
 5.0745754192e-01	 1.0319819975e+00	-1.8214149509e+00
 4.8658958503e-01	 1.0419839614e+00	-1.9807126451e+00
 4.6559928961e-01	 1.0515309323e+00	-2.1322227638e+00
 4.4450098358e-01	 1.0606219287e+00	-2.2748539842e+00
 4.2330891602e-01	 1.0692565462e+00	-2.4075640705e+00
 6.3613133830e-01	 9.7300728180e-01	-8.4607646184e-01
 6.1608346175e-01	 9.8582321851e-01	-1.0137042280e+00
 5.9582500522e-01	 9.9819778258e-01	-1.1804582581e+00
 5.7537030132e-01	 1.0101263616e+00	-1.3451675630e+00
 5.5473378549e-01	 1.0216049516e+00	-1.5066899240e+00
 5.3392996442e-01	 1.0326301579e+00	-1.6639154420e+00
 5.1297338476e-01	 1.0431991931e+00	-1.8157697750e+00
 4.9187860226e-01	 1.0533098740e+00	-1.9612170578e+00
 4.7066015145e-01	 1.0629606163e+00	-2.0992624981e+00
 4.4933251601e-01	 1.0721504279e+00	-2.2289546502e+00
 4.2791009988e-01	 1.0808789000e+00	-2.3493873669e+00
 6.4297146021e-01	 9.8346972568e-01	-9.2393552236e-01
 6.2270801510e-01	 9.9642346817e-01	-1.0796842143e+00
 6.0223172570e-01	 1.0089310921e+00	-1.2340571688e+00
 5.8155707875e-01	 1.0209879354e+00	-1.3860320220e+00
 5.6069866490e-01	 1.0325899511e+00	-1.5346149088e+00
 5.3967114683e-01	 1.0437337080e+00	-1.6788433921e+00
 5.1848922761e-01	 1.0544163887e+00	-1.8177890942e+00
 4.9716761948e-01	 1.0646357866e+00	-1.9505600279e+00
 4.7572101329e-01	 1.0743903004e+00	-2.0763026259e+00
 4.5416404844e-01	 1.0836789271e+00	-2.1942034722e+00
 4.3251128375e-01	 1.0925012538e+00	-2.3034907394e+00
 6.4981158213e-01	 9.9393216957e-01	-1.0023134493e+00
 6.2933256845e-01	 1.0070237178e+00	-1.1473475254e+00
 6.0863844618e-01	 1.0196644016e+00	-1.2905038409e+00
 5.8774385618e-01	 1.0318495091e+00	-1.4309065162e+00
 5.6666354432e-01	 1.0435749506e+00	-1.5677079464e+00
 5.4541232925e-01	 1.0548372581e+00	-1.7000911171e+00
 5.2400507045e-01	 1.0656335844e+00	-1.8272716345e+00
 5.0245663671e-01	 1.0759616992e+00	-1.9484994732e+00
 4.8078187513e-01	 1.0858199844e+00	-2.0630604438e+00
 4.5899558086e-01	 1.0952074264e+00	-2.1702773858e+00
 4.3711246762e-01	 1.1041236075e+00	-2.2695110943e+00
 6.5665170405e-01	 1.0043946135e+00	-1.0812536265e+00
 6.3595712180e-01	 1.0176239675e+00	-1.2166988762e+00
 6.1504516667e-01	 1.0303977110e+00	-1.3497640508e+00
 5.9393063361e-01	 1.0427110829e+00	-1.4797176897e+00
 5.7262842373e-01	 1.0545599501e+00	-1.6058564308e+00
 5.5115351166e-01	 1.0659408082e+00	-1.7275067173e+00
 5.2952091329e-01	 1.0768507800e+00	-1.8440262330e+00
 5.0774565394e-01	 1.0872876119e+00	-1.9548050715e+00
 4.8584273697e-01	 1.0972496685e+00	-2.0592666459e+00
 4.6382711329e-01	 1.1067359256e+00	-2.1568683475e+00
 4.4171365148e-01	 1.1157459613e+00	-2.2471019653e+00
 6.6349182596e-01	 1.0148570573e+00	-1.1607995818e+00
 6.4258167515e-01	 1.0282242171e+00	-1.2877446923e+00
 6.2145188715e-01	 1.0411310205e+00	-1.4118068596e+00
 6.0011741104e-01	 1.0535726567e+00	-1.5323970496e+00
 5.7859330314e-01	 1.0655449496e+00	-1.6489541973e+00
 5.5689469407e-01	 1.0770443583e+00	-1.7609463108e+00
 5.3503675614e-01	 1.0880679756e+00	-1.8678713163e+00
 5.1303467116e-01	 1.0986135245e+00	-1.9692576539e+00
 4.9090359881e-01	 1.1086793525e+00	-2.0646646329e+00
 4.6865864572e-01	 1.1182644248e+00	-2.1536825604e+00
 4.4631483535e-01	 1.1273683150e+00	-2.2359326568e+00
 6.7033194788e-01	 1.0253195012e+00	-1.2409949798e+00
 6.4920622850e-01	 1.0388244668e+00	-1.3604930234e+00
 6.2785860764e-01	 1.0518643300e+00	-1.4766044463e+00
 6.0630418848e-01	 1.0644342305e+00	-1.5888807178e+00
 5.8455818255e-01	 1.0765299490e+00	-1.6969011941e+00
 5.6263587648e-01	 1.0881479084e+00	-1.8002736246e+00
 5.4055259898e-01	 1.0992851712e+00	-1.8986344115e+00
 5.1832368839e-01	 1.1099394371e+00	-1.9916486359e+00
 4.9596446065e-01	 1.1201090366e+00	-2.0790098637e+00
 4.7349017814e-01	 1.1297929240e+00	-2.1604397471e+00
 4.5091601921e-01	 1.1389906688e+00	-2.2356874389e+00
 6.7717206979e-01	 1.0357819451e+00	-1.3218836149e+00
 6.5583078185e-01	 1.0494247165e+00	-1.4349534609e+00
 6.3426532812e-01	 1.0625976395e+00	-1.5441319496e+00
 6.1249096591e-01	 1.0752958043e+00	-1.6491091977e+00
 5.9052306196e-01	 1.0875149485e+00	-1.7496031736e+00
 5.6837705889e-01	 1.0992514584e+00	-1.8453596107e+00
 5.4606844183e-01	 1.1105023669e+00	-1.9361516863e+00
 5.2361270561e-01	 1.1212653497e+00	-2.0217794828e+00
 5.0102532249e-01	 1.1315387206e+00	-2.1020692467e+00
 4.7832171057e-01	 1.1413214233e+00	-2.1768724671e+00
 4.5551720308e-01	 1.1506130226e+00	-2.2460647918e+00
 6.8401219171e-01	 1.0462443890e+00	-1.4035094048e+00
 6.6245533520e-01	 1.0600249661e+00	-1.5111370610e+00
 6.4067204861e-01	 1.0733309490e+00	-1.6143673203e+00
 6.1867774334e-01	 1.0861573780e+00	-1.7130271554e+00
 5.9648794137e-01	 1.0984999480e+00	-1.8069714019e+00
 5.7411824130e-01	 1.1103550085e+00	-1.8960820842e+00
 5.5158428467e-01	 1.1217195625e+00	-1.9802675174e+00
 5.2890172284e-01	 1.1325912624e+00	-2.0594612073e+00
 5.0608618433e-01	 1.1429684046e+00	-2.1336205671e+00
 4.8315324299e-01	 1.1528499225e+00	-2.2027254750e+00
 4.6011838694e-01	 1.1622353763e+00	-2.2667766950e+00
 4.1410654828e-01	 1.0460118387e+00	-2.5622987616e+00
 3.9329728964e-01	 1.0540124487e+00	-2.7657538587e+00
 3.7242384749e-01	 1.0615674627e+00	-2.9586383151e+00
 3.5149977102e-01	 1.0686781139e+00	-3.1401533097e+00
 3.3053842995e-01	 1.0753461519e+00	-3.3095469978e+00
 3.0955299173e-01	 1.0815738280e+00	-3.4661152464e+00
 2.8855639991e-01	 1.0873638784e+00	-3.6092021160e+00
 2.6756135392e-01	 1.0927195074e+00	-3.7382001048e+00
 2.4658029005e-01	 1.0976443689e+00	-3.8525501656e+00
 2.2562536386e-01	 1.1021425476e+00	-3.9517415131e+00
 2.0470843396e-01	 1.1062185395e+00	-4.0353112340e+00
 4.1870773215e-01	 1.0576341925e+00	-2.4784014852e+00
 3.9766725953e-01	 1.0657236981e+00	-2.6708658071e+00
 3.7656189024e-01	 1.0733626567e+00	-2.8520666142e+00
 3.5540532403e-01	 1.0805523151e+00	-3.0212820279e+00
 3.3421107917e-01	 1.0872944425e+00	-3.1778387176e+00
 3.1299246941e-01	 1.0935913150e+00	-3.3211122374e+00
 2.9176258213e-01	 1.0994456993e+00	-3.4505271176e+00
 2.7053425785e-01	 1.1048608353e+00	-3.5655567256e+00
 2.4932007105e-01	 1.1098404175e+00	-3.6657229120e+00
 2.2813231235e-01	 1.1143885759e+00	-3.7505954593e+00
 2.0698297212e-01	 1.1185098566e+00	-3.8197913493e+00
 4.2330891602e-01	 1.0692565462e+00	-2.4075640705e+00
 4.0203722941e-01	 1.0774349476e+00	-2.5895113482e+00
 3.8069993299e-01	 1.0851578508e+00	-2.7595203890e+00
 3.5931087704e-01	 1.0924265164e+00	-2.9169453179e+00
 3.3788372839e-01	 1.0992427330e+00	-3.0611903648e+00
 3.1643194710e-01	 1.1056088019e+00	-3.1917098071e+00
 2.9496876435e-01	 1.1115275202e+00	-3.3080076720e+00
 2.7350716179e-01	 1.1170021632e+00	-3.4096372172e+00
 2.5205985205e-01	 1.1220364660e+00	-3.4962002088e+00
 2.3063926084e-01	 1.1266346042e+00	-3.5673460134e+00
 2.0925751027e-01	 1.1308011737e+00	-3.6227705253e+00
 4.2791009988e-01	 1.0808789000e+00	-2.3493873669e+00
 4.0640719929e-01	 1.0891461970e+00	-2.5212716492e+00
 3.8483797574e-01	 1.0969530448e+00	-2.6805604060e+00
 3.6321643005e-01	 1.1043007177e+00	-2.8266828734e+00
 3.4155637762e-01	 1.1111910236e+00	-2.9591199373e+00
 3.1987142478e-01	 1.1176262889e+00	-3.0774036828e+00
 2.9817494657e-01	 1.1236093411e+00	-3.1811167099e+00
 2.7648006572e-01	 1.1291434910e+00	-3.2698912372e+00
 2.5479963305e-01	 1.1342325145e+00	-3.3434080126e+00
 2.3314620932e-01	 1.1388806325e+00	-3.4013950523e+00
 2.1153204843e-01	 1.1430924908e+00	-3.4436262291e+00
 4.3251128375e-01	 1.0925012538e+00	-2.3034907394e+00
 4.1077716917e-01	 1.1008574464e+00	-2.4657471654e+00
 3.8897601848e-01	 1.1087482388e+00	-2.6147675195e+00
 3.6712198306e-01	 1.1161749189e+00	-2.7500553030e+00
 3.4522902683e-01	 1.1231393142e+00	-2.8711671988e+00
 3.2331090247e-01	 1.1296437759e+00	-2.9777122308e+00
 3.0138112879e-01	 1.1356911619e+00	-3.0693506953e+00
 2.7945296965e-01	 1.1412848189e+00	-3.1457928893e+00
 2.5753941405e-01	 1.1464285631e+00	-3.2067976564e+00
 2.3565315781e-01	 1.1511266608e+00	-3.2521707747e+00
 2.1380658658e-01	 1.1553838079e+00	-3.2817632084e+00
 4.3711246762e-01	 1.1041236075e+00	-2.2695110943e+00
 4.1514713906e-01	 1.1125686958e+00	-2.4225566248e+00
 3.9311406123e-01	 1.1205434329e+00	-2.5617416152e+00
 3.7102753607e-01	 1.1280491202e+00	-2.6866430292e+00
 3.4890167605e-01	 1.1350876048e+00	-2.7968925329e+00
 3.2675038015e-01	 1.1416612629e+00	-2.8921752651e+00
 3.0458731101e-01	 1.1477729828e+00	-2.9722283870e+00
 2.8242587358e-01	 1.1534261467e+00	-3.0368394370e+00
 2.6027919505e-01	 1.1586246116e+00	-3.0858445139e+00
 2.3816010630e-01	 1.1633726891e+00	-3.1191263156e+00
 2.1608112474e-01	 1.1676751250e+00	-3.1366120552e+00
 4.4171365148e-01	 1.1157459613e+00	-2.2471019653e+00
 4.1951710894e-01	 1.1242799453e+00	-2.3913360765e+00
 3.9725210398e-01	 1.1323386269e+00	-2.5211006182e+00
 3.7493308908e-01	 1.1399233214e+00	-2.6360452566e+00
 3.5257432527e-01	 1.1470358954e+00	-2.7358758693e+00
 3.3018985783e-01	 1.1536787499e+00	-2.8203529299e+00
 3.0779349323e-01	 1.1598548037e+00	-2.8892896770e+00
 2.8539877751e-01	 1.1655674746e+00	-2.9425500971e+00
 2.6301897605e-01	 1.1708206602e+00	-2.9800467477e+00
 2.4066705479e-01	 1.1756187174e+00	-3.0017384474e+00
 2.1835566290e-01	 1.1799664421e+00	-3.0076278600e+00
 4.4631483535e-01	 1.1273683150e+00	-2.2359326568e+00
 4.2388707882e-01	 1.1359911947e+00	-2.3717379979e+00
 4.0139014672e-01	 1.1441338209e+00	-2.4924795638e+00
 3.7883864208e-01	 1.1517975227e+00	-2.5978790033e+00
 3.5624697449e-01	 1.1589841859e+00	-2.6877156763e+00
 3.3362933551e-01	 1.1656962368e+00	-2.7618246522e+00
 3.1099967545e-01	 1.1719366245e+00	-2.8200945015e+00
 2.8837168144e-01	 1.1777088025e+00	-2.8624649083e+00
 2.6575875705e-01	 1.1830167087e+00	-2.8889241340e+00
 2.4317400327e-01	 1.1878647457e+00	-2.8995063620e+00
 2.2063020105e-01	 1.1922577592e+00	-2.8942889492e+00
 4.5091601921e-01	 1.1389906688e+00	-2.2356874389e+00
 4.2825704870e-01	 1.1477024441e+00	-2.3634304565e+00
 4.0552818947e-01	 1.1559290149e+00	-2.4755297239e+00
 3.8274419509e-01	 1.1636717240e+00	-2.5717781928e+00
 3.5991962371e-01	 1.1709324765e+00	-2.6520280148e+00
 3.3706881320e-01	 1.1777137238e+00	-2.7161881575e+00
 3.1420585767e-01	 1.1840184454e+00	-2.7642218182e+00
 2.9134458537e-01	 1.1898501303e+00	-2.7961436686e+00
 2.6849853805e-01	 1.1952127573e+00	-2.8120169607e+00
 2.4568095176e-01	 1.2001107741e+00	-2.8119505261e+00
 2.2290473921e-01	 1.2045490763e+00	-2.7960956989e+00
 4.5551720308e-01	 1.1506130226e+00	-2.2460647918e+00
 4.3262701858e-01	 1.1594136936e+00	-2.3660963225e+00
 4.0966623221e-01	 1.1677242090e+00	-2.4699177876e+00
 3.8664974809e-01	 1.1755459252e+00	-2.5573927994e+00
 3.6359227292e-01	 1.1828807671e+00	-2.6284456500e+00
 3.4050829088e-01	 1.1897312108e+00	-2.6830585458e+00
 3.1741203988e-01	 1.1961002663e+00	-2.7212686456e+00
 2.9431748930e-01	 1.2019914582e+00	-2.7431649378e+00
 2.7123831905e-01	 1.2074088058e+00	-2.7488849906e+00
 2.4818790024e-01	 1.2123568024e+00	-2.7386116077e+00
 2.2517927736e-01	 1.2168403934e+00	-2.7125694222e+00
 4.6011838694e-01	 1.1622353763e+00	-2.2667766950e+00
 4.3699698846e-01	 1.1711249430e+00	-2.3794325286e+00
 4.1380427495e-01	 1.1795194030e+00	-2.4753250899e+00
 3.9055530110e-01	 1.1874201265e+00	-2.5543880462e+00
 3.6726492214e-01	 1.1948290577e+00	-2.6166172161e+00
 3.4394776856e-01	 1.2017486978e+00	-2.6620674230e+00
 3.2061822210e-01	 1.2081820871e+00	-2.6908491597e+00
 2.9729039323e-01	 1.2141327860e+00	-2.7031250987e+00
 2.7397810005e-01	 1.2196048543e+00	-2.6991064882e+00
 2.5069484873e-01	 1.2246028307e+00	-2.6790494650e+00
 2.2745381552e-01	 1.2291317105e+00	-2.6432513214e+00
 2.0470843396e-01	 1.1062185395e+00	-4.0353112340e+00
 1.8384104718e-01	 1.1098772317e+00	-4.1734096039e+00
 1.6303442514e-01	 1.1131238818e+00	-4.2928462215e+00
 1.4229945221e-01	 1.1159640971e+00	-4.3938980400e+00
 1.2164666491e-01	 1.1184038130e+00	-4.4768715348e+00
 1.0108624261e-01	 1.1204492722e+00	-4.5420998794e+00
 8.0627999683e-02	 1.1221070028e+00	-4.5899401767e+00
 6.0281378857e-02	 1.1233837970e+00	-4.6207707590e+00
 4.0055445982e-02	 1.1242866900e+00	-4.6349885713e+00
 1.9958885975e-02	 1.1248229385e+00	-4.6330066472e+00
 0.0000000000e+00	 1.1250000000e+00	-4.6152516902e+00
 2.0698297212e-01	 1.1185098566e+00	-3.8197913493e+00
 1.8588372548e-01	 1.1222092009e+00	-3.9497851601e+00
 1.6484591875e-01	 1.1254919249e+00	-4.0617264695e+00
 1.4388055723e-01	 1.1283636981e+00	-4.1558882894e+00
 1.2299829452e-01	 1.1308305220e+00	-4.2325725663e+00
 1.0220942309e-01	 1.1328987086e+00	-4.2921073519e+00
 8.1523866346e-02	 1.1345748584e+00	-4.3348440307e+00
 6.0951171955e-02	 1.1358658392e+00	-4.3611546207e+00
 4.0500506492e-02	 1.1367787643e+00	-4.3714291610e+00
 2.0180651374e-02	 1.1373209711e+00	-4.3660731960e+00
 0.0000000000e+00	 1.1375000000e+00	-4.3455053668e+00
 2.0925751027e-01	 1.1308011737e+00	-3.6227705253e+00
 1.8792640379e-01	 1.1345411702e+00	-3.7445165867e+00
 1.6665741236e-01	 1.1378599681e+00	-3.8488200813e+00
 1.4546166226e-01	 1.1407632992e+00	-3.9359504875e+00
 1.2434992413e-01	 1.1432572311e+00	-4.0062056176e+00
 1.0333260356e-01	 1.1453481449e+00	-4.0599087786e+00
 8.2419733010e-02	 1.1470427139e+00	-4.0974059967e+00
 6.1620965054e-02	 1.1483478814e+00	-4.1190633169e+00
 4.0945567004e-02	 1.1492708386e+00	-4.1252641944e+00
 2.0402416774e-02	 1.1498190038e+00	-4.1164069854e+00
 0.0000000000e+00	 1.1500000000e+00	-4.0929025495e+00
 2.1153204843e-01	 1.1430924908e+00	-3.4436262291e+00
 1.8996908209e-01	 1.1468731394e+00	-3.5569810161e+00
 1.6846890598e-01	 1.1502280112e+00	-3.6535038695e+00
 1.4704276728e-01	 1.1531629003e+00	-3.7334611461e+00
 1.2570155374e-01	 1.1556839401e+00	-3.7971469192e+00
 1.0445578404e-01	 1.1577975813e+00	-3.8448801313e+00
 8.3315599674e-02	 1.1595105695e+00	-3.8770018119e+00
 6.2290758153e-02	 1.1608299236e+00	-3.8938723765e+00
 4.1390627515e-02	 1.1617629130e+00	-3.8958690196e+00
 2.0624182174e-02	 1.1623170364e+00	-3.8833832123e+00
 0.0000000000e+00	 1.1625000000e+00	-3.8568183146e+00
 2.1380658658e-01	 1.1553838079e+00	-3.2817632084e+00
 1.9201176039e-01	 1.1592051086e+00	-3.3865827944e+00
 1.7028039959e-01	 1.1625960543e+00	-3.4751817941e+00
 1.4862387231e-01	 1.1655625014e+00	-3.5478238556e+00
 1.2705318335e-01	 1.1681106491e+00	-3.6047997122e+00
 1.0557896451e-01	 1.1702470176e+00	-3.6464243233e+00
 8.4211466338e-02	 1.1719784251e+00	-3.6730340859e+00
 6.2960551253e-02	 1.1733119658e+00	-3.6849841309e+00
 4.1835688027e-02	 1.1742549873e+00	-3.6826457174e+00
 2.0845947575e-02	 1.1748150691e+00	-3.6664037362e+00
 0.0000000000e+00	 1.1750000000e+00	-3.6366543307e+00
 2.1608112474e-01	 1.1676751250e+00	-3.1366120552e+00
 1.9405443870e-01	 1.1715370779e+00	-3.2327520497e+00
 1.7209189320e-01	 1.1749640975e+00	-3.3132835330e+00
 1.5020497734e-01	 1.1779621024e+00	-3.3784678606e+00
 1.2840481296e-01	 1.1805373582e+00	-3.4285928265e+00
 1.0670214499e-01	 1.1826964540e+00	-3.4639697913e+00
 8.5107333003e-02	 1.1844462807e+00	-3.4849308857e+00
 6.3630344353e-02	 1.1857940079e+00	-3.4918263029e+00
 4.2280748539e-02	 1.1867470616e+00	-3.4850216941e+00
 2.1067712975e-02	 1.1873131017e+00	-3.4648956755e+00
 0.0000000000e+00	 1.1875000000e+00	-3.4318374593e+00
 2.1835566290e-01	 1.1799664421e+00	-3.0076278600e+00
 1.9609711700e-01	 1.1838690471e+00	-3.0949433491e+00
 1.7390338682e-01	 1.1873321406e+00	-3.1672631428e+00
 1.5178608236e-01	 1.1903617035e+00	-3.2248467233e+00
 1.2975644257e-01	 1.1929640672e+00	-3.2679793483e+00
 1.0782532546e-01	 1.1951458903e+00	-3.2969691663e+00
 8.6003199669e-02	 1.1969141363e+00	-3.3121444101e+00
 6.4300137453e-02	 1.1982760501e+00	-3.3138506848e+00
 4.2725809052e-02	 1.1992391360e+00	-3.3024483622e+00
 2.1289478376e-02	 1.1998111344e+00	-3.2783100925e+00
 0.0000000000e+00	 1.2000000000e+00	-3.2418184429e+00
 2.2063020105e-01	 1.1922577592e+00	-2.8942889492e+00
 1.9813979530e-01	 1.1962010164e+00	-2.9726344387e+00
 1.7571488043e-01	 1.1997001837e+00	-3.0365978023e+00
 1.5336718739e-01	 1.2027613046e+00	-3.0864370700e+00
 1.3110807219e-01	 1.2053907762e+00	-3.1224353696e+00
 1.0894850594e-01	 1.2075953267e+00	-3.1448980262e+00
 8.6899066335e-02	 1.2093819919e+00	-3.1541497460e+00
 6.4969930554e-02	 1.2107580923e+00	-3.1505318971e+00
 4.3170869564e-02	 1.2117312103e+00	-3.1343999032e+00
 2.1511243776e-02	 1.2123091670e+00	-3.1061207586e+00
 0.0000000000e+00	 1.2125000000e+00	-3.0660706735e+00
 2.2290473921e-01	 1.2045490763e+00	-2.7960956989e+00
 2.0018247361e-01	 1.2085329856e+00	-2.8653250613e+00
 1.7752637405e-01	 1.2120682269e+00	-2.9207866326e+00
 1.5494829242e-01	 1.2151609057e+00	-2.9627374147e+00
 1.3245970180e-01	 1.2178174853e+00	-2.9914588143e+00
 1.1007168642e-01	 1.2200447631e+00	-3.0072537254e+00
 8.7794933001e-02	 1.2218498475e+00	-3.0104437002e+00
 6.5639723655e-02	 1.2232401345e+00	-3.0013662241e+00
 4.3615930078e-02	 1.2242232846e+00	-2.9803721060e+00
 2.1733009177e-02	 1.2248071996e+00	-2.9478229960e+00
 0.0000000000e+00	 1.2250000000e+00	-2.9040890376e+00
 2.2517927736e-01	 1.2168403934e+00	-2.7125694222e+00
 2.0222515191e-01	 1.2208649548e+00	-2.7725358456e+00
 1.7933786766e-01	 1.2244362700e+00	-2.8193495887e+00
 1.5652939745e-01	 1.2275605068e+00	-2.8532670531e+00
 1.3381133141e-01	 1.2302441943e+00	-2.8745683360e+00
 1.1119486689e-01	 1.2324941994e+00	-2.8835542944e+00
 8.8690799668e-02	 1.2343177030e+00	-2.8805437028e+00
 6.6309516757e-02	 1.2357221767e+00	-2.8658705198e+00
 4.4060990591e-02	 1.2367153590e+00	-2.8398812752e+00
 2.1954774578e-02	 1.2373052323e+00	-2.8029325890e+00
 0.0000000000e+00	 1.2375000000e+00	-2.7553888300e+00
 2.2745381552e-01	 1.2291317105e+00	-2.6432513214e+00
 2.0426783021e-01	 1.2331969241e+00	-2.6938072613e+00
 1.8114936128e-01	 1.2368043131e+00	-2.7318264185e+00
 1.5811050247e-01	 1.2399601078e+00	-2.7575650243e+00
 1.3516296103e-01	 1.2426709033e+00	-2.7713022812e+00
 1.1231804737e-01	 1.2449436358e+00	-2.7733374066e+00
 8.9586666336e-02	 1.2467855586e+00	-2.7639867758e+00
 6.6979309859e-02	 1.2482042189e+00	-2.7435811795e+00
 4.4506051105e-02	 1.2492074333e+00	-2.7124632060e+00
 2.2176539980e-02	 1.2498032649e+00	-2.6709847615e+00
 0.0000000000e+00	 1.2500000000e+00	-2.6195047339e+00
 1.2500000000e+00	 0.0000000000e+00	 2.9622382636e+00
 1.2498032649e+00	 2.2176539980e-02	 3.0141725200e+00
 1.2492074333e+00	 4.4506051105e-02	 3.0529554639e+00
 1.2482042189e+00	 6.6979309859e-02	 3.0785352075e+00
 1.2467855586e+00	 8.9586666336e-02	 3.0909069590e+00
 1.2449436358e+00	 1.1231804737e-01	 3.0901148816e+00
 1.2426709033e+00	 1.3516296103e-01	 3.0762537406e+00
 1.2399601078e+00	 1.5811050247e-01	 3.0494703122e+00
 1.2368043131e+00	 1.8114936128e-01	 3.0099645308e+00
 1.2331969241e+00	 2.0426783021e-01	 2.9579903481e+00
 1.2291317105e+00	 2.2745381552e-01	 2.8938562854e+00
 1.2625000000e+00	 0.0000000000e+00	 2.9622276889e+00
 1.2623012976e+00	 2.2398305381e-02	 3.0104541055e+00
 1.2616995076e+00	 4.4951111618e-02	 3.0390492560e+00
 1.2606862611e+00	 6.7649102962e-02	 3.0484689760e+00
 1.2592534142e+00	 9.0482533003e-02	 3.0392128439e+00
 1.2573930721e+00	 1.1344122785e-01	 3.0118239700e+00
 1.2550976124e+00	 1.3651459064e-01	 2.9668886209e+00
 1.2523597089e+00	 1.5969160750e-01	 2.9050356716e+00
 1.2491723562e+00	 1.8296085490e-01	 2.8390267662e+00
 1.2455288933e+00	 2.0631050852e-01	 2.7964216970e+00
 1.2414230276e+00	 2.2972835367e-01	 2.7418489562e+00
 1.2750000000e+00	 0.0000000000e+00	 2.9692426182e+00
 1.2747993302e+00	 2.2620070782e-02	 3.0171000492e+00
 1.2741915820e+00	 4.5396172132e-02	 3.0457421675e+00
 1.2731683033e+00	 6.8318896063e-02	 3.0556217096e+00
 1.2717212698e+00	 9.1378399670e-02	 3.0472335456e+00
 1.2698425085e+00	 1.1456440833e-01	 3.0211144262e+00
 1.2675243214e+00	 1.3786622026e-01	 2.9778425702e+00
 1.2647593100e+00	 1.6127271253e-01	 2.9180370889e+00
 1.2615403994e+00	 1.8477234851e-01	 2.8423572408e+00
 1.2578608626e+00	 2.0835318682e-01	 2.7515015135e+00
 1.2537143447e+00	 2.3200289183e-01	 2.6462065287e+00
 1.2875000000e+00	 0.0000000000e+00	 2.9830476599e+00
 1.2872973629e+00	 2.2841836183e-02	 3.0302602020e+00
 1.2866836563e+00	 4.5841232645e-02	 3.0586659939e+00
 1.2856503455e+00	 6.8988689165e-02	 3.0687148432e+00
 1.2841891254e+00	 9.2274266337e-02	 3.0608970985e+00
 1.2822919448e+00	 1.1568758880e-01	 3.0357433547e+00
 1.2799510304e+00	 1.3921784987e-01	 2.9938240048e+00
 1.2771589111e+00	 1.6285381756e-01	 2.9357486366e+00
 1.2739084425e+00	 1.8658384213e-01	 2.8621652670e+00
 1.2701928318e+00	 2.1039586513e-01	 2.7737594135e+00
 1.2660056618e+00	 2.3427742998e-01	 2.6712529966e+00
 1.3000000000e+00	 0.0000000000e+00	 3.0034164758e+00
 1.2997953955e+00	 2.3063601584e-02	 3.0497153659e+00
 1.2991757306e+00	 4.6286293158e-02	 3.0776089464e+00
 1.2981323876e+00	 6.9658482265e-02	 3.0875442588e+00
 1.2966569810e+00	 9.3170133003e-02	 3.0800073099e+00
 1.2947413812e+00	 1.1681076928e-01	 3.0555227347e+00
 1.2923777395e+00	 1.4056947948e-01	 3.0146533135e+00
 1.2895585121e+00	 1.6443492259e-01	 2.9579993401e+00
 1.2862764856e+00	 1.8839533574e-01	 2.8861978377e+00
 1.2825248010e+00	 2.1243854343e-01	 2.7999216188e+00
 1.2782969789e+00	 2.3655196814e-01	 2.6998781867e+00
 1.3125000000e+00	 0.0000000000e+00	 3.0301313502e+00
 1.3122934282e+00	 2.3285366984e-02	 3.0752547314e+00
 1.3116678050e+00	 4.6731353670e-02	 3.1023673807e+00
 1.3106144298e+00	 7.0328275366e-02	 3.1119137306e+00
 1.3091248366e+00	 9.4065999669e-02	 3.1043756183e+00
 1.3071908176e+00	 1.1793394976e-01	 3.0802719070e+00
 1.3048044485e+00	 1.4192110910e-01	 3.0401579678e+00
 1.3019581132e+00	 1.6601602761e-01	 2.9846250211e+00
 1.2986445288e+00	 1.9020682936e-01	 2.9142993336e+00
 1.2948567703e+00	 2.1448122173e-01	 2.8298412670e+00
 1.2905882961e+00	 2.3882650630e-01	 2.7319441784e+00
 1.3250000000e+00	 0.0000000000e+00	 3.0629827830e+00
 1.3247914608e+00	 2.3507132385e-02	 3.1066754814e+00
 1.3241598793e+00	 4.7176414182e-02	 3.1327454133e+00
 1.3230964720e+00	 7.0998068466e-02	 3.1416345529e+00
 1.3215926922e+00	 9.4961866334e-02	 3.1338207334e+00
 1.3196402539e+00	 1.1905713023e-01	 3.1098172259e+00
 1.3172311575e+00	 1.4327273871e-01	 3.0701721878e+00
 1.3143577143e+00	 1.6759713264e-01	 3.0154679774e+00
 1.3110125719e+00	 1.9201832297e-01	 2.9463203312e+00
 1.3071887395e+00	 2.1652390004e-01	 2.8633774034e+00
 1.3028796132e+00	 2.4110104445e-01	 2.7673186647e+00
 1.3375000000e+00	 0.0000000000e+00	 3.1017691061e+00
 1.3372894935e+00	 2.3728897785e-02	 3.1437824178e+00
 1.3366519536e+00	 4.7621474694e-02	 3.1685545584e+00
 1.3355785142e+00	 7.1667861566e-02	 3.1765251888e+00
 1.3340605477e+00	 9.5857732998e-02	 3.1681682960e+00
 1.3320896903e+00	 1.2018031071e-01	 3.1439917319e+00
 1.3296578666e+00	 1.4462436832e-01	 3.1045366273e+00
 1.3267573154e+00	 1.6917823767e-01	 3.0503766797e+00
 1.3233806150e+00	 1.9382981658e-01	 2.9821173127e+00
 1.3195207088e+00	 2.1856657834e-01	 2.9003947052e+00
 1.3151709303e+00	 2.4337558261e-01	 2.8058746900e+00
 1.3500000000e+00	 0.0000000000e+00	 3.1462961203e+00
 1.3497875261e+00	 2.3950663185e-02	 3.1863876090e+00
 1.3491440280e+00	 4.8066535206e-02	 3.2096133861e+00
 1.3480605564e+00	 7.2337654665e-02	 3.2164109379e+00
 1.3465284033e+00	 9.6753599662e-02	 3.2072505574e+00
 1.3445391266e+00	 1.2130349118e-01	 3.1826348421e+00
 1.3420845756e+00	 1.4597599793e-01	 3.1430980751e+00
 1.3391569165e+00	 1.7075934269e-01	 3.0892054860e+00
 1.3357486581e+00	 1.9564131020e-01	 3.0215523927e+00
 1.3318526780e+00	 2.2060925664e-01	 2.9407632211e+00
 1.3274622474e+00	 2.4565012076e-01	 2.8474904026e+00
 1.3625000000e+00	 0.0000000000e+00	 3.1963767532e+00
 1.3622855588e+00	 2.4172428585e-02	 3.2343100563e+00
 1.3616361023e+00	 4.8511595717e-02	 3.2557471981e+00
 1.3605425986e+00	 7.3007447764e-02	 3.2611236233e+00
 1.3589962589e+00	 9.7649466326e-02	 3.2509060761e+00
 1.3569885630e+00	 1.2242667166e-01	 3.2255920578e+00
 1.3545112846e+00	 1.4732762754e-01	 3.1857091743e+00
 1.3515565175e+00	 1.7234044772e-01	 3.1318143719e+00
 1.3481167013e+00	 1.9745280381e-01	 3.0644930604e+00
 1.3441846472e+00	 2.2265193494e-01	 2.9843581244e+00
 1.3397535645e+00	 2.4792465892e-01	 2.8920488202e+00
 1.3750000000e+00	 0.0000000000e+00	 3.2518307350e+00
 1.3747835914e+00	 2.4394193985e-02	 3.2873753788e+00
 1.3741281766e+00	 4.8956656228e-02	 3.3067877217e+00
 1.3730246408e+00	 7.3677240862e-02	 3.3105012944e+00
 1.3714641145e+00	 9.8545332989e-02	 3.2989794310e+00
 1.3694379993e+00	 1.2354985213e-01	 3.2727146875e+00
 1.3669379937e+00	 1.4867925715e-01	 3.2322281560e+00
 1.3639561186e+00	 1.7392155274e-01	 3.1780686747e+00
 1.3604847444e+00	 1.9926429742e-01	 3.1108119344e+00
 1.3565166165e+00	 2.2469461325e-01	 3.0310594802e+00
 1.3520448816e+00	 2.5019919707e-01	 2.9394376091e+00
 1.2291317105e+00	 2.2745381552e-01	 2.8938562854e+00
 1.2246028307e+00	 2.5069484873e-01	 2.8855070084e+00
 1.2196048543e+00	 2.7397810005e-01	 2.8629138228e+00
 1.2141327860e+00	 2.9729039323e-01	 2.8264993624e+00
 1.2081820871e+00	 3.2061822210e-01	 2.7767469852e+00
 1.2017486978e+00	 3.4394776856e-01	 2.7141998510e+00
 1.1948290577e+00	 3.6726492214e-01	 2.6394595719e+00
 1.1874201265e+00	 3.9055530110e-01	 2.5531844315e+00
 1.1795194030e+00	 4.1380427495e-01	 2.4560871680e+00
 1.1711249430e+00	 4.3699698846e-01	 2.3489323218e+00
 1.1622353763e+00	 4.6011838694e-01	 2.2325331548e+00
 1.2414230276e+00	 2.2972835367e-01	 2.7418489562e+00
 1.2368488590e+00	 2.5320179722e-01	 2.7432973047e+00
 1.2318009029e+00	 2.7671788104e-01	 2.7300864470e+00
 1.2262741139e+00	 3.0026329716e-01	 2.7026232795e+00
 1.2202639080e+00	 3.2382440432e-01	 2.6613771295e+00
 1.2137661847e+00	 3.4738724624e-01	 2.6068789170e+00
 1.2067773482e+00	 3.7093757136e-01	 2.5397198821e+00
 1.1992943278e+00	 3.9446085410e-01	 2.4605498697e+00
 1.1913145970e+00	 4.1794231770e-01	 2.3700751692e+00
 1.1828361924e+00	 4.4136695834e-01	 2.2690559070e+00
 1.1738577301e+00	 4.6471957081e-01	 2.1583029982e+00
 1.2537143447e+00	 2.3200289183e-01	 2.6462065287e+00
 1.2490948873e+00	 2.5570874570e-01	 2.6069432635e+00
 1.2439969514e+00	 2.7945766204e-01	 2.6029352406e+00
 1.2384154418e+00	 3.0323620109e-01	 2.5842459593e+00
 1.2323457289e+00	 3.2703058654e-01	 2.5513312903e+00
 1.2257836717e+00	 3.5082672392e-01	 2.5047105073e+00
 1.2187256388e+00	 3.7461022057e-01	 2.4449650882e+00
 1.2111685290e+00	 3.9836640711e-01	 2.3727370641e+00
 1.2031097911e+00	 4.2208036044e-01	 2.2887269122e+00
 1.1945474419e+00	 4.4573692822e-01	 2.1936909903e+00
 1.1854800839e+00	 4.6932075467e-01	 2.0884385192e+00
 1.2660056618e+00	 2.3427742998e-01	 2.6712529966e+00
 1.2613409156e+00	 2.5821569419e-01	 2.6236121300e+00
 1.2561930000e+00	 2.8219744304e-01	 2.5589061049e+00
 1.2505567696e+00	 3.0620910502e-01	 2.4779339907e+00
 1.2444275498e+00	 3.3023676875e-01	 2.4464503705e+00
 1.2378011587e+00	 3.5426620160e-01	 2.4075377556e+00
 1.2306739294e+00	 3.7828286979e-01	 2.3550403085e+00
 1.2230427303e+00	 4.0227196012e-01	 2.2895928670e+00
 1.2149049851e+00	 4.2621840319e-01	 2.2118907285e+00
 1.2062586913e+00	 4.5010689810e-01	 2.1226871251e+00
 1.1971024376e+00	 4.7392193854e-01	 2.0227902326e+00
 1.2782969789e+00	 2.3655196814e-01	 2.6998781867e+00
 1.2735869439e+00	 2.6072264268e-01	 2.6555029139e+00
 1.2683890485e+00	 2.8493722404e-01	 2.5938358324e+00
 1.2626980975e+00	 3.0918200895e-01	 2.5156650045e+00
 1.2565093706e+00	 3.3344295097e-01	 2.4218238566e+00
 1.2498186457e+00	 3.5770567928e-01	 2.3152092010e+00
 1.2426222199e+00	 3.8195551901e-01	 2.2697959343e+00
 1.2349169316e+00	 4.0617751313e-01	 2.2109692794e+00
 1.2267001791e+00	 4.3035644594e-01	 2.1394199835e+00
 1.2179699407e+00	 4.5447686798e-01	 2.0558987925e+00
 1.2087247914e+00	 4.7852312241e-01	 1.9612134845e+00
 1.2905882961e+00	 2.3882650630e-01	 2.7319441784e+00
 1.2858329722e+00	 2.6322959116e-01	 2.6906444870e+00
 1.2805850970e+00	 2.8767700504e-01	 2.6318327090e+00
 1.2748394253e+00	 3.1215491288e-01	 2.5562861687e+00
 1.2685911915e+00	 3.3664913319e-01	 2.4648281938e+00
 1.2618361326e+00	 3.6114515697e-01	 2.3583268223e+00
 1.2545705105e+00	 3.8562816823e-01	 2.2376932860e+00
 1.2467911328e+00	 4.1008306613e-01	 2.1367232058e+00
 1.2384953731e+00	 4.3449448868e-01	 2.0711728364e+00
 1.2296811901e+00	 4.5884683786e-01	 1.9931851667e+00
 1.2203471452e+00	 4.8312430627e-01	 1.9035682224e+00
 1.3028796132e+00	 2.4110104445e-01	 2.7673186647e+00
 1.2980790005e+00	 2.6573653965e-01	 2.7289096343e+00
 1.2927811456e+00	 2.9041678604e-01	 2.6727744547e+00
 1.2869807532e+00	 3.1512781681e-01	 2.5996799693e+00
 1.2806730124e+00	 3.3985531541e-01	 2.5104396545e+00
 1.2738536196e+00	 3.6458463465e-01	 2.4059124193e+00
 1.2665188011e+00	 3.8930081745e-01	 2.2870011803e+00
 1.2586653341e+00	 4.1398861914e-01	 2.1546512080e+00
 1.2502905672e+00	 4.3863253143e-01	 2.0098482421e+00
 1.2413924396e+00	 4.6321680775e-01	 1.9344098935e+00
 1.2319694989e+00	 4.8772549014e-01	 1.8497187781e+00
 1.3151709303e+00	 2.4337558261e-01	 2.8058746900e+00
 1.3103250288e+00	 2.6824348814e-01	 2.7701763448e+00
 1.3049771941e+00	 2.9315656704e-01	 2.7165438522e+00
 1.2991220810e+00	 3.1810072074e-01	 2.6457338192e+00
 1.2927548332e+00	 3.4306149763e-01	 2.5585501070e+00
 1.2858711066e+00	 3.6802411234e-01	 2.4558427217e+00
 1.2784670917e+00	 3.9297346667e-01	 2.3385064809e+00
 1.2705395353e+00	 4.1789417216e-01	 2.2074794529e+00
 1.2620857612e+00	 4.4277057418e-01	 2.0637411627e+00
 1.2531036890e+00	 4.6758677763e-01	 1.9083105625e+00
 1.2435918527e+00	 4.9232667401e-01	 1.7995336629e+00
 1.3274622474e+00	 2.4565012076e-01	 2.8474904026e+00
 1.3225710571e+00	 2.7075043663e-01	 2.8143275707e+00
 1.3171732427e+00	 2.9589634804e-01	 2.7630285121e+00
 1.3112634089e+00	 3.2107362467e-01	 2.6943398305e+00
 1.3048366541e+00	 3.4626767985e-01	 2.6090559958e+00
 1.2978885936e+00	 3.7146359002e-01	 2.5080183257e+00
 1.2904153822e+00	 3.9664611589e-01	 2.3921137439e+00
 1.2824137366e+00	 4.2179972517e-01	 2.2622733113e+00
 1.2738809552e+00	 4.4690861693e-01	 2.1194705228e+00
 1.2648149384e+00	 4.7195674752e-01	 1.9647193680e+00
 1.2552142064e+00	 4.9692785789e-01	 1.7990721528e+00
 1.3397535645e+00	 2.4792465892e-01	 2.8920488202e+00
 1.3348170854e+00	 2.7325738511e-01	 2.8612509996e+00
 1.3293692912e+00	 2.9863612904e-01	 2.8121206518e+00
 1.3234047368e+00	 3.2404652861e-01	 2.7453945986e+00
 1.3169184750e+00	 3.4947386207e-01	 2.6618581315e+00
 1.3099060805e+00	 3.7490306771e-01	 2.5623440827e+00
 1.3023636728e+00	 4.0031876511e-01	 2.4477316760e+00
 1.2942879379e+00	 4.2570527818e-01	 2.3189451485e+00
 1.2856761493e+00	 4.5104665968e-01	 2.1769521392e+00
 1.2765261879e+00	 4.7632671740e-01	 2.0227618388e+00
 1.2668365602e+00	 5.0152904176e-01	 1.8574228990e+00
 1.3520448816e+00	 2.5019919707e-01	 2.9394376091e+00
 1.3470631137e+00	 2.7576433360e-01	 2.9108388392e+00
 1.3415653398e+00	 3.0137591004e-01	 2.8637168858e+00
 1.3355460646e+00	 3.2701943254e-01	 2.7987989989e+00
 1.3290002958e+00	 3.5268004430e-01	 2.7168614923e+00
 1.3219235675e+00	 3.7834254540e-01	 2.6187289057e+00
 1.3143119634e+00	 4.0399141433e-01	 2.5052729455e+00
 1.3061621391e+00	 4.2961083119e-01	 2.3774111984e+00
 1.2974713433e+00	 4.5518470244e-01	 2.2361056105e+00
 1.2882374373e+00	 4.8069668729e-01	 2.0823607277e+00
 1.2784589140e+00	 5.0613022563e-01	 1.9172216909e+00
 1.1622353763e+00	 4.6011838694e-01	 2.2325331548e+00
 1.1528499225e+00	 4.8315324299e-01	 2.1366683120e+00
 1.1429684046e+00	 5.0608618433e-01	 2.0335691604e+00
 1.1325912624e+00	 5.2890172284e-01	 1.9239766158e+00
 1.1217195625e+00	 5.5158428467e-01	 1.8086598285e+00
 1.1103550085e+00	 5.7411824130e-01	 1.6884119043e+00
 1.0984999480e+00	 5.9648794137e-01	 1.5640453626e+00
 1.0861573780e+00	 6.1867774334e-01	 1.4363873649e+00
 1.0733309490e+00	 6.4067204861e-01	 1.3062747512e+00
 1.0600249661e+00	 6.6245533520e-01	 1.1745489229e+00
 1.0462443890e+00	 6.8401219171e-01	 1.0420506162e+00
 1.1738577301e+00	 4.6471957081e-01	 2.1583029982e+00
 1.1643784217e+00	 4.8798477542e-01	 2.0658634299e+00
 1.1543980887e+00	 5.1114704617e-01	 1.9650649012e+00
 1.1439171750e+00	 5.3419074006e-01	 1.8566666533e+00
 1.1329367581e+00	 5.5710012751e-01	 1.7414609130e+00
 1.1214585586e+00	 5.7985942371e-01	 1.6202685820e+00
 1.1094849475e+00	 6.0245282079e-01	 1.4939346356e+00
 1.0970189518e+00	 6.2486452077e-01	 1.3633232652e+00
 1.0840642585e+00	 6.4707876909e-01	 1.2293128008e+00
 1.0706252158e+00	 6.6907988855e-01	 1.0927904546e+00
 1.0567068329e+00	 6.9085231363e-01	 9.5464692951e-01
 1.1854800839e+00	 4.6932075467e-01	 2.0884385192e+00
 1.1759069209e+00	 4.9281630785e-01	 1.9994512285e+00
 1.1658277727e+00	 5.1620790801e-01	 1.9010011797e+00
 1.1552430876e+00	 5.3947975729e-01	 1.7938664150e+00
 1.1441539537e+00	 5.6261597036e-01	 1.6788626716e+00
 1.1325621087e+00	 5.8560060612e-01	 1.5568390344e+00
 1.1204699470e+00	 6.0841770020e-01	 1.4286732726e+00
 1.1078805256e+00	 6.3105129820e-01	 1.2952668916e+00
 1.0947975680e+00	 6.5348548958e-01	 1.1575399398e+00
 1.0812254655e+00	 6.7570444191e-01	 1.0164256091e+00
 1.0671692768e+00	 6.9769243555e-01	 8.7286467529e-01
 1.1971024376e+00	 4.7392193854e-01	 2.0227902326e+00
 1.1874354202e+00	 4.9764784027e-01	 1.9372780940e+00
 1.1772574568e+00	 5.2126876985e-01	 1.8412196076e+00
 1.1665690002e+00	 5.4476877451e-01	 1.7354120970e+00
 1.1553711494e+00	 5.6813181320e-01	 1.6206952494e+00
 1.1436656588e+00	 5.9134178853e-01	 1.4979467285e+00
 1.1314549464e+00	 6.1438257961e-01	 1.3680774444e+00
 1.1187420994e+00	 6.3723807564e-01	 1.2320265127e+00
 1.1055308775e+00	 6.5989221007e-01	 1.0907559410e+00
 1.0918257151e+00	 6.8232899526e-01	 9.4524508431e-01
 1.0776317207e+00	 7.0453255747e-01	 7.9648491350e-01
 1.2087247914e+00	 4.7852312241e-01	 1.9612134845e+00
 1.1989639194e+00	 5.0247937270e-01	 1.8791953433e+00
 1.1886871408e+00	 5.2632963169e-01	 1.7855668515e+00
 1.1778949129e+00	 5.5005779174e-01	 1.6811450994e+00
 1.1665883450e+00	 5.7364765605e-01	 1.5667941699e+00
 1.1547692089e+00	 5.9708297095e-01	 1.4434207086e+00
 1.1424399459e+00	 6.2034745903e-01	 1.3119691234e+00
 1.1296036732e+00	 6.4342485307e-01	 1.1734164467e+00
 1.1162641870e+00	 6.6629893055e-01	 1.0287668994e+00
 1.1024259648e+00	 6.8895354861e-01	 8.7904619671e-01
 1.0880941646e+00	 7.1137267938e-01	 7.2529564315e-01
 1.2203471452e+00	 4.8312430627e-01	 1.9035682224e+00
 1.2104924186e+00	 5.0731090513e-01	 1.8250589893e+00
 1.2001168249e+00	 5.3139049354e-01	 1.7338943926e+00
 1.1892208255e+00	 5.5534680897e-01	 1.6309117788e+00
 1.1778055406e+00	 5.7916349890e-01	 1.5170000787e+00
 1.1658727590e+00	 6.0282415336e-01	 1.3930953307e+00
 1.1534249454e+00	 6.2631233844e-01	 1.2601758064e+00
 1.1404652469e+00	 6.4961163051e-01	 1.1192567731e+00
 1.1269974965e+00	 6.7270565104e-01	 9.7138493078e-01
 1.1130262144e+00	 6.9557810197e-01	 8.1763256657e-01
 1.0985566085e+00	 7.1821280130e-01	 6.5909147193e-01
 1.2319694989e+00	 4.8772549014e-01	 1.8497187781e+00
 1.2220209178e+00	 5.1214243756e-01	 1.7747295194e+00
 1.2115465089e+00	 5.3645135538e-01	 1.6860582991e+00
 1.2005467381e+00	 5.6063582620e-01	 1.5845632143e+00
 1.1890227363e+00	 5.8467934175e-01	 1.4711585022e+00
 1.1769763091e+00	 6.0856533577e-01	 1.3468100122e+00
 1.1644099449e+00	 6.3227721786e-01	 1.2125302550e+00
 1.1513268207e+00	 6.5579840794e-01	 1.0693730611e+00
 1.1377308060e+00	 6.7911237153e-01	 9.1842788836e-01
 1.1236264641e+00	 7.0220265532e-01	 7.6081382041e-01
 1.1090190524e+00	 7.2505292322e-01	 5.9767330447e-01
 1.2435918527e+00	 4.9232667401e-01	 1.7995336629e+00
 1.2335494171e+00	 5.1697396999e-01	 1.7280716861e+00
 1.2229761930e+00	 5.4151221723e-01	 1.6419190120e+00
 1.2118726507e+00	 5.6592484343e-01	 1.5419549871e+00
 1.2002399319e+00	 5.9019518460e-01	 1.4291196192e+00
 1.1880798591e+00	 6.1430651819e-01	 1.3044089950e+00
 1.1753949444e+00	 6.3824209727e-01	 1.1688702487e+00
 1.1621883945e+00	 6.6198518538e-01	 1.0235961132e+00
 1.1484641155e+00	 6.8551909201e-01	 8.6971909421e-01
 1.1342267138e+00	 7.0882720867e-01	 7.0840531042e-01
 1.1194814963e+00	 7.3189304514e-01	 5.4084804809e-01
 1.2552142064e+00	 4.9692785789e-01	 1.7990721528e+00
 1.2450779163e+00	 5.2180550243e-01	 1.6849543102e+00
 1.2344058770e+00	 5.4657307907e-01	 1.6013411429e+00
 1.2231985634e+00	 5.7121386066e-01	 1.5029469717e+00
 1.2114571275e+00	 5.9571102745e-01	 1.3907380455e+00
 1.1991834092e+00	 6.2004770061e-01	 1.2657411224e+00
 1.1863799439e+00	 6.4420697669e-01	 1.1290383532e+00
 1.1730499683e+00	 6.6817196281e-01	 9.8176172260e-01
 1.1591974249e+00	 6.9192581250e-01	 8.2508708620e-01
 1.1448269634e+00	 7.1545176203e-01	 6.6022784932e-01
 1.1299439402e+00	 7.3873316706e-01	 4.8842833486e-01
 1.2668365602e+00	 5.0152904176e-01	 1.8574228990e+00
 1.2566064155e+00	 5.2663703486e-01	 1.7009422975e+00
 1.2458355611e+00	 5.5163394092e-01	 1.5641932823e+00
 1.2345244760e+00	 5.7650287789e-01	 1.4674031392e+00
 1.2226743231e+00	 6.0122687030e-01	 1.3558726308e+00
 1.2102869593e+00	 6.2578888302e-01	 1.2306596280e+00
 1.1973649433e+00	 6.5017185611e-01	 1.0928817005e+00
 1.1839115421e+00	 6.7435874025e-01	 9.4371044433e-01
 1.1699307344e+00	 6.9833253299e-01	 7.8436537881e-01
 1.1554272131e+00	 7.2207631538e-01	 6.1610745992e-01
 1.1404063840e+00	 7.4557328897e-01	 4.4023225907e-01
 1.2784589140e+00	 5.0613022563e-01	 1.9172216909e+00
 1.2681349147e+00	 5.3146856729e-01	 1.7602942458e+00
 1.2572652451e+00	 5.5669480277e-01	 1.5886056002e+00
 1.2458503886e+00	 5.8179189513e-01	 1.4351913708e+00
 1.2338915188e+00	 6.0674271315e-01	 1.3243862658e+00
 1.2213905094e+00	 6.3153006544e-01	 1.1990219360e+00
 1.2083499428e+00	 6.5613673552e-01	 1.0602517814e+00
 1.1947731159e+00	 6.8054551769e-01	 9.0928737905e-01
 1.1806640439e+00	 7.0473925348e-01	 7.4739223681e-01
 1.1660274628e+00	 7.2870086873e-01	 5.7587513827e-01
 1.1508688279e+00	 7.5241341089e-01	 3.9608312888e-01
 1.0462443890e+00	 6.8401219171e-01	 1.0420506162e+00
 1.0319948291e+00	 7.0532735141e-01	 9.3366598939e-01
 1.0172825451e+00	 7.2638572638e-01	 8.1735193184e-01
 1.0021144359e+00	 7.4717244154e-01	 6.9388457153e-01
 9.8649803203e-01	 7.6767286833e-01	 5.6405657311e-01
 9.7044148446e-01	 7.8787265799e-01	 4.2867245628e-01
 9.5395355135e-01	 8.0775777424e-01	 2.8854388061e-01
 9.3704358299e-01	 8.2731452517e-01	 1.4448493946e-01
 9.1972150459e-01	 8.4652959426e-01	-2.6924948900e-03
 9.0199779716e-01	 8.6539007037e-01	-1.5218333317e-01
 8.8388347647e-01	 8.8388347647e-01	-3.0319369805e-01
 1.0567068329e+00	 6.9085231363e-01	 9.5464692951e-01
 1.0423147774e+00	 7.1238062492e-01	 8.4045321652e-01
 1.0274553705e+00	 7.3364958364e-01	 7.1941777222e-01
 1.0121355802e+00	 7.5464416595e-01	 5.9233109532e-01
 9.9636301235e-01	 7.7534959701e-01	 4.5999632513e-01
 9.8014589930e-01	 7.9575138457e-01	 3.2322443289e-01
 9.6349308686e-01	 8.1583535198e-01	 1.8282940152e-01
 9.4641401882e-01	 8.3558767042e-01	 3.9623437398e-02
 9.2891871964e-01	 8.5499489020e-01	-1.0558774225e-01
 9.1101777513e-01	 8.7404397107e-01	-2.5200950408e-01
 8.9272231124e-01	 8.9272231124e-01	-3.9886273452e-01
 1.0671692768e+00	 6.9769243555e-01	 8.7286467529e-01
 1.0526347257e+00	 7.1943389844e-01	 7.5272394994e-01
 1.0376281960e+00	 7.4091344091e-01	 6.2681564079e-01
 1.0221567246e+00	 7.6211589037e-01	 4.9594513526e-01
 1.0062279927e+00	 7.8302632570e-01	 3.6092659207e-01
 9.8985031415e-01	 8.0363011115e-01	 2.2257800270e-01
 9.7303262237e-01	 8.2391292973e-01	 8.1716262976e-02
 9.5578445465e-01	 8.4386081567e-01	-6.0847700246e-02
 9.3811593468e-01	 8.6346018615e-01	-2.0431370262e-01
 9.2003775310e-01	 8.8269787178e-01	-3.4789693288e-01
 9.0156114600e-01	 9.0156114600e-01	-4.9083239882e-01
 1.0776317207e+00	 7.0453255747e-01	 7.9648491350e-01
 1.0629546740e+00	 7.2648717195e-01	 6.7026039821e-01
 1.0478010214e+00	 7.4817729817e-01	 5.3932944180e-01
 1.0321778689e+00	 7.6958761479e-01	 4.0451284109e-01
 1.0160929730e+00	 7.9070305438e-01	 2.6663632021e-01
 9.9955472899e-01	 8.1150883773e-01	 1.2652545928e-01
 9.8257215788e-01	 8.3199050747e-01	-1.4999345225e-02
 9.6515489048e-01	 8.5213396092e-01	-1.5712784192e-01
 9.4731314973e-01	 8.7192548209e-01	-2.9906476211e-01
 9.2905773107e-01	 8.9135177248e-01	-4.4003448929e-01
 9.1039998077e-01	 9.1039998077e-01	-5.7928551837e-01
 1.0880941646e+00	 7.1137267938e-01	 7.2529564315e-01
 1.0732746223e+00	 7.3354044547e-01	 5.9285161654e-01
 1.0579738469e+00	 7.5544115544e-01	 4.5674981513e-01
 1.0421990133e+00	 7.7705933920e-01	 3.1782696864e-01
 1.0259579533e+00	 7.9837978306e-01	 1.7692091402e-01
 1.0092591438e+00	 8.1938756431e-01	 3.4865388330e-02
 9.9211169340e-01	 8.4006808521e-01	-1.0751512513e-01
 9.7452532631e-01	 8.6040710618e-01	-2.4941044947e-01
 9.5651036478e-01	 8.8039077803e-01	-3.9002961903e-01
 9.3807770905e-01	 9.0000567318e-01	-5.2860559093e-01
 9.1923881553e-01	 9.1923881553e-01	-6.6439972049e-01
 1.0985566085e+00	 7.1821280130e-01	 6.5909147193e-01
 1.0835945706e+00	 7.4059371898e-01	 5.2029318085e-01
 1.0681466723e+00	 7.6270501270e-01	 3.7887381559e-01
 1.0522201577e+00	 7.8453106362e-01	 2.3568656527e-01
 1.0358229336e+00	 8.0605651175e-01	 9.1581928620e-02
 1.0189635587e+00	 8.2726629089e-01	-5.2597631960e-02
 1.0016512289e+00	 8.4814566296e-01	-1.9602296147e-01
 9.8389576214e-01	 8.6868025143e-01	-3.3788335941e-01
 9.6570757982e-01	 8.8885607398e-01	-4.7739155477e-01
 9.4709768702e-01	 9.0865957389e-01	-6.1378846287e-01
 9.2807765030e-01	 9.2807765030e-01	-7.4634768007e-01
 1.1090190524e+00	 7.2505292322e-01	 5.9767330447e-01
 1.0939145189e+00	 7.4764699250e-01	 4.5238688011e-01
 1.0783194978e+00	 7.6996886997e-01	 3.0550461031e-01
 1.0622413020e+00	 7.9200278803e-01	 1.5789667312e-01
 1.0456879140e+00	 8.1373324043e-01	 1.0426779663e-02
 1.0286679735e+00	 8.3514501747e-01	-1.3605331356e-01
 1.0111907644e+00	 8.5622324070e-01	-2.8070919612e-01
 9.9326619797e-01	 8.7695339668e-01	-4.2272904824e-01
 9.7490479487e-01	 8.9732136992e-01	-5.6132868925e-01
 9.5611766499e-01	 9.1731347459e-01	-6.9575638261e-01
 9.3691648507e-01	 9.3691648507e-01	-8.2529735314e-01
 1.1194814963e+00	 7.3189304514e-01	 5.4084804809e-01
 1.1042344672e+00	 7.5470026601e-01	 3.8894042604e-01
 1.0884923232e+00	 7.7723272723e-01	 2.3645119311e-01
 1.0722624464e+00	 7.9947451245e-01	 8.4268048926e-02
 1.0555528943e+00	 8.2140996911e-01	-6.6731530520e-02
 1.0383723884e+00	 8.4302374405e-01	-2.1568592541e-01
 1.0207302999e+00	 8.6430081844e-01	-3.6175488703e-01
 1.0026366338e+00	 8.8522654193e-01	-5.0412488298e-01
 9.8410200992e-01	 9.0578666586e-01	-6.4201422216e-01
 9.6513764296e-01	 9.2596737530e-01	-7.7467791127e-01
 9.4575531983e-01	 9.4575531983e-01	-9.0141219742e-01
 1.1299439402e+00	 7.3873316706e-01	 4.8842833486e-01
 1.1145544155e+00	 7.6175353953e-01	 3.2976717893e-01
 1.0986651487e+00	 7.8449658449e-01	 1.7152811478e-01
 1.0822835907e+00	 8.0694623686e-01	 1.4616899511e-02
 1.0654178746e+00	 8.2908669779e-01	-1.4007467156e-01
 1.0480768032e+00	 8.5090247063e-01	-2.9167454544e-01
 1.0302698355e+00	 8.7237839618e-01	-4.3933605292e-01
 1.0120070696e+00	 8.9349968718e-01	-5.8224335764e-01
 9.9329922497e-01	 9.1425196180e-01	-7.1961666074e-01
 9.7415762093e-01	 9.3462127600e-01	-8.5071711191e-01
 9.5459415459e-01	 9.5459415459e-01	-9.7485138051e-01
 1.1404063840e+00	 7.4557328897e-01	 4.4023225907e-01
 1.1248743638e+00	 7.6880681304e-01	 2.7468588849e-01
 1.1088379741e+00	 7.9176044176e-01	 1.1055522811e-01
 1.0923047351e+00	 8.1441796128e-01	-5.1235368253e-02
 1.0752828549e+00	 8.3676342648e-01	-2.0977922948e-01
 1.0577812181e+00	 8.5878119721e-01	-3.6419329865e-01
 1.0398093710e+00	 8.8045597392e-01	-5.1362390440e-01
 1.0213775055e+00	 9.0177283243e-01	-6.5725231681e-01
 1.0024964400e+00	 9.2271725774e-01	-7.9430003502e-01
 9.8317759891e-01	 9.4327517670e-01	-9.2403375589e-01
 9.6343298936e-01	 9.6343298936e-01	-1.0457699768e+00
 1.1508688279e+00	 7.5241341089e-01	 3.9608312888e-01
 1.1351943120e+00	 7.7586008655e-01	 2.2352044890e-01
 1.1190107996e+00	 7.9902429902e-01	 5.3357446961e-02
 1.1023258795e+00	 8.2188968569e-01	-1.1346238380e-01
 1.0851478353e+00	 8.4444015516e-01	-2.7601693771e-01
 1.0674856329e+00	 8.6665992379e-01	-4.3341158230e-01
 1.0493489065e+00	 8.8853355166e-01	-5.8478506254e-01
 1.0307479413e+00	 9.1004597768e-01	-7.2931516697e-01
 1.0116936551e+00	 9.3118255368e-01	-8.6622410132e-01
 9.9219757688e-01	 9.5192907740e-01	-9.9478351795e-01
 9.7227182412e-01	 9.7227182412e-01	-1.1143191533e+00
 8.8388347647e-01	 8.8388347647e-01	-3.0319369805e-01
 8.6539007037e-01	 9.0199779716e-01	-4.1746056591e-01
 8.4652959426e-01	 9.1972150459e-01	-5.3352831033e-01
 8.2731452517e-01	 9.3704358299e-01	-6.5032915314e-01
 8.0775777424e-01	 9.5395355135e-01	-7.6681243552e-01
 7.8787265799e-01	 9.7044148446e-01	-8.8194941099e-01
 7.6767286833e-01	 9.8649803203e-01	-9.9473775963e-01
 7.4717244154e-01	 1.0021144359e+00	-1.1042057937e+00
 7.2638572638e-01	 1.0172825451e+00	-1.2094163291e+00
 7.0532735141e-01	 1.0319948291e+00	-1.3094702006e+00
 6.8401219171e-01	 1.0462443890e+00	-1.4035094048e+00
 8.9272231124e-01	 8.9272231124e-01	-3.9886273452e-01
 8.7404397107e-01	 9.1101777513e-01	-5.0604635990e-01
 8.5499489020e-01	 9.2891871964e-01	-6.1482579373e-01
 8.3558767042e-01	 9.4641401882e-01	-7.2425608957e-01
 8.1583535198e-01	 9.6349308686e-01	-8.3340970495e-01
 7.9575138457e-01	 9.8014589930e-01	-9.4138079323e-01
 7.7534959701e-01	 9.9636301235e-01	-1.0472892161e+00
 7.5464416595e-01	 1.0121355802e+00	-1.1502842505e+00
 7.3364958364e-01	 1.0274553705e+00	-1.2495479666e+00
 7.1238062492e-01	 1.0423147774e+00	-1.3442982599e+00
 6.9085231363e-01	 1.0567068329e+00	-1.4337915225e+00
 9.0156114600e-01	 9.0156114600e-01	-4.9083239882e-01
 8.8269787178e-01	 9.2003775310e-01	-5.9194833712e-01
 8.6346018615e-01	 9.3811593468e-01	-6.9444651722e-01
 8.4386081567e-01	 9.5578445465e-01	-7.9750274035e-01
 8.2391292973e-01	 9.7303262237e-01	-9.0031054726e-01
 8.0363011115e-01	 9.8985031415e-01	-1.0020850164e+00
 7.8302632570e-01	 1.0062279927e+00	-1.1020662819e+00
 7.6211589037e-01	 1.0221567246e+00	-1.1995227480e+00
 7.4091344091e-01	 1.0376281960e+00	-1.2937539802e+00
 7.1943389844e-01	 1.0526347257e+00	-1.3840932595e+00
 6.9769243555e-01	 1.0671692768e+00	-1.4699097869e+00
 9.1039998077e-01	 9.1039998077e-01	-5.7928551837e-01
 8.9135177248e-01	 9.2905773107e-01	-6.7532039711e-01
 8.7192548209e-01	 9.4731314973e-01	-7.7251541406e-01
 8.5213396092e-01	 9.6515489048e-01	-8.7016508840e-01
 8.3199050747e-01	 9.8257215788e-01	-9.6758206534e-01
 8.1150883773e-01	 9.9955472899e-01	-1.0641004280e+00
 7.9070305438e-01	 1.0160929730e+00	-1.1590787277e+00
 7.6958761479e-01	 1.0321778689e+00	-1.2519027122e+00
 7.4817729817e-01	 1.0478010214e+00	-1.3419877362e+00
 7.2648717195e-01	 1.0629546740e+00	-1.4287808423e+00
 7.0453255747e-01	 1.0776317207e+00	-1.5117625045e+00
 9.1923881553e-01	 9.1923881553e-01	-6.6439972049e-01
 9.0000567318e-01	 9.3807770905e-01	-7.5631236772e-01
 8.8039077803e-01	 9.5651036478e-01	-8.4915447160e-01
 8.6040710618e-01	 9.7452532631e-01	-9.4233729179e-01
 8.4006808521e-01	 9.9211169340e-01	-1.0352906516e+00
 8.1938756431e-01	 1.0092591438e+00	-1.1274657704e+00
 7.9837978306e-01	 1.0259579533e+00	-1.2183378133e+00
 7.7705933920e-01	 1.0421990133e+00	-1.3074081392e+00
 7.5544115544e-01	 1.0579738469e+00	-1.3942062362e+00
 7.3354044547e-01	 1.0732746223e+00	-1.4782913352e+00
 7.1137267938e-01	 1.0880941646e+00	-1.5592536961e+00
 9.2807765030e-01	 9.2807765030e-01	-7.4634768007e-01
 9.0865957389e-01	 9.4709768702e-01	-8.3507019895e-01
 8.8885607398e-01	 9.6570757982e-01	-9.2448287158e-01
 8.6868025143e-01	 9.8389576214e-01	-1.0141117707e+00
 8.4814566296e-01	 1.0016512289e+00	-1.1035020215e+00
 8.2726629089e-01	 1.0189635587e+00	-1.1922201617e+00
 8.0605651175e-01	 1.0358229336e+00	-1.2798562163e+00
 7.8453106362e-01	 1.0522201577e+00	-1.3660254723e+00
 7.6270501270e-01	 1.0681466723e+00	-1.4503699448e+00
 7.4059371898e-01	 1.0835945706e+00	-1.5325595268e+00
 7.1821280130e-01	 1.0985566085e+00	-1.6122928246e+00
 9.3691648507e-01	 9.3691648507e-01	-8.2529735314e-01
 9.1731347459e-01	 9.5611766499e-01	-9.1173614591e-01
 8.9732136992e-01	 9.7490479487e-01	-9.9861712244e-01
 8.7695339668e-01	 9.9326619797e-01	-1.0855792895e+00
 8.5622324070e-01	 1.0111907644e+00	-1.1722812460e+00
 8.3514501747e-01	 1.0286679735e+00	-1.2584030781e+00
 8.1373324043e-01	 1.0456879140e+00	-1.3436479653e+00
 7.9200278803e-01	 1.0622413020e+00	-1.4277434872e+00
 7.6996886997e-01	 1.0783194978e+00	-1.5104426256e+00
 7.4764699250e-01	 1.0939145189e+00	-1.5915244569e+00
 7.2505292322e-01	 1.1090190524e+00	-1.6707945385e+00
 9.4575531983e-01	 9.4575531983e-01	-9.0141219742e-01
 9.2596737530e-01	 9.6513764296e-01	-9.8644894145e-01
 9.0578666586e-01	 9.8410200992e-01	-1.0716711843e+00
 8.8522654193e-01	 1.0026366338e+00	-1.1568290337e+00
 8.6430081844e-01	 1.0207302999e+00	-1.2416927812e+00
 8.4302374405e-01	 1.0383723884e+00	-1.3260543375e+00
 8.2140996911e-01	 1.0555528943e+00	-1.4097283770e+00
 7.9947451245e-01	 1.0722624464e+00	-1.4925531824e+00
 7.7723272723e-01	 1.0884923232e+00	-1.5743911877e+00
 7.5470026601e-01	 1.1042344672e+00	-1.6551292172e+00
 7.3189304514e-01	 1.1194814963e+00	-1.7346784291e+00
 9.5459415459e-01	 9.5459415459e-01	-9.7485138051e-01
 9.3462127600e-01	 9.7415762093e-01	-1.0593439592e+00
 9.1425196180e-01	 9.9329922497e-01	-1.1437565868e+00
 8.9349968718e-01	 1.0120070696e+00	-1.2279486837e+00
 8.7237839618e-01	 1.0302698355e+00	-1.3118004971e+00
 8.5090247063e-01	 1.0480768032e+00	-1.3952140832e+00
 8.2908669779e-01	 1.0654178746e+00	-1.4781139963e+00
 8.0694623686e-01	 1.0822835907e+00	-1.5604476767e+00
 7.8449658449e-01	 1.0986651487e+00	-1.6421855392e+00
 7.6175353953e-01	 1.1145544155e+00	-1.7233207646e+00
 7.3873316706e-01	 1.1299439402e+00	-1.8038688023e+00
 9.6343298936e-01	 9.6343298936e-01	-1.0457699768e+00
 9.4327517670e-01	 9.8317759891e-01	-1.1305533679e+00
 9.2271725774e-01	 1.0024964400e+00	-1.2149825407e+00
 9.0177283243e-01	 1.0213775055e+00	-1.2990244834e+00
 8.8045597392e-01	 1.0398093710e+00	-1.3826677041e+00
 8.5878119721e-01	 1.0577812181e+00	-1.4659227692e+00
 8.3676342648e-01	 1.0752828549e+00	-1.5488225402e+00
 8.1441796128e-01	 1.0923047351e+00	-1.6314221118e+00
 7.9176044176e-01	 1.1088379741e+00	-1.7137984506e+00
 7.6880681304e-01	 1.1248743638e+00	-1.7960497431e+00
 7.4557328897e-01	 1.1404063840e+00	-1.8782944620e+00
 9.7227182412e-01	 9.7227182412e-01	-1.1143191533e+00
 9.5192907740e-01	 9.9219757688e-01	-1.2002062765e+00
 9.3118255368e-01	 1.0116936551e+00	-1.2854560435e+00
 9.1004597768e-01	 1.0307479413e+00	-1.3701413053e+00
 8.8853355166e-01	 1.0493489065e+00	-1.4543571791e+00
 8.6665992379e-01	 1.0674856329e+00	-1.5382211461e+00
 8.4444015516e-01	 1.0851478353e+00	-1.6218728443e+00
 8.2188968569e-01	 1.1023258795e+00	-1.7054735603e+00
 7.9902429902e-01	 1.1190107996e+00	-1.7892054240e+00
 7.7586008655e-01	 1.1351943120e+00	-1.8732703167e+00
 7.5241341089e-01	 1.1508688279e+00	-1.9578885055e+00
 6.8401219171e-01	 1.0462443890e+00	-1.4035094048e+00
 6.6245533520e-01	 1.0600249661e+00	-1.5111370610e+00
 6.4067204861e-01	 1.0733309490e+00	-1.6143673203e+00
 6.1867774334e-01	 1.0861573780e+00	-1.7130271554e+00
 5.9648794137e-01	 1.0984999480e+00	-1.8069714019e+00
 5.7411824130e-01	 1.1103550085e+00	-1.8960820842e+00
 5.5158428467e-01	 1.1217195625e+00	-1.9802675174e+00
 5.2890172284e-01	 1.1325912624e+00	-2.0594612073e+00
 5.0608618433e-01	 1.1429684046e+00	-2.1336205671e+00
 4.8315324299e-01	 1.1528499225e+00	-2.2027254750e+00
 4.6011838694e-01	 1.1622353763e+00	-2.2667766950e+00
 6.9085231363e-01	 1.0567068329e+00	-1.4337915225e+00
 6.6907988855e-01	 1.0706252158e+00	-1.5402143175e+00
 6.4707876909e-01	 1.0840642585e+00	-1.6398467846e+00
 6.2486452077e-01	 1.0970189518e+00	-1.7324903732e+00
 6.0245282079e-01	 1.1094849475e+00	-1.8179849048e+00
 5.7985942371e-01	 1.1214585586e+00	-1.8962077588e+00
 5.5710012751e-01	 1.1329367581e+00	-1.9670727809e+00
 5.3419074006e-01	 1.1439171750e+00	-2.0305289368e+00
 5.1114704617e-01	 1.1543980887e+00	-2.0865587337e+00
 4.8798477542e-01	 1.1643784217e+00	-2.1351764375e+00
 4.6471957081e-01	 1.1738577301e+00	-2.1764261112e+00
 6.9769243555e-01	 1.0671692768e+00	-1.4699097869e+00
 6.7570444191e-01	 1.0812254655e+00	-1.5746501635e+00
 6.5348548958e-01	 1.0947975680e+00	-1.6702490489e+00
 6.3105129820e-01	 1.1078805256e+00	-1.7564829335e+00
 6.0841770020e-01	 1.1204699470e+00	-1.8331770939e+00
 5.8560060612e-01	 1.1325621087e+00	-1.9002046387e+00
 5.6261597036e-01	 1.1441539537e+00	-1.9574852225e+00
 5.3947975729e-01	 1.1552430876e+00	-2.0049834530e+00
 5.1620790801e-01	 1.1658277727e+00	-2.0427070182e+00
 4.9281630785e-01	 1.1759069209e+00	-2.0707045636e+00
 4.6932075467e-01	 1.1854800839e+00	-2.0890633497e+00
 7.0453255747e-01	 1.0776317207e+00	-1.5117625045e+00
 6.8232899526e-01	 1.0918257151e+00	-1.6143545085e+00
 6.5989221007e-01	 1.1055308775e+00	-1.7054941295e+00
 6.3723807564e-01	 1.1187420994e+00	-1.7849334558e+00
 6.1438257961e-01	 1.1314549464e+00	-1.8524836848e+00
 5.9134178853e-01	 1.1436656588e+00	-1.9080140287e+00
 5.6813181320e-01	 1.1553711494e+00	-1.9514502334e+00
 5.4476877451e-01	 1.1665690002e+00	-1.9827727392e+00
 5.2126876985e-01	 1.1772574568e+00	-2.0020145136e+00
 4.9764784027e-01	 1.1874354202e+00	-2.0092585891e+00
 4.7392193854e-01	 1.1971024376e+00	-2.0046353410e+00
 7.1137267938e-01	 1.0880941646e+00	-1.5592536961e+00
 6.8895354861e-01	 1.1024259648e+00	-1.6592425043e+00
 6.6629893055e-01	 1.1162641870e+00	-1.7455068670e+00
 6.4342485307e-01	 1.1296036732e+00	-1.8177750194e+00
 6.2034745903e-01	 1.1424399459e+00	-1.8758445424e+00
 5.9708297095e-01	 1.1547692089e+00	-1.9195811269e+00
 5.7364765605e-01	 1.1665883450e+00	-1.9489168968e+00
 5.5005779174e-01	 1.1778949129e+00	-1.9638483235e+00
 5.2632963169e-01	 1.1886871408e+00	-1.9644337643e+00
 5.0247937270e-01	 1.1989639194e+00	-1.9507906613e+00
 4.7852312241e-01	 1.2087247914e+00	-1.9230924400e+00
 7.1821280130e-01	 1.0985566085e+00	-1.6122928246e+00
 6.9557810197e-01	 1.1130262144e+00	-1.7092342953e+00
 6.7270565104e-01	 1.1269974965e+00	-1.7902166959e+00
 6.4961163051e-01	 1.1404652469e+00	-1.8549449506e+00
 6.2631233844e-01	 1.1534249454e+00	-1.9032034835e+00
 6.0282415336e-01	 1.1658727590e+00	-1.9348548397e+00
 5.7916349890e-01	 1.1778055406e+00	-1.9498378123e+00
 5.5534680897e-01	 1.1892208255e+00	-1.9481651102e+00
 5.3139049354e-01	 1.2001168249e+00	-1.9299206020e+00
 5.0731090513e-01	 1.2104924186e+00	-1.8952561765e+00
 4.8312430627e-01	 1.2203471452e+00	-1.8443882629e+00
 7.2505292322e-01	 1.1090190524e+00	-1.6707945385e+00
 7.0220265532e-01	 1.1236264641e+00	-1.7642547832e+00
 6.7911237153e-01	 1.1377308060e+00	-1.8395574282e+00
 6.5579840794e-01	 1.1513268207e+00	-1.8963846227e+00
 6.3227721786e-01	 1.1644099449e+00	-1.9345080904e+00
 6.0856533577e-01	 1.1769763091e+00	-1.9537876068e+00
 5.8467934175e-01	 1.1890227363e+00	-1.9541689301e+00
 5.6063582620e-01	 1.2005467381e+00	-1.9356812203e+00
 5.3645135538e-01	 1.2115465089e+00	-1.8984339901e+00
 5.1214243756e-01	 1.2220209178e+00	-1.8426136267e+00
 4.8772549014e-01	 1.2319694989e+00	-1.7684795338e+00
 7.3189304514e-01	 1.1194814963e+00	-1.7346784291e+00
 7.0882720867e-01	 1.1342267138e+00	-1.8242334047e+00
 6.8551909201e-01	 1.1484641155e+00	-1.8934670491e+00
 6.6198518538e-01	 1.1621883945e+00	-1.9420392666e+00
 6.3824209727e-01	 1.1753949444e+00	-1.9697095344e+00
 6.1430651819e-01	 1.1880798591e+00	-1.9763352362e+00
 5.9019518460e-01	 1.2002399319e+00	-1.9618693939e+00
 5.6592484343e-01	 1.2118726507e+00	-1.9263578413e+00
 5.4151221723e-01	 1.2229761930e+00	-1.8699358780e+00
 5.1697396999e-01	 1.2335494171e+00	-1.7928244552e+00
 4.9232667401e-01	 1.2435918527e+00	-1.6953259390e+00
 7.3873316706e-01	 1.1299439402e+00	-1.8038688023e+00
 7.1545176203e-01	 1.1448269634e+00	-1.8891039210e+00
 6.9192581250e-01	 1.1591974249e+00	-1.9518875235e+00
 6.6817196281e-01	 1.1730499683e+00	-1.9918577924e+00
 6.4420697669e-01	 1.1863799439e+00	-2.0087624107e+00
 6.2004770061e-01	 1.1991834092e+00	-2.0024567476e+00
 5.9571102745e-01	 1.2114571275e+00	-1.9729013938e+00
 5.7121386066e-01	 1.2231985634e+00	-1.9201590849e+00
 5.4657307907e-01	 1.2344058770e+00	-1.8443910623e+00
 5.2180550243e-01	 1.2450779163e+00	-1.7458529196e+00
 4.9692785789e-01	 1.2552142064e+00	-1.7147675091e+00
 7.4557328897e-01	 1.1404063840e+00	-1.8782944620e+00
 7.2207631538e-01	 1.1554272131e+00	-1.9588042203e+00
 6.9833253299e-01	 1.1699307344e+00	-2.0147646132e+00
 6.7435874025e-01	 1.1839115421e+00	-2.0457926206e+00
 6.5017185611e-01	 1.1973649433e+00	-2.0516245801e+00
 6.2578888302e-01	 1.2102869593e+00	-2.0321142263e+00
 6.0122687030e-01	 1.2226743231e+00	-1.9872300260e+00
 5.7650287789e-01	 1.2345244760e+00	-1.9170518536e+00
 5.5163394092e-01	 1.2458355611e+00	-1.8217670564e+00
 5.2663703486e-01	 1.2566064155e+00	-1.8140339057e+00
 5.0152904176e-01	 1.2668365602e+00	-1.8475524199e+00
 7.5241341089e-01	 1.1508688279e+00	-1.9578885055e+00
 7.2870086873e-01	 1.1660274628e+00	-2.0332761295e+00
 7.0473925348e-01	 1.1806640439e+00	-2.0820477050e+00
 6.8054551769e-01	 1.1947731159e+00	-2.1037995225e+00
 6.5613673552e-01	 1.2083499428e+00	-2.0982570216e+00
 6.3153006544e-01	 1.2213905094e+00	-2.0652726825e+00
 6.0674271315e-01	 1.2338915188e+00	-2.0048231607e+00
 5.8179189513e-01	 1.2458503886e+00	-1.9170057131e+00
 5.5669480277e-01	 1.2572652451e+00	-1.9238298757e+00
 5.3146856729e-01	 1.2681349147e+00	-1.9687661765e+00
 5.0613022563e-01	 1.2784589140e+00	-1.9832271788e+00
 4.6011838694e-01	 1.1622353763e+00	-2.2667766950e+00
 4.3699698846e-01	 1.1711249430e+00	-2.3794325286e+00
 4.1380427495e-01	 1.1795194030e+00	-2.4753250899e+00
 3.9055530110e-01	 1.1874201265e+00	-2.5543880462e+00
 3.6726492214e-01	 1.1948290577e+00	-2.6166172161e+00
 3.4394776856e-01	 1.2017486978e+00	-2.6620674230e+00
 3.2061822210e-01	 1.2081820871e+00	-2.6908491597e+00
 2.9729039323e-01	 1.2141327860e+00	-2.7031250987e+00
 2.7397810005e-01	 1.2196048543e+00	-2.6991064882e+00
 2.5069484873e-01	 1.2246028307e+00	-2.6790494650e+00
 2.2745381552e-01	 1.2291317105e+00	-2.6432513214e+00
 4.6471957081e-01	 1.1738577301e+00	-2.1764261112e+00
 4.4136695834e-01	 1.1828361924e+00	-2.2631532733e+00
 4.1794231770e-01	 1.1913145970e+00	-2.3337275700e+00
 3.9446085410e-01	 1.1992943278e+00	-2.3881631870e+00
 3.7093757136e-01	 1.2067773482e+00	-2.4265332199e+00
 3.4738724624e-01	 1.2137661847e+00	-2.4489662878e+00
 3.2382440432e-01	 1.2202639080e+00	-2.4556429805e+00
 3.0026329716e-01	 1.2262741139e+00	-2.4467921782e+00
 2.7671788104e-01	 1.2318009029e+00	-2.4226872791e+00
 2.5320179722e-01	 1.2368488590e+00	-2.3836423720e+00
 2.2972835367e-01	 1.2414230276e+00	-2.3300083855e+00
 4.6932075467e-01	 1.1854800839e+00	-2.0890633497e+00
 4.4573692822e-01	 1.1945474419e+00	-2.1503236570e+00
 4.2208036044e-01	 1.2031097911e+00	-2.1960277233e+00
 3.9836640711e-01	 1.2111685290e+00	-2.2262698273e+00
 3.7461022057e-01	 1.2187256388e+00	-2.2411999683e+00
 3.5082672392e-01	 1.2257836717e+00	-2.2410202383e+00
 3.2703058654e-01	 1.2323457289e+00	-2.2259810515e+00
 3.0323620109e-01	 1.2384154418e+00	-2.1963772700e+00
 2.7945766204e-01	 1.2439969514e+00	-2.1525442634e+00
 2.5570874570e-01	 1.2490948873e+00	-2.0948539370e+00
 2.3200289183e-01	 1.2537143447e+00	-2.0937535789e+00
 4.7392193854e-01	 1.1971024376e+00	-2.0046353410e+00
 4.5010689810e-01	 1.2062586913e+00	-2.0408725905e+00
 4.2621840319e-01	 1.2149049851e+00	-2.0621366981e+00
 4.0227196012e-01	 1.2230427303e+00	-2.0686016402e+00
 3.7828286979e-01	 1.2306739294e+00	-2.0604939753e+00
 3.5426620160e-01	 1.2378011587e+00	-2.0380889730e+00
 3.3023676875e-01	 1.2444275498e+00	-2.0017066246e+00
 3.0620910502e-01	 1.2505567696e+00	-1.9619875882e+00
 2.8219744304e-01	 1.2561930000e+00	-2.0038500269e+00
 2.5821569419e-01	 1.2613409156e+00	-2.0255140857e+00
 2.3427742998e-01	 1.2660056618e+00	-2.0271891577e+00
 4.7852312241e-01	 1.2087247914e+00	-1.9230924400e+00
 4.5447686798e-01	 1.2179699407e+00	-1.9347330430e+00
 4.3035644594e-01	 1.2267001791e+00	-1.9319703231e+00
 4.0617751313e-01	 1.2349169316e+00	-1.9150575880e+00
 3.8195551901e-01	 1.2426222199e+00	-1.8842976385e+00
 3.5770567928e-01	 1.2498186457e+00	-1.8400386533e+00
 3.3344295097e-01	 1.2565093706e+00	-1.9020974315e+00
 3.0918200895e-01	 1.2626980975e+00	-1.9478279085e+00
 2.8493722404e-01	 1.2683890485e+00	-1.9740826820e+00
 2.6072264268e-01	 1.2735869439e+00	-1.9810590862e+00
 2.3655196814e-01	 1.2782969789e+00	-1.9690032617e+00
 4.8312430627e-01	 1.2203471452e+00	-1.8443882629e+00
 4.5884683786e-01	 1.2296811901e+00	-1.8318418491e+00
 4.3449448868e-01	 1.2384953731e+00	-1.8054488846e+00
 4.1008306613e-01	 1.2467911328e+00	-1.7655416704e+00
 3.8562816823e-01	 1.2545705105e+00	-1.7948481429e+00
 3.6114515697e-01	 1.2618361326e+00	-1.8622976779e+00
 3.3664913319e-01	 1.2685911915e+00	-1.9108060038e+00
 3.1215491288e-01	 1.2748394253e+00	-1.9405142246e+00
 2.8767700504e-01	 1.2805850970e+00	-1.9516121295e+00
 2.6322959116e-01	 1.2858329722e+00	-1.9443366387e+00
 2.3882650630e-01	 1.2905882961e+00	-1.9189700593e+00
 4.8772549014e-01	 1.2319694989e+00	-1.7684795338e+00
 4.6321680775e-01	 1.2413924396e+00	-1.7321395264e+00
 4.3863253143e-01	 1.2502905672e+00	-1.6876230669e+00
 4.1398861914e-01	 1.2586653341e+00	-1.7746587523e+00
 3.8930081745e-01	 1.2665188011e+00	-1.8432846249e+00
 3.6458463465e-01	 1.2738536196e+00	-1.8935927201e+00
 3.3985531541e-01	 1.2806730124e+00	-1.9257230252e+00
 3.1512781681e-01	 1.2869807532e+00	-1.9398622850e+00
 2.9041678604e-01	 1.2927811456e+00	-1.9362426060e+00
 2.6573653965e-01	 1.2980790005e+00	-1.9151398723e+00
 2.4110104445e-01	 1.3028796132e+00	-1.8768719876e+00
 4.9232667401e-01	 1.2435918527e+00	-1.6953259390e+00
 4.6758677763e-01	 1.2531036890e+00	-1.6897237522e+00
 4.4277057418e-01	 1.2620857612e+00	-1.7765861197e+00
 4.1789417216e-01	 1.2705395353e+00	-1.8455928114e+00
 3.9297346667e-01	 1.2784670917e+00	-1.8968413516e+00
 3.6802411234e-01	 1.2858711066e+00	-1.9304751072e+00
 3.4306149763e-01	 1.2927548332e+00	-1.9466822279e+00
 3.1810072074e-01	 1.2991220810e+00	-1.9456943907e+00
 2.9315656704e-01	 1.3049771941e+00	-1.9277853594e+00
 2.6824348814e-01	 1.3103250288e+00	-1.8932693714e+00
 2.4337558261e-01	 1.3151709303e+00	-1.8424993670e+00
 4.9692785789e-01	 1.2552142064e+00	-1.7147675091e+00
 4.7195674752e-01	 1.2648149384e+00	-1.8008656083e+00
 4.4690861693e-01	 1.2738809552e+00	-1.8695883236e+00
 4.2179972517e-01	 1.2824137366e+00	-1.9210430329e+00
 3.9664611589e-01	 1.2904153822e+00	-1.9553808543e+00
 3.7146359002e-01	 1.2978885936e+00	-1.9727957005e+00
 3.4626767985e-01	 1.3048366541e+00	-1.9735231419e+00
 3.2107362467e-01	 1.3112634089e+00	-1.9578390922e+00
 2.9589634804e-01	 1.3171732427e+00	-1.9260583245e+00
 2.7075043663e-01	 1.3225710571e+00	-1.8785328301e+00
 2.4565012076e-01	 1.3274622474e+00	-1.8156500354e+00
 5.0152904176e-01	 1.2668365602e+00	-1.8475524199e+00
 4.7632671740e-01	 1.2765261879e+00	-1.9154626556e+00
 4.5104665968e-01	 1.2856761493e+00	-1.9665201925e+00
 4.2570527818e-01	 1.2942879379e+00	-2.0008881059e+00
 4.0031876511e-01	 1.3023636728e+00	-2.0187702958e+00
 3.7490306771e-01	 1.3099060805e+00	-2.0204104487e+00
 3.4947386207e-01	 1.3169184750e+00	-2.0060908284e+00
 3.2404652861e-01	 1.3234047368e+00	-1.9761309025e+00
 2.9863612904e-01	 1.3293692912e+00	-1.9308858163e+00
 2.7325738511e-01	 1.3348170854e+00	-1.8707447262e+00
 2.4792465892e-01	 1.3397535645e+00	-1.7961290039e+00
 5.0613022563e-01	 1.2784589140e+00	-1.9832271788e+00
 4.8069668729e-01	 1.2882374373e+00	-2.0334205642e+00
 4.5518470244e-01	 1.2974713433e+00	-2.0672757569e+00
 4.2961083119e-01	 1.3061621391e+00	-2.0850106940e+00
 4.0399141433e-01	 1.3143119634e+00	-2.0868812595e+00
 3.7834254540e-01	 1.3219235675e+00	-2.0731801572e+00
 3.5268004430e-01	 1.3290002958e+00	-2.0442356292e+00
 3.2701943254e-01	 1.3355460646e+00	-2.0004100260e+00
 3.0137591004e-01	 1.3415653398e+00	-1.9420982400e+00
 2.7576433360e-01	 1.3470631137e+00	-1.8697260131e+00
 2.5019919707e-01	 1.3520448816e+00	-1.7837481303e+00
 2.2745381552e-01	 1.2291317105e+00	-2.6432513214e+00
 2.0426783021e-01	 1.2331969241e+00	-2.6938072613e+00
 1.8114936128e-01	 1.2368043131e+00	-2.7318264185e+00
 1.5811050247e-01	 1.2399601078e+00	-2.7575650243e+00
 1.3516296103e-01	 1.2426709033e+00	-2.7713022812e+00
 1.1231804737e-01	 1.2449436358e+00	-2.7733374066e+00
 8.9586666336e-02	 1.2467855586e+00	-2.7639867758e+00
 6.6979309859e-02	 1.2482042189e+00	-2.7435811795e+00
 4.4506051105e-02	 1.2492074333e+00	-2.7124632060e+00
 2.2176539980e-02	 1.2498032649e+00	-2.6709847615e+00
 0.0000000000e+00	 1.2500000000e+00	-2.6195047339e+00
 2.2972835367e-01	 1.2414230276e+00	-2.3300083855e+00
 2.0631050852e-01	 1.2455288933e+00	-2.3639201415e+00
 1.8296085490e-01	 1.2491723562e+00	-2.3872631764e+00
 1.5969160750e-01	 1.2523597089e+00	-2.4454858177e+00
 1.3651459064e-01	 1.2550976124e+00	-2.5014624422e+00
 1.1344122785e-01	 1.2573930721e+00	-2.5396507116e+00
 9.0482533003e-02	 1.2592534142e+00	-2.5603044239e+00
 6.7649102962e-02	 1.2606862611e+00	-2.5637172938e+00
 4.4951111618e-02	 1.2616995076e+00	-2.5502206829e+00
 2.2398305381e-02	 1.2623012976e+00	-2.5201812404e+00
 0.0000000000e+00	 1.2625000000e+00	-2.4739984714e+00
 2.3200289183e-01	 1.2537143447e+00	-2.0937535789e+00
 2.0835318682e-01	 1.2578608626e+00	-2.1904002721e+00
 1.8477234851e-01	 1.2615403994e+00	-2.2705210305e+00
 1.6127271253e-01	 1.2647593100e+00	-2.3342291010e+00
 1.3786622026e-01	 1.2675243214e+00	-2.3816791130e+00
 1.1456440833e-01	 1.2698425085e+00	-2.4130654319e+00
 9.1378399670e-02	 1.2717212698e+00	-2.4286203747e+00
 6.8318896063e-02	 1.2731683033e+00	-2.4286123042e+00
 4.5396172132e-02	 1.2741915820e+00	-2.4133436177e+00
 2.2620070782e-02	 1.2747993302e+00	-2.3831486490e+00
 0.0000000000e+00	 1.2750000000e+00	-2.3383914976e+00
 2.3427742998e-01	 1.2660056618e+00	-2.0271891577e+00
 2.1039586513e-01	 1.2701928318e+00	-2.1102844223e+00
 1.8658384213e-01	 1.2739084425e+00	-2.1785868374e+00
 1.6285381756e-01	 1.2771589111e+00	-2.2322014059e+00
 1.3921784987e-01	 1.2799510304e+00	-2.2712699661e+00
 1.1568758880e-01	 1.2822919448e+00	-2.2959697835e+00
 9.2274266337e-02	 1.2841891254e+00	-2.3065120116e+00
 6.8988689165e-02	 1.2856503455e+00	-2.3031400375e+00
 4.5841232645e-02	 1.2866836563e+00	-2.2861277262e+00
 2.2841836183e-02	 1.2872973629e+00	-2.2557775792e+00
 0.0000000000e+00	 1.2875000000e+00	-2.2124188231e+00
 2.3655196814e-01	 1.2782969789e+00	-1.9690032617e+00
 2.1243854343e-01	 1.2825248010e+00	-2.0387770052e+00
 1.8839533574e-01	 1.2862764856e+00	-2.0954615380e+00
 1.6443492259e-01	 1.2895585121e+00	-2.1391537349e+00
 1.4056947948e-01	 1.2923777395e+00	-2.1699828246e+00
 1.1681076928e-01	 1.2947413812e+00	-2.1881092170e+00
 9.3170133003e-02	 1.2966569810e+00	-2.1937232071e+00
 6.9658482265e-02	 1.2981323876e+00	-2.1870435685e+00
 4.6286293158e-02	 1.2991757306e+00	-2.1683160497e+00
 2.3063601584e-02	 1.2997953955e+00	-2.1378117876e+00
 0.0000000000e+00	 1.3000000000e+00	-2.0958256505e+00
 2.3882650630e-01	 1.2905882961e+00	-1.9189700593e+00
 2.1448122173e-01	 1.2948567703e+00	-1.9756467700e+00
 1.9020682936e-01	 1.2986445288e+00	-2.0209092671e+00
 1.6601602761e-01	 1.3019581132e+00	-2.0548464046e+00
 1.4192110910e-01	 1.3048044485e+00	-2.0775749733e+00
 1.1793394976e-01	 1.3071908176e+00	-2.0892387614e+00
 9.4065999669e-02	 1.3091248366e+00	-2.0900074976e+00
 7.0328275366e-02	 1.3106144298e+00	-2.0800756903e+00
 4.6731353670e-02	 1.3116678050e+00	-2.0596613734e+00
 2.3285366984e-02	 1.3122934282e+00	-2.0290047703e+00
 0.0000000000e+00	 1.3125000000e+00	-1.9883668890e+00
 2.4110104445e-01	 1.3028796132e+00	-1.8768719876e+00
 2.1652390004e-01	 1.3071887395e+00	-1.9206709678e+00
 1.9201832297e-01	 1.3110125719e+00	-1.9547028628e+00
 1.6759713264e-01	 1.3143577143e+00	-1.9790486057e+00
 1.4327273871e-01	 1.3172311575e+00	-1.9938127124e+00
 1.1905713023e-01	 1.3196402539e+00	-1.9991225718e+00
 9.4961866334e-02	 1.3215926922e+00	-1.9951276269e+00
 7.0998068466e-02	 1.3230964720e+00	-1.9819984565e+00
 4.7176414182e-02	 1.3241598793e+00	-1.9599257666e+00
 2.3507132385e-02	 1.3247914608e+00	-1.9291193034e+00
 0.0000000000e+00	 1.3250000000e+00	-1.8898066962e+00
 2.4337558261e-01	 1.3151709303e+00	-1.8424993670e+00
 2.1856657834e-01	 1.3195207088e+00	-1.8736349538e+00
 1.9382981658e-01	 1.3233806150e+00	-1.8966234596e+00
 1.6917823767e-01	 1.3267573154e+00	-1.9115379889e+00
 1.4462436832e-01	 1.3296578666e+00	-1.9184709360e+00
 1.2018031071e-01	 1.3320896903e+00	-1.9175335032e+00
 9.5857732998e-02	 1.3340605477e+00	-1.9088551166e+00
 7.1667861566e-02	 1.3355785142e+00	-1.8925827480e+00
 4.7621474694e-02	 1.3366519536e+00	-1.8688801490e+00
 2.3728897785e-02	 1.3372894935e+00	-1.8379270095e+00
 0.0000000000e+00	 1.3375000000e+00	-1.7999180466e+00
 2.4565012076e-01	 1.3274622474e+00	-1.8156500354e+00
 2.2060925664e-01	 1.3318526780e+00	-1.8343318125e+00
 1.9564131020e-01	 1.3357486581e+00	-1.8464601048e+00
 1.7075934269e-01	 1.3391569165e+00	-1.8521002730e+00
 1.4597599793e-01	 1.3420845756e+00	-1.8513327344e+00
 1.2130349118e-01	 1.3445391266e+00	-1.8442527075e+00
 9.6753599662e-02	 1.3465284033e+00	-1.8309698593e+00
 7.2337654665e-02	 1.3480605564e+00	-1.8116078645e+00
 4.8066535206e-02	 1.3491440280e+00	-1.7863038807e+00
 2.3950663185e-02	 1.3497875261e+00	-1.7552079483e+00
 0.0000000000e+00	 1.3500000000e+00	-1.7184823228e+00
 2.4792465892e-01	 1.3397535645e+00	-1.7961290039e+00
 2.2265193494e-01	 1.3441846472e+00	-1.8025620031e+00
 1.9745280381e-01	 1.3481167013e+00	-1.8040093952e+00
 1.7234044772e-01	 1.3515565175e+00	-1.8005288745e+00
 1.4732762754e-01	 1.3545112846e+00	-1.7921890181e+00
 1.2242667166e-01	 1.3569885630e+00	-1.7790692532e+00
 9.7649466326e-02	 1.3589962589e+00	-1.7612597347e+00
 7.3007447764e-02	 1.3605425986e+00	-1.7388611386e+00
 4.8511595717e-02	 1.3616361023e+00	-1.7119843753e+00
 2.4172428585e-02	 1.3622855588e+00	-1.6807502292e+00
 0.0000000000e+00	 1.3625000000e+00	-1.6452889303e+00
 2.5019919707e-01	 1.3520448816e+00	-1.7837481303e+00
 2.2469461325e-01	 1.3565166165e+00	-1.7781330241e+00
 1.9926429742e-01	 1.3604847444e+00	-1.7690751338e+00
 1.7392155274e-01	 1.3639561186e+00	-1.7566245583e+00
 1.4867925715e-01	 1.3669379937e+00	-1.7408381624e+00
 1.2354985213e-01	 1.3694379993e+00	-1.7217797655e+00
 9.8545332989e-02	 1.3714641145e+00	-1.6995202467e+00
 7.3677240862e-02	 1.3730246408e+00	-1.6741375701e+00
 4.8956656228e-02	 1.3741281766e+00	-1.6457167337e+00
 2.4394193985e-02	 1.3747835914e+00	-1.6143496456e+00
 0.0000000000e+00	 1.3750000000e+00	-1.5801349323e+00
 1.3750000000e+00	 0.0000000000e+00	 3.2518307350e+00
 1.3747835914e+00	 2.4394193985e-02	 3.2873753788e+00
 1.3741281766e+00	 4.8956656228e-02	 3.3067877217e+00
 1.3730246408e+00	 7.3677240862e-02	 3.3105012944e+00
 1.3714641145e+00	 9.8545332989e-02	 3.2989794310e+00
 1.3694379993e+00	 1.2354985213e-01	 3.2727146875e+00
 1.3669379937e+00	 1.4867925715e-01	 3.2322281560e+00
 1.3639561186e+00	 1.7392155274e-01	 3.1780686747e+00
 1.3604847444e+00	 1.9926429742e-01	 3.1108119344e+00
 1.3565166165e+00	 2.2469461325e-01	 3.0310594802e+00
 1.3520448816e+00	 2.5019919707e-01	 2.9394376091e+00
 1.3875000000e+00	 0.0000000000e+00	 3.2346033585e+00
 1.3872816241e+00	 2.4615959384e-02	 3.2719862109e+00
 1.3866202510e+00	 4.9401716739e-02	 3.2926129653e+00
 1.3855066830e+00	 7.4347033960e-02	 3.2969142073e+00
 1.3839319701e+00	 9.9441199652e-02	 3.2853521883e+00
 1.3818874357e+00	 1.2467303260e-01	 3.2584203532e+00
 1.3793647027e+00	 1.5003088676e-01	 3.2166427626e+00
 1.3763557197e+00	 1.7550265777e-01	 3.1605734086e+00
 1.3728527875e+00	 2.0107579104e-01	 3.0907954220e+00
 1.3688485857e+00	 2.2673729155e-01	 3.0079201715e+00
 1.3643361987e+00	 2.5247373523e-01	 2.9125862526e+00
 1.4000000000e+00	 0.0000000000e+00	 3.2209398927e+00
 1.3997796567e+00	 2.4837724784e-02	 3.2601247183e+00
 1.3991123253e+00	 4.9846777249e-02	 3.2819434001e+00
 1.3979887252e+00	 7.5016827059e-02	 3.2868237972e+00
 1.3963998257e+00	 1.0033706631e-01	 3.2752272679e+00
 1.3943368721e+00	 1.2579621308e-01	 3.2476483058e+00
 1.3917914117e+00	 1.5138251637e-01	 3.2046140684e+00
 1.3887553208e+00	 1.7708376279e-01	 3.1466837969e+00
 1.3852208307e+00	 2.0288728465e-01	 3.0744481239e+00
 1.3811805550e+00	 2.2877996985e-01	 2.9885282679e+00
 1.3766275158e+00	 2.5474827338e-01	 2.8895751140e+00
 1.4125000000e+00	 0.0000000000e+00	 3.2107176776e+00
 1.4122776894e+00	 2.5059490184e-02	 3.2516687662e+00
 1.4116043996e+00	 5.0291837760e-02	 3.2746571107e+00
 1.4104707673e+00	 7.5686620157e-02	 3.2801080543e+00
 1.4088676813e+00	 1.0123293298e-01	 3.2684822447e+00
 1.4067863084e+00	 1.2691939355e-01	 3.2402753764e+00
 1.4042181208e+00	 1.5273414598e-01	 3.1960178257e+00
 1.4011549218e+00	 1.7866486781e-01	 3.1362741721e+00
 1.3975888738e+00	 2.0469877826e-01	 3.0616426056e+00
 1.3935125242e+00	 2.3082264815e-01	 2.9727542165e+00
 1.3889188329e+00	 2.5702281154e-01	 2.8702721658e+00
 1.4250000000e+00	 0.0000000000e+00	 3.2038183574e+00
 1.4247757220e+00	 2.5281255583e-02	 3.2465005400e+00
 1.4240964740e+00	 5.0736898271e-02	 3.2706365299e+00
 1.4229528095e+00	 7.6356413255e-02	 3.2766493573e+00
 1.4213355368e+00	 1.0212879964e-01	 3.2649991336e+00
 1.4192357448e+00	 1.2804257402e-01	 3.2361829005e+00
 1.4166448298e+00	 1.5408577559e-01	 3.1907343678e+00
 1.4135545229e+00	 1.8024597284e-01	 3.1292235364e+00
 1.4099569169e+00	 2.0651027187e-01	 3.0522562044e+00
 1.4058444934e+00	 2.3286532645e-01	 2.9604733505e+00
 1.4012101500e+00	 2.5929734969e-01	 2.8545503933e+00
 1.4375000000e+00	 0.0000000000e+00	 3.2001276927e+00
 1.4372737547e+00	 2.5503020983e-02	 3.2445063578e+00
 1.4365885483e+00	 5.1181958781e-02	 3.2697682500e+00
 1.4354348517e+00	 7.7026206353e-02	 3.2763342819e+00
 1.4338033924e+00	 1.0302466630e-01	 3.2646641969e+00
 1.4316851811e+00	 1.2916575450e-01	 3.2352565223e+00
 1.4290715388e+00	 1.5543740520e-01	 3.1886484098e+00
 1.4259541240e+00	 1.8182707786e-01	 3.1254153594e+00
 1.4223249601e+00	 2.0832176549e-01	 3.0461708221e+00
 1.4181764627e+00	 2.3490800476e-01	 2.9515656765e+00
 1.4135014671e+00	 2.6157188785e-01	 2.8422875771e+00
 1.4500000000e+00	 0.0000000000e+00	 3.1995353838e+00
 1.4497717873e+00	 2.5724786382e-02	 3.2455764915e+00
 1.4490806226e+00	 5.1627019292e-02	 3.2719428431e+00
 1.4479168939e+00	 7.7695999451e-02	 3.2790534210e+00
 1.4462712480e+00	 1.0392053297e-01	 3.2673677612e+00
 1.4441346175e+00	 1.3028893497e-01	 3.2373860087e+00
 1.4414982479e+00	 1.5678903481e-01	 3.1896488598e+00
 1.4383537251e+00	 1.8340818289e-01	 3.1247373850e+00
 1.4346930032e+00	 2.1013325910e-01	 3.0432727277e+00
 1.4305084319e+00	 2.3695068306e-01	 2.9459156736e+00
 1.4257927842e+00	 2.6384642601e-01	 2.8333660863e+00
 1.4625000000e+00	 0.0000000000e+00	 3.2019349014e+00
 1.4622698200e+00	 2.5946551782e-02	 3.2496049989e+00
 1.4615726970e+00	 5.2072079803e-02	 3.2770546912e+00
 1.4603989361e+00	 7.8365792550e-02	 3.2847012118e+00
 1.4587391036e+00	 1.0481639963e-01	 3.2730040431e+00
 1.4565840538e+00	 1.3141211544e-01	 3.2424650734e+00
 1.4539249569e+00	 1.5814066442e-01	 3.1936286398e+00
 1.4507533262e+00	 1.8498928791e-01	 3.1270814490e+00
 1.4470610463e+00	 2.1194475271e-01	 3.0434523712e+00
 1.4428404012e+00	 2.3899336136e-01	 2.9434121016e+00
 1.4380841013e+00	 2.6612096416e-01	 2.8276726822e+00
 1.4750000000e+00	 0.0000000000e+00	 3.2072233279e+00
 1.4747678526e+00	 2.6168317182e-02	 3.2564895623e+00
 1.4740647713e+00	 5.2517140314e-02	 3.2850018249e+00
 1.4728809783e+00	 7.9035585648e-02	 3.2931757739e+00
 1.4712069592e+00	 1.0571226629e-01	 3.2814709852e+00
 1.4690334902e+00	 1.3253529592e-01	 3.2503912097e+00
 1.4663516659e+00	 1.5949229403e-01	 3.2004845154e+00
 1.4631529272e+00	 1.8657039294e-01	 3.1323433055e+00
 1.4594290895e+00	 2.1375624632e-01	 3.0466042065e+00
 1.4551723704e+00	 2.4103603966e-01	 2.9439478202e+00
 1.4503754184e+00	 2.6839550232e-01	 2.8250983325e+00
 1.4875000000e+00	 0.0000000000e+00	 3.2153012047e+00
 1.4872658853e+00	 2.6390082581e-02	 3.2661313368e+00
 1.4865568456e+00	 5.2962200824e-02	 3.2956857699e+00
 1.4853630205e+00	 7.9705378746e-02	 3.3043787540e+00
 1.4836748148e+00	 1.0660813296e-01	 3.2926700989e+00
 1.4814829266e+00	 1.3365847639e-01	 3.2610655313e+00
 1.4787783750e+00	 1.6084392364e-01	 3.2101169345e+00
 1.4755525283e+00	 1.8815149796e-01	 3.1404224627e+00
 1.4717971326e+00	 2.1556773994e-01	 3.0526265229e+00
 1.4675043396e+00	 2.4307871796e-01	 2.9474196165e+00
 1.4626667355e+00	 2.7067004047e-01	 2.8255380342e+00
 1.5000000000e+00	 0.0000000000e+00	 3.2260723887e+00
 1.4997639179e+00	 2.6611847981e-02	 3.2784348053e+00
 1.4990489200e+00	 5.3407261335e-02	 3.3090114014e+00
 1.4978450627e+00	 8.0375171844e-02	 3.3182151791e+00
 1.4961426704e+00	 1.0750399962e-01	 3.3065063161e+00
 1.4939323629e+00	 1.3478165686e-01	 3.2743926219e+00
 1.4912050840e+00	 1.6219555325e-01	 3.2224298736e+00
 1.4879521294e+00	 1.8973260298e-01	 3.1512220259e+00
 1.4841651757e+00	 2.1737923355e-01	 3.0614212852e+00
 1.4798363089e+00	 2.4512139627e-01	 2.9537280412e+00
 1.4749580526e+00	 2.7294457863e-01	 2.8288906462e+00
 1.3520448816e+00	 2.5019919707e-01	 2.9394376091e+00
 1.3470631137e+00	 2.7576433360e-01	 2.9108388392e+00
 1.3415653398e+00	 3.0137591004e-01	 2.8637168858e+00
 1.3355460646e+00	 3.2701943254e-01	 2.7987989989e+00
 1.3290002958e+00	 3.5268004430e-01	 2.7168614923e+00
 1.3219235675e+00	 3.7834254540e-01	 2.6187289057e+00
 1.3143119634e+00	 4.0399141433e-01	 2.5052729455e+00
 1.3061621391e+00	 4.2961083119e-01	 2.3774111984e+00
 1.2974713433e+00	 4.5518470244e-01	 2.2361056105e+00
 1.2882374373e+00	 4.8069668729e-01	 2.0823607277e+00
 1.2784589140e+00	 5.0613022563e-01	 1.9172216909e+00
 1.3643361987e+00	 2.5247373523e-01	 2.9125862526e+00
 1.3593091420e+00	 2.7827128209e-01	 2.8815481339e+00
 1.3537613883e+00	 3.0411569104e-01	 2.8324970319e+00
 1.3476873925e+00	 3.2999233647e-01	 2.7661445299e+00
 1.3410821167e+00	 3.5588622652e-01	 2.6832492356e+00
 1.3339410545e+00	 3.8178202308e-01	 2.5846159756e+00
 1.3262602540e+00	 4.0766406356e-01	 2.4710947840e+00
 1.3180363404e+00	 4.3351638421e-01	 2.3435796737e+00
 1.3092665373e+00	 4.5932274519e-01	 2.2030071875e+00
 1.2999486867e+00	 4.8506665718e-01	 2.0503547207e+00
 1.2900812677e+00	 5.1073140950e-01	 1.8866386129e+00
 1.3766275158e+00	 2.5474827338e-01	 2.8895751140e+00
 1.3715551703e+00	 2.8077823058e-01	 2.8557878891e+00
 1.3659574368e+00	 3.0685547204e-01	 2.8044908318e+00
 1.3598287203e+00	 3.3296524041e-01	 2.7363801157e+00
 1.3531639376e+00	 3.5909240874e-01	 2.6521969207e+00
 1.3459585415e+00	 3.8522150077e-01	 2.5527266629e+00
 1.3382085445e+00	 4.1133671278e-01	 2.4387980286e+00
 1.3299105417e+00	 4.3742193722e-01	 2.3112818057e+00
 1.3210617313e+00	 4.6346078794e-01	 2.1710895054e+00
 1.3116599361e+00	 4.8943662707e-01	 2.0191717688e+00
 1.3017036215e+00	 5.1533259338e-01	 1.8565165541e+00
 1.3889188329e+00	 2.5702281154e-01	 2.8702721658e+00
 1.3838011986e+00	 2.8328517906e-01	 2.8334343173e+00
 1.3781534854e+00	 3.0959525305e-01	 2.7795829473e+00
 1.3719700482e+00	 3.3593814434e-01	 2.7093990640e+00
 1.3652457584e+00	 3.6229859096e-01	 2.6236066859e+00
 1.3579760284e+00	 3.8866097846e-01	 2.5229721060e+00
 1.3501568351e+00	 4.1500936201e-01	 2.4083029737e+00
 1.3417847429e+00	 4.4132749023e-01	 2.2804471849e+00
 1.3328569254e+00	 4.6759883069e-01	 2.1402915757e+00
 1.3233711856e+00	 4.9380659695e-01	 1.9887604126e+00
 1.3133259753e+00	 5.1993377725e-01	 1.8268136754e+00
 1.4012101500e+00	 2.5929734969e-01	 2.8545503933e+00
 1.3960472269e+00	 2.8579212755e-01	 2.8143683952e+00
 1.3903495339e+00	 3.1233503405e-01	 2.7576625482e+00
 1.3841113761e+00	 3.3891104827e-01	 2.6850989277e+00
 1.3773275793e+00	 3.6550477318e-01	 2.5973846439e+00
 1.3699935154e+00	 3.9210045614e-01	 2.4952671417e+00
 1.3621051257e+00	 4.1868201123e-01	 2.3795333297e+00
 1.3536589442e+00	 4.4523304325e-01	 2.2510085303e+00
 1.3446521194e+00	 4.7173687344e-01	 2.1105552454e+00
 1.3350824350e+00	 4.9817656684e-01	 1.9590717306e+00
 1.3249483290e+00	 5.2453496112e-01	 1.7974903733e+00
 1.4135014671e+00	 2.6157188785e-01	 2.8422875771e+00
 1.4082932552e+00	 2.8829907604e-01	 2.7984756568e+00
 1.4025455825e+00	 3.1507481505e-01	 2.7386231165e+00
 1.3962527039e+00	 3.4188395221e-01	 2.6633813199e+00
 1.3894094002e+00	 3.6871095541e-01	 2.5734407099e+00
 1.3820110024e+00	 3.9553993383e-01	 2.4695301447e+00
 1.3740534163e+00	 4.2235466045e-01	 2.3524160749e+00
 1.3655331454e+00	 4.4913859626e-01	 2.2229015534e+00
 1.3564473134e+00	 4.7587491620e-01	 2.0818250738e+00
 1.3467936844e+00	 5.0254653673e-01	 1.9300592286e+00
 1.3365706828e+00	 5.2913614499e-01	 1.7685091833e+00
 1.4257927842e+00	 2.6384642601e-01	 2.8333660863e+00
 1.4205392835e+00	 2.9080602453e-01	 2.7856459966e+00
 1.4147416310e+00	 3.1781459605e-01	 2.7223622603e+00
 1.4083940318e+00	 3.4485685614e-01	 2.6441517388e+00
 1.4014912211e+00	 3.7191713763e-01	 2.5516884369e+00
 1.3940284894e+00	 3.9897941152e-01	 2.4456828750e+00
 1.3860017068e+00	 4.2602730967e-01	 2.3268813145e+00
 1.3774073467e+00	 4.5304414927e-01	 2.1960648293e+00
 1.3682425075e+00	 4.8001295895e-01	 2.0540482156e+00
 1.3585049339e+00	 5.0691650661e-01	 1.9016787357e+00
 1.3481930365e+00	 5.3373732887e-01	 1.7398346875e+00
 1.4380841013e+00	 2.6612096416e-01	 2.8276726822e+00
 1.4327853118e+00	 2.9331297302e-01	 2.7757734835e+00
 1.4269376796e+00	 3.2055437705e-01	 2.7087815375e+00
 1.4205353596e+00	 3.4782976007e-01	 2.6273194021e+00
 1.4135730419e+00	 3.7512331985e-01	 2.5320448610e+00
 1.4060459763e+00	 4.0241888921e-01	 2.4236503331e+00
 1.3979499974e+00	 4.2969995890e-01	 2.3028621473e+00
 1.3892815480e+00	 4.5694970228e-01	 2.1704396741e+00
 1.3800377015e+00	 4.8415100170e-01	 2.0271743098e+00
 1.3702161833e+00	 5.1128647650e-01	 1.8738883043e+00
 1.3598153903e+00	 5.3833851274e-01	 1.7114334272e+00
 1.4503754184e+00	 2.6839550232e-01	 2.8250983325e+00
 1.4450313402e+00	 2.9581992150e-01	 2.7687561838e+00
 1.4391337281e+00	 3.2329415805e-01	 2.6977862886e+00
 1.4326766875e+00	 3.5080266401e-01	 2.6127970888e+00
 1.4256548628e+00	 3.7832950207e-01	 2.5144303530e+00
 1.4180634633e+00	 4.0585836689e-01	 2.4033606230e+00
 1.4098982880e+00	 4.3337260812e-01	 2.2802945381e+00
 1.4011557492e+00	 4.6085525530e-01	 2.1459700289e+00
 1.3918328955e+00	 4.8828904445e-01	 2.0011553747e+00
 1.3819274327e+00	 5.1565644639e-01	 1.8466481163e+00
 1.3714377441e+00	 5.4293969661e-01	 1.6832738197e+00
 1.4626667355e+00	 2.7067004047e-01	 2.8255380342e+00
 1.4572773685e+00	 2.9832686999e-01	 2.7644959935e+00
 1.4513297766e+00	 3.2603393905e-01	 2.6892854776e+00
 1.4448180154e+00	 3.5377556794e-01	 2.6005009903e+00
 1.4377366837e+00	 3.8153568429e-01	 2.4987684791e+00
 1.4300809503e+00	 4.0929784458e-01	 2.3847448215e+00
 1.4218465786e+00	 4.3704525734e-01	 2.2591171981e+00
 1.4130299505e+00	 4.6476080831e-01	 2.1226023496e+00
 1.4036280896e+00	 4.9242708720e-01	 1.9759457077e+00
 1.3936386821e+00	 5.2002641627e-01	 1.8199203939e+00
 1.3830600978e+00	 5.4754088048e-01	 1.6553260798e+00
 1.4749580526e+00	 2.7294457863e-01	 2.8288906462e+00
 1.4695233968e+00	 3.0083381848e-01	 2.7628984782e+00
 1.4635258252e+00	 3.2877372005e-01	 2.6831915413e+00
 1.4569593432e+00	 3.5674847187e-01	 2.5903505674e+00
 1.4498185046e+00	 3.8474186652e-01	 2.4849858673e+00
 1.4420984373e+00	 4.1273732226e-01	 2.3677368544e+00
 1.4337948692e+00	 4.4071790656e-01	 2.2392714699e+00
 1.4249041518e+00	 4.6866636132e-01	 2.1002855018e+00
 1.4154232836e+00	 4.9656512995e-01	 1.9515017904e+00
 1.4053499316e+00	 5.2439638616e-01	 1.7936693136e+00
 1.3946824516e+00	 5.5214206435e-01	 1.6275621446e+00
 1.2784589140e+00	 5.0613022563e-01	 1.9172216909e+00
 1.2681349147e+00	 5.3146856729e-01	 1.7602942458e+00
 1.2572652451e+00	 5.5669480277e-01	 1.5886056002e+00
 1.2458503886e+00	 5.8179189513e-01	 1.4351913708e+00
 1.2338915188e+00	 6.0674271315e-01	 1.3243862658e+00
 1.2213905094e+00	 6.3153006544e-01	 1.1990219360e+00
 1.2083499428e+00	 6.5613673552e-01	 1.0602517814e+00
 1.1947731159e+00	 6.8054551769e-01	 9.0928737905e-01
 1.1806640439e+00	 7.0473925348e-01	 7.4739223681e-01
 1.1660274628e+00	 7.2870086873e-01	 5.7587513827e-01
 1.1508688279e+00	 7.5241341089e-01	 3.9608312888e-01
 1.2900812677e+00	 5.1073140950e-01	 1.8866386129e+00
 1.2796634140e+00	 5.3630009973e-01	 1.7315992376e+00
 1.2686949292e+00	 5.6175566461e-01	 1.5623201469e+00
 1.2571763012e+00	 5.8708091236e-01	 1.3798945904e+00
 1.2451087144e+00	 6.1225855600e-01	 1.2212560452e+00
 1.2324940595e+00	 6.3727124786e-01	 1.1031430650e+00
 1.2193349423e+00	 6.6210161494e-01	 9.7200189371e-01
 1.2056346896e+00	 6.8673229512e-01	 8.2905063181e-01
 1.1913973534e+00	 7.1114597397e-01	 6.7555811527e-01
 1.1766277124e+00	 7.3532542209e-01	 5.1283714109e-01
 1.1613312718e+00	 7.5925353281e-01	 3.4223733870e-01
 1.3017036215e+00	 5.1533259338e-01	 1.8565165541e+00
 1.2911919132e+00	 5.4113163216e-01	 1.7032272524e+00
 1.2801246132e+00	 5.6681652646e-01	 1.5362128524e+00
 1.2685022139e+00	 5.9236992959e-01	 1.3565667608e+00
 1.2563259100e+00	 6.1777439885e-01	 1.1654310708e+00
 1.2435976096e+00	 6.4301243028e-01	 1.0085163739e+00
 1.2303199418e+00	 6.6806649436e-01	 8.8479209049e-01
 1.2164962634e+00	 6.9291907256e-01	 7.4963692781e-01
 1.2021306629e+00	 7.1755269446e-01	 6.0432577810e-01
 1.1872279621e+00	 7.4194997544e-01	 4.5017619551e-01
 1.1717937157e+00	 7.6609365473e-01	 2.8854114888e-01
 1.3133259753e+00	 5.1993377725e-01	 1.8268136754e+00
 1.3027204124e+00	 5.4596316460e-01	 1.6751400927e+00
 1.2915542973e+00	 5.7187738831e-01	 1.5102493077e+00
 1.2798281265e+00	 5.9765894683e-01	 1.3332349182e+00
 1.2675431056e+00	 6.2329024170e-01	 1.1452379600e+00
 1.2547011597e+00	 6.4875361269e-01	 9.4744438139e-01
 1.2413049413e+00	 6.7403137378e-01	 7.9854426095e-01
 1.2273578372e+00	 6.9910585000e-01	 6.7097040812e-01
 1.2128639724e+00	 7.2395941495e-01	 5.3362181348e-01
 1.1978282118e+00	 7.4857452879e-01	 3.8782153229e-01
 1.1822561596e+00	 7.7293377665e-01	 2.3492662782e-01
 1.3249483290e+00	 5.2453496112e-01	 1.7974903733e+00
 1.3142489116e+00	 5.5079469703e-01	 1.6473017039e+00
 1.3029839813e+00	 5.7693825016e-01	 1.4843971465e+00
 1.2911540391e+00	 6.0294796406e-01	 1.3098705187e+00
 1.2787603013e+00	 6.2880608455e-01	 1.1248618508e+00
 1.2658047098e+00	 6.5449479511e-01	 9.3055487058e-01
 1.2522899408e+00	 6.7999625319e-01	 7.2817417481e-01
 1.2382194110e+00	 7.0529262743e-01	 5.9297666693e-01
 1.2235972819e+00	 7.3036613543e-01	 4.6337412751e-01
 1.2084284614e+00	 7.5519908215e-01	 3.2570355959e-01
 1.1927186035e+00	 7.7977389856e-01	 1.8132687576e-01
 1.3365706828e+00	 5.2913614499e-01	 1.7685091833e+00
 1.3257774109e+00	 5.5562622946e-01	 1.6196780808e+00
 1.3144136654e+00	 5.8199911200e-01	 1.4586259572e+00
 1.3024799517e+00	 6.0823698129e-01	 1.2864468715e+00
 1.2899774969e+00	 6.3432192740e-01	 1.1042798940e+00
 1.2769082598e+00	 6.6023597752e-01	 9.1330660223e-01
 1.2632749402e+00	 6.8596113261e-01	 7.1474826802e-01
 1.2490809848e+00	 7.1147940487e-01	 5.1558268841e-01
 1.2343305914e+00	 7.3677285592e-01	 3.9351188692e-01
 1.2190287111e+00	 7.6182363550e-01	 2.6375381179e-01
 1.2031810474e+00	 7.8661402048e-01	 1.2767597995e-01
 1.3481930365e+00	 5.3373732887e-01	 1.7398346875e+00
 1.3373059101e+00	 5.6045776189e-01	 1.5922371796e+00
 1.3258433494e+00	 5.8705997385e-01	 1.4329071981e+00
 1.3138058643e+00	 6.1352599852e-01	 1.2629390587e+00
 1.3011946925e+00	 6.3983777025e-01	 1.0834709110e+00
 1.2880118099e+00	 6.6597715994e-01	 8.9568224511e-01
 1.2742599397e+00	 6.9192601202e-01	 7.0079109683e-01
 1.2599425586e+00	 7.1766618230e-01	 5.0005094980e-01
 1.2450639009e+00	 7.4317957641e-01	 3.2396546471e-01
 1.2296289607e+00	 7.6844818885e-01	 2.0190490097e-01
 1.2136434913e+00	 7.9345414240e-01	 7.3908972068e-02
 1.3598153903e+00	 5.3833851274e-01	 1.7114334272e+00
 1.3488344093e+00	 5.6528929432e-01	 1.5649488340e+00
 1.3372730334e+00	 5.9212083569e-01	 1.4072141175e+00
 1.3251317770e+00	 6.1881501575e-01	 1.2393238600e+00
 1.3124118881e+00	 6.4535361310e-01	 1.0624153221e+00
 1.2991153600e+00	 6.7171834235e-01	 8.7766596351e-01
 1.2852449392e+00	 6.9789089144e-01	 6.8629066541e-01
 1.2708041323e+00	 7.2385295974e-01	 4.8953865510e-01
 1.2557972104e+00	 7.4958629690e-01	 2.8869013542e-01
 1.2402292104e+00	 7.7507274221e-01	 1.4009047084e-01
 1.2241059352e+00	 8.0029426432e-01	 1.9961787921e-02
 1.3714377441e+00	 5.4293969661e-01	 1.6832738197e+00
 1.3603629085e+00	 5.7012082675e-01	 1.5377846755e+00
 1.3487027175e+00	 5.9718169753e-01	 1.3815216783e+00
 1.3364576896e+00	 6.2410403298e-01	 1.2155796801e+00
 1.3236290838e+00	 6.5086945594e-01	 1.0410950790e+00
 1.3102189101e+00	 6.7745952476e-01	 8.5924335389e-01
 1.2962299387e+00	 7.0385577085e-01	 6.7123630604e-01
 1.2816657061e+00	 7.3003973717e-01	 4.7831900691e-01
 1.2665305199e+00	 7.5599301738e-01	 2.8176645486e-01
 1.2508294601e+00	 7.8169729556e-01	 8.2879944829e-02
 1.2345683791e+00	 8.0713438623e-01	-3.4228770916e-02
 1.3830600978e+00	 5.4754088048e-01	 1.6553260798e+00
 1.3718914078e+00	 5.7495235918e-01	 1.5107180579e+00
 1.3601324015e+00	 6.0224255938e-01	 1.3558064853e+00
 1.3477836022e+00	 6.2939305020e-01	 1.1916864810e+00
 1.3348462794e+00	 6.5638529879e-01	 1.0194936003e+00
 1.3213224602e+00	 6.8320070718e-01	 8.4040138470e-01
 1.3072149381e+00	 7.0982065027e-01	 6.5561862331e-01
 1.2925272799e+00	 7.3622651460e-01	 4.6638632523e-01
 1.2772638293e+00	 7.6239973787e-01	 2.7397440419e-01
 1.2614297097e+00	 7.8832184891e-01	 7.9678079917e-02
 1.2450308230e+00	 8.1397450815e-01	-8.8725073459e-02
 1.3946824516e+00	 5.5214206435e-01	 1.6275621446e+00
 1.3834199070e+00	 5.7978389161e-01	 1.4837239859e+00
 1.3715620856e+00	 6.0730342122e-01	 1.3300467174e+00
 1.3591095148e+00	 6.3468206743e-01	 1.1676257170e+00
 1.3460634750e+00	 6.6190114164e-01	 9.9759571060e-01
 1.3324260103e+00	 6.8894188959e-01	 8.2112833920e-01
 1.3181999376e+00	 7.1578552968e-01	 6.3942944105e-01
 1.3033888537e+00	 7.4241329204e-01	 4.5373604941e-01
 1.2879971388e+00	 7.6880645835e-01	 2.6531310608e-01
 1.2720299594e+00	 7.9494640226e-01	 7.5449895222e-02
 1.2554932668e+00	 8.2081463007e-01	-1.1454379627e-01
 1.1508688279e+00	 7.5241341089e-01	 3.9608312888e-01
 1.1351943120e+00	 7.7586008655e-01	 2.2352044890e-01
 1.1190107996e+00	 7.9902429902e-01	 5.3357446961e-02
 1.1023258795e+00	 8.2188968569e-01	-1.1346238380e-01
 1.0851478353e+00	 8.4444015516e-01	-2.7601693771e-01
 1.0674856329e+00	 8.6665992379e-01	-4.3341158230e-01
 1.0493489065e+00	 8.8853355166e-01	-5.8478506254e-01
 1.0307479413e+00	 9.1004597768e-01	-7.2931516697e-01
 1.0116936551e+00	 9.3118255368e-01	-8.6622410132e-01
 9.9219757688e-01	 9.5192907740e-01	-9.9478351795e-01
 9.7227182412e-01	 9.7227182412e-01	-1.1143191533e+00
 1.1613312718e+00	 7.5925353281e-01	 3.4223733870e-01
 1.1455142603e+00	 7.8291336007e-01	 1.7516357223e-01
 1.1291836250e+00	 8.0628815628e-01	 9.5223490661e-03
 1.1123470238e+00	 8.2936141010e-01	-1.5374935284e-01
 1.0950128156e+00	 8.5211688384e-01	-3.1373270285e-01
 1.0771900478e+00	 8.7453865036e-01	-4.6953311808e-01
 1.0588884420e+00	 8.9661112940e-01	-6.2028619709e-01
 1.0401183771e+00	 9.1831912293e-01	-7.6516342967e-01
 1.0208908701e+00	 9.3964784962e-01	-9.0337762784e-01
 1.0012175549e+00	 9.6058297811e-01	-1.0341880258e+00
 9.8111065889e-01	 9.8111065889e-01	-1.1569049999e+00
 1.1717937157e+00	 7.6609365473e-01	 2.8854114888e-01
 1.1558342086e+00	 7.8996663358e-01	 1.2673280246e-01
 1.1393564505e+00	 8.1355201354e-01	-3.4587142119e-02
 1.1223681682e+00	 8.3683313452e-01	-1.9448738179e-01
 1.1048777959e+00	 8.5979361252e-01	-3.5205158675e-01
 1.0868944626e+00	 8.8241737694e-01	-5.0638452040e-01
 1.0684279775e+00	 9.0468870714e-01	-6.5661800674e-01
 1.0494888130e+00	 9.2659226818e-01	-8.0191668783e-01
 1.0300880852e+00	 9.4811314557e-01	-9.4148351572e-01
 1.0102375328e+00	 9.6923687881e-01	-1.0745649259e+00
 9.8994949365e-01	 9.8994949365e-01	-1.2004556427e+00
 1.1822561596e+00	 7.7293377665e-01	 2.3492662782e-01
 1.1661541569e+00	 7.9701990710e-01	 7.8163082784e-02
 1.1495292759e+00	 8.2081587081e-01	-7.9033657973e-02
 1.1323893126e+00	 8.4430485893e-01	-2.3573713003e-01
 1.1147427762e+00	 8.6747034120e-01	-3.9103273335e-01
 1.0965988775e+00	 8.9029610352e-01	-5.4402387627e-01
 1.0779675130e+00	 9.1276628488e-01	-6.9383798109e-01
 1.0588592488e+00	 9.3486541343e-01	-8.3963229315e-01
 1.0392853002e+00	 9.5657844151e-01	-9.8059943717e-01
 1.0192575108e+00	 9.7789077951e-01	-1.1159726673e+00
 9.9878832842e-01	 9.9878832842e-01	-1.2450307607e+00
 1.1927186035e+00	 7.7977389856e-01	 1.8132687576e-01
 1.1764741052e+00	 8.0407318061e-01	 2.9390243373e-02
 1.1597021014e+00	 8.2807972807e-01	-1.2387906978e-01
 1.1424104569e+00	 8.5177658335e-01	-2.7755860546e-01
 1.1246077565e+00	 8.7514706988e-01	-4.3073472504e-01
 1.1063032923e+00	 8.9817483010e-01	-5.8250878228e-01
 1.0875070486e+00	 9.2084386262e-01	-7.3200317144e-01
 1.0682296846e+00	 9.4313855868e-01	-8.7836719189e-01
 1.0484825153e+00	 9.6504373745e-01	-1.0207826725e+00
 1.0282774888e+00	 9.8654468022e-01	-1.1584693015e+00
 1.0076271632e+00	 1.0076271632e+00	-1.2906896102e+00
 1.2031810474e+00	 7.8661402048e-01	 1.2767597995e-01
 1.1867940535e+00	 8.1112645412e-01	-1.9649037158e-02
 1.1698749268e+00	 8.3534358534e-01	-1.6918452177e-01
 1.1524316013e+00	 8.5924830776e-01	-3.2001119280e-01
 1.1344727369e+00	 8.8282379857e-01	-4.7121560714e-01
 1.1160077072e+00	 9.0605355668e-01	-6.2189636601e-01
 1.0970465841e+00	 9.2892144036e-01	-7.7117020984e-01
 1.0776001205e+00	 9.5141170393e-01	-9.1817794250e-01
 1.0576797303e+00	 9.7350903339e-01	-1.0620901272e+00
 1.0372974667e+00	 9.9519858092e-01	-1.2021124992e+00
 1.0164659980e+00	 1.0164659980e+00	-1.3374910428e+00
 1.2136434913e+00	 7.9345414240e-01	 7.3908972068e-02
 1.1971140018e+00	 8.1817972764e-01	-6.9017268339e-02
 1.1800477523e+00	 8.4260744260e-01	-2.1501046248e-01
 1.1624527456e+00	 8.6672003218e-01	-3.6315368044e-01
 1.1443377172e+00	 8.9050052725e-01	-5.1253291101e-01
 1.1257121220e+00	 9.1393228326e-01	-6.6224330616e-01
 1.1065861196e+00	 9.3699901811e-01	-8.1139532717e-01
 1.0869705563e+00	 9.5968484918e-01	-9.5912073235e-01
 1.0668769453e+00	 9.8197432933e-01	-1.1045783481e+00
 1.0463174447e+00	 1.0038524816e+00	-1.2469595674e+00
 1.0253048327e+00	 1.0253048327e+00	-1.3854935230e+00
 1.2241059352e+00	 8.0029426432e-01	 1.9961787921e-02
 1.2074339501e+00	 8.2523300115e-01	-1.1877618253e-01
 1.1902205777e+00	 8.4987129986e-01	-2.6141667445e-01
 1.1724738900e+00	 8.7419175659e-01	-4.0704428595e-01
 1.1542026975e+00	 8.9817725593e-01	-5.5474367601e-01
 1.1354165368e+00	 9.2181100984e-01	-7.0360585179e-01
 1.1161256551e+00	 9.4507659585e-01	-8.5273437028e-01
 1.0963409921e+00	 9.6795799444e-01	-1.0012513935e+00
 1.0760741604e+00	 9.9043962528e-01	-1.1483035385e+00
 1.0553374227e+00	 1.0125063823e+00	-1.2930674645e+00
 1.0341436675e+00	 1.0341436675e+00	-1.4347551448e+00
 1.2345683791e+00	 8.0713438623e-01	-3.4228770916e-02
 1.2177538984e+00	 8.3228627467e-01	-1.6898676787e-01
 1.2003934032e+00	 8.5713515713e-01	-3.0846230246e-01
 1.1824950344e+00	 8.8166348101e-01	-4.5174068026e-01
 1.1640676778e+00	 9.0585398462e-01	-5.9790447039e-01
 1.1451209517e+00	 9.2968973642e-01	-7.4603984051e-01
 1.1256651906e+00	 9.5315417359e-01	-8.9524281826e-01
 1.1057114279e+00	 9.7623113969e-01	-1.0446254180e+00
 1.0852713754e+00	 9.9890492122e-01	-1.1933215731e+00
 1.0643574007e+00	 1.0211602830e+00	-1.3404928152e+00
 1.0429825022e+00	 1.0429825022e+00	-1.4853336472e+00
 1.2450308230e+00	 8.1397450815e-01	-8.8725073459e-02
 1.2280738467e+00	 8.3933954818e-01	-2.1970929952e-01
 1.2105662286e+00	 8.6439901439e-01	-3.5620588036e-01
 1.1925161787e+00	 8.8913520543e-01	-4.9730001061e-01
 1.1739326581e+00	 9.1353071330e-01	-6.4207141104e-01
 1.1548253665e+00	 9.3756846300e-01	-7.8960071575e-01
 1.1352047261e+00	 9.6123175134e-01	-9.3897579789e-01
 1.1150818638e+00	 9.8450428494e-01	-1.0892979719e+00
 1.0944685905e+00	 1.0073702172e+00	-1.2396880114e+00
 1.0733773786e+00	 1.0298141837e+00	-1.3892919244e+00
 1.0518213370e+00	 1.0518213370e+00	-1.5372864295e+00
 1.2554932668e+00	 8.2081463007e-01	-1.1454379627e-01
 1.2383937950e+00	 8.4639282170e-01	-2.7100336940e-01
 1.2207390541e+00	 8.7166287166e-01	-4.0470535646e-01
 1.2025373231e+00	 8.9660692984e-01	-5.4377892239e-01
 1.1837976385e+00	 9.2120744199e-01	-6.8730018230e-01
 1.1645297814e+00	 9.4544718958e-01	-8.3434354320e-01
 1.1447442616e+00	 9.6930932908e-01	-9.8398809834e-01
 1.1244522996e+00	 9.9277743019e-01	-1.1353239089e+00
 1.1036658055e+00	 1.0158355131e+00	-1.2874581112e+00
 1.0823973566e+00	 1.0384680844e+00	-1.4395207908e+00
 1.0606601718e+00	 1.0606601718e+00	-1.5906705649e+00
 9.7227182412e-01	 9.7227182412e-01	-1.1143191533e+00
 9.5192907740e-01	 9.9219757688e-01	-1.2002062765e+00
 9.3118255368e-01	 1.0116936551e+00	-1.2854560435e+00
 9.1004597768e-01	 1.0307479413e+00	-1.3701413053e+00
 8.8853355166e-01	 1.0493489065e+00	-1.4543571791e+00
 8.6665992379e-01	 1.0674856329e+00	-1.5382211461e+00
 8.4444015516e-01	 1.0851478353e+00	-1.6218728443e+00
 8.2188968569e-01	 1.1023258795e+00	-1.7054735603e+00
 7.9902429902e-01	 1.1190107996e+00	-1.7892054240e+00
 7.7586008655e-01	 1.1351943120e+00	-1.8732703167e+00
 7.5241341089e-01	 1.1508688279e+00	-1.9578885055e+00
 9.8111065889e-01	 9.8111065889e-01	-1.1569049999e+00
 9.6058297811e-01	 1.0012175549e+00	-1.2493503671e+00
 9.3964784962e-01	 1.0208908701e+00	-1.3386936891e+00
 9.1831912293e-01	 1.0401183771e+00	-1.4249603082e+00
 8.9661112940e-01	 1.0588884420e+00	-1.5082081292e+00
 8.7453865036e-01	 1.0771900478e+00	-1.5885278554e+00
 8.5211688384e-01	 1.0950128156e+00	-1.6660428605e+00
 8.2936141010e-01	 1.1123470238e+00	-1.7409086969e+00
 8.0628815628e-01	 1.1291836250e+00	-1.8133122464e+00
 7.8291336007e-01	 1.1455142603e+00	-1.8834705227e+00
 7.5925353281e-01	 1.1613312718e+00	-1.9516291434e+00
 9.8994949365e-01	 9.8994949365e-01	-1.2004556427e+00
 9.6923687881e-01	 1.0102375328e+00	-1.2991368513e+00
 9.4811314557e-01	 1.0300880852e+00	-1.3922831997e+00
 9.2659226818e-01	 1.0494888130e+00	-1.4798728855e+00
 9.0468870714e-01	 1.0684279775e+00	-1.5619269020e+00
 8.8241737694e-01	 1.0868944626e+00	-1.6385094141e+00
 8.5979361252e-01	 1.1048777959e+00	-1.7097277075e+00
 8.3683313452e-01	 1.1223681682e+00	-1.7757317143e+00
 8.1355201354e-01	 1.1393564505e+00	-1.8367131186e+00
 7.8996663358e-01	 1.1558342086e+00	-1.8929040556e+00
 7.6609365473e-01	 1.1717937157e+00	-1.9445754194e+00
 9.9878832842e-01	 9.9878832842e-01	-1.2450307607e+00
 9.7789077951e-01	 1.0192575108e+00	-1.3496347062e+00
 9.5657844151e-01	 1.0392853002e+00	-1.4463017068e+00
 9.3486541343e-01	 1.0588592488e+00	-1.5349631626e+00
 9.1276628488e-01	 1.0779675130e+00	-1.6156034443e+00
 8.9029610352e-01	 1.0965988775e+00	-1.6882604076e+00
 8.6747034120e-01	 1.1147427762e+00	-1.7530254206e+00
 8.4430485893e-01	 1.1323893126e+00	-1.8100429052e+00
 8.2081587081e-01	 1.1495292759e+00	-1.8595093992e+00
 7.9701990710e-01	 1.1661541569e+00	-1.9016721510e+00
 7.7293377665e-01	 1.1822561596e+00	-1.9368272644e+00
 1.0076271632e+00	 1.0076271632e+00	-1.2906896102e+00
 9.8654468022e-01	 1.0282774888e+00	-1.4009121742e+00
 9.6504373745e-01	 1.0484825153e+00	-1.5008253314e+00
 9.4313855868e-01	 1.0682296846e+00	-1.5903140163e+00
 9.2084386262e-01	 1.0875070486e+00	-1.6693262530e+00
 8.9817483010e-01	 1.1063032923e+00	-1.7378738083e+00
 8.7514706988e-01	 1.1246077565e+00	-1.7960322961e+00
 8.5177658335e-01	 1.1424104569e+00	-1.8439407361e+00
 8.2807972807e-01	 1.1597021014e+00	-1.8818005708e+00
 8.0407318061e-01	 1.1764741052e+00	-1.9098741569e+00
 7.7977389856e-01	 1.1927186035e+00	-1.9284827477e+00
 1.0164659980e+00	 1.0164659980e+00	-1.3374910428e+00
 9.9519858092e-01	 1.0372974667e+00	-1.4530367948e+00
 9.7350903339e-01	 1.0576797303e+00	-1.5559292283e+00
 9.5141170393e-01	 1.0776001205e+00	-1.6460071290e+00
 9.2892144036e-01	 1.0970465841e+00	-1.7231824384e+00
 9.0605355668e-01	 1.1160077072e+00	-1.7874410452e+00
 8.8282379857e-01	 1.1344727369e+00	-1.8388429674e+00
 8.5924830776e-01	 1.1524316013e+00	-1.8775219266e+00
 8.3534358534e-01	 1.1698749268e+00	-1.9036843217e+00
 8.1112645412e-01	 1.1867940535e+00	-1.9176076160e+00
 7.8661402048e-01	 1.2031810474e+00	-1.9196381581e+00
 1.0253048327e+00	 1.0253048327e+00	-1.3854935230e+00
 1.0038524816e+00	 1.0463174447e+00	-1.5060754348e+00
 9.8197432933e-01	 1.0668769453e+00	-1.6116876277e+00
 9.5968484918e-01	 1.0869705563e+00	-1.7021230402e+00
 9.3699901811e-01	 1.1065861196e+00	-1.7772577837e+00
 9.1393228326e-01	 1.1257121220e+00	-1.8370520711e+00
 8.9050052725e-01	 1.1443377172e+00	-1.8815504762e+00
 8.6672003218e-01	 1.1624527456e+00	-1.9108815246e+00
 8.4260744260e-01	 1.1800477523e+00	-1.9252566232e+00
 8.1817972764e-01	 1.1971140018e+00	-1.9249683433e+00
 7.9345414240e-01	 1.2136434913e+00	-1.9103880806e+00
 1.0341436675e+00	 1.0341436675e+00	-1.4347551448e+00
 1.0125063823e+00	 1.0553374227e+00	-1.5600943174e+00
 9.9043962528e-01	 1.0760741604e+00	-1.6681738746e+00
 9.6795799444e-01	 1.0963409921e+00	-1.7587411954e+00
 9.4507659585e-01	 1.1161256551e+00	-1.8316368020e+00
 9.2181100984e-01	 1.1354165368e+00	-1.8867954252e+00
 8.9817725593e-01	 1.1542026975e+00	-1.9242463410e+00
 8.7419175659e-01	 1.1724738900e+00	-1.9441129781e+00
 8.4987129986e-01	 1.1902205777e+00	-1.9466118029e+00
 8.2523300115e-01	 1.2074339501e+00	-1.9320504998e+00
 8.0029426432e-01	 1.2241059352e+00	-1.9008254689e+00
 1.0429825022e+00	 1.0429825022e+00	-1.4853336472e+00
 1.0211602830e+00	 1.0643574007e+00	-1.6151590491e+00
 9.9890492122e-01	 1.0852713754e+00	-1.7254604662e+00
 9.7623113969e-01	 1.1057114279e+00	-1.8159399924e+00
 9.5315417359e-01	 1.1256651906e+00	-1.8864027899e+00
 9.2968973642e-01	 1.1451209517e+00	-1.9367582930e+00
 9.0585398462e-01	 1.1640676778e+00	-1.9670206212e+00
 8.8166348101e-01	 1.1824950344e+00	-1.9773082025e+00
 8.5713515713e-01	 1.2003934032e+00	-1.9678426148e+00
 8.3228627467e-01	 1.2177538984e+00	-1.9389466629e+00
 8.0713438623e-01	 1.2345683791e+00	-1.8910417151e+00
 1.0518213370e+00	 1.0518213370e+00	-1.5372864295e+00
 1.0298141837e+00	 1.0733773786e+00	-1.6713346457e+00
 1.0073702172e+00	 1.0944685905e+00	-1.7836190880e+00
 9.8450428494e-01	 1.1150818638e+00	-1.8737968250e+00
 9.6123175134e-01	 1.1352047261e+00	-1.9416378786e+00
 9.3756846300e-01	 1.1548253665e+00	-1.9870265637e+00
 9.1353071330e-01	 1.1739326581e+00	-2.0099619788e+00
 8.8913520543e-01	 1.1925161787e+00	-2.0105576451e+00
 8.6439901439e-01	 1.2105662286e+00	-1.9890403045e+00
 8.3933954818e-01	 1.2280738467e+00	-1.9457478926e+00
 8.1397450815e-01	 1.2450308230e+00	-1.8811267148e+00
 1.0606601718e+00	 1.0606601718e+00	-1.5906705649e+00
 1.0384680844e+00	 1.0823973566e+00	-1.7286855572e+00
 1.0158355131e+00	 1.1036658055e+00	-1.8427206471e+00
 9.9277743019e-01	 1.1244522996e+00	-1.9323881256e+00
 9.6930932908e-01	 1.1447442616e+00	-1.9974230826e+00
 9.4544718958e-01	 1.1645297814e+00	-2.0376848834e+00
 9.2120744199e-01	 1.1837976385e+00	-2.0531577361e+00
 8.9660692984e-01	 1.2025373231e+00	-2.0439503467e+00
 8.7166287166e-01	 1.2207390541e+00	-2.0102946731e+00
 8.4639282170e-01	 1.2383937950e+00	-1.9525437951e+00
 8.2081463007e-01	 1.2554932668e+00	-1.9488557241e+00
 7.5241341089e-01	 1.1508688279e+00	-1.9578885055e+00
 7.2870086873e-01	 1.1660274628e+00	-2.0332761295e+00
 7.0473925348e-01	 1.1806640439e+00	-2.0820477050e+00
 6.8054551769e-01	 1.1947731159e+00	-2.1037995225e+00
 6.5613673552e-01	 1.2083499428e+00	-2.0982570216e+00
 6.3153006544e-01	 1.2213905094e+00	-2.0652726825e+00
 6.0674271315e-01	 1.2338915188e+00	-2.0048231607e+00
 5.8179189513e-01	 1.2458503886e+00	-1.9170057131e+00
 5.5669480277e-01	 1.2572652451e+00	-1.9238298757e+00
 5.3146856729e-01	 1.2681349147e+00	-1.9687661765e+00
 5.0613022563e-01	 1.2784589140e+00	-1.9832271788e+00
 7.5925353281e-01	 1.1613312718e+00	-1.9516291434e+00
 7.3532542209e-01	 1.1766277124e+00	-2.0022987130e+00
 7.1114597397e-01	 1.1913973534e+00	-2.0264020966e+00
 6.8673229512e-01	 1.2056346896e+00	-2.0236479832e+00
 6.6210161494e-01	 1.2193349423e+00	-1.9938733795e+00
 6.3727124786e-01	 1.2324940595e+00	-1.9370410462e+00
 6.1225855600e-01	 1.2451087144e+00	-1.8532361892e+00
 5.8708091236e-01	 1.2571763012e+00	-1.8610955611e+00
 5.6175566461e-01	 1.2686949292e+00	-1.9189752849e+00
 5.3630009973e-01	 1.2796634140e+00	-1.9473390488e+00
 5.1073140950e-01	 1.2900812677e+00	-1.9461985295e+00
 7.6609365473e-01	 1.1717937157e+00	-1.9445754194e+00
 7.4194997544e-01	 1.1872279621e+00	-1.9711653974e+00
 7.1755269446e-01	 1.2021306629e+00	-1.9712258960e+00
 6.9291907256e-01	 1.2164962634e+00	-1.9445769783e+00
 6.6806649436e-01	 1.2303199418e+00	-1.8911662607e+00
 6.4301243028e-01	 1.2435976096e+00	-1.8110658972e+00
 6.1777439885e-01	 1.2563259100e+00	-1.8071194883e+00
 5.9236992959e-01	 1.2685022139e+00	-1.8768183200e+00
 5.6681652646e-01	 1.2801246132e+00	-1.9178830198e+00
 5.4113163216e-01	 1.2911919132e+00	-1.9303144694e+00
 5.1533259338e-01	 1.3017036215e+00	-1.9141985123e+00
 7.7293377665e-01	 1.1822561596e+00	-1.9368272644e+00
 7.4857452879e-01	 1.1978282118e+00	-1.9399568247e+00
 7.2395941495e-01	 1.2128639724e+00	-1.9165805142e+00
 6.9910585000e-01	 1.2273578372e+00	-1.8666287816e+00
 6.7403137378e-01	 1.2413049413e+00	-1.7901589323e+00
 6.4875361269e-01	 1.2547011597e+00	-1.7622683532e+00
 6.2329024170e-01	 1.2675431056e+00	-1.8428331940e+00
 5.9765894683e-01	 1.2798281265e+00	-1.8955610630e+00
 5.7187738831e-01	 1.2915542973e+00	-1.9204478205e+00
 5.4596316460e-01	 1.3027204124e+00	-1.9175714242e+00
 5.1993377725e-01	 1.3133259753e+00	-1.8870907752e+00
 7.7977389856e-01	 1.1927186035e+00	-1.9284827477e+00
 7.5519908215e-01	 1.2084284614e+00	-1.9087524284e+00
 7.3036613543e-01	 1.2235972819e+00	-1.8625268015e+00
 7.0529262743e-01	 1.2382194110e+00	-1.7898457477e+00
 6.7999625319e-01	 1.2522899408e+00	-1.7266680235e+00
 6.5449479511e-01	 1.2658047098e+00	-1.8173233953e+00
 6.2880608455e-01	 1.2787603013e+00	-1.8808477029e+00
 6.0294796406e-01	 1.2911540391e+00	-1.9172372320e+00
 5.7693825016e-01	 1.3029839813e+00	-1.9265675711e+00
 5.5079469703e-01	 1.3142489116e+00	-1.9089926203e+00
 5.2453496112e-01	 1.3249483290e+00	-1.8647432511e+00
 7.8661402048e-01	 1.2031810474e+00	-1.9196381581e+00
 7.6182363550e-01	 1.2190287111e+00	-1.8776304866e+00
 7.3677285592e-01	 1.2343305914e+00	-1.8091250721e+00
 7.1147940487e-01	 1.2490809848e+00	-1.7142703079e+00
 6.8596113261e-01	 1.2632749402e+00	-1.8003523383e+00
 6.6023597752e-01	 1.2769082598e+00	-1.8739835798e+00
 6.3432192740e-01	 1.2899774969e+00	-1.9210942382e+00
 6.0823698129e-01	 1.3024799517e+00	-1.9417627113e+00
 5.8199911200e-01	 1.3144136654e+00	-1.9361431629e+00
 5.5562622946e-01	 1.3257774109e+00	-1.9044643242e+00
 5.2913614499e-01	 1.3365706828e+00	-1.8470279707e+00
 7.9345414240e-01	 1.2136434913e+00	-1.9103880806e+00
 7.6844818885e-01	 1.2296289607e+00	-1.8466681715e+00
 7.4317957641e-01	 1.2450639009e+00	-1.7564351275e+00
 7.1766618230e-01	 1.2599425586e+00	-1.7917387680e+00
 6.9192601202e-01	 1.2742599397e+00	-1.8749699974e+00
 6.6597715994e-01	 1.2880118099e+00	-1.9321970147e+00
 6.3983777025e-01	 1.3011946925e+00	-1.9635058088e+00
 6.1352599852e-01	 1.3138058643e+00	-1.9690557227e+00
 5.8705997385e-01	 1.3258433494e+00	-1.9490783649e+00
 5.6045776189e-01	 1.3373059101e+00	-1.9038762081e+00
 5.3373732887e-01	 1.3481930365e+00	-1.8338208864e+00
 8.0029426432e-01	 1.2241059352e+00	-1.9008254689e+00
 7.7507274221e-01	 1.2402292104e+00	-1.8159415968e+00
 7.4958629690e-01	 1.2557972104e+00	-1.7910532820e+00
 7.2385295974e-01	 1.2708041323e+00	-1.8835645237e+00
 6.9789089144e-01	 1.2852449392e+00	-1.9504851208e+00
 6.7171834235e-01	 1.2991153600e+00	-1.9919129798e+00
 6.4535361310e-01	 1.3124118881e+00	-2.0080171331e+00
 6.1881501575e-01	 1.3251317770e+00	-1.9990367251e+00
 5.9212083569e-01	 1.3372730334e+00	-1.9652797006e+00
 5.6528929432e-01	 1.3488344093e+00	-1.9071212049e+00
 5.3833851274e-01	 1.3598153903e+00	-1.8250017042e+00
 8.0713438623e-01	 1.2345683791e+00	-1.8910417151e+00
 7.8169729556e-01	 1.2508294601e+00	-1.7976160291e+00
 7.5599301738e-01	 1.2665305199e+00	-1.8992777086e+00
 7.3003973717e-01	 1.2816657061e+00	-1.9756552941e+00
 7.0385577085e-01	 1.2962299387e+00	-2.0268624273e+00
 6.7745952476e-01	 1.3102189101e+00	-2.0530818769e+00
 6.5086945594e-01	 1.3236290838e+00	-2.0545645665e+00
 6.2410403298e-01	 1.3364576896e+00	-2.0316283199e+00
 5.9718169753e-01	 1.3487027175e+00	-1.9846563314e+00
 5.7012082675e-01	 1.3603629085e+00	-1.9140953695e+00
 5.4293969661e-01	 1.3714377441e+00	-1.8204537252e+00
 8.1397450815e-01	 1.2450308230e+00	-1.8811267148e+00
 7.8832184891e-01	 1.2614297097e+00	-1.9213709737e+00
 7.6239973787e-01	 1.2772638293e+00	-2.0071583603e+00
 7.3622651460e-01	 1.2925272799e+00	-2.0679904266e+00
 7.0982065027e-01	 1.3072149381e+00	-2.1040672089e+00
 6.8320070718e-01	 1.3213224602e+00	-2.1156551825e+00
 6.5638529879e-01	 1.3348462794e+00	-2.1030860323e+00
 6.2939305020e-01	 1.3477836022e+00	-2.0667551612e+00
 6.0224255938e-01	 1.3601324015e+00	-2.0071199457e+00
 5.7495235918e-01	 1.3718914078e+00	-1.9246977480e+00
 5.4754088048e-01	 1.3830600978e+00	-1.8200636942e+00
 8.2081463007e-01	 1.2554932668e+00	-1.9488557241e+00
 7.9494640226e-01	 1.2720299594e+00	-2.0441973125e+00
 7.6880645835e-01	 1.2879971388e+00	-2.1146884248e+00
 7.4241329204e-01	 1.3033888537e+00	-2.1605493306e+00
 7.1578552968e-01	 1.3181999376e+00	-2.1820653073e+00
 6.8894188959e-01	 1.3324260103e+00	-2.1795854037e+00
 6.6190114164e-01	 1.3460634750e+00	-2.1535209572e+00
 6.3468206743e-01	 1.3591095148e+00	-2.1043438700e+00
 6.0730342122e-01	 1.3715620856e+00	-2.0325846538e+00
 5.7978389161e-01	 1.3834199070e+00	-1.9388302528e+00
 5.5214206435e-01	 1.3946824516e+00	-1.8237216562e+00
 5.0613022563e-01	 1.2784589140e+00	-1.9832271788e+00
 4.8069668729e-01	 1.2882374373e+00	-2.0334205642e+00
 4.5518470244e-01	 1.2974713433e+00	-2.0672757569e+00
 4.2961083119e-01	 1.3061621391e+00	-2.0850106940e+00
 4.0399141433e-01	 1.3143119634e+00	-2.0868812595e+00
 3.7834254540e-01	 1.3219235675e+00	-2.0731801572e+00
 3.5268004430e-01	 1.3290002958e+00	-2.0442356292e+00
 3.2701943254e-01	 1.3355460646e+00	-2.0004100260e+00
 3.0137591004e-01	 1.3415653398e+00	-1.9420982400e+00
 2.7576433360e-01	 1.3470631137e+00	-1.8697260131e+00
 2.5019919707e-01	 1.3520448816e+00	-1.7837481303e+00
 5.1073140950e-01	 1.2900812677e+00	-1.9461985295e+00
 4.8506665718e-01	 1.2999486867e+00	-1.9842850550e+00
 4.5932274519e-01	 1.3092665373e+00	-2.0081049935e+00
 4.3351638421e-01	 1.3180363404e+00	-2.0178417499e+00
 4.0766406356e-01	 1.3262602540e+00	-2.0137109915e+00
 3.8178202308e-01	 1.3339410545e+00	-1.9959598754e+00
 3.5588622652e-01	 1.3410821167e+00	-1.9648661319e+00
 3.2999233647e-01	 1.3476873925e+00	-1.9207370123e+00
 3.0411569104e-01	 1.3537613883e+00	-1.8639081061e+00
 2.7827128209e-01	 1.3593091420e+00	-1.7947420375e+00
 2.5247373523e-01	 1.3643361987e+00	-1.7136270492e+00
 5.1533259338e-01	 1.3017036215e+00	-1.9141985123e+00
 4.8943662707e-01	 1.3116599361e+00	-1.9401600372e+00
 4.6346078794e-01	 1.3210617313e+00	-1.9538951819e+00
 4.3742193722e-01	 1.3299105417e+00	-1.9555531909e+00
 4.1133671278e-01	 1.3382085445e+00	-1.9453099537e+00
 3.8522150077e-01	 1.3459585415e+00	-1.9233675819e+00
 3.5909240874e-01	 1.3531639376e+00	-1.8899538566e+00
 3.3296524041e-01	 1.3598287203e+00	-1.8453215495e+00
 3.0685547204e-01	 1.3659574368e+00	-1.7897476212e+00
 2.8077823058e-01	 1.3715551703e+00	-1.7235323026e+00
 2.5474827338e-01	 1.3766275158e+00	-1.6469980661e+00
 5.1993377725e-01	 1.3133259753e+00	-1.8870907752e+00
 4.9380659695e-01	 1.3233711856e+00	-1.9009109589e+00
 4.6759883069e-01	 1.3328569254e+00	-1.9045144301e+00
 4.4132749023e-01	 1.3417847429e+00	-1.8980166287e+00
 4.1500936201e-01	 1.3501568351e+00	-1.8815540856e+00
 3.8866097846e-01	 1.3579760284e+00	-1.8552843483e+00
 3.6229859096e-01	 1.3652457584e+00	-1.8193857893e+00
 3.3593814434e-01	 1.3719700482e+00	-1.7740572974e+00
 3.0959525305e-01	 1.3781534854e+00	-1.7195178536e+00
 2.8328517906e-01	 1.3838011986e+00	-1.6560059947e+00
 2.5702281154e-01	 1.3889188329e+00	-1.5837791688e+00
 5.2453496112e-01	 1.3249483290e+00	-1.8647432511e+00
 4.9817656684e-01	 1.3350824350e+00	-1.8664075149e+00
 4.7173687344e-01	 1.3446521194e+00	-1.8598350260e+00
 4.4523304325e-01	 1.3536589442e+00	-1.8451077578e+00
 4.1868201123e-01	 1.3621051257e+00	-1.8223232843e+00
 3.9210045614e-01	 1.3699935154e+00	-1.7915950507e+00
 3.6550477318e-01	 1.3773275793e+00	-1.7530525401e+00
 3.3891104827e-01	 1.3841113761e+00	-1.7068413324e+00
 3.1233503405e-01	 1.3903495339e+00	-1.6531230551e+00
 2.8579212755e-01	 1.3960472269e+00	-1.5920752257e+00
 2.5929734969e-01	 1.4012101500e+00	-1.5238909874e+00
 5.2913614499e-01	 1.3365706828e+00	-1.8470279707e+00
 5.0254653673e-01	 1.3467936844e+00	-1.8365234623e+00
 4.7587491620e-01	 1.3564473134e+00	-1.8197332549e+00
 4.4913859626e-01	 1.3655331454e+00	-1.7967061783e+00
 4.2235466045e-01	 1.3740534163e+00	-1.7675012330e+00
 3.9553993383e-01	 1.3820110024e+00	-1.7321882044e+00
 3.6871095541e-01	 1.3894094002e+00	-1.6908481851e+00
 3.4188395221e-01	 1.3962527039e+00	-1.6435739988e+00
 3.1507481505e-01	 1.4025455825e+00	-1.5904705224e+00
 2.8829907604e-01	 1.4082932552e+00	-1.5316549048e+00
 2.6157188785e-01	 1.4135014671e+00	-1.4672566799e+00
 5.3373732887e-01	 1.3481930365e+00	-1.8338208864e+00
 5.0691650661e-01	 1.3585049339e+00	-1.8111364452e+00
 4.8001295895e-01	 1.3682425075e+00	-1.7840892281e+00
 4.5304414927e-01	 1.3774073467e+00	-1.7526952275e+00
 4.2602730967e-01	 1.3860017068e+00	-1.7169752371e+00
 3.9897941152e-01	 1.3940284894e+00	-1.6769558067e+00
 3.7191713763e-01	 1.4014912211e+00	-1.6326701175e+00
 3.4485685614e-01	 1.4083940318e+00	-1.5841587680e+00
 3.1781459605e-01	 1.4147416310e+00	-1.5314704659e+00
 2.9080602453e-01	 1.4205392835e+00	-1.4746626191e+00
 2.6384642601e-01	 1.4257927842e+00	-1.4138018232e+00
 5.3833851274e-01	 1.3598153903e+00	-1.8250017042e+00
 5.1128647650e-01	 1.3702161833e+00	-1.7901278290e+00
 4.8415100170e-01	 1.3800377015e+00	-1.7527867185e+00
 4.5694970228e-01	 1.3892815480e+00	-1.7129618198e+00
 4.2969995890e-01	 1.3979499974e+00	-1.6706360698e+00
 4.0241888921e-01	 1.4060459763e+00	-1.6257931886e+00
 3.7512331985e-01	 1.4135730419e+00	-1.5784189054e+00
 3.4782976007e-01	 1.4205353596e+00	-1.5285021050e+00
 3.2055437705e-01	 1.4269376796e+00	-1.4760358852e+00
 2.9331297302e-01	 1.4327853118e+00	-1.4210185182e+00
 2.6612096416e-01	 1.4380841013e+00	-1.3634543093e+00
 5.4293969661e-01	 1.3714377441e+00	-1.8204537252e+00
 5.1565644639e-01	 1.3819274327e+00	-1.7733825420e+00
 4.8828904445e-01	 1.3918328955e+00	-1.7257130061e+00
 4.6085525530e-01	 1.4011557492e+00	-1.6773962961e+00
 4.3337260812e-01	 1.4098982880e+00	-1.6283778254e+00
 4.0585836689e-01	 1.4180634633e+00	-1.5785988731e+00
 3.7832950207e-01	 1.4256548628e+00	-1.5279981578e+00
 3.5080266401e-01	 1.4326766875e+00	-1.4765133416e+00
 3.2329415805e-01	 1.4391337281e+00	-1.4240824510e+00
 2.9581992150e-01	 1.4450313402e+00	-1.3706452062e+00
 2.6839550232e-01	 1.4503754184e+00	-1.3161442477e+00
 5.4754088048e-01	 1.3830600978e+00	-1.8200636942e+00
 5.2002641627e-01	 1.3936386821e+00	-1.7607889265e+00
 4.9242708720e-01	 1.4036280896e+00	-1.7027587305e+00
 4.6476080831e-01	 1.4130299505e+00	-1.6458922785e+00
 4.3704525734e-01	 1.4218465786e+00	-1.5900977790e+00
 4.0929784458e-01	 1.4300809503e+00	-1.5352744413e+00
 3.8153568429e-01	 1.4377366837e+00	-1.4813143964e+00
 3.5377556794e-01	 1.4448180154e+00	-1.4281045555e+00
 3.2603393905e-01	 1.4513297766e+00	-1.3755283926e+00
 2.9832686999e-01	 1.4572773685e+00	-1.3234676383e+00
 2.7067004047e-01	 1.4626667355e+00	-1.2718038719e+00
 5.5214206435e-01	 1.3946824516e+00	-1.8237216562e+00
 5.2439638616e-01	 1.4053499316e+00	-1.7522385961e+00
 4.9656512995e-01	 1.4154232836e+00	-1.6838177506e+00
 4.6866636132e-01	 1.4249041518e+00	-1.6183465349e+00
 4.4071790656e-01	 1.4337948692e+00	-1.5556962548e+00
 4.1273732226e-01	 1.4420984373e+00	-1.4957244051e+00
 3.8474186652e-01	 1.4498185046e+00	-1.4382769344e+00
 3.5674847187e-01	 1.4569593432e+00	-1.3831904564e+00
 3.2877372005e-01	 1.4635258252e+00	-1.3302943916e+00
 3.0083381848e-01	 1.4695233968e+00	-1.2794130229e+00
 2.7294457863e-01	 1.4749580526e+00	-1.2303674512e+00
 2.5019919707e-01	 1.3520448816e+00	-1.7837481303e+00
 2.2469461325e-01	 1.3565166165e+00	-1.7781330241e+00
 1.9926429742e-01	 1.3604847444e+00	-1.7690751338e+00
 1.7392155274e-01	 1.3639561186e+00	-1.7566245583e+00
 1.4867925715e-01	 1.3669379937e+00	-1.7408381624e+00
 1.2354985213e-01	 1.3694379993e+00	-1.7217797655e+00
 9.8545332989e-02	 1.3714641145e+00	-1.6995202467e+00
 7.3677240862e-02	 1.3730246408e+00	-1.6741375701e+00
 4.8956656228e-02	 1.3741281766e+00	-1.6457167337e+00
 2.4394193985e-02	 1.3747835914e+00	-1.6143496456e+00
 0.0000000000e+00	 1.3750000000e+00	-1.5801349323e+00
 2.5247373523e-01	 1.3643361987e+00	-1.7136270492e+00
 2.2673729155e-01	 1.3688485857e+00	-1.7113167580e+00
 2.0107579104e-01	 1.3728527875e+00	-1.7045292707e+00
 1.7550265777e-01	 1.3763557197e+00	-1.6933261382e+00
 1.5003088676e-01	 1.3793647027e+00	-1.6777791009e+00
 1.2467303260e-01	 1.3818874357e+00	-1.6579700888e+00
 9.9441199652e-02	 1.3839319701e+00	-1.6339911314e+00
 7.4347033960e-02	 1.3855066830e+00	-1.6059441812e+00
 4.9401716739e-02	 1.3866202510e+00	-1.5739408555e+00
 2.4615959384e-02	 1.3872816241e+00	-1.5381021036e+00
 0.0000000000e+00	 1.3875000000e+00	-1.4985578034e+00
 2.5474827338e-01	 1.3766275158e+00	-1.6469980661e+00
 2.2877996985e-01	 1.3811805550e+00	-1.6479707252e+00
 2.0288728465e-01	 1.3852208307e+00	-1.6434510430e+00
 1.7708376279e-01	 1.3887553208e+00	-1.6335115757e+00
 1.5138251637e-01	 1.3917914117e+00	-1.6182384656e+00
 1.2579621308e-01	 1.3943368721e+00	-1.5977312568e+00
 1.0033706631e-01	 1.3963998257e+00	-1.5721026118e+00
 7.5016827059e-02	 1.3979887252e+00	-1.5414779356e+00
 4.9846777249e-02	 1.3991123253e+00	-1.5059949136e+00
 2.4837724784e-02	 1.3997796567e+00	-1.4658029715e+00
 0.0000000000e+00	 1.4000000000e+00	-1.4210626632e+00
 2.5702281154e-01	 1.3889188329e+00	-1.5837791688e+00
 2.3082264815e-01	 1.3935125242e+00	-1.5880147721e+00
 2.0469877826e-01	 1.3975888738e+00	-1.5857616071e+00
 1.7866486781e-01	 1.4011549218e+00	-1.5771027945e+00
 1.5273414598e-01	 1.4042181208e+00	-1.5621384136e+00
 1.2691939355e-01	 1.4067863084e+00	-1.5409851348e+00
 1.0123293298e-01	 1.4088676813e+00	-1.5137757459e+00
 7.5686620157e-02	 1.4104707673e+00	-1.4806585793e+00
 5.0291837760e-02	 1.4116043996e+00	-1.4417968490e+00
 2.5059490184e-02	 1.4122776894e+00	-1.3973679049e+00
 0.0000000000e+00	 1.4125000000e+00	-1.3475624142e+00
 2.5929734969e-01	 1.4012101500e+00	-1.5238909874e+00
 2.3286532645e-01	 1.4058444934e+00	-1.5313713486e+00
 2.0651027187e-01	 1.4099569169e+00	-1.5313847020e+00
 1.8024597284e-01	 1.4135545229e+00	-1.5240242995e+00
 1.5408577559e-01	 1.4166448298e+00	-1.5094036995e+00
 1.2804257402e-01	 1.4192357448e+00	-1.4876562197e+00
 1.0212879964e-01	 1.4213355368e+00	-1.4589342750e+00
 7.6356413255e-02	 1.4229528095e+00	-1.4234086109e+00
 5.0736898271e-02	 1.4240964740e+00	-1.3812674409e+00
 2.5281255583e-02	 1.4247757220e+00	-1.3327154988e+00
 0.0000000000e+00	 1.4250000000e+00	-1.2779730152e+00
 2.6157188785e-01	 1.4135014671e+00	-1.4672566799e+00
 2.3490800476e-01	 1.4181764627e+00	-1.4779653948e+00
 2.0832176549e-01	 1.4223249601e+00	-1.4802465378e+00
 1.8182707786e-01	 1.4259541240e+00	-1.4742030646e+00
 1.5543740520e-01	 1.4290715388e+00	-1.4599615628e+00
 1.2916575450e-01	 1.4316851811e+00	-1.4376715261e+00
 1.0302466630e-01	 1.4338033924e+00	-1.4075045077e+00
 7.7026206353e-02	 1.4354348517e+00	-1.3696531614e+00
 5.1181958781e-02	 1.4365885483e+00	-1.3243301824e+00
 2.5503020983e-02	 1.4372737547e+00	-1.2717671592e+00
 0.0000000000e+00	 1.4375000000e+00	-1.2122133479e+00
 2.6384642601e-01	 1.4257927842e+00	-1.4138018232e+00
 2.3695068306e-01	 1.4305084319e+00	-1.4277242336e+00
 2.1013325910e-01	 1.4346930032e+00	-1.4322756886e+00
 1.8340818289e-01	 1.4383537251e+00	-1.4275684265e+00
 1.5678903481e-01	 1.4414982479e+00	-1.4137416205e+00
 1.3028893497e-01	 1.4441346175e+00	-1.3909604775e+00
 1.0392053297e-01	 1.4462712480e+00	-1.3594152087e+00
 7.7695999451e-02	 1.4479168939e+00	-1.3193198812e+00
 5.1627019292e-02	 1.4490806226e+00	-1.2709111641e+00
 2.5724786382e-02	 1.4497717873e+00	-1.2144469824e+00
 0.0000000000e+00	 1.4500000000e+00	-1.1502050915e+00
 2.6612096416e-01	 1.4380841013e+00	-1.3634543093e+00
 2.3899336136e-01	 1.4428404012e+00	-1.3805774690e+00
 2.1194475271e-01	 1.4470610463e+00	-1.3874029918e+00
 1.8498928791e-01	 1.4507533262e+00	-1.3840519834e+00
 1.5814066442e-01	 1.4539249569e+00	-1.3706757656e+00
 1.3141211544e-01	 1.4565840538e+00	-1.3474548035e+00
 1.0481639963e-01	 1.4587391036e+00	-1.3145974943e+00
 7.8365792550e-02	 1.4603989361e+00	-1.2723388323e+00
 5.2072079803e-02	 1.4615726970e+00	-1.2209389627e+00
 2.5946551782e-02	 1.4622698200e+00	-1.1606816397e+00
 0.0000000000e+00	 1.4625000000e+00	-1.0918726026e+00
 2.6839550232e-01	 1.4503754184e+00	-1.3161442477e+00
 2.4103603966e-01	 1.4551723704e+00	-1.3364568893e+00
 2.1375624632e-01	 1.4594290895e+00	-1.3455614521e+00
 1.8657039294e-01	 1.4631529272e+00	-1.3435874991e+00
 1.5949229403e-01	 1.4663516659e+00	-1.3306980708e+00
 1.3253529592e-01	 1.4690334902e+00	-1.3070884420e+00
 1.0571226629e-01	 1.4712069592e+00	-1.2729847323e+00
 7.9035585648e-02	 1.4728809783e+00	-1.2286423860e+00
 5.2517140314e-02	 1.4740647713e+00	-1.1743445362e+00
 2.6168317182e-02	 1.4747678526e+00	-1.1104002686e+00
 0.0000000000e+00	 1.4750000000e+00	-1.0371428020e+00
 2.7067004047e-01	 1.4626667355e+00	-1.2718038719e+00
 2.4307871796e-01	 1.4675043396e+00	-1.2952963754e+00
 2.1556773994e-01	 1.4717971326e+00	-1.3066861504e+00
 1.8815149796e-01	 1.4755525283e+00	-1.3061108125e+00
 1.6084392364e-01	 1.4787783750e+00	-1.2937446968e+00
 1.3365847639e-01	 1.4814829266e+00	-1.2697974465e+00
 1.0660813296e-01	 1.4836748148e+00	-1.2345124476e+00
 7.9705378746e-02	 1.4853630205e+00	-1.1881651260e+00
 5.2962200824e-02	 1.4865568456e+00	-1.1310611231e+00
 2.6390082581e-02	 1.4872658853e+00	-1.0635343688e+00
 0.0000000000e+00	 1.4875000000e+00	-9.8594506693e-01
 2.7294457863e-01	 1.4749580526e+00	-1.2303674512e+00
 2.4512139627e-01	 1.4798363089e+00	-1.2570318137e+00
 2.1737923355e-01	 1.4841651757e+00	-1.2707141574e+00
 1.8973260298e-01	 1.4879521294e+00	-1.2715597507e+00
 1.6219555325e-01	 1.4912050840e+00	-1.2597538051e+00
 1.3478165686e-01	 1.4939323629e+00	-1.2355198979e+00
 1.0750399962e-01	 1.4961426704e+00	-1.1991182327e+00
 8.0375171844e-02	 1.4978450627e+00	-1.1508437562e+00
 5.3407261335e-02	 1.4990489200e+00	-1.0910241482e+00
 2.6611847981e-02	 1.4997639179e+00	-1.0200177042e+00
 0.0000000000e+00	 1.5000000000e+00	-9.3821112890e-01
 1.5000000000e+00	 0.0000000000e+00	 3.2260723887e+00
 1.4997639179e+00	 2.6611847981e-02	 3.2784348053e+00
 1.4990489200e+00	 5.3407261335e-02	 3.3090114014e+00
 1.4978450627e+00	 8.0375171844e-02	 3.3182151791e+00
 1.4961426704e+00	 1.0750399962e-01	 3.3065063161e+00
 1.4939323629e+00	 1.3478165686e-01	 3.2743926219e+00
 1.4912050840e+00	 1.6219555325e-01	 3.2224298736e+00
 1.4879521294e+00	 1.8973260298e-01	 3.1512220259e+00
 1.4841651757e+00	 2.1737923355e-01	 3.0614212852e+00
 1.4798363089e+00	 2.4512139627e-01	 2.9537280412e+00
 1.4749580526e+00	 2.7294457863e-01	 2.8288906462e+00
 1.5125000000e+00	 0.0000000000e+00	 3.2065346362e+00
 1.5122619506e+00	 2.6833613381e-02	 3.2564379324e+00
 1.5115409943e+00	 5.3852321846e-02	 3.2851748885e+00
 1.5103271049e+00	 8.1044964942e-02	 3.2931733088e+00
 1.5086105259e+00	 1.0839986628e-01	 3.2809065502e+00
 1.5063817993e+00	 1.3590483734e-01	 3.2488938742e+00
 1.5036317930e+00	 1.6354718286e-01	 3.1977006847e+00
 1.5003517305e+00	 1.9131370801e-01	 3.1279386450e+00
 1.4965332189e+00	 2.1919072716e-01	 3.0402656654e+00
 1.4921682781e+00	 2.4716407457e-01	 2.9353857553e+00
 1.4872493697e+00	 2.7521911678e-01	 2.8140487316e+00
 1.5250000000e+00	 0.0000000000e+00	 3.1897009096e+00
 1.5247599832e+00	 2.7055378780e-02	 3.2370507487e+00
 1.5240330686e+00	 5.4297382357e-02	 3.2638459035e+00
 1.5228091470e+00	 8.1714758041e-02	 3.2705288453e+00
 1.5210783815e+00	 1.0929573294e-01	 3.2575859816e+00
 1.5188312356e+00	 1.3702801781e-01	 3.2255479063e+00
 1.5160585021e+00	 1.6489881247e-01	 3.1749895403e+00
 1.5127513316e+00	 1.9289481303e-01	 3.1065301565e+00
 1.5089012620e+00	 2.2100222078e-01	 3.0208332819e+00
 1.5045002474e+00	 2.4920675287e-01	 2.9186064724e+00
 1.4995406868e+00	 2.7749365494e-01	 2.8006009505e+00
 1.5375000000e+00	 0.0000000000e+00	 3.1754794942e+00
 1.5372580159e+00	 2.7277144180e-02	 3.2201837617e+00
 1.5365251430e+00	 5.4742442867e-02	 3.2449374306e+00
 1.5352911892e+00	 8.2384551139e-02	 3.2501975038e+00
 1.5335462371e+00	 1.1019159961e-01	 3.2364633112e+00
 1.5312806720e+00	 1.3815119828e-01	 3.2042766594e+00
 1.5284852111e+00	 1.6625044208e-01	 3.1542218749e+00
 1.5251509326e+00	 1.9447591806e-01	 3.0869257395e+00
 1.5212693051e+00	 2.2281371439e-01	 3.0030573078e+00
 1.5168322166e+00	 2.5124943117e-01	 2.9033276050e+00
 1.5118320039e+00	 2.7976819309e-01	 2.7884891966e+00
 1.5500000000e+00	 0.0000000000e+00	 3.1637816338e+00
 1.5497560485e+00	 2.7498909579e-02	 3.2057503979e+00
 1.5490172173e+00	 5.5187503378e-02	 3.2283653256e+00
 1.5477732314e+00	 8.3054344237e-02	 3.2320978165e+00
 1.5460140927e+00	 1.1108746627e-01	 3.2174599955e+00
 1.5437301084e+00	 1.3927437876e-01	 3.1850047605e+00
 1.5409119201e+00	 1.6760207169e-01	 3.1353257319e+00
 1.5375505337e+00	 1.9605702308e-01	 3.0690570974e+00
 1.5336373482e+00	 2.2462520800e-01	 2.9868733476e+00
 1.5291641859e+00	 2.5329210948e-01	 2.8894888972e+00
 1.5241233210e+00	 2.8204273125e-01	 2.7776575880e+00
 1.5625000000e+00	 0.0000000000e+00	 3.1545214125e+00
 1.5622540812e+00	 2.7720674979e-02	 3.1936668861e+00
 1.5615092916e+00	 5.5632563889e-02	 3.2140482012e+00
 1.5602552736e+00	 8.3724137335e-02	 3.2161510209e+00
 1.5584819483e+00	 1.1198333293e-01	 3.2005001361e+00
 1.5561795447e+00	 1.4039755923e-01	 3.1676594153e+00
 1.5533386292e+00	 1.6895370130e-01	 3.1182316591e+00
 1.5499501348e+00	 1.9763812811e-01	 3.0528583569e+00
 1.5460053914e+00	 2.2643670161e-01	 2.9722193406e+00
 1.5414961551e+00	 2.5533478778e-01	 2.8770323317e+00
 1.5364146382e+00	 2.8431726940e-01	 2.7680523782e+00
 1.5750000000e+00	 0.0000000000e+00	 3.1476156418e+00
 1.5747521138e+00	 2.7942440379e-02	 3.1838521457e+00
 1.5740013660e+00	 5.6077624400e-02	 3.2019073179e+00
 1.5727373158e+00	 8.4393930433e-02	 3.2022809514e+00
 1.5709498039e+00	 1.1287919960e-01	 3.1855103751e+00
 1.5686289811e+00	 1.4152073970e-01	 3.1521703058e+00
 1.5657653382e+00	 1.7030533091e-01	 3.1028726097e+00
 1.5623497359e+00	 1.9921923313e-01	 3.0382659716e+00
 1.5583734345e+00	 2.2824819523e-01	 2.9590354679e+00
 1.5538281243e+00	 2.5737746608e-01	 2.8659020411e+00
 1.5487059553e+00	 2.8659180756e-01	 2.7596218710e+00
 1.5875000000e+00	 0.0000000000e+00	 3.1429837535e+00
 1.5872501465e+00	 2.8164205778e-02	 3.1762276812e+00
 1.5864934403e+00	 5.6522684910e-02	 3.1918664796e+00
 1.5852193580e+00	 8.5063723532e-02	 3.1904139378e+00
 1.5834176595e+00	 1.1377506626e-01	 3.1724197947e+00
 1.5810784174e+00	 1.4264392017e-01	 3.1384694926e+00
 1.5781920472e+00	 1.7165696052e-01	 3.0891838473e+00
 1.5747493369e+00	 2.0080033816e-01	 3.0252186307e+00
 1.5707414776e+00	 2.3005968884e-01	 2.9472640646e+00
 1.5661600936e+00	 2.5942014438e-01	 2.8560442230e+00
 1.5609972724e+00	 2.8886634572e-01	 2.7523163402e+00
 1.6000000000e+00	 0.0000000000e+00	 3.1405476969e+00
 1.5997481791e+00	 2.8385971178e-02	 3.1707174813e+00
 1.5989855146e+00	 5.6967745421e-02	 3.1838519340e+00
 1.5977014002e+00	 8.5733516630e-02	 3.1804787078e+00
 1.5958855151e+00	 1.1467093292e-01	 3.1611598224e+00
 1.5935278538e+00	 1.4376710065e-01	 3.1264913225e+00
 1.5906187563e+00	 1.7300859013e-01	 3.0771028558e+00
 1.5871489380e+00	 2.0238144318e-01	 3.0136571715e+00
 1.5831095208e+00	 2.3187118245e-01	 2.9368495349e+00
 1.5784920628e+00	 2.6146282268e-01	 2.8474070595e+00
 1.5732885895e+00	 2.9114088387e-01	 2.7460879524e+00
 1.6125000000e+00	 0.0000000000e+00	 3.1402318416e+00
 1.6122462118e+00	 2.8607736578e-02	 3.1672479222e+00
 1.6114775890e+00	 5.7412805932e-02	 3.1777922782e+00
 1.6101834424e+00	 8.6403309728e-02	 3.1724062934e+00
 1.6083533706e+00	 1.1556679958e-01	 3.1516641396e+00
 1.6059772901e+00	 1.4489028112e-01	 3.1161723391e+00
 1.6030454653e+00	 1.7436021974e-01	 3.0665692533e+00
 1.5995485391e+00	 2.0396254820e-01	 3.0035244962e+00
 1.5954775639e+00	 2.3368267606e-01	 2.9277382726e+00
 1.5908240321e+00	 2.6350550099e-01	 2.8399406401e+00
 1.5855799066e+00	 2.9341542203e-01	 2.7408906936e+00
 1.6250000000e+00	 0.0000000000e+00	 3.1419628844e+00
 1.6247442444e+00	 2.8829501977e-02	 3.1657476761e+00
 1.6239696633e+00	 5.7857866443e-02	 3.1736183683e+00
 1.6226654846e+00	 8.7073102826e-02	 3.1661299431e+00
 1.6208212262e+00	 1.1646266625e-01	 3.1438685950e+00
 1.6184267265e+00	 1.4601346159e-01	 3.1074511991e+00
 1.6154721743e+00	 1.7571184935e-01	 3.0575247099e+00
 1.6119481402e+00	 2.0554365323e-01	 2.9947654925e+00
 1.6078456070e+00	 2.3549416968e-01	 2.9198785843e+00
 1.6031560013e+00	 2.6554817929e-01	 2.8335968887e+00
 1.5978712237e+00	 2.9568996018e-01	 2.7366802995e+00
 1.4749580526e+00	 2.7294457863e-01	 2.8288906462e+00
 1.4695233968e+00	 3.0083381848e-01	 2.7628984782e+00
 1.4635258252e+00	 3.2877372005e-01	 2.6831915413e+00
 1.4569593432e+00	 3.5674847187e-01	 2.5903505674e+00
 1.4498185046e+00	 3.8474186652e-01	 2.4849858673e+00
 1.4420984373e+00	 4.1273732226e-01	 2.3677368544e+00
 1.4337948692e+00	 4.4071790656e-01	 2.2392714699e+00
 1.4249041518e+00	 4.6866636132e-01	 2.1002855018e+00
 1.4154232836e+00	 4.9656512995e-01	 1.9515017904e+00
 1.4053499316e+00	 5.2439638616e-01	 1.7936693136e+00
 1.3946824516e+00	 5.5214206435e-01	 1.6275621446e+00
 1.4872493697e+00	 2.7521911678e-01	 2.8140487316e+00
 1.4817694251e+00	 3.0334076697e-01	 2.7494973887e+00
 1.4757218737e+00	 3.3151350105e-01	 2.6706484699e+00
 1.4691006711e+00	 3.5972137580e-01	 2.5780709559e+00
 1.4619003254e+00	 3.8794804874e-01	 2.4723653563e+00
 1.4541159243e+00	 4.1617679995e-01	 2.3541633862e+00
 1.4457431597e+00	 4.4439055579e-01	 2.2241275395e+00
 1.4367783530e+00	 4.7257191433e-01	 2.0829505518e+00
 1.4272184776e+00	 5.0070317270e-01	 1.9313547434e+00
 1.4170611810e+00	 5.2876635604e-01	 1.7700912355e+00
 1.4063048054e+00	 5.5674324821e-01	 1.5999390281e+00
 1.4995406868e+00	 2.7749365494e-01	 2.8006009505e+00
 1.4940154534e+00	 3.0584771545e-01	 2.7374045253e+00
 1.4879179223e+00	 3.3425328206e-01	 2.6593400808e+00
 1.4812419989e+00	 3.6269427974e-01	 2.5669650062e+00
 1.4739821463e+00	 3.9115423096e-01	 2.4608701444e+00
 1.4661334112e+00	 4.1961627764e-01	 2.3416796196e+00
 1.4576914503e+00	 4.4806320501e-01	 2.2100505589e+00
 1.4486525543e+00	 4.7647746734e-01	 2.0666726984e+00
 1.4390136716e+00	 5.0484121545e-01	 1.9122678646e+00
 1.4287724304e+00	 5.3313632592e-01	 1.7475893195e+00
 1.4179271591e+00	 5.6134443208e-01	 1.5734209612e+00
 1.5118320039e+00	 2.7976819309e-01	 2.7884891966e+00
 1.5062614817e+00	 3.0835466394e-01	 2.7265642658e+00
 1.5001139708e+00	 3.3699306306e-01	 2.6492129541e+00
 1.4933833268e+00	 3.6566718367e-01	 2.5569812095e+00
 1.4860639672e+00	 3.9436041318e-01	 2.4504503328e+00
 1.4781508982e+00	 4.2305575532e-01	 2.3302369556e+00
 1.4696397409e+00	 4.5173585423e-01	 2.1969929101e+00
 1.4605267556e+00	 4.8038302035e-01	 2.0514049786e+00
 1.4508088657e+00	 5.0897925820e-01	 1.8941945116e+00
 1.4404836799e+00	 5.3750629581e-01	 1.7261169039e+00
 1.4295495129e+00	 5.6594561595e-01	 1.5479609160e+00
 1.5241233210e+00	 2.8204273125e-01	 2.7776575880e+00
 1.5185075100e+00	 3.1086161243e-01	 2.7169231691e+00
 1.5123100194e+00	 3.3973284406e-01	 2.6402158170e+00
 1.5055246547e+00	 3.6864008760e-01	 2.5480701793e+00
 1.4981457880e+00	 3.9756659540e-01	 2.4410581295e+00
 1.4901683852e+00	 4.2649523301e-01	 2.3197888964e+00
 1.4815880315e+00	 4.5540850345e-01	 2.1849090811e+00
 1.4724009568e+00	 4.8428857336e-01	 2.0371025490e+00
 1.4626040597e+00	 5.1311730095e-01	 1.8770901862e+00
 1.4521949293e+00	 5.4187626569e-01	 1.7056295050e+00
 1.4411718666e+00	 5.7054679982e-01	 1.5235140875e+00
 1.5364146382e+00	 2.8431726940e-01	 2.7680523782e+00
 1.5307535383e+00	 3.1336856092e-01	 2.7084298880e+00
 1.5245060679e+00	 3.4247262506e-01	 2.6322994583e+00
 1.5176659825e+00	 3.7161299154e-01	 2.5401845666e+00
 1.5102276089e+00	 4.0077277763e-01	 2.4326477655e+00
 1.5021858722e+00	 4.2993471070e-01	 2.3102909620e+00
 1.4935363220e+00	 4.5908115267e-01	 2.1737555810e+00
 1.4842751581e+00	 4.8819412638e-01	 2.0237226014e+00
 1.4743992537e+00	 5.1725534370e-01	 1.8609124485e+00
 1.4639061787e+00	 5.4624623558e-01	 1.6860847307e+00
 1.4527942204e+00	 5.7514798369e-01	 1.5000378050e+00
 1.5487059553e+00	 2.8659180756e-01	 2.7596218710e+00
 1.5429995666e+00	 3.1587550940e-01	 2.7010350862e+00
 1.5367021165e+00	 3.4521240606e-01	 2.6254166459e+00
 1.5298073104e+00	 3.7458589547e-01	 2.5332789791e+00
 1.5223094298e+00	 4.0397895985e-01	 2.4251754145e+00
 1.5142033592e+00	 4.3337418838e-01	 2.3017006095e+00
 1.5054846126e+00	 4.6275380190e-01	 2.1634908606e+00
 1.4961493594e+00	 4.9209967939e-01	 2.0112242818e+00
 1.4861944478e+00	 5.2139338645e-01	 1.8456208350e+00
 1.4756174282e+00	 5.5061620546e-01	 1.6674421972e+00
 1.4644165742e+00	 5.7974916756e-01	 1.4774914472e+00
 1.5609972724e+00	 2.8886634572e-01	 2.7523163402e+00
 1.5552455949e+00	 3.1838245789e-01	 2.6946913592e+00
 1.5488981650e+00	 3.4795218706e-01	 2.6195220494e+00
 1.5419486383e+00	 3.7755879940e-01	 2.5273099040e+00
 1.5343912507e+00	 4.0718514207e-01	 2.4185991162e+00
 1.5262208461e+00	 4.3681366607e-01	 2.2939771575e+00
 1.5174329032e+00	 4.6642645112e-01	 2.1540752352e+00
 1.5080235606e+00	 4.9600523240e-01	 1.9995686137e+00
 1.4979896418e+00	 5.2553142920e-01	 1.8311767815e+00
 1.4873286776e+00	 5.5498617535e-01	 1.6496634498e+00
 1.4760389279e+00	 5.8435035143e-01	 1.4558363616e+00
 1.5732885895e+00	 2.9114088387e-01	 2.7460879524e+00
 1.5674916232e+00	 3.2088940638e-01	 2.6893531583e+00
 1.5610942135e+00	 3.5069196806e-01	 2.6145721656e+00
 1.5540899661e+00	 3.8053170334e-01	 2.5222356349e+00
 1.5464730715e+00	 4.1039132429e-01	 2.4128787034e+00
 1.5382383331e+00	 4.4025314375e-01	 2.2870817127e+00
 1.5293811938e+00	 4.7009910034e-01	 2.1454708125e+00
 1.5198977619e+00	 4.9991078541e-01	 1.9887184246e+00
 1.5097848358e+00	 5.2966947195e-01	 1.8175435481e+00
 1.4990399270e+00	 5.5935614523e-01	 1.6327118879e+00
 1.4876612817e+00	 5.8895153530e-01	 1.4350357875e+00
 1.5855799066e+00	 2.9341542203e-01	 2.7408906936e+00
 1.5797376515e+00	 3.2339635487e-01	 2.6849767193e+00
 1.5732902621e+00	 3.5343174906e-01	 2.6105252478e+00
 1.5662312940e+00	 3.8350460727e-01	 2.5180162014e+00
 1.5585548924e+00	 4.1359750651e-01	 2.4079757328e+00
 1.5502558201e+00	 4.4369262144e-01	 2.2809771010e+00
 1.5413294843e+00	 4.7377174956e-01	 2.1376414222e+00
 1.5317719632e+00	 5.0381633842e-01	 1.9786382761e+00
 1.5215800299e+00	 5.3380751470e-01	 1.8046861489e+00
 1.5107511764e+00	 5.6372611512e-01	 1.6165526929e+00
 1.4992836355e+00	 5.9355271917e-01	 1.4150547828e+00
 1.5978712237e+00	 2.9568996018e-01	 2.7366802995e+00
 1.5919836798e+00	 3.2590330336e-01	 2.6815199938e+00
 1.5854863106e+00	 3.5617153006e-01	 2.6073412381e+00
 1.5783726218e+00	 3.8647751120e-01	 2.5146133027e+00
 1.5706367133e+00	 4.1680368873e-01	 2.4038534184e+00
 1.5622733071e+00	 4.4713209913e-01	 2.2756278015e+00
 1.5532777749e+00	 4.7744439878e-01	 2.1305525509e+00
 1.5436461644e+00	 5.0772189143e-01	 1.9692943973e+00
 1.5333752239e+00	 5.3794555745e-01	 1.7925712844e+00
 1.5224624259e+00	 5.6809608500e-01	 1.6011527596e+00
 1.5109059892e+00	 5.9815390303e-01	 1.3958601541e+00
 1.3946824516e+00	 5.5214206435e-01	 1.6275621446e+00
 1.3834199070e+00	 5.7978389161e-01	 1.4837239859e+00
 1.3715620856e+00	 6.0730342122e-01	 1.3300467174e+00
 1.3591095148e+00	 6.3468206743e-01	 1.1676257170e+00
 1.3460634750e+00	 6.6190114164e-01	 9.9759571060e-01
 1.3324260103e+00	 6.8894188959e-01	 8.2112833920e-01
 1.3181999376e+00	 7.1578552968e-01	 6.3942944105e-01
 1.3033888537e+00	 7.4241329204e-01	 4.5373604941e-01
 1.2879971388e+00	 7.6880645835e-01	 2.6531310608e-01
 1.2720299594e+00	 7.9494640226e-01	 7.5449895222e-02
 1.2554932668e+00	 8.2081463007e-01	-1.1454379627e-01
 1.4063048054e+00	 5.5674324821e-01	 1.5999390281e+00
 1.3949484062e+00	 5.8461542404e-01	 1.4540946002e+00
 1.3829917696e+00	 6.1236428306e-01	 1.2993498780e+00
 1.3704354275e+00	 6.3997108466e-01	 1.1367871736e+00
 1.3572806706e+00	 6.6741698448e-01	 9.6752507770e-01
 1.3435295603e+00	 6.9468307200e-01	 7.9271606270e-01
 1.3291849371e+00	 7.2175040909e-01	 6.1354381624e-01
 1.3142504274e+00	 7.4860006947e-01	 4.3122030524e-01
 1.2987304483e+00	 7.7521317884e-01	 2.4698257059e-01
 1.2826302090e+00	 8.0157095562e-01	 6.2089256145e-02
 1.2659557107e+00	 8.2765475199e-01	-1.2218312181e-01
 1.4179271591e+00	 5.6134443208e-01	 1.5734209612e+00
 1.4064769054e+00	 5.8944695647e-01	 1.4253356965e+00
 1.3944214537e+00	 6.1742514490e-01	 1.2692754375e+00
 1.3817613401e+00	 6.4526010189e-01	 1.1063095705e+00
 1.3684978662e+00	 6.7293282733e-01	 9.3754073459e-01
 1.3546331104e+00	 7.0042425441e-01	 7.6410246151e-01
 1.3401699366e+00	 7.2771528851e-01	 5.8715656178e-01
 1.3251120012e+00	 7.5478684690e-01	 4.0789025561e-01
 1.3094637578e+00	 7.8161989933e-01	 2.2751304905e-01
 1.2932304587e+00	 8.0819550897e-01	 4.7253358468e-02
 1.2764181546e+00	 8.3449487391e-01	-1.3164511116e-01
 1.4295495129e+00	 5.6594561595e-01	 1.5479609160e+00
 1.4180054047e+00	 5.9427848890e-01	 1.3974062681e+00
 1.4058511377e+00	 6.2248600675e-01	 1.2397886953e+00
 1.3930872527e+00	 6.5054911911e-01	 1.0761647888e+00
 1.3797150619e+00	 6.7844867017e-01	 9.0762140881e-01
 1.3657366605e+00	 7.0616543683e-01	 7.3527336362e-01
 1.3511549360e+00	 7.3368016792e-01	 5.6026084824e-01
 1.3359735750e+00	 7.6097362433e-01	 3.8374664321e-01
 1.3201970673e+00	 7.8802661981e-01	 2.0691307264e-01
 1.3038307084e+00	 8.1482006232e-01	 3.0958724388e-02
 1.2868805985e+00	 8.4133499582e-01	-1.4290506291e-01
 1.4411718666e+00	 5.7054679982e-01	 1.5235140875e+00
 1.4295339039e+00	 5.9911002133e-01	 1.3702673689e+00
 1.4172808218e+00	 6.2754686859e-01	 1.2108568388e+00
 1.4044131653e+00	 6.5583813634e-01	 1.0463264141e+00
 1.3909322575e+00	 6.8396451302e-01	 8.7774733971e-01
 1.3768402106e+00	 7.1190661924e-01	 7.0621590623e-01
 1.3621399355e+00	 7.3964504733e-01	 5.3285094334e-01
 1.3468351488e+00	 7.6716040177e-01	 3.5879108676e-01
 1.3309303768e+00	 7.9443334030e-01	 1.8519181872e-01
 1.3144309580e+00	 8.2144461567e-01	 1.3222284061e-02
 1.2973430424e+00	 8.4817511774e-01	-1.5593811395e-01
 1.4527942204e+00	 5.7514798369e-01	 1.5000378050e+00
 1.4410624031e+00	 6.0394155376e-01	 1.3438820309e+00
 1.4287105058e+00	 6.3260773043e-01	 1.1824488673e+00
 1.4157390779e+00	 6.6112715357e-01	 1.0167696689e+00
 1.4021494531e+00	 6.8948035586e-01	 8.4790021799e-01
 1.3879437607e+00	 7.1764780165e-01	 6.7691848336e-01
 1.3731249350e+00	 7.4560992674e-01	 5.0492216811e-01
 1.3576967225e+00	 7.7334717920e-01	 3.3302604603e-01
 1.3416636863e+00	 8.0084006078e-01	 1.6235908501e-01
 1.3250312077e+00	 8.2806916902e-01	-5.9386407219e-03
 1.3078054863e+00	 8.5501523966e-01	-1.7071924595e-01
 1.4644165742e+00	 5.7974916756e-01	 1.4774914472e+00
 1.4525909023e+00	 6.0877308619e-01	 1.3182151860e+00
 1.4401401898e+00	 6.3766859227e-01	 1.1545355208e+00
 1.4270649906e+00	 6.6641617079e-01	 9.8747134696e-01
 1.4133666487e+00	 6.9499619871e-01	 8.1806312810e-01
 1.3990473108e+00	 7.2338898406e-01	 6.4737069600e-01
 1.3841099345e+00	 7.5157480616e-01	 4.7647085506e-01
 1.3685582963e+00	 7.7953395663e-01	 3.0645478844e-01
 1.3523969957e+00	 8.0724678127e-01	 1.3842526497e-01
 1.3356314573e+00	 8.3469372238e-01	-2.6506352072e-02
 1.3182679302e+00	 8.6185536158e-01	-1.8722329149e-01
 1.4760389279e+00	 5.8435035143e-01	 1.4558363616e+00
 1.4641194016e+00	 6.1360461862e-01	 1.2932335907e+00
 1.4515698739e+00	 6.4272945412e-01	 1.1270892107e+00
 1.4383909032e+00	 6.7170518802e-01	 9.5840975207e-01
 1.4245838444e+00	 7.0051204155e-01	 7.8822049337e-01
 1.4101508608e+00	 7.2913016647e-01	 6.1756330456e-01
 1.3950949340e+00	 7.5753968557e-01	 4.4749430839e-01
 1.3794198701e+00	 7.8572073407e-01	 2.7908135726e-01
 1.3631303052e+00	 8.1365350175e-01	 1.1340132436e-01
 1.3462317070e+00	 8.4131827573e-01	-4.8462790814e-02
 1.3287303741e+00	 8.6869548350e-01	-2.0542493994e-01
 1.4876612817e+00	 5.8895153530e-01	 1.4350357875e+00
 1.4756479008e+00	 6.1843615105e-01	 1.2689057552e+00
 1.4629995579e+00	 6.4779031596e-01	 1.1000839553e+00
 1.4497168158e+00	 6.7699420525e-01	 9.2956463866e-01
 1.4358010400e+00	 7.0602788440e-01	 7.5835802370e-01
 1.4212544109e+00	 7.3487134888e-01	 5.8748818361e-01
 1.4060799334e+00	 7.6350456498e-01	 4.1799076598e-01
 1.3902814439e+00	 7.9190751150e-01	 2.5091054131e-01
 1.3738636147e+00	 8.2006022224e-01	 8.7298778854e-02
 1.3568319566e+00	 8.4794282908e-01	-7.1789550593e-02
 1.3391928179e+00	 8.7553560541e-01	-2.2529874307e-01
 1.4992836355e+00	 5.9355271917e-01	 1.4150547828e+00
 1.4871764000e+00	 6.2326768348e-01	 1.2452018754e+00
 1.4744292420e+00	 6.5285117780e-01	 1.0734953169e+00
 1.4610427284e+00	 6.8228322248e-01	 9.0091715571e-01
 1.4470182356e+00	 7.1154372724e-01	 7.2846266571e-01
 1.4323579610e+00	 7.4061253130e-01	 5.5713827868e-01
 1.4170649329e+00	 7.6946944439e-01	 3.8795936326e-01
 1.4011430177e+00	 7.9809428893e-01	 2.2194784606e-01
 1.3845969242e+00	 8.2646694273e-01	 6.0129672753e-02
 1.3674322063e+00	 8.5456738243e-01	-9.6467891338e-02
 1.3496552618e+00	 8.8237572733e-01	-2.4681912036e-01
 1.5109059892e+00	 5.9815390303e-01	 1.3958601541e+00
 1.4987048992e+00	 6.2809921591e-01	 1.2220937679e+00
 1.4858589260e+00	 6.5791203964e-01	 1.0473003426e+00
 1.4723686411e+00	 6.8757223970e-01	 8.7244979311e-01
 1.4582354312e+00	 7.1705957009e-01	 6.9852255515e-01
 1.4434615111e+00	 7.4635371371e-01	 5.2650756505e-01
 1.4280499324e+00	 7.7543432381e-01	 3.5740009867e-01
 1.4120045914e+00	 8.0428106636e-01	 1.9219946606e-01
 1.3953302337e+00	 8.3287366321e-01	 3.1906558640e-02
 1.3780324560e+00	 8.6119193579e-01	-1.2247875209e-01
 1.3601177057e+00	 8.8921584925e-01	-2.6996036411e-01
 1.2554932668e+00	 8.2081463007e-01	-1.1454379627e-01
 1.2383937950e+00	 8.4639282170e-01	-2.7100336940e-01
 1.2207390541e+00	 8.7166287166e-01	-4.0470535646e-01
 1.2025373231e+00	 8.9660692984e-01	-5.4377892239e-01
 1.1837976385e+00	 9.2120744199e-01	-6.8730018230e-01
 1.1645297814e+00	 9.4544718958e-01	-8.3434354320e-01
 1.1447442616e+00	 9.6930932908e-01	-9.8398809834e-01
 1.1244522996e+00	 9.9277743019e-01	-1.1353239089e+00
 1.1036658055e+00	 1.0158355131e+00	-1.2874581112e+00
 1.0823973566e+00	 1.0384680844e+00	-1.4395207908e+00
 1.0606601718e+00	 1.0606601718e+00	-1.5906705649e+00
 1.2659557107e+00	 8.2765475199e-01	-1.2218312181e-01
 1.2487137432e+00	 8.5344609521e-01	-3.2842818634e-01
 1.2309118795e+00	 8.7892672892e-01	-4.5728156627e-01
 1.2125584674e+00	 9.0407865426e-01	-5.9161609804e-01
 1.1936626188e+00	 9.2888417067e-01	-7.3049868446e-01
 1.1742341962e+00	 9.5332591617e-01	-8.7299448192e-01
 1.1542837971e+00	 9.7738690683e-01	-1.0181734062e+00
 1.1338227354e+00	 1.0010505754e+00	-1.1651165228e+00
 1.1128630206e+00	 1.0243008091e+00	-1.3129222588e+00
 1.0914173346e+00	 1.0471219851e+00	-1.4607123757e+00
 1.0694990065e+00	 1.0694990065e+00	-1.6076376453e+00
 1.2764181546e+00	 8.3449487391e-01	-1.3164511116e-01
 1.2590336915e+00	 8.6049936873e-01	-3.4180630505e-01
 1.2410847050e+00	 8.8619058619e-01	-5.1129875565e-01
 1.2225796118e+00	 9.1155037868e-01	-6.4103248802e-01
 1.2035275991e+00	 9.3656089936e-01	-7.7540484802e-01
 1.1839386111e+00	 9.6120464275e-01	-9.1347111737e-01
 1.1638233327e+00	 9.8546448457e-01	-1.0542914490e+00
 1.1431931713e+00	 1.0093237207e+00	-1.1969373699e+00
 1.1220602356e+00	 1.0327661050e+00	-1.3404981004e+00
 1.1004373125e+00	 1.0557758859e+00	-1.4840866300e+00
 1.0783378413e+00	 1.0783378413e+00	-1.6268454885e+00
 1.2868805985e+00	 8.4133499582e-01	-1.4290506291e-01
 1.2693536398e+00	 8.6755264225e-01	-3.5059677024e-01
 1.2512575304e+00	 8.9345444346e-01	-5.6075714594e-01
 1.2326007561e+00	 9.1902210310e-01	-6.9206999241e-01
 1.2133925794e+00	 9.4423762804e-01	-8.2206009791e-01
 1.1936430259e+00	 9.6908336933e-01	-9.5581443156e-01
 1.1733628682e+00	 9.9354206231e-01	-1.0923827965e+00
 1.1525636071e+00	 1.0175968660e+00	-1.2308266363e+00
 1.1312574507e+00	 1.0412314009e+00	-1.3702254661e+00
 1.1094572905e+00	 1.0644297866e+00	-1.5096830536e+00
 1.0871766761e+00	 1.0871766761e+00	-1.6483332886e+00
 1.2973430424e+00	 8.4817511774e-01	-1.5593811395e-01
 1.2796735881e+00	 8.7460591576e-01	-3.6126644484e-01
 1.2614303559e+00	 9.0071830072e-01	-5.6914990991e-01
 1.2426219005e+00	 9.2649382751e-01	-7.4477051748e-01
 1.2232575597e+00	 9.5191435673e-01	-8.7050591441e-01
 1.2033474407e+00	 9.7696209591e-01	-1.0000655074e+00
 1.1829024037e+00	 1.0016196401e+00	-1.1324881610e+00
 1.1619340429e+00	 1.0258700112e+00	-1.2668246891e+00
 1.1404546657e+00	 1.0496966969e+00	-1.4021444013e+00
 1.1184772685e+00	 1.0730836873e+00	-1.5375413919e+00
 1.0960155108e+00	 1.0960155108e+00	-1.6721405114e+00
 1.3078054863e+00	 8.5501523966e-01	-1.7071924595e-01
 1.2899935364e+00	 8.8165918928e-01	-3.7378810688e-01
 1.2716031813e+00	 9.0798215799e-01	-5.7949593325e-01
 1.2526430448e+00	 9.3396555193e-01	-7.8703454730e-01
 1.2331225400e+00	 9.5959108542e-01	-9.2078383092e-01
 1.2130518556e+00	 9.8484082249e-01	-1.0462655249e+00
 1.1924419392e+00	 1.0096972178e+00	-1.1746483923e+00
 1.1713044787e+00	 1.0341431565e+00	-1.3049720694e+00
 1.1496518808e+00	 1.0581619928e+00	-1.4362951579e+00
 1.1274972465e+00	 1.0817375880e+00	-1.5677016260e+00
 1.1048543456e+00	 1.1048543456e+00	-1.6983068841e+00
 1.3182679302e+00	 8.6185536158e-01	-1.8722329149e-01
 1.3003134847e+00	 8.8871246279e-01	-3.8813443996e-01
 1.2817760068e+00	 9.1524601525e-01	-5.9176590515e-01
 1.2626641892e+00	 9.4143727635e-01	-7.9731409137e-01
 1.2429875204e+00	 9.6726781410e-01	-9.7293543190e-01
 1.2227562704e+00	 9.9271954908e-01	-1.0944557567e+00
 1.2019814747e+00	 1.0177747955e+00	-1.2189044716e+00
 1.1806749146e+00	 1.0424163017e+00	-1.3453094848e+00
 1.1588490958e+00	 1.0666272888e+00	-1.4727181863e+00
 1.1365172244e+00	 1.0903914887e+00	-1.6002039637e+00
 1.1136931804e+00	 1.1136931804e+00	-1.7268723844e+00
 1.3287303741e+00	 8.6869548350e-01	-2.0542493994e-01
 1.3106334330e+00	 8.9576573631e-01	-4.0427803690e-01
 1.2919488322e+00	 9.2250987252e-01	-6.0593047369e-01
 1.2726853336e+00	 9.4890900077e-01	-8.0958309297e-01
 1.2528525007e+00	 9.7494454279e-01	-1.0144059587e+00
 1.2324606853e+00	 1.0005982757e+00	-1.1446775654e+00
 1.2115210102e+00	 1.0258523733e+00	-1.2652975067e+00
 1.1900453504e+00	 1.0506894470e+00	-1.3878778034e+00
 1.1680463108e+00	 1.0750925847e+00	-1.5114541277e+00
 1.1455372024e+00	 1.0990453894e+00	-1.6350888301e+00
 1.1225320151e+00	 1.1225320151e+00	-1.7578772312e+00
 1.3391928179e+00	 8.7553560541e-01	-2.2529874307e-01
 1.3209533813e+00	 9.0281900982e-01	-4.2219140333e-01
 1.3021216577e+00	 9.2977372978e-01	-6.2196024737e-01
 1.2827064779e+00	 9.5638072518e-01	-8.2381041739e-01
 1.2627174810e+00	 9.8262127147e-01	-1.0269149125e+00
 1.2421651001e+00	 1.0084770022e+00	-1.1969723990e+00
 1.2210605457e+00	 1.0339299510e+00	-1.3138687271e+00
 1.1994157862e+00	 1.0589625922e+00	-1.4327180472e+00
 1.1772435259e+00	 1.0835578807e+00	-1.5525438062e+00
 1.1545571804e+00	 1.1076992901e+00	-1.6723968593e+00
 1.1313708499e+00	 1.1313708499e+00	-1.7913618745e+00
 1.3496552618e+00	 8.8237572733e-01	-2.4681912036e-01
 1.3312733296e+00	 9.0987228334e-01	-4.4184696105e-01
 1.3122944831e+00	 9.3703758705e-01	-6.3982579670e-01
 1.2927276223e+00	 9.6385244960e-01	-8.3996493498e-01
 1.2725824613e+00	 9.9029800016e-01	-1.0414401655e+00
 1.2518695150e+00	 1.0163557288e+00	-1.2433959766e+00
 1.2306000812e+00	 1.0420075288e+00	-1.3646594791e+00
 1.2087862221e+00	 1.0672357375e+00	-1.4798713865e+00
 1.1864407409e+00	 1.0920231766e+00	-1.5960282224e+00
 1.1635771583e+00	 1.1163531908e+00	-1.7121688865e+00
 1.1402096847e+00	 1.1402096847e+00	-1.8273669870e+00
 1.3601177057e+00	 8.8921584925e-01	-2.6996036411e-01
 1.3415932778e+00	 9.1692555685e-01	-4.6321705127e-01
 1.3224673086e+00	 9.4430144431e-01	-6.5949765562e-01
 1.3027487666e+00	 9.7132417402e-01	-8.5801552093e-01
 1.2824474416e+00	 9.9797472884e-01	-1.0579490869e+00
 1.2615739298e+00	 1.0242344554e+00	-1.2584440621e+00
 1.2401396167e+00	 1.0500851065e+00	-1.4177112212e+00
 1.2181566579e+00	 1.0755088827e+00	-1.5293791336e+00
 1.1956379560e+00	 1.1004884725e+00	-1.6419485458e+00
 1.1725971363e+00	 1.1250070915e+00	-1.7544459401e+00
 1.1490485194e+00	 1.1490485194e+00	-1.8659334553e+00
 1.0606601718e+00	 1.0606601718e+00	-1.5906705649e+00
 1.0384680844e+00	 1.0823973566e+00	-1.7286855572e+00
 1.0158355131e+00	 1.1036658055e+00	-1.8427206471e+00
 9.9277743019e-01	 1.1244522996e+00	-1.9323881256e+00
 9.6930932908e-01	 1.1447442616e+00	-1.9974230826e+00
 9.4544718958e-01	 1.1645297814e+00	-2.0376848834e+00
 9.2120744199e-01	 1.1837976385e+00	-2.0531577361e+00
 8.9660692984e-01	 1.2025373231e+00	-2.0439503467e+00
 8.7166287166e-01	 1.2207390541e+00	-2.0102946731e+00
 8.4639282170e-01	 1.2383937950e+00	-1.9525437951e+00
 8.2081463007e-01	 1.2554932668e+00	-1.9488557241e+00
 1.0694990065e+00	 1.0694990065e+00	-1.6076376453e+00
 1.0471219851e+00	 1.0914173346e+00	-1.7418469136e+00
 1.0243008091e+00	 1.1128630206e+00	-1.8502276037e+00
 1.0010505754e+00	 1.1338227354e+00	-1.9323597108e+00
 9.7738690683e-01	 1.1542837971e+00	-1.9879546071e+00
 9.5332591617e-01	 1.1742341962e+00	-2.0168566225e+00
 9.2888417067e-01	 1.1936626188e+00	-2.0190436600e+00
 9.0407865426e-01	 1.2125584674e+00	-1.9946268478e+00
 8.7892672892e-01	 1.2309118795e+00	-1.9438492355e+00
 8.5344609521e-01	 1.2487137432e+00	-1.8670835554e+00
 8.2765475199e-01	 1.2659557107e+00	-1.9893002370e+00
 1.0783378413e+00	 1.0783378413e+00	-1.6268454885e+00
 1.0557758859e+00	 1.1004373125e+00	-1.7570623262e+00
 1.0327661050e+00	 1.1220602356e+00	-1.8596191470e+00
 1.0093237207e+00	 1.1431931713e+00	-1.9340637798e+00
 9.8546448457e-01	 1.1638233327e+00	-1.9800839874e+00
 9.6120464275e-01	 1.1839386111e+00	-1.9975091503e+00
 9.3656089936e-01	 1.2035275991e+00	-1.9863109326e+00
 9.1155037868e-01	 1.2225796118e+00	-1.9466029291e+00
 8.8619058619e-01	 1.2410847050e+00	-1.8786393049e+00
 8.6049936873e-01	 1.2590336915e+00	-1.9063916728e+00
 8.3449487391e-01	 1.2764181546e+00	-2.0293044941e+00
 1.0871766761e+00	 1.0871766761e+00	-1.6483332886e+00
 1.0644297866e+00	 1.1094572905e+00	-1.7743763544e+00
 1.0412314009e+00	 1.1312574507e+00	-1.8709444743e+00
 1.0175968660e+00	 1.1525636071e+00	-1.9375534300e+00
 9.9354206231e-01	 1.1733628682e+00	-1.9738674755e+00
 9.6908336933e-01	 1.1936430259e+00	-1.9797011232e+00
 9.4423762804e-01	 1.2133925794e+00	-1.9550198602e+00
 9.1902210310e-01	 1.2326007561e+00	-1.8999397915e+00
 8.9345444346e-01	 1.2512575304e+00	-1.8314297029e+00
 8.6755264225e-01	 1.2693536398e+00	-1.9629114628e+00
 8.4133499582e-01	 1.2868805985e+00	-2.0688606876e+00
 1.0960155108e+00	 1.0960155108e+00	-1.6721405114e+00
 1.0730836873e+00	 1.1184772685e+00	-1.7938336699e+00
 1.0496966969e+00	 1.1404546657e+00	-1.8842527551e+00
 1.0258700112e+00	 1.1619340429e+00	-1.9428816118e+00
 1.0016196401e+00	 1.1829024037e+00	-1.9693610777e+00
 9.7696209591e-01	 1.2033474407e+00	-1.9634908733e+00
 9.5191435673e-01	 1.2232575597e+00	-1.9252303676e+00
 9.2649382751e-01	 1.2426219005e+00	-1.8546982180e+00
 9.0071830072e-01	 1.2614303559e+00	-1.9029362108e+00
 8.7460591576e-01	 1.2796735881e+00	-2.0189335398e+00
 8.4817511774e-01	 1.2973430424e+00	-2.1079606065e+00
 1.1048543456e+00	 1.1048543456e+00	-1.6983068841e+00
 1.0817375880e+00	 1.1274972465e+00	-1.8154790521e+00
 1.0581619928e+00	 1.1496518808e+00	-1.8995931325e+00
 1.0341431565e+00	 1.1713044787e+00	-1.9501011342e+00
 1.0096972178e+00	 1.1924419392e+00	-1.9666205641e+00
 9.8484082249e-01	 1.2130518556e+00	-1.9489364215e+00
 9.5959108542e-01	 1.2331225400e+00	-1.8970020133e+00
 9.3396555193e-01	 1.2526430448e+00	-1.8447093097e+00
 9.0798215799e-01	 1.2716031813e+00	-1.9739228368e+00
 8.8165918928e-01	 1.2899935364e+00	-2.0744496210e+00
 8.5501523966e-01	 1.3078054863e+00	-2.1465956530e+00
 1.1136931804e+00	 1.1136931804e+00	-1.7268723844e+00
 1.0903914887e+00	 1.1365172244e+00	-1.8393573836e+00
 1.0666272888e+00	 1.1588490958e+00	-1.9170147241e+00
 1.0424163017e+00	 1.1806749146e+00	-1.9592646706e+00
 1.0177747955e+00	 1.2019814747e+00	-1.9657014782e+00
 9.9271954908e-01	 1.2227562704e+00	-1.9360954902e+00
 9.6726781410e-01	 1.2429875204e+00	-1.8703940041e+00
 9.4143727635e-01	 1.2626641892e+00	-1.9292226553e+00
 9.1524601525e-01	 1.2817760068e+00	-2.0443806552e+00
 8.8871246279e-01	 1.3003134847e+00	-2.1294510285e+00
 8.6185536158e-01	 1.3182679302e+00	-2.1847568575e+00
 1.1225320151e+00	 1.1225320151e+00	-1.7578772312e+00
 1.0990453894e+00	 1.1455372024e+00	-1.8655136464e+00
 1.0750925847e+00	 1.1680463108e+00	-1.9365666229e+00
 1.0506894470e+00	 1.1900453504e+00	-1.9704247643e+00
 1.0258523733e+00	 1.2115210102e+00	-1.9666591454e+00
 1.0005982757e+00	 1.2324606853e+00	-1.9250255145e+00
 9.7494454279e-01	 1.2528525007e+00	-1.8803988685e+00
 9.4890900077e-01	 1.2726853336e+00	-2.0132099298e+00
 9.2250987252e-01	 1.2919488322e+00	-2.1143003563e+00
 8.9576573631e-01	 1.3106334330e+00	-2.1839287047e+00
 8.6869548350e-01	 1.3287303741e+00	-2.2224348936e+00
 1.1313708499e+00	 1.1313708499e+00	-1.7913618745e+00
 1.1076992901e+00	 1.1545571804e+00	-1.8939929178e+00
 1.0835578807e+00	 1.1772435259e+00	-1.9582978985e+00
 1.0589625922e+00	 1.1994157862e+00	-1.9836338335e+00
 1.0339299510e+00	 1.2210605457e+00	-1.9695486823e+00
 1.0084770022e+00	 1.2421651001e+00	-1.9157836538e+00
 9.8262127147e-01	 1.2627174810e+00	-1.9765685062e+00
 9.5638072518e-01	 1.2827064779e+00	-2.0966606929e+00
 9.2977372978e-01	 1.3021216577e+00	-2.1836722613e+00
 9.0281900982e-01	 1.3209533813e+00	-2.2378732273e+00
 8.7553560541e-01	 1.3391928179e+00	-2.2596200917e+00
 1.1402096847e+00	 1.1402096847e+00	-1.8273669870e+00
 1.1163531908e+00	 1.1635771583e+00	-1.9248403669e+00
 1.0920231766e+00	 1.1864407409e+00	-1.9822575977e+00
 1.0672357375e+00	 1.2087862221e+00	-1.9989441758e+00
 1.0420075288e+00	 1.2306000812e+00	-1.9744250039e+00
 1.0163557288e+00	 1.2518695150e+00	-1.9302863974e+00
 9.9029800016e-01	 1.2725824613e+00	-2.0722270054e+00
 9.6385244960e-01	 1.2927276223e+00	-2.1795641624e+00
 9.3703758705e-01	 1.3122944831e+00	-2.2524863364e+00
 9.0987228334e-01	 1.3312733296e+00	-2.2912748230e+00
 8.8237572733e-01	 1.3496552618e+00	-2.2963024526e+00
 1.1490485194e+00	 1.1490485194e+00	-1.8659334553e+00
 1.1250070915e+00	 1.1725971363e+00	-1.9581012509e+00
 1.1004884725e+00	 1.1956379560e+00	-2.0084947457e+00
 1.0755088827e+00	 1.2181566579e+00	-2.0164079734e+00
 1.0500851065e+00	 1.2401396167e+00	-1.9813428319e+00
 1.0242344554e+00	 1.2615739298e+00	-2.0368961405e+00
 9.9797472884e-01	 1.2824474416e+00	-2.1673620467e+00
 9.7132417402e-01	 1.3027487666e+00	-2.2619092271e+00
 9.4430144431e-01	 1.3224673086e+00	-2.3207322070e+00
 9.1692555685e-01	 1.3415932778e+00	-2.3441233815e+00
 8.8921584925e-01	 1.3601177057e+00	-2.3324716599e+00
 8.2081463007e-01	 1.2554932668e+00	-1.9488557241e+00
 7.9494640226e-01	 1.2720299594e+00	-2.0441973125e+00
 7.6880645835e-01	 1.2879971388e+00	-2.1146884248e+00
 7.4241329204e-01	 1.3033888537e+00	-2.1605493306e+00
 7.1578552968e-01	 1.3181999376e+00	-2.1820653073e+00
 6.8894188959e-01	 1.3324260103e+00	-2.1795854037e+00
 6.6190114164e-01	 1.3460634750e+00	-2.1535209572e+00
 6.3468206743e-01	 1.3591095148e+00	-2.1043438700e+00
 6.0730342122e-01	 1.3715620856e+00	-2.0325846538e+00
 5.7978389161e-01	 1.3834199070e+00	-1.9388302528e+00
 5.5214206435e-01	 1.3946824516e+00	-1.8237216562e+00
 8.2765475199e-01	 1.2659557107e+00	-1.9893002370e+00
 8.0157095562e-01	 1.2826302090e+00	-2.0669245654e+00
 7.7521317884e-01	 1.2987304483e+00	-2.1223353123e+00
 7.4860006947e-01	 1.3142504274e+00	-2.1557899558e+00
 7.2175040909e-01	 1.3291849371e+00	-2.1676006290e+00
 6.9468307200e-01	 1.3435295603e+00	-2.1581329892e+00
 6.6741698448e-01	 1.3572806706e+00	-2.1278048919e+00
 6.3997108466e-01	 1.3704354275e+00	-2.0770848731e+00
 6.1236428306e-01	 1.3829917696e+00	-2.0064904468e+00
 5.8461542404e-01	 1.3949484062e+00	-1.9165862237e+00
 5.5674324821e-01	 1.4063048054e+00	-1.8079818601e+00
 8.3449487391e-01	 1.2764181546e+00	-2.0293044941e+00
 8.0819550897e-01	 1.2932304587e+00	-2.0895927252e+00
 7.8161989933e-01	 1.3094637578e+00	-2.1302646262e+00
 7.5478684690e-01	 1.3251120012e+00	-2.1516144261e+00
 7.2771528851e-01	 1.3401699366e+00	-2.1539807557e+00
 7.0042425441e-01	 1.3546331104e+00	-2.1377456219e+00
 6.7293282733e-01	 1.3684978662e+00	-2.1033332389e+00
 6.4526010189e-01	 1.3817613401e+00	-2.0512087159e+00
 6.1742514490e-01	 1.3944214537e+00	-1.9818766064e+00
 5.8944695647e-01	 1.4064769054e+00	-1.8958793213e+00
 5.6134443208e-01	 1.4179271591e+00	-1.7937954116e+00
 8.4133499582e-01	 1.2868805985e+00	-2.0688606876e+00
 8.1482006232e-01	 1.3038307084e+00	-2.1121854527e+00
 7.8802661981e-01	 1.3201970673e+00	-2.1384525609e+00
 7.6097362433e-01	 1.3359735750e+00	-2.1479925398e+00
 7.3368016792e-01	 1.3511549360e+00	-2.1411701619e+00
 7.0616543683e-01	 1.3657366605e+00	-2.1183835251e+00
 6.7844867017e-01	 1.3797150619e+00	-2.0800630399e+00
 6.5054911911e-01	 1.3930872527e+00	-2.0266703229e+00
 6.2248600675e-01	 1.4058511377e+00	-1.9586969959e+00
 5.9427848890e-01	 1.4180054047e+00	-1.8766633929e+00
 5.6594561595e-01	 1.4295495129e+00	-1.7811171746e+00
 8.4817511774e-01	 1.2973430424e+00	-2.1079606065e+00
 8.2144461567e-01	 1.3144309580e+00	-2.1346862962e+00
 7.9443334030e-01	 1.3309303768e+00	-2.1468754552e+00
 7.6716040177e-01	 1.3468351488e+00	-2.1448944629e+00
 7.3964504733e-01	 1.3621399355e+00	-2.1291338802e+00
 7.1190661924e-01	 1.3768402106e+00	-2.1000076368e+00
 6.8396451302e-01	 1.3909322575e+00	-2.0579521745e+00
 6.5583813634e-01	 1.4044131653e+00	-2.0034255455e+00
 6.2754686859e-01	 1.4172808218e+00	-1.9369064615e+00
 5.9911002133e-01	 1.4295339039e+00	-1.8588932919e+00
 5.7054679982e-01	 1.4411718666e+00	-1.7699030094e+00
 8.5501523966e-01	 1.3078054863e+00	-2.1465956530e+00
 8.2806916902e-01	 1.3250312077e+00	-2.1570786957e+00
 8.0084006078e-01	 1.3416636863e+00	-2.1555097867e+00
 7.7334717920e-01	 1.3576967225e+00	-2.1422907150e+00
 7.4560992674e-01	 1.3731249350e+00	-2.1178374792e+00
 7.1764780165e-01	 1.3879437607e+00	-2.0825795811e+00
 6.8948035586e-01	 1.4021494531e+00	-2.0369593261e+00
 6.6112715357e-01	 1.4157390779e+00	-1.9814311254e+00
 6.3260773043e-01	 1.4287105058e+00	-1.9164607935e+00
 6.0394155376e-01	 1.4410624031e+00	-1.8425248378e+00
 5.7514798369e-01	 1.4527942204e+00	-1.7601097329e+00
 8.6185536158e-01	 1.3182679302e+00	-2.1847568575e+00
 8.3469372238e-01	 1.3356314573e+00	-2.1793459871e+00
 8.0724678127e-01	 1.3523969957e+00	-2.1643321657e+00
 7.7953395663e-01	 1.3685582963e+00	-2.1401521548e+00
 7.5157480616e-01	 1.3841099345e+00	-2.1072470419e+00
 7.2338898406e-01	 1.3990473108e+00	-2.0660616411e+00
 6.9499619871e-01	 1.4133666487e+00	-2.0170439508e+00
 6.6641617079e-01	 1.4270649906e+00	-1.9606446587e+00
 6.3766859227e-01	 1.4401401898e+00	-1.8973166884e+00
 6.0877308619e-01	 1.4525909023e+00	-1.8275147776e+00
 5.7974916756e-01	 1.4644165742e+00	-1.7516950805e+00
 8.6869548350e-01	 1.3287303741e+00	-2.2224348936e+00
 8.4131827573e-01	 1.3462317070e+00	-2.2014714063e+00
 8.1365350175e-01	 1.3631303052e+00	-2.1733193305e+00
 7.8572073407e-01	 1.3794198701e+00	-2.1384499671e+00
 7.5753968557e-01	 1.3950949340e+00	-2.0973291458e+00
 7.2913016647e-01	 1.4101508608e+00	-2.0504167330e+00
 7.0051204155e-01	 1.4245838444e+00	-1.9981662462e+00
 6.7170518802e-01	 1.4383909032e+00	-1.9410245627e+00
 6.4272945412e-01	 1.4515698739e+00	-1.8794317134e+00
 6.1360461862e-01	 1.4641194016e+00	-1.8138207493e+00
 5.8435035143e-01	 1.4760389279e+00	-1.7446176702e+00
 8.7553560541e-01	 1.3391928179e+00	-2.2596200917e+00
 8.4794282908e-01	 1.3568319566e+00	-2.2234380934e+00
 8.2006022224e-01	 1.3738636147e+00	-2.1824481422e+00
 7.9190751150e-01	 1.3902814439e+00	-2.1371556498e+00
 7.6350456498e-01	 1.4060799334e+00	-2.0880508434e+00
 7.3487134888e-01	 1.4212544109e+00	-2.0356083810e+00
 7.0602788440e-01	 1.4358010400e+00	-1.9802871229e+00
 6.7699420525e-01	 1.4497168158e+00	-1.9225300437e+00
 6.4779031596e-01	 1.4629995579e+00	-1.8627642725e+00
 6.1843615105e-01	 1.4756479008e+00	-1.8014012472e+00
 5.8895153530e-01	 1.4876612817e+00	-1.7388369679e+00
 8.8237572733e-01	 1.3496552618e+00	-2.2963024526e+00
 8.5456738243e-01	 1.3674322063e+00	-2.2452290962e+00
 8.2646694273e-01	 1.3845969242e+00	-2.1916955798e+00
 7.9809428893e-01	 1.4011430177e+00	-2.1362410020e+00
 7.6946944439e-01	 1.4170649329e+00	-2.0793796439e+00
 7.4061253130e-01	 1.4323579610e+00	-2.0216006942e+00
 7.1154372724e-01	 1.4470182356e+00	-1.9633681768e+00
 6.8228322248e-01	 1.4610427284e+00	-1.9051210662e+00
 6.5285117780e-01	 1.4744292420e+00	-1.8472735739e+00
 6.2326768348e-01	 1.4871764000e+00	-1.7902155889e+00
 5.9355271917e-01	 1.4992836355e+00	-1.7343132549e+00
 8.8921584925e-01	 1.3601177057e+00	-2.3324716599e+00
 8.6119193579e-01	 1.3780324560e+00	-2.2668273736e+00
 8.3287366321e-01	 1.3953302337e+00	-2.2010387361e+00
 8.0428106636e-01	 1.4120045914e+00	-2.1356781120e+00
 7.7543432381e-01	 1.4280499324e+00	-2.0712834954e+00
 7.4635371371e-01	 1.4434615111e+00	-2.0083583437e+00
 7.1705957009e-01	 1.4582354312e+00	-1.9473716626e+00
 6.8757223970e-01	 1.4723686411e+00	-1.8887583241e+00
 6.5791203964e-01	 1.4858589260e+00	-1.8329195990e+00
 6.2809921591e-01	 1.4987048992e+00	-1.7802238830e+00
 5.9815390303e-01	 1.5109059892e+00	-1.7310075958e+00
 5.5214206435e-01	 1.3946824516e+00	-1.8237216562e+00
 5.2439638616e-01	 1.4053499316e+00	-1.7522385961e+00
 4.9656512995e-01	 1.4154232836e+00	-1.6838177506e+00
 4.6866636132e-01	 1.4249041518e+00	-1.6183465349e+00
 4.4071790656e-01	 1.4337948692e+00	-1.5556962548e+00
 4.1273732226e-01	 1.4420984373e+00	-1.4957244051e+00
 3.8474186652e-01	 1.4498185046e+00	-1.4382769344e+00
 3.5674847187e-01	 1.4569593432e+00	-1.3831904564e+00
 3.2877372005e-01	 1.4635258252e+00	-1.3302943916e+00
 3.0083381848e-01	 1.4695233968e+00	-1.2794130229e+00
 2.7294457863e-01	 1.4749580526e+00	-1.2303674512e+00
 5.5674324821e-01	 1.4063048054e+00	-1.8079818601e+00
 5.2876635604e-01	 1.4170611810e+00	-1.7403895536e+00
 5.0070317270e-01	 1.4272184776e+00	-1.6747783363e+00
 4.7257191433e-01	 1.4367783530e+00	-1.6110296787e+00
 4.4439055579e-01	 1.4457431597e+00	-1.5490130533e+00
 4.1617679995e-01	 1.4541159243e+00	-1.4885881423e+00
 3.8794804874e-01	 1.4619003254e+00	-1.4296069933e+00
 3.5972137580e-01	 1.4691006711e+00	-1.3719161064e+00
 3.3151350105e-01	 1.4757218737e+00	-1.3153584352e+00
 3.0334076697e-01	 1.4817694251e+00	-1.2597752890e+00
 2.7521911678e-01	 1.4872493697e+00	-1.2050081225e+00
 5.6134443208e-01	 1.4179271591e+00	-1.7937954116e+00
 5.3313632592e-01	 1.4287724304e+00	-1.7300197272e+00
 5.0484121545e-01	 1.4390136716e+00	-1.6671644989e+00
 4.7647746734e-01	 1.4486525543e+00	-1.6051049412e+00
 4.4806320501e-01	 1.4576914503e+00	-1.5437083397e+00
 4.1961627764e-01	 1.4661334112e+00	-1.4828361703e+00
 3.9115423096e-01	 1.4739821463e+00	-1.4223461495e+00
 3.6269427974e-01	 1.4812419989e+00	-1.3620941988e+00
 3.3425328206e-01	 1.4879179223e+00	-1.3019363098e+00
 3.0584771545e-01	 1.4940154534e+00	-1.2417302948e+00
 2.7749365494e-01	 1.4995406868e+00	-1.1813374143e+00
 5.6594561595e-01	 1.4295495129e+00	-1.7811171746e+00
 5.3750629581e-01	 1.4404836799e+00	-1.7210872372e+00
 5.0897925820e-01	 1.4508088657e+00	-1.6609371436e+00
 4.8038302035e-01	 1.4605267556e+00	-1.6005355418e+00
 4.5173585423e-01	 1.4696397409e+00	-1.5397471778e+00
 4.2305575532e-01	 1.4781508982e+00	-1.4784349300e+00
 3.9436041318e-01	 1.4860639672e+00	-1.4164617561e+00
 3.6566718367e-01	 1.4933833268e+00	-1.3536925396e+00
 3.3699306306e-01	 1.5001139708e+00	-1.2899958198e+00
 3.0835466394e-01	 1.5062614817e+00	-1.2252453951e+00
 2.7976819309e-01	 1.5118320039e+00	-1.1593217907e+00
 5.7054679982e-01	 1.4411718666e+00	-1.7699030094e+00
 5.4187626569e-01	 1.4521949293e+00	-1.7135511188e+00
 5.1311730095e-01	 1.4626040597e+00	-1.6560580252e+00
 4.8428857336e-01	 1.4724009568e+00	-1.5972854989e+00
 4.5540850345e-01	 1.4815880315e+00	-1.5370953952e+00
 4.2649523301e-01	 1.4901683852e+00	-1.4753516056e+00
 3.9756659540e-01	 1.4981457880e+00	-1.4119219055e+00
 3.6864008760e-01	 1.5055246547e+00	-1.3466796841e+00
 3.3973284406e-01	 1.5123100194e+00	-1.2795055435e+00
 3.1086161243e-01	 1.5185075100e+00	-1.2102887575e+00
 2.8204273125e-01	 1.5241233210e+00	-1.1389285821e+00
 5.7514798369e-01	 1.4527942204e+00	-1.7601097329e+00
 5.4624623558e-01	 1.4639061787e+00	-1.7073712855e+00
 5.1725534370e-01	 1.4743992537e+00	-1.6524897131e+00
 4.8819412638e-01	 1.4842751581e+00	-1.5953195975e+00
 4.5908115267e-01	 1.4935363220e+00	-1.5357195525e+00
 4.2993471070e-01	 1.5021858722e+00	-1.4735540959e+00
 4.0077277763e-01	 1.5102276089e+00	-1.4086953997e+00
 3.7161299154e-01	 1.5176659825e+00	-1.3410249068e+00
 3.4247262506e-01	 1.5245060679e+00	-1.2704348022e+00
 3.1336856092e-01	 1.5307535383e+00	-1.1968293300e+00
 2.8431726940e-01	 1.5364146382e+00	-1.1201259496e+00
 5.7974916756e-01	 1.4644165742e+00	-1.7516950805e+00
 5.5061620546e-01	 1.4756174282e+00	-1.7025084944e+00
 5.2139338645e-01	 1.4861944478e+00	-1.6501955598e+00
 4.9209967939e-01	 1.4961493594e+00	-1.5946033588e+00
 4.6275380190e-01	 1.5054846126e+00	-1.5355869144e+00
 4.3337418838e-01	 1.5142033592e+00	-1.4730109853e+00
 4.0397895985e-01	 1.5223094298e+00	-1.4067517218e+00
 3.7458589547e-01	 1.5298073104e+00	-1.3366981727e+00
 3.4521240606e-01	 1.5367021165e+00	-1.2627536305e+00
 3.1587550940e-01	 1.5429995666e+00	-1.1848368100e+00
 2.8659180756e-01	 1.5487059553e+00	-1.1028828526e+00
 5.8435035143e-01	 1.4760389279e+00	-1.7446176702e+00
 5.5498617535e-01	 1.4873286776e+00	-1.6989243128e+00
 5.2553142920e-01	 1.4979896418e+00	-1.6491396694e+00
 4.9600523240e-01	 1.5080235606e+00	-1.5951030113e+00
 4.6642645112e-01	 1.5174329032e+00	-1.5366654218e+00
 4.3681366607e-01	 1.5262208461e+00	-1.4736915168e+00
 4.0718514207e-01	 1.5343912507e+00	-1.4060610099e+00
 3.7755879940e-01	 1.5419486383e+00	-1.3336701107e+00
 3.4795218706e-01	 1.5488981650e+00	-1.2564327485e+00
 3.1838245789e-01	 1.5552455949e+00	-1.1742816143e+00
 2.8886634572e-01	 1.5609972724e+00	-1.0871690172e+00
 5.8895153530e-01	 1.4876612817e+00	-1.7388369679e+00
 5.5935614523e-01	 1.4990399270e+00	-1.6965810866e+00
 5.2966947195e-01	 1.5097848358e+00	-1.6492868688e+00
 4.9991078541e-01	 1.5198977619e+00	-1.5967854632e+00
 4.7009910034e-01	 1.5293811938e+00	-1.5389236654e+00
 4.4025314375e-01	 1.5382383331e+00	-1.4755655668e+00
 4.1039132429e-01	 1.5464730715e+00	-1.4065940307e+00
 3.8053170334e-01	 1.5540899661e+00	-1.3319119869e+00
 3.5069196806e-01	 1.5610942135e+00	-1.2514435346e+00
 3.2088940638e-01	 1.5674916232e+00	-1.1651348520e+00
 2.9114088387e-01	 1.5732885895e+00	-1.0729549061e+00
 5.9355271917e-01	 1.4992836355e+00	-1.7343132549e+00
 5.6372611512e-01	 1.5107511764e+00	-1.6954419103e+00
 5.3380751470e-01	 1.5215800299e+00	-1.6506026792e+00
 5.0381633842e-01	 1.5317719632e+00	-1.5996182760e+00
 4.7377174956e-01	 1.5413294843e+00	-1.5423308608e+00
 4.4369262144e-01	 1.5502558201e+00	-1.4786036198e+00
 4.1359750651e-01	 1.5585548924e+00	-1.4083221559e+00
 3.8350460727e-01	 1.5662312940e+00	-1.3313956805e+00
 3.5343174906e-01	 1.5732902621e+00	-1.2477580006e+00
 3.2339635487e-01	 1.5797376515e+00	-1.1573682966e+00
 2.9341542203e-01	 1.5855799066e+00	-1.0602116904e+00
 5.9815390303e-01	 1.5109059892e+00	-1.7310075958e+00
 5.6809608500e-01	 1.5224624259e+00	-1.6954705978e+00
 5.3794555745e-01	 1.5333752239e+00	-1.6530532900e+00
 5.0772189143e-01	 1.5436461644e+00	-1.6035696395e+00
 4.7744439878e-01	 1.5532777749e+00	-1.5468568240e+00
 4.4713209913e-01	 1.5622733071e+00	-1.4827767457e+00
 4.1680368873e-01	 1.5706367133e+00	-1.4112173382e+00
 3.8647751120e-01	 1.5783726218e+00	-1.3320936600e+00
 3.5617153006e-01	 1.5854863106e+00	-1.2453487666e+00
 3.2590330336e-01	 1.5919836798e+00	-1.1509543612e+00
 2.9568996018e-01	 1.5978712237e+00	-1.0489112220e+00
 2.7294457863e-01	 1.4749580526e+00	-1.2303674512e+00
 2.4512139627e-01	 1.4798363089e+00	-1.2570318137e+00
 2.1737923355e-01	 1.4841651757e+00	-1.2707141574e+00
 1.8973260298e-01	 1.4879521294e+00	-1.2715597507e+00
 1.6219555325e-01	 1.4912050840e+00	-1.2597538051e+00
 1.3478165686e-01	 1.4939323629e+00	-1.2355198979e+00
 1.0750399962e-01	 1.4961426704e+00	-1.1991182327e+00
 8.0375171844e-02	 1.4978450627e+00	-1.1508437562e+00
 5.3407261335e-02	 1.4990489200e+00	-1.0910241482e+00
 2.6611847981e-02	 1.4997639179e+00	-1.0200177042e+00
 0.0000000000e+00	 1.5000000000e+00	-9.3821112890e-01
 2.7521911678e-01	 1.4872493697e+00	-1.2050081225e+00
 2.4716407457e-01	 1.4921682781e+00	-1.2263907628e+00
 2.1919072716e-01	 1.4965332189e+00	-1.2357818576e+00
 1.9131370801e-01	 1.5003517305e+00	-1.2333242651e+00
 1.6354718286e-01	 1.5036317930e+00	-1.2191980784e+00
 1.3590483734e-01	 1.5063817993e+00	-1.1936191896e+00
 1.0839986628e-01	 1.5086105259e+00	-1.1568376959e+00
 8.1044964942e-02	 1.5103271049e+00	-1.1091361644e+00
 5.3852321846e-02	 1.5115409943e+00	-1.0508277718e+00
 2.6833613381e-02	 1.5122619506e+00	-9.8225433812e-01
 0.0000000000e+00	 1.5125000000e+00	-9.0378427032e-01
 2.7749365494e-01	 1.4995406868e+00	-1.1813374143e+00
 2.4920675287e-01	 1.5045002474e+00	-1.1976230770e+00
 2.2100222078e-01	 1.5089012620e+00	-1.2028908170e+00
 1.9289481303e-01	 1.5127513316e+00	-1.1972810059e+00
 1.6489881247e-01	 1.5160585021e+00	-1.1809685853e+00
 1.3702801781e-01	 1.5188312356e+00	-1.1541617720e+00
 1.0929573294e-01	 1.5210783815e+00	-1.1171006085e+00
 8.1714758041e-02	 1.5228091470e+00	-1.0700553735e+00
 5.4297382357e-02	 1.5240330686e+00	-1.0133248707e+00
 2.7055378780e-02	 1.5247599832e+00	-9.4723461080e-01
 0.0000000000e+00	 1.5250000000e+00	-8.7213490439e-01
 2.7976819309e-01	 1.5118320039e+00	-1.1593217907e+00
 2.5124943117e-01	 1.5168322166e+00	-1.1706921300e+00
 2.2281371439e-01	 1.5212693051e+00	-1.1720016918e+00
 1.9447591806e-01	 1.5251509326e+00	-1.1633882807e+00
 1.6625044208e-01	 1.5284852111e+00	-1.1450216503e+00
 1.3815119828e-01	 1.5312806720e+00	-1.1171023479e+00
 1.1019159961e-01	 1.5335462371e+00	-1.0798604068e+00
 8.2384551139e-02	 1.5352911892e+00	-1.0335539031e+00
 5.4742442867e-02	 1.5365251430e+00	-9.7846739085e-01
 2.7277144180e-02	 1.5372580159e+00	-9.1491023100e-01
 0.0000000000e+00	 1.5375000000e+00	-8.4321483178e-01
 2.8204273125e-01	 1.5241233210e+00	-1.1389285821e+00
 2.5329210948e-01	 1.5291641859e+00	-1.1455622850e+00
 2.2462520800e-01	 1.5336373482e+00	-1.1430762383e+00
 1.9605702308e-01	 1.5375505337e+00	-1.1316055965e+00
 1.6760207169e-01	 1.5409119201e+00	-1.1113148845e+00
 1.3927437876e-01	 1.5437301084e+00	-1.0823969803e+00
 1.1108746627e-01	 1.5460140927e+00	-1.0450719497e+00
 8.3054344237e-02	 1.5477732314e+00	-9.9958574584e-01
 5.5187503378e-02	 1.5490172173e+00	-9.4620879000e-01
 2.7498909579e-02	 1.5497560485e+00	-8.8523444653e-01
 0.0000000000e+00	 1.5500000000e+00	-8.1697740801e-01
 2.8431726940e-01	 1.5364146382e+00	-1.1201259496e+00
 2.5533478778e-01	 1.5414961551e+00	-1.1221988549e+00
 2.2643670161e-01	 1.5460053914e+00	-1.1160772697e+00
 1.9763812811e-01	 1.5499501348e+00	-1.1018936118e+00
 1.6895370130e-01	 1.5533386292e+00	-1.0798071329e+00
 1.4039755923e-01	 1.5561795447e+00	-1.0500030385e+00
 1.1198333293e-01	 1.5584819483e+00	-1.0126914621e+00
 8.3724137335e-02	 1.5602552736e+00	-9.6810630854e-01
 5.5632563889e-02	 1.5615092916e+00	-9.1650397743e-01
 2.7720674979e-02	 1.5622540812e+00	-8.5816198270e-01
 0.0000000000e+00	 1.5625000000e+00	-7.9337748119e-01
 2.8659180756e-01	 1.5487059553e+00	-1.1028828526e+00
 2.5737746608e-01	 1.5538281243e+00	-1.1005680646e+00
 2.2824819523e-01	 1.5583734345e+00	-1.0909686135e+00
 1.9921923313e-01	 1.5623497359e+00	-1.0742140908e+00
 1.7030533091e-01	 1.5657653382e+00	-1.0504584266e+00
 1.4152073970e-01	 1.5686289811e+00	-1.0198791456e+00
 1.1287919960e-01	 1.5709498039e+00	-9.8267648055e-01
 8.4393930433e-02	 1.5727373158e+00	-9.3907235632e-01
 5.6077624400e-02	 1.5740013660e+00	-8.8930925623e-01
 2.7942440379e-02	 1.5747521138e+00	-8.3364898366e-01
 0.0000000000e+00	 1.5750000000e+00	-7.7237133283e-01
 2.8886634572e-01	 1.5609972724e+00	-1.0871690172e+00
 2.5942014438e-01	 1.5661600936e+00	-1.0806370155e+00
 2.3005968884e-01	 1.5707414776e+00	-1.0677150721e+00
 2.0080033816e-01	 1.5747493369e+00	-1.0485298599e+00
 1.7165696052e-01	 1.5781920472e+00	-1.0232299354e+00
 1.4264392017e-01	 1.5810784174e+00	-9.9198512986e-01
 1.1377506626e-01	 1.5834176595e+00	-9.5498580152e-01
 8.5063723532e-02	 1.5852193580e+00	-9.1244195896e-01
 5.6522684910e-02	 1.5864934403e+00	-8.6458226844e-01
 2.8164205778e-02	 1.5872501465e+00	-8.1165295657e-01
 0.0000000000e+00	 1.5875000000e+00	-7.5391662143e-01
 2.9114088387e-01	 1.5732885895e+00	-1.0729549061e+00
 2.6146282268e-01	 1.5784920628e+00	-1.0623736504e+00
 2.3187118245e-01	 1.5831095208e+00	-1.0462823844e+00
 2.0238144318e-01	 1.5871489380e+00	-1.0248047663e+00
 1.7300859013e-01	 1.5906187563e+00	-9.9808392328e-01
 1.4376710065e-01	 1.5935278538e+00	-9.6628197699e-01
 1.1467093292e-01	 1.5958855151e+00	-9.2957943235e-01
 8.5733516630e-02	 1.5977014002e+00	-8.8817443996e-01
 5.6967745421e-02	 1.5989855146e+00	-8.4228194276e-01
 2.8385971178e-02	 1.5997481791e+00	-7.9213271831e-01
 0.0000000000e+00	 1.6000000000e+00	-7.3797232862e-01
 2.9341542203e-01	 1.5855799066e+00	-1.0602116904e+00
 2.6350550099e-01	 1.5908240321e+00	-1.0457467218e+00
 2.3368267606e-01	 1.5954775639e+00	-1.0266371895e+00
 2.0396254820e-01	 1.5995485391e+00	-1.0030036382e+00
 1.7436021974e-01	 1.6030454653e+00	-9.7498370655e-01
 1.4489028112e-01	 1.6059772901e+00	-9.4273178569e-01
 1.1556679958e-01	 1.6083533706e+00	-9.0641854424e-01
 8.6403309728e-02	 1.6101834424e+00	-8.6623032796e-01
 5.7412805932e-02	 1.6114775890e+00	-8.2236844470e-01
 2.8607736578e-02	 1.6122462118e+00	-7.7504834476e-01
 0.0000000000e+00	 1.6125000000e+00	-7.2449870794e-01
 2.9568996018e-01	 1.5978712237e+00	-1.0489112220e+00
 2.6554817929e-01	 1.6031560013e+00	-1.0307257602e+00
 2.3549416968e-01	 1.6078456070e+00	-1.0087469922e+00
 2.0554365323e-01	 1.6119481402e+00	-9.8309224739e-01
 1.7571184935e-01	 1.6154721743e+00	-9.5389361285e-01
 1.4601346159e-01	 1.6184267265e+00	-9.2129772471e-01
 1.1646266625e-01	 1.6208212262e+00	-8.8546542748e-01
 8.7073102826e-02	 1.6226654846e+00	-8.4657131036e-01
 5.7857866443e-02	 1.6239696633e+00	-8.0480312896e-01
 2.8829501977e-02	 1.6247442444e+00	-7.6036112236e-01
 0.0000000000e+00	 1.6250000000e+00	-7.1345723591e-01
 1.6250000000e+00	 0.0000000000e+00	 3.1419628844e+00
 1.6247442444e+00	 2.8829501977e-02	 3.1657476761e+00
 1.6239696633e+00	 5.7857866443e-02	 3.1736183683e+00
 1.6226654846e+00	 8.7073102826e-02	 3.1661299431e+00
 1.6208212262e+00	 1.1646266625e-01	 3.1438685950e+00
 1.6184267265e+00	 1.4601346159e-01	 3.1074511991e+00
 1.6154721743e+00	 1.7571184935e-01	 3.0575247099e+00
 1.6119481402e+00	 2.0554365323e-01	 2.9947654925e+00
 1.6078456070e+00	 2.3549416968e-01	 2.9198785843e+00
 1.6031560013e+00	 2.6554817929e-01	 2.8335968887e+00
 1.5978712237e+00	 2.9568996018e-01	 2.7366802995e+00
 1.6375000000e+00	 0.0000000000e+00	 3.1091848615e+00
 1.6372422771e+00	 2.9051267377e-02	 3.1349545167e+00
 1.6364617376e+00	 5.8302926953e-02	 3.1446666770e+00
 1.6351475267e+00	 8.7742895924e-02	 3.1388658600e+00
 1.6332890818e+00	 1.1735853291e-01	 3.1181277538e+00
 1.6308761629e+00	 1.4713664207e-01	 3.0830587487e+00
 1.6278988834e+00	 1.7706347896e-01	 3.0342954052e+00
 1.6243477413e+00	 2.0712475825e-01	 2.9725038582e+00
 1.6202136502e+00	 2.3730566329e-01	 2.8983791581e+00
 1.6154879705e+00	 2.6759085759e-01	 2.8126445486e+00
 1.6101625408e+00	 2.9796449834e-01	 2.7160506791e+00
 1.6500000000e+00	 0.0000000000e+00	 3.0783783840e+00
 1.6497403097e+00	 2.9273032776e-02	 3.1059989236e+00
 1.6489538120e+00	 5.8747987464e-02	 3.1174238231e+00
 1.6476295689e+00	 8.8412689023e-02	 3.1131873120e+00
 1.6457569374e+00	 1.1825439957e-01	 3.0938547372e+00
 1.6433255992e+00	 1.4825982254e-01	 3.0600221567e+00
 1.6403255924e+00	 1.7841510857e-01	 3.0123158757e+00
 1.6367473423e+00	 2.0870586328e-01	 2.9513919240e+00
 1.6325816933e+00	 2.3911715690e-01	 2.8779354759e+00
 1.6278199398e+00	 2.6963353589e-01	 2.7926602115e+00
 1.6224538579e+00	 3.0023903649e-01	 2.6963076172e+00
 1.6625000000e+00	 0.0000000000e+00	 3.0494751552e+00
 1.6622383424e+00	 2.9494798176e-02	 3.0788158482e+00
 1.6614458863e+00	 5.9193047975e-02	 3.0918279536e+00
 1.6601116111e+00	 8.9082482121e-02	 3.0890355831e+00
 1.6582247930e+00	 1.1915026624e-01	 3.0709939001e+00
 1.6557750356e+00	 1.4938300301e-01	 3.0382887753e+00
 1.6527523014e+00	 1.7976673818e-01	 2.9915363898e+00
 1.6491469434e+00	 2.1028696830e-01	 2.9313827861e+00
 1.6449497364e+00	 2.4092865051e-01	 2.8585033657e+00
 1.6401519090e+00	 2.7167621419e-01	 2.7736023337e+00
 1.6347451750e+00	 3.0251357465e-01	 2.6774120875e+00
 1.6750000000e+00	 0.0000000000e+00	 3.0224089170e+00
 1.6747363750e+00	 2.9716563576e-02	 3.0533422132e+00
 1.6739379606e+00	 5.9638108486e-02	 3.0678191224e+00
 1.6725936533e+00	 8.9752275219e-02	 3.0663538017e+00
 1.6706926486e+00	 1.2004613290e-01	 3.0494913818e+00
 1.6682244719e+00	 1.5050618349e-01	 3.0178076837e+00
 1.6651790105e+00	 1.8111836779e-01	 2.9719088889e+00
 1.6615465445e+00	 2.1186807333e-01	 2.9124311628e+00
 1.6573177796e+00	 2.4274014413e-01	 2.8400402299e+00
 1.6524838783e+00	 2.7371889250e-01	 2.7554309015e+00
 1.6470364921e+00	 3.0478811280e-01	 2.6593265522e+00
 1.6875000000e+00	 0.0000000000e+00	 2.9971153746e+00
 1.6872344077e+00	 2.9938328975e-02	 3.0295168395e+00
 1.6864300350e+00	 6.0083168996e-02	 3.0453392187e+00
 1.6850756955e+00	 9.0422068317e-02	 3.0450868713e+00
 1.6831605042e+00	 1.2094199956e-01	 3.0292950390e+00
 1.6806739083e+00	 1.5162936396e-01	 2.9985296240e+00
 1.6776057195e+00	 1.8246999740e-01	 2.9533869253e+00
 1.6739461456e+00	 2.1344917835e-01	 2.8944933341e+00
 1.6696858227e+00	 2.4455163774e-01	 2.8225049864e+00
 1.6648158475e+00	 2.7576157080e-01	 2.7381073739e+00
 1.6593278092e+00	 3.0706265096e-01	 2.6420149072e+00
 1.7000000000e+00	 0.0000000000e+00	 2.9735321243e+00
 1.6997324403e+00	 3.0160094375e-02	 3.0072803768e+00
 1.6989221093e+00	 6.0528229507e-02	 3.0243319006e+00
 1.6975577377e+00	 9.1091861415e-02	 3.0251814062e+00
 1.6956283597e+00	 1.2183786622e-01	 3.0103543838e+00
 1.6931233446e+00	 1.5275254443e-01	 2.9804069406e+00
 1.6900324285e+00	 1.8382162701e-01	 2.9359256031e+00
 1.6863457466e+00	 2.1503028338e-01	 2.8775270843e+00
 1.6820538658e+00	 2.4636313135e-01	 2.8058580135e+00
 1.6771478167e+00	 2.7780424910e-01	 2.7215946289e+00
 1.6716191263e+00	 3.0933718911e-01	 2.6254424291e+00
 1.7125000000e+00	 0.0000000000e+00	 2.9515985842e+00
 1.7122304730e+00	 3.0381859775e-02	 2.9865752365e+00
 1.7114141836e+00	 6.0973290018e-02	 3.0047425294e+00
 1.7100397799e+00	 9.1761654514e-02	 3.0065856684e+00
 1.7080962153e+00	 1.2273373289e-01	 2.9926205225e+00
 1.7055727810e+00	 1.5387572491e-01	 2.9633935210e+00
 1.7024591376e+00	 1.8517325662e-01	 2.9194815215e+00
 1.6987453477e+00	 2.1661138840e-01	 2.8614916476e+00
 1.6944219089e+00	 2.4817462496e-01	 2.7900610960e+00
 1.6894797860e+00	 2.7984692740e-01	 2.7058569114e+00
 1.6839104434e+00	 3.1161172727e-01	 2.6095757252e+00
 1.7250000000e+00	 0.0000000000e+00	 2.9312559287e+00
 1.7247285056e+00	 3.0603625174e-02	 2.9673455282e+00
 1.7239062580e+00	 6.1418350529e-02	 2.9865181088e+00
 1.7225218221e+00	 9.2431447612e-02	 2.9892495082e+00
 1.7205640709e+00	 1.2362959955e-01	 2.9760460981e+00
 1.7180222174e+00	 1.5499890538e-01	 2.9474447406e+00
 1.7148858466e+00	 1.8652488623e-01	 2.9040127206e+00
 1.7111449488e+00	 2.1819249342e-01	 2.8463476547e+00
 1.7067899521e+00	 2.4998611858e-01	 2.7750773746e+00
 1.7018117552e+00	 2.8188960570e-01	 2.6908597841e+00
 1.6962017605e+00	 3.1388626542e-01	 2.5943826849e+00
 1.7375000000e+00	 0.0000000000e+00	 2.9124470247e+00
 1.7372265383e+00	 3.0825390574e-02	 2.9495369982e+00
 1.7363983323e+00	 6.1863411039e-02	 2.9696072254e+00
 1.7350038643e+00	 9.3101240710e-02	 2.9731243069e+00
 1.7330319265e+00	 1.2452546621e-01	 2.9605852350e+00
 1.7304716537e+00	 1.5612208585e-01	 2.9325174085e+00
 1.7273125556e+00	 1.8787651584e-01	 2.8894786297e+00
 1.7235445499e+00	 2.1977359845e-01	 2.8320570834e+00
 1.7191579952e+00	 2.5179761219e-01	 2.7608712972e+00
 1.7141437245e+00	 2.8393228401e-01	 2.6765700796e+00
 1.7084930776e+00	 3.1616080358e-01	 2.5798324338e+00
 1.7500000000e+00	 0.0000000000e+00	 2.8951163717e+00
 1.7497245709e+00	 3.1047155973e-02	 2.9330969714e+00
 1.7488904066e+00	 6.2308471550e-02	 2.9539599923e+00
 1.7474859064e+00	 9.3771033808e-02	 2.9581629224e+00
 1.7454997821e+00	 1.2542133288e-01	 2.9461934862e+00
 1.7429210901e+00	 1.5724526633e-01	 2.9185697169e+00
 1.7397392647e+00	 1.8922814545e-01	 2.8758400174e+00
 1.7359441510e+00	 2.2135470347e-01	 2.8185832099e+00
 1.7315260383e+00	 2.5360910580e-01	 2.7474085717e+00
 1.7264756937e+00	 2.8597496231e-01	 2.6629558555e+00
 1.7207843947e+00	 3.1843534174e-01	 2.5658952895e+00
 1.5978712237e+00	 2.9568996018e-01	 2.7366802995e+00
 1.5919836798e+00	 3.2590330336e-01	 2.6815199938e+00
 1.5854863106e+00	 3.5617153006e-01	 2.6073412381e+00
 1.5783726218e+00	 3.8647751120e-01	 2.5146133027e+00
 1.5706367133e+00	 4.1680368873e-01	 2.4038534184e+00
 1.5622733071e+00	 4.4713209913e-01	 2.2756278015e+00
 1.5532777749e+00	 4.7744439878e-01	 2.1305525509e+00
 1.5436461644e+00	 5.0772189143e-01	 1.9692943973e+00
 1.5333752239e+00	 5.3794555745e-01	 1.7925712844e+00
 1.5224624259e+00	 5.6809608500e-01	 1.6011527596e+00
 1.5109059892e+00	 5.9815390303e-01	 1.3958601541e+00
 1.6101625408e+00	 2.9796449834e-01	 2.7160506791e+00
 1.6042297081e+00	 3.2841025184e-01	 2.6598659507e+00
 1.5976823592e+00	 3.5891131106e-01	 2.5850176862e+00
 1.5905139497e+00	 3.8945041513e-01	 2.4919778426e+00
 1.5827185341e+00	 4.2000987096e-01	 2.3812654545e+00
 1.5742907940e+00	 4.5057157681e-01	 2.2534476684e+00
 1.5652260655e+00	 4.8111704801e-01	 2.1091406562e+00
 1.5555203657e+00	 5.1162744444e-01	 1.9490103857e+00
 1.5451704179e+00	 5.4208360020e-01	 1.7737732284e+00
 1.5341736753e+00	 5.7246605488e-01	 1.5841963839e+00
 1.5225283430e+00	 6.0275508690e-01	 1.3810980974e+00
 1.6224538579e+00	 3.0023903649e-01	 2.6963076172e+00
 1.6164757364e+00	 3.3091720033e-01	 2.6390392131e+00
 1.6098784077e+00	 3.6165109207e-01	 2.5634595575e+00
 1.6026552775e+00	 3.9242331907e-01	 2.4700431650e+00
 1.5948003550e+00	 4.2321605318e-01	 2.3593107475e+00
 1.5863082810e+00	 4.5401105450e-01	 2.2318302596e+00
 1.5771743561e+00	 4.8478969723e-01	 2.0882178288e+00
 1.5673945670e+00	 5.1553299746e-01	 1.9291385492e+00
 1.5569656119e+00	 5.4622164295e-01	 1.7553071182e+00
 1.5458849247e+00	 5.7683602477e-01	 1.5674882945e+00
 1.5341506968e+00	 6.0735627077e-01	 1.3664971555e+00
 1.6347451750e+00	 3.0251357465e-01	 2.6774120875e+00
 1.6287217648e+00	 3.3342414882e-01	 2.6190027960e+00
 1.6220744563e+00	 3.6439087307e-01	 2.5426319859e+00
 1.6147966054e+00	 3.9539622300e-01	 2.4487765968e+00
 1.6068821759e+00	 4.2642223540e-01	 2.3379588874e+00
 1.5983257680e+00	 4.5745053219e-01	 2.2107474937e+00
 1.5891226466e+00	 4.8846234645e-01	 2.0677583772e+00
 1.5792687682e+00	 5.1943855047e-01	 1.9096556429e+00
 1.5687608060e+00	 5.5035968570e-01	 1.7371522067e+00
 1.5575961742e+00	 5.8120599466e-01	 1.5510102886e+00
 1.5457730505e+00	 6.1195745464e-01	 1.3520417108e+00
 1.6470364921e+00	 3.0478811280e-01	 2.6593265522e+00
 1.6409677931e+00	 3.3593109731e-01	 2.5997211763e+00
 1.6342705048e+00	 3.6713065407e-01	 2.5225015383e+00
 1.6269379333e+00	 3.9836912693e-01	 2.4281468665e+00
 1.6189639967e+00	 4.2962841762e-01	 2.3171808321e+00
 1.6103432550e+00	 4.6089000987e-01	 2.1901726215e+00
 1.6010709372e+00	 4.9213499567e-01	 2.0477379038e+00
 1.5911429695e+00	 5.2334410348e-01	 1.8905396754e+00
 1.5805560000e+00	 5.5449772845e-01	 1.7192889579e+00
 1.5693074236e+00	 5.8557596454e-01	 1.5347453296e+00
 1.5573954043e+00	 6.1655863851e-01	 1.3377172653e+00
 1.6593278092e+00	 3.0706265096e-01	 2.6420149072e+00
 1.6532138214e+00	 3.3843804579e-01	 2.5811602388e+00
 1.6464665533e+00	 3.6987043507e-01	 2.5030361617e+00
 1.6390792611e+00	 4.0134203087e-01	 2.4081240526e+00
 1.6310458176e+00	 4.3283459984e-01	 2.2969488572e+00
 1.6223607419e+00	 4.6432948756e-01	 2.1700801767e+00
 1.6130192278e+00	 4.9580764490e-01	 2.0281332576e+00
 1.6030171708e+00	 5.2724965649e-01	 1.8717698625e+00
 1.5923511940e+00	 5.5863577120e-01	 1.7016990021e+00
 1.5810186730e+00	 5.8994593443e-01	 1.5186775043e+00
 1.5690177580e+00	 6.2115982239e-01	 1.3235103988e+00
 1.6716191263e+00	 3.0933718911e-01	 2.6254424291e+00
 1.6654598497e+00	 3.4094499428e-01	 2.5632872244e+00
 1.6586626019e+00	 3.7261021607e-01	 2.4842051322e+00
 1.6512205890e+00	 4.0431493480e-01	 2.3886795338e+00
 1.6431276385e+00	 4.3604078207e-01	 2.2772365070e+00
 1.6343782289e+00	 4.6776896525e-01	 2.1504459286e+00
 1.6249675184e+00	 4.9948029412e-01	 2.0089224874e+00
 1.6148913720e+00	 5.3115520951e-01	 1.8533265829e+00
 1.6041463881e+00	 5.6277381395e-01	 1.6843650927e+00
 1.5927299225e+00	 5.9431590431e-01	 1.5027919812e+00
 1.5806401118e+00	 6.2576100626e-01	 1.3094087300e+00
 1.6839104434e+00	 3.1161172727e-01	 2.6095757252e+00
 1.6777058780e+00	 3.4345194277e-01	 2.5460706808e+00
 1.6708586504e+00	 3.7534999707e-01	 2.4659790068e+00
 1.6633619168e+00	 4.0728783873e-01	 2.3697859415e+00
 1.6552094594e+00	 4.3924696429e-01	 2.2580185487e+00
 1.6463957159e+00	 4.7120844293e-01	 2.1312468374e+00
 1.6369158090e+00	 5.0315294334e-01	 1.9900847988e+00
 1.6267655733e+00	 5.3506076252e-01	 1.8351913358e+00
 1.6159415821e+00	 5.6691185670e-01	 1.6672710657e+00
 1.6044411719e+00	 5.9868587420e-01	 1.4870749713e+00
 1.5922624656e+00	 6.3036219013e-01	 1.2954008779e+00
 1.6962017605e+00	 3.1388626542e-01	 2.5943826849e+00
 1.6899519063e+00	 3.4595889126e-01	 2.5294804150e+00
 1.6830546990e+00	 3.7808977807e-01	 2.4483295766e+00
 1.6755032447e+00	 4.1026074267e-01	 2.3514171146e+00
 1.6672912802e+00	 4.4245314651e-01	 2.2392709279e+00
 1.6584132029e+00	 4.7464792062e-01	 2.1124610105e+00
 1.6488640995e+00	 5.0682559256e-01	 1.9716005120e+00
 1.6386397746e+00	 5.3896631553e-01	 1.8173467001e+00
 1.6277367761e+00	 5.7104989945e-01	 1.6504018003e+00
 1.6161524213e+00	 6.0305584409e-01	 1.4715136902e+00
 1.6038848193e+00	 6.3496337400e-01	 1.2814764258e+00
 1.7084930776e+00	 3.1616080358e-01	 2.5798324338e+00
 1.7021979346e+00	 3.4846583975e-01	 2.5134874477e+00
 1.6952507475e+00	 3.8082955907e-01	 2.4312298230e+00
 1.6876445726e+00	 4.1323364660e-01	 2.3335480556e+00
 1.6793731011e+00	 4.4565932873e-01	 2.2209707263e+00
 1.6704306899e+00	 4.7808739831e-01	 2.0940676616e+00
 1.6608123901e+00	 5.1049824179e-01	 1.9534510217e+00
 1.6505139758e+00	 5.4287186855e-01	 1.7997762958e+00
 1.6395319702e+00	 5.7518794221e-01	 1.6337431809e+00
 1.6278636708e+00	 6.0742581398e-01	 1.4560963219e+00
 1.6155071731e+00	 6.3956455788e-01	 1.2676258865e+00
 1.7207843947e+00	 3.1843534174e-01	 2.5658952895e+00
 1.7144439629e+00	 3.5097278823e-01	 2.4980639707e+00
 1.7074467961e+00	 3.8356934007e-01	 2.4146538746e+00
 1.6997859004e+00	 4.1620655053e-01	 2.3161548898e+00
 1.6914549220e+00	 4.4886551095e-01	 2.2030961209e+00
 1.6824481768e+00	 4.8152687600e-01	 2.0760470711e+00
 1.6727606807e+00	 5.1417089101e-01	 1.9356187586e+00
 1.6623881771e+00	 5.4677742156e-01	 1.7824647464e+00
 1.6513271642e+00	 5.7932598496e-01	 1.6172820622e+00
 1.6395749202e+00	 6.1179578386e-01	 1.4408119844e+00
 1.6271295269e+00	 6.4416574175e-01	 1.2538406696e+00
 1.5109059892e+00	 5.9815390303e-01	 1.3958601541e+00
 1.4987048992e+00	 6.2809921591e-01	 1.2220937679e+00
 1.4858589260e+00	 6.5791203964e-01	 1.0473003426e+00
 1.4723686411e+00	 6.8757223970e-01	 8.7244979311e-01
 1.4582354312e+00	 7.1705957009e-01	 6.9852255515e-01
 1.4434615111e+00	 7.4635371371e-01	 5.2650756505e-01
 1.4280499324e+00	 7.7543432381e-01	 3.5740009867e-01
 1.4120045914e+00	 8.0428106636e-01	 1.9219946606e-01
 1.3953302337e+00	 8.3287366321e-01	 3.1906558640e-02
 1.3780324560e+00	 8.6119193579e-01	-1.2247875209e-01
 1.3601177057e+00	 8.8921584925e-01	-2.6996036411e-01
 1.5225283430e+00	 6.0275508690e-01	 1.3810980974e+00
 1.5102333985e+00	 6.3293074833e-01	 1.2090571388e+00
 1.4972886101e+00	 6.6297290149e-01	 1.0356031166e+00
 1.4836945537e+00	 6.9286125693e-01	 8.6167226712e-01
 1.4694526269e+00	 7.2257541294e-01	 6.8821277231e-01
 1.4545650612e+00	 7.5209489612e-01	 5.1618295625e-01
 1.4390349319e+00	 7.8139920322e-01	 3.4654933671e-01
 1.4228661652e+00	 8.1046784380e-01	 1.8028452559e-01
 1.4060635432e+00	 8.3928038370e-01	 1.8364973698e-02
 1.3886327056e+00	 8.6781648914e-01	-1.3823144331e-01
 1.3705801496e+00	 8.9605597117e-01	-2.8852799939e-01
 1.5341506968e+00	 6.0735627077e-01	 1.3664971555e+00
 1.5217618977e+00	 6.3776228076e-01	 1.1959524203e+00
 1.5087182941e+00	 6.6803376333e-01	 1.0236153207e+00
 1.4950204663e+00	 6.9815027416e-01	 8.5038872826e-01
 1.4806698225e+00	 7.2809125578e-01	 6.7718888113e-01
 1.4656686113e+00	 7.5783607853e-01	 5.0494379723e-01
 1.4500199314e+00	 7.8736408263e-01	 3.3459153789e-01
 1.4337277390e+00	 8.1665462123e-01	 1.6707831393e-01
 1.4167968527e+00	 8.4568710418e-01	 3.3564275171e-03
 1.3992329553e+00	 8.7444104249e-01	-1.5561795498e-01
 1.3810425935e+00	 9.0289609308e-01	-3.0888720272e-01
 1.5457730505e+00	 6.1195745464e-01	 1.3520417108e+00
 1.5332903969e+00	 6.4259381320e-01	 1.1827697385e+00
 1.5201479782e+00	 6.7309462517e-01	 1.0113326206e+00
 1.5063463789e+00	 7.0343929139e-01	 8.3860016416e-01
 1.4918870181e+00	 7.3360709863e-01	 6.6545696006e-01
 1.4767721614e+00	 7.6357726095e-01	 4.9280101311e-01
 1.4610049308e+00	 7.9332896205e-01	 3.2154221743e-01
 1.4445893128e+00	 8.2284139866e-01	 1.5260066776e-01
 1.4275301622e+00	 8.5209382467e-01	-1.3095201705e-02
 1.4098332050e+00	 8.8106559584e-01	-1.7461065800e-01
 1.3915050374e+00	 9.0973621500e-01	-3.3100689473e-01
 1.5573954043e+00	 6.1655863851e-01	 1.3377172653e+00
 1.5448188961e+00	 6.4742534563e-01	 1.1695001968e+00
 1.5315776622e+00	 6.7815548702e-01	 9.9875152250e-01
 1.5176722916e+00	 7.0872830862e-01	 8.2630827115e-01
 1.5031042137e+00	 7.3912294148e-01	 6.5302367010e-01
 1.4878757114e+00	 7.6931844336e-01	 4.7976599139e-01
 1.4719899303e+00	 7.9929384146e-01	 3.0741723882e-01
 1.4554508866e+00	 8.2902817610e-01	 1.3687166448e-01
 1.4382634717e+00	 8.5850054516e-01	-3.0965895907e-02
 1.4204334546e+00	 8.8769014920e-01	-1.9518187733e-01
 1.4019674813e+00	 9.1657633692e-01	-3.5485603682e-01
 1.5690177580e+00	 6.2115982239e-01	 1.3235103988e+00
 1.5563473954e+00	 6.5225687806e-01	 1.1561358400e+00
 1.5430073463e+00	 6.8321634886e-01	 9.8586934171e-01
 1.5289982042e+00	 7.1401732585e-01	 8.1351542798e-01
 1.5143214094e+00	 7.4463878433e-01	 6.3989623325e-01
 1.4989792615e+00	 7.7505962577e-01	 4.6585056473e-01
 1.4829749298e+00	 8.0525872088e-01	 2.9223280096e-01
 1.4663124604e+00	 8.3521495353e-01	 1.1991161327e-01
 1.4489967812e+00	 8.6490726564e-01	-5.0231502347e-02
 1.4310337043e+00	 8.9431470255e-01	-2.1730389365e-01
 1.4124299252e+00	 9.2341645884e-01	-3.8040362962e-01
 1.5806401118e+00	 6.2576100626e-01	 1.3094087300e+00
 1.5678758946e+00	 6.5708841049e-01	 1.1426696196e+00
 1.5544370303e+00	 6.8827721071e-01	 9.7268417321e-01
 1.5403241168e+00	 7.1930634308e-01	 8.0022467072e-01
 1.5255386050e+00	 7.5015462717e-01	 6.2608241182e-01
 1.5100828116e+00	 7.8080080819e-01	 4.5106699464e-01
 1.4939599293e+00	 8.1122360029e-01	 2.7600542579e-01
 1.4771740341e+00	 8.4140173097e-01	 1.0174104663e-01
 1.4597300907e+00	 8.7131398613e-01	-7.0867738555e-02
 1.4416339539e+00	 9.0093925590e-01	-2.4094894504e-01
 1.4228923691e+00	 9.3025658076e-01	-4.0761871158e-01
 1.5922624656e+00	 6.3036219013e-01	 1.2954008779e+00
 1.5794043938e+00	 6.6191994292e-01	 1.1290953605e+00
 1.5658667144e+00	 6.9333807255e-01	 9.5919486304e-01
 1.5516500294e+00	 7.2459536031e-01	 7.8643966882e-01
 1.5367558006e+00	 7.5567047002e-01	 6.1159048877e-01
 1.5211863617e+00	 7.8654199061e-01	 4.3542795583e-01
 1.5049449288e+00	 8.1718847971e-01	 2.5875194656e-01
 1.4880356079e+00	 8.4758850840e-01	 8.2380712158e-02
 1.4704634002e+00	 8.7772070662e-01	-9.2850197061e-02
 1.4522342036e+00	 9.0756380926e-01	-2.6608922846e-01
 1.4333548130e+00	 9.3709670267e-01	-4.3647035755e-01
 1.6038848193e+00	 6.3496337400e-01	 1.2814764258e+00
 1.5909328930e+00	 6.6675147536e-01	 1.1154077298e+00
 1.5772963984e+00	 6.9839893440e-01	 9.4540098110e-01
 1.5629759421e+00	 7.2988437754e-01	 7.7216470212e-01
 1.5479729963e+00	 7.6118631287e-01	 5.9642924880e-01
 1.5322899118e+00	 7.9228317302e-01	 4.1894652120e-01
 1.5159299283e+00	 8.2315335913e-01	 2.4048949648e-01
 1.4988971817e+00	 8.5377528584e-01	 6.1851564814e-02
 1.4811967096e+00	 8.8412742711e-01	-1.1615434993e-01
 1.4628344533e+00	 9.1418836261e-01	-2.9269690132e-01
 1.4438172569e+00	 9.4393682459e-01	-4.6692767747e-01
 1.6155071731e+00	 6.3956455788e-01	 1.2676258865e+00
 1.6024613923e+00	 6.7158300779e-01	 1.1016022061e+00
 1.5887260825e+00	 7.0345979625e-01	 9.3130279516e-01
 1.5743018547e+00	 7.3517339477e-01	 7.5740463890e-01
 1.5591901919e+00	 7.6670215573e-01	 5.8060796037e-01
 1.5433934619e+00	 7.9802435544e-01	 4.0163614756e-01
 1.5269149277e+00	 8.2911823854e-01	 2.2123549798e-01
 1.5097587555e+00	 8.5996206328e-01	 4.0174759427e-02
 1.4919300191e+00	 8.9053414760e-01	-1.4075555311e-01
 1.4734347029e+00	 9.2081291596e-01	-3.2074408284e-01
 1.4542797008e+00	 9.5077694651e-01	-4.9895981514e-01
 1.6271295269e+00	 6.4416574175e-01	 1.2538406696e+00
 1.6139898915e+00	 6.7641454023e-01	 1.0876750506e+00
 1.6001557665e+00	 7.0852065810e-01	 9.1690124588e-01
 1.5856277673e+00	 7.4046241201e-01	 7.4216491488e-01
 1.5704073875e+00	 7.7221799858e-01	 5.6413635833e-01
 1.5544970120e+00	 8.0376553786e-01	 3.8351066188e-01
 1.5378999272e+00	 8.3508311796e-01	 2.0100765236e-01
 1.5206203293e+00	 8.6614884071e-01	 1.7371643571e-02
 1.5026633286e+00	 8.9694086809e-01	-1.6662905052e-01
 1.4840349526e+00	 9.2743746932e-01	-3.5020285545e-01
 1.4647421446e+00	 9.5761706843e-01	-5.3253594697e-01
 1.3601177057e+00	 8.8921584925e-01	-2.6996036411e-01
 1.3415932778e+00	 9.1692555685e-01	-4.6321705127e-01
 1.3224673086e+00	 9.4430144431e-01	-6.5949765562e-01
 1.3027487666e+00	 9.7132417402e-01	-8.5801552093e-01
 1.2824474416e+00	 9.9797472884e-01	-1.0579490869e+00
 1.2615739298e+00	 1.0242344554e+00	-1.2584440621e+00
 1.2401396167e+00	 1.0500851065e+00	-1.4177112212e+00
 1.2181566579e+00	 1.0755088827e+00	-1.5293791336e+00
 1.1956379560e+00	 1.1004884725e+00	-1.6419485458e+00
 1.1725971363e+00	 1.1250070915e+00	-1.7544459401e+00
 1.1490485194e+00	 1.1490485194e+00	-1.8659334553e+00
 1.3705801496e+00	 8.9605597117e-01	-2.8852799939e-01
 1.3519132261e+00	 9.2397883037e-01	-4.8509923758e-01
 1.3326401340e+00	 9.5156530158e-01	-6.8279398802e-01
 1.3127699110e+00	 9.7879589844e-01	-8.8078245087e-01
 1.2923124220e+00	 1.0056514575e+00	-1.0782058160e+00
 1.2712783446e+00	 1.0321131820e+00	-1.2741786391e+00
 1.2496791523e+00	 1.0581626843e+00	-1.4664565651e+00
 1.2275270937e+00	 1.0837820280e+00	-1.5672817289e+00
 1.2048351710e+00	 1.1089537685e+00	-1.6668128702e+00
 1.1816171143e+00	 1.1336609922e+00	-1.7640632089e+00
 1.1578873542e+00	 1.1578873542e+00	-1.8580907993e+00
 1.3810425935e+00	 9.0289609308e-01	-3.0888720272e-01
 1.3622331744e+00	 9.3103210388e-01	-5.0862890798e-01
 1.3428129595e+00	 9.5882915884e-01	-7.0762168200e-01
 1.3227910553e+00	 9.8626762285e-01	-9.0499301227e-01
 1.3021774023e+00	 1.0133281862e+00	-1.0998471850e+00
 1.2809827595e+00	 1.0399919086e+00	-1.2912678622e+00
 1.2592186878e+00	 1.0662402620e+00	-1.4783209821e+00
 1.2368975295e+00	 1.0920551732e+00	-1.6068440468e+00
 1.2140323861e+00	 1.1174190644e+00	-1.6934001702e+00
 1.1906370923e+00	 1.1423148929e+00	-1.7754861493e+00
 1.1667261890e+00	 1.1667261890e+00	-1.8521555451e+00
 1.3915050374e+00	 9.0973621500e-01	-3.3100689473e-01
 1.3725531227e+00	 9.3808537740e-01	-5.3377843920e-01
 1.3529857849e+00	 9.6609301611e-01	-7.3395604017e-01
 1.3328121997e+00	 9.9373934727e-01	-9.3062489535e-01
 1.3120423826e+00	 1.0210049149e+00	-1.1228527267e+00
 1.2906871743e+00	 1.0478706351e+00	-1.3096925560e+00
 1.2687582233e+00	 1.0743178398e+00	-1.4901857790e+00
 1.2462679654e+00	 1.1003283185e+00	-1.6481253376e+00
 1.2232296011e+00	 1.1258843604e+00	-1.7217700352e+00
 1.1996570702e+00	 1.1509687936e+00	-1.7887739645e+00
 1.1755650237e+00	 1.1755650237e+00	-1.8481857827e+00
 1.4019674813e+00	 9.1657633692e-01	-3.5485603682e-01
 1.3828730710e+00	 9.4513865091e-01	-5.6052013112e-01
 1.3631586104e+00	 9.7335687337e-01	-7.6177218841e-01
 1.3428333441e+00	 1.0012110717e+00	-9.5765553179e-01
 1.3219073629e+00	 1.0286816436e+00	-1.1472016517e+00
 1.3003915892e+00	 1.0557493617e+00	-1.3294331779e+00
 1.2782977588e+00	 1.0823954175e+00	-1.5033671251e+00
 1.2556384012e+00	 1.1086014637e+00	-1.6680184024e+00
 1.2324268162e+00	 1.1343496563e+00	-1.7519816639e+00
 1.2086770482e+00	 1.1596226943e+00	-1.8039854970e+00
 1.1844038585e+00	 1.1844038585e+00	-1.8462392896e+00
 1.4124299252e+00	 9.2341645884e-01	-3.8040362962e-01
 1.3931930193e+00	 9.5219192443e-01	-5.8882620963e-01
 1.3733314358e+00	 9.8062073064e-01	-7.9104508245e-01
 1.3528544884e+00	 1.0086827961e+00	-9.8606210424e-01
 1.3317723432e+00	 1.0363583723e+00	-1.1728728604e+00
 1.3100960040e+00	 1.0636280883e+00	-1.3504698314e+00
 1.2878372943e+00	 1.0904729952e+00	-1.5178458087e+00
 1.2650088370e+00	 1.1168746090e+00	-1.6739975491e+00
 1.2416240312e+00	 1.1428149523e+00	-1.7840938789e+00
 1.2176970262e+00	 1.1682765950e+00	-1.8211792416e+00
 1.1932426932e+00	 1.1932426932e+00	-1.8463735427e+00
 1.4228923691e+00	 9.3025658076e-01	-4.0761871158e-01
 1.4035129676e+00	 9.5924519794e-01	-6.1866882933e-01
 1.3835042613e+00	 9.8788458790e-01	-8.2174951408e-01
 1.3628756328e+00	 1.0161545205e+00	-1.0158215556e+00
 1.3416373236e+00	 1.0440351009e+00	-1.1998449544e+00
 1.3198004189e+00	 1.0715068149e+00	-1.3727822795e+00
 1.2973768298e+00	 1.0985505730e+00	-1.5336022528e+00
 1.2743792729e+00	 1.1251477542e+00	-1.6812835469e+00
 1.2508212463e+00	 1.1512802482e+00	-1.8148187799e+00
 1.2267170041e+00	 1.1769304957e+00	-1.8404133584e+00
 1.2020815280e+00	 1.2020815280e+00	-1.8486457290e+00
 1.4333548130e+00	 9.3709670267e-01	-4.3647035755e-01
 1.4138329159e+00	 9.6629847146e-01	-6.5002007613e-01
 1.3936770867e+00	 9.9514844517e-01	-8.5386011718e-01
 1.3728967771e+00	 1.0236262449e+00	-1.0469105975e+00
 1.3515023039e+00	 1.0517118296e+00	-1.2280962473e+00
 1.3295048337e+00	 1.0793855415e+00	-1.3963499570e+00
 1.3069163653e+00	 1.1066281507e+00	-1.5506165285e+00
 1.2837497087e+00	 1.1334208995e+00	-1.6898566161e+00
 1.2600184613e+00	 1.1597455441e+00	-1.8130508378e+00
 1.2357369821e+00	 1.1855843964e+00	-1.8617456849e+00
 1.2109203628e+00	 1.2109203628e+00	-1.8531127564e+00
 1.4438172569e+00	 9.4393682459e-01	-4.6692767747e-01
 1.4241528642e+00	 9.7335174497e-01	-6.8285196976e-01
 1.4038499122e+00	 1.0024123024e+00	-8.8735137339e-01
 1.3829179215e+00	 1.0310979693e+00	-1.0793057191e+00
 1.3613672842e+00	 1.0593885583e+00	-1.2576047752e+00
 1.3392092486e+00	 1.0872642680e+00	-1.4211519822e+00
 1.3164559009e+00	 1.1147057285e+00	-1.5688683680e+00
 1.2931201445e+00	 1.1416940447e+00	-1.6996966310e+00
 1.2692156763e+00	 1.1682108401e+00	-1.8126053682e+00
 1.2447569601e+00	 1.1942382971e+00	-1.8852337481e+00
 1.2197591975e+00	 1.2197591975e+00	-1.8598312637e+00
 1.4542797008e+00	 9.5077694651e-01	-4.9895981514e-01
 1.4344728125e+00	 9.8040501848e-01	-7.1713646613e-01
 1.4140227376e+00	 1.0096761597e+00	-9.2219761765e-01
 1.3929390659e+00	 1.0385696938e+00	-1.1129831946e+00
 1.3712322645e+00	 1.0670652870e+00	-1.2883483069e+00
 1.3489136634e+00	 1.0951429946e+00	-1.4471671684e+00
 1.3259954364e+00	 1.1227833062e+00	-1.5883371760e+00
 1.3024905804e+00	 1.1499671900e+00	-1.7107831325e+00
 1.2784128914e+00	 1.1766761360e+00	-1.8134615908e+00
 1.2537769381e+00	 1.2028921978e+00	-1.8953652963e+00
 1.2285980323e+00	 1.2285980323e+00	-1.8688576303e+00
 1.4647421446e+00	 9.5761706843e-01	-5.3253594697e-01
 1.4447927608e+00	 9.8745829200e-01	-7.5284545964e-01
 1.4241955631e+00	 1.0169400170e+00	-9.5837304337e-01
 1.4029602102e+00	 1.0460414182e+00	-1.1479190915e+00
 1.3810972449e+00	 1.0747420157e+00	-1.3203043531e+00
 1.3586180783e+00	 1.1030217212e+00	-1.4743740350e+00
 1.3355349719e+00	 1.1308608839e+00	-1.6090020423e+00
 1.3118610162e+00	 1.1582403352e+00	-1.7230953400e+00
 1.2876101064e+00	 1.1851414320e+00	-1.8155984127e+00
 1.2627969160e+00	 1.2115460985e+00	-1.8854977975e+00
 1.2374368671e+00	 1.2374368671e+00	-1.8802479856e+00
 1.1490485194e+00	 1.1490485194e+00	-1.8659334553e+00
 1.1250070915e+00	 1.1725971363e+00	-1.9581012509e+00
 1.1004884725e+00	 1.1956379560e+00	-2.0084947457e+00
 1.0755088827e+00	 1.2181566579e+00	-2.0164079734e+00
 1.0500851065e+00	 1.2401396167e+00	-1.9813428319e+00
 1.0242344554e+00	 1.2615739298e+00	-2.0368961405e+00
 9.9797472884e-01	 1.2824474416e+00	-2.1673620467e+00
 9.7132417402e-01	 1.3027487666e+00	-2.2619092271e+00
 9.4430144431e-01	 1.3224673086e+00	-2.3207322070e+00
 9.1692555685e-01	 1.3415932778e+00	-2.3441233815e+00
 8.8921584925e-01	 1.3601177057e+00	-2.3324716599e+00
 1.1578873542e+00	 1.1578873542e+00	-1.8580907993e+00
 1.1336609922e+00	 1.1816171143e+00	-1.9316221239e+00
 1.1089537685e+00	 1.2048351710e+00	-1.9646829441e+00
 1.0837820280e+00	 1.2275270937e+00	-1.9566058351e+00
 1.0581626843e+00	 1.2496791523e+00	-1.9069277221e+00
 1.0321131820e+00	 1.2712783446e+00	-2.0588262487e+00
 1.0056514575e+00	 1.2923124220e+00	-2.1802036288e+00
 9.7879589844e-01	 1.3127699110e+00	-2.2676108720e+00
 9.5156530158e-01	 1.3326401340e+00	-2.3212572700e+00
 9.2397883037e-01	 1.3519132261e+00	-2.3414426670e+00
 8.9605597117e-01	 1.3705801496e+00	-2.3285561744e+00
 1.1667261890e+00	 1.1667261890e+00	-1.8521555451e+00
 1.1423148929e+00	 1.1906370923e+00	-1.9073458481e+00
 1.1174190644e+00	 1.2140323861e+00	-1.9233346894e+00
 1.0920551732e+00	 1.2368975295e+00	-1.8994925210e+00
 1.0662402620e+00	 1.2592186878e+00	-1.9366231743e+00
 1.0399919086e+00	 1.2809827595e+00	-2.0812412295e+00
 1.0133281862e+00	 1.3021774023e+00	-2.1936746019e+00
 9.8626762285e-01	 1.3227910553e+00	-2.2740629376e+00
 9.5882915884e-01	 1.3428129595e+00	-2.3226300911e+00
 9.3103210388e-01	 1.3622331744e+00	-2.3396832046e+00
 9.0289609308e-01	 1.3810425935e+00	-2.3256114921e+00
 1.1755650237e+00	 1.1755650237e+00	-1.8481857827e+00
 1.1509687936e+00	 1.1996570702e+00	-1.8853247230e+00
 1.1258843604e+00	 1.2232296011e+00	-1.8844969589e+00
 1.1003283185e+00	 1.2462679654e+00	-1.8451101625e+00
 1.0743178398e+00	 1.2687582233e+00	-1.9701694242e+00
 1.0478706351e+00	 1.2906871743e+00	-2.1041043417e+00
 1.0210049149e+00	 1.3120423826e+00	-2.2077352340e+00
 9.9373934727e-01	 1.3328121997e+00	-2.2812233545e+00
 9.6609301611e-01	 1.3529857849e+00	-2.3248069188e+00
 9.3808537740e-01	 1.3725531227e+00	-2.3388002147e+00
 9.0973621500e-01	 1.3915050374e+00	-2.3235924576e+00
 1.1844038585e+00	 1.1844038585e+00	-1.8462392896e+00
 1.1596226943e+00	 1.2086770482e+00	-1.8656109208e+00
 1.1343496563e+00	 1.2324268162e+00	-1.8482167704e+00
 1.1086014637e+00	 1.2556384012e+00	-1.8519970292e+00
 1.0823954175e+00	 1.2782977588e+00	-2.0039669183e+00
 1.0557493617e+00	 1.3003915892e+00	-2.1273792831e+00
 1.0286816436e+00	 1.3219073629e+00	-2.2223463292e+00
 1.0012110717e+00	 1.3428333441e+00	-2.2890506687e+00
 9.7335687337e-01	 1.3631586104e+00	-2.3277446773e+00
 9.4513865091e-01	 1.3828730710e+00	-2.3387496356e+00
 9.1657633692e-01	 1.4019674813e+00	-2.3224546571e+00
 1.1932426932e+00	 1.1932426932e+00	-1.8463735427e+00
 1.1682765950e+00	 1.2176970262e+00	-1.8482564912e+00
 1.1428149523e+00	 1.2416240312e+00	-1.8145411810e+00
 1.1168746090e+00	 1.2650088370e+00	-1.8981878000e+00
 1.0904729952e+00	 1.2878372943e+00	-2.0379831929e+00
 1.0636280883e+00	 1.3100960040e+00	-2.1510301745e+00
 1.0363583723e+00	 1.3317723432e+00	-2.2374692080e+00
 1.0086827961e+00	 1.3528544884e+00	-2.2975040182e+00
 9.8062073064e-01	 1.3733314358e+00	-2.3314009410e+00
 9.5219192443e-01	 1.3931930193e+00	-2.3394880970e+00
 9.2341645884e-01	 1.4124299252e+00	-2.3221543913e+00
 1.2020815280e+00	 1.2020815280e+00	-1.8486457290e+00
 1.1769304957e+00	 1.2267170041e+00	-1.8333133658e+00
 1.1512802482e+00	 1.2508212463e+00	-1.7915241692e+00
 1.1251477542e+00	 1.2743792729e+00	-1.9443908767e+00
 1.0985505730e+00	 1.2973768298e+00	-2.0721860850e+00
 1.0715068149e+00	 1.3198004189e+00	-2.1750215441e+00
 1.0440351009e+00	 1.3416373236e+00	-2.2530656881e+00
 1.0161545205e+00	 1.3628756328e+00	-2.3065431115e+00
 9.8788458790e-01	 1.3835042613e+00	-2.3357339112e+00
 9.5924519794e-01	 1.4035129676e+00	-2.3409728941e+00
 9.3025658076e-01	 1.4228923691e+00	-2.3226486490e+00
 1.2109203628e+00	 1.2109203628e+00	-1.8531127564e+00
 1.1855843964e+00	 1.2357369821e+00	-1.8208333623e+00
 1.1597455441e+00	 1.2600184613e+00	-1.8512752085e+00
 1.1334208995e+00	 1.2837497087e+00	-1.9905781702e+00
 1.1066281507e+00	 1.3069163653e+00	-2.1065437212e+00
 1.0793855415e+00	 1.3295048337e+00	-2.1993183126e+00
 1.0517118296e+00	 1.3515023039e+00	-2.2690980667e+00
 1.0236262449e+00	 1.3728967771e+00	-2.3161282066e+00
 9.9514844517e-01	 1.3936770867e+00	-2.3407023928e+00
 9.6629847146e-01	 1.4138329159e+00	-2.3431619639e+00
 9.3709670267e-01	 1.4333548130e+00	-2.3238950820e+00
 1.2197591975e+00	 1.2197591975e+00	-1.8598312637e+00
 1.1942382971e+00	 1.2447569601e+00	-1.8108681890e+00
 1.1682108401e+00	 1.2692156763e+00	-1.9107966907e+00
 1.1416940447e+00	 1.2931201445e+00	-2.0367217562e+00
 1.1147057285e+00	 1.3164559009e+00	-2.1410245076e+00
 1.0872642680e+00	 1.3392092486e+00	-2.2238857789e+00
 1.0593885583e+00	 1.3613672842e+00	-2.2855291023e+00
 1.0310979693e+00	 1.3829179215e+00	-2.3262200912e+00
 1.0024123024e+00	 1.4038499122e+00	-2.3462657725e+00
 9.7335174497e-01	 1.4241528642e+00	-2.3460138615e+00
 9.4393682459e-01	 1.4438172569e+00	-2.3258519811e+00
 1.2285980323e+00	 1.2285980323e+00	-1.8688576303e+00
 1.2028921978e+00	 1.2537769381e+00	-1.8372318752e+00
 1.1766761360e+00	 1.2784128914e+00	-1.9700649522e+00
 1.1499671900e+00	 1.3024905804e+00	-2.0827938690e+00
 1.1227833062e+00	 1.3259954364e+00	-2.1755971190e+00
 1.0951429946e+00	 1.3489136634e+00	-2.2486896067e+00
 1.0670652870e+00	 1.3712322645e+00	-2.3023219989e+00
 1.0385696938e+00	 1.3929390659e+00	-2.3367800638e+00
 1.0096761597e+00	 1.4140227376e+00	-2.3523839981e+00
 9.8040501848e-01	 1.4344728125e+00	-2.3494877382e+00
 9.5077694651e-01	 1.4542797008e+00	-2.3284782530e+00
 1.2374368671e+00	 1.2374368671e+00	-1.8802479856e+00
 1.2115460985e+00	 1.2627969160e+00	-1.9108798151e+00
 1.1851414320e+00	 1.2876101064e+00	-2.0290563619e+00
 1.1582403352e+00	 1.3118610162e+00	-2.1287668963e+00
 1.1308608839e+00	 1.3355349719e+00	-2.2102304902e+00
 1.1030217212e+00	 1.3586180783e+00	-2.2736958113e+00
 1.0747420157e+00	 1.3810972449e+00	-2.3194403899e+00
 1.0460414182e+00	 1.4029602102e+00	-2.3477699151e+00
 1.0169400170e+00	 1.4241955631e+00	-2.3590175580e+00
 9.8745829200e-01	 1.4447927608e+00	-2.3535433198e+00
 9.5761706843e-01	 1.4647421446e+00	-2.3317333985e+00
 8.8921584925e-01	 1.3601177057e+00	-2.3324716599e+00
 8.6119193579e-01	 1.3780324560e+00	-2.2668273736e+00
 8.3287366321e-01	 1.3953302337e+00	-2.2010387361e+00
 8.0428106636e-01	 1.4120045914e+00	-2.1356781120e+00
 7.7543432381e-01	 1.4280499324e+00	-2.0712834954e+00
 7.4635371371e-01	 1.4434615111e+00	-2.0083583437e+00
 7.1705957009e-01	 1.4582354312e+00	-1.9473716626e+00
 6.8757223970e-01	 1.4723686411e+00	-1.8887583241e+00
 6.5791203964e-01	 1.4858589260e+00	-1.8329195990e+00
 6.2809921591e-01	 1.4987048992e+00	-1.7802238830e+00
 5.9815390303e-01	 1.5109059892e+00	-1.7310075958e+00
 8.9605597117e-01	 1.3705801496e+00	-2.3285561744e+00
 8.6781648914e-01	 1.3886327056e+00	-2.2642878541e+00
 8.3928038370e-01	 1.4060635432e+00	-2.1999009840e+00
 8.1046784380e-01	 1.4228661652e+00	-2.1359254833e+00
 7.8139920322e-01	 1.4390349319e+00	-2.0728573423e+00
 7.5209489612e-01	 1.4545650612e+00	-2.0111586531e+00
 7.2257541294e-01	 1.4694526269e+00	-1.9512578846e+00
 6.9286125693e-01	 1.4836945537e+00	-1.8935503829e+00
 6.6297290149e-01	 1.4972886101e+00	-1.8383990787e+00
 6.3293074833e-01	 1.5102333985e+00	-1.7861353779e+00
 6.0275508690e-01	 1.5225283430e+00	-1.7370602143e+00
 9.0289609308e-01	 1.3810425935e+00	-2.3256114921e+00
 8.7444104249e-01	 1.3992329553e+00	-2.2624866242e+00
 8.4568710418e-01	 1.4167968527e+00	-2.1992745675e+00
 8.1665462123e-01	 1.4337277390e+00	-2.1364630681e+00
 7.8736408263e-01	 1.4500199314e+00	-2.0745063608e+00
 7.5783607853e-01	 1.4656686113e+00	-2.0138253947e+00
 7.2809125578e-01	 1.4806698225e+00	-1.9548082995e+00
 6.9815027416e-01	 1.4950204663e+00	-1.8978110689e+00
 6.6803376333e-01	 1.5087182941e+00	-1.8431584426e+00
 6.3776228076e-01	 1.5217618977e+00	-1.7911449626e+00
 6.0735627077e-01	 1.5341506968e+00	-1.7420361804e+00
 9.0973621500e-01	 1.3915050374e+00	-2.3235924576e+00
 8.8106559584e-01	 1.4098332050e+00	-2.2613846218e+00
 8.5209382467e-01	 1.4275301622e+00	-2.1991264936e+00
 8.2284139866e-01	 1.4445893128e+00	-2.1372639070e+00
 7.9332896205e-01	 1.4610049308e+00	-2.0762095765e+00
 7.6357726095e-01	 1.4767721614e+00	-2.0163435197e+00
 7.3360709863e-01	 1.4918870181e+00	-1.9580137131e+00
 7.0343929139e-01	 1.5063463789e+00	-1.9015369602e+00
 6.7309462517e-01	 1.5201479782e+00	-1.8471999482e+00
 6.4259381320e-01	 1.5332903969e+00	-1.7952604708e+00
 6.1195745464e-01	 1.5457730505e+00	-1.7459487904e+00
 9.1657633692e-01	 1.4019674813e+00	-2.3224546571e+00
 8.8769014920e-01	 1.4204334546e+00	-2.2609433585e+00
 8.5850054516e-01	 1.4382634717e+00	-2.1994241770e+00
 8.2902817610e-01	 1.4554508866e+00	-2.1383012838e+00
 7.9929384146e-01	 1.4719899303e+00	-2.0779460973e+00
 7.6931844336e-01	 1.4878757114e+00	-2.0186979027e+00
 7.3912294148e-01	 1.5031042137e+00	-1.9608646987e+00
 7.0872830862e-01	 1.5176722916e+00	-1.9047242496e+00
 6.7815548702e-01	 1.5315776622e+00	-1.8505253185e+00
 6.4742534563e-01	 1.5448188961e+00	-1.7984890557e+00
 6.1655863851e-01	 1.5573954043e+00	-1.7488105184e+00
 9.2341645884e-01	 1.4124299252e+00	-2.3221543913e+00
 8.9431470255e-01	 1.4310337043e+00	-2.2611248987e+00
 8.6490726564e-01	 1.4489967812e+00	-2.2001354255e+00
 8.3521495353e-01	 1.4663124604e+00	-2.1395487175e+00
 8.0525872088e-01	 1.4829749298e+00	-2.0796951101e+00
 7.7505962577e-01	 1.4989792615e+00	-2.0208733442e+00
 7.4463878433e-01	 1.5143214094e+00	-1.9633516051e+00
 7.1401732585e-01	 1.5289982042e+00	-1.9073687587e+00
 6.8321634886e-01	 1.5430073463e+00	-1.8531357611e+00
 6.5225687806e-01	 1.5563473954e+00	-1.8008372152e+00
 6.2115982239e-01	 1.5690177580e+00	-1.7506330466e+00
 9.3025658076e-01	 1.4228923691e+00	-2.3226486490e+00
 9.0093925590e-01	 1.4416339539e+00	-2.2618918388e+00
 8.7131398613e-01	 1.4597300907e+00	-2.2012284247e+00
 8.4140173097e-01	 1.4771740341e+00	-2.1409799531e+00
 8.1122360029e-01	 1.4939599293e+00	-2.0814358779e+00
 7.8080080819e-01	 1.5100828116e+00	-2.0228545737e+00
 7.5015462717e-01	 1.5255386050e+00	-1.9654645656e+00
 7.1930634308e-01	 1.5403241168e+00	-1.9094659514e+00
 6.8827721071e-01	 1.5544370303e+00	-1.8550319880e+00
 6.5708841049e-01	 1.5678758946e+00	-1.8023108162e+00
 6.2576100626e-01	 1.5806401118e+00	-1.7514272948e+00
 9.3709670267e-01	 1.4333548130e+00	-2.3238950820e+00
 9.0756380926e-01	 1.4522342036e+00	-2.2632072887e+00
 8.7772070662e-01	 1.4704634002e+00	-2.2026717249e+00
 8.4758850840e-01	 1.4880356079e+00	-2.1425689533e+00
 8.1718847971e-01	 1.5049449288e+00	-2.0831477375e+00
 7.8654199061e-01	 1.5211863617e+00	-2.0246262521e+00
 7.5567047002e-01	 1.5367558006e+00	-1.9671935053e+00
 7.2459536031e-01	 1.5516500294e+00	-1.9110109470e+00
 6.9333807255e-01	 1.5658667144e+00	-1.8562142327e+00
 6.6191994292e-01	 1.5794043938e+00	-1.8029151173e+00
 6.3036219013e-01	 1.5922624656e+00	-1.7512034479e+00
 9.4393682459e-01	 1.4438172569e+00	-2.3258519811e+00
 9.1418836261e-01	 1.4628344533e+00	-2.2650348521e+00
 8.8412742711e-01	 1.4811967096e+00	-2.2044342276e+00
 8.5377528584e-01	 1.4988971817e+00	-2.1442898911e+00
 8.2315335913e-01	 1.5159299283e+00	-2.0848100961e+00
 7.9228317302e-01	 1.5322899118e+00	-2.0261729739e+00
 7.6118631287e-01	 1.5479729963e+00	-1.9685281489e+00
 7.2988437754e-01	 1.5629759421e+00	-1.9119985330e+00
 6.9839893440e-01	 1.5772963984e+00	-1.8566822685e+00
 6.6675147536e-01	 1.5909328930e+00	-1.8026547911e+00
 6.3496337400e-01	 1.6038848193e+00	-1.7499709828e+00
 9.5077694651e-01	 1.4542797008e+00	-2.3284782530e+00
 9.2081291596e-01	 1.4734347029e+00	-2.2673386095e+00
 8.9053414760e-01	 1.4919300191e+00	-2.2064851729e+00
 8.5996206328e-01	 1.5097587555e+00	-2.1461171418e+00
 8.2911823854e-01	 1.5269149277e+00	-2.0864024295e+00
 7.9802435544e-01	 1.5433934619e+00	-2.0274792703e+00
 7.6670215573e-01	 1.5591901919e+00	-1.9694580279e+00
 7.3517339477e-01	 1.5743018547e+00	-1.9124231767e+00
 7.0345979625e-01	 1.5887260825e+00	-1.8564354243e+00
 6.7158300779e-01	 1.6024613923e+00	-1.8015339451e+00
 6.3956455788e-01	 1.6155071731e+00	-1.7477386936e+00
 9.5761706843e-01	 1.4647421446e+00	-2.3317333985e+00
 9.2743746932e-01	 1.4840349526e+00	-2.2700831009e+00
 8.9694086809e-01	 1.5026633286e+00	-2.2087941274e+00
 8.6614884071e-01	 1.5206203293e+00	-2.1480252757e+00
 8.3508311796e-01	 1.5378999272e+00	-2.0879042789e+00
 8.0376553786e-01	 1.5544970120e+00	-2.0285296107e+00
 7.7221799858e-01	 1.5704073875e+00	-1.9699724873e+00
 7.4046241201e-01	 1.5856277673e+00	-1.9122790367e+00
 7.0852065810e-01	 1.6001557665e+00	-1.8554726011e+00
 6.7641454023e-01	 1.6139898915e+00	-1.7995561421e+00
 6.4416574175e-01	 1.6271295269e+00	-1.7445147160e+00
 5.9815390303e-01	 1.5109059892e+00	-1.7310075958e+00
 5.6809608500e-01	 1.5224624259e+00	-1.6954705978e+00
 5.3794555745e-01	 1.5333752239e+00	-1.6530532900e+00
 5.0772189143e-01	 1.5436461644e+00	-1.6035696395e+00
 4.7744439878e-01	 1.5532777749e+00	-1.5468568240e+00
 4.4713209913e-01	 1.5622733071e+00	-1.4827767457e+00
 4.1680368873e-01	 1.5706367133e+00	-1.4112173382e+00
 3.8647751120e-01	 1.5783726218e+00	-1.3320936600e+00
 3.5617153006e-01	 1.5854863106e+00	-1.2453487666e+00
 3.2590330336e-01	 1.5919836798e+00	-1.1509543612e+00
 2.9568996018e-01	 1.5978712237e+00	-1.0489112220e+00
 6.0275508690e-01	 1.5225283430e+00	-1.7370602143e+00
 5.7246605488e-01	 1.5341736753e+00	-1.6977837056e+00
 5.4208360020e-01	 1.5451704179e+00	-1.6517778312e+00
 5.1162744444e-01	 1.5555203657e+00	-1.5989057329e+00
 4.8111704801e-01	 1.5652260655e+00	-1.5390518734e+00
 4.5057157681e-01	 1.5742907940e+00	-1.4721234514e+00
 4.2000987096e-01	 1.5827185341e+00	-1.3980516222e+00
 3.8945041513e-01	 1.5905139497e+00	-1.3167925172e+00
 3.5891131106e-01	 1.5976823592e+00	-1.2283280539e+00
 3.2841025184e-01	 1.6042297081e+00	-1.1326665359e+00
 2.9796449834e-01	 1.6101625408e+00	-1.0298430417e+00
 6.0735627077e-01	 1.5341506968e+00	-1.7420361804e+00
 5.7683602477e-01	 1.5458849247e+00	-1.6994383333e+00
 5.4622164295e-01	 1.5569656119e+00	-1.6502596946e+00
 5.1553299746e-01	 1.5673945670e+00	-1.5944117277e+00
 4.8478969723e-01	 1.5771743561e+00	-1.5318253510e+00
 4.5401105450e-01	 1.5863082810e+00	-1.4624522580e+00
 4.2321605318e-01	 1.5948003550e+00	-1.3862660541e+00
 3.9242331907e-01	 1.6026552775e+00	-1.3032632035e+00
 3.6165109207e-01	 1.6098784077e+00	-1.2134637799e+00
 3.3091720033e-01	 1.6164757364e+00	-1.1169120178e+00
 3.0023903649e-01	 1.6224538579e+00	-1.0136766633e+00
 6.1195745464e-01	 1.5457730505e+00	-1.7459487904e+00
 5.8120599466e-01	 1.5575961742e+00	-1.7004399036e+00
 5.5035968570e-01	 1.5687608060e+00	-1.6484965132e+00
 5.1943855047e-01	 1.5792687682e+00	-1.5900775620e+00
 4.8846234645e-01	 1.5891226466e+00	-1.5251596065e+00
 4.5745053219e-01	 1.5983257680e+00	-1.4537380438e+00
 4.2642223540e-01	 1.6068821759e+00	-1.3758281673e+00
 3.9539622300e-01	 1.6147966054e+00	-1.2914660440e+00
 3.6439087307e-01	 1.6220744563e+00	-1.2007092072e+00
 3.3342414882e-01	 1.6287217648e+00	-1.1036371604e+00
 3.0251357465e-01	 1.6347451750e+00	-1.0003516933e+00
 6.1655863851e-01	 1.5573954043e+00	-1.7488105184e+00
 5.8557596454e-01	 1.5693074236e+00	-1.7007932738e+00
 5.5449772845e-01	 1.5805560000e+00	-1.6464856091e+00
 5.2334410348e-01	 1.5911429695e+00	-1.5858931154e+00
 4.9213499567e-01	 1.6010709372e+00	-1.5190371802e+00
 4.6089000987e-01	 1.6103432550e+00	-1.4459561232e+00
 4.2962841762e-01	 1.6189639967e+00	-1.3667061737e+00
 3.9836912693e-01	 1.6269379333e+00	-1.2813622805e+00
 3.6713065407e-01	 1.6342705048e+00	-1.1900187480e+00
 3.3593109731e-01	 1.6409677931e+00	-1.0927896963e+00
 3.0478811280e-01	 1.6470364921e+00	-9.8980934100e-01
 6.2115982239e-01	 1.5690177580e+00	-1.7506330466e+00
 5.8994593443e-01	 1.5810186730e+00	-1.7005027569e+00
 5.5863577120e-01	 1.5923511940e+00	-1.6442240053e+00
 5.2724965649e-01	 1.6030171708e+00	-1.5818482113e+00
 4.9580764490e-01	 1.6130192278e+00	-1.5134407961e+00
 4.6432948756e-01	 1.6223607419e+00	-1.4390822312e+00
 4.3283459984e-01	 1.6310458176e+00	-1.3588689388e+00
 4.0134203087e-01	 1.6390792611e+00	-1.2729140372e+00
 3.6987043507e-01	 1.6464665533e+00	-1.1813479228e+00
 3.3843804579e-01	 1.6532138214e+00	-1.0843186859e+00
 3.0706265096e-01	 1.6593278092e+00	-9.8199235915e-01
 6.2576100626e-01	 1.5806401118e+00	-1.7514272948e+00
 5.9431590431e-01	 1.5927299225e+00	-1.6995721415e+00
 5.6277381395e-01	 1.6041463881e+00	-1.6417084368e+00
 5.3115520951e-01	 1.6148913720e+00	-1.5779326186e+00
 4.9948029412e-01	 1.6249675184e+00	-1.5083533551e+00
 4.6776896525e-01	 1.6343782289e+00	-1.4330925075e+00
 4.3604078207e-01	 1.6431276385e+00	-1.3522859575e+00
 4.0431493480e-01	 1.6512205890e+00	-1.2660842890e+00
 3.7261021607e-01	 1.6586626019e+00	-1.1746533183e+00
 3.4094499428e-01	 1.6654598497e+00	-1.0781744689e+00
 3.0933718911e-01	 1.6716191263e+00	-9.7684498734e-01
 6.3036219013e-01	 1.5922624656e+00	-1.7512034479e+00
 5.9868587420e-01	 1.6044411719e+00	-1.6980047109e+00
 5.6691185670e-01	 1.6159415821e+00	-1.6389353607e+00
 5.3506076252e-01	 1.6267655733e+00	-1.5741360541e+00
 5.0315294334e-01	 1.6369158090e+00	-1.5037579282e+00
 4.7120844293e-01	 1.6463957159e+00	-1.4279634820e+00
 4.3924696429e-01	 1.6552094594e+00	-1.3469273310e+00
 4.0728783873e-01	 1.6633619168e+00	-1.2608368295e+00
 3.7534999707e-01	 1.6708586504e+00	-1.1698925498e+00
 3.4345194277e-01	 1.6777058780e+00	-1.0743086174e+00
 3.1161172727e-01	 1.6839104434e+00	-9.7431289760e-01
 6.3496337400e-01	 1.6038848193e+00	-1.7499709828e+00
 6.0305584409e-01	 1.6161524213e+00	-1.6958032614e+00
 5.7104989945e-01	 1.6277367761e+00	-1.6359009668e+00
 5.3896631553e-01	 1.6386397746e+00	-1.5704481839e+00
 5.0682559256e-01	 1.6488640995e+00	-1.4996377511e+00
 4.7464792062e-01	 1.6584132029e+00	-1.4236720605e+00
 4.4245314651e-01	 1.6672912802e+00	-1.3427637453e+00
 4.1026074267e-01	 1.6755032447e+00	-1.2571362420e+00
 3.7808977807e-01	 1.6830546990e+00	-1.1670242227e+00
 3.4595889126e-01	 1.6899519063e+00	-1.0726738913e+00
 3.1388626542e-01	 1.6962017605e+00	-9.7434314253e-01
 6.3956455788e-01	 1.6155071731e+00	-1.7477386936e+00
 6.0742581398e-01	 1.6278636708e+00	-1.6929701199e+00
 5.7518794221e-01	 1.6395319702e+00	-1.6326011866e+00
 5.4287186855e-01	 1.6505139758e+00	-1.5668586259e+00
 5.1049824179e-01	 1.6608123901e+00	-1.4959762172e+00
 4.7808739831e-01	 1.6704306899e+00	-1.4201955113e+00
 4.4565932873e-01	 1.6793731011e+00	-1.3397664495e+00
 4.1323364660e-01	 1.6876445726e+00	-1.2549478710e+00
 3.8082955907e-01	 1.6952507475e+00	-1.1660078978e+00
 3.4846583975e-01	 1.7021979346e+00	-1.0732241958e+00
 3.1616080358e-01	 1.7084930776e+00	-9.7688410568e-01
 6.4416574175e-01	 1.6271295269e+00	-1.7445147160e+00
 6.1179578386e-01	 1.6395749202e+00	-1.6895071607e+00
 5.7932598496e-01	 1.6513271642e+00	-1.6290317032e+00
 5.4677742156e-01	 1.6623881771e+00	-1.5633569508e+00
 5.1417089101e-01	 1.6727606807e+00	-1.4927568732e+00
 4.8152687600e-01	 1.6824481768e+00	-1.4175114521e+00
 4.4886551095e-01	 1.6914549220e+00	-1.3379072364e+00
 4.1620655053e-01	 1.6997859004e+00	-1.2542377947e+00
 3.8356934007e-01	 1.7074467961e+00	-1.1668040569e+00
 3.5097278823e-01	 1.7144439629e+00	-1.0759145400e+00
 3.1843534174e-01	 1.7207843947e+00	-9.8188545395e-01
 2.9568996018e-01	 1.5978712237e+00	-1.0489112220e+00
 2.6554817929e-01	 1.6031560013e+00	-1.0307257602e+00
 2.3549416968e-01	 1.6078456070e+00	-1.0087469922e+00
 2.0554365323e-01	 1.6119481402e+00	-9.8309224739e-01
 1.7571184935e-01	 1.6154721743e+00	-9.5389361285e-01
 1.4601346159e-01	 1.6184267265e+00	-9.2129772471e-01
 1.1646266625e-01	 1.6208212262e+00	-8.8546542748e-01
 8.7073102826e-02	 1.6226654846e+00	-8.4657131036e-01
 5.7857866443e-02	 1.6239696633e+00	-8.0480312896e-01
 2.8829501977e-02	 1.6247442444e+00	-7.6036112236e-01
 0.0000000000e+00	 1.6250000000e+00	-7.1345723591e-01
 2.9796449834e-01	 1.6101625408e+00	-1.0298430417e+00
 2.6759085759e-01	 1.6154879705e+00	-1.0120942306e+00
 2.3730566329e-01	 1.6202136502e+00	-9.9074059502e-01
 2.0712475825e-01	 1.6243477413e+00	-9.6583722931e-01
 1.7706347896e-01	 1.6278988834e+00	-9.3745624470e-01
 1.4713664207e-01	 1.6308761629e+00	-9.0568670832e-01
 1.1735853291e-01	 1.6332890818e+00	-8.7063443099e-01
 8.7742895924e-02	 1.6351475267e+00	-8.3242161189e-01
 5.8302926953e-02	 1.6364617376e+00	-7.9118634978e-01
 2.9051267377e-02	 1.6372422771e+00	-7.4708203072e-01
 0.0000000000e+00	 1.6375000000e+00	-7.0027660372e-01
 3.0023903649e-01	 1.6224538579e+00	-1.0136766633e+00
 2.6963353589e-01	 1.6278199398e+00	-9.9601175477e-01
 2.3911715690e-01	 1.6325816933e+00	-9.7493016124e-01
 2.0870586328e-01	 1.6367473423e+00	-9.5042519925e-01
 1.7841510857e-01	 1.6403255924e+00	-9.2250945218e-01
 1.4825982254e-01	 1.6433255992e+00	-8.9121485649e-01
 1.1825439957e-01	 1.6457569374e+00	-8.5659261695e-01
 8.8412689023e-02	 1.6476295689e+00	-8.1871295921e-01
 5.8747987464e-02	 1.6489538120e+00	-7.7766472976e-01
 2.9273032776e-02	 1.6497403097e+00	-7.3355485387e-01
 0.0000000000e+00	 1.6500000000e+00	-6.8650766347e-01
 3.0251357465e-01	 1.6347451750e+00	-1.0003516933e+00
 2.7167621419e-01	 1.6401519090e+00	-9.8242742779e-01
 2.4092865051e-01	 1.6449497364e+00	-9.6127424343e-01
 2.1028696830e-01	 1.6491469434e+00	-9.3682412054e-01
 1.7976673818e-01	 1.6527523014e+00	-9.0903054767e-01
 1.4938300301e-01	 1.6557750356e+00	-8.7786875442e-01
 1.1915026624e-01	 1.6582247930e+00	-8.4333575332e-01
 8.9082482121e-02	 1.6601116111e+00	-8.0545019979e-01
 5.9193047975e-02	 1.6614458863e+00	-7.6425208017e-01
 2.9494798176e-02	 1.6622383424e+00	-7.1980223930e-01
 0.0000000000e+00	 1.6625000000e+00	-6.7218176017e-01
 3.0478811280e-01	 1.6470364921e+00	-9.8980934100e-01
 2.7371889250e-01	 1.6524838783e+00	-9.7129168640e-01
 2.4274014413e-01	 1.6573177796e+00	-9.4973247532e-01
 2.1186807333e-01	 1.6615465445e+00	-9.2500277818e-01
 1.8111836779e-01	 1.6651790105e+00	-8.9699740710e-01
 1.5050618349e-01	 1.6682244719e+00	-8.6563529446e-01
 1.2004613290e-01	 1.6706926486e+00	-8.3085966102e-01
 8.9752275219e-02	 1.6725936533e+00	-7.9263798237e-01
 5.9638108486e-02	 1.6739379606e+00	-7.5096176463e-01
 2.9716563576e-02	 1.6747363750e+00	-7.0584614110e-01
 0.0000000000e+00	 1.6750000000e+00	-6.5732930315e-01
 3.0706265096e-01	 1.6593278092e+00	-9.8199235915e-01
 2.7576157080e-01	 1.6648158475e+00	-9.6255625937e-01
 2.4455163774e-01	 1.6696858227e+00	-9.4026553176e-01
 2.1344917835e-01	 1.6739461456e+00	-9.1493074840e-01
 1.8246999740e-01	 1.6776057195e+00	-8.8638844900e-01
 1.5162936396e-01	 1.6806739083e+00	-8.5450166479e-01
 1.2094199956e-01	 1.6831605042e+00	-8.1916021195e-01
 9.0422068317e-02	 1.6850756955e+00	-7.8028076426e-01
 6.0083168996e-02	 1.6864300350e+00	-7.3780671568e-01
 2.9938328975e-02	 1.6872344077e+00	-6.9170784568e-01
 0.0000000000e+00	 1.6875000000e+00	-6.4197980073e-01
 3.0933718911e-01	 1.6716191263e+00	-9.7684498734e-01
 2.7780424910e-01	 1.6771478167e+00	-9.5617412003e-01
 2.4636313135e-01	 1.6820538658e+00	-9.3283509052e-01
 2.1503028338e-01	 1.6863457466e+00	-9.0657836957e-01
 1.8382162701e-01	 1.6900324285e+00	-8.7718261468e-01
 1.5275254443e-01	 1.6931233446e+00	-8.4445533848e-01
 1.2183786622e-01	 1.6956283597e+00	-8.0823332715e-01
 9.1091861415e-02	 1.6975577377e+00	-7.6838281842e-01
 6.0528229507e-02	 1.6989221093e+00	-7.2479945067e-01
 3.0160094375e-02	 1.6997324403e+00	-6.7740799626e-01
 0.0000000000e+00	 1.7000000000e+00	-6.2616189334e-01
 3.1161172727e-01	 1.6839104434e+00	-9.7431289760e-01
 2.7984692740e-01	 1.6894797860e+00	-9.5209944081e-01
 2.4817462496e-01	 1.6944219089e+00	-9.2740379563e-01
 2.1661138840e-01	 1.6987453477e+00	-8.9991671442e-01
 1.8517325662e-01	 1.7024591376e+00	-8.6935934902e-01
 1.5387572491e-01	 1.7055727810e+00	-8.3548406314e-01
 1.2273373289e-01	 1.7080962153e+00	-7.9807497499e-01
 9.1761654514e-02	 1.7100397799e+00	-7.5694824019e-01
 6.0973290018e-02	 1.7114141836e+00	-7.1195208686e-01
 3.0381859775e-02	 1.7122304730e+00	-6.6296661641e-01
 0.0000000000e+00	 1.7125000000e+00	-6.0990338519e-01
 3.1388626542e-01	 1.6962017605e+00	-9.7434314253e-01
 2.8188960570e-01	 1.7018117552e+00	-9.5028754983e-01
 2.4998611858e-01	 1.7067899521e+00	-9.2393522239e-01
 2.1819249342e-01	 1.7111449488e+00	-8.9491756336e-01
 1.8652488623e-01	 1.7148858466e+00	-8.6289858232e-01
 1.5499890538e-01	 1.7180222174e+00	-8.2757585094e-01
 1.2362959955e-01	 1.7205640709e+00	-7.8868116942e-01
 9.2431447612e-02	 1.7225218221e+00	-7.4598095369e-01
 6.1418350529e-02	 1.7239062580e+00	-6.9927635595e-01
 3.0603625174e-02	 1.7247285056e+00	-6.4840313246e-01
 0.0000000000e+00	 1.7250000000e+00	-5.9323127458e-01
 3.1616080358e-01	 1.7084930776e+00	-9.7688410568e-01
 2.8393228401e-01	 1.7141437245e+00	-9.5069488930e-01
 2.5179761219e-01	 1.7191579952e+00	-9.2239384385e-01
 2.1977359845e-01	 1.7235445499e+00	-8.9155337910e-01
 1.8787651584e-01	 1.7273125556e+00	-8.5778071279e-01
 1.5612208585e-01	 1.7304716537e+00	-8.2071896913e-01
 1.2452546621e-01	 1.7330319265e+00	-7.8004796841e-01
 9.3101240710e-02	 1.7350038643e+00	-7.3548471802e-01
 6.1863411039e-02	 1.7363983323e+00	-6.8678361792e-01
 3.0825390574e-02	 1.7372265383e+00	-6.3373639499e-01
 0.0000000000e+00	 1.7375000000e+00	-5.7617178286e-01
 3.1843534174e-01	 1.7207843947e+00	-9.8188545395e-01
 2.8597496231e-01	 1.7264756937e+00	-9.5327897574e-01
 2.5360910580e-01	 1.7315260383e+00	-9.2274499880e-01
 2.2135470347e-01	 1.7359441510e+00	-8.8979728225e-01
 1.8922814545e-01	 1.7397392647e+00	-8.5398658986e-01
 1.5724526633e-01	 1.7429210901e+00	-8.1490193089e-01
 1.2542133288e-01	 1.7454997821e+00	-7.7217147229e-01
 9.3771033808e-02	 1.7474859064e+00	-7.2546313312e-01
 6.2308471550e-02	 1.7488904066e+00	-6.7448487436e-01
 3.1047155973e-02	 1.7497245709e+00	-6.1898469938e-01
 0.0000000000e+00	 1.7500000000e+00	-5.5875038221e-01
 1.7500000000e+00	 0.0000000000e+00	 2.8951163717e+00
 1.7497245709e+00	 3.1047155973e-02	 2.9330969714e+00
 1.7488904066e+00	 6.2308471550e-02	 2.9539599923e+00
 1.7474859064e+00	 9.3771033808e-02	 2.9581629224e+00
 1.7454997821e+00	 1.2542133288e-01	 2.9461934862e+00
 1.7429210901e+00	 1.5724526633e-01	 2.9185697169e+00
 1.7397392647e+00	 1.8922814545e-01	 2.8758400174e+00
 1.7359441510e+00	 2.2135470347e-01	 2.8185832099e+00
 1.7315260383e+00	 2.5360910580e-01	 2.7474085717e+00
 1.7264756937e+00	 2.8597496231e-01	 2.6629558555e+00
 1.7207843947e+00	 3.1843534174e-01	 2.5658952895e+00
 1.7625000000e+00	 0.0000000000e+00	 2.8539807947e+00
 1.7622226036e+00	 3.1268921373e-02	 2.8953925037e+00
 1.7613824810e+00	 6.2753532061e-02	 2.9194487786e+00
 1.7599679486e+00	 9.4440826906e-02	 2.9265906856e+00
 1.7579676377e+00	 1.2631719954e-01	 2.9172896318e+00
 1.7553705264e+00	 1.5836844680e-01	 2.8920475347e+00
 1.7521659737e+00	 1.9057977506e-01	 2.8513969870e+00
 1.7483437520e+00	 2.2293580850e-01	 2.7959014162e+00
 1.7438940815e+00	 2.5542059941e-01	 2.7261552368e+00
 1.7388076629e+00	 2.8801764061e-01	 2.6427839917e+00
 1.7330757118e+00	 3.2070987989e-01	 2.5464444799e+00
 1.7750000000e+00	 0.0000000000e+00	 2.8143490912e+00
 1.7747206362e+00	 3.1490686773e-02	 2.8590643515e+00
 1.7738745553e+00	 6.3198592571e-02	 2.8861934610e+00
 1.7724499908e+00	 9.5110620005e-02	 2.8961612585e+00
 1.7704354933e+00	 1.2721306620e-01	 2.8894230126e+00
 1.7678199628e+00	 1.5949162727e-01	 2.8664646871e+00
 1.7645926827e+00	 1.9193140467e-01	 2.8278032086e+00
 1.7607433531e+00	 2.2451691352e-01	 2.7739867355e+00
 1.7562621246e+00	 2.5723209303e-01	 2.7055949259e+00
 1.7511396322e+00	 2.9006031891e-01	 2.6232392006e+00
 1.7453670289e+00	 3.2298441805e-01	 2.5275629967e+00
 1.7875000000e+00	 0.0000000000e+00	 2.7761675519e+00
 1.7872186689e+00	 3.1712452172e-02	 2.8240619695e+00
 1.7863666296e+00	 6.3643653082e-02	 2.8541465771e+00
 1.7849320330e+00	 9.5780413103e-02	 2.8668301739e+00
 1.7829033488e+00	 1.2810893287e-01	 2.8625520612e+00
 1.7802693991e+00	 1.6061480775e-01	 2.8417824030e+00
 1.7770193918e+00	 1.9328303428e-01	 2.8050225963e+00
 1.7731429542e+00	 2.2609801855e-01	 2.7528056485e+00
 1.7686301677e+00	 2.5904358664e-01	 2.6856965602e+00
 1.7634716014e+00	 2.9210299722e-01	 2.6042927095e+00
 1.7576583461e+00	 3.2525895620e-01	 2.5092242315e+00
 1.8000000000e+00	 0.0000000000e+00	 2.7393839592e+00
 1.7997167015e+00	 3.1934217572e-02	 2.7903362437e+00
 1.7988587040e+00	 6.4088713593e-02	 2.8232620389e+00
 1.7974140752e+00	 9.6450206201e-02	 2.8385542848e+00
 1.7953712044e+00	 1.2900479953e-01	 2.8366364791e+00
 1.7927188355e+00	 1.6173798822e-01	 2.8179631329e+00
 1.7894461008e+00	 1.9463466389e-01	 2.7830202422e+00
 1.7855425553e+00	 2.2767912357e-01	 2.7323257736e+00
 1.7809982109e+00	 2.6085508025e-01	 2.6664301619e+00
 1.7758035707e+00	 2.9414567552e-01	 2.5859168143e+00
 1.7699496632e+00	 3.2753349436e-01	 2.4914026162e+00
 1.8125000000e+00	 0.0000000000e+00	 2.7039475361e+00
 1.8122147342e+00	 3.2155982972e-02	 2.7578394423e+00
 1.8113507783e+00	 6.4533774104e-02	 2.7934950854e+00
 1.8098961174e+00	 9.7119999299e-02	 2.8112917189e+00
 1.8078390600e+00	 1.2990066619e-01	 2.8116371936e+00
 1.8051682719e+00	 1.6286116869e-01	 2.7949705068e+00
 1.8018728098e+00	 1.9598629350e-01	 2.7617623752e+00
 1.7979421564e+00	 2.2926022860e-01	 2.7125158275e+00
 1.7933662540e+00	 2.6266657387e-01	 2.6477668163e+00
 1.7881355399e+00	 2.9618835382e-01	 2.5680848427e+00
 1.7822409803e+00	 3.2980803251e-01	 2.4740735873e+00
 1.8250000000e+00	 0.0000000000e+00	 2.6698088967e+00
 1.8247127668e+00	 3.2377748371e-02	 2.7265251686e+00
 1.8238428526e+00	 6.4978834614e-02	 2.7648022369e+00
 1.8223781596e+00	 9.7789792397e-02	 2.7850018346e+00
 1.8203069156e+00	 1.3079653285e-01	 2.7875163150e+00
 1.8176177082e+00	 1.6398434917e-01	 2.7727692940e+00
 1.8142995189e+00	 1.9733792311e-01	 2.7412163225e+00
 1.8103417574e+00	 2.3084133362e-01	 2.6933455873e+00
 1.8057342971e+00	 2.6447806748e-01	 2.6296786354e+00
 1.8004675092e+00	 2.9823103212e-01	 2.5507711190e+00
 1.7945322974e+00	 3.3208257067e-01	 2.4572135513e+00
 1.8375000000e+00	 0.0000000000e+00	 2.6369199990e+00
 1.8372107995e+00	 3.2599513771e-02	 2.6963483154e+00
 1.8363349270e+00	 6.5423895125e-02	 2.7371412517e+00
 1.8348602018e+00	 9.8459585495e-02	 2.7596451795e+00
 1.8327747712e+00	 1.3169239952e-01	 2.7642370971e+00
 1.8300671446e+00	 1.6510752964e-01	 2.7513253638e+00
 1.8267262279e+00	 1.9868955272e-01	 2.7213504721e+00
 1.8227413585e+00	 2.3242243864e-01	 2.6747858549e+00
 1.8181023403e+00	 2.6628956109e-01	 2.6121387231e+00
 1.8127994784e+00	 3.0027371042e-01	 2.5339509299e+00
 1.8068236145e+00	 3.3435710882e-01	 2.4407998519e+00
 1.8500000000e+00	 0.0000000000e+00	 2.6052340995e+00
 1.8497088321e+00	 3.2821279170e-02	 2.6672650213e+00
 1.8488270013e+00	 6.5868955636e-02	 2.7104710839e+00
 1.8473422440e+00	 9.9129378594e-02	 2.7351834500e+00
 1.8452426268e+00	 1.3258826618e-01	 2.7417638981e+00
 1.8425165809e+00	 1.6623071011e-01	 2.7306056491e+00
 1.8391529369e+00	 2.0004118233e-01	 2.7021342370e+00
 1.8351409596e+00	 2.3400354367e-01	 2.6568084220e+00
 1.8304703834e+00	 2.6810105470e-01	 2.5951211415e+00
 1.8251314476e+00	 3.0231638873e-01	 2.5176004924e+00
 1.8191149316e+00	 3.3663164698e-01	 2.4248107383e+00
 1.8625000000e+00	 0.0000000000e+00	 2.5747057094e+00
 1.8622068648e+00	 3.3043044570e-02	 2.6392326292e+00
 1.8613190756e+00	 6.6314016147e-02	 2.6847518439e+00
 1.8598242861e+00	 9.9799171692e-02	 2.7115794529e+00
 1.8577104824e+00	 1.3348413284e-01	 2.7200621437e+00
 1.8549660173e+00	 1.6735389059e-01	 2.7105781101e+00
 1.8515796460e+00	 2.0139281194e-01	 2.6835380205e+00
 1.8475405607e+00	 2.3558464869e-01	 2.6393860371e+00
 1.8428384265e+00	 2.6991254832e-01	 2.5786008787e+00
 1.8374634169e+00	 3.0435906703e-01	 2.5016969222e+00
 1.8314062487e+00	 3.3890618513e-01	 2.4092253346e+00
 1.8750000000e+00	 0.0000000000e+00	 2.5452905529e+00
 1.8747048974e+00	 3.3264809970e-02	 2.6122096459e+00
 1.8738111500e+00	 6.6759076657e-02	 2.6599447592e+00
 1.8723063283e+00	 1.0046896479e-01	 2.6887970681e+00
 1.8701783380e+00	 1.3437999951e-01	 2.6990982915e+00
 1.8674154537e+00	 1.6847707106e-01	 2.6912117003e+00
 1.8640063550e+00	 2.0274444155e-01	 2.6655331839e+00
 1.8599401617e+00	 2.3716575372e-01	 2.6224923736e+00
 1.8552064697e+00	 2.7172404193e-01	 2.5625538183e+00
 1.8497953861e+00	 3.0640174533e-01	 2.4862182042e+00
 1.8436975658e+00	 3.4118072329e-01	 2.3940236109e+00
 1.7207843947e+00	 3.1843534174e-01	 2.5658952895e+00
 1.7144439629e+00	 3.5097278823e-01	 2.4980639707e+00
 1.7074467961e+00	 3.8356934007e-01	 2.4146538746e+00
 1.6997859004e+00	 4.1620655053e-01	 2.3161548898e+00
 1.6914549220e+00	 4.4886551095e-01	 2.2030961209e+00
 1.6824481768e+00	 4.8152687600e-01	 2.0760470711e+00
 1.6727606807e+00	 5.1417089101e-01	 1.9356187586e+00
 1.6623881771e+00	 5.4677742156e-01	 1.7824647464e+00
 1.6513271642e+00	 5.7932598496e-01	 1.6172820622e+00
 1.6395749202e+00	 6.1179578386e-01	 1.4408119844e+00
 1.6271295269e+00	 6.4416574175e-01	 1.2538406696e+00
 1.7330757118e+00	 3.2070987989e-01	 2.5464444799e+00
 1.7266899912e+00	 3.5347973672e-01	 2.4780605818e+00
 1.7196428446e+00	 3.8630912108e-01	 2.3944091869e+00
 1.7119272283e+00	 4.1917945447e-01	 2.2959739519e+00
 1.7035367429e+00	 4.5207169318e-01	 2.1832767439e+00
 1.6944656638e+00	 4.8496635368e-01	 2.0568788702e+00
 1.6847089713e+00	 5.1784354024e-01	 1.9173822508e+00
 1.6742623784e+00	 5.5068297457e-01	 1.7654305126e+00
 1.6631223582e+00	 5.8346402771e-01	 1.6017099800e+00
 1.6512861696e+00	 6.1616575375e-01	 1.4269505397e+00
 1.6387518806e+00	 6.4876692562e-01	 1.2419263531e+00
 1.7453670289e+00	 3.2298441805e-01	 2.5275629967e+00
 1.7389360195e+00	 3.5598668521e-01	 2.4585446327e+00
 1.7318388932e+00	 3.8904890208e-01	 2.3745682371e+00
 1.7240685562e+00	 4.2215235840e-01	 2.2761111426e+00
 1.7156185637e+00	 4.5527787540e-01	 2.1636878872e+00
 1.7064831508e+00	 4.8840583137e-01	 2.0378514939e+00
 1.6966572619e+00	 5.2151618946e-01	 1.8991947004e+00
 1.6861365796e+00	 5.5458852759e-01	 1.7483511181e+00
 1.6749175523e+00	 5.8760207046e-01	 1.5859962957e+00
 1.6629974191e+00	 6.2053572364e-01	 1.4128486639e+00
 1.6503742344e+00	 6.5336810950e-01	 1.2296703336e+00
 1.7576583461e+00	 3.2525895620e-01	 2.5092242315e+00
 1.7511820478e+00	 3.5849363370e-01	 2.4394922096e+00
 1.7440349417e+00	 3.9178868308e-01	 2.3551098613e+00
 1.7362098840e+00	 4.2512526233e-01	 2.2565480972e+00
 1.7277003846e+00	 4.5848405762e-01	 2.1443140301e+00
 1.7185006378e+00	 4.9184530906e-01	 2.0189523045e+00
 1.7086055524e+00	 5.2518883868e-01	 1.8810463854e+00
 1.6980107809e+00	 5.5849408060e-01	 1.7312197833e+00
 1.6867127463e+00	 5.9174011322e-01	 1.5701371929e+00
 1.6747086685e+00	 6.2490569353e-01	 1.3985055177e+00
 1.6619965882e+00	 6.5796929337e-01	 1.2170747566e+00
 1.7699496632e+00	 3.2753349436e-01	 2.4914026162e+00
 1.7634280761e+00	 3.6100058218e-01	 2.4208803960e+00
 1.7562309902e+00	 3.9452846408e-01	 2.3360138481e+00
 1.7483512119e+00	 4.2809816627e-01	 2.2372673582e+00
 1.7397822055e+00	 4.6169023984e-01	 2.1251405116e+00
 1.7305181248e+00	 4.9528478674e-01	 2.0001694750e+00
 1.7205538430e+00	 5.2886148791e-01	 1.8629283442e+00
 1.7098849822e+00	 5.6239963361e-01	 1.7140304382e+00
 1.6985079403e+00	 5.9587815597e-01	 1.5541295119e+00
 1.6864199179e+00	 6.2927566342e-01	 1.3839208649e+00
 1.6736189419e+00	 6.6257047724e-01	 1.2041423160e+00
 1.7822409803e+00	 3.2980803251e-01	 2.4740735873e+00
 1.7756741044e+00	 3.6350753067e-01	 2.4026872386e+00
 1.7684270388e+00	 3.9726824508e-01	 2.3172609065e+00
 1.7604925398e+00	 4.3107107020e-01	 2.2182523435e+00
 1.7518640264e+00	 4.6489642207e-01	 2.1061535006e+00
 1.7425356117e+00	 4.9872426443e-01	 1.9814919610e+00
 1.7325021336e+00	 5.3253413713e-01	 1.8448323499e+00
 1.7217591834e+00	 5.6630518663e-01	 1.6967776970e+00
 1.7103031344e+00	 6.0001619872e-01	 1.5379707270e+00
 1.6981311674e+00	 6.3364563330e-01	 1.3690950516e+00
 1.6852412957e+00	 6.6717166111e-01	 1.1908762351e+00
 1.7945322974e+00	 3.3208257067e-01	 2.4572135513e+00
 1.7879201328e+00	 3.6601447916e-01	 2.3848917142e+00
 1.7806230873e+00	 4.0000802608e-01	 2.2988326338e+00
 1.7726338676e+00	 4.3404397413e-01	 2.1994873169e+00
 1.7639458472e+00	 4.6810260429e-01	 2.0873399674e+00
 1.7545530987e+00	 5.0216374212e-01	 1.9629094743e+00
 1.7444504242e+00	 5.3620678635e-01	 1.8267508846e+00
 1.7336333847e+00	 5.7021073964e-01	 1.6794568358e+00
 1.7220983284e+00	 6.0415424147e-01	 1.5216589249e+00
 1.7098424168e+00	 6.3801560319e-01	 1.3540289862e+00
 1.6968636495e+00	 6.7177284498e-01	 1.1772802487e+00
 1.8068236145e+00	 3.3435710882e-01	 2.4407998519e+00
 1.8001661611e+00	 3.6852142765e-01	 2.3674736977e+00
 1.7928191359e+00	 4.0274780708e-01	 2.2807114859e+00
 1.7847751955e+00	 4.3701687807e-01	 2.1809573591e+00
 1.7760276681e+00	 4.7130878651e-01	 2.0686876564e+00
 1.7665705857e+00	 5.0560321981e-01	 1.9444124568e+00
 1.7563987147e+00	 5.3987943557e-01	 1.8086771156e+00
 1.7455075860e+00	 5.7411629265e-01	 1.6620637691e+00
 1.7338935224e+00	 6.0829228422e-01	 1.5051927837e+00
 1.7215536662e+00	 6.4238557307e-01	 1.3387241202e+00
 1.7084860032e+00	 6.7637402885e-01	 1.1633585855e+00
 1.8191149316e+00	 3.3663164698e-01	 2.4248107383e+00
 1.8124121894e+00	 3.7102837614e-01	 2.3504139325e+00
 1.8050151844e+00	 4.0548758808e-01	 2.2628807478e+00
 1.7969165233e+00	 4.3998978200e-01	 2.1626483399e+00
 1.7881094890e+00	 4.7451496873e-01	 2.0501850602e+00
 1.7785880727e+00	 5.0904269749e-01	 1.9259920561e+00
 1.7683470053e+00	 5.4355208480e-01	 1.7906048721e+00
 1.7573817872e+00	 5.7802184566e-01	 1.6445950289e+00
 1.7456887164e+00	 6.1243032697e-01	 1.4885715530e+00
 1.7332649156e+00	 6.4675554296e-01	 1.3231824301e+00
 1.7201083570e+00	 6.8097521272e-01	 1.1491159513e+00
 1.8314062487e+00	 3.3890618513e-01	 2.4092253346e+00
 1.8246582177e+00	 3.7353532462e-01	 2.3336940007e+00
 1.8172112330e+00	 4.0822736909e-01	 2.2453245063e+00
 1.8090578512e+00	 4.4296268593e-01	 2.1445468922e+00
 1.8001913098e+00	 4.7772115095e-01	 2.0318213943e+00
 1.7906055596e+00	 5.1248217518e-01	 1.9076401014e+00
 1.7802952959e+00	 5.4722473402e-01	 1.7725286231e+00
 1.7692559885e+00	 5.8192739867e-01	 1.6270477437e+00
 1.7574839105e+00	 6.1656836972e-01	 1.4717950350e+00
 1.7449761651e+00	 6.5112551284e-01	 1.3074063994e+00
 1.7317307107e+00	 6.8557639659e-01	 1.1345575132e+00
 1.8436975658e+00	 3.4118072329e-01	 2.3940236109e+00
 1.8369042460e+00	 3.7604227311e-01	 2.3172962954e+00
 1.8294072815e+00	 4.1096715009e-01	 2.2280276227e+00
 1.8211991790e+00	 4.4593558987e-01	 2.1266403862e+00
 1.8122731307e+00	 4.8092733318e-01	 2.0135865732e+00
 1.8026230466e+00	 5.1592165286e-01	 1.8893490815e+00
 1.7922435865e+00	 5.5089738324e-01	 1.7544434559e+00
 1.7811301897e+00	 5.8583295169e-01	 1.6094196185e+00
 1.7692791045e+00	 6.2070641247e-01	 1.4548635654e+00
 1.7566874145e+00	 6.5549548273e-01	 1.2913990022e+00
 1.7433530645e+00	 6.9017758046e-01	 1.1196888845e+00
 1.6271295269e+00	 6.4416574175e-01	 1.2538406696e+00
 1.6139898915e+00	 6.7641454023e-01	 1.0876750506e+00
 1.6001557665e+00	 7.0852065810e-01	 9.1690124588e-01
 1.5856277673e+00	 7.4046241201e-01	 7.4216491488e-01
 1.5704073875e+00	 7.7221799858e-01	 5.6413635833e-01
 1.5544970120e+00	 8.0376553786e-01	 3.8351066188e-01
 1.5378999272e+00	 8.3508311796e-01	 2.0100765236e-01
 1.5206203293e+00	 8.6614884071e-01	 1.7371643571e-02
 1.5026633286e+00	 8.9694086809e-01	-1.6662905052e-01
 1.4840349526e+00	 9.2743746932e-01	-3.5020285545e-01
 1.4647421446e+00	 9.5761706843e-01	-5.3253594697e-01
 1.6387518806e+00	 6.4876692562e-01	 1.2419263531e+00
 1.6255183907e+00	 6.8124607266e-01	 1.0760598960e+00
 1.6115854506e+00	 7.1358151994e-01	 9.0546674294e-01
 1.5969536799e+00	 7.4575142924e-01	 7.3077429979e-01
 1.5816245831e+00	 7.7773384143e-01	 5.5263544290e-01
 1.5656005621e+00	 8.0950672027e-01	 3.7172881183e-01
 1.5488849267e+00	 8.4104799738e-01	 1.8875891173e-01
 1.5314819031e+00	 8.7233561815e-01	 4.4560005242e-03
 1.5133966381e+00	 9.0334758858e-01	-1.8042426269e-01
 1.4946352023e+00	 9.3406202267e-01	-3.6510142978e-01
 1.4752045885e+00	 9.6445719035e-01	-5.4877115581e-01
 1.6503742344e+00	 6.5336810950e-01	 1.2296703336e+00
 1.6370468900e+00	 6.8607760509e-01	 1.0639923981e+00
 1.6230151346e+00	 7.1864238179e-01	 8.9347122470e-01
 1.6082795926e+00	 7.5104044647e-01	 7.1871600379e-01
 1.5928417788e+00	 7.8324968428e-01	 5.4036222978e-01
 1.5767041122e+00	 8.1524790269e-01	 3.5907214411e-01
 1.5598699262e+00	 8.4701287680e-01	 1.7553498457e-01
 1.5423434768e+00	 8.7852239559e-01	-9.5329853078e-03
 1.5241299476e+00	 9.0975430906e-01	-1.9538869199e-01
 1.5052354519e+00	 9.4068657602e-01	-3.8126273578e-01
 1.4856670324e+00	 9.7129731226e-01	-5.6636016399e-01
 1.6619965882e+00	 6.5796929337e-01	 1.2170747566e+00
 1.6485753892e+00	 6.9090913753e-01	 1.0514778323e+00
 1.6344448187e+00	 7.2370324364e-01	 8.8092299651e-01
 1.6196055052e+00	 7.5632946371e-01	 7.0600125411e-01
 1.6040589744e+00	 7.8876552713e-01	 5.2733075222e-01
 1.5878076622e+00	 8.2098908511e-01	 3.4555737460e-01
 1.5708549257e+00	 8.5297775622e-01	 1.6135513870e-01
 1.5532050506e+00	 8.8470917302e-01	-2.4573631938e-02
 1.5348632571e+00	 9.1616102955e-01	-2.1149838661e-01
 1.5158357016e+00	 9.4731112938e-01	-3.9866070244e-01
 1.4961294763e+00	 9.7813743418e-01	-5.8527493782e-01
 1.6736189419e+00	 6.6257047724e-01	 1.2041423160e+00
 1.6601038884e+00	 6.9574066996e-01	 1.0385219627e+00
 1.6458745027e+00	 7.2876410549e-01	 8.6783079470e-01
 1.6309314178e+00	 7.6161848094e-01	 6.9264165300e-01
 1.6152761700e+00	 7.9428136998e-01	 5.1355536461e-01
 1.5989112123e+00	 8.2673026752e-01	 3.3120148854e-01
 1.5818399252e+00	 8.5894263563e-01	 1.4623886174e-01
 1.5640666244e+00	 8.9089595046e-01	-4.0644084636e-02
 1.5455965666e+00	 9.2256775004e-01	-2.2872926662e-01
 1.5264359513e+00	 9.5393568273e-01	-4.1726917269e-01
 1.5065919202e+00	 9.8497755610e-01	-6.0548739694e-01
 1.6852412957e+00	 6.6717166111e-01	 1.1908762351e+00
 1.6716323876e+00	 7.0057220239e-01	 1.0251310257e+00
 1.6573041868e+00	 7.3382496733e-01	 8.5420377167e-01
 1.6422573304e+00	 7.6690749817e-01	 6.7864916482e-01
 1.6264933656e+00	 7.9979721283e-01	 4.9905073139e-01
 1.6100147624e+00	 8.3247144994e-01	 3.1602173127e-01
 1.5928249246e+00	 8.6490751505e-01	 1.3020585366e-01
 1.5749281982e+00	 8.9708272789e-01	-5.7722321882e-02
 1.5563298761e+00	 9.2897447053e-01	-2.4705712840e-01
 1.5370362009e+00	 9.6056023608e-01	-4.3706190640e-01
 1.5170543641e+00	 9.9181767802e-01	-6.2696941591e-01
 1.6968636495e+00	 6.7177284498e-01	 1.1772802487e+00
 1.6831608869e+00	 7.0540373482e-01	 1.0113117131e+00
 1.6687338708e+00	 7.3888582918e-01	 8.4005148168e-01
 1.6535832431e+00	 7.7219651540e-01	 6.6403610362e-01
 1.6377105613e+00	 8.0531305568e-01	 4.8383181641e-01
 1.6211183125e+00	 8.3821263235e-01	 3.0003559927e-01
 1.6038099241e+00	 8.7087239446e-01	 1.1327601940e-01
 1.5857897720e+00	 9.0326950533e-01	-7.5786161081e-02
 1.5670631856e+00	 9.3538119102e-01	-2.6645764890e-01
 1.5476364506e+00	 9.6718478944e-01	-4.5801258318e-01
 1.5275168080e+00	 9.9865779994e-01	-6.4969282576e-01
 1.7084860032e+00	 6.7637402885e-01	 1.1633585855e+00
 1.6946893861e+00	 7.1023526726e-01	 9.9707115715e-01
 1.6801635549e+00	 7.4394669102e-01	 8.2538386717e-01
 1.6649091557e+00	 7.7748553263e-01	 6.4881512125e-01
 1.6489277569e+00	 8.1082889853e-01	 4.6791387282e-01
 1.6322218626e+00	 8.4395381477e-01	 2.8326083166e-01
 1.6147949236e+00	 8.7683727388e-01	 9.5469461976e-02
 1.5966513457e+00	 9.0945628276e-01	-9.4813264040e-02
 1.5777964951e+00	 9.4178791150e-01	-2.8690638967e-01
 1.5582367002e+00	 9.7380934279e-01	-4.8009480514e-01
 1.5379792519e+00	 1.0054979219e+00	-6.7362941547e-01
 1.7201083570e+00	 6.8097521272e-01	 1.1491159513e+00
 1.7062178853e+00	 7.1506679969e-01	 9.8241691540e-01
 1.6915932389e+00	 7.4900755286e-01	 8.1021124565e-01
 1.6762350683e+00	 7.8277454986e-01	 6.3299919596e-01
 1.6601449525e+00	 8.1634474137e-01	 4.5131243319e-01
 1.6433254127e+00	 8.4969499718e-01	 2.6571540201e-01
 1.6257799231e+00	 8.8280215329e-01	 7.6806475732e-02
 1.6075129195e+00	 9.1564306020e-01	-1.1478114223e-01
 1.5885298046e+00	 9.4819463199e-01	-3.0837880075e-01
 1.5688369499e+00	 9.8043389614e-01	-5.0328209949e-01
 1.5484416958e+00	 1.0123380438e+00	-6.9875093339e-01
 1.7317307107e+00	 6.8557639659e-01	 1.1345575132e+00
 1.7177463845e+00	 7.1989833212e-01	 9.6735695657e-01
 1.7030229229e+00	 7.5406841471e-01	 7.9454429708e-01
 1.6875609809e+00	 7.8806356708e-01	 6.1660162143e-01
 1.6713621481e+00	 8.2186058422e-01	 4.3404330024e-01
 1.6544289627e+00	 8.5543617959e-01	 2.4741751042e-01
 1.6367649225e+00	 8.8876703271e-01	 5.7307539959e-02
 1.6183744933e+00	 9.2182983763e-01	-1.3566716181e-01
 1.5992631140e+00	 9.5460135247e-01	-3.3085022448e-01
 1.5794371996e+00	 9.8705844950e-01	-5.2754792109e-01
 1.5589041397e+00	 1.0191781657e+00	-7.2502908864e-01
 1.7433530645e+00	 6.9017758046e-01	 1.1196888845e+00
 1.7292748837e+00	 7.2472986455e-01	 9.5189964680e-01
 1.7144526070e+00	 7.5912927655e-01	 7.7839405186e-01
 1.6988868935e+00	 7.9335258431e-01	 5.9963599629e-01
 1.6825793438e+00	 8.2737642706e-01	 4.1612253776e-01
 1.6655325128e+00	 8.6117736201e-01	 2.2838557603e-01
 1.6477499220e+00	 8.9473191212e-01	 3.6993312710e-02
 1.6292360671e+00	 9.2801661506e-01	-1.5744854852e-01
 1.6099964235e+00	 9.6100807296e-01	-3.5429589899e-01
 1.5900374492e+00	 9.9368300285e-01	-5.5286565481e-01
 1.5693665835e+00	 1.0260182876e+00	-7.5243555233e-01
 1.4647421446e+00	 9.5761706843e-01	-5.3253594697e-01
 1.4447927608e+00	 9.8745829200e-01	-7.5284545964e-01
 1.4241955631e+00	 1.0169400170e+00	-9.5837304337e-01
 1.4029602102e+00	 1.0460414182e+00	-1.1479190915e+00
 1.3810972449e+00	 1.0747420157e+00	-1.3203043531e+00
 1.3586180783e+00	 1.1030217212e+00	-1.4743740350e+00
 1.3355349719e+00	 1.1308608839e+00	-1.6090020423e+00
 1.3118610162e+00	 1.1582403352e+00	-1.7230953400e+00
 1.2876101064e+00	 1.1851414320e+00	-1.8155984127e+00
 1.2627969160e+00	 1.2115460985e+00	-1.8854977975e+00
 1.2374368671e+00	 1.2374368671e+00	-1.8802479856e+00
 1.4752045885e+00	 9.6445719035e-01	-5.4877115581e-01
 1.4551127091e+00	 9.9451156551e-01	-7.6829234750e-01
 1.4343683886e+00	 1.0242038742e+00	-9.7175769982e-01
 1.4129813546e+00	 1.0535131426e+00	-1.1579525111e+00
 1.3909622252e+00	 1.0824187444e+00	-1.3256862890e+00
 1.3683224931e+00	 1.1109004478e+00	-1.4737969250e+00
 1.3450745074e+00	 1.1389384617e+00	-1.6011549932e+00
 1.3212314520e+00	 1.1665134805e+00	-1.7066681535e+00
 1.2968073215e+00	 1.1936067279e+00	-1.7892856384e+00
 1.2718168940e+00	 1.2201999992e+00	-1.8480027965e+00
 1.2462757018e+00	 1.2462757018e+00	-1.8663559306e+00
 1.4856670324e+00	 9.7129731226e-01	-5.6636016399e-01
 1.4654326574e+00	 1.0015648390e+00	-7.8509692223e-01
 1.4445412140e+00	 1.0314677315e+00	-9.8652239132e-01
 1.4230024990e+00	 1.0609848670e+00	-1.1694068937e+00
 1.4008272055e+00	 1.0900954730e+00	-1.3325487516e+00
 1.3780269080e+00	 1.1187791744e+00	-1.4747785328e+00
 1.3546140429e+00	 1.1470160394e+00	-1.5949634062e+00
 1.3306018879e+00	 1.1747866257e+00	-1.6920115876e+00
 1.3060045365e+00	 1.2020720239e+00	-1.7648768525e+00
 1.2808368720e+00	 1.2288538999e+00	-1.8125630908e+00
 1.2551145366e+00	 1.2551145366e+00	-1.8755159934e+00
 1.4961294763e+00	 9.7813743418e-01	-5.8527493782e-01
 1.4757526057e+00	 1.0086181125e+00	-8.0323112499e-01
 1.4547140395e+00	 1.0387315887e+00	-1.0026387580e+00
 1.4330236433e+00	 1.0684565914e+00	-1.1822533020e+00
 1.4106921858e+00	 1.0977722017e+00	-1.3408619497e+00
 1.3877313228e+00	 1.1266579009e+00	-1.4772879372e+00
 1.3641535784e+00	 1.1550936172e+00	-1.5903949562e+00
 1.3399723237e+00	 1.1830597710e+00	-1.6790916406e+00
 1.3152017516e+00	 1.2105373198e+00	-1.7423361064e+00
 1.2898568500e+00	 1.2375078006e+00	-1.7791405181e+00
 1.2639533714e+00	 1.2639533714e+00	-1.8989721407e+00
 1.5065919202e+00	 9.8497755610e-01	-6.0548739694e-01
 1.4860725540e+00	 1.0156713861e+00	-8.2266683756e-01
 1.4648868649e+00	 1.0459954460e+00	-1.0200783771e+00
 1.4430447877e+00	 1.0759283158e+00	-1.1964627418e+00
 1.4205571662e+00	 1.1054489304e+00	-1.3505960508e+00
 1.3974357376e+00	 1.1345366275e+00	-1.4812942016e+00
 1.3736931140e+00	 1.1631711949e+00	-1.5874173372e+00
 1.3493427595e+00	 1.1913329162e+00	-1.6678743741e+00
 1.3243989666e+00	 1.2190026157e+00	-1.7216275689e+00
 1.2988768279e+00	 1.2461617013e+00	-1.7476970964e+00
 1.2727922061e+00	 1.2727922061e+00	-1.9214241320e+00
 1.5170543641e+00	 9.9181767802e-01	-6.2696941591e-01
 1.4963925022e+00	 1.0227246596e+00	-8.4337588433e-01
 1.4750596904e+00	 1.0532593033e+00	-1.0388127655e+00
 1.4530659320e+00	 1.0834000402e+00	-1.2120061646e+00
 1.4304221465e+00	 1.1131256591e+00	-1.3617211835e+00
 1.4071401525e+00	 1.1424153541e+00	-1.4867663745e+00
 1.3832326495e+00	 1.1712487727e+00	-1.5859982621e+00
 1.3587131954e+00	 1.1996060615e+00	-1.6583259115e+00
 1.3335961817e+00	 1.2274679117e+00	-1.7027155221e+00
 1.3078968059e+00	 1.2548156020e+00	-1.7531443586e+00
 1.2816310409e+00	 1.2816310409e+00	-1.9428770980e+00
 1.5275168080e+00	 9.9865779994e-01	-6.4969282576e-01
 1.5067124505e+00	 1.0297779331e+00	-8.6533003431e-01
 1.4852325158e+00	 1.0605231605e+00	-1.0588133816e+00
 1.4630870764e+00	 1.0908717647e+00	-1.2288544691e+00
 1.4402871268e+00	 1.1208023878e+00	-1.3742074380e+00
 1.4168445673e+00	 1.1502940807e+00	-1.4936734898e+00
 1.3927721850e+00	 1.1793263504e+00	-1.5861054614e+00
 1.3680836312e+00	 1.2078792067e+00	-1.6504124350e+00
 1.3427933967e+00	 1.2359332076e+00	-1.6855643571e+00
 1.3169167839e+00	 1.2634695027e+00	-1.7860124764e+00
 1.2904698757e+00	 1.2904698757e+00	-1.9633364047e+00
 1.5379792519e+00	 1.0054979219e+00	-6.7362941547e-01
 1.5170323988e+00	 1.0368312066e+00	-8.8850100299e-01
 1.4954053413e+00	 1.0677870178e+00	-1.0800516272e+00
 1.4731082208e+00	 1.0983434891e+00	-1.2469785031e+00
 1.4501521071e+00	 1.1284791165e+00	-1.3880248680e+00
 1.4265489822e+00	 1.1581728073e+00	-1.5019845674e+00
 1.4023117205e+00	 1.1874039281e+00	-1.5877066834e+00
 1.3774540670e+00	 1.2161523520e+00	-1.6441001844e+00
 1.3519906118e+00	 1.2443985036e+00	-1.6701385709e+00
 1.3259367618e+00	 1.2721234034e+00	-1.8177796304e+00
 1.2993087104e+00	 1.2993087104e+00	-1.9828076457e+00
 1.5484416958e+00	 1.0123380438e+00	-6.9875093339e-01
 1.5273523471e+00	 1.0438844801e+00	-9.1286045414e-01
 1.5055781667e+00	 1.0750508751e+00	-1.1024988495e+00
 1.4831293651e+00	 1.1058152135e+00	-1.2663490653e+00
 1.4600170874e+00	 1.1361558451e+00	-1.4031434917e+00
 1.4362533970e+00	 1.1660515338e+00	-1.5116686138e+00
 1.4118512560e+00	 1.1954815059e+00	-1.5907696928e+00
 1.3868245028e+00	 1.2244254973e+00	-1.6393554545e+00
 1.3611878268e+00	 1.2528637995e+00	-1.6749131084e+00
 1.3349567398e+00	 1.2807773042e+00	-1.8484540713e+00
 1.3081475452e+00	 1.3081475452e+00	-2.0012966342e+00
 1.5589041397e+00	 1.0191781657e+00	-7.2502908864e-01
 1.5376722954e+00	 1.0509377536e+00	-9.3838000156e-01
 1.5157509922e+00	 1.0823147323e+00	-1.1261263432e+00
 1.4931505095e+00	 1.1132869379e+00	-1.2869369069e+00
 1.4698820678e+00	 1.1438325738e+00	-1.4195332928e+00
 1.4459578119e+00	 1.1739302604e+00	-1.5226946225e+00
 1.4213907915e+00	 1.2035590836e+00	-1.5952622707e+00
 1.3961949387e+00	 1.2326986425e+00	-1.6361445940e+00
 1.3703850419e+00	 1.2613290955e+00	-1.7156582838e+00
 1.3439767178e+00	 1.2894312049e+00	-1.8780442020e+00
 1.3169863800e+00	 1.3169863800e+00	-2.0188093959e+00
 1.5693665835e+00	 1.0260182876e+00	-7.5243555233e-01
 1.5479922437e+00	 1.0579910271e+00	-9.6503121076e-01
 1.5259238176e+00	 1.0895785896e+00	-1.1509053518e+00
 1.5031716538e+00	 1.1207586623e+00	-1.3087127329e+00
 1.4797470481e+00	 1.1515093025e+00	-1.4371642221e+00
 1.4556622267e+00	 1.1818089870e+00	-1.5350315742e+00
 1.4309303270e+00	 1.2116366614e+00	-1.6011522140e+00
 1.4055653745e+00	 1.2409717878e+00	-1.6344340029e+00
 1.3795822569e+00	 1.2697943914e+00	-1.7552346333e+00
 1.3529966958e+00	 1.2980851056e+00	-1.9065585717e+00
 1.3258252147e+00	 1.3258252147e+00	-2.0353521620e+00
 1.2374368671e+00	 1.2374368671e+00	-1.8802479856e+00
 1.2115460985e+00	 1.2627969160e+00	-1.9108798151e+00
 1.1851414320e+00	 1.2876101064e+00	-2.0290563619e+00
 1.1582403352e+00	 1.3118610162e+00	-2.1287668963e+00
 1.1308608839e+00	 1.3355349719e+00	-2.2102304902e+00
 1.1030217212e+00	 1.3586180783e+00	-2.2736958113e+00
 1.0747420157e+00	 1.3810972449e+00	-2.3194403899e+00
 1.0460414182e+00	 1.4029602102e+00	-2.3477699151e+00
 1.0169400170e+00	 1.4241955631e+00	-2.3590175580e+00
 9.8745829200e-01	 1.4447927608e+00	-2.3535433198e+00
 9.5761706843e-01	 1.4647421446e+00	-2.3317333985e+00
 1.2462757018e+00	 1.2462757018e+00	-1.8663559306e+00
 1.2201999992e+00	 1.2718168940e+00	-1.9578895239e+00
 1.1936067279e+00	 1.2968073215e+00	-2.0634303629e+00
 1.1665134805e+00	 1.3212314520e+00	-2.1523660831e+00
 1.1389384617e+00	 1.3450745074e+00	-2.2249206986e+00
 1.1109004478e+00	 1.3683224931e+00	-2.2813404452e+00
 1.0824187444e+00	 1.3909622252e+00	-2.3218931179e+00
 1.0535131426e+00	 1.4129813546e+00	-2.3468674785e+00
 1.0242038742e+00	 1.4343683886e+00	-2.3565727313e+00
 9.9451156551e-01	 1.4551127091e+00	-2.3513380614e+00
 9.6445719035e-01	 1.4752045885e+00	-2.3315122302e+00
 1.2551145366e+00	 1.2551145366e+00	-1.8755159934e+00
 1.2288538999e+00	 1.2808368720e+00	-2.0050161717e+00
 1.2020720239e+00	 1.3060045365e+00	-2.0979271803e+00
 1.1747866257e+00	 1.3306018879e+00	-2.1760746113e+00
 1.1470160394e+00	 1.3546140429e+00	-2.2396874492e+00
 1.1187791744e+00	 1.3780269080e+00	-2.2890095638e+00
 1.0900954730e+00	 1.4008272055e+00	-2.3242991175e+00
 1.0609848670e+00	 1.4230024990e+00	-2.3458280847e+00
 1.0314677315e+00	 1.4445412140e+00	-2.3538818793e+00
 1.0015648390e+00	 1.4654326574e+00	-2.3487590832e+00
 9.7129731226e-01	 1.4856670324e+00	-2.3307712693e+00
 1.2639533714e+00	 1.2639533714e+00	-1.8989721407e+00
 1.2375078006e+00	 1.2898568500e+00	-2.0522271779e+00
 1.2105373198e+00	 1.3152017516e+00	-2.1325138996e+00
 1.1830597710e+00	 1.3399723237e+00	-2.1998597742e+00
 1.1550936172e+00	 1.3641535784e+00	-2.2544987828e+00
 1.1266579009e+00	 1.3877313228e+00	-2.2966724919e+00
 1.0977722017e+00	 1.4106921858e+00	-2.3266295298e+00
 1.0684565914e+00	 1.4330236433e+00	-2.3446252179e+00
 1.0387315887e+00	 1.4547140395e+00	-2.3509213487e+00
 1.0086181125e+00	 1.4757526057e+00	-2.3457861053e+00
 9.7813743418e-01	 1.4961294763e+00	-2.3294941097e+00
 1.2727922061e+00	 1.2727922061e+00	-1.9214241320e+00
 1.2461617013e+00	 1.2988768279e+00	-2.0994902391e+00
 1.2190026157e+00	 1.3243989666e+00	-2.1671578953e+00
 1.1913329162e+00	 1.3493427595e+00	-2.2236891510e+00
 1.1631711949e+00	 1.3736931140e+00	-2.2693230098e+00
 1.1345366275e+00	 1.3974357376e+00	-2.3042987941e+00
 1.1054489304e+00	 1.4205571662e+00	-2.3288556928e+00
 1.0759283158e+00	 1.4430447877e+00	-2.3432325023e+00
 1.0459954460e+00	 1.4648868649e+00	-2.3476675564e+00
 1.0156713861e+00	 1.4860725540e+00	-2.3423988347e+00
 9.8497755610e-01	 1.5065919202e+00	-2.3276642373e+00
 1.2816310409e+00	 1.2816310409e+00	-1.9428770980e+00
 1.2548156020e+00	 1.3078968059e+00	-2.1259009728e+00
 1.2274679117e+00	 1.3335961817e+00	-2.2018268203e+00
 1.1996060615e+00	 1.3587131954e+00	-2.2475305976e+00
 1.1712487727e+00	 1.3832326495e+00	-2.2841287013e+00
 1.1424153541e+00	 1.4071401525e+00	-2.3118582673e+00
 1.1131256591e+00	 1.4304221465e+00	-2.3309491346e+00
 1.0834000402e+00	 1.4530659320e+00	-2.3416236977e+00
 1.0532593033e+00	 1.4750596904e+00	-2.3440969872e+00
 1.0227246596e+00	 1.4963925022e+00	-2.3385769668e+00
 9.9181767802e-01	 1.5170543641e+00	-2.3252650335e+00
 1.2904698757e+00	 1.2904698757e+00	-1.9633364047e+00
 1.2634695027e+00	 1.3169167839e+00	-2.1349348270e+00
 1.2359332076e+00	 1.3427933967e+00	-2.2364885967e+00
 1.2078792067e+00	 1.3680836312e+00	-2.2713522363e+00
 1.1793263504e+00	 1.3927721850e+00	-2.2988846803e+00
 1.1502940807e+00	 1.4168445673e+00	-2.3193209321e+00
 1.1208023878e+00	 1.4402871268e+00	-2.3328815668e+00
 1.0908717647e+00	 1.4630870764e+00	-2.3397726947e+00
 1.0605231605e+00	 1.4852325158e+00	-2.3401861914e+00
 1.0297779331e+00	 1.5067124505e+00	-2.3343001847e+00
 9.9865779994e-01	 1.5275168080e+00	-2.3222797786e+00
 1.2993087104e+00	 1.2993087104e+00	-1.9828076457e+00
 1.2721234034e+00	 1.3259367618e+00	-2.1430197975e+00
 1.2443985036e+00	 1.3519906118e+00	-2.2711114066e+00
 1.2161523520e+00	 1.3774540670e+00	-2.2951224474e+00
 1.1874039281e+00	 1.4023117205e+00	-2.3135600129e+00
 1.1581728073e+00	 1.4265489822e+00	-2.3266570255e+00
 1.1284791165e+00	 1.4501521071e+00	-2.3346248786e+00
 1.0983434891e+00	 1.4731082208e+00	-2.3376535100e+00
 1.0677870178e+00	 1.4954053413e+00	-2.3359117830e+00
 1.0368312066e+00	 1.5170323988e+00	-2.3295481608e+00
 1.0054979219e+00	 1.5379792519e+00	-2.3186916554e+00
 1.3081475452e+00	 1.3081475452e+00	-2.0012966342e+00
 1.2807773042e+00	 1.3349567398e+00	-2.1501607143e+00
 1.2528637995e+00	 1.3611878268e+00	-2.2930089267e+00
 1.2244254973e+00	 1.3868245028e+00	-2.3188098600e+00
 1.1954815059e+00	 1.4118512560e+00	-2.3281240001e+00
 1.1660515338e+00	 1.4362533970e+00	-2.3338369936e+00
 1.1361558451e+00	 1.4600170874e+00	-2.3361511303e+00
 1.1058152135e+00	 1.4831293651e+00	-2.3352402825e+00
 1.0750508751e+00	 1.5055781667e+00	-2.3312504368e+00
 1.0438844801e+00	 1.5273523471e+00	-2.3243005561e+00
 1.0123380438e+00	 1.5484416958e+00	-2.3144837525e+00
 1.3169863800e+00	 1.3169863800e+00	-2.0188093959e+00
 1.2894312049e+00	 1.3439767178e+00	-2.1563626409e+00
 1.2613290955e+00	 1.3703850419e+00	-2.2895084417e+00
 1.2326986425e+00	 1.3961949387e+00	-2.3423833441e+00
 1.2035590836e+00	 1.4213907915e+00	-2.3425461698e+00
 1.1739302604e+00	 1.4459578119e+00	-2.3408314845e+00
 1.1438325738e+00	 1.4698820678e+00	-2.3374325479e+00
 1.1132869379e+00	 1.4931505095e+00	-2.3325072690e+00
 1.0823147323e+00	 1.5157509922e+00	-2.3261788871e+00
 1.0509377536e+00	 1.5376722954e+00	-2.3185370211e+00
 1.0191781657e+00	 1.5589041397e+00	-2.3096390674e+00
 1.3258252147e+00	 1.3258252147e+00	-2.0353521620e+00
 1.2980851056e+00	 1.3529966958e+00	-2.1616308660e+00
 1.2697943914e+00	 1.3795822569e+00	-2.2850901538e+00
 1.2409717878e+00	 1.4055653745e+00	-2.3658120021e+00
 1.2116366614e+00	 1.4309303270e+00	-2.3567962698e+00
 1.1818089870e+00	 1.4556622267e+00	-2.3476113415e+00
 1.1515093025e+00	 1.4797470481e+00	-2.3384415175e+00
 1.1207586623e+00	 1.5031716538e+00	-2.3294288404e+00
 1.0895785896e+00	 1.5259238176e+00	-2.3206739251e+00
 1.0579910271e+00	 1.5479922437e+00	-2.3122371964e+00
 1.0260182876e+00	 1.5693665835e+00	-2.3041405097e+00
 9.5761706843e-01	 1.4647421446e+00	-2.3317333985e+00
 9.2743746932e-01	 1.4840349526e+00	-2.2700831009e+00
 8.9694086809e-01	 1.5026633286e+00	-2.2087941274e+00
 8.6614884071e-01	 1.5206203293e+00	-2.1480252757e+00
 8.3508311796e-01	 1.5378999272e+00	-2.0879042789e+00
 8.0376553786e-01	 1.5544970120e+00	-2.0285296107e+00
 7.7221799858e-01	 1.5704073875e+00	-1.9699724873e+00
 7.4046241201e-01	 1.5856277673e+00	-1.9122790367e+00
 7.0852065810e-01	 1.6001557665e+00	-1.8554726011e+00
 6.7641454023e-01	 1.6139898915e+00	-1.7995561421e+00
 6.4416574175e-01	 1.6271295269e+00	-1.7445147160e+00
 9.6445719035e-01	 1.4752045885e+00	-2.3315122302e+00
 9.3406202267e-01	 1.4946352023e+00	-2.2718127462e+00
 9.0334758858e-01	 1.5133966381e+00	-2.2120576007e+00
 8.7233561815e-01	 1.5314819031e+00	-2.1524002310e+00
 8.4104799738e-01	 1.5488849267e+00	-2.0929643059e+00
 8.0950672027e-01	 1.5656005621e+00	-2.0338455586e+00
 7.7773384143e-01	 1.5816245831e+00	-1.9751138116e+00
 7.4575142924e-01	 1.5969536799e+00	-1.9168151618e+00
 7.1358151994e-01	 1.6115854506e+00	-1.8589742933e+00
 6.8124607266e-01	 1.6255183907e+00	-1.8015968861e+00
 6.4876692562e-01	 1.6387518806e+00	-1.7446720873e+00
 9.7129731226e-01	 1.4856670324e+00	-2.3307712693e+00
 9.4068657602e-01	 1.5052354519e+00	-2.2730220395e+00
 9.0975430906e-01	 1.5241299476e+00	-2.2148113197e+00
 8.7852239559e-01	 1.5423434768e+00	-2.1562869644e+00
 8.4701287680e-01	 1.5598699262e+00	-2.0975683227e+00
 8.1524790269e-01	 1.5767041122e+00	-2.0387481012e+00
 7.8324968428e-01	 1.5928417788e+00	-1.9798944141e+00
 7.5104044647e-01	 1.6082795926e+00	-1.9210529862e+00
 7.1864238179e-01	 1.6230151346e+00	-1.8622494788e+00
 6.8607760509e-01	 1.6370468900e+00	-1.8034919034e+00
 6.5336810950e-01	 1.6503742344e+00	-1.7447730930e+00
 9.7813743418e-01	 1.4961294763e+00	-2.3294941097e+00
 9.4731112938e-01	 1.5158357016e+00	-2.2736955068e+00
 9.1616102955e-01	 1.5348632571e+00	-2.2170406129e+00
 8.8470917302e-01	 1.5532050506e+00	-2.1596714758e+00
 8.5297775622e-01	 1.5708549257e+00	-2.1017028684e+00
 8.2098908511e-01	 1.5878076622e+00	-2.0432241842e+00
 7.8876552713e-01	 1.6040589744e+00	-1.9843015136e+00
 7.5632946371e-01	 1.6196055052e+00	-1.9249798684e+00
 7.2370324364e-01	 1.6344448187e+00	-1.8652855218e+00
 6.9090913753e-01	 1.6485753892e+00	-1.8052284310e+00
 6.5796929337e-01	 1.6619965882e+00	-1.7448047097e+00
 9.8497755610e-01	 1.5065919202e+00	-2.3276642373e+00
 9.5393568273e-01	 1.5264359513e+00	-2.2738175528e+00
 9.2256775004e-01	 1.5455965666e+00	-2.2187306789e+00
 8.9089595046e-01	 1.5640666244e+00	-2.1625396316e+00
 8.5894263563e-01	 1.5818399252e+00	-2.1053543501e+00
 8.2673026752e-01	 1.5989112123e+00	-2.0472606266e+00
 7.9428136998e-01	 1.6152761700e+00	-1.9883222122e+00
 7.6161848094e-01	 1.6309314178e+00	-1.9285830640e+00
 7.2876410549e-01	 1.6458745027e+00	-1.8680697026e+00
 6.9574066996e-01	 1.6601038884e+00	-1.8067936447e+00
 6.6257047724e-01	 1.6736189419e+00	-1.7447538805e+00
 9.9181767802e-01	 1.5170543641e+00	-2.3252650335e+00
 9.6056023608e-01	 1.5370362009e+00	-2.2733724652e+00
 9.2897447053e-01	 1.5563298761e+00	-2.2198665916e+00
 8.9708272789e-01	 1.5749281982e+00	-2.1648771700e+00
 8.6490751505e-01	 1.5928249246e+00	-2.1085090468e+00
 8.3247144994e-01	 1.6100147624e+00	-2.0508441247e+00
 7.9979721283e-01	 1.6264933656e+00	-1.9919434988e+00
 7.6690749817e-01	 1.6422573304e+00	-1.9318497298e+00
 7.3382496733e-01	 1.6573041868e+00	-1.8705892203e+00
 7.0057220239e-01	 1.6716323876e+00	-1.8081746612e+00
 6.6717166111e-01	 1.6852412957e+00	-1.7446075151e+00
 9.9865779994e-01	 1.5275168080e+00	-2.3222797786e+00
 9.6718478944e-01	 1.5476364506e+00	-2.2723444187e+00
 9.3538119102e-01	 1.5670631856e+00	-2.2204333042e+00
 9.0326950533e-01	 1.5857897720e+00	-2.1666697049e+00
 8.7087239446e-01	 1.6038099241e+00	-2.1111531147e+00
 8.3821263235e-01	 1.6211183125e+00	-2.0539612569e+00
 8.0531305568e-01	 1.6377105613e+00	-1.9951522536e+00
 7.7219651540e-01	 1.6535832431e+00	-1.9347669267e+00
 7.3888582918e-01	 1.6687338708e+00	-1.8728311958e+00
 7.0540373482e-01	 1.6831608869e+00	-1.8093585404e+00
 6.7177284498e-01	 1.6968636495e+00	-1.7443524921e+00
 1.0054979219e+00	 1.5379792519e+00	-2.3186916554e+00
 9.7380934279e-01	 1.5582367002e+00	-2.2707174792e+00
 9.4178791150e-01	 1.5777964951e+00	-2.2204156532e+00
 9.0945628276e-01	 1.5966513457e+00	-2.1679027302e+00
 8.7683727388e-01	 1.6147949236e+00	-2.1132725904e+00
 8.4395381477e-01	 1.6322218626e+00	-2.0565984870e+00
 8.1082889853e-01	 1.6489277569e+00	-1.9979352513e+00
 7.7748553263e-01	 1.6649091557e+00	-1.9373216233e+00
 7.4394669102e-01	 1.6801635549e+00	-1.8747826745e+00
 7.1023526726e-01	 1.6946893861e+00	-1.8103322872e+00
 6.7637402885e-01	 1.7084860032e+00	-1.7439756591e+00
 1.0123380438e+00	 1.5484416958e+00	-2.3144837525e+00
 9.8043389614e-01	 1.5688369499e+00	-2.2684756067e+00
 9.4819463199e-01	 1.5885298046e+00	-2.2197983625e+00
 9.1564306020e-01	 1.6075129195e+00	-2.1685616242e+00
 8.8280215329e-01	 1.6257799231e+00	-2.1148533958e+00
 8.4969499718e-01	 1.6433254127e+00	-2.0587421687e+00
 8.1634474137e-01	 1.6601449525e+00	-2.0002791647e+00
 7.8277454986e-01	 1.6762350683e+00	-1.9395006988e+00
 7.4900755286e-01	 1.6915932389e+00	-1.8764306285e+00
 7.1506679969e-01	 1.7062178853e+00	-1.8110828535e+00
 6.8097521272e-01	 1.7201083570e+00	-1.7434638343e+00
 1.0191781657e+00	 1.5589041397e+00	-2.3096390674e+00
 9.8705844950e-01	 1.5794371996e+00	-2.2656026595e+00
 9.5460135247e-01	 1.5992631140e+00	-2.2185660470e+00
 9.2182983763e-01	 1.6183744933e+00	-2.1686316531e+00
 8.8876703271e-01	 1.6367649225e+00	-2.1158813414e+00
 8.5543617959e-01	 1.6544289627e+00	-2.0603785489e+00
 8.2186058422e-01	 1.6713621481e+00	-2.0021705684e+00
 7.8806356708e-01	 1.6875609809e+00	-1.9412909461e+00
 7.5406841471e-01	 1.7030229229e+00	-1.8777619593e+00
 7.1989833212e-01	 1.7177463845e+00	-1.8115971395e+00
 6.8557639659e-01	 1.7317307107e+00	-1.7428038072e+00
 1.0260182876e+00	 1.5693665835e+00	-2.3041405097e+00
 9.9368300285e-01	 1.5900374492e+00	-2.2620823975e+00
 9.6100807296e-01	 1.6099964235e+00	-2.2167032166e+00
 9.2801661506e-01	 1.6292360671e+00	-2.1680979748e+00
 8.9473191212e-01	 1.6477499220e+00	-2.1163421302e+00
 8.6117736201e-01	 1.6655325128e+00	-2.0614937715e+00
 8.2737642706e-01	 1.6825793438e+00	-2.0035959421e+00
 7.9335258431e-01	 1.6988868935e+00	-1.9426790747e+00
 7.5912927655e-01	 1.7144526070e+00	-1.8787635002e+00
 7.2472986455e-01	 1.7292748837e+00	-1.8118619960e+00
 6.9017758046e-01	 1.7433530645e+00	-1.7419823398e+00
 6.4416574175e-01	 1.6271295269e+00	-1.7445147160e+00
 6.1179578386e-01	 1.6395749202e+00	-1.6895071607e+00
 5.7932598496e-01	 1.6513271642e+00	-1.6290317032e+00
 5.4677742156e-01	 1.6623881771e+00	-1.5633569508e+00
 5.1417089101e-01	 1.6727606807e+00	-1.4927568732e+00
 4.8152687600e-01	 1.6824481768e+00	-1.4175114521e+00
 4.4886551095e-01	 1.6914549220e+00	-1.3379072364e+00
 4.1620655053e-01	 1.6997859004e+00	-1.2542377947e+00
 3.8356934007e-01	 1.7074467961e+00	-1.1668040569e+00
 3.5097278823e-01	 1.7144439629e+00	-1.0759145400e+00
 3.1843534174e-01	 1.7207843947e+00	-9.8188545395e-01
 6.4876692562e-01	 1.6387518806e+00	-1.7446720873e+00
 6.1616575375e-01	 1.6512861696e+00	-1.6890292860e+00
 5.8346402771e-01	 1.6631223582e+00	-1.6281892801e+00
 5.5068297457e-01	 1.6742623784e+00	-1.5624162137e+00
 5.1784354024e-01	 1.6847089713e+00	-1.4919788527e+00
 4.8496635368e-01	 1.6944656638e+00	-1.4171513134e+00
 4.5207169318e-01	 1.7035367429e+00	-1.3382136963e+00
 4.1917945447e-01	 1.7119272283e+00	-1.2554526162e+00
 3.8630912108e-01	 1.7196428446e+00	-1.1691616196e+00
 3.5347973672e-01	 1.7266899912e+00	-1.0796414841e+00
 3.2070987989e-01	 1.7330757118e+00	-9.8720039494e-01
 6.5336810950e-01	 1.6503742344e+00	-1.7447730930e+00
 6.2053572364e-01	 1.6629974191e+00	-1.6885784011e+00
 5.8760207046e-01	 1.6749175523e+00	-1.6274552964e+00
 5.5458852759e-01	 1.6861365796e+00	-1.5616631807e+00
 5.2151618946e-01	 1.6966572619e+00	-1.4914653465e+00
 4.8840583137e-01	 1.7064831508e+00	-1.4171297866e+00
 4.5527787540e-01	 1.7156185637e+00	-1.3389299079e+00
 4.2215235840e-01	 1.7240685562e+00	-1.2571451397e+00
 3.8904890208e-01	 1.7318388932e+00	-1.1720614281e+00
 3.5598668521e-01	 1.7389360195e+00	-1.0839716096e+00
 3.2298441805e-01	 1.7453670289e+00	-9.9317565973e-01
 6.5796929337e-01	 1.6619965882e+00	-1.7448047097e+00
 6.2490569353e-01	 1.6747086685e+00	-1.6881413879e+00
 5.9174011322e-01	 1.6867127463e+00	-1.6268166113e+00
 5.5849408060e-01	 1.6980107809e+00	-1.5610847572e+00
 5.2518883868e-01	 1.7086055524e+00	-1.4912033736e+00
 4.9184530906e-01	 1.7185006378e+00	-1.4174340695e+00
 4.5848405762e-01	 1.7277003846e+00	-1.3400433103e+00
 4.2512526233e-01	 1.7362098840e+00	-1.2593031057e+00
 3.9178868308e-01	 1.7440349417e+00	-1.1754915819e+00
 3.5849363370e-01	 1.7511820478e+00	-1.0888934303e+00
 3.2525895620e-01	 1.7576583461e+00	-9.9980022856e-01
 6.6257047724e-01	 1.6736189419e+00	-1.7447538805e+00
 6.2927566342e-01	 1.6864199179e+00	-1.6877051178e+00
 5.9587815597e-01	 1.6985079403e+00	-1.6262600940e+00
 5.6239963361e-01	 1.7098849822e+00	-1.5606678786e+00
 5.2886148791e-01	 1.7205538430e+00	-1.4911800008e+00
 4.9528478674e-01	 1.7305181248e+00	-1.4180514236e+00
 4.6169023984e-01	 1.7397822055e+00	-1.3415414208e+00
 4.2809816627e-01	 1.7483512119e+00	-1.2619143460e+00
 3.9452846408e-01	 1.7562309902e+00	-1.1794402832e+00
 3.6100058218e-01	 1.7634280761e+00	-1.0943955721e+00
 3.2753349436e-01	 1.7699496632e+00	-1.0070632017e+00
 6.6717166111e-01	 1.6852412957e+00	-1.7446075151e+00
 6.3364563330e-01	 1.6981311674e+00	-1.6872564511e+00
 6.0001619872e-01	 1.7103031344e+00	-1.6257726236e+00
 5.6630518663e-01	 1.7217591834e+00	-1.5603995086e+00
 5.3253413713e-01	 1.7325021336e+00	-1.4913823409e+00
 4.9872426443e-01	 1.7425356117e+00	-1.4189691725e+00
 4.6489642207e-01	 1.7518640264e+00	-1.3434118330e+00
 4.3107107020e-01	 1.7604925398e+00	-1.2649667807e+00
 3.9726824508e-01	 1.7684270388e+00	-1.1838958332e+00
 3.6350753067e-01	 1.7756741044e+00	-1.1004667692e+00
 3.2980803251e-01	 1.7822409803e+00	-1.0149537955e+00
 6.7177284498e-01	 1.6968636495e+00	-1.7443524921e+00
 6.3801560319e-01	 1.7098424168e+00	-1.6867822379e+00
 6.0415424147e-01	 1.7220983284e+00	-1.6253410887e+00
 5.7021073964e-01	 1.7336333847e+00	-1.5602666392e+00
 5.3620678635e-01	 1.7444504242e+00	-1.4917975514e+00
 5.0216374212e-01	 1.7545530987e+00	-1.4201746992e+00
 4.6810260429e-01	 1.7639458472e+00	-1.3456422133e+00
 4.3404397413e-01	 1.7726338676e+00	-1.2684484153e+00
 4.0000802608e-01	 1.7806230873e+00	-1.1888466290e+00
 3.6601447916e-01	 1.7879201328e+00	-1.1070958602e+00
 3.3208257067e-01	 1.7945322974e+00	-1.0234613380e+00
 6.7637402885e-01	 1.7084860032e+00	-1.7439756591e+00
 6.4238557307e-01	 1.7215536662e+00	-1.6862693183e+00
 6.0829228422e-01	 1.7338935224e+00	-1.6249523871e+00
 5.7411629265e-01	 1.7455075860e+00	-1.5602562887e+00
 5.3987943557e-01	 1.7563987147e+00	-1.4924128324e+00
 5.0560321981e-01	 1.7665705857e+00	-1.4216554444e+00
 4.7130878651e-01	 1.7760276681e+00	-1.3482202991e+00
 4.3701687807e-01	 1.7847751955e+00	-1.2723473375e+00
 4.0274780708e-01	 1.7928191359e+00	-1.1942811600e+00
 3.6852142765e-01	 1.8001661611e+00	-1.1142717849e+00
 3.3435710882e-01	 1.8068236145e+00	-1.0325752655e+00
 6.8097521272e-01	 1.7201083570e+00	-1.7434638343e+00
 6.4675554296e-01	 1.7332649156e+00	-1.6857045228e+00
 6.1243032697e-01	 1.7456887164e+00	-1.6245934254e+00
 5.7802184566e-01	 1.7573817872e+00	-1.5603555018e+00
 5.4355208480e-01	 1.7683470053e+00	-1.4932154259e+00
 5.0904269749e-01	 1.7785880727e+00	-1.4233989044e+00
 4.7451496873e-01	 1.7881094890e+00	-1.3511338960e+00
 4.3998978200e-01	 1.7969165233e+00	-1.2766517145e+00
 4.0548758808e-01	 1.8050151844e+00	-1.2001880048e+00
 3.7102837614e-01	 1.8124121894e+00	-1.1219835809e+00
 3.3663164698e-01	 1.8191149316e+00	-1.0422851188e+00
 6.8557639659e-01	 1.7317307107e+00	-1.7428038072e+00
 6.5112551284e-01	 1.7449761651e+00	-1.6850746726e+00
 6.1656836972e-01	 1.7574839105e+00	-1.6242511187e+00
 5.8192739867e-01	 1.7692559885e+00	-1.5605513479e+00
 5.4722473402e-01	 1.7802952959e+00	-1.4941926137e+00
 5.1248217518e-01	 1.7906055596e+00	-1.4253926294e+00
 4.7772115095e-01	 1.8001913098e+00	-1.3543708758e+00
 4.4296268593e-01	 1.8090578512e+00	-1.2813497906e+00
 4.0822736909e-01	 1.8172112330e+00	-1.2065558286e+00
 3.7353532462e-01	 1.8246582177e+00	-1.1302203798e+00
 3.3890618513e-01	 1.8314062487e+00	-1.0525805396e+00
 6.9017758046e-01	 1.7433530645e+00	-1.7419823398e+00
 6.5549548273e-01	 1.7566874145e+00	-1.6843665799e+00
 6.2070641247e-01	 1.7692791045e+00	-1.6239123907e+00
 5.8583295169e-01	 1.7811301897e+00	-1.5608309209e+00
 5.5089738324e-01	 1.7922435865e+00	-1.4953317167e+00
 5.1592165286e-01	 1.8026230466e+00	-1.4276242217e+00
 4.8092733318e-01	 1.8122731307e+00	-1.3579191740e+00
 4.4593558987e-01	 1.8211991790e+00	-1.2864298842e+00
 4.1096715009e-01	 1.8294072815e+00	-1.2133733797e+00
 3.7604227311e-01	 1.8369042460e+00	-1.1389714045e+00
 3.4118072329e-01	 1.8436975658e+00	-1.0634512673e+00
 3.1843534174e-01	 1.7207843947e+00	-9.8188545395e-01
 2.8597496231e-01	 1.7264756937e+00	-9.5327897574e-01
 2.5360910580e-01	 1.7315260383e+00	-9.2274499880e-01
 2.2135470347e-01	 1.7359441510e+00	-8.8979728225e-01
 1.8922814545e-01	 1.7397392647e+00	-8.5398658986e-01
 1.5724526633e-01	 1.7429210901e+00	-8.1490193089e-01
 1.2542133288e-01	 1.7454997821e+00	-7.7217147229e-01
 9.3771033808e-02	 1.7474859064e+00	-7.2546313312e-01
 6.2308471550e-02	 1.7488904066e+00	-6.7448487436e-01
 3.1047155973e-02	 1.7497245709e+00	-6.1898469938e-01
 0.0000000000e+00	 1.7500000000e+00	-5.5875038221e-01
 3.2070987989e-01	 1.7330757118e+00	-9.8720039494e-01
 2.8801764061e-01	 1.7388076629e+00	-9.5525027570e-01
 2.5542059941e-01	 1.7438940815e+00	-9.2199573036e-01
 2.2293580850e-01	 1.7483437520e+00	-8.8692950584e-01
 1.9057977506e-01	 1.7521659737e+00	-8.4958044728e-01
 1.5836844680e-01	 1.7553705264e+00	-8.0951488003e-01
 1.2631719954e-01	 1.7579676377e+00	-7.6633765813e-01
 9.4440826906e-02	 1.7599679486e+00	-7.1969288925e-01
 6.2753532061e-02	 1.7613824810e+00	-6.6926434910e-01
 3.1268921373e-02	 1.7622226036e+00	-6.1477560006e-01
 0.0000000000e+00	 1.7625000000e+00	-5.5598983085e-01
 3.2298441805e-01	 1.7453670289e+00	-9.9317565973e-01
 2.9006031891e-01	 1.7511396322e+00	-9.5792666052e-01
 2.5723209303e-01	 1.7562621246e+00	-9.2198668890e-01
 2.2451691352e-01	 1.7607433531e+00	-8.8482746807e-01
 1.9193140467e-01	 1.7645926827e+00	-8.4595593929e-01
 1.5949162727e-01	 1.7678199628e+00	-8.0491578454e-01
 1.2721306620e-01	 1.7704354933e+00	-7.6128861033e-01
 9.5110620005e-02	 1.7724499908e+00	-7.1469480250e-01
 6.3198592571e-02	 1.7738745553e+00	-6.6479406420e-01
 3.1490686773e-02	 1.7747206362e+00	-6.1128565160e-01
 0.0000000000e+00	 1.7750000000e+00	-5.5390832392e-01
 3.2525895620e-01	 1.7576583461e+00	-9.9980022856e-01
 2.9210299722e-01	 1.7634716014e+00	-9.6129780339e-01
 2.5904358664e-01	 1.7686301677e+00	-9.2270840314e-01
 2.2609801855e-01	 1.7731429542e+00	-8.8348271047e-01
 1.9328303428e-01	 1.7770193918e+00	-8.4310577216e-01
 1.6061480775e-01	 1.7802693991e+00	-8.0109866171e-01
 1.2810893287e-01	 1.7829033488e+00	-7.5701979788e-01
 9.5780413103e-02	 1.7849320330e+00	-7.1046592842e-01
 6.3643653082e-02	 1.7863666296e+00	-6.6107279069e-01
 3.1712452172e-02	 1.7872186689e+00	-6.0851546358e-01
 0.0000000000e+00	 1.7875000000e+00	-5.5250842664e-01
 3.2753349436e-01	 1.7699496632e+00	-1.0070632017e+00
 2.9414567552e-01	 1.7758035707e+00	-9.6535349889e-01
 2.6085508025e-01	 1.7809982109e+00	-9.2415151965e-01
 2.2767912357e-01	 1.7855425553e+00	-8.8288688423e-01
 1.9463466389e-01	 1.7894461008e+00	-8.4102274894e-01
 1.6173798822e-01	 1.7927188355e+00	-7.9805760827e-01
 1.2900479953e-01	 1.7953712044e+00	-7.5352674739e-01
 9.6450206201e-02	 1.7974140752e+00	-7.0700335402e-01
 6.4088713593e-02	 1.7988587040e+00	-6.5809930084e-01
 3.1934217572e-02	 1.7997167015e+00	-6.0646561252e-01
 0.0000000000e+00	 1.8000000000e+00	-5.5179263300e-01
 3.2980803251e-01	 1.7822409803e+00	-1.0149537955e+00
 2.9618835382e-01	 1.7881355399e+00	-9.7008365880e-01
 2.6266657387e-01	 1.7933662540e+00	-9.2630679886e-01
 2.2926022860e-01	 1.7979421564e+00	-8.8303174640e-01
 1.9598629350e-01	 1.8018728098e+00	-8.3969976613e-01
 1.6286116869e-01	 1.8051682719e+00	-7.9578679758e-01
 1.2990066619e-01	 1.8078390600e+00	-7.5080504104e-01
 9.7119999299e-02	 1.8098961174e+00	-7.0430419672e-01
 6.4533774104e-02	 1.8113507783e+00	-6.5587236808e-01
 3.2155982972e-02	 1.8122147342e+00	-6.0513664300e-01
 0.0000000000e+00	 1.8125000000e+00	-5.5176336818e-01
 3.3208257067e-01	 1.7945322974e+00	-1.0234613380e+00
 2.9823103212e-01	 1.8004675092e+00	-9.7547830808e-01
 2.6447806748e-01	 1.8057342971e+00	-9.2916511111e-01
 2.3084133362e-01	 1.8103417574e+00	-8.8390915632e-01
 1.9733792311e-01	 1.8142995189e+00	-8.3912981047e-01
 1.6398434917e-01	 1.8176177082e+00	-7.9428047702e-01
 1.3079653285e-01	 1.8203069156e+00	-7.4885031471e-01
 9.7789792397e-02	 1.8223781596e+00	-7.0236560330e-01
 6.4978834614e-02	 1.8238428526e+00	-6.5439076700e-01
 3.2377748371e-02	 1.8247127668e+00	-6.0452906878e-01
 0.0000000000e+00	 1.8250000000e+00	-5.5242299091e-01
 3.3435710882e-01	 1.8068236145e+00	-1.0325752655e+00
 3.0027371042e-01	 1.8127994784e+00	-9.8152758103e-01
 2.6628956109e-01	 1.8181023403e+00	-9.3271743293e-01
 2.3242243864e-01	 1.8227413585e+00	-8.8551107206e-01
 1.9868955272e-01	 1.8267262279e+00	-8.3930595591e-01
 1.6510752964e-01	 1.8300671446e+00	-7.9353296551e-01
 1.3169239952e-01	 1.8327747712e+00	-7.4765825615e-01
 9.8459585495e-02	 1.8348602018e+00	-7.0118474890e-01
 6.5423895125e-02	 1.8363349270e+00	-6.5365327328e-01
 3.2599513771e-02	 1.8372107995e+00	-6.0464337383e-01
 0.0000000000e+00	 1.8375000000e+00	-5.5377379575e-01
 3.3663164698e-01	 1.8191149316e+00	-1.0422851188e+00
 3.0231638873e-01	 1.8251314476e+00	-9.8822171760e-01
 2.6810105470e-01	 1.8304703834e+00	-9.3695484346e-01
 2.3400354367e-01	 1.8351409596e+00	-8.8782954715e-01
 2.0004118233e-01	 1.8391529369e+00	-8.4022136060e-01
 1.6623071011e-01	 1.8425165809e+00	-7.9353865105e-01
 1.3258826618e-01	 1.8452426268e+00	-7.4722460323e-01
 9.9129378594e-02	 1.8473422440e+00	-7.0075883605e-01
 6.5868955636e-02	 1.8488270013e+00	-6.5365866366e-01
 3.2821279170e-02	 1.8497088321e+00	-6.0548001334e-01
 0.0000000000e+00	 1.8500000000e+00	-5.5581801524e-01
 3.3890618513e-01	 1.8314062487e+00	-1.0525805396e+00
 3.0435906703e-01	 1.8374634169e+00	-9.9555105983e-01
 2.6991254832e-01	 1.8428384265e+00	-9.4186852097e-01
 2.3558464869e-01	 1.8475405607e+00	-8.9085672735e-01
 2.0139281194e-01	 1.8515796460e+00	-8.4186926412e-01
 1.6735389059e-01	 1.8549660173e+00	-7.9429198840e-01
 1.3348413284e-01	 1.8577104824e+00	-7.4754514224e-01
 9.9799171692e-02	 1.8598242861e+00	-7.0108509379e-01
 6.6314016147e-02	 1.8613190756e+00	-6.5440571593e-01
 3.3043044570e-02	 1.8622068648e+00	-6.0703941466e-01
 0.0000000000e+00	 1.8625000000e+00	-5.5855782198e-01
 3.4118072329e-01	 1.8436975658e+00	-1.0634512673e+00
 3.0640174533e-01	 1.8497953861e+00	-1.0035060485e+00
 2.7172404193e-01	 1.8552064697e+00	-9.4744973962e-01
 2.3716575372e-01	 1.8599401617e+00	-8.9458484757e-01
 2.0274444155e-01	 1.8640063550e+00	-8.4424298475e-01
 1.6847707106e-01	 1.8674154537e+00	-7.9578749690e-01
 1.3437999951e-01	 1.8701783380e+00	-7.4861570631e-01
 1.0046896479e-01	 1.8723063283e+00	-7.0216077673e-01
 6.6759076657e-02	 1.8738111500e+00	-6.5589320886e-01
 3.3264809970e-02	 1.8747048974e+00	-6.0932197830e-01
 0.0000000000e+00	 1.8750000000e+00	-5.6199533064e-01
 1.8750000000e+00	 0.0000000000e+00	 2.5452905529e+00
 1.8747048974e+00	 3.3264809970e-02	 2.6122096459e+00
 1.8738111500e+00	 6.6759076657e-02	 2.6599447592e+00
 1.8723063283e+00	 1.0046896479e-01	 2.6887970681e+00
 1.8701783380e+00	 1.3437999951e-01	 2.6990982915e+00
 1.8674154537e+00	 1.6847707106e-01	 2.6912117003e+00
 1.8640063550e+00	 2.0274444155e-01	 2.6655331839e+00
 1.8599401617e+00	 2.3716575372e-01	 2.6224923736e+00
 1.8552064697e+00	 2.7172404193e-01	 2.5625538183e+00
 1.8497953861e+00	 3.0640174533e-01	 2.4862182042e+00
 1.8436975658e+00	 3.4118072329e-01	 2.3940236109e+00
 1.8875000000e+00	 0.0000000000e+00	 2.4945842235e+00
 1.8872029301e+00	 3.3486575369e-02	 2.5679880636e+00
 1.8863032243e+00	 6.7204137168e-02	 2.6214953464e+00
 1.8847883705e+00	 1.0113875789e-01	 2.6553947015e+00
 1.8826461935e+00	 1.3527586617e-01	 2.6700072323e+00
 1.8798648900e+00	 1.6960025153e-01	 2.6656876895e+00
 1.8764330640e+00	 2.0409607116e-01	 2.6428257062e+00
 1.8723397628e+00	 2.3874685874e-01	 2.6018470899e+00
 1.8675745128e+00	 2.7353553554e-01	 2.5432151655e+00
 1.8621273554e+00	 3.0844442363e-01	 2.4674321618e+00
 1.8559888829e+00	 3.4345526144e-01	 2.3750406313e+00
 1.9000000000e+00	 0.0000000000e+00	 2.4443088575e+00
 1.8997009627e+00	 3.3708340769e-02	 2.5241994966e+00
 1.8987952986e+00	 6.7649197680e-02	 2.5834954785e+00
 1.8972704127e+00	 1.0180855099e-01	 2.6224730211e+00
 1.8951140491e+00	 1.3617173283e-01	 2.6414427112e+00
 1.8923143264e+00	 1.7072343201e-01	 2.6407508427e+00
 1.8888597731e+00	 2.0544770077e-01	 2.6207808186e+00
 1.8847393639e+00	 2.4032796377e-01	 2.5819546097e+00
 1.8799425559e+00	 2.7534702916e-01	 2.5247342656e+00
 1.8744593246e+00	 3.1048710194e-01	 2.4496234666e+00
 1.8682802000e+00	 3.4572979960e-01	 2.3571691065e+00
 1.9125000000e+00	 0.0000000000e+00	 2.3944352934e+00
 1.9121989954e+00	 3.3930106169e-02	 2.4808154587e+00
 1.9112873730e+00	 6.8094258191e-02	 2.5459171321e+00
 1.9097524549e+00	 1.0247834409e-01	 2.5900042478e+00
 1.9075819047e+00	 1.3706759950e-01	 2.6133769689e+00
 1.9047637627e+00	 1.7184661248e-01	 2.6163731899e+00
 1.9012864821e+00	 2.0679933038e-01	 2.5993701038e+00
 1.8971389650e+00	 2.4190906879e-01	 2.5627858276e+00
 1.8923105990e+00	 2.7715852277e-01	 2.5070810790e+00
 1.8867912938e+00	 3.1252978024e-01	 2.4327608941e+00
 1.8805715171e+00	 3.4800433776e-01	 2.3403763724e+00
 1.9250000000e+00	 0.0000000000e+00	 2.3449351272e+00
 1.9246970280e+00	 3.4151871570e-02	 2.4378082291e+00
 1.9237794473e+00	 6.8539318703e-02	 2.5087330640e+00
 1.9222344971e+00	 1.0314813719e-01	 2.5579614035e+00
 1.9200497603e+00	 1.3796346616e-01	 2.5857830741e+00
 1.9172131991e+00	 1.7296979296e-01	 2.5925276227e+00
 1.9137131911e+00	 2.0815095999e-01	 2.5785660470e+00
 1.9095385661e+00	 2.4349017382e-01	 2.5443125873e+00
 1.9046786422e+00	 2.7897001638e-01	 2.4902265687e+00
 1.8991232631e+00	 3.1457245854e-01	 2.4168142828e+00
 1.8928628342e+00	 3.5027887591e-01	 2.3246308954e+00
 1.9375000000e+00	 0.0000000000e+00	 2.2957806876e+00
 1.9371950607e+00	 3.4373636970e-02	 2.3951508284e+00
 1.9362715216e+00	 6.8984379215e-02	 2.4719167862e+00
 1.9347165393e+00	 1.0381793029e-01	 2.5263182852e+00
 1.9325176159e+00	 1.3885933283e-01	 2.5586348971e+00
 1.9296626354e+00	 1.7409297343e-01	 2.5691878665e+00
 1.9261399002e+00	 2.0950258961e-01	 2.5583420058e+00
 1.9219381671e+00	 2.4507127885e-01	 2.5265076509e+00
 1.9170466853e+00	 2.8078151000e-01	 2.4741426681e+00
 1.9114552323e+00	 3.1661513685e-01	 2.4017545000e+00
 1.9051541513e+00	 3.5255341407e-01	 2.3099022351e+00
 1.9500000000e+00	 0.0000000000e+00	 2.2469450131e+00
 1.9496930933e+00	 3.4595402371e-02	 2.3528169941e+00
 1.9487635960e+00	 6.9429439728e-02	 2.4354425411e+00
 1.9471985815e+00	 1.0448772339e-01	 2.4950494403e+00
 1.9449854715e+00	 1.3975519949e-01	 2.5319070836e+00
 1.9421120718e+00	 1.7521615391e-01	 2.5463284542e+00
 1.9385666092e+00	 2.1085421922e-01	 2.5386721832e+00
 1.9343377682e+00	 2.4665238388e-01	 2.5093446692e+00
 1.9294147284e+00	 2.8259300362e-01	 2.4588022494e+00
 1.9237872016e+00	 3.1865781515e-01	 2.3875534086e+00
 1.9174454684e+00	 3.5482795223e-01	 2.2961610102e+00
 1.9625000000e+00	 0.0000000000e+00	 2.1984018291e+00
 1.9621911260e+00	 3.4817167771e-02	 2.3107811583e+00
 1.9612556703e+00	 6.9874500241e-02	 2.3992852787e+00
 1.9596806237e+00	 1.0515751649e-01	 2.4641301422e+00
 1.9574533271e+00	 1.4065106616e-01	 2.5055750305e+00
 1.9545615082e+00	 1.7633933439e-01	 2.5239247002e+00
 1.9509933182e+00	 2.1220584883e-01	 2.5195316001e+00
 1.9467373693e+00	 2.4823348890e-01	 2.4927981539e+00
 1.9417827716e+00	 2.8440449723e-01	 2.4441790944e+00
 1.9361191708e+00	 3.2070049346e-01	 2.3741838354e+00
 1.9297367855e+00	 3.5710249039e-01	 2.2833788640e+00
 1.9750000000e+00	 0.0000000000e+00	 2.1501255261e+00
 1.9746891586e+00	 3.5038933172e-02	 2.2690184255e+00
 1.9737477446e+00	 7.0319560754e-02	 2.3634206344e+00
 1.9721626658e+00	 1.0582730959e-01	 2.4335363678e+00
 1.9699211826e+00	 1.4154693283e-01	 2.4796148617e+00
 1.9670109445e+00	 1.7746251487e-01	 2.5019526754e+00
 1.9634200273e+00	 2.1355747845e-01	 2.5008960695e+00
 1.9591369704e+00	 2.4981459393e-01	 2.4768434499e+00
 1.9541508147e+00	 2.8621599085e-01	 2.4302478653e+00
 1.9484511400e+00	 3.2274317177e-01	 2.3616195410e+00
 1.9420281026e+00	 3.5937702855e-01	 2.2715284323e+00
 1.9875000000e+00	 0.0000000000e+00	 2.1020911388e+00
 1.9871871913e+00	 3.5260698574e-02	 2.2275045514e+00
 1.9862398189e+00	 7.0764621268e-02	 2.3278249068e+00
 1.9846447080e+00	 1.0649710269e-01	 2.4032447753e+00
 1.9823890382e+00	 1.4244279949e-01	 2.4540034057e+00
 1.9794603809e+00	 1.7858569534e-01	 2.4803891842e+00
 1.9758467363e+00	 2.1490910806e-01	 2.4827421718e+00
 1.9715365715e+00	 2.5139569896e-01	 2.4614567094e+00
 1.9665188578e+00	 2.8802748447e-01	 2.4169840770e+00
 1.9607831093e+00	 3.2478585007e-01	 2.3498351898e+00
 1.9543194197e+00	 3.6165156671e-01	 2.2605833121e+00
 2.0000000000e+00	 0.0000000000e+00	 2.0542743262e+00
 1.9996852239e+00	 3.5482463975e-02	 2.1862159227e+00
 1.9987318933e+00	 7.1209681781e-02	 2.2924750376e+00
 1.9971267502e+00	 1.0716689579e-01	 2.3732326828e+00
 1.9948568938e+00	 1.4333866616e-01	 2.4287181731e+00
 1.9919098172e+00	 1.7970887582e-01	 2.4592117407e+00
 1.9882734453e+00	 2.1626073768e-01	 2.4650472305e+00
 1.9839361725e+00	 2.5297680400e-01	 2.4466148663e+00
 1.9788869010e+00	 2.8983897809e-01	 2.4043640705e+00
 1.9731150785e+00	 3.2682852838e-01	 2.3388063223e+00
 1.9666107368e+00	 3.6392610487e-01	 2.2505180317e+00
 1.8436975658e+00	 3.4118072329e-01	 2.3940236109e+00
 1.8369042460e+00	 3.7604227311e-01	 2.3172962954e+00
 1.8294072815e+00	 4.1096715009e-01	 2.2280276227e+00
 1.8211991790e+00	 4.4593558987e-01	 2.1266403862e+00
 1.8122731307e+00	 4.8092733318e-01	 2.0135865732e+00
 1.8026230466e+00	 5.1592165286e-01	 1.8893490815e+00
 1.7922435865e+00	 5.5089738324e-01	 1.7544434559e+00
 1.7811301897e+00	 5.8583295169e-01	 1.6094196185e+00
 1.7692791045e+00	 6.2070641247e-01	 1.4548635654e+00
 1.7566874145e+00	 6.5549548273e-01	 1.2913990022e+00
 1.7433530645e+00	 6.9017758046e-01	 1.1196888845e+00
 1.8559888829e+00	 3.4345526144e-01	 2.3750406313e+00
 1.8491502743e+00	 3.7854922160e-01	 2.2964080304e+00
 1.8416033300e+00	 4.1370693109e-01	 2.2058322505e+00
 1.8333405069e+00	 4.4890849380e-01	 2.1037143649e+00
 1.8243549516e+00	 4.8413351540e-01	 1.9904821751e+00
 1.8146405336e+00	 5.1936113055e-01	 1.8665920001e+00
 1.8041918770e+00	 5.5457003246e-01	 1.7325305001e+00
 1.7930043910e+00	 5.8973850470e-01	 1.5888165118e+00
 1.7810742985e+00	 6.2484445522e-01	 1.4360028657e+00
 1.7683986639e+00	 6.5986545261e-01	 1.2746781573e+00
 1.7549754183e+00	 6.9477876433e-01	 1.1054684402e+00
 1.8682802000e+00	 3.4572979960e-01	 2.3571691065e+00
 1.8613963026e+00	 3.8105617009e-01	 2.2764610776e+00
 1.8537993786e+00	 4.1644671209e-01	 2.1844025377e+00
 1.8454818348e+00	 4.5188139773e-01	 2.0813728255e+00
 1.8364367724e+00	 4.8733969762e-01	 1.9677755551e+00
 1.8266580206e+00	 5.2280060824e-01	 1.8440404776e+00
 1.8161401676e+00	 5.5824268168e-01	 1.7106253952e+00
 1.8048785923e+00	 5.9364405771e-01	 1.5680181011e+00
 1.7928694925e+00	 6.2898249797e-01	 1.4167383195e+00
 1.7801099133e+00	 6.6423542250e-01	 1.2573396148e+00
 1.7665977720e+00	 6.9937994820e-01	 1.0904112363e+00
 1.8805715171e+00	 3.4800433776e-01	 2.3403763724e+00
 1.8736423309e+00	 3.8356311858e-01	 2.2574273223e+00
 1.8659954271e+00	 4.1918649309e-01	 2.1637150426e+00
 1.8576231626e+00	 4.5485430167e-01	 2.0595971160e+00
 1.8485185933e+00	 4.9054587984e-01	 1.9454529592e+00
 1.8386755075e+00	 5.2624008592e-01	 1.8216857593e+00
 1.8280884582e+00	 5.6191533091e-01	 1.6887244774e+00
 1.8167527935e+00	 5.9754961072e-01	 1.5470258965e+00
 1.8046646866e+00	 6.3312054072e-01	 1.3970766849e+00
 1.7918211628e+00	 6.6860539238e-01	 1.2393954441e+00
 1.7782201258e+00	 7.0398113207e-01	 1.0745347071e+00
 1.8928628342e+00	 3.5027887591e-01	 2.3246308954e+00
 1.8858883592e+00	 3.8607006707e-01	 2.2392796917e+00
 1.8781914757e+00	 4.2192627409e-01	 2.1437472737e+00
 1.8697644905e+00	 4.5782720560e-01	 2.0383694396e+00
 1.8606004142e+00	 4.9375206206e-01	 1.9235013917e+00
 1.8506929945e+00	 5.2967956361e-01	 1.7995197477e+00
 1.8400367488e+00	 5.6558798013e-01	 1.6668246368e+00
 1.8286269948e+00	 6.0145516373e-01	 1.5258418562e+00
 1.8164598806e+00	 6.3725858347e-01	 1.3770250592e+00
 1.8035324122e+00	 6.7297536226e-01	 1.2208579429e+00
 1.7898424795e+00	 7.0858231593e-01	 1.0578564028e+00
 1.9051541513e+00	 3.5255341407e-01	 2.3099022351e+00
 1.8981343875e+00	 3.8857701556e-01	 2.2219921210e+00
 1.8903875242e+00	 4.2466605510e-01	 2.1244776592e+00
 1.8819058183e+00	 4.6080010953e-01	 2.0176728279e+00
 1.8726822351e+00	 4.9695824429e-01	 1.9019085901e+00
 1.8627104815e+00	 5.3311904130e-01	 1.7775349813e+00
 1.8519850393e+00	 5.6926062935e-01	 1.6449232996e+00
 1.8405011961e+00	 6.0536071674e-01	 1.5044683719e+00
 1.8282550746e+00	 6.4139662622e-01	 1.3565908681e+00
 1.8152436616e+00	 6.7734533215e-01	 1.2017396306e+00
 1.8014648333e+00	 7.1318349980e-01	 1.0403939855e+00
 1.9174454684e+00	 3.5482795223e-01	 2.2961610102e+00
 1.9103804158e+00	 3.9108396405e-01	 2.2055395213e+00
 1.9025835728e+00	 4.2740583610e-01	 2.1058855172e+00
 1.8940471462e+00	 4.6377301347e-01	 1.9974911136e+00
 1.8847640559e+00	 5.0016442651e-01	 1.8806630016e+00
 1.8747279685e+00	 5.3655851898e-01	 1.7557246143e+00
 1.8639333299e+00	 5.7293327857e-01	 1.6230184108e+00
 1.8523753973e+00	 6.0926626975e-01	 1.4829082547e+00
 1.8400502687e+00	 6.4553466897e-01	 1.3357818553e+00
 1.8269549110e+00	 6.8171530203e-01	 1.1820532403e+00
 1.8130871871e+00	 7.1778468367e-01	 1.0221652254e+00
 1.9297367855e+00	 3.5710249039e-01	 2.2833788640e+00
 1.9226264441e+00	 3.9359091254e-01	 2.1898977486e+00
 1.9147796213e+00	 4.3014561710e-01	 2.0879510278e+00
 1.9061884741e+00	 4.6674591740e-01	 1.9778089052e+00
 1.8968458768e+00	 5.0337060873e-01	 1.8597537610e+00
 1.8867454554e+00	 5.3999799667e-01	 1.7340823968e+00
 1.8758816205e+00	 5.7660592779e-01	 1.6011084176e+00
 1.8642495986e+00	 6.1317182276e-01	 1.4611647218e+00
 1.8518454627e+00	 6.4967271171e-01	 1.3146060721e+00
 1.8386661605e+00	 6.8608527191e-01	 1.1618117128e+00
 1.8247095408e+00	 7.2238586753e-01	 1.0031879980e+00
 1.9420281026e+00	 3.5937702855e-01	 2.2715284323e+00
 1.9348724724e+00	 3.9609786103e-01	 2.1750435736e+00
 1.9269756698e+00	 4.3288539810e-01	 2.0706552053e+00
 1.9183298019e+00	 4.6971882134e-01	 1.9586115629e+00
 1.9089276977e+00	 5.0657679095e-01	 1.8391706682e+00
 1.8987629424e+00	 5.4343747436e-01	 1.7126026562e+00
 1.8878299111e+00	 5.8027857701e-01	 1.5791922536e+00
 1.8761237998e+00	 6.1707737577e-01	 1.4392413838e+00
 1.8636406567e+00	 6.5381075446e-01	 1.2930718682e+00
 1.8503774099e+00	 6.9045524179e-01	 1.1410281892e+00
 1.8363318946e+00	 7.2698705140e-01	 9.8348028007e-01
 1.9543194197e+00	 3.6165156671e-01	 2.2605833121e+00
 1.9471185007e+00	 3.9860480952e-01	 2.1609546533e+00
 1.9391717184e+00	 4.3562517911e-01	 2.0539798724e+00
 1.9304711298e+00	 4.7269172527e-01	 1.9398851741e+00
 1.9210095185e+00	 5.0978297318e-01	 1.8189041681e+00
 1.9107804294e+00	 5.4687695204e-01	 1.6912802789e+00
 1.8997782016e+00	 5.8395122623e-01	 1.5572693235e+00
 1.8879980011e+00	 6.2098292878e-01	 1.4171422323e+00
 1.8754358507e+00	 6.5794879721e-01	 1.2711878816e+00
 1.8620886593e+00	 6.9482521167e-01	 1.1197160055e+00
 1.8479542483e+00	 7.3158823526e-01	 9.6306014682e-01
 1.9666107368e+00	 3.6392610487e-01	 2.2505180317e+00
 1.9593645290e+00	 4.0111175801e-01	 2.1476095029e+00
 1.9513677669e+00	 4.3836496011e-01	 2.0379076349e+00
 1.9426124577e+00	 4.7566462921e-01	 1.9216165315e+00
 1.9330913394e+00	 5.1298915540e-01	 1.7989453297e+00
 1.9227979164e+00	 5.5031642973e-01	 1.6701106928e+00
 1.9117264922e+00	 5.8762387546e-01	 1.5353394885e+00
 1.8998722024e+00	 6.2488848179e-01	 1.3948716277e+00
 1.8872310448e+00	 6.6208683996e-01	 1.2489630303e+00
 1.8737999088e+00	 6.9919518155e-01	 1.0978886858e+00
 1.8595766021e+00	 7.3618941913e-01	 9.4194576883e-01
 1.7433530645e+00	 6.9017758046e-01	 1.1196888845e+00
 1.7292748837e+00	 7.2472986455e-01	 9.5189964680e-01
 1.7144526070e+00	 7.5912927655e-01	 7.7839405186e-01
 1.6988868935e+00	 7.9335258431e-01	 5.9963599629e-01
 1.6825793438e+00	 8.2737642706e-01	 4.1612253776e-01
 1.6655325128e+00	 8.6117736201e-01	 2.2838557603e-01
 1.6477499220e+00	 8.9473191212e-01	 3.6993312710e-02
 1.6292360671e+00	 9.2801661506e-01	-1.5744854852e-01
 1.6099964235e+00	 9.6100807296e-01	-3.5429589899e-01
 1.5900374492e+00	 9.9368300285e-01	-5.5286565481e-01
 1.5693665835e+00	 1.0260182876e+00	-7.5243555233e-01
 1.7549754183e+00	 6.9477876433e-01	 1.1054684402e+00
 1.7408033830e+00	 7.2956139697e-01	 9.3859627731e-01
 1.7258822910e+00	 7.6419013839e-01	 7.6592092060e-01
 1.7102128062e+00	 7.9864160154e-01	 5.8788864080e-01
 1.6937965394e+00	 8.3289226991e-01	 4.0497964247e-01
 1.6766360629e+00	 8.6691854442e-01	 2.1770989723e-01
 1.6587349215e+00	 9.0069679153e-01	 2.6632752642e-02
 1.6400976408e+00	 9.3420339250e-01	-1.6765972322e-01
 1.6207297330e+00	 9.6741479345e-01	-3.6453570076e-01
 1.6006376989e+00	 1.0003075562e+00	-5.6332288821e-01
 1.5798290274e+00	 1.0328584095e+00	-7.6330820615e-01
 1.7665977720e+00	 6.9937994820e-01	 1.0904112363e+00
 1.7523318822e+00	 7.3439292940e-01	 9.2438256874e-01
 1.7373119751e+00	 7.6925100023e-01	 7.5246437152e-01
 1.7215387188e+00	 8.0393061877e-01	 5.7508523228e-01
 1.7050137350e+00	 8.3840811275e-01	 3.9270845283e-01
 1.6877396130e+00	 8.7265972683e-01	 2.0583403580e-01
 1.6697199210e+00	 9.0666167094e-01	 1.5000443944e-02
 1.6509592146e+00	 9.4039016993e-01	-1.7921390972e-01
 1.6314630425e+00	 9.7382151393e-01	-3.7618948156e-01
 1.6112379485e+00	 1.0069321096e+00	-5.7526476535e-01
 1.5902914713e+00	 1.0396985314e+00	-7.7573584472e-01
 1.7782201258e+00	 7.0398113207e-01	 1.0745347071e+00
 1.7638603814e+00	 7.3922446183e-01	 9.0927841157e-01
 1.7487416591e+00	 7.7431186207e-01	 7.3804667695e-01
 1.7328646314e+00	 8.0921963599e-01	 5.6125034423e-01
 1.7162309306e+00	 8.4392395560e-01	 3.7933575642e-01
 1.6988431631e+00	 8.7840090924e-01	 1.9278690017e-01
 1.6807049204e+00	 9.1262655035e-01	 2.1273166965e-03
 1.6618207884e+00	 9.4657694736e-01	-1.9207826118e-01
 1.6421963520e+00	 9.8022823441e-01	-3.8922258820e-01
 1.6218381982e+00	 1.0135566629e+00	-5.8865494217e-01
 1.6007539152e+00	 1.0465386534e+00	-7.8968055337e-01
 1.7898424795e+00	 7.0858231593e-01	 1.0578564028e+00
 1.7753888806e+00	 7.4405599426e-01	 8.9330377375e-01
 1.7601713431e+00	 7.7937272391e-01	 7.2269014942e-01
 1.7441905440e+00	 8.1450865322e-01	 5.4640855413e-01
 1.7274481262e+00	 8.4943979844e-01	 3.6488830980e-01
 1.7099467131e+00	 8.8414209165e-01	 1.7859733395e-01
 1.6916899199e+00	 9.1859142976e-01	-1.1955796348e-02
 1.6726823622e+00	 9.5276372479e-01	-2.0622005926e-01
 1.6529296615e+00	 9.8663495490e-01	-4.0360052566e-01
 1.6324384478e+00	 1.0201812163e+00	-6.0345726095e-01
 1.6112163591e+00	 1.0533787753e+00	-8.0510463047e-01
 1.8014648333e+00	 7.1318349980e-01	 1.0403939855e+00
 1.7869173798e+00	 7.4888752668e-01	 8.7647869811e-01
 1.7716010272e+00	 7.8443358575e-01	 7.0641714037e-01
 1.7555164566e+00	 8.1979767044e-01	 5.3058444338e-01
 1.7386653219e+00	 8.5495564128e-01	 3.4939283953e-01
 1.7210502632e+00	 8.8988327406e-01	 1.6329411803e-01
 1.7026749194e+00	 9.2455630917e-01	-2.7218156623e-02
 1.6835439359e+00	 9.5895050222e-01	-2.2160670995e-01
 1.6636629710e+00	 9.9304167538e-01	-4.1928895198e-01
 1.6430386975e+00	 1.0268057696e+00	-6.1963574434e-01
 1.6216788030e+00	 1.0602188972e+00	-8.2197058046e-01
 1.8130871871e+00	 7.1778468367e-01	 1.0221652254e+00
 1.7984458791e+00	 7.5371905911e-01	 8.5882330007e-01
 1.7830307112e+00	 7.8949444759e-01	 6.8925003886e-01
 1.7668423693e+00	 8.2508668766e-01	 5.1380259715e-01
 1.7498825175e+00	 8.6047148412e-01	 3.3287604312e-01
 1.7321538133e+00	 8.9562445646e-01	 1.4690597258e-01
 1.7136599189e+00	 9.3052118858e-01	-4.3629116726e-02
 1.6944055097e+00	 9.6513727965e-01	-2.3820573954e-01
 1.6743962804e+00	 9.9944839586e-01	-4.3625367339e-01
 1.6536389472e+00	 1.0334303230e+00	-6.3715458959e-01
 1.6321412469e+00	 1.0670590191e+00	-8.4024110735e-01
 1.8247095408e+00	 7.2238586753e-01	 1.0031879980e+00
 1.8099743783e+00	 7.5855059154e-01	 8.4035776524e-01
 1.7944603953e+00	 7.9455530943e-01	 6.7121127044e-01
 1.7781682819e+00	 8.3037570489e-01	 4.9608760425e-01
 1.7610997131e+00	 8.6598732697e-01	 3.1536458996e-01
 1.7432573634e+00	 9.0136563887e-01	 1.2946155899e-01
 1.7246449183e+00	 9.3648606799e-01	-6.1158117520e-02
 1.7052670835e+00	 9.7132405707e-01	-2.5598479088e-01
 1.6851295899e+00	 1.0058551163e+00	-4.5446063953e-01
 1.6642391968e+00	 1.0400548763e+00	-6.5597816294e-01
 1.6426036908e+00	 1.0738991410e+00	-8.5987910828e-01
 1.8363318946e+00	 7.2698705140e-01	 9.8348028007e-01
 1.8215028775e+00	 7.6338212396e-01	 8.2110234726e-01
 1.8058900793e+00	 7.9961617127e-01	 6.5232329594e-01
 1.7894941945e+00	 8.3566472211e-01	 4.7746405703e-01
 1.7723169087e+00	 8.7150316981e-01	 2.9688512223e-01
 1.7543609135e+00	 9.0710682128e-01	 1.1098948175e-01
 1.7356299178e+00	 9.4245094740e-01	-7.9774685338e-02
 1.7161286573e+00	 9.7751083450e-01	-2.7491161958e-01
 1.6958628994e+00	 1.0122618368e+00	-4.7387593898e-01
 1.6748394465e+00	 1.0466794296e+00	-6.7607099430e-01
 1.6530661346e+00	 1.0807392629e+00	-8.8084766748e-01
 1.8479542483e+00	 7.3158823526e-01	 9.6306014682e-01
 1.8330313767e+00	 7.6821365638e-01	 8.0107736559e-01
 1.8173197634e+00	 8.0467703310e-01	 6.3260861037e-01
 1.8008201071e+00	 8.4095373933e-01	 4.5795655123e-01
 1.7835341043e+00	 8.7701901264e-01	 2.7746425570e-01
 1.7654644635e+00	 9.1284800368e-01	 9.1518290191e-02
 1.7466149173e+00	 9.4841582680e-01	-9.9448429296e-02
 1.7269902311e+00	 9.8369761193e-01	-2.9495409058e-01
 1.7065962089e+00	 1.0186685573e+00	-4.9446579482e-01
 1.6854396961e+00	 1.0533039830e+00	-6.9739777212e-01
 1.6635285785e+00	 1.0875793848e+00	-9.0311005031e-01
 1.8595766021e+00	 7.3618941913e-01	 9.4194576883e-01
 1.8445598760e+00	 7.7304518881e-01	 7.8030320354e-01
 1.8287494474e+00	 8.0973789494e-01	 6.1208974187e-01
 1.8121460197e+00	 8.4624275655e-01	 4.3758968595e-01
 1.7947513000e+00	 8.8253485548e-01	 2.5712858062e-01
 1.7765680136e+00	 9.1858918609e-01	 7.1076480266e-02
 1.7575999168e+00	 9.5438070621e-01	-1.2014903871e-01
 1.7378518048e+00	 9.8988438935e-01	-3.1608017465e-01
 1.7173295184e+00	 1.0250752778e+00	-5.1619656051e-01
 1.6960399458e+00	 1.0599285363e+00	-7.1992333841e-01
 1.6739910224e+00	 1.0944195068e+00	-9.2662969768e-01
 1.5693665835e+00	 1.0260182876e+00	-7.5243555233e-01
 1.5479922437e+00	 1.0579910271e+00	-9.6503121076e-01
 1.5259238176e+00	 1.0895785896e+00	-1.1509053518e+00
 1.5031716538e+00	 1.1207586623e+00	-1.3087127329e+00
 1.4797470481e+00	 1.1515093025e+00	-1.4371642221e+00
 1.4556622267e+00	 1.1818089870e+00	-1.5350315742e+00
 1.4309303270e+00	 1.2116366614e+00	-1.6011522140e+00
 1.4055653745e+00	 1.2409717878e+00	-1.6344340029e+00
 1.3795822569e+00	 1.2697943914e+00	-1.7552346333e+00
 1.3529966958e+00	 1.2980851056e+00	-1.9065585717e+00
 1.3258252147e+00	 1.3258252147e+00	-2.0353521620e+00
 1.5798290274e+00	 1.0328584095e+00	-7.6330820615e-01
 1.5583121920e+00	 1.0650443007e+00	-9.7366757629e-01
 1.5360966431e+00	 1.0968424469e+00	-1.1567059911e+00
 1.5131927982e+00	 1.1282303867e+00	-1.3110753456e+00
 1.4896120284e+00	 1.1591860312e+00	-1.4354851379e+00
 1.4653666416e+00	 1.1896877136e+00	-1.5287072490e+00
 1.4404698626e+00	 1.2197142391e+00	-1.5895807275e+00
 1.4149358103e+00	 1.2492449330e+00	-1.6170165555e+00
 1.3887794720e+00	 1.2782596873e+00	-1.7786725306e+00
 1.3620166737e+00	 1.3067390063e+00	-1.9217590128e+00
 1.3346640495e+00	 1.3346640495e+00	-2.0419559685e+00
 1.5902914713e+00	 1.0396985314e+00	-7.7573584472e-01
 1.5686321403e+00	 1.0720975742e+00	-9.8390779248e-01
 1.5462694685e+00	 1.1041063041e+00	-1.1641694480e+00
 1.5232139425e+00	 1.1357021112e+00	-1.3151698519e+00
 1.4994770087e+00	 1.1668627599e+00	-1.4356170969e+00
 1.4750710564e+00	 1.1975664402e+00	-1.5242831104e+00
 1.4500093981e+00	 1.2277918169e+00	-1.5800084401e+00
 1.4243062462e+00	 1.2575180783e+00	-1.6434446161e+00
 1.3979766870e+00	 1.2867249833e+00	-1.8016397848e+00
 1.3710366517e+00	 1.3153929070e+00	-1.9365736591e+00
 1.3435028843e+00	 1.3435028843e+00	-2.0482645206e+00
 1.6007539152e+00	 1.0465386534e+00	-7.8968055337e-01
 1.5789520886e+00	 1.0791508477e+00	-9.9571291287e-01
 1.5564422939e+00	 1.1113701614e+00	-1.1732556668e+00
 1.5332350869e+00	 1.1431738356e+00	-1.3209550118e+00
 1.5093419890e+00	 1.1745394886e+00	-1.4375176017e+00
 1.4847754712e+00	 1.2054451667e+00	-1.5217153328e+00
 1.4595489336e+00	 1.2358693946e+00	-1.5723901300e+00
 1.4336766820e+00	 1.2657912235e+00	-1.6736344929e+00
 1.4071739020e+00	 1.2951902792e+00	-1.8241339566e+00
 1.3800566297e+00	 1.3240468077e+00	-1.9509982860e+00
 1.3523417190e+00	 1.3523417190e+00	-2.0542716515e+00
 1.6112163591e+00	 1.0533787753e+00	-8.0510463047e-01
 1.5892720368e+00	 1.0862041212e+00	-1.0090442182e+00
 1.5666151194e+00	 1.1186340187e+00	-1.1839248371e+00
 1.5432562312e+00	 1.1506455600e+00	-1.3283898520e+00
 1.5192069693e+00	 1.1822162172e+00	-1.4411444468e+00
 1.4944798861e+00	 1.2133238933e+00	-1.5209604114e+00
 1.4690884691e+00	 1.2439469723e+00	-1.5666809282e+00
 1.4430471178e+00	 1.2740643688e+00	-1.7032733897e+00
 1.4163711171e+00	 1.3036555752e+00	-1.8461530349e+00
 1.3890766076e+00	 1.3327007084e+00	-1.9650291398e+00
 1.3611805538e+00	 1.3611805538e+00	-2.0599717106e+00
 1.6216788030e+00	 1.0602188972e+00	-8.2197058046e-01
 1.5995919851e+00	 1.0932573947e+00	-1.0238632092e+00
 1.5767879448e+00	 1.1258978759e+00	-1.1961373855e+00
 1.5532773756e+00	 1.1581172844e+00	-1.3374336572e+00
 1.5290719497e+00	 1.1898929459e+00	-1.4464557091e+00
 1.5041843009e+00	 1.2212026199e+00	-1.5219751519e+00
 1.4786280046e+00	 1.2520245501e+00	-1.5726539681e+00
 1.4524175536e+00	 1.2823375140e+00	-1.7323612568e+00
 1.4255683321e+00	 1.3121208711e+00	-1.8676954227e+00
 1.3980965856e+00	 1.3413546091e+00	-1.9786629220e+00
 1.3700193886e+00	 1.3700193886e+00	-2.0653595477e+00
 1.6321412469e+00	 1.0670590191e+00	-8.4024110735e-01
 1.6099119334e+00	 1.1003106682e+00	-1.0401315993e+00
 1.5869607703e+00	 1.1331617332e+00	-1.2098539686e+00
 1.5632985200e+00	 1.1655890088e+00	-1.3480459620e+00
 1.5389369300e+00	 1.1975696746e+00	-1.4534097390e+00
 1.5138887158e+00	 1.2290813465e+00	-1.5247166599e+00
 1.4881675401e+00	 1.2601021278e+00	-1.6082825300e+00
 1.4617879895e+00	 1.2906106593e+00	-1.7608984084e+00
 1.4347655472e+00	 1.3205861671e+00	-1.8887599243e+00
 1.4071165636e+00	 1.3500085098e+00	-1.9918967754e+00
 1.3788582233e+00	 1.3788582233e+00	-2.0704304965e+00
 1.6426036908e+00	 1.0738991410e+00	-8.5987910828e-01
 1.6202318817e+00	 1.1073639417e+00	-1.0578113082e+00
 1.5971335957e+00	 1.1404255904e+00	-1.2250354649e+00
 1.5733196643e+00	 1.1730607332e+00	-1.3601865430e+00
 1.5488019103e+00	 1.2052464033e+00	-1.4619651516e+00
 1.5235931306e+00	 1.2369600731e+00	-1.5291423323e+00
 1.4977070756e+00	 1.2681797056e+00	-1.6432947067e+00
 1.4711584253e+00	 1.2988838045e+00	-1.7888855116e+00
 1.4439627622e+00	 1.3290514630e+00	-1.9093457320e+00
 1.4161365416e+00	 1.3586624105e+00	-2.0047282695e+00
 1.3876970581e+00	 1.3876970581e+00	-2.0751803591e+00
 1.6530661346e+00	 1.0807392629e+00	-8.8084766748e-01
 1.6305518300e+00	 1.1144172153e+00	-1.0768644551e+00
 1.6073064212e+00	 1.1476894477e+00	-1.2416429684e+00
 1.5833408087e+00	 1.1805324577e+00	-1.3738154107e+00
 1.5586668906e+00	 1.2129231320e+00	-1.4720808183e+00
 1.5332975455e+00	 1.2448387997e+00	-1.5352098474e+00
 1.5072466112e+00	 1.2762572833e+00	-1.6776927984e+00
 1.4805288611e+00	 1.3071569498e+00	-1.8163235750e+00
 1.4531599773e+00	 1.3375167590e+00	-1.9294524144e+00
 1.4251565195e+00	 1.3673163112e+00	-2.0171553876e+00
 1.3965358929e+00	 1.3965358929e+00	-2.0796053916e+00
 1.6635285785e+00	 1.0875793848e+00	-9.0311005031e-01
 1.6408717783e+00	 1.1214704888e+00	-1.0972533524e+00
 1.6174792466e+00	 1.1549533050e+00	-1.2596377817e+00
 1.5933619530e+00	 1.1880041821e+00	-1.3888928028e+00
 1.5685318710e+00	 1.2205998607e+00	-1.4837158588e+00
 1.5430019603e+00	 1.2527175262e+00	-1.5538776785e+00
 1.5167861467e+00	 1.2843348611e+00	-1.7114794058e+00
 1.4898992970e+00	 1.3154300950e+00	-1.8432139378e+00
 1.4623571923e+00	 1.3459820549e+00	-1.9490799038e+00
 1.4341764975e+00	 1.3759702119e+00	-2.0291765129e+00
 1.4053747276e+00	 1.4053747276e+00	-2.0837022895e+00
 1.6739910224e+00	 1.0944195068e+00	-9.2662969768e-01
 1.6511917266e+00	 1.1285237623e+00	-1.1189404999e+00
 1.6276520721e+00	 1.1622171622e+00	-1.2789814093e+00
 1.6033830974e+00	 1.1954759065e+00	-1.4053791766e+00
 1.5783968513e+00	 1.2282765894e+00	-1.4968296334e+00
 1.5527063752e+00	 1.2605962528e+00	-1.5935068137e+00
 1.5263256822e+00	 1.2924124388e+00	-1.7446574202e+00
 1.4992697328e+00	 1.3237032403e+00	-1.8695582596e+00
 1.4715544074e+00	 1.3544473509e+00	-1.9682284857e+00
 1.4431964755e+00	 1.3846241126e+00	-2.0407904168e+00
 1.4142135624e+00	 1.4142135624e+00	-2.0874681740e+00
 1.3258252147e+00	 1.3258252147e+00	-2.0353521620e+00
 1.2980851056e+00	 1.3529966958e+00	-2.1616308660e+00
 1.2697943914e+00	 1.3795822569e+00	-2.2850901538e+00
 1.2409717878e+00	 1.4055653745e+00	-2.3658120021e+00
 1.2116366614e+00	 1.4309303270e+00	-2.3567962698e+00
 1.1818089870e+00	 1.4556622267e+00	-2.3476113415e+00
 1.1515093025e+00	 1.4797470481e+00	-2.3384415175e+00
 1.1207586623e+00	 1.5031716538e+00	-2.3294288404e+00
 1.0895785896e+00	 1.5259238176e+00	-2.3206739251e+00
 1.0579910271e+00	 1.5479922437e+00	-2.3122371964e+00
 1.0260182876e+00	 1.5693665835e+00	-2.3041405097e+00
 1.3346640495e+00	 1.3346640495e+00	-2.0419559685e+00
 1.3067390063e+00	 1.3620166737e+00	-2.1603141036e+00
 1.2782596873e+00	 1.3887794720e+00	-2.2771685081e+00
 1.2492449330e+00	 1.4149358103e+00	-2.3892426321e+00
 1.2197142391e+00	 1.4404698626e+00	-2.3734467055e+00
 1.1896877136e+00	 1.4653666416e+00	-2.3587888078e+00
 1.1591860312e+00	 1.4896120284e+00	-2.3454027977e+00
 1.1282303867e+00	 1.5131927982e+00	-2.3333752175e+00
 1.0968424469e+00	 1.5360966431e+00	-2.3227464254e+00
 1.0650443007e+00	 1.5583121920e+00	-2.3135121614e+00
 1.0328584095e+00	 1.5798290274e+00	-2.3056255198e+00
 1.3435028843e+00	 1.3435028843e+00	-2.0482645206e+00
 1.3153929070e+00	 1.3710366517e+00	-2.1585069008e+00
 1.2867249833e+00	 1.3979766870e+00	-2.2685453306e+00
 1.2575180783e+00	 1.4243062462e+00	-2.3784548301e+00
 1.2277918169e+00	 1.4500093981e+00	-2.3896325837e+00
 1.1975664402e+00	 1.4750710564e+00	-2.3692492286e+00
 1.1668627599e+00	 1.4994770087e+00	-2.3513855748e+00
 1.1357021112e+00	 1.5232139425e+00	-2.3360731285e+00
 1.1041063041e+00	 1.5462694685e+00	-2.3232924619e+00
 1.0720975742e+00	 1.5686321403e+00	-2.3129751071e+00
 1.0396985314e+00	 1.5902914713e+00	-2.3050058784e+00
 1.3523417190e+00	 1.3523417190e+00	-2.0542716515e+00
 1.3240468077e+00	 1.3800566297e+00	-2.1562067083e+00
 1.2951902792e+00	 1.4071739020e+00	-2.2592219622e+00
 1.2657912235e+00	 1.4336766820e+00	-2.3633617604e+00
 1.2358693946e+00	 1.4595489336e+00	-2.4053288289e+00
 1.2054451667e+00	 1.4847754712e+00	-2.3789727141e+00
 1.1745394886e+00	 1.5093419890e+00	-2.3563754548e+00
 1.1431738356e+00	 1.5332350869e+00	-2.3375139724e+00
 1.1113701614e+00	 1.5564422939e+00	-2.3223095118e+00
 1.0791508477e+00	 1.5789520886e+00	-2.3106298603e+00
 1.0465386534e+00	 1.6007539152e+00	-2.3022920195e+00
 1.3611805538e+00	 1.3611805538e+00	-2.0599717106e+00
 1.3327007084e+00	 1.3890766076e+00	-2.1534113941e+00
 1.3036555752e+00	 1.4163711171e+00	-2.2492000547e+00
 1.2740643688e+00	 1.4430471178e+00	-2.3473518965e+00
 1.2439469723e+00	 1.4690884691e+00	-2.4205104394e+00
 1.2133238933e+00	 1.4944798861e+00	-2.3879393191e+00
 1.1822162172e+00	 1.5192069693e+00	-2.3603578515e+00
 1.1506455600e+00	 1.5432562312e+00	-2.3376888140e+00
 1.1186340187e+00	 1.5666151194e+00	-2.3197945694e+00
 1.0862041212e+00	 1.5892720368e+00	-2.3064796102e+00
 1.0533787753e+00	 1.6112163591e+00	-2.2974935786e+00
 1.3700193886e+00	 1.3700193886e+00	-2.0653595477e+00
 1.3413546091e+00	 1.3980965856e+00	-2.1501192302e+00
 1.3121208711e+00	 1.4255683321e+00	-2.2384815598e+00
 1.2823375140e+00	 1.4524175536e+00	-2.3304311211e+00
 1.2520245501e+00	 1.4786280046e+00	-2.4259310512e+00
 1.2212026199e+00	 1.5041843009e+00	-2.3961290444e+00
 1.1898929459e+00	 1.5290719497e+00	-2.3633179939e+00
 1.1581172844e+00	 1.5532773756e+00	-2.3365883947e+00
 1.1258978759e+00	 1.5767879448e+00	-2.3157441613e+00
 1.0932573947e+00	 1.5995919851e+00	-2.3005269285e+00
 1.0602188972e+00	 1.6216788030e+00	-2.2906194186e+00
 1.3788582233e+00	 1.3788582233e+00	-2.0704304965e+00
 1.3500085098e+00	 1.4071165636e+00	-2.1463288796e+00
 1.3205861671e+00	 1.4347655472e+00	-2.2270687201e+00
 1.2906106593e+00	 1.4617879895e+00	-2.3126055003e+00
 1.2601021278e+00	 1.4881675401e+00	-2.4028692140e+00
 1.2290813465e+00	 1.5138887158e+00	-2.4035218390e+00
 1.1975696746e+00	 1.5389369300e+00	-2.3652409310e+00
 1.1655890088e+00	 1.5632985200e+00	-2.3342031428e+00
 1.1331617332e+00	 1.5869607703e+00	-2.3101543618e+00
 1.1003106682e+00	 1.6099119334e+00	-2.2927737895e+00
 1.0670590191e+00	 1.6321412469e+00	-2.2816776546e+00
 1.3876970581e+00	 1.3876970581e+00	-2.0751803591e+00
 1.3586624105e+00	 1.4161365416e+00	-2.1420393841e+00
 1.3290514630e+00	 1.4439627622e+00	-2.2149640597e+00
 1.2988838045e+00	 1.4711584253e+00	-2.2938812773e+00
 1.2681797056e+00	 1.4977070756e+00	-2.3786884412e+00
 1.2369600731e+00	 1.5235931306e+00	-2.4100976011e+00
 1.2052464033e+00	 1.5488019103e+00	-2.3661115385e+00
 1.1730607332e+00	 1.5733196643e+00	-2.3305231837e+00
 1.1404255904e+00	 1.5971335957e+00	-2.3030208070e+00
 1.1073639417e+00	 1.6202318817e+00	-2.2832215888e+00
 1.0738991410e+00	 1.6426036908e+00	-2.2706756776e+00
 1.3965358929e+00	 1.3965358929e+00	-2.0796053916e+00
 1.3673163112e+00	 1.4251565195e+00	-2.1372501517e+00
 1.3375167590e+00	 1.4531599773e+00	-2.2021703753e+00
 1.3071569498e+00	 1.4805288611e+00	-2.2742648675e+00
 1.2762572833e+00	 1.5072466112e+00	-2.3533989906e+00
 1.2448387997e+00	 1.5332975455e+00	-2.4158361807e+00
 1.2129231320e+00	 1.5586668906e+00	-2.3659145235e+00
 1.1805324577e+00	 1.5833408087e+00	-2.3255383490e+00
 1.1476894477e+00	 1.6073064212e+00	-2.2943387089e+00
 1.1144172153e+00	 1.6305518300e+00	-2.2718711619e+00
 1.0807392629e+00	 1.6530661346e+00	-2.2576201775e+00
 1.4053747276e+00	 1.4053747276e+00	-2.0837022895e+00
 1.3759702119e+00	 1.4341764975e+00	-2.1319609458e+00
 1.3459820549e+00	 1.4623571923e+00	-2.1886907274e+00
 1.3154300950e+00	 1.4898992970e+00	-2.2537628527e+00
 1.2843348611e+00	 1.5167861467e+00	-2.3270111824e+00
 1.2527175262e+00	 1.5430019603e+00	-2.4082312920e+00
 1.2205998607e+00	 1.5685318710e+00	-2.3646344302e+00
 1.1880041821e+00	 1.5933619530e+00	-2.3192381864e+00
 1.1549533050e+00	 1.6174792466e+00	-2.2841028683e+00
 1.1214704888e+00	 1.6408717783e+00	-2.2587228018e+00
 1.0875793848e+00	 1.6635285785e+00	-2.2425171651e+00
 1.4142135624e+00	 1.4142135624e+00	-2.0874681740e+00
 1.3846241126e+00	 1.4431964755e+00	-2.1261718736e+00
 1.3544473509e+00	 1.4715544074e+00	-2.1745284324e+00
 1.3237032403e+00	 1.4992697328e+00	-2.2323819757e+00
 1.2924124388e+00	 1.5263256822e+00	-2.2995353977e+00
 1.2605962528e+00	 1.5527063752e+00	-2.3757495565e+00
 1.2282765894e+00	 1.5783968513e+00	-2.3622556452e+00
 1.1954759065e+00	 1.6033830974e+00	-2.3116119679e+00
 1.1622171622e+00	 1.6276520721e+00	-2.2723076882e+00
 1.1285237623e+00	 1.6511917266e+00	-2.2437762755e+00
 1.0944195068e+00	 1.6739910224e+00	-2.2253719932e+00
 1.0260182876e+00	 1.5693665835e+00	-2.3041405097e+00
 9.9368300285e-01	 1.5900374492e+00	-2.2620823975e+00
 9.6100807296e-01	 1.6099964235e+00	-2.2167032166e+00
 9.2801661506e-01	 1.6292360671e+00	-2.1680979748e+00
 8.9473191212e-01	 1.6477499220e+00	-2.1163421302e+00
 8.6117736201e-01	 1.6655325128e+00	-2.0614937715e+00
 8.2737642706e-01	 1.6825793438e+00	-2.0035959421e+00
 7.9335258431e-01	 1.6988868935e+00	-1.9426790747e+00
 7.5912927655e-01	 1.7144526070e+00	-1.8787635002e+00
 7.2472986455e-01	 1.7292748837e+00	-1.8118619960e+00
 6.9017758046e-01	 1.7433530645e+00	-1.7419823398e+00
 1.0328584095e+00	 1.5798290274e+00	-2.3056255198e+00
 1.0003075562e+00	 1.6006376989e+00	-2.2649302346e+00
 9.6741479345e-01	 1.6207297330e+00	-2.2205046294e+00
 9.3420339250e-01	 1.6400976408e+00	-2.1724848861e+00
 9.0069679153e-01	 1.6587349215e+00	-2.1209879235e+00
 8.6691854442e-01	 1.6766360629e+00	-2.0661134395e+00
 8.3289226991e-01	 1.6937965394e+00	-2.0079461008e+00
 7.9864160154e-01	 1.7102128062e+00	-1.9465578474e+00
 7.6419013839e-01	 1.7258822910e+00	-1.8820102769e+00
 7.2956139697e-01	 1.7408033830e+00	-1.8143570722e+00
 6.9477876433e-01	 1.7549754183e+00	-1.7436464411e+00
 1.0396985314e+00	 1.5902914713e+00	-2.3050058784e+00
 1.0069321096e+00	 1.6112379485e+00	-2.2659327179e+00
 9.7382151393e-01	 1.6314630425e+00	-2.2227297487e+00
 9.4039016993e-01	 1.6509592146e+00	-2.1755736201e+00
 9.0666167094e-01	 1.6697199210e+00	-2.1246219828e+00
 8.7265972683e-01	 1.6877396130e+00	-2.0700153947e+00
 8.3840811275e-01	 1.7050137350e+00	-2.0118793816e+00
 8.0393061877e-01	 1.7215387188e+00	-1.9503266146e+00
 7.6925100023e-01	 1.7373119751e+00	-1.8854591725e+00
 7.3439292940e-01	 1.7523318822e+00	-1.8173708542e+00
 6.9937994820e-01	 1.7665977720e+00	-1.7461495062e+00
 1.0465386534e+00	 1.6007539152e+00	-2.3022920195e+00
 1.0135566629e+00	 1.6218381982e+00	-2.2650961794e+00
 9.8022823441e-01	 1.6421963520e+00	-2.2233807201e+00
 9.4657694736e-01	 1.6618207884e+00	-2.1773620601e+00
 9.1262655035e-01	 1.6807049204e+00	-2.1272378597e+00
 8.7840090924e-01	 1.6988431631e+00	-2.0731887965e+00
 8.4392395560e-01	 1.7162309306e+00	-2.0153804982e+00
 8.0921963599e-01	 1.7328646314e+00	-1.9539655980e+00
 7.7431186207e-01	 1.7487416591e+00	-1.8890858790e+00
 7.3922446183e-01	 1.7638603814e+00	-1.8208744735e+00
 7.0398113207e-01	 1.7782201258e+00	-1.7494580833e+00
 1.0533787753e+00	 1.6112163591e+00	-2.2974935786e+00
 1.0201812163e+00	 1.6324384478e+00	-2.2624262710e+00
 9.8663495490e-01	 1.6529296615e+00	-2.2224591315e+00
 9.5276372479e-01	 1.6726823622e+00	-2.1778476560e+00
 9.1859142976e-01	 1.6916899199e+00	-2.1288288003e+00
 8.8414209165e-01	 1.7099467131e+00	-2.0756226280e+00
 8.4943979844e-01	 1.7274481262e+00	-2.0184341195e+00
 8.1450865322e-01	 1.7441905440e+00	-1.9574551087e+00
 7.7937272391e-01	 1.7601713431e+00	-1.8928663128e+00
 7.4405599426e-01	 1.7753888806e+00	-1.8248394227e+00
 7.0858231593e-01	 1.7898424795e+00	-1.7535392190e+00
 1.0602188972e+00	 1.6216788030e+00	-2.2906194186e+00
 1.0268057696e+00	 1.6430386975e+00	-2.2579279874e+00
 9.9304167538e-01	 1.6636629710e+00	-2.2199660309e+00
 9.5895050222e-01	 1.6835439359e+00	-2.1770274386e+00
 9.2455630917e-01	 1.7026749194e+00	-2.1293877546e+00
 8.8988327406e-01	 1.7210502632e+00	-2.0773057020e+00
 8.5495564128e-01	 1.7386653219e+00	-2.0210248719e+00
 8.1979767044e-01	 1.7555164566e+00	-1.9607755443e+00
 7.8443358575e-01	 1.7716010272e+00	-1.8967766080e+00
 7.4888752668e-01	 1.7869173798e+00	-1.8292375442e+00
 7.1318349980e-01	 1.8014648333e+00	-1.7583604430e+00
 1.0670590191e+00	 1.6321412469e+00	-2.2816776546e+00
 1.0334303230e+00	 1.6536389472e+00	-2.2516056860e+00
 9.9944839586e-01	 1.6743962804e+00	-2.2159019438e+00
 9.6513727965e-01	 1.6944055097e+00	-2.1748980330e+00
 9.3052118858e-01	 1.7136599189e+00	-2.1289073862e+00
 8.9562445646e-01	 1.7321538133e+00	-2.0782266664e+00
 8.6047148412e-01	 1.7498825175e+00	-2.0231373401e+00
 8.2508668766e-01	 1.7668423693e+00	-1.9639073864e+00
 7.8949444759e-01	 1.7830307112e+00	-1.9007931090e+00
 7.5371905911e-01	 1.7984458791e+00	-1.8340410187e+00
 7.1778468367e-01	 1.8130871871e+00	-1.7638897521e+00
 1.0738991410e+00	 1.6426036908e+00	-2.2706756776e+00
 1.0400548763e+00	 1.6642391968e+00	-2.2434631084e+00
 1.0058551163e+00	 1.6851295899e+00	-2.2102668896e+00
 9.7132405707e-01	 1.7052670835e+00	-2.1714556716e+00
 9.3648606799e-01	 1.7246449183e+00	-2.1273800814e+00
 9.0136563887e-01	 1.7432573634e+00	-2.0783740094e+00
 8.6598732697e-01	 1.7610997131e+00	-2.0247560690e+00
 8.3037570489e-01	 1.7781682819e+00	-1.9668311972e+00
 7.9455530943e-01	 1.7944603953e+00	-1.9048923638e+00
 7.5855059154e-01	 1.8099743783e+00	-1.8392223543e+00
 7.2238586753e-01	 1.8247095408e+00	-1.7700955955e+00
 1.0807392629e+00	 1.6530661346e+00	-2.2576201775e+00
 1.0466794296e+00	 1.6748394465e+00	-2.2335033989e+00
 1.0122618368e+00	 1.6958628994e+00	-2.2030603980e+00
 9.7751083450e-01	 1.7161286573e+00	-2.1666962061e+00
 9.4245094740e-01	 1.7356299178e+00	-2.1247979579e+00
 9.0710682128e-01	 1.7543609135e+00	-2.0777360645e+00
 8.7150316981e-01	 1.7723169087e+00	-2.0258655642e+00
 8.3566472211e-01	 1.7894941945e+00	-1.9695276179e+00
 7.9961617127e-01	 1.8058900793e+00	-1.9090511179e+00
 7.6338212396e-01	 1.8215028775e+00	-1.8447543764e+00
 7.2698705140e-01	 1.8363318946e+00	-1.7769468606e+00
 1.0875793848e+00	 1.6635285785e+00	-2.2425171651e+00
 1.0533039830e+00	 1.6854396961e+00	-2.2217291238e+00
 1.0186685573e+00	 1.7065962089e+00	-2.1942815242e+00
 9.8369761193e-01	 1.7269902311e+00	-2.1606151201e+00
 9.4841582680e-01	 1.7466149173e+00	-2.1211528732e+00
 9.1284800368e-01	 1.7654644635e+00	-2.0763010156e+00
 8.7701901264e-01	 1.7835341043e+00	-2.0264502941e+00
 8.4095373933e-01	 1.8008201071e+00	-1.9719773655e+00
 8.0467703310e-01	 1.8173197634e+00	-1.9132463079e+00
 7.6821365638e-01	 1.8330313767e+00	-1.8506102179e+00
 7.3158823526e-01	 1.8479542483e+00	-1.7844128590e+00
 1.0944195068e+00	 1.6739910224e+00	-2.2253719932e+00
 1.0599285363e+00	 1.6960399458e+00	-2.2081422893e+00
 1.0250752778e+00	 1.7173295184e+00	-2.1839288635e+00
 9.8988438935e-01	 1.7378518048e+00	-2.1532075402e+00
 9.5438070621e-01	 1.7575999168e+00	-2.1164364332e+00
 9.1858918609e-01	 1.7765680136e+00	-2.0740569012e+00
 8.8253485548e-01	 1.7947513000e+00	-2.0264946903e+00
 8.4624275655e-01	 1.8121460197e+00	-1.9741612306e+00
 8.0973789494e-01	 1.8287494474e+00	-1.9174550554e+00
 7.7304518881e-01	 1.8445598760e+00	-1.8567633091e+00
 7.3618941913e-01	 1.8595766021e+00	-1.7924633135e+00
 6.9017758046e-01	 1.7433530645e+00	-1.7419823398e+00
 6.5549548273e-01	 1.7566874145e+00	-1.6843665799e+00
 6.2070641247e-01	 1.7692791045e+00	-1.6239123907e+00
 5.8583295169e-01	 1.7811301897e+00	-1.5608309209e+00
 5.5089738324e-01	 1.7922435865e+00	-1.4953317167e+00
 5.1592165286e-01	 1.8026230466e+00	-1.4276242217e+00
 4.8092733318e-01	 1.8122731307e+00	-1.3579191740e+00
 4.4593558987e-01	 1.8211991790e+00	-1.2864298842e+00
 4.1096715009e-01	 1.8294072815e+00	-1.2133733797e+00
 3.7604227311e-01	 1.8369042460e+00	-1.1389714045e+00
 3.4118072329e-01	 1.8436975658e+00	-1.0634512673e+00
 6.9477876433e-01	 1.7549754183e+00	-1.7436464411e+00
 6.5986545261e-01	 1.7683986639e+00	-1.6863171171e+00
 6.2484445522e-01	 1.7810742985e+00	-1.6264964313e+00
 5.8973850470e-01	 1.7930043910e+00	-1.5643268567e+00
 5.5457003246e-01	 1.8041918770e+00	-1.4999501756e+00
 5.1936113055e-01	 1.8146405336e+00	-1.4335092652e+00
 4.8413351540e-01	 1.8243549516e+00	-1.3651497618e+00
 4.4890849380e-01	 1.8333405069e+00	-1.2950215888e+00
 4.1370693109e-01	 1.8416033300e+00	-1.2232803318e+00
 3.7854922160e-01	 1.8491502743e+00	-1.1500884493e+00
 3.4345526144e-01	 1.8559888829e+00	-1.0756163105e+00
 6.9937994820e-01	 1.7665977720e+00	-1.7461495062e+00
 6.6423542250e-01	 1.7801099133e+00	-1.6888500313e+00
 6.2898249797e-01	 1.7928694925e+00	-1.6294057695e+00
 5.9364405771e-01	 1.8048785923e+00	-1.5678908070e+00
 5.5824268168e-01	 1.8161401676e+00	-1.5043794459e+00
 5.2280060824e-01	 1.8266580206e+00	-1.4389482729e+00
 4.8733969762e-01	 1.8364367724e+00	-1.3716780927e+00
 4.5188139773e-01	 1.8454818348e+00	-1.3026557050e+00
 4.1644671209e-01	 1.8537993786e+00	-1.2319755102e+00
 3.8105617009e-01	 1.8613963026e+00	-1.1597409313e+00
 3.4572979960e-01	 1.8682802000e+00	-1.0860656415e+00
 7.0398113207e-01	 1.7782201258e+00	-1.7494580833e+00
 6.6860539238e-01	 1.7918211628e+00	-1.6919386385e+00
 6.3312054072e-01	 1.8046646866e+00	-1.6326205313e+00
 5.9754961072e-01	 1.8167527935e+00	-1.5715097371e+00
 5.6191533091e-01	 1.8280884582e+00	-1.5086133465e+00
 5.2624008592e-01	 1.8386755075e+00	-1.4439419197e+00
 4.9054587984e-01	 1.8485185933e+00	-1.3775116862e+00
 4.5485430167e-01	 1.8576231626e+00	-1.3093465728e+00
 4.1918649309e-01	 1.8659954271e+00	-1.2394800394e+00
 3.8356311858e-01	 1.8736423309e+00	-1.1679567115e+00
 3.4800433776e-01	 1.8805715171e+00	-1.0948337985e+00
 7.0858231593e-01	 1.7898424795e+00	-1.7535392190e+00
 6.7297536226e-01	 1.8035324122e+00	-1.6955565966e+00
 6.3725858347e-01	 1.8164598806e+00	-1.6361210274e+00
 6.0145516373e-01	 1.8286269948e+00	-1.5751706381e+00
 5.6558798013e-01	 1.8400367488e+00	-1.5126455645e+00
 5.2967956361e-01	 1.8506929945e+00	-1.4484905899e+00
 4.9375206206e-01	 1.8606004142e+00	-1.3826576133e+00
 4.5782720560e-01	 1.8697644905e+00	-1.3151079267e+00
 4.2192627409e-01	 1.8781914757e+00	-1.2458142820e+00
 3.8607006707e-01	 1.8858883592e+00	-1.1747627340e+00
 3.5027887591e-01	 1.8928628342e+00	-1.1019542489e+00
 7.1318349980e-01	 1.8014648333e+00	-1.7583604430e+00
 6.7734533215e-01	 1.8152436616e+00	-1.6996778945e+00
 6.4139662622e-01	 1.8282550746e+00	-1.6398877468e+00
 6.0536071674e-01	 1.8405011961e+00	-1.5788605270e+00
 5.6926062935e-01	 1.8519850393e+00	-1.5164696592e+00
 5.3311904130e-01	 1.8627104815e+00	-1.4525943872e+00
 4.9695824429e-01	 1.8726822351e+00	-1.3871225115e+00
 4.6080010953e-01	 1.8819058183e+00	-1.3199529155e+00
 4.2466605510e-01	 1.8903875242e+00	-1.2509978637e+00
 3.8857701556e-01	 1.8981343875e+00	-1.1801850554e+00
 3.5255341407e-01	 1.9051541513e+00	-1.1074594234e+00
 7.1778468367e-01	 1.8130871871e+00	-1.7638897521e+00
 6.8171530203e-01	 1.8269549110e+00	-1.7042768414e+00
 6.4553466897e-01	 1.8400502687e+00	-1.6439013512e+00
 6.0926626975e-01	 1.8523753973e+00	-1.5825664452e+00
 5.7293327857e-01	 1.8639333299e+00	-1.5200790660e+00
 5.3655851898e-01	 1.8747279685e+00	-1.4562531433e+00
 5.0016442651e-01	 1.8847640559e+00	-1.3909125984e+00
 4.6377301347e-01	 1.8940471462e+00	-1.3238941207e+00
 4.2740583610e-01	 1.9025835728e+00	-1.2550496963e+00
 3.9108396405e-01	 1.9103804158e+00	-1.1842488730e+00
 3.5482795223e-01	 1.9174454684e+00	-1.1113807495e+00
 7.2238586753e-01	 1.8247095408e+00	-1.7700955955e+00
 6.8608527191e-01	 1.8386661605e+00	-1.7093280569e+00
 6.4967271171e-01	 1.8518454627e+00	-1.6481426698e+00
 6.1317182276e-01	 1.8642495986e+00	-1.5862754580e+00
 5.7660592779e-01	 1.8758816205e+00	-1.5234671008e+00
 5.3999799667e-01	 1.8867454554e+00	-1.4594664267e+00
 5.0337060873e-01	 1.8968458768e+00	-1.3940336854e+00
 4.6674591740e-01	 1.9061884741e+00	-1.3269435749e+00
 4.3014561710e-01	 1.9147796213e+00	-1.2579880008e+00
 3.9359091254e-01	 1.9226264441e+00	-1.1869785526e+00
 3.5710249039e-01	 1.9297367855e+00	-1.1137486832e+00
 7.2698705140e-01	 1.8363318946e+00	-1.7769468606e+00
 6.9045524179e-01	 1.8503774099e+00	-1.7148064606e+00
 6.5381075446e-01	 1.8636406567e+00	-1.6525926934e+00
 6.1707737577e-01	 1.8761237998e+00	-1.5899746537e+00
 5.8027857701e-01	 1.8878299111e+00	-1.5266269637e+00
 5.4343747436e-01	 1.8987629424e+00	-1.4622335511e+00
 5.0657679095e-01	 1.9089276977e+00	-1.3964911902e+00
 4.6971882134e-01	 1.9183298019e+00	-1.3291127788e+00
 4.3288539810e-01	 1.9269756698e+00	-1.2598303290e+00
 3.9609786103e-01	 1.9348724724e+00	-1.1883976543e+00
 3.5937702855e-01	 1.9420281026e+00	-1.1145927402e+00
 7.3158823526e-01	 1.8479542483e+00	-1.7844128590e+00
 6.9482521167e-01	 1.8620886593e+00	-1.7206872633e+00
 6.5794879721e-01	 1.8754358507e+00	-1.6572325698e+00
 6.2098292878e-01	 1.8879980011e+00	-1.5936511432e+00
 5.8395122623e-01	 1.8997782016e+00	-1.5295517423e+00
 5.4687695204e-01	 1.9107804294e+00	-1.4645535832e+00
 5.0978297318e-01	 1.9210095185e+00	-1.3982901494e+00
 4.7269172527e-01	 1.9304711298e+00	-1.3304127185e+00
 4.3562517911e-01	 1.9391717184e+00	-1.2605935850e+00
 3.9860480952e-01	 1.9471185007e+00	-1.1885289584e+00
 3.6165156671e-01	 1.9543194197e+00	-1.1139415248e+00
 7.3618941913e-01	 1.8595766021e+00	-1.7924633135e+00
 6.9919518155e-01	 1.8737999088e+00	-1.7269459576e+00
 6.6208683996e-01	 1.8872310448e+00	-1.6620435988e+00
 6.2488848179e-01	 1.8998722024e+00	-1.5972920590e+00
 5.8762387546e-01	 1.9117264922e+00	-1.5322344154e+00
 5.5031642973e-01	 1.9227979164e+00	-1.4664253507e+00
 5.1298915540e-01	 1.9330913394e+00	-1.3994352302e+00
 4.7566462921e-01	 1.9426124577e+00	-1.3308538809e+00
 4.3836496011e-01	 1.9513677669e+00	-1.2602940449e+00
 4.0111175801e-01	 1.9593645290e+00	-1.1873944893e+00
 3.6392610487e-01	 1.9666107368e+00	-1.1118227589e+00
 3.4118072329e-01	 1.8436975658e+00	-1.0634512673e+00
 3.0640174533e-01	 1.8497953861e+00	-1.0035060485e+00
 2.7172404193e-01	 1.8552064697e+00	-9.4744973962e-01
 2.3716575372e-01	 1.8599401617e+00	-8.9458484757e-01
 2.0274444155e-01	 1.8640063550e+00	-8.4424298475e-01
 1.6847707106e-01	 1.8674154537e+00	-7.9578749690e-01
 1.3437999951e-01	 1.8701783380e+00	-7.4861570631e-01
 1.0046896479e-01	 1.8723063283e+00	-7.0216077673e-01
 6.6759076657e-02	 1.8738111500e+00	-6.5589320886e-01
 3.3264809970e-02	 1.8747048974e+00	-6.0932197830e-01
 0.0000000000e+00	 1.8750000000e+00	-5.6199533064e-01
 3.4345526144e-01	 1.8559888829e+00	-1.0756163105e+00
 3.0844442363e-01	 1.8621273554e+00	-1.0120144994e+00
 2.7353553554e-01	 1.8675745128e+00	-9.5309134681e-01
 2.3874685874e-01	 1.8723397628e+00	-8.9820671114e-01
 2.0409607116e-01	 1.8764330640e+00	-8.4674476987e-01
 1.6960025153e-01	 1.8798648900e+00	-7.9811667300e-01
 1.3527586617e-01	 1.8826461935e+00	-7.5176283139e-01
 1.0113875789e-01	 1.8847883705e+00	-7.0715484411e-01
 6.7204137168e-02	 1.8863032243e+00	-6.6379707266e-01
 3.3486575369e-02	 1.8872029301e+00	-6.2122787248e-01
 0.0000000000e+00	 1.8875000000e+00	-5.7902049516e-01
 3.4572979960e-01	 1.8682802000e+00	-1.0860656415e+00
 3.1048710194e-01	 1.8744593246e+00	-1.0193896335e+00
 2.7534702916e-01	 1.8799425559e+00	-9.5816610860e-01
 2.4032796377e-01	 1.8847393639e+00	-9.0181151128e-01
 2.0544770077e-01	 1.8888597731e+00	-8.4976188212e-01
 1.7072343201e-01	 1.8923143264e+00	-8.0147553766e-01
 1.3617173283e-01	 1.8951140491e+00	-7.5643540367e-01
 1.0180855099e-01	 1.8972704127e+00	-7.1415100469e-01
 6.7649197680e-02	 1.8987952986e+00	-6.7416011625e-01
 3.3708340769e-02	 1.8997009627e+00	-6.3603008917e-01
 0.0000000000e+00	 1.9000000000e+00	-5.9935885774e-01
 3.4800433776e-01	 1.8805715171e+00	-1.0948337985e+00
 3.1252978024e-01	 1.8867912938e+00	-1.0256562886e+00
 2.7715852277e-01	 1.8923105990e+00	-9.6268943500e-01
 2.4190906879e-01	 1.8971389650e+00	-9.0540551212e-01
 2.0679933038e-01	 1.9012864821e+00	-8.5329173027e-01
 1.7184661248e-01	 1.9047637627e+00	-8.0585294247e-01
 1.3706759950e-01	 1.9075819047e+00	-7.6261402256e-01
 1.0247834409e-01	 1.9097524549e+00	-7.2312191660e-01
 6.8094258191e-02	 1.9112873730e+00	-6.8694737259e-01
 3.3930106169e-02	 1.9121989954e+00	-6.5368635661e-01
 0.0000000000e+00	 1.9125000000e+00	-6.2296116588e-01
 3.5027887591e-01	 1.8928628342e+00	-1.1019542489e+00
 3.1457245854e-01	 1.8991232631e+00	-1.0308385027e+00
 2.7897001638e-01	 1.9046786422e+00	-9.6667619999e-01
 2.4349017382e-01	 1.9095385661e+00	-9.0899469793e-01
 2.0815095999e-01	 1.9137131911e+00	-8.5733169148e-01
 1.7296979296e-01	 1.9172131991e+00	-8.1123794744e-01
 1.3796346616e-01	 1.9200497603e+00	-7.7027972750e-01
 1.0314813719e-01	 1.9222344971e+00	-7.3404090109e-01
 6.8539318703e-02	 1.9237794473e+00	-7.0212475209e-01
 3.4151871570e-02	 1.9246970280e+00	-6.7415548591e-01
 0.0000000000e+00	 1.9250000000e+00	-6.4977944637e-01
 3.5255341407e-01	 1.9051541513e+00	-1.1074594234e+00
 3.1661513685e-01	 1.9114552323e+00	-1.0349595397e+00
 2.8078151000e-01	 1.9170466853e+00	-9.7014075881e-01
 2.4507127885e-01	 1.9219381671e+00	-9.1258478215e-01
 2.0950258961e-01	 1.9261399002e+00	-8.6187911226e-01
 1.7409297343e-01	 1.9296626354e+00	-8.1761981427e-01
 1.3885933283e-01	 1.9325176159e+00	-7.7941398382e-01
 1.0381793029e-01	 1.9347165393e+00	-7.4688192118e-01
 6.8984379215e-02	 1.9362715216e+00	-7.1965901432e-01
 3.4373636970e-02	 1.9371950607e+00	-6.9739733612e-01
 0.0000000000e+00	 1.9375000000e+00	-6.7976696401e-01
 3.5482795223e-01	 1.9174454684e+00	-1.1113807495e+00
 3.1865781515e-01	 1.9237872016e+00	-1.0380419143e+00
 2.8259300362e-01	 1.9294147284e+00	-9.7309696457e-01
 2.4665238388e-01	 1.9343377682e+00	-9.1618121603e-01
 2.1085421922e-01	 1.9385666092e+00	-8.6693130950e-01
 1.7521615391e-01	 1.9421120718e+00	-8.2498799988e-01
 1.3975519949e-01	 1.9449854715e+00	-7.8999866907e-01
 1.0448772339e-01	 1.9471985815e+00	-7.6161956108e-01
 6.9429439728e-02	 1.9487635960e+00	-7.3951774080e-01
 3.4595402371e-02	 1.9496930933e+00	-7.2337278067e-01
 0.0000000000e+00	 1.9500000000e+00	-7.1287818195e-01
 3.5710249039e-01	 1.9297367855e+00	-1.1137486832e+00
 3.2070049346e-01	 1.9361191708e+00	-1.0401074158e+00
 2.8440449723e-01	 1.9417827716e+00	-9.7555818428e-01
 2.4823348890e-01	 1.9467373693e+00	-9.1978919706e-01
 2.1220584883e-01	 1.9509933182e+00	-8.7248557139e-01
 1.7633933439e-01	 1.9545615082e+00	-8.3333215019e-01
 1.4065106616e-01	 1.9574533271e+00	-8.0201605991e-01
 1.0515751649e-01	 1.9596806237e+00	-7.7822900636e-01
 6.9874500241e-02	 1.9612556703e+00	-7.6166930878e-01
 3.4817167771e-02	 1.9621911260e+00	-7.5204367502e-01
 0.0000000000e+00	 1.9625000000e+00	-7.4906872351e-01
 3.5937702855e-01	 1.9420281026e+00	-1.1145927402e+00
 3.2274317177e-01	 1.9484511400e+00	-1.0411771312e+00
 2.8621599085e-01	 1.9541508147e+00	-9.7753731418e-01
 2.4981459393e-01	 1.9591369704e+00	-9.2341367690e-01
 2.1355747845e-01	 1.9634200273e+00	-8.7853915835e-01
 1.7746251487e-01	 1.9670109445e+00	-8.4264209417e-01
 1.4154693283e-01	 1.9699211826e+00	-8.1544881944e-01
 1.0582730959e-01	 1.9721626658e+00	-7.9668602498e-01
 7.0319560754e-02	 1.9737477446e+00	-7.8608286612e-01
 3.5038933172e-02	 1.9746891586e+00	-7.8337282565e-01
 0.0000000000e+00	 1.9750000000e+00	-7.8829533546e-01
 3.6165156671e-01	 1.9543194197e+00	-1.1139415248e+00
 3.2478585007e-01	 1.9607831093e+00	-1.0412714669e+00
 2.8802748447e-01	 1.9665188578e+00	-9.7904679461e-01
 2.5139569896e-01	 1.9715365715e+00	-9.2705936919e-01
 2.1490910806e-01	 1.9758467363e+00	-8.8508930386e-01
 1.7858569534e-01	 1.9794603809e+00	-8.5290783802e-01
 1.4244279949e-01	 1.9823890382e+00	-8.3027998508e-01
 1.0649710269e-01	 1.9846447080e+00	-8.1696694895e-01
 7.0764621268e-02	 1.9862398189e+00	-8.1272830699e-01
 3.5260698574e-02	 1.9871871913e+00	-8.1732396005e-01
 0.0000000000e+00	 1.9875000000e+00	-8.3051585271e-01
 3.6392610487e-01	 1.9666107368e+00	-1.1118227589e+00
 3.2682852838e-01	 1.9731150785e+00	-1.0404101703e+00
 2.8983897809e-01	 1.9788869010e+00	-9.8009862419e-01
 2.5297680400e-01	 1.9839361725e+00	-9.3073075696e-01
 2.1626073768e-01	 1.9882734453e+00	-8.9213321535e-01
 1.7970887582e-01	 1.9919098172e+00	-8.6411955971e-01
 1.4333866616e-01	 1.9948568938e+00	-8.4649295689e-01
 1.0716689579e-01	 1.9971267502e+00	-8.3904865670e-01
 7.1209681781e-02	 1.9987318933e+00	-8.4157624862e-01
 3.5482463975e-02	 1.9996852239e+00	-8.5386169806e-01
 0.0000000000e+00	 2.0000000000e+00	-8.7568916431e-01
