patch_n	x	y	stress_yy
0	 0.000000000000000e+00	 0.000000000000000e+00	-4.892865230769231e+00
0	 0.000000000000000e+00	 1.250000000000000e-01	-1.999570719076923e+00
0	 0.000000000000000e+00	 2.500000000000000e-01	 9.892580467692302e-01
0	 0.000000000000000e+00	 3.750000000000001e-01	 4.073621066769232e+00
0	 0.000000000000000e+00	 5.000000000000000e-01	 7.253518340923078e+00
0	 0.000000000000000e+00	 6.250000000000000e-01	 1.052894986923077e+01
0	 0.000000000000000e+00	 7.500000000000000e-01	 1.389991565169231e+01
0	 0.000000000000000e+00	 8.750000000000000e-01	 1.736641568830769e+01
0	 0.000000000000000e+00	 1.000000000000000e+00	 2.092844997907692e+01
0	 0.000000000000000e+00	 1.125000000000000e+00	 2.458601852400000e+01
0	 0.000000000000000e+00	 1.250000000000000e+00	 2.833912132307692e+01
0	 1.250000000000000e-01	 0.000000000000000e+00	-4.804578061538462e+00
0	 1.250000000000000e-01	 1.250000000000000e-01	-1.894494705446153e+00
0	 1.249999999999999e-01	 2.499999999999999e-01	 1.097005353599999e+00
0	 1.250000000000000e-01	 3.750000000000001e-01	 4.169922115600001e+00
0	 1.250000000000000e-01	 4.999999999999998e-01	 7.324255580553845e+00
0	 1.250000000000000e-01	 6.250000000000001e-01	 1.056000574846153e+01
0	 1.250000000000000e-01	 7.500000000000000e-01	 1.387717261932308e+01
0	 1.250000000000000e-01	 8.750000000000000e-01	 1.727575619313846e+01
0	 1.250000000000000e-01	 1.000000000000000e+00	 2.075575646990769e+01
0	 1.250000000000000e-01	 1.125000000000000e+00	 2.431717344963076e+01
0	 1.250000000000000e-01	 1.250000000000000e+00	 2.796000713230770e+01
0	 2.500000000000000e-01	 0.000000000000000e+00	-4.592521846153845e+00
0	 2.500000000000000e-01	 1.250000000000000e-01	-1.693558257969231e+00
0	 2.499999999999999e-01	 2.499999999999999e-01	 1.272704481969230e+00
0	 2.500000000000000e-01	 3.750000000000000e-01	 4.306266373661539e+00
0	 2.500000000000001e-01	 5.000000000000001e-01	 7.407127417107695e+00
0	 2.500000000000001e-01	 6.250000000000001e-01	 1.057528761230769e+01
0	 2.499999999999999e-01	 7.500000000000000e-01	 1.381074695926154e+01
0	 2.500000000000000e-01	 8.750000000000000e-01	 1.711350545796923e+01
0	 2.500000000000000e-01	 9.999999999999998e-01	 2.048356310843076e+01
0	 2.500000000000001e-01	 1.125000000000000e+00	 2.392091991064616e+01
0	 2.500000000000000e-01	 1.250000000000000e+00	 2.742557586461538e+01
0	 3.750000000000001e-01	 0.000000000000000e+00	-4.256696584615384e+00
0	 3.750000000000001e-01	 1.250000000000000e-01	-1.396761376646154e+00
0	 3.750000000000002e-01	 2.500000000000001e-01	 1.516355431876923e+00
0	 3.750000000000000e-01	 3.750000000000000e-01	 4.482653840953846e+00
0	 3.750000000000000e-01	 5.000000000000000e-01	 7.502133850584617e+00
0	 3.750000000000001e-01	 6.250000000000000e-01	 1.057479546076923e+01
0	 3.750000000000001e-01	 7.499999999999999e-01	 1.370063867150769e+01
0	 3.750000000000001e-01	 8.750000000000001e-01	 1.687966348279999e+01
0	 3.750000000000000e-01	 9.999999999999998e-01	 2.011186989464614e+01
0	 3.750000000000001e-01	 1.125000000000000e+00	 2.339725790704615e+01
0	 3.750000000000001e-01	 1.250000000000000e+00	 2.673582752000000e+01
0	 5.000000000000000e-01	 0.000000000000000e+00	-3.797102276923077e+00
0	 4.999999999999999e-01	 1.250000000000000e-01	-1.004104061476923e+00
0	 5.000000000000000e-01	 2.500000000000001e-01	 1.827958203323076e+00
0	 5.000000000000000e-01	 3.750000000000000e-01	 4.699084517476924e+00
0	 5.000000000000000e-01	 5.000000000000000e-01	 7.609274880984617e+00
0	 5.000000000000001e-01	 6.250000000000000e-01	 1.055852929384616e+01
0	 5.000000000000001e-01	 7.500000000000001e-01	 1.354684775606154e+01
0	 5.000000000000000e-01	 8.750000000000000e-01	 1.657423026763076e+01
0	 5.000000000000000e-01	 1.000000000000000e+00	 1.964067682855384e+01
0	 4.999999999999999e-01	 1.125000000000000e+00	 2.274618743883076e+01
0	 5.000000000000000e-01	 1.250000000000000e+00	 2.589076209846154e+01
0	 6.250000000000000e-01	 0.000000000000000e+00	-3.213738923076923e+00
0	 6.250000000000001e-01	 1.250000000000000e-01	-5.155863124615379e-01
0	 6.250000000000001e-01	 2.500000000000001e-01	 2.207512796307692e+00
0	 6.250000000000001e-01	 3.750000000000001e-01	 4.955558403230770e+00
0	 6.250000000000000e-01	 5.000000000000000e-01	 7.728550508307692e+00
0	 6.250000000000000e-01	 6.250000000000000e-01	 1.052648911153846e+01
0	 6.250000000000000e-01	 7.500000000000000e-01	 1.334937421292307e+01
0	 6.250000000000000e-01	 8.750000000000000e-01	 1.619720581246154e+01
0	 6.250000000000000e-01	 9.999999999999999e-01	 1.906998391015384e+01
0	 6.249999999999999e-01	 1.125000000000000e+00	 2.196770850600000e+01
0	 6.250000000000000e-01	 1.250000000000000e+00	 2.489037960000000e+01
0	 7.500000000000000e-01	 0.000000000000000e+00	-2.506606523076923e+00
0	 7.500000000000000e-01	 1.250000000000000e-01	 6.879187040000101e-02
0	 7.500000000000000e-01	 2.499999999999999e-01	 2.655019210830769e+00
0	 7.499999999999999e-01	 3.750000000000000e-01	 5.252075498215385e+00
0	 7.500000000000002e-01	 5.000000000000001e-01	 7.859960732553844e+00
0	 7.500000000000000e-01	 6.250000000000000e-01	 1.047867491384615e+01
0	 7.499999999999999e-01	 7.499999999999999e-01	 1.310821804209231e+01
0	 7.500000000000000e-01	 8.750000000000000e-01	 1.574859011729230e+01
0	 7.499999999999999e-01	 9.999999999999997e-01	 1.839979113944614e+01
0	 7.500000000000000e-01	 1.125000000000000e+00	 2.106182110855384e+01
0	 7.500000000000000e-01	 1.250000000000000e+00	 2.373468002461539e+01
0	 8.750000000000000e-01	 0.000000000000000e+00	-1.675705076923077e+00
0	 8.749999999999998e-01	 1.250000000000000e-01	 7.490304871076914e-01
0	 8.750000000000000e-01	 2.500000000000001e-01	 3.170477446892308e+00
0	 8.750000000000000e-01	 3.750000000000001e-01	 5.588635802430769e+00
0	 8.750000000000000e-01	 5.000000000000000e-01	 8.003505553723073e+00
0	 8.749999999999998e-01	 6.250000000000000e-01	 1.041508670076923e+01
0	 8.750000000000000e-01	 7.499999999999999e-01	 1.282337924356923e+01
0	 8.749999999999999e-01	 8.749999999999999e-01	 1.522838318212307e+01
0	 8.750000000000000e-01	 9.999999999999998e-01	 1.763009851643076e+01
0	 8.750000000000000e-01	 1.125000000000000e+00	 2.002852524649230e+01
0	 8.749999999999999e-01	 1.250000000000000e+00	 2.242366337230769e+01
0	 1.000000000000000e+00	 0.000000000000000e+00	-7.210345846153854e-01
0	 9.999999999999998e-01	 1.250000000000000e-01	 1.525129537661537e+00
0	 9.999999999999998e-01	 2.500000000000000e-01	 3.753887504492307e+00
0	 9.999999999999998e-01	 3.750000000000000e-01	 5.965239315876923e+00
0	 1.000000000000000e+00	 5.000000000000000e-01	 8.159184971815380e+00
0	 9.999999999999999e-01	 6.250000000000000e-01	 1.033572447230769e+01
0	 9.999999999999998e-01	 7.500000000000000e-01	 1.249485781735384e+01
0	 9.999999999999998e-01	 8.750000000000000e-01	 1.463658500695384e+01
0	 9.999999999999998e-01	 9.999999999999998e-01	 1.676090604110768e+01
0	 9.999999999999998e-01	 1.125000000000000e+00	 1.886782091981538e+01
0	 9.999999999999999e-01	 1.250000000000000e+00	 2.095732964307692e+01
0	 1.125000000000000e+00	 0.000000000000000e+00	 3.574049538461530e-01
0	 1.125000000000000e+00	 1.250000000000000e-01	 2.397089022061538e+00
0	 1.125000000000000e+00	 2.500000000000000e-01	 4.405249383630767e+00
0	 1.125000000000000e+00	 3.750000000000001e-01	 6.381886038553845e+00
0	 1.125000000000000e+00	 5.000000000000001e-01	 8.326998986830768e+00
0	 1.125000000000000e+00	 6.249999999999999e-01	 1.024058822846153e+01
0	 1.125000000000000e+00	 7.500000000000001e-01	 1.212265376344615e+01
0	 1.125000000000000e+00	 8.750000000000000e-01	 1.397319559178461e+01
0	 1.125000000000000e+00	 9.999999999999998e-01	 1.579221371347692e+01
0	 1.125000000000000e+00	 1.125000000000000e+00	 1.757970812852307e+01
0	 1.125000000000000e+00	 1.250000000000000e+00	 1.933567883692308e+01
0	 1.250000000000000e+00	 0.000000000000000e+00	 1.559613538461537e+00
0	 1.250000000000000e+00	 1.250000000000000e-01	 3.364908940307691e+00
0	 1.250000000000000e+00	 2.500000000000000e-01	 5.124563084307694e+00
0	 1.250000000000000e+00	 3.750000000000001e-01	 6.838575970461538e+00
0	 1.250000000000000e+00	 5.000000000000000e-01	 8.506947598769232e+00
0	 1.250000000000000e+00	 6.250000000000000e-01	 1.012967796923077e+01
0	 1.250000000000000e+00	 7.500000000000000e-01	 1.170676708184615e+01
0	 1.250000000000000e+00	 8.749999999999999e-01	 1.323821493661538e+01
0	 1.250000000000000e+00	 1.000000000000000e+00	 1.472402153353846e+01
0	 1.250000000000000e+00	 1.125000000000000e+00	 1.616418687261539e+01
0	 1.250000000000000e+00	 1.250000000000000e+00	 1.755871095384615e+01
0	 0.000000000000000e+00	 1.250000000000000e+00	 2.833912132307692e+01
0	 0.000000000000000e+00	 1.375000000000000e+00	 2.641193492276923e+01
0	 0.000000000000000e+00	 1.500000000000000e+00	 2.445040620799999e+01
0	 0.000000000000000e+00	 1.625000000000000e+00	 2.245453517876922e+01
0	 0.000000000000000e+00	 1.750000000000000e+00	 2.042432183507692e+01
0	 0.000000000000000e+00	 1.875000000000000e+00	 1.835976617692307e+01
0	 0.000000000000000e+00	 2.000000000000000e+00	 1.626086820430768e+01
0	 0.000000000000000e+00	 2.125000000000001e+00	 1.412762791723076e+01
0	 0.000000000000000e+00	 2.250000000000001e+00	 1.196004531569229e+01
0	 0.000000000000000e+00	 2.375000000000001e+00	 9.758120399692288e+00
0	 0.000000000000000e+00	 2.500000000000000e+00	 7.521853169230768e+00
0	 1.250000000000000e-01	 1.250000000000000e+00	 2.796000713230770e+01
0	 1.250000000000000e-01	 1.375000000000000e+00	 2.601300045635385e+01
0	 1.250000000000000e-01	 1.500000000000000e+00	 2.403625003864614e+01
0	 1.250000000000000e-01	 1.625000000000000e+00	 2.202975587918460e+01
0	 1.250000000000000e-01	 1.750000000000000e+00	 1.999351797796922e+01
0	 1.250000000000000e-01	 1.875000000000000e+00	 1.792753633499999e+01
0	 1.250000000000000e-01	 2.000000000000001e+00	 1.583181095027691e+01
0	 1.250000000000000e-01	 2.125000000000001e+00	 1.370634182379998e+01
0	 1.250000000000000e-01	 2.250000000000001e+00	 1.155112895556921e+01
0	 1.250000000000000e-01	 2.375000000000001e+00	 9.366172345584598e+00
0	 1.250000000000000e-01	 2.500000000000000e+00	 7.151471993846155e+00
0	 2.500000000000000e-01	 1.250000000000000e+00	 2.742557586461538e+01
0	 2.500000000000000e-01	 1.375000000000000e+00	 2.548346189609231e+01
0	 2.500000000000000e-01	 1.500000000000000e+00	 2.351620275852306e+01
0	 2.500000000000001e-01	 1.625000000000001e+00	 2.152379845190769e+01
0	 2.500000000000000e-01	 1.750000000000000e+00	 1.950624897624614e+01
0	 2.500000000000000e-01	 1.875000000000000e+00	 1.746355433153845e+01
0	 2.500000000000001e-01	 2.000000000000000e+00	 1.539571451778460e+01
0	 2.500000000000000e-01	 2.125000000000000e+00	 1.330272953498460e+01
0	 2.500000000000000e-01	 2.250000000000001e+00	 1.118459938313844e+01
0	 2.500000000000001e-01	 2.375000000000001e+00	 9.041324062246135e+00
0	 2.500000000000000e-01	 2.500000000000000e+00	 6.872903572307691e+00
0	 3.750000000000001e-01	 1.250000000000000e+00	 2.673582752000000e+01
0	 3.750000000000001e-01	 1.375000000000000e+00	 2.482331924198461e+01
0	 3.750000000000001e-01	 1.500000000000000e+00	 2.289026436763076e+01
0	 3.750000000000001e-01	 1.625000000000000e+00	 2.093666289693846e+01
0	 3.750000000000001e-01	 1.750000000000000e+00	 1.896251482990768e+01
0	 3.750000000000001e-01	 1.875000000000000e+00	 1.696782016653846e+01
0	 3.750000000000001e-01	 2.000000000000001e+00	 1.495257890683076e+01
0	 3.750000000000001e-01	 2.125000000000001e+00	 1.291679105078460e+01
0	 3.750000000000002e-01	 2.250000000000001e+00	 1.086045659839998e+01
0	 3.750000000000001e-01	 2.375000000000001e+00	 8.783575549676906e+00
0	 3.750000000000001e-01	 2.500000000000000e+00	 6.686147904615385e+00
0	 5.000000000000000e-01	 1.250000000000000e+00	 2.589076209846154e+01
0	 5.000000000000001e-01	 1.375000000000000e+00	 2.403257249403076e+01
0	 5.000000000000001e-01	 1.500000000000000e+00	 2.215843486596923e+01
0	 5.000000000000001e-01	 1.625000000000000e+00	 2.026834921427691e+01
0	 5.000000000000001e-01	 1.750000000000000e+00	 1.836231553895383e+01
0	 4.999999999999999e-01	 1.875000000000000e+00	 1.644033383999999e+01
0	 4.999999999999999e-01	 2.000000000000000e+00	 1.450240411741537e+01
0	 5.000000000000002e-01	 2.125000000000001e+00	 1.254852637119999e+01
0	 5.000000000000001e-01	 2.250000000000000e+00	 1.057870060135383e+01
0	 5.000000000000000e-01	 2.375000000000001e+00	 8.592926807876902e+00
0	 5.000000000000000e-01	 2.500000000000000e+00	 6.591204990769229e+00
0	 6.250000000000000e-01	 1.250000000000000e+00	 2.489037960000000e+01
0	 6.250000000000000e-01	 1.375000000000000e+00	 2.311122165223076e+01
0	 6.250000000000000e-01	 1.500000000000000e+00	 2.132071425353845e+01
0	 6.250000000000001e-01	 1.625000000000000e+00	 1.951885740392307e+01
0	 6.250000000000000e-01	 1.750000000000000e+00	 1.770565110338461e+01
0	 6.250000000000000e-01	 1.875000000000000e+00	 1.588109535192307e+01
0	 6.250000000000000e-01	 2.000000000000000e+00	 1.404519014953845e+01
0	 6.249999999999999e-01	 2.125000000000000e+00	 1.219793549623076e+01
0	 6.250000000000001e-01	 2.250000000000001e+00	 1.033933139199999e+01
0	 6.250000000000000e-01	 2.375000000000001e+00	 8.469377836846139e+00
0	 6.250000000000000e-01	 2.500000000000000e+00	 6.588074830769233e+00
0	 7.500000000000000e-01	 1.250000000000000e+00	 2.373468002461539e+01
0	 7.500000000000000e-01	 1.375000000000000e+00	 2.205926671658461e+01
0	 7.500000000000000e-01	 1.500000000000000e+00	 2.037710253033846e+01
0	 7.500000000000000e-01	 1.625000000000000e+00	 1.868818746587691e+01
0	 7.499999999999999e-01	 1.750000000000000e+00	 1.699252152319999e+01
0	 7.500000000000000e-01	 1.875000000000000e+00	 1.529010470230768e+01
0	 7.500000000000000e-01	 2.000000000000000e+00	 1.358093700319998e+01
0	 7.500000000000000e-01	 2.125000000000001e+00	 1.186501842587691e+01
0	 7.500000000000001e-01	 2.250000000000001e+00	 1.014234897033845e+01
0	 7.500000000000000e-01	 2.375000000000001e+00	 8.412928636584599e+00
0	 7.500000000000000e-01	 2.500000000000000e+00	 6.676757424615380e+00
0	 8.749999999999999e-01	 1.250000000000000e+00	 2.242366337230769e+01
0	 8.749999999999997e-01	 1.375000000000000e+00	 2.087670768709230e+01
0	 8.750000000000000e-01	 1.500000000000001e+00	 1.932759969636923e+01
0	 8.749999999999999e-01	 1.625000000000000e+00	 1.777633940013845e+01
0	 8.750000000000000e-01	 1.750000000000000e+00	 1.622292679839999e+01
0	 8.750000000000001e-01	 1.875000000000001e+00	 1.466736189115384e+01
0	 8.750000000000000e-01	 2.000000000000001e+00	 1.310964467839999e+01
0	 8.749999999999999e-01	 2.125000000000001e+00	 1.154977516013845e+01
0	 8.750000000000000e-01	 2.250000000000001e+00	 9.987753336369220e+00
0	 8.749999999999998e-01	 2.375000000000000e+00	 8.423579207092292e+00
0	 8.749999999999999e-01	 2.500000000000000e+00	 6.857252772307694e+00
0	 9.999999999999999e-01	 1.250000000000000e+00	 2.095732964307692e+01
0	 1.000000000000000e+00	 1.375000000000000e+00	 1.956354456375385e+01
0	 9.999999999999998e-01	 1.500000000000000e+00	 1.817220575163076e+01
0	 9.999999999999999e-01	 1.625000000000000e+00	 1.678331320670769e+01
0	 1.000000000000000e+00	 1.750000000000001e+00	 1.539686692898461e+01
0	 9.999999999999998e-01	 1.875000000000000e+00	 1.401286691846153e+01
0	 1.000000000000000e+00	 2.000000000000001e+00	 1.263131317513845e+01
0	 9.999999999999999e-01	 2.125000000000001e+00	 1.125220569901538e+01
0	 1.000000000000000e+00	 2.250000000000001e+00	 9.875544490092295e+00
0	 1.000000000000000e+00	 2.375000000000001e+00	 8.501329548369217e+00
0	 9.999999999999999e-01	 2.500000000000000e+00	 7.129560873846151e+00
0	 1.125000000000000e+00	 1.250000000000000e+00	 1.933567883692308e+01
0	 1.125000000000000e+00	 1.375000000000000e+00	 1.811977734656923e+01
0	 1.125000000000000e+00	 1.500000000000000e+00	 1.691092069612307e+01
0	 1.125000000000000e+00	 1.625000000000000e+00	 1.570910888558461e+01
0	 1.125000000000000e+00	 1.750000000000000e+00	 1.451434191495384e+01
0	 1.125000000000000e+00	 1.875000000000001e+00	 1.332661978423076e+01
0	 1.125000000000000e+00	 2.000000000000001e+00	 1.214594249341538e+01
0	 1.125000000000000e+00	 2.125000000000001e+00	 1.097231004250769e+01
0	 1.125000000000000e+00	 2.250000000000001e+00	 9.805722431507682e+00
0	 1.125000000000000e+00	 2.375000000000001e+00	 8.646179660415372e+00
0	 1.125000000000000e+00	 2.500000000000000e+00	 7.493681729230769e+00
0	 1.250000000000000e+00	 1.250000000000000e+00	 1.755871095384615e+01
0	 1.250000000000000e+00	 1.375000000000000e+00	 1.654540603553846e+01
0	 1.250000000000000e+00	 1.500000000000000e+00	 1.554374452984615e+01
0	 1.250000000000000e+00	 1.625000000000000e+00	 1.455372643676923e+01
0	 1.250000000000000e+00	 1.750000000000000e+00	 1.357535175630769e+01
0	 1.250000000000000e+00	 1.875000000000000e+00	 1.260862048846153e+01
0	 1.250000000000000e+00	 2.000000000000000e+00	 1.165353263323077e+01
0	 1.250000000000000e+00	 2.125000000000001e+00	 1.071008819061538e+01
0	 1.250000000000000e+00	 2.250000000000001e+00	 9.778287160615378e+00
0	 1.250000000000000e+00	 2.375000000000001e+00	 8.858129543230762e+00
0	 1.250000000000000e+00	 2.500000000000000e+00	 7.949615338461538e+00
0	 0.000000000000000e+00	 2.500000000000000e+00	 7.521853169230768e+00
0	 0.000000000000000e+00	 2.625000000000000e+00	 7.643885051692305e+00
0	 0.000000000000000e+00	 2.750000000000000e+00	 7.782492120615384e+00
0	 0.000000000000000e+00	 2.875000000000001e+00	 7.937674375999999e+00
0	 0.000000000000000e+00	 3.000000000000000e+00	 8.109431817846151e+00
0	 0.000000000000000e+00	 3.125000000000000e+00	 8.297764446153844e+00
0	 0.000000000000000e+00	 3.250000000000000e+00	 8.502672260923074e+00
0	 0.000000000000000e+00	 3.375000000000001e+00	 8.724155262153845e+00
0	 0.000000000000000e+00	 3.500000000000001e+00	 8.962213449846153e+00
0	 0.000000000000000e+00	 3.625000000000001e+00	 9.216846823999997e+00
0	 0.000000000000000e+00	 3.750000000000000e+00	 9.488055384615379e+00
0	 1.250000000000000e-01	 2.500000000000000e+00	 7.151471993846155e+00
0	 1.250000000000000e-01	 2.625000000000001e+00	 7.334783690861538e+00
0	 1.250000000000000e-01	 2.750000000000000e+00	 7.531481160984608e+00
0	 1.250000000000000e-01	 2.875000000000000e+00	 7.741564404215384e+00
0	 1.250000000000000e-01	 3.000000000000000e+00	 7.965033420553842e+00
0	 1.250000000000000e-01	 3.125000000000000e+00	 8.201888209999998e+00
0	 1.250000000000000e-01	 3.250000000000001e+00	 8.452128772553845e+00
0	 1.250000000000000e-01	 3.375000000000000e+00	 8.715755108215387e+00
0	 1.250000000000000e-01	 3.500000000000001e+00	 8.992767216984614e+00
0	 1.250000000000000e-01	 3.625000000000001e+00	 9.283165098861538e+00
0	 1.250000000000000e-01	 3.750000000000000e+00	 9.586948753846150e+00
0	 2.500000000000000e-01	 2.500000000000000e+00	 6.872903572307691e+00
0	 2.500000000000000e-01	 2.625000000000000e+00	 7.107159099261539e+00
0	 2.500000000000000e-01	 2.750000000000000e+00	 7.351610985969229e+00
0	 2.500000000000001e-01	 2.875000000000001e+00	 7.606259232430765e+00
0	 2.500000000000000e-01	 3.000000000000000e+00	 7.871103838646155e+00
0	 2.500000000000000e-01	 3.125000000000000e+00	 8.146144804615385e+00
0	 2.500000000000001e-01	 3.250000000000001e+00	 8.431382130338463e+00
0	 2.500000000000000e-01	 3.375000000000001e+00	 8.726815815815383e+00
0	 2.500000000000000e-01	 3.500000000000000e+00	 9.032445861046149e+00
0	 2.500000000000001e-01	 3.625000000000001e+00	 9.348272266030767e+00
0	 2.500000000000000e-01	 3.750000000000000e+00	 9.674295030769226e+00
0	 3.750000000000001e-01	 2.500000000000000e+00	 6.686147904615385e+00
0	 3.750000000000001e-01	 2.625000000000000e+00	 6.961011276892304e+00
0	 3.750000000000001e-01	 2.750000000000000e+00	 7.242881595569232e+00
0	 3.750000000000001e-01	 2.875000000000000e+00	 7.531758860646153e+00
0	 3.750000000000001e-01	 3.000000000000001e+00	 7.827643072123071e+00
0	 3.750000000000001e-01	 3.125000000000001e+00	 8.130534230000002e+00
0	 3.750000000000001e-01	 3.250000000000000e+00	 8.440432334276924e+00
0	 3.750000000000001e-01	 3.375000000000000e+00	 8.757337384953843e+00
0	 3.750000000000002e-01	 3.500000000000001e+00	 9.081249382030766e+00
0	 3.750000000000001e-01	 3.625000000000001e+00	 9.412168325507693e+00
0	 3.750000000000001e-01	 3.750000000000000e+00	 9.750094215384607e+00
0	 5.000000000000000e-01	 2.500000000000000e+00	 6.591204990769229e+00
0	 5.000000000000001e-01	 2.625000000000000e+00	 6.896340223753845e+00
0	 5.000000000000001e-01	 2.750000000000000e+00	 7.205292989784615e+00
0	 5.000000000000001e-01	 2.875000000000000e+00	 7.518063288861539e+00
0	 5.000000000000001e-01	 3.000000000000000e+00	 7.834651120984616e+00
0	 4.999999999999999e-01	 3.125000000000000e+00	 8.155056486153846e+00
0	 4.999999999999999e-01	 3.250000000000000e+00	 8.479279384369230e+00
0	 5.000000000000002e-01	 3.375000000000001e+00	 8.807319815630770e+00
0	 5.000000000000001e-01	 3.500000000000001e+00	 9.139177779938462e+00
0	 5.000000000000000e-01	 3.625000000000001e+00	 9.474853277292308e+00
0	 5.000000000000000e-01	 3.750000000000000e+00	 9.814346307692308e+00
0	 6.250000000000000e-01	 2.500000000000000e+00	 6.588074830769233e+00
0	 6.250000000000000e-01	 2.625000000000000e+00	 6.913145939846154e+00
0	 6.250000000000000e-01	 2.750000000000000e+00	 7.238845168615386e+00
0	 6.250000000000001e-01	 2.875000000000000e+00	 7.565172517076920e+00
0	 6.250000000000000e-01	 3.000000000000000e+00	 7.892127985230768e+00
0	 6.250000000000000e-01	 3.125000000000000e+00	 8.219711573076921e+00
0	 6.250000000000000e-01	 3.250000000000000e+00	 8.547923280615382e+00
0	 6.249999999999999e-01	 3.375000000000000e+00	 8.876763107846152e+00
0	 6.250000000000001e-01	 3.500000000000002e+00	 9.206231054769233e+00
0	 6.250000000000000e-01	 3.625000000000001e+00	 9.536327121384618e+00
0	 6.250000000000000e-01	 3.750000000000000e+00	 9.867051307692305e+00
0	 7.500000000000000e-01	 2.500000000000000e+00	 6.676757424615380e+00
0	 7.500000000000000e-01	 2.625000000000001e+00	 7.011428425169228e+00
0	 7.500000000000000e-01	 2.750000000000000e+00	 7.343538132061539e+00
0	 7.500000000000000e-01	 2.875000000000000e+00	 7.673086545292307e+00
0	 7.499999999999999e-01	 3.000000000000001e+00	 8.000073664861539e+00
0	 7.500000000000000e-01	 3.125000000000000e+00	 8.324499490769227e+00
0	 7.500000000000000e-01	 3.250000000000000e+00	 8.646364023015384e+00
0	 7.500000000000000e-01	 3.375000000000001e+00	 8.965667261599997e+00
0	 7.500000000000001e-01	 3.500000000000002e+00	 9.282409206523077e+00
0	 7.500000000000000e-01	 3.625000000000002e+00	 9.596589857784613e+00
0	 7.500000000000000e-01	 3.750000000000000e+00	 9.908209215384609e+00
0	 8.749999999999999e-01	 2.500000000000000e+00	 6.857252772307694e+00
0	 8.749999999999997e-01	 2.625000000000000e+00	 7.191187679723077e+00
0	 8.750000000000000e-01	 2.750000000000001e+00	 7.519371880123076e+00
0	 8.749999999999999e-01	 2.875000000000000e+00	 7.841805373507693e+00
0	 8.750000000000000e-01	 3.000000000000000e+00	 8.158488159876921e+00
0	 8.750000000000001e-01	 3.125000000000001e+00	 8.469420239230768e+00
0	 8.750000000000000e-01	 3.250000000000001e+00	 8.774601611569230e+00
0	 8.749999999999999e-01	 3.375000000000001e+00	 9.074032276892307e+00
0	 8.750000000000000e-01	 3.500000000000001e+00	 9.367712235199999e+00
0	 8.749999999999998e-01	 3.625000000000000e+00	 9.655641486492303e+00
0	 8.749999999999999e-01	 3.750000000000000e+00	 9.937820030769226e+00
0	 9.999999999999999e-01	 2.500000000000000e+00	 7.129560873846151e+00
0	 1.000000000000000e+00	 2.625000000000000e+00	 7.452423703507689e+00
0	 9.999999999999998e-01	 2.750000000000000e+00	 7.766346412799995e+00
0	 9.999999999999999e-01	 2.875000000000000e+00	 8.071329001723075e+00
0	 1.000000000000000e+00	 3.000000000000001e+00	 8.367371470276925e+00
0	 9.999999999999998e-01	 3.125000000000000e+00	 8.654473818461536e+00
0	 1.000000000000000e+00	 3.250000000000001e+00	 8.932636046276924e+00
0	 9.999999999999999e-01	 3.375000000000000e+00	 9.201858153723080e+00
0	 1.000000000000000e+00	 3.500000000000001e+00	 9.462140140799997e+00
0	 1.000000000000000e+00	 3.625000000000002e+00	 9.713482007507690e+00
0	 9.999999999999999e-01	 3.750000000000000e+00	 9.955883753846152e+00
0	 1.125000000000000e+00	 2.500000000000000e+00	 7.493681729230769e+00
0	 1.125000000000000e+00	 2.625000000000001e+00	 7.795136496523076e+00
0	 1.125000000000000e+00	 2.750000000000000e+00	 8.084461730092306e+00
0	 1.125000000000000e+00	 2.875000000000000e+00	 8.361657429938461e+00
0	 1.125000000000000e+00	 3.000000000000000e+00	 8.626723596061534e+00
0	 1.125000000000000e+00	 3.125000000000000e+00	 8.879660228461534e+00
0	 1.125000000000000e+00	 3.250000000000001e+00	 9.120467327138460e+00
0	 1.125000000000000e+00	 3.375000000000000e+00	 9.349144892092307e+00
0	 1.125000000000000e+00	 3.500000000000000e+00	 9.565692923323072e+00
0	 1.125000000000000e+00	 3.625000000000001e+00	 9.770111420830766e+00
0	 1.125000000000000e+00	 3.750000000000000e+00	 9.962400384615384e+00
0	 1.250000000000000e+00	 2.500000000000000e+00	 7.949615338461538e+00
0	 1.250000000000000e+00	 2.625000000000000e+00	 8.219326058769232e+00
0	 1.250000000000000e+00	 2.750000000000000e+00	 8.473717832000002e+00
0	 1.250000000000000e+00	 2.875000000000001e+00	 8.712790658153844e+00
0	 1.250000000000000e+00	 3.000000000000000e+00	 8.936544537230770e+00
0	 1.250000000000000e+00	 3.125000000000000e+00	 9.144979469230767e+00
0	 1.250000000000000e+00	 3.250000000000000e+00	 9.338095454153843e+00
0	 1.250000000000000e+00	 3.375000000000001e+00	 9.515892492000001e+00
0	 1.250000000000000e+00	 3.500000000000001e+00	 9.678370582769231e+00
0	 1.250000000000000e+00	 3.625000000000001e+00	 9.825529726461539e+00
0	 1.250000000000000e+00	 3.750000000000000e+00	 9.957369923076920e+00
0	 0.000000000000000e+00	 3.750000000000000e+00	 9.488055384615379e+00
0	 0.000000000000000e+00	 3.875000000000000e+00	 9.506563187692304e+00
0	 0.000000000000000e+00	 4.000000000000000e+00	 9.521949366153846e+00
0	 0.000000000000000e+00	 4.125000000000001e+00	 9.534213919999996e+00
0	 0.000000000000000e+00	 4.250000000000001e+00	 9.543356849230769e+00
0	 0.000000000000000e+00	 4.375000000000000e+00	 9.549378153846151e+00
0	 0.000000000000000e+00	 4.500000000000001e+00	 9.552277833846148e+00
0	 0.000000000000000e+00	 4.625000000000001e+00	 9.552055889230761e+00
0	 0.000000000000000e+00	 4.750000000000001e+00	 9.548712320000002e+00
0	 0.000000000000000e+00	 4.875000000000001e+00	 9.542247126153850e+00
0	 0.000000000000000e+00	 5.000000000000000e+00	 9.532660307692307e+00
0	 1.250000000000000e-01	 3.750000000000000e+00	 9.586948753846150e+00
0	 1.250000000000000e-01	 3.875000000000000e+00	 9.589202673615381e+00
0	 1.250000000000000e-01	 4.000000000000001e+00	 9.589162908307690e+00
0	 1.250000000000000e-01	 4.125000000000001e+00	 9.586829457923070e+00
0	 1.250000000000000e-01	 4.250000000000001e+00	 9.582202322461537e+00
0	 1.250000000000000e-01	 4.375000000000001e+00	 9.575281501923072e+00
0	 1.250000000000000e-01	 4.500000000000000e+00	 9.566066996307693e+00
0	 1.250000000000000e-01	 4.625000000000001e+00	 9.554558805615384e+00
0	 1.250000000000000e-01	 4.750000000000000e+00	 9.540756929846152e+00
0	 1.250000000000000e-01	 4.875000000000001e+00	 9.524661368999997e+00
0	 1.250000000000000e-01	 5.000000000000000e+00	 9.506272123076920e+00
0	 2.500000000000000e-01	 3.750000000000000e+00	 9.674295030769226e+00
0	 2.500000000000000e-01	 3.875000000000000e+00	 9.662287708769227e+00
0	 2.500000000000000e-01	 4.000000000000000e+00	 9.648814641230762e+00
0	 2.500000000000001e-01	 4.125000000000002e+00	 9.633875828153846e+00
0	 2.500000000000000e-01	 4.250000000000002e+00	 9.617471269538459e+00
0	 2.500000000000000e-01	 4.375000000000000e+00	 9.599600965384610e+00
0	 2.500000000000001e-01	 4.500000000000001e+00	 9.580264915692304e+00
0	 2.500000000000000e-01	 4.625000000000001e+00	 9.559463120461537e+00
0	 2.500000000000000e-01	 4.750000000000001e+00	 9.537195579692309e+00
0	 2.500000000000001e-01	 4.875000000000001e+00	 9.513462293384613e+00
0	 2.500000000000000e-01	 5.000000000000000e+00	 9.488263261538453e+00
0	 3.750000000000001e-01	 3.750000000000000e+00	 9.750094215384607e+00
0	 3.750000000000001e-01	 3.875000000000000e+00	 9.725818293153838e+00
0	 3.750000000000001e-01	 4.000000000000000e+00	 9.700904564923073e+00
0	 3.750000000000001e-01	 4.125000000000000e+00	 9.675353030692307e+00
0	 3.750000000000001e-01	 4.250000000000000e+00	 9.649163690461537e+00
0	 3.750000000000001e-01	 4.375000000000000e+00	 9.622336544230766e+00
0	 3.750000000000001e-01	 4.500000000000001e+00	 9.594871591999997e+00
0	 3.750000000000001e-01	 4.625000000000001e+00	 9.566768833769228e+00
0	 3.750000000000002e-01	 4.750000000000002e+00	 9.538028269538456e+00
0	 3.750000000000001e-01	 4.875000000000001e+00	 9.508649899307692e+00
0	 3.750000000000001e-01	 5.000000000000001e+00	 9.478633723076927e+00
0	 5.000000000000000e-01	 3.750000000000000e+00	 9.814346307692308e+00
0	 5.000000000000001e-01	 3.875000000000000e+00	 9.779794426769234e+00
0	 5.000000000000001e-01	 4.000000000000001e+00	 9.745432679384617e+00
0	 5.000000000000001e-01	 4.125000000000000e+00	 9.711261065538457e+00
0	 5.000000000000001e-01	 4.250000000000002e+00	 9.677279585230771e+00
0	 4.999999999999999e-01	 4.375000000000001e+00	 9.643488238461533e+00
0	 4.999999999999999e-01	 4.500000000000000e+00	 9.609887025230764e+00
0	 5.000000000000002e-01	 4.625000000000002e+00	 9.576475945538458e+00
0	 5.000000000000001e-01	 4.750000000000001e+00	 9.543254999384613e+00
0	 5.000000000000000e-01	 4.875000000000002e+00	 9.510224186769237e+00
0	 5.000000000000000e-01	 4.999999999999999e+00	 9.477383507692304e+00
0	 6.250000000000000e-01	 3.750000000000000e+00	 9.867051307692305e+00
0	 6.250000000000000e-01	 3.875000000000000e+00	 9.824216109615380e+00
0	 6.250000000000000e-01	 4.000000000000000e+00	 9.782398984615384e+00
0	 6.250000000000001e-01	 4.125000000000001e+00	 9.741599932692306e+00
0	 6.250000000000000e-01	 4.250000000000001e+00	 9.701818953846153e+00
0	 6.250000000000000e-01	 4.375000000000000e+00	 9.663056048076921e+00
0	 6.250000000000000e-01	 4.500000000000001e+00	 9.625311215384615e+00
0	 6.249999999999999e-01	 4.625000000000000e+00	 9.588584455769224e+00
0	 6.250000000000001e-01	 4.750000000000002e+00	 9.552875769230770e+00
0	 6.250000000000000e-01	 4.875000000000001e+00	 9.518185155769221e+00
0	 6.250000000000000e-01	 5.000000000000000e+00	 9.484512615384611e+00
0	 7.500000000000000e-01	 3.750000000000000e+00	 9.908209215384609e+00
0	 7.500000000000000e-01	 3.875000000000000e+00	 9.859083341692310e+00
0	 7.500000000000000e-01	 4.000000000000000e+00	 9.811803480615383e+00
0	 7.500000000000000e-01	 4.125000000000001e+00	 9.766369632153847e+00
0	 7.499999999999999e-01	 4.250000000000001e+00	 9.722781796307691e+00
0	 7.500000000000000e-01	 4.375000000000001e+00	 9.681039973076924e+00
0	 7.500000000000000e-01	 4.500000000000001e+00	 9.641144162461536e+00
0	 7.500000000000000e-01	 4.625000000000002e+00	 9.603094364461537e+00
0	 7.500000000000001e-01	 4.750000000000002e+00	 9.566890579076922e+00
0	 7.500000000000000e-01	 4.875000000000002e+00	 9.532532806307696e+00
0	 7.500000000000000e-01	 5.000000000000000e+00	 9.500021046153845e+00
0	 8.749999999999999e-01	 3.750000000000000e+00	 9.937820030769226e+00
0	 8.749999999999997e-01	 3.875000000000000e+00	 9.884396122999991e+00
0	 8.750000000000000e-01	 4.000000000000001e+00	 9.833646167384615e+00
0	 8.749999999999999e-01	 4.125000000000001e+00	 9.785570163923072e+00
0	 8.750000000000000e-01	 4.250000000000001e+00	 9.740168112615381e+00
0	 8.750000000000001e-01	 4.375000000000002e+00	 9.697440013461533e+00
0	 8.750000000000000e-01	 4.500000000000002e+00	 9.657385866461535e+00
0	 8.749999999999999e-01	 4.625000000000001e+00	 9.620005671615385e+00
0	 8.750000000000000e-01	 4.750000000000001e+00	 9.585299428923072e+00
0	 8.749999999999998e-01	 4.875000000000000e+00	 9.553267138384614e+00
0	 8.749999999999999e-01	 5.000000000000000e+00	 9.523908800000003e+00
0	 9.999999999999999e-01	 3.750000000000000e+00	 9.955883753846152e+00
0	 1.000000000000000e+00	 3.875000000000000e+00	 9.900154453538459e+00
0	 9.999999999999998e-01	 4.000000000000000e+00	 9.847927044923072e+00
0	 9.999999999999999e-01	 4.125000000000001e+00	 9.799201527999998e+00
0	 1.000000000000000e+00	 4.250000000000001e+00	 9.753977902769229e+00
0	 9.999999999999998e-01	 4.375000000000000e+00	 9.712256169230766e+00
0	 1.000000000000000e+00	 4.500000000000001e+00	 9.674036327384613e+00
0	 9.999999999999999e-01	 4.625000000000002e+00	 9.639318377230776e+00
0	 1.000000000000000e+00	 4.750000000000001e+00	 9.608102318769230e+00
0	 1.000000000000000e+00	 4.875000000000001e+00	 9.580388152000008e+00
0	 9.999999999999999e-01	 5.000000000000000e+00	 9.556175876923078e+00
0	 1.125000000000000e+00	 3.750000000000000e+00	 9.962400384615384e+00
0	 1.125000000000000e+00	 3.875000000000000e+00	 9.906358333307690e+00
0	 1.125000000000000e+00	 4.000000000000000e+00	 9.854646113230768e+00
0	 1.125000000000000e+00	 4.125000000000001e+00	 9.807263724384612e+00
0	 1.125000000000000e+00	 4.250000000000001e+00	 9.764211166769231e+00
0	 1.125000000000000e+00	 4.375000000000000e+00	 9.725488440384611e+00
0	 1.125000000000000e+00	 4.500000000000002e+00	 9.691095545230766e+00
0	 1.125000000000000e+00	 4.625000000000001e+00	 9.661032481307689e+00
0	 1.125000000000000e+00	 4.750000000000000e+00	 9.635299248615386e+00
0	 1.125000000000000e+00	 4.875000000000002e+00	 9.613895847153840e+00
0	 1.125000000000000e+00	 5.000000000000000e+00	 9.596822276923076e+00
0	 1.250000000000000e+00	 3.750000000000000e+00	 9.957369923076920e+00
0	 1.250000000000000e+00	 3.875000000000000e+00	 9.903007762307684e+00
0	 1.250000000000000e+00	 4.000000000000001e+00	 9.853803372307691e+00
0	 1.250000000000000e+00	 4.125000000000001e+00	 9.809756753076920e+00
0	 1.250000000000000e+00	 4.250000000000001e+00	 9.770867904615383e+00
0	 1.250000000000000e+00	 4.375000000000001e+00	 9.737136826923075e+00
0	 1.250000000000000e+00	 4.500000000000000e+00	 9.708563519999995e+00
0	 1.250000000000000e+00	 4.625000000000001e+00	 9.685147983846154e+00
0	 1.250000000000000e+00	 4.750000000000002e+00	 9.666890218461541e+00
0	 1.250000000000000e+00	 4.875000000000002e+00	 9.653790223846151e+00
0	 1.250000000000000e+00	 5.000000000000000e+00	 9.645847999999999e+00
0	 0.000000000000000e+00	 5.000000000000000e+00	 9.532660307692307e+00
0	 0.000000000000000e+00	 5.125000000000000e+00	 9.554852889230773e+00
0	 0.000000000000000e+00	 5.249999999999999e+00	 9.578847741538459e+00
0	 0.000000000000000e+00	 5.374999999999998e+00	 9.604644864615381e+00
0	 0.000000000000000e+00	 5.499999999999999e+00	 9.632244258461540e+00
0	 0.000000000000000e+00	 5.624999999999997e+00	 9.661645923076929e+00
0	 0.000000000000000e+00	 5.749999999999997e+00	 9.692849858461535e+00
0	 0.000000000000000e+00	 5.874999999999997e+00	 9.725856064615396e+00
0	 0.000000000000000e+00	 5.999999999999996e+00	 9.760664541538461e+00
0	 0.000000000000000e+00	 6.124999999999996e+00	 9.797275289230789e+00
0	 0.000000000000000e+00	 6.250000000000000e+00	 9.835688307692317e+00
0	 1.250000000000000e-01	 5.000000000000000e+00	 9.506272123076920e+00
0	 1.250000000000000e-01	 5.125000000000000e+00	 9.532627018846153e+00
0	 1.250000000000000e-01	 5.249999999999997e+00	 9.560398309230767e+00
0	 1.250000000000000e-01	 5.374999999999998e+00	 9.589585994230770e+00
0	 1.250000000000000e-01	 5.499999999999997e+00	 9.620190073846151e+00
0	 1.249999999999999e-01	 5.624999999999997e+00	 9.652210548076923e+00
0	 1.250000000000000e-01	 5.749999999999998e+00	 9.685647416923079e+00
0	 1.250000000000000e-01	 5.874999999999996e+00	 9.720500680384610e+00
0	 1.250000000000000e-01	 5.999999999999997e+00	 9.756770338461546e+00
0	 1.250000000000000e-01	 6.124999999999995e+00	 9.794456391153847e+00
0	 1.250000000000000e-01	 6.250000000000000e+00	 9.833558838461540e+00
0	 2.500000000000000e-01	 5.000000000000000e+00	 9.488263261538453e+00
0	 2.499999999999999e-01	 5.124999999999998e+00	 9.518074440769237e+00
0	 2.499999999999999e-01	 5.249999999999999e+00	 9.548916138461534e+00
0	 2.500000000000000e-01	 5.375000000000000e+00	 9.580788354615384e+00
0	 2.499999999999999e-01	 5.499999999999996e+00	 9.613691089230771e+00
0	 2.500000000000001e-01	 5.624999999999997e+00	 9.647624342307687e+00
0	 2.499999999999999e-01	 5.749999999999996e+00	 9.682588113846155e+00
0	 2.500000000000001e-01	 5.874999999999998e+00	 9.718582403846156e+00
0	 2.500000000000001e-01	 5.999999999999998e+00	 9.755607212307696e+00
0	 2.500000000000000e-01	 6.124999999999995e+00	 9.793662539230771e+00
0	 2.500000000000000e-01	 6.249999999999999e+00	 9.832748384615387e+00
0	 3.750000000000001e-01	 5.000000000000001e+00	 9.478633723076927e+00
0	 3.750000000000001e-01	 5.124999999999999e+00	 9.511195154999994e+00
0	 3.750000000000001e-01	 5.249999999999999e+00	 9.544401229230765e+00
0	 3.750000000000001e-01	 5.375000000000000e+00	 9.578251945769230e+00
0	 3.750000000000000e-01	 5.499999999999998e+00	 9.612747304615382e+00
0	 3.750000000000001e-01	 5.624999999999997e+00	 9.647887305769231e+00
0	 3.750000000000001e-01	 5.749999999999997e+00	 9.683671949230764e+00
0	 3.750000000000001e-01	 5.874999999999997e+00	 9.720101234999996e+00
0	 3.750000000000002e-01	 5.999999999999996e+00	 9.757175163076919e+00
0	 3.750000000000000e-01	 6.124999999999996e+00	 9.794893733461535e+00
0	 3.750000000000001e-01	 6.250000000000001e+00	 9.833256946153849e+00
0	 5.000000000000000e-01	 4.999999999999999e+00	 9.477383507692304e+00
0	 5.000000000000001e-01	 5.125000000000000e+00	 9.511989161538459e+00
0	 5.000000000000002e-01	 5.250000000000000e+00	 9.546853581538462e+00
0	 5.000000000000000e-01	 5.374999999999998e+00	 9.581976767692307e+00
0	 5.000000000000000e-01	 5.499999999999998e+00	 9.617358719999999e+00
0	 4.999999999999999e-01	 5.624999999999997e+00	 9.652999438461533e+00
0	 5.000000000000000e-01	 5.749999999999996e+00	 9.688898923076920e+00
0	 5.000000000000000e-01	 5.874999999999997e+00	 9.725057173846150e+00
0	 5.000000000000000e-01	 5.999999999999996e+00	 9.761474190769228e+00
0	 4.999999999999999e-01	 6.124999999999995e+00	 9.798149973846138e+00
0	 5.000000000000000e-01	 6.250000000000000e+00	 9.835084523076915e+00
0	 6.250000000000000e-01	 5.000000000000000e+00	 9.484512615384611e+00
0	 6.250000000000000e-01	 5.124999999999999e+00	 9.520456460384608e+00
0	 6.250000000000001e-01	 5.250000000000000e+00	 9.556273195384613e+00
0	 6.250000000000000e-01	 5.374999999999998e+00	 9.591962820384611e+00
0	 6.250000000000001e-01	 5.500000000000000e+00	 9.627525335384613e+00
0	 6.250000000000000e-01	 5.624999999999998e+00	 9.662960740384616e+00
0	 6.250000000000000e-01	 5.749999999999997e+00	 9.698269035384611e+00
0	 6.250000000000000e-01	 5.874999999999996e+00	 9.733450220384613e+00
0	 6.250000000000000e-01	 5.999999999999997e+00	 9.768504295384609e+00
0	 6.250000000000000e-01	 6.124999999999996e+00	 9.803431260384613e+00
0	 6.250000000000000e-01	 6.250000000000000e+00	 9.838231115384620e+00
0	 7.500000000000000e-01	 5.000000000000000e+00	 9.500021046153845e+00
0	 7.499999999999999e-01	 5.125000000000000e+00	 9.536597051538454e+00
0	 7.500000000000001e-01	 5.250000000000000e+00	 9.572660070769224e+00
0	 7.499999999999999e-01	 5.374999999999998e+00	 9.608210103846156e+00
0	 7.500000000000000e-01	 5.500000000000000e+00	 9.643247150769227e+00
0	 7.500000000000001e-01	 5.624999999999999e+00	 9.677771211538458e+00
0	 7.499999999999999e-01	 5.749999999999997e+00	 9.711782286153838e+00
0	 7.499999999999999e-01	 5.874999999999997e+00	 9.745280374615380e+00
0	 7.500000000000001e-01	 5.999999999999996e+00	 9.778265476923075e+00
0	 7.500000000000001e-01	 6.124999999999996e+00	 9.810737593076915e+00
0	 7.500000000000000e-01	 6.250000000000001e+00	 9.842696723076916e+00
0	 8.749999999999999e-01	 5.000000000000000e+00	 9.523908800000003e+00
0	 8.749999999999999e-01	 5.124999999999999e+00	 9.560410934999993e+00
0	 8.750000000000000e-01	 5.249999999999999e+00	 9.596014207692303e+00
0	 8.750000000000001e-01	 5.374999999999999e+00	 9.630718618076919e+00
0	 8.750000000000000e-01	 5.499999999999998e+00	 9.664524166153837e+00
0	 8.750000000000000e-01	 5.624999999999998e+00	 9.697430851923073e+00
0	 8.750000000000000e-01	 5.749999999999999e+00	 9.729438675384607e+00
0	 8.750000000000000e-01	 5.874999999999997e+00	 9.760547636538455e+00
0	 8.749999999999999e-01	 5.999999999999996e+00	 9.790757735384618e+00
0	 8.750000000000000e-01	 6.124999999999996e+00	 9.820068971923074e+00
0	 8.749999999999999e-01	 6.250000000000000e+00	 9.848481346153832e+00
0	 9.999999999999999e-01	 5.000000000000000e+00	 9.556175876923078e+00
0	 9.999999999999998e-01	 5.125000000000000e+00	 9.591898110769224e+00
0	 9.999999999999999e-01	 5.249999999999999e+00	 9.626335606153845e+00
0	 9.999999999999997e-01	 5.374999999999997e+00	 9.659488363076914e+00
0	 1.000000000000000e+00	 5.499999999999997e+00	 9.691356381538451e+00
0	 9.999999999999998e-01	 5.624999999999997e+00	 9.721939661538453e+00
0	 9.999999999999998e-01	 5.749999999999997e+00	 9.751238203076918e+00
0	 9.999999999999999e-01	 5.874999999999996e+00	 9.779252006153838e+00
0	 1.000000000000000e+00	 5.999999999999996e+00	 9.805981070769224e+00
0	 9.999999999999998e-01	 6.124999999999994e+00	 9.831425396923070e+00
0	 9.999999999999999e-01	 6.250000000000000e+00	 9.855584984615373e+00
0	 1.125000000000000e+00	 5.000000000000000e+00	 9.596822276923076e+00
0	 1.125000000000000e+00	 5.125000000000000e+00	 9.631058578846149e+00
0	 1.125000000000000e+00	 5.249999999999999e+00	 9.663624266153841e+00
0	 1.125000000000000e+00	 5.375000000000000e+00	 9.694519338846153e+00
0	 1.125000000000000e+00	 5.499999999999999e+00	 9.723743796923074e+00
0	 1.125000000000000e+00	 5.624999999999997e+00	 9.751297640384609e+00
0	 1.125000000000000e+00	 5.749999999999998e+00	 9.777180869230763e+00
0	 1.125000000000000e+00	 5.874999999999997e+00	 9.801393483461535e+00
0	 1.125000000000000e+00	 5.999999999999997e+00	 9.823935483076916e+00
0	 1.125000000000000e+00	 6.124999999999996e+00	 9.844806868076915e+00
0	 1.125000000000000e+00	 6.250000000000000e+00	 9.864007638461528e+00
0	 1.250000000000000e+00	 5.000000000000000e+00	 9.645847999999999e+00
0	 1.250000000000000e+00	 5.124999999999999e+00	 9.677892339230771e+00
0	 1.250000000000000e+00	 5.250000000000000e+00	 9.707880187692306e+00
0	 1.250000000000000e+00	 5.374999999999998e+00	 9.735811545384607e+00
0	 1.250000000000000e+00	 5.499999999999999e+00	 9.761686412307689e+00
0	 1.250000000000000e+00	 5.624999999999997e+00	 9.785504788461537e+00
0	 1.250000000000000e+00	 5.749999999999997e+00	 9.807266673846147e+00
0	 1.250000000000000e+00	 5.874999999999996e+00	 9.826972068461529e+00
0	 1.250000000000000e+00	 5.999999999999996e+00	 9.844620972307688e+00
0	 1.250000000000000e+00	 6.124999999999996e+00	 9.860213385384617e+00
0	 1.250000000000000e+00	 6.250000000000000e+00	 9.873749307692300e+00
0	 0.000000000000000e+00	 6.250000000000000e+00	 9.835688307692317e+00
0	 0.000000000000000e+00	 6.374999999999999e+00	 9.842145575384615e+00
0	 0.000000000000000e+00	 6.499999999999999e+00	 9.848577070769231e+00
0	 0.000000000000000e+00	 6.624999999999998e+00	 9.854982793846156e+00
0	 0.000000000000000e+00	 6.749999999999998e+00	 9.861362744615384e+00
0	 0.000000000000000e+00	 6.874999999999998e+00	 9.867716923076914e+00
0	 0.000000000000000e+00	 6.999999999999997e+00	 9.874045329230768e+00
0	 0.000000000000000e+00	 7.124999999999997e+00	 9.880347963076922e+00
0	 0.000000000000000e+00	 7.249999999999996e+00	 9.886624824615369e+00
0	 0.000000000000000e+00	 7.374999999999996e+00	 9.892875913846142e+00
0	 0.000000000000000e+00	 7.500000000000000e+00	 9.899101230769215e+00
0	 1.250000000000000e-01	 6.250000000000000e+00	 9.833558838461540e+00
0	 1.250000000000000e-01	 6.374999999999998e+00	 9.839881199692307e+00
0	 1.250000000000000e-01	 6.499999999999998e+00	 9.846270323384612e+00
0	 1.250000000000000e-01	 6.624999999999999e+00	 9.852726209538458e+00
0	 1.250000000000000e-01	 6.749999999999997e+00	 9.859248858153839e+00
0	 1.249999999999999e-01	 6.874999999999996e+00	 9.865838269230764e+00
0	 1.250000000000000e-01	 6.999999999999997e+00	 9.872494442769231e+00
0	 1.250000000000000e-01	 7.124999999999997e+00	 9.879217378769217e+00
0	 1.250000000000000e-01	 7.249999999999996e+00	 9.886007077230762e+00
0	 1.250000000000000e-01	 7.374999999999996e+00	 9.892863538153835e+00
0	 1.250000000000000e-01	 7.500000000000002e+00	 9.899786761538451e+00
0	 2.500000000000000e-01	 6.249999999999999e+00	 9.832748384615387e+00
0	 2.499999999999999e-01	 6.375000000000000e+00	 9.838856448615388e+00
0	 2.499999999999999e-01	 6.499999999999999e+00	 9.845123809846156e+00
0	 2.500000000000000e-01	 6.624999999999999e+00	 9.851550468307689e+00
0	 2.499999999999999e-01	 6.749999999999997e+00	 9.858136423999994e+00
0	 2.500000000000001e-01	 6.874999999999999e+00	 9.864881676923076e+00
0	 2.499999999999999e-01	 6.999999999999996e+00	 9.871786227076910e+00
0	 2.500000000000001e-01	 7.124999999999996e+00	 9.878850074461539e+00
0	 2.500000000000001e-01	 7.249999999999998e+00	 9.886073219076918e+00
0	 2.500000000000000e-01	 7.374999999999996e+00	 9.893455660923069e+00
0	 2.500000000000000e-01	 7.499999999999999e+00	 9.900997399999987e+00
0	 3.750000000000001e-01	 6.250000000000001e+00	 9.833256946153849e+00
0	 3.750000000000001e-01	 6.375000000000001e+00	 9.839071322153849e+00
0	 3.750000000000001e-01	 6.499999999999999e+00	 9.845137530153847e+00
0	 3.750000000000001e-01	 6.624999999999999e+00	 9.851455570153838e+00
0	 3.750000000000000e-01	 6.749999999999997e+00	 9.858025442153842e+00
0	 3.750000000000001e-01	 6.874999999999998e+00	 9.864847146153842e+00
0	 3.750000000000001e-01	 6.999999999999997e+00	 9.871920682153840e+00
0	 3.750000000000001e-01	 7.124999999999997e+00	 9.879246050153844e+00
0	 3.750000000000002e-01	 7.249999999999998e+00	 9.886823250153844e+00
0	 3.750000000000000e-01	 7.374999999999996e+00	 9.894652282153839e+00
0	 3.750000000000001e-01	 7.500000000000000e+00	 9.902733146153844e+00
0	 5.000000000000000e-01	 6.250000000000000e+00	 9.835084523076915e+00
0	 5.000000000000001e-01	 6.375000000000001e+00	 9.840525820307695e+00
0	 5.000000000000002e-01	 6.499999999999999e+00	 9.846311484307691e+00
0	 5.000000000000000e-01	 6.624999999999999e+00	 9.852441515076924e+00
0	 5.000000000000000e-01	 6.749999999999997e+00	 9.858915912615375e+00
0	 4.999999999999999e-01	 6.874999999999997e+00	 9.865734676923072e+00
0	 5.000000000000000e-01	 6.999999999999996e+00	 9.872897807999998e+00
0	 5.000000000000000e-01	 7.124999999999995e+00	 9.880405305846150e+00
0	 5.000000000000000e-01	 7.249999999999997e+00	 9.888257170461529e+00
0	 4.999999999999999e-01	 7.374999999999996e+00	 9.896453401846152e+00
0	 5.000000000000000e-01	 7.500000000000001e+00	 9.904994000000000e+00
0	 6.250000000000000e-01	 6.250000000000000e+00	 9.838231115384620e+00
0	 6.250000000000000e-01	 6.374999999999998e+00	 9.843219943076914e+00
0	 6.250000000000001e-01	 6.500000000000000e+00	 9.848645672307690e+00
0	 6.250000000000000e-01	 6.624999999999997e+00	 9.854508303076916e+00
0	 6.250000000000001e-01	 6.750000000000000e+00	 9.860807835384611e+00
0	 6.250000000000000e-01	 6.874999999999998e+00	 9.867544269230763e+00
0	 6.250000000000000e-01	 6.999999999999997e+00	 9.874717604615389e+00
0	 6.250000000000000e-01	 7.124999999999996e+00	 9.882327841538462e+00
0	 6.250000000000000e-01	 7.249999999999996e+00	 9.890374979999994e+00
0	 6.250000000000000e-01	 7.374999999999996e+00	 9.898859020000003e+00
0	 6.250000000000000e-01	 7.500000000000000e+00	 9.907779961538466e+00
0	 7.500000000000000e-01	 6.250000000000001e+00	 9.842696723076916e+00
0	 7.499999999999999e-01	 6.374999999999999e+00	 9.847153690461528e+00
0	 7.500000000000001e-01	 6.500000000000001e+00	 9.852140094153841e+00
0	 7.499999999999999e-01	 6.624999999999998e+00	 9.857655934153840e+00
0	 7.500000000000000e-01	 6.749999999999999e+00	 9.863701210461533e+00
0	 7.500000000000001e-01	 6.874999999999999e+00	 9.870275923076917e+00
0	 7.499999999999999e-01	 6.999999999999997e+00	 9.877380071999998e+00
0	 7.499999999999999e-01	 7.124999999999997e+00	 9.885013657230768e+00
0	 7.500000000000001e-01	 7.249999999999996e+00	 9.893176678769237e+00
0	 7.500000000000001e-01	 7.374999999999996e+00	 9.901869136615382e+00
0	 7.500000000000000e-01	 7.500000000000001e+00	 9.911091030769237e+00
0	 8.749999999999999e-01	 6.250000000000000e+00	 9.848481346153832e+00
0	 8.749999999999999e-01	 6.374999999999998e+00	 9.852327062461534e+00
0	 8.750000000000000e-01	 6.499999999999998e+00	 9.856794749846147e+00
0	 8.750000000000001e-01	 6.624999999999999e+00	 9.861884408307686e+00
0	 8.750000000000000e-01	 6.750000000000000e+00	 9.867596037846146e+00
0	 8.750000000000000e-01	 6.874999999999998e+00	 9.873929638461536e+00
0	 8.750000000000000e-01	 6.999999999999999e+00	 9.880885210153844e+00
0	 8.750000000000000e-01	 7.124999999999997e+00	 9.888462752923077e+00
0	 8.749999999999999e-01	 7.249999999999997e+00	 9.896662266769233e+00
0	 8.750000000000000e-01	 7.374999999999996e+00	 9.905483751692302e+00
0	 8.749999999999999e-01	 7.500000000000000e+00	 9.914927207692312e+00
0	 9.999999999999999e-01	 6.250000000000000e+00	 9.855584984615373e+00
0	 9.999999999999998e-01	 6.374999999999998e+00	 9.858740059076913e+00
0	 9.999999999999999e-01	 6.499999999999999e+00	 9.862609639384607e+00
0	 9.999999999999997e-01	 6.624999999999997e+00	 9.867193725538456e+00
0	 1.000000000000000e+00	 6.749999999999997e+00	 9.872492317538455e+00
0	 9.999999999999998e-01	 6.874999999999996e+00	 9.878505415384616e+00
0	 9.999999999999998e-01	 6.999999999999996e+00	 9.885233019076921e+00
0	 9.999999999999999e-01	 7.124999999999997e+00	 9.892675128615387e+00
0	 1.000000000000000e+00	 7.249999999999997e+00	 9.900831743999992e+00
0	 9.999999999999998e-01	 7.374999999999996e+00	 9.909702865230768e+00
0	 9.999999999999999e-01	 7.500000000000001e+00	 9.919288492307702e+00
0	 1.125000000000000e+00	 6.250000000000000e+00	 9.864007638461528e+00
0	 1.125000000000000e+00	 6.375000000000000e+00	 9.866392680307678e+00
0	 1.125000000000000e+00	 6.500000000000000e+00	 9.869584762769220e+00
0	 1.125000000000000e+00	 6.624999999999999e+00	 9.873583885846145e+00
0	 1.125000000000000e+00	 6.749999999999999e+00	 9.878390049538464e+00
0	 1.125000000000000e+00	 6.874999999999996e+00	 9.884003253846153e+00
0	 1.125000000000000e+00	 6.999999999999997e+00	 9.890423498769236e+00
0	 1.125000000000000e+00	 7.124999999999998e+00	 9.897650784307691e+00
0	 1.125000000000000e+00	 7.249999999999996e+00	 9.905685110461537e+00
0	 1.125000000000000e+00	 7.374999999999996e+00	 9.914526477230769e+00
0	 1.125000000000000e+00	 7.500000000000000e+00	 9.924174884615391e+00
0	 1.250000000000000e+00	 6.250000000000000e+00	 9.873749307692300e+00
0	 1.250000000000000e+00	 6.375000000000000e+00	 9.875284926153828e+00
0	 1.250000000000000e+00	 6.500000000000000e+00	 9.877720119999992e+00
0	 1.250000000000000e+00	 6.624999999999998e+00	 9.881054889230764e+00
0	 1.250000000000000e+00	 6.749999999999998e+00	 9.885289233846150e+00
0	 1.250000000000000e+00	 6.874999999999998e+00	 9.890423153846145e+00
0	 1.250000000000000e+00	 6.999999999999997e+00	 9.896456649230771e+00
0	 1.250000000000000e+00	 7.124999999999996e+00	 9.903389720000000e+00
0	 1.250000000000000e+00	 7.249999999999997e+00	 9.911222366153851e+00
0	 1.250000000000000e+00	 7.374999999999996e+00	 9.919954587692299e+00
0	 1.250000000000000e+00	 7.500000000000000e+00	 9.929586384615391e+00
0	 0.000000000000000e+00	 7.500000000000000e+00	 9.899101230769215e+00
0	 0.000000000000000e+00	 7.625000000000000e+00	 9.905964872307687e+00
0	 0.000000000000000e+00	 7.749999999999998e+00	 9.913280166153834e+00
0	 0.000000000000000e+00	 7.874999999999999e+00	 9.921047112307685e+00
0	 0.000000000000000e+00	 7.999999999999999e+00	 9.929265710769226e+00
0	 0.000000000000000e+00	 8.124999999999998e+00	 9.937935961538455e+00
0	 0.000000000000000e+00	 8.249999999999998e+00	 9.947057864615386e+00
0	 0.000000000000000e+00	 8.374999999999998e+00	 9.956631419999999e+00
0	 0.000000000000000e+00	 8.499999999999996e+00	 9.966656627692307e+00
0	 0.000000000000000e+00	 8.624999999999996e+00	 9.977133487692324e+00
0	 0.000000000000000e+00	 8.750000000000000e+00	 9.988062000000008e+00
0	 1.250000000000000e-01	 7.500000000000002e+00	 9.899786761538451e+00
0	 1.250000000000000e-01	 7.624999999999999e+00	 9.906520297153836e+00
0	 1.250000000000000e-01	 7.749999999999998e+00	 9.913661113230756e+00
0	 1.250000000000000e-01	 7.874999999999997e+00	 9.921209209769222e+00
0	 1.250000000000000e-01	 7.999999999999997e+00	 9.929164586769225e+00
0	 1.249999999999999e-01	 8.124999999999996e+00	 9.937527244230763e+00
0	 1.250000000000000e-01	 8.249999999999998e+00	 9.946297182153851e+00
0	 1.250000000000000e-01	 8.374999999999996e+00	 9.955474400538462e+00
0	 1.250000000000000e-01	 8.499999999999998e+00	 9.965058899384621e+00
0	 1.250000000000000e-01	 8.624999999999996e+00	 9.975050678692309e+00
0	 1.250000000000000e-01	 8.750000000000000e+00	 9.985449738461538e+00
0	 2.500000000000000e-01	 7.499999999999999e+00	 9.900997399999987e+00
0	 2.499999999999999e-01	 7.624999999999999e+00	 9.907601497384615e+00
0	 2.499999999999999e-01	 7.749999999999999e+00	 9.914568503384608e+00
0	 2.500000000000000e-01	 7.874999999999998e+00	 9.921898417999994e+00
0	 2.499999999999999e-01	 7.999999999999998e+00	 9.929591241230762e+00
0	 2.500000000000001e-01	 8.124999999999998e+00	 9.937646973076918e+00
0	 2.499999999999999e-01	 8.249999999999995e+00	 9.946065613538458e+00
0	 2.500000000000001e-01	 8.374999999999995e+00	 9.954847162615389e+00
0	 2.500000000000001e-01	 8.499999999999998e+00	 9.963991620307684e+00
0	 2.500000000000000e-01	 8.624999999999998e+00	 9.973498986615390e+00
0	 2.500000000000000e-01	 8.750000000000002e+00	 9.983369261538467e+00
0	 3.750000000000001e-01	 7.500000000000000e+00	 9.902733146153844e+00
0	 3.750000000000001e-01	 7.624999999999999e+00	 9.909208473000001e+00
0	 3.750000000000001e-01	 7.750000000000000e+00	 9.916002336615387e+00
0	 3.750000000000001e-01	 7.874999999999997e+00	 9.923114736999995e+00
0	 3.750000000000000e-01	 7.999999999999996e+00	 9.930545674153841e+00
0	 3.750000000000001e-01	 8.124999999999998e+00	 9.938295148076916e+00
0	 3.750000000000001e-01	 8.249999999999998e+00	 9.946363158769239e+00
0	 3.750000000000001e-01	 8.374999999999998e+00	 9.954749706230771e+00
0	 3.750000000000002e-01	 8.499999999999998e+00	 9.963454790461535e+00
0	 3.750000000000000e-01	 8.624999999999996e+00	 9.972478411461534e+00
0	 3.750000000000001e-01	 8.750000000000002e+00	 9.981820569230765e+00
0	 5.000000000000000e-01	 7.500000000000001e+00	 9.904994000000000e+00
0	 5.000000000000001e-01	 7.625000000000002e+00	 9.911341224000001e+00
0	 5.000000000000002e-01	 7.750000000000000e+00	 9.917962612923075e+00
0	 5.000000000000000e-01	 7.874999999999999e+00	 9.924858166769226e+00
0	 5.000000000000000e-01	 7.999999999999998e+00	 9.932027885538464e+00
0	 4.999999999999999e-01	 8.124999999999998e+00	 9.939471769230765e+00
0	 5.000000000000000e-01	 8.249999999999996e+00	 9.947189817846155e+00
0	 5.000000000000000e-01	 8.374999999999995e+00	 9.955182031384615e+00
0	 5.000000000000000e-01	 8.499999999999996e+00	 9.963448409846162e+00
0	 4.999999999999999e-01	 8.624999999999995e+00	 9.971988953230767e+00
0	 5.000000000000000e-01	 8.750000000000000e+00	 9.980803661538465e+00
0	 6.250000000000000e-01	 7.500000000000000e+00	 9.907779961538466e+00
0	 6.250000000000000e-01	 7.624999999999998e+00	 9.913999750384615e+00
0	 6.250000000000001e-01	 7.750000000000000e+00	 9.920449332307697e+00
0	 6.250000000000000e-01	 7.874999999999998e+00	 9.927128707307691e+00
0	 6.250000000000001e-01	 7.999999999999998e+00	 9.934037875384618e+00
0	 6.250000000000000e-01	 8.124999999999998e+00	 9.941176836538460e+00
0	 6.250000000000000e-01	 8.249999999999998e+00	 9.948545590769236e+00
0	 6.250000000000000e-01	 8.374999999999996e+00	 9.956144138076917e+00
0	 6.250000000000000e-01	 8.499999999999996e+00	 9.963972478461532e+00
0	 6.250000000000000e-01	 8.624999999999996e+00	 9.972030611923071e+00
0	 6.250000000000000e-01	 8.750000000000000e+00	 9.980318538461532e+00
0	 7.500000000000000e-01	 7.500000000000001e+00	 9.911091030769237e+00
0	 7.499999999999999e-01	 7.624999999999999e+00	 9.917184052153845e+00
0	 7.500000000000001e-01	 7.750000000000000e+00	 9.923462494769229e+00
0	 7.499999999999999e-01	 7.874999999999997e+00	 9.929926358615386e+00
0	 7.500000000000000e-01	 8.000000000000000e+00	 9.936575643692299e+00
0	 7.500000000000001e-01	 8.125000000000000e+00	 9.943410350000001e+00
0	 7.499999999999999e-01	 8.249999999999996e+00	 9.950430477538456e+00
0	 7.499999999999999e-01	 8.374999999999998e+00	 9.957636026307689e+00
0	 7.500000000000001e-01	 8.499999999999998e+00	 9.965026996307689e+00
0	 7.500000000000001e-01	 8.624999999999996e+00	 9.972603387538463e+00
0	 7.500000000000000e-01	 8.750000000000002e+00	 9.980365199999989e+00
0	 8.749999999999999e-01	 7.500000000000000e+00	 9.914927207692312e+00
0	 8.749999999999999e-01	 7.625000000000000e+00	 9.920894129307694e+00
0	 8.750000000000000e-01	 7.749999999999999e+00	 9.927002100307689e+00
0	 8.750000000000001e-01	 7.874999999999998e+00	 9.933251120692312e+00
0	 8.750000000000000e-01	 8.000000000000000e+00	 9.939641190461542e+00
0	 8.750000000000000e-01	 8.124999999999998e+00	 9.946172309615392e+00
0	 8.750000000000000e-01	 8.249999999999998e+00	 9.952844478153846e+00
0	 8.750000000000000e-01	 8.374999999999996e+00	 9.959657696076928e+00
0	 8.749999999999999e-01	 8.499999999999996e+00	 9.966611963384608e+00
0	 8.750000000000000e-01	 8.624999999999996e+00	 9.973707280076921e+00
0	 8.749999999999999e-01	 8.750000000000000e+00	 9.980943646153845e+00
0	 9.999999999999999e-01	 7.500000000000001e+00	 9.919288492307702e+00
0	 9.999999999999998e-01	 7.624999999999998e+00	 9.925129981846160e+00
0	 9.999999999999999e-01	 7.750000000000000e+00	 9.931068148923083e+00
0	 9.999999999999997e-01	 7.874999999999996e+00	 9.937102993538465e+00
0	 1.000000000000000e+00	 7.999999999999998e+00	 9.943234515692309e+00
0	 9.999999999999998e-01	 8.124999999999996e+00	 9.949462715384609e+00
0	 9.999999999999998e-01	 8.249999999999996e+00	 9.955787592615390e+00
0	 9.999999999999999e-01	 8.374999999999996e+00	 9.962209147384621e+00
0	 1.000000000000000e+00	 8.499999999999996e+00	 9.968727379692304e+00
0	 9.999999999999998e-01	 8.624999999999995e+00	 9.975342289538453e+00
0	 9.999999999999999e-01	 8.750000000000000e+00	 9.982053876923080e+00
0	 1.125000000000000e+00	 7.500000000000000e+00	 9.924174884615391e+00
0	 1.125000000000000e+00	 7.625000000000000e+00	 9.929891609769237e+00
0	 1.125000000000000e+00	 7.749999999999998e+00	 9.935660640615392e+00
0	 1.125000000000000e+00	 7.874999999999999e+00	 9.941481977153845e+00
0	 1.125000000000000e+00	 7.999999999999998e+00	 9.947355619384618e+00
0	 1.125000000000000e+00	 8.124999999999996e+00	 9.953281567307691e+00
0	 1.125000000000000e+00	 8.249999999999996e+00	 9.959259820923075e+00
0	 1.125000000000000e+00	 8.374999999999996e+00	 9.965290380230776e+00
0	 1.125000000000000e+00	 8.499999999999996e+00	 9.971373245230769e+00
0	 1.125000000000000e+00	 8.624999999999996e+00	 9.977508415923078e+00
0	 1.125000000000000e+00	 8.750000000000000e+00	 9.983695892307688e+00
0	 1.250000000000000e+00	 7.500000000000000e+00	 9.929586384615391e+00
0	 1.250000000000000e+00	 7.625000000000000e+00	 9.935179013076937e+00
0	 1.250000000000000e+00	 7.750000000000000e+00	 9.940779575384623e+00
0	 1.250000000000000e+00	 7.874999999999998e+00	 9.946388071538456e+00
0	 1.250000000000000e+00	 7.999999999999999e+00	 9.952004501538463e+00
0	 1.250000000000000e+00	 8.124999999999998e+00	 9.957628865384617e+00
0	 1.250000000000000e+00	 8.249999999999998e+00	 9.963261163076918e+00
0	 1.250000000000000e+00	 8.374999999999996e+00	 9.968901394615383e+00
0	 1.250000000000000e+00	 8.499999999999996e+00	 9.974549560000002e+00
0	 1.250000000000000e+00	 8.624999999999996e+00	 9.980205659230771e+00
0	 1.250000000000000e+00	 8.750000000000000e+00	 9.985869692307690e+00
0	 0.000000000000000e+00	 8.750000000000000e+00	 9.988062000000008e+00
0	 0.000000000000000e+00	 8.875000000000002e+00	 9.987397478461549e+00
0	 0.000000000000000e+00	 9.000000000000000e+00	 9.987306621538462e+00
0	 0.000000000000000e+00	 9.124999999999998e+00	 9.987789429230773e+00
0	 0.000000000000000e+00	 9.250000000000000e+00	 9.988845901538479e+00
0	 0.000000000000000e+00	 9.374999999999996e+00	 9.990476038461546e+00
0	 0.000000000000000e+00	 9.499999999999996e+00	 9.992679840000001e+00
0	 0.000000000000000e+00	 9.624999999999996e+00	 9.995457306153853e+00
0	 0.000000000000000e+00	 9.749999999999996e+00	 9.998808436923074e+00
0	 0.000000000000000e+00	 9.874999999999996e+00	 1.000273323230769e+01
0	 0.000000000000000e+00	 1.000000000000000e+01	 1.000723169230770e+01
0	 1.250000000000000e-01	 8.750000000000000e+00	 9.985449738461538e+00
0	 1.250000000000000e-01	 8.875000000000000e+00	 9.985072651692304e+00
0	 1.249999999999999e-01	 8.999999999999998e+00	 9.985268603692310e+00
0	 1.250000000000000e-01	 9.125000000000000e+00	 9.986037594461552e+00
0	 1.250000000000000e-01	 9.249999999999996e+00	 9.987379624000015e+00
0	 1.250000000000000e-01	 9.374999999999996e+00	 9.989294692307709e+00
0	 1.250000000000000e-01	 9.499999999999996e+00	 9.991782799384621e+00
0	 1.250000000000000e-01	 9.624999999999996e+00	 9.994843945230771e+00
0	 1.250000000000000e-01	 9.749999999999996e+00	 9.998478129846145e+00
0	 1.250000000000000e-01	 9.874999999999998e+00	 1.000268535323079e+01
0	 1.250000000000000e-01	 1.000000000000000e+01	 1.000746561538462e+01
0	 2.500000000000000e-01	 8.750000000000002e+00	 9.983369261538467e+00
0	 2.500000000000000e-01	 8.875000000000000e+00	 9.983230803384620e+00
0	 2.499999999999999e-01	 8.999999999999996e+00	 9.983664758153843e+00
0	 2.500000000000001e-01	 9.125000000000000e+00	 9.984671125846152e+00
0	 2.500000000000001e-01	 9.249999999999998e+00	 9.986249906461536e+00
0	 2.500000000000000e-01	 9.374999999999996e+00	 9.988401100000004e+00
0	 2.500000000000000e-01	 9.499999999999998e+00	 9.991124706461539e+00
0	 2.500000000000000e-01	 9.624999999999995e+00	 9.994420725846165e+00
0	 2.500000000000001e-01	 9.749999999999996e+00	 9.998289158153845e+00
0	 2.500000000000001e-01	 9.874999999999996e+00	 1.000273000338464e+01
0	 2.500000000000000e-01	 1.000000000000000e+01	 1.000774326153846e+01
0	 3.750000000000001e-01	 8.750000000000002e+00	 9.981820569230765e+00
0	 3.750000000000000e-01	 8.874999999999998e+00	 9.981871933538471e+00
0	 3.750000000000001e-01	 9.000000000000000e+00	 9.982495084923078e+00
0	 3.750000000000001e-01	 9.125000000000000e+00	 9.983690023384622e+00
0	 3.750000000000001e-01	 9.249999999999998e+00	 9.985456748923079e+00
0	 3.750000000000001e-01	 9.374999999999998e+00	 9.987795261538462e+00
0	 3.750000000000000e-01	 9.499999999999996e+00	 9.990705561230785e+00
0	 3.750000000000002e-01	 9.624999999999996e+00	 9.994187648000022e+00
0	 3.750000000000002e-01	 9.749999999999996e+00	 9.998241521846156e+00
0	 3.750000000000001e-01	 9.874999999999995e+00	 1.000286718276925e+01
0	 3.750000000000001e-01	 1.000000000000000e+01	 1.000806463076923e+01
0	 5.000000000000000e-01	 8.750000000000000e+00	 9.980803661538465e+00
0	 5.000000000000000e-01	 8.875000000000000e+00	 9.980996042153848e+00
0	 5.000000000000000e-01	 9.000000000000000e+00	 9.981759584000008e+00
0	 5.000000000000000e-01	 9.124999999999996e+00	 9.983094287076923e+00
0	 5.000000000000000e-01	 9.249999999999996e+00	 9.985000151384625e+00
0	 5.000000000000000e-01	 9.374999999999998e+00	 9.987477176923083e+00
0	 5.000000000000000e-01	 9.500000000000000e+00	 9.990525363692331e+00
0	 5.000000000000001e-01	 9.624999999999998e+00	 9.994144711692314e+00
0	 5.000000000000000e-01	 9.749999999999996e+00	 9.998335220923098e+00
0	 4.999999999999999e-01	 9.874999999999995e+00	 1.000309689138461e+01
0	 5.000000000000000e-01	 1.000000000000000e+01	 1.000842972307695e+01
0	 6.250000000000000e-01	 8.750000000000000e+00	 9.980318538461532e+00
0	 6.250000000000000e-01	 8.875000000000000e+00	 9.980603129230772e+00
0	 6.250000000000001e-01	 9.000000000000000e+00	 9.981458255384609e+00
0	 6.250000000000000e-01	 9.125000000000000e+00	 9.982883916923079e+00
0	 6.250000000000001e-01	 9.250000000000000e+00	 9.984880113846156e+00
0	 6.250000000000000e-01	 9.375000000000000e+00	 9.987446846153855e+00
0	 6.250000000000000e-01	 9.499999999999998e+00	 9.990584113846166e+00
0	 6.250000000000000e-01	 9.624999999999998e+00	 9.994291916923082e+00
0	 6.250000000000000e-01	 9.749999999999996e+00	 9.998570255384614e+00
0	 6.250000000000000e-01	 9.874999999999996e+00	 1.000341912923076e+01
0	 6.250000000000000e-01	 1.000000000000000e+01	 1.000883853846155e+01
0	 7.500000000000000e-01	 8.750000000000002e+00	 9.980365199999989e+00
0	 7.500000000000001e-01	 8.875000000000002e+00	 9.980693194769234e+00
0	 7.500000000000000e-01	 9.000000000000000e+00	 9.981591099076921e+00
0	 7.500000000000001e-01	 9.125000000000000e+00	 9.983058912923070e+00
0	 7.500000000000000e-01	 9.249999999999998e+00	 9.985096636307706e+00
0	 7.500000000000000e-01	 9.374999999999998e+00	 9.987704269230774e+00
0	 7.500000000000000e-01	 9.499999999999996e+00	 9.990881811692303e+00
0	 7.500000000000000e-01	 9.624999999999996e+00	 9.994629263692314e+00
0	 7.500000000000001e-01	 9.749999999999996e+00	 9.998946625230781e+00
0	 7.500000000000000e-01	 9.874999999999996e+00	 1.000383389630773e+01
0	 7.500000000000000e-01	 1.000000000000000e+01	 1.000929107692308e+01
0	 8.749999999999999e-01	 8.750000000000000e+00	 9.980943646153845e+00
0	 8.750000000000000e-01	 8.875000000000002e+00	 9.981266238769230e+00
0	 8.750000000000000e-01	 9.000000000000000e+00	 9.982158115076922e+00
0	 8.750000000000000e-01	 9.125000000000000e+00	 9.983619275076919e+00
0	 8.749999999999998e-01	 9.250000000000000e+00	 9.985649718769228e+00
0	 8.749999999999999e-01	 9.374999999999998e+00	 9.988249446153837e+00
0	 8.750000000000000e-01	 9.499999999999998e+00	 9.991418457230759e+00
0	 8.750000000000000e-01	 9.624999999999998e+00	 9.995156752000005e+00
0	 8.750000000000000e-01	 9.749999999999996e+00	 9.999464330461558e+00
0	 8.750000000000000e-01	 9.874999999999996e+00	 1.000434119261539e+01
0	 8.750000000000000e-01	 1.000000000000000e+01	 1.000978733846153e+01
0	 9.999999999999999e-01	 8.750000000000000e+00	 9.982053876923080e+00
0	 1.000000000000000e+00	 8.875000000000000e+00	 9.982322261230767e+00
0	 9.999999999999999e-01	 9.000000000000000e+00	 9.983159303384614e+00
0	 9.999999999999999e-01	 9.125000000000000e+00	 9.984565003384613e+00
0	 9.999999999999998e-01	 9.249999999999998e+00	 9.986539361230761e+00
0	 9.999999999999998e-01	 9.374999999999996e+00	 9.989082376923069e+00
0	 1.000000000000000e+00	 9.499999999999998e+00	 9.992194050461537e+00
0	 1.000000000000000e+00	 9.624999999999998e+00	 9.995874381846157e+00
0	 1.000000000000000e+00	 9.749999999999996e+00	 1.000012337107692e+01
0	 9.999999999999998e-01	 9.874999999999995e+00	 1.000494101815385e+01
0	 1.000000000000000e+00	 1.000000000000000e+01	 1.001032732307693e+01
0	 1.125000000000000e+00	 8.750000000000000e+00	 9.983695892307688e+00
0	 1.125000000000000e+00	 8.875000000000000e+00	 9.983861262153834e+00
0	 1.125000000000000e+00	 9.000000000000000e+00	 9.984594663999998e+00
0	 1.125000000000000e+00	 9.125000000000000e+00	 9.985896097846155e+00
0	 1.125000000000000e+00	 9.250000000000000e+00	 9.987765563692307e+00
0	 1.125000000000000e+00	 9.374999999999996e+00	 9.990203061538461e+00
0	 1.125000000000000e+00	 9.499999999999998e+00	 9.993208591384619e+00
0	 1.125000000000000e+00	 9.624999999999998e+00	 9.996782153230775e+00
0	 1.125000000000000e+00	 9.749999999999996e+00	 1.000092374707693e+01
0	 1.125000000000000e+00	 9.874999999999996e+00	 1.000563337292309e+01
0	 1.125000000000000e+00	 1.000000000000000e+01	 1.001091103076927e+01
0	 1.250000000000000e+00	 8.750000000000000e+00	 9.985869692307690e+00
0	 1.250000000000000e+00	 8.874999999999998e+00	 9.985883241538458e+00
0	 1.250000000000000e+00	 9.000000000000000e+00	 9.986464196923073e+00
0	 1.250000000000000e+00	 9.124999999999998e+00	 9.987612558461541e+00
0	 1.250000000000000e+00	 9.250000000000000e+00	 9.989328326153851e+00
0	 1.250000000000000e+00	 9.374999999999996e+00	 9.991611500000001e+00
0	 1.250000000000000e+00	 9.499999999999996e+00	 9.994462080000005e+00
0	 1.250000000000000e+00	 9.624999999999996e+00	 9.997880066153845e+00
0	 1.250000000000000e+00	 9.749999999999998e+00	 1.000186545846156e+01
0	 1.250000000000000e+00	 9.874999999999996e+00	 1.000641825692309e+01
0	 1.250000000000000e+00	 1.000000000000000e+01	 1.001153846153847e+01
0	 1.250000000000000e+00	 0.000000000000000e+00	 1.559613538461537e+00
0	 1.250000000000000e+00	 1.250000000000000e-01	 3.364908940307691e+00
0	 1.250000000000000e+00	 2.500000000000000e-01	 5.124563084307694e+00
0	 1.250000000000000e+00	 3.750000000000001e-01	 6.838575970461538e+00
0	 1.250000000000000e+00	 5.000000000000000e-01	 8.506947598769232e+00
0	 1.250000000000000e+00	 6.250000000000000e-01	 1.012967796923077e+01
0	 1.250000000000000e+00	 7.500000000000000e-01	 1.170676708184615e+01
0	 1.250000000000000e+00	 8.749999999999999e-01	 1.323821493661538e+01
0	 1.250000000000000e+00	 1.000000000000000e+00	 1.472402153353846e+01
0	 1.250000000000000e+00	 1.125000000000000e+00	 1.616418687261539e+01
0	 1.250000000000000e+00	 1.250000000000000e+00	 1.755871095384615e+01
0	 1.375000000000000e+00	 0.000000000000000e+00	 3.717313689230767e+00
0	 1.375000000000000e+00	 1.250000000000000e-01	 5.131273343276921e+00
0	 1.375000000000000e+00	 2.499999999999999e-01	 6.504428022953851e+00
0	 1.375000000000000e+00	 3.750000000000001e-01	 7.836777728261540e+00
0	 1.375000000000000e+00	 5.000000000000001e-01	 9.128322459200003e+00
0	 1.375000000000000e+00	 6.250000000000001e-01	 1.037906221576923e+01
0	 1.375000000000000e+00	 7.499999999999998e-01	 1.158899699796923e+01
0	 1.375000000000000e+00	 8.750000000000000e-01	 1.275812680580000e+01
0	 1.375000000000000e+00	 1.000000000000000e+00	 1.388645163926154e+01
0	 1.375000000000000e+00	 1.125000000000000e+00	 1.497397149835384e+01
0	 1.375000000000000e+00	 1.250000000000000e+00	 1.602068638307692e+01
0	 1.500000000000000e+00	 0.000000000000000e+00	 5.628549526153849e+00
0	 1.500000000000000e+00	 1.250000000000000e-01	 6.694245345630772e+00
0	 1.500000000000000e+00	 2.500000000000000e-01	 7.723972474215383e+00
0	 1.500000000000000e+00	 3.750000000000001e-01	 8.717730911907692e+00
0	 1.500000000000000e+00	 5.000000000000001e-01	 9.675520658707690e+00
0	 1.500000000000000e+00	 6.250000000000000e-01	 1.059734171461538e+01
0	 1.500000000000000e+00	 7.499999999999999e-01	 1.148319407963077e+01
0	 1.500000000000000e+00	 8.750000000000000e-01	 1.233307775375384e+01
0	 1.500000000000000e+00	 9.999999999999998e-01	 1.314699273698461e+01
0	 1.500000000000000e+00	 1.125000000000000e+00	 1.392493902932307e+01
0	 1.500000000000000e+00	 1.250000000000000e+00	 1.466691663076923e+01
0	 1.625000000000000e+00	 0.000000000000000e+00	 7.293321049230773e+00
0	 1.625000000000000e+00	 1.250000000000000e-01	 8.053824947369236e+00
0	 1.625000000000001e+00	 2.500000000000001e-01	 8.783196438092311e+00
0	 1.625000000000000e+00	 3.750000000000001e-01	 9.481435521400000e+00
0	 1.625000000000000e+00	 5.000000000000002e-01	 1.014854219729231e+01
0	 1.625000000000000e+00	 6.250000000000000e-01	 1.078451646576923e+01
0	 1.625000000000000e+00	 7.500000000000000e-01	 1.138935832683077e+01
0	 1.625000000000000e+00	 8.749999999999999e-01	 1.196306778047692e+01
0	 1.625000000000000e+00	 9.999999999999999e-01	 1.250564482670769e+01
0	 1.625000000000001e+00	 1.125000000000000e+00	 1.301708946552307e+01
0	 1.625000000000000e+00	 1.250000000000000e+00	 1.349740169692307e+01
0	 1.750000000000000e+00	 0.000000000000000e+00	 8.711628258461541e+00
0	 1.750000000000000e+00	 1.250000000000000e-01	 9.210012148492311e+00
0	 1.750000000000000e+00	 2.500000000000000e-01	 9.682099914584620e+00
0	 1.750000000000000e+00	 3.750000000000001e-01	 1.012789155673847e+01
0	 1.750000000000000e+00	 5.000000000000000e-01	 1.054738707495384e+01
0	 1.750000000000000e+00	 6.250000000000000e-01	 1.094058646923077e+01
0	 1.750000000000001e+00	 7.500000000000002e-01	 1.130748973956923e+01
0	 1.750000000000000e+00	 8.750000000000000e-01	 1.164809688596922e+01
0	 1.750000000000000e+00	 9.999999999999998e-01	 1.196240790843076e+01
0	 1.750000000000000e+00	 1.125000000000000e+00	 1.225042280695385e+01
0	 1.750000000000000e+00	 1.250000000000000e+00	 1.251214158153845e+01
0	 1.875000000000000e+00	 0.000000000000000e+00	 9.883471153846159e+00
0	 1.875000000000000e+00	 1.250000000000000e-01	 1.016280694900000e+01
0	 1.875000000000000e+00	 2.500000000000000e-01	 1.042068290369231e+01
0	 1.875000000000000e+00	 3.750000000000000e-01	 1.065709901792308e+01
0	 1.875000000000000e+00	 4.999999999999999e-01	 1.087205529169231e+01
0	 1.875000000000001e+00	 6.250000000000001e-01	 1.106555172500000e+01
0	 1.875000000000001e+00	 7.499999999999999e-01	 1.123758831784615e+01
0	 1.875000000000001e+00	 8.750000000000000e-01	 1.138816507023077e+01
0	 1.875000000000000e+00	 9.999999999999998e-01	 1.151728198215384e+01
0	 1.875000000000001e+00	 1.125000000000000e+00	 1.162493905361538e+01
0	 1.875000000000001e+00	 1.250000000000000e+00	 1.171113628461538e+01
0	 2.000000000000000e+00	 0.000000000000000e+00	 1.080884973538462e+01
0	 2.000000000000000e+00	 1.250000000000000e-01	 1.091220934889231e+01
0	 2.000000000000001e+00	 2.500000000000001e-01	 1.099894540541539e+01
0	 2.000000000000001e+00	 3.750000000000001e-01	 1.106905790495384e+01
0	 2.000000000000001e+00	 5.000000000000001e-01	 1.112254684750770e+01
0	 2.000000000000000e+00	 6.249999999999999e-01	 1.115941223307692e+01
0	 2.000000000000000e+00	 7.500000000000000e-01	 1.117965406166154e+01
0	 2.000000000000001e+00	 8.750000000000001e-01	 1.118327233326154e+01
0	 2.000000000000001e+00	 1.000000000000000e+00	 1.117026704787692e+01
0	 2.000000000000001e+00	 1.125000000000000e+00	 1.114063820550769e+01
0	 2.000000000000000e+00	 1.250000000000000e+00	 1.109438580615384e+01
0	 2.125000000000001e+00	 0.000000000000000e+00	 1.148776400307692e+01
0	 2.125000000000001e+00	 1.250000000000000e-01	 1.145821934816923e+01
0	 2.125000000000001e+00	 2.500000000000001e-01	 1.141688741975385e+01
0	 2.125000000000001e+00	 3.750000000000001e-01	 1.136376821783077e+01
0	 2.125000000000001e+00	 5.000000000000001e-01	 1.129886174240000e+01
0	 2.125000000000000e+00	 6.250000000000000e-01	 1.122216799346154e+01
0	 2.125000000000001e+00	 7.500000000000000e-01	 1.113368697101538e+01
0	 2.125000000000001e+00	 8.749999999999999e-01	 1.103341867506154e+01
0	 2.125000000000001e+00	 9.999999999999999e-01	 1.092136310560000e+01
0	 2.125000000000001e+00	 1.125000000000000e+00	 1.079752026263077e+01
0	 2.125000000000001e+00	 1.250000000000000e+00	 1.066189014615384e+01
0	 2.250000000000001e+00	 0.000000000000000e+00	 1.192021395692308e+01
0	 2.250000000000001e+00	 1.250000000000000e-01	 1.180083694683077e+01
0	 2.250000000000001e+00	 2.500000000000000e-01	 1.167450894670769e+01
0	 2.250000000000000e+00	 3.750000000000001e-01	 1.154122995655384e+01
0	 2.250000000000001e+00	 5.000000000000000e-01	 1.140099997636923e+01
0	 2.250000000000001e+00	 6.250000000000000e-01	 1.125381900615384e+01
0	 2.250000000000000e+00	 7.500000000000000e-01	 1.109968704590769e+01
0	 2.250000000000001e+00	 8.750000000000001e-01	 1.093860409563077e+01
0	 2.250000000000001e+00	 1.000000000000000e+00	 1.077057015532307e+01
0	 2.250000000000001e+00	 1.125000000000000e+00	 1.059558522498461e+01
0	 2.250000000000001e+00	 1.250000000000000e+00	 1.041364930461538e+01
0	 2.375000000000001e+00	 0.000000000000000e+00	 1.210619959692308e+01
0	 2.375000000000001e+00	 1.250000000000000e-01	 1.194006214487693e+01
0	 2.375000000000000e+00	 2.499999999999999e-01	 1.177180998627692e+01
0	 2.375000000000001e+00	 3.750000000000001e-01	 1.160144312112308e+01
0	 2.375000000000001e+00	 5.000000000000000e-01	 1.142896154941538e+01
0	 2.375000000000001e+00	 6.250000000000001e-01	 1.125436527115385e+01
0	 2.375000000000001e+00	 7.500000000000000e-01	 1.107765428633846e+01
0	 2.375000000000001e+00	 8.750000000000000e-01	 1.089882859496923e+01
0	 2.375000000000001e+00	 1.000000000000000e+00	 1.071788819704615e+01
0	 2.375000000000001e+00	 1.125000000000000e+00	 1.053483309256923e+01
0	 2.375000000000001e+00	 1.250000000000000e+00	 1.034966328153846e+01
0	 2.500000000000000e+00	 0.000000000000000e+00	 1.204572092307692e+01
0	 2.500000000000000e+00	 1.250000000000000e-01	 1.187589494230769e+01
0	 2.500000000000000e+00	 2.500000000000000e-01	 1.170879053846154e+01
0	 2.500000000000000e+00	 3.750000000000001e-01	 1.154440771153846e+01
0	 2.500000000000000e+00	 5.000000000000000e-01	 1.138274646153846e+01
0	 2.500000000000000e+00	 6.250000000000000e-01	 1.122380678846154e+01
0	 2.500000000000000e+00	 7.500000000000000e-01	 1.106758869230769e+01
0	 2.500000000000000e+00	 8.749999999999999e-01	 1.091409217307692e+01
0	 2.500000000000000e+00	 1.000000000000000e+00	 1.076331723076923e+01
0	 2.500000000000000e+00	 1.125000000000000e+00	 1.061526386538462e+01
0	 2.500000000000000e+00	 1.250000000000000e+00	 1.046993207692308e+01
0	 1.250000000000000e+00	 1.250000000000000e+00	 1.755871095384615e+01
0	 1.250000000000000e+00	 1.375000000000000e+00	 1.654540603553846e+01
0	 1.250000000000000e+00	 1.500000000000000e+00	 1.554374452984615e+01
0	 1.250000000000000e+00	 1.625000000000000e+00	 1.455372643676923e+01
0	 1.250000000000000e+00	 1.750000000000000e+00	 1.357535175630769e+01
0	 1.250000000000000e+00	 1.875000000000000e+00	 1.260862048846153e+01
0	 1.250000000000000e+00	 2.000000000000000e+00	 1.165353263323077e+01
0	 1.250000000000000e+00	 2.125000000000001e+00	 1.071008819061538e+01
0	 1.250000000000000e+00	 2.250000000000001e+00	 9.778287160615378e+00
0	 1.250000000000000e+00	 2.375000000000001e+00	 8.858129543230762e+00
0	 1.250000000000000e+00	 2.500000000000000e+00	 7.949615338461538e+00
0	 1.375000000000000e+00	 1.250000000000000e+00	 1.602068638307692e+01
0	 1.375000000000000e+00	 1.375000000000000e+00	 1.522253558367692e+01
0	 1.375000000000000e+00	 1.500000000000000e+00	 1.443509899470769e+01
0	 1.375000000000000e+00	 1.625000000000001e+00	 1.365837661616923e+01
0	 1.375000000000000e+00	 1.750000000000000e+00	 1.289236844806153e+01
0	 1.375000000000000e+00	 1.875000000000001e+00	 1.213707449038461e+01
0	 1.375000000000000e+00	 2.000000000000001e+00	 1.139249474313846e+01
0	 1.375000000000000e+00	 2.125000000000000e+00	 1.065862920632307e+01
0	 1.375000000000000e+00	 2.250000000000001e+00	 9.935477879938464e+00
0	 1.375000000000000e+00	 2.375000000000001e+00	 9.223040763984606e+00
0	 1.375000000000000e+00	 2.500000000000000e+00	 8.521317858461538e+00
0	 1.500000000000000e+00	 1.250000000000000e+00	 1.466691663076923e+01
0	 1.500000000000000e+00	 1.375000000000000e+00	 1.405878444073846e+01
0	 1.500000000000001e+00	 1.500000000000001e+00	 1.346043725895385e+01
0	 1.500000000000000e+00	 1.625000000000000e+00	 1.287187508541538e+01
0	 1.500000000000000e+00	 1.750000000000001e+00	 1.229309792012307e+01
0	 1.500000000000000e+00	 1.875000000000000e+00	 1.172410576307693e+01
0	 1.500000000000000e+00	 2.000000000000000e+00	 1.116489861427692e+01
0	 1.500000000000000e+00	 2.125000000000001e+00	 1.061547647372308e+01
0	 1.500000000000000e+00	 2.250000000000001e+00	 1.007583934141538e+01
0	 1.500000000000000e+00	 2.375000000000001e+00	 9.545987217353847e+00
0	 1.500000000000000e+00	 2.500000000000000e+00	 9.025920101538468e+00
0	 1.625000000000000e+00	 1.250000000000000e+00	 1.349740169692307e+01
0	 1.625000000000001e+00	 1.375000000000000e+00	 1.305415260672307e+01
0	 1.625000000000001e+00	 1.500000000000001e+00	 1.261975932258461e+01
0	 1.625000000000000e+00	 1.625000000000000e+00	 1.219422184450769e+01
0	 1.625000000000000e+00	 1.750000000000000e+00	 1.177754017249230e+01
0	 1.625000000000001e+00	 1.875000000000001e+00	 1.136971430653846e+01
0	 1.625000000000000e+00	 2.000000000000001e+00	 1.097074424664615e+01
0	 1.625000000000001e+00	 2.125000000000001e+00	 1.058062999281538e+01
0	 1.625000000000000e+00	 2.250000000000001e+00	 1.019937154504615e+01
0	 1.625000000000000e+00	 2.375000000000000e+00	 9.826968903338459e+00
0	 1.625000000000000e+00	 2.500000000000000e+00	 9.463422067692306e+00
0	 1.750000000000000e+00	 1.250000000000000e+00	 1.251214158153845e+01
0	 1.750000000000000e+00	 1.375000000000000e+00	 1.220864008163076e+01
0	 1.750000000000000e+00	 1.500000000000000e+00	 1.191306518560000e+01
0	 1.750000000000000e+00	 1.625000000000000e+00	 1.162541689344615e+01
0	 1.750000000000000e+00	 1.750000000000000e+00	 1.134569520516922e+01
0	 1.750000000000000e+00	 1.875000000000000e+00	 1.107390012076923e+01
0	 1.750000000000001e+00	 2.000000000000001e+00	 1.081003164024615e+01
0	 1.750000000000001e+00	 2.125000000000001e+00	 1.055408976360000e+01
0	 1.750000000000000e+00	 2.250000000000000e+00	 1.030607449083077e+01
0	 1.750000000000000e+00	 2.375000000000001e+00	 1.006598582193846e+01
0	 1.750000000000000e+00	 2.500000000000000e+00	 9.833823756923081e+00
0	 1.875000000000001e+00	 1.250000000000000e+00	 1.171113628461538e+01
0	 1.875000000000001e+00	 1.375000000000000e+00	 1.152224686546154e+01
0	 1.875000000000000e+00	 1.500000000000000e+00	 1.134035484799999e+01
0	 1.875000000000000e+00	 1.625000000000000e+00	 1.116546023223076e+01
0	 1.875000000000001e+00	 1.750000000000001e+00	 1.099756301815384e+01
0	 1.875000000000000e+00	 1.875000000000000e+00	 1.083666320576923e+01
0	 1.875000000000001e+00	 2.000000000000001e+00	 1.068276079507692e+01
0	 1.875000000000001e+00	 2.125000000000001e+00	 1.053585578607692e+01
0	 1.875000000000001e+00	 2.250000000000001e+00	 1.039594817876923e+01
0	 1.875000000000000e+00	 2.375000000000001e+00	 1.026303797315385e+01
0	 1.875000000000001e+00	 2.500000000000000e+00	 1.013712516923077e+01
0	 2.000000000000000e+00	 1.250000000000000e+00	 1.109438580615384e+01
0	 2.000000000000001e+00	 1.375000000000000e+00	 1.099497295821538e+01
0	 2.000000000000000e+00	 1.500000000000000e+00	 1.090162830978461e+01
0	 2.000000000000001e+00	 1.625000000000000e+00	 1.081435186086154e+01
0	 2.000000000000001e+00	 1.750000000000001e+00	 1.073314361144615e+01
0	 2.000000000000001e+00	 1.875000000000001e+00	 1.065800356153846e+01
0	 2.000000000000001e+00	 2.000000000000001e+00	 1.058893171113846e+01
0	 2.000000000000001e+00	 2.125000000000001e+00	 1.052592806024616e+01
0	 2.000000000000001e+00	 2.250000000000002e+00	 1.046899260886154e+01
0	 2.000000000000000e+00	 2.375000000000001e+00	 1.041812535698462e+01
0	 2.000000000000000e+00	 2.500000000000000e+00	 1.037332630461539e+01
0	 2.125000000000001e+00	 1.250000000000000e+00	 1.066189014615384e+01
0	 2.125000000000001e+00	 1.375000000000000e+00	 1.062681835989230e+01
0	 2.125000000000001e+00	 1.500000000000000e+00	 1.059688557095384e+01
0	 2.125000000000000e+00	 1.625000000000000e+00	 1.057209177933846e+01
0	 2.125000000000001e+00	 1.750000000000000e+00	 1.055243698504616e+01
0	 2.125000000000001e+00	 1.875000000000001e+00	 1.053792118807692e+01
0	 2.125000000000000e+00	 2.000000000000000e+00	 1.052854438843077e+01
0	 2.125000000000001e+00	 2.125000000000001e+00	 1.052430658610769e+01
0	 2.125000000000000e+00	 2.250000000000001e+00	 1.052520778110770e+01
0	 2.125000000000001e+00	 2.375000000000001e+00	 1.053124797343077e+01
0	 2.125000000000001e+00	 2.500000000000000e+00	 1.054242716307693e+01
0	 2.250000000000001e+00	 1.250000000000000e+00	 1.041364930461538e+01
0	 2.250000000000001e+00	 1.375000000000000e+00	 1.041778307049230e+01
0	 2.250000000000000e+00	 1.500000000000000e+00	 1.042612663150769e+01
0	 2.250000000000001e+00	 1.625000000000000e+00	 1.043867998766154e+01
0	 2.250000000000000e+00	 1.750000000000000e+00	 1.045544313895384e+01
0	 2.250000000000001e+00	 1.875000000000001e+00	 1.047641608538462e+01
0	 2.250000000000001e+00	 2.000000000000001e+00	 1.050159882695385e+01
0	 2.250000000000001e+00	 2.125000000000001e+00	 1.053099136366154e+01
0	 2.250000000000001e+00	 2.250000000000001e+00	 1.056459369550769e+01
0	 2.250000000000001e+00	 2.375000000000001e+00	 1.060240582249231e+01
0	 2.250000000000001e+00	 2.500000000000000e+00	 1.064442774461539e+01
0	 2.375000000000001e+00	 1.250000000000000e+00	 1.034966328153846e+01
0	 2.375000000000001e+00	 1.375000000000000e+00	 1.036786709001539e+01
0	 2.375000000000001e+00	 1.500000000000000e+00	 1.038935149144615e+01
0	 2.375000000000000e+00	 1.625000000000000e+00	 1.041411648583077e+01
0	 2.375000000000001e+00	 1.750000000000000e+00	 1.044216207316923e+01
0	 2.375000000000000e+00	 1.875000000000000e+00	 1.047348825346154e+01
0	 2.375000000000001e+00	 2.000000000000000e+00	 1.050809502670769e+01
0	 2.375000000000001e+00	 2.125000000000001e+00	 1.054598239290769e+01
0	 2.375000000000001e+00	 2.250000000000001e+00	 1.058715035206154e+01
0	 2.375000000000001e+00	 2.375000000000001e+00	 1.063159890416923e+01
0	 2.375000000000001e+00	 2.500000000000000e+00	 1.067932804923077e+01
0	 2.500000000000000e+00	 1.250000000000000e+00	 1.046993207692308e+01
0	 2.500000000000000e+00	 1.375000000000000e+00	 1.047707041846154e+01
0	 2.500000000000000e+00	 1.500000000000000e+00	 1.048656015076923e+01
0	 2.500000000000000e+00	 1.625000000000000e+00	 1.049840127384615e+01
0	 2.500000000000000e+00	 1.750000000000000e+00	 1.051259378769231e+01
0	 2.500000000000000e+00	 1.875000000000000e+00	 1.052913769230769e+01
0	 2.500000000000000e+00	 2.000000000000000e+00	 1.054803298769231e+01
0	 2.500000000000000e+00	 2.125000000000001e+00	 1.056927967384615e+01
0	 2.500000000000000e+00	 2.250000000000001e+00	 1.059287775076923e+01
0	 2.500000000000000e+00	 2.375000000000001e+00	 1.061882721846154e+01
0	 2.500000000000000e+00	 2.500000000000000e+00	 1.064712807692308e+01
0	 1.250000000000000e+00	 2.500000000000000e+00	 7.949615338461538e+00
0	 1.250000000000000e+00	 2.625000000000000e+00	 8.219326058769232e+00
0	 1.250000000000000e+00	 2.750000000000000e+00	 8.473717832000002e+00
0	 1.250000000000000e+00	 2.875000000000001e+00	 8.712790658153844e+00
0	 1.250000000000000e+00	 3.000000000000000e+00	 8.936544537230770e+00
0	 1.250000000000000e+00	 3.125000000000000e+00	 9.144979469230767e+00
0	 1.250000000000000e+00	 3.250000000000000e+00	 9.338095454153843e+00
0	 1.250000000000000e+00	 3.375000000000001e+00	 9.515892492000001e+00
0	 1.250000000000000e+00	 3.500000000000001e+00	 9.678370582769231e+00
0	 1.250000000000000e+00	 3.625000000000001e+00	 9.825529726461539e+00
0	 1.250000000000000e+00	 3.750000000000000e+00	 9.957369923076920e+00
0	 1.375000000000000e+00	 2.500000000000000e+00	 8.521317858461538e+00
0	 1.375000000000000e+00	 2.625000000000000e+00	 8.720779676738465e+00
0	 1.375000000000000e+00	 2.750000000000000e+00	 8.907013818030769e+00
0	 1.375000000000000e+00	 2.875000000000000e+00	 9.080020282338463e+00
0	 1.375000000000000e+00	 3.000000000000001e+00	 9.239799069661537e+00
0	 1.375000000000000e+00	 3.125000000000000e+00	 9.386350179999996e+00
0	 1.375000000000000e+00	 3.250000000000001e+00	 9.519673613353842e+00
0	 1.375000000000000e+00	 3.375000000000000e+00	 9.639769369723076e+00
0	 1.375000000000000e+00	 3.500000000000001e+00	 9.746637449107688e+00
0	 1.375000000000000e+00	 3.625000000000001e+00	 9.840277851507688e+00
0	 1.375000000000000e+00	 3.750000000000000e+00	 9.920690576923075e+00
0	 1.500000000000000e+00	 2.500000000000000e+00	 9.025920101538468e+00
0	 1.500000000000000e+00	 2.625000000000001e+00	 9.162668711630769e+00
0	 1.500000000000001e+00	 2.750000000000001e+00	 9.288280914830764e+00
0	 1.500000000000000e+00	 2.875000000000000e+00	 9.402756711138466e+00
0	 1.500000000000000e+00	 3.000000000000000e+00	 9.506096100553847e+00
0	 1.500000000000000e+00	 3.125000000000001e+00	 9.598299083076920e+00
0	 1.500000000000000e+00	 3.250000000000001e+00	 9.679365658707695e+00
0	 1.500000000000000e+00	 3.375000000000001e+00	 9.749295827446151e+00
0	 1.500000000000000e+00	 3.500000000000001e+00	 9.808089589292303e+00
0	 1.500000000000000e+00	 3.625000000000001e+00	 9.855746944246151e+00
0	 1.500000000000000e+00	 3.750000000000000e+00	 9.892267892307691e+00
0	 1.625000000000000e+00	 2.500000000000000e+00	 9.463422067692306e+00
0	 1.625000000000001e+00	 2.625000000000000e+00	 9.544993163446156e+00
0	 1.625000000000001e+00	 2.750000000000000e+00	 9.617519122399997e+00
0	 1.625000000000000e+00	 2.875000000000000e+00	 9.680999944553847e+00
0	 1.625000000000000e+00	 3.000000000000000e+00	 9.735435629907691e+00
0	 1.625000000000001e+00	 3.125000000000001e+00	 9.780826178461538e+00
0	 1.625000000000000e+00	 3.250000000000000e+00	 9.817171590215384e+00
0	 1.625000000000001e+00	 3.375000000000001e+00	 9.844471865169229e+00
0	 1.625000000000000e+00	 3.500000000000000e+00	 9.862727003323078e+00
0	 1.625000000000000e+00	 3.625000000000000e+00	 9.871937004676919e+00
0	 1.625000000000000e+00	 3.750000000000000e+00	 9.872101869230768e+00
0	 1.750000000000000e+00	 2.500000000000000e+00	 9.833823756923081e+00
0	 1.750000000000000e+00	 2.625000000000000e+00	 9.867753032184609e+00
0	 1.750000000000000e+00	 2.750000000000000e+00	 9.894728440738460e+00
0	 1.750000000000000e+00	 2.875000000000000e+00	 9.914749982584613e+00
0	 1.750000000000000e+00	 3.000000000000000e+00	 9.927817657723075e+00
0	 1.750000000000000e+00	 3.125000000000001e+00	 9.933931466153846e+00
0	 1.750000000000001e+00	 3.250000000000001e+00	 9.933091407876919e+00
0	 1.750000000000001e+00	 3.375000000000001e+00	 9.925297482892304e+00
0	 1.750000000000000e+00	 3.500000000000000e+00	 9.910549691199995e+00
0	 1.750000000000000e+00	 3.625000000000001e+00	 9.888848032799995e+00
0	 1.750000000000000e+00	 3.750000000000000e+00	 9.860192507692307e+00
0	 1.875000000000001e+00	 2.500000000000000e+00	 1.013712516923077e+01
0	 1.875000000000001e+00	 2.625000000000001e+00	 1.013094831784615e+01
0	 1.875000000000000e+00	 2.750000000000000e+00	 1.011990886984615e+01
0	 1.875000000000000e+00	 2.875000000000000e+00	 1.010400682523077e+01
0	 1.875000000000001e+00	 3.000000000000001e+00	 1.008324218400000e+01
0	 1.875000000000000e+00	 3.125000000000001e+00	 1.005761494615384e+01
0	 1.875000000000001e+00	 3.250000000000000e+00	 1.002712511169231e+01
0	 1.875000000000001e+00	 3.375000000000001e+00	 9.991772680615377e+00
0	 1.875000000000001e+00	 3.500000000000001e+00	 9.951557652923073e+00
0	 1.875000000000000e+00	 3.625000000000000e+00	 9.906480028615380e+00
0	 1.875000000000001e+00	 3.750000000000000e+00	 9.856539807692304e+00
0	 2.000000000000000e+00	 2.500000000000000e+00	 1.037332630461539e+01
0	 2.000000000000001e+00	 2.625000000000000e+00	 1.033457902043078e+01
0	 2.000000000000000e+00	 2.750000000000000e+00	 1.029306040972308e+01
0	 2.000000000000001e+00	 2.875000000000000e+00	 1.024877047249231e+01
0	 2.000000000000001e+00	 3.000000000000000e+00	 1.020170920873846e+01
0	 2.000000000000001e+00	 3.125000000000000e+00	 1.015187661846154e+01
0	 2.000000000000001e+00	 3.250000000000000e+00	 1.009927270166154e+01
0	 2.000000000000001e+00	 3.375000000000001e+00	 1.004389745833845e+01
0	 2.000000000000001e+00	 3.500000000000000e+00	 9.985750888492305e+00
0	 2.000000000000000e+00	 3.625000000000000e+00	 9.924832992123070e+00
0	 2.000000000000000e+00	 3.750000000000000e+00	 9.861143769230765e+00
0	 2.125000000000001e+00	 2.500000000000000e+00	 1.054242716307693e+01
0	 2.125000000000001e+00	 2.625000000000000e+00	 1.047864513993846e+01
0	 2.125000000000001e+00	 2.750000000000001e+00	 1.041418306036924e+01
0	 2.125000000000000e+00	 2.875000000000000e+00	 1.034904092436923e+01
0	 2.125000000000001e+00	 3.000000000000001e+00	 1.028321873193846e+01
0	 2.125000000000001e+00	 3.125000000000000e+00	 1.021671648307692e+01
0	 2.125000000000000e+00	 3.250000000000000e+00	 1.014953417778461e+01
0	 2.125000000000001e+00	 3.375000000000001e+00	 1.008167181606153e+01
0	 2.125000000000000e+00	 3.500000000000001e+00	 1.001312939790769e+01
0	 2.125000000000001e+00	 3.625000000000001e+00	 9.943906923323070e+00
0	 2.125000000000001e+00	 3.750000000000000e+00	 9.874004392307683e+00
0	 2.250000000000001e+00	 2.500000000000000e+00	 1.064442774461539e+01
0	 2.250000000000001e+00	 2.625000000000000e+00	 1.056314667636923e+01
0	 2.250000000000000e+00	 2.750000000000000e+00	 1.048327682178461e+01
0	 2.250000000000001e+00	 2.875000000000000e+00	 1.040481818086154e+01
0	 2.250000000000000e+00	 3.000000000000000e+00	 1.032777075360000e+01
0	 2.250000000000001e+00	 3.125000000000001e+00	 1.025213454000000e+01
0	 2.250000000000001e+00	 3.250000000000001e+00	 1.017790954006154e+01
0	 2.250000000000001e+00	 3.375000000000001e+00	 1.010509575378461e+01
0	 2.250000000000001e+00	 3.500000000000001e+00	 1.003369318116922e+01
0	 2.250000000000001e+00	 3.625000000000001e+00	 9.963701822215377e+00
0	 2.250000000000001e+00	 3.750000000000000e+00	 9.895121676923068e+00
0	 2.375000000000001e+00	 2.500000000000000e+00	 1.067932804923077e+01
0	 2.375000000000001e+00	 2.625000000000000e+00	 1.058808362972308e+01
0	 2.375000000000001e+00	 2.750000000000000e+00	 1.050034169396923e+01
0	 2.375000000000000e+00	 2.875000000000000e+00	 1.041610224196923e+01
0	 2.375000000000001e+00	 3.000000000000000e+00	 1.033536527372307e+01
0	 2.375000000000000e+00	 3.125000000000000e+00	 1.025813078923077e+01
0	 2.375000000000001e+00	 3.250000000000000e+00	 1.018439878849231e+01
0	 2.375000000000001e+00	 3.375000000000000e+00	 1.011416927150768e+01
0	 2.375000000000001e+00	 3.500000000000001e+00	 1.004744223827692e+01
0	 2.375000000000001e+00	 3.625000000000001e+00	 9.984217688799994e+00
0	 2.375000000000001e+00	 3.750000000000000e+00	 9.924495623076920e+00
0	 2.500000000000000e+00	 2.500000000000000e+00	 1.064712807692308e+01
0	 2.500000000000000e+00	 2.625000000000000e+00	 1.055345600000000e+01
0	 2.500000000000000e+00	 2.750000000000000e+00	 1.046537767692308e+01
0	 2.500000000000000e+00	 2.875000000000001e+00	 1.038289310769231e+01
0	 2.500000000000000e+00	 3.000000000000000e+00	 1.030600229230769e+01
0	 2.500000000000000e+00	 3.125000000000000e+00	 1.023470523076923e+01
0	 2.500000000000000e+00	 3.250000000000000e+00	 1.016900192307692e+01
0	 2.500000000000000e+00	 3.375000000000001e+00	 1.010889236923077e+01
0	 2.500000000000000e+00	 3.500000000000001e+00	 1.005437656923077e+01
0	 2.500000000000000e+00	 3.625000000000001e+00	 1.000545452307692e+01
0	 2.500000000000000e+00	 3.750000000000000e+00	 9.962126230769226e+00
0	 1.250000000000000e+00	 3.750000000000000e+00	 9.957369923076920e+00
0	 1.250000000000000e+00	 3.875000000000000e+00	 9.903007762307684e+00
0	 1.250000000000000e+00	 4.000000000000001e+00	 9.853803372307691e+00
0	 1.250000000000000e+00	 4.125000000000001e+00	 9.809756753076920e+00
0	 1.250000000000000e+00	 4.250000000000001e+00	 9.770867904615383e+00
0	 1.250000000000000e+00	 4.375000000000001e+00	 9.737136826923075e+00
0	 1.250000000000000e+00	 4.500000000000000e+00	 9.708563519999995e+00
0	 1.250000000000000e+00	 4.625000000000001e+00	 9.685147983846154e+00
0	 1.250000000000000e+00	 4.750000000000002e+00	 9.666890218461541e+00
0	 1.250000000000000e+00	 4.875000000000002e+00	 9.653790223846151e+00
0	 1.250000000000000e+00	 5.000000000000000e+00	 9.645847999999999e+00
0	 1.375000000000000e+00	 3.750000000000000e+00	 9.920690576923075e+00
0	 1.375000000000000e+00	 3.875000000000000e+00	 9.880466181230762e+00
0	 1.375000000000000e+00	 4.000000000000000e+00	 9.844381698769222e+00
0	 1.375000000000000e+00	 4.125000000000001e+00	 9.812437129538457e+00
0	 1.375000000000000e+00	 4.250000000000001e+00	 9.784632473538457e+00
0	 1.375000000000000e+00	 4.375000000000002e+00	 9.760967730769231e+00
0	 1.375000000000000e+00	 4.500000000000001e+00	 9.741442901230764e+00
0	 1.375000000000000e+00	 4.625000000000002e+00	 9.726057984923079e+00
0	 1.375000000000000e+00	 4.750000000000002e+00	 9.714812981846158e+00
0	 1.375000000000000e+00	 4.875000000000001e+00	 9.707707892000006e+00
0	 1.375000000000000e+00	 4.999999999999999e+00	 9.704742715384617e+00
0	 1.500000000000000e+00	 3.750000000000000e+00	 9.892267892307691e+00
0	 1.500000000000000e+00	 3.875000000000001e+00	 9.864826600153847e+00
0	 1.500000000000001e+00	 4.000000000000001e+00	 9.840507363692305e+00
0	 1.500000000000000e+00	 4.125000000000000e+00	 9.819310182923072e+00
0	 1.500000000000000e+00	 4.250000000000001e+00	 9.801235057846153e+00
0	 1.500000000000000e+00	 4.375000000000001e+00	 9.786281988461530e+00
0	 1.500000000000000e+00	 4.500000000000000e+00	 9.774450974769225e+00
0	 1.500000000000000e+00	 4.625000000000002e+00	 9.765742016769233e+00
0	 1.500000000000000e+00	 4.750000000000002e+00	 9.760155114461533e+00
0	 1.500000000000000e+00	 4.875000000000001e+00	 9.757690267846151e+00
0	 1.500000000000000e+00	 5.000000000000000e+00	 9.758347476923070e+00
0	 1.625000000000000e+00	 3.750000000000000e+00	 9.872101869230768e+00
0	 1.625000000000001e+00	 3.875000000000000e+00	 9.856089019076915e+00
0	 1.625000000000001e+00	 4.000000000000001e+00	 9.842180367076915e+00
0	 1.625000000000000e+00	 4.124999999999999e+00	 9.830375913230766e+00
0	 1.625000000000000e+00	 4.250000000000000e+00	 9.820675657538459e+00
0	 1.625000000000001e+00	 4.375000000000002e+00	 9.813079599999995e+00
0	 1.625000000000000e+00	 4.500000000000001e+00	 9.807587740615382e+00
0	 1.625000000000001e+00	 4.625000000000001e+00	 9.804200079384609e+00
0	 1.625000000000000e+00	 4.750000000000001e+00	 9.802916616307693e+00
0	 1.625000000000000e+00	 4.875000000000002e+00	 9.803737351384617e+00
0	 1.625000000000000e+00	 5.000000000000000e+00	 9.806662284615387e+00
0	 1.750000000000000e+00	 3.750000000000000e+00	 9.860192507692307e+00
0	 1.750000000000000e+00	 3.875000000000000e+00	 9.854253437999995e+00
0	 1.750000000000000e+00	 4.000000000000000e+00	 9.849400708923069e+00
0	 1.750000000000000e+00	 4.125000000000000e+00	 9.845634320461530e+00
0	 1.750000000000000e+00	 4.250000000000001e+00	 9.842954272615380e+00
0	 1.750000000000000e+00	 4.375000000000000e+00	 9.841360565384619e+00
0	 1.750000000000001e+00	 4.500000000000001e+00	 9.840853198769228e+00
0	 1.750000000000001e+00	 4.625000000000001e+00	 9.841432172769224e+00
0	 1.750000000000000e+00	 4.749999999999999e+00	 9.843097487384611e+00
0	 1.750000000000000e+00	 4.875000000000001e+00	 9.845849142615382e+00
0	 1.750000000000000e+00	 5.000000000000001e+00	 9.849687138461537e+00
0	 1.875000000000001e+00	 3.750000000000000e+00	 9.856539807692304e+00
0	 1.875000000000001e+00	 3.875000000000000e+00	 9.859319856923070e+00
0	 1.875000000000000e+00	 4.000000000000000e+00	 9.862168389230760e+00
0	 1.875000000000000e+00	 4.125000000000000e+00	 9.865085404615382e+00
0	 1.875000000000001e+00	 4.250000000000002e+00	 9.868070903076918e+00
0	 1.875000000000000e+00	 4.375000000000000e+00	 9.871124884615380e+00
0	 1.875000000000001e+00	 4.500000000000001e+00	 9.874247349230767e+00
0	 1.875000000000001e+00	 4.625000000000002e+00	 9.877438296923073e+00
0	 1.875000000000001e+00	 4.750000000000001e+00	 9.880697727692308e+00
0	 1.875000000000000e+00	 4.875000000000002e+00	 9.884025641538454e+00
0	 1.875000000000001e+00	 5.000000000000001e+00	 9.887422038461535e+00
0	 2.000000000000000e+00	 3.750000000000000e+00	 9.861143769230765e+00
0	 2.000000000000001e+00	 3.875000000000000e+00	 9.871288275846153e+00
0	 2.000000000000000e+00	 4.000000000000000e+00	 9.880483407999996e+00
0	 2.000000000000001e+00	 4.125000000000001e+00	 9.888729165692308e+00
0	 2.000000000000001e+00	 4.250000000000001e+00	 9.896025548923078e+00
0	 2.000000000000001e+00	 4.375000000000001e+00	 9.902372557692305e+00
0	 2.000000000000001e+00	 4.500000000000001e+00	 9.907770191999997e+00
0	 2.000000000000001e+00	 4.625000000000002e+00	 9.912218451846149e+00
0	 2.000000000000001e+00	 4.750000000000003e+00	 9.915717337230767e+00
0	 2.000000000000000e+00	 4.875000000000001e+00	 9.918266848153850e+00
0	 2.000000000000000e+00	 4.999999999999999e+00	 9.919866984615386e+00
0	 2.125000000000001e+00	 3.750000000000000e+00	 9.874004392307683e+00
0	 2.125000000000001e+00	 3.875000000000000e+00	 9.890158694769216e+00
0	 2.125000000000001e+00	 4.000000000000001e+00	 9.904345765230762e+00
0	 2.125000000000000e+00	 4.125000000000000e+00	 9.916565603692305e+00
0	 2.125000000000001e+00	 4.250000000000000e+00	 9.926818210153842e+00
0	 2.125000000000001e+00	 4.375000000000001e+00	 9.935103584615385e+00
0	 2.125000000000000e+00	 4.499999999999999e+00	 9.941421727076923e+00
0	 2.125000000000001e+00	 4.625000000000001e+00	 9.945772637538457e+00
0	 2.125000000000000e+00	 4.750000000000001e+00	 9.948156315999999e+00
0	 2.125000000000001e+00	 4.875000000000001e+00	 9.948572762461541e+00
0	 2.125000000000001e+00	 5.000000000000000e+00	 9.947021976923072e+00
0	 2.250000000000001e+00	 3.750000000000000e+00	 9.895121676923068e+00
0	 2.250000000000001e+00	 3.875000000000000e+00	 9.915931113692304e+00
0	 2.250000000000000e+00	 4.000000000000000e+00	 9.933755460923070e+00
0	 2.250000000000001e+00	 4.125000000000000e+00	 9.948594718615379e+00
0	 2.250000000000000e+00	 4.249999999999999e+00	 9.960448886769228e+00
0	 2.250000000000001e+00	 4.375000000000000e+00	 9.969317965384610e+00
0	 2.250000000000001e+00	 4.500000000000003e+00	 9.975201954461536e+00
0	 2.250000000000001e+00	 4.625000000000002e+00	 9.978100853999999e+00
0	 2.250000000000001e+00	 4.750000000000002e+00	 9.978014663999994e+00
0	 2.250000000000001e+00	 4.875000000000002e+00	 9.974943384461543e+00
0	 2.250000000000001e+00	 5.000000000000000e+00	 9.968887015384619e+00
0	 2.375000000000001e+00	 3.750000000000000e+00	 9.924495623076920e+00
0	 2.375000000000001e+00	 3.875000000000000e+00	 9.948605532615380e+00
0	 2.375000000000001e+00	 4.000000000000000e+00	 9.968712495076920e+00
0	 2.375000000000000e+00	 4.125000000000000e+00	 9.984816510461537e+00
0	 2.375000000000001e+00	 4.250000000000000e+00	 9.996917578769228e+00
0	 2.375000000000000e+00	 4.375000000000000e+00	 1.000501570000000e+01
0	 2.375000000000001e+00	 4.500000000000001e+00	 1.000911087415384e+01
0	 2.375000000000001e+00	 4.625000000000000e+00	 1.000920310123077e+01
0	 2.375000000000001e+00	 4.750000000000002e+00	 1.000529238123077e+01
0	 2.375000000000001e+00	 4.875000000000001e+00	 9.997378714153847e+00
0	 2.375000000000001e+00	 5.000000000000000e+00	 9.985462099999996e+00
0	 2.500000000000000e+00	 3.750000000000000e+00	 9.962126230769226e+00
0	 2.500000000000000e+00	 3.875000000000000e+00	 9.988181951538456e+00
0	 2.500000000000000e+00	 4.000000000000001e+00	 1.000921686769231e+01
0	 2.500000000000000e+00	 4.125000000000001e+00	 1.002523097923077e+01
0	 2.500000000000000e+00	 4.250000000000001e+00	 1.003622428615384e+01
0	 2.500000000000000e+00	 4.375000000000001e+00	 1.004219678846153e+01
0	 2.500000000000000e+00	 4.500000000000000e+00	 1.004314848615384e+01
0	 2.500000000000000e+00	 4.625000000000001e+00	 1.003907937923077e+01
0	 2.500000000000000e+00	 4.750000000000002e+00	 1.002998946769231e+01
0	 2.500000000000000e+00	 4.875000000000002e+00	 1.001587875153846e+01
0	 2.500000000000000e+00	 5.000000000000000e+00	 9.996747230769229e+00
0	 1.250000000000000e+00	 5.000000000000000e+00	 9.645847999999999e+00
0	 1.250000000000000e+00	 5.124999999999999e+00	 9.677892339230771e+00
0	 1.250000000000000e+00	 5.250000000000000e+00	 9.707880187692306e+00
0	 1.250000000000000e+00	 5.374999999999998e+00	 9.735811545384607e+00
0	 1.250000000000000e+00	 5.499999999999999e+00	 9.761686412307689e+00
0	 1.250000000000000e+00	 5.624999999999997e+00	 9.785504788461537e+00
0	 1.250000000000000e+00	 5.749999999999997e+00	 9.807266673846147e+00
0	 1.250000000000000e+00	 5.874999999999996e+00	 9.826972068461529e+00
0	 1.250000000000000e+00	 5.999999999999996e+00	 9.844620972307688e+00
0	 1.250000000000000e+00	 6.124999999999996e+00	 9.860213385384617e+00
0	 1.250000000000000e+00	 6.250000000000000e+00	 9.873749307692300e+00
0	 1.375000000000000e+00	 4.999999999999999e+00	 9.704742715384617e+00
0	 1.375000000000000e+00	 5.125000000000000e+00	 9.729544876153842e+00
0	 1.375000000000000e+00	 5.249999999999997e+00	 9.752655747692314e+00
0	 1.375000000000000e+00	 5.374999999999997e+00	 9.774075329999997e+00
0	 1.375000000000000e+00	 5.499999999999997e+00	 9.793803623076922e+00
0	 1.375000000000000e+00	 5.624999999999997e+00	 9.811840626923070e+00
0	 1.375000000000000e+00	 5.749999999999997e+00	 9.828186341538458e+00
0	 1.375000000000000e+00	 5.874999999999996e+00	 9.842840766923072e+00
0	 1.375000000000000e+00	 5.999999999999997e+00	 9.855803903076925e+00
0	 1.375000000000000e+00	 6.124999999999997e+00	 9.867075749999991e+00
0	 1.375000000000000e+00	 6.250000000000000e+00	 9.876656307692297e+00
0	 1.500000000000000e+00	 5.000000000000000e+00	 9.758347476923070e+00
0	 1.500000000000000e+00	 5.124999999999999e+00	 9.776554356153845e+00
0	 1.500000000000000e+00	 5.249999999999999e+00	 9.793435147692309e+00
0	 1.500000000000000e+00	 5.374999999999999e+00	 9.808989851538456e+00
0	 1.500000000000000e+00	 5.499999999999999e+00	 9.823218467692298e+00
0	 1.500000000000000e+00	 5.624999999999997e+00	 9.836120996153840e+00
0	 1.500000000000000e+00	 5.749999999999997e+00	 9.847697436923070e+00
0	 1.500000000000000e+00	 5.874999999999997e+00	 9.857947790000001e+00
0	 1.500000000000000e+00	 5.999999999999996e+00	 9.866872055384613e+00
0	 1.500000000000000e+00	 6.124999999999996e+00	 9.874470233076917e+00
0	 1.500000000000000e+00	 6.250000000000001e+00	 9.880742323076911e+00
0	 1.625000000000000e+00	 5.000000000000000e+00	 9.806662284615387e+00
0	 1.625000000000000e+00	 5.124999999999999e+00	 9.818920779230773e+00
0	 1.625000000000000e+00	 5.249999999999999e+00	 9.830218387692302e+00
0	 1.625000000000000e+00	 5.374999999999998e+00	 9.840555109999993e+00
0	 1.625000000000000e+00	 5.499999999999997e+00	 9.849930946153837e+00
0	 1.625000000000000e+00	 5.624999999999997e+00	 9.858345896153850e+00
0	 1.625000000000000e+00	 5.749999999999998e+00	 9.865799959999995e+00
0	 1.625000000000000e+00	 5.874999999999996e+00	 9.872293137692308e+00
0	 1.625000000000000e+00	 5.999999999999996e+00	 9.877825429230770e+00
0	 1.625000000000000e+00	 6.124999999999995e+00	 9.882396834615374e+00
0	 1.625000000000000e+00	 6.250000000000000e+00	 9.886007353846145e+00
0	 1.750000000000000e+00	 5.000000000000001e+00	 9.849687138461537e+00
0	 1.750000000000001e+00	 5.125000000000000e+00	 9.856644145384614e+00
0	 1.750000000000000e+00	 5.250000000000000e+00	 9.863005467692306e+00
0	 1.750000000000000e+00	 5.374999999999998e+00	 9.868771105384614e+00
0	 1.750000000000001e+00	 5.499999999999998e+00	 9.873941058461536e+00
0	 1.750000000000000e+00	 5.624999999999996e+00	 9.878515326923068e+00
0	 1.750000000000000e+00	 5.749999999999998e+00	 9.882493910769227e+00
0	 1.750000000000000e+00	 5.874999999999997e+00	 9.885876809999990e+00
0	 1.750000000000000e+00	 5.999999999999997e+00	 9.888664024615382e+00
0	 1.750000000000000e+00	 6.124999999999996e+00	 9.890855554615383e+00
0	 1.750000000000000e+00	 6.250000000000000e+00	 9.892451400000006e+00
0	 1.875000000000001e+00	 5.000000000000001e+00	 9.887422038461535e+00
0	 1.875000000000001e+00	 5.124999999999998e+00	 9.889724454615386e+00
0	 1.875000000000001e+00	 5.249999999999999e+00	 9.891796387692304e+00
0	 1.875000000000001e+00	 5.375000000000000e+00	 9.893637837692314e+00
0	 1.875000000000000e+00	 5.499999999999998e+00	 9.895248804615377e+00
0	 1.875000000000001e+00	 5.624999999999999e+00	 9.896629288461540e+00
0	 1.875000000000001e+00	 5.749999999999996e+00	 9.897779289230773e+00
0	 1.875000000000001e+00	 5.874999999999998e+00	 9.898698806923079e+00
0	 1.875000000000001e+00	 5.999999999999998e+00	 9.899387841538456e+00
0	 1.875000000000001e+00	 6.124999999999997e+00	 9.899846393076926e+00
0	 1.875000000000001e+00	 6.250000000000000e+00	 9.900074461538454e+00
0	 2.000000000000000e+00	 4.999999999999999e+00	 9.919866984615386e+00
0	 2.000000000000001e+00	 5.124999999999999e+00	 9.918161706923076e+00
0	 2.000000000000000e+00	 5.249999999999999e+00	 9.916591147692309e+00
0	 2.000000000000000e+00	 5.374999999999997e+00	 9.915155306923078e+00
0	 2.000000000000001e+00	 5.499999999999998e+00	 9.913854184615381e+00
0	 2.000000000000001e+00	 5.624999999999997e+00	 9.912687780769225e+00
0	 2.000000000000000e+00	 5.749999999999997e+00	 9.911656095384611e+00
0	 2.000000000000001e+00	 5.874999999999996e+00	 9.910759128461537e+00
0	 2.000000000000001e+00	 5.999999999999997e+00	 9.909996879999998e+00
0	 2.000000000000000e+00	 6.124999999999996e+00	 9.909369349999993e+00
0	 2.000000000000000e+00	 6.250000000000000e+00	 9.908876538461525e+00
0	 2.125000000000001e+00	 5.000000000000000e+00	 9.947021976923072e+00
0	 2.125000000000001e+00	 5.124999999999999e+00	 9.941955902307692e+00
0	 2.125000000000000e+00	 5.249999999999999e+00	 9.937389747692304e+00
0	 2.125000000000001e+00	 5.374999999999998e+00	 9.933323513076926e+00
0	 2.125000000000001e+00	 5.499999999999998e+00	 9.929757198461534e+00
0	 2.125000000000001e+00	 5.624999999999999e+00	 9.926690803846151e+00
0	 2.125000000000001e+00	 5.749999999999996e+00	 9.924124329230770e+00
0	 2.125000000000001e+00	 5.874999999999997e+00	 9.922057774615386e+00
0	 2.125000000000001e+00	 5.999999999999996e+00	 9.920491140000005e+00
0	 2.125000000000001e+00	 6.124999999999996e+00	 9.919424425384616e+00
0	 2.125000000000001e+00	 6.249999999999999e+00	 9.918857630769230e+00
0	 2.250000000000001e+00	 5.000000000000000e+00	 9.968887015384619e+00
0	 2.250000000000001e+00	 5.125000000000000e+00	 9.961107040769232e+00
0	 2.250000000000001e+00	 5.249999999999999e+00	 9.954192187692307e+00
0	 2.250000000000001e+00	 5.374999999999999e+00	 9.948142456153843e+00
0	 2.250000000000001e+00	 5.499999999999999e+00	 9.942957846153847e+00
0	 2.250000000000001e+00	 5.624999999999998e+00	 9.938638357692307e+00
0	 2.250000000000001e+00	 5.749999999999998e+00	 9.935183990769231e+00
0	 2.250000000000001e+00	 5.874999999999997e+00	 9.932594745384616e+00
0	 2.250000000000001e+00	 5.999999999999996e+00	 9.930870621538466e+00
0	 2.250000000000001e+00	 6.124999999999996e+00	 9.930011619230763e+00
0	 2.250000000000001e+00	 6.250000000000000e+00	 9.930017738461530e+00
0	 2.375000000000001e+00	 5.000000000000000e+00	 9.985462099999996e+00
0	 2.375000000000001e+00	 5.125000000000000e+00	 9.975615122307691e+00
0	 2.375000000000001e+00	 5.249999999999999e+00	 9.966998467692306e+00
0	 2.375000000000001e+00	 5.374999999999998e+00	 9.959612136153847e+00
0	 2.375000000000001e+00	 5.499999999999998e+00	 9.953456127692304e+00
0	 2.375000000000000e+00	 5.624999999999997e+00	 9.948530442307687e+00
0	 2.375000000000001e+00	 5.749999999999996e+00	 9.944835080000001e+00
0	 2.375000000000001e+00	 5.874999999999996e+00	 9.942370040769234e+00
0	 2.375000000000001e+00	 5.999999999999996e+00	 9.941135324615377e+00
0	 2.375000000000001e+00	 6.124999999999996e+00	 9.941130931538460e+00
0	 2.375000000000001e+00	 6.250000000000000e+00	 9.942356861538451e+00
0	 2.500000000000000e+00	 5.000000000000000e+00	 9.996747230769229e+00
0	 2.500000000000000e+00	 5.124999999999999e+00	 9.985480146923081e+00
0	 2.500000000000000e+00	 5.250000000000000e+00	 9.975808587692308e+00
0	 2.500000000000000e+00	 5.374999999999998e+00	 9.967732553076917e+00
0	 2.500000000000000e+00	 5.499999999999999e+00	 9.961252043076923e+00
0	 2.500000000000000e+00	 5.624999999999997e+00	 9.956367057692310e+00
0	 2.500000000000000e+00	 5.749999999999997e+00	 9.953077596923077e+00
0	 2.500000000000000e+00	 5.874999999999996e+00	 9.951383660769229e+00
0	 2.500000000000000e+00	 5.999999999999996e+00	 9.951285249230773e+00
0	 2.500000000000000e+00	 6.124999999999996e+00	 9.952782362307705e+00
0	 2.500000000000000e+00	 6.250000000000000e+00	 9.955875000000001e+00
0	 1.250000000000000e+00	 6.250000000000000e+00	 9.873749307692300e+00
0	 1.250000000000000e+00	 6.375000000000000e+00	 9.875284926153828e+00
0	 1.250000000000000e+00	 6.500000000000000e+00	 9.877720119999992e+00
0	 1.250000000000000e+00	 6.624999999999998e+00	 9.881054889230764e+00
0	 1.250000000000000e+00	 6.749999999999998e+00	 9.885289233846150e+00
0	 1.250000000000000e+00	 6.874999999999998e+00	 9.890423153846145e+00
0	 1.250000000000000e+00	 6.999999999999997e+00	 9.896456649230771e+00
0	 1.250000000000000e+00	 7.124999999999996e+00	 9.903389720000000e+00
0	 1.250000000000000e+00	 7.249999999999997e+00	 9.911222366153851e+00
0	 1.250000000000000e+00	 7.374999999999996e+00	 9.919954587692299e+00
0	 1.250000000000000e+00	 7.500000000000000e+00	 9.929586384615391e+00
0	 1.375000000000000e+00	 6.250000000000000e+00	 9.876656307692297e+00
0	 1.375000000000000e+00	 6.374999999999997e+00	 9.879219381384601e+00
0	 1.375000000000000e+00	 6.500000000000000e+00	 9.882505245538459e+00
0	 1.375000000000000e+00	 6.624999999999996e+00	 9.886513900153837e+00
0	 1.375000000000000e+00	 6.749999999999996e+00	 9.891245345230763e+00
0	 1.375000000000000e+00	 6.874999999999996e+00	 9.896699580769232e+00
0	 1.375000000000000e+00	 6.999999999999998e+00	 9.902876606769226e+00
0	 1.375000000000000e+00	 7.124999999999997e+00	 9.909776423230769e+00
0	 1.375000000000000e+00	 7.249999999999996e+00	 9.917399030153859e+00
0	 1.375000000000000e+00	 7.374999999999996e+00	 9.925744427538469e+00
0	 1.375000000000000e+00	 7.500000000000001e+00	 9.934812615384601e+00
0	 1.500000000000000e+00	 6.250000000000001e+00	 9.880742323076911e+00
0	 1.500000000000000e+00	 6.374999999999999e+00	 9.884206141230765e+00
0	 1.500000000000000e+00	 6.500000000000000e+00	 9.888215964923074e+00
0	 1.500000000000000e+00	 6.624999999999999e+00	 9.892771794153846e+00
0	 1.500000000000000e+00	 6.749999999999998e+00	 9.897873628923069e+00
0	 1.500000000000000e+00	 6.874999999999999e+00	 9.903521469230768e+00
0	 1.500000000000000e+00	 6.999999999999997e+00	 9.909715315076921e+00
0	 1.500000000000000e+00	 7.124999999999998e+00	 9.916455166461539e+00
0	 1.500000000000000e+00	 7.249999999999996e+00	 9.923741023384613e+00
0	 1.500000000000000e+00	 7.374999999999996e+00	 9.931572885846142e+00
0	 1.500000000000000e+00	 7.500000000000000e+00	 9.939950753846158e+00
0	 1.625000000000000e+00	 6.250000000000000e+00	 9.886007353846145e+00
0	 1.625000000000000e+00	 6.375000000000001e+00	 9.890245205692294e+00
0	 1.625000000000000e+00	 6.500000000000000e+00	 9.894852278153840e+00
0	 1.625000000000000e+00	 6.624999999999997e+00	 9.899828571230765e+00
0	 1.625000000000000e+00	 6.749999999999996e+00	 9.905174084923065e+00
0	 1.625000000000000e+00	 6.874999999999998e+00	 9.910888819230763e+00
0	 1.625000000000000e+00	 6.999999999999997e+00	 9.916972774153855e+00
0	 1.625000000000000e+00	 7.124999999999997e+00	 9.923425949692309e+00
0	 1.625000000000000e+00	 7.249999999999996e+00	 9.930248345846152e+00
0	 1.625000000000000e+00	 7.374999999999996e+00	 9.937439962615388e+00
0	 1.625000000000000e+00	 7.500000000000001e+00	 9.945000800000003e+00
0	 1.750000000000000e+00	 6.250000000000000e+00	 9.892451400000006e+00
0	 1.750000000000001e+00	 6.375000000000001e+00	 9.897336574769223e+00
0	 1.750000000000000e+00	 6.500000000000000e+00	 9.902414185230759e+00
0	 1.750000000000000e+00	 6.624999999999999e+00	 9.907684231384614e+00
0	 1.750000000000001e+00	 6.749999999999998e+00	 9.913146713230770e+00
0	 1.750000000000000e+00	 6.874999999999996e+00	 9.918801630769225e+00
0	 1.750000000000000e+00	 6.999999999999997e+00	 9.924648983999996e+00
0	 1.750000000000000e+00	 7.124999999999996e+00	 9.930688772923071e+00
0	 1.750000000000000e+00	 7.249999999999997e+00	 9.936920997538465e+00
0	 1.750000000000000e+00	 7.374999999999996e+00	 9.943345657846153e+00
0	 1.750000000000000e+00	 7.500000000000000e+00	 9.949962753846147e+00
0	 1.875000000000001e+00	 6.250000000000000e+00	 9.900074461538454e+00
0	 1.875000000000001e+00	 6.374999999999999e+00	 9.905480248461526e+00
0	 1.875000000000001e+00	 6.500000000000000e+00	 9.910901686153846e+00
0	 1.875000000000001e+00	 6.625000000000000e+00	 9.916338774615372e+00
0	 1.875000000000000e+00	 6.749999999999997e+00	 9.921791513846149e+00
0	 1.875000000000001e+00	 6.874999999999998e+00	 9.927259903846149e+00
0	 1.875000000000001e+00	 6.999999999999997e+00	 9.932743944615378e+00
0	 1.875000000000001e+00	 7.124999999999997e+00	 9.938243636153850e+00
0	 1.875000000000001e+00	 7.249999999999996e+00	 9.943758978461544e+00
0	 1.875000000000001e+00	 7.374999999999997e+00	 9.949289971538466e+00
0	 1.875000000000001e+00	 7.500000000000000e+00	 9.954836615384609e+00
0	 2.000000000000000e+00	 6.250000000000000e+00	 9.908876538461525e+00
0	 2.000000000000001e+00	 6.375000000000000e+00	 9.914676226769231e+00
0	 2.000000000000000e+00	 6.499999999999999e+00	 9.920314780923073e+00
0	 2.000000000000000e+00	 6.624999999999998e+00	 9.925792200923073e+00
0	 2.000000000000001e+00	 6.749999999999998e+00	 9.931108486769224e+00
0	 2.000000000000001e+00	 6.874999999999997e+00	 9.936263638461543e+00
0	 2.000000000000000e+00	 6.999999999999996e+00	 9.941257655999994e+00
0	 2.000000000000001e+00	 7.124999999999997e+00	 9.946090539384612e+00
0	 2.000000000000001e+00	 7.249999999999996e+00	 9.950762288615373e+00
0	 2.000000000000000e+00	 7.374999999999996e+00	 9.955272903692302e+00
0	 2.000000000000000e+00	 7.500000000000000e+00	 9.959622384615388e+00
0	 2.125000000000001e+00	 6.249999999999999e+00	 9.918857630769230e+00
0	 2.125000000000001e+00	 6.375000000000001e+00	 9.924924509692302e+00
0	 2.125000000000000e+00	 6.499999999999999e+00	 9.930653469538456e+00
0	 2.125000000000001e+00	 6.624999999999997e+00	 9.936044510307687e+00
0	 2.125000000000001e+00	 6.749999999999998e+00	 9.941097632000000e+00
0	 2.125000000000001e+00	 6.874999999999998e+00	 9.945812834615388e+00
0	 2.125000000000001e+00	 6.999999999999998e+00	 9.950190118153840e+00
0	 2.125000000000001e+00	 7.124999999999997e+00	 9.954229482615377e+00
0	 2.125000000000001e+00	 7.249999999999996e+00	 9.957930928000000e+00
0	 2.125000000000001e+00	 7.374999999999997e+00	 9.961294454307682e+00
0	 2.125000000000001e+00	 7.499999999999999e+00	 9.964320061538455e+00
0	 2.250000000000001e+00	 6.250000000000000e+00	 9.930017738461530e+00
0	 2.250000000000001e+00	 6.375000000000000e+00	 9.936225097230775e+00
0	 2.250000000000001e+00	 6.499999999999999e+00	 9.941917751999993e+00
0	 2.250000000000001e+00	 6.624999999999998e+00	 9.947095702769223e+00
0	 2.250000000000001e+00	 6.749999999999999e+00	 9.951758949538458e+00
0	 2.250000000000001e+00	 6.874999999999998e+00	 9.955907492307688e+00
0	 2.250000000000001e+00	 6.999999999999997e+00	 9.959541331076926e+00
0	 2.250000000000001e+00	 7.124999999999996e+00	 9.962660465846145e+00
0	 2.250000000000001e+00	 7.249999999999996e+00	 9.965264896615370e+00
0	 2.250000000000001e+00	 7.374999999999996e+00	 9.967354623384614e+00
0	 2.250000000000001e+00	 7.500000000000000e+00	 9.968929646153846e+00
0	 2.375000000000001e+00	 6.250000000000000e+00	 9.942356861538451e+00
0	 2.375000000000001e+00	 6.374999999999998e+00	 9.948577989384606e+00
0	 2.375000000000001e+00	 6.499999999999999e+00	 9.954107628307678e+00
0	 2.375000000000001e+00	 6.625000000000000e+00	 9.958945778307690e+00
0	 2.375000000000001e+00	 6.749999999999999e+00	 9.963092439384614e+00
0	 2.375000000000000e+00	 6.874999999999996e+00	 9.966547611538456e+00
0	 2.375000000000001e+00	 6.999999999999998e+00	 9.969311294769229e+00
0	 2.375000000000001e+00	 7.124999999999996e+00	 9.971383489076915e+00
0	 2.375000000000001e+00	 7.249999999999997e+00	 9.972764194461533e+00
0	 2.375000000000001e+00	 7.374999999999996e+00	 9.973453410923062e+00
0	 2.375000000000001e+00	 7.500000000000000e+00	 9.973451138461549e+00
0	 2.500000000000000e+00	 6.250000000000000e+00	 9.955875000000001e+00
0	 2.500000000000000e+00	 6.375000000000000e+00	 9.961983186153839e+00
0	 2.500000000000000e+00	 6.500000000000000e+00	 9.967223098461535e+00
0	 2.500000000000000e+00	 6.624999999999998e+00	 9.971594736923079e+00
0	 2.500000000000000e+00	 6.749999999999998e+00	 9.975098101538459e+00
0	 2.500000000000000e+00	 6.874999999999998e+00	 9.977733192307685e+00
0	 2.500000000000000e+00	 6.999999999999997e+00	 9.979500009230765e+00
0	 2.500000000000000e+00	 7.124999999999996e+00	 9.980398552307690e+00
0	 2.500000000000000e+00	 7.249999999999997e+00	 9.980428821538460e+00
0	 2.500000000000000e+00	 7.374999999999996e+00	 9.979590816923064e+00
0	 2.500000000000000e+00	 7.500000000000000e+00	 9.977884538461534e+00
0	 1.250000000000000e+00	 7.500000000000000e+00	 9.929586384615391e+00
0	 1.250000000000000e+00	 7.625000000000000e+00	 9.935179013076937e+00
0	 1.250000000000000e+00	 7.750000000000000e+00	 9.940779575384623e+00
0	 1.250000000000000e+00	 7.874999999999998e+00	 9.946388071538456e+00
0	 1.250000000000000e+00	 7.999999999999999e+00	 9.952004501538463e+00
0	 1.250000000000000e+00	 8.124999999999998e+00	 9.957628865384617e+00
0	 1.250000000000000e+00	 8.249999999999998e+00	 9.963261163076918e+00
0	 1.250000000000000e+00	 8.374999999999996e+00	 9.968901394615383e+00
0	 1.250000000000000e+00	 8.499999999999996e+00	 9.974549560000002e+00
0	 1.250000000000000e+00	 8.624999999999996e+00	 9.980205659230771e+00
0	 1.250000000000000e+00	 8.750000000000000e+00	 9.985869692307690e+00
0	 1.375000000000000e+00	 7.500000000000001e+00	 9.934812615384601e+00
0	 1.375000000000000e+00	 7.624999999999997e+00	 9.939755230692306e+00
0	 1.375000000000000e+00	 7.749999999999998e+00	 9.944741148923086e+00
0	 1.375000000000000e+00	 7.874999999999996e+00	 9.949770370076926e+00
0	 1.375000000000000e+00	 7.999999999999997e+00	 9.954842894153845e+00
0	 1.375000000000000e+00	 8.124999999999996e+00	 9.959958721153845e+00
0	 1.375000000000000e+00	 8.249999999999998e+00	 9.965117851076926e+00
0	 1.375000000000000e+00	 8.374999999999996e+00	 9.970320283923073e+00
0	 1.375000000000000e+00	 8.499999999999996e+00	 9.975566019692312e+00
0	 1.375000000000000e+00	 8.624999999999995e+00	 9.980855058384613e+00
0	 1.375000000000000e+00	 8.750000000000000e+00	 9.986187400000006e+00
0	 1.500000000000000e+00	 7.500000000000000e+00	 9.939950753846158e+00
0	 1.500000000000000e+00	 7.624999999999998e+00	 9.944268329846157e+00
0	 1.500000000000000e+00	 7.750000000000000e+00	 9.948664577846158e+00
0	 1.500000000000000e+00	 7.874999999999999e+00	 9.953139497846152e+00
0	 1.500000000000000e+00	 7.999999999999998e+00	 9.957693089846149e+00
0	 1.500000000000000e+00	 8.124999999999998e+00	 9.962325353846154e+00
0	 1.500000000000000e+00	 8.249999999999998e+00	 9.967036289846156e+00
0	 1.500000000000000e+00	 8.374999999999995e+00	 9.971825897846152e+00
0	 1.500000000000000e+00	 8.499999999999996e+00	 9.976694177846152e+00
0	 1.500000000000000e+00	 8.624999999999996e+00	 9.981641129846153e+00
0	 1.500000000000000e+00	 8.750000000000000e+00	 9.986666753846141e+00
0	 1.625000000000000e+00	 7.500000000000001e+00	 9.945000800000003e+00
0	 1.625000000000000e+00	 7.625000000000000e+00	 9.948718310538466e+00
0	 1.625000000000000e+00	 7.749999999999999e+00	 9.952549862153841e+00
0	 1.625000000000000e+00	 7.874999999999998e+00	 9.956495454846149e+00
0	 1.625000000000000e+00	 7.999999999999996e+00	 9.960555088615388e+00
0	 1.625000000000000e+00	 8.124999999999998e+00	 9.964728763461542e+00
0	 1.625000000000000e+00	 8.249999999999998e+00	 9.969016479384610e+00
0	 1.625000000000000e+00	 8.374999999999996e+00	 9.973418236384610e+00
0	 1.625000000000000e+00	 8.499999999999996e+00	 9.977934034461537e+00
0	 1.625000000000000e+00	 8.624999999999995e+00	 9.982563873615385e+00
0	 1.625000000000000e+00	 8.750000000000000e+00	 9.987307753846149e+00
0	 1.750000000000000e+00	 7.500000000000000e+00	 9.949962753846147e+00
0	 1.750000000000001e+00	 7.625000000000000e+00	 9.953105172769240e+00
0	 1.750000000000000e+00	 7.749999999999999e+00	 9.956397001846161e+00
0	 1.750000000000000e+00	 7.874999999999998e+00	 9.959838241076922e+00
0	 1.750000000000001e+00	 8.000000000000000e+00	 9.963428890461540e+00
0	 1.750000000000000e+00	 8.124999999999996e+00	 9.967168950000000e+00
0	 1.750000000000000e+00	 8.249999999999998e+00	 9.971058419692298e+00
0	 1.750000000000000e+00	 8.374999999999996e+00	 9.975097299538453e+00
0	 1.750000000000000e+00	 8.499999999999996e+00	 9.979285589538451e+00
0	 1.750000000000000e+00	 8.624999999999996e+00	 9.983623289692318e+00
0	 1.750000000000000e+00	 8.750000000000000e+00	 9.988110400000011e+00
0	 1.875000000000001e+00	 7.500000000000000e+00	 9.954836615384609e+00
0	 1.875000000000001e+00	 7.625000000000000e+00	 9.957428916538460e+00
0	 1.875000000000001e+00	 7.749999999999999e+00	 9.960205996923081e+00
0	 1.875000000000001e+00	 7.874999999999998e+00	 9.963167856538456e+00
0	 1.875000000000000e+00	 7.999999999999996e+00	 9.966314495384607e+00
0	 1.875000000000001e+00	 8.125000000000000e+00	 9.969645913461541e+00
0	 1.875000000000001e+00	 8.249999999999996e+00	 9.973162110769238e+00
0	 1.875000000000001e+00	 8.374999999999996e+00	 9.976863087307700e+00
0	 1.875000000000001e+00	 8.499999999999996e+00	 9.980748843076920e+00
0	 1.875000000000001e+00	 8.624999999999998e+00	 9.984819378076917e+00
0	 1.875000000000001e+00	 8.750000000000002e+00	 9.989074692307694e+00
0	 2.000000000000000e+00	 7.500000000000000e+00	 9.959622384615388e+00
0	 2.000000000000001e+00	 7.624999999999999e+00	 9.961689541846154e+00
0	 2.000000000000000e+00	 7.749999999999999e+00	 9.963976847384618e+00
0	 2.000000000000000e+00	 7.874999999999997e+00	 9.966484301230768e+00
0	 2.000000000000001e+00	 7.999999999999999e+00	 9.969211903384616e+00
0	 2.000000000000001e+00	 8.124999999999996e+00	 9.972159653846150e+00
0	 2.000000000000000e+00	 8.249999999999998e+00	 9.975327552615378e+00
0	 2.000000000000001e+00	 8.374999999999996e+00	 9.978715599692304e+00
0	 2.000000000000001e+00	 8.499999999999996e+00	 9.982323795076933e+00
0	 2.000000000000000e+00	 8.624999999999996e+00	 9.986152138769240e+00
0	 2.000000000000000e+00	 8.750000000000000e+00	 9.990200630769230e+00
0	 2.125000000000001e+00	 7.499999999999999e+00	 9.964320061538455e+00
0	 2.125000000000001e+00	 7.625000000000001e+00	 9.965887048692322e+00
0	 2.125000000000000e+00	 7.749999999999999e+00	 9.967709553230758e+00
0	 2.125000000000001e+00	 7.874999999999997e+00	 9.969787575153839e+00
0	 2.125000000000001e+00	 7.999999999999997e+00	 9.972121114461538e+00
0	 2.125000000000001e+00	 8.125000000000000e+00	 9.974710171153847e+00
0	 2.125000000000001e+00	 8.249999999999996e+00	 9.977554745230766e+00
0	 2.125000000000001e+00	 8.374999999999998e+00	 9.980654836692306e+00
0	 2.125000000000001e+00	 8.499999999999996e+00	 9.984010445538461e+00
0	 2.125000000000001e+00	 8.624999999999998e+00	 9.987621571769230e+00
0	 2.125000000000001e+00	 8.750000000000000e+00	 9.991488215384612e+00
0	 2.250000000000001e+00	 7.500000000000000e+00	 9.968929646153846e+00
0	 2.250000000000001e+00	 7.624999999999999e+00	 9.970021437076927e+00
0	 2.250000000000001e+00	 7.750000000000000e+00	 9.971404114461524e+00
0	 2.250000000000001e+00	 7.874999999999998e+00	 9.973077678307686e+00
0	 2.250000000000001e+00	 7.999999999999999e+00	 9.975042128615385e+00
0	 2.250000000000001e+00	 8.124999999999996e+00	 9.977297465384613e+00
0	 2.250000000000001e+00	 8.249999999999998e+00	 9.979843688615388e+00
0	 2.250000000000001e+00	 8.374999999999996e+00	 9.982680798307685e+00
0	 2.250000000000001e+00	 8.499999999999996e+00	 9.985808794461537e+00
0	 2.250000000000001e+00	 8.624999999999995e+00	 9.989227677076929e+00
0	 2.250000000000001e+00	 8.750000000000000e+00	 9.992937446153840e+00
0	 2.375000000000001e+00	 7.500000000000000e+00	 9.973451138461549e+00
0	 2.375000000000001e+00	 7.624999999999997e+00	 9.974092706999997e+00
0	 2.375000000000001e+00	 7.749999999999998e+00	 9.975060531076915e+00
0	 2.375000000000001e+00	 7.875000000000000e+00	 9.976354610692304e+00
0	 2.375000000000001e+00	 7.999999999999998e+00	 9.977974945846153e+00
0	 2.375000000000000e+00	 8.124999999999996e+00	 9.979921536538452e+00
0	 2.375000000000001e+00	 8.249999999999998e+00	 9.982194382769233e+00
0	 2.375000000000001e+00	 8.374999999999995e+00	 9.984793484538455e+00
0	 2.375000000000001e+00	 8.499999999999996e+00	 9.987718841846146e+00
0	 2.375000000000001e+00	 8.624999999999996e+00	 9.990970454692306e+00
0	 2.375000000000001e+00	 8.750000000000000e+00	 9.994548323076927e+00
0	 2.500000000000000e+00	 7.500000000000000e+00	 9.977884538461534e+00
0	 2.500000000000000e+00	 7.625000000000000e+00	 9.978100858461545e+00
0	 2.500000000000000e+00	 7.750000000000000e+00	 9.978678803076919e+00
0	 2.500000000000000e+00	 7.874999999999998e+00	 9.979618372307684e+00
0	 2.500000000000000e+00	 7.999999999999999e+00	 9.980919566153837e+00
0	 2.500000000000000e+00	 8.124999999999998e+00	 9.982582384615387e+00
0	 2.500000000000000e+00	 8.249999999999998e+00	 9.984606827692307e+00
0	 2.500000000000000e+00	 8.374999999999996e+00	 9.986992895384613e+00
0	 2.500000000000000e+00	 8.499999999999996e+00	 9.989740587692308e+00
0	 2.500000000000000e+00	 8.624999999999996e+00	 9.992849904615394e+00
0	 2.500000000000000e+00	 8.750000000000000e+00	 9.996320846153845e+00
0	 1.250000000000000e+00	 8.750000000000000e+00	 9.985869692307690e+00
0	 1.250000000000000e+00	 8.874999999999998e+00	 9.985883241538458e+00
0	 1.250000000000000e+00	 9.000000000000000e+00	 9.986464196923073e+00
0	 1.250000000000000e+00	 9.124999999999998e+00	 9.987612558461541e+00
0	 1.250000000000000e+00	 9.250000000000000e+00	 9.989328326153851e+00
0	 1.250000000000000e+00	 9.374999999999996e+00	 9.991611500000001e+00
0	 1.250000000000000e+00	 9.499999999999996e+00	 9.994462080000005e+00
0	 1.250000000000000e+00	 9.624999999999996e+00	 9.997880066153845e+00
0	 1.250000000000000e+00	 9.749999999999998e+00	 1.000186545846156e+01
0	 1.250000000000000e+00	 9.874999999999996e+00	 1.000641825692309e+01
0	 1.250000000000000e+00	 1.000000000000000e+01	 1.001153846153847e+01
0	 1.375000000000000e+00	 8.750000000000000e+00	 9.986187400000006e+00
0	 1.375000000000000e+00	 8.875000000000000e+00	 9.986218706999995e+00
0	 1.375000000000000e+00	 8.999999999999998e+00	 9.986762684923086e+00
0	 1.375000000000000e+00	 9.125000000000000e+00	 9.987819333769233e+00
0	 1.375000000000000e+00	 9.249999999999998e+00	 9.989388653538469e+00
0	 1.375000000000000e+00	 9.374999999999998e+00	 9.991470644230773e+00
0	 1.375000000000000e+00	 9.499999999999998e+00	 9.994065305846163e+00
0	 1.375000000000000e+00	 9.624999999999998e+00	 9.997172638384630e+00
0	 1.375000000000000e+00	 9.749999999999998e+00	 1.000079264184616e+01
0	 1.375000000000000e+00	 9.874999999999995e+00	 1.000492531623076e+01
0	 1.375000000000000e+00	 1.000000000000000e+01	 1.000957066153850e+01
0	 1.500000000000000e+00	 8.750000000000000e+00	 9.986666753846141e+00
0	 1.500000000000000e+00	 8.874999999999998e+00	 9.986720287846154e+00
0	 1.500000000000000e+00	 8.999999999999998e+00	 9.987231757538451e+00
0	 1.500000000000000e+00	 9.125000000000000e+00	 9.988201162923085e+00
0	 1.500000000000000e+00	 9.249999999999998e+00	 9.989628504000008e+00
0	 1.500000000000001e+00	 9.374999999999998e+00	 9.991513780769241e+00
0	 1.500000000000000e+00	 9.499999999999996e+00	 9.993856993230782e+00
0	 1.500000000000000e+00	 9.624999999999995e+00	 9.996658141384621e+00
0	 1.500000000000000e+00	 9.749999999999995e+00	 9.999917225230766e+00
0	 1.500000000000000e+00	 9.874999999999995e+00	 1.000363424476924e+01
0	 1.500000000000000e+00	 1.000000000000000e+01	 1.000780920000002e+01
0	 1.625000000000000e+00	 8.750000000000000e+00	 9.987307753846149e+00
0	 1.625000000000000e+00	 8.875000000000000e+00	 9.987387984076927e+00
0	 1.625000000000000e+00	 9.000000000000000e+00	 9.987871414769238e+00
0	 1.625000000000001e+00	 9.125000000000000e+00	 9.988758045923079e+00
0	 1.625000000000000e+00	 9.249999999999996e+00	 9.990047877538471e+00
0	 1.625000000000000e+00	 9.374999999999996e+00	 9.991740909615382e+00
0	 1.625000000000000e+00	 9.499999999999998e+00	 9.993837142153842e+00
0	 1.625000000000000e+00	 9.624999999999996e+00	 9.996336575153856e+00
0	 1.625000000000001e+00	 9.749999999999998e+00	 9.999239208615395e+00
0	 1.625000000000000e+00	 9.874999999999996e+00	 1.000254504253848e+01
0	 1.625000000000000e+00	 1.000000000000000e+01	 1.000625407692310e+01
0	 1.750000000000000e+00	 8.750000000000000e+00	 9.988110400000011e+00
0	 1.750000000000000e+00	 8.875000000000000e+00	 9.988221795692310e+00
0	 1.750000000000000e+00	 8.999999999999998e+00	 9.988681656615386e+00
0	 1.750000000000001e+00	 9.124999999999998e+00	 9.989489982769232e+00
0	 1.750000000000001e+00	 9.250000000000000e+00	 9.990646774153856e+00
0	 1.750000000000000e+00	 9.374999999999998e+00	 9.992152030769226e+00
0	 1.750000000000000e+00	 9.499999999999998e+00	 9.994005752615385e+00
0	 1.750000000000001e+00	 9.625000000000000e+00	 9.996207939692319e+00
0	 1.750000000000000e+00	 9.749999999999996e+00	 9.998758592000005e+00
0	 1.750000000000000e+00	 9.874999999999993e+00	 1.000165770953849e+01
0	 1.750000000000000e+00	 1.000000000000000e+01	 1.000490529230769e+01
0	 1.875000000000001e+00	 8.750000000000002e+00	 9.989074692307694e+00
0	 1.875000000000000e+00	 8.875000000000000e+00	 9.989221722692307e+00
0	 1.875000000000001e+00	 8.999999999999998e+00	 9.989662483076923e+00
0	 1.875000000000000e+00	 9.125000000000000e+00	 9.990396973461539e+00
0	 1.875000000000000e+00	 9.249999999999998e+00	 9.991425193846155e+00
0	 1.875000000000000e+00	 9.374999999999998e+00	 9.992747144230778e+00
0	 1.875000000000001e+00	 9.499999999999998e+00	 9.994362824615386e+00
0	 1.875000000000000e+00	 9.624999999999996e+00	 9.996272234999998e+00
0	 1.875000000000001e+00	 9.749999999999996e+00	 9.998475375384620e+00
0	 1.875000000000001e+00	 9.874999999999996e+00	 1.000097224576924e+01
0	 1.875000000000000e+00	 1.000000000000000e+01	 1.000376284615383e+01
0	 2.000000000000000e+00	 8.750000000000000e+00	 9.990200630769230e+00
0	 2.000000000000000e+00	 8.875000000000000e+00	 9.990387765076918e+00
0	 2.000000000000001e+00	 8.999999999999998e+00	 9.990813894153847e+00
0	 2.000000000000001e+00	 9.124999999999998e+00	 9.991479018000005e+00
0	 2.000000000000000e+00	 9.249999999999996e+00	 9.992383136615379e+00
0	 2.000000000000000e+00	 9.374999999999996e+00	 9.993526250000013e+00
0	 2.000000000000000e+00	 9.499999999999996e+00	 9.994908358153850e+00
0	 2.000000000000001e+00	 9.624999999999998e+00	 9.996529461076936e+00
0	 2.000000000000001e+00	 9.749999999999996e+00	 9.998389558769247e+00
0	 2.000000000000001e+00	 9.874999999999996e+00	 1.000048865123078e+01
0	 2.000000000000000e+00	 1.000000000000000e+01	 1.000282673846155e+01
0	 2.125000000000001e+00	 8.750000000000000e+00	 9.991488215384612e+00
0	 2.125000000000001e+00	 8.875000000000002e+00	 9.991719922846166e+00
0	 2.125000000000001e+00	 9.000000000000000e+00	 9.992135889846150e+00
0	 2.125000000000001e+00	 9.124999999999998e+00	 9.992736116384618e+00
0	 2.125000000000001e+00	 9.249999999999998e+00	 9.993520602461542e+00
0	 2.125000000000001e+00	 9.374999999999998e+00	 9.994489348076925e+00
0	 2.125000000000001e+00	 9.499999999999996e+00	 9.995642353230789e+00
0	 2.125000000000001e+00	 9.624999999999998e+00	 9.996979617923085e+00
0	 2.125000000000001e+00	 9.749999999999996e+00	 9.998501142153859e+00
0	 2.125000000000001e+00	 9.874999999999996e+00	 1.000020692592306e+01
0	 2.125000000000001e+00	 1.000000000000000e+01	 1.000209696923075e+01
0	 2.250000000000001e+00	 8.750000000000000e+00	 9.992937446153840e+00
0	 2.250000000000000e+00	 8.874999999999998e+00	 9.993218195999994e+00
0	 2.250000000000000e+00	 8.999999999999998e+00	 9.993628470153846e+00
0	 2.250000000000001e+00	 9.125000000000000e+00	 9.994168268615377e+00
0	 2.250000000000001e+00	 9.249999999999998e+00	 9.994837591384620e+00
0	 2.250000000000001e+00	 9.374999999999996e+00	 9.995636438461542e+00
0	 2.250000000000001e+00	 9.499999999999998e+00	 9.996564809846163e+00
0	 2.250000000000001e+00	 9.624999999999996e+00	 9.997622705538468e+00
0	 2.250000000000001e+00	 9.749999999999996e+00	 9.998810125538469e+00
0	 2.250000000000001e+00	 9.874999999999995e+00	 1.000012706984618e+01
0	 2.250000000000001e+00	 1.000000000000000e+01	 1.000157353846155e+01
0	 2.375000000000001e+00	 8.750000000000000e+00	 9.994548323076927e+00
0	 2.375000000000001e+00	 8.875000000000000e+00	 9.994882584538455e+00
0	 2.375000000000001e+00	 9.000000000000000e+00	 9.995291635076930e+00
0	 2.375000000000001e+00	 9.125000000000000e+00	 9.995775474692312e+00
0	 2.375000000000000e+00	 9.249999999999996e+00	 9.996334103384619e+00
0	 2.375000000000001e+00	 9.374999999999996e+00	 9.996967521153849e+00
0	 2.375000000000001e+00	 9.499999999999996e+00	 9.997675728000008e+00
0	 2.375000000000001e+00	 9.624999999999996e+00	 9.998458723923086e+00
0	 2.375000000000001e+00	 9.749999999999996e+00	 9.999316508923098e+00
0	 2.375000000000000e+00	 9.874999999999995e+00	 1.000024908300000e+01
0	 2.375000000000001e+00	 1.000000000000000e+01	 1.000125644615386e+01
0	 2.500000000000000e+00	 8.750000000000000e+00	 9.996320846153845e+00
0	 2.500000000000000e+00	 8.874999999999998e+00	 9.996713088461540e+00
0	 2.500000000000000e+00	 9.000000000000000e+00	 9.997125384615385e+00
0	 2.500000000000000e+00	 9.124999999999998e+00	 9.997557734615391e+00
0	 2.500000000000000e+00	 9.250000000000000e+00	 9.998010138461545e+00
0	 2.500000000000000e+00	 9.374999999999996e+00	 9.998482596153838e+00
0	 2.500000000000000e+00	 9.499999999999996e+00	 9.998975107692313e+00
0	 2.500000000000000e+00	 9.624999999999996e+00	 9.999487673076930e+00
0	 2.500000000000000e+00	 9.749999999999998e+00	 1.000002029230771e+01
0	 2.500000000000000e+00	 9.874999999999996e+00	 1.000057296538463e+01
0	 2.500000000000000e+00	 1.000000000000000e+01	 1.000114569230770e+01
0	 2.500000000000000e+00	 0.000000000000000e+00	 1.204572092307692e+01
0	 2.500000000000000e+00	 1.250000000000000e-01	 1.187589494230769e+01
0	 2.500000000000000e+00	 2.500000000000000e-01	 1.170879053846154e+01
0	 2.500000000000000e+00	 3.750000000000001e-01	 1.154440771153846e+01
0	 2.500000000000000e+00	 5.000000000000000e-01	 1.138274646153846e+01
0	 2.500000000000000e+00	 6.250000000000000e-01	 1.122380678846154e+01
0	 2.500000000000000e+00	 7.500000000000000e-01	 1.106758869230769e+01
0	 2.500000000000000e+00	 8.749999999999999e-01	 1.091409217307692e+01
0	 2.500000000000000e+00	 1.000000000000000e+00	 1.076331723076923e+01
0	 2.500000000000000e+00	 1.125000000000000e+00	 1.061526386538462e+01
0	 2.500000000000000e+00	 1.250000000000000e+00	 1.046993207692308e+01
0	 2.625000000000000e+00	 0.000000000000000e+00	 1.153862475076923e+01
0	 2.625000000000001e+00	 1.250000000000000e-01	 1.143537164084615e+01
0	 2.625000000000000e+00	 2.499999999999999e-01	 1.133441759938462e+01
0	 2.625000000000000e+00	 3.750000000000001e-01	 1.123576262638461e+01
0	 2.625000000000000e+00	 5.000000000000001e-01	 1.113940672184616e+01
0	 2.625000000000000e+00	 6.250000000000001e-01	 1.104534988576923e+01
0	 2.625000000000000e+00	 7.499999999999998e-01	 1.095359211815384e+01
0	 2.625000000000000e+00	 8.750000000000000e-01	 1.086413341900000e+01
0	 2.625000000000001e+00	 1.000000000000000e+00	 1.077697378830769e+01
0	 2.625000000000000e+00	 1.125000000000000e+00	 1.069211322607693e+01
0	 2.625000000000000e+00	 1.250000000000000e+00	 1.060955173230769e+01
0	 2.750000000000000e+00	 0.000000000000000e+00	 1.109925118769230e+01
0	 2.750000000000000e+00	 1.250000000000000e-01	 1.105311849107692e+01
0	 2.750000000000000e+00	 2.500000000000000e-01	 1.100886235446154e+01
0	 2.750000000000000e+00	 3.750000000000001e-01	 1.096648277784615e+01
0	 2.750000000000000e+00	 5.000000000000001e-01	 1.092597976123077e+01
0	 2.750000000000000e+00	 6.250000000000000e-01	 1.088735330461538e+01
0	 2.750000000000000e+00	 7.499999999999999e-01	 1.085060340800000e+01
0	 2.750000000000000e+00	 8.750000000000000e-01	 1.081573007138461e+01
0	 2.750000000000000e+00	 9.999999999999998e-01	 1.078273329476923e+01
0	 2.750000000000000e+00	 1.125000000000000e+00	 1.075161307815385e+01
0	 2.750000000000000e+00	 1.250000000000000e+00	 1.072236942153846e+01
0	 2.875000000000001e+00	 0.000000000000000e+00	 1.072760023384615e+01
0	 2.875000000000000e+00	 1.250000000000000e-01	 1.072913549300000e+01
0	 2.875000000000001e+00	 2.500000000000001e-01	 1.073212480369230e+01
0	 2.875000000000000e+00	 3.750000000000001e-01	 1.073656816592307e+01
0	 2.875000000000001e+00	 5.000000000000002e-01	 1.074246557969231e+01
0	 2.875000000000000e+00	 6.250000000000000e-01	 1.074981704500000e+01
0	 2.875000000000000e+00	 7.500000000000000e-01	 1.075862256184615e+01
0	 2.875000000000000e+00	 8.749999999999999e-01	 1.076888213023077e+01
0	 2.875000000000000e+00	 9.999999999999999e-01	 1.078059575015384e+01
0	 2.875000000000000e+00	 1.125000000000000e+00	 1.079376342161538e+01
0	 2.875000000000000e+00	 1.250000000000000e+00	 1.080838514461538e+01
0	 3.000000000000000e+00	 0.000000000000000e+00	 1.042367188923077e+01
0	 3.000000000000000e+00	 1.250000000000000e-01	 1.046342264661538e+01
0	 3.000000000000001e+00	 2.500000000000000e-01	 1.050420494707692e+01
0	 3.000000000000001e+00	 3.750000000000001e-01	 1.054601879061538e+01
0	 3.000000000000000e+00	 5.000000000000000e-01	 1.058886417723077e+01
0	 3.000000000000001e+00	 6.250000000000000e-01	 1.063274110692307e+01
0	 3.000000000000001e+00	 7.500000000000002e-01	 1.067764957969231e+01
0	 3.000000000000000e+00	 8.750000000000000e-01	 1.072358959553846e+01
0	 3.000000000000000e+00	 9.999999999999998e-01	 1.077056115446154e+01
0	 3.000000000000000e+00	 1.125000000000000e+00	 1.081856425646154e+01
0	 3.000000000000001e+00	 1.250000000000000e+00	 1.086759890153846e+01
0	 3.125000000000000e+00	 0.000000000000000e+00	 1.018746615384615e+01
0	 3.125000000000000e+00	 1.250000000000000e-01	 1.025597995192307e+01
0	 3.125000000000000e+00	 2.500000000000000e-01	 1.032510278461538e+01
0	 3.125000000000000e+00	 3.750000000000000e-01	 1.039483465192307e+01
0	 3.125000000000000e+00	 4.999999999999999e-01	 1.046517555384615e+01
0	 3.125000000000001e+00	 6.250000000000001e-01	 1.053612549038461e+01
0	 3.125000000000000e+00	 7.499999999999999e-01	 1.060768446153846e+01
0	 3.125000000000001e+00	 8.750000000000000e-01	 1.067985246730769e+01
0	 3.125000000000000e+00	 9.999999999999998e-01	 1.075262950769231e+01
0	 3.125000000000001e+00	 1.125000000000000e+00	 1.082601558269231e+01
0	 3.125000000000000e+00	 1.250000000000000e+00	 1.090001069230769e+01
0	 3.250000000000000e+00	 0.000000000000000e+00	 1.001898302769231e+01
0	 3.250000000000000e+00	 1.250000000000000e-01	 1.010680740892307e+01
0	 3.250000000000000e+00	 2.500000000000001e-01	 1.019481831630769e+01
0	 3.250000000000001e+00	 3.750000000000001e-01	 1.028301574984615e+01
0	 3.250000000000001e+00	 5.000000000000001e-01	 1.037139970953846e+01
0	 3.250000000000001e+00	 6.249999999999999e-01	 1.045997019538462e+01
0	 3.250000000000000e+00	 7.500000000000000e-01	 1.054872720738462e+01
0	 3.250000000000000e+00	 8.750000000000001e-01	 1.063767074553846e+01
0	 3.250000000000001e+00	 1.000000000000000e+00	 1.072680080984615e+01
0	 3.250000000000001e+00	 1.125000000000000e+00	 1.081611740030769e+01
0	 3.250000000000001e+00	 1.250000000000000e+00	 1.090562051692308e+01
0	 3.375000000000001e+00	 0.000000000000000e+00	 9.918222510769230e+00
0	 3.375000000000001e+00	 1.250000000000000e-01	 1.001590501761538e+01
0	 3.375000000000001e+00	 2.500000000000001e-01	 1.011335154215385e+01
0	 3.375000000000001e+00	 3.750000000000001e-01	 1.021056208438461e+01
0	 3.375000000000001e+00	 5.000000000000001e-01	 1.030753664430769e+01
0	 3.375000000000001e+00	 6.250000000000000e-01	 1.040427522192308e+01
0	 3.375000000000001e+00	 7.500000000000000e-01	 1.050077781723077e+01
0	 3.375000000000000e+00	 8.749999999999999e-01	 1.059704443023077e+01
0	 3.375000000000001e+00	 9.999999999999999e-01	 1.069307506092307e+01
0	 3.375000000000001e+00	 1.125000000000000e+00	 1.078886970930769e+01
0	 3.375000000000001e+00	 1.250000000000000e+00	 1.088442837538461e+01
0	 3.500000000000001e+00	 0.000000000000000e+00	 9.885184603076922e+00
0	 3.500000000000000e+00	 1.250000000000000e-01	 9.983272778000002e+00
0	 3.500000000000000e+00	 2.500000000000000e-01	 1.008070246215384e+01
0	 3.500000000000001e+00	 3.750000000000001e-01	 1.017747365553846e+01
0	 3.500000000000001e+00	 5.000000000000000e-01	 1.027358635815384e+01
0	 3.500000000000001e+00	 6.250000000000000e-01	 1.036904057000000e+01
0	 3.500000000000001e+00	 7.500000000000000e-01	 1.046383629107692e+01
0	 3.500000000000001e+00	 8.750000000000001e-01	 1.055797352138462e+01
0	 3.500000000000001e+00	 1.000000000000000e+00	 1.065145226092308e+01
0	 3.500000000000002e+00	 1.125000000000000e+00	 1.074427250969230e+01
0	 3.500000000000000e+00	 1.250000000000000e+00	 1.083643426769230e+01
0	 3.625000000000001e+00	 0.000000000000000e+00	 9.919869304615386e+00
0	 3.625000000000001e+00	 1.250000000000000e-01	 1.000891069007692e+01
0	 3.625000000000000e+00	 2.499999999999999e-01	 1.009687107630769e+01
0	 3.625000000000001e+00	 3.750000000000001e-01	 1.018375046330769e+01
0	 3.625000000000001e+00	 5.000000000000000e-01	 1.026954885107692e+01
0	 3.625000000000001e+00	 6.250000000000001e-01	 1.035426623961538e+01
0	 3.625000000000001e+00	 7.500000000000000e-01	 1.043790262892307e+01
0	 3.625000000000001e+00	 8.750000000000000e-01	 1.052045801899999e+01
0	 3.625000000000002e+00	 1.000000000000000e+00	 1.060193240984615e+01
0	 3.625000000000001e+00	 1.125000000000000e+00	 1.068232580146154e+01
0	 3.625000000000001e+00	 1.250000000000000e+00	 1.076163819384615e+01
0	 3.750000000000000e+00	 0.000000000000000e+00	 1.002227661538462e+01
0	 3.750000000000000e+00	 1.250000000000000e-01	 1.009281875384615e+01
0	 3.750000000000000e+00	 2.500000000000000e-01	 1.016185738461538e+01
0	 3.750000000000000e+00	 3.750000000000001e-01	 1.022939250769231e+01
0	 3.750000000000000e+00	 5.000000000000000e-01	 1.029542412307693e+01
0	 3.750000000000000e+00	 6.250000000000000e-01	 1.035995223076923e+01
0	 3.750000000000000e+00	 7.500000000000000e-01	 1.042297683076923e+01
0	 3.750000000000000e+00	 8.749999999999999e-01	 1.048449792307692e+01
0	 3.750000000000000e+00	 1.000000000000000e+00	 1.054451550769231e+01
0	 3.750000000000000e+00	 1.125000000000000e+00	 1.060302958461539e+01
0	 3.750000000000000e+00	 1.250000000000000e+00	 1.066004015384615e+01
0	 2.500000000000000e+00	 1.250000000000000e+00	 1.046993207692308e+01
0	 2.500000000000000e+00	 1.375000000000000e+00	 1.047707041846154e+01
0	 2.500000000000000e+00	 1.500000000000000e+00	 1.048656015076923e+01
0	 2.500000000000000e+00	 1.625000000000000e+00	 1.049840127384615e+01
0	 2.500000000000000e+00	 1.750000000000000e+00	 1.051259378769231e+01
0	 2.500000000000000e+00	 1.875000000000000e+00	 1.052913769230769e+01
0	 2.500000000000000e+00	 2.000000000000000e+00	 1.054803298769231e+01
0	 2.500000000000000e+00	 2.125000000000001e+00	 1.056927967384615e+01
0	 2.500000000000000e+00	 2.250000000000001e+00	 1.059287775076923e+01
0	 2.500000000000000e+00	 2.375000000000001e+00	 1.061882721846154e+01
0	 2.500000000000000e+00	 2.500000000000000e+00	 1.064712807692308e+01
0	 2.625000000000000e+00	 1.250000000000000e+00	 1.060955173230769e+01
0	 2.625000000000000e+00	 1.375000000000000e+00	 1.059859777338461e+01
0	 2.625000000000000e+00	 1.500000000000000e+00	 1.059015851230769e+01
0	 2.625000000000000e+00	 1.625000000000001e+00	 1.058423394907692e+01
0	 2.625000000000000e+00	 1.750000000000000e+00	 1.058082408369231e+01
0	 2.625000000000001e+00	 1.875000000000001e+00	 1.057992891615385e+01
0	 2.625000000000000e+00	 2.000000000000001e+00	 1.058154844646154e+01
0	 2.625000000000000e+00	 2.125000000000000e+00	 1.058568267461538e+01
0	 2.625000000000001e+00	 2.250000000000001e+00	 1.059233160061539e+01
0	 2.625000000000000e+00	 2.375000000000001e+00	 1.060149522446154e+01
0	 2.625000000000000e+00	 2.500000000000000e+00	 1.061317354615385e+01
0	 2.750000000000000e+00	 1.250000000000000e+00	 1.072236942153846e+01
0	 2.750000000000000e+00	 1.375000000000000e+00	 1.069632619876923e+01
0	 2.750000000000001e+00	 1.500000000000001e+00	 1.067296098092308e+01
0	 2.750000000000000e+00	 1.625000000000000e+00	 1.065227376800000e+01
0	 2.750000000000001e+00	 1.750000000000001e+00	 1.063426456000000e+01
0	 2.750000000000000e+00	 1.875000000000000e+00	 1.061893335692308e+01
0	 2.750000000000000e+00	 2.000000000000000e+00	 1.060628015876923e+01
0	 2.750000000000001e+00	 2.125000000000001e+00	 1.059630496553846e+01
0	 2.750000000000000e+00	 2.250000000000001e+00	 1.058900777723077e+01
0	 2.750000000000000e+00	 2.375000000000001e+00	 1.058438859384616e+01
0	 2.750000000000000e+00	 2.500000000000000e+00	 1.058244741538462e+01
0	 2.875000000000000e+00	 1.250000000000000e+00	 1.080838514461538e+01
0	 2.875000000000000e+00	 1.375000000000000e+00	 1.077025569461538e+01
0	 2.875000000000001e+00	 1.500000000000001e+00	 1.073496755661538e+01
0	 2.875000000000000e+00	 1.625000000000000e+00	 1.070252073061539e+01
0	 2.875000000000000e+00	 1.750000000000000e+00	 1.067291521661538e+01
0	 2.875000000000001e+00	 1.875000000000001e+00	 1.064615101461539e+01
0	 2.875000000000000e+00	 2.000000000000001e+00	 1.062222812461538e+01
0	 2.875000000000001e+00	 2.125000000000001e+00	 1.060114654661539e+01
0	 2.875000000000000e+00	 2.250000000000001e+00	 1.058290628061539e+01
0	 2.875000000000000e+00	 2.375000000000000e+00	 1.056750732661538e+01
0	 2.875000000000000e+00	 2.500000000000000e+00	 1.055494968461538e+01
0	 3.000000000000001e+00	 1.250000000000000e+00	 1.086759890153846e+01
0	 3.000000000000000e+00	 1.375000000000000e+00	 1.082038626092308e+01
0	 3.000000000000000e+00	 1.500000000000000e+00	 1.077617823938462e+01
0	 3.000000000000000e+00	 1.625000000000000e+00	 1.073497483692308e+01
0	 3.000000000000000e+00	 1.750000000000000e+00	 1.069677605353846e+01
0	 3.000000000000001e+00	 1.875000000000000e+00	 1.066158188923077e+01
0	 3.000000000000000e+00	 2.000000000000001e+00	 1.062939234400000e+01
0	 3.000000000000001e+00	 2.125000000000001e+00	 1.060020741784615e+01
0	 3.000000000000000e+00	 2.250000000000000e+00	 1.057402711076923e+01
0	 3.000000000000000e+00	 2.375000000000001e+00	 1.055085142276923e+01
0	 3.000000000000001e+00	 2.500000000000000e+00	 1.053068035384616e+01
0	 3.125000000000000e+00	 1.250000000000000e+00	 1.090001069230769e+01
0	 3.125000000000001e+00	 1.375000000000000e+00	 1.084671789769231e+01
0	 3.125000000000001e+00	 1.500000000000000e+00	 1.079659302923077e+01
0	 3.125000000000000e+00	 1.625000000000000e+00	 1.074963608692307e+01
0	 3.125000000000001e+00	 1.750000000000001e+00	 1.070584707076923e+01
0	 3.125000000000001e+00	 1.875000000000000e+00	 1.066522598076923e+01
0	 3.125000000000001e+00	 2.000000000000001e+00	 1.062777281692307e+01
0	 3.125000000000000e+00	 2.125000000000001e+00	 1.059348757923077e+01
0	 3.125000000000000e+00	 2.250000000000001e+00	 1.056237026769231e+01
0	 3.125000000000000e+00	 2.375000000000001e+00	 1.053442088230769e+01
0	 3.125000000000000e+00	 2.500000000000000e+00	 1.050963942307692e+01
0	 3.250000000000001e+00	 1.250000000000000e+00	 1.090562051692308e+01
0	 3.250000000000001e+00	 1.375000000000000e+00	 1.084925060492308e+01
0	 3.250000000000001e+00	 1.500000000000000e+00	 1.079621192615384e+01
0	 3.250000000000001e+00	 1.625000000000000e+00	 1.074650448061538e+01
0	 3.250000000000001e+00	 1.750000000000001e+00	 1.070012826830769e+01
0	 3.250000000000001e+00	 1.875000000000001e+00	 1.065708328923077e+01
0	 3.250000000000001e+00	 2.000000000000001e+00	 1.061736954338462e+01
0	 3.250000000000001e+00	 2.125000000000001e+00	 1.058098703076923e+01
0	 3.250000000000001e+00	 2.250000000000002e+00	 1.054793575138462e+01
0	 3.250000000000000e+00	 2.375000000000001e+00	 1.051821570523077e+01
0	 3.250000000000001e+00	 2.500000000000000e+00	 1.049182689230769e+01
0	 3.375000000000001e+00	 1.250000000000000e+00	 1.088442837538461e+01
0	 3.375000000000000e+00	 1.375000000000000e+00	 1.082798438261538e+01
0	 3.375000000000001e+00	 1.500000000000000e+00	 1.077503493015384e+01
0	 3.375000000000000e+00	 1.625000000000000e+00	 1.072558001800000e+01
0	 3.375000000000001e+00	 1.750000000000000e+00	 1.067961964615385e+01
0	 3.375000000000001e+00	 1.875000000000001e+00	 1.063715381461538e+01
0	 3.375000000000000e+00	 2.000000000000000e+00	 1.059818252338462e+01
0	 3.375000000000001e+00	 2.125000000000001e+00	 1.056270577246154e+01
0	 3.375000000000000e+00	 2.250000000000001e+00	 1.053072356184616e+01
0	 3.375000000000000e+00	 2.375000000000001e+00	 1.050223589153846e+01
0	 3.375000000000001e+00	 2.500000000000000e+00	 1.047724276153846e+01
0	 3.500000000000000e+00	 1.250000000000000e+00	 1.083643426769230e+01
0	 3.500000000000000e+00	 1.375000000000000e+00	 1.078291923076923e+01
0	 3.500000000000001e+00	 1.500000000000000e+00	 1.073306204123077e+01
0	 3.500000000000000e+00	 1.625000000000000e+00	 1.068686269907692e+01
0	 3.500000000000000e+00	 1.750000000000000e+00	 1.064432120430769e+01
0	 3.500000000000001e+00	 1.875000000000001e+00	 1.060543755692307e+01
0	 3.500000000000001e+00	 2.000000000000001e+00	 1.057021175692308e+01
0	 3.500000000000001e+00	 2.125000000000001e+00	 1.053864380430769e+01
0	 3.500000000000001e+00	 2.250000000000001e+00	 1.051073369907692e+01
0	 3.500000000000001e+00	 2.375000000000001e+00	 1.048648144123077e+01
0	 3.500000000000000e+00	 2.500000000000000e+00	 1.046588703076923e+01
0	 3.625000000000001e+00	 1.250000000000000e+00	 1.076163819384615e+01
0	 3.625000000000001e+00	 1.375000000000000e+00	 1.071405514938462e+01
0	 3.625000000000001e+00	 1.500000000000000e+00	 1.067029325938461e+01
0	 3.625000000000000e+00	 1.625000000000000e+00	 1.063035252384615e+01
0	 3.625000000000000e+00	 1.750000000000000e+00	 1.059423294276923e+01
0	 3.625000000000000e+00	 1.875000000000000e+00	 1.056193451615385e+01
0	 3.625000000000000e+00	 2.000000000000000e+00	 1.053345724400000e+01
0	 3.625000000000001e+00	 2.125000000000001e+00	 1.050880112630769e+01
0	 3.625000000000001e+00	 2.250000000000001e+00	 1.048796616307692e+01
0	 3.625000000000001e+00	 2.375000000000001e+00	 1.047095235430769e+01
0	 3.625000000000001e+00	 2.500000000000000e+00	 1.045775970000000e+01
0	 3.750000000000000e+00	 1.250000000000000e+00	 1.066004015384615e+01
0	 3.750000000000000e+00	 1.375000000000000e+00	 1.062139213846154e+01
0	 3.750000000000000e+00	 1.500000000000000e+00	 1.058672858461538e+01
0	 3.750000000000000e+00	 1.625000000000000e+00	 1.055604949230769e+01
0	 3.750000000000000e+00	 1.750000000000000e+00	 1.052935486153846e+01
0	 3.750000000000000e+00	 1.875000000000000e+00	 1.050664469230769e+01
0	 3.750000000000000e+00	 2.000000000000000e+00	 1.048791898461538e+01
0	 3.750000000000000e+00	 2.125000000000001e+00	 1.047317773846154e+01
0	 3.750000000000000e+00	 2.250000000000001e+00	 1.046242095384616e+01
0	 3.750000000000000e+00	 2.375000000000001e+00	 1.045564863076923e+01
0	 3.750000000000000e+00	 2.500000000000000e+00	 1.045286076923077e+01
0	 2.500000000000000e+00	 2.500000000000000e+00	 1.064712807692308e+01
0	 2.500000000000000e+00	 2.625000000000000e+00	 1.055345600000000e+01
0	 2.500000000000000e+00	 2.750000000000000e+00	 1.046537767692308e+01
0	 2.500000000000000e+00	 2.875000000000001e+00	 1.038289310769231e+01
0	 2.500000000000000e+00	 3.000000000000000e+00	 1.030600229230769e+01
0	 2.500000000000000e+00	 3.125000000000000e+00	 1.023470523076923e+01
0	 2.500000000000000e+00	 3.250000000000000e+00	 1.016900192307692e+01
0	 2.500000000000000e+00	 3.375000000000001e+00	 1.010889236923077e+01
0	 2.500000000000000e+00	 3.500000000000001e+00	 1.005437656923077e+01
0	 2.500000000000000e+00	 3.625000000000001e+00	 1.000545452307692e+01
0	 2.500000000000000e+00	 3.750000000000000e+00	 9.962126230769226e+00
0	 2.625000000000000e+00	 2.500000000000000e+00	 1.061317354615385e+01
0	 2.625000000000000e+00	 2.625000000000000e+00	 1.053327986769231e+01
0	 2.625000000000000e+00	 2.750000000000000e+00	 1.045839545538461e+01
0	 2.625000000000000e+00	 2.875000000000000e+00	 1.038852030923077e+01
0	 2.625000000000000e+00	 3.000000000000001e+00	 1.032365442923077e+01
0	 2.625000000000001e+00	 3.125000000000000e+00	 1.026379781538461e+01
0	 2.625000000000000e+00	 3.250000000000001e+00	 1.020895046769230e+01
0	 2.625000000000000e+00	 3.375000000000000e+00	 1.015911238615384e+01
0	 2.625000000000001e+00	 3.500000000000001e+00	 1.011428357076923e+01
0	 2.625000000000000e+00	 3.625000000000001e+00	 1.007446402153845e+01
0	 2.625000000000000e+00	 3.750000000000000e+00	 1.003965373846153e+01
0	 2.750000000000000e+00	 2.500000000000000e+00	 1.058244741538462e+01
0	 2.750000000000000e+00	 2.625000000000001e+00	 1.051504782923077e+01
0	 2.750000000000001e+00	 2.750000000000001e+00	 1.045207302153846e+01
0	 2.750000000000000e+00	 2.875000000000000e+00	 1.039352299230769e+01
0	 2.750000000000001e+00	 3.000000000000000e+00	 1.033939774153846e+01
0	 2.750000000000000e+00	 3.125000000000001e+00	 1.028969726923077e+01
0	 2.750000000000000e+00	 3.250000000000001e+00	 1.024442157538462e+01
0	 2.750000000000001e+00	 3.375000000000001e+00	 1.020357065999999e+01
0	 2.750000000000000e+00	 3.500000000000001e+00	 1.016714452307692e+01
0	 2.750000000000000e+00	 3.625000000000001e+00	 1.013514316461538e+01
0	 2.750000000000000e+00	 3.750000000000000e+00	 1.010756658461539e+01
0	 2.875000000000000e+00	 2.500000000000000e+00	 1.055494968461538e+01
0	 2.875000000000000e+00	 2.625000000000000e+00	 1.049875988461539e+01
0	 2.875000000000001e+00	 2.750000000000000e+00	 1.044641037538461e+01
0	 2.875000000000000e+00	 2.875000000000000e+00	 1.039790115692308e+01
0	 2.875000000000000e+00	 3.000000000000000e+00	 1.035323222923077e+01
0	 2.875000000000001e+00	 3.125000000000001e+00	 1.031240359230769e+01
0	 2.875000000000000e+00	 3.250000000000000e+00	 1.027541524615384e+01
0	 2.875000000000001e+00	 3.375000000000001e+00	 1.024226719076923e+01
0	 2.875000000000000e+00	 3.500000000000000e+00	 1.021295942615384e+01
0	 2.875000000000000e+00	 3.625000000000000e+00	 1.018749195230769e+01
0	 2.875000000000000e+00	 3.750000000000000e+00	 1.016586476923077e+01
0	 3.000000000000001e+00	 2.500000000000000e+00	 1.053068035384616e+01
0	 3.000000000000000e+00	 2.625000000000000e+00	 1.048441603384615e+01
0	 3.000000000000000e+00	 2.750000000000000e+00	 1.044140751692307e+01
0	 3.000000000000000e+00	 2.875000000000000e+00	 1.040165480307692e+01
0	 3.000000000000000e+00	 3.000000000000000e+00	 1.036515789230769e+01
0	 3.000000000000001e+00	 3.125000000000001e+00	 1.033191678461538e+01
0	 3.000000000000000e+00	 3.250000000000001e+00	 1.030193148000000e+01
0	 3.000000000000001e+00	 3.375000000000001e+00	 1.027520197846153e+01
0	 3.000000000000000e+00	 3.500000000000000e+00	 1.025172827999999e+01
0	 3.000000000000000e+00	 3.625000000000001e+00	 1.023151038461538e+01
0	 3.000000000000001e+00	 3.750000000000000e+00	 1.021454829230769e+01
0	 3.125000000000000e+00	 2.500000000000000e+00	 1.050963942307692e+01
0	 3.125000000000001e+00	 2.625000000000001e+00	 1.047201627692307e+01
0	 3.125000000000001e+00	 2.750000000000000e+00	 1.043706444615385e+01
0	 3.125000000000000e+00	 2.875000000000000e+00	 1.040478393076923e+01
0	 3.125000000000001e+00	 3.000000000000001e+00	 1.037517473076924e+01
0	 3.125000000000001e+00	 3.125000000000001e+00	 1.034823684615384e+01
0	 3.125000000000001e+00	 3.250000000000000e+00	 1.032397027692307e+01
0	 3.125000000000000e+00	 3.375000000000001e+00	 1.030237502307692e+01
0	 3.125000000000000e+00	 3.500000000000001e+00	 1.028345108461538e+01
0	 3.125000000000000e+00	 3.625000000000000e+00	 1.026719846153845e+01
0	 3.125000000000000e+00	 3.750000000000000e+00	 1.025361715384616e+01
0	 3.250000000000001e+00	 2.500000000000000e+00	 1.049182689230769e+01
0	 3.250000000000001e+00	 2.625000000000000e+00	 1.046156061384615e+01
0	 3.250000000000001e+00	 2.750000000000000e+00	 1.043338116307692e+01
0	 3.250000000000001e+00	 2.875000000000000e+00	 1.040728854000000e+01
0	 3.250000000000001e+00	 3.000000000000000e+00	 1.038328274461538e+01
0	 3.250000000000001e+00	 3.125000000000000e+00	 1.036136377692308e+01
0	 3.250000000000001e+00	 3.250000000000000e+00	 1.034153163692307e+01
0	 3.250000000000001e+00	 3.375000000000001e+00	 1.032378632461538e+01
0	 3.250000000000001e+00	 3.500000000000000e+00	 1.030812784000000e+01
0	 3.250000000000000e+00	 3.625000000000000e+00	 1.029455618307691e+01
0	 3.250000000000001e+00	 3.750000000000000e+00	 1.028307135384615e+01
0	 3.375000000000001e+00	 2.500000000000000e+00	 1.047724276153846e+01
0	 3.375000000000000e+00	 2.625000000000000e+00	 1.045304904461538e+01
0	 3.375000000000001e+00	 2.750000000000001e+00	 1.043035766769231e+01
0	 3.375000000000000e+00	 2.875000000000000e+00	 1.040916863076923e+01
0	 3.375000000000001e+00	 3.000000000000001e+00	 1.038948193384615e+01
0	 3.375000000000001e+00	 3.125000000000000e+00	 1.037129757692308e+01
0	 3.375000000000000e+00	 3.250000000000000e+00	 1.035461556000000e+01
0	 3.375000000000001e+00	 3.375000000000001e+00	 1.033943588307692e+01
0	 3.375000000000000e+00	 3.500000000000001e+00	 1.032575854615384e+01
0	 3.375000000000000e+00	 3.625000000000001e+00	 1.031358354923077e+01
0	 3.375000000000001e+00	 3.750000000000000e+00	 1.030291089230768e+01
0	 3.500000000000000e+00	 2.500000000000000e+00	 1.046588703076923e+01
0	 3.500000000000000e+00	 2.625000000000000e+00	 1.044648156923077e+01
0	 3.500000000000001e+00	 2.750000000000000e+00	 1.042799396000000e+01
0	 3.500000000000000e+00	 2.875000000000000e+00	 1.041042420307692e+01
0	 3.500000000000000e+00	 3.000000000000000e+00	 1.039377229846154e+01
0	 3.500000000000001e+00	 3.125000000000001e+00	 1.037803824615384e+01
0	 3.500000000000001e+00	 3.250000000000001e+00	 1.036322204615385e+01
0	 3.500000000000001e+00	 3.375000000000001e+00	 1.034932369846154e+01
0	 3.500000000000001e+00	 3.500000000000001e+00	 1.033634320307692e+01
0	 3.500000000000001e+00	 3.625000000000001e+00	 1.032428055999999e+01
0	 3.500000000000000e+00	 3.750000000000000e+00	 1.031313576923076e+01
0	 3.625000000000001e+00	 2.500000000000000e+00	 1.045775970000000e+01
0	 3.625000000000001e+00	 2.625000000000000e+00	 1.044185818769231e+01
0	 3.625000000000001e+00	 2.750000000000000e+00	 1.042629004000000e+01
0	 3.625000000000000e+00	 2.875000000000000e+00	 1.041105525692308e+01
0	 3.625000000000000e+00	 3.000000000000000e+00	 1.039615383846154e+01
0	 3.625000000000000e+00	 3.125000000000000e+00	 1.038158578461538e+01
0	 3.625000000000000e+00	 3.250000000000000e+00	 1.036735109538461e+01
0	 3.625000000000001e+00	 3.375000000000000e+00	 1.035344977076922e+01
0	 3.625000000000001e+00	 3.500000000000001e+00	 1.033988181076923e+01
0	 3.625000000000001e+00	 3.625000000000001e+00	 1.032664721538461e+01
0	 3.625000000000001e+00	 3.750000000000000e+00	 1.031374598461538e+01
0	 3.750000000000000e+00	 2.500000000000000e+00	 1.045286076923077e+01
0	 3.750000000000000e+00	 2.625000000000000e+00	 1.043917889999999e+01
0	 3.750000000000000e+00	 2.750000000000000e+00	 1.042524590769230e+01
0	 3.750000000000000e+00	 2.875000000000001e+00	 1.041106179230769e+01
0	 3.750000000000000e+00	 3.000000000000000e+00	 1.039662655384615e+01
0	 3.750000000000000e+00	 3.125000000000000e+00	 1.038194019230769e+01
0	 3.750000000000000e+00	 3.250000000000000e+00	 1.036700270769230e+01
0	 3.750000000000000e+00	 3.375000000000001e+00	 1.035181409999999e+01
0	 3.750000000000000e+00	 3.500000000000001e+00	 1.033637436923077e+01
0	 3.750000000000000e+00	 3.625000000000001e+00	 1.032068351538461e+01
0	 3.750000000000000e+00	 3.750000000000000e+00	 1.030474153846153e+01
0	 2.500000000000000e+00	 3.750000000000000e+00	 9.962126230769226e+00
0	 2.500000000000000e+00	 3.875000000000000e+00	 9.988181951538456e+00
0	 2.500000000000000e+00	 4.000000000000001e+00	 1.000921686769231e+01
0	 2.500000000000000e+00	 4.125000000000001e+00	 1.002523097923077e+01
0	 2.500000000000000e+00	 4.250000000000001e+00	 1.003622428615384e+01
0	 2.500000000000000e+00	 4.375000000000001e+00	 1.004219678846153e+01
0	 2.500000000000000e+00	 4.500000000000000e+00	 1.004314848615384e+01
0	 2.500000000000000e+00	 4.625000000000001e+00	 1.003907937923077e+01
0	 2.500000000000000e+00	 4.750000000000002e+00	 1.002998946769231e+01
0	 2.500000000000000e+00	 4.875000000000002e+00	 1.001587875153846e+01
0	 2.500000000000000e+00	 5.000000000000000e+00	 9.996747230769229e+00
0	 2.625000000000000e+00	 3.750000000000000e+00	 1.003965373846153e+01
0	 2.625000000000000e+00	 3.875000000000000e+00	 1.005595695176922e+01
0	 2.625000000000000e+00	 4.000000000000000e+00	 1.006784578553846e+01
0	 2.625000000000000e+00	 4.125000000000001e+00	 1.007532023976923e+01
0	 2.625000000000000e+00	 4.250000000000001e+00	 1.007838031446154e+01
0	 2.625000000000001e+00	 4.375000000000002e+00	 1.007702600961538e+01
0	 2.625000000000000e+00	 4.500000000000001e+00	 1.007125732523077e+01
0	 2.625000000000000e+00	 4.625000000000002e+00	 1.006107426130769e+01
0	 2.625000000000001e+00	 4.750000000000002e+00	 1.004647681784616e+01
0	 2.625000000000000e+00	 4.875000000000001e+00	 1.002746499484616e+01
0	 2.625000000000000e+00	 4.999999999999999e+00	 1.000403879230769e+01
0	 2.750000000000000e+00	 3.750000000000000e+00	 1.010756658461539e+01
0	 2.750000000000000e+00	 3.875000000000001e+00	 1.011512970584615e+01
0	 2.750000000000001e+00	 4.000000000000001e+00	 1.011888487261538e+01
0	 2.750000000000000e+00	 4.125000000000000e+00	 1.011883208492307e+01
0	 2.750000000000001e+00	 4.250000000000001e+00	 1.011497134276923e+01
0	 2.750000000000000e+00	 4.375000000000001e+00	 1.010730264615384e+01
0	 2.750000000000000e+00	 4.500000000000000e+00	 1.009582599507692e+01
0	 2.750000000000001e+00	 4.625000000000002e+00	 1.008054138953846e+01
0	 2.750000000000000e+00	 4.750000000000002e+00	 1.006144882953846e+01
0	 2.750000000000000e+00	 4.875000000000001e+00	 1.003854831507692e+01
0	 2.750000000000000e+00	 5.000000000000000e+00	 1.001183984615384e+01
0	 2.875000000000000e+00	 3.750000000000000e+00	 1.016586476923077e+01
0	 2.875000000000000e+00	 3.875000000000000e+00	 1.016570021376922e+01
0	 2.875000000000001e+00	 4.000000000000001e+00	 1.016233412892307e+01
0	 2.875000000000000e+00	 4.124999999999999e+00	 1.015576651469230e+01
0	 2.875000000000000e+00	 4.250000000000000e+00	 1.014599737107692e+01
0	 2.875000000000001e+00	 4.375000000000002e+00	 1.013302669807692e+01
0	 2.875000000000000e+00	 4.500000000000001e+00	 1.011685449569231e+01
0	 2.875000000000001e+00	 4.625000000000001e+00	 1.009748076392307e+01
0	 2.875000000000000e+00	 4.750000000000001e+00	 1.007490550276923e+01
0	 2.875000000000000e+00	 4.875000000000002e+00	 1.004912871223078e+01
0	 2.875000000000000e+00	 5.000000000000000e+00	 1.002015039230769e+01
0	 3.000000000000001e+00	 3.750000000000000e+00	 1.021454829230769e+01
0	 3.000000000000000e+00	 3.875000000000000e+00	 1.020766847553846e+01
0	 3.000000000000000e+00	 4.000000000000000e+00	 1.019819355446153e+01
0	 3.000000000000000e+00	 4.125000000000000e+00	 1.018612352907692e+01
0	 3.000000000000000e+00	 4.250000000000001e+00	 1.017145839938461e+01
0	 3.000000000000001e+00	 4.375000000000000e+00	 1.015419816538462e+01
0	 3.000000000000000e+00	 4.500000000000001e+00	 1.013434282707692e+01
0	 3.000000000000001e+00	 4.625000000000001e+00	 1.011189238446153e+01
0	 3.000000000000000e+00	 4.749999999999999e+00	 1.008684683753845e+01
0	 3.000000000000000e+00	 4.875000000000001e+00	 1.005920618630769e+01
0	 3.000000000000001e+00	 5.000000000000001e+00	 1.002897043076923e+01
0	 3.125000000000000e+00	 3.750000000000000e+00	 1.025361715384616e+01
0	 3.125000000000001e+00	 3.875000000000000e+00	 1.024103449115384e+01
0	 3.125000000000001e+00	 4.000000000000000e+00	 1.022646314923076e+01
0	 3.125000000000000e+00	 4.125000000000000e+00	 1.020990312807692e+01
0	 3.125000000000001e+00	 4.250000000000002e+00	 1.019135442769230e+01
0	 3.125000000000001e+00	 4.375000000000000e+00	 1.017081704807692e+01
0	 3.125000000000001e+00	 4.500000000000001e+00	 1.014829098923077e+01
0	 3.125000000000000e+00	 4.625000000000002e+00	 1.012377625115384e+01
0	 3.125000000000000e+00	 4.750000000000001e+00	 1.009727283384616e+01
0	 3.125000000000000e+00	 4.875000000000002e+00	 1.006878073730769e+01
0	 3.125000000000000e+00	 5.000000000000001e+00	 1.003829996153846e+01
0	 3.250000000000001e+00	 3.750000000000000e+00	 1.028307135384615e+01
0	 3.250000000000001e+00	 3.875000000000000e+00	 1.026579826061538e+01
0	 3.250000000000001e+00	 4.000000000000000e+00	 1.024714291323077e+01
0	 3.250000000000001e+00	 4.125000000000001e+00	 1.022710531169230e+01
0	 3.250000000000001e+00	 4.250000000000001e+00	 1.020568545600000e+01
0	 3.250000000000001e+00	 4.375000000000001e+00	 1.018288334615384e+01
0	 3.250000000000001e+00	 4.500000000000001e+00	 1.015869898215384e+01
0	 3.250000000000001e+00	 4.625000000000002e+00	 1.013313236399999e+01
0	 3.250000000000001e+00	 4.750000000000003e+00	 1.010618349169230e+01
0	 3.250000000000000e+00	 4.875000000000001e+00	 1.007785236523077e+01
0	 3.250000000000001e+00	 4.999999999999999e+00	 1.004813898461539e+01
0	 3.375000000000001e+00	 3.750000000000000e+00	 1.030291089230768e+01
0	 3.375000000000000e+00	 3.875000000000000e+00	 1.028195978392307e+01
0	 3.375000000000001e+00	 4.000000000000001e+00	 1.026023284646154e+01
0	 3.375000000000000e+00	 4.125000000000000e+00	 1.023773007992308e+01
0	 3.375000000000001e+00	 4.250000000000000e+00	 1.021445148430769e+01
0	 3.375000000000001e+00	 4.375000000000001e+00	 1.019039705961539e+01
0	 3.375000000000000e+00	 4.499999999999999e+00	 1.016556680584615e+01
0	 3.375000000000001e+00	 4.625000000000001e+00	 1.013996072300000e+01
0	 3.375000000000000e+00	 4.750000000000001e+00	 1.011357881107692e+01
0	 3.375000000000000e+00	 4.875000000000001e+00	 1.008642107007693e+01
0	 3.375000000000001e+00	 5.000000000000000e+00	 1.005848750000000e+01
0	 3.500000000000000e+00	 3.750000000000000e+00	 1.031313576923076e+01
0	 3.500000000000000e+00	 3.875000000000000e+00	 1.028951906107692e+01
0	 3.500000000000001e+00	 4.000000000000000e+00	 1.026573294892307e+01
0	 3.500000000000000e+00	 4.125000000000000e+00	 1.024177743276922e+01
0	 3.500000000000000e+00	 4.249999999999999e+00	 1.021765251261538e+01
0	 3.500000000000001e+00	 4.375000000000000e+00	 1.019335818846154e+01
0	 3.500000000000001e+00	 4.500000000000003e+00	 1.016889446030769e+01
0	 3.500000000000001e+00	 4.625000000000002e+00	 1.014426132815384e+01
0	 3.500000000000001e+00	 4.750000000000002e+00	 1.011945879200000e+01
0	 3.500000000000001e+00	 4.875000000000002e+00	 1.009448685184616e+01
0	 3.500000000000000e+00	 5.000000000000000e+00	 1.006934550769231e+01
0	 3.625000000000001e+00	 3.750000000000000e+00	 1.031374598461538e+01
0	 3.625000000000001e+00	 3.875000000000000e+00	 1.028847609207692e+01
0	 3.625000000000001e+00	 4.000000000000000e+00	 1.026364322061538e+01
0	 3.625000000000000e+00	 4.125000000000000e+00	 1.023924737023077e+01
0	 3.625000000000000e+00	 4.250000000000000e+00	 1.021528854092307e+01
0	 3.625000000000000e+00	 4.375000000000000e+00	 1.019176673269230e+01
0	 3.625000000000000e+00	 4.500000000000001e+00	 1.016868194553846e+01
0	 3.625000000000001e+00	 4.625000000000000e+00	 1.014603417946154e+01
0	 3.625000000000001e+00	 4.750000000000002e+00	 1.012382343446153e+01
0	 3.625000000000001e+00	 4.875000000000001e+00	 1.010204971053846e+01
0	 3.625000000000001e+00	 5.000000000000000e+00	 1.008071300769231e+01
0	 3.750000000000000e+00	 3.750000000000000e+00	 1.030474153846153e+01
0	 3.750000000000000e+00	 3.875000000000000e+00	 1.027883087692307e+01
0	 3.750000000000000e+00	 4.000000000000001e+00	 1.025396366153846e+01
0	 3.750000000000000e+00	 4.125000000000001e+00	 1.023013989230769e+01
0	 3.750000000000000e+00	 4.250000000000001e+00	 1.020735956923077e+01
0	 3.750000000000000e+00	 4.375000000000001e+00	 1.018562269230769e+01
0	 3.750000000000000e+00	 4.500000000000000e+00	 1.016492926153845e+01
0	 3.750000000000000e+00	 4.625000000000001e+00	 1.014527927692307e+01
0	 3.750000000000000e+00	 4.750000000000002e+00	 1.012667273846154e+01
0	 3.750000000000000e+00	 4.875000000000002e+00	 1.010910964615384e+01
0	 3.750000000000000e+00	 5.000000000000000e+00	 1.009259000000000e+01
0	 2.500000000000000e+00	 5.000000000000000e+00	 9.996747230769229e+00
0	 2.500000000000000e+00	 5.124999999999999e+00	 9.985480146923081e+00
0	 2.500000000000000e+00	 5.250000000000000e+00	 9.975808587692308e+00
0	 2.500000000000000e+00	 5.374999999999998e+00	 9.967732553076917e+00
0	 2.500000000000000e+00	 5.499999999999999e+00	 9.961252043076923e+00
0	 2.500000000000000e+00	 5.624999999999997e+00	 9.956367057692310e+00
0	 2.500000000000000e+00	 5.749999999999997e+00	 9.953077596923077e+00
0	 2.500000000000000e+00	 5.874999999999996e+00	 9.951383660769229e+00
0	 2.500000000000000e+00	 5.999999999999996e+00	 9.951285249230773e+00
0	 2.500000000000000e+00	 6.124999999999996e+00	 9.952782362307705e+00
0	 2.500000000000000e+00	 6.250000000000000e+00	 9.955875000000001e+00
0	 2.625000000000000e+00	 4.999999999999999e+00	 1.000403879230769e+01
0	 2.625000000000000e+00	 5.125000000000000e+00	 9.995143953769229e+00
0	 2.625000000000000e+00	 5.249999999999997e+00	 9.987595479692311e+00
0	 2.624999999999999e+00	 5.374999999999997e+00	 9.981393370076923e+00
0	 2.625000000000000e+00	 5.499999999999997e+00	 9.976537624923079e+00
0	 2.625000000000000e+00	 5.624999999999997e+00	 9.973028244230772e+00
0	 2.625000000000000e+00	 5.749999999999997e+00	 9.970865228000005e+00
0	 2.624999999999999e+00	 5.874999999999996e+00	 9.970048576230772e+00
0	 2.625000000000000e+00	 5.999999999999997e+00	 9.970578288923086e+00
0	 2.625000000000000e+00	 6.124999999999997e+00	 9.972454366076933e+00
0	 2.625000000000000e+00	 6.250000000000000e+00	 9.975676807692311e+00
0	 2.750000000000000e+00	 5.000000000000000e+00	 1.001183984615384e+01
0	 2.750000000000000e+00	 5.124999999999999e+00	 1.000506244215384e+01
0	 2.750000000000000e+00	 5.249999999999999e+00	 9.999382242461540e+00
0	 2.750000000000000e+00	 5.374999999999999e+00	 9.994799247076923e+00
0	 2.750000000000000e+00	 5.499999999999999e+00	 9.991313456000000e+00
0	 2.750000000000000e+00	 5.624999999999997e+00	 9.988924869230766e+00
0	 2.750000000000000e+00	 5.749999999999997e+00	 9.987633486769237e+00
0	 2.750000000000000e+00	 5.874999999999997e+00	 9.987439308615391e+00
0	 2.750000000000000e+00	 5.999999999999996e+00	 9.988342334769237e+00
0	 2.750000000000000e+00	 6.124999999999996e+00	 9.990342565230772e+00
0	 2.750000000000000e+00	 6.250000000000001e+00	 9.993439999999996e+00
0	 2.875000000000000e+00	 5.000000000000000e+00	 1.002015039230769e+01
0	 2.875000000000000e+00	 5.124999999999999e+00	 1.001523561207692e+01
0	 2.875000000000000e+00	 5.249999999999999e+00	 1.001116887600000e+01
0	 2.875000000000000e+00	 5.374999999999998e+00	 1.000795018407692e+01
0	 2.875000000000000e+00	 5.499999999999997e+00	 1.000557953630769e+01
0	 2.875000000000000e+00	 5.624999999999997e+00	 1.000405693269232e+01
0	 2.875000000000000e+00	 5.749999999999998e+00	 1.000338237323077e+01
0	 2.875000000000000e+00	 5.874999999999996e+00	 1.000355585792308e+01
0	 2.875000000000000e+00	 5.999999999999996e+00	 1.000457738676923e+01
0	 2.875000000000000e+00	 6.124999999999995e+00	 1.000644695976924e+01
0	 2.875000000000000e+00	 6.250000000000000e+00	 1.000916457692309e+01
0	 3.000000000000001e+00	 5.000000000000001e+00	 1.002897043076923e+01
0	 3.000000000000001e+00	 5.125000000000000e+00	 1.002566346353846e+01
0	 3.000000000000001e+00	 5.250000000000000e+00	 1.002295538030769e+01
0	 3.000000000000000e+00	 5.374999999999998e+00	 1.002084618107693e+01
0	 3.000000000000001e+00	 5.499999999999998e+00	 1.001933586584616e+01
0	 3.000000000000000e+00	 5.624999999999996e+00	 1.001842443461539e+01
0	 3.000000000000001e+00	 5.749999999999998e+00	 1.001811188738462e+01
0	 3.000000000000000e+00	 5.874999999999997e+00	 1.001839822415385e+01
0	 3.000000000000000e+00	 5.999999999999997e+00	 1.001928344492308e+01
0	 3.000000000000001e+00	 6.124999999999996e+00	 1.002076754969232e+01
0	 3.000000000000001e+00	 6.250000000000000e+00	 1.002285053846155e+01
0	 3.125000000000000e+00	 5.000000000000001e+00	 1.003829996153846e+01
0	 3.125000000000001e+00	 5.124999999999998e+00	 1.003634599653846e+01
0	 3.125000000000000e+00	 5.249999999999999e+00	 1.003474175538462e+01
0	 3.125000000000000e+00	 5.375000000000000e+00	 1.003348723807692e+01
0	 3.125000000000000e+00	 5.499999999999998e+00	 1.003258244461539e+01
0	 3.125000000000001e+00	 5.624999999999999e+00	 1.003202737500000e+01
0	 3.125000000000000e+00	 5.749999999999996e+00	 1.003182202923078e+01
0	 3.125000000000001e+00	 5.874999999999998e+00	 1.003196640730770e+01
0	 3.125000000000000e+00	 5.999999999999998e+00	 1.003246050923078e+01
0	 3.125000000000001e+00	 6.124999999999997e+00	 1.003330433500000e+01
0	 3.125000000000000e+00	 6.250000000000000e+00	 1.003449788461539e+01
0	 3.250000000000001e+00	 4.999999999999999e+00	 1.004813898461539e+01
0	 3.250000000000001e+00	 5.124999999999999e+00	 1.004728321107693e+01
0	 3.250000000000000e+00	 5.249999999999999e+00	 1.004652800123077e+01
0	 3.250000000000000e+00	 5.374999999999997e+00	 1.004587335507692e+01
0	 3.250000000000001e+00	 5.499999999999998e+00	 1.004531927261539e+01
0	 3.250000000000000e+00	 5.624999999999997e+00	 1.004486575384616e+01
0	 3.250000000000001e+00	 5.749999999999997e+00	 1.004451279876923e+01
0	 3.250000000000000e+00	 5.874999999999996e+00	 1.004426040738462e+01
0	 3.250000000000001e+00	 5.999999999999997e+00	 1.004410857969231e+01
0	 3.250000000000001e+00	 6.124999999999996e+00	 1.004405731569232e+01
0	 3.250000000000001e+00	 6.250000000000000e+00	 1.004410661538462e+01
0	 3.375000000000001e+00	 5.000000000000000e+00	 1.005848750000000e+01
0	 3.375000000000001e+00	 5.124999999999999e+00	 1.005847510715384e+01
0	 3.375000000000000e+00	 5.249999999999999e+00	 1.005831411784615e+01
0	 3.375000000000000e+00	 5.374999999999998e+00	 1.005800453207693e+01
0	 3.375000000000001e+00	 5.499999999999998e+00	 1.005754634984615e+01
0	 3.375000000000001e+00	 5.624999999999999e+00	 1.005693957115385e+01
0	 3.375000000000000e+00	 5.749999999999996e+00	 1.005618419600000e+01
0	 3.375000000000001e+00	 5.874999999999997e+00	 1.005528022438462e+01
0	 3.375000000000001e+00	 5.999999999999996e+00	 1.005422765630770e+01
0	 3.375000000000001e+00	 6.124999999999996e+00	 1.005302649176923e+01
0	 3.375000000000001e+00	 6.249999999999999e+00	 1.005167673076923e+01
0	 3.500000000000000e+00	 5.000000000000000e+00	 1.006934550769231e+01
0	 3.500000000000001e+00	 5.125000000000000e+00	 1.006992168476923e+01
0	 3.500000000000001e+00	 5.249999999999999e+00	 1.007010010523077e+01
0	 3.500000000000001e+00	 5.374999999999999e+00	 1.006988076907693e+01
0	 3.500000000000001e+00	 5.499999999999999e+00	 1.006926367630770e+01
0	 3.500000000000001e+00	 5.624999999999998e+00	 1.006824882692308e+01
0	 3.500000000000002e+00	 5.749999999999998e+00	 1.006683622092308e+01
0	 3.500000000000001e+00	 5.874999999999997e+00	 1.006502585830770e+01
0	 3.500000000000001e+00	 5.999999999999996e+00	 1.006281773907694e+01
0	 3.500000000000001e+00	 6.124999999999996e+00	 1.006021186323077e+01
0	 3.500000000000000e+00	 6.250000000000000e+00	 1.005720823076924e+01
0	 3.625000000000001e+00	 5.000000000000000e+00	 1.008071300769231e+01
0	 3.625000000000000e+00	 5.125000000000000e+00	 1.008162294392308e+01
0	 3.625000000000001e+00	 5.249999999999999e+00	 1.008188596338461e+01
0	 3.625000000000000e+00	 5.374999999999998e+00	 1.008150206607692e+01
0	 3.625000000000001e+00	 5.499999999999998e+00	 1.008047125200000e+01
0	 3.625000000000000e+00	 5.624999999999997e+00	 1.007879352115384e+01
0	 3.625000000000001e+00	 5.749999999999996e+00	 1.007646887353847e+01
0	 3.625000000000000e+00	 5.874999999999996e+00	 1.007349730915386e+01
0	 3.625000000000001e+00	 5.999999999999996e+00	 1.006987882800001e+01
0	 3.625000000000001e+00	 6.124999999999996e+00	 1.006561343007692e+01
0	 3.625000000000001e+00	 6.250000000000000e+00	 1.006070111538462e+01
0	 3.750000000000000e+00	 5.000000000000000e+00	 1.009259000000000e+01
0	 3.750000000000000e+00	 5.124999999999999e+00	 1.009357888461539e+01
0	 3.750000000000000e+00	 5.250000000000000e+00	 1.009367169230769e+01
0	 3.750000000000000e+00	 5.374999999999998e+00	 1.009286842307692e+01
0	 3.750000000000000e+00	 5.499999999999999e+00	 1.009116907692308e+01
0	 3.750000000000000e+00	 5.624999999999997e+00	 1.008857365384616e+01
0	 3.750000000000000e+00	 5.749999999999997e+00	 1.008508215384615e+01
0	 3.750000000000000e+00	 5.874999999999996e+00	 1.008069457692308e+01
0	 3.750000000000000e+00	 5.999999999999996e+00	 1.007541092307693e+01
0	 3.750000000000000e+00	 6.124999999999996e+00	 1.006923119230770e+01
0	 3.750000000000000e+00	 6.250000000000000e+00	 1.006215538461539e+01
0	 2.500000000000000e+00	 6.250000000000000e+00	 9.955875000000001e+00
0	 2.500000000000000e+00	 6.375000000000000e+00	 9.961983186153839e+00
0	 2.500000000000000e+00	 6.500000000000000e+00	 9.967223098461535e+00
0	 2.500000000000000e+00	 6.624999999999998e+00	 9.971594736923079e+00
0	 2.500000000000000e+00	 6.749999999999998e+00	 9.975098101538459e+00
0	 2.500000000000000e+00	 6.874999999999998e+00	 9.977733192307685e+00
0	 2.500000000000000e+00	 6.999999999999997e+00	 9.979500009230765e+00
0	 2.500000000000000e+00	 7.124999999999996e+00	 9.980398552307690e+00
0	 2.500000000000000e+00	 7.249999999999997e+00	 9.980428821538460e+00
0	 2.500000000000000e+00	 7.374999999999996e+00	 9.979590816923064e+00
0	 2.500000000000000e+00	 7.500000000000000e+00	 9.977884538461534e+00
0	 2.625000000000000e+00	 6.250000000000000e+00	 9.975676807692311e+00
0	 2.625000000000000e+00	 6.374999999999997e+00	 9.979619680615381e+00
0	 2.625000000000000e+00	 6.500000000000000e+00	 9.982804548615380e+00
0	 2.624999999999999e+00	 6.624999999999996e+00	 9.985231411692306e+00
0	 2.625000000000000e+00	 6.749999999999996e+00	 9.986900269846149e+00
0	 2.625000000000000e+00	 6.874999999999996e+00	 9.987811123076920e+00
0	 2.625000000000000e+00	 6.999999999999998e+00	 9.987963971384611e+00
0	 2.624999999999999e+00	 7.124999999999997e+00	 9.987358814769223e+00
0	 2.625000000000000e+00	 7.249999999999996e+00	 9.985995653230766e+00
0	 2.625000000000000e+00	 7.374999999999996e+00	 9.983874486769226e+00
0	 2.625000000000000e+00	 7.500000000000001e+00	 9.980995315384597e+00
0	 2.750000000000000e+00	 6.250000000000001e+00	 9.993439999999996e+00
0	 2.750000000000000e+00	 6.374999999999999e+00	 9.995432728923083e+00
0	 2.750000000000000e+00	 6.500000000000000e+00	 9.996777721846161e+00
0	 2.750000000000000e+00	 6.624999999999999e+00	 9.997474978769235e+00
0	 2.750000000000000e+00	 6.749999999999998e+00	 9.997524499692307e+00
0	 2.750000000000000e+00	 6.874999999999999e+00	 9.996926284615382e+00
0	 2.750000000000000e+00	 6.999999999999997e+00	 9.995680333538459e+00
0	 2.750000000000000e+00	 7.124999999999998e+00	 9.993786646461540e+00
0	 2.750000000000000e+00	 7.249999999999996e+00	 9.991245223384606e+00
0	 2.750000000000000e+00	 7.374999999999996e+00	 9.988056064307678e+00
0	 2.750000000000000e+00	 7.500000000000000e+00	 9.984219169230766e+00
0	 2.875000000000000e+00	 6.250000000000000e+00	 1.000916457692309e+01
0	 2.875000000000000e+00	 6.375000000000001e+00	 1.000942233107693e+01
0	 2.875000000000000e+00	 6.500000000000000e+00	 1.000914261815385e+01
0	 2.875000000000000e+00	 6.624999999999997e+00	 1.000832543815384e+01
0	 2.875000000000000e+00	 6.749999999999996e+00	 1.000697079107692e+01
0	 2.875000000000000e+00	 6.874999999999998e+00	 1.000507867692308e+01
0	 2.875000000000000e+00	 6.999999999999997e+00	 1.000264909569231e+01
0	 2.875000000000000e+00	 7.124999999999997e+00	 9.999682047384617e+00
0	 2.875000000000000e+00	 7.249999999999996e+00	 9.996177531999994e+00
0	 2.875000000000000e+00	 7.374999999999996e+00	 9.992135549538450e+00
0	 2.875000000000000e+00	 7.500000000000001e+00	 9.987556099999997e+00
0	 3.000000000000001e+00	 6.250000000000000e+00	 1.002285053846155e+01
0	 3.000000000000001e+00	 6.375000000000001e+00	 1.002158848707693e+01
0	 3.000000000000001e+00	 6.500000000000000e+00	 1.001989923753846e+01
0	 3.000000000000000e+00	 6.624999999999999e+00	 1.001778278984615e+01
0	 3.000000000000001e+00	 6.749999999999998e+00	 1.001523914400000e+01
0	 3.000000000000000e+00	 6.874999999999996e+00	 1.001226829999999e+01
0	 3.000000000000001e+00	 6.999999999999997e+00	 1.000887025784615e+01
0	 3.000000000000000e+00	 7.124999999999996e+00	 1.000504501753846e+01
0	 3.000000000000000e+00	 7.249999999999997e+00	 1.000079257907691e+01
0	 3.000000000000001e+00	 7.374999999999996e+00	 9.996112942461535e+00
0	 3.000000000000001e+00	 7.500000000000000e+00	 9.991006107692291e+00
0	 3.125000000000000e+00	 6.250000000000000e+00	 1.003449788461539e+01
0	 3.125000000000001e+00	 6.374999999999999e+00	 1.003193119692308e+01
0	 3.125000000000000e+00	 6.500000000000000e+00	 1.002904758000001e+01
0	 3.125000000000000e+00	 6.625000000000000e+00	 1.002584703384615e+01
0	 3.125000000000000e+00	 6.749999999999997e+00	 1.002232955846154e+01
0	 3.125000000000001e+00	 6.874999999999998e+00	 1.001849515384615e+01
0	 3.125000000000000e+00	 6.999999999999997e+00	 1.001434382000000e+01
0	 3.125000000000001e+00	 7.124999999999997e+00	 1.000987555692307e+01
0	 3.125000000000000e+00	 7.249999999999996e+00	 1.000509036461538e+01
0	 3.125000000000001e+00	 7.374999999999997e+00	 9.999988243076917e+00
0	 3.125000000000000e+00	 7.500000000000000e+00	 9.994569192307688e+00
0	 3.250000000000001e+00	 6.250000000000000e+00	 1.004410661538462e+01
0	 3.250000000000001e+00	 6.375000000000000e+00	 1.004045046061539e+01
0	 3.250000000000000e+00	 6.499999999999999e+00	 1.003658764553847e+01
0	 3.250000000000000e+00	 6.624999999999998e+00	 1.003251817015385e+01
0	 3.250000000000001e+00	 6.749999999999998e+00	 1.002824203446153e+01
0	 3.250000000000000e+00	 6.874999999999997e+00	 1.002375923846154e+01
0	 3.250000000000001e+00	 6.999999999999996e+00	 1.001906978215384e+01
0	 3.250000000000000e+00	 7.124999999999997e+00	 1.001417366553846e+01
0	 3.250000000000001e+00	 7.249999999999996e+00	 1.000907088861538e+01
0	 3.250000000000001e+00	 7.374999999999996e+00	 1.000376145138461e+01
0	 3.250000000000001e+00	 7.500000000000000e+00	 9.998245353846146e+00
0	 3.375000000000001e+00	 6.249999999999999e+00	 1.005167673076923e+01
0	 3.375000000000001e+00	 6.375000000000001e+00	 1.004714627815385e+01
0	 3.375000000000000e+00	 6.499999999999999e+00	 1.004251943415384e+01
0	 3.375000000000000e+00	 6.624999999999997e+00	 1.003779619876923e+01
0	 3.375000000000001e+00	 6.749999999999998e+00	 1.003297657200000e+01
0	 3.375000000000001e+00	 6.874999999999998e+00	 1.002806055384616e+01
0	 3.375000000000000e+00	 6.999999999999998e+00	 1.002304814430769e+01
0	 3.375000000000001e+00	 7.124999999999997e+00	 1.001793934338461e+01
0	 3.375000000000001e+00	 7.249999999999996e+00	 1.001273415107691e+01
0	 3.375000000000001e+00	 7.374999999999997e+00	 1.000743256738460e+01
0	 3.375000000000001e+00	 7.499999999999999e+00	 1.000203459230767e+01
0	 3.500000000000000e+00	 6.250000000000000e+00	 1.005720823076924e+01
0	 3.500000000000001e+00	 6.375000000000000e+00	 1.005201864953846e+01
0	 3.500000000000001e+00	 6.499999999999999e+00	 1.004684294584616e+01
0	 3.500000000000001e+00	 6.624999999999998e+00	 1.004168111969230e+01
0	 3.500000000000001e+00	 6.749999999999999e+00	 1.003653317107692e+01
0	 3.500000000000001e+00	 6.874999999999998e+00	 1.003139910000000e+01
0	 3.500000000000002e+00	 6.999999999999997e+00	 1.002627890646153e+01
0	 3.500000000000001e+00	 7.124999999999996e+00	 1.002117259046152e+01
0	 3.500000000000001e+00	 7.249999999999996e+00	 1.001608015199999e+01
0	 3.500000000000001e+00	 7.374999999999996e+00	 1.001100159107692e+01
0	 3.500000000000000e+00	 7.500000000000000e+00	 1.000593690769230e+01
0	 3.625000000000001e+00	 6.250000000000000e+00	 1.006070111538462e+01
0	 3.625000000000000e+00	 6.374999999999998e+00	 1.005506757476923e+01
0	 3.625000000000001e+00	 6.499999999999999e+00	 1.004955818061538e+01
0	 3.625000000000000e+00	 6.625000000000000e+00	 1.004417293292308e+01
0	 3.625000000000001e+00	 6.749999999999999e+00	 1.003891183169231e+01
0	 3.625000000000000e+00	 6.874999999999996e+00	 1.003377487692307e+01
0	 3.625000000000001e+00	 6.999999999999998e+00	 1.002876206861538e+01
0	 3.625000000000000e+00	 7.124999999999996e+00	 1.002387340676922e+01
0	 3.625000000000001e+00	 7.249999999999997e+00	 1.001910889138461e+01
0	 3.625000000000001e+00	 7.374999999999996e+00	 1.001446852246153e+01
0	 3.625000000000001e+00	 7.500000000000000e+00	 1.000995229999999e+01
0	 3.750000000000000e+00	 6.250000000000000e+00	 1.006215538461539e+01
0	 3.750000000000000e+00	 6.375000000000000e+00	 1.005629305384615e+01
0	 3.750000000000000e+00	 6.500000000000000e+00	 1.005066513846154e+01
0	 3.750000000000000e+00	 6.624999999999998e+00	 1.004527163846154e+01
0	 3.750000000000000e+00	 6.749999999999998e+00	 1.004011255384615e+01
0	 3.750000000000000e+00	 6.874999999999998e+00	 1.003518788461538e+01
0	 3.750000000000000e+00	 6.999999999999997e+00	 1.003049763076924e+01
0	 3.750000000000000e+00	 7.124999999999996e+00	 1.002604179230769e+01
0	 3.750000000000000e+00	 7.249999999999997e+00	 1.002182036923076e+01
0	 3.750000000000000e+00	 7.374999999999996e+00	 1.001783336153845e+01
0	 3.750000000000000e+00	 7.500000000000000e+00	 1.001408076923076e+01
0	 2.500000000000000e+00	 7.500000000000000e+00	 9.977884538461534e+00
0	 2.500000000000000e+00	 7.625000000000000e+00	 9.978100858461545e+00
0	 2.500000000000000e+00	 7.750000000000000e+00	 9.978678803076919e+00
0	 2.500000000000000e+00	 7.874999999999998e+00	 9.979618372307684e+00
0	 2.500000000000000e+00	 7.999999999999999e+00	 9.980919566153837e+00
0	 2.500000000000000e+00	 8.124999999999998e+00	 9.982582384615387e+00
0	 2.500000000000000e+00	 8.249999999999998e+00	 9.984606827692307e+00
0	 2.500000000000000e+00	 8.374999999999996e+00	 9.986992895384613e+00
0	 2.500000000000000e+00	 8.499999999999996e+00	 9.989740587692308e+00
0	 2.500000000000000e+00	 8.624999999999996e+00	 9.992849904615394e+00
0	 2.500000000000000e+00	 8.750000000000000e+00	 9.996320846153845e+00
0	 2.625000000000000e+00	 7.500000000000001e+00	 9.980995315384597e+00
0	 2.625000000000000e+00	 7.624999999999997e+00	 9.981364481846144e+00
0	 2.625000000000000e+00	 7.749999999999998e+00	 9.982033721230767e+00
0	 2.624999999999999e+00	 7.874999999999996e+00	 9.983003033538452e+00
0	 2.625000000000000e+00	 7.999999999999997e+00	 9.984272418769219e+00
0	 2.625000000000000e+00	 8.124999999999996e+00	 9.985841876923072e+00
0	 2.625000000000000e+00	 8.249999999999998e+00	 9.987711407999996e+00
0	 2.624999999999999e+00	 8.374999999999996e+00	 9.989881012000003e+00
0	 2.625000000000000e+00	 8.499999999999996e+00	 9.992350688923075e+00
0	 2.625000000000000e+00	 8.624999999999995e+00	 9.995120438769233e+00
0	 2.625000000000000e+00	 8.750000000000000e+00	 9.998190261538474e+00
0	 2.750000000000000e+00	 7.500000000000000e+00	 9.984219169230766e+00
0	 2.750000000000000e+00	 7.624999999999998e+00	 9.984708497538453e+00
0	 2.750000000000000e+00	 7.750000000000000e+00	 9.985436347076920e+00
0	 2.750000000000000e+00	 7.874999999999999e+00	 9.986402717846149e+00
0	 2.750000000000000e+00	 7.999999999999998e+00	 9.987607609846146e+00
0	 2.750000000000000e+00	 8.124999999999998e+00	 9.989051023076911e+00
0	 2.750000000000000e+00	 8.249999999999998e+00	 9.990732957538459e+00
0	 2.750000000000000e+00	 8.374999999999995e+00	 9.992653413230773e+00
0	 2.750000000000000e+00	 8.499999999999996e+00	 9.994812390153848e+00
0	 2.750000000000000e+00	 8.624999999999996e+00	 9.997209888307694e+00
0	 2.750000000000000e+00	 8.750000000000000e+00	 9.999845907692295e+00
0	 2.875000000000000e+00	 7.500000000000001e+00	 9.987556099999997e+00
0	 2.875000000000000e+00	 7.625000000000000e+00	 9.988132905538459e+00
0	 2.875000000000000e+00	 7.749999999999999e+00	 9.988886680615380e+00
0	 2.875000000000000e+00	 7.874999999999998e+00	 9.989817425230758e+00
0	 2.875000000000000e+00	 7.999999999999996e+00	 9.990925139384609e+00
0	 2.875000000000000e+00	 8.124999999999998e+00	 9.992209823076916e+00
0	 2.875000000000000e+00	 8.249999999999998e+00	 9.993671476307687e+00
0	 2.875000000000000e+00	 8.374999999999996e+00	 9.995310099076919e+00
0	 2.875000000000000e+00	 8.499999999999996e+00	 9.997125691384614e+00
0	 2.875000000000000e+00	 8.624999999999995e+00	 9.999118253230780e+00
0	 2.875000000000000e+00	 8.750000000000000e+00	 1.000128778461537e+01
0	 3.000000000000001e+00	 7.500000000000000e+00	 9.991006107692291e+00
0	 3.000000000000001e+00	 7.625000000000000e+00	 9.991637705846150e+00
0	 3.000000000000001e+00	 7.749999999999999e+00	 9.992384721846149e+00
0	 3.000000000000000e+00	 7.874999999999998e+00	 9.993247155692298e+00
0	 3.000000000000001e+00	 8.000000000000000e+00	 9.994225007384612e+00
0	 3.000000000000000e+00	 8.124999999999996e+00	 9.995318276923070e+00
0	 3.000000000000001e+00	 8.249999999999998e+00	 9.996526964307682e+00
0	 3.000000000000000e+00	 8.374999999999996e+00	 9.997851069538459e+00
0	 3.000000000000000e+00	 8.499999999999996e+00	 9.999290592615376e+00
0	 3.000000000000001e+00	 8.624999999999996e+00	 1.000084553353847e+01
0	 3.000000000000001e+00	 8.750000000000000e+00	 1.000251589230769e+01
0	 3.125000000000000e+00	 7.500000000000000e+00	 9.994569192307688e+00
0	 3.125000000000001e+00	 7.625000000000000e+00	 9.995222898461520e+00
0	 3.125000000000000e+00	 7.749999999999999e+00	 9.995930470769224e+00
0	 3.125000000000000e+00	 7.874999999999998e+00	 9.996691909230764e+00
0	 3.125000000000000e+00	 7.999999999999996e+00	 9.997507213846143e+00
0	 3.125000000000001e+00	 8.125000000000000e+00	 9.998376384615376e+00
0	 3.125000000000000e+00	 8.249999999999996e+00	 9.999299421538465e+00
0	 3.125000000000001e+00	 8.374999999999996e+00	 1.000027632461539e+01
0	 3.125000000000000e+00	 8.499999999999996e+00	 1.000130709384615e+01
0	 3.125000000000001e+00	 8.624999999999998e+00	 1.000239172923077e+01
0	 3.125000000000000e+00	 8.750000000000002e+00	 1.000353023076923e+01
0	 3.250000000000001e+00	 7.500000000000000e+00	 9.998245353846146e+00
0	 3.250000000000001e+00	 7.624999999999999e+00	 9.998888483384613e+00
0	 3.250000000000000e+00	 7.749999999999999e+00	 9.999523927384601e+00
0	 3.250000000000000e+00	 7.874999999999997e+00	 1.000015168584615e+01
0	 3.250000000000001e+00	 7.999999999999999e+00	 1.000077175876923e+01
0	 3.250000000000000e+00	 8.124999999999996e+00	 1.000138414615383e+01
0	 3.250000000000001e+00	 8.249999999999998e+00	 1.000198884800000e+01
0	 3.250000000000000e+00	 8.374999999999996e+00	 1.000258586430769e+01
0	 3.250000000000001e+00	 8.499999999999996e+00	 1.000317519507693e+01
0	 3.250000000000001e+00	 8.624999999999996e+00	 1.000375684030769e+01
0	 3.250000000000001e+00	 8.750000000000000e+00	 1.000433080000000e+01
0	 3.375000000000001e+00	 7.499999999999999e+00	 1.000203459230767e+01
0	 3.375000000000001e+00	 7.625000000000001e+00	 1.000263446061538e+01
0	 3.375000000000000e+00	 7.749999999999999e+00	 1.000316509169230e+01
0	 3.375000000000000e+00	 7.874999999999997e+00	 1.000362648553845e+01
0	 3.375000000000001e+00	 7.999999999999997e+00	 1.000401864215384e+01
0	 3.375000000000001e+00	 8.125000000000000e+00	 1.000434156153846e+01
0	 3.375000000000000e+00	 8.249999999999996e+00	 1.000459524369230e+01
0	 3.375000000000001e+00	 8.374999999999998e+00	 1.000477968861538e+01
0	 3.375000000000001e+00	 8.499999999999996e+00	 1.000489489630769e+01
0	 3.375000000000001e+00	 8.624999999999998e+00	 1.000494086676923e+01
0	 3.375000000000001e+00	 8.750000000000000e+00	 1.000491760000001e+01
0	 3.500000000000000e+00	 7.500000000000000e+00	 1.000593690769230e+01
0	 3.500000000000001e+00	 7.624999999999999e+00	 1.000646083015384e+01
0	 3.500000000000001e+00	 7.750000000000000e+00	 1.000685396369230e+01
0	 3.500000000000001e+00	 7.874999999999998e+00	 1.000711630830768e+01
0	 3.500000000000001e+00	 7.999999999999999e+00	 1.000724786399999e+01
0	 3.500000000000001e+00	 8.124999999999996e+00	 1.000724863076922e+01
0	 3.500000000000002e+00	 8.249999999999998e+00	 1.000711860861538e+01
0	 3.500000000000001e+00	 8.374999999999996e+00	 1.000685779753845e+01
0	 3.500000000000001e+00	 8.499999999999996e+00	 1.000646619753846e+01
0	 3.500000000000001e+00	 8.624999999999995e+00	 1.000594380861538e+01
0	 3.500000000000000e+00	 8.750000000000000e+00	 1.000529063076923e+01
0	 3.625000000000001e+00	 7.500000000000000e+00	 1.000995229999999e+01
0	 3.625000000000000e+00	 7.624999999999997e+00	 1.001036759199999e+01
0	 3.625000000000001e+00	 7.749999999999998e+00	 1.001059054338461e+01
0	 3.625000000000000e+00	 7.875000000000000e+00	 1.001062115415384e+01
0	 3.625000000000001e+00	 7.999999999999998e+00	 1.001045942430768e+01
0	 3.625000000000000e+00	 8.124999999999996e+00	 1.001010535384614e+01
0	 3.625000000000001e+00	 8.249999999999998e+00	 1.000955894276923e+01
0	 3.625000000000000e+00	 8.374999999999995e+00	 1.000882019107692e+01
0	 3.625000000000001e+00	 8.499999999999996e+00	 1.000788909876923e+01
0	 3.625000000000001e+00	 8.624999999999996e+00	 1.000676566584614e+01
0	 3.625000000000001e+00	 8.750000000000000e+00	 1.000544989230769e+01
0	 3.750000000000000e+00	 7.500000000000000e+00	 1.001408076923076e+01
0	 3.750000000000000e+00	 7.625000000000000e+00	 1.001435474615385e+01
0	 3.750000000000000e+00	 7.750000000000000e+00	 1.001437483076922e+01
0	 3.750000000000000e+00	 7.874999999999998e+00	 1.001414102307691e+01
0	 3.750000000000000e+00	 7.999999999999999e+00	 1.001365332307692e+01
0	 3.750000000000000e+00	 8.124999999999998e+00	 1.001291173076923e+01
0	 3.750000000000000e+00	 8.249999999999998e+00	 1.001191624615384e+01
0	 3.750000000000000e+00	 8.374999999999996e+00	 1.001066686923076e+01
0	 3.750000000000000e+00	 8.499999999999996e+00	 1.000916360000000e+01
0	 3.750000000000000e+00	 8.624999999999996e+00	 1.000740643846155e+01
0	 3.750000000000000e+00	 8.750000000000000e+00	 1.000539538461539e+01
0	 2.500000000000000e+00	 8.750000000000000e+00	 9.996320846153845e+00
0	 2.500000000000000e+00	 8.874999999999998e+00	 9.996713088461540e+00
0	 2.500000000000000e+00	 9.000000000000000e+00	 9.997125384615385e+00
0	 2.500000000000000e+00	 9.124999999999998e+00	 9.997557734615391e+00
0	 2.500000000000000e+00	 9.250000000000000e+00	 9.998010138461545e+00
0	 2.500000000000000e+00	 9.374999999999996e+00	 9.998482596153838e+00
0	 2.500000000000000e+00	 9.499999999999996e+00	 9.998975107692313e+00
0	 2.500000000000000e+00	 9.624999999999996e+00	 9.999487673076930e+00
0	 2.500000000000000e+00	 9.749999999999998e+00	 1.000002029230771e+01
0	 2.500000000000000e+00	 9.874999999999996e+00	 1.000057296538463e+01
0	 2.500000000000000e+00	 1.000000000000000e+01	 1.000114569230770e+01
0	 2.625000000000000e+00	 8.750000000000000e+00	 9.998190261538474e+00
0	 2.625000000000000e+00	 8.875000000000000e+00	 9.998343968076920e+00
0	 2.625000000000000e+00	 8.999999999999998e+00	 9.998514449230777e+00
0	 2.625000000000000e+00	 9.125000000000000e+00	 9.998701705000004e+00
0	 2.625000000000000e+00	 9.249999999999998e+00	 9.998905735384618e+00
0	 2.625000000000000e+00	 9.374999999999998e+00	 9.999126540384626e+00
0	 2.625000000000000e+00	 9.499999999999998e+00	 9.999364120000013e+00
0	 2.625000000000001e+00	 9.624999999999998e+00	 9.999618474230784e+00
0	 2.625000000000000e+00	 9.749999999999998e+00	 9.999889603076925e+00
0	 2.625000000000000e+00	 9.874999999999995e+00	 1.000017750653845e+01
0	 2.625000000000000e+00	 1.000000000000000e+01	 1.000048218461540e+01
0	 2.750000000000000e+00	 8.750000000000000e+00	 9.999845907692295e+00
0	 2.750000000000000e+00	 8.874999999999998e+00	 9.999789713846152e+00
0	 2.750000000000000e+00	 8.999999999999998e+00	 9.999747015384608e+00
0	 2.750000000000001e+00	 9.125000000000000e+00	 9.999717812307695e+00
0	 2.750000000000000e+00	 9.249999999999998e+00	 9.999702104615388e+00
0	 2.750000000000000e+00	 9.374999999999998e+00	 9.999699892307703e+00
0	 2.750000000000000e+00	 9.499999999999996e+00	 9.999711175384613e+00
0	 2.750000000000000e+00	 9.624999999999995e+00	 9.999735953846148e+00
0	 2.750000000000000e+00	 9.749999999999995e+00	 9.999774227692292e+00
0	 2.750000000000000e+00	 9.874999999999995e+00	 9.999825996923065e+00
0	 2.750000000000000e+00	 1.000000000000000e+01	 9.999891261538494e+00
0	 2.875000000000000e+00	 8.750000000000000e+00	 1.000128778461537e+01
0	 2.875000000000000e+00	 8.875000000000000e+00	 1.000105032576923e+01
0	 2.875000000000000e+00	 9.000000000000000e+00	 1.000082308307693e+01
0	 2.875000000000000e+00	 9.125000000000000e+00	 1.000060605653846e+01
0	 2.875000000000000e+00	 9.249999999999996e+00	 1.000039924615384e+01
0	 2.875000000000000e+00	 9.374999999999996e+00	 1.000020265192308e+01
0	 2.875000000000000e+00	 9.499999999999998e+00	 1.000001627384615e+01
0	 2.875000000000000e+00	 9.624999999999996e+00	 9.999840111923081e+00
0	 2.875000000000000e+00	 9.749999999999998e+00	 9.999674166153854e+00
0	 2.875000000000000e+00	 9.874999999999996e+00	 9.999518436538470e+00
0	 2.875000000000001e+00	 1.000000000000000e+01	 9.999372923076931e+00
0	 3.000000000000001e+00	 8.750000000000000e+00	 1.000251589230769e+01
0	 3.000000000000000e+00	 8.875000000000000e+00	 1.000212580384615e+01
0	 3.000000000000000e+00	 8.999999999999998e+00	 1.000174265230769e+01
0	 3.000000000000001e+00	 9.124999999999998e+00	 1.000136643769231e+01
0	 3.000000000000001e+00	 9.250000000000000e+00	 1.000099716000001e+01
0	 3.000000000000000e+00	 9.374999999999998e+00	 1.000063481923077e+01
0	 3.000000000000001e+00	 9.499999999999998e+00	 1.000027941538462e+01
0	 3.000000000000001e+00	 9.625000000000000e+00	 9.999930948461554e+00
0	 3.000000000000001e+00	 9.749999999999996e+00	 9.999589418461547e+00
0	 3.000000000000000e+00	 9.874999999999993e+00	 9.999254825384625e+00
0	 3.000000000000000e+00	 1.000000000000000e+01	 9.998927169230790e+00
0	 3.125000000000000e+00	 8.750000000000002e+00	 1.000353023076923e+01
0	 3.125000000000001e+00	 8.875000000000000e+00	 1.000301614807692e+01
0	 3.125000000000000e+00	 8.999999999999998e+00	 1.000250572307693e+01
0	 3.125000000000001e+00	 9.125000000000000e+00	 1.000199895576923e+01
0	 3.125000000000000e+00	 9.249999999999998e+00	 1.000149584615384e+01
0	 3.125000000000000e+00	 9.374999999999998e+00	 1.000099639423076e+01
0	 3.125000000000000e+00	 9.499999999999998e+00	 1.000050060000000e+01
0	 3.125000000000000e+00	 9.624999999999996e+00	 1.000000846346154e+01
0	 3.125000000000000e+00	 9.749999999999996e+00	 9.999519984615377e+00
0	 3.125000000000001e+00	 9.874999999999996e+00	 9.999035163461535e+00
0	 3.125000000000000e+00	 1.000000000000000e+01	 9.998554000000006e+00
0	 3.250000000000001e+00	 8.750000000000000e+00	 1.000433080000000e+01
0	 3.250000000000000e+00	 8.875000000000000e+00	 1.000372135846153e+01
0	 3.250000000000000e+00	 8.999999999999998e+00	 1.000311229538461e+01
0	 3.250000000000001e+00	 9.124999999999998e+00	 1.000250361076923e+01
0	 3.250000000000000e+00	 9.249999999999996e+00	 1.000189530461538e+01
0	 3.250000000000001e+00	 9.374999999999996e+00	 1.000128737692308e+01
0	 3.250000000000000e+00	 9.499999999999996e+00	 1.000067982769230e+01
0	 3.250000000000000e+00	 9.624999999999998e+00	 1.000007265692308e+01
0	 3.250000000000001e+00	 9.749999999999996e+00	 9.999465864615388e+00
0	 3.250000000000001e+00	 9.874999999999996e+00	 9.998859450769247e+00
0	 3.250000000000000e+00	 1.000000000000000e+01	 9.998253415384619e+00
0	 3.375000000000001e+00	 8.750000000000000e+00	 1.000491760000001e+01
0	 3.375000000000001e+00	 8.875000000000002e+00	 1.000424143500000e+01
0	 3.375000000000001e+00	 9.000000000000000e+00	 1.000356236923077e+01
0	 3.375000000000001e+00	 9.124999999999998e+00	 1.000288040269230e+01
0	 3.375000000000000e+00	 9.249999999999998e+00	 1.000219553538462e+01
0	 3.375000000000001e+00	 9.374999999999998e+00	 1.000150776730768e+01
0	 3.375000000000000e+00	 9.499999999999996e+00	 1.000081709846155e+01
0	 3.375000000000002e+00	 9.624999999999998e+00	 1.000012352884616e+01
0	 3.375000000000001e+00	 9.749999999999996e+00	 9.999427058461544e+00
0	 3.375000000000001e+00	 9.874999999999996e+00	 9.998727687307689e+00
0	 3.375000000000001e+00	 1.000000000000000e+01	 9.998025415384571e+00
0	 3.500000000000000e+00	 8.750000000000000e+00	 1.000529063076923e+01
0	 3.500000000000000e+00	 8.874999999999998e+00	 1.000457637769231e+01
0	 3.500000000000001e+00	 8.999999999999998e+00	 1.000385594461539e+01
0	 3.500000000000001e+00	 9.125000000000000e+00	 1.000312933153845e+01
0	 3.500000000000001e+00	 9.249999999999998e+00	 1.000239653846154e+01
0	 3.500000000000001e+00	 9.374999999999996e+00	 1.000165756538461e+01
0	 3.500000000000001e+00	 9.499999999999998e+00	 1.000091241230770e+01
0	 3.500000000000001e+00	 9.624999999999996e+00	 1.000016107923079e+01
0	 3.500000000000001e+00	 9.749999999999996e+00	 9.999403566153866e+00
0	 3.500000000000001e+00	 9.874999999999995e+00	 9.998639873076934e+00
0	 3.500000000000001e+00	 1.000000000000000e+01	 9.997869999999994e+00
0	 3.625000000000001e+00	 8.750000000000000e+00	 1.000544989230769e+01
0	 3.625000000000001e+00	 8.875000000000000e+00	 1.000472618653846e+01
0	 3.625000000000001e+00	 9.000000000000000e+00	 1.000399302153846e+01
0	 3.625000000000001e+00	 9.125000000000000e+00	 1.000325039730769e+01
0	 3.625000000000000e+00	 9.249999999999996e+00	 1.000249831384616e+01
0	 3.625000000000001e+00	 9.374999999999996e+00	 1.000173677115383e+01
0	 3.625000000000001e+00	 9.499999999999996e+00	 1.000096576923078e+01
0	 3.625000000000001e+00	 9.624999999999996e+00	 1.000018530807694e+01
0	 3.625000000000001e+00	 9.749999999999996e+00	 9.999395387692315e+00
0	 3.625000000000000e+00	 9.874999999999995e+00	 9.998596008076937e+00
0	 3.625000000000001e+00	 1.000000000000000e+01	 9.997787169230776e+00
0	 3.750000000000000e+00	 8.750000000000000e+00	 1.000539538461539e+01
0	 3.750000000000000e+00	 8.874999999999998e+00	 1.000469086153846e+01
0	 3.750000000000000e+00	 9.000000000000000e+00	 1.000397359999999e+01
0	 3.750000000000000e+00	 9.124999999999998e+00	 1.000324360000000e+01
0	 3.750000000000000e+00	 9.250000000000000e+00	 1.000250086153847e+01
0	 3.750000000000000e+00	 9.374999999999996e+00	 1.000174538461538e+01
0	 3.750000000000000e+00	 9.499999999999996e+00	 1.000097716923077e+01
0	 3.750000000000000e+00	 9.624999999999996e+00	 1.000019621538463e+01
0	 3.750000000000000e+00	 9.749999999999998e+00	 9.999402523076931e+00
0	 3.750000000000000e+00	 9.874999999999996e+00	 9.998596092307700e+00
0	 3.750000000000000e+00	 1.000000000000000e+01	 9.997776923076923e+00
0	 3.750000000000000e+00	 0.000000000000000e+00	 1.002227661538462e+01
0	 3.750000000000000e+00	 1.250000000000000e-01	 1.009281875384615e+01
0	 3.750000000000000e+00	 2.500000000000000e-01	 1.016185738461538e+01
0	 3.750000000000000e+00	 3.750000000000001e-01	 1.022939250769231e+01
0	 3.750000000000000e+00	 5.000000000000000e-01	 1.029542412307693e+01
0	 3.750000000000000e+00	 6.250000000000000e-01	 1.035995223076923e+01
0	 3.750000000000000e+00	 7.500000000000000e-01	 1.042297683076923e+01
0	 3.750000000000000e+00	 8.749999999999999e-01	 1.048449792307692e+01
0	 3.750000000000000e+00	 1.000000000000000e+00	 1.054451550769231e+01
0	 3.750000000000000e+00	 1.125000000000000e+00	 1.060302958461539e+01
0	 3.750000000000000e+00	 1.250000000000000e+00	 1.066004015384615e+01
0	 3.875000000000000e+00	 0.000000000000000e+00	 1.013638368000000e+01
0	 3.875000000000000e+00	 1.250000000000000e-01	 1.018483839646154e+01
0	 3.874999999999999e+00	 2.499999999999999e-01	 1.023171860676923e+01
0	 3.875000000000000e+00	 3.750000000000001e-01	 1.027702431092307e+01
0	 3.875000000000000e+00	 5.000000000000001e-01	 1.032075550892307e+01
0	 3.875000000000000e+00	 6.250000000000001e-01	 1.036291220076923e+01
0	 3.875000000000000e+00	 7.499999999999998e-01	 1.040349438646154e+01
0	 3.875000000000000e+00	 8.750000000000000e-01	 1.044250206600000e+01
0	 3.875000000000000e+00	 1.000000000000000e+00	 1.047993523938461e+01
0	 3.875000000000000e+00	 1.125000000000000e+00	 1.051579390661538e+01
0	 3.875000000000000e+00	 1.250000000000000e+00	 1.055007806769231e+01
0	 4.000000000000000e+00	 0.000000000000000e+00	 1.023040302769231e+01
0	 4.000000000000001e+00	 1.250000000000000e-01	 1.026016863046154e+01
0	 4.000000000000000e+00	 2.500000000000000e-01	 1.028828872861538e+01
0	 4.000000000000000e+00	 3.750000000000001e-01	 1.031476332215385e+01
0	 4.000000000000001e+00	 5.000000000000001e-01	 1.033959241107692e+01
0	 4.000000000000000e+00	 6.250000000000000e-01	 1.036277599538461e+01
0	 4.000000000000001e+00	 7.499999999999999e-01	 1.038431407507692e+01
0	 4.000000000000000e+00	 8.750000000000000e-01	 1.040420665015385e+01
0	 4.000000000000001e+00	 9.999999999999998e-01	 1.042245372061538e+01
0	 4.000000000000002e+00	 1.125000000000000e+00	 1.043905528646154e+01
0	 4.000000000000000e+00	 1.250000000000000e+00	 1.045401134769230e+01
0	 4.125000000000001e+00	 0.000000000000000e+00	 1.030433465846153e+01
0	 4.125000000000001e+00	 1.250000000000000e-01	 1.031880945584615e+01
0	 4.125000000000002e+00	 2.500000000000001e-01	 1.033156775015384e+01
0	 4.125000000000000e+00	 3.750000000000001e-01	 1.034260954138461e+01
0	 4.125000000000001e+00	 5.000000000000002e-01	 1.035193482953846e+01
0	 4.125000000000001e+00	 6.250000000000000e-01	 1.035954361461539e+01
0	 4.125000000000001e+00	 7.500000000000000e-01	 1.036543589661538e+01
0	 4.125000000000000e+00	 8.749999999999999e-01	 1.036961167553846e+01
0	 4.125000000000001e+00	 9.999999999999999e-01	 1.037207095138461e+01
0	 4.125000000000002e+00	 1.125000000000000e+00	 1.037281372415384e+01
0	 4.125000000000000e+00	 1.250000000000000e+00	 1.037183999384615e+01
0	 4.250000000000001e+00	 0.000000000000000e+00	 1.035817857230769e+01
0	 4.250000000000000e+00	 1.250000000000000e-01	 1.036076087261538e+01
0	 4.250000000000001e+00	 2.500000000000000e-01	 1.036155567138462e+01
0	 4.250000000000001e+00	 3.750000000000001e-01	 1.036056296861538e+01
0	 4.250000000000001e+00	 5.000000000000000e-01	 1.035778276430769e+01
0	 4.250000000000001e+00	 6.250000000000000e-01	 1.035321505846154e+01
0	 4.250000000000002e+00	 7.500000000000002e-01	 1.034685985107692e+01
0	 4.250000000000000e+00	 8.750000000000000e-01	 1.033871714215384e+01
0	 4.250000000000000e+00	 9.999999999999998e-01	 1.032878693169231e+01
0	 4.250000000000001e+00	 1.125000000000000e+00	 1.031706921969231e+01
0	 4.250000000000001e+00	 1.250000000000000e+00	 1.030356400615384e+01
0	 4.375000000000000e+00	 0.000000000000000e+00	 1.039193476923077e+01
0	 4.375000000000000e+00	 1.250000000000000e-01	 1.038602288076923e+01
0	 4.375000000000000e+00	 2.500000000000000e-01	 1.037825249230769e+01
0	 4.375000000000000e+00	 3.750000000000000e-01	 1.036862360384615e+01
0	 4.375000000000001e+00	 4.999999999999999e-01	 1.035713621538461e+01
0	 4.375000000000001e+00	 6.250000000000001e-01	 1.034379032692308e+01
0	 4.375000000000001e+00	 7.499999999999999e-01	 1.032858593846154e+01
0	 4.375000000000002e+00	 8.750000000000000e-01	 1.031152305000000e+01
0	 4.375000000000001e+00	 9.999999999999998e-01	 1.029260166153846e+01
0	 4.375000000000002e+00	 1.125000000000000e+00	 1.027182177307692e+01
0	 4.375000000000001e+00	 1.250000000000000e+00	 1.024918338461538e+01
0	 4.500000000000001e+00	 0.000000000000000e+00	 1.040560324923077e+01
0	 4.500000000000000e+00	 1.250000000000000e-01	 1.039459548030769e+01
0	 4.500000000000001e+00	 2.500000000000001e-01	 1.038165821292307e+01
0	 4.500000000000002e+00	 3.750000000000001e-01	 1.036679144707692e+01
0	 4.500000000000001e+00	 5.000000000000001e-01	 1.034999518276923e+01
0	 4.500000000000001e+00	 6.249999999999999e-01	 1.033126942000000e+01
0	 4.500000000000001e+00	 7.500000000000000e-01	 1.031061415876923e+01
0	 4.500000000000002e+00	 8.750000000000001e-01	 1.028802939907692e+01
0	 4.500000000000001e+00	 1.000000000000000e+00	 1.026351514092307e+01
0	 4.500000000000001e+00	 1.125000000000000e+00	 1.023707138430769e+01
0	 4.500000000000001e+00	 1.250000000000000e+00	 1.020869812923077e+01
0	 4.625000000000001e+00	 0.000000000000000e+00	 1.039918401230769e+01
0	 4.625000000000001e+00	 1.250000000000000e-01	 1.038647867123077e+01
0	 4.625000000000002e+00	 2.500000000000001e-01	 1.037177283323076e+01
0	 4.625000000000000e+00	 3.750000000000001e-01	 1.035506649830769e+01
0	 4.625000000000002e+00	 5.000000000000001e-01	 1.033635966646153e+01
0	 4.625000000000001e+00	 6.250000000000000e-01	 1.031565233769231e+01
0	 4.625000000000002e+00	 7.500000000000000e-01	 1.029294451200000e+01
0	 4.625000000000001e+00	 8.749999999999999e-01	 1.026823618938461e+01
0	 4.625000000000001e+00	 9.999999999999999e-01	 1.024152736984615e+01
0	 4.625000000000001e+00	 1.125000000000000e+00	 1.021281805338461e+01
0	 4.625000000000001e+00	 1.250000000000000e+00	 1.018210824000000e+01
0	 4.750000000000001e+00	 0.000000000000000e+00	 1.037267705846154e+01
0	 4.750000000000000e+00	 1.250000000000000e-01	 1.036167245353846e+01
0	 4.750000000000001e+00	 2.500000000000000e-01	 1.034859635323077e+01
0	 4.750000000000001e+00	 3.750000000000001e-01	 1.033344875753846e+01
0	 4.750000000000000e+00	 5.000000000000000e-01	 1.031622966646154e+01
0	 4.750000000000001e+00	 6.250000000000000e-01	 1.029693907999999e+01
0	 4.750000000000001e+00	 7.500000000000000e-01	 1.027557699815384e+01
0	 4.750000000000002e+00	 8.750000000000001e-01	 1.025214342092307e+01
0	 4.750000000000001e+00	 1.000000000000000e+00	 1.022663834830769e+01
0	 4.750000000000001e+00	 1.125000000000000e+00	 1.019906178030769e+01
0	 4.750000000000001e+00	 1.250000000000000e+00	 1.016941371692308e+01
0	 4.875000000000001e+00	 0.000000000000000e+00	 1.032608238769231e+01
0	 4.875000000000001e+00	 1.250000000000000e-01	 1.032017682723077e+01
0	 4.875000000000001e+00	 2.499999999999999e-01	 1.031212877292307e+01
0	 4.875000000000002e+00	 3.750000000000001e-01	 1.030193822476923e+01
0	 4.875000000000002e+00	 5.000000000000000e-01	 1.028960518276923e+01
0	 4.875000000000001e+00	 6.250000000000001e-01	 1.027512964692307e+01
0	 4.875000000000001e+00	 7.500000000000000e-01	 1.025851161723077e+01
0	 4.875000000000001e+00	 8.750000000000000e-01	 1.023975109369230e+01
0	 4.875000000000001e+00	 1.000000000000000e+00	 1.021884807630769e+01
0	 4.875000000000001e+00	 1.125000000000000e+00	 1.019580256507692e+01
0	 4.875000000000001e+00	 1.250000000000000e+00	 1.017061456000000e+01
0	 5.000000000000000e+00	 0.000000000000000e+00	 1.025940000000000e+01
0	 5.000000000000000e+00	 1.250000000000000e-01	 1.026199179230769e+01
0	 5.000000000000001e+00	 2.500000000000000e-01	 1.026237009230769e+01
0	 5.000000000000000e+00	 3.750000000000001e-01	 1.026053490000000e+01
0	 5.000000000000000e+00	 5.000000000000000e-01	 1.025648621538461e+01
0	 5.000000000000000e+00	 6.250000000000000e-01	 1.025022403846154e+01
0	 5.000000000000000e+00	 7.500000000000000e-01	 1.024174836923077e+01
0	 5.000000000000000e+00	 8.749999999999999e-01	 1.023105920769230e+01
0	 5.000000000000002e+00	 1.000000000000000e+00	 1.021815655384615e+01
0	 5.000000000000000e+00	 1.125000000000000e+00	 1.020304040769231e+01
0	 5.000000000000000e+00	 1.250000000000000e+00	 1.018571076923077e+01
0	 3.750000000000000e+00	 1.250000000000000e+00	 1.066004015384615e+01
0	 3.750000000000000e+00	 1.375000000000000e+00	 1.062139213846154e+01
0	 3.750000000000000e+00	 1.500000000000000e+00	 1.058672858461538e+01
0	 3.750000000000000e+00	 1.625000000000000e+00	 1.055604949230769e+01
0	 3.750000000000000e+00	 1.750000000000000e+00	 1.052935486153846e+01
0	 3.750000000000000e+00	 1.875000000000000e+00	 1.050664469230769e+01
0	 3.750000000000000e+00	 2.000000000000000e+00	 1.048791898461538e+01
0	 3.750000000000000e+00	 2.125000000000001e+00	 1.047317773846154e+01
0	 3.750000000000000e+00	 2.250000000000001e+00	 1.046242095384616e+01
0	 3.750000000000000e+00	 2.375000000000001e+00	 1.045564863076923e+01
0	 3.750000000000000e+00	 2.500000000000000e+00	 1.045286076923077e+01
0	 3.875000000000000e+00	 1.250000000000000e+00	 1.055007806769231e+01
0	 3.875000000000000e+00	 1.375000000000000e+00	 1.052359210476923e+01
0	 3.874999999999999e+00	 1.500000000000000e+00	 1.050064728646154e+01
0	 3.875000000000000e+00	 1.625000000000001e+00	 1.048124361276923e+01
0	 3.875000000000000e+00	 1.750000000000000e+00	 1.046538108369231e+01
0	 3.875000000000000e+00	 1.875000000000001e+00	 1.045305969923077e+01
0	 3.875000000000000e+00	 2.000000000000001e+00	 1.044427945938461e+01
0	 3.875000000000000e+00	 2.125000000000000e+00	 1.043904036415384e+01
0	 3.875000000000000e+00	 2.250000000000001e+00	 1.043734241353846e+01
0	 3.875000000000000e+00	 2.375000000000001e+00	 1.043918560753846e+01
0	 3.875000000000000e+00	 2.500000000000000e+00	 1.044456994615384e+01
0	 4.000000000000000e+00	 1.250000000000000e+00	 1.045401134769230e+01
0	 4.000000000000001e+00	 1.375000000000000e+00	 1.043818858215385e+01
0	 4.000000000000001e+00	 1.500000000000001e+00	 1.042546364430769e+01
0	 4.000000000000001e+00	 1.625000000000000e+00	 1.041583653415385e+01
0	 4.000000000000000e+00	 1.750000000000001e+00	 1.040930725169230e+01
0	 4.000000000000001e+00	 1.875000000000000e+00	 1.040587579692308e+01
0	 4.000000000000000e+00	 2.000000000000000e+00	 1.040554216984615e+01
0	 4.000000000000001e+00	 2.125000000000001e+00	 1.040830637046153e+01
0	 4.000000000000000e+00	 2.250000000000001e+00	 1.041416839876923e+01
0	 4.000000000000000e+00	 2.375000000000001e+00	 1.042312825476923e+01
0	 4.000000000000000e+00	 2.500000000000000e+00	 1.043518593846154e+01
0	 4.125000000000000e+00	 1.250000000000000e+00	 1.037183999384615e+01
0	 4.125000000000000e+00	 1.375000000000000e+00	 1.036518157061538e+01
0	 4.125000000000001e+00	 1.500000000000001e+00	 1.036117765815384e+01
0	 4.125000000000000e+00	 1.625000000000000e+00	 1.035982825646154e+01
0	 4.125000000000000e+00	 1.750000000000000e+00	 1.036113336553846e+01
0	 4.125000000000002e+00	 1.875000000000001e+00	 1.036509298538462e+01
0	 4.125000000000000e+00	 2.000000000000001e+00	 1.037170711600000e+01
0	 4.125000000000000e+00	 2.125000000000001e+00	 1.038097575738461e+01
0	 4.125000000000001e+00	 2.250000000000001e+00	 1.039289890953846e+01
0	 4.125000000000000e+00	 2.375000000000000e+00	 1.040747657246154e+01
0	 4.125000000000000e+00	 2.500000000000000e+00	 1.042470874615384e+01
0	 4.250000000000001e+00	 1.250000000000000e+00	 1.030356400615384e+01
0	 4.250000000000000e+00	 1.375000000000000e+00	 1.030457107015384e+01
0	 4.250000000000001e+00	 1.500000000000000e+00	 1.030778932800000e+01
0	 4.250000000000000e+00	 1.625000000000000e+00	 1.031321877969231e+01
0	 4.250000000000000e+00	 1.750000000000000e+00	 1.032085942523076e+01
0	 4.250000000000001e+00	 1.875000000000000e+00	 1.033071126461538e+01
0	 4.250000000000001e+00	 2.000000000000001e+00	 1.034277429784615e+01
0	 4.250000000000002e+00	 2.125000000000001e+00	 1.035704852492307e+01
0	 4.249999999999999e+00	 2.250000000000000e+00	 1.037353394584616e+01
0	 4.250000000000001e+00	 2.375000000000001e+00	 1.039223056061538e+01
0	 4.250000000000001e+00	 2.500000000000000e+00	 1.041313836923077e+01
0	 4.375000000000001e+00	 1.250000000000000e+00	 1.024918338461538e+01
0	 4.375000000000001e+00	 1.375000000000000e+00	 1.025635708076923e+01
0	 4.375000000000000e+00	 1.500000000000000e+00	 1.026529865384615e+01
0	 4.375000000000001e+00	 1.625000000000000e+00	 1.027600810384615e+01
0	 4.375000000000002e+00	 1.750000000000001e+00	 1.028848543076923e+01
0	 4.375000000000000e+00	 1.875000000000000e+00	 1.030273063461538e+01
0	 4.375000000000000e+00	 2.000000000000001e+00	 1.031874371538461e+01
0	 4.375000000000001e+00	 2.125000000000001e+00	 1.033652467307692e+01
0	 4.375000000000000e+00	 2.250000000000001e+00	 1.035607350769230e+01
0	 4.375000000000001e+00	 2.375000000000001e+00	 1.037739021923077e+01
0	 4.375000000000001e+00	 2.500000000000000e+00	 1.040047480769231e+01
0	 4.500000000000001e+00	 1.250000000000000e+00	 1.020869812923077e+01
0	 4.500000000000001e+00	 1.375000000000000e+00	 1.022053960246154e+01
0	 4.500000000000001e+00	 1.500000000000000e+00	 1.023370563569230e+01
0	 4.500000000000001e+00	 1.625000000000000e+00	 1.024819622892308e+01
0	 4.500000000000001e+00	 1.750000000000001e+00	 1.026401138215385e+01
0	 4.500000000000000e+00	 1.875000000000001e+00	 1.028115109538461e+01
0	 4.500000000000001e+00	 2.000000000000001e+00	 1.029961536861538e+01
0	 4.500000000000002e+00	 2.125000000000001e+00	 1.031940420184615e+01
0	 4.500000000000001e+00	 2.250000000000002e+00	 1.034051759507692e+01
0	 4.500000000000001e+00	 2.375000000000001e+00	 1.036295554830770e+01
0	 4.500000000000001e+00	 2.500000000000000e+00	 1.038671806153846e+01
0	 4.625000000000001e+00	 1.250000000000000e+00	 1.018210824000000e+01
0	 4.625000000000001e+00	 1.375000000000000e+00	 1.019711863523077e+01
0	 4.625000000000002e+00	 1.500000000000000e+00	 1.021301027353845e+01
0	 4.625000000000000e+00	 1.625000000000000e+00	 1.022978315492307e+01
0	 4.625000000000001e+00	 1.750000000000000e+00	 1.024743727938461e+01
0	 4.625000000000002e+00	 1.875000000000001e+00	 1.026597264692307e+01
0	 4.624999999999999e+00	 2.000000000000000e+00	 1.028538925753845e+01
0	 4.625000000000001e+00	 2.125000000000001e+00	 1.030568711123077e+01
0	 4.625000000000001e+00	 2.250000000000001e+00	 1.032686620800000e+01
0	 4.625000000000001e+00	 2.375000000000001e+00	 1.034892654784615e+01
0	 4.625000000000001e+00	 2.500000000000000e+00	 1.037186813076923e+01
0	 4.750000000000001e+00	 1.250000000000000e+00	 1.016941371692308e+01
0	 4.750000000000002e+00	 1.375000000000000e+00	 1.018609417907692e+01
0	 4.750000000000001e+00	 1.500000000000000e+00	 1.020321256738461e+01
0	 4.750000000000000e+00	 1.625000000000000e+00	 1.022076888184615e+01
0	 4.750000000000000e+00	 1.750000000000000e+00	 1.023876312246153e+01
0	 4.750000000000001e+00	 1.875000000000001e+00	 1.025719528923077e+01
0	 4.750000000000003e+00	 2.000000000000001e+00	 1.027606538215384e+01
0	 4.750000000000002e+00	 2.125000000000001e+00	 1.029537340123077e+01
0	 4.750000000000001e+00	 2.250000000000001e+00	 1.031511934646154e+01
0	 4.750000000000002e+00	 2.375000000000001e+00	 1.033530321784615e+01
0	 4.750000000000001e+00	 2.500000000000000e+00	 1.035592501538461e+01
0	 4.875000000000001e+00	 1.250000000000000e+00	 1.017061456000000e+01
0	 4.875000000000001e+00	 1.375000000000000e+00	 1.018746623400000e+01
0	 4.875000000000001e+00	 1.500000000000000e+00	 1.020431251723077e+01
0	 4.875000000000001e+00	 1.625000000000000e+00	 1.022115340969230e+01
0	 4.875000000000001e+00	 1.750000000000000e+00	 1.023798891138461e+01
0	 4.875000000000000e+00	 1.875000000000000e+00	 1.025481902230769e+01
0	 4.875000000000001e+00	 2.000000000000000e+00	 1.027164374246154e+01
0	 4.875000000000001e+00	 2.125000000000001e+00	 1.028846307184615e+01
0	 4.875000000000002e+00	 2.250000000000001e+00	 1.030527701046154e+01
0	 4.875000000000001e+00	 2.375000000000001e+00	 1.032208555830769e+01
0	 4.875000000000001e+00	 2.500000000000000e+00	 1.033888871538461e+01
0	 5.000000000000000e+00	 1.250000000000000e+00	 1.018571076923077e+01
0	 5.000000000000000e+00	 1.375000000000000e+00	 1.020123480000000e+01
0	 5.000000000000000e+00	 1.500000000000000e+00	 1.021631012307692e+01
0	 5.000000000000001e+00	 1.625000000000000e+00	 1.023093673846154e+01
0	 5.000000000000001e+00	 1.750000000000000e+00	 1.024511464615384e+01
0	 5.000000000000001e+00	 1.875000000000000e+00	 1.025884384615384e+01
0	 5.000000000000000e+00	 2.000000000000000e+00	 1.027212433846154e+01
0	 5.000000000000000e+00	 2.125000000000001e+00	 1.028495612307692e+01
0	 5.000000000000000e+00	 2.250000000000001e+00	 1.029733919999999e+01
0	 5.000000000000000e+00	 2.375000000000001e+00	 1.030927356923077e+01
0	 5.000000000000000e+00	 2.500000000000000e+00	 1.032075923076923e+01
0	 3.750000000000000e+00	 2.500000000000000e+00	 1.045286076923077e+01
0	 3.750000000000000e+00	 2.625000000000000e+00	 1.043917889999999e+01
0	 3.750000000000000e+00	 2.750000000000000e+00	 1.042524590769230e+01
0	 3.750000000000000e+00	 2.875000000000001e+00	 1.041106179230769e+01
0	 3.750000000000000e+00	 3.000000000000000e+00	 1.039662655384615e+01
0	 3.750000000000000e+00	 3.125000000000000e+00	 1.038194019230769e+01
0	 3.750000000000000e+00	 3.250000000000000e+00	 1.036700270769230e+01
0	 3.750000000000000e+00	 3.375000000000001e+00	 1.035181409999999e+01
0	 3.750000000000000e+00	 3.500000000000001e+00	 1.033637436923077e+01
0	 3.750000000000000e+00	 3.625000000000001e+00	 1.032068351538461e+01
0	 3.750000000000000e+00	 3.750000000000000e+00	 1.030474153846153e+01
0	 3.875000000000000e+00	 2.500000000000000e+00	 1.044456994615384e+01
0	 3.875000000000000e+00	 2.625000000000000e+00	 1.042966954384616e+01
0	 3.874999999999999e+00	 2.750000000000000e+00	 1.041471212769231e+01
0	 3.875000000000000e+00	 2.875000000000000e+00	 1.039969769769230e+01
0	 3.875000000000000e+00	 3.000000000000001e+00	 1.038462625384615e+01
0	 3.875000000000000e+00	 3.125000000000000e+00	 1.036949779615384e+01
0	 3.875000000000000e+00	 3.250000000000001e+00	 1.035431232461538e+01
0	 3.875000000000000e+00	 3.375000000000000e+00	 1.033906983923077e+01
0	 3.875000000000000e+00	 3.500000000000001e+00	 1.032377034000000e+01
0	 3.875000000000000e+00	 3.625000000000001e+00	 1.030841382692307e+01
0	 3.875000000000000e+00	 3.750000000000000e+00	 1.029300029999999e+01
0	 4.000000000000000e+00	 2.500000000000000e+00	 1.043518593846154e+01
0	 4.000000000000001e+00	 2.625000000000001e+00	 1.041927235076923e+01
0	 4.000000000000001e+00	 2.750000000000001e+00	 1.040349585846153e+01
0	 4.000000000000001e+00	 2.875000000000000e+00	 1.038785646153846e+01
0	 4.000000000000000e+00	 3.000000000000000e+00	 1.037235416000000e+01
0	 4.000000000000001e+00	 3.125000000000001e+00	 1.035698895384615e+01
0	 4.000000000000000e+00	 3.250000000000001e+00	 1.034176084307692e+01
0	 4.000000000000001e+00	 3.375000000000001e+00	 1.032666982769230e+01
0	 4.000000000000000e+00	 3.500000000000001e+00	 1.031171590769230e+01
0	 4.000000000000000e+00	 3.625000000000001e+00	 1.029689908307692e+01
0	 4.000000000000000e+00	 3.750000000000000e+00	 1.028221935384615e+01
0	 4.125000000000000e+00	 2.500000000000000e+00	 1.042470874615384e+01
0	 4.125000000000000e+00	 2.625000000000000e+00	 1.040798732076923e+01
0	 4.125000000000001e+00	 2.750000000000000e+00	 1.039159710000000e+01
0	 4.125000000000000e+00	 2.875000000000000e+00	 1.037553808384615e+01
0	 4.125000000000000e+00	 3.000000000000000e+00	 1.035981027230769e+01
0	 4.125000000000002e+00	 3.125000000000001e+00	 1.034441366538461e+01
0	 4.125000000000000e+00	 3.250000000000000e+00	 1.032934826307692e+01
0	 4.125000000000000e+00	 3.375000000000001e+00	 1.031461406538461e+01
0	 4.125000000000001e+00	 3.500000000000000e+00	 1.030021107230769e+01
0	 4.125000000000000e+00	 3.625000000000000e+00	 1.028613928384616e+01
0	 4.125000000000000e+00	 3.750000000000000e+00	 1.027239870000000e+01
0	 4.250000000000001e+00	 2.500000000000000e+00	 1.041313836923077e+01
0	 4.250000000000000e+00	 2.625000000000000e+00	 1.039581445384615e+01
0	 4.250000000000001e+00	 2.750000000000000e+00	 1.037901585230769e+01
0	 4.250000000000000e+00	 2.875000000000000e+00	 1.036274256461538e+01
0	 4.250000000000000e+00	 3.000000000000000e+00	 1.034699459076923e+01
0	 4.250000000000001e+00	 3.125000000000001e+00	 1.033177193076923e+01
0	 4.250000000000001e+00	 3.250000000000001e+00	 1.031707458461538e+01
0	 4.250000000000002e+00	 3.375000000000001e+00	 1.030290255230769e+01
0	 4.249999999999999e+00	 3.500000000000000e+00	 1.028925583384615e+01
0	 4.250000000000001e+00	 3.625000000000001e+00	 1.027613442923077e+01
0	 4.250000000000001e+00	 3.750000000000000e+00	 1.026353833846154e+01
0	 4.375000000000001e+00	 2.500000000000000e+00	 1.040047480769231e+01
0	 4.375000000000001e+00	 2.625000000000001e+00	 1.038275375000000e+01
0	 4.375000000000000e+00	 2.750000000000000e+00	 1.036575211538462e+01
0	 4.375000000000001e+00	 2.875000000000000e+00	 1.034946990384616e+01
0	 4.375000000000002e+00	 3.000000000000001e+00	 1.033390711538462e+01
0	 4.375000000000000e+00	 3.125000000000001e+00	 1.031906374999999e+01
0	 4.375000000000000e+00	 3.250000000000000e+00	 1.030493980769231e+01
0	 4.375000000000001e+00	 3.375000000000001e+00	 1.029153528846153e+01
0	 4.375000000000000e+00	 3.500000000000001e+00	 1.027885019230769e+01
0	 4.375000000000001e+00	 3.625000000000000e+00	 1.026688451923076e+01
0	 4.375000000000001e+00	 3.750000000000000e+00	 1.025563826923076e+01
0	 4.500000000000001e+00	 2.500000000000000e+00	 1.038671806153846e+01
0	 4.500000000000001e+00	 2.625000000000000e+00	 1.036880520923076e+01
0	 4.500000000000001e+00	 2.750000000000000e+00	 1.035180588923077e+01
0	 4.500000000000001e+00	 2.875000000000000e+00	 1.033572010153846e+01
0	 4.500000000000001e+00	 3.000000000000000e+00	 1.032054784615384e+01
0	 4.500000000000000e+00	 3.125000000000000e+00	 1.030628912307692e+01
0	 4.500000000000001e+00	 3.250000000000000e+00	 1.029294393230769e+01
0	 4.500000000000002e+00	 3.375000000000001e+00	 1.028051227384615e+01
0	 4.500000000000001e+00	 3.500000000000000e+00	 1.026899414769230e+01
0	 4.500000000000001e+00	 3.625000000000000e+00	 1.025838955384615e+01
0	 4.500000000000001e+00	 3.750000000000000e+00	 1.024869849230769e+01
0	 4.625000000000001e+00	 2.500000000000000e+00	 1.037186813076923e+01
0	 4.625000000000001e+00	 2.625000000000000e+00	 1.035396883153846e+01
0	 4.625000000000002e+00	 2.750000000000001e+00	 1.033717717384615e+01
0	 4.625000000000000e+00	 2.875000000000000e+00	 1.032149315769231e+01
0	 4.625000000000001e+00	 3.000000000000001e+00	 1.030691678307692e+01
0	 4.625000000000002e+00	 3.125000000000000e+00	 1.029344805000000e+01
0	 4.624999999999999e+00	 3.250000000000000e+00	 1.028108695846153e+01
0	 4.625000000000001e+00	 3.375000000000001e+00	 1.026983350846153e+01
0	 4.625000000000001e+00	 3.500000000000001e+00	 1.025968770000000e+01
0	 4.625000000000001e+00	 3.625000000000001e+00	 1.025064953307692e+01
0	 4.625000000000001e+00	 3.750000000000000e+00	 1.024271900769230e+01
0	 4.750000000000001e+00	 2.500000000000000e+00	 1.035592501538461e+01
0	 4.750000000000002e+00	 2.625000000000000e+00	 1.033824461692307e+01
0	 4.750000000000001e+00	 2.750000000000000e+00	 1.032186596923077e+01
0	 4.750000000000000e+00	 2.875000000000000e+00	 1.030678907230769e+01
0	 4.750000000000000e+00	 3.000000000000000e+00	 1.029301392615385e+01
0	 4.750000000000001e+00	 3.125000000000001e+00	 1.028054053076923e+01
0	 4.750000000000003e+00	 3.250000000000001e+00	 1.026936888615385e+01
0	 4.750000000000002e+00	 3.375000000000001e+00	 1.025949899230769e+01
0	 4.750000000000001e+00	 3.500000000000001e+00	 1.025093084923076e+01
0	 4.750000000000002e+00	 3.625000000000001e+00	 1.024366445692308e+01
0	 4.750000000000001e+00	 3.750000000000000e+00	 1.023769981538461e+01
0	 4.875000000000001e+00	 2.500000000000000e+00	 1.033888871538461e+01
0	 4.875000000000001e+00	 2.625000000000000e+00	 1.032163256538461e+01
0	 4.875000000000001e+00	 2.750000000000000e+00	 1.030587227538461e+01
0	 4.875000000000001e+00	 2.875000000000000e+00	 1.029160784538461e+01
0	 4.875000000000001e+00	 3.000000000000000e+00	 1.027883927538461e+01
0	 4.875000000000000e+00	 3.125000000000000e+00	 1.026756656538461e+01
0	 4.875000000000001e+00	 3.250000000000000e+00	 1.025778971538461e+01
0	 4.875000000000001e+00	 3.375000000000000e+00	 1.024950872538461e+01
0	 4.875000000000002e+00	 3.500000000000001e+00	 1.024272359538461e+01
0	 4.875000000000001e+00	 3.625000000000001e+00	 1.023743432538461e+01
0	 4.875000000000001e+00	 3.750000000000000e+00	 1.023364091538461e+01
0	 5.000000000000000e+00	 2.500000000000000e+00	 1.032075923076923e+01
0	 5.000000000000000e+00	 2.625000000000000e+00	 1.030413267692307e+01
0	 5.000000000000000e+00	 2.750000000000000e+00	 1.028919609230769e+01
0	 5.000000000000001e+00	 2.875000000000001e+00	 1.027594947692308e+01
0	 5.000000000000001e+00	 3.000000000000000e+00	 1.026439283076923e+01
0	 5.000000000000001e+00	 3.125000000000000e+00	 1.025452615384615e+01
0	 5.000000000000000e+00	 3.250000000000000e+00	 1.024634944615384e+01
0	 5.000000000000000e+00	 3.375000000000001e+00	 1.023986270769231e+01
0	 5.000000000000000e+00	 3.500000000000001e+00	 1.023506593846154e+01
0	 5.000000000000000e+00	 3.625000000000001e+00	 1.023195913846153e+01
0	 5.000000000000000e+00	 3.750000000000000e+00	 1.023054230769230e+01
0	 3.750000000000000e+00	 3.750000000000000e+00	 1.030474153846153e+01
0	 3.750000000000000e+00	 3.875000000000000e+00	 1.027883087692307e+01
0	 3.750000000000000e+00	 4.000000000000001e+00	 1.025396366153846e+01
0	 3.750000000000000e+00	 4.125000000000001e+00	 1.023013989230769e+01
0	 3.750000000000000e+00	 4.250000000000001e+00	 1.020735956923077e+01
0	 3.750000000000000e+00	 4.375000000000001e+00	 1.018562269230769e+01
0	 3.750000000000000e+00	 4.500000000000000e+00	 1.016492926153845e+01
0	 3.750000000000000e+00	 4.625000000000001e+00	 1.014527927692307e+01
0	 3.750000000000000e+00	 4.750000000000002e+00	 1.012667273846154e+01
0	 3.750000000000000e+00	 4.875000000000002e+00	 1.010910964615384e+01
0	 3.750000000000000e+00	 5.000000000000000e+00	 1.009259000000000e+01
0	 3.875000000000000e+00	 3.750000000000000e+00	 1.029300029999999e+01
0	 3.875000000000000e+00	 3.875000000000000e+00	 1.027089059769231e+01
0	 3.874999999999999e+00	 4.000000000000000e+00	 1.024970375076923e+01
0	 3.875000000000000e+00	 4.125000000000001e+00	 1.022943975923076e+01
0	 3.875000000000000e+00	 4.250000000000001e+00	 1.021009862307692e+01
0	 3.875000000000000e+00	 4.375000000000002e+00	 1.019168034230769e+01
0	 3.875000000000000e+00	 4.500000000000001e+00	 1.017418491692307e+01
0	 3.875000000000000e+00	 4.625000000000002e+00	 1.015761234692308e+01
0	 3.875000000000000e+00	 4.750000000000002e+00	 1.014196263230770e+01
0	 3.875000000000000e+00	 4.875000000000001e+00	 1.012723577307692e+01
0	 3.875000000000000e+00	 4.999999999999999e+00	 1.011343176923077e+01
0	 4.000000000000000e+00	 3.750000000000000e+00	 1.028221935384615e+01
0	 4.000000000000001e+00	 3.875000000000001e+00	 1.026351272000000e+01
0	 4.000000000000001e+00	 4.000000000000001e+00	 1.024560835076923e+01
0	 4.000000000000001e+00	 4.125000000000000e+00	 1.022850624615383e+01
0	 4.000000000000000e+00	 4.250000000000001e+00	 1.021220640615384e+01
0	 4.000000000000001e+00	 4.375000000000001e+00	 1.019670883076923e+01
0	 4.000000000000000e+00	 4.500000000000000e+00	 1.018201351999999e+01
0	 4.000000000000001e+00	 4.625000000000002e+00	 1.016812047384615e+01
0	 4.000000000000000e+00	 4.750000000000002e+00	 1.015502969230769e+01
0	 4.000000000000000e+00	 4.875000000000001e+00	 1.014274117538461e+01
0	 4.000000000000000e+00	 5.000000000000000e+00	 1.013125492307692e+01
0	 4.125000000000000e+00	 3.750000000000000e+00	 1.027239870000000e+01
0	 4.125000000000000e+00	 3.875000000000000e+00	 1.025669724384615e+01
0	 4.125000000000001e+00	 4.000000000000001e+00	 1.024167746153847e+01
0	 4.125000000000000e+00	 4.124999999999999e+00	 1.022733935307692e+01
0	 4.125000000000000e+00	 4.250000000000000e+00	 1.021368291846154e+01
0	 4.125000000000002e+00	 4.375000000000002e+00	 1.020070815769230e+01
0	 4.125000000000000e+00	 4.500000000000001e+00	 1.018841507076923e+01
0	 4.125000000000000e+00	 4.625000000000001e+00	 1.017680365769230e+01
0	 4.125000000000001e+00	 4.750000000000001e+00	 1.016587391846153e+01
0	 4.125000000000000e+00	 4.875000000000002e+00	 1.015562585307693e+01
0	 4.125000000000000e+00	 5.000000000000000e+00	 1.014605946153846e+01
0	 4.250000000000001e+00	 3.750000000000000e+00	 1.026353833846154e+01
0	 4.250000000000000e+00	 3.875000000000000e+00	 1.025044416923076e+01
0	 4.250000000000001e+00	 4.000000000000000e+00	 1.023791108307692e+01
0	 4.250000000000000e+00	 4.125000000000000e+00	 1.022593908000000e+01
0	 4.250000000000000e+00	 4.250000000000001e+00	 1.021452816000000e+01
0	 4.250000000000001e+00	 4.375000000000000e+00	 1.020367832307692e+01
0	 4.250000000000001e+00	 4.500000000000001e+00	 1.019338956923077e+01
0	 4.250000000000002e+00	 4.625000000000001e+00	 1.018366189846153e+01
0	 4.249999999999999e+00	 4.749999999999999e+00	 1.017449531076922e+01
0	 4.250000000000001e+00	 4.875000000000001e+00	 1.016588980615384e+01
0	 4.250000000000001e+00	 5.000000000000001e+00	 1.015784538461538e+01
0	 4.375000000000001e+00	 3.750000000000000e+00	 1.025563826923076e+01
0	 4.375000000000001e+00	 3.875000000000000e+00	 1.024475349615384e+01
0	 4.375000000000000e+00	 4.000000000000000e+00	 1.023430921538461e+01
0	 4.375000000000001e+00	 4.125000000000000e+00	 1.022430542692308e+01
0	 4.375000000000002e+00	 4.250000000000002e+00	 1.021474213076922e+01
0	 4.375000000000000e+00	 4.375000000000000e+00	 1.020561932692307e+01
0	 4.375000000000000e+00	 4.500000000000001e+00	 1.019693701538461e+01
0	 4.375000000000001e+00	 4.625000000000002e+00	 1.018869519615385e+01
0	 4.375000000000000e+00	 4.750000000000001e+00	 1.018089386923077e+01
0	 4.375000000000001e+00	 4.875000000000002e+00	 1.017353303461538e+01
0	 4.375000000000001e+00	 5.000000000000001e+00	 1.016661269230770e+01
0	 4.500000000000001e+00	 3.750000000000000e+00	 1.024869849230769e+01
0	 4.500000000000001e+00	 3.875000000000000e+00	 1.023962522461538e+01
0	 4.500000000000001e+00	 4.000000000000000e+00	 1.023087185846153e+01
0	 4.500000000000001e+00	 4.125000000000001e+00	 1.022243839384615e+01
0	 4.500000000000001e+00	 4.250000000000001e+00	 1.021432483076923e+01
0	 4.500000000000000e+00	 4.375000000000001e+00	 1.020653116923076e+01
0	 4.500000000000001e+00	 4.500000000000001e+00	 1.019905740923076e+01
0	 4.500000000000002e+00	 4.625000000000002e+00	 1.019190355076923e+01
0	 4.500000000000001e+00	 4.750000000000003e+00	 1.018506959384615e+01
0	 4.500000000000001e+00	 4.875000000000001e+00	 1.017855553846154e+01
0	 4.500000000000001e+00	 4.999999999999999e+00	 1.017236138461538e+01
0	 4.625000000000001e+00	 3.750000000000000e+00	 1.024271900769230e+01
0	 4.625000000000001e+00	 3.875000000000000e+00	 1.023505935461538e+01
0	 4.625000000000002e+00	 4.000000000000001e+00	 1.022759901230769e+01
0	 4.625000000000000e+00	 4.125000000000000e+00	 1.022033798076923e+01
0	 4.625000000000001e+00	 4.250000000000000e+00	 1.021327626000000e+01
0	 4.625000000000002e+00	 4.375000000000001e+00	 1.020641385000000e+01
0	 4.624999999999999e+00	 4.499999999999999e+00	 1.019975075076923e+01
0	 4.625000000000001e+00	 4.625000000000001e+00	 1.019328696230769e+01
0	 4.625000000000001e+00	 4.750000000000001e+00	 1.018702248461538e+01
0	 4.625000000000001e+00	 4.875000000000001e+00	 1.018095731769230e+01
0	 4.625000000000001e+00	 5.000000000000000e+00	 1.017509146153846e+01
0	 4.750000000000001e+00	 3.750000000000000e+00	 1.023769981538461e+01
0	 4.750000000000002e+00	 3.875000000000000e+00	 1.023105588615384e+01
0	 4.750000000000001e+00	 4.000000000000000e+00	 1.022449067692308e+01
0	 4.750000000000000e+00	 4.125000000000000e+00	 1.021800418769231e+01
0	 4.750000000000000e+00	 4.249999999999999e+00	 1.021159641846154e+01
0	 4.750000000000001e+00	 4.375000000000000e+00	 1.020526736923076e+01
0	 4.750000000000003e+00	 4.500000000000003e+00	 1.019901704000000e+01
0	 4.750000000000002e+00	 4.625000000000002e+00	 1.019284543076923e+01
0	 4.750000000000001e+00	 4.750000000000002e+00	 1.018675254153846e+01
0	 4.750000000000002e+00	 4.875000000000002e+00	 1.018073837230770e+01
0	 4.750000000000001e+00	 5.000000000000000e+00	 1.017480292307692e+01
0	 4.875000000000001e+00	 3.750000000000000e+00	 1.023364091538461e+01
0	 4.875000000000001e+00	 3.875000000000000e+00	 1.022761481923076e+01
0	 4.875000000000001e+00	 4.000000000000000e+00	 1.022154685230769e+01
0	 4.875000000000001e+00	 4.125000000000000e+00	 1.021543701461538e+01
0	 4.875000000000001e+00	 4.250000000000000e+00	 1.020928530615385e+01
0	 4.875000000000000e+00	 4.375000000000000e+00	 1.020309172692307e+01
0	 4.875000000000001e+00	 4.500000000000001e+00	 1.019685627692307e+01
0	 4.875000000000001e+00	 4.625000000000000e+00	 1.019057895615385e+01
0	 4.875000000000002e+00	 4.750000000000002e+00	 1.018425976461539e+01
0	 4.875000000000001e+00	 4.875000000000001e+00	 1.017789870230770e+01
0	 4.875000000000001e+00	 5.000000000000000e+00	 1.017149576923077e+01
0	 5.000000000000000e+00	 3.750000000000000e+00	 1.023054230769230e+01
0	 5.000000000000000e+00	 3.875000000000000e+00	 1.022473615384615e+01
0	 5.000000000000000e+00	 4.000000000000001e+00	 1.021876753846153e+01
0	 5.000000000000001e+00	 4.125000000000001e+00	 1.021263646153845e+01
0	 5.000000000000001e+00	 4.250000000000001e+00	 1.020634292307692e+01
0	 5.000000000000001e+00	 4.375000000000001e+00	 1.019988692307692e+01
0	 5.000000000000000e+00	 4.500000000000000e+00	 1.019326846153846e+01
0	 5.000000000000000e+00	 4.625000000000001e+00	 1.018648753846153e+01
0	 5.000000000000000e+00	 4.750000000000002e+00	 1.017954415384616e+01
0	 5.000000000000000e+00	 4.875000000000002e+00	 1.017243830769231e+01
0	 5.000000000000000e+00	 5.000000000000000e+00	 1.016517000000000e+01
0	 3.750000000000000e+00	 5.000000000000000e+00	 1.009259000000000e+01
0	 3.750000000000000e+00	 5.124999999999999e+00	 1.009357888461539e+01
0	 3.750000000000000e+00	 5.250000000000000e+00	 1.009367169230769e+01
0	 3.750000000000000e+00	 5.374999999999998e+00	 1.009286842307692e+01
0	 3.750000000000000e+00	 5.499999999999999e+00	 1.009116907692308e+01
0	 3.750000000000000e+00	 5.624999999999997e+00	 1.008857365384616e+01
0	 3.750000000000000e+00	 5.749999999999997e+00	 1.008508215384615e+01
0	 3.750000000000000e+00	 5.874999999999996e+00	 1.008069457692308e+01
0	 3.750000000000000e+00	 5.999999999999996e+00	 1.007541092307693e+01
0	 3.750000000000000e+00	 6.124999999999996e+00	 1.006923119230770e+01
0	 3.750000000000000e+00	 6.250000000000000e+00	 1.006215538461539e+01
0	 3.875000000000000e+00	 4.999999999999999e+00	 1.011343176923077e+01
0	 3.875000000000000e+00	 5.125000000000000e+00	 1.011193792538462e+01
0	 3.875000000000000e+00	 5.249999999999997e+00	 1.010967148461539e+01
0	 3.874999999999998e+00	 5.374999999999997e+00	 1.010663244692308e+01
0	 3.874999999999999e+00	 5.499999999999997e+00	 1.010282081230769e+01
0	 3.874999999999999e+00	 5.624999999999997e+00	 1.009823658076923e+01
0	 3.875000000000000e+00	 5.749999999999997e+00	 1.009287975230770e+01
0	 3.875000000000000e+00	 5.874999999999996e+00	 1.008675032692308e+01
0	 3.875000000000000e+00	 5.999999999999997e+00	 1.007984830461540e+01
0	 3.875000000000000e+00	 6.124999999999997e+00	 1.007217368538463e+01
0	 3.875000000000000e+00	 6.250000000000000e+00	 1.006372646923078e+01
0	 4.000000000000000e+00	 5.000000000000000e+00	 1.013125492307692e+01
0	 4.000000000000000e+00	 5.124999999999999e+00	 1.012758153692308e+01
0	 4.000000000000000e+00	 5.249999999999999e+00	 1.012325903384616e+01
0	 4.000000000000000e+00	 5.374999999999999e+00	 1.011828741384615e+01
0	 4.000000000000001e+00	 5.499999999999999e+00	 1.011266667692308e+01
0	 4.000000000000000e+00	 5.624999999999997e+00	 1.010639682307692e+01
0	 4.000000000000000e+00	 5.749999999999997e+00	 1.009947785230770e+01
0	 4.000000000000000e+00	 5.874999999999997e+00	 1.009190976461539e+01
0	 4.000000000000000e+00	 5.999999999999996e+00	 1.008369256000001e+01
0	 4.000000000000000e+00	 6.124999999999996e+00	 1.007482623846154e+01
0	 4.000000000000000e+00	 6.250000000000001e+00	 1.006531080000000e+01
0	 4.125000000000000e+00	 5.000000000000000e+00	 1.014605946153846e+01
0	 4.125000000000001e+00	 5.124999999999999e+00	 1.014050971923077e+01
0	 4.125000000000000e+00	 5.249999999999999e+00	 1.013443433999999e+01
0	 4.125000000000001e+00	 5.374999999999998e+00	 1.012783332384615e+01
0	 4.124999999999999e+00	 5.499999999999997e+00	 1.012070667076923e+01
0	 4.125000000000000e+00	 5.624999999999997e+00	 1.011305438076924e+01
0	 4.125000000000000e+00	 5.749999999999998e+00	 1.010487645384616e+01
0	 4.125000000000001e+00	 5.874999999999996e+00	 1.009617289000000e+01
0	 4.125000000000000e+00	 5.999999999999996e+00	 1.008694368923078e+01
0	 4.125000000000000e+00	 6.124999999999995e+00	 1.007718885153847e+01
0	 4.125000000000000e+00	 6.250000000000000e+00	 1.006690837692308e+01
0	 4.250000000000001e+00	 5.000000000000001e+00	 1.015784538461538e+01
0	 4.250000000000002e+00	 5.125000000000000e+00	 1.015072247230769e+01
0	 4.250000000000001e+00	 5.250000000000000e+00	 1.014319740307692e+01
0	 4.250000000000001e+00	 5.374999999999998e+00	 1.013527017692308e+01
0	 4.250000000000001e+00	 5.499999999999998e+00	 1.012694079384615e+01
0	 4.249999999999999e+00	 5.624999999999996e+00	 1.011820925384615e+01
0	 4.250000000000001e+00	 5.749999999999998e+00	 1.010907555692308e+01
0	 4.250000000000001e+00	 5.874999999999997e+00	 1.009953970307693e+01
0	 4.250000000000001e+00	 5.999999999999997e+00	 1.008960169230770e+01
0	 4.250000000000000e+00	 6.124999999999996e+00	 1.007926152461538e+01
0	 4.250000000000001e+00	 6.250000000000000e+00	 1.006851920000001e+01
0	 4.375000000000001e+00	 5.000000000000001e+00	 1.016661269230770e+01
0	 4.375000000000001e+00	 5.124999999999998e+00	 1.015821979615385e+01
0	 4.375000000000000e+00	 5.249999999999999e+00	 1.014954822307692e+01
0	 4.375000000000001e+00	 5.375000000000000e+00	 1.014059797307693e+01
0	 4.375000000000000e+00	 5.499999999999998e+00	 1.013136904615384e+01
0	 4.375000000000001e+00	 5.624999999999999e+00	 1.012186144230770e+01
0	 4.375000000000002e+00	 5.749999999999996e+00	 1.011207516153846e+01
0	 4.375000000000002e+00	 5.874999999999998e+00	 1.010201020384616e+01
0	 4.375000000000001e+00	 5.999999999999998e+00	 1.009166656923076e+01
0	 4.375000000000002e+00	 6.124999999999997e+00	 1.008104425769231e+01
0	 4.375000000000001e+00	 6.250000000000000e+00	 1.007014326923077e+01
0	 4.500000000000001e+00	 4.999999999999999e+00	 1.017236138461538e+01
0	 4.500000000000001e+00	 5.124999999999999e+00	 1.016300169076923e+01
0	 4.500000000000001e+00	 5.249999999999999e+00	 1.015348680000000e+01
0	 4.500000000000001e+00	 5.374999999999997e+00	 1.014381671230769e+01
0	 4.500000000000001e+00	 5.499999999999998e+00	 1.013399142769230e+01
0	 4.500000000000001e+00	 5.624999999999997e+00	 1.012401094615385e+01
0	 4.500000000000001e+00	 5.749999999999997e+00	 1.011387526769231e+01
0	 4.500000000000001e+00	 5.874999999999996e+00	 1.010358439230770e+01
0	 4.500000000000001e+00	 5.999999999999997e+00	 1.009313832000000e+01
0	 4.500000000000001e+00	 6.124999999999996e+00	 1.008253705076923e+01
0	 4.500000000000001e+00	 6.250000000000000e+00	 1.007178058461539e+01
0	 4.625000000000001e+00	 5.000000000000000e+00	 1.017509146153846e+01
0	 4.625000000000001e+00	 5.124999999999999e+00	 1.016506815615384e+01
0	 4.625000000000001e+00	 5.249999999999999e+00	 1.015501313384615e+01
0	 4.625000000000001e+00	 5.374999999999998e+00	 1.014492639461539e+01
0	 4.625000000000001e+00	 5.499999999999998e+00	 1.013480793846154e+01
0	 4.625000000000002e+00	 5.624999999999999e+00	 1.012465776538462e+01
0	 4.625000000000001e+00	 5.749999999999996e+00	 1.011447587538462e+01
0	 4.625000000000002e+00	 5.874999999999997e+00	 1.010426226846154e+01
0	 4.625000000000002e+00	 5.999999999999996e+00	 1.009401694461539e+01
0	 4.625000000000002e+00	 6.124999999999996e+00	 1.008373990384616e+01
0	 4.625000000000001e+00	 6.249999999999999e+00	 1.007343114615385e+01
0	 4.750000000000001e+00	 5.000000000000000e+00	 1.017480292307692e+01
0	 4.750000000000002e+00	 5.125000000000000e+00	 1.016441919230770e+01
0	 4.750000000000001e+00	 5.249999999999999e+00	 1.015412722461539e+01
0	 4.750000000000001e+00	 5.374999999999999e+00	 1.014392702000000e+01
0	 4.750000000000001e+00	 5.499999999999999e+00	 1.013381857846154e+01
0	 4.750000000000001e+00	 5.624999999999998e+00	 1.012380190000000e+01
0	 4.750000000000001e+00	 5.749999999999998e+00	 1.011387698461538e+01
0	 4.750000000000000e+00	 5.874999999999997e+00	 1.010404383230770e+01
0	 4.750000000000000e+00	 5.999999999999996e+00	 1.009430244307693e+01
0	 4.750000000000000e+00	 6.124999999999996e+00	 1.008465281692308e+01
0	 4.750000000000001e+00	 6.250000000000000e+00	 1.007509495384616e+01
0	 4.875000000000001e+00	 5.000000000000000e+00	 1.017149576923077e+01
0	 4.875000000000000e+00	 5.125000000000000e+00	 1.016105479923077e+01
0	 4.875000000000001e+00	 5.249999999999999e+00	 1.015082907230769e+01
0	 4.875000000000001e+00	 5.374999999999998e+00	 1.014081858846154e+01
0	 4.875000000000002e+00	 5.499999999999998e+00	 1.013102334769231e+01
0	 4.875000000000001e+00	 5.624999999999997e+00	 1.012144335000000e+01
0	 4.875000000000001e+00	 5.749999999999996e+00	 1.011207859538462e+01
0	 4.875000000000000e+00	 5.874999999999996e+00	 1.010292908384617e+01
0	 4.875000000000000e+00	 5.999999999999996e+00	 1.009399481538462e+01
0	 4.875000000000001e+00	 6.124999999999996e+00	 1.008527579000001e+01
0	 4.875000000000001e+00	 6.250000000000000e+00	 1.007677200769230e+01
0	 5.000000000000000e+00	 5.000000000000000e+00	 1.016517000000000e+01
0	 5.000000000000000e+00	 5.124999999999999e+00	 1.015497497692309e+01
0	 5.000000000000001e+00	 5.250000000000000e+00	 1.014511867692307e+01
0	 5.000000000000000e+00	 5.374999999999998e+00	 1.013560110000000e+01
0	 5.000000000000001e+00	 5.499999999999999e+00	 1.012642224615385e+01
0	 5.000000000000000e+00	 5.624999999999997e+00	 1.011758211538462e+01
0	 5.000000000000000e+00	 5.749999999999997e+00	 1.010908070769230e+01
0	 5.000000000000000e+00	 5.874999999999996e+00	 1.010091802307692e+01
0	 5.000000000000000e+00	 5.999999999999996e+00	 1.009309406153846e+01
0	 5.000000000000000e+00	 6.124999999999996e+00	 1.008560882307693e+01
0	 5.000000000000000e+00	 6.250000000000000e+00	 1.007846230769231e+01
0	 3.750000000000000e+00	 6.250000000000000e+00	 1.006215538461539e+01
0	 3.750000000000000e+00	 6.375000000000000e+00	 1.005629305384615e+01
0	 3.750000000000000e+00	 6.500000000000000e+00	 1.005066513846154e+01
0	 3.750000000000000e+00	 6.624999999999998e+00	 1.004527163846154e+01
0	 3.750000000000000e+00	 6.749999999999998e+00	 1.004011255384615e+01
0	 3.750000000000000e+00	 6.874999999999998e+00	 1.003518788461538e+01
0	 3.750000000000000e+00	 6.999999999999997e+00	 1.003049763076924e+01
0	 3.750000000000000e+00	 7.124999999999996e+00	 1.002604179230769e+01
0	 3.750000000000000e+00	 7.249999999999997e+00	 1.002182036923076e+01
0	 3.750000000000000e+00	 7.374999999999996e+00	 1.001783336153845e+01
0	 3.750000000000000e+00	 7.500000000000000e+00	 1.001408076923076e+01
0	 3.875000000000000e+00	 6.250000000000000e+00	 1.006372646923078e+01
0	 3.875000000000000e+00	 6.374999999999997e+00	 1.005857530461539e+01
0	 3.875000000000000e+00	 6.500000000000000e+00	 1.005360719538462e+01
0	 3.874999999999998e+00	 6.624999999999996e+00	 1.004882214153846e+01
0	 3.874999999999999e+00	 6.749999999999996e+00	 1.004422014307692e+01
0	 3.874999999999999e+00	 6.874999999999996e+00	 1.003980120000000e+01
0	 3.875000000000000e+00	 6.999999999999998e+00	 1.003556531230768e+01
0	 3.875000000000000e+00	 7.124999999999997e+00	 1.003151247999999e+01
0	 3.875000000000000e+00	 7.249999999999996e+00	 1.002764270307691e+01
0	 3.875000000000000e+00	 7.374999999999996e+00	 1.002395598153846e+01
0	 3.875000000000000e+00	 7.500000000000001e+00	 1.002045231538460e+01
0	 4.000000000000000e+00	 6.250000000000001e+00	 1.006531080000000e+01
0	 4.000000000000000e+00	 6.374999999999999e+00	 1.006078874000000e+01
0	 4.000000000000000e+00	 6.500000000000000e+00	 1.005639837538462e+01
0	 4.000000000000000e+00	 6.624999999999999e+00	 1.005213970615385e+01
0	 4.000000000000001e+00	 6.749999999999998e+00	 1.004801273230769e+01
0	 4.000000000000000e+00	 6.874999999999999e+00	 1.004401745384616e+01
0	 4.000000000000000e+00	 6.999999999999997e+00	 1.004015387076923e+01
0	 4.000000000000000e+00	 7.124999999999998e+00	 1.003642198307692e+01
0	 4.000000000000000e+00	 7.249999999999996e+00	 1.003282179076922e+01
0	 4.000000000000000e+00	 7.374999999999996e+00	 1.002935329384614e+01
0	 4.000000000000000e+00	 7.500000000000000e+00	 1.002601649230769e+01
0	 4.125000000000000e+00	 6.250000000000000e+00	 1.006690837692308e+01
0	 4.125000000000001e+00	 6.375000000000001e+00	 1.006293336000000e+01
0	 4.125000000000000e+00	 6.500000000000000e+00	 1.005903867846154e+01
0	 4.125000000000001e+00	 6.624999999999997e+00	 1.005522433230770e+01
0	 4.124999999999999e+00	 6.749999999999996e+00	 1.005149032153846e+01
0	 4.125000000000000e+00	 6.874999999999998e+00	 1.004783664615385e+01
0	 4.125000000000000e+00	 6.999999999999997e+00	 1.004426330615385e+01
0	 4.125000000000001e+00	 7.124999999999997e+00	 1.004077030153845e+01
0	 4.125000000000000e+00	 7.249999999999996e+00	 1.003735763230769e+01
0	 4.125000000000000e+00	 7.374999999999996e+00	 1.003402529846154e+01
0	 4.125000000000000e+00	 7.500000000000001e+00	 1.003077330000000e+01
0	 4.250000000000001e+00	 6.250000000000000e+00	 1.006851920000001e+01
0	 4.250000000000002e+00	 6.375000000000001e+00	 1.006500916461539e+01
0	 4.250000000000001e+00	 6.500000000000000e+00	 1.006152810461538e+01
0	 4.250000000000001e+00	 6.624999999999999e+00	 1.005807602000000e+01
0	 4.250000000000001e+00	 6.749999999999998e+00	 1.005465291076923e+01
0	 4.249999999999999e+00	 6.874999999999996e+00	 1.005125877692308e+01
0	 4.250000000000001e+00	 6.999999999999997e+00	 1.004789361846153e+01
0	 4.250000000000001e+00	 7.124999999999996e+00	 1.004455743538461e+01
0	 4.250000000000001e+00	 7.249999999999997e+00	 1.004125022769230e+01
0	 4.250000000000000e+00	 7.374999999999996e+00	 1.003797199538461e+01
0	 4.250000000000001e+00	 7.500000000000000e+00	 1.003472273846153e+01
0	 4.375000000000001e+00	 6.250000000000000e+00	 1.007014326923077e+01
0	 4.375000000000001e+00	 6.374999999999999e+00	 1.006701615384616e+01
0	 4.375000000000000e+00	 6.500000000000000e+00	 1.006386665384616e+01
0	 4.375000000000001e+00	 6.625000000000000e+00	 1.006069476923077e+01
0	 4.375000000000000e+00	 6.749999999999997e+00	 1.005750050000000e+01
0	 4.375000000000001e+00	 6.874999999999998e+00	 1.005428384615384e+01
0	 4.375000000000002e+00	 6.999999999999997e+00	 1.005104480769231e+01
0	 4.375000000000002e+00	 7.124999999999997e+00	 1.004778338461538e+01
0	 4.375000000000001e+00	 7.249999999999996e+00	 1.004449957692308e+01
0	 4.375000000000002e+00	 7.374999999999997e+00	 1.004119338461538e+01
0	 4.375000000000001e+00	 7.500000000000000e+00	 1.003786480769230e+01
0	 4.500000000000001e+00	 6.250000000000000e+00	 1.007178058461539e+01
0	 4.500000000000001e+00	 6.375000000000000e+00	 1.006895432769232e+01
0	 4.500000000000001e+00	 6.499999999999999e+00	 1.006605432615385e+01
0	 4.500000000000001e+00	 6.624999999999998e+00	 1.006308058000000e+01
0	 4.500000000000001e+00	 6.749999999999998e+00	 1.006003308923077e+01
0	 4.500000000000001e+00	 6.874999999999997e+00	 1.005691185384616e+01
0	 4.500000000000001e+00	 6.999999999999996e+00	 1.005371687384615e+01
0	 4.500000000000001e+00	 7.124999999999997e+00	 1.005044814923076e+01
0	 4.500000000000001e+00	 7.249999999999996e+00	 1.004710567999999e+01
0	 4.500000000000001e+00	 7.374999999999996e+00	 1.004368946615384e+01
0	 4.500000000000001e+00	 7.500000000000000e+00	 1.004019950769231e+01
0	 4.625000000000001e+00	 6.249999999999999e+00	 1.007343114615385e+01
0	 4.625000000000001e+00	 6.375000000000001e+00	 1.007082368615384e+01
0	 4.625000000000001e+00	 6.499999999999999e+00	 1.006809112153846e+01
0	 4.625000000000001e+00	 6.624999999999997e+00	 1.006523345230769e+01
0	 4.625000000000001e+00	 6.749999999999998e+00	 1.006225067846154e+01
0	 4.625000000000002e+00	 6.874999999999998e+00	 1.005914280000000e+01
0	 4.625000000000001e+00	 6.999999999999998e+00	 1.005590981692308e+01
0	 4.625000000000002e+00	 7.124999999999997e+00	 1.005255172923076e+01
0	 4.625000000000002e+00	 7.249999999999996e+00	 1.004906853692308e+01
0	 4.625000000000002e+00	 7.374999999999997e+00	 1.004546024000000e+01
0	 4.625000000000001e+00	 7.499999999999999e+00	 1.004172683846154e+01
0	 4.750000000000001e+00	 6.250000000000000e+00	 1.007509495384616e+01
0	 4.750000000000002e+00	 6.375000000000000e+00	 1.007262422923077e+01
0	 4.750000000000001e+00	 6.499999999999999e+00	 1.006997704000000e+01
0	 4.750000000000001e+00	 6.624999999999998e+00	 1.006715338615384e+01
0	 4.750000000000001e+00	 6.749999999999999e+00	 1.006415326769231e+01
0	 4.750000000000001e+00	 6.874999999999998e+00	 1.006097668461539e+01
0	 4.750000000000001e+00	 6.999999999999997e+00	 1.005762363692308e+01
0	 4.750000000000000e+00	 7.124999999999996e+00	 1.005409412461538e+01
0	 4.750000000000000e+00	 7.249999999999996e+00	 1.005038814769230e+01
0	 4.750000000000000e+00	 7.374999999999996e+00	 1.004650570615385e+01
0	 4.750000000000001e+00	 7.500000000000000e+00	 1.004244680000000e+01
0	 4.875000000000001e+00	 6.250000000000000e+00	 1.007677200769230e+01
0	 4.875000000000000e+00	 6.374999999999998e+00	 1.007435595692308e+01
0	 4.875000000000001e+00	 6.499999999999999e+00	 1.007171208153845e+01
0	 4.875000000000001e+00	 6.625000000000000e+00	 1.006884038153846e+01
0	 4.875000000000002e+00	 6.749999999999999e+00	 1.006574085692308e+01
0	 4.875000000000001e+00	 6.874999999999996e+00	 1.006241350769231e+01
0	 4.875000000000001e+00	 6.999999999999998e+00	 1.005885833384615e+01
0	 4.875000000000000e+00	 7.124999999999996e+00	 1.005507533538461e+01
0	 4.875000000000000e+00	 7.249999999999997e+00	 1.005106451230769e+01
0	 4.875000000000001e+00	 7.374999999999996e+00	 1.004682586461538e+01
0	 4.875000000000001e+00	 7.500000000000000e+00	 1.004235939230769e+01
0	 5.000000000000000e+00	 6.250000000000000e+00	 1.007846230769231e+01
0	 5.000000000000000e+00	 6.375000000000000e+00	 1.007601886923076e+01
0	 5.000000000000001e+00	 6.500000000000000e+00	 1.007329624615384e+01
0	 5.000000000000000e+00	 6.624999999999998e+00	 1.007029443846154e+01
0	 5.000000000000001e+00	 6.749999999999998e+00	 1.006701344615385e+01
0	 5.000000000000000e+00	 6.874999999999998e+00	 1.006345326923077e+01
0	 5.000000000000000e+00	 6.999999999999997e+00	 1.005961390769231e+01
0	 5.000000000000000e+00	 7.124999999999996e+00	 1.005549536153846e+01
0	 5.000000000000000e+00	 7.249999999999997e+00	 1.005109763076923e+01
0	 5.000000000000000e+00	 7.374999999999996e+00	 1.004642071538461e+01
0	 5.000000000000000e+00	 7.500000000000000e+00	 1.004146461538461e+01
0	 3.750000000000000e+00	 7.500000000000000e+00	 1.001408076923076e+01
0	 3.750000000000000e+00	 7.625000000000000e+00	 1.001435474615385e+01
0	 3.750000000000000e+00	 7.750000000000000e+00	 1.001437483076922e+01
0	 3.750000000000000e+00	 7.874999999999998e+00	 1.001414102307691e+01
0	 3.750000000000000e+00	 7.999999999999999e+00	 1.001365332307692e+01
0	 3.750000000000000e+00	 8.124999999999998e+00	 1.001291173076923e+01
0	 3.750000000000000e+00	 8.249999999999998e+00	 1.001191624615384e+01
0	 3.750000000000000e+00	 8.374999999999996e+00	 1.001066686923076e+01
0	 3.750000000000000e+00	 8.499999999999996e+00	 1.000916360000000e+01
0	 3.750000000000000e+00	 8.624999999999996e+00	 1.000740643846155e+01
0	 3.750000000000000e+00	 8.750000000000000e+00	 1.000539538461539e+01
0	 3.875000000000000e+00	 7.500000000000001e+00	 1.002045231538460e+01
0	 3.875000000000000e+00	 7.624999999999997e+00	 1.001999054923076e+01
0	 3.875000000000000e+00	 7.749999999999998e+00	 1.001929899230770e+01
0	 3.874999999999998e+00	 7.874999999999996e+00	 1.001837764461539e+01
0	 3.874999999999999e+00	 7.999999999999997e+00	 1.001722650615384e+01
0	 3.874999999999999e+00	 8.124999999999996e+00	 1.001584557692307e+01
0	 3.875000000000000e+00	 8.249999999999998e+00	 1.001423485692308e+01
0	 3.875000000000000e+00	 8.374999999999996e+00	 1.001239434615384e+01
0	 3.875000000000000e+00	 8.499999999999996e+00	 1.001032404461538e+01
0	 3.875000000000000e+00	 8.624999999999995e+00	 1.000802395230768e+01
0	 3.875000000000000e+00	 8.750000000000000e+00	 1.000549406923078e+01
0	 4.000000000000000e+00	 7.500000000000000e+00	 1.002601649230769e+01
0	 4.000000000000000e+00	 7.624999999999998e+00	 1.002490130307691e+01
0	 4.000000000000000e+00	 7.750000000000000e+00	 1.002358042461539e+01
0	 4.000000000000000e+00	 7.874999999999999e+00	 1.002205385692307e+01
0	 4.000000000000001e+00	 7.999999999999998e+00	 1.002032160000000e+01
0	 4.000000000000000e+00	 8.124999999999998e+00	 1.001838365384615e+01
0	 4.000000000000000e+00	 8.249999999999998e+00	 1.001624001846154e+01
0	 4.000000000000000e+00	 8.374999999999995e+00	 1.001389069384615e+01
0	 4.000000000000000e+00	 8.499999999999996e+00	 1.001133568000000e+01
0	 4.000000000000000e+00	 8.624999999999996e+00	 1.000857497692308e+01
0	 4.000000000000000e+00	 8.750000000000000e+00	 1.000560858461537e+01
0	 4.125000000000000e+00	 7.500000000000001e+00	 1.003077330000000e+01
0	 4.125000000000001e+00	 7.625000000000000e+00	 1.002908700769230e+01
0	 4.125000000000000e+00	 7.749999999999999e+00	 1.002721912769231e+01
0	 4.125000000000001e+00	 7.874999999999998e+00	 1.002516966000000e+01
0	 4.124999999999999e+00	 7.999999999999996e+00	 1.002293860461538e+01
0	 4.125000000000000e+00	 8.124999999999998e+00	 1.002052596153846e+01
0	 4.125000000000000e+00	 8.249999999999998e+00	 1.001793173076923e+01
0	 4.125000000000001e+00	 8.374999999999996e+00	 1.001515591230769e+01
0	 4.125000000000000e+00	 8.499999999999996e+00	 1.001219850615384e+01
0	 4.125000000000000e+00	 8.624999999999995e+00	 1.000905951230770e+01
0	 4.125000000000000e+00	 8.750000000000000e+00	 1.000573893076922e+01
0	 4.250000000000001e+00	 7.500000000000000e+00	 1.003472273846153e+01
0	 4.250000000000002e+00	 7.625000000000000e+00	 1.003254766307693e+01
0	 4.250000000000001e+00	 7.749999999999999e+00	 1.003021510153846e+01
0	 4.250000000000001e+00	 7.874999999999998e+00	 1.002772505384615e+01
0	 4.250000000000001e+00	 8.000000000000000e+00	 1.002507751999999e+01
0	 4.249999999999999e+00	 8.124999999999996e+00	 1.002227249999999e+01
0	 4.250000000000001e+00	 8.249999999999998e+00	 1.001930999384615e+01
0	 4.250000000000001e+00	 8.374999999999996e+00	 1.001619000153846e+01
0	 4.250000000000001e+00	 8.499999999999996e+00	 1.001291252307692e+01
0	 4.250000000000000e+00	 8.624999999999996e+00	 1.000947755846154e+01
0	 4.250000000000001e+00	 8.750000000000000e+00	 1.000588510769231e+01
0	 4.375000000000001e+00	 7.500000000000000e+00	 1.003786480769230e+01
0	 4.375000000000001e+00	 7.625000000000000e+00	 1.003528326923076e+01
0	 4.375000000000000e+00	 7.749999999999999e+00	 1.003256834615385e+01
0	 4.375000000000001e+00	 7.874999999999998e+00	 1.002972003846154e+01
0	 4.375000000000000e+00	 7.999999999999996e+00	 1.002673834615384e+01
0	 4.375000000000001e+00	 8.125000000000000e+00	 1.002362326923076e+01
0	 4.375000000000002e+00	 8.249999999999996e+00	 1.002037480769231e+01
0	 4.375000000000002e+00	 8.374999999999996e+00	 1.001699296153847e+01
0	 4.375000000000001e+00	 8.499999999999996e+00	 1.001347773076923e+01
0	 4.375000000000002e+00	 8.624999999999998e+00	 1.000982911538461e+01
0	 4.375000000000001e+00	 8.750000000000002e+00	 1.000604711538461e+01
0	 4.500000000000001e+00	 7.500000000000000e+00	 1.004019950769231e+01
0	 4.500000000000001e+00	 7.624999999999999e+00	 1.003729382615385e+01
0	 4.500000000000001e+00	 7.749999999999999e+00	 1.003427886153846e+01
0	 4.500000000000001e+00	 7.874999999999997e+00	 1.003115461384615e+01
0	 4.500000000000001e+00	 7.999999999999999e+00	 1.002792108307692e+01
0	 4.500000000000001e+00	 8.124999999999996e+00	 1.002457826923077e+01
0	 4.500000000000001e+00	 8.249999999999998e+00	 1.002112617230769e+01
0	 4.500000000000001e+00	 8.374999999999996e+00	 1.001756479230769e+01
0	 4.500000000000001e+00	 8.499999999999996e+00	 1.001389412923077e+01
0	 4.500000000000001e+00	 8.624999999999996e+00	 1.001011418307693e+01
0	 4.500000000000001e+00	 8.750000000000000e+00	 1.000622495384616e+01
0	 4.625000000000001e+00	 7.499999999999999e+00	 1.004172683846154e+01
0	 4.625000000000001e+00	 7.625000000000001e+00	 1.003857933384616e+01
0	 4.625000000000001e+00	 7.749999999999999e+00	 1.003534664769231e+01
0	 4.625000000000001e+00	 7.874999999999997e+00	 1.003202877999999e+01
0	 4.625000000000001e+00	 7.999999999999997e+00	 1.002862573076923e+01
0	 4.625000000000002e+00	 8.125000000000000e+00	 1.002513750000000e+01
0	 4.625000000000001e+00	 8.249999999999996e+00	 1.002156408769231e+01
0	 4.625000000000002e+00	 8.374999999999998e+00	 1.001790549384616e+01
0	 4.625000000000002e+00	 8.499999999999996e+00	 1.001416171846154e+01
0	 4.625000000000002e+00	 8.624999999999998e+00	 1.001033276153846e+01
0	 4.625000000000001e+00	 8.750000000000000e+00	 1.000641862307693e+01
0	 4.750000000000001e+00	 7.500000000000000e+00	 1.004244680000000e+01
0	 4.750000000000002e+00	 7.624999999999999e+00	 1.003913979230769e+01
0	 4.750000000000001e+00	 7.750000000000000e+00	 1.003577170461539e+01
0	 4.750000000000001e+00	 7.874999999999998e+00	 1.003234253692307e+01
0	 4.750000000000001e+00	 7.999999999999999e+00	 1.002885228923076e+01
0	 4.750000000000001e+00	 8.124999999999996e+00	 1.002530096153846e+01
0	 4.750000000000001e+00	 8.249999999999998e+00	 1.002168855384616e+01
0	 4.750000000000000e+00	 8.374999999999996e+00	 1.001801506615384e+01
0	 4.750000000000000e+00	 8.499999999999996e+00	 1.001428049846153e+01
0	 4.750000000000000e+00	 8.624999999999995e+00	 1.001048485076923e+01
0	 4.750000000000001e+00	 8.750000000000000e+00	 1.000662812307692e+01
0	 4.875000000000001e+00	 7.500000000000000e+00	 1.004235939230769e+01
0	 4.875000000000000e+00	 7.624999999999997e+00	 1.003897520153845e+01
0	 4.875000000000001e+00	 7.749999999999998e+00	 1.003555403230769e+01
0	 4.875000000000001e+00	 7.875000000000000e+00	 1.003209588461538e+01
0	 4.875000000000002e+00	 7.999999999999998e+00	 1.002860075846154e+01
0	 4.875000000000001e+00	 8.124999999999996e+00	 1.002506865384615e+01
0	 4.875000000000001e+00	 8.249999999999998e+00	 1.002149957076923e+01
0	 4.875000000000000e+00	 8.374999999999995e+00	 1.001789350923077e+01
0	 4.875000000000000e+00	 8.499999999999996e+00	 1.001425046923076e+01
0	 4.875000000000001e+00	 8.624999999999996e+00	 1.001057045076922e+01
0	 4.875000000000001e+00	 8.750000000000000e+00	 1.000685345384615e+01
0	 5.000000000000000e+00	 7.500000000000000e+00	 1.004146461538461e+01
0	 5.000000000000000e+00	 7.625000000000000e+00	 1.003808556153847e+01
0	 5.000000000000001e+00	 7.750000000000000e+00	 1.003469363076923e+01
0	 5.000000000000000e+00	 7.874999999999998e+00	 1.003128882307692e+01
0	 5.000000000000001e+00	 7.999999999999999e+00	 1.002787113846154e+01
0	 5.000000000000000e+00	 8.124999999999998e+00	 1.002444057692309e+01
0	 5.000000000000000e+00	 8.249999999999998e+00	 1.002099713846154e+01
0	 5.000000000000000e+00	 8.374999999999996e+00	 1.001754082307693e+01
0	 5.000000000000000e+00	 8.499999999999996e+00	 1.001407163076923e+01
0	 5.000000000000000e+00	 8.624999999999996e+00	 1.001058956153848e+01
0	 5.000000000000000e+00	 8.750000000000000e+00	 1.000709461538462e+01
0	 3.750000000000000e+00	 8.750000000000000e+00	 1.000539538461539e+01
0	 3.750000000000000e+00	 8.874999999999998e+00	 1.000469086153846e+01
0	 3.750000000000000e+00	 9.000000000000000e+00	 1.000397359999999e+01
0	 3.750000000000000e+00	 9.124999999999998e+00	 1.000324360000000e+01
0	 3.750000000000000e+00	 9.250000000000000e+00	 1.000250086153847e+01
0	 3.750000000000000e+00	 9.374999999999996e+00	 1.000174538461538e+01
0	 3.750000000000000e+00	 9.499999999999996e+00	 1.000097716923077e+01
0	 3.750000000000000e+00	 9.624999999999996e+00	 1.000019621538463e+01
0	 3.750000000000000e+00	 9.749999999999998e+00	 9.999402523076931e+00
0	 3.750000000000000e+00	 9.874999999999996e+00	 9.998596092307700e+00
0	 3.750000000000000e+00	 1.000000000000000e+01	 9.997776923076923e+00
0	 3.875000000000000e+00	 8.750000000000000e+00	 1.000549406923078e+01
0	 3.875000000000000e+00	 8.875000000000000e+00	 1.000499070846153e+01
0	 3.874999999999999e+00	 8.999999999999998e+00	 1.000444096307693e+01
0	 3.875000000000000e+00	 9.125000000000000e+00	 1.000384483307692e+01
0	 3.875000000000001e+00	 9.249999999999998e+00	 1.000320231846154e+01
0	 3.875000000000000e+00	 9.374999999999998e+00	 1.000251341923077e+01
0	 3.875000000000000e+00	 9.499999999999998e+00	 1.000177813538462e+01
0	 3.875000000000000e+00	 9.624999999999998e+00	 1.000099646692307e+01
0	 3.875000000000000e+00	 9.749999999999998e+00	 1.000016841384615e+01
0	 3.875000000000000e+00	 9.874999999999995e+00	 9.999293976153842e+00
0	 3.875000000000000e+00	 1.000000000000000e+01	 9.998373153846167e+00
0	 4.000000000000000e+00	 8.750000000000000e+00	 1.000560858461537e+01
0	 4.000000000000000e+00	 8.874999999999998e+00	 1.000528315692308e+01
0	 4.000000000000000e+00	 8.999999999999998e+00	 1.000487769846153e+01
0	 4.000000000000002e+00	 9.125000000000000e+00	 1.000439220923077e+01
0	 4.000000000000001e+00	 9.249999999999998e+00	 1.000382668923078e+01
0	 4.000000000000001e+00	 9.374999999999998e+00	 1.000318113846155e+01
0	 4.000000000000000e+00	 9.499999999999996e+00	 1.000245555692309e+01
0	 4.000000000000000e+00	 9.624999999999995e+00	 1.000164994461538e+01
0	 3.999999999999999e+00	 9.749999999999995e+00	 1.000076430153847e+01
0	 4.000000000000001e+00	 9.874999999999995e+00	 9.999798627692282e+00
0	 4.000000000000000e+00	 1.000000000000000e+01	 9.998752923076941e+00
0	 4.125000000000000e+00	 8.750000000000000e+00	 1.000573893076922e+01
0	 4.125000000000000e+00	 8.875000000000000e+00	 1.000556820692307e+01
0	 4.125000000000000e+00	 9.000000000000000e+00	 1.000528380615386e+01
0	 4.125000000000000e+00	 9.125000000000000e+00	 1.000488572846154e+01
0	 4.124999999999999e+00	 9.249999999999996e+00	 1.000437397384616e+01
0	 4.125000000000000e+00	 9.374999999999996e+00	 1.000374854230769e+01
0	 4.125000000000000e+00	 9.499999999999998e+00	 1.000300943384615e+01
0	 4.124999999999999e+00	 9.624999999999996e+00	 1.000215664846154e+01
0	 4.125000000000001e+00	 9.749999999999998e+00	 1.000119018615385e+01
0	 4.125000000000001e+00	 9.874999999999996e+00	 1.000011004692307e+01
0	 4.125000000000001e+00	 1.000000000000000e+01	 9.998916230769240e+00
0	 4.250000000000001e+00	 8.750000000000000e+00	 1.000588510769231e+01
0	 4.250000000000000e+00	 8.875000000000000e+00	 1.000584585846154e+01
0	 4.250000000000001e+00	 8.999999999999998e+00	 1.000565928615384e+01
0	 4.250000000000002e+00	 9.124999999999998e+00	 1.000532539076923e+01
0	 4.250000000000000e+00	 9.250000000000000e+00	 1.000484417230769e+01
0	 4.250000000000001e+00	 9.374999999999998e+00	 1.000421563076923e+01
0	 4.250000000000001e+00	 9.499999999999998e+00	 1.000343976615386e+01
0	 4.250000000000001e+00	 9.625000000000000e+00	 1.000251657846156e+01
0	 4.250000000000001e+00	 9.749999999999996e+00	 1.000144606769230e+01
0	 4.250000000000000e+00	 9.874999999999993e+00	 1.000022823384616e+01
0	 4.250000000000001e+00	 1.000000000000000e+01	 9.998863076923096e+00
0	 4.375000000000001e+00	 8.750000000000002e+00	 1.000604711538461e+01
0	 4.375000000000001e+00	 8.875000000000000e+00	 1.000611611153846e+01
0	 4.375000000000001e+00	 8.999999999999998e+00	 1.000600413846154e+01
0	 4.375000000000001e+00	 9.125000000000000e+00	 1.000571119615384e+01
0	 4.375000000000000e+00	 9.249999999999998e+00	 1.000523728461538e+01
0	 4.375000000000001e+00	 9.374999999999998e+00	 1.000458240384615e+01
0	 4.375000000000001e+00	 9.499999999999998e+00	 1.000374655384616e+01
0	 4.375000000000001e+00	 9.624999999999996e+00	 1.000272973461538e+01
0	 4.375000000000001e+00	 9.749999999999996e+00	 1.000153194615384e+01
0	 4.375000000000001e+00	 9.874999999999996e+00	 1.000015318846154e+01
0	 4.375000000000000e+00	 1.000000000000000e+01	 9.998593461538478e+00
0	 4.500000000000001e+00	 8.750000000000000e+00	 1.000622495384616e+01
0	 4.500000000000001e+00	 8.875000000000000e+00	 1.000637896615385e+01
0	 4.500000000000001e+00	 8.999999999999998e+00	 1.000631836307691e+01
0	 4.500000000000001e+00	 9.124999999999998e+00	 1.000604314461539e+01
0	 4.500000000000000e+00	 9.249999999999996e+00	 1.000555331076922e+01
0	 4.500000000000001e+00	 9.374999999999996e+00	 1.000484886153846e+01
0	 4.500000000000000e+00	 9.499999999999996e+00	 1.000392979692308e+01
0	 4.500000000000002e+00	 9.624999999999998e+00	 1.000279611692307e+01
0	 4.500000000000001e+00	 9.749999999999996e+00	 1.000144782153845e+01
0	 4.500000000000001e+00	 9.874999999999996e+00	 9.999884910769220e+00
0	 4.500000000000001e+00	 1.000000000000000e+01	 9.998107384615366e+00
0	 4.625000000000001e+00	 8.750000000000000e+00	 1.000641862307693e+01
0	 4.625000000000002e+00	 8.875000000000002e+00	 1.000663442230770e+01
0	 4.625000000000002e+00	 9.000000000000000e+00	 1.000660196000000e+01
0	 4.625000000000001e+00	 9.124999999999998e+00	 1.000632123615384e+01
0	 4.625000000000001e+00	 9.249999999999998e+00	 1.000579225076922e+01
0	 4.625000000000001e+00	 9.374999999999998e+00	 1.000501500384616e+01
0	 4.625000000000001e+00	 9.499999999999996e+00	 1.000398949538462e+01
0	 4.625000000000002e+00	 9.624999999999998e+00	 1.000271572538460e+01
0	 4.625000000000001e+00	 9.749999999999996e+00	 1.000119369384614e+01
0	 4.625000000000001e+00	 9.874999999999996e+00	 9.999423400769219e+00
0	 4.625000000000001e+00	 1.000000000000000e+01	 9.997404846153835e+00
0	 4.750000000000001e+00	 8.750000000000000e+00	 1.000662812307692e+01
0	 4.750000000000000e+00	 8.874999999999998e+00	 1.000688248000001e+01
0	 4.750000000000000e+00	 8.999999999999998e+00	 1.000685492923077e+01
0	 4.750000000000001e+00	 9.125000000000000e+00	 1.000654547076923e+01
0	 4.750000000000001e+00	 9.249999999999998e+00	 1.000595410461538e+01
0	 4.750000000000000e+00	 9.374999999999996e+00	 1.000508083076924e+01
0	 4.750000000000000e+00	 9.499999999999998e+00	 1.000392564923077e+01
0	 4.750000000000000e+00	 9.624999999999996e+00	 1.000248856000002e+01
0	 4.750000000000000e+00	 9.749999999999996e+00	 1.000076956307694e+01
0	 4.750000000000002e+00	 9.874999999999995e+00	 9.998768658461540e+00
0	 4.750000000000001e+00	 1.000000000000000e+01	 9.996485846153840e+00
0	 4.875000000000001e+00	 8.750000000000000e+00	 1.000685345384615e+01
0	 4.875000000000001e+00	 8.875000000000000e+00	 1.000712313923077e+01
0	 4.875000000000002e+00	 9.000000000000000e+00	 1.000707727076923e+01
0	 4.875000000000001e+00	 9.125000000000000e+00	 1.000671584846154e+01
0	 4.875000000000000e+00	 9.249999999999996e+00	 1.000603887230768e+01
0	 4.875000000000001e+00	 9.374999999999996e+00	 1.000504634230769e+01
0	 4.875000000000002e+00	 9.499999999999996e+00	 1.000373825846155e+01
0	 4.875000000000001e+00	 9.624999999999996e+00	 1.000211462076924e+01
0	 4.875000000000001e+00	 9.749999999999996e+00	 1.000017542923077e+01
0	 4.875000000000000e+00	 9.874999999999995e+00	 9.997920683846171e+00
0	 4.875000000000001e+00	 1.000000000000000e+01	 9.995350384615369e+00
0	 5.000000000000000e+00	 8.750000000000000e+00	 1.000709461538462e+01
0	 5.000000000000000e+00	 8.874999999999998e+00	 1.000735640000000e+01
0	 5.000000000000000e+00	 9.000000000000000e+00	 1.000726898461538e+01
0	 4.999999999999999e+00	 9.124999999999998e+00	 1.000683236923076e+01
0	 5.000000000000000e+00	 9.250000000000000e+00	 1.000604655384616e+01
0	 5.000000000000000e+00	 9.374999999999996e+00	 1.000491153846153e+01
0	 5.000000000000000e+00	 9.499999999999996e+00	 1.000342732307692e+01
0	 5.000000000000000e+00	 9.624999999999996e+00	 1.000159390769231e+01
0	 5.000000000000001e+00	 9.749999999999998e+00	 9.999411292307704e+00
0	 5.000000000000000e+00	 9.874999999999996e+00	 9.996879476923079e+00
0	 5.000000000000000e+00	 1.000000000000000e+01	 9.993998461538460e+00
0	 5.000000000000000e+00	 0.000000000000000e+00	 1.025940000000000e+01
0	 5.000000000000000e+00	 1.250000000000000e-01	 1.026199179230769e+01
0	 5.000000000000001e+00	 2.500000000000000e-01	 1.026237009230769e+01
0	 5.000000000000000e+00	 3.750000000000001e-01	 1.026053490000000e+01
0	 5.000000000000000e+00	 5.000000000000000e-01	 1.025648621538461e+01
0	 5.000000000000000e+00	 6.250000000000000e-01	 1.025022403846154e+01
0	 5.000000000000000e+00	 7.500000000000000e-01	 1.024174836923077e+01
0	 5.000000000000000e+00	 8.749999999999999e-01	 1.023105920769230e+01
0	 5.000000000000002e+00	 1.000000000000000e+00	 1.021815655384615e+01
0	 5.000000000000000e+00	 1.125000000000000e+00	 1.020304040769231e+01
0	 5.000000000000000e+00	 1.250000000000000e+00	 1.018571076923077e+01
0	 5.125000000000000e+00	 0.000000000000000e+00	 1.021601221846153e+01
0	 5.124999999999999e+00	 1.250000000000000e-01	 1.022291470030769e+01
0	 5.124999999999998e+00	 2.499999999999999e-01	 1.022784316830769e+01
0	 5.124999999999999e+00	 3.750000000000001e-01	 1.023079762246154e+01
0	 5.124999999999998e+00	 5.000000000000000e-01	 1.023177806276923e+01
0	 5.125000000000000e+00	 6.250000000000001e-01	 1.023078448923076e+01
0	 5.124999999999999e+00	 7.499999999999999e-01	 1.022781690184615e+01
0	 5.124999999999999e+00	 8.749999999999999e-01	 1.022287530061538e+01
0	 5.125000000000002e+00	 1.000000000000000e+00	 1.021595968553846e+01
0	 5.125000000000000e+00	 1.125000000000000e+00	 1.020707005661538e+01
0	 5.124999999999999e+00	 1.250000000000000e+00	 1.019620641384615e+01
0	 5.249999999999999e+00	 0.000000000000000e+00	 1.017865059692308e+01
0	 5.249999999999999e+00	 1.250000000000000e-01	 1.018894147200000e+01
0	 5.249999999999999e+00	 2.500000000000000e-01	 1.019749781169231e+01
0	 5.249999999999999e+00	 3.750000000000001e-01	 1.020431961600000e+01
0	 5.249999999999999e+00	 5.000000000000001e-01	 1.020940688492307e+01
0	 5.249999999999998e+00	 6.250000000000000e-01	 1.021275961846154e+01
0	 5.250000000000000e+00	 7.499999999999999e-01	 1.021437781661538e+01
0	 5.249999999999999e+00	 8.750000000000000e-01	 1.021426147938461e+01
0	 5.249999999999999e+00	 9.999999999999999e-01	 1.021241060676923e+01
0	 5.250000000000000e+00	 1.125000000000000e+00	 1.020882519876923e+01
0	 5.250000000000000e+00	 1.250000000000000e+00	 1.020350525538461e+01
0	 5.374999999999998e+00	 0.000000000000000e+00	 1.014731513538462e+01
0	 5.374999999999998e+00	 1.250000000000000e-01	 1.016007210738462e+01
0	 5.374999999999999e+00	 2.500000000000000e-01	 1.017133402246153e+01
0	 5.375000000000000e+00	 3.750000000000001e-01	 1.018110088061538e+01
0	 5.374999999999999e+00	 5.000000000000001e-01	 1.018937268184615e+01
0	 5.374999999999998e+00	 6.250000000000000e-01	 1.019614942615385e+01
0	 5.374999999999997e+00	 7.499999999999999e-01	 1.020143111353846e+01
0	 5.374999999999998e+00	 8.749999999999999e-01	 1.020521774400000e+01
0	 5.374999999999997e+00	 9.999999999999998e-01	 1.020750931753846e+01
0	 5.374999999999999e+00	 1.125000000000000e+00	 1.020830583415385e+01
0	 5.374999999999998e+00	 1.250000000000000e+00	 1.020760729384615e+01
0	 5.499999999999999e+00	 0.000000000000000e+00	 1.012200583384615e+01
0	 5.499999999999997e+00	 1.250000000000000e-01	 1.013630660646153e+01
0	 5.499999999999996e+00	 2.499999999999999e-01	 1.014935180061538e+01
0	 5.499999999999997e+00	 3.750000000000000e-01	 1.016114141630769e+01
0	 5.499999999999998e+00	 5.000000000000000e-01	 1.017167545353845e+01
0	 5.499999999999999e+00	 6.250000000000000e-01	 1.018095391230769e+01
0	 5.499999999999999e+00	 7.500000000000000e-01	 1.018897679261538e+01
0	 5.499999999999999e+00	 8.750000000000000e-01	 1.019574409446154e+01
0	 5.499999999999998e+00	 9.999999999999998e-01	 1.020125581784615e+01
0	 5.499999999999999e+00	 1.125000000000000e+00	 1.020551196276923e+01
0	 5.499999999999998e+00	 1.250000000000000e+00	 1.020851252923077e+01
0	 5.624999999999997e+00	 0.000000000000000e+00	 1.010272269230769e+01
0	 5.624999999999997e+00	 1.250000000000000e-01	 1.011764496923076e+01
0	 5.624999999999998e+00	 2.500000000000001e-01	 1.013155114615384e+01
0	 5.624999999999997e+00	 3.750000000000000e-01	 1.014444122307692e+01
0	 5.624999999999997e+00	 4.999999999999999e-01	 1.015631519999999e+01
0	 5.624999999999997e+00	 6.250000000000000e-01	 1.016717307692308e+01
0	 5.624999999999998e+00	 7.500000000000000e-01	 1.017701485384615e+01
0	 5.624999999999999e+00	 8.750000000000000e-01	 1.018584053076923e+01
0	 5.624999999999997e+00	 9.999999999999998e-01	 1.019365010769230e+01
0	 5.624999999999999e+00	 1.125000000000000e+00	 1.020044358461538e+01
0	 5.624999999999998e+00	 1.250000000000000e+00	 1.020622096153846e+01
0	 5.749999999999997e+00	 0.000000000000000e+00	 1.008946571076923e+01
0	 5.749999999999997e+00	 1.250000000000000e-01	 1.010408719569231e+01
0	 5.749999999999998e+00	 2.500000000000000e-01	 1.011793205907692e+01
0	 5.749999999999996e+00	 3.750000000000001e-01	 1.013100030092307e+01
0	 5.749999999999997e+00	 5.000000000000001e-01	 1.014329192123077e+01
0	 5.749999999999997e+00	 6.250000000000002e-01	 1.015480692000000e+01
0	 5.749999999999997e+00	 7.499999999999999e-01	 1.016554529723077e+01
0	 5.749999999999998e+00	 8.750000000000000e-01	 1.017550705292308e+01
0	 5.749999999999997e+00	 9.999999999999997e-01	 1.018469218707692e+01
0	 5.749999999999998e+00	 1.125000000000000e+00	 1.019310069969231e+01
0	 5.749999999999998e+00	 1.250000000000000e+00	 1.020073259076923e+01
0	 5.874999999999997e+00	 0.000000000000000e+00	 1.008223488923077e+01
0	 5.874999999999998e+00	 1.250000000000000e-01	 1.009563328584615e+01
0	 5.874999999999998e+00	 2.500000000000001e-01	 1.010849453938461e+01
0	 5.874999999999997e+00	 3.750000000000000e-01	 1.012081864984616e+01
0	 5.874999999999997e+00	 5.000000000000000e-01	 1.013260561723077e+01
0	 5.874999999999997e+00	 6.250000000000001e-01	 1.014385544153846e+01
0	 5.874999999999997e+00	 7.500000000000000e-01	 1.015456812276923e+01
0	 5.874999999999997e+00	 8.750000000000000e-01	 1.016474366092307e+01
0	 5.874999999999997e+00	 9.999999999999999e-01	 1.017438205600000e+01
0	 5.874999999999996e+00	 1.125000000000000e+00	 1.018348330800000e+01
0	 5.874999999999997e+00	 1.250000000000000e+00	 1.019204741692307e+01
0	 5.999999999999996e+00	 0.000000000000000e+00	 1.008103022769231e+01
0	 5.999999999999997e+00	 1.250000000000000e-01	 1.009228323969231e+01
0	 5.999999999999997e+00	 2.500000000000001e-01	 1.010323858707692e+01
0	 5.999999999999996e+00	 3.750000000000001e-01	 1.011389626984615e+01
0	 5.999999999999996e+00	 5.000000000000000e-01	 1.012425628800000e+01
0	 5.999999999999996e+00	 6.249999999999999e-01	 1.013431864153846e+01
0	 5.999999999999996e+00	 7.499999999999999e-01	 1.014408333046154e+01
0	 5.999999999999996e+00	 8.750000000000000e-01	 1.015355035476923e+01
0	 5.999999999999996e+00	 9.999999999999999e-01	 1.016271971446154e+01
0	 5.999999999999997e+00	 1.125000000000000e+00	 1.017159140953846e+01
0	 5.999999999999996e+00	 1.250000000000000e+00	 1.018016544000000e+01
0	 6.124999999999996e+00	 0.000000000000000e+00	 1.008585172615384e+01
0	 6.124999999999997e+00	 1.250000000000000e-01	 1.009403705723076e+01
0	 6.124999999999996e+00	 2.500000000000000e-01	 1.010216420215384e+01
0	 6.124999999999997e+00	 3.750000000000001e-01	 1.011023316092308e+01
0	 6.124999999999995e+00	 4.999999999999999e-01	 1.011824393353845e+01
0	 6.124999999999996e+00	 6.250000000000000e-01	 1.012619652000000e+01
0	 6.124999999999996e+00	 7.500000000000000e-01	 1.013409092030768e+01
0	 6.124999999999996e+00	 8.750000000000000e-01	 1.014192713446153e+01
0	 6.124999999999995e+00	 9.999999999999998e-01	 1.014970516246154e+01
0	 6.124999999999996e+00	 1.125000000000000e+00	 1.015742500430769e+01
0	 6.124999999999996e+00	 1.250000000000000e+00	 1.016508666000000e+01
0	 6.250000000000000e+00	 0.000000000000000e+00	 1.009669938461538e+01
0	 6.250000000000001e+00	 1.250000000000000e-01	 1.010089473846154e+01
0	 6.249999999999999e+00	 2.500000000000000e-01	 1.010527138461538e+01
0	 6.249999999999999e+00	 3.750000000000001e-01	 1.010982932307692e+01
0	 6.250000000000002e+00	 5.000000000000000e-01	 1.011456855384615e+01
0	 6.250000000000000e+00	 6.250000000000000e-01	 1.011948907692307e+01
0	 6.250000000000000e+00	 7.500000000000000e-01	 1.012459089230769e+01
0	 6.250000000000000e+00	 8.749999999999999e-01	 1.012987400000000e+01
0	 6.250000000000000e+00	 1.000000000000000e+00	 1.013533840000000e+01
0	 6.250000000000000e+00	 1.125000000000000e+00	 1.014098409230769e+01
0	 6.250000000000000e+00	 1.250000000000000e+00	 1.014681107692308e+01
0	 5.000000000000000e+00	 1.250000000000000e+00	 1.018571076923077e+01
0	 5.000000000000000e+00	 1.375000000000000e+00	 1.020123480000000e+01
0	 5.000000000000000e+00	 1.500000000000000e+00	 1.021631012307692e+01
0	 5.000000000000001e+00	 1.625000000000000e+00	 1.023093673846154e+01
0	 5.000000000000001e+00	 1.750000000000000e+00	 1.024511464615384e+01
0	 5.000000000000001e+00	 1.875000000000000e+00	 1.025884384615384e+01
0	 5.000000000000000e+00	 2.000000000000000e+00	 1.027212433846154e+01
0	 5.000000000000000e+00	 2.125000000000001e+00	 1.028495612307692e+01
0	 5.000000000000000e+00	 2.250000000000001e+00	 1.029733919999999e+01
0	 5.000000000000000e+00	 2.375000000000001e+00	 1.030927356923077e+01
0	 5.000000000000000e+00	 2.500000000000000e+00	 1.032075923076923e+01
0	 5.124999999999999e+00	 1.250000000000000e+00	 1.019620641384615e+01
0	 5.125000000000001e+00	 1.375000000000000e+00	 1.020770437938461e+01
0	 5.125000000000000e+00	 1.500000000000000e+00	 1.021883035415385e+01
0	 5.124999999999999e+00	 1.625000000000000e+00	 1.022958433815384e+01
0	 5.125000000000001e+00	 1.750000000000001e+00	 1.023996633138461e+01
0	 5.124999999999999e+00	 1.875000000000001e+00	 1.024997633384615e+01
0	 5.125000000000000e+00	 2.000000000000001e+00	 1.025961434553846e+01
0	 5.125000000000000e+00	 2.125000000000001e+00	 1.026888036646153e+01
0	 5.124999999999999e+00	 2.250000000000000e+00	 1.027777439661539e+01
0	 5.125000000000000e+00	 2.375000000000000e+00	 1.028629643600000e+01
0	 5.124999999999999e+00	 2.500000000000000e+00	 1.029444648461538e+01
0	 5.250000000000000e+00	 1.250000000000000e+00	 1.020350525538461e+01
0	 5.250000000000000e+00	 1.375000000000000e+00	 1.021150940984615e+01
0	 5.249999999999999e+00	 1.500000000000000e+00	 1.021921829046154e+01
0	 5.249999999999999e+00	 1.625000000000000e+00	 1.022663189723077e+01
0	 5.250000000000000e+00	 1.750000000000001e+00	 1.023375023015384e+01
0	 5.250000000000000e+00	 1.875000000000001e+00	 1.024057328923077e+01
0	 5.250000000000000e+00	 2.000000000000001e+00	 1.024710107446154e+01
0	 5.249999999999999e+00	 2.125000000000000e+00	 1.025333358584615e+01
0	 5.249999999999999e+00	 2.250000000000000e+00	 1.025927082338462e+01
0	 5.249999999999999e+00	 2.375000000000001e+00	 1.026491278707692e+01
0	 5.250000000000000e+00	 2.500000000000000e+00	 1.027025947692308e+01
0	 5.374999999999998e+00	 1.250000000000000e+00	 1.020760729384615e+01
0	 5.374999999999998e+00	 1.375000000000000e+00	 1.021264989138462e+01
0	 5.374999999999999e+00	 1.500000000000000e+00	 1.021747393200000e+01
0	 5.374999999999998e+00	 1.625000000000000e+00	 1.022207941569230e+01
0	 5.374999999999999e+00	 1.750000000000000e+00	 1.022646634246153e+01
0	 5.374999999999998e+00	 1.875000000000000e+00	 1.023063471230769e+01
0	 5.374999999999998e+00	 2.000000000000000e+00	 1.023458452523077e+01
0	 5.374999999999999e+00	 2.125000000000000e+00	 1.023831578123077e+01
0	 5.374999999999999e+00	 2.250000000000001e+00	 1.024182848030769e+01
0	 5.374999999999998e+00	 2.375000000000001e+00	 1.024512262246154e+01
0	 5.374999999999998e+00	 2.500000000000000e+00	 1.024819820769231e+01
0	 5.499999999999998e+00	 1.250000000000000e+00	 1.020851252923077e+01
0	 5.499999999999999e+00	 1.375000000000000e+00	 1.021112582399999e+01
0	 5.499999999999999e+00	 1.500000000000000e+00	 1.021359727876922e+01
0	 5.499999999999998e+00	 1.625000000000000e+00	 1.021592689353846e+01
0	 5.499999999999998e+00	 1.750000000000001e+00	 1.021811466830769e+01
0	 5.499999999999998e+00	 1.875000000000000e+00	 1.022016060307692e+01
0	 5.499999999999998e+00	 2.000000000000001e+00	 1.022206469784615e+01
0	 5.499999999999998e+00	 2.125000000000001e+00	 1.022382695261539e+01
0	 5.499999999999998e+00	 2.250000000000001e+00	 1.022544736738461e+01
0	 5.499999999999999e+00	 2.375000000000001e+00	 1.022692594215384e+01
0	 5.499999999999998e+00	 2.500000000000000e+00	 1.022826267692308e+01
0	 5.624999999999998e+00	 1.250000000000000e+00	 1.020622096153846e+01
0	 5.624999999999996e+00	 1.375000000000000e+00	 1.020693720769231e+01
0	 5.624999999999997e+00	 1.500000000000000e+00	 1.020758833076923e+01
0	 5.624999999999998e+00	 1.625000000000000e+00	 1.020817433076923e+01
0	 5.624999999999997e+00	 1.750000000000001e+00	 1.020869520769230e+01
0	 5.624999999999997e+00	 1.875000000000000e+00	 1.020915096153846e+01
0	 5.624999999999998e+00	 2.000000000000001e+00	 1.020954159230769e+01
0	 5.624999999999998e+00	 2.125000000000001e+00	 1.020986709999999e+01
0	 5.624999999999997e+00	 2.250000000000001e+00	 1.021012748461538e+01
0	 5.624999999999996e+00	 2.375000000000001e+00	 1.021032274615384e+01
0	 5.624999999999998e+00	 2.500000000000000e+00	 1.021045288461538e+01
0	 5.749999999999998e+00	 1.250000000000000e+00	 1.020073259076923e+01
0	 5.749999999999997e+00	 1.375000000000000e+00	 1.020008404246153e+01
0	 5.749999999999999e+00	 1.500000000000001e+00	 1.019944708799999e+01
0	 5.749999999999997e+00	 1.625000000000000e+00	 1.019882172738462e+01
0	 5.749999999999996e+00	 1.750000000000000e+00	 1.019820796061538e+01
0	 5.749999999999997e+00	 1.875000000000001e+00	 1.019760578769230e+01
0	 5.749999999999997e+00	 2.000000000000000e+00	 1.019701520861539e+01
0	 5.749999999999996e+00	 2.125000000000001e+00	 1.019643622338462e+01
0	 5.749999999999998e+00	 2.250000000000001e+00	 1.019586883200000e+01
0	 5.749999999999997e+00	 2.375000000000001e+00	 1.019531303446153e+01
0	 5.749999999999998e+00	 2.500000000000000e+00	 1.019476883076923e+01
0	 5.874999999999997e+00	 1.250000000000000e+00	 1.019204741692307e+01
0	 5.874999999999997e+00	 1.375000000000000e+00	 1.019056632830769e+01
0	 5.874999999999998e+00	 1.500000000000000e+00	 1.018917355046154e+01
0	 5.874999999999997e+00	 1.625000000000000e+00	 1.018786908338462e+01
0	 5.874999999999996e+00	 1.750000000000000e+00	 1.018665292707692e+01
0	 5.874999999999997e+00	 1.875000000000001e+00	 1.018552508153846e+01
0	 5.874999999999996e+00	 2.000000000000001e+00	 1.018448554676923e+01
0	 5.874999999999997e+00	 2.125000000000001e+00	 1.018353432276923e+01
0	 5.874999999999997e+00	 2.250000000000001e+00	 1.018267140953846e+01
0	 5.874999999999997e+00	 2.375000000000001e+00	 1.018189680707692e+01
0	 5.874999999999997e+00	 2.500000000000000e+00	 1.018121051538461e+01
0	 5.999999999999996e+00	 1.250000000000000e+00	 1.018016544000000e+01
0	 5.999999999999997e+00	 1.375000000000000e+00	 1.017838406523076e+01
0	 5.999999999999996e+00	 1.500000000000000e+00	 1.017676771815384e+01
0	 5.999999999999996e+00	 1.625000000000000e+00	 1.017531639876923e+01
0	 5.999999999999996e+00	 1.750000000000001e+00	 1.017403010707692e+01
0	 5.999999999999996e+00	 1.875000000000000e+00	 1.017290884307692e+01
0	 5.999999999999998e+00	 2.000000000000001e+00	 1.017195260676923e+01
0	 5.999999999999996e+00	 2.125000000000000e+00	 1.017116139815384e+01
0	 5.999999999999996e+00	 2.250000000000001e+00	 1.017053521723076e+01
0	 5.999999999999996e+00	 2.375000000000001e+00	 1.017007406400000e+01
0	 5.999999999999996e+00	 2.500000000000000e+00	 1.016977793846154e+01
0	 6.124999999999996e+00	 1.250000000000000e+00	 1.016508666000000e+01
0	 6.124999999999997e+00	 1.375000000000000e+00	 1.016353725323077e+01
0	 6.124999999999996e+00	 1.500000000000000e+00	 1.016222959107692e+01
0	 6.124999999999996e+00	 1.625000000000000e+00	 1.016116367353846e+01
0	 6.124999999999996e+00	 1.750000000000000e+00	 1.016033950061539e+01
0	 6.124999999999996e+00	 1.875000000000000e+00	 1.015975707230769e+01
0	 6.124999999999996e+00	 2.000000000000001e+00	 1.015941638861539e+01
0	 6.124999999999996e+00	 2.125000000000000e+00	 1.015931744953846e+01
0	 6.124999999999995e+00	 2.250000000000001e+00	 1.015946025507692e+01
0	 6.124999999999996e+00	 2.375000000000001e+00	 1.015984480523077e+01
0	 6.124999999999996e+00	 2.500000000000000e+00	 1.016047110000000e+01
0	 6.250000000000000e+00	 1.250000000000000e+00	 1.014681107692308e+01
0	 6.250000000000001e+00	 1.375000000000000e+00	 1.014602589230769e+01
0	 6.250000000000001e+00	 1.500000000000000e+00	 1.014555916923077e+01
0	 6.250000000000001e+00	 1.625000000000000e+00	 1.014541090769231e+01
0	 6.250000000000000e+00	 1.750000000000000e+00	 1.014558110769230e+01
0	 6.250000000000000e+00	 1.875000000000000e+00	 1.014606976923077e+01
0	 6.250000000000001e+00	 2.000000000000000e+00	 1.014687689230769e+01
0	 6.250000000000000e+00	 2.125000000000001e+00	 1.014800247692308e+01
0	 6.250000000000001e+00	 2.250000000000001e+00	 1.014944652307692e+01
0	 6.250000000000000e+00	 2.375000000000001e+00	 1.015120903076923e+01
0	 6.250000000000000e+00	 2.500000000000000e+00	 1.015329000000000e+01
0	 5.000000000000000e+00	 2.500000000000000e+00	 1.032075923076923e+01
0	 5.000000000000000e+00	 2.625000000000000e+00	 1.030413267692307e+01
0	 5.000000000000000e+00	 2.750000000000000e+00	 1.028919609230769e+01
0	 5.000000000000001e+00	 2.875000000000001e+00	 1.027594947692308e+01
0	 5.000000000000001e+00	 3.000000000000000e+00	 1.026439283076923e+01
0	 5.000000000000001e+00	 3.125000000000000e+00	 1.025452615384615e+01
0	 5.000000000000000e+00	 3.250000000000000e+00	 1.024634944615384e+01
0	 5.000000000000000e+00	 3.375000000000001e+00	 1.023986270769231e+01
0	 5.000000000000000e+00	 3.500000000000001e+00	 1.023506593846154e+01
0	 5.000000000000000e+00	 3.625000000000001e+00	 1.023195913846153e+01
0	 5.000000000000000e+00	 3.750000000000000e+00	 1.023054230769230e+01
0	 5.124999999999999e+00	 2.500000000000000e+00	 1.029444648461538e+01
0	 5.125000000000001e+00	 2.625000000000000e+00	 1.028094826538461e+01
0	 5.125000000000000e+00	 2.750000000000000e+00	 1.026897490461538e+01
0	 5.124999999999999e+00	 2.875000000000000e+00	 1.025852640230769e+01
0	 5.125000000000001e+00	 3.000000000000001e+00	 1.024960275846154e+01
0	 5.124999999999999e+00	 3.125000000000001e+00	 1.024220397307692e+01
0	 5.125000000000000e+00	 3.250000000000001e+00	 1.023633004615384e+01
0	 5.125000000000000e+00	 3.375000000000001e+00	 1.023198097769230e+01
0	 5.124999999999999e+00	 3.500000000000000e+00	 1.022915676769230e+01
0	 5.125000000000000e+00	 3.625000000000000e+00	 1.022785741615385e+01
0	 5.124999999999999e+00	 3.750000000000000e+00	 1.022808292307692e+01
0	 5.250000000000000e+00	 2.500000000000000e+00	 1.027025947692308e+01
0	 5.250000000000000e+00	 2.625000000000000e+00	 1.025959054153846e+01
0	 5.249999999999999e+00	 2.750000000000001e+00	 1.025028135384615e+01
0	 5.249999999999999e+00	 2.875000000000000e+00	 1.024233191384615e+01
0	 5.250000000000000e+00	 3.000000000000000e+00	 1.023574222153846e+01
0	 5.250000000000000e+00	 3.125000000000001e+00	 1.023051227692308e+01
0	 5.250000000000000e+00	 3.250000000000001e+00	 1.022664208000000e+01
0	 5.249999999999999e+00	 3.375000000000000e+00	 1.022413163076923e+01
0	 5.249999999999999e+00	 3.500000000000001e+00	 1.022298092923076e+01
0	 5.249999999999999e+00	 3.625000000000002e+00	 1.022318997538461e+01
0	 5.250000000000000e+00	 3.750000000000000e+00	 1.022475876923076e+01
0	 5.374999999999998e+00	 2.500000000000000e+00	 1.024819820769231e+01
0	 5.374999999999998e+00	 2.625000000000000e+00	 1.024005950538462e+01
0	 5.374999999999999e+00	 2.750000000000000e+00	 1.023311544000000e+01
0	 5.374999999999998e+00	 2.875000000000000e+00	 1.022736601153846e+01
0	 5.374999999999999e+00	 3.000000000000000e+00	 1.022281122000000e+01
0	 5.374999999999998e+00	 3.125000000000000e+00	 1.021945106538461e+01
0	 5.374999999999998e+00	 3.250000000000000e+00	 1.021728554769231e+01
0	 5.374999999999999e+00	 3.375000000000001e+00	 1.021631466692307e+01
0	 5.374999999999999e+00	 3.500000000000001e+00	 1.021653842307692e+01
0	 5.374999999999998e+00	 3.625000000000000e+00	 1.021795681615384e+01
0	 5.374999999999998e+00	 3.750000000000000e+00	 1.022056984615384e+01
0	 5.499999999999998e+00	 2.500000000000000e+00	 1.022826267692308e+01
0	 5.499999999999999e+00	 2.625000000000000e+00	 1.022235515692308e+01
0	 5.499999999999999e+00	 2.750000000000000e+00	 1.021747716307692e+01
0	 5.499999999999998e+00	 2.875000000000000e+00	 1.021362869538461e+01
0	 5.499999999999998e+00	 3.000000000000000e+00	 1.021080975384615e+01
0	 5.499999999999998e+00	 3.125000000000000e+00	 1.020902033846154e+01
0	 5.499999999999998e+00	 3.250000000000001e+00	 1.020826044923077e+01
0	 5.499999999999998e+00	 3.375000000000001e+00	 1.020853008615384e+01
0	 5.499999999999998e+00	 3.500000000000001e+00	 1.020982924923077e+01
0	 5.499999999999999e+00	 3.625000000000001e+00	 1.021215793846154e+01
0	 5.499999999999998e+00	 3.750000000000000e+00	 1.021551615384615e+01
0	 5.624999999999998e+00	 2.500000000000000e+00	 1.021045288461538e+01
0	 5.624999999999996e+00	 2.625000000000000e+00	 1.020647749615384e+01
0	 5.624999999999997e+00	 2.750000000000000e+00	 1.020336652307692e+01
0	 5.624999999999998e+00	 2.875000000000000e+00	 1.020111996538461e+01
0	 5.624999999999997e+00	 3.000000000000000e+00	 1.019973782307692e+01
0	 5.624999999999997e+00	 3.125000000000000e+00	 1.019922009615384e+01
0	 5.624999999999998e+00	 3.250000000000000e+00	 1.019956678461538e+01
0	 5.624999999999998e+00	 3.375000000000001e+00	 1.020077788846153e+01
0	 5.624999999999997e+00	 3.500000000000000e+00	 1.020285340769231e+01
0	 5.624999999999996e+00	 3.625000000000001e+00	 1.020579334230769e+01
0	 5.624999999999998e+00	 3.750000000000000e+00	 1.020959769230769e+01
0	 5.749999999999998e+00	 2.500000000000000e+00	 1.019476883076923e+01
0	 5.749999999999997e+00	 2.625000000000000e+00	 1.019242652307693e+01
0	 5.749999999999999e+00	 2.750000000000000e+00	 1.019078351999999e+01
0	 5.749999999999997e+00	 2.875000000000000e+00	 1.018983982153846e+01
0	 5.749999999999996e+00	 3.000000000000000e+00	 1.018959542769230e+01
0	 5.749999999999997e+00	 3.125000000000000e+00	 1.019005033846154e+01
0	 5.749999999999997e+00	 3.250000000000000e+00	 1.019120455384615e+01
0	 5.749999999999996e+00	 3.375000000000000e+00	 1.019305807384615e+01
0	 5.749999999999998e+00	 3.500000000000001e+00	 1.019561089846153e+01
0	 5.749999999999997e+00	 3.625000000000000e+00	 1.019886302769230e+01
0	 5.749999999999998e+00	 3.750000000000000e+00	 1.020281446153846e+01
0	 5.874999999999997e+00	 2.500000000000000e+00	 1.018121051538461e+01
0	 5.874999999999997e+00	 2.625000000000000e+00	 1.018020223769230e+01
0	 5.874999999999998e+00	 2.750000000000000e+00	 1.017972815384615e+01
0	 5.874999999999997e+00	 2.875000000000000e+00	 1.017978826384615e+01
0	 5.874999999999996e+00	 3.000000000000001e+00	 1.018038256769231e+01
0	 5.874999999999997e+00	 3.125000000000001e+00	 1.018151106538461e+01
0	 5.874999999999996e+00	 3.250000000000000e+00	 1.018317375692308e+01
0	 5.874999999999997e+00	 3.375000000000001e+00	 1.018537064230769e+01
0	 5.874999999999997e+00	 3.500000000000001e+00	 1.018810172153846e+01
0	 5.874999999999997e+00	 3.625000000000001e+00	 1.019136699461537e+01
0	 5.874999999999997e+00	 3.750000000000000e+00	 1.019516646153846e+01
0	 5.999999999999996e+00	 2.500000000000000e+00	 1.016977793846154e+01
0	 5.999999999999997e+00	 2.625000000000000e+00	 1.016980464000000e+01
0	 5.999999999999996e+00	 2.750000000000000e+00	 1.017020042461538e+01
0	 5.999999999999996e+00	 2.875000000000000e+00	 1.017096529230769e+01
0	 5.999999999999996e+00	 3.000000000000000e+00	 1.017209924307692e+01
0	 5.999999999999996e+00	 3.125000000000000e+00	 1.017360227692307e+01
0	 5.999999999999998e+00	 3.250000000000002e+00	 1.017547439384615e+01
0	 5.999999999999996e+00	 3.375000000000000e+00	 1.017771559384615e+01
0	 5.999999999999996e+00	 3.500000000000001e+00	 1.018032587692307e+01
0	 5.999999999999996e+00	 3.625000000000001e+00	 1.018330524307692e+01
0	 5.999999999999996e+00	 3.750000000000000e+00	 1.018665369230769e+01
0	 6.124999999999996e+00	 2.500000000000000e+00	 1.016047110000000e+01
0	 6.124999999999997e+00	 2.625000000000001e+00	 1.016123373000000e+01
0	 6.124999999999996e+00	 2.750000000000000e+00	 1.016220033230769e+01
0	 6.124999999999996e+00	 2.875000000000000e+00	 1.016337090692307e+01
0	 6.124999999999996e+00	 3.000000000000001e+00	 1.016474545384615e+01
0	 6.124999999999996e+00	 3.125000000000000e+00	 1.016632397307692e+01
0	 6.124999999999996e+00	 3.250000000000000e+00	 1.016810646461538e+01
0	 6.124999999999996e+00	 3.375000000000000e+00	 1.017009292846154e+01
0	 6.124999999999995e+00	 3.500000000000000e+00	 1.017228336461538e+01
0	 6.124999999999996e+00	 3.625000000000001e+00	 1.017467777307692e+01
0	 6.124999999999996e+00	 3.750000000000000e+00	 1.017727615384615e+01
0	 6.250000000000000e+00	 2.500000000000000e+00	 1.015329000000000e+01
0	 6.250000000000001e+00	 2.625000000000000e+00	 1.015448950769230e+01
0	 6.250000000000001e+00	 2.750000000000000e+00	 1.015572787692308e+01
0	 6.250000000000001e+00	 2.875000000000001e+00	 1.015700510769231e+01
0	 6.250000000000000e+00	 3.000000000000000e+00	 1.015832120000000e+01
0	 6.250000000000000e+00	 3.125000000000000e+00	 1.015967615384615e+01
0	 6.250000000000001e+00	 3.250000000000000e+00	 1.016106996923077e+01
0	 6.250000000000000e+00	 3.375000000000001e+00	 1.016250264615384e+01
0	 6.250000000000001e+00	 3.500000000000001e+00	 1.016397418461538e+01
0	 6.250000000000000e+00	 3.625000000000001e+00	 1.016548458461538e+01
0	 6.250000000000000e+00	 3.750000000000000e+00	 1.016703384615384e+01
0	 5.000000000000000e+00	 3.750000000000000e+00	 1.023054230769230e+01
0	 5.000000000000000e+00	 3.875000000000000e+00	 1.022473615384615e+01
0	 5.000000000000000e+00	 4.000000000000001e+00	 1.021876753846153e+01
0	 5.000000000000001e+00	 4.125000000000001e+00	 1.021263646153845e+01
0	 5.000000000000001e+00	 4.250000000000001e+00	 1.020634292307692e+01
0	 5.000000000000001e+00	 4.375000000000001e+00	 1.019988692307692e+01
0	 5.000000000000000e+00	 4.500000000000000e+00	 1.019326846153846e+01
0	 5.000000000000000e+00	 4.625000000000001e+00	 1.018648753846153e+01
0	 5.000000000000000e+00	 4.750000000000002e+00	 1.017954415384616e+01
0	 5.000000000000000e+00	 4.875000000000002e+00	 1.017243830769231e+01
0	 5.000000000000000e+00	 5.000000000000000e+00	 1.016517000000000e+01
0	 5.124999999999999e+00	 3.750000000000000e+00	 1.022808292307692e+01
0	 5.125000000000001e+00	 3.875000000000000e+00	 1.022158479307692e+01
0	 5.125000000000000e+00	 4.000000000000001e+00	 1.021498860461538e+01
0	 5.124999999999999e+00	 4.125000000000000e+00	 1.020829435769230e+01
0	 5.125000000000001e+00	 4.250000000000002e+00	 1.020150205230769e+01
0	 5.124999999999999e+00	 4.375000000000001e+00	 1.019461168846154e+01
0	 5.125000000000000e+00	 4.500000000000001e+00	 1.018762326615384e+01
0	 5.125000000000000e+00	 4.625000000000000e+00	 1.018053678538461e+01
0	 5.124999999999999e+00	 4.750000000000001e+00	 1.017335224615384e+01
0	 5.125000000000000e+00	 4.874999999999999e+00	 1.016606964846154e+01
0	 5.124999999999999e+00	 4.999999999999999e+00	 1.015868899230769e+01
0	 5.250000000000000e+00	 3.750000000000000e+00	 1.022475876923076e+01
0	 5.250000000000000e+00	 3.875000000000000e+00	 1.021769172307692e+01
0	 5.249999999999999e+00	 4.000000000000001e+00	 1.021059102153846e+01
0	 5.249999999999999e+00	 4.125000000000001e+00	 1.020345666461539e+01
0	 5.250000000000000e+00	 4.250000000000001e+00	 1.019628865230769e+01
0	 5.250000000000000e+00	 4.375000000000002e+00	 1.018908698461538e+01
0	 5.250000000000000e+00	 4.500000000000001e+00	 1.018185166153846e+01
0	 5.249999999999999e+00	 4.625000000000000e+00	 1.017458268307692e+01
0	 5.249999999999999e+00	 4.750000000000001e+00	 1.016728004923078e+01
0	 5.249999999999999e+00	 4.875000000000001e+00	 1.015994376000000e+01
0	 5.250000000000000e+00	 4.999999999999999e+00	 1.015257381538462e+01
0	 5.374999999999998e+00	 3.750000000000000e+00	 1.022056984615384e+01
0	 5.374999999999998e+00	 3.875000000000000e+00	 1.021305694384615e+01
0	 5.374999999999999e+00	 4.000000000000000e+00	 1.020557478923077e+01
0	 5.374999999999998e+00	 4.125000000000000e+00	 1.019812338230769e+01
0	 5.374999999999999e+00	 4.250000000000002e+00	 1.019070272307692e+01
0	 5.374999999999998e+00	 4.375000000000000e+00	 1.018331281153846e+01
0	 5.374999999999998e+00	 4.500000000000001e+00	 1.017595364769231e+01
0	 5.374999999999999e+00	 4.625000000000001e+00	 1.016862523153846e+01
0	 5.374999999999999e+00	 4.750000000000001e+00	 1.016132756307692e+01
0	 5.374999999999998e+00	 4.875000000000001e+00	 1.015406064230769e+01
0	 5.374999999999998e+00	 5.000000000000000e+00	 1.014682446923077e+01
0	 5.499999999999998e+00	 3.750000000000000e+00	 1.021551615384615e+01
0	 5.499999999999999e+00	 3.875000000000000e+00	 1.020768045538461e+01
0	 5.499999999999999e+00	 4.000000000000000e+00	 1.019993990769231e+01
0	 5.499999999999998e+00	 4.125000000000001e+00	 1.019229451076923e+01
0	 5.499999999999998e+00	 4.250000000000001e+00	 1.018474426461539e+01
0	 5.499999999999998e+00	 4.375000000000000e+00	 1.017728916923077e+01
0	 5.499999999999998e+00	 4.500000000000000e+00	 1.016992922461539e+01
0	 5.499999999999998e+00	 4.625000000000001e+00	 1.016266443076922e+01
0	 5.499999999999998e+00	 4.750000000000001e+00	 1.015549478769230e+01
0	 5.499999999999999e+00	 4.875000000000001e+00	 1.014842029538462e+01
0	 5.499999999999998e+00	 5.000000000000001e+00	 1.014144095384616e+01
0	 5.624999999999998e+00	 3.750000000000000e+00	 1.020959769230769e+01
0	 5.624999999999996e+00	 3.874999999999999e+00	 1.020156225769231e+01
0	 5.624999999999997e+00	 4.000000000000000e+00	 1.019368637692307e+01
0	 5.624999999999998e+00	 4.125000000000000e+00	 1.018597005000000e+01
0	 5.624999999999997e+00	 4.250000000000000e+00	 1.017841327692307e+01
0	 5.624999999999997e+00	 4.375000000000000e+00	 1.017101605769231e+01
0	 5.624999999999998e+00	 4.500000000000001e+00	 1.016377839230769e+01
0	 5.624999999999998e+00	 4.625000000000002e+00	 1.015670028076923e+01
0	 5.624999999999997e+00	 4.750000000000001e+00	 1.014978172307692e+01
0	 5.624999999999996e+00	 4.875000000000001e+00	 1.014302271923077e+01
0	 5.624999999999998e+00	 5.000000000000000e+00	 1.013642326923078e+01
0	 5.749999999999998e+00	 3.750000000000000e+00	 1.020281446153846e+01
0	 5.749999999999997e+00	 3.875000000000000e+00	 1.019470235076922e+01
0	 5.749999999999999e+00	 4.000000000000001e+00	 1.018681419692307e+01
0	 5.749999999999997e+00	 4.125000000000000e+00	 1.017915000000000e+01
0	 5.749999999999996e+00	 4.249999999999999e+00	 1.017170976000000e+01
0	 5.749999999999997e+00	 4.375000000000001e+00	 1.016449347692307e+01
0	 5.749999999999997e+00	 4.500000000000000e+00	 1.015750115076923e+01
0	 5.749999999999996e+00	 4.625000000000001e+00	 1.015073278153847e+01
0	 5.749999999999998e+00	 4.750000000000002e+00	 1.014418836923077e+01
0	 5.749999999999997e+00	 4.875000000000000e+00	 1.013786791384615e+01
0	 5.749999999999998e+00	 5.000000000000000e+00	 1.013177141538462e+01
0	 5.874999999999997e+00	 3.750000000000000e+00	 1.019516646153846e+01
0	 5.874999999999997e+00	 3.875000000000000e+00	 1.018710073461538e+01
0	 5.874999999999998e+00	 4.000000000000002e+00	 1.017932336769230e+01
0	 5.874999999999997e+00	 4.125000000000001e+00	 1.017183436076922e+01
0	 5.874999999999996e+00	 4.250000000000002e+00	 1.016463371384615e+01
0	 5.874999999999997e+00	 4.375000000000001e+00	 1.015772142692307e+01
0	 5.874999999999996e+00	 4.500000000000001e+00	 1.015109750000000e+01
0	 5.874999999999997e+00	 4.625000000000002e+00	 1.014476193307692e+01
0	 5.874999999999997e+00	 4.750000000000000e+00	 1.013871472615384e+01
0	 5.874999999999997e+00	 4.875000000000001e+00	 1.013295587923077e+01
0	 5.874999999999997e+00	 5.000000000000000e+00	 1.012748539230770e+01
0	 5.999999999999996e+00	 3.750000000000000e+00	 1.018665369230769e+01
0	 5.999999999999997e+00	 3.875000000000000e+00	 1.017875740923077e+01
0	 5.999999999999996e+00	 3.999999999999999e+00	 1.017121388923076e+01
0	 5.999999999999996e+00	 4.124999999999999e+00	 1.016402313230769e+01
0	 5.999999999999996e+00	 4.250000000000001e+00	 1.015718513846154e+01
0	 5.999999999999996e+00	 4.375000000000001e+00	 1.015069990769231e+01
0	 5.999999999999998e+00	 4.500000000000001e+00	 1.014456744000000e+01
0	 5.999999999999996e+00	 4.625000000000000e+00	 1.013878773538461e+01
0	 5.999999999999996e+00	 4.750000000000000e+00	 1.013336079384615e+01
0	 5.999999999999996e+00	 4.875000000000002e+00	 1.012828661538462e+01
0	 5.999999999999996e+00	 4.999999999999999e+00	 1.012356520000000e+01
0	 6.124999999999996e+00	 3.750000000000000e+00	 1.017727615384615e+01
0	 6.124999999999997e+00	 3.875000000000000e+00	 1.016967237461539e+01
0	 6.124999999999996e+00	 4.000000000000000e+00	 1.016248576153846e+01
0	 6.124999999999996e+00	 4.125000000000000e+00	 1.015571631461538e+01
0	 6.124999999999996e+00	 4.250000000000000e+00	 1.014936403384615e+01
0	 6.124999999999996e+00	 4.375000000000001e+00	 1.014342891923076e+01
0	 6.124999999999996e+00	 4.500000000000001e+00	 1.013791097076923e+01
0	 6.124999999999996e+00	 4.625000000000001e+00	 1.013281018846153e+01
0	 6.124999999999995e+00	 4.750000000000000e+00	 1.012812657230769e+01
0	 6.124999999999996e+00	 4.875000000000001e+00	 1.012386012230769e+01
0	 6.124999999999996e+00	 5.000000000000000e+00	 1.012001083846154e+01
0	 6.250000000000000e+00	 3.750000000000000e+00	 1.016703384615384e+01
0	 6.250000000000001e+00	 3.875000000000000e+00	 1.015984563076922e+01
0	 6.250000000000001e+00	 4.000000000000001e+00	 1.015313898461538e+01
0	 6.250000000000001e+00	 4.125000000000001e+00	 1.014691390769231e+01
0	 6.250000000000000e+00	 4.250000000000001e+00	 1.014117040000000e+01
0	 6.250000000000000e+00	 4.375000000000001e+00	 1.013590846153846e+01
0	 6.250000000000001e+00	 4.500000000000000e+00	 1.013112809230769e+01
0	 6.250000000000000e+00	 4.625000000000001e+00	 1.012682929230769e+01
0	 6.250000000000001e+00	 4.750000000000002e+00	 1.012301206153847e+01
0	 6.250000000000000e+00	 4.875000000000002e+00	 1.011967640000000e+01
0	 6.250000000000000e+00	 5.000000000000000e+00	 1.011682230769231e+01
0	 5.000000000000000e+00	 5.000000000000000e+00	 1.016517000000000e+01
0	 5.000000000000000e+00	 5.124999999999999e+00	 1.015497497692309e+01
0	 5.000000000000001e+00	 5.250000000000000e+00	 1.014511867692307e+01
0	 5.000000000000000e+00	 5.374999999999998e+00	 1.013560110000000e+01
0	 5.000000000000001e+00	 5.499999999999999e+00	 1.012642224615385e+01
0	 5.000000000000000e+00	 5.624999999999997e+00	 1.011758211538462e+01
0	 5.000000000000000e+00	 5.749999999999997e+00	 1.010908070769230e+01
0	 5.000000000000000e+00	 5.874999999999996e+00	 1.010091802307692e+01
0	 5.000000000000000e+00	 5.999999999999996e+00	 1.009309406153846e+01
0	 5.000000000000000e+00	 6.124999999999996e+00	 1.008560882307693e+01
0	 5.000000000000000e+00	 6.250000000000000e+00	 1.007846230769231e+01
0	 5.124999999999999e+00	 4.999999999999999e+00	 1.015868899230769e+01
0	 5.125000000000001e+00	 5.125000000000001e+00	 1.014973070461538e+01
0	 5.125000000000000e+00	 5.249999999999998e+00	 1.014107302615384e+01
0	 5.125000000000000e+00	 5.374999999999998e+00	 1.013271595692308e+01
0	 5.124999999999999e+00	 5.499999999999999e+00	 1.012465949692308e+01
0	 5.125000000000000e+00	 5.624999999999998e+00	 1.011690364615385e+01
0	 5.125000000000000e+00	 5.749999999999999e+00	 1.010944840461538e+01
0	 5.125000000000001e+00	 5.874999999999997e+00	 1.010229377230769e+01
0	 5.125000000000001e+00	 5.999999999999998e+00	 1.009543974923077e+01
0	 5.124999999999999e+00	 6.124999999999994e+00	 1.008888633538462e+01
0	 5.124999999999999e+00	 6.249999999999999e+00	 1.008263353076922e+01
0	 5.250000000000000e+00	 4.999999999999999e+00	 1.015257381538462e+01
0	 5.249999999999998e+00	 5.125000000000000e+00	 1.014472637076924e+01
0	 5.249999999999999e+00	 5.250000000000000e+00	 1.013714142153846e+01
0	 5.249999999999999e+00	 5.375000000000000e+00	 1.012981896769231e+01
0	 5.249999999999999e+00	 5.499999999999997e+00	 1.012275900923077e+01
0	 5.249999999999999e+00	 5.624999999999998e+00	 1.011596154615385e+01
0	 5.249999999999999e+00	 5.749999999999997e+00	 1.010942657846154e+01
0	 5.250000000000001e+00	 5.874999999999998e+00	 1.010315410615385e+01
0	 5.249999999999999e+00	 5.999999999999996e+00	 1.009714412923077e+01
0	 5.250000000000000e+00	 6.124999999999997e+00	 1.009139664769231e+01
0	 5.250000000000000e+00	 6.250000000000000e+00	 1.008591166153846e+01
0	 5.374999999999998e+00	 5.000000000000000e+00	 1.014682446923077e+01
0	 5.374999999999997e+00	 5.125000000000000e+00	 1.013996197538461e+01
0	 5.375000000000000e+00	 5.249999999999999e+00	 1.013332386307692e+01
0	 5.374999999999998e+00	 5.374999999999998e+00	 1.012691013230769e+01
0	 5.374999999999999e+00	 5.499999999999998e+00	 1.012072078307692e+01
0	 5.375000000000000e+00	 5.624999999999998e+00	 1.011475581538462e+01
0	 5.374999999999999e+00	 5.749999999999998e+00	 1.010901522923077e+01
0	 5.374999999999999e+00	 5.874999999999997e+00	 1.010349902461539e+01
0	 5.374999999999999e+00	 5.999999999999997e+00	 1.009820720153846e+01
0	 5.374999999999998e+00	 6.124999999999996e+00	 1.009313976000000e+01
0	 5.374999999999998e+00	 6.250000000000000e+00	 1.008829669999999e+01
0	 5.499999999999998e+00	 5.000000000000001e+00	 1.014144095384616e+01
0	 5.499999999999999e+00	 5.124999999999999e+00	 1.013543751846154e+01
0	 5.499999999999999e+00	 5.250000000000000e+00	 1.012962035076923e+01
0	 5.499999999999998e+00	 5.375000000000000e+00	 1.012398945076923e+01
0	 5.499999999999999e+00	 5.499999999999999e+00	 1.011854481846154e+01
0	 5.499999999999998e+00	 5.624999999999998e+00	 1.011328645384615e+01
0	 5.499999999999998e+00	 5.749999999999997e+00	 1.010821435692307e+01
0	 5.499999999999998e+00	 5.874999999999996e+00	 1.010332852769231e+01
0	 5.499999999999999e+00	 5.999999999999997e+00	 1.009862896615385e+01
0	 5.499999999999997e+00	 6.124999999999996e+00	 1.009411567230770e+01
0	 5.499999999999998e+00	 6.250000000000000e+00	 1.008978864615385e+01
0	 5.624999999999998e+00	 5.000000000000000e+00	 1.013642326923078e+01
0	 5.624999999999997e+00	 5.124999999999998e+00	 1.013115300000000e+01
0	 5.624999999999997e+00	 5.249999999999999e+00	 1.012603088461538e+01
0	 5.625000000000000e+00	 5.375000000000000e+00	 1.012105692307693e+01
0	 5.624999999999997e+00	 5.499999999999998e+00	 1.011623111538461e+01
0	 5.624999999999997e+00	 5.624999999999997e+00	 1.011155346153846e+01
0	 5.624999999999999e+00	 5.749999999999998e+00	 1.010702396153846e+01
0	 5.624999999999997e+00	 5.874999999999996e+00	 1.010264261538462e+01
0	 5.624999999999997e+00	 5.999999999999996e+00	 1.009840942307692e+01
0	 5.624999999999998e+00	 6.124999999999996e+00	 1.009432438461538e+01
0	 5.624999999999998e+00	 6.250000000000000e+00	 1.009038750000000e+01
0	 5.749999999999998e+00	 5.000000000000000e+00	 1.013177141538462e+01
0	 5.749999999999998e+00	 5.124999999999999e+00	 1.012710842000000e+01
0	 5.749999999999997e+00	 5.249999999999999e+00	 1.012255546461538e+01
0	 5.749999999999998e+00	 5.374999999999999e+00	 1.011811254923077e+01
0	 5.749999999999998e+00	 5.500000000000000e+00	 1.011377967384615e+01
0	 5.749999999999998e+00	 5.624999999999999e+00	 1.010955683846154e+01
0	 5.749999999999997e+00	 5.749999999999997e+00	 1.010544404307692e+01
0	 5.749999999999997e+00	 5.874999999999997e+00	 1.010144128769231e+01
0	 5.749999999999998e+00	 5.999999999999997e+00	 1.009754857230769e+01
0	 5.749999999999998e+00	 6.124999999999996e+00	 1.009376589692308e+01
0	 5.749999999999998e+00	 6.250000000000000e+00	 1.009009326153846e+01
0	 5.874999999999997e+00	 5.000000000000000e+00	 1.012748539230770e+01
0	 5.874999999999997e+00	 5.124999999999999e+00	 1.012330377846153e+01
0	 5.874999999999997e+00	 5.249999999999999e+00	 1.011919409076923e+01
0	 5.874999999999997e+00	 5.375000000000000e+00	 1.011515632923077e+01
0	 5.874999999999996e+00	 5.499999999999998e+00	 1.011119049384615e+01
0	 5.874999999999997e+00	 5.624999999999998e+00	 1.010729658461538e+01
0	 5.874999999999997e+00	 5.749999999999997e+00	 1.010347460153846e+01
0	 5.874999999999996e+00	 5.874999999999996e+00	 1.009972454461539e+01
0	 5.874999999999997e+00	 5.999999999999996e+00	 1.009604641384615e+01
0	 5.874999999999997e+00	 6.124999999999996e+00	 1.009244020923077e+01
0	 5.874999999999997e+00	 6.250000000000000e+00	 1.008890593076922e+01
0	 5.999999999999996e+00	 4.999999999999999e+00	 1.012356520000000e+01
0	 5.999999999999998e+00	 5.125000000000002e+00	 1.011973907538461e+01
0	 5.999999999999996e+00	 5.249999999999999e+00	 1.011594676307693e+01
0	 5.999999999999997e+00	 5.374999999999999e+00	 1.011218826307693e+01
0	 5.999999999999997e+00	 5.499999999999998e+00	 1.010846357538461e+01
0	 5.999999999999997e+00	 5.624999999999997e+00	 1.010477270000000e+01
0	 5.999999999999996e+00	 5.749999999999997e+00	 1.010111563692308e+01
0	 5.999999999999996e+00	 5.874999999999996e+00	 1.009749238615384e+01
0	 5.999999999999996e+00	 5.999999999999996e+00	 1.009390294769231e+01
0	 5.999999999999996e+00	 6.124999999999996e+00	 1.009034732153846e+01
0	 5.999999999999996e+00	 6.250000000000000e+00	 1.008682550769230e+01
0	 6.124999999999996e+00	 5.000000000000000e+00	 1.012001083846154e+01
0	 6.124999999999996e+00	 5.125000000000000e+00	 1.011641431076923e+01
0	 6.124999999999996e+00	 5.250000000000000e+00	 1.011281348153846e+01
0	 6.124999999999996e+00	 5.374999999999999e+00	 1.010920835076923e+01
0	 6.124999999999996e+00	 5.499999999999998e+00	 1.010559891846154e+01
0	 6.124999999999996e+00	 5.624999999999998e+00	 1.010198518461538e+01
0	 6.124999999999996e+00	 5.749999999999998e+00	 1.009836714923077e+01
0	 6.124999999999996e+00	 5.874999999999996e+00	 1.009474481230768e+01
0	 6.124999999999996e+00	 5.999999999999996e+00	 1.009111817384615e+01
0	 6.124999999999996e+00	 6.124999999999996e+00	 1.008748723384615e+01
0	 6.124999999999996e+00	 6.250000000000000e+00	 1.008385199230769e+01
0	 6.250000000000000e+00	 5.000000000000000e+00	 1.011682230769231e+01
0	 6.250000000000000e+00	 5.124999999999999e+00	 1.011332948461539e+01
0	 6.250000000000001e+00	 5.250000000000000e+00	 1.010979424615384e+01
0	 6.249999999999999e+00	 5.374999999999998e+00	 1.010621659230769e+01
0	 6.250000000000000e+00	 5.499999999999999e+00	 1.010259652307692e+01
0	 6.250000000000001e+00	 5.624999999999997e+00	 1.009893403846154e+01
0	 6.250000000000001e+00	 5.749999999999997e+00	 1.009522913846153e+01
0	 6.250000000000000e+00	 5.874999999999996e+00	 1.009148182307692e+01
0	 6.250000000000000e+00	 5.999999999999996e+00	 1.008769209230769e+01
0	 6.250000000000000e+00	 6.124999999999996e+00	 1.008385994615385e+01
0	 6.250000000000000e+00	 6.250000000000000e+00	 1.007998538461538e+01
0	 5.000000000000000e+00	 6.250000000000000e+00	 1.007846230769231e+01
0	 5.000000000000000e+00	 6.375000000000000e+00	 1.007601886923076e+01
0	 5.000000000000001e+00	 6.500000000000000e+00	 1.007329624615384e+01
0	 5.000000000000000e+00	 6.624999999999998e+00	 1.007029443846154e+01
0	 5.000000000000001e+00	 6.749999999999998e+00	 1.006701344615385e+01
0	 5.000000000000000e+00	 6.874999999999998e+00	 1.006345326923077e+01
0	 5.000000000000000e+00	 6.999999999999997e+00	 1.005961390769231e+01
0	 5.000000000000000e+00	 7.124999999999996e+00	 1.005549536153846e+01
0	 5.000000000000000e+00	 7.249999999999997e+00	 1.005109763076923e+01
0	 5.000000000000000e+00	 7.374999999999996e+00	 1.004642071538461e+01
0	 5.000000000000000e+00	 7.500000000000000e+00	 1.004146461538461e+01
0	 5.124999999999999e+00	 6.249999999999999e+00	 1.008263353076922e+01
0	 5.125000000000001e+00	 6.375000000000000e+00	 1.007957486538461e+01
0	 5.125000000000000e+00	 6.500000000000000e+00	 1.007627214307693e+01
0	 5.125000000000000e+00	 6.624999999999998e+00	 1.007272536384616e+01
0	 5.124999999999999e+00	 6.749999999999998e+00	 1.006893452769231e+01
0	 5.125000000000000e+00	 6.874999999999998e+00	 1.006489963461538e+01
0	 5.125000000000000e+00	 6.999999999999999e+00	 1.006062068461538e+01
0	 5.125000000000001e+00	 7.124999999999998e+00	 1.005609767769231e+01
0	 5.125000000000001e+00	 7.249999999999999e+00	 1.005133061384615e+01
0	 5.124999999999999e+00	 7.374999999999995e+00	 1.004631949307692e+01
0	 5.124999999999999e+00	 7.500000000000000e+00	 1.004106431538462e+01
0	 5.250000000000000e+00	 6.250000000000000e+00	 1.008591166153846e+01
0	 5.249999999999998e+00	 6.375000000000000e+00	 1.008232366461539e+01
0	 5.249999999999999e+00	 6.499999999999999e+00	 1.007852673846153e+01
0	 5.249999999999999e+00	 6.624999999999999e+00	 1.007452088307692e+01
0	 5.249999999999999e+00	 6.749999999999997e+00	 1.007030609846154e+01
0	 5.249999999999999e+00	 6.874999999999997e+00	 1.006588238461539e+01
0	 5.249999999999999e+00	 6.999999999999995e+00	 1.006124974153846e+01
0	 5.250000000000001e+00	 7.124999999999997e+00	 1.005640816923076e+01
0	 5.249999999999999e+00	 7.249999999999996e+00	 1.005135766769230e+01
0	 5.250000000000000e+00	 7.374999999999998e+00	 1.004609823692309e+01
0	 5.250000000000000e+00	 7.500000000000001e+00	 1.004062987692308e+01
0	 5.374999999999998e+00	 6.250000000000000e+00	 1.008829669999999e+01
0	 5.374999999999997e+00	 6.375000000000000e+00	 1.008426526692308e+01
0	 5.375000000000000e+00	 6.500000000000000e+00	 1.008006003230770e+01
0	 5.374999999999998e+00	 6.625000000000000e+00	 1.007568099615384e+01
0	 5.374999999999999e+00	 6.749999999999997e+00	 1.007112815846154e+01
0	 5.375000000000000e+00	 6.874999999999997e+00	 1.006640151923077e+01
0	 5.374999999999999e+00	 6.999999999999996e+00	 1.006150107846154e+01
0	 5.374999999999999e+00	 7.124999999999996e+00	 1.005642683615384e+01
0	 5.374999999999999e+00	 7.249999999999996e+00	 1.005117879230770e+01
0	 5.374999999999998e+00	 7.374999999999996e+00	 1.004575694692308e+01
0	 5.374999999999998e+00	 7.500000000000001e+00	 1.004016130000000e+01
0	 5.499999999999998e+00	 6.250000000000000e+00	 1.008978864615385e+01
0	 5.499999999999999e+00	 6.375000000000000e+00	 1.008539967230770e+01
0	 5.499999999999999e+00	 6.500000000000000e+00	 1.008087202461538e+01
0	 5.499999999999998e+00	 6.624999999999999e+00	 1.007620570307692e+01
0	 5.499999999999999e+00	 6.749999999999997e+00	 1.007140070769230e+01
0	 5.499999999999998e+00	 6.874999999999998e+00	 1.006645703846154e+01
0	 5.499999999999998e+00	 6.999999999999996e+00	 1.006137469538461e+01
0	 5.499999999999998e+00	 7.124999999999996e+00	 1.005615367846153e+01
0	 5.499999999999999e+00	 7.249999999999997e+00	 1.005079398769231e+01
0	 5.499999999999997e+00	 7.374999999999996e+00	 1.004529562307692e+01
0	 5.499999999999998e+00	 7.500000000000000e+00	 1.003965858461538e+01
0	 5.624999999999998e+00	 6.250000000000000e+00	 1.009038750000000e+01
0	 5.624999999999997e+00	 6.375000000000000e+00	 1.008572688076923e+01
0	 5.624999999999997e+00	 6.499999999999999e+00	 1.008096271538462e+01
0	 5.625000000000000e+00	 6.624999999999999e+00	 1.007609500384615e+01
0	 5.624999999999997e+00	 6.749999999999996e+00	 1.007112374615385e+01
0	 5.624999999999997e+00	 6.874999999999998e+00	 1.006604894230769e+01
0	 5.624999999999999e+00	 6.999999999999998e+00	 1.006087059230769e+01
0	 5.624999999999997e+00	 7.124999999999997e+00	 1.005558869615384e+01
0	 5.624999999999997e+00	 7.249999999999996e+00	 1.005020325384615e+01
0	 5.624999999999998e+00	 7.374999999999998e+00	 1.004471426538463e+01
0	 5.624999999999998e+00	 7.500000000000001e+00	 1.003912173076923e+01
0	 5.749999999999998e+00	 6.250000000000000e+00	 1.009009326153846e+01
0	 5.749999999999998e+00	 6.375000000000001e+00	 1.008524689230770e+01
0	 5.749999999999997e+00	 6.499999999999997e+00	 1.008033210461539e+01
0	 5.749999999999998e+00	 6.624999999999998e+00	 1.007534889846154e+01
0	 5.749999999999998e+00	 6.750000000000000e+00	 1.007029727384615e+01
0	 5.749999999999998e+00	 6.874999999999999e+00	 1.006517723076923e+01
0	 5.749999999999997e+00	 6.999999999999997e+00	 1.005998876923077e+01
0	 5.749999999999997e+00	 7.124999999999998e+00	 1.005473188923076e+01
0	 5.749999999999998e+00	 7.249999999999998e+00	 1.004940659076923e+01
0	 5.749999999999998e+00	 7.374999999999996e+00	 1.004401287384616e+01
0	 5.749999999999998e+00	 7.500000000000000e+00	 1.003855073846154e+01
0	 5.874999999999997e+00	 6.250000000000000e+00	 1.008890593076922e+01
0	 5.874999999999997e+00	 6.375000000000000e+00	 1.008395970692308e+01
0	 5.874999999999997e+00	 6.500000000000000e+00	 1.007898019230769e+01
0	 5.874999999999997e+00	 6.624999999999999e+00	 1.007396738692308e+01
0	 5.874999999999996e+00	 6.749999999999998e+00	 1.006892129076923e+01
0	 5.874999999999997e+00	 6.874999999999998e+00	 1.006384190384615e+01
0	 5.874999999999997e+00	 6.999999999999998e+00	 1.005872922615384e+01
0	 5.874999999999996e+00	 7.124999999999998e+00	 1.005358325769230e+01
0	 5.874999999999997e+00	 7.249999999999996e+00	 1.004840399846154e+01
0	 5.874999999999997e+00	 7.374999999999997e+00	 1.004319144846154e+01
0	 5.874999999999997e+00	 7.500000000000000e+00	 1.003794560769231e+01
0	 5.999999999999996e+00	 6.250000000000000e+00	 1.008682550769230e+01
0	 5.999999999999998e+00	 6.375000000000002e+00	 1.008186532461538e+01
0	 5.999999999999996e+00	 6.499999999999999e+00	 1.007690697846154e+01
0	 5.999999999999997e+00	 6.624999999999999e+00	 1.007195046923077e+01
0	 5.999999999999997e+00	 6.749999999999998e+00	 1.006699579692308e+01
0	 5.999999999999997e+00	 6.874999999999998e+00	 1.006204296153846e+01
0	 5.999999999999996e+00	 6.999999999999996e+00	 1.005709196307692e+01
0	 5.999999999999996e+00	 7.124999999999996e+00	 1.005214280153846e+01
0	 5.999999999999996e+00	 7.249999999999996e+00	 1.004719547692308e+01
0	 5.999999999999996e+00	 7.374999999999996e+00	 1.004224998923077e+01
0	 5.999999999999996e+00	 7.500000000000001e+00	 1.003730633846155e+01
0	 6.124999999999996e+00	 6.250000000000000e+00	 1.008385199230769e+01
0	 6.124999999999996e+00	 6.375000000000000e+00	 1.007896374538461e+01
0	 6.124999999999996e+00	 6.500000000000000e+00	 1.007411246307691e+01
0	 6.124999999999996e+00	 6.624999999999999e+00	 1.006929814538461e+01
0	 6.124999999999996e+00	 6.749999999999998e+00	 1.006452079230769e+01
0	 6.124999999999996e+00	 6.874999999999999e+00	 1.005978040384615e+01
0	 6.124999999999996e+00	 6.999999999999996e+00	 1.005507698000000e+01
0	 6.124999999999996e+00	 7.124999999999996e+00	 1.005041052076923e+01
0	 6.124999999999996e+00	 7.249999999999996e+00	 1.004578102615384e+01
0	 6.124999999999996e+00	 7.374999999999995e+00	 1.004118849615385e+01
0	 6.124999999999996e+00	 7.500000000000000e+00	 1.003663293076923e+01
0	 6.250000000000000e+00	 6.250000000000000e+00	 1.007998538461538e+01
0	 6.250000000000000e+00	 6.375000000000000e+00	 1.007525496923075e+01
0	 6.250000000000001e+00	 6.500000000000000e+00	 1.007059664615384e+01
0	 6.249999999999999e+00	 6.624999999999998e+00	 1.006601041538462e+01
0	 6.250000000000000e+00	 6.749999999999998e+00	 1.006149627692308e+01
0	 6.250000000000001e+00	 6.874999999999998e+00	 1.005705423076923e+01
0	 6.250000000000001e+00	 6.999999999999997e+00	 1.005268427692308e+01
0	 6.250000000000000e+00	 7.124999999999996e+00	 1.004838641538462e+01
0	 6.250000000000000e+00	 7.249999999999997e+00	 1.004416064615385e+01
0	 6.250000000000000e+00	 7.374999999999996e+00	 1.004000696923076e+01
0	 6.250000000000000e+00	 7.500000000000000e+00	 1.003592538461539e+01
0	 5.000000000000000e+00	 7.500000000000000e+00	 1.004146461538461e+01
0	 5.000000000000000e+00	 7.625000000000000e+00	 1.003808556153847e+01
0	 5.000000000000001e+00	 7.750000000000000e+00	 1.003469363076923e+01
0	 5.000000000000000e+00	 7.874999999999998e+00	 1.003128882307692e+01
0	 5.000000000000001e+00	 7.999999999999999e+00	 1.002787113846154e+01
0	 5.000000000000000e+00	 8.124999999999998e+00	 1.002444057692309e+01
0	 5.000000000000000e+00	 8.249999999999998e+00	 1.002099713846154e+01
0	 5.000000000000000e+00	 8.374999999999996e+00	 1.001754082307693e+01
0	 5.000000000000000e+00	 8.499999999999996e+00	 1.001407163076923e+01
0	 5.000000000000000e+00	 8.624999999999996e+00	 1.001058956153848e+01
0	 5.000000000000000e+00	 8.750000000000000e+00	 1.000709461538462e+01
0	 5.124999999999999e+00	 7.500000000000000e+00	 1.004106431538462e+01
0	 5.125000000000001e+00	 7.625000000000000e+00	 1.003793207230769e+01
0	 5.125000000000000e+00	 7.749999999999999e+00	 1.003477031846154e+01
0	 5.125000000000000e+00	 7.874999999999999e+00	 1.003157905384615e+01
0	 5.124999999999999e+00	 7.999999999999998e+00	 1.002835827846154e+01
0	 5.125000000000000e+00	 8.124999999999998e+00	 1.002510799230769e+01
0	 5.125000000000000e+00	 8.250000000000000e+00	 1.002182819538461e+01
0	 5.125000000000001e+00	 8.375000000000000e+00	 1.001851888769231e+01
0	 5.125000000000001e+00	 8.500000000000000e+00	 1.001518006923077e+01
0	 5.124999999999999e+00	 8.624999999999995e+00	 1.001181173999999e+01
0	 5.124999999999999e+00	 8.750000000000000e+00	 1.000841390000000e+01
0	 5.250000000000000e+00	 7.500000000000001e+00	 1.004062987692308e+01
0	 5.249999999999998e+00	 7.624999999999999e+00	 1.003772245384616e+01
0	 5.249999999999999e+00	 7.750000000000000e+00	 1.003476888615385e+01
0	 5.249999999999999e+00	 7.874999999999999e+00	 1.003176917384615e+01
0	 5.249999999999999e+00	 7.999999999999998e+00	 1.002872331692308e+01
0	 5.249999999999999e+00	 8.124999999999998e+00	 1.002563131538462e+01
0	 5.249999999999999e+00	 8.249999999999995e+00	 1.002249316923078e+01
0	 5.250000000000001e+00	 8.374999999999996e+00	 1.001930887846154e+01
0	 5.249999999999999e+00	 8.499999999999996e+00	 1.001607844307692e+01
0	 5.250000000000000e+00	 8.624999999999996e+00	 1.001280186307693e+01
0	 5.250000000000000e+00	 8.750000000000000e+00	 1.000947913846152e+01
0	 5.374999999999998e+00	 7.500000000000001e+00	 1.004016130000000e+01
0	 5.374999999999997e+00	 7.624999999999999e+00	 1.003745670615384e+01
0	 5.375000000000000e+00	 7.750000000000000e+00	 1.003468933384615e+01
0	 5.374999999999998e+00	 7.875000000000000e+00	 1.003185918307693e+01
0	 5.374999999999999e+00	 7.999999999999998e+00	 1.002896625384615e+01
0	 5.375000000000000e+00	 8.125000000000000e+00	 1.002601054615384e+01
0	 5.374999999999999e+00	 8.249999999999996e+00	 1.002299206000000e+01
0	 5.374999999999999e+00	 8.374999999999998e+00	 1.001991079538462e+01
0	 5.374999999999999e+00	 8.499999999999996e+00	 1.001676675230768e+01
0	 5.374999999999998e+00	 8.624999999999995e+00	 1.001355993076924e+01
0	 5.374999999999998e+00	 8.750000000000000e+00	 1.001029033076923e+01
0	 5.499999999999998e+00	 7.500000000000000e+00	 1.003965858461538e+01
0	 5.499999999999999e+00	 7.624999999999999e+00	 1.003713482923077e+01
0	 5.499999999999999e+00	 7.749999999999999e+00	 1.003453166153846e+01
0	 5.499999999999998e+00	 7.874999999999999e+00	 1.003184908153846e+01
0	 5.499999999999999e+00	 7.999999999999998e+00	 1.002908708923077e+01
0	 5.499999999999998e+00	 8.124999999999998e+00	 1.002624568461539e+01
0	 5.499999999999998e+00	 8.249999999999996e+00	 1.002332486769231e+01
0	 5.499999999999998e+00	 8.374999999999998e+00	 1.002032463846154e+01
0	 5.499999999999999e+00	 8.499999999999996e+00	 1.001724499692307e+01
0	 5.499999999999997e+00	 8.624999999999996e+00	 1.001408594307692e+01
0	 5.499999999999998e+00	 8.750000000000000e+00	 1.001084747692309e+01
0	 5.624999999999998e+00	 7.500000000000001e+00	 1.003912173076923e+01
0	 5.624999999999997e+00	 7.625000000000000e+00	 1.003675682307692e+01
0	 5.624999999999997e+00	 7.750000000000000e+00	 1.003429586923076e+01
0	 5.625000000000000e+00	 7.874999999999998e+00	 1.003173886923078e+01
0	 5.624999999999997e+00	 7.999999999999996e+00	 1.002908582307692e+01
0	 5.624999999999997e+00	 8.124999999999998e+00	 1.002633673076923e+01
0	 5.624999999999999e+00	 8.250000000000000e+00	 1.002349159230769e+01
0	 5.624999999999997e+00	 8.374999999999996e+00	 1.002055040769231e+01
0	 5.624999999999997e+00	 8.499999999999996e+00	 1.001751317692307e+01
0	 5.624999999999998e+00	 8.624999999999996e+00	 1.001437989999999e+01
0	 5.624999999999998e+00	 8.750000000000000e+00	 1.001115057692308e+01
0	 5.749999999999998e+00	 7.500000000000000e+00	 1.003855073846154e+01
0	 5.749999999999998e+00	 7.625000000000000e+00	 1.003632268769231e+01
0	 5.749999999999997e+00	 7.749999999999997e+00	 1.003398195692307e+01
0	 5.749999999999998e+00	 7.874999999999999e+00	 1.003152854615386e+01
0	 5.749999999999998e+00	 8.000000000000000e+00	 1.002896245538462e+01
0	 5.749999999999998e+00	 8.125000000000000e+00	 1.002628368461539e+01
0	 5.749999999999997e+00	 8.249999999999998e+00	 1.002349223384615e+01
0	 5.749999999999997e+00	 8.374999999999996e+00	 1.002058810307691e+01
0	 5.749999999999998e+00	 8.499999999999998e+00	 1.001757129230770e+01
0	 5.749999999999998e+00	 8.624999999999995e+00	 1.001444180153846e+01
0	 5.749999999999998e+00	 8.750000000000000e+00	 1.001119963076922e+01
0	 5.874999999999997e+00	 7.500000000000000e+00	 1.003794560769231e+01
0	 5.874999999999997e+00	 7.625000000000000e+00	 1.003583242307692e+01
0	 5.874999999999997e+00	 7.749999999999999e+00	 1.003358992461538e+01
0	 5.874999999999997e+00	 7.874999999999998e+00	 1.003121811230769e+01
0	 5.874999999999996e+00	 7.999999999999997e+00	 1.002871698615385e+01
0	 5.874999999999997e+00	 8.125000000000000e+00	 1.002608654615386e+01
0	 5.874999999999997e+00	 8.249999999999998e+00	 1.002332679230770e+01
0	 5.874999999999996e+00	 8.374999999999998e+00	 1.002043772461539e+01
0	 5.874999999999997e+00	 8.499999999999996e+00	 1.001741934307692e+01
0	 5.874999999999997e+00	 8.624999999999996e+00	 1.001427164769231e+01
0	 5.874999999999997e+00	 8.750000000000000e+00	 1.001099463846153e+01
0	 5.999999999999996e+00	 7.500000000000001e+00	 1.003730633846155e+01
0	 5.999999999999998e+00	 7.625000000000001e+00	 1.003528602923078e+01
0	 5.999999999999996e+00	 7.749999999999999e+00	 1.003311977230769e+01
0	 5.999999999999997e+00	 7.875000000000001e+00	 1.003080756769231e+01
0	 5.999999999999997e+00	 7.999999999999998e+00	 1.002834941538462e+01
0	 5.999999999999997e+00	 8.124999999999996e+00	 1.002574531538462e+01
0	 5.999999999999996e+00	 8.249999999999998e+00	 1.002299526769231e+01
0	 5.999999999999996e+00	 8.374999999999996e+00	 1.002009927230769e+01
0	 5.999999999999996e+00	 8.499999999999996e+00	 1.001705732923078e+01
0	 5.999999999999996e+00	 8.624999999999996e+00	 1.001386943846154e+01
0	 5.999999999999996e+00	 8.750000000000000e+00	 1.001053560000000e+01
0	 6.124999999999996e+00	 7.500000000000000e+00	 1.003663293076923e+01
0	 6.124999999999996e+00	 7.624999999999999e+00	 1.003468350615385e+01
0	 6.124999999999996e+00	 7.750000000000000e+00	 1.003257150000000e+01
0	 6.124999999999996e+00	 7.874999999999998e+00	 1.003029691230769e+01
0	 6.124999999999996e+00	 7.999999999999998e+00	 1.002785974307692e+01
0	 6.124999999999996e+00	 8.124999999999996e+00	 1.002525999230769e+01
0	 6.124999999999996e+00	 8.249999999999996e+00	 1.002249766000000e+01
0	 6.124999999999996e+00	 8.374999999999996e+00	 1.001957274615385e+01
0	 6.124999999999996e+00	 8.499999999999996e+00	 1.001648525076922e+01
0	 6.124999999999996e+00	 8.624999999999996e+00	 1.001323517384616e+01
0	 6.124999999999996e+00	 8.750000000000000e+00	 1.000982251538462e+01
0	 6.250000000000000e+00	 7.500000000000000e+00	 1.003592538461539e+01
0	 6.250000000000000e+00	 7.625000000000000e+00	 1.003402485384616e+01
0	 6.250000000000001e+00	 7.750000000000000e+00	 1.003194510769231e+01
0	 6.249999999999999e+00	 7.874999999999998e+00	 1.002968614615384e+01
0	 6.250000000000000e+00	 7.999999999999999e+00	 1.002724796923077e+01
0	 6.250000000000001e+00	 8.124999999999998e+00	 1.002463057692308e+01
0	 6.250000000000001e+00	 8.249999999999998e+00	 1.002183396923077e+01
0	 6.250000000000000e+00	 8.374999999999996e+00	 1.001885814615386e+01
0	 6.250000000000000e+00	 8.499999999999996e+00	 1.001570310769230e+01
0	 6.250000000000000e+00	 8.624999999999996e+00	 1.001236885384617e+01
0	 6.250000000000000e+00	 8.750000000000000e+00	 1.000885538461539e+01
0	 5.000000000000000e+00	 8.750000000000000e+00	 1.000709461538462e+01
0	 5.000000000000000e+00	 8.874999999999998e+00	 1.000735640000000e+01
0	 5.000000000000000e+00	 9.000000000000000e+00	 1.000726898461538e+01
0	 4.999999999999999e+00	 9.124999999999998e+00	 1.000683236923076e+01
0	 5.000000000000000e+00	 9.250000000000000e+00	 1.000604655384616e+01
0	 5.000000000000000e+00	 9.374999999999996e+00	 1.000491153846153e+01
0	 5.000000000000000e+00	 9.499999999999996e+00	 1.000342732307692e+01
0	 5.000000000000000e+00	 9.624999999999996e+00	 1.000159390769231e+01
0	 5.000000000000001e+00	 9.749999999999998e+00	 9.999411292307704e+00
0	 5.000000000000000e+00	 9.874999999999996e+00	 9.996879476923079e+00
0	 5.000000000000000e+00	 1.000000000000000e+01	 9.993998461538460e+00
0	 5.124999999999999e+00	 8.750000000000000e+00	 1.000841390000000e+01
0	 5.125000000000001e+00	 8.875000000000002e+00	 1.000851401769231e+01
0	 5.124999999999999e+00	 8.999999999999998e+00	 1.000827897538461e+01
0	 5.124999999999998e+00	 9.124999999999998e+00	 1.000770877307692e+01
0	 5.125000000000000e+00	 9.249999999999998e+00	 1.000680341076924e+01
0	 5.125000000000000e+00	 9.375000000000000e+00	 1.000556288846154e+01
0	 5.125000000000000e+00	 9.499999999999998e+00	 1.000398720615384e+01
0	 5.125000000000000e+00	 9.624999999999996e+00	 1.000207636384614e+01
0	 5.124999999999998e+00	 9.749999999999996e+00	 9.999830361538478e+00
0	 5.125000000000000e+00	 9.874999999999996e+00	 9.997249199230742e+00
0	 5.125000000000000e+00	 1.000000000000000e+01	 9.994332876923052e+00
0	 5.250000000000000e+00	 8.750000000000000e+00	 1.000947913846152e+01
0	 5.249999999999998e+00	 8.874999999999998e+00	 1.000943655384616e+01
0	 5.249999999999998e+00	 8.999999999999998e+00	 1.000907284923076e+01
0	 5.249999999999999e+00	 9.124999999999998e+00	 1.000838802461538e+01
0	 5.249999999999999e+00	 9.250000000000000e+00	 1.000738208000000e+01
0	 5.250000000000000e+00	 9.375000000000000e+00	 1.000605501538461e+01
0	 5.249999999999999e+00	 9.499999999999998e+00	 1.000440683076923e+01
0	 5.250000000000000e+00	 9.625000000000000e+00	 1.000243752615384e+01
0	 5.250000000000000e+00	 9.749999999999998e+00	 1.000014710153846e+01
0	 5.249999999999999e+00	 9.874999999999998e+00	 9.997535556923079e+00
0	 5.249999999999999e+00	 1.000000000000000e+01	 9.994602892307695e+00
0	 5.374999999999998e+00	 8.750000000000000e+00	 1.001029033076923e+01
0	 5.374999999999998e+00	 8.874999999999998e+00	 1.001012400846154e+01
0	 5.374999999999998e+00	 8.999999999999996e+00	 1.000965060615384e+01
0	 5.375000000000000e+00	 9.124999999999998e+00	 1.000887012384616e+01
0	 5.374999999999998e+00	 9.249999999999998e+00	 1.000778256153846e+01
0	 5.374999999999999e+00	 9.374999999999996e+00	 1.000638791923077e+01
0	 5.374999999999998e+00	 9.499999999999995e+00	 1.000468619692309e+01
0	 5.374999999999999e+00	 9.624999999999996e+00	 1.000267739461536e+01
0	 5.374999999999999e+00	 9.749999999999998e+00	 1.000036151230766e+01
0	 5.374999999999998e+00	 9.874999999999995e+00	 9.997738550000010e+00
0	 5.374999999999998e+00	 1.000000000000000e+01	 9.994808507692312e+00
0	 5.499999999999998e+00	 8.750000000000000e+00	 1.001084747692309e+01
0	 5.499999999999999e+00	 8.874999999999998e+00	 1.001057638153846e+01
0	 5.500000000000000e+00	 9.000000000000002e+00	 1.001001224615384e+01
0	 5.499999999999998e+00	 9.124999999999998e+00	 1.000915507076923e+01
0	 5.499999999999999e+00	 9.249999999999998e+00	 1.000800485538462e+01
0	 5.499999999999999e+00	 9.374999999999998e+00	 1.000656160000000e+01
0	 5.499999999999999e+00	 9.499999999999998e+00	 1.000482530461539e+01
0	 5.499999999999999e+00	 9.624999999999996e+00	 1.000279596923076e+01
0	 5.499999999999999e+00	 9.749999999999996e+00	 1.000047359384615e+01
0	 5.499999999999998e+00	 9.874999999999996e+00	 9.997858178461556e+00
0	 5.499999999999999e+00	 1.000000000000000e+01	 9.994949723076935e+00
0	 5.624999999999998e+00	 8.750000000000000e+00	 1.001115057692308e+01
0	 5.624999999999999e+00	 8.874999999999998e+00	 1.001079367307692e+01
0	 5.624999999999997e+00	 8.999999999999998e+00	 1.001015776923077e+01
0	 5.624999999999998e+00	 9.125000000000002e+00	 1.000924286538462e+01
0	 5.624999999999998e+00	 9.249999999999996e+00	 1.000804896153845e+01
0	 5.624999999999997e+00	 9.375000000000000e+00	 1.000657605769231e+01
0	 5.624999999999998e+00	 9.499999999999998e+00	 1.000482415384615e+01
0	 5.624999999999997e+00	 9.624999999999998e+00	 1.000279324999998e+01
0	 5.624999999999997e+00	 9.749999999999996e+00	 1.000048334615384e+01
0	 5.624999999999998e+00	 9.874999999999996e+00	 9.997894442307690e+00
0	 5.624999999999997e+00	 1.000000000000000e+01	 9.995026538461540e+00
0	 5.749999999999998e+00	 8.750000000000000e+00	 1.001119963076922e+01
0	 5.749999999999997e+00	 8.874999999999998e+00	 1.001077588307692e+01
0	 5.749999999999998e+00	 9.000000000000000e+00	 1.001008717538462e+01
0	 5.749999999999997e+00	 9.125000000000000e+00	 1.000913350769229e+01
0	 5.749999999999998e+00	 9.250000000000000e+00	 1.000791488000000e+01
0	 5.749999999999997e+00	 9.374999999999998e+00	 1.000643129230771e+01
0	 5.749999999999998e+00	 9.499999999999998e+00	 1.000468274461537e+01
0	 5.749999999999996e+00	 9.624999999999995e+00	 1.000266923692306e+01
0	 5.749999999999998e+00	 9.749999999999995e+00	 1.000039076923074e+01
0	 5.749999999999997e+00	 9.874999999999998e+00	 9.997847341538446e+00
0	 5.749999999999997e+00	 9.999999999999998e+00	 9.995038953846146e+00
0	 5.874999999999997e+00	 8.750000000000000e+00	 1.001099463846153e+01
0	 5.874999999999996e+00	 8.875000000000000e+00	 1.001052301153847e+01
0	 5.874999999999997e+00	 9.000000000000000e+00	 1.000980046461538e+01
0	 5.874999999999997e+00	 9.125000000000000e+00	 1.000882699769230e+01
0	 5.874999999999997e+00	 9.249999999999998e+00	 1.000760261076924e+01
0	 5.874999999999996e+00	 9.374999999999998e+00	 1.000612730384616e+01
0	 5.874999999999998e+00	 9.500000000000000e+00	 1.000440107692308e+01
0	 5.874999999999998e+00	 9.624999999999996e+00	 1.000242393000001e+01
0	 5.874999999999996e+00	 9.749999999999996e+00	 1.000019586307692e+01
0	 5.874999999999996e+00	 9.874999999999996e+00	 9.997716876153836e+00
0	 5.874999999999997e+00	 1.000000000000000e+01	 9.994986969230782e+00
0	 5.999999999999996e+00	 8.750000000000000e+00	 1.001053560000000e+01
0	 5.999999999999996e+00	 8.875000000000004e+00	 1.001003505846154e+01
0	 5.999999999999996e+00	 8.999999999999998e+00	 1.000929763692308e+01
0	 5.999999999999996e+00	 9.125000000000000e+00	 1.000832333538462e+01
0	 5.999999999999996e+00	 9.249999999999998e+00	 1.000711215384614e+01
0	 5.999999999999996e+00	 9.374999999999998e+00	 1.000566409230770e+01
0	 5.999999999999996e+00	 9.499999999999998e+00	 1.000397915076922e+01
0	 5.999999999999996e+00	 9.624999999999996e+00	 1.000205732923074e+01
0	 5.999999999999996e+00	 9.749999999999996e+00	 9.999898627692286e+00
0	 5.999999999999996e+00	 9.874999999999996e+00	 9.997503046153820e+00
0	 5.999999999999996e+00	 1.000000000000000e+01	 9.994870584615370e+00
0	 6.124999999999996e+00	 8.750000000000000e+00	 1.000982251538462e+01
0	 6.124999999999996e+00	 8.875000000000000e+00	 1.000931202384615e+01
0	 6.124999999999995e+00	 8.999999999999998e+00	 1.000857869230769e+01
0	 6.124999999999998e+00	 9.125000000000000e+00	 1.000762252076924e+01
0	 6.124999999999996e+00	 9.249999999999998e+00	 1.000644350923077e+01
0	 6.124999999999996e+00	 9.374999999999996e+00	 1.000504165769229e+01
0	 6.124999999999996e+00	 9.499999999999996e+00	 1.000341696615384e+01
0	 6.124999999999996e+00	 9.624999999999998e+00	 1.000156943461537e+01
0	 6.124999999999996e+00	 9.749999999999996e+00	 9.999499063076900e+00
0	 6.124999999999996e+00	 9.874999999999996e+00	 9.997205851538467e+00
0	 6.124999999999996e+00	 1.000000000000000e+01	 9.994689800000003e+00
0	 6.250000000000000e+00	 8.750000000000000e+00	 1.000885538461539e+01
0	 6.249999999999999e+00	 8.874999999999998e+00	 1.000835390769231e+01
0	 6.250000000000000e+00	 9.000000000000000e+00	 1.000764363076923e+01
0	 6.249999999999999e+00	 9.124999999999998e+00	 1.000672455384615e+01
0	 6.250000000000001e+00	 9.250000000000000e+00	 1.000559667692308e+01
0	 6.250000000000000e+00	 9.374999999999996e+00	 1.000426000000000e+01
0	 6.250000000000000e+00	 9.499999999999996e+00	 1.000271452307692e+01
0	 6.250000000000000e+00	 9.624999999999996e+00	 1.000096024615383e+01
0	 6.250000000000001e+00	 9.749999999999998e+00	 9.998997169230762e+00
0	 6.250000000000000e+00	 9.874999999999996e+00	 9.996825292307683e+00
0	 6.250000000000000e+00	 1.000000000000000e+01	 9.994444615384607e+00
0	 6.250000000000000e+00	 0.000000000000000e+00	 1.009669938461538e+01
0	 6.250000000000001e+00	 1.250000000000000e-01	 1.010089473846154e+01
0	 6.249999999999999e+00	 2.500000000000000e-01	 1.010527138461538e+01
0	 6.249999999999999e+00	 3.750000000000001e-01	 1.010982932307692e+01
0	 6.250000000000002e+00	 5.000000000000000e-01	 1.011456855384615e+01
0	 6.250000000000000e+00	 6.250000000000000e-01	 1.011948907692307e+01
0	 6.250000000000000e+00	 7.500000000000000e-01	 1.012459089230769e+01
0	 6.250000000000000e+00	 8.749999999999999e-01	 1.012987400000000e+01
0	 6.250000000000000e+00	 1.000000000000000e+00	 1.013533840000000e+01
0	 6.250000000000000e+00	 1.125000000000000e+00	 1.014098409230769e+01
0	 6.250000000000000e+00	 1.250000000000000e+00	 1.014681107692308e+01
0	 6.374999999999999e+00	 0.000000000000000e+00	 1.009708561076923e+01
0	 6.374999999999997e+00	 1.250000000000000e-01	 1.010000967300000e+01
0	 6.374999999999999e+00	 2.499999999999999e-01	 1.010304379830768e+01
0	 6.375000000000000e+00	 3.750000000000001e-01	 1.010618798669231e+01
0	 6.374999999999999e+00	 5.000000000000000e-01	 1.010944223815384e+01
0	 6.375000000000000e+00	 6.250000000000001e-01	 1.011280655269231e+01
0	 6.375000000000000e+00	 7.499999999999999e-01	 1.011628093030769e+01
0	 6.375000000000000e+00	 8.749999999999999e-01	 1.011986537100000e+01
0	 6.375000000000000e+00	 1.000000000000000e+00	 1.012355987476923e+01
0	 6.375000000000000e+00	 1.125000000000000e+00	 1.012736444161538e+01
0	 6.375000000000000e+00	 1.250000000000000e+00	 1.013127907153846e+01
0	 6.499999999999999e+00	 0.000000000000000e+00	 1.009587973538462e+01
0	 6.500000000000000e+00	 1.250000000000000e-01	 1.009780171200000e+01
0	 6.500000000000000e+00	 2.500000000000000e-01	 1.009976252246153e+01
0	 6.499999999999999e+00	 3.750000000000001e-01	 1.010176216676923e+01
0	 6.499999999999999e+00	 5.000000000000001e-01	 1.010380064492307e+01
0	 6.499999999999999e+00	 6.250000000000000e-01	 1.010587795692308e+01
0	 6.499999999999999e+00	 7.499999999999999e-01	 1.010799410276923e+01
0	 6.499999999999999e+00	 8.750000000000000e-01	 1.011014908246154e+01
0	 6.500000000000000e+00	 9.999999999999999e-01	 1.011234289600000e+01
0	 6.500000000000000e+00	 1.125000000000000e+00	 1.011457554338462e+01
0	 6.500000000000000e+00	 1.250000000000000e+00	 1.011684702461539e+01
0	 6.624999999999998e+00	 0.000000000000000e+00	 1.009308175846154e+01
0	 6.624999999999999e+00	 1.250000000000000e-01	 1.009427085546154e+01
0	 6.624999999999998e+00	 2.500000000000000e-01	 1.009542755707692e+01
0	 6.624999999999999e+00	 3.750000000000001e-01	 1.009655186330769e+01
0	 6.625000000000001e+00	 5.000000000000001e-01	 1.009764377415385e+01
0	 6.624999999999997e+00	 6.250000000000000e-01	 1.009870328961538e+01
0	 6.624999999999998e+00	 7.499999999999999e-01	 1.009973040969231e+01
0	 6.624999999999998e+00	 8.749999999999999e-01	 1.010072513438461e+01
0	 6.624999999999996e+00	 9.999999999999998e-01	 1.010168746369231e+01
0	 6.624999999999999e+00	 1.125000000000000e+00	 1.010261739761538e+01
0	 6.624999999999999e+00	 1.250000000000000e+00	 1.010351493615384e+01
0	 6.749999999999998e+00	 0.000000000000000e+00	 1.008869168000000e+01
0	 6.749999999999997e+00	 1.250000000000000e-01	 1.008941710338462e+01
0	 6.749999999999997e+00	 2.499999999999999e-01	 1.009003890215385e+01
0	 6.749999999999997e+00	 3.750000000000000e-01	 1.009055707630769e+01
0	 6.749999999999997e+00	 5.000000000000000e-01	 1.009097162584615e+01
0	 6.749999999999999e+00	 6.250000000000000e-01	 1.009128255076923e+01
0	 6.749999999999998e+00	 7.500000000000000e-01	 1.009148985107692e+01
0	 6.750000000000000e+00	 8.750000000000000e-01	 1.009159352676923e+01
0	 6.749999999999997e+00	 9.999999999999998e-01	 1.009159357784615e+01
0	 6.749999999999999e+00	 1.125000000000000e+00	 1.009149000430769e+01
0	 6.749999999999998e+00	 1.250000000000000e+00	 1.009128280615384e+01
0	 6.874999999999998e+00	 0.000000000000000e+00	 1.008270950000000e+01
0	 6.874999999999996e+00	 1.250000000000000e-01	 1.008324045576923e+01
0	 6.875000000000000e+00	 2.500000000000001e-01	 1.008359655769230e+01
0	 6.874999999999996e+00	 3.750000000000000e-01	 1.008377780576923e+01
0	 6.874999999999996e+00	 4.999999999999999e-01	 1.008378420000000e+01
0	 6.874999999999998e+00	 6.250000000000000e-01	 1.008361574038461e+01
0	 6.874999999999998e+00	 7.500000000000000e-01	 1.008327242692308e+01
0	 6.874999999999997e+00	 8.750000000000000e-01	 1.008275425961538e+01
0	 6.874999999999996e+00	 9.999999999999998e-01	 1.008206123846153e+01
0	 6.874999999999999e+00	 1.125000000000000e+00	 1.008119336346153e+01
0	 6.874999999999998e+00	 1.250000000000000e+00	 1.008015063461538e+01
0	 6.999999999999997e+00	 0.000000000000000e+00	 1.007513521846154e+01
0	 6.999999999999997e+00	 1.250000000000000e-01	 1.007574091261538e+01
0	 6.999999999999998e+00	 2.500000000000000e-01	 1.007610052369231e+01
0	 6.999999999999998e+00	 3.750000000000001e-01	 1.007621405169230e+01
0	 6.999999999999997e+00	 5.000000000000001e-01	 1.007608149661538e+01
0	 6.999999999999999e+00	 6.250000000000002e-01	 1.007570285846154e+01
0	 6.999999999999996e+00	 7.499999999999999e-01	 1.007507813723077e+01
0	 6.999999999999999e+00	 8.750000000000000e-01	 1.007420733292307e+01
0	 6.999999999999996e+00	 9.999999999999997e-01	 1.007309044553846e+01
0	 6.999999999999997e+00	 1.125000000000000e+00	 1.007172747507692e+01
0	 6.999999999999997e+00	 1.250000000000000e+00	 1.007011842153846e+01
0	 7.124999999999997e+00	 0.000000000000000e+00	 1.006596883538461e+01
0	 7.124999999999998e+00	 1.250000000000000e-01	 1.006691847392308e+01
0	 7.124999999999996e+00	 2.500000000000001e-01	 1.006755080015385e+01
0	 7.124999999999997e+00	 3.750000000000000e-01	 1.006786581407692e+01
0	 7.124999999999996e+00	 5.000000000000000e-01	 1.006786351569230e+01
0	 7.124999999999998e+00	 6.250000000000001e-01	 1.006754390500000e+01
0	 7.124999999999997e+00	 7.500000000000000e-01	 1.006690698200000e+01
0	 7.124999999999997e+00	 8.750000000000000e-01	 1.006595274669231e+01
0	 7.124999999999996e+00	 9.999999999999999e-01	 1.006468119907692e+01
0	 7.124999999999999e+00	 1.125000000000000e+00	 1.006309233915384e+01
0	 7.124999999999996e+00	 1.250000000000000e+00	 1.006118616692308e+01
0	 7.249999999999996e+00	 0.000000000000000e+00	 1.005521035076923e+01
0	 7.249999999999996e+00	 1.250000000000000e-01	 1.005677313969231e+01
0	 7.249999999999997e+00	 2.500000000000001e-01	 1.005794738707692e+01
0	 7.249999999999999e+00	 3.750000000000001e-01	 1.005873309292307e+01
0	 7.249999999999994e+00	 5.000000000000000e-01	 1.005913025723077e+01
0	 7.249999999999994e+00	 6.249999999999999e-01	 1.005913888000000e+01
0	 7.249999999999996e+00	 7.499999999999999e-01	 1.005875896123077e+01
0	 7.249999999999996e+00	 8.750000000000000e-01	 1.005799050092307e+01
0	 7.249999999999996e+00	 9.999999999999999e-01	 1.005683349907692e+01
0	 7.249999999999996e+00	 1.125000000000000e+00	 1.005528795569230e+01
0	 7.249999999999997e+00	 1.250000000000000e+00	 1.005335387076923e+01
0	 7.374999999999996e+00	 0.000000000000000e+00	 1.004285976461539e+01
0	 7.374999999999996e+00	 1.250000000000000e-01	 1.004530490992307e+01
0	 7.374999999999996e+00	 2.500000000000000e-01	 1.004729028446153e+01
0	 7.374999999999996e+00	 3.750000000000001e-01	 1.004881588823077e+01
0	 7.374999999999995e+00	 4.999999999999999e-01	 1.004988172123077e+01
0	 7.374999999999996e+00	 6.250000000000000e-01	 1.005048778346154e+01
0	 7.374999999999996e+00	 7.500000000000000e-01	 1.005063407492308e+01
0	 7.374999999999996e+00	 8.750000000000000e-01	 1.005032059561538e+01
0	 7.374999999999995e+00	 9.999999999999998e-01	 1.004954734553846e+01
0	 7.374999999999996e+00	 1.125000000000000e+00	 1.004831432469231e+01
0	 7.374999999999996e+00	 1.250000000000000e+00	 1.004662153307692e+01
0	 7.500000000000000e+00	 0.000000000000000e+00	 1.002891707692308e+01
0	 7.500000000000001e+00	 1.250000000000000e-01	 1.003251378461538e+01
0	 7.500000000000000e+00	 2.500000000000000e-01	 1.003557949230769e+01
0	 7.499999999999999e+00	 3.750000000000001e-01	 1.003811420000000e+01
0	 7.500000000000001e+00	 5.000000000000000e-01	 1.004011790769231e+01
0	 7.500000000000000e+00	 6.250000000000000e-01	 1.004159061538461e+01
0	 7.500000000000000e+00	 7.500000000000000e-01	 1.004253232307692e+01
0	 7.500000000000000e+00	 8.749999999999999e-01	 1.004294303076923e+01
0	 7.500000000000001e+00	 1.000000000000000e+00	 1.004282273846154e+01
0	 7.500000000000000e+00	 1.125000000000000e+00	 1.004217144615385e+01
0	 7.500000000000000e+00	 1.250000000000000e+00	 1.004098915384615e+01
0	 6.250000000000000e+00	 1.250000000000000e+00	 1.014681107692308e+01
0	 6.250000000000001e+00	 1.375000000000000e+00	 1.014602589230769e+01
0	 6.250000000000001e+00	 1.500000000000000e+00	 1.014555916923077e+01
0	 6.250000000000001e+00	 1.625000000000000e+00	 1.014541090769231e+01
0	 6.250000000000000e+00	 1.750000000000000e+00	 1.014558110769230e+01
0	 6.250000000000000e+00	 1.875000000000000e+00	 1.014606976923077e+01
0	 6.250000000000001e+00	 2.000000000000000e+00	 1.014687689230769e+01
0	 6.250000000000000e+00	 2.125000000000001e+00	 1.014800247692308e+01
0	 6.250000000000001e+00	 2.250000000000001e+00	 1.014944652307692e+01
0	 6.250000000000000e+00	 2.375000000000001e+00	 1.015120903076923e+01
0	 6.250000000000000e+00	 2.500000000000000e+00	 1.015329000000000e+01
0	 6.375000000000000e+00	 1.250000000000000e+00	 1.013127907153846e+01
0	 6.374999999999999e+00	 1.375000000000000e+00	 1.013149480130769e+01
0	 6.375000000000000e+00	 1.500000000000000e+00	 1.013198993723077e+01
0	 6.375000000000000e+00	 1.625000000000000e+00	 1.013276447930770e+01
0	 6.375000000000002e+00	 1.750000000000001e+00	 1.013381842753846e+01
0	 6.374999999999999e+00	 1.875000000000001e+00	 1.013515178192308e+01
0	 6.374999999999999e+00	 2.000000000000001e+00	 1.013676454246154e+01
0	 6.375000000000001e+00	 2.125000000000001e+00	 1.013865670915385e+01
0	 6.375000000000000e+00	 2.250000000000000e+00	 1.014082828200000e+01
0	 6.374999999999997e+00	 2.375000000000000e+00	 1.014327926100000e+01
0	 6.375000000000000e+00	 2.500000000000000e+00	 1.014600964615385e+01
0	 6.500000000000000e+00	 1.250000000000000e+00	 1.011684702461539e+01
0	 6.500000000000001e+00	 1.375000000000000e+00	 1.011793355600000e+01
0	 6.500000000000001e+00	 1.500000000000000e+00	 1.011926043815385e+01
0	 6.500000000000001e+00	 1.625000000000000e+00	 1.012082767107692e+01
0	 6.500000000000000e+00	 1.750000000000001e+00	 1.012263525476923e+01
0	 6.500000000000001e+00	 1.875000000000001e+00	 1.012468318923077e+01
0	 6.500000000000001e+00	 2.000000000000001e+00	 1.012697147446154e+01
0	 6.500000000000000e+00	 2.125000000000000e+00	 1.012950011046154e+01
0	 6.499999999999998e+00	 2.250000000000000e+00	 1.013226909723077e+01
0	 6.500000000000000e+00	 2.375000000000001e+00	 1.013527843476923e+01
0	 6.500000000000000e+00	 2.500000000000000e+00	 1.013852812307693e+01
0	 6.624999999999999e+00	 1.250000000000000e+00	 1.010351493615384e+01
0	 6.624999999999998e+00	 1.375000000000000e+00	 1.010534215638461e+01
0	 6.624999999999999e+00	 1.500000000000000e+00	 1.010737067199999e+01
0	 6.624999999999998e+00	 1.625000000000000e+00	 1.010960048300000e+01
0	 6.624999999999999e+00	 1.750000000000000e+00	 1.011203158938461e+01
0	 6.624999999999998e+00	 1.875000000000000e+00	 1.011466399115385e+01
0	 6.624999999999997e+00	 2.000000000000000e+00	 1.011749768830770e+01
0	 6.624999999999998e+00	 2.125000000000000e+00	 1.012053268084615e+01
0	 6.624999999999998e+00	 2.250000000000001e+00	 1.012376896876923e+01
0	 6.625000000000000e+00	 2.375000000000001e+00	 1.012720655207692e+01
0	 6.624999999999999e+00	 2.500000000000000e+00	 1.013084543076923e+01
0	 6.749999999999998e+00	 1.250000000000000e+00	 1.009128280615384e+01
0	 6.749999999999998e+00	 1.375000000000000e+00	 1.009372060246154e+01
0	 6.749999999999997e+00	 1.500000000000000e+00	 1.009632063876923e+01
0	 6.749999999999998e+00	 1.625000000000000e+00	 1.009908291507692e+01
0	 6.749999999999998e+00	 1.750000000000001e+00	 1.010200743138462e+01
0	 6.749999999999996e+00	 1.875000000000000e+00	 1.010509418769231e+01
0	 6.749999999999998e+00	 2.000000000000001e+00	 1.010834318400000e+01
0	 6.749999999999998e+00	 2.125000000000001e+00	 1.011175442030770e+01
0	 6.749999999999999e+00	 2.250000000000001e+00	 1.011532789661539e+01
0	 6.749999999999998e+00	 2.375000000000001e+00	 1.011906361292308e+01
0	 6.749999999999998e+00	 2.500000000000000e+00	 1.012296156923077e+01
0	 6.874999999999998e+00	 1.250000000000000e+00	 1.008015063461538e+01
0	 6.874999999999996e+00	 1.375000000000000e+00	 1.008306889423076e+01
0	 6.874999999999998e+00	 1.500000000000000e+00	 1.008611033846153e+01
0	 6.874999999999999e+00	 1.625000000000000e+00	 1.008927496730769e+01
0	 6.874999999999997e+00	 1.750000000000001e+00	 1.009256278076922e+01
0	 6.874999999999997e+00	 1.875000000000000e+00	 1.009597377884615e+01
0	 6.874999999999996e+00	 2.000000000000001e+00	 1.009950796153846e+01
0	 6.874999999999997e+00	 2.125000000000001e+00	 1.010316532884615e+01
0	 6.874999999999997e+00	 2.250000000000001e+00	 1.010694588076923e+01
0	 6.874999999999998e+00	 2.375000000000001e+00	 1.011084961730769e+01
0	 6.874999999999998e+00	 2.500000000000000e+00	 1.011487653846154e+01
0	 6.999999999999997e+00	 1.250000000000000e+00	 1.007011842153846e+01
0	 6.999999999999996e+00	 1.375000000000000e+00	 1.007338703169230e+01
0	 6.999999999999998e+00	 1.500000000000001e+00	 1.007673977107692e+01
0	 6.999999999999996e+00	 1.625000000000000e+00	 1.008017663969230e+01
0	 6.999999999999995e+00	 1.750000000000000e+00	 1.008369763753846e+01
0	 6.999999999999996e+00	 1.875000000000001e+00	 1.008730276461539e+01
0	 6.999999999999996e+00	 2.000000000000000e+00	 1.009099202092307e+01
0	 6.999999999999996e+00	 2.125000000000001e+00	 1.009476540646154e+01
0	 6.999999999999996e+00	 2.250000000000001e+00	 1.009862292123077e+01
0	 6.999999999999996e+00	 2.375000000000001e+00	 1.010256456523077e+01
0	 6.999999999999997e+00	 2.500000000000000e+00	 1.010659033846154e+01
0	 7.124999999999996e+00	 1.250000000000000e+00	 1.006118616692308e+01
0	 7.124999999999997e+00	 1.375000000000000e+00	 1.006467501484616e+01
0	 7.124999999999999e+00	 1.500000000000000e+00	 1.006820893661538e+01
0	 7.124999999999996e+00	 1.625000000000000e+00	 1.007178793223077e+01
0	 7.124999999999998e+00	 1.750000000000000e+00	 1.007541200169230e+01
0	 7.124999999999997e+00	 1.875000000000001e+00	 1.007908114500000e+01
0	 7.124999999999997e+00	 2.000000000000001e+00	 1.008279536215384e+01
0	 7.124999999999998e+00	 2.125000000000001e+00	 1.008655465315385e+01
0	 7.124999999999996e+00	 2.250000000000001e+00	 1.009035901800000e+01
0	 7.124999999999997e+00	 2.375000000000001e+00	 1.009420845669231e+01
0	 7.124999999999996e+00	 2.500000000000000e+00	 1.009810296923077e+01
0	 7.249999999999997e+00	 1.250000000000000e+00	 1.005335387076923e+01
0	 7.249999999999996e+00	 1.375000000000000e+00	 1.005693284369230e+01
0	 7.249999999999995e+00	 1.500000000000000e+00	 1.006051783507692e+01
0	 7.249999999999995e+00	 1.625000000000000e+00	 1.006410884492308e+01
0	 7.249999999999997e+00	 1.750000000000001e+00	 1.006770587323077e+01
0	 7.249999999999996e+00	 1.875000000000000e+00	 1.007130892000000e+01
0	 7.249999999999999e+00	 2.000000000000001e+00	 1.007491798523077e+01
0	 7.249999999999996e+00	 2.125000000000000e+00	 1.007853306892308e+01
0	 7.249999999999996e+00	 2.250000000000001e+00	 1.008215417107693e+01
0	 7.249999999999996e+00	 2.375000000000001e+00	 1.008578129169231e+01
0	 7.249999999999997e+00	 2.500000000000000e+00	 1.008941443076923e+01
0	 7.374999999999996e+00	 1.250000000000000e+00	 1.004662153307692e+01
0	 7.374999999999997e+00	 1.375000000000000e+00	 1.005016051823076e+01
0	 7.374999999999996e+00	 1.500000000000000e+00	 1.005366646646154e+01
0	 7.374999999999996e+00	 1.625000000000000e+00	 1.005713937776923e+01
0	 7.374999999999996e+00	 1.750000000000000e+00	 1.006057925215385e+01
0	 7.374999999999996e+00	 1.875000000000000e+00	 1.006398608961539e+01
0	 7.374999999999996e+00	 2.000000000000001e+00	 1.006735989015384e+01
0	 7.374999999999996e+00	 2.125000000000000e+00	 1.007070065376923e+01
0	 7.374999999999996e+00	 2.250000000000001e+00	 1.007400838046154e+01
0	 7.374999999999996e+00	 2.375000000000001e+00	 1.007728307023077e+01
0	 7.374999999999996e+00	 2.500000000000000e+00	 1.008052472307693e+01
0	 7.500000000000000e+00	 1.250000000000000e+00	 1.004098915384615e+01
0	 7.500000000000000e+00	 1.375000000000000e+00	 1.004435803846154e+01
0	 7.500000000000000e+00	 1.500000000000000e+00	 1.004765483076923e+01
0	 7.500000000000001e+00	 1.625000000000000e+00	 1.005087953076923e+01
0	 7.500000000000000e+00	 1.750000000000000e+00	 1.005403213846154e+01
0	 7.500000000000000e+00	 1.875000000000000e+00	 1.005711265384615e+01
0	 7.500000000000000e+00	 2.000000000000000e+00	 1.006012107692308e+01
0	 7.499999999999999e+00	 2.125000000000001e+00	 1.006305740769232e+01
0	 7.500000000000001e+00	 2.250000000000001e+00	 1.006592164615385e+01
0	 7.500000000000000e+00	 2.375000000000001e+00	 1.006871379230770e+01
0	 7.500000000000000e+00	 2.500000000000000e+00	 1.007143384615385e+01
0	 6.250000000000000e+00	 2.500000000000000e+00	 1.015329000000000e+01
0	 6.250000000000001e+00	 2.625000000000000e+00	 1.015448950769230e+01
0	 6.250000000000001e+00	 2.750000000000000e+00	 1.015572787692308e+01
0	 6.250000000000001e+00	 2.875000000000001e+00	 1.015700510769231e+01
0	 6.250000000000000e+00	 3.000000000000000e+00	 1.015832120000000e+01
0	 6.250000000000000e+00	 3.125000000000000e+00	 1.015967615384615e+01
0	 6.250000000000001e+00	 3.250000000000000e+00	 1.016106996923077e+01
0	 6.250000000000000e+00	 3.375000000000001e+00	 1.016250264615384e+01
0	 6.250000000000001e+00	 3.500000000000001e+00	 1.016397418461538e+01
0	 6.250000000000000e+00	 3.625000000000001e+00	 1.016548458461538e+01
0	 6.250000000000000e+00	 3.750000000000000e+00	 1.016703384615384e+01
0	 6.375000000000000e+00	 2.500000000000000e+00	 1.014600964615385e+01
0	 6.374999999999999e+00	 2.625000000000000e+00	 1.014657328692308e+01
0	 6.375000000000000e+00	 2.750000000000000e+00	 1.014719612461538e+01
0	 6.375000000000000e+00	 2.875000000000000e+00	 1.014787815923077e+01
0	 6.375000000000002e+00	 3.000000000000001e+00	 1.014861939076923e+01
0	 6.374999999999999e+00	 3.125000000000001e+00	 1.014941981923077e+01
0	 6.374999999999999e+00	 3.250000000000001e+00	 1.015027944461538e+01
0	 6.375000000000001e+00	 3.375000000000001e+00	 1.015119826692307e+01
0	 6.375000000000000e+00	 3.500000000000000e+00	 1.015217628615385e+01
0	 6.374999999999997e+00	 3.625000000000000e+00	 1.015321350230768e+01
0	 6.375000000000000e+00	 3.750000000000000e+00	 1.015430991538461e+01
0	 6.500000000000000e+00	 2.500000000000000e+00	 1.013852812307693e+01
0	 6.500000000000001e+00	 2.625000000000000e+00	 1.013855244307692e+01
0	 6.500000000000001e+00	 2.750000000000001e+00	 1.013865629538462e+01
0	 6.500000000000001e+00	 2.875000000000000e+00	 1.013883968000001e+01
0	 6.500000000000000e+00	 3.000000000000000e+00	 1.013910259692307e+01
0	 6.500000000000001e+00	 3.125000000000001e+00	 1.013944504615384e+01
0	 6.500000000000001e+00	 3.250000000000001e+00	 1.013986702769230e+01
0	 6.500000000000000e+00	 3.375000000000000e+00	 1.014036854153846e+01
0	 6.499999999999998e+00	 3.500000000000001e+00	 1.014094958769230e+01
0	 6.500000000000000e+00	 3.625000000000002e+00	 1.014161016615384e+01
0	 6.500000000000000e+00	 3.750000000000000e+00	 1.014235027692307e+01
0	 6.624999999999999e+00	 2.500000000000000e+00	 1.013084543076923e+01
0	 6.624999999999998e+00	 2.625000000000000e+00	 1.013042697615385e+01
0	 6.624999999999999e+00	 2.750000000000000e+00	 1.013010838923077e+01
0	 6.624999999999998e+00	 2.875000000000000e+00	 1.012988967000000e+01
0	 6.624999999999999e+00	 3.000000000000000e+00	 1.012977081846154e+01
0	 6.624999999999998e+00	 3.125000000000000e+00	 1.012975183461539e+01
0	 6.624999999999997e+00	 3.250000000000000e+00	 1.012983271846154e+01
0	 6.624999999999998e+00	 3.375000000000001e+00	 1.013001347000000e+01
0	 6.624999999999998e+00	 3.500000000000001e+00	 1.013029408923077e+01
0	 6.625000000000000e+00	 3.625000000000000e+00	 1.013067457615384e+01
0	 6.624999999999999e+00	 3.750000000000000e+00	 1.013115493076923e+01
0	 6.749999999999998e+00	 2.500000000000000e+00	 1.012296156923077e+01
0	 6.749999999999998e+00	 2.625000000000000e+00	 1.012219688615385e+01
0	 6.749999999999997e+00	 2.750000000000000e+00	 1.012155240615385e+01
0	 6.749999999999998e+00	 2.875000000000000e+00	 1.012102812923077e+01
0	 6.749999999999998e+00	 3.000000000000000e+00	 1.012062405538461e+01
0	 6.749999999999996e+00	 3.125000000000000e+00	 1.012034018461538e+01
0	 6.749999999999998e+00	 3.250000000000001e+00	 1.012017651692307e+01
0	 6.749999999999998e+00	 3.375000000000001e+00	 1.012013305230769e+01
0	 6.749999999999999e+00	 3.500000000000001e+00	 1.012020979076923e+01
0	 6.749999999999998e+00	 3.625000000000001e+00	 1.012040673230769e+01
0	 6.749999999999998e+00	 3.750000000000000e+00	 1.012072387692308e+01
0	 6.874999999999998e+00	 2.500000000000000e+00	 1.011487653846154e+01
0	 6.874999999999996e+00	 2.625000000000000e+00	 1.011386217307692e+01
0	 6.874999999999998e+00	 2.750000000000000e+00	 1.011298834615385e+01
0	 6.874999999999999e+00	 2.875000000000000e+00	 1.011225505769231e+01
0	 6.874999999999997e+00	 3.000000000000000e+00	 1.011166230769231e+01
0	 6.874999999999997e+00	 3.125000000000000e+00	 1.011121009615384e+01
0	 6.874999999999996e+00	 3.250000000000000e+00	 1.011089842307692e+01
0	 6.874999999999997e+00	 3.375000000000001e+00	 1.011072728846153e+01
0	 6.874999999999997e+00	 3.500000000000000e+00	 1.011069669230769e+01
0	 6.874999999999998e+00	 3.625000000000001e+00	 1.011080663461538e+01
0	 6.874999999999998e+00	 3.750000000000000e+00	 1.011105711538462e+01
0	 6.999999999999997e+00	 2.500000000000000e+00	 1.010659033846154e+01
0	 6.999999999999996e+00	 2.625000000000000e+00	 1.010542283692308e+01
0	 6.999999999999998e+00	 2.750000000000000e+00	 1.010441620923076e+01
0	 6.999999999999996e+00	 2.875000000000000e+00	 1.010357045538461e+01
0	 6.999999999999995e+00	 3.000000000000000e+00	 1.010288557538461e+01
0	 6.999999999999996e+00	 3.125000000000000e+00	 1.010236156923077e+01
0	 6.999999999999996e+00	 3.250000000000000e+00	 1.010199843692308e+01
0	 6.999999999999996e+00	 3.375000000000000e+00	 1.010179617846154e+01
0	 6.999999999999996e+00	 3.500000000000001e+00	 1.010175479384615e+01
0	 6.999999999999996e+00	 3.625000000000000e+00	 1.010187428307692e+01
0	 6.999999999999997e+00	 3.750000000000000e+00	 1.010215464615384e+01
0	 7.124999999999996e+00	 2.500000000000000e+00	 1.009810296923077e+01
0	 7.124999999999997e+00	 2.625000000000000e+00	 1.009687887769231e+01
0	 7.124999999999999e+00	 2.750000000000000e+00	 1.009583599538461e+01
0	 7.124999999999996e+00	 2.875000000000000e+00	 1.009497432230769e+01
0	 7.124999999999998e+00	 3.000000000000001e+00	 1.009429385846153e+01
0	 7.124999999999997e+00	 3.125000000000001e+00	 1.009379460384616e+01
0	 7.124999999999997e+00	 3.250000000000000e+00	 1.009347655846154e+01
0	 7.124999999999998e+00	 3.375000000000001e+00	 1.009333972230769e+01
0	 7.124999999999996e+00	 3.500000000000001e+00	 1.009338409538462e+01
0	 7.124999999999997e+00	 3.625000000000001e+00	 1.009360967769230e+01
0	 7.124999999999996e+00	 3.750000000000000e+00	 1.009401646923077e+01
0	 7.249999999999997e+00	 2.500000000000000e+00	 1.008941443076923e+01
0	 7.249999999999996e+00	 2.625000000000000e+00	 1.008823029538462e+01
0	 7.249999999999995e+00	 2.750000000000000e+00	 1.008724770461539e+01
0	 7.249999999999995e+00	 2.875000000000000e+00	 1.008646665846154e+01
0	 7.249999999999997e+00	 3.000000000000000e+00	 1.008588715692308e+01
0	 7.249999999999996e+00	 3.125000000000000e+00	 1.008550920000000e+01
0	 7.249999999999999e+00	 3.250000000000002e+00	 1.008533278769230e+01
0	 7.249999999999996e+00	 3.375000000000000e+00	 1.008535792000000e+01
0	 7.249999999999996e+00	 3.500000000000001e+00	 1.008558459692308e+01
0	 7.249999999999996e+00	 3.625000000000001e+00	 1.008601281846152e+01
0	 7.249999999999997e+00	 3.750000000000000e+00	 1.008664258461538e+01
0	 7.374999999999996e+00	 2.500000000000000e+00	 1.008052472307693e+01
0	 7.374999999999997e+00	 2.625000000000001e+00	 1.007947709000000e+01
0	 7.374999999999996e+00	 2.750000000000000e+00	 1.007865133692307e+01
0	 7.374999999999996e+00	 2.875000000000000e+00	 1.007804746384615e+01
0	 7.374999999999996e+00	 3.000000000000001e+00	 1.007766547076923e+01
0	 7.374999999999996e+00	 3.125000000000000e+00	 1.007750535769230e+01
0	 7.374999999999996e+00	 3.250000000000000e+00	 1.007756712461538e+01
0	 7.374999999999996e+00	 3.375000000000000e+00	 1.007785077153846e+01
0	 7.374999999999996e+00	 3.500000000000000e+00	 1.007835629846154e+01
0	 7.374999999999996e+00	 3.625000000000001e+00	 1.007908370538461e+01
0	 7.374999999999996e+00	 3.750000000000000e+00	 1.008003299230769e+01
0	 7.500000000000000e+00	 2.500000000000000e+00	 1.007143384615385e+01
0	 7.500000000000000e+00	 2.625000000000000e+00	 1.007061926153846e+01
0	 7.500000000000000e+00	 2.750000000000000e+00	 1.007004689230769e+01
0	 7.500000000000001e+00	 2.875000000000001e+00	 1.006971673846154e+01
0	 7.500000000000000e+00	 3.000000000000000e+00	 1.006962880000000e+01
0	 7.500000000000000e+00	 3.125000000000000e+00	 1.006978307692308e+01
0	 7.500000000000000e+00	 3.250000000000000e+00	 1.007017956923077e+01
0	 7.499999999999999e+00	 3.375000000000001e+00	 1.007081827692308e+01
0	 7.500000000000001e+00	 3.500000000000001e+00	 1.007169920000000e+01
0	 7.500000000000000e+00	 3.625000000000001e+00	 1.007282233846153e+01
0	 7.500000000000000e+00	 3.750000000000000e+00	 1.007418769230769e+01
0	 6.250000000000000e+00	 3.750000000000000e+00	 1.016703384615384e+01
0	 6.250000000000001e+00	 3.875000000000000e+00	 1.015984563076922e+01
0	 6.250000000000001e+00	 4.000000000000001e+00	 1.015313898461538e+01
0	 6.250000000000001e+00	 4.125000000000001e+00	 1.014691390769231e+01
0	 6.250000000000000e+00	 4.250000000000001e+00	 1.014117040000000e+01
0	 6.250000000000000e+00	 4.375000000000001e+00	 1.013590846153846e+01
0	 6.250000000000001e+00	 4.500000000000000e+00	 1.013112809230769e+01
0	 6.250000000000000e+00	 4.625000000000001e+00	 1.012682929230769e+01
0	 6.250000000000001e+00	 4.750000000000002e+00	 1.012301206153847e+01
0	 6.250000000000000e+00	 4.875000000000002e+00	 1.011967640000000e+01
0	 6.250000000000000e+00	 5.000000000000000e+00	 1.011682230769231e+01
0	 6.375000000000000e+00	 3.750000000000000e+00	 1.015430991538461e+01
0	 6.374999999999999e+00	 3.875000000000000e+00	 1.014828073230769e+01
0	 6.375000000000000e+00	 4.000000000000001e+00	 1.014269176461538e+01
0	 6.375000000000000e+00	 4.125000000000000e+00	 1.013754301230768e+01
0	 6.375000000000002e+00	 4.250000000000002e+00	 1.013283447538461e+01
0	 6.374999999999999e+00	 4.375000000000001e+00	 1.012856615384615e+01
0	 6.374999999999999e+00	 4.500000000000001e+00	 1.012473804769231e+01
0	 6.375000000000001e+00	 4.625000000000000e+00	 1.012135015692308e+01
0	 6.375000000000000e+00	 4.750000000000001e+00	 1.011840248153846e+01
0	 6.374999999999997e+00	 4.874999999999999e+00	 1.011589502153846e+01
0	 6.375000000000000e+00	 4.999999999999999e+00	 1.011382777692308e+01
0	 6.500000000000000e+00	 3.750000000000000e+00	 1.014235027692307e+01
0	 6.500000000000001e+00	 3.875000000000000e+00	 1.013736926769231e+01
0	 6.500000000000001e+00	 4.000000000000001e+00	 1.013278712000000e+01
0	 6.500000000000001e+00	 4.125000000000001e+00	 1.012860383384616e+01
0	 6.500000000000000e+00	 4.250000000000001e+00	 1.012481940923077e+01
0	 6.500000000000001e+00	 4.375000000000002e+00	 1.012143384615384e+01
0	 6.500000000000001e+00	 4.500000000000001e+00	 1.011844714461539e+01
0	 6.500000000000000e+00	 4.625000000000000e+00	 1.011585930461539e+01
0	 6.499999999999998e+00	 4.750000000000001e+00	 1.011367032615385e+01
0	 6.500000000000000e+00	 4.875000000000001e+00	 1.011188020923077e+01
0	 6.500000000000000e+00	 4.999999999999999e+00	 1.011048895384616e+01
0	 6.624999999999999e+00	 3.750000000000000e+00	 1.013115493076923e+01
0	 6.624999999999998e+00	 3.875000000000000e+00	 1.012711123692307e+01
0	 6.624999999999999e+00	 4.000000000000000e+00	 1.012342505076923e+01
0	 6.624999999999998e+00	 4.125000000000000e+00	 1.012009637230769e+01
0	 6.624999999999999e+00	 4.250000000000002e+00	 1.011712520153846e+01
0	 6.624999999999998e+00	 4.375000000000000e+00	 1.011451153846154e+01
0	 6.624999999999997e+00	 4.500000000000001e+00	 1.011225538307692e+01
0	 6.624999999999998e+00	 4.625000000000001e+00	 1.011035673538461e+01
0	 6.624999999999998e+00	 4.750000000000001e+00	 1.010881559538462e+01
0	 6.625000000000000e+00	 4.875000000000001e+00	 1.010763196307692e+01
0	 6.624999999999999e+00	 5.000000000000000e+00	 1.010680583846154e+01
0	 6.749999999999998e+00	 3.750000000000000e+00	 1.012072387692308e+01
0	 6.749999999999998e+00	 3.875000000000000e+00	 1.011750663999999e+01
0	 6.749999999999997e+00	 4.000000000000000e+00	 1.011460555692307e+01
0	 6.749999999999998e+00	 4.125000000000001e+00	 1.011202062769231e+01
0	 6.749999999999998e+00	 4.250000000000001e+00	 1.010975185230769e+01
0	 6.749999999999996e+00	 4.375000000000000e+00	 1.010779923076923e+01
0	 6.749999999999998e+00	 4.500000000000000e+00	 1.010616276307693e+01
0	 6.749999999999998e+00	 4.625000000000001e+00	 1.010484244923077e+01
0	 6.749999999999999e+00	 4.750000000000001e+00	 1.010383828923077e+01
0	 6.749999999999998e+00	 4.875000000000001e+00	 1.010315028307693e+01
0	 6.749999999999998e+00	 5.000000000000001e+00	 1.010277843076923e+01
0	 6.874999999999998e+00	 3.750000000000000e+00	 1.011105711538462e+01
0	 6.874999999999996e+00	 3.874999999999999e+00	 1.010855547692307e+01
0	 6.874999999999998e+00	 4.000000000000000e+00	 1.010632863846153e+01
0	 6.874999999999999e+00	 4.125000000000000e+00	 1.010437659999999e+01
0	 6.874999999999997e+00	 4.250000000000000e+00	 1.010269936153846e+01
0	 6.874999999999997e+00	 4.375000000000000e+00	 1.010129692307692e+01
0	 6.874999999999996e+00	 4.500000000000001e+00	 1.010016928461538e+01
0	 6.874999999999997e+00	 4.625000000000002e+00	 1.009931644615384e+01
0	 6.874999999999997e+00	 4.750000000000001e+00	 1.009873840769231e+01
0	 6.874999999999998e+00	 4.875000000000001e+00	 1.009843516923077e+01
0	 6.874999999999998e+00	 5.000000000000000e+00	 1.009840673076924e+01
0	 6.999999999999997e+00	 3.750000000000000e+00	 1.010215464615384e+01
0	 6.999999999999996e+00	 3.875000000000000e+00	 1.010025774769230e+01
0	 6.999999999999998e+00	 4.000000000000001e+00	 1.009859429538461e+01
0	 6.999999999999996e+00	 4.125000000000000e+00	 1.009716428923076e+01
0	 6.999999999999995e+00	 4.249999999999999e+00	 1.009596772923076e+01
0	 6.999999999999996e+00	 4.375000000000001e+00	 1.009500461538462e+01
0	 6.999999999999996e+00	 4.500000000000000e+00	 1.009427494769231e+01
0	 6.999999999999996e+00	 4.625000000000001e+00	 1.009377872615385e+01
0	 6.999999999999996e+00	 4.750000000000002e+00	 1.009351595076923e+01
0	 6.999999999999996e+00	 4.875000000000000e+00	 1.009348662153846e+01
0	 6.999999999999997e+00	 5.000000000000000e+00	 1.009369073846154e+01
0	 7.124999999999996e+00	 3.750000000000000e+00	 1.009401646923077e+01
0	 7.124999999999997e+00	 3.875000000000000e+00	 1.009261345230768e+01
0	 7.124999999999999e+00	 4.000000000000002e+00	 1.009140252769231e+01
0	 7.124999999999996e+00	 4.125000000000001e+00	 1.009038369538461e+01
0	 7.124999999999998e+00	 4.250000000000002e+00	 1.008955695538461e+01
0	 7.124999999999997e+00	 4.375000000000001e+00	 1.008892230769230e+01
0	 7.124999999999997e+00	 4.500000000000001e+00	 1.008847975230769e+01
0	 7.124999999999998e+00	 4.625000000000002e+00	 1.008822928923077e+01
0	 7.124999999999996e+00	 4.750000000000000e+00	 1.008817091846154e+01
0	 7.124999999999997e+00	 4.875000000000001e+00	 1.008830464000000e+01
0	 7.124999999999996e+00	 5.000000000000000e+00	 1.008863045384616e+01
0	 7.249999999999997e+00	 3.750000000000000e+00	 1.008664258461538e+01
0	 7.249999999999996e+00	 3.875000000000000e+00	 1.008562259076923e+01
0	 7.249999999999995e+00	 3.999999999999999e+00	 1.008475333538461e+01
0	 7.249999999999995e+00	 4.124999999999999e+00	 1.008403481846154e+01
0	 7.249999999999997e+00	 4.250000000000001e+00	 1.008346704000000e+01
0	 7.249999999999996e+00	 4.375000000000001e+00	 1.008304999999999e+01
0	 7.249999999999999e+00	 4.500000000000001e+00	 1.008278369846154e+01
0	 7.249999999999996e+00	 4.625000000000000e+00	 1.008266813538462e+01
0	 7.249999999999996e+00	 4.750000000000000e+00	 1.008270331076924e+01
0	 7.249999999999996e+00	 4.875000000000002e+00	 1.008288922461539e+01
0	 7.249999999999997e+00	 4.999999999999999e+00	 1.008322587692308e+01
0	 7.374999999999996e+00	 3.750000000000000e+00	 1.008003299230769e+01
0	 7.374999999999997e+00	 3.875000000000000e+00	 1.007928516307692e+01
0	 7.374999999999996e+00	 4.000000000000000e+00	 1.007864671846154e+01
0	 7.374999999999996e+00	 4.125000000000000e+00	 1.007811765846154e+01
0	 7.374999999999996e+00	 4.250000000000000e+00	 1.007769798307692e+01
0	 7.374999999999996e+00	 4.375000000000001e+00	 1.007738769230769e+01
0	 7.374999999999996e+00	 4.500000000000001e+00	 1.007718678615384e+01
0	 7.374999999999996e+00	 4.625000000000001e+00	 1.007709526461538e+01
0	 7.374999999999996e+00	 4.750000000000000e+00	 1.007711312769231e+01
0	 7.374999999999996e+00	 4.875000000000001e+00	 1.007724037538461e+01
0	 7.374999999999996e+00	 5.000000000000000e+00	 1.007747700769231e+01
0	 7.500000000000000e+00	 3.750000000000000e+00	 1.007418769230769e+01
0	 7.500000000000000e+00	 3.875000000000000e+00	 1.007360116923077e+01
0	 7.500000000000000e+00	 4.000000000000001e+00	 1.007308267692308e+01
0	 7.500000000000001e+00	 4.125000000000001e+00	 1.007263221538462e+01
0	 7.500000000000000e+00	 4.250000000000001e+00	 1.007224978461539e+01
0	 7.500000000000000e+00	 4.375000000000001e+00	 1.007193538461539e+01
0	 7.500000000000000e+00	 4.500000000000000e+00	 1.007168901538461e+01
0	 7.499999999999999e+00	 4.625000000000001e+00	 1.007151067692308e+01
0	 7.500000000000001e+00	 4.750000000000002e+00	 1.007140036923077e+01
0	 7.500000000000000e+00	 4.875000000000002e+00	 1.007135809230769e+01
0	 7.500000000000000e+00	 5.000000000000000e+00	 1.007138384615384e+01
0	 6.250000000000000e+00	 5.000000000000000e+00	 1.011682230769231e+01
0	 6.250000000000000e+00	 5.124999999999999e+00	 1.011332948461539e+01
0	 6.250000000000001e+00	 5.250000000000000e+00	 1.010979424615384e+01
0	 6.249999999999999e+00	 5.374999999999998e+00	 1.010621659230769e+01
0	 6.250000000000000e+00	 5.499999999999999e+00	 1.010259652307692e+01
0	 6.250000000000001e+00	 5.624999999999997e+00	 1.009893403846154e+01
0	 6.250000000000001e+00	 5.749999999999997e+00	 1.009522913846153e+01
0	 6.250000000000000e+00	 5.874999999999996e+00	 1.009148182307692e+01
0	 6.250000000000000e+00	 5.999999999999996e+00	 1.008769209230769e+01
0	 6.250000000000000e+00	 6.124999999999996e+00	 1.008385994615385e+01
0	 6.250000000000000e+00	 6.250000000000000e+00	 1.007998538461538e+01
0	 6.375000000000000e+00	 4.999999999999999e+00	 1.011382777692308e+01
0	 6.375000000000000e+00	 5.125000000000001e+00	 1.011016094461539e+01
0	 6.374999999999999e+00	 5.249999999999998e+00	 1.010647010307692e+01
0	 6.375000000000000e+00	 5.374999999999998e+00	 1.010275525230769e+01
0	 6.375000000000000e+00	 5.499999999999999e+00	 1.009901639230769e+01
0	 6.375000000000001e+00	 5.624999999999998e+00	 1.009525352307692e+01
0	 6.375000000000002e+00	 5.749999999999999e+00	 1.009146664461538e+01
0	 6.375000000000001e+00	 5.874999999999997e+00	 1.008765575692308e+01
0	 6.375000000000003e+00	 5.999999999999998e+00	 1.008382085999999e+01
0	 6.374999999999997e+00	 6.124999999999994e+00	 1.007996195384615e+01
0	 6.375000000000000e+00	 6.249999999999999e+00	 1.007607903846153e+01
0	 6.500000000000000e+00	 4.999999999999999e+00	 1.011048895384616e+01
0	 6.500000000000000e+00	 5.125000000000000e+00	 1.010669670307693e+01
0	 6.499999999999999e+00	 5.250000000000000e+00	 1.010289884923077e+01
0	 6.500000000000000e+00	 5.375000000000000e+00	 1.009909539230769e+01
0	 6.499999999999998e+00	 5.499999999999997e+00	 1.009528633230769e+01
0	 6.499999999999999e+00	 5.624999999999998e+00	 1.009147166923077e+01
0	 6.499999999999997e+00	 5.749999999999997e+00	 1.008765140307692e+01
0	 6.500000000000000e+00	 5.874999999999998e+00	 1.008382553384615e+01
0	 6.499999999999999e+00	 5.999999999999996e+00	 1.007999406153846e+01
0	 6.500000000000001e+00	 6.124999999999997e+00	 1.007615698615384e+01
0	 6.500000000000000e+00	 6.250000000000000e+00	 1.007231430769231e+01
0	 6.624999999999999e+00	 5.000000000000000e+00	 1.010680583846154e+01
0	 6.624999999999998e+00	 5.125000000000000e+00	 1.010293676000000e+01
0	 6.624999999999999e+00	 5.249999999999999e+00	 1.009908048461539e+01
0	 6.625000000000000e+00	 5.374999999999998e+00	 1.009523701230768e+01
0	 6.624999999999998e+00	 5.499999999999998e+00	 1.009140634307692e+01
0	 6.624999999999999e+00	 5.624999999999998e+00	 1.008758847692307e+01
0	 6.624999999999998e+00	 5.749999999999998e+00	 1.008378341384615e+01
0	 6.624999999999998e+00	 5.874999999999997e+00	 1.007999115384616e+01
0	 6.624999999999999e+00	 5.999999999999997e+00	 1.007621169692307e+01
0	 6.624999999999998e+00	 6.124999999999996e+00	 1.007244504307692e+01
0	 6.624999999999999e+00	 6.250000000000000e+00	 1.006869119230769e+01
0	 6.749999999999998e+00	 5.000000000000001e+00	 1.010277843076923e+01
0	 6.749999999999997e+00	 5.124999999999999e+00	 1.009888111538462e+01
0	 6.749999999999999e+00	 5.250000000000000e+00	 1.009501500923077e+01
0	 6.749999999999997e+00	 5.375000000000000e+00	 1.009118011230770e+01
0	 6.749999999999998e+00	 5.499999999999999e+00	 1.008737642461538e+01
0	 6.749999999999998e+00	 5.624999999999998e+00	 1.008360394615384e+01
0	 6.749999999999997e+00	 5.749999999999997e+00	 1.007986267692307e+01
0	 6.749999999999998e+00	 5.874999999999996e+00	 1.007615261692308e+01
0	 6.749999999999998e+00	 5.999999999999997e+00	 1.007247376615384e+01
0	 6.749999999999999e+00	 6.124999999999996e+00	 1.006882612461539e+01
0	 6.749999999999998e+00	 6.250000000000000e+00	 1.006520969230768e+01
0	 6.874999999999998e+00	 5.000000000000000e+00	 1.009840673076924e+01
0	 6.874999999999997e+00	 5.124999999999998e+00	 1.009452976923077e+01
0	 6.874999999999997e+00	 5.249999999999999e+00	 1.009070242307692e+01
0	 6.874999999999998e+00	 5.375000000000000e+00	 1.008692469230769e+01
0	 6.874999999999996e+00	 5.499999999999998e+00	 1.008319657692307e+01
0	 6.874999999999998e+00	 5.624999999999997e+00	 1.007951807692308e+01
0	 6.874999999999999e+00	 5.749999999999998e+00	 1.007588919230769e+01
0	 6.874999999999998e+00	 5.874999999999996e+00	 1.007230992307692e+01
0	 6.874999999999998e+00	 5.999999999999996e+00	 1.006878026923076e+01
0	 6.875000000000000e+00	 6.124999999999996e+00	 1.006530023076922e+01
0	 6.874999999999998e+00	 6.250000000000000e+00	 1.006186980769231e+01
0	 6.999999999999997e+00	 5.000000000000000e+00	 1.009369073846154e+01
0	 6.999999999999997e+00	 5.124999999999999e+00	 1.008988272153846e+01
0	 6.999999999999995e+00	 5.249999999999999e+00	 1.008614272615384e+01
0	 6.999999999999997e+00	 5.374999999999999e+00	 1.008247075230769e+01
0	 6.999999999999998e+00	 5.500000000000000e+00	 1.007886680000000e+01
0	 6.999999999999999e+00	 5.624999999999999e+00	 1.007533086923077e+01
0	 6.999999999999997e+00	 5.749999999999997e+00	 1.007186296000000e+01
0	 6.999999999999998e+00	 5.874999999999997e+00	 1.006846307230769e+01
0	 6.999999999999998e+00	 5.999999999999997e+00	 1.006513120615384e+01
0	 6.999999999999996e+00	 6.124999999999996e+00	 1.006186736153846e+01
0	 6.999999999999997e+00	 6.250000000000000e+00	 1.005867153846153e+01
0	 7.124999999999996e+00	 5.000000000000000e+00	 1.008863045384616e+01
0	 7.124999999999997e+00	 5.124999999999999e+00	 1.008493997230769e+01
0	 7.124999999999997e+00	 5.249999999999999e+00	 1.008133591846154e+01
0	 7.124999999999996e+00	 5.375000000000000e+00	 1.007781829230769e+01
0	 7.124999999999997e+00	 5.499999999999998e+00	 1.007438709384615e+01
0	 7.124999999999998e+00	 5.624999999999998e+00	 1.007104232307692e+01
0	 7.124999999999997e+00	 5.749999999999997e+00	 1.006778398000000e+01
0	 7.124999999999998e+00	 5.874999999999996e+00	 1.006461206461539e+01
0	 7.124999999999996e+00	 5.999999999999996e+00	 1.006152657692308e+01
0	 7.124999999999997e+00	 6.124999999999996e+00	 1.005852751692307e+01
0	 7.124999999999996e+00	 6.250000000000000e+00	 1.005561488461538e+01
0	 7.249999999999997e+00	 4.999999999999999e+00	 1.008322587692308e+01
0	 7.249999999999997e+00	 5.125000000000002e+00	 1.007970152153846e+01
0	 7.249999999999996e+00	 5.249999999999999e+00	 1.007628200000000e+01
0	 7.249999999999997e+00	 5.374999999999999e+00	 1.007296731230769e+01
0	 7.249999999999996e+00	 5.499999999999998e+00	 1.006975745846154e+01
0	 7.249999999999996e+00	 5.624999999999997e+00	 1.006665243846154e+01
0	 7.249999999999996e+00	 5.749999999999997e+00	 1.006365225230769e+01
0	 7.249999999999996e+00	 5.874999999999996e+00	 1.006075690000000e+01
0	 7.249999999999996e+00	 5.999999999999996e+00	 1.005796638153846e+01
0	 7.249999999999996e+00	 6.124999999999996e+00	 1.005528069692307e+01
0	 7.249999999999997e+00	 6.250000000000000e+00	 1.005269984615383e+01
0	 7.374999999999996e+00	 5.000000000000000e+00	 1.007747700769231e+01
0	 7.374999999999996e+00	 5.125000000000000e+00	 1.007416736923076e+01
0	 7.374999999999996e+00	 5.250000000000000e+00	 1.007098097076923e+01
0	 7.374999999999996e+00	 5.374999999999999e+00	 1.006791781230769e+01
0	 7.374999999999996e+00	 5.499999999999998e+00	 1.006497789384616e+01
0	 7.374999999999996e+00	 5.624999999999998e+00	 1.006216121538461e+01
0	 7.374999999999996e+00	 5.749999999999998e+00	 1.005946777692308e+01
0	 7.374999999999996e+00	 5.874999999999996e+00	 1.005689757846153e+01
0	 7.374999999999996e+00	 5.999999999999996e+00	 1.005445062000000e+01
0	 7.374999999999995e+00	 6.124999999999996e+00	 1.005212690153845e+01
0	 7.374999999999996e+00	 6.250000000000000e+00	 1.004992642307692e+01
0	 7.500000000000000e+00	 5.000000000000000e+00	 1.007138384615384e+01
0	 7.500000000000001e+00	 5.124999999999999e+00	 1.006833751538462e+01
0	 7.500000000000002e+00	 5.250000000000000e+00	 1.006543283076923e+01
0	 7.500000000000000e+00	 5.374999999999998e+00	 1.006266979230769e+01
0	 7.500000000000000e+00	 5.499999999999999e+00	 1.006004839999999e+01
0	 7.500000000000000e+00	 5.624999999999997e+00	 1.005756865384616e+01
0	 7.500000000000000e+00	 5.749999999999997e+00	 1.005523055384614e+01
0	 7.499999999999999e+00	 5.874999999999996e+00	 1.005303409999999e+01
0	 7.500000000000001e+00	 5.999999999999996e+00	 1.005097929230769e+01
0	 7.500000000000000e+00	 6.124999999999996e+00	 1.004906613076923e+01
0	 7.500000000000000e+00	 6.250000000000000e+00	 1.004729461538461e+01
0	 6.250000000000000e+00	 6.250000000000000e+00	 1.007998538461538e+01
0	 6.250000000000000e+00	 6.375000000000000e+00	 1.007525496923075e+01
0	 6.250000000000001e+00	 6.500000000000000e+00	 1.007059664615384e+01
0	 6.249999999999999e+00	 6.624999999999998e+00	 1.006601041538462e+01
0	 6.250000000000000e+00	 6.749999999999998e+00	 1.006149627692308e+01
0	 6.250000000000001e+00	 6.874999999999998e+00	 1.005705423076923e+01
0	 6.250000000000001e+00	 6.999999999999997e+00	 1.005268427692308e+01
0	 6.250000000000000e+00	 7.124999999999996e+00	 1.004838641538462e+01
0	 6.250000000000000e+00	 7.249999999999997e+00	 1.004416064615385e+01
0	 6.250000000000000e+00	 7.374999999999996e+00	 1.004000696923076e+01
0	 6.250000000000000e+00	 7.500000000000000e+00	 1.003592538461539e+01
0	 6.375000000000000e+00	 6.249999999999999e+00	 1.007607903846153e+01
0	 6.375000000000000e+00	 6.375000000000000e+00	 1.007180501692307e+01
0	 6.374999999999999e+00	 6.500000000000000e+00	 1.006759147999999e+01
0	 6.375000000000000e+00	 6.624999999999998e+00	 1.006343842769231e+01
0	 6.375000000000000e+00	 6.749999999999998e+00	 1.005934586000000e+01
0	 6.375000000000001e+00	 6.874999999999998e+00	 1.005531377692308e+01
0	 6.375000000000002e+00	 6.999999999999999e+00	 1.005134217846154e+01
0	 6.375000000000001e+00	 7.124999999999998e+00	 1.004743106461538e+01
0	 6.375000000000003e+00	 7.249999999999999e+00	 1.004358043538462e+01
0	 6.374999999999997e+00	 7.374999999999995e+00	 1.003979029076923e+01
0	 6.375000000000000e+00	 7.500000000000000e+00	 1.003606063076923e+01
0	 6.500000000000000e+00	 6.250000000000000e+00	 1.007231430769231e+01
0	 6.500000000000000e+00	 6.375000000000000e+00	 1.006845889076922e+01
0	 6.499999999999999e+00	 6.499999999999999e+00	 1.006465235076922e+01
0	 6.500000000000000e+00	 6.624999999999999e+00	 1.006089468769231e+01
0	 6.499999999999998e+00	 6.749999999999997e+00	 1.005718590153846e+01
0	 6.499999999999999e+00	 6.874999999999997e+00	 1.005352599230769e+01
0	 6.499999999999997e+00	 6.999999999999995e+00	 1.004991496000000e+01
0	 6.500000000000000e+00	 7.124999999999997e+00	 1.004635280461538e+01
0	 6.499999999999999e+00	 7.249999999999996e+00	 1.004283952615384e+01
0	 6.500000000000001e+00	 7.374999999999998e+00	 1.003937512461539e+01
0	 6.500000000000000e+00	 7.500000000000001e+00	 1.003595960000000e+01
0	 6.624999999999999e+00	 6.250000000000000e+00	 1.006869119230769e+01
0	 6.624999999999998e+00	 6.375000000000000e+00	 1.006521659076923e+01
0	 6.624999999999999e+00	 6.500000000000000e+00	 1.006177925846154e+01
0	 6.625000000000000e+00	 6.625000000000000e+00	 1.005837919538461e+01
0	 6.624999999999998e+00	 6.749999999999997e+00	 1.005501640153847e+01
0	 6.624999999999999e+00	 6.874999999999997e+00	 1.005169087692308e+01
0	 6.624999999999998e+00	 6.999999999999996e+00	 1.004840262153847e+01
0	 6.624999999999998e+00	 7.124999999999996e+00	 1.004515163538461e+01
0	 6.624999999999999e+00	 7.249999999999996e+00	 1.004193791846154e+01
0	 6.624999999999998e+00	 7.374999999999996e+00	 1.003876147076923e+01
0	 6.624999999999999e+00	 7.500000000000001e+00	 1.003562229230769e+01
0	 6.749999999999998e+00	 6.250000000000000e+00	 1.006520969230768e+01
0	 6.749999999999997e+00	 6.375000000000000e+00	 1.006207811692307e+01
0	 6.749999999999999e+00	 6.500000000000000e+00	 1.005897220307692e+01
0	 6.749999999999997e+00	 6.624999999999999e+00	 1.005589195076923e+01
0	 6.749999999999998e+00	 6.749999999999997e+00	 1.005283735999999e+01
0	 6.749999999999998e+00	 6.874999999999998e+00	 1.004980843076923e+01
0	 6.749999999999997e+00	 6.999999999999996e+00	 1.004680516307692e+01
0	 6.749999999999998e+00	 7.124999999999996e+00	 1.004382755692307e+01
0	 6.749999999999998e+00	 7.249999999999997e+00	 1.004087561230770e+01
0	 6.749999999999999e+00	 7.374999999999996e+00	 1.003794932923076e+01
0	 6.749999999999998e+00	 7.500000000000000e+00	 1.003504870769231e+01
0	 6.874999999999998e+00	 6.250000000000000e+00	 1.006186980769231e+01
0	 6.874999999999997e+00	 6.375000000000000e+00	 1.005904346923077e+01
0	 6.874999999999997e+00	 6.499999999999999e+00	 1.005623118461538e+01
0	 6.874999999999998e+00	 6.624999999999999e+00	 1.005343295384615e+01
0	 6.874999999999996e+00	 6.749999999999996e+00	 1.005064877692308e+01
0	 6.874999999999998e+00	 6.874999999999998e+00	 1.004787865384615e+01
0	 6.874999999999999e+00	 6.999999999999998e+00	 1.004512258461538e+01
0	 6.874999999999998e+00	 7.124999999999997e+00	 1.004238056923076e+01
0	 6.874999999999998e+00	 7.249999999999996e+00	 1.003965260769231e+01
0	 6.875000000000000e+00	 7.374999999999998e+00	 1.003693870000002e+01
0	 6.874999999999998e+00	 7.500000000000001e+00	 1.003423884615385e+01
0	 6.999999999999997e+00	 6.250000000000000e+00	 1.005867153846153e+01
0	 6.999999999999997e+00	 6.375000000000001e+00	 1.005611264769230e+01
0	 6.999999999999995e+00	 6.499999999999997e+00	 1.005355620307692e+01
0	 6.999999999999997e+00	 6.624999999999998e+00	 1.005100220461538e+01
0	 6.999999999999998e+00	 6.750000000000000e+00	 1.004845065230769e+01
0	 6.999999999999999e+00	 6.874999999999999e+00	 1.004590154615385e+01
0	 6.999999999999997e+00	 6.999999999999997e+00	 1.004335488615384e+01
0	 6.999999999999998e+00	 7.124999999999998e+00	 1.004081067230769e+01
0	 6.999999999999998e+00	 7.249999999999998e+00	 1.003826890461539e+01
0	 6.999999999999996e+00	 7.374999999999996e+00	 1.003572958307693e+01
0	 6.999999999999997e+00	 7.500000000000000e+00	 1.003319270769231e+01
0	 7.124999999999996e+00	 6.250000000000000e+00	 1.005561488461538e+01
0	 7.124999999999997e+00	 6.375000000000000e+00	 1.005328565230769e+01
0	 7.124999999999997e+00	 6.500000000000000e+00	 1.005094725846153e+01
0	 7.124999999999996e+00	 6.624999999999999e+00	 1.004859970307692e+01
0	 7.124999999999997e+00	 6.749999999999998e+00	 1.004624298615385e+01
0	 7.124999999999998e+00	 6.874999999999998e+00	 1.004387710769231e+01
0	 7.124999999999997e+00	 6.999999999999998e+00	 1.004150206769231e+01
0	 7.124999999999998e+00	 7.124999999999998e+00	 1.003911786615384e+01
0	 7.124999999999996e+00	 7.249999999999996e+00	 1.003672450307693e+01
0	 7.124999999999997e+00	 7.374999999999997e+00	 1.003432197846154e+01
0	 7.124999999999996e+00	 7.500000000000000e+00	 1.003191029230769e+01
0	 7.249999999999997e+00	 6.250000000000000e+00	 1.005269984615383e+01
0	 7.249999999999997e+00	 6.375000000000002e+00	 1.005056248307692e+01
0	 7.249999999999996e+00	 6.499999999999999e+00	 1.004840435076922e+01
0	 7.249999999999997e+00	 6.624999999999999e+00	 1.004622544923076e+01
0	 7.249999999999996e+00	 6.749999999999998e+00	 1.004402577846154e+01
0	 7.249999999999996e+00	 6.874999999999998e+00	 1.004180533846153e+01
0	 7.249999999999996e+00	 6.999999999999996e+00	 1.003956412923077e+01
0	 7.249999999999996e+00	 7.124999999999996e+00	 1.003730215076922e+01
0	 7.249999999999996e+00	 7.249999999999996e+00	 1.003501940307693e+01
0	 7.249999999999996e+00	 7.374999999999996e+00	 1.003271588615384e+01
0	 7.249999999999997e+00	 7.500000000000001e+00	 1.003039160000001e+01
0	 7.374999999999996e+00	 6.250000000000000e+00	 1.004992642307692e+01
0	 7.374999999999996e+00	 6.375000000000000e+00	 1.004794314000000e+01
0	 7.374999999999996e+00	 6.500000000000000e+00	 1.004592747999999e+01
0	 7.374999999999996e+00	 6.624999999999999e+00	 1.004387944307692e+01
0	 7.374999999999996e+00	 6.749999999999998e+00	 1.004179902923077e+01
0	 7.374999999999996e+00	 6.874999999999999e+00	 1.003968623846153e+01
0	 7.374999999999996e+00	 6.999999999999996e+00	 1.003754107076923e+01
0	 7.374999999999996e+00	 7.124999999999996e+00	 1.003536352615384e+01
0	 7.374999999999996e+00	 7.249999999999996e+00	 1.003315360461538e+01
0	 7.374999999999995e+00	 7.374999999999995e+00	 1.003091130615385e+01
0	 7.374999999999996e+00	 7.500000000000000e+00	 1.002863663076923e+01
0	 7.500000000000000e+00	 6.250000000000000e+00	 1.004729461538461e+01
0	 7.500000000000001e+00	 6.375000000000000e+00	 1.004542762307690e+01
0	 7.500000000000002e+00	 6.500000000000000e+00	 1.004351664615384e+01
0	 7.500000000000000e+00	 6.624999999999998e+00	 1.004156168461539e+01
0	 7.500000000000000e+00	 6.749999999999998e+00	 1.003956273846154e+01
0	 7.500000000000000e+00	 6.874999999999998e+00	 1.003751980769230e+01
0	 7.500000000000000e+00	 6.999999999999997e+00	 1.003543289230769e+01
0	 7.499999999999999e+00	 7.124999999999996e+00	 1.003330199230769e+01
0	 7.500000000000001e+00	 7.249999999999997e+00	 1.003112710769231e+01
0	 7.500000000000000e+00	 7.374999999999996e+00	 1.002890823846153e+01
0	 7.500000000000000e+00	 7.500000000000000e+00	 1.002664538461539e+01
0	 6.250000000000000e+00	 7.500000000000000e+00	 1.003592538461539e+01
0	 6.250000000000000e+00	 7.625000000000000e+00	 1.003402485384616e+01
0	 6.250000000000001e+00	 7.750000000000000e+00	 1.003194510769231e+01
0	 6.249999999999999e+00	 7.874999999999998e+00	 1.002968614615384e+01
0	 6.250000000000000e+00	 7.999999999999999e+00	 1.002724796923077e+01
0	 6.250000000000001e+00	 8.124999999999998e+00	 1.002463057692308e+01
0	 6.250000000000001e+00	 8.249999999999998e+00	 1.002183396923077e+01
0	 6.250000000000000e+00	 8.374999999999996e+00	 1.001885814615386e+01
0	 6.250000000000000e+00	 8.499999999999996e+00	 1.001570310769230e+01
0	 6.250000000000000e+00	 8.624999999999996e+00	 1.001236885384617e+01
0	 6.250000000000000e+00	 8.750000000000000e+00	 1.000885538461539e+01
0	 6.375000000000000e+00	 7.500000000000000e+00	 1.003606063076923e+01
0	 6.375000000000000e+00	 7.625000000000000e+00	 1.003405480769231e+01
0	 6.374999999999999e+00	 7.749999999999999e+00	 1.003188326461539e+01
0	 6.375000000000000e+00	 7.874999999999999e+00	 1.002954600153846e+01
0	 6.375000000000000e+00	 7.999999999999998e+00	 1.002704301846154e+01
0	 6.375000000000001e+00	 8.124999999999998e+00	 1.002437431538461e+01
0	 6.375000000000002e+00	 8.250000000000000e+00	 1.002153989230770e+01
0	 6.375000000000001e+00	 8.375000000000000e+00	 1.001853974923077e+01
0	 6.375000000000003e+00	 8.500000000000000e+00	 1.001537388615385e+01
0	 6.374999999999997e+00	 8.624999999999995e+00	 1.001204230307692e+01
0	 6.375000000000000e+00	 8.750000000000000e+00	 1.000854500000000e+01
0	 6.500000000000000e+00	 7.500000000000001e+00	 1.003595960000000e+01
0	 6.500000000000000e+00	 7.624999999999999e+00	 1.003387092769231e+01
0	 6.499999999999999e+00	 7.750000000000000e+00	 1.003163003076923e+01
0	 6.500000000000000e+00	 7.874999999999999e+00	 1.002923690923077e+01
0	 6.499999999999998e+00	 7.999999999999998e+00	 1.002669156307692e+01
0	 6.499999999999999e+00	 8.124999999999998e+00	 1.002399399230769e+01
0	 6.499999999999997e+00	 8.249999999999995e+00	 1.002114419692308e+01
0	 6.500000000000000e+00	 8.374999999999996e+00	 1.001814217692307e+01
0	 6.499999999999999e+00	 8.499999999999996e+00	 1.001498793230768e+01
0	 6.500000000000001e+00	 8.624999999999996e+00	 1.001168146307693e+01
0	 6.500000000000000e+00	 8.750000000000000e+00	 1.000822276923076e+01
0	 6.624999999999999e+00	 7.500000000000001e+00	 1.003562229230769e+01
0	 6.624999999999998e+00	 7.624999999999999e+00	 1.003347321384615e+01
0	 6.624999999999999e+00	 7.750000000000000e+00	 1.003118540615385e+01
0	 6.625000000000000e+00	 7.875000000000000e+00	 1.002875886923077e+01
0	 6.624999999999998e+00	 7.999999999999998e+00	 1.002619360307692e+01
0	 6.624999999999999e+00	 8.125000000000000e+00	 1.002348960769230e+01
0	 6.624999999999998e+00	 8.249999999999996e+00	 1.002064688307692e+01
0	 6.624999999999998e+00	 8.374999999999998e+00	 1.001766542923076e+01
0	 6.624999999999999e+00	 8.499999999999996e+00	 1.001454524615383e+01
0	 6.624999999999998e+00	 8.624999999999995e+00	 1.001128633384616e+01
0	 6.624999999999999e+00	 8.750000000000000e+00	 1.000788869230770e+01
0	 6.749999999999998e+00	 7.500000000000000e+00	 1.003504870769231e+01
0	 6.749999999999997e+00	 7.624999999999999e+00	 1.003286166615386e+01
0	 6.749999999999999e+00	 7.749999999999999e+00	 1.003054939076923e+01
0	 6.749999999999997e+00	 7.874999999999999e+00	 1.002811188153846e+01
0	 6.749999999999998e+00	 7.999999999999998e+00	 1.002554913846154e+01
0	 6.749999999999998e+00	 8.124999999999998e+00	 1.002286116153846e+01
0	 6.749999999999997e+00	 8.249999999999996e+00	 1.002004795076923e+01
0	 6.749999999999998e+00	 8.374999999999998e+00	 1.001710950615384e+01
0	 6.749999999999998e+00	 8.499999999999996e+00	 1.001404582769231e+01
0	 6.749999999999999e+00	 8.624999999999996e+00	 1.001085691538461e+01
0	 6.749999999999998e+00	 8.750000000000000e+00	 1.000754276923078e+01
0	 6.874999999999998e+00	 7.500000000000001e+00	 1.003423884615385e+01
0	 6.874999999999997e+00	 7.625000000000000e+00	 1.003203628461539e+01
0	 6.874999999999997e+00	 7.750000000000000e+00	 1.002972198461538e+01
0	 6.874999999999998e+00	 7.874999999999998e+00	 1.002729594615385e+01
0	 6.874999999999996e+00	 7.999999999999996e+00	 1.002475816923077e+01
0	 6.874999999999998e+00	 8.124999999999998e+00	 1.002210865384616e+01
0	 6.874999999999999e+00	 8.250000000000000e+00	 1.001934740000000e+01
0	 6.874999999999998e+00	 8.374999999999996e+00	 1.001647440769231e+01
0	 6.874999999999998e+00	 8.499999999999996e+00	 1.001348967692308e+01
0	 6.875000000000000e+00	 8.624999999999996e+00	 1.001039320769230e+01
0	 6.874999999999998e+00	 8.750000000000000e+00	 1.000718500000000e+01
0	 6.999999999999997e+00	 7.500000000000000e+00	 1.003319270769231e+01
0	 6.999999999999997e+00	 7.625000000000000e+00	 1.003099706923078e+01
0	 6.999999999999995e+00	 7.749999999999997e+00	 1.002870318769230e+01
0	 6.999999999999997e+00	 7.874999999999999e+00	 1.002631106307693e+01
0	 6.999999999999998e+00	 8.000000000000000e+00	 1.002382069538461e+01
0	 6.999999999999999e+00	 8.125000000000000e+00	 1.002123208461538e+01
0	 6.999999999999997e+00	 8.249999999999998e+00	 1.001854523076924e+01
0	 6.999999999999998e+00	 8.374999999999996e+00	 1.001576013384615e+01
0	 6.999999999999998e+00	 8.499999999999998e+00	 1.001287679384615e+01
0	 6.999999999999996e+00	 8.624999999999995e+00	 1.000989521076924e+01
0	 6.999999999999997e+00	 8.750000000000000e+00	 1.000681538461538e+01
0	 7.124999999999996e+00	 7.500000000000000e+00	 1.003191029230769e+01
0	 7.124999999999997e+00	 7.625000000000000e+00	 1.002974402000000e+01
0	 7.124999999999997e+00	 7.749999999999999e+00	 1.002749300000000e+01
0	 7.124999999999996e+00	 7.874999999999998e+00	 1.002515723230769e+01
0	 7.124999999999997e+00	 7.999999999999997e+00	 1.002273671692308e+01
0	 7.124999999999998e+00	 8.125000000000000e+00	 1.002023145384616e+01
0	 7.124999999999997e+00	 8.249999999999998e+00	 1.001764144307692e+01
0	 7.124999999999998e+00	 8.374999999999998e+00	 1.001496668461540e+01
0	 7.124999999999996e+00	 8.499999999999996e+00	 1.001220717846154e+01
0	 7.124999999999997e+00	 8.624999999999996e+00	 1.000936292461540e+01
0	 7.124999999999996e+00	 8.750000000000000e+00	 1.000643392307693e+01
0	 7.249999999999997e+00	 7.500000000000001e+00	 1.003039160000001e+01
0	 7.249999999999997e+00	 7.625000000000001e+00	 1.002827713692308e+01
0	 7.249999999999996e+00	 7.749999999999999e+00	 1.002609142153846e+01
0	 7.249999999999997e+00	 7.875000000000001e+00	 1.002383445384615e+01
0	 7.249999999999996e+00	 7.999999999999998e+00	 1.002150623384616e+01
0	 7.249999999999996e+00	 8.124999999999996e+00	 1.001910676153846e+01
0	 7.249999999999996e+00	 8.249999999999998e+00	 1.001663603692308e+01
0	 7.249999999999996e+00	 8.374999999999996e+00	 1.001409406000000e+01
0	 7.249999999999996e+00	 8.499999999999996e+00	 1.001148083076924e+01
0	 7.249999999999996e+00	 8.624999999999996e+00	 1.000879634923077e+01
0	 7.249999999999997e+00	 8.750000000000000e+00	 1.000604061538462e+01
0	 7.374999999999996e+00	 7.500000000000000e+00	 1.002863663076923e+01
0	 7.374999999999996e+00	 7.624999999999999e+00	 1.002659642000000e+01
0	 7.374999999999996e+00	 7.750000000000000e+00	 1.002449845230769e+01
0	 7.374999999999996e+00	 7.874999999999998e+00	 1.002234272769231e+01
0	 7.374999999999996e+00	 7.999999999999998e+00	 1.002012924615385e+01
0	 7.374999999999996e+00	 8.124999999999996e+00	 1.001785800769231e+01
0	 7.374999999999996e+00	 8.249999999999996e+00	 1.001552901230770e+01
0	 7.374999999999996e+00	 8.374999999999996e+00	 1.001314226000001e+01
0	 7.374999999999996e+00	 8.499999999999996e+00	 1.001069775076924e+01
0	 7.374999999999995e+00	 8.624999999999996e+00	 1.000819548461539e+01
0	 7.374999999999996e+00	 8.750000000000000e+00	 1.000563546153846e+01
0	 7.500000000000000e+00	 7.500000000000000e+00	 1.002664538461539e+01
0	 7.500000000000001e+00	 7.625000000000000e+00	 1.002470186923078e+01
0	 7.500000000000002e+00	 7.750000000000000e+00	 1.002271409230770e+01
0	 7.500000000000000e+00	 7.874999999999998e+00	 1.002068205384615e+01
0	 7.500000000000000e+00	 7.999999999999999e+00	 1.001860575384615e+01
0	 7.500000000000000e+00	 8.124999999999998e+00	 1.001648519230770e+01
0	 7.500000000000000e+00	 8.249999999999998e+00	 1.001432036923077e+01
0	 7.499999999999999e+00	 8.374999999999996e+00	 1.001211128461539e+01
0	 7.500000000000001e+00	 8.499999999999996e+00	 1.000985793846154e+01
0	 7.500000000000000e+00	 8.624999999999996e+00	 1.000756033076924e+01
0	 7.500000000000000e+00	 8.750000000000000e+00	 1.000521846153847e+01
0	 6.250000000000000e+00	 8.750000000000000e+00	 1.000885538461539e+01
0	 6.249999999999999e+00	 8.874999999999998e+00	 1.000835390769231e+01
0	 6.250000000000000e+00	 9.000000000000000e+00	 1.000764363076923e+01
0	 6.249999999999999e+00	 9.124999999999998e+00	 1.000672455384615e+01
0	 6.250000000000001e+00	 9.250000000000000e+00	 1.000559667692308e+01
0	 6.250000000000000e+00	 9.374999999999996e+00	 1.000426000000000e+01
0	 6.250000000000000e+00	 9.499999999999996e+00	 1.000271452307692e+01
0	 6.250000000000000e+00	 9.624999999999996e+00	 1.000096024615383e+01
0	 6.250000000000001e+00	 9.749999999999998e+00	 9.998997169230762e+00
0	 6.250000000000000e+00	 9.874999999999996e+00	 9.996825292307683e+00
0	 6.250000000000000e+00	 1.000000000000000e+01	 9.994444615384607e+00
0	 6.375000000000000e+00	 8.750000000000000e+00	 1.000854500000000e+01
0	 6.375000000000002e+00	 8.875000000000002e+00	 1.000817765538462e+01
0	 6.374999999999997e+00	 8.999999999999998e+00	 1.000760074461539e+01
0	 6.374999999999999e+00	 9.124999999999998e+00	 1.000681426769231e+01
0	 6.375000000000002e+00	 9.249999999999998e+00	 1.000581822461539e+01
0	 6.375000000000000e+00	 9.375000000000000e+00	 1.000461261538462e+01
0	 6.375000000000000e+00	 9.499999999999998e+00	 1.000319744000000e+01
0	 6.375000000000000e+00	 9.624999999999996e+00	 1.000157269846152e+01
0	 6.375000000000001e+00	 9.749999999999996e+00	 9.999738390769245e+00
0	 6.374999999999998e+00	 9.874999999999996e+00	 9.997694516923065e+00
0	 6.374999999999999e+00	 1.000000000000000e+01	 9.995441076923061e+00
0	 6.500000000000000e+00	 8.750000000000000e+00	 1.000822276923076e+01
0	 6.499999999999997e+00	 8.874999999999998e+00	 1.000797200307693e+01
0	 6.500000000000000e+00	 8.999999999999998e+00	 1.000751090461538e+01
0	 6.499999999999998e+00	 9.124999999999998e+00	 1.000683947384615e+01
0	 6.500000000000001e+00	 9.250000000000000e+00	 1.000595771076923e+01
0	 6.500000000000000e+00	 9.375000000000000e+00	 1.000486561538461e+01
0	 6.499999999999999e+00	 9.499999999999998e+00	 1.000356318769231e+01
0	 6.500000000000001e+00	 9.625000000000000e+00	 1.000205042769232e+01
0	 6.499999999999999e+00	 9.749999999999998e+00	 1.000032733538462e+01
0	 6.500000000000000e+00	 9.874999999999998e+00	 9.998393910769234e+00
0	 6.499999999999999e+00	 1.000000000000000e+01	 9.996250153846146e+00
0	 6.624999999999999e+00	 8.750000000000000e+00	 1.000788869230770e+01
0	 6.624999999999997e+00	 8.874999999999998e+00	 1.000773695076923e+01
0	 6.624999999999998e+00	 8.999999999999996e+00	 1.000737411076922e+01
0	 6.625000000000000e+00	 9.124999999999998e+00	 1.000680017230769e+01
0	 6.624999999999996e+00	 9.249999999999998e+00	 1.000601513538460e+01
0	 6.624999999999999e+00	 9.374999999999996e+00	 1.000501900000000e+01
0	 6.624999999999997e+00	 9.499999999999995e+00	 1.000381176615384e+01
0	 6.624999999999997e+00	 9.624999999999996e+00	 1.000239343384613e+01
0	 6.624999999999998e+00	 9.749999999999998e+00	 1.000076400307688e+01
0	 6.624999999999998e+00	 9.874999999999995e+00	 9.998923473846148e+00
0	 6.624999999999998e+00	 1.000000000000000e+01	 9.996871846153851e+00
0	 6.749999999999998e+00	 8.750000000000000e+00	 1.000754276923078e+01
0	 6.749999999999999e+00	 8.874999999999998e+00	 1.000747249846153e+01
0	 6.750000000000000e+00	 9.000000000000002e+00	 1.000719036307691e+01
0	 6.749999999999998e+00	 9.124999999999998e+00	 1.000669636307693e+01
0	 6.749999999999997e+00	 9.249999999999998e+00	 1.000599049846153e+01
0	 6.749999999999998e+00	 9.374999999999998e+00	 1.000507276923076e+01
0	 6.749999999999998e+00	 9.499999999999998e+00	 1.000394317538461e+01
0	 6.749999999999999e+00	 9.624999999999996e+00	 1.000260171692307e+01
0	 6.749999999999998e+00	 9.749999999999996e+00	 1.000104839384612e+01
0	 6.749999999999997e+00	 9.874999999999996e+00	 9.999283206153850e+00
0	 6.749999999999998e+00	 1.000000000000000e+01	 9.997306153846125e+00
0	 6.874999999999998e+00	 8.750000000000000e+00	 1.000718500000000e+01
0	 6.874999999999997e+00	 8.874999999999998e+00	 1.000717864615384e+01
0	 6.874999999999998e+00	 8.999999999999998e+00	 1.000695966153847e+01
0	 6.874999999999997e+00	 9.125000000000002e+00	 1.000652804615384e+01
0	 6.874999999999996e+00	 9.249999999999996e+00	 1.000588380000000e+01
0	 6.874999999999998e+00	 9.375000000000000e+00	 1.000502692307691e+01
0	 6.874999999999999e+00	 9.499999999999998e+00	 1.000395741538459e+01
0	 6.874999999999998e+00	 9.624999999999998e+00	 1.000267527692307e+01
0	 6.874999999999997e+00	 9.749999999999996e+00	 1.000118050769229e+01
0	 6.874999999999998e+00	 9.874999999999996e+00	 9.999473107692296e+00
0	 6.874999999999998e+00	 1.000000000000000e+01	 9.997553076923083e+00
0	 6.999999999999997e+00	 8.750000000000000e+00	 1.000681538461538e+01
0	 6.999999999999996e+00	 8.874999999999998e+00	 1.000685539384615e+01
0	 6.999999999999997e+00	 9.000000000000000e+00	 1.000668200615384e+01
0	 6.999999999999997e+00	 9.125000000000000e+00	 1.000629522153844e+01
0	 6.999999999999998e+00	 9.250000000000000e+00	 1.000569503999999e+01
0	 6.999999999999997e+00	 9.374999999999998e+00	 1.000488146153846e+01
0	 6.999999999999997e+00	 9.499999999999998e+00	 1.000385448615381e+01
0	 6.999999999999996e+00	 9.624999999999995e+00	 1.000261411384615e+01
0	 6.999999999999996e+00	 9.749999999999995e+00	 1.000116034461536e+01
0	 6.999999999999996e+00	 9.874999999999998e+00	 9.999493178461513e+00
0	 6.999999999999997e+00	 9.999999999999998e+00	 9.997612615384622e+00
0	 7.124999999999996e+00	 8.750000000000000e+00	 1.000643392307693e+01
0	 7.124999999999996e+00	 8.875000000000000e+00	 1.000650274153846e+01
0	 7.124999999999997e+00	 9.000000000000000e+00	 1.000635739692307e+01
0	 7.124999999999996e+00	 9.125000000000000e+00	 1.000599788923075e+01
0	 7.124999999999997e+00	 9.249999999999998e+00	 1.000542421846154e+01
0	 7.124999999999997e+00	 9.374999999999998e+00	 1.000463638461538e+01
0	 7.124999999999997e+00	 9.500000000000000e+00	 1.000363438769228e+01
0	 7.124999999999997e+00	 9.624999999999996e+00	 1.000241822769230e+01
0	 7.124999999999996e+00	 9.749999999999996e+00	 1.000098790461537e+01
0	 7.124999999999997e+00	 9.874999999999996e+00	 9.999343418461535e+00
0	 7.124999999999997e+00	 1.000000000000000e+01	 9.997484769230759e+00
0	 7.249999999999997e+00	 8.750000000000000e+00	 1.000604061538462e+01
0	 7.249999999999997e+00	 8.875000000000004e+00	 1.000612068923078e+01
0	 7.249999999999996e+00	 8.999999999999998e+00	 1.000598583384615e+01
0	 7.249999999999996e+00	 9.125000000000000e+00	 1.000563604923077e+01
0	 7.249999999999996e+00	 9.249999999999998e+00	 1.000507133538461e+01
0	 7.249999999999996e+00	 9.374999999999998e+00	 1.000429169230768e+01
0	 7.249999999999996e+00	 9.499999999999998e+00	 1.000329711999998e+01
0	 7.249999999999996e+00	 9.624999999999996e+00	 1.000208761846151e+01
0	 7.249999999999996e+00	 9.749999999999996e+00	 1.000066318769229e+01
0	 7.249999999999996e+00	 9.874999999999996e+00	 9.999023827692278e+00
0	 7.249999999999996e+00	 1.000000000000000e+01	 9.997169538461511e+00
0	 7.374999999999996e+00	 8.750000000000000e+00	 1.000563546153846e+01
0	 7.374999999999996e+00	 8.875000000000000e+00	 1.000570923692307e+01
0	 7.374999999999996e+00	 8.999999999999998e+00	 1.000556731692308e+01
0	 7.374999999999998e+00	 9.125000000000000e+00	 1.000520970153846e+01
0	 7.374999999999996e+00	 9.249999999999998e+00	 1.000463639076924e+01
0	 7.374999999999996e+00	 9.374999999999996e+00	 1.000384738461536e+01
0	 7.374999999999996e+00	 9.499999999999996e+00	 1.000284268307691e+01
0	 7.374999999999996e+00	 9.624999999999998e+00	 1.000162228615383e+01
0	 7.374999999999996e+00	 9.749999999999996e+00	 1.000018619384613e+01
0	 7.374999999999996e+00	 9.874999999999996e+00	 9.998534406153842e+00
0	 7.374999999999996e+00	 1.000000000000000e+01	 9.996666923076921e+00
0	 7.500000000000000e+00	 8.750000000000000e+00	 1.000521846153847e+01
0	 7.499999999999999e+00	 8.874999999999998e+00	 1.000526838461538e+01
0	 7.499999999999999e+00	 9.000000000000000e+00	 1.000510184615385e+01
0	 7.499999999999999e+00	 9.124999999999998e+00	 1.000471884615384e+01
0	 7.500000000000000e+00	 9.250000000000000e+00	 1.000411938461539e+01
0	 7.500000000000000e+00	 9.374999999999996e+00	 1.000330346153846e+01
0	 7.500000000000000e+00	 9.499999999999996e+00	 1.000227107692308e+01
0	 7.500000000000000e+00	 9.624999999999996e+00	 1.000102223076921e+01
0	 7.500000000000001e+00	 9.749999999999998e+00	 9.999556923076923e+00
0	 7.500000000000000e+00	 9.874999999999996e+00	 9.997875153846152e+00
0	 7.500000000000000e+00	 1.000000000000000e+01	 9.995976923076910e+00
0	 7.500000000000000e+00	 0.000000000000000e+00	 1.002891707692308e+01
0	 7.500000000000001e+00	 1.250000000000000e-01	 1.003251378461538e+01
0	 7.500000000000000e+00	 2.500000000000000e-01	 1.003557949230769e+01
0	 7.499999999999999e+00	 3.750000000000001e-01	 1.003811420000000e+01
0	 7.500000000000001e+00	 5.000000000000000e-01	 1.004011790769231e+01
0	 7.500000000000000e+00	 6.250000000000000e-01	 1.004159061538461e+01
0	 7.500000000000000e+00	 7.500000000000000e-01	 1.004253232307692e+01
0	 7.500000000000000e+00	 8.749999999999999e-01	 1.004294303076923e+01
0	 7.500000000000001e+00	 1.000000000000000e+00	 1.004282273846154e+01
0	 7.500000000000000e+00	 1.125000000000000e+00	 1.004217144615385e+01
0	 7.500000000000000e+00	 1.250000000000000e+00	 1.004098915384615e+01
0	 7.625000000000000e+00	 0.000000000000000e+00	 1.002149628000000e+01
0	 7.624999999999998e+00	 1.250000000000000e-01	 1.002491805107692e+01
0	 7.624999999999998e+00	 2.499999999999999e-01	 1.002786787138461e+01
0	 7.624999999999998e+00	 3.750000000000001e-01	 1.003034574092308e+01
0	 7.625000000000000e+00	 5.000000000000000e-01	 1.003235165969230e+01
0	 7.624999999999999e+00	 6.250000000000001e-01	 1.003388562769231e+01
0	 7.624999999999999e+00	 7.499999999999999e-01	 1.003494764492308e+01
0	 7.625000000000000e+00	 8.749999999999999e-01	 1.003553771138461e+01
0	 7.625000000000000e+00	 1.000000000000000e+00	 1.003565582707693e+01
0	 7.624999999999999e+00	 1.125000000000000e+00	 1.003530199200000e+01
0	 7.624999999999999e+00	 1.250000000000000e+00	 1.003447620615385e+01
0	 7.749999999999998e+00	 0.000000000000000e+00	 1.001399290461538e+01
0	 7.750000000000001e+00	 1.250000000000000e-01	 1.001721125661538e+01
0	 7.749999999999999e+00	 2.500000000000000e-01	 1.002001670707692e+01
0	 7.749999999999999e+00	 3.750000000000001e-01	 1.002240925600000e+01
0	 7.749999999999999e+00	 5.000000000000001e-01	 1.002438890338462e+01
0	 7.750000000000000e+00	 6.250000000000000e-01	 1.002595564923077e+01
0	 7.749999999999999e+00	 7.499999999999999e-01	 1.002710949353846e+01
0	 7.749999999999999e+00	 8.750000000000000e-01	 1.002785043630769e+01
0	 7.750000000000000e+00	 9.999999999999999e-01	 1.002817847753846e+01
0	 7.749999999999998e+00	 1.125000000000000e+00	 1.002809361723077e+01
0	 7.749999999999998e+00	 1.250000000000000e+00	 1.002759585538462e+01
0	 7.874999999999999e+00	 0.000000000000000e+00	 1.000640695076923e+01
0	 7.874999999999998e+00	 1.250000000000000e-01	 1.000939340123077e+01
0	 7.874999999999999e+00	 2.500000000000000e-01	 1.001202599938461e+01
0	 7.874999999999999e+00	 3.750000000000001e-01	 1.001430474523077e+01
0	 7.875000000000000e+00	 5.000000000000001e-01	 1.001622963876923e+01
0	 7.874999999999999e+00	 6.250000000000000e-01	 1.001780068000000e+01
0	 7.874999999999998e+00	 7.499999999999999e-01	 1.001901786892308e+01
0	 7.874999999999999e+00	 8.749999999999999e-01	 1.001988120553846e+01
0	 7.874999999999996e+00	 9.999999999999998e-01	 1.002039068984615e+01
0	 7.875000000000000e+00	 1.125000000000000e+00	 1.002054632184615e+01
0	 7.874999999999998e+00	 1.250000000000000e+00	 1.002034810153846e+01
0	 7.999999999999999e+00	 0.000000000000000e+00	 9.998738418461539e+00
0	 7.999999999999997e+00	 1.250000000000000e-01	 1.000146448492308e+01
0	 7.999999999999998e+00	 2.499999999999999e-01	 1.000389574830770e+01
0	 7.999999999999996e+00	 3.750000000000000e-01	 1.000603220861538e+01
0	 7.999999999999998e+00	 5.000000000000000e-01	 1.000787386584615e+01
0	 7.999999999999997e+00	 6.250000000000000e-01	 1.000942072000000e+01
0	 7.999999999999998e+00	 7.500000000000000e-01	 1.001067277107692e+01
0	 7.999999999999999e+00	 8.750000000000000e-01	 1.001163001907692e+01
0	 7.999999999999998e+00	 9.999999999999998e-01	 1.001229246399999e+01
0	 8.000000000000000e+00	 1.125000000000000e+00	 1.001266010584615e+01
0	 7.999999999999998e+00	 1.250000000000000e+00	 1.001273294461538e+01
0	 8.124999999999998e+00	 0.000000000000000e+00	 9.990987307692304e+00
0	 8.124999999999996e+00	 1.250000000000000e-01	 9.993424507692303e+00
0	 8.125000000000000e+00	 2.500000000000001e-01	 9.995625953846149e+00
0	 8.124999999999998e+00	 3.750000000000000e-01	 9.997591646153845e+00
0	 8.124999999999996e+00	 4.999999999999999e-01	 9.999321584615377e+00
0	 8.124999999999998e+00	 6.250000000000000e-01	 1.000081576923077e+01
0	 8.124999999999998e+00	 7.500000000000000e-01	 1.000207420000000e+01
0	 8.124999999999998e+00	 8.750000000000000e-01	 1.000309687692307e+01
0	 8.124999999999996e+00	 9.999999999999998e-01	 1.000388380000000e+01
0	 8.125000000000000e+00	 1.125000000000000e+00	 1.000443496923077e+01
0	 8.124999999999998e+00	 1.250000000000000e+00	 1.000475038461538e+01
0	 8.249999999999998e+00	 0.000000000000000e+00	 9.983153618461539e+00
0	 8.249999999999998e+00	 1.250000000000000e-01	 9.985273469538459e+00
0	 8.249999999999998e+00	 2.500000000000000e-01	 9.987216616000000e+00
0	 8.249999999999998e+00	 3.750000000000001e-01	 9.988983057846150e+00
0	 8.249999999999998e+00	 5.000000000000001e-01	 9.990572795076917e+00
0	 8.249999999999998e+00	 6.250000000000002e-01	 9.991985827692305e+00
0	 8.249999999999996e+00	 7.499999999999999e-01	 9.993222155692305e+00
0	 8.249999999999998e+00	 8.750000000000000e-01	 9.994281779076921e+00
0	 8.249999999999996e+00	 9.999999999999997e-01	 9.995164697846153e+00
0	 8.249999999999996e+00	 1.125000000000000e+00	 9.995870912000001e+00
0	 8.249999999999996e+00	 1.250000000000000e+00	 9.996400421538461e+00
0	 8.374999999999998e+00	 0.000000000000000e+00	 9.975237350769230e+00
0	 8.374999999999996e+00	 1.250000000000000e-01	 9.977011370461538e+00
0	 8.374999999999996e+00	 2.500000000000001e-01	 9.978667734769232e+00
0	 8.374999999999998e+00	 3.750000000000000e-01	 9.980206443692307e+00
0	 8.374999999999996e+00	 5.000000000000000e-01	 9.981627497230765e+00
0	 8.374999999999998e+00	 6.250000000000001e-01	 9.982930895384619e+00
0	 8.374999999999998e+00	 7.500000000000000e-01	 9.984116638153843e+00
0	 8.374999999999996e+00	 8.750000000000000e-01	 9.985184725538463e+00
0	 8.374999999999996e+00	 9.999999999999999e-01	 9.986135157538460e+00
0	 8.374999999999996e+00	 1.125000000000000e+00	 9.986967934153846e+00
0	 8.374999999999996e+00	 1.250000000000000e+00	 9.987683055384615e+00
0	 8.499999999999996e+00	 0.000000000000000e+00	 9.967238504615382e+00
0	 8.499999999999996e+00	 1.250000000000000e-01	 9.968638210461533e+00
0	 8.499999999999996e+00	 2.500000000000001e-01	 9.969979310153846e+00
0	 8.499999999999998e+00	 3.750000000000001e-01	 9.971261803692308e+00
0	 8.499999999999995e+00	 5.000000000000000e-01	 9.972485691076921e+00
0	 8.499999999999995e+00	 6.249999999999999e-01	 9.973650972307686e+00
0	 8.499999999999998e+00	 7.499999999999999e-01	 9.974757647384617e+00
0	 8.499999999999996e+00	 8.750000000000000e-01	 9.975805716307693e+00
0	 8.499999999999996e+00	 9.999999999999999e-01	 9.976795179076925e+00
0	 8.499999999999996e+00	 1.125000000000000e+00	 9.977726035692308e+00
0	 8.499999999999996e+00	 1.250000000000000e+00	 9.978598286153845e+00
0	 8.624999999999996e+00	 0.000000000000000e+00	 9.959157079999997e+00
0	 8.624999999999998e+00	 1.250000000000000e-01	 9.960153989538455e+00
0	 8.624999999999996e+00	 2.500000000000000e-01	 9.961151342153840e+00
0	 8.624999999999998e+00	 3.750000000000001e-01	 9.962149137846151e+00
0	 8.624999999999995e+00	 4.999999999999999e-01	 9.963147376615384e+00
0	 8.624999999999996e+00	 6.250000000000000e-01	 9.964146058461536e+00
0	 8.624999999999995e+00	 7.500000000000000e-01	 9.965145183384616e+00
0	 8.624999999999996e+00	 8.750000000000000e-01	 9.966144751384617e+00
0	 8.624999999999995e+00	 9.999999999999998e-01	 9.967144762461539e+00
0	 8.624999999999996e+00	 1.125000000000000e+00	 9.968145216615387e+00
0	 8.624999999999996e+00	 1.250000000000000e+00	 9.969146113846151e+00
0	 8.750000000000000e+00	 0.000000000000000e+00	 9.950993076923073e+00
0	 8.750000000000002e+00	 1.250000000000000e-01	 9.951558707692303e+00
0	 8.750000000000000e+00	 2.500000000000000e-01	 9.952183830769231e+00
0	 8.750000000000000e+00	 3.750000000000001e-01	 9.952868446153843e+00
0	 8.750000000000000e+00	 5.000000000000000e-01	 9.953612553846154e+00
0	 8.750000000000000e+00	 6.250000000000000e-01	 9.954416153846154e+00
0	 8.750000000000000e+00	 7.500000000000000e-01	 9.955279246153845e+00
0	 8.750000000000000e+00	 8.749999999999999e-01	 9.956201830769228e+00
0	 8.750000000000000e+00	 1.000000000000000e+00	 9.957183907692308e+00
0	 8.750000000000000e+00	 1.125000000000000e+00	 9.958225476923076e+00
0	 8.750000000000000e+00	 1.250000000000000e+00	 9.959326538461537e+00
0	 7.500000000000000e+00	 1.250000000000000e+00	 1.004098915384615e+01
0	 7.500000000000000e+00	 1.375000000000000e+00	 1.004435803846154e+01
0	 7.500000000000000e+00	 1.500000000000000e+00	 1.004765483076923e+01
0	 7.500000000000001e+00	 1.625000000000000e+00	 1.005087953076923e+01
0	 7.500000000000000e+00	 1.750000000000000e+00	 1.005403213846154e+01
0	 7.500000000000000e+00	 1.875000000000000e+00	 1.005711265384615e+01
0	 7.500000000000000e+00	 2.000000000000000e+00	 1.006012107692308e+01
0	 7.499999999999999e+00	 2.125000000000001e+00	 1.006305740769232e+01
0	 7.500000000000001e+00	 2.250000000000001e+00	 1.006592164615385e+01
0	 7.500000000000000e+00	 2.375000000000001e+00	 1.006871379230770e+01
0	 7.500000000000000e+00	 2.500000000000000e+00	 1.007143384615385e+01
0	 7.624999999999999e+00	 1.250000000000000e+00	 1.003447620615385e+01
0	 7.624999999999999e+00	 1.375000000000000e+00	 1.003745607246153e+01
0	 7.624999999999999e+00	 1.500000000000000e+00	 1.004036925107692e+01
0	 7.625000000000000e+00	 1.625000000000000e+00	 1.004321574200000e+01
0	 7.625000000000001e+00	 1.750000000000001e+00	 1.004599554523077e+01
0	 7.625000000000000e+00	 1.875000000000001e+00	 1.004870866076923e+01
0	 7.625000000000000e+00	 2.000000000000001e+00	 1.005135508861539e+01
0	 7.625000000000000e+00	 2.125000000000001e+00	 1.005393482876923e+01
0	 7.624999999999999e+00	 2.250000000000000e+00	 1.005644788123077e+01
0	 7.624999999999997e+00	 2.375000000000000e+00	 1.005889424600000e+01
0	 7.624999999999999e+00	 2.500000000000000e+00	 1.006127392307692e+01
0	 7.749999999999998e+00	 1.250000000000000e+00	 1.002759585538462e+01
0	 7.749999999999999e+00	 1.375000000000000e+00	 1.003025295138461e+01
0	 7.750000000000001e+00	 1.500000000000000e+00	 1.003284876430769e+01
0	 7.749999999999999e+00	 1.625000000000000e+00	 1.003538329415385e+01
0	 7.749999999999999e+00	 1.750000000000001e+00	 1.003785654092308e+01
0	 7.749999999999999e+00	 1.875000000000001e+00	 1.004026850461539e+01
0	 7.749999999999999e+00	 2.000000000000001e+00	 1.004261918523077e+01
0	 7.749999999999999e+00	 2.125000000000000e+00	 1.004490858276923e+01
0	 7.750000000000000e+00	 2.250000000000000e+00	 1.004713669723077e+01
0	 7.749999999999999e+00	 2.375000000000001e+00	 1.004930352861539e+01
0	 7.749999999999998e+00	 2.500000000000000e+00	 1.005140907692308e+01
0	 7.874999999999998e+00	 1.250000000000000e+00	 1.002034810153846e+01
0	 7.874999999999999e+00	 1.375000000000000e+00	 1.002274867523077e+01
0	 7.874999999999999e+00	 1.500000000000000e+00	 1.002509337046153e+01
0	 7.874999999999998e+00	 1.625000000000000e+00	 1.002738218723077e+01
0	 7.874999999999998e+00	 1.750000000000000e+00	 1.002961512553846e+01
0	 7.874999999999997e+00	 1.875000000000000e+00	 1.003179218538461e+01
0	 7.874999999999997e+00	 2.000000000000000e+00	 1.003391336676923e+01
0	 7.874999999999999e+00	 2.125000000000000e+00	 1.003597866969231e+01
0	 7.874999999999999e+00	 2.250000000000001e+00	 1.003798809415384e+01
0	 7.874999999999999e+00	 2.375000000000001e+00	 1.003994164015385e+01
0	 7.874999999999998e+00	 2.500000000000000e+00	 1.004183930769230e+01
0	 7.999999999999998e+00	 1.250000000000000e+00	 1.001273294461538e+01
0	 7.999999999999998e+00	 1.375000000000000e+00	 1.001494324400000e+01
0	 7.999999999999996e+00	 1.500000000000000e+00	 1.001710306953846e+01
0	 7.999999999999998e+00	 1.625000000000000e+00	 1.001921242123077e+01
0	 7.999999999999999e+00	 1.750000000000001e+00	 1.002127129907693e+01
0	 7.999999999999997e+00	 1.875000000000000e+00	 1.002327970307692e+01
0	 8.000000000000000e+00	 2.000000000000001e+00	 1.002523763323077e+01
0	 7.999999999999998e+00	 2.125000000000001e+00	 1.002714508953846e+01
0	 7.999999999999999e+00	 2.250000000000001e+00	 1.002900207200000e+01
0	 7.999999999999999e+00	 2.375000000000001e+00	 1.003080858061538e+01
0	 7.999999999999998e+00	 2.500000000000000e+00	 1.003256461538462e+01
0	 8.124999999999998e+00	 1.250000000000000e+00	 1.000475038461538e+01
0	 8.124999999999996e+00	 1.375000000000000e+00	 1.000683665769230e+01
0	 8.124999999999998e+00	 1.500000000000000e+00	 1.000887786153845e+01
0	 8.124999999999998e+00	 1.625000000000000e+00	 1.001087399615385e+01
0	 8.124999999999998e+00	 1.750000000000001e+00	 1.001282506153846e+01
0	 8.125000000000000e+00	 1.875000000000000e+00	 1.001473105769231e+01
0	 8.124999999999998e+00	 2.000000000000001e+00	 1.001659198461538e+01
0	 8.124999999999998e+00	 2.125000000000001e+00	 1.001840784230769e+01
0	 8.124999999999998e+00	 2.250000000000001e+00	 1.002017863076923e+01
0	 8.124999999999998e+00	 2.375000000000001e+00	 1.002190435000000e+01
0	 8.124999999999998e+00	 2.500000000000000e+00	 1.002358500000000e+01
0	 8.249999999999996e+00	 1.250000000000000e+00	 9.996400421538461e+00
0	 8.249999999999995e+00	 1.375000000000000e+00	 9.998428916307688e+00
0	 8.249999999999998e+00	 1.500000000000001e+00	 1.000041774646153e+01
0	 8.249999999999996e+00	 1.625000000000000e+00	 1.000236691200000e+01
0	 8.249999999999996e+00	 1.750000000000000e+00	 1.000427641292308e+01
0	 8.249999999999998e+00	 1.875000000000001e+00	 1.000614624923076e+01
0	 8.249999999999998e+00	 2.000000000000000e+00	 1.000797642092308e+01
0	 8.249999999999996e+00	 2.125000000000001e+00	 1.000976692800000e+01
0	 8.249999999999998e+00	 2.250000000000001e+00	 1.001151777046153e+01
0	 8.249999999999995e+00	 2.375000000000001e+00	 1.001322894830769e+01
0	 8.249999999999996e+00	 2.500000000000000e+00	 1.001490046153846e+01
0	 8.374999999999996e+00	 1.250000000000000e+00	 9.987683055384615e+00
0	 8.374999999999996e+00	 1.375000000000000e+00	 9.989720019846159e+00
0	 8.374999999999998e+00	 1.500000000000000e+00	 9.991722724307689e+00
0	 8.374999999999996e+00	 1.625000000000000e+00	 9.993691168769230e+00
0	 8.375000000000000e+00	 1.750000000000000e+00	 9.995625353230768e+00
0	 8.374999999999998e+00	 1.875000000000001e+00	 9.997525277692310e+00
0	 8.374999999999995e+00	 2.000000000000001e+00	 9.999390942153839e+00
0	 8.374999999999998e+00	 2.125000000000001e+00	 1.000122234661538e+01
0	 8.374999999999996e+00	 2.250000000000001e+00	 1.000301949107692e+01
0	 8.374999999999996e+00	 2.375000000000001e+00	 1.000478237553845e+01
0	 8.374999999999996e+00	 2.500000000000000e+00	 1.000651100000000e+01
0	 8.499999999999996e+00	 1.250000000000000e+00	 9.978598286153845e+00
0	 8.499999999999996e+00	 1.375000000000000e+00	 9.980709968307693e+00
0	 8.499999999999996e+00	 1.500000000000000e+00	 9.982792795076918e+00
0	 8.499999999999996e+00	 1.625000000000000e+00	 9.984846766461533e+00
0	 8.499999999999996e+00	 1.750000000000001e+00	 9.986871882461536e+00
0	 8.499999999999996e+00	 1.875000000000000e+00	 9.988868143076921e+00
0	 8.499999999999998e+00	 2.000000000000001e+00	 9.990835548307688e+00
0	 8.499999999999996e+00	 2.125000000000000e+00	 9.992774098153845e+00
0	 8.499999999999996e+00	 2.250000000000001e+00	 9.994683792615387e+00
0	 8.499999999999996e+00	 2.375000000000001e+00	 9.996564631692305e+00
0	 8.499999999999996e+00	 2.500000000000000e+00	 9.998416615384613e+00
0	 8.624999999999996e+00	 1.250000000000000e+00	 9.969146113846151e+00
0	 8.624999999999998e+00	 1.375000000000000e+00	 9.971398761692308e+00
0	 8.624999999999996e+00	 1.500000000000000e+00	 9.973627958769233e+00
0	 8.624999999999995e+00	 1.625000000000000e+00	 9.975833705076916e+00
0	 8.624999999999998e+00	 1.750000000000000e+00	 9.978016000615378e+00
0	 8.624999999999996e+00	 1.875000000000000e+00	 9.980174845384612e+00
0	 8.624999999999996e+00	 2.000000000000001e+00	 9.982310239384610e+00
0	 8.624999999999996e+00	 2.125000000000000e+00	 9.984422182615385e+00
0	 8.624999999999996e+00	 2.250000000000001e+00	 9.986510675076918e+00
0	 8.624999999999996e+00	 2.375000000000001e+00	 9.988575716769230e+00
0	 8.624999999999996e+00	 2.500000000000000e+00	 9.990617307692304e+00
0	 8.750000000000000e+00	 1.250000000000000e+00	 9.959326538461537e+00
0	 8.750000000000000e+00	 1.375000000000000e+00	 9.961786399999994e+00
0	 8.750000000000000e+00	 1.500000000000000e+00	 9.964228215384614e+00
0	 8.750000000000002e+00	 1.625000000000000e+00	 9.966651984615380e+00
0	 8.750000000000000e+00	 1.750000000000000e+00	 9.969057707692304e+00
0	 8.750000000000002e+00	 1.875000000000000e+00	 9.971445384615382e+00
0	 8.750000000000000e+00	 2.000000000000000e+00	 9.973815015384616e+00
0	 8.750000000000000e+00	 2.125000000000001e+00	 9.976166599999999e+00
0	 8.750000000000002e+00	 2.250000000000001e+00	 9.978500138461534e+00
0	 8.750000000000000e+00	 2.375000000000001e+00	 9.980815630769232e+00
0	 8.750000000000000e+00	 2.500000000000000e+00	 9.983113076923074e+00
0	 7.500000000000000e+00	 2.500000000000000e+00	 1.007143384615385e+01
0	 7.500000000000000e+00	 2.625000000000000e+00	 1.007061926153846e+01
0	 7.500000000000000e+00	 2.750000000000000e+00	 1.007004689230769e+01
0	 7.500000000000001e+00	 2.875000000000001e+00	 1.006971673846154e+01
0	 7.500000000000000e+00	 3.000000000000000e+00	 1.006962880000000e+01
0	 7.500000000000000e+00	 3.125000000000000e+00	 1.006978307692308e+01
0	 7.500000000000000e+00	 3.250000000000000e+00	 1.007017956923077e+01
0	 7.499999999999999e+00	 3.375000000000001e+00	 1.007081827692308e+01
0	 7.500000000000001e+00	 3.500000000000001e+00	 1.007169920000000e+01
0	 7.500000000000000e+00	 3.625000000000001e+00	 1.007282233846153e+01
0	 7.500000000000000e+00	 3.750000000000000e+00	 1.007418769230769e+01
0	 7.624999999999999e+00	 2.500000000000000e+00	 1.006127392307692e+01
0	 7.624999999999999e+00	 2.625000000000000e+00	 1.006093881307692e+01
0	 7.624999999999999e+00	 2.750000000000000e+00	 1.006082260153846e+01
0	 7.625000000000000e+00	 2.875000000000000e+00	 1.006092528846154e+01
0	 7.625000000000001e+00	 3.000000000000001e+00	 1.006124687384615e+01
0	 7.625000000000000e+00	 3.125000000000001e+00	 1.006178735769231e+01
0	 7.625000000000000e+00	 3.250000000000001e+00	 1.006254674000000e+01
0	 7.625000000000000e+00	 3.375000000000001e+00	 1.006352502076923e+01
0	 7.624999999999999e+00	 3.500000000000000e+00	 1.006472219999999e+01
0	 7.624999999999997e+00	 3.625000000000000e+00	 1.006613827769231e+01
0	 7.624999999999999e+00	 3.750000000000000e+00	 1.006777325384615e+01
0	 7.749999999999998e+00	 2.500000000000000e+00	 1.005140907692308e+01
0	 7.749999999999999e+00	 2.625000000000000e+00	 1.005152263076923e+01
0	 7.750000000000001e+00	 2.750000000000001e+00	 1.005183176615385e+01
0	 7.749999999999999e+00	 2.875000000000000e+00	 1.005233648307692e+01
0	 7.749999999999999e+00	 3.000000000000000e+00	 1.005303678153846e+01
0	 7.749999999999999e+00	 3.125000000000001e+00	 1.005393266153846e+01
0	 7.749999999999999e+00	 3.250000000000001e+00	 1.005502412307693e+01
0	 7.749999999999999e+00	 3.375000000000000e+00	 1.005631116615384e+01
0	 7.750000000000000e+00	 3.500000000000001e+00	 1.005779379076922e+01
0	 7.749999999999999e+00	 3.625000000000002e+00	 1.005947199692308e+01
0	 7.749999999999998e+00	 3.750000000000000e+00	 1.006134578461538e+01
0	 7.874999999999998e+00	 2.500000000000000e+00	 1.004183930769230e+01
0	 7.874999999999999e+00	 2.625000000000000e+00	 1.004237071461539e+01
0	 7.874999999999999e+00	 2.750000000000000e+00	 1.004307438615384e+01
0	 7.874999999999998e+00	 2.875000000000000e+00	 1.004395032230769e+01
0	 7.874999999999998e+00	 3.000000000000000e+00	 1.004499852307693e+01
0	 7.874999999999997e+00	 3.125000000000000e+00	 1.004621898846154e+01
0	 7.874999999999997e+00	 3.250000000000000e+00	 1.004761171846154e+01
0	 7.874999999999999e+00	 3.375000000000001e+00	 1.004917671307692e+01
0	 7.874999999999999e+00	 3.500000000000001e+00	 1.005091397230769e+01
0	 7.874999999999999e+00	 3.625000000000000e+00	 1.005282349615385e+01
0	 7.874999999999998e+00	 3.750000000000000e+00	 1.005490528461539e+01
0	 7.999999999999998e+00	 2.500000000000000e+00	 1.003256461538462e+01
0	 7.999999999999998e+00	 2.625000000000000e+00	 1.003348306461538e+01
0	 7.999999999999996e+00	 2.750000000000000e+00	 1.003455046153846e+01
0	 7.999999999999998e+00	 2.875000000000000e+00	 1.003576680615384e+01
0	 7.999999999999999e+00	 3.000000000000000e+00	 1.003713209846154e+01
0	 7.999999999999997e+00	 3.125000000000000e+00	 1.003864633846153e+01
0	 8.000000000000000e+00	 3.250000000000001e+00	 1.004030952615385e+01
0	 7.999999999999998e+00	 3.375000000000001e+00	 1.004212166153846e+01
0	 7.999999999999999e+00	 3.500000000000001e+00	 1.004408274461539e+01
0	 7.999999999999999e+00	 3.625000000000001e+00	 1.004619277538462e+01
0	 7.999999999999998e+00	 3.750000000000000e+00	 1.004845175384615e+01
0	 8.124999999999998e+00	 2.500000000000000e+00	 1.002358500000000e+01
0	 8.124999999999996e+00	 2.625000000000000e+00	 1.002485968076923e+01
0	 8.124999999999998e+00	 2.750000000000000e+00	 1.002625999230769e+01
0	 8.124999999999998e+00	 2.875000000000000e+00	 1.002778593461538e+01
0	 8.124999999999998e+00	 3.000000000000000e+00	 1.002943750769231e+01
0	 8.125000000000000e+00	 3.125000000000000e+00	 1.003121471153846e+01
0	 8.124999999999998e+00	 3.250000000000000e+00	 1.003311754615384e+01
0	 8.124999999999998e+00	 3.375000000000001e+00	 1.003514601153846e+01
0	 8.124999999999998e+00	 3.500000000000000e+00	 1.003730010769231e+01
0	 8.124999999999998e+00	 3.625000000000001e+00	 1.003957983461538e+01
0	 8.124999999999998e+00	 3.750000000000000e+00	 1.004198519230769e+01
0	 8.249999999999996e+00	 2.500000000000000e+00	 1.001490046153846e+01
0	 8.249999999999995e+00	 2.625000000000000e+00	 1.001650056307693e+01
0	 8.249999999999998e+00	 2.750000000000000e+00	 1.001820297846153e+01
0	 8.249999999999996e+00	 2.875000000000000e+00	 1.002000770769231e+01
0	 8.249999999999996e+00	 3.000000000000000e+00	 1.002191475076923e+01
0	 8.249999999999998e+00	 3.125000000000000e+00	 1.002392410769231e+01
0	 8.249999999999998e+00	 3.250000000000000e+00	 1.002603577846154e+01
0	 8.249999999999996e+00	 3.375000000000000e+00	 1.002824976307692e+01
0	 8.249999999999998e+00	 3.500000000000001e+00	 1.003056606153846e+01
0	 8.249999999999995e+00	 3.625000000000000e+00	 1.003298467384615e+01
0	 8.249999999999996e+00	 3.750000000000000e+00	 1.003550560000000e+01
0	 8.374999999999996e+00	 2.500000000000000e+00	 1.000651100000000e+01
0	 8.374999999999996e+00	 2.625000000000000e+00	 1.000840571153846e+01
0	 8.374999999999998e+00	 2.750000000000000e+00	 1.001037942000000e+01
0	 8.374999999999996e+00	 2.875000000000000e+00	 1.001243212538461e+01
0	 8.375000000000000e+00	 3.000000000000001e+00	 1.001456382769230e+01
0	 8.374999999999998e+00	 3.125000000000001e+00	 1.001677452692308e+01
0	 8.374999999999995e+00	 3.250000000000000e+00	 1.001906422307692e+01
0	 8.374999999999998e+00	 3.375000000000001e+00	 1.002143291615385e+01
0	 8.374999999999996e+00	 3.500000000000001e+00	 1.002388060615385e+01
0	 8.374999999999996e+00	 3.625000000000001e+00	 1.002640729307692e+01
0	 8.374999999999996e+00	 3.750000000000000e+00	 1.002901297692308e+01
0	 8.499999999999996e+00	 2.500000000000000e+00	 9.998416615384613e+00
0	 8.499999999999996e+00	 2.625000000000000e+00	 1.000057512615384e+01
0	 8.499999999999996e+00	 2.750000000000000e+00	 1.000278931692307e+01
0	 8.499999999999996e+00	 2.875000000000000e+00	 1.000505918769231e+01
0	 8.499999999999996e+00	 3.000000000000000e+00	 1.000738473846154e+01
0	 8.499999999999996e+00	 3.125000000000000e+00	 1.000976596923076e+01
0	 8.499999999999998e+00	 3.250000000000002e+00	 1.001220288000000e+01
0	 8.499999999999996e+00	 3.375000000000000e+00	 1.001469547076923e+01
0	 8.499999999999996e+00	 3.500000000000001e+00	 1.001724374153846e+01
0	 8.499999999999996e+00	 3.625000000000001e+00	 1.001984769230769e+01
0	 8.499999999999996e+00	 3.750000000000000e+00	 1.002250732307692e+01
0	 8.624999999999996e+00	 2.500000000000000e+00	 9.990617307692304e+00
0	 8.624999999999998e+00	 2.625000000000001e+00	 9.993008806923068e+00
0	 8.624999999999996e+00	 2.750000000000000e+00	 9.995432669230768e+00
0	 8.624999999999995e+00	 2.875000000000000e+00	 9.997888894615384e+00
0	 8.624999999999998e+00	 3.000000000000001e+00	 1.000037748307692e+01
0	 8.624999999999996e+00	 3.125000000000000e+00	 1.000289843461539e+01
0	 8.624999999999996e+00	 3.250000000000000e+00	 1.000545174923077e+01
0	 8.624999999999996e+00	 3.375000000000000e+00	 1.000803742692308e+01
0	 8.624999999999996e+00	 3.500000000000000e+00	 1.001065546769231e+01
0	 8.624999999999996e+00	 3.625000000000001e+00	 1.001330587153846e+01
0	 8.624999999999996e+00	 3.750000000000000e+00	 1.001598863846154e+01
0	 8.750000000000000e+00	 2.500000000000000e+00	 9.983113076923074e+00
0	 8.750000000000000e+00	 2.625000000000000e+00	 9.985706753846149e+00
0	 8.750000000000000e+00	 2.750000000000000e+00	 9.988309476923078e+00
0	 8.750000000000002e+00	 2.875000000000001e+00	 9.990921246153848e+00
0	 8.750000000000000e+00	 3.000000000000000e+00	 9.993542061538458e+00
0	 8.750000000000002e+00	 3.125000000000000e+00	 9.996171923076922e+00
0	 8.750000000000000e+00	 3.250000000000000e+00	 9.998810830769232e+00
0	 8.750000000000000e+00	 3.375000000000001e+00	 1.000145878461539e+01
0	 8.750000000000002e+00	 3.500000000000001e+00	 1.000411578461538e+01
0	 8.750000000000000e+00	 3.625000000000001e+00	 1.000678183076923e+01
0	 8.750000000000000e+00	 3.750000000000000e+00	 1.000945692307693e+01
0	 7.500000000000000e+00	 3.750000000000000e+00	 1.007418769230769e+01
0	 7.500000000000000e+00	 3.875000000000000e+00	 1.007360116923077e+01
0	 7.500000000000000e+00	 4.000000000000001e+00	 1.007308267692308e+01
0	 7.500000000000001e+00	 4.125000000000001e+00	 1.007263221538462e+01
0	 7.500000000000000e+00	 4.250000000000001e+00	 1.007224978461539e+01
0	 7.500000000000000e+00	 4.375000000000001e+00	 1.007193538461539e+01
0	 7.500000000000000e+00	 4.500000000000000e+00	 1.007168901538461e+01
0	 7.499999999999999e+00	 4.625000000000001e+00	 1.007151067692308e+01
0	 7.500000000000001e+00	 4.750000000000002e+00	 1.007140036923077e+01
0	 7.500000000000000e+00	 4.875000000000002e+00	 1.007135809230769e+01
0	 7.500000000000000e+00	 5.000000000000000e+00	 1.007138384615384e+01
0	 7.624999999999999e+00	 3.750000000000000e+00	 1.006777325384615e+01
0	 7.624999999999999e+00	 3.875000000000000e+00	 1.006713266769230e+01
0	 7.624999999999999e+00	 4.000000000000001e+00	 1.006656197692307e+01
0	 7.625000000000000e+00	 4.125000000000000e+00	 1.006606118153845e+01
0	 7.625000000000001e+00	 4.250000000000002e+00	 1.006563028153846e+01
0	 7.625000000000000e+00	 4.375000000000001e+00	 1.006526927692308e+01
0	 7.625000000000000e+00	 4.500000000000001e+00	 1.006497816769231e+01
0	 7.625000000000000e+00	 4.625000000000000e+00	 1.006475695384615e+01
0	 7.624999999999999e+00	 4.750000000000001e+00	 1.006460563538461e+01
0	 7.624999999999997e+00	 4.874999999999999e+00	 1.006452421230769e+01
0	 7.624999999999999e+00	 4.999999999999999e+00	 1.006451268461538e+01
0	 7.749999999999998e+00	 3.750000000000000e+00	 1.006134578461538e+01
0	 7.749999999999999e+00	 3.875000000000000e+00	 1.006069031384616e+01
0	 7.750000000000001e+00	 4.000000000000001e+00	 1.006010660307692e+01
0	 7.749999999999999e+00	 4.125000000000001e+00	 1.005959465230769e+01
0	 7.749999999999999e+00	 4.250000000000001e+00	 1.005915446153846e+01
0	 7.749999999999999e+00	 4.375000000000002e+00	 1.005878603076923e+01
0	 7.749999999999999e+00	 4.500000000000001e+00	 1.005848936000000e+01
0	 7.749999999999999e+00	 4.625000000000000e+00	 1.005826444923077e+01
0	 7.750000000000000e+00	 4.750000000000001e+00	 1.005811129846155e+01
0	 7.749999999999999e+00	 4.875000000000001e+00	 1.005802990769230e+01
0	 7.749999999999998e+00	 4.999999999999999e+00	 1.005802027692308e+01
0	 7.874999999999998e+00	 3.750000000000000e+00	 1.005490528461539e+01
0	 7.874999999999999e+00	 3.875000000000000e+00	 1.005427410769231e+01
0	 7.874999999999999e+00	 4.000000000000000e+00	 1.005371655538461e+01
0	 7.874999999999998e+00	 4.125000000000000e+00	 1.005323262769231e+01
0	 7.874999999999998e+00	 4.250000000000002e+00	 1.005282232461538e+01
0	 7.874999999999997e+00	 4.375000000000000e+00	 1.005248564615385e+01
0	 7.874999999999997e+00	 4.500000000000001e+00	 1.005222259230769e+01
0	 7.874999999999999e+00	 4.625000000000001e+00	 1.005203316307692e+01
0	 7.874999999999999e+00	 4.750000000000001e+00	 1.005191735846154e+01
0	 7.874999999999999e+00	 4.875000000000001e+00	 1.005187517846153e+01
0	 7.874999999999998e+00	 5.000000000000000e+00	 1.005190662307692e+01
0	 7.999999999999998e+00	 3.750000000000000e+00	 1.004845175384615e+01
0	 7.999999999999998e+00	 3.875000000000000e+00	 1.004788404923077e+01
0	 7.999999999999996e+00	 4.000000000000000e+00	 1.004739183384615e+01
0	 7.999999999999998e+00	 4.125000000000001e+00	 1.004697510769231e+01
0	 7.999999999999999e+00	 4.250000000000001e+00	 1.004663387076923e+01
0	 7.999999999999997e+00	 4.375000000000000e+00	 1.004636812307693e+01
0	 8.000000000000000e+00	 4.500000000000000e+00	 1.004617786461538e+01
0	 7.999999999999998e+00	 4.625000000000001e+00	 1.004606309538461e+01
0	 7.999999999999999e+00	 4.750000000000001e+00	 1.004602381538461e+01
0	 7.999999999999999e+00	 4.875000000000001e+00	 1.004606002461538e+01
0	 7.999999999999998e+00	 5.000000000000001e+00	 1.004617172307692e+01
0	 8.124999999999998e+00	 3.750000000000000e+00	 1.004198519230769e+01
0	 8.124999999999996e+00	 3.874999999999999e+00	 1.004152013846154e+01
0	 8.124999999999998e+00	 4.000000000000000e+00	 1.004113243846153e+01
0	 8.124999999999998e+00	 4.125000000000000e+00	 1.004082209230769e+01
0	 8.124999999999998e+00	 4.250000000000000e+00	 1.004058909999999e+01
0	 8.125000000000000e+00	 4.375000000000000e+00	 1.004043346153846e+01
0	 8.124999999999998e+00	 4.500000000000001e+00	 1.004035517692308e+01
0	 8.124999999999998e+00	 4.625000000000002e+00	 1.004035424615384e+01
0	 8.124999999999998e+00	 4.750000000000001e+00	 1.004043066923076e+01
0	 8.124999999999998e+00	 4.875000000000001e+00	 1.004058444615384e+01
0	 8.124999999999998e+00	 5.000000000000000e+00	 1.004081557692307e+01
0	 8.249999999999996e+00	 3.750000000000000e+00	 1.003550560000000e+01
0	 8.249999999999995e+00	 3.875000000000000e+00	 1.003518237538461e+01
0	 8.249999999999998e+00	 4.000000000000001e+00	 1.003493836923076e+01
0	 8.249999999999996e+00	 4.125000000000000e+00	 1.003477358153847e+01
0	 8.249999999999996e+00	 4.249999999999999e+00	 1.003468801230769e+01
0	 8.249999999999998e+00	 4.375000000000001e+00	 1.003468166153846e+01
0	 8.249999999999998e+00	 4.500000000000000e+00	 1.003475452923077e+01
0	 8.249999999999996e+00	 4.625000000000001e+00	 1.003490661538461e+01
0	 8.249999999999998e+00	 4.750000000000002e+00	 1.003513792000000e+01
0	 8.249999999999995e+00	 4.875000000000000e+00	 1.003544844307692e+01
0	 8.249999999999996e+00	 5.000000000000000e+00	 1.003583818461539e+01
0	 8.374999999999996e+00	 3.750000000000000e+00	 1.002901297692308e+01
0	 8.374999999999996e+00	 3.875000000000000e+00	 1.002887076000000e+01
0	 8.374999999999998e+00	 4.000000000000002e+00	 1.002880962615384e+01
0	 8.374999999999996e+00	 4.125000000000001e+00	 1.002882957538461e+01
0	 8.375000000000000e+00	 4.250000000000002e+00	 1.002893060769230e+01
0	 8.374999999999998e+00	 4.375000000000001e+00	 1.002911272307692e+01
0	 8.374999999999995e+00	 4.500000000000001e+00	 1.002937592153846e+01
0	 8.374999999999998e+00	 4.625000000000002e+00	 1.002972020307692e+01
0	 8.374999999999996e+00	 4.750000000000000e+00	 1.003014556769230e+01
0	 8.374999999999996e+00	 4.875000000000001e+00	 1.003065201538461e+01
0	 8.374999999999996e+00	 5.000000000000000e+00	 1.003123954615385e+01
0	 8.499999999999996e+00	 3.750000000000000e+00	 1.002250732307692e+01
0	 8.499999999999996e+00	 3.875000000000000e+00	 1.002258529230770e+01
0	 8.499999999999996e+00	 3.999999999999999e+00	 1.002274620923077e+01
0	 8.499999999999996e+00	 4.124999999999999e+00	 1.002299007384615e+01
0	 8.499999999999996e+00	 4.250000000000001e+00	 1.002331688615384e+01
0	 8.499999999999996e+00	 4.375000000000001e+00	 1.002372664615384e+01
0	 8.499999999999998e+00	 4.500000000000001e+00	 1.002421935384615e+01
0	 8.499999999999996e+00	 4.625000000000000e+00	 1.002479500923077e+01
0	 8.499999999999996e+00	 4.750000000000000e+00	 1.002545361230769e+01
0	 8.499999999999996e+00	 4.875000000000002e+00	 1.002619516307692e+01
0	 8.499999999999996e+00	 4.999999999999999e+00	 1.002701966153846e+01
0	 8.624999999999996e+00	 3.750000000000000e+00	 1.001598863846154e+01
0	 8.624999999999998e+00	 3.875000000000000e+00	 1.001632597230769e+01
0	 8.624999999999996e+00	 4.000000000000000e+00	 1.001674811846154e+01
0	 8.624999999999995e+00	 4.125000000000000e+00	 1.001725507692307e+01
0	 8.624999999999998e+00	 4.250000000000000e+00	 1.001784684769230e+01
0	 8.624999999999996e+00	 4.375000000000001e+00	 1.001852343076923e+01
0	 8.624999999999996e+00	 4.500000000000001e+00	 1.001928482615384e+01
0	 8.624999999999996e+00	 4.625000000000001e+00	 1.002013103384615e+01
0	 8.624999999999996e+00	 4.750000000000000e+00	 1.002106205384614e+01
0	 8.624999999999996e+00	 4.875000000000001e+00	 1.002207788615384e+01
0	 8.624999999999996e+00	 5.000000000000000e+00	 1.002317853076922e+01
0	 8.750000000000000e+00	 3.750000000000000e+00	 1.000945692307693e+01
0	 8.750000000000000e+00	 3.875000000000000e+00	 1.001009280000000e+01
0	 8.750000000000000e+00	 4.000000000000001e+00	 1.001081535384616e+01
0	 8.750000000000002e+00	 4.125000000000001e+00	 1.001162458461538e+01
0	 8.750000000000000e+00	 4.250000000000001e+00	 1.001252049230769e+01
0	 8.750000000000002e+00	 4.375000000000001e+00	 1.001350307692308e+01
0	 8.750000000000000e+00	 4.500000000000000e+00	 1.001457233846153e+01
0	 8.750000000000000e+00	 4.625000000000001e+00	 1.001572827692307e+01
0	 8.750000000000002e+00	 4.750000000000002e+00	 1.001697089230769e+01
0	 8.750000000000000e+00	 4.875000000000002e+00	 1.001830018461538e+01
0	 8.750000000000000e+00	 5.000000000000000e+00	 1.001971615384615e+01
0	 7.500000000000000e+00	 5.000000000000000e+00	 1.007138384615384e+01
0	 7.500000000000001e+00	 5.124999999999999e+00	 1.006833751538462e+01
0	 7.500000000000002e+00	 5.250000000000000e+00	 1.006543283076923e+01
0	 7.500000000000000e+00	 5.374999999999998e+00	 1.006266979230769e+01
0	 7.500000000000000e+00	 5.499999999999999e+00	 1.006004839999999e+01
0	 7.500000000000000e+00	 5.624999999999997e+00	 1.005756865384616e+01
0	 7.500000000000000e+00	 5.749999999999997e+00	 1.005523055384614e+01
0	 7.499999999999999e+00	 5.874999999999996e+00	 1.005303409999999e+01
0	 7.500000000000001e+00	 5.999999999999996e+00	 1.005097929230769e+01
0	 7.500000000000000e+00	 6.124999999999996e+00	 1.004906613076923e+01
0	 7.500000000000000e+00	 6.250000000000000e+00	 1.004729461538461e+01
0	 7.624999999999999e+00	 4.999999999999999e+00	 1.006451268461538e+01
0	 7.624999999999999e+00	 5.125000000000001e+00	 1.006194984153846e+01
0	 7.624999999999999e+00	 5.249999999999998e+00	 1.005951584153846e+01
0	 7.624999999999999e+00	 5.374999999999998e+00	 1.005721068461538e+01
0	 7.625000000000000e+00	 5.499999999999999e+00	 1.005503437076923e+01
0	 7.625000000000001e+00	 5.624999999999998e+00	 1.005298690000000e+01
0	 7.625000000000001e+00	 5.749999999999999e+00	 1.005106827230769e+01
0	 7.625000000000000e+00	 5.874999999999997e+00	 1.004927848769230e+01
0	 7.625000000000002e+00	 5.999999999999998e+00	 1.004761754615384e+01
0	 7.624999999999997e+00	 6.124999999999994e+00	 1.004608544769230e+01
0	 7.624999999999999e+00	 6.249999999999999e+00	 1.004468219230769e+01
0	 7.749999999999998e+00	 4.999999999999999e+00	 1.005802027692308e+01
0	 7.749999999999999e+00	 5.125000000000000e+00	 1.005590180769231e+01
0	 7.750000000000000e+00	 5.250000000000000e+00	 1.005389937846154e+01
0	 7.750000000000000e+00	 5.375000000000000e+00	 1.005201298923076e+01
0	 7.749999999999996e+00	 5.499999999999997e+00	 1.005024264000000e+01
0	 7.750000000000000e+00	 5.624999999999998e+00	 1.004858833076923e+01
0	 7.749999999999996e+00	 5.749999999999997e+00	 1.004705006153846e+01
0	 7.749999999999999e+00	 5.874999999999998e+00	 1.004562783230769e+01
0	 7.749999999999998e+00	 5.999999999999996e+00	 1.004432164307692e+01
0	 7.750000000000001e+00	 6.124999999999997e+00	 1.004313149384614e+01
0	 7.749999999999998e+00	 6.250000000000000e+00	 1.004205738461538e+01
0	 7.874999999999998e+00	 5.000000000000000e+00	 1.005190662307692e+01
0	 7.874999999999999e+00	 5.125000000000000e+00	 1.005019341384615e+01
0	 7.875000000000000e+00	 5.249999999999999e+00	 1.004858344153846e+01
0	 7.874999999999999e+00	 5.374999999999998e+00	 1.004707670615384e+01
0	 7.874999999999999e+00	 5.499999999999998e+00	 1.004567320769230e+01
0	 7.874999999999998e+00	 5.624999999999998e+00	 1.004437294615384e+01
0	 7.874999999999999e+00	 5.749999999999998e+00	 1.004317592153845e+01
0	 7.874999999999998e+00	 5.874999999999997e+00	 1.004208213384615e+01
0	 7.875000000000000e+00	 5.999999999999997e+00	 1.004109158307692e+01
0	 7.874999999999996e+00	 6.124999999999996e+00	 1.004020426923077e+01
0	 7.874999999999998e+00	 6.250000000000000e+00	 1.003942019230768e+01
0	 7.999999999999998e+00	 5.000000000000001e+00	 1.004617172307692e+01
0	 7.999999999999998e+00	 5.124999999999999e+00	 1.004482466000000e+01
0	 7.999999999999999e+00	 5.250000000000000e+00	 1.004356803076923e+01
0	 7.999999999999998e+00	 5.375000000000000e+00	 1.004240183538461e+01
0	 7.999999999999997e+00	 5.499999999999999e+00	 1.004132607384615e+01
0	 7.999999999999998e+00	 5.624999999999998e+00	 1.004034074615384e+01
0	 7.999999999999997e+00	 5.749999999999997e+00	 1.003944585230769e+01
0	 7.999999999999998e+00	 5.874999999999996e+00	 1.003864139230769e+01
0	 7.999999999999998e+00	 5.999999999999997e+00	 1.003792736615384e+01
0	 7.999999999999998e+00	 6.124999999999996e+00	 1.003730377384615e+01
0	 7.999999999999998e+00	 6.250000000000000e+00	 1.003677061538461e+01
0	 8.124999999999998e+00	 5.000000000000000e+00	 1.004081557692307e+01
0	 8.124999999999998e+00	 5.124999999999998e+00	 1.003979554615384e+01
0	 8.124999999999998e+00	 5.249999999999999e+00	 1.003885314615384e+01
0	 8.125000000000000e+00	 5.375000000000000e+00	 1.003798837692307e+01
0	 8.124999999999995e+00	 5.499999999999998e+00	 1.003720123846153e+01
0	 8.124999999999998e+00	 5.624999999999997e+00	 1.003649173076923e+01
0	 8.125000000000000e+00	 5.749999999999998e+00	 1.003585985384615e+01
0	 8.124999999999998e+00	 5.874999999999996e+00	 1.003530560769230e+01
0	 8.124999999999998e+00	 5.999999999999996e+00	 1.003482899230768e+01
0	 8.124999999999998e+00	 6.124999999999996e+00	 1.003443000769231e+01
0	 8.124999999999998e+00	 6.250000000000000e+00	 1.003410865384616e+01
0	 8.249999999999996e+00	 5.000000000000000e+00	 1.003583818461539e+01
0	 8.249999999999996e+00	 5.124999999999999e+00	 1.003510607230769e+01
0	 8.249999999999996e+00	 5.249999999999999e+00	 1.003443878769230e+01
0	 8.249999999999995e+00	 5.374999999999999e+00	 1.003383633076922e+01
0	 8.250000000000000e+00	 5.500000000000000e+00	 1.003329870153846e+01
0	 8.249999999999998e+00	 5.624999999999999e+00	 1.003282590000000e+01
0	 8.249999999999998e+00	 5.749999999999997e+00	 1.003241792615385e+01
0	 8.249999999999998e+00	 5.874999999999997e+00	 1.003207477999999e+01
0	 8.249999999999996e+00	 5.999999999999997e+00	 1.003179646153845e+01
0	 8.249999999999996e+00	 6.124999999999996e+00	 1.003158297076923e+01
0	 8.249999999999996e+00	 6.250000000000000e+00	 1.003143430769230e+01
0	 8.374999999999996e+00	 5.000000000000000e+00	 1.003123954615385e+01
0	 8.374999999999996e+00	 5.124999999999999e+00	 1.003075623846153e+01
0	 8.374999999999998e+00	 5.249999999999999e+00	 1.003032495538461e+01
0	 8.374999999999998e+00	 5.375000000000000e+00	 1.002994569692306e+01
0	 8.374999999999996e+00	 5.499999999999998e+00	 1.002961846307691e+01
0	 8.375000000000000e+00	 5.624999999999998e+00	 1.002934325384614e+01
0	 8.374999999999998e+00	 5.749999999999997e+00	 1.002912006923077e+01
0	 8.374999999999998e+00	 5.874999999999996e+00	 1.002894890923077e+01
0	 8.374999999999996e+00	 5.999999999999996e+00	 1.002882977384615e+01
0	 8.374999999999998e+00	 6.124999999999996e+00	 1.002876266307692e+01
0	 8.374999999999996e+00	 6.250000000000000e+00	 1.002874757692306e+01
0	 8.499999999999996e+00	 4.999999999999999e+00	 1.002701966153846e+01
0	 8.500000000000000e+00	 5.125000000000002e+00	 1.002674604461537e+01
0	 8.499999999999996e+00	 5.249999999999999e+00	 1.002651164923077e+01
0	 8.499999999999996e+00	 5.374999999999999e+00	 1.002631647538461e+01
0	 8.499999999999996e+00	 5.499999999999998e+00	 1.002616052307691e+01
0	 8.499999999999996e+00	 5.624999999999997e+00	 1.002604379230769e+01
0	 8.499999999999996e+00	 5.749999999999997e+00	 1.002596628307692e+01
0	 8.499999999999996e+00	 5.874999999999996e+00	 1.002592799538461e+01
0	 8.499999999999996e+00	 5.999999999999996e+00	 1.002592892923077e+01
0	 8.499999999999996e+00	 6.124999999999996e+00	 1.002596908461538e+01
0	 8.499999999999996e+00	 6.250000000000000e+00	 1.002604846153846e+01
0	 8.624999999999996e+00	 5.000000000000000e+00	 1.002317853076922e+01
0	 8.624999999999998e+00	 5.125000000000000e+00	 1.002307549076923e+01
0	 8.624999999999996e+00	 5.250000000000000e+00	 1.002299886923076e+01
0	 8.624999999999996e+00	 5.374999999999999e+00	 1.002294866615384e+01
0	 8.624999999999996e+00	 5.499999999999998e+00	 1.002292488153846e+01
0	 8.624999999999996e+00	 5.624999999999998e+00	 1.002292751538461e+01
0	 8.624999999999995e+00	 5.749999999999998e+00	 1.002295656769231e+01
0	 8.624999999999995e+00	 5.874999999999996e+00	 1.002301203846153e+01
0	 8.624999999999996e+00	 5.999999999999996e+00	 1.002309392769231e+01
0	 8.624999999999996e+00	 6.124999999999996e+00	 1.002320223538461e+01
0	 8.624999999999996e+00	 6.250000000000000e+00	 1.002333696153846e+01
0	 8.750000000000000e+00	 5.000000000000000e+00	 1.001971615384615e+01
0	 8.750000000000000e+00	 5.124999999999999e+00	 1.001974457692308e+01
0	 8.750000000000002e+00	 5.250000000000000e+00	 1.001978661538461e+01
0	 8.750000000000000e+00	 5.374999999999998e+00	 1.001984226923076e+01
0	 8.750000000000000e+00	 5.499999999999999e+00	 1.001991153846153e+01
0	 8.750000000000000e+00	 5.624999999999997e+00	 1.001999442307693e+01
0	 8.750000000000000e+00	 5.749999999999997e+00	 1.002009092307691e+01
0	 8.750000000000000e+00	 5.874999999999996e+00	 1.002020103846154e+01
0	 8.750000000000000e+00	 5.999999999999996e+00	 1.002032476923076e+01
0	 8.750000000000000e+00	 6.124999999999996e+00	 1.002046211538462e+01
0	 8.750000000000000e+00	 6.250000000000000e+00	 1.002061307692308e+01
0	 7.500000000000000e+00	 6.250000000000000e+00	 1.004729461538461e+01
0	 7.500000000000001e+00	 6.375000000000000e+00	 1.004542762307690e+01
0	 7.500000000000002e+00	 6.500000000000000e+00	 1.004351664615384e+01
0	 7.500000000000000e+00	 6.624999999999998e+00	 1.004156168461539e+01
0	 7.500000000000000e+00	 6.749999999999998e+00	 1.003956273846154e+01
0	 7.500000000000000e+00	 6.874999999999998e+00	 1.003751980769230e+01
0	 7.500000000000000e+00	 6.999999999999997e+00	 1.003543289230769e+01
0	 7.499999999999999e+00	 7.124999999999996e+00	 1.003330199230769e+01
0	 7.500000000000001e+00	 7.249999999999997e+00	 1.003112710769231e+01
0	 7.500000000000000e+00	 7.374999999999996e+00	 1.002890823846153e+01
0	 7.500000000000000e+00	 7.500000000000000e+00	 1.002664538461539e+01
0	 7.624999999999999e+00	 6.249999999999999e+00	 1.004468219230769e+01
0	 7.624999999999999e+00	 6.375000000000000e+00	 1.004284674923075e+01
0	 7.624999999999999e+00	 6.500000000000000e+00	 1.004097502000000e+01
0	 7.624999999999999e+00	 6.624999999999998e+00	 1.003906700461538e+01
0	 7.625000000000000e+00	 6.749999999999998e+00	 1.003712270307692e+01
0	 7.625000000000001e+00	 6.874999999999998e+00	 1.003514211538461e+01
0	 7.625000000000001e+00	 6.999999999999999e+00	 1.003312524153845e+01
0	 7.625000000000000e+00	 7.124999999999998e+00	 1.003107208153846e+01
0	 7.625000000000002e+00	 7.249999999999999e+00	 1.002898263538461e+01
0	 7.624999999999997e+00	 7.374999999999995e+00	 1.002685690307692e+01
0	 7.624999999999999e+00	 7.500000000000000e+00	 1.002469488461539e+01
0	 7.749999999999998e+00	 6.250000000000000e+00	 1.004205738461538e+01
0	 7.749999999999999e+00	 6.375000000000000e+00	 1.004026458307692e+01
0	 7.750000000000000e+00	 6.499999999999999e+00	 1.003844319384615e+01
0	 7.750000000000000e+00	 6.624999999999999e+00	 1.003659321692307e+01
0	 7.749999999999996e+00	 6.749999999999997e+00	 1.003471465230769e+01
0	 7.750000000000000e+00	 6.874999999999997e+00	 1.003280750000000e+01
0	 7.749999999999996e+00	 6.999999999999995e+00	 1.003087176000000e+01
0	 7.749999999999999e+00	 7.124999999999997e+00	 1.002890743230769e+01
0	 7.749999999999998e+00	 7.249999999999996e+00	 1.002691451692307e+01
0	 7.750000000000001e+00	 7.374999999999998e+00	 1.002489301384616e+01
0	 7.749999999999998e+00	 7.500000000000001e+00	 1.002284292307692e+01
0	 7.874999999999998e+00	 6.250000000000000e+00	 1.003942019230768e+01
0	 7.874999999999999e+00	 6.375000000000000e+00	 1.003768112461538e+01
0	 7.875000000000000e+00	 6.500000000000000e+00	 1.003592116769231e+01
0	 7.874999999999999e+00	 6.625000000000000e+00	 1.003414032153846e+01
0	 7.874999999999999e+00	 6.749999999999997e+00	 1.003233858615385e+01
0	 7.874999999999998e+00	 6.874999999999997e+00	 1.003051596153846e+01
0	 7.874999999999999e+00	 6.999999999999996e+00	 1.002867244769231e+01
0	 7.874999999999998e+00	 7.124999999999996e+00	 1.002680804461538e+01
0	 7.875000000000000e+00	 7.249999999999996e+00	 1.002492275230769e+01
0	 7.874999999999996e+00	 7.374999999999996e+00	 1.002301657076924e+01
0	 7.874999999999998e+00	 7.500000000000001e+00	 1.002108950000000e+01
0	 7.999999999999998e+00	 6.250000000000000e+00	 1.003677061538461e+01
0	 7.999999999999998e+00	 6.375000000000000e+00	 1.003509637384615e+01
0	 7.999999999999999e+00	 6.500000000000000e+00	 1.003340894153846e+01
0	 7.999999999999998e+00	 6.624999999999999e+00	 1.003170831846153e+01
0	 7.999999999999997e+00	 6.749999999999997e+00	 1.002999450461537e+01
0	 7.999999999999998e+00	 6.874999999999998e+00	 1.002826750000000e+01
0	 7.999999999999997e+00	 6.999999999999996e+00	 1.002652730461538e+01
0	 7.999999999999998e+00	 7.124999999999996e+00	 1.002477391846154e+01
0	 7.999999999999998e+00	 7.249999999999997e+00	 1.002300734153846e+01
0	 7.999999999999998e+00	 7.374999999999996e+00	 1.002122757384615e+01
0	 7.999999999999998e+00	 7.500000000000000e+00	 1.001943461538461e+01
0	 8.124999999999998e+00	 6.250000000000000e+00	 1.003410865384616e+01
0	 8.124999999999998e+00	 6.375000000000000e+00	 1.003251033076922e+01
0	 8.124999999999998e+00	 6.499999999999999e+00	 1.003090651538461e+01
0	 8.125000000000000e+00	 6.624999999999999e+00	 1.002929720769231e+01
0	 8.124999999999995e+00	 6.749999999999996e+00	 1.002768240769231e+01
0	 8.124999999999998e+00	 6.874999999999998e+00	 1.002606211538461e+01
0	 8.125000000000000e+00	 6.999999999999998e+00	 1.002443633076923e+01
0	 8.124999999999998e+00	 7.124999999999997e+00	 1.002280505384615e+01
0	 8.124999999999998e+00	 7.249999999999996e+00	 1.002116828461538e+01
0	 8.124999999999998e+00	 7.374999999999998e+00	 1.001952602307692e+01
0	 8.124999999999998e+00	 7.500000000000001e+00	 1.001787826923077e+01
0	 8.249999999999996e+00	 6.250000000000000e+00	 1.003143430769230e+01
0	 8.249999999999996e+00	 6.375000000000001e+00	 1.002992299538461e+01
0	 8.249999999999996e+00	 6.499999999999997e+00	 1.002841388923077e+01
0	 8.249999999999995e+00	 6.624999999999998e+00	 1.002690698923076e+01
0	 8.250000000000000e+00	 6.750000000000000e+00	 1.002540229538461e+01
0	 8.249999999999998e+00	 6.874999999999999e+00	 1.002389980769231e+01
0	 8.249999999999998e+00	 6.999999999999997e+00	 1.002239952615384e+01
0	 8.249999999999998e+00	 7.124999999999998e+00	 1.002090145076922e+01
0	 8.249999999999996e+00	 7.249999999999998e+00	 1.001940558153846e+01
0	 8.249999999999996e+00	 7.374999999999996e+00	 1.001791191846154e+01
0	 8.249999999999996e+00	 7.500000000000000e+00	 1.001642046153845e+01
0	 8.374999999999996e+00	 6.250000000000000e+00	 1.002874757692306e+01
0	 8.374999999999996e+00	 6.375000000000000e+00	 1.002733436769231e+01
0	 8.374999999999998e+00	 6.500000000000000e+00	 1.002593106307692e+01
0	 8.374999999999998e+00	 6.624999999999999e+00	 1.002453766307692e+01
0	 8.374999999999996e+00	 6.749999999999998e+00	 1.002315416769230e+01
0	 8.375000000000000e+00	 6.874999999999998e+00	 1.002178057692307e+01
0	 8.374999999999998e+00	 6.999999999999998e+00	 1.002041689076923e+01
0	 8.374999999999998e+00	 7.124999999999998e+00	 1.001906310923076e+01
0	 8.374999999999996e+00	 7.249999999999996e+00	 1.001771923230769e+01
0	 8.374999999999998e+00	 7.374999999999997e+00	 1.001638526000000e+01
0	 8.374999999999996e+00	 7.500000000000000e+00	 1.001506119230769e+01
0	 8.499999999999996e+00	 6.250000000000000e+00	 1.002604846153846e+01
0	 8.500000000000000e+00	 6.375000000000002e+00	 1.002474444769230e+01
0	 8.499999999999996e+00	 6.499999999999999e+00	 1.002345803692308e+01
0	 8.499999999999996e+00	 6.624999999999999e+00	 1.002218922923076e+01
0	 8.499999999999996e+00	 6.749999999999998e+00	 1.002093802461538e+01
0	 8.499999999999996e+00	 6.874999999999998e+00	 1.001970442307692e+01
0	 8.499999999999996e+00	 6.999999999999996e+00	 1.001848842461538e+01
0	 8.499999999999996e+00	 7.124999999999996e+00	 1.001729002923076e+01
0	 8.499999999999996e+00	 7.249999999999996e+00	 1.001610923692308e+01
0	 8.499999999999996e+00	 7.374999999999996e+00	 1.001494604769230e+01
0	 8.499999999999996e+00	 7.500000000000001e+00	 1.001380046153846e+01
0	 8.624999999999996e+00	 6.250000000000000e+00	 1.002333696153846e+01
0	 8.624999999999998e+00	 6.375000000000000e+00	 1.002215323538461e+01
0	 8.624999999999996e+00	 6.500000000000000e+00	 1.002099481076923e+01
0	 8.624999999999996e+00	 6.624999999999999e+00	 1.001986168769230e+01
0	 8.624999999999996e+00	 6.749999999999998e+00	 1.001875386615384e+01
0	 8.624999999999996e+00	 6.874999999999999e+00	 1.001767134615384e+01
0	 8.624999999999995e+00	 6.999999999999996e+00	 1.001661412769231e+01
0	 8.624999999999995e+00	 7.124999999999996e+00	 1.001558221076922e+01
0	 8.624999999999996e+00	 7.249999999999996e+00	 1.001457559538461e+01
0	 8.624999999999996e+00	 7.374999999999995e+00	 1.001359428153846e+01
0	 8.624999999999996e+00	 7.500000000000000e+00	 1.001263826923076e+01
0	 8.750000000000000e+00	 6.250000000000000e+00	 1.002061307692308e+01
0	 8.750000000000000e+00	 6.375000000000000e+00	 1.001956073076922e+01
0	 8.750000000000002e+00	 6.500000000000000e+00	 1.001854138461538e+01
0	 8.750000000000000e+00	 6.624999999999998e+00	 1.001755503846154e+01
0	 8.750000000000000e+00	 6.749999999999998e+00	 1.001660169230769e+01
0	 8.750000000000000e+00	 6.874999999999998e+00	 1.001568134615384e+01
0	 8.750000000000000e+00	 6.999999999999997e+00	 1.001479400000000e+01
0	 8.750000000000000e+00	 7.124999999999996e+00	 1.001393965384615e+01
0	 8.750000000000000e+00	 7.249999999999997e+00	 1.001311830769230e+01
0	 8.750000000000000e+00	 7.374999999999996e+00	 1.001232996153845e+01
0	 8.750000000000000e+00	 7.500000000000000e+00	 1.001157461538461e+01
0	 7.500000000000000e+00	 7.500000000000000e+00	 1.002664538461539e+01
0	 7.500000000000001e+00	 7.625000000000000e+00	 1.002470186923078e+01
0	 7.500000000000002e+00	 7.750000000000000e+00	 1.002271409230770e+01
0	 7.500000000000000e+00	 7.874999999999998e+00	 1.002068205384615e+01
0	 7.500000000000000e+00	 7.999999999999999e+00	 1.001860575384615e+01
0	 7.500000000000000e+00	 8.124999999999998e+00	 1.001648519230770e+01
0	 7.500000000000000e+00	 8.249999999999998e+00	 1.001432036923077e+01
0	 7.499999999999999e+00	 8.374999999999996e+00	 1.001211128461539e+01
0	 7.500000000000001e+00	 8.499999999999996e+00	 1.000985793846154e+01
0	 7.500000000000000e+00	 8.624999999999996e+00	 1.000756033076924e+01
0	 7.500000000000000e+00	 8.750000000000000e+00	 1.000521846153847e+01
0	 7.624999999999999e+00	 7.500000000000000e+00	 1.002469488461539e+01
0	 7.624999999999999e+00	 7.625000000000000e+00	 1.002295590076923e+01
0	 7.624999999999999e+00	 7.749999999999999e+00	 1.002117278461539e+01
0	 7.624999999999999e+00	 7.874999999999999e+00	 1.001934553615385e+01
0	 7.625000000000000e+00	 7.999999999999998e+00	 1.001747415538462e+01
0	 7.625000000000001e+00	 8.124999999999998e+00	 1.001555864230769e+01
0	 7.625000000000001e+00	 8.250000000000000e+00	 1.001359899692308e+01
0	 7.625000000000000e+00	 8.375000000000000e+00	 1.001159521923078e+01
0	 7.625000000000002e+00	 8.500000000000000e+00	 1.000954730923077e+01
0	 7.624999999999997e+00	 8.624999999999995e+00	 1.000745526692308e+01
0	 7.624999999999999e+00	 8.750000000000000e+00	 1.000531909230769e+01
0	 7.749999999999998e+00	 7.500000000000001e+00	 1.002284292307692e+01
0	 7.749999999999999e+00	 7.624999999999999e+00	 1.002129103538462e+01
0	 7.750000000000000e+00	 7.750000000000000e+00	 1.001969514461539e+01
0	 7.750000000000000e+00	 7.874999999999999e+00	 1.001805525076923e+01
0	 7.749999999999996e+00	 7.999999999999998e+00	 1.001637135384615e+01
0	 7.750000000000000e+00	 8.124999999999998e+00	 1.001464345384615e+01
0	 7.749999999999996e+00	 8.249999999999995e+00	 1.001287155076924e+01
0	 7.749999999999999e+00	 8.374999999999996e+00	 1.001105564461538e+01
0	 7.749999999999998e+00	 8.499999999999996e+00	 1.000919573538461e+01
0	 7.750000000000001e+00	 8.624999999999996e+00	 1.000729182307694e+01
0	 7.749999999999998e+00	 8.750000000000000e+00	 1.000534390769230e+01
0	 7.874999999999998e+00	 7.500000000000001e+00	 1.002108950000000e+01
0	 7.874999999999999e+00	 7.624999999999999e+00	 1.001970727307693e+01
0	 7.875000000000000e+00	 7.750000000000000e+00	 1.001828117230769e+01
0	 7.874999999999999e+00	 7.875000000000000e+00	 1.001681119769232e+01
0	 7.874999999999999e+00	 7.999999999999998e+00	 1.001529734923077e+01
0	 7.874999999999998e+00	 8.125000000000000e+00	 1.001373962692308e+01
0	 7.874999999999999e+00	 8.249999999999996e+00	 1.001213803076924e+01
0	 7.874999999999998e+00	 8.374999999999998e+00	 1.001049256076923e+01
0	 7.875000000000000e+00	 8.499999999999996e+00	 1.000880321692307e+01
0	 7.874999999999996e+00	 8.624999999999995e+00	 1.000706999923079e+01
0	 7.874999999999998e+00	 8.750000000000000e+00	 1.000529290769231e+01
0	 7.999999999999998e+00	 7.500000000000000e+00	 1.001943461538461e+01
0	 7.999999999999998e+00	 7.624999999999999e+00	 1.001820461384615e+01
0	 7.999999999999999e+00	 7.749999999999999e+00	 1.001693086769231e+01
0	 7.999999999999998e+00	 7.874999999999999e+00	 1.001561337692307e+01
0	 7.999999999999997e+00	 7.999999999999998e+00	 1.001425214153846e+01
0	 7.999999999999998e+00	 8.124999999999998e+00	 1.001284716153846e+01
0	 7.999999999999997e+00	 8.249999999999996e+00	 1.001139843692308e+01
0	 7.999999999999998e+00	 8.374999999999998e+00	 1.000990596769230e+01
0	 7.999999999999998e+00	 8.499999999999996e+00	 1.000836975384615e+01
0	 7.999999999999998e+00	 8.624999999999996e+00	 1.000678979538461e+01
0	 7.999999999999998e+00	 8.750000000000000e+00	 1.000516609230771e+01
0	 8.124999999999998e+00	 7.500000000000001e+00	 1.001787826923077e+01
0	 8.124999999999998e+00	 7.625000000000000e+00	 1.001678305769231e+01
0	 8.124999999999998e+00	 7.750000000000000e+00	 1.001564423076922e+01
0	 8.125000000000000e+00	 7.874999999999998e+00	 1.001446178846154e+01
0	 8.124999999999995e+00	 7.999999999999996e+00	 1.001323573076922e+01
0	 8.124999999999998e+00	 8.124999999999998e+00	 1.001196605769231e+01
0	 8.125000000000000e+00	 8.250000000000000e+00	 1.001065276923076e+01
0	 8.124999999999998e+00	 8.374999999999996e+00	 1.000929586538462e+01
0	 8.124999999999998e+00	 8.499999999999996e+00	 1.000789534615384e+01
0	 8.124999999999998e+00	 8.624999999999996e+00	 1.000645121153847e+01
0	 8.124999999999998e+00	 8.750000000000000e+00	 1.000496346153846e+01
0	 8.249999999999996e+00	 7.500000000000000e+00	 1.001642046153845e+01
0	 8.249999999999996e+00	 7.625000000000000e+00	 1.001544260461538e+01
0	 8.249999999999996e+00	 7.749999999999997e+00	 1.001442126153846e+01
0	 8.249999999999995e+00	 7.874999999999999e+00	 1.001335643230770e+01
0	 8.250000000000000e+00	 8.000000000000000e+00	 1.001224811692307e+01
0	 8.249999999999998e+00	 8.125000000000000e+00	 1.001109631538462e+01
0	 8.249999999999998e+00	 8.249999999999998e+00	 1.000990102769231e+01
0	 8.249999999999998e+00	 8.374999999999996e+00	 1.000866225384615e+01
0	 8.249999999999996e+00	 8.499999999999998e+00	 1.000737999384615e+01
0	 8.249999999999996e+00	 8.624999999999995e+00	 1.000605424769231e+01
0	 8.249999999999996e+00	 8.750000000000000e+00	 1.000468501538461e+01
0	 8.374999999999996e+00	 7.500000000000000e+00	 1.001506119230769e+01
0	 8.374999999999996e+00	 7.625000000000000e+00	 1.001418325461539e+01
0	 8.374999999999998e+00	 7.749999999999999e+00	 1.001326195999999e+01
0	 8.374999999999998e+00	 7.874999999999998e+00	 1.001229730846154e+01
0	 8.374999999999996e+00	 7.999999999999997e+00	 1.001128930000000e+01
0	 8.375000000000000e+00	 8.125000000000000e+00	 1.001023793461539e+01
0	 8.374999999999998e+00	 8.249999999999998e+00	 1.000914321230770e+01
0	 8.374999999999998e+00	 8.374999999999998e+00	 1.000800513307693e+01
0	 8.374999999999996e+00	 8.499999999999996e+00	 1.000682369692307e+01
0	 8.374999999999998e+00	 8.624999999999996e+00	 1.000559890384617e+01
0	 8.374999999999996e+00	 8.750000000000000e+00	 1.000433075384616e+01
0	 8.499999999999996e+00	 7.500000000000001e+00	 1.001380046153846e+01
0	 8.500000000000000e+00	 7.625000000000001e+00	 1.001300500769231e+01
0	 8.499999999999996e+00	 7.749999999999999e+00	 1.001216632615385e+01
0	 8.499999999999996e+00	 7.875000000000001e+00	 1.001128441692308e+01
0	 8.499999999999996e+00	 7.999999999999998e+00	 1.001035928000000e+01
0	 8.499999999999996e+00	 8.124999999999996e+00	 1.000939091538461e+01
0	 8.499999999999996e+00	 8.249999999999998e+00	 1.000837932307692e+01
0	 8.499999999999996e+00	 8.374999999999996e+00	 1.000732450307692e+01
0	 8.499999999999996e+00	 8.499999999999996e+00	 1.000622645538463e+01
0	 8.499999999999996e+00	 8.624999999999996e+00	 1.000508518000000e+01
0	 8.499999999999996e+00	 8.750000000000000e+00	 1.000390067692309e+01
0	 8.624999999999996e+00	 7.500000000000000e+00	 1.001263826923076e+01
0	 8.624999999999998e+00	 7.624999999999999e+00	 1.001190786384615e+01
0	 8.624999999999996e+00	 7.750000000000000e+00	 1.001113435999999e+01
0	 8.624999999999996e+00	 7.874999999999998e+00	 1.001031775769231e+01
0	 8.624999999999996e+00	 7.999999999999998e+00	 1.000945805692307e+01
0	 8.624999999999996e+00	 8.124999999999996e+00	 1.000855525769231e+01
0	 8.624999999999995e+00	 8.249999999999996e+00	 1.000760936000000e+01
0	 8.624999999999995e+00	 8.374999999999996e+00	 1.000662036384617e+01
0	 8.624999999999996e+00	 8.499999999999996e+00	 1.000558826923077e+01
0	 8.624999999999996e+00	 8.624999999999996e+00	 1.000451307615385e+01
0	 8.624999999999996e+00	 8.750000000000000e+00	 1.000339478461539e+01
0	 8.750000000000000e+00	 7.500000000000000e+00	 1.001157461538461e+01
0	 8.750000000000000e+00	 7.625000000000000e+00	 1.001089182307693e+01
0	 8.750000000000002e+00	 7.750000000000000e+00	 1.001016606153846e+01
0	 8.750000000000000e+00	 7.874999999999998e+00	 1.000939733076922e+01
0	 8.750000000000000e+00	 7.999999999999999e+00	 1.000858563076923e+01
0	 8.750000000000000e+00	 8.124999999999998e+00	 1.000773096153847e+01
0	 8.750000000000000e+00	 8.249999999999998e+00	 1.000683332307692e+01
0	 8.750000000000000e+00	 8.374999999999996e+00	 1.000589271538461e+01
0	 8.750000000000000e+00	 8.499999999999996e+00	 1.000490913846154e+01
0	 8.750000000000000e+00	 8.624999999999996e+00	 1.000388259230771e+01
0	 8.750000000000000e+00	 8.750000000000000e+00	 1.000281307692308e+01
0	 7.500000000000000e+00	 8.750000000000000e+00	 1.000521846153847e+01
0	 7.499999999999999e+00	 8.874999999999998e+00	 1.000526838461538e+01
0	 7.499999999999999e+00	 9.000000000000000e+00	 1.000510184615385e+01
0	 7.499999999999999e+00	 9.124999999999998e+00	 1.000471884615384e+01
0	 7.500000000000000e+00	 9.250000000000000e+00	 1.000411938461539e+01
0	 7.500000000000000e+00	 9.374999999999996e+00	 1.000330346153846e+01
0	 7.500000000000000e+00	 9.499999999999996e+00	 1.000227107692308e+01
0	 7.500000000000000e+00	 9.624999999999996e+00	 1.000102223076921e+01
0	 7.500000000000001e+00	 9.749999999999998e+00	 9.999556923076923e+00
0	 7.500000000000000e+00	 9.874999999999996e+00	 9.997875153846152e+00
0	 7.500000000000000e+00	 1.000000000000000e+01	 9.995976923076910e+00
0	 7.624999999999999e+00	 8.750000000000000e+00	 1.000531909230769e+01
0	 7.625000000000000e+00	 8.875000000000002e+00	 1.000532538230770e+01
0	 7.624999999999997e+00	 8.999999999999998e+00	 1.000513105538461e+01
0	 7.624999999999999e+00	 9.124999999999998e+00	 1.000473611153846e+01
0	 7.625000000000000e+00	 9.249999999999998e+00	 1.000414055076923e+01
0	 7.625000000000001e+00	 9.375000000000000e+00	 1.000334437307694e+01
0	 7.625000000000001e+00	 9.499999999999998e+00	 1.000234757846153e+01
0	 7.624999999999999e+00	 9.624999999999996e+00	 1.000115016692306e+01
0	 7.624999999999999e+00	 9.749999999999996e+00	 9.999752138461542e+00
0	 7.624999999999998e+00	 9.874999999999996e+00	 9.998153493076902e+00
0	 7.625000000000000e+00	 1.000000000000000e+01	 9.996354230769189e+00
0	 7.749999999999998e+00	 8.750000000000000e+00	 1.000534390769230e+01
0	 7.749999999999997e+00	 8.874999999999998e+00	 1.000531123846153e+01
0	 7.750000000000000e+00	 8.999999999999998e+00	 1.000509379692307e+01
0	 7.750000000000000e+00	 9.124999999999998e+00	 1.000469158307692e+01
0	 7.750000000000000e+00	 9.250000000000000e+00	 1.000410459692307e+01
0	 7.749999999999999e+00	 9.375000000000000e+00	 1.000333283846153e+01
0	 7.749999999999999e+00	 9.499999999999998e+00	 1.000237630769230e+01
0	 7.750000000000000e+00	 9.625000000000000e+00	 1.000123500461538e+01
0	 7.749999999999999e+00	 9.749999999999998e+00	 9.999908929230756e+00
0	 7.750000000000000e+00	 9.874999999999998e+00	 9.998398081538483e+00
0	 7.749999999999998e+00	 1.000000000000000e+01	 9.996702461538444e+00
0	 7.874999999999998e+00	 8.750000000000000e+00	 1.000529290769231e+01
0	 7.874999999999998e+00	 8.874999999999998e+00	 1.000522595307692e+01
0	 7.874999999999997e+00	 8.999999999999996e+00	 1.000499007076922e+01
0	 7.874999999999998e+00	 9.124999999999998e+00	 1.000458526076924e+01
0	 7.874999999999997e+00	 9.249999999999998e+00	 1.000401152307692e+01
0	 7.874999999999997e+00	 9.374999999999996e+00	 1.000326885769231e+01
0	 7.874999999999998e+00	 9.499999999999995e+00	 1.000235726461539e+01
0	 7.874999999999997e+00	 9.624999999999996e+00	 1.000127674384614e+01
0	 7.874999999999999e+00	 9.749999999999998e+00	 1.000002729538459e+01
0	 7.874999999999997e+00	 9.874999999999995e+00	 9.998608919230781e+00
0	 7.874999999999999e+00	 1.000000000000000e+01	 9.997021615384611e+00
0	 7.999999999999998e+00	 8.750000000000000e+00	 1.000516609230771e+01
0	 7.999999999999999e+00	 8.874999999999998e+00	 1.000506952615385e+01
0	 7.999999999999999e+00	 9.000000000000002e+00	 1.000481987692307e+01
0	 7.999999999999998e+00	 9.124999999999998e+00	 1.000441714461538e+01
0	 7.999999999999996e+00	 9.249999999999998e+00	 1.000386132923077e+01
0	 7.999999999999999e+00	 9.374999999999998e+00	 1.000315243076923e+01
0	 7.999999999999998e+00	 9.499999999999998e+00	 1.000229044923076e+01
0	 7.999999999999998e+00	 9.624999999999996e+00	 1.000127538461538e+01
0	 7.999999999999998e+00	 9.749999999999996e+00	 1.000010723692306e+01
0	 7.999999999999997e+00	 9.874999999999996e+00	 9.998786006153843e+00
0	 7.999999999999999e+00	 1.000000000000000e+01	 9.997311692307665e+00
0	 8.124999999999998e+00	 8.750000000000000e+00	 1.000496346153846e+01
0	 8.124999999999998e+00	 8.874999999999998e+00	 1.000484195769231e+01
0	 8.124999999999998e+00	 8.999999999999998e+00	 1.000458321538463e+01
0	 8.124999999999998e+00	 9.125000000000002e+00	 1.000418723461539e+01
0	 8.124999999999996e+00	 9.249999999999996e+00	 1.000365401538462e+01
0	 8.124999999999998e+00	 9.375000000000000e+00	 1.000298355769230e+01
0	 8.124999999999998e+00	 9.499999999999998e+00	 1.000217586153846e+01
0	 8.124999999999996e+00	 9.624999999999998e+00	 1.000123092692305e+01
0	 8.125000000000000e+00	 9.749999999999996e+00	 1.000014875384614e+01
0	 8.124999999999996e+00	 9.874999999999996e+00	 9.998929342307688e+00
0	 8.124999999999998e+00	 1.000000000000000e+01	 9.997572692307701e+00
0	 8.249999999999996e+00	 8.750000000000000e+00	 1.000468501538461e+01
0	 8.249999999999998e+00	 8.874999999999998e+00	 1.000454324769231e+01
0	 8.249999999999998e+00	 9.000000000000000e+00	 1.000428008615386e+01
0	 8.249999999999998e+00	 9.125000000000000e+00	 1.000389553076923e+01
0	 8.249999999999998e+00	 9.250000000000000e+00	 1.000338958153846e+01
0	 8.249999999999996e+00	 9.374999999999998e+00	 1.000276223846154e+01
0	 8.249999999999998e+00	 9.499999999999998e+00	 1.000201350153847e+01
0	 8.249999999999996e+00	 9.624999999999995e+00	 1.000114337076923e+01
0	 8.249999999999996e+00	 9.749999999999995e+00	 1.000015184615383e+01
0	 8.249999999999998e+00	 9.874999999999998e+00	 9.999038927692281e+00
0	 8.249999999999998e+00	 9.999999999999998e+00	 9.997804615384609e+00
0	 8.374999999999996e+00	 8.750000000000000e+00	 1.000433075384616e+01
0	 8.374999999999996e+00	 8.875000000000000e+00	 1.000417339615385e+01
0	 8.374999999999995e+00	 9.000000000000000e+00	 1.000391048923076e+01
0	 8.374999999999998e+00	 9.125000000000000e+00	 1.000354203307691e+01
0	 8.374999999999998e+00	 9.249999999999998e+00	 1.000306802769231e+01
0	 8.374999999999998e+00	 9.374999999999998e+00	 1.000248847307692e+01
0	 8.374999999999998e+00	 9.500000000000000e+00	 1.000180336923076e+01
0	 8.374999999999998e+00	 9.624999999999996e+00	 1.000101271615384e+01
0	 8.374999999999996e+00	 9.749999999999996e+00	 1.000011651384615e+01
0	 8.374999999999998e+00	 9.874999999999996e+00	 9.999114762307688e+00
0	 8.374999999999998e+00	 1.000000000000000e+01	 9.998007461538460e+00
0	 8.499999999999996e+00	 8.750000000000000e+00	 1.000390067692309e+01
0	 8.499999999999996e+00	 8.875000000000004e+00	 1.000373240307693e+01
0	 8.499999999999995e+00	 8.999999999999998e+00	 1.000347442461539e+01
0	 8.499999999999996e+00	 9.125000000000000e+00	 1.000312674153847e+01
0	 8.499999999999995e+00	 9.249999999999998e+00	 1.000268935384615e+01
0	 8.499999999999996e+00	 9.374999999999998e+00	 1.000216226153847e+01
0	 8.499999999999996e+00	 9.499999999999998e+00	 1.000154546461538e+01
0	 8.499999999999996e+00	 9.624999999999996e+00	 1.000083896307691e+01
0	 8.499999999999996e+00	 9.749999999999996e+00	 1.000004275692307e+01
0	 8.499999999999996e+00	 9.874999999999996e+00	 9.999156846153817e+00
0	 8.499999999999996e+00	 1.000000000000000e+01	 9.998181230769223e+00
0	 8.624999999999996e+00	 8.750000000000000e+00	 1.000339478461539e+01
0	 8.624999999999995e+00	 8.875000000000000e+00	 1.000322026846155e+01
0	 8.624999999999996e+00	 8.999999999999998e+00	 1.000297189230770e+01
0	 8.624999999999996e+00	 9.125000000000000e+00	 1.000264965615385e+01
0	 8.624999999999996e+00	 9.249999999999998e+00	 1.000225356000001e+01
0	 8.624999999999995e+00	 9.374999999999996e+00	 1.000178360384614e+01
0	 8.624999999999995e+00	 9.499999999999996e+00	 1.000123978769231e+01
0	 8.624999999999996e+00	 9.624999999999998e+00	 1.000062211153846e+01
0	 8.624999999999996e+00	 9.749999999999996e+00	 9.999930575384605e+00
0	 8.624999999999996e+00	 9.874999999999996e+00	 9.999165179230770e+00
0	 8.624999999999996e+00	 1.000000000000000e+01	 9.998325923076919e+00
0	 8.750000000000000e+00	 8.750000000000000e+00	 1.000281307692308e+01
0	 8.750000000000000e+00	 8.874999999999998e+00	 1.000263699230769e+01
0	 8.750000000000000e+00	 9.000000000000000e+00	 1.000240289230769e+01
0	 8.749999999999998e+00	 9.124999999999998e+00	 1.000211077692307e+01
0	 8.750000000000000e+00	 9.250000000000000e+00	 1.000176064615385e+01
0	 8.750000000000000e+00	 9.374999999999996e+00	 1.000135250000000e+01
0	 8.750000000000000e+00	 9.499999999999996e+00	 1.000088633846154e+01
0	 8.750000000000000e+00	 9.624999999999996e+00	 1.000036216153845e+01
0	 8.750000000000002e+00	 9.749999999999998e+00	 9.999779969230778e+00
0	 8.750000000000000e+00	 9.874999999999996e+00	 9.999139761538459e+00
0	 8.750000000000000e+00	 1.000000000000000e+01	 9.998441538461526e+00
0	 8.750000000000000e+00	 0.000000000000000e+00	 9.950993076923073e+00
0	 8.750000000000002e+00	 1.250000000000000e-01	 9.951558707692303e+00
0	 8.750000000000000e+00	 2.500000000000000e-01	 9.952183830769231e+00
0	 8.750000000000000e+00	 3.750000000000001e-01	 9.952868446153843e+00
0	 8.750000000000000e+00	 5.000000000000000e-01	 9.953612553846154e+00
0	 8.750000000000000e+00	 6.250000000000000e-01	 9.954416153846154e+00
0	 8.750000000000000e+00	 7.500000000000000e-01	 9.955279246153845e+00
0	 8.750000000000000e+00	 8.749999999999999e-01	 9.956201830769228e+00
0	 8.750000000000000e+00	 1.000000000000000e+00	 9.957183907692308e+00
0	 8.750000000000000e+00	 1.125000000000000e+00	 9.958225476923076e+00
0	 8.750000000000000e+00	 1.250000000000000e+00	 9.959326538461537e+00
0	 8.875000000000002e+00	 0.000000000000000e+00	 9.941893370769229e+00
0	 8.875000000000000e+00	 1.250000000000000e-01	 9.942633695923075e+00
0	 8.875000000000000e+00	 2.500000000000000e-01	 9.943411077999993e+00
0	 8.874999999999998e+00	 3.750000000000001e-01	 9.944225517000003e+00
0	 8.875000000000000e+00	 5.000000000000001e-01	 9.945077012923079e+00
0	 8.875000000000000e+00	 6.250000000000001e-01	 9.945965565769226e+00
0	 8.875000000000000e+00	 7.500000000000000e-01	 9.946891175538461e+00
0	 8.875000000000000e+00	 8.750000000000000e-01	 9.947853842230771e+00
0	 8.875000000000000e+00	 1.000000000000000e+00	 9.948853565846147e+00
0	 8.875000000000000e+00	 1.125000000000000e+00	 9.949890346384613e+00
0	 8.874999999999998e+00	 1.250000000000000e+00	 9.950964183846148e+00
0	 9.000000000000000e+00	 0.000000000000000e+00	 9.932046990769230e+00
0	 9.000000000000002e+00	 1.250000000000000e-01	 9.932978692923074e+00
0	 8.999999999999996e+00	 2.500000000000000e-01	 9.933925016615381e+00
0	 9.000000000000000e+00	 3.750000000000001e-01	 9.934885961846151e+00
0	 8.999999999999998e+00	 5.000000000000001e-01	 9.935861528615384e+00
0	 8.999999999999998e+00	 6.249999999999999e-01	 9.936851716923078e+00
0	 9.000000000000000e+00	 7.500000000000000e-01	 9.937856526769229e+00
0	 8.999999999999998e+00	 8.750000000000000e-01	 9.938875958153846e+00
0	 8.999999999999998e+00	 9.999999999999999e-01	 9.939910011076918e+00
0	 9.000000000000000e+00	 1.125000000000000e+00	 9.940958685538458e+00
0	 9.000000000000000e+00	 1.250000000000000e+00	 9.942021981538463e+00
0	 9.124999999999998e+00	 0.000000000000000e+00	 9.921453936923074e+00
0	 9.124999999999998e+00	 1.250000000000000e-01	 9.922593698692303e+00
0	 9.125000000000000e+00	 2.500000000000001e-01	 9.923725646615386e+00
0	 9.124999999999998e+00	 3.750000000000001e-01	 9.924849780692309e+00
0	 9.124999999999998e+00	 5.000000000000001e-01	 9.925966100923080e+00
0	 9.125000000000000e+00	 6.250000000000000e-01	 9.927074607307693e+00
0	 9.124999999999998e+00	 7.500000000000002e-01	 9.928175299846155e+00
0	 9.124999999999998e+00	 8.749999999999999e-01	 9.929268178538459e+00
0	 9.124999999999998e+00	 1.000000000000000e+00	 9.930353243384614e+00
0	 9.125000000000000e+00	 1.125000000000000e+00	 9.931430494384614e+00
0	 9.125000000000000e+00	 1.250000000000000e+00	 9.932499931538461e+00
0	 9.250000000000000e+00	 0.000000000000000e+00	 9.910114209230770e+00
0	 9.249999999999998e+00	 1.250000000000000e-01	 9.911478713230766e+00
0	 9.250000000000000e+00	 2.500000000000001e-01	 9.912812967999997e+00
0	 9.249999999999996e+00	 3.750000000000001e-01	 9.914116973538459e+00
0	 9.249999999999998e+00	 5.000000000000001e-01	 9.915390729846147e+00
0	 9.249999999999998e+00	 6.250000000000001e-01	 9.916634236923075e+00
0	 9.250000000000000e+00	 7.499999999999999e-01	 9.917847494769225e+00
0	 9.249999999999998e+00	 8.749999999999998e-01	 9.919030503384612e+00
0	 9.249999999999998e+00	 9.999999999999998e-01	 9.920183262769228e+00
0	 9.250000000000000e+00	 1.125000000000000e+00	 9.921305772923077e+00
0	 9.249999999999998e+00	 1.250000000000000e+00	 9.922398033846150e+00
0	 9.374999999999996e+00	 0.000000000000000e+00	 9.898027807692305e+00
0	 9.374999999999996e+00	 1.250000000000000e-01	 9.899633736538449e+00
0	 9.374999999999996e+00	 2.499999999999999e-01	 9.901186980769227e+00
0	 9.374999999999998e+00	 3.750000000000000e-01	 9.902687540384614e+00
0	 9.374999999999998e+00	 5.000000000000001e-01	 9.904135415384605e+00
0	 9.374999999999998e+00	 6.250000000000000e-01	 9.905530605769229e+00
0	 9.375000000000000e+00	 7.500000000000001e-01	 9.906873111538461e+00
0	 9.374999999999998e+00	 8.749999999999999e-01	 9.908162932692305e+00
0	 9.374999999999998e+00	 9.999999999999998e-01	 9.909400069230768e+00
0	 9.374999999999998e+00	 1.125000000000000e+00	 9.910584521153847e+00
0	 9.374999999999998e+00	 1.250000000000000e+00	 9.911716288461541e+00
0	 9.499999999999996e+00	 0.000000000000000e+00	 9.885194732307689e+00
0	 9.499999999999996e+00	 1.250000000000000e-01	 9.887058768615381e+00
0	 9.499999999999996e+00	 2.500000000000000e-01	 9.888847684923073e+00
0	 9.499999999999996e+00	 3.750000000000000e-01	 9.890561481230767e+00
0	 9.499999999999998e+00	 5.000000000000000e-01	 9.892200157538458e+00
0	 9.499999999999998e+00	 6.250000000000000e-01	 9.893763713846148e+00
0	 9.499999999999998e+00	 7.500000000000000e-01	 9.895252150153844e+00
0	 9.500000000000000e+00	 8.750000000000001e-01	 9.896665466461538e+00
0	 9.499999999999998e+00	 1.000000000000000e+00	 9.898003662769234e+00
0	 9.499999999999998e+00	 1.125000000000000e+00	 9.899266739076918e+00
0	 9.499999999999998e+00	 1.250000000000000e+00	 9.900454695384612e+00
0	 9.624999999999996e+00	 0.000000000000000e+00	 9.871614983076922e+00
0	 9.624999999999996e+00	 1.250000000000000e-01	 9.873753809461533e+00
0	 9.624999999999996e+00	 2.500000000000000e-01	 9.875795080461533e+00
0	 9.624999999999995e+00	 3.750000000000001e-01	 9.877738796076915e+00
0	 9.624999999999996e+00	 5.000000000000000e-01	 9.879584956307694e+00
0	 9.624999999999995e+00	 6.249999999999999e-01	 9.881333561153836e+00
0	 9.624999999999996e+00	 7.500000000000000e-01	 9.882984610615383e+00
0	 9.624999999999996e+00	 8.750000000000000e-01	 9.884538104692307e+00
0	 9.624999999999996e+00	 9.999999999999998e-01	 9.885994043384610e+00
0	 9.624999999999996e+00	 1.125000000000000e+00	 9.887352426692308e+00
0	 9.624999999999996e+00	 1.250000000000000e+00	 9.888613254615384e+00
0	 9.749999999999996e+00	 0.000000000000000e+00	 9.857288559999999e+00
0	 9.749999999999996e+00	 1.250000000000000e-01	 9.859718859076915e+00
0	 9.749999999999996e+00	 2.500000000000000e-01	 9.862029167384609e+00
0	 9.749999999999998e+00	 3.750000000000001e-01	 9.864219484923071e+00
0	 9.749999999999996e+00	 5.000000000000000e-01	 9.866289811692303e+00
0	 9.749999999999996e+00	 6.250000000000001e-01	 9.868240147692305e+00
0	 9.749999999999996e+00	 7.500000000000001e-01	 9.870070492923071e+00
0	 9.750000000000000e+00	 8.750000000000001e-01	 9.871780847384617e+00
0	 9.749999999999996e+00	 1.000000000000000e+00	 9.873371211076924e+00
0	 9.749999999999996e+00	 1.125000000000000e+00	 9.874841583999993e+00
0	 9.749999999999996e+00	 1.250000000000000e+00	 9.876191966153842e+00
0	 9.874999999999996e+00	 0.000000000000000e+00	 9.842215463076920e+00
0	 9.874999999999998e+00	 1.250000000000000e-01	 9.844953917461533e+00
0	 9.874999999999995e+00	 2.500000000000000e-01	 9.847549945692311e+00
0	 9.874999999999996e+00	 3.750000000000001e-01	 9.850003547769230e+00
0	 9.874999999999996e+00	 5.000000000000001e-01	 9.852314723692308e+00
0	 9.874999999999996e+00	 6.250000000000000e-01	 9.854483473461531e+00
0	 9.874999999999996e+00	 7.500000000000000e-01	 9.856509797076916e+00
0	 9.874999999999996e+00	 8.750000000000000e-01	 9.858393694538451e+00
0	 9.874999999999995e+00	 9.999999999999998e-01	 9.860135165846154e+00
0	 9.874999999999996e+00	 1.125000000000000e+00	 9.861734210999998e+00
0	 9.874999999999996e+00	 1.250000000000000e+00	 9.863190829999997e+00
0	 1.000000000000000e+01	 0.000000000000000e+00	 9.826395692307688e+00
0	 1.000000000000000e+01	 1.250000000000000e-01	 9.829458984615382e+00
0	 1.000000000000000e+01	 2.500000000000000e-01	 9.832357415384614e+00
0	 1.000000000000000e+01	 3.750000000000001e-01	 9.835090984615380e+00
0	 1.000000000000000e+01	 5.000000000000000e-01	 9.837659692307689e+00
0	 1.000000000000000e+01	 6.250000000000000e-01	 9.840063538461537e+00
0	 1.000000000000000e+01	 7.500000000000000e-01	 9.842302523076922e+00
0	 1.000000000000000e+01	 8.750000000000000e-01	 9.844376646153846e+00
0	 1.000000000000000e+01	 1.000000000000000e+00	 9.846285907692298e+00
0	 1.000000000000000e+01	 1.125000000000000e+00	 9.848030307692298e+00
0	 1.000000000000000e+01	 1.250000000000000e+00	 9.849609846153841e+00
0	 8.750000000000000e+00	 1.250000000000000e+00	 9.959326538461537e+00
0	 8.750000000000000e+00	 1.375000000000000e+00	 9.961786399999994e+00
0	 8.750000000000000e+00	 1.500000000000000e+00	 9.964228215384614e+00
0	 8.750000000000002e+00	 1.625000000000000e+00	 9.966651984615380e+00
0	 8.750000000000000e+00	 1.750000000000000e+00	 9.969057707692304e+00
0	 8.750000000000002e+00	 1.875000000000000e+00	 9.971445384615382e+00
0	 8.750000000000000e+00	 2.000000000000000e+00	 9.973815015384616e+00
0	 8.750000000000000e+00	 2.125000000000001e+00	 9.976166599999999e+00
0	 8.750000000000002e+00	 2.250000000000001e+00	 9.978500138461534e+00
0	 8.750000000000000e+00	 2.375000000000001e+00	 9.980815630769232e+00
0	 8.750000000000000e+00	 2.500000000000000e+00	 9.983113076923074e+00
0	 8.874999999999998e+00	 1.250000000000000e+00	 9.950964183846148e+00
0	 8.875000000000000e+00	 1.375000000000000e+00	 9.953521059307691e+00
0	 8.875000000000002e+00	 1.500000000000001e+00	 9.956059284000002e+00
0	 8.875000000000000e+00	 1.625000000000000e+00	 9.958578857923074e+00
0	 8.875000000000000e+00	 1.750000000000000e+00	 9.961079781076922e+00
0	 8.874999999999996e+00	 1.875000000000000e+00	 9.963562053461535e+00
0	 8.875000000000000e+00	 2.000000000000000e+00	 9.966025675076921e+00
0	 8.875000000000002e+00	 2.125000000000002e+00	 9.968470645923077e+00
0	 8.875000000000000e+00	 2.250000000000001e+00	 9.970896965999998e+00
0	 8.875000000000002e+00	 2.375000000000002e+00	 9.973304635307692e+00
0	 8.874999999999998e+00	 2.500000000000000e+00	 9.975693653846154e+00
0	 9.000000000000000e+00	 1.250000000000000e+00	 9.942021981538463e+00
0	 9.000000000000000e+00	 1.375000000000000e+00	 9.944719694153839e+00
0	 8.999999999999996e+00	 1.500000000000000e+00	 9.947398151384611e+00
0	 9.000000000000000e+00	 1.625000000000000e+00	 9.950057353230763e+00
0	 8.999999999999996e+00	 1.750000000000000e+00	 9.952697299692305e+00
0	 8.999999999999996e+00	 1.875000000000001e+00	 9.955317990769229e+00
0	 8.999999999999998e+00	 2.000000000000000e+00	 9.957919426461537e+00
0	 9.000000000000000e+00	 2.125000000000001e+00	 9.960501606769224e+00
0	 9.000000000000000e+00	 2.250000000000001e+00	 9.963064531692307e+00
0	 9.000000000000002e+00	 2.375000000000001e+00	 9.965608201230763e+00
0	 9.000000000000000e+00	 2.500000000000000e+00	 9.968132615384611e+00
0	 9.125000000000000e+00	 1.250000000000000e+00	 9.932499931538461e+00
0	 9.125000000000000e+00	 1.375000000000000e+00	 9.935382304538457e+00
0	 9.125000000000002e+00	 1.500000000000000e+00	 9.938244817538457e+00
0	 9.125000000000000e+00	 1.625000000000001e+00	 9.941087470538463e+00
0	 9.124999999999998e+00	 1.750000000000000e+00	 9.943910263538456e+00
0	 9.124999999999998e+00	 1.875000000000000e+00	 9.946713196538456e+00
0	 9.125000000000000e+00	 2.000000000000001e+00	 9.949496269538461e+00
0	 9.125000000000000e+00	 2.125000000000001e+00	 9.952259482538457e+00
0	 9.124999999999996e+00	 2.250000000000001e+00	 9.955002835538462e+00
0	 9.125000000000000e+00	 2.375000000000001e+00	 9.957726328538463e+00
0	 9.125000000000000e+00	 2.500000000000000e+00	 9.960429961538459e+00
0	 9.249999999999998e+00	 1.250000000000000e+00	 9.922398033846150e+00
0	 9.249999999999998e+00	 1.375000000000000e+00	 9.925508890461542e+00
0	 9.249999999999998e+00	 1.500000000000000e+00	 9.928599282461533e+00
0	 9.249999999999998e+00	 1.625000000000000e+00	 9.931669209846149e+00
0	 9.249999999999998e+00	 1.750000000000000e+00	 9.934718672615384e+00
0	 9.250000000000000e+00	 1.875000000000001e+00	 9.937747670769232e+00
0	 9.249999999999996e+00	 2.000000000000000e+00	 9.940756204307688e+00
0	 9.249999999999998e+00	 2.125000000000000e+00	 9.943744273230770e+00
0	 9.249999999999998e+00	 2.250000000000001e+00	 9.946711877538460e+00
0	 9.249999999999998e+00	 2.375000000000000e+00	 9.949659017230763e+00
0	 9.249999999999998e+00	 2.500000000000000e+00	 9.952585692307693e+00
0	 9.374999999999998e+00	 1.250000000000000e+00	 9.911716288461541e+00
0	 9.374999999999996e+00	 1.375000000000000e+00	 9.915099451923075e+00
0	 9.374999999999998e+00	 1.500000000000000e+00	 9.918461546153845e+00
0	 9.374999999999998e+00	 1.625000000000000e+00	 9.921802571153840e+00
0	 9.375000000000000e+00	 1.750000000000000e+00	 9.925122526923074e+00
0	 9.374999999999998e+00	 1.875000000000000e+00	 9.928421413461535e+00
0	 9.374999999999998e+00	 2.000000000000000e+00	 9.931699230769235e+00
0	 9.374999999999998e+00	 2.125000000000001e+00	 9.934955978846151e+00
0	 9.374999999999998e+00	 2.250000000000001e+00	 9.938191657692304e+00
0	 9.374999999999996e+00	 2.375000000000001e+00	 9.941406267307698e+00
0	 9.374999999999998e+00	 2.500000000000000e+00	 9.944599807692313e+00
0	 9.499999999999998e+00	 1.250000000000000e+00	 9.900454695384612e+00
0	 9.499999999999998e+00	 1.375000000000000e+00	 9.904153988923072e+00
0	 9.499999999999996e+00	 1.500000000000000e+00	 9.907831608615380e+00
0	 9.499999999999998e+00	 1.625000000000000e+00	 9.911487554461534e+00
0	 9.499999999999995e+00	 1.750000000000000e+00	 9.915121826461533e+00
0	 9.499999999999998e+00	 1.875000000000001e+00	 9.918734424615380e+00
0	 9.499999999999998e+00	 2.000000000000000e+00	 9.922325348923076e+00
0	 9.499999999999998e+00	 2.125000000000001e+00	 9.925894599384616e+00
0	 9.499999999999998e+00	 2.250000000000001e+00	 9.929442175999993e+00
0	 9.499999999999996e+00	 2.375000000000001e+00	 9.932968078769228e+00
0	 9.499999999999998e+00	 2.500000000000000e+00	 9.936472307692306e+00
0	 9.624999999999996e+00	 1.250000000000000e+00	 9.888613254615384e+00
0	 9.624999999999998e+00	 1.375000000000000e+00	 9.892672501461535e+00
0	 9.624999999999995e+00	 1.500000000000000e+00	 9.896709469846149e+00
0	 9.625000000000000e+00	 1.625000000000000e+00	 9.900724159769227e+00
0	 9.624999999999996e+00	 1.750000000000000e+00	 9.904716571230772e+00
0	 9.624999999999996e+00	 1.875000000000001e+00	 9.908686704230771e+00
0	 9.624999999999998e+00	 2.000000000000001e+00	 9.912634558769225e+00
0	 9.624999999999996e+00	 2.125000000000001e+00	 9.916560134846154e+00
0	 9.624999999999998e+00	 2.250000000000001e+00	 9.920463432461531e+00
0	 9.624999999999998e+00	 2.375000000000001e+00	 9.924344451615385e+00
0	 9.624999999999996e+00	 2.500000000000000e+00	 9.928203192307688e+00
0	 9.749999999999996e+00	 1.250000000000000e+00	 9.876191966153842e+00
0	 9.749999999999996e+00	 1.375000000000000e+00	 9.880654989538465e+00
0	 9.749999999999996e+00	 1.500000000000000e+00	 9.885095129846146e+00
0	 9.749999999999998e+00	 1.625000000000000e+00	 9.889512387076916e+00
0	 9.749999999999996e+00	 1.750000000000000e+00	 9.893906761230774e+00
0	 9.749999999999996e+00	 1.875000000000000e+00	 9.898278252307696e+00
0	 9.749999999999996e+00	 2.000000000000001e+00	 9.902626860307695e+00
0	 9.749999999999996e+00	 2.125000000000001e+00	 9.906952585230764e+00
0	 9.749999999999998e+00	 2.250000000000001e+00	 9.911255427076926e+00
0	 9.749999999999996e+00	 2.375000000000001e+00	 9.915535385846155e+00
0	 9.749999999999996e+00	 2.500000000000000e+00	 9.919792461538462e+00
0	 9.874999999999996e+00	 1.250000000000000e+00	 9.863190829999997e+00
0	 9.874999999999996e+00	 1.375000000000000e+00	 9.868101453153843e+00
0	 9.874999999999996e+00	 1.500000000000000e+00	 9.872988588615391e+00
0	 9.874999999999996e+00	 1.625000000000001e+00	 9.877852236384610e+00
0	 9.874999999999996e+00	 1.750000000000000e+00	 9.882692396461536e+00
0	 9.874999999999995e+00	 1.875000000000000e+00	 9.887509068846150e+00
0	 9.874999999999998e+00	 2.000000000000001e+00	 9.892302253538462e+00
0	 9.874999999999996e+00	 2.125000000000001e+00	 9.897071950538459e+00
0	 9.874999999999996e+00	 2.250000000000001e+00	 9.901818159846162e+00
0	 9.874999999999996e+00	 2.375000000000001e+00	 9.906540881461542e+00
0	 9.874999999999996e+00	 2.500000000000000e+00	 9.911240115384611e+00
0	 1.000000000000000e+01	 1.250000000000000e+00	 9.849609846153841e+00
0	 1.000000000000000e+01	 1.375000000000000e+00	 9.855011892307687e+00
0	 1.000000000000000e+01	 1.500000000000000e+00	 9.860389846153849e+00
0	 1.000000000000000e+01	 1.625000000000000e+00	 9.865743707692308e+00
0	 1.000000000000000e+01	 1.750000000000000e+00	 9.871073476923071e+00
0	 1.000000000000000e+01	 1.875000000000000e+00	 9.876379153846152e+00
0	 1.000000000000000e+01	 2.000000000000000e+00	 9.881660738461536e+00
0	 1.000000000000000e+01	 2.125000000000001e+00	 9.886918230769226e+00
0	 1.000000000000000e+01	 2.250000000000001e+00	 9.892151630769231e+00
0	 1.000000000000000e+01	 2.375000000000001e+00	 9.897360938461537e+00
0	 1.000000000000000e+01	 2.500000000000000e+00	 9.902546153846151e+00
0	 8.750000000000000e+00	 2.500000000000000e+00	 9.983113076923074e+00
0	 8.750000000000000e+00	 2.625000000000000e+00	 9.985706753846149e+00
0	 8.750000000000000e+00	 2.750000000000000e+00	 9.988309476923078e+00
0	 8.750000000000002e+00	 2.875000000000001e+00	 9.990921246153848e+00
0	 8.750000000000000e+00	 3.000000000000000e+00	 9.993542061538458e+00
0	 8.750000000000002e+00	 3.125000000000000e+00	 9.996171923076922e+00
0	 8.750000000000000e+00	 3.250000000000000e+00	 9.998810830769232e+00
0	 8.750000000000000e+00	 3.375000000000001e+00	 1.000145878461539e+01
0	 8.750000000000002e+00	 3.500000000000001e+00	 1.000411578461538e+01
0	 8.750000000000000e+00	 3.625000000000001e+00	 1.000678183076923e+01
0	 8.750000000000000e+00	 3.750000000000000e+00	 1.000945692307693e+01
0	 8.874999999999998e+00	 2.500000000000000e+00	 9.975693653846154e+00
0	 8.875000000000000e+00	 2.625000000000000e+00	 9.978295491538459e+00
0	 8.875000000000002e+00	 2.750000000000000e+00	 9.980907815384612e+00
0	 8.875000000000000e+00	 2.875000000000000e+00	 9.983530625384608e+00
0	 8.875000000000000e+00	 3.000000000000000e+00	 9.986163921538461e+00
0	 8.874999999999996e+00	 3.125000000000001e+00	 9.988807703846145e+00
0	 8.875000000000000e+00	 3.250000000000000e+00	 9.991461972307690e+00
0	 8.875000000000002e+00	 3.375000000000001e+00	 9.994126726923071e+00
0	 8.875000000000000e+00	 3.500000000000000e+00	 9.996801967692312e+00
0	 8.875000000000002e+00	 3.625000000000001e+00	 9.999487694615389e+00
0	 8.874999999999998e+00	 3.750000000000000e+00	 1.000218390769231e+01
0	 9.000000000000000e+00	 2.500000000000000e+00	 9.968132615384611e+00
0	 9.000000000000000e+00	 2.625000000000000e+00	 9.970805279999995e+00
0	 8.999999999999996e+00	 2.750000000000000e+00	 9.973489870769228e+00
0	 9.000000000000000e+00	 2.875000000000000e+00	 9.976186387692305e+00
0	 8.999999999999996e+00	 3.000000000000000e+00	 9.978894830769228e+00
0	 8.999999999999996e+00	 3.125000000000000e+00	 9.981615200000000e+00
0	 8.999999999999998e+00	 3.250000000000000e+00	 9.984347495384613e+00
0	 9.000000000000000e+00	 3.375000000000000e+00	 9.987091716923075e+00
0	 9.000000000000000e+00	 3.500000000000001e+00	 9.989847864615390e+00
0	 9.000000000000002e+00	 3.625000000000002e+00	 9.992615938461540e+00
0	 9.000000000000000e+00	 3.750000000000000e+00	 9.995395938461542e+00
0	 9.125000000000000e+00	 2.500000000000000e+00	 9.960429961538459e+00
0	 9.125000000000000e+00	 2.625000000000000e+00	 9.963236119230768e+00
0	 9.125000000000002e+00	 2.750000000000000e+00	 9.966055643076928e+00
0	 9.125000000000000e+00	 2.875000000000000e+00	 9.968888533076917e+00
0	 9.124999999999998e+00	 3.000000000000000e+00	 9.971734789230769e+00
0	 9.124999999999998e+00	 3.125000000000000e+00	 9.974594411538462e+00
0	 9.125000000000000e+00	 3.250000000000001e+00	 9.977467400000002e+00
0	 9.125000000000000e+00	 3.375000000000001e+00	 9.980353754615379e+00
0	 9.124999999999996e+00	 3.500000000000001e+00	 9.983253475384622e+00
0	 9.125000000000000e+00	 3.625000000000001e+00	 9.986166562307695e+00
0	 9.125000000000000e+00	 3.750000000000000e+00	 9.989093015384618e+00
0	 9.249999999999998e+00	 2.500000000000000e+00	 9.952585692307693e+00
0	 9.249999999999998e+00	 2.625000000000000e+00	 9.955588009230766e+00
0	 9.249999999999998e+00	 2.750000000000000e+00	 9.958605132307691e+00
0	 9.249999999999998e+00	 2.875000000000000e+00	 9.961637061538456e+00
0	 9.249999999999998e+00	 3.000000000000000e+00	 9.964683796923076e+00
0	 9.250000000000000e+00	 3.125000000000000e+00	 9.967745338461535e+00
0	 9.249999999999996e+00	 3.250000000000000e+00	 9.970821686153840e+00
0	 9.249999999999998e+00	 3.375000000000001e+00	 9.973912840000006e+00
0	 9.249999999999998e+00	 3.500000000000001e+00	 9.977018800000000e+00
0	 9.249999999999998e+00	 3.625000000000000e+00	 9.980139566153843e+00
0	 9.249999999999998e+00	 3.750000000000000e+00	 9.983275138461538e+00
0	 9.374999999999998e+00	 2.500000000000000e+00	 9.944599807692313e+00
0	 9.374999999999996e+00	 2.625000000000000e+00	 9.947860949999999e+00
0	 9.374999999999998e+00	 2.750000000000001e+00	 9.951138338461542e+00
0	 9.374999999999998e+00	 2.875000000000000e+00	 9.954431973076924e+00
0	 9.375000000000000e+00	 3.000000000000000e+00	 9.957741853846153e+00
0	 9.374999999999998e+00	 3.125000000000001e+00	 9.961067980769229e+00
0	 9.374999999999998e+00	 3.250000000000000e+00	 9.964410353846150e+00
0	 9.374999999999998e+00	 3.375000000000001e+00	 9.967768973076918e+00
0	 9.374999999999998e+00	 3.500000000000001e+00	 9.971143838461536e+00
0	 9.374999999999996e+00	 3.625000000000001e+00	 9.974534949999999e+00
0	 9.374999999999998e+00	 3.750000000000000e+00	 9.977942307692302e+00
0	 9.499999999999998e+00	 2.500000000000000e+00	 9.936472307692306e+00
0	 9.499999999999998e+00	 2.625000000000000e+00	 9.940054941538460e+00
0	 9.499999999999996e+00	 2.750000000000000e+00	 9.943655261538455e+00
0	 9.499999999999998e+00	 2.875000000000000e+00	 9.947273267692308e+00
0	 9.499999999999995e+00	 3.000000000000000e+00	 9.950908959999996e+00
0	 9.499999999999998e+00	 3.125000000000000e+00	 9.954562338461539e+00
0	 9.499999999999998e+00	 3.250000000000000e+00	 9.958233403076925e+00
0	 9.499999999999998e+00	 3.375000000000001e+00	 9.961922153846150e+00
0	 9.499999999999998e+00	 3.500000000000000e+00	 9.965628590769230e+00
0	 9.499999999999996e+00	 3.625000000000001e+00	 9.969352713846154e+00
0	 9.499999999999998e+00	 3.750000000000000e+00	 9.973094523076922e+00
0	 9.624999999999996e+00	 2.500000000000000e+00	 9.928203192307688e+00
0	 9.624999999999998e+00	 2.625000000000001e+00	 9.932169983846148e+00
0	 9.624999999999995e+00	 2.750000000000000e+00	 9.936155901538461e+00
0	 9.625000000000000e+00	 2.875000000000001e+00	 9.940160945384614e+00
0	 9.624999999999996e+00	 3.000000000000001e+00	 9.944185115384609e+00
0	 9.624999999999996e+00	 3.125000000000001e+00	 9.948228411538464e+00
0	 9.624999999999998e+00	 3.250000000000000e+00	 9.952290833846154e+00
0	 9.624999999999996e+00	 3.375000000000001e+00	 9.956372382307693e+00
0	 9.624999999999998e+00	 3.500000000000001e+00	 9.960473056923075e+00
0	 9.624999999999998e+00	 3.625000000000001e+00	 9.964592857692308e+00
0	 9.624999999999996e+00	 3.750000000000000e+00	 9.968731784615386e+00
0	 9.749999999999996e+00	 2.500000000000000e+00	 9.919792461538462e+00
0	 9.749999999999996e+00	 2.625000000000000e+00	 9.924206076923074e+00
0	 9.749999999999996e+00	 2.750000000000000e+00	 9.928640258461533e+00
0	 9.749999999999998e+00	 2.875000000000000e+00	 9.933095006153838e+00
0	 9.749999999999996e+00	 3.000000000000000e+00	 9.937570319999997e+00
0	 9.749999999999996e+00	 3.125000000000001e+00	 9.942066199999998e+00
0	 9.749999999999996e+00	 3.250000000000000e+00	 9.946582646153848e+00
0	 9.749999999999996e+00	 3.375000000000001e+00	 9.951119658461534e+00
0	 9.749999999999998e+00	 3.500000000000001e+00	 9.955677236923083e+00
0	 9.749999999999996e+00	 3.625000000000001e+00	 9.960255381538456e+00
0	 9.749999999999996e+00	 3.750000000000000e+00	 9.964854092307688e+00
0	 9.874999999999996e+00	 2.500000000000000e+00	 9.911240115384611e+00
0	 9.874999999999996e+00	 2.625000000000000e+00	 9.916163220769231e+00
0	 9.874999999999996e+00	 2.750000000000000e+00	 9.921108332307695e+00
0	 9.874999999999996e+00	 2.875000000000000e+00	 9.926075450000001e+00
0	 9.874999999999996e+00	 3.000000000000000e+00	 9.931064573846161e+00
0	 9.874999999999995e+00	 3.125000000000001e+00	 9.936075703846146e+00
0	 9.874999999999998e+00	 3.250000000000001e+00	 9.941108839999991e+00
0	 9.874999999999996e+00	 3.375000000000001e+00	 9.946163982307684e+00
0	 9.874999999999996e+00	 3.500000000000001e+00	 9.951241130769231e+00
0	 9.874999999999996e+00	 3.625000000000001e+00	 9.956340285384616e+00
0	 9.874999999999996e+00	 3.750000000000000e+00	 9.961461446153844e+00
0	 1.000000000000000e+01	 2.500000000000000e+00	 9.902546153846151e+00
0	 1.000000000000000e+01	 2.625000000000000e+00	 9.908041415384607e+00
0	 1.000000000000000e+01	 2.750000000000000e+00	 9.913560123076925e+00
0	 1.000000000000000e+01	 2.875000000000001e+00	 9.919102276923073e+00
0	 1.000000000000000e+01	 3.000000000000000e+00	 9.924667876923071e+00
0	 1.000000000000000e+01	 3.125000000000000e+00	 9.930256923076920e+00
0	 1.000000000000000e+01	 3.250000000000000e+00	 9.935869415384612e+00
0	 1.000000000000000e+01	 3.375000000000001e+00	 9.941505353846152e+00
0	 1.000000000000000e+01	 3.500000000000001e+00	 9.947164738461527e+00
0	 1.000000000000000e+01	 3.625000000000001e+00	 9.952847569230762e+00
0	 1.000000000000000e+01	 3.750000000000000e+00	 9.958553846153848e+00
0	 8.750000000000000e+00	 3.750000000000000e+00	 1.000945692307693e+01
0	 8.750000000000000e+00	 3.875000000000000e+00	 1.001009280000000e+01
0	 8.750000000000000e+00	 4.000000000000001e+00	 1.001081535384616e+01
0	 8.750000000000002e+00	 4.125000000000001e+00	 1.001162458461538e+01
0	 8.750000000000000e+00	 4.250000000000001e+00	 1.001252049230769e+01
0	 8.750000000000002e+00	 4.375000000000001e+00	 1.001350307692308e+01
0	 8.750000000000000e+00	 4.500000000000000e+00	 1.001457233846153e+01
0	 8.750000000000000e+00	 4.625000000000001e+00	 1.001572827692307e+01
0	 8.750000000000002e+00	 4.750000000000002e+00	 1.001697089230769e+01
0	 8.750000000000000e+00	 4.875000000000002e+00	 1.001830018461538e+01
0	 8.750000000000000e+00	 5.000000000000000e+00	 1.001971615384615e+01
0	 8.874999999999998e+00	 3.750000000000000e+00	 1.000218390769231e+01
0	 8.875000000000000e+00	 3.875000000000000e+00	 1.000315219000001e+01
0	 8.875000000000002e+00	 4.000000000000001e+00	 1.000420131538461e+01
0	 8.875000000000000e+00	 4.125000000000000e+00	 1.000533128384615e+01
0	 8.875000000000000e+00	 4.250000000000001e+00	 1.000654209538461e+01
0	 8.874999999999996e+00	 4.375000000000000e+00	 1.000783374999999e+01
0	 8.875000000000000e+00	 4.500000000000002e+00	 1.000920624769230e+01
0	 8.875000000000002e+00	 4.625000000000002e+00	 1.001065958846153e+01
0	 8.875000000000000e+00	 4.750000000000002e+00	 1.001219377230769e+01
0	 8.875000000000002e+00	 4.875000000000001e+00	 1.001380879923076e+01
0	 8.874999999999998e+00	 5.000000000000000e+00	 1.001550466923076e+01
0	 9.000000000000000e+00	 3.750000000000000e+00	 9.995395938461542e+00
0	 9.000000000000000e+00	 3.875000000000000e+00	 9.996682378461532e+00
0	 8.999999999999996e+00	 4.000000000000000e+00	 9.998043827692307e+00
0	 9.000000000000000e+00	 4.125000000000001e+00	 9.999480286153844e+00
0	 8.999999999999996e+00	 4.250000000000000e+00	 1.000099175384615e+01
0	 8.999999999999996e+00	 4.375000000000000e+00	 1.000257823076923e+01
0	 8.999999999999998e+00	 4.500000000000000e+00	 1.000423971692308e+01
0	 9.000000000000000e+00	 4.625000000000002e+00	 1.000597621230769e+01
0	 9.000000000000000e+00	 4.750000000000003e+00	 1.000778771692308e+01
0	 9.000000000000002e+00	 4.875000000000003e+00	 1.000967423076922e+01
0	 9.000000000000000e+00	 4.999999999999999e+00	 1.001163575384614e+01
0	 9.125000000000000e+00	 3.750000000000000e+00	 9.989093015384618e+00
0	 9.125000000000000e+00	 3.875000000000000e+00	 9.990683365384616e+00
0	 9.125000000000002e+00	 4.000000000000001e+00	 9.992342890769232e+00
0	 9.125000000000000e+00	 4.125000000000001e+00	 9.994071591538459e+00
0	 9.124999999999998e+00	 4.250000000000001e+00	 9.995869467692307e+00
0	 9.124999999999998e+00	 4.374999999999999e+00	 9.997736519230767e+00
0	 9.125000000000000e+00	 4.500000000000001e+00	 9.999672746153843e+00
0	 9.125000000000000e+00	 4.625000000000001e+00	 1.000167814846154e+01
0	 9.124999999999996e+00	 4.750000000000001e+00	 1.000375272615385e+01
0	 9.125000000000000e+00	 4.875000000000001e+00	 1.000589647923077e+01
0	 9.125000000000000e+00	 4.999999999999999e+00	 1.000810940769230e+01
0	 9.249999999999998e+00	 3.750000000000000e+00	 9.983275138461538e+00
0	 9.249999999999998e+00	 3.875000000000001e+00	 9.985155150769236e+00
0	 9.249999999999998e+00	 4.000000000000000e+00	 9.987098504615380e+00
0	 9.249999999999998e+00	 4.125000000000001e+00	 9.989105199999996e+00
0	 9.249999999999998e+00	 4.250000000000001e+00	 9.991175236923073e+00
0	 9.250000000000000e+00	 4.375000000000002e+00	 9.993308615384612e+00
0	 9.249999999999996e+00	 4.499999999999999e+00	 9.995505335384610e+00
0	 9.249999999999998e+00	 4.625000000000001e+00	 9.997765396923072e+00
0	 9.249999999999998e+00	 4.750000000000002e+00	 1.000008880000000e+01
0	 9.249999999999998e+00	 4.874999999999999e+00	 1.000247554461537e+01
0	 9.249999999999998e+00	 5.000000000000001e+00	 1.000492563076923e+01
0	 9.374999999999998e+00	 3.750000000000000e+00	 9.977942307692302e+00
0	 9.374999999999996e+00	 3.875000000000000e+00	 9.980097734615383e+00
0	 9.374999999999998e+00	 4.000000000000000e+00	 9.982310669230767e+00
0	 9.374999999999998e+00	 4.125000000000001e+00	 9.984581111538457e+00
0	 9.375000000000000e+00	 4.250000000000001e+00	 9.986909061538460e+00
0	 9.374999999999998e+00	 4.375000000000001e+00	 9.989294519230766e+00
0	 9.374999999999998e+00	 4.500000000000002e+00	 9.991737484615383e+00
0	 9.374999999999998e+00	 4.625000000000001e+00	 9.994237957692295e+00
0	 9.374999999999998e+00	 4.750000000000001e+00	 9.996795938461533e+00
0	 9.374999999999996e+00	 4.875000000000001e+00	 9.999411426923071e+00
0	 9.374999999999998e+00	 5.000000000000000e+00	 1.000208442307692e+01
0	 9.499999999999998e+00	 3.750000000000000e+00	 9.973094523076922e+00
0	 9.499999999999998e+00	 3.875000000000000e+00	 9.975511116923078e+00
0	 9.499999999999996e+00	 4.000000000000000e+00	 9.977979384615381e+00
0	 9.499999999999998e+00	 4.125000000000001e+00	 9.980499326153840e+00
0	 9.499999999999995e+00	 4.249999999999999e+00	 9.983070941538456e+00
0	 9.499999999999998e+00	 4.375000000000001e+00	 9.985694230769226e+00
0	 9.499999999999998e+00	 4.500000000000001e+00	 9.988369193846150e+00
0	 9.499999999999998e+00	 4.625000000000002e+00	 9.991095830769229e+00
0	 9.499999999999998e+00	 4.750000000000000e+00	 9.993874141538454e+00
0	 9.499999999999996e+00	 4.875000000000001e+00	 9.996704126153844e+00
0	 9.499999999999998e+00	 5.000000000000000e+00	 9.999585784615380e+00
0	 9.624999999999996e+00	 3.750000000000000e+00	 9.968731784615386e+00
0	 9.624999999999998e+00	 3.875000000000000e+00	 9.971395297692304e+00
0	 9.624999999999995e+00	 3.999999999999999e+00	 9.974104650769226e+00
0	 9.625000000000000e+00	 4.125000000000001e+00	 9.976859843846155e+00
0	 9.624999999999996e+00	 4.250000000000000e+00	 9.979660876923074e+00
0	 9.624999999999996e+00	 4.375000000000001e+00	 9.982507749999996e+00
0	 9.624999999999998e+00	 4.500000000000002e+00	 9.985400463076921e+00
0	 9.624999999999996e+00	 4.625000000000001e+00	 9.988339016153844e+00
0	 9.624999999999998e+00	 4.750000000000002e+00	 9.991323409230763e+00
0	 9.624999999999998e+00	 4.875000000000001e+00	 9.994353642307685e+00
0	 9.624999999999996e+00	 5.000000000000000e+00	 9.997429715384614e+00
0	 9.749999999999996e+00	 3.750000000000000e+00	 9.964854092307688e+00
0	 9.749999999999996e+00	 3.875000000000000e+00	 9.967750276923081e+00
0	 9.749999999999996e+00	 4.000000000000000e+00	 9.970686467692300e+00
0	 9.749999999999998e+00	 4.125000000000001e+00	 9.973662664615381e+00
0	 9.749999999999996e+00	 4.250000000000000e+00	 9.976678867692305e+00
0	 9.749999999999996e+00	 4.375000000000001e+00	 9.979735076923079e+00
0	 9.749999999999996e+00	 4.500000000000000e+00	 9.982831292307688e+00
0	 9.749999999999996e+00	 4.625000000000001e+00	 9.985967513846150e+00
0	 9.749999999999998e+00	 4.750000000000002e+00	 9.989143741538459e+00
0	 9.749999999999996e+00	 4.875000000000001e+00	 9.992359975384616e+00
0	 9.749999999999996e+00	 5.000000000000000e+00	 9.995616215384620e+00
0	 9.874999999999996e+00	 3.750000000000000e+00	 9.961461446153844e+00
0	 9.874999999999996e+00	 3.875000000000000e+00	 9.964576054615389e+00
0	 9.874999999999996e+00	 4.000000000000001e+00	 9.967724835384622e+00
0	 9.874999999999996e+00	 4.125000000000001e+00	 9.970907788461533e+00
0	 9.874999999999996e+00	 4.250000000000001e+00	 9.974124913846154e+00
0	 9.874999999999995e+00	 4.375000000000001e+00	 9.977376211538454e+00
0	 9.874999999999998e+00	 4.500000000000001e+00	 9.980661681538459e+00
0	 9.874999999999996e+00	 4.625000000000001e+00	 9.983981323846143e+00
0	 9.874999999999996e+00	 4.750000000000001e+00	 9.987335138461544e+00
0	 9.874999999999996e+00	 4.875000000000002e+00	 9.990723125384621e+00
0	 9.874999999999996e+00	 5.000000000000000e+00	 9.994145284615390e+00
0	 1.000000000000000e+01	 3.750000000000000e+00	 9.958553846153848e+00
0	 1.000000000000000e+01	 3.875000000000000e+00	 9.961872630769227e+00
0	 1.000000000000000e+01	 4.000000000000000e+00	 9.965219753846155e+00
0	 1.000000000000000e+01	 4.125000000000001e+00	 9.968595215384605e+00
0	 1.000000000000000e+01	 4.250000000000001e+00	 9.971999015384618e+00
0	 1.000000000000000e+01	 4.375000000000000e+00	 9.975431153846156e+00
0	 1.000000000000000e+01	 4.500000000000001e+00	 9.978891630769223e+00
0	 1.000000000000000e+01	 4.625000000000001e+00	 9.982380446153844e+00
0	 1.000000000000000e+01	 4.750000000000001e+00	 9.985897600000012e+00
0	 1.000000000000000e+01	 4.875000000000001e+00	 9.989443092307690e+00
0	 1.000000000000000e+01	 5.000000000000000e+00	 9.993016923076926e+00
0	 8.750000000000000e+00	 5.000000000000000e+00	 1.001971615384615e+01
0	 8.750000000000000e+00	 5.124999999999999e+00	 1.001974457692308e+01
0	 8.750000000000002e+00	 5.250000000000000e+00	 1.001978661538461e+01
0	 8.750000000000000e+00	 5.374999999999998e+00	 1.001984226923076e+01
0	 8.750000000000000e+00	 5.499999999999999e+00	 1.001991153846153e+01
0	 8.750000000000000e+00	 5.624999999999997e+00	 1.001999442307693e+01
0	 8.750000000000000e+00	 5.749999999999997e+00	 1.002009092307691e+01
0	 8.750000000000000e+00	 5.874999999999996e+00	 1.002020103846154e+01
0	 8.750000000000000e+00	 5.999999999999996e+00	 1.002032476923076e+01
0	 8.750000000000000e+00	 6.124999999999996e+00	 1.002046211538462e+01
0	 8.750000000000000e+00	 6.250000000000000e+00	 1.002061307692308e+01
0	 8.874999999999998e+00	 5.000000000000000e+00	 1.001550466923076e+01
0	 8.875000000000000e+00	 5.124999999999999e+00	 1.001560432153845e+01
0	 8.875000000000000e+00	 5.250000000000000e+00	 1.001572211692307e+01
0	 8.875000000000000e+00	 5.374999999999999e+00	 1.001585805538461e+01
0	 8.875000000000000e+00	 5.499999999999999e+00	 1.001601213692308e+01
0	 8.874999999999998e+00	 5.624999999999999e+00	 1.001618436153846e+01
0	 8.875000000000000e+00	 5.749999999999996e+00	 1.001637472923077e+01
0	 8.875000000000000e+00	 5.874999999999997e+00	 1.001658323999999e+01
0	 8.875000000000002e+00	 5.999999999999996e+00	 1.001680989384616e+01
0	 8.875000000000000e+00	 6.124999999999996e+00	 1.001705469076923e+01
0	 8.874999999999998e+00	 6.250000000000000e+00	 1.001731763076923e+01
0	 9.000000000000000e+00	 4.999999999999999e+00	 1.001163575384614e+01
0	 9.000000000000000e+00	 5.124999999999999e+00	 1.001181142769230e+01
0	 9.000000000000000e+00	 5.250000000000000e+00	 1.001200977230769e+01
0	 8.999999999999998e+00	 5.374999999999999e+00	 1.001223078769230e+01
0	 9.000000000000000e+00	 5.499999999999999e+00	 1.001247447384615e+01
0	 8.999999999999998e+00	 5.624999999999996e+00	 1.001274083076922e+01
0	 9.000000000000000e+00	 5.749999999999998e+00	 1.001302985846153e+01
0	 9.000000000000000e+00	 5.874999999999997e+00	 1.001334155692308e+01
0	 9.000000000000000e+00	 5.999999999999996e+00	 1.001367592615385e+01
0	 9.000000000000000e+00	 6.124999999999996e+00	 1.001403296615385e+01
0	 9.000000000000000e+00	 6.250000000000000e+00	 1.001441267692308e+01
0	 9.125000000000000e+00	 4.999999999999999e+00	 1.000810940769230e+01
0	 9.125000000000000e+00	 5.125000000000000e+00	 1.000836589538461e+01
0	 9.124999999999996e+00	 5.250000000000000e+00	 1.000864958153846e+01
0	 9.124999999999998e+00	 5.374999999999999e+00	 1.000896046615384e+01
0	 9.125000000000000e+00	 5.499999999999999e+00	 1.000929854923077e+01
0	 9.125000000000002e+00	 5.624999999999998e+00	 1.000966383076922e+01
0	 9.125000000000000e+00	 5.749999999999997e+00	 1.001005631076923e+01
0	 9.125000000000000e+00	 5.874999999999996e+00	 1.001047598923076e+01
0	 9.125000000000000e+00	 5.999999999999996e+00	 1.001092286615385e+01
0	 9.124999999999998e+00	 6.124999999999996e+00	 1.001139694153846e+01
0	 9.125000000000000e+00	 6.249999999999999e+00	 1.001189821538462e+01
0	 9.249999999999998e+00	 5.000000000000001e+00	 1.000492563076923e+01
0	 9.249999999999995e+00	 5.124999999999999e+00	 1.000526772461538e+01
0	 9.250000000000000e+00	 5.249999999999999e+00	 1.000564154461538e+01
0	 9.250000000000000e+00	 5.374999999999999e+00	 1.000604709076923e+01
0	 9.249999999999998e+00	 5.499999999999997e+00	 1.000648436307692e+01
0	 9.249999999999998e+00	 5.624999999999999e+00	 1.000695336153846e+01
0	 9.250000000000000e+00	 5.749999999999997e+00	 1.000745408615385e+01
0	 9.249999999999998e+00	 5.874999999999998e+00	 1.000798653692308e+01
0	 9.250000000000000e+00	 5.999999999999997e+00	 1.000855071384616e+01
0	 9.250000000000000e+00	 6.124999999999996e+00	 1.000914661692307e+01
0	 9.249999999999998e+00	 6.250000000000000e+00	 1.000977424615384e+01
0	 9.374999999999998e+00	 5.000000000000000e+00	 1.000208442307692e+01
0	 9.375000000000000e+00	 5.125000000000000e+00	 1.000251691538461e+01
0	 9.374999999999996e+00	 5.249999999999999e+00	 1.000298566153846e+01
0	 9.374999999999998e+00	 5.374999999999999e+00	 1.000349066153846e+01
0	 9.374999999999996e+00	 5.499999999999998e+00	 1.000403191538461e+01
0	 9.374999999999996e+00	 5.624999999999997e+00	 1.000460942307692e+01
0	 9.374999999999998e+00	 5.749999999999997e+00	 1.000522318461537e+01
0	 9.374999999999998e+00	 5.874999999999996e+00	 1.000587320000000e+01
0	 9.374999999999998e+00	 5.999999999999996e+00	 1.000655946923077e+01
0	 9.374999999999996e+00	 6.124999999999996e+00	 1.000728199230769e+01
0	 9.374999999999998e+00	 6.249999999999999e+00	 1.000804076923077e+01
0	 9.499999999999998e+00	 5.000000000000000e+00	 9.999585784615380e+00
0	 9.499999999999996e+00	 5.125000000000000e+00	 1.000011346769231e+01
0	 9.499999999999996e+00	 5.249999999999998e+00	 1.000068193230769e+01
0	 9.499999999999996e+00	 5.374999999999998e+00	 1.000129117846154e+01
0	 9.500000000000000e+00	 5.499999999999998e+00	 1.000194120615384e+01
0	 9.499999999999998e+00	 5.624999999999997e+00	 1.000263201538461e+01
0	 9.499999999999996e+00	 5.749999999999997e+00	 1.000336360615384e+01
0	 9.499999999999996e+00	 5.874999999999996e+00	 1.000413597846154e+01
0	 9.499999999999998e+00	 5.999999999999996e+00	 1.000494913230768e+01
0	 9.499999999999996e+00	 6.124999999999996e+00	 1.000580306769230e+01
0	 9.499999999999998e+00	 6.250000000000000e+00	 1.000669778461539e+01
0	 9.624999999999996e+00	 5.000000000000000e+00	 9.997429715384614e+00
0	 9.624999999999996e+00	 5.125000000000000e+00	 9.998057381538462e+00
0	 9.624999999999998e+00	 5.250000000000000e+00	 9.998730356923074e+00
0	 9.624999999999996e+00	 5.374999999999999e+00	 9.999448641538461e+00
0	 9.624999999999996e+00	 5.499999999999998e+00	 1.000021223538461e+01
0	 9.624999999999998e+00	 5.624999999999997e+00	 1.000102113846154e+01
0	 9.624999999999996e+00	 5.749999999999996e+00	 1.000187535076924e+01
0	 9.624999999999995e+00	 5.874999999999996e+00	 1.000277487230769e+01
0	 9.624999999999996e+00	 5.999999999999996e+00	 1.000371970307692e+01
0	 9.624999999999996e+00	 6.124999999999996e+00	 1.000470984307692e+01
0	 9.624999999999996e+00	 6.250000000000000e+00	 1.000574529230769e+01
0	 9.749999999999996e+00	 5.000000000000000e+00	 9.995616215384620e+00
0	 9.749999999999996e+00	 5.124999999999999e+00	 9.996348656923072e+00
0	 9.749999999999998e+00	 5.250000000000001e+00	 9.997130935384611e+00
0	 9.749999999999996e+00	 5.374999999999998e+00	 9.997963050769231e+00
0	 9.749999999999996e+00	 5.499999999999998e+00	 9.998845003076923e+00
0	 9.749999999999995e+00	 5.624999999999996e+00	 9.999776792307689e+00
0	 9.749999999999996e+00	 5.749999999999998e+00	 1.000075841846154e+01
0	 9.749999999999996e+00	 5.874999999999996e+00	 1.000178988153846e+01
0	 9.749999999999996e+00	 5.999999999999996e+00	 1.000287118153846e+01
0	 9.749999999999996e+00	 6.124999999999996e+00	 1.000400231846154e+01
0	 9.749999999999996e+00	 6.250000000000000e+00	 1.000518329230769e+01
0	 9.874999999999996e+00	 5.000000000000000e+00	 9.994145284615390e+00
0	 9.874999999999998e+00	 5.125000000000001e+00	 9.994987293846151e+00
0	 9.874999999999995e+00	 5.249999999999999e+00	 9.995883667692299e+00
0	 9.874999999999995e+00	 5.374999999999998e+00	 9.996834406153845e+00
0	 9.874999999999998e+00	 5.499999999999999e+00	 9.997839509230763e+00
0	 9.874999999999996e+00	 5.624999999999998e+00	 9.998898976923067e+00
0	 9.874999999999996e+00	 5.749999999999997e+00	 1.000001280923076e+01
0	 9.874999999999996e+00	 5.874999999999996e+00	 1.000118100615385e+01
0	 9.874999999999996e+00	 5.999999999999996e+00	 1.000240356769230e+01
0	 9.874999999999996e+00	 6.124999999999996e+00	 1.000368049384616e+01
0	 9.874999999999996e+00	 6.250000000000000e+00	 1.000501178461538e+01
0	 1.000000000000000e+01	 5.000000000000000e+00	 9.993016923076926e+00
0	 1.000000000000000e+01	 5.125000000000000e+00	 9.993973292307695e+00
0	 1.000000000000000e+01	 5.249999999999999e+00	 9.994988553846143e+00
0	 1.000000000000000e+01	 5.374999999999998e+00	 9.996062707692300e+00
0	 1.000000000000000e+01	 5.499999999999999e+00	 9.997195753846148e+00
0	 1.000000000000000e+01	 5.624999999999997e+00	 9.998387692307697e+00
0	 9.999999999999998e+00	 5.749999999999997e+00	 9.999638523076911e+00
0	 1.000000000000000e+01	 5.874999999999997e+00	 1.000094824615385e+01
0	 1.000000000000000e+01	 5.999999999999996e+00	 1.000231686153846e+01
0	 1.000000000000000e+01	 6.124999999999996e+00	 1.000374436923077e+01
0	 1.000000000000000e+01	 6.250000000000000e+00	 1.000523076923076e+01
0	 8.750000000000000e+00	 6.250000000000000e+00	 1.002061307692308e+01
0	 8.750000000000000e+00	 6.375000000000000e+00	 1.001956073076922e+01
0	 8.750000000000002e+00	 6.500000000000000e+00	 1.001854138461538e+01
0	 8.750000000000000e+00	 6.624999999999998e+00	 1.001755503846154e+01
0	 8.750000000000000e+00	 6.749999999999998e+00	 1.001660169230769e+01
0	 8.750000000000000e+00	 6.874999999999998e+00	 1.001568134615384e+01
0	 8.750000000000000e+00	 6.999999999999997e+00	 1.001479400000000e+01
0	 8.750000000000000e+00	 7.124999999999996e+00	 1.001393965384615e+01
0	 8.750000000000000e+00	 7.249999999999997e+00	 1.001311830769230e+01
0	 8.750000000000000e+00	 7.374999999999996e+00	 1.001232996153845e+01
0	 8.750000000000000e+00	 7.500000000000000e+00	 1.001157461538461e+01
0	 8.874999999999998e+00	 6.250000000000000e+00	 1.001731763076923e+01
0	 8.875000000000000e+00	 6.375000000000000e+00	 1.001649822615385e+01
0	 8.875000000000000e+00	 6.499999999999998e+00	 1.001570854923077e+01
0	 8.875000000000000e+00	 6.624999999999999e+00	 1.001494860000001e+01
0	 8.875000000000000e+00	 6.749999999999999e+00	 1.001421837846154e+01
0	 8.874999999999998e+00	 6.874999999999996e+00	 1.001351788461538e+01
0	 8.875000000000000e+00	 6.999999999999996e+00	 1.001284711846154e+01
0	 8.875000000000000e+00	 7.124999999999996e+00	 1.001220608000001e+01
0	 8.875000000000002e+00	 7.249999999999997e+00	 1.001159476923077e+01
0	 8.875000000000000e+00	 7.374999999999996e+00	 1.001101318615384e+01
0	 8.874999999999998e+00	 7.500000000000000e+00	 1.001046133076922e+01
0	 9.000000000000000e+00	 6.250000000000000e+00	 1.001441267692308e+01
0	 9.000000000000000e+00	 6.374999999999998e+00	 1.001378607692307e+01
0	 9.000000000000000e+00	 6.499999999999999e+00	 1.001318593230769e+01
0	 8.999999999999998e+00	 6.624999999999999e+00	 1.001261224307692e+01
0	 9.000000000000000e+00	 6.749999999999998e+00	 1.001206500923077e+01
0	 8.999999999999998e+00	 6.874999999999998e+00	 1.001154423076923e+01
0	 9.000000000000000e+00	 6.999999999999998e+00	 1.001104990769231e+01
0	 9.000000000000000e+00	 7.124999999999996e+00	 1.001058204000000e+01
0	 9.000000000000000e+00	 7.249999999999996e+00	 1.001014062769231e+01
0	 9.000000000000000e+00	 7.374999999999996e+00	 1.000972567076922e+01
0	 9.000000000000000e+00	 7.500000000000000e+00	 1.000933716923076e+01
0	 9.125000000000000e+00	 6.249999999999999e+00	 1.001189821538462e+01
0	 9.125000000000000e+00	 6.375000000000000e+00	 1.001142428307693e+01
0	 9.124999999999996e+00	 6.499999999999998e+00	 1.001097353384616e+01
0	 9.124999999999998e+00	 6.624999999999997e+00	 1.001054596769231e+01
0	 9.125000000000000e+00	 6.750000000000000e+00	 1.001014158461538e+01
0	 9.125000000000002e+00	 6.874999999999997e+00	 1.000976038461538e+01
0	 9.125000000000000e+00	 6.999999999999997e+00	 1.000940236769231e+01
0	 9.125000000000000e+00	 7.124999999999998e+00	 1.000906753384615e+01
0	 9.125000000000000e+00	 7.249999999999996e+00	 1.000875588307692e+01
0	 9.124999999999998e+00	 7.374999999999996e+00	 1.000846741538462e+01
0	 9.125000000000000e+00	 7.499999999999999e+00	 1.000820213076922e+01
0	 9.249999999999998e+00	 6.250000000000000e+00	 1.000977424615384e+01
0	 9.249999999999995e+00	 6.374999999999999e+00	 1.000941284461539e+01
0	 9.250000000000000e+00	 6.500000000000001e+00	 1.000907135384616e+01
0	 9.250000000000000e+00	 6.624999999999999e+00	 1.000874977384615e+01
0	 9.249999999999998e+00	 6.749999999999997e+00	 1.000844810461538e+01
0	 9.249999999999998e+00	 6.874999999999997e+00	 1.000816634615384e+01
0	 9.250000000000000e+00	 6.999999999999997e+00	 1.000790449846154e+01
0	 9.249999999999998e+00	 7.124999999999997e+00	 1.000766256153845e+01
0	 9.250000000000000e+00	 7.249999999999997e+00	 1.000744053538462e+01
0	 9.250000000000000e+00	 7.374999999999996e+00	 1.000723842000000e+01
0	 9.249999999999998e+00	 7.500000000000001e+00	 1.000705621538460e+01
0	 9.374999999999998e+00	 6.249999999999999e+00	 1.000804076923077e+01
0	 9.375000000000000e+00	 6.375000000000001e+00	 1.000775176153846e+01
0	 9.374999999999996e+00	 6.499999999999999e+00	 1.000747939230769e+01
0	 9.374999999999998e+00	 6.624999999999999e+00	 1.000722366153846e+01
0	 9.374999999999996e+00	 6.749999999999996e+00	 1.000698456923077e+01
0	 9.374999999999996e+00	 6.874999999999998e+00	 1.000676211538461e+01
0	 9.374999999999998e+00	 6.999999999999997e+00	 1.000655630000000e+01
0	 9.374999999999998e+00	 7.124999999999996e+00	 1.000636712307693e+01
0	 9.374999999999998e+00	 7.249999999999996e+00	 1.000619458461539e+01
0	 9.374999999999996e+00	 7.374999999999995e+00	 1.000603868461538e+01
0	 9.374999999999998e+00	 7.500000000000000e+00	 1.000589942307692e+01
0	 9.499999999999998e+00	 6.250000000000000e+00	 1.000669778461539e+01
0	 9.499999999999996e+00	 6.374999999999999e+00	 1.000644103384615e+01
0	 9.499999999999996e+00	 6.499999999999997e+00	 1.000619764923077e+01
0	 9.499999999999996e+00	 6.624999999999998e+00	 1.000596763076924e+01
0	 9.500000000000000e+00	 6.749999999999998e+00	 1.000575097846154e+01
0	 9.499999999999998e+00	 6.874999999999998e+00	 1.000554769230769e+01
0	 9.499999999999996e+00	 6.999999999999997e+00	 1.000535777230770e+01
0	 9.499999999999996e+00	 7.124999999999997e+00	 1.000518121846154e+01
0	 9.499999999999998e+00	 7.249999999999996e+00	 1.000501803076923e+01
0	 9.499999999999996e+00	 7.374999999999995e+00	 1.000486820923077e+01
0	 9.499999999999998e+00	 7.499999999999999e+00	 1.000473175384615e+01
0	 9.624999999999996e+00	 6.250000000000000e+00	 1.000574529230769e+01
0	 9.624999999999996e+00	 6.375000000000000e+00	 1.000548066153846e+01
0	 9.624999999999998e+00	 6.500000000000000e+00	 1.000522612461539e+01
0	 9.624999999999996e+00	 6.624999999999999e+00	 1.000498168153847e+01
0	 9.624999999999996e+00	 6.749999999999997e+00	 1.000474733230769e+01
0	 9.624999999999998e+00	 6.874999999999998e+00	 1.000452307692308e+01
0	 9.624999999999996e+00	 6.999999999999998e+00	 1.000430891538462e+01
0	 9.624999999999995e+00	 7.124999999999996e+00	 1.000410484769231e+01
0	 9.624999999999996e+00	 7.249999999999995e+00	 1.000391087384616e+01
0	 9.624999999999996e+00	 7.374999999999996e+00	 1.000372699384616e+01
0	 9.624999999999996e+00	 7.500000000000000e+00	 1.000355320769231e+01
0	 9.749999999999996e+00	 6.250000000000000e+00	 1.000518329230769e+01
0	 9.749999999999996e+00	 6.375000000000000e+00	 1.000487064461538e+01
0	 9.749999999999998e+00	 6.500000000000000e+00	 1.000456481846154e+01
0	 9.749999999999996e+00	 6.624999999999998e+00	 1.000426581384615e+01
0	 9.749999999999996e+00	 6.749999999999999e+00	 1.000397363076923e+01
0	 9.749999999999995e+00	 6.874999999999996e+00	 1.000368826923076e+01
0	 9.749999999999996e+00	 6.999999999999997e+00	 1.000340972923077e+01
0	 9.749999999999996e+00	 7.124999999999996e+00	 1.000313801076923e+01
0	 9.749999999999996e+00	 7.249999999999996e+00	 1.000287311384616e+01
0	 9.749999999999996e+00	 7.374999999999995e+00	 1.000261503846154e+01
0	 9.749999999999996e+00	 7.500000000000000e+00	 1.000236378461539e+01
0	 9.874999999999996e+00	 6.250000000000000e+00	 1.000501178461538e+01
0	 9.874999999999998e+00	 6.375000000000000e+00	 1.000461098307693e+01
0	 9.874999999999995e+00	 6.499999999999999e+00	 1.000421373076922e+01
0	 9.874999999999995e+00	 6.624999999999998e+00	 1.000382002769232e+01
0	 9.874999999999998e+00	 6.749999999999999e+00	 1.000342987384616e+01
0	 9.874999999999996e+00	 6.874999999999998e+00	 1.000304326923078e+01
0	 9.874999999999996e+00	 6.999999999999998e+00	 1.000266021384616e+01
0	 9.874999999999996e+00	 7.124999999999997e+00	 1.000228070769231e+01
0	 9.874999999999996e+00	 7.249999999999996e+00	 1.000190475076923e+01
0	 9.874999999999996e+00	 7.374999999999996e+00	 1.000153234307694e+01
0	 9.874999999999996e+00	 7.500000000000000e+00	 1.000116348461540e+01
0	 1.000000000000000e+01	 6.250000000000000e+00	 1.000523076923076e+01
0	 1.000000000000000e+01	 6.374999999999999e+00	 1.000470167692307e+01
0	 1.000000000000000e+01	 6.499999999999999e+00	 1.000417286153846e+01
0	 1.000000000000000e+01	 6.624999999999998e+00	 1.000364432307692e+01
0	 1.000000000000000e+01	 6.749999999999998e+00	 1.000311606153846e+01
0	 1.000000000000000e+01	 6.874999999999998e+00	 1.000258807692308e+01
0	 9.999999999999998e+00	 6.999999999999997e+00	 1.000206036923077e+01
0	 1.000000000000000e+01	 7.124999999999997e+00	 1.000153293846154e+01
0	 1.000000000000000e+01	 7.249999999999996e+00	 1.000100578461540e+01
0	 1.000000000000000e+01	 7.374999999999996e+00	 1.000047890769230e+01
0	 1.000000000000000e+01	 7.500000000000000e+00	 9.999952307692315e+00
0	 8.750000000000000e+00	 7.500000000000000e+00	 1.001157461538461e+01
0	 8.750000000000000e+00	 7.625000000000000e+00	 1.001089182307693e+01
0	 8.750000000000002e+00	 7.750000000000000e+00	 1.001016606153846e+01
0	 8.750000000000000e+00	 7.874999999999998e+00	 1.000939733076922e+01
0	 8.750000000000000e+00	 7.999999999999999e+00	 1.000858563076923e+01
0	 8.750000000000000e+00	 8.124999999999998e+00	 1.000773096153847e+01
0	 8.750000000000000e+00	 8.249999999999998e+00	 1.000683332307692e+01
0	 8.750000000000000e+00	 8.374999999999996e+00	 1.000589271538461e+01
0	 8.750000000000000e+00	 8.499999999999996e+00	 1.000490913846154e+01
0	 8.750000000000000e+00	 8.624999999999996e+00	 1.000388259230771e+01
0	 8.750000000000000e+00	 8.750000000000000e+00	 1.000281307692308e+01
0	 8.874999999999998e+00	 7.500000000000000e+00	 1.001046133076922e+01
0	 8.875000000000000e+00	 7.624999999999999e+00	 1.000983028153847e+01
0	 8.875000000000000e+00	 7.749999999999998e+00	 1.000916132615384e+01
0	 8.875000000000000e+00	 7.874999999999997e+00	 1.000845446461539e+01
0	 8.875000000000000e+00	 7.999999999999999e+00	 1.000770969692307e+01
0	 8.874999999999998e+00	 8.124999999999996e+00	 1.000692702307692e+01
0	 8.875000000000000e+00	 8.249999999999998e+00	 1.000610644307692e+01
0	 8.875000000000000e+00	 8.374999999999998e+00	 1.000524795692307e+01
0	 8.875000000000002e+00	 8.499999999999998e+00	 1.000435156461539e+01
0	 8.875000000000000e+00	 8.624999999999996e+00	 1.000341726615384e+01
0	 8.874999999999998e+00	 8.750000000000000e+00	 1.000244506153846e+01
0	 9.000000000000000e+00	 7.500000000000000e+00	 1.000933716923076e+01
0	 9.000000000000000e+00	 7.625000000000000e+00	 1.000875490153846e+01
0	 9.000000000000000e+00	 7.750000000000000e+00	 1.000813979076923e+01
0	 8.999999999999998e+00	 7.874999999999997e+00	 1.000749183692308e+01
0	 9.000000000000000e+00	 7.999999999999998e+00	 1.000681104000000e+01
0	 8.999999999999998e+00	 8.124999999999998e+00	 1.000609740000000e+01
0	 9.000000000000000e+00	 8.250000000000000e+00	 1.000535091692308e+01
0	 9.000000000000000e+00	 8.374999999999995e+00	 1.000457159076923e+01
0	 9.000000000000000e+00	 8.499999999999995e+00	 1.000375942153847e+01
0	 9.000000000000000e+00	 8.624999999999996e+00	 1.000291440923077e+01
0	 9.000000000000000e+00	 8.750000000000000e+00	 1.000203655384616e+01
0	 9.125000000000000e+00	 7.499999999999999e+00	 1.000820213076922e+01
0	 9.125000000000000e+00	 7.625000000000000e+00	 1.000766568307692e+01
0	 9.124999999999996e+00	 7.749999999999999e+00	 1.000710145538461e+01
0	 9.124999999999998e+00	 7.874999999999996e+00	 1.000650944769231e+01
0	 9.125000000000000e+00	 7.999999999999999e+00	 1.000588965999999e+01
0	 9.125000000000002e+00	 8.124999999999998e+00	 1.000524209230769e+01
0	 9.125000000000000e+00	 8.249999999999998e+00	 1.000456674461538e+01
0	 9.125000000000000e+00	 8.374999999999998e+00	 1.000386361692308e+01
0	 9.125000000000000e+00	 8.499999999999996e+00	 1.000313270923078e+01
0	 9.124999999999998e+00	 8.624999999999996e+00	 1.000237402153847e+01
0	 9.125000000000000e+00	 8.749999999999998e+00	 1.000158755384616e+01
0	 9.249999999999998e+00	 7.500000000000001e+00	 1.000705621538460e+01
0	 9.249999999999995e+00	 7.624999999999998e+00	 1.000656262615385e+01
0	 9.250000000000000e+00	 7.750000000000000e+00	 1.000604632000000e+01
0	 9.250000000000000e+00	 7.874999999999999e+00	 1.000550729692307e+01
0	 9.249999999999998e+00	 7.999999999999997e+00	 1.000494555692308e+01
0	 9.249999999999998e+00	 8.124999999999998e+00	 1.000436109999999e+01
0	 9.250000000000000e+00	 8.249999999999998e+00	 1.000375392615385e+01
0	 9.249999999999998e+00	 8.374999999999996e+00	 1.000312403538462e+01
0	 9.250000000000000e+00	 8.499999999999996e+00	 1.000247142769231e+01
0	 9.250000000000000e+00	 8.624999999999996e+00	 1.000179610307693e+01
0	 9.249999999999998e+00	 8.750000000000002e+00	 1.000109806153847e+01
0	 9.374999999999998e+00	 7.500000000000000e+00	 1.000589942307692e+01
0	 9.375000000000000e+00	 7.625000000000001e+00	 1.000544573076923e+01
0	 9.374999999999996e+00	 7.749999999999999e+00	 1.000497438461539e+01
0	 9.374999999999998e+00	 7.874999999999998e+00	 1.000448538461539e+01
0	 9.374999999999996e+00	 7.999999999999997e+00	 1.000397873076924e+01
0	 9.374999999999996e+00	 8.124999999999998e+00	 1.000345442307692e+01
0	 9.374999999999998e+00	 8.249999999999996e+00	 1.000291246153846e+01
0	 9.374999999999998e+00	 8.374999999999996e+00	 1.000235284615384e+01
0	 9.374999999999998e+00	 8.499999999999996e+00	 1.000177557692307e+01
0	 9.374999999999996e+00	 8.624999999999993e+00	 1.000118065384616e+01
0	 9.374999999999998e+00	 8.750000000000000e+00	 1.000056807692308e+01
0	 9.499999999999998e+00	 7.499999999999999e+00	 1.000473175384615e+01
0	 9.499999999999996e+00	 7.625000000000000e+00	 1.000431499692309e+01
0	 9.499999999999996e+00	 7.749999999999997e+00	 1.000388564923077e+01
0	 9.499999999999996e+00	 7.874999999999998e+00	 1.000344371076923e+01
0	 9.500000000000000e+00	 7.999999999999998e+00	 1.000298918153846e+01
0	 9.499999999999998e+00	 8.124999999999998e+00	 1.000252206153846e+01
0	 9.499999999999996e+00	 8.249999999999996e+00	 1.000204235076923e+01
0	 9.499999999999996e+00	 8.374999999999996e+00	 1.000155004923077e+01
0	 9.499999999999998e+00	 8.499999999999996e+00	 1.000104515692307e+01
0	 9.499999999999996e+00	 8.624999999999995e+00	 1.000052767384616e+01
0	 9.499999999999998e+00	 8.750000000000000e+00	 9.999997599999997e+00
0	 9.624999999999996e+00	 7.500000000000000e+00	 1.000355320769231e+01
0	 9.624999999999996e+00	 7.624999999999999e+00	 1.000317042461539e+01
0	 9.624999999999998e+00	 7.750000000000000e+00	 1.000278011384615e+01
0	 9.624999999999996e+00	 7.874999999999998e+00	 1.000238227538462e+01
0	 9.624999999999996e+00	 7.999999999999996e+00	 1.000197690923077e+01
0	 9.624999999999998e+00	 8.124999999999996e+00	 1.000156401538462e+01
0	 9.624999999999996e+00	 8.249999999999998e+00	 1.000114359384615e+01
0	 9.624999999999995e+00	 8.374999999999996e+00	 1.000071564461539e+01
0	 9.624999999999996e+00	 8.499999999999995e+00	 1.000028016769231e+01
0	 9.624999999999996e+00	 8.624999999999996e+00	 9.999837163076911e+00
0	 9.624999999999996e+00	 8.750000000000000e+00	 9.999386630769239e+00
0	 9.749999999999996e+00	 7.500000000000000e+00	 1.000236378461539e+01
0	 9.749999999999996e+00	 7.625000000000000e+00	 1.000201201384616e+01
0	 9.749999999999998e+00	 7.750000000000000e+00	 1.000165777846155e+01
0	 9.749999999999996e+00	 7.874999999999998e+00	 1.000130107846154e+01
0	 9.749999999999996e+00	 7.999999999999998e+00	 1.000094191384615e+01
0	 9.749999999999995e+00	 8.124999999999996e+00	 1.000058028461538e+01
0	 9.749999999999996e+00	 8.249999999999996e+00	 1.000021619076924e+01
0	 9.749999999999996e+00	 8.374999999999996e+00	 9.999849632307690e+00
0	 9.749999999999996e+00	 8.499999999999996e+00	 9.999480609230771e+00
0	 9.749999999999996e+00	 8.624999999999996e+00	 9.999109121538460e+00
0	 9.749999999999996e+00	 8.750000000000000e+00	 9.998735169230764e+00
0	 9.874999999999996e+00	 7.500000000000000e+00	 1.000116348461540e+01
0	 9.874999999999998e+00	 7.625000000000000e+00	 1.000083976461539e+01
0	 9.874999999999995e+00	 7.749999999999999e+00	 1.000051864307693e+01
0	 9.874999999999995e+00	 7.874999999999997e+00	 1.000020012000000e+01
0	 9.874999999999998e+00	 7.999999999999998e+00	 9.999884195384617e+00
0	 9.874999999999996e+00	 8.124999999999998e+00	 9.999570869230768e+00
0	 9.874999999999996e+00	 8.249999999999998e+00	 9.999260141538461e+00
0	 9.874999999999996e+00	 8.374999999999998e+00	 9.998952012307701e+00
0	 9.874999999999996e+00	 8.499999999999996e+00	 9.998646481538474e+00
0	 9.874999999999996e+00	 8.624999999999996e+00	 9.998343549230771e+00
0	 9.874999999999996e+00	 8.750000000000000e+00	 9.998043215384616e+00
0	 1.000000000000000e+01	 7.500000000000000e+00	 9.999952307692315e+00
0	 1.000000000000000e+01	 7.625000000000000e+00	 9.999653676923096e+00
0	 1.000000000000000e+01	 7.749999999999998e+00	 9.999362707692322e+00
0	 1.000000000000000e+01	 7.874999999999999e+00	 9.999079400000007e+00
0	 1.000000000000000e+01	 7.999999999999999e+00	 9.998803753846150e+00
0	 1.000000000000000e+01	 8.124999999999998e+00	 9.998535769230774e+00
0	 9.999999999999998e+00	 8.249999999999998e+00	 9.998275446153844e+00
0	 1.000000000000000e+01	 8.374999999999998e+00	 9.998022784615394e+00
0	 1.000000000000000e+01	 8.499999999999996e+00	 9.997777784615398e+00
0	 1.000000000000000e+01	 8.624999999999996e+00	 9.997540446153856e+00
0	 1.000000000000000e+01	 8.750000000000000e+00	 9.997310769230770e+00
0	 8.750000000000000e+00	 8.750000000000000e+00	 1.000281307692308e+01
0	 8.750000000000000e+00	 8.874999999999998e+00	 1.000263699230769e+01
0	 8.750000000000000e+00	 9.000000000000000e+00	 1.000240289230769e+01
0	 8.749999999999998e+00	 9.124999999999998e+00	 1.000211077692307e+01
0	 8.750000000000000e+00	 9.250000000000000e+00	 1.000176064615385e+01
0	 8.750000000000000e+00	 9.374999999999996e+00	 1.000135250000000e+01
0	 8.750000000000000e+00	 9.499999999999996e+00	 1.000088633846154e+01
0	 8.750000000000000e+00	 9.624999999999996e+00	 1.000036216153845e+01
0	 8.750000000000002e+00	 9.749999999999998e+00	 9.999779969230778e+00
0	 8.750000000000000e+00	 9.874999999999996e+00	 9.999139761538459e+00
0	 8.750000000000000e+00	 1.000000000000000e+01	 9.998441538461526e+00
0	 8.874999999999998e+00	 8.750000000000000e+00	 1.000244506153846e+01
0	 8.875000000000002e+00	 8.875000000000002e+00	 1.000232402384615e+01
0	 8.875000000000000e+00	 8.999999999999998e+00	 1.000214914769231e+01
0	 8.875000000000002e+00	 9.125000000000000e+00	 1.000192043307692e+01
0	 8.875000000000000e+00	 9.249999999999996e+00	 1.000163788000000e+01
0	 8.875000000000002e+00	 9.375000000000000e+00	 1.000130148846154e+01
0	 8.875000000000002e+00	 9.500000000000000e+00	 1.000091125846153e+01
0	 8.875000000000000e+00	 9.624999999999998e+00	 1.000046718999999e+01
0	 8.875000000000000e+00	 9.749999999999995e+00	 9.999969283076933e+00
0	 8.875000000000000e+00	 9.874999999999996e+00	 9.999417537692313e+00
0	 8.875000000000002e+00	 1.000000000000000e+01	 9.998811953846138e+00
0	 9.000000000000000e+00	 8.750000000000000e+00	 1.000203655384616e+01
0	 8.999999999999998e+00	 8.875000000000000e+00	 1.000196838769231e+01
0	 9.000000000000002e+00	 9.000000000000000e+00	 1.000185056000000e+01
0	 8.999999999999998e+00	 9.125000000000000e+00	 1.000168307076923e+01
0	 8.999999999999996e+00	 9.249999999999998e+00	 1.000146592000000e+01
0	 8.999999999999998e+00	 9.374999999999996e+00	 1.000119910769232e+01
0	 9.000000000000002e+00	 9.500000000000000e+00	 1.000088263384616e+01
0	 9.000000000000002e+00	 9.624999999999998e+00	 1.000051649846154e+01
0	 9.000000000000002e+00	 9.750000000000000e+00	 1.000010070153846e+01
0	 9.000000000000000e+00	 9.874999999999996e+00	 9.999635243076922e+00
0	 9.000000000000000e+00	 1.000000000000000e+01	 9.999120123076921e+00
0	 9.125000000000000e+00	 8.749999999999998e+00	 1.000158755384616e+01
0	 9.125000000000000e+00	 8.874999999999998e+00	 1.000157008384616e+01
0	 9.124999999999998e+00	 8.999999999999998e+00	 1.000150712923077e+01
0	 9.125000000000000e+00	 9.125000000000002e+00	 1.000139868999999e+01
0	 9.125000000000000e+00	 9.250000000000000e+00	 1.000124476615385e+01
0	 9.125000000000000e+00	 9.374999999999998e+00	 1.000104535769231e+01
0	 9.125000000000002e+00	 9.499999999999998e+00	 1.000080046461537e+01
0	 9.124999999999998e+00	 9.624999999999998e+00	 1.000051008692307e+01
0	 9.124999999999996e+00	 9.749999999999996e+00	 1.000017422461538e+01
0	 9.125000000000000e+00	 9.874999999999996e+00	 9.999792877692308e+00
0	 9.124999999999998e+00	 9.999999999999998e+00	 9.999366046153828e+00
0	 9.249999999999998e+00	 8.750000000000002e+00	 1.000109806153847e+01
0	 9.249999999999996e+00	 8.875000000000000e+00	 1.000112911230770e+01
0	 9.249999999999998e+00	 8.999999999999998e+00	 1.000111885538461e+01
0	 9.250000000000002e+00	 9.125000000000002e+00	 1.000106729076923e+01
0	 9.250000000000000e+00	 9.250000000000000e+00	 1.000097441846153e+01
0	 9.250000000000000e+00	 9.374999999999998e+00	 1.000084023846155e+01
0	 9.249999999999998e+00	 9.499999999999996e+00	 1.000066475076923e+01
0	 9.250000000000000e+00	 9.624999999999998e+00	 1.000044795538459e+01
0	 9.249999999999998e+00	 9.749999999999995e+00	 1.000018985230766e+01
0	 9.250000000000000e+00	 9.874999999999998e+00	 9.999890441538469e+00
0	 9.250000000000000e+00	 1.000000000000000e+01	 9.999549723076921e+00
0	 9.374999999999998e+00	 8.750000000000000e+00	 1.000056807692308e+01
0	 9.375000000000000e+00	 8.875000000000000e+00	 1.000064547307693e+01
0	 9.374999999999995e+00	 8.999999999999998e+00	 1.000068573846154e+01
0	 9.374999999999996e+00	 9.124999999999996e+00	 1.000068887307692e+01
0	 9.375000000000000e+00	 9.250000000000000e+00	 1.000065487692309e+01
0	 9.374999999999996e+00	 9.374999999999996e+00	 1.000058374999999e+01
0	 9.375000000000000e+00	 9.500000000000000e+00	 1.000047549230768e+01
0	 9.374999999999996e+00	 9.624999999999996e+00	 1.000033010384615e+01
0	 9.374999999999998e+00	 9.749999999999996e+00	 1.000014758461536e+01
0	 9.374999999999996e+00	 9.874999999999996e+00	 9.999927934615396e+00
0	 9.374999999999996e+00	 1.000000000000000e+01	 9.999671153846126e+00
0	 9.499999999999998e+00	 8.750000000000000e+00	 9.999997599999997e+00
0	 9.500000000000000e+00	 8.875000000000000e+00	 1.000011916615386e+01
0	 9.500000000000000e+00	 9.000000000000002e+00	 1.000020777846152e+01
0	 9.499999999999996e+00	 9.125000000000000e+00	 1.000026343692307e+01
0	 9.499999999999996e+00	 9.249999999999996e+00	 1.000028614153847e+01
0	 9.499999999999998e+00	 9.374999999999998e+00	 1.000027589230769e+01
0	 9.499999999999998e+00	 9.499999999999998e+00	 1.000023268923076e+01
0	 9.500000000000000e+00	 9.625000000000000e+00	 1.000015653230766e+01
0	 9.499999999999998e+00	 9.749999999999996e+00	 1.000004742153847e+01
0	 9.499999999999996e+00	 9.874999999999996e+00	 9.999905356923078e+00
0	 9.499999999999996e+00	 1.000000000000000e+01	 9.999730338461511e+00
0	 9.624999999999996e+00	 8.750000000000000e+00	 9.999386630769239e+00
0	 9.624999999999996e+00	 8.874999999999998e+00	 9.999550191538454e+00
0	 9.624999999999998e+00	 9.000000000000000e+00	 9.999684975384614e+00
0	 9.624999999999995e+00	 9.124999999999998e+00	 9.999790982307692e+00
0	 9.624999999999995e+00	 9.249999999999996e+00	 9.999868212307693e+00
0	 9.624999999999995e+00	 9.374999999999998e+00	 9.999916665384605e+00
0	 9.624999999999998e+00	 9.499999999999998e+00	 9.999936341538453e+00
0	 9.624999999999995e+00	 9.624999999999995e+00	 9.999927240769217e+00
0	 9.624999999999996e+00	 9.749999999999996e+00	 9.999889363076910e+00
0	 9.624999999999996e+00	 9.874999999999996e+00	 9.999822708461538e+00
0	 9.624999999999996e+00	 1.000000000000000e+01	 9.999727276923069e+00
0	 9.749999999999996e+00	 8.750000000000000e+00	 9.998735169230764e+00
0	 9.749999999999995e+00	 8.874999999999998e+00	 9.998938549230759e+00
0	 9.749999999999996e+00	 8.999999999999998e+00	 9.999117329230751e+00
0	 9.749999999999996e+00	 9.124999999999998e+00	 9.999271509230766e+00
0	 9.749999999999996e+00	 9.249999999999998e+00	 9.999401089230766e+00
0	 9.749999999999995e+00	 9.374999999999998e+00	 9.999506069230781e+00
0	 9.749999999999996e+00	 9.499999999999996e+00	 9.999586449230762e+00
0	 9.749999999999996e+00	 9.624999999999996e+00	 9.999642229230769e+00
0	 9.749999999999996e+00	 9.749999999999996e+00	 9.999673409230743e+00
0	 9.749999999999996e+00	 9.874999999999996e+00	 9.999679989230764e+00
0	 9.749999999999996e+00	 1.000000000000000e+01	 9.999661969230804e+00
0	 9.874999999999996e+00	 8.750000000000000e+00	 9.998043215384616e+00
0	 9.874999999999996e+00	 8.875000000000000e+00	 9.998284239230772e+00
0	 9.874999999999996e+00	 9.000000000000000e+00	 9.998504840000003e+00
0	 9.874999999999996e+00	 9.125000000000000e+00	 9.998705017692327e+00
0	 9.874999999999996e+00	 9.250000000000000e+00	 9.998884772307692e+00
0	 9.874999999999996e+00	 9.374999999999996e+00	 9.999044103846146e+00
0	 9.874999999999996e+00	 9.499999999999996e+00	 9.999183012307682e+00
0	 9.874999999999996e+00	 9.624999999999996e+00	 9.999301497692308e+00
0	 9.874999999999996e+00	 9.749999999999996e+00	 9.999399559999997e+00
0	 9.874999999999996e+00	 9.874999999999996e+00	 9.999477199230776e+00
0	 9.874999999999996e+00	 1.000000000000000e+01	 9.999534415384634e+00
0	 1.000000000000000e+01	 8.750000000000000e+00	 9.997310769230770e+00
0	 1.000000000000000e+01	 8.875000000000002e+00	 9.997587261538468e+00
0	 1.000000000000000e+01	 9.000000000000000e+00	 9.997847507692303e+00
0	 9.999999999999998e+00	 9.124999999999998e+00	 9.998091507692306e+00
0	 1.000000000000000e+01	 9.250000000000000e+00	 9.998319261538455e+00
0	 1.000000000000000e+01	 9.374999999999996e+00	 9.998530769230779e+00
0	 1.000000000000000e+01	 9.499999999999996e+00	 9.998726030769216e+00
0	 1.000000000000000e+01	 9.624999999999996e+00	 9.998905046153867e+00
0	 1.000000000000000e+01	 9.749999999999996e+00	 9.999067815384601e+00
0	 1.000000000000000e+01	 9.874999999999996e+00	 9.999214338461542e+00
0	 1.000000000000000e+01	 1.000000000000000e+01	 9.999344615384622e+00
1	 1.000000000000000e+00	 0.000000000000000e+00	 2.519939017428274e+01
1	 9.998426119581704e-01	 1.774123198744521e-02	 2.491234010083581e+01
1	 9.993659466402713e-01	 3.560484089073321e-02	 2.458016082830599e+01
1	 9.985633751090949e-01	 5.358344789747921e-02	 2.420277227962545e+01
1	 9.974284469032259e-01	 7.166933308134273e-02	 2.378018388622105e+01
1	 9.959549086084808e-01	 8.985443791194039e-02	 2.331249776995078e+01
1	 9.941367226520526e-01	 1.081303688402291e-01	 2.279991167714588e+01
1	 9.919680862544972e-01	 1.264884019976692e-01	 2.224272163536725e+01
1	 9.894434504702301e-01	 1.449194890435835e-01	 2.164132430372055e+01
1	 9.865575392429453e-01	 1.634142641907508e-01	 2.099621898808602e+01
1	 9.833053683983746e-01	 1.819630524344169e-01	 2.030800929342450e+01
1	 1.012500000000000e+00	 0.000000000000000e+00	 2.436326883345875e+01
1	 1.012340644607676e+00	 1.796299738536411e-02	 2.408186443489474e+01
1	 1.011858020973390e+00	 3.604990139831822e-02	 2.375618558888665e+01
1	 1.011045417298220e+00	 5.425324099133014e-02	 2.338614869091951e+01
1	 1.009896302489983e+00	 7.256519973898737e-02	 2.297175808389047e+01
1	 1.008404344966822e+00	 9.097761837928382e-02	 2.251310921256794e+01
1	 1.006563431686269e+00	 1.094819984438203e-01	 2.201039153571475e+01
1	 1.004367687334138e+00	 1.280695070157070e-01	 2.146389116686927e+01
1	 1.001811493603026e+00	 1.467309826500149e-01	 2.087399321499135e+01
1	 9.988895084859243e-01	 1.654569424871888e-01	 2.024118379666666e+01
1	 9.955966855063876e-01	 1.842375905849211e-01	 1.956605169233723e+01
1	 1.025000000000000e+00	 0.000000000000000e+00	 2.357673669932044e+01
1	 1.024838677257182e+00	 1.818476278346252e-02	 2.330064786312355e+01
1	 1.024350095306508e+00	 3.649496190623553e-02	 2.298112898711414e+01
1	 1.023527459487344e+00	 5.492303408563875e-02	 2.261809323652346e+01
1	 1.022364158076741e+00	 7.346106639718697e-02	 2.221154019497892e+01
1	 1.020853781325163e+00	 9.210079884725078e-02	 2.176155899178169e+01
1	 1.018990140720485e+00	 1.108336280480742e-01	 2.126833119228289e+01
1	 1.016767288413778e+00	 1.296506120344168e-01	 2.073213342272846e+01
1	 1.014179536735822e+00	 1.485424762570972e-01	 2.015333970113593e+01
1	 1.011221477728904e+00	 1.674996207842254e-01	 1.953242344622685e+01
1	 1.007888002614400e+00	 1.865121287359399e-01	 1.886995913718258e+01
1	 1.037500000000000e+00	 0.000000000000000e+00	 2.283800139095170e+01
1	 1.037336709906687e+00	 1.840652818174046e-02	 2.256690993637653e+01
1	 1.036842169639627e+00	 3.694002241448514e-02	 2.225322287949300e+01
1	 1.036009501676469e+00	 5.559282718040499e-02	 2.189685044172993e+01
1	 1.034832013663499e+00	 7.435693305594146e-02	 2.149778776480401e+01
1	 1.033303217683504e+00	 9.322397931584123e-02	 2.105611801110106e+01
1	 1.031416849754700e+00	 1.121852576529908e-01	 2.057201523247035e+01
1	 1.029166889493419e+00	 1.312317170537988e-01	 2.004574697917162e+01
1	 1.026547579868618e+00	 1.503539698648304e-01	 1.947767662088596e+01
1	 1.023553446971883e+00	 1.695422990818606e-01	 1.886826535213872e+01
1	 1.020179319722413e+00	 1.887866668874734e-01	 1.821807385519580e+01
1	 1.050000000000000e+00	 0.000000000000000e+00	 2.214535587890500e+01
1	 1.049834742556193e+00	 1.862829358019793e-02	 2.187895498879761e+01
1	 1.049334243972746e+00	 3.738508292306705e-02	 2.157078331983451e+01
1	 1.048491543865594e+00	 5.626262027562888e-02	 2.122074842586320e+01
1	 1.047299869250256e+00	 7.525279971525092e-02	 2.082884131271441e+01
1	 1.045752654041845e+00	 9.434715978505519e-02	 2.039513951196214e+01
1	 1.043843558788917e+00	 1.135368872585703e-01	 1.991980992829577e+01
1	 1.041566490573060e+00	 1.328128220738529e-01	 1.940311143260534e+01
1	 1.038915623001414e+00	 1.521654634732144e-01	 1.884539717303414e+01
1	 1.035885416214862e+00	 1.715849773800943e-01	 1.824711657666258e+01
1	 1.032470636830427e+00	 1.910612050395216e-01	 1.760881701517395e+01
1	 1.062500000000000e+00	 0.000000000000000e+00	 2.149717346452697e+01
1	 1.062332775205699e+00	 1.885005897883492e-02	 2.123516715056805e+01
1	 1.061826318305864e+00	 3.783014343198125e-02	 2.093220560647412e+01
1	 1.060973586054718e+00	 5.693241337131042e-02	 2.058819398498337e+01
1	 1.059767724837014e+00	 7.614866637511535e-02	 2.020311945126453e+01
1	 1.058202090400185e+00	 9.547034025489266e-02	 1.977705423032098e+01
1	 1.056270267823133e+00	 1.148885168648125e-01	 1.931015843309417e+01
1	 1.053966091652700e+00	 1.343939270945790e-01	 1.880268263372312e+01
1	 1.051283666134210e+00	 1.539769570822494e-01	 1.825497017054828e+01
1	 1.048217385457841e+00	 1.736276556789267e-01	 1.766745914383574e+01
1	 1.044761953938439e+00	 1.933357431920845e-01	 1.704068408385464e+01
1	 1.075000000000000e+00	 0.000000000000000e+00	 2.089190310956357e+01
1	 1.074830807855204e+00	 1.907182437765143e-02	 2.063400570860228e+01
1	 1.074318392638983e+00	 3.827520394122774e-02	 2.033595967503182e+01
1	 1.073455628243843e+00	 5.760220646744962e-02	 1.999766801765760e+01
1	 1.072235580423771e+00	 7.704453303553466e-02	 1.961911434591197e+01
1	 1.070651526758527e+00	 9.659352072535370e-02	 1.920036589115799e+01
1	 1.068696976857348e+00	 1.162401464717175e-01	 1.874157631167304e+01
1	 1.066365692732341e+00	 1.359750321159773e-01	 1.824298825411641e+01
1	 1.063651709267006e+00	 1.557884506919352e-01	 1.770493564439810e+01
1	 1.060549354700821e+00	 1.756703339783577e-01	 1.712784568122972e+01
1	 1.057053271046452e+00	 1.956102813451620e-01	 1.651224050626802e+01
1	 1.087500000000000e+00	 0.000000000000000e+00	 2.032806508786149e+01
1	 1.087328840504711e+00	 1.929358977664748e-02	 2.007400078719544e+01
1	 1.086810466972101e+00	 3.872026445080654e-02	 1.978058580891309e+01
1	 1.085937670432968e+00	 5.827199956404649e-02	 1.944772126619556e+01
1	 1.084703436010529e+00	 7.794039969650891e-02	 1.907538748783924e+01
1	 1.083100963116868e+00	 9.771670119643823e-02	 1.866364701370665e+01
1	 1.081123685891564e+00	 1.175917760792853e-01	 1.821264737873342e+01
1	 1.078765293811981e+00	 1.375561371380476e-01	 1.772262365863703e+01
1	 1.076019752399802e+00	 1.575999443022719e-01	 1.719390075056678e+01
1	 1.072881323943800e+00	 1.777130122783873e-01	 1.662689536227557e+01
1	 1.069344588154466e+00	 1.978848194987542e-01	 1.602211768399597e+01
1	 1.100000000000000e+00	 0.000000000000000e+00	 1.980424693354433e+01
1	 1.099826873154216e+00	 1.951535517582304e-02	 1.955374932317239e+01
1	 1.099302541305220e+00	 3.916532496071764e-02	 1.926469064227582e+01
1	 1.098419712622092e+00	 5.894179266110097e-02	 1.893697034825491e+01
1	 1.097171291597287e+00	 7.883626635803816e-02	 1.857056575499217e+01
1	 1.095550399475209e+00	 9.883988166814628e-02	 1.816553500268911e+01
1	 1.093550394925780e+00	 1.189434056875159e-01	 1.772201982103511e+01
1	 1.091164894891622e+00	 1.391372421607900e-01	 1.724024805918900e+01
1	 1.088387795532598e+00	 1.594114379132595e-01	 1.672053595612965e+01
1	 1.085213293186779e+00	 1.797556905790154e-01	 1.616329012524933e+01
1	 1.081635905262479e+00	 2.001593576528611e-01	 1.556900922764050e+01
1	 1.112500000000000e+00	 0.000000000000000e+00	 1.931909966234561e+01
1	 1.112324905803722e+00	 1.973712057517813e-02	 1.907191131237489e+01
1	 1.111794615638338e+00	 3.961038547096103e-02	 1.878694343246003e+01
1	 1.110901754811217e+00	 5.961158575861313e-02	 1.846409405597922e+01
1	 1.109639147184044e+00	 7.973213302012230e-02	 1.810333773866631e+01
1	 1.107999835833550e+00	 9.996306214047786e-02	 1.770472850306410e+01
1	 1.105977103959996e+00	 1.202950352964092e-01	 1.726840258098883e+01
1	 1.103564495971262e+00	 1.407183471842045e-01	 1.679458092781561e+01
1	 1.100755838665393e+00	 1.612229315248979e-01	 1.628357148245116e+01
1	 1.097545262429758e+00	 1.817983688802421e-01	 1.573577114715700e+01
1	 1.093927222370492e+00	 2.024338958074826e-01	 1.515166746193509e+01
1	 1.125000000000000e+00	 0.000000000000000e+00	 1.887133424485274e+01
1	 1.124822938453228e+00	 1.995888597471274e-02	 1.862720630638315e+01
1	 1.124286689971457e+00	 4.005544598153672e-02	 1.834607258092231e+01
1	 1.123383797000342e+00	 6.028137885658293e-02	 1.802782990185993e+01
1	 1.122107002770802e+00	 8.062799968276138e-02	 1.767245031498757e+01
1	 1.120449272191891e+00	 1.010862426134330e-01	 1.727998399779153e+01
1	 1.118403812994212e+00	 1.216466649059652e-01	 1.685056198134238e+01
1	 1.115964097050903e+00	 1.422994522082910e-01	 1.638439864891381e+01
1	 1.113123881798189e+00	 1.630344251371873e-01	 1.588179398550226e+01
1	 1.109877231672737e+00	 1.838410471820675e-01	 1.534313555269386e+01
1	 1.106218539478505e+00	 2.047084339626188e-01	 1.476890016384824e+01
1	 9.833053683983746e-01	 1.819630524344169e-01	 2.030800929342450e+01
1	 9.796822644935034e-01	 2.005558790047255e-01	 1.966618159789428e+01
1	 9.756838834365029e-01	 2.191824800562895e-01	 1.898233829736554e+01
1	 9.713062287906588e-01	 2.378323146029681e-01	 1.825812116224284e+01
1	 9.665456696731551e-01	 2.564945776994924e-01	 1.749530242146452e+01
1	 9.613989581557346e-01	 2.751582148638952e-01	 1.669578201450900e+01
1	 9.558632460744549e-01	 2.938119377279353e-01	 1.586158414476785e+01
1	 9.499361011546518e-01	 3.124442408950446e-01	 1.499485312724685e+01
1	 9.436155223571460e-01	 3.310434199775670e-01	 1.409784852873256e+01
1	 9.368999543523497e-01	 3.495975907771368e-01	 1.317293960401931e+01
1	 9.297883010302649e-01	 3.680947095640363e-01	 1.222259903747979e+01
1	 9.955966855063876e-01	 1.842375905849211e-01	 1.956605169233723e+01
1	 9.919282928033321e-01	 2.030628274885299e-01	 1.894670457907031e+01
1	 9.878799319837496e-01	 2.219222610543536e-01	 1.828626333110376e+01
1	 9.834475566554662e-01	 2.408052185339226e-01	 1.758631215571952e+01
1	 9.786274905496307e-01	 2.597007599201509e-01	 1.684856251741545e+01
1	 9.734164451388825e-01	 2.785976925500452e-01	 1.607485052139256e+01
1	 9.678115366572296e-01	 2.974845869507597e-01	 1.526713361761100e+01
1	 9.618103024265737e-01	 3.163497939082676e-01	 1.442748661822382e+01
1	 9.554107163947458e-01	 3.351814627300659e-01	 1.355809702621726e+01
1	 9.486112037905381e-01	 3.539675606653077e-01	 1.266125967838256e+01
1	 9.414106548025766e-01	 3.726958934376526e-01	 1.173937071126953e+01
1	 1.007888002614400e+00	 1.865121287359399e-01	 1.886995913718258e+01
1	 1.004174321113151e+00	 2.055697759727489e-01	 1.827218138871360e+01
1	 1.000075980530958e+00	 2.246620420527318e-01	 1.763421896918484e+01
1	 9.955888845201883e-01	 2.437781224650910e-01	 1.695759988294603e+01
1	 9.907093114259543e-01	 2.629069421409228e-01	 1.624397625094839e+01
1	 9.854339321217915e-01	 2.820371702362078e-01	 1.549512182292601e+01
1	 9.797598272396584e-01	 3.011572361734960e-01	 1.471292882898020e+01
1	 9.736845036980223e-01	 3.202553469213019e-01	 1.389940416322590e+01
1	 9.672059104317243e-01	 3.393195054822754e-01	 1.305666489702687e+01
1	 9.603224532279363e-01	 3.583375305530889e-01	 1.218693312448400e+01
1	 9.530330085739085e-01	 3.772970773107793e-01	 1.129253014820510e+01
1	 1.020179319722413e+00	 1.887866668874734e-01	 1.821807385519580e+01
1	 1.016420349422961e+00	 2.080767244573826e-01	 1.764098718963297e+01
1	 1.012272029078130e+00	 2.274018230514244e-01	 1.702461374396708e+01
1	 1.007730212384825e+00	 2.467510263964731e-01	 1.637042663064249e+01
1	 1.002791132302125e+00	 2.661131243618078e-01	 1.568001999660002e+01
1	 9.974514191044608e-01	 2.854766479223831e-01	 1.495510666146642e+01
1	 9.917081178217403e-01	 3.048298853961441e-01	 1.419751511362624e+01
1	 9.855587049689970e-01	 3.241608999341473e-01	 1.340918585668851e+01
1	 9.790011044680813e-01	 3.434575482341956e-01	 1.259216710357808e+01
1	 9.720337026645446e-01	 3.627075004404805e-01	 1.174860982046461e+01
1	 9.646553623442610e-01	 3.818982611834161e-01	 1.088076212794714e+01
1	 1.032470636830427e+00	 1.910612050395216e-01	 1.760881701517395e+01
1	 1.028666377732762e+00	 2.105836729424308e-01	 1.705157451783832e+01
1	 1.024468077625263e+00	 2.301416040504314e-01	 1.645593197198354e+01
1	 1.019871540249377e+00	 2.497239303280692e-01	 1.582330886235316e+01
1	 1.014872953178144e+00	 2.693193065828061e-01	 1.515524268250170e+01
1	 1.009468906086891e+00	 2.889161256085709e-01	 1.445338669640243e+01
1	 1.003656408403476e+00	 3.085025346187041e-01	 1.371950707607455e+01
1	 9.974329062394982e-01	 3.280664529468040e-01	 1.295547940759850e+01
1	 9.907962985038169e-01	 3.475955909858267e-01	 1.216328456245869e+01
1	 9.837449521003627e-01	 3.670774703274826e-01	 1.134500393598269e+01
1	 9.762777161136343e-01	 3.864994450555633e-01	 1.050281405969635e+01
1	 1.044761953938439e+00	 1.933357431920845e-01	 1.704068408385464e+01
1	 1.040912406042553e+00	 2.130906214278937e-01	 1.650246873117576e+01
1	 1.036664126172359e+00	 2.328813850497527e-01	 1.592672929604939e+01
1	 1.032012868113843e+00	 2.526968342598790e-01	 1.531483285510368e+01
1	 1.026954774054010e+00	 2.725254888039177e-01	 1.466826152252076e+01
1	 1.021486393069082e+00	 2.923556032947711e-01	 1.398861033256416e+01
1	 1.015604698984865e+00	 3.121751838411760e-01	 1.327758451593245e+01
1	 1.009307107509526e+00	 3.319720059592721e-01	 1.253699616216752e+01
1	 1.002591492538931e+00	 3.517336337371683e-01	 1.176876026477057e+01
1	 9.954562015353910e-01	 3.714474402140948e-01	 1.097489015036013e+01
1	 9.879000698820278e-01	 3.911006289272207e-01	 1.015749229810327e+01
1	 1.057053271046452e+00	 1.956102813451620e-01	 1.651224050626802e+01
1	 1.053158434352335e+00	 2.155975699137711e-01	 1.599226377549988e+01
1	 1.048860174719417e+00	 2.356211660493882e-01	 1.543562853838490e+01
1	 1.044154195978224e+00	 2.556697381919028e-01	 1.484365064047773e+01
1	 1.039036594929724e+00	 2.757316710251425e-01	 1.421775804615963e+01
1	 1.033503880051033e+00	 2.957950809809841e-01	 1.355948883967418e+01
1	 1.027552989565909e+00	 3.158478330635599e-01	 1.287048863747747e+01
1	 1.021181308779080e+00	 3.358775589715513e-01	 1.215250740399335e+01
1	 1.014386686573424e+00	 3.558716764882207e-01	 1.140739566714623e+01
1	 1.007167450969629e+00	 3.758174101003176e-01	 1.063710013457859e+01
1	 9.995224236494423e-01	 3.957018127983884e-01	 9.843658716206852e+00
1	 1.069344588154466e+00	 1.978848194987542e-01	 1.602211768399597e+01
1	 1.065404462662107e+00	 2.181045184000633e-01	 1.551961824283401e+01
1	 1.061056223266437e+00	 2.383609470493381e-01	 1.498131583973010e+01
1	 1.056295523842520e+00	 2.586426421241405e-01	 1.440847622561940e+01
1	 1.051118415805285e+00	 2.789378532464805e-01	 1.380247440225484e+01
1	 1.045521367032745e+00	 2.992345586672095e-01	 1.316479273942265e+01
1	 1.039501280146605e+00	 3.195204822858554e-01	 1.249701852065322e+01
1	 1.033055510048160e+00	 3.397831119836419e-01	 1.180084090938246e+01
1	 1.026181880607295e+00	 3.600097192389838e-01	 1.107804733166078e+01
1	 1.018878700403077e+00	 3.801873799861507e-01	 1.033051927589682e+01
1	 1.011144777415877e+00	 4.003029966690664e-01	 9.560227514722694e+00
1	 1.081635905262479e+00	 2.001593576528611e-01	 1.556900922764050e+01
1	 1.077650490971870e+00	 2.206114668867699e-01	 1.508325169829254e+01
1	 1.073252271813420e+00	 2.411007280496023e-01	 1.456253706170149e+01
1	 1.068436851706730e+00	 2.616155460565918e-01	 1.400808207189442e+01
1	 1.063200236680694e+00	 2.821440354679318e-01	 1.342120991469666e+01
1	 1.057538854014219e+00	 3.026740363534475e-01	 1.280334843887816e+01
1	 1.051449570726956e+00	 3.231931315080629e-01	 1.215602783267918e+01
1	 1.044929711316766e+00	 3.436886649955435e-01	 1.148087773753698e+01
1	 1.037977074640545e+00	 3.641477619894577e-01	 1.077962379484086e+01
1	 1.030589949835735e+00	 3.845573498715942e-01	 1.005408362578932e+01
1	 1.022767131181332e+00	 4.049041805392548e-01	 9.306162248879524e+00
1	 1.093927222370492e+00	 2.024338958074826e-01	 1.515166746193509e+01
1	 1.089896519281624e+00	 2.231184153738912e-01	 1.468194125462617e+01
1	 1.085448320360364e+00	 2.438405090501808e-01	 1.417809443168655e+01
1	 1.080578179570856e+00	 2.645884499892571e-01	 1.364129581094511e+01
1	 1.075282057555951e+00	 2.853502176894963e-01	 1.307281787034734e+01
1	 1.069556340995452e+00	 3.061135140396980e-01	 1.247403509085976e+01
1	 1.063397861306960e+00	 3.268657807301824e-01	 1.184642176134987e+01
1	 1.056803912584899e+00	 3.475942180072564e-01	 1.119154923713367e+01
1	 1.049772268673173e+00	 3.682858047396423e-01	 1.051108264775166e+01
1	 1.042301199267603e+00	 3.889273197566481e-01	 9.806777053642197e+00
1	 1.034389484945809e+00	 4.095053644089534e-01	 9.080473055693718e+00
1	 1.106218539478505e+00	 2.047084339626188e-01	 1.476890016384824e+01
1	 1.102142547591368e+00	 2.256253638614272e-01	 1.431451837513098e+01
1	 1.097644368907272e+00	 2.465802900510737e-01	 1.382684341141205e+01
1	 1.092719507434896e+00	 2.675613539221362e-01	 1.330699717967491e+01
1	 1.087363878431055e+00	 2.885563999111739e-01	 1.275620252109825e+01
1	 1.081573827976446e+00	 3.095529917259612e-01	 1.217578166361740e+01
1	 1.075346151886618e+00	 3.305384299522137e-01	 1.156715415278061e+01
1	 1.068678113852559e+00	 3.514997710187806e-01	 1.093183425246403e+01
1	 1.061567462705179e+00	 3.724238474895377e-01	 1.027142781074475e+01
1	 1.054012448698681e+00	 3.932972896413123e-01	 9.587628590202392e+00
1	 1.046011838709305e+00	 4.141065482781622e-01	 8.882214066092152e+00
1	 9.297883010302649e-01	 3.680947095640363e-01	 1.222259903747979e+01
1	 9.222799379563009e-01	 3.865225944039564e-01	 1.127575968028739e+01
1	 9.143747236862125e-01	 4.048689474701951e-01	 1.030528113112293e+01
1	 9.060730098564396e-01	 4.231213782743761e-01	 9.314601064624515e+00
1	 8.973756499704220e-01	 4.412674277413337e-01	 8.307253951835799e+00
1	 8.882840068073012e-01	 4.592945930433334e-01	 7.286859209336422e+00
1	 8.787999583847406e-01	 4.771903531042267e-01	 6.257108649879866e+00
1	 8.689259024143142e-01	 4.949421946770166e-01	 5.221753297213846e+00
1	 8.586647591951593e-01	 5.125376388923134e-01	 4.184589634778495e+00
1	 8.480199728994641e-01	 5.299642681697645e-01	 3.149445364522485e+00
1	 8.369955112118155e-01	 5.472097533798151e-01	 2.120164758047896e+00
1	 9.414106548025766e-01	 3.726958934376526e-01	 1.173937071126953e+01
1	 9.338084371907733e-01	 3.913541268386016e-01	 1.082846650435739e+01
1	 9.258044077427657e-01	 4.099298093186076e-01	 9.893962431218810e+00
1	 9.173989224904455e-01	 4.284103955081879e-01	 8.939136405144410e+00
1	 9.085928456060454e-01	 4.467832705937361e-01	 7.967361335143720e+00
1	 8.993875569034437e-01	 4.650357754621704e-01	 6.982093878164954e+00
1	 8.897849578755234e-01	 4.831552325238889e-01	 5.986862513548584e+00
1	 8.797874762052527e-01	 5.011289721163065e-01	 4.985254998891147e+00
1	 8.693980686955066e-01	 5.189443593841651e-01	 3.980905273268956e+00
1	 8.586202225706245e-01	 5.365888215273571e-01	 2.977479880095596e+00
1	 8.474579551112504e-01	 5.540498753022077e-01	 1.978663987679639e+00
1	 9.530330085739085e-01	 3.772970773107793e-01	 1.129253014820510e+01
1	 9.453369364240809e-01	 3.961856592726618e-01	 1.041577793957182e+01
1	 9.372340917979960e-01	 4.149906711663489e-01	 9.515470507552816e+00
1	 9.287248351230007e-01	 4.336994127412525e-01	 8.594729314954611e+00
1	 9.198100412401194e-01	 4.522991134453253e-01	 7.656769056125309e+00
1	 9.104911069979682e-01	 4.707769578801373e-01	 6.704887001371547e+00
1	 9.007699573646499e-01	 4.891201119426346e-01	 5.742451683945966e+00
1	 8.906490499945261e-01	 5.073157495546431e-01	 4.772890985342078e+00
1	 8.801313781942111e-01	 5.253510798750376e-01	 3.799679681163679e+00
1	 8.692204722401954e-01	 5.432133748839548e-01	 2.826326515944880e+00
1	 8.579203990091799e-01	 5.608899972236004e-01	 1.856360880913127e+00
1	 9.646553623442610e-01	 3.818982611834161e-01	 1.088076212794714e+01
1	 9.568654356562231e-01	 4.010171917061370e-01	 1.003644321686778e+01
1	 9.486637758519040e-01	 4.200515330134196e-01	 9.168618850153960e+00
1	 9.400507477541058e-01	 4.389884299735700e-01	 8.280257231321631e+00
1	 9.310272368726441e-01	 4.578149562961006e-01	 7.374418066440859e+00
1	 9.215946570908742e-01	 4.765181402972340e-01	 6.454242490251350e+00
1	 9.117549568521194e-01	 4.950849913604636e-01	 5.522942354809613e+00
1	 9.015106237821341e-01	 5.135025269920270e-01	 4.583788933022721e+00
1	 8.908646876912724e-01	 5.317578003649310e-01	 3.640101095712014e+00
1	 8.798207219081765e-01	 5.498379282395579e-01	 2.695233026754833e+00
1	 8.683828429056041e-01	 5.677301191439930e-01	 1.752561546284883e+00
1	 9.762777161136343e-01	 3.864994450555633e-01	 1.050281405969635e+01
1	 9.683939348872000e-01	 4.058487241390272e-01	 9.689271127614060e+00
1	 9.600934599044899e-01	 4.251123948598194e-01	 8.852277449526079e+00
1	 9.513766603837601e-01	 4.442774472051405e-01	 7.994651046880174e+00
1	 9.422444325036197e-01	 4.633307991460626e-01	 7.119299748624003e+00
1	 9.326982071821625e-01	 4.822593227134609e-01	 6.229211688895062e+00
1	 9.227399563379315e-01	 5.010498707773759e-01	 5.327445186842333e+00
1	 9.123721975680773e-01	 5.196893044284582e-01	 4.417118057605581e+00
1	 9.015979971866909e-01	 5.381645208538457e-01	 3.501396409532651e+00
1	 8.904209715745676e-01	 5.564624815941661e-01	 2.583482988415522e+00
1	 8.788452868005231e-01	 5.745702410633855e-01	 1.666605134782524e+00
1	 9.879000698820278e-01	 3.911006289272207e-01	 1.015749229810327e+01
1	 9.799224341170119e-01	 4.106802565713322e-01	 9.373126520056507e+00
1	 9.715231439557533e-01	 4.301732567055483e-01	 8.565369473090726e+00
1	 9.627025730119644e-01	 4.495664644359640e-01	 7.736891965200185e+00
1	 9.534616281330460e-01	 4.688466419952109e-01	 6.890452949560018e+00
1	 9.438017572718324e-01	 4.880005051288175e-01	 6.028890584024563e+00
1	 9.337249558220870e-01	 5.070147501933717e-01	 5.155112692007991e+00
1	 9.232337713523547e-01	 5.258760818639360e-01	 4.272086670496519e+00
1	 9.123313066804664e-01	 5.445712413417811e-01	 3.382828896768277e+00
1	 9.010212212393695e-01	 5.630870349477797e-01	 2.490393690893117e+00
1	 8.893077306939365e-01	 5.814103629817780e-01	 1.597861896170927e+00
1	 9.995224236494423e-01	 3.957018127983884e-01	 9.843658716206852e+00
1	 9.914509333456585e-01	 4.155117890030526e-01	 9.086927040197123e+00
1	 9.829528280056942e-01	 4.352341185506064e-01	 8.306868173505805e+00
1	 9.740284856387178e-01	 4.548554816660403e-01	 7.506008575732078e+00
1	 9.646788237609235e-01	 4.743624848435458e-01	 6.686961220930215e+00
1	 9.549053073598841e-01	 4.937416875433039e-01	 5.852417209491183e+00
1	 9.447099553045856e-01	 5.129796296084510e-01	 5.005136800318883e+00
1	 9.340953451349669e-01	 5.320628592984610e-01	 4.147939905826801e+00
1	 9.230646161725991e-01	 5.509779618287377e-01	 3.283696097880743e+00
1	 9.116214709025816e-01	 5.697115883003986e-01	 2.415314178109100e+00
1	 8.997701745858451e-01	 5.882504848991706e-01	 1.545731370923811e+00
1	 1.011144777415877e+00	 4.003029966690664e-01	 9.560227514722694e+00
1	 1.002979432573140e+00	 4.203433214341877e-01	 8.829640097440278e+00
1	 9.943825120543131e-01	 4.402949803949937e-01	 8.075794010203722e+00
1	 9.853543982640206e-01	 4.601444988953695e-01	 7.301074130480426e+00
1	 9.758960193872512e-01	 4.798783276910670e-01	 6.507950249971080e+00
1	 9.660088574463180e-01	 4.994828699569205e-01	 5.698969229773850e+00
1	 9.556949547854272e-01	 5.189445090226136e-01	 4.876746594430423e+00
1	 9.449569189159139e-01	 5.382496367320331e-01	 4.043957604204699e+00
1	 9.337979256630885e-01	 5.573846823147149e-01	 3.203327850322347e+00
1	 9.222217205642039e-01	 5.763361416520226e-01	 2.357623423000228e+00
1	 9.102326184762480e-01	 5.950906068155633e-01	 1.509640706849731e+00
1	 1.022767131181332e+00	 4.049041805392548e-01	 9.306162248879524e+00
1	 1.014507931799456e+00	 4.251748538647378e-01	 8.600280037126664e+00
1	 1.005812196101609e+00	 4.453558422387101e-01	 7.871211967188256e+00
1	 9.966803108878730e-01	 4.654335161239517e-01	 7.121204006358818e+00
1	 9.871132150120300e-01	 4.853941705377748e-01	 6.352585465408354e+00
1	 9.771124075311334e-01	 5.052240523696667e-01	 5.567761688238962e+00
1	 9.666799542646118e-01	 5.249093884358594e-01	 4.769206198695819e+00
1	 9.558184926951958e-01	 5.444364141646523e-01	 3.959452340756349e+00
1	 9.445312351519353e-01	 5.637914027997134e-01	 3.141084453479524e+00
1	 9.328219702242366e-01	 5.829606950026520e-01	 2.316728627006287e+00
1	 9.206950623651458e-01	 6.019307287309560e-01	 1.489043090493289e+00
1	 1.034389484945809e+00	 4.095053644089534e-01	 9.080473055693718e+00
1	 1.026036431024607e+00	 4.300063862947030e-01	 8.397905503682956e+00
1	 1.017241880147583e+00	 4.504167040817556e-01	 7.692229051654234e+00
1	 1.008006223510275e+00	 4.707225333517867e-01	 6.965553338621967e+00
1	 9.983304106352595e-01	 4.909100133836690e-01	 6.220069804789244e+00
1	 9.882159576143311e-01	 5.109652347815431e-01	 5.458044907202862e+00
1	 9.776649537421397e-01	 5.308742678481889e-01	 4.681812810531107e+00
1	 9.666800664728121e-01	 5.506231915963183e-01	 3.893767586107979e+00
1	 9.552645446391390e-01	 5.701981232837328e-01	 3.096354957328248e+00
1	 9.434222198826796e-01	 5.895852483522865e-01	 2.292063634199203e+00
1	 9.311575062525380e-01	 6.087708506453484e-01	 1.483416284285084e+00
1	 1.046011838709305e+00	 4.141065482781622e-01	 8.882214066092152e+00
1	 1.037564930248593e+00	 4.348379187240830e-01	 8.221616979561416e+00
1	 1.028671564192235e+00	 4.554775659241303e-01	 7.537991959365614e+00
1	 1.019332136131226e+00	 4.760115505788748e-01	 6.833314812068853e+00
1	 1.009547606256940e+00	 4.964258562287497e-01	 6.109641630659032e+00
1	 9.993195076959104e-01	 5.167064171925492e-01	 5.369102527990143e+00
1	 9.886499532180107e-01	 5.368391472596017e-01	 4.613894863022859e+00
1	 9.775416402487633e-01	 5.568099690270316e-01	 3.846275989969304e+00
1	 9.659978541247000e-01	 5.766048437667730e-01	 3.068555565179063e+00
1	 9.540224695395332e-01	 5.962098017009265e-01	 2.283087451136753e+00
1	 9.416199501384250e-01	 6.156109725587411e-01	 1.492261261214380e+00
1	 8.369955112118155e-01	 5.472097533798151e-01	 2.120164758047896e+00
1	 8.255958632931958e-01	 5.642618811384013e-01	 1.093586349189707e+00
1	 8.138260360506314e-01	 5.811085811170719e-01	 6.680631973483164e-02
1	 8.016915487021741e-01	 5.977379532449607e-01	-9.561587460540490e-01
1	 7.891984256370140e-01	 6.141382946773878e-01	-1.971284392363124e+00
1	 7.763531875817183e-01	 6.302981264093361e-01	-2.974554129586827e+00
1	 7.631628410930560e-01	 6.462062194093811e-01	-3.961975383814675e+00
1	 7.496348664083717e-01	 6.618516201518141e-01	-4.929595454474185e+00
1	 7.357772036946522e-01	 6.772236754270479e-01	-5.873517375334037e+00
1	 7.215982377473873e-01	 6.923120563137026e-01	-6.789915573894362e+00
1	 7.071067811999999e-01	 7.071067811999999e-01	-7.675051225081463e+00
1	 8.474579551112504e-01	 5.540498753022077e-01	 1.978663987679639e+00
1	 8.359158115929692e-01	 5.713151546574315e-01	 9.835254971493081e-01
1	 8.239988615092374e-01	 5.883724383855524e-01	-1.268133649101699e-02
1	 8.117126930683318e-01	 6.052096776648181e-01	-1.006124779927394e+00
1	 7.990634059643095e-01	 6.218150233649912e-01	-1.992963085151584e+00
1	 7.860576024328196e-01	 6.381768529934919e-01	-2.969359562782113e+00
1	 7.727023766125910e-01	 6.542837971560034e-01	-3.931497774140286e+00
1	 7.590053022439359e-01	 6.701247654077456e-01	-4.875596743618118e+00
1	 7.449744187459286e-01	 6.856889713740123e-01	-5.797926091605334e+00
1	 7.306182157240029e-01	 7.009659570219055e-01	-6.694820987979525e+00
1	 7.159456159695000e-01	 7.159456159695000e-01	-7.562696826902240e+00
1	 8.579203990091799e-01	 5.608899972236004e-01	 1.856360880913127e+00
1	 8.462357598913327e-01	 5.783684281754621e-01	 8.907083341328017e-01
1	 8.341716869665182e-01	 5.956362956530330e-01	-7.685845941474501e-02
1	 8.217338374332409e-01	 6.126814020836755e-01	-1.042688811744101e+00
1	 8.089283862904220e-01	 6.294917520515947e-01	-2.003119909758825e+00
1	 7.957620172827934e-01	 6.460555795766478e-01	-2.954491137892310e+00
1	 7.822419121310444e-01	 6.623613749016258e-01	-3.893158526448291e+00
1	 7.683757380784541e-01	 6.783979106626776e-01	-4.815509232200142e+00
1	 7.541716337961848e-01	 6.941542673199765e-01	-5.717975956494286e+00
1	 7.396381936996136e-01	 7.096198577291084e-01	-6.597051205748945e+00
1	 7.247844507379998e-01	 7.247844507379999e-01	-7.449301299839261e+00
1	 8.683828429056041e-01	 5.677301191439930e-01	 1.752561546284883e+00
1	 8.565557081882860e-01	 5.854217016924925e-01	 8.145115942651115e-01
1	 8.443445124224748e-01	 6.029001529195133e-01	-1.262784418122758e-01
1	 8.317549817969009e-01	 6.201531265015331e-01	-1.066335251221947e+00
1	 8.187933666153511e-01	 6.371684807371980e-01	-2.002171319255615e+00
1	 8.054664321316400e-01	 6.539343061588038e-01	-2.930298512441222e+00
1	 7.917814476484165e-01	 6.704389526462485e-01	-3.847241796331081e+00
1	 7.777461739119264e-01	 6.866710559166093e-01	-4.749552997349548e+00
1	 7.633688488454204e-01	 7.026195632649410e-01	-5.633824518845361e+00
1	 7.486581716742190e-01	 7.182737584353109e-01	-6.496702921044002e+00
1	 7.336232855055000e-01	 7.336232855055000e-01	-7.334902275054746e+00
1	 8.788452868005231e-01	 5.745702410633855e-01	 1.666605134782524e+00
1	 8.668756564838288e-01	 5.924749752085229e-01	 7.543416909985823e-01
1	 8.545173378771065e-01	 6.101640101849937e-01	-1.614683244221999e-01
1	 8.417761261593122e-01	 6.276248509183908e-01	-1.077525440949091e+00
1	 8.286583469390975e-01	 6.448452094218015e-01	-1.990513935613454e+00
1	 8.151708469793590e-01	 6.618130327399596e-01	-2.897114693594361e+00
1	 8.013209831647067e-01	 6.785165303898708e-01	-3.794018208162776e+00
1	 7.871166097443530e-01	 6.949442011695413e-01	-4.677937636332369e+00
1	 7.725660638936355e-01	 7.110848592089053e-01	-5.545621825177594e+00
1	 7.576781496478195e-01	 7.269276591405139e-01	-6.393868223237389e+00
1	 7.424621202719999e-01	 7.424621202720001e-01	-7.219535591750757e+00
1	 8.893077306939365e-01	 5.814103629817780e-01	 1.597861896170927e+00
1	 8.771956047779617e-01	 5.995282487235530e-01	 7.096329712703904e-01
1	 8.646901633304135e-01	 6.174278674494742e-01	-1.829303460660210e-01
1	 8.517972705204740e-01	 6.350965753342479e-01	-1.076699013273912e+00
1	 8.385233272616601e-01	 6.525219381054047e-01	-1.968525716240901e+00
1	 8.248752618259512e-01	 6.696917593201157e-01	-2.855257017591779e+00
1	 8.108605186799150e-01	 6.865941081324930e-01	-3.733745651052396e+00
1	 7.964870455757337e-01	 7.032173464214730e-01	-4.600862883013873e+00
1	 7.817632789408300e-01	 7.195501551518694e-01	-5.453510860996918e+00
1	 7.666981276204146e-01	 7.355815598447166e-01	-6.288634868084350e+00
1	 7.513009550375001e-01	 7.513009550375001e-01	-7.103235402578798e+00
1	 8.997701745858451e-01	 5.882504848991706e-01	 1.545731370923811e+00
1	 8.875155530706845e-01	 6.065815222375835e-01	 6.798460914627902e-01
1	 8.748629887823961e-01	 6.246917247129546e-01	-1.911433856196689e-01
1	 8.618184148803874e-01	 6.425682997491056e-01	-1.064275152528896e+00
1	 8.483883075830400e-01	 6.601986667880082e-01	-1.936567039131794e+00
1	 8.345796766714155e-01	 6.775704858992714e-01	-2.805028060848230e+00
1	 8.204000541940423e-01	 6.946716858741154e-01	-3.666670019266778e+00
1	 8.058574814060682e-01	 7.114904916724046e-01	-4.518519181311939e+00
1	 7.909604939870044e-01	 7.280154510938338e-01	-5.357627961320924e+00
1	 7.757181055920049e-01	 7.442354605479196e-01	-6.181086529677115e+00
1	 7.601397898020000e-01	 7.601397898019999e-01	-6.986034271694857e+00
1	 9.102326184762480e-01	 5.950906068155633e-01	 1.509640706849731e+00
1	 8.978355013619972e-01	 6.136347957506137e-01	 6.644665053658854e-01
1	 8.850358142330540e-01	 6.319555819754350e-01	-1.865643045395382e-01
1	 8.718395592390517e-01	 6.500400241629630e-01	-1.040653770203021e+00
1	 8.582532879032364e-01	 6.678753954696115e-01	-1.894981713176712e+00
1	 8.442840915157530e-01	 6.854492124774274e-01	-2.746716488218877e+00
1	 8.299395897070877e-01	 7.027492636147378e-01	-3.593025901589202e+00
1	 8.152279172353567e-01	 7.197636369223365e-01	-4.431088219102332e+00
1	 8.001577090321583e-01	 7.364807470347983e-01	-5.258103192890302e+00
1	 7.847380835625897e-01	 7.528893612501224e-01	-6.071303035022977e+00
1	 7.689786245654999e-01	 7.689786245654999e-01	-6.867963266052373e+00
1	 9.206950623651458e-01	 6.019307287309560e-01	 1.489043090493289e+00
1	 9.081554496518998e-01	 6.206880692626442e-01	 6.630030552339581e-01
1	 8.952086396823874e-01	 6.392194392369155e-01	-1.696291978518234e-01
1	 8.818607035964670e-01	 6.575117485758205e-01	-1.006216599990506e+00
1	 8.681182682222500e-01	 6.755521241502151e-01	-1.844097919589307e+00
1	 8.539885063589624e-01	 6.933279390545832e-01	-2.680597843429448e+00
1	 8.394791252190520e-01	 7.108268413543603e-01	-3.513037223676339e+00
1	 8.245983530635995e-01	 7.280367821712683e-01	-4.338743425720871e+00
1	 8.093549240762918e-01	 7.449460429747625e-01	-5.155060710321283e+00
1	 7.937580615321697e-01	 7.615432619513252e-01	-5.959360582629173e+00
1	 7.778174593279999e-01	 7.778174593279999e-01	-6.749052040470509e+00
1	 9.311575062525380e-01	 6.087708506453484e-01	 1.483416284285084e+00
1	 9.184753979403921e-01	 6.277413427736747e-01	 6.749866578270851e-01
1	 9.053814651303959e-01	 6.464832964973959e-01	-1.407545608062959e-01
1	 8.918818479526330e-01	 6.649834729876779e-01	-9.613282190147638e-01
1	 8.779832485400803e-01	 6.832288528298185e-01	-1.784229089865771e+00
1	 8.636929212010450e-01	 7.012066656307392e-01	-2.606935286217639e+00
1	 8.490186607299344e-01	 7.189044190929826e-01	-3.426917847110329e+00
1	 8.339687888907961e-01	 7.363099274192001e-01	-4.241650435926643e+00
1	 8.185521391194046e-01	 7.534113389137267e-01	-5.048619088247211e+00
1	 8.027780395007446e-01	 7.701971626515282e-01	-5.845331946350752e+00
1	 7.866562940895000e-01	 7.866562940895000e-01	-6.629328916967654e+00
1	 9.416199501384250e-01	 6.156109725587411e-01	 1.492261261214380e+00
1	 9.287953462274744e-01	 6.347946162837050e-01	 6.999690780492998e-01
1	 9.155542905770797e-01	 6.537471537568762e-01	-1.003383777524687e-01
1	 9.019029923075504e-01	 6.724551973985354e-01	-9.063370009715446e-01
1	 8.878482288567273e-01	 6.909055815084219e-01	-1.715674725213346e+00
1	 8.733973360420002e-01	 7.090853922058951e-01	-2.525980280332835e+00
1	 8.585581962397351e-01	 7.269819968306050e-01	-3.334872128514083e+00
1	 8.433392247169470e-01	 7.445830726661317e-01	-4.139967522933624e+00
1	 8.277493541614975e-01	 7.618766348516912e-01	-4.938891631317790e+00
1	 8.117980174683143e-01	 7.788510633507310e-01	-5.729286665649284e+00
1	 7.954951288500001e-01	 7.954951288500001e-01	-6.508820958805734e+00
1	 7.071067811999999e-01	 7.071067811999999e-01	-7.675051225081463e+00
1	 6.923120563137025e-01	 7.215982377473872e-01	-8.520926241898991e+00
1	 6.772236754270478e-01	 7.357772036946522e-01	-9.349013709056194e+00
1	 6.618516201518141e-01	 7.496348664083716e-01	-1.015597779062405e+01
1	 6.462062194093813e-01	 7.631628410930559e-01	-1.093854870003244e+01
1	 6.302981264093362e-01	 7.763531875817182e-01	-1.169353538065072e+01
1	 6.141382946773881e-01	 7.891984256370137e-01	-1.241783773784773e+01
1	 5.977379532449610e-01	 8.016915487021739e-01	-1.310845834530061e+01
1	 5.811085811170723e-01	 8.138260360506312e-01	-1.376251355317484e+01
1	 5.642618811384018e-01	 8.255958632931955e-01	-1.437724393133864e+01
1	 5.472097533798151e-01	 8.369955112118155e-01	-1.495002398691492e+01
1	 7.159456159695000e-01	 7.159456159695000e-01	-7.562696826902240e+00
1	 7.009659570219053e-01	 7.306182157240030e-01	-8.394988317020966e+00
1	 6.856889713740122e-01	 7.449744187459286e-01	-9.211165034187619e+00
1	 6.701247654077458e-01	 7.590053022439357e-01	-1.000806035774839e+01
1	 6.542837971560036e-01	 7.727023766125908e-01	-1.078256734272434e+01
1	 6.381768529934920e-01	 7.860576024328195e-01	-1.153165073858455e+01
1	 6.218150233649915e-01	 7.990634059643091e-01	-1.225235859880604e+01
1	 6.052096776648186e-01	 8.117126930683318e-01	-1.294183340791254e+01
1	 5.883724383855530e-01	 8.239988615092370e-01	-1.359732265714988e+01
1	 5.713151546574324e-01	 8.359158115929688e-01	-1.421618880508127e+01
1	 5.540498753022077e-01	 8.474579551112504e-01	-1.479591856507676e+01
1	 7.247844507379998e-01	 7.247844507379999e-01	-7.449301299839261e+00
1	 7.096198577291083e-01	 7.396381936996136e-01	-8.269915387709130e+00
1	 6.941542673199766e-01	 7.541716337961849e-01	-9.076052828489910e+00
1	 6.783979106626776e-01	 7.683757380784542e-01	-9.864712642410488e+00
1	 6.623613749016261e-01	 7.822419121310443e-01	-1.063294725700117e+01
1	 6.460555795766482e-01	 7.957620172827933e-01	-1.137787387609315e+01
1	 6.294917520515949e-01	 8.089283862904216e-01	-1.209668547829412e+01
1	 6.126814020836757e-01	 8.217338374332406e-01	-1.278666137548697e+01
1	 5.956362956530332e-01	 8.341716869665180e-01	-1.344517726598631e+01
1	 5.783684281754625e-01	 8.462357598913323e-01	-1.406971472169518e+01
1	 5.608899972236003e-01	 8.579203990091798e-01	-1.465787005386387e+01
1	 7.336232855055000e-01	 7.336232855055000e-01	-7.334902275054746e+00
1	 7.182737584353108e-01	 7.486581716742190e-01	-8.145676189060586e+00
1	 7.026195632649409e-01	 7.633688488454202e-01	-8.943578183435470e+00
1	 6.866710559166094e-01	 7.777461739119265e-01	-9.725769474092928e+00
1	 6.704389526462485e-01	 7.917814476484162e-01	-1.048945851737940e+01
1	 6.539343061588040e-01	 8.054664321316398e-01	-1.123191174089777e+01
1	 6.371684807371982e-01	 8.187933666153508e-01	-1.195046394190161e+01
1	 6.201531265015334e-01	 8.317549817969007e-01	-1.264252828759770e+01
1	 6.029001529195136e-01	 8.443445124224743e-01	-1.330560585540575e+01
1	 5.854217016924929e-01	 8.565557081882855e-01	-1.393729465552786e+01
1	 5.677301191439930e-01	 8.683828429056042e-01	-1.453529808300621e+01
1	 7.424621202719999e-01	 7.424621202720001e-01	-7.219535591750757e+00
1	 7.269276591405137e-01	 7.576781496478194e-01	-8.022240944977492e+00
1	 7.110848592089053e-01	 7.725660638936355e-01	-8.813646900426676e+00
1	 6.949442011695413e-01	 7.871166097443529e-01	-9.591073547541095e+00
1	 6.785165303898705e-01	 8.013209831647063e-01	-1.035188214720807e+01
1	 6.618130327399598e-01	 8.151708469793592e-01	-1.109348523558989e+01
1	 6.448452094218017e-01	 8.286583469390970e-01	-1.181335643304740e+01
1	 6.276248509183910e-01	 8.417761261593117e-01	-1.250903989621971e+01
1	 6.101640101849942e-01	 8.545173378771063e-01	-1.317815935466711e+01
1	 5.924749752085233e-01	 8.668756564838282e-01	-1.381842667738683e+01
1	 5.745702410633855e-01	 8.788452868005230e-01	-1.442764991891334e+01
1	 7.513009550375001e-01	 7.513009550375001e-01	-7.103235402578798e+00
1	 7.355815598447167e-01	 7.666981276204147e-01	-7.899581280590091e+00
1	 7.195501551518695e-01	 7.817632789408299e-01	-8.686169213740868e+00
1	 7.032173464214733e-01	 7.964870455757336e-01	-9.460474960100614e+00
1	 6.865941081324931e-01	 8.108605186799150e-01	-1.022000947461987e+01
1	 6.696917593201157e-01	 8.248752618259508e-01	-1.096232839675690e+01
1	 6.525219381054053e-01	 8.385233272616602e-01	-1.168504128016613e+01
1	 6.350965753342483e-01	 8.517972705204742e-01	-1.238582050617651e+01
1	 6.174278674494746e-01	 8.646901633304133e-01	-1.306240982577011e+01
1	 5.995282487235538e-01	 8.771956047779614e-01	-1.371263247827697e+01
1	 5.814103629817781e-01	 8.893077306939365e-01	-1.433439883898784e+01
1	 7.601397898020000e-01	 7.601397898019999e-01	-6.986034271694857e+00
1	 7.442354605479196e-01	 7.757181055920047e-01	-7.777670140790020e+00
1	 7.280154510938339e-01	 7.909604939870044e-01	-8.561059532805393e+00
1	 7.114904916724047e-01	 8.058574814060682e-01	-9.333830781333550e+00
1	 6.946716858741158e-01	 8.204000541940424e-01	-1.009364153341582e+01
1	 6.775704858992717e-01	 8.345796766714155e-01	-1.083818763137765e+01
1	 6.601986667880085e-01	 8.483883075830395e-01	-1.156521177316057e+01
1	 6.425682997491058e-01	 8.618184148803871e-01	-1.227251189648588e+01
1	 6.246917247129552e-01	 8.748629887823960e-01	-1.295794923480777e+01
1	 6.065815222375840e-01	 8.875155530706840e-01	-1.361945599613342e+01
1	 5.882504848991708e-01	 8.997701745858451e-01	-1.425504261935757e+01
1	 7.689786245654999e-01	 7.689786245654999e-01	-6.867963266052373e+00
1	 7.528893612501225e-01	 7.847380835625901e-01	-7.656481714381943e+00
1	 7.364807470347983e-01	 8.001577090321584e-01	-8.438236202246351e+00
1	 7.197636369223366e-01	 8.152279172353567e-01	-9.211004652316372e+00
1	 7.027492636147382e-01	 8.299395897070879e-01	-9.972588505268059e+00
1	 6.854492124774276e-01	 8.442840915157526e-01	-1.072082100588010e+01
1	 6.678753954696118e-01	 8.582532879032362e-01	-1.145357530354745e+01
1	 6.500400241629634e-01	 8.718395592390513e-01	-1.216877231609597e+01
1	 6.319555819754356e-01	 8.850358142330536e-01	-1.286438830805275e+01
1	 6.136347957506144e-01	 8.978355013619969e-01	-1.353846213726220e+01
1	 5.950906068155634e-01	 9.102326184762480e-01	-1.418910212690350e+01
1	 7.778174593279999e-01	 7.778174593279999e-01	-6.749052040470509e+00
1	 7.615432619513252e-01	 7.937580615321698e-01	-7.535991363406607e+00
1	 7.449460429747624e-01	 8.093549240762917e-01	-8.317621278297800e+00
1	 7.280367821712684e-01	 8.245983530635994e-01	-9.091866412258662e+00
1	 7.108268413543607e-01	 8.394791252190520e-01	-9.856669199954807e+00
1	 6.933279390545833e-01	 8.539885063589621e-01	-1.060999758367285e+01
1	 6.755521241502154e-01	 8.681182682222498e-01	-1.134985256322880e+01
1	 6.575117485758207e-01	 8.818607035964664e-01	-1.207427554809368e+01
1	 6.392194392369160e-01	 8.952086396823867e-01	-1.278135546603824e+01
1	 6.206880692626449e-01	 9.081554496518994e-01	-1.346923558495547e+01
1	 6.019307287309560e-01	 9.206950623651458e-01	-1.413612000728495e+01
1	 7.866562940895000e-01	 7.866562940895000e-01	-6.629328916967654e+00
1	 7.701971626515279e-01	 8.027780395007448e-01	-7.416175557228947e+00
1	 7.534113389137267e-01	 8.185521391194046e-01	-8.199140320284299e+00
1	 7.363099274192003e-01	 8.339687888907965e-01	-8.976291750292958e+00
1	 7.189044190929827e-01	 8.490186607299340e-01	-9.745710570634861e+00
1	 7.012066656307393e-01	 8.636929212010448e-01	-1.050549680733732e+01
1	 6.832288528298186e-01	 8.779832485400799e-01	-1.125377679728007e+01
1	 6.649834729876783e-01	 8.918818479526329e-01	-1.198871003700054e+01
1	 6.464832964973964e-01	 9.053814651303955e-01	-1.270849582949828e+01
1	 6.277413427736752e-01	 9.184753979403918e-01	-1.341137968842522e+01
1	 6.087708506453484e-01	 9.311575062525379e-01	-1.409565946141256e+01
1	 7.954951288500001e-01	 7.954951288500001e-01	-6.508820958805734e+00
1	 7.788510633507308e-01	 8.117980174683144e-01	-7.297011811019726e+00
1	 7.618766348516911e-01	 8.277493541614976e-01	-8.082722196005008e+00
1	 7.445830726661320e-01	 8.433392247169471e-01	-8.864161880479369e+00
1	 7.269819968306053e-01	 8.585581962397351e-01	-9.639547261437851e+00
1	 7.090853922058953e-01	 8.733973360420000e-01	-1.040710792200685e+01
1	 6.909055815084221e-01	 8.878482288567272e-01	-1.116509310655109e+01
1	 6.724551973985359e-01	 9.019029923075501e-01	-1.191177807424801e+01
1	 6.537471537568769e-01	 9.155542905770793e-01	-1.264547029157893e+01
1	 6.347946162837055e-01	 9.287953462274742e-01	-1.336451542580734e+01
1	 6.156109725587411e-01	 9.416199501384250e-01	-1.406730310349015e+01
1	 5.472097533798151e-01	 8.369955112118155e-01	-1.495002398691492e+01
1	 5.299642681697644e-01	 8.480199728994640e-01	-1.544290550183047e+01
1	 5.125376388923134e-01	 8.586647591951594e-01	-1.591982407060874e+01
1	 4.949421946770166e-01	 8.689259024143141e-01	-1.637930055806548e+01
1	 4.771903531042269e-01	 8.787999583847403e-01	-1.681989754687472e+01
1	 4.592945930433337e-01	 8.882840068073012e-01	-1.724022442212232e+01
1	 4.412674277413340e-01	 8.973756499704219e-01	-1.763894216082775e+01
1	 4.231213782743766e-01	 9.060730098564395e-01	-1.801476780151437e+01
1	 4.048689474701956e-01	 9.143747236862123e-01	-1.836647857200260e+01
1	 3.865225944039570e-01	 9.222799379563006e-01	-1.869291565683125e+01
1	 3.680947095640363e-01	 9.297883010302649e-01	-1.899298758901853e+01
1	 5.540498753022077e-01	 8.474579551112504e-01	-1.479591856507676e+01
1	 5.365888215273570e-01	 8.586202225706244e-01	-1.530671563550794e+01
1	 5.189443593841651e-01	 8.693980686955066e-01	-1.580131809421087e+01
1	 5.011289721163066e-01	 8.797874762052528e-01	-1.627824448336895e+01
1	 4.831552325238891e-01	 8.897849578755235e-01	-1.673605698374238e+01
1	 4.650357754621707e-01	 8.993875569034435e-01	-1.717336643574574e+01
1	 4.467832705937365e-01	 9.085928456060449e-01	-1.758883705648267e+01
1	 4.284103955081883e-01	 9.173989224904452e-01	-1.798119082858701e+01
1	 4.099298093186080e-01	 9.258044077427652e-01	-1.834921153985228e+01
1	 3.913541268386022e-01	 9.338084371907733e-01	-1.869174845590502e+01
1	 3.726958934376526e-01	 9.414106548025766e-01	-1.900771961151107e+01
1	 5.608899972236003e-01	 8.579203990091798e-01	-1.465787005386387e+01
1	 5.432133748839548e-01	 8.692204722401957e-01	-1.518679352832151e+01
1	 5.253510798750377e-01	 8.801313781942111e-01	-1.569930692695138e+01
1	 5.073157495546432e-01	 8.906490499945261e-01	-1.619392592520043e+01
1	 4.891201119426348e-01	 9.007699573646497e-01	-1.666921172487399e+01
1	 4.707769578801375e-01	 9.104911069979682e-01	-1.712377601424821e+01
1	 4.522991134453255e-01	 9.198100412401192e-01	-1.755628561522652e+01
1	 4.336994127412528e-01	 9.287248351230004e-01	-1.796546679413334e+01
1	 4.149906711663495e-01	 9.372340917979960e-01	-1.835010921592600e+01
1	 3.961856592726625e-01	 9.453369364240807e-01	-1.870906952490571e+01
1	 3.772970773107793e-01	 9.530330085739084e-01	-1.904127453837532e+01
1	 5.677301191439930e-01	 8.683828429056042e-01	-1.453529808300621e+01
1	 5.498379282395577e-01	 8.798207219081762e-01	-1.508255118897288e+01
1	 5.317578003649310e-01	 8.908646876912723e-01	-1.561319437090792e+01
1	 5.135025269920271e-01	 9.015106237821341e-01	-1.612573991308317e+01
1	 4.950849913604638e-01	 9.117549568521192e-01	-1.661874748216527e+01
1	 4.765181402972344e-01	 9.215946570908742e-01	-1.709082902878217e+01
1	 4.578149562961010e-01	 9.310272368726438e-01	-1.754065336731352e+01
1	 4.389884299735704e-01	 9.400507477541058e-01	-1.796695041122606e+01
1	 4.200515330134201e-01	 9.486637758519038e-01	-1.836851504451146e+01
1	 4.010171917061375e-01	 9.568654356562227e-01	-1.874421061311980e+01
1	 3.818982611834161e-01	 9.646553623442610e-01	-1.909297202367697e+01
1	 5.745702410633855e-01	 8.788452868005230e-01	-1.442764991891334e+01
1	 5.564624815941662e-01	 8.904209715745679e-01	-1.499342862574994e+01
1	 5.381645208538457e-01	 9.015979971866910e-01	-1.554241261853533e+01
1	 5.196893044284583e-01	 9.123721975680770e-01	-1.607311028465847e+01
1	 5.010498707773762e-01	 9.227399563379314e-01	-1.658407921932696e+01
1	 4.822593227134611e-01	 9.326982071821623e-01	-1.707393107092142e+01
1	 4.633307991460628e-01	 9.422444325036196e-01	-1.754133605584335e+01
1	 4.442774472051409e-01	 9.513766603837600e-01	-1.798502712088712e+01
1	 4.251123948598199e-01	 9.600934599044898e-01	-1.840380373445369e+01
1	 4.058487241390278e-01	 9.683939348871998e-01	-1.879653529129663e+01
1	 3.864994450555633e-01	 9.762777161136343e-01	-1.916216411890776e+01
1	 5.814103629817781e-01	 8.893077306939365e-01	-1.433439883898784e+01
1	 5.630870349477796e-01	 9.010212212393696e-01	-1.491889219949170e+01
1	 5.445712413417813e-01	 9.123313066804662e-01	-1.548642058264355e+01
1	 5.258760818639362e-01	 9.232337713523550e-01	-1.603548799109063e+01
1	 5.070147501933719e-01	 9.337249558220868e-01	-1.656464943118921e+01
1	 4.880005051288177e-01	 9.438017572718324e-01	-1.707251570440120e+01
1	 4.688466419952113e-01	 9.534616281330459e-01	-1.755775785953472e+01
1	 4.495664644359644e-01	 9.627025730119640e-01	-1.801911128456103e+01
1	 4.301732567055489e-01	 9.715231439557529e-01	-1.845537942006449e+01
1	 4.106802565713329e-01	 9.799224341170115e-01	-1.886543707979713e+01
1	 3.911006289272207e-01	 9.879000698820278e-01	-1.924823336725359e+01
1	 5.882504848991708e-01	 8.997701745858451e-01	-1.425504261935757e+01
1	 5.697115883003985e-01	 9.116214709025819e-01	-1.485843309146341e+01
1	 5.509779618287376e-01	 9.230646161725989e-01	-1.544470234288905e+01
1	 5.320628592984612e-01	 9.340953451349671e-01	-1.601234952069901e+01
1	 5.129796296084511e-01	 9.447099553045852e-01	-1.655992654305545e+01
1	 4.937416875433043e-01	 9.549053073598841e-01	-1.708604283882931e+01
1	 4.743624848435461e-01	 9.646788237609232e-01	-1.758936973949127e+01
1	 4.548554816660406e-01	 9.740284856387172e-01	-1.806864450269490e+01
1	 4.352341185506070e-01	 9.829528280056942e-01	-1.852267395033836e+01
1	 4.155117890030531e-01	 9.914509333456581e-01	-1.895033770733807e+01
1	 3.957018127983884e-01	 9.995224236494423e-01	-1.935059103082229e+01
1	 5.950906068155634e-01	 9.102326184762480e-01	-1.418910212690350e+01
1	 5.763361416520227e-01	 9.222217205642042e-01	-1.481156587689528e+01
1	 5.573846823147151e-01	 9.337979256630887e-01	-1.541676569940398e+01
1	 5.382496367320332e-01	 9.449569189159140e-01	-1.600319543130579e+01
1	 5.189445090226138e-01	 9.556949547854271e-01	-1.656940342044485e+01
1	 4.994828699569208e-01	 9.660088574463179e-01	-1.711399721555606e+01
1	 4.798783276910674e-01	 9.758960193872510e-01	-1.763564789998447e+01
1	 4.601444988953700e-01	 9.853543982640203e-01	-1.813309404927855e+01
1	 4.402949803949942e-01	 9.943825120543127e-01	-1.860514529615566e+01
1	 4.203433214341882e-01	 1.002979432573140e+00	-1.905068548982156e+01
1	 4.003029966690664e-01	 1.011144777415877e+00	-1.946867544013054e+01
1	 6.019307287309560e-01	 9.206950623651458e-01	-1.413612000728495e+01
1	 5.829606950026519e-01	 9.328219702242370e-01	-1.477782719577994e+01
1	 5.637914027997134e-01	 9.445312351519353e-01	-1.540214082504162e+01
1	 5.444364141646524e-01	 9.558184926951957e-01	-1.600754898265052e+01
1	 5.249093884358597e-01	 9.666799542646118e-01	-1.659259598044428e+01
1	 5.052240523696671e-01	 9.771124075311334e-01	-1.715588699677948e+01
1	 4.853941705377752e-01	 9.871132150120299e-01	-1.769609235418274e+01
1	 4.654335161239521e-01	 9.966803108878728e-01	-1.821195141312064e+01
1	 4.453558422387106e-01	 1.005812196101609e+00	-1.870227606608363e+01
1	 4.251748538647384e-01	 1.014507931799456e+00	-1.916595381969968e+01
1	 4.049041805392548e-01	 1.022767131181332e+00	-1.960195045612631e+01
1	 6.087708506453484e-01	 9.311575062525379e-01	-1.409565946141256e+01
1	 5.895852483522863e-01	 9.434222198826796e-01	-1.475677451327922e+01
1	 5.701981232837326e-01	 9.552645446391391e-01	-1.540037900848234e+01
1	 5.506231915963185e-01	 9.666800664728121e-01	-1.602495486100107e+01
1	 5.308742678481890e-01	 9.776649537421396e-01	-1.662904189667593e+01
1	 5.109652347815433e-01	 9.882159576143307e-01	-1.721124244976745e+01
1	 4.909100133836695e-01	 9.983304106352595e-01	-1.777022558657279e+01
1	 4.707225333517872e-01	 1.008006223510275e+00	-1.830473093746554e+01
1	 4.504167040817562e-01	 1.017241880147583e+00	-1.881357212223762e+01
1	 4.300063862947036e-01	 1.026036431024607e+00	-1.929563975717941e+01
1	 4.095053644089534e-01	 1.034389484945808e+00	-1.974990403589467e+01
1	 6.156109725587411e-01	 9.416199501384250e-01	-1.406730310349015e+01
1	 5.962098017009264e-01	 9.540224695395332e-01	-1.474798496276978e+01
1	 5.766048437667730e-01	 9.659978541247000e-01	-1.541105148113191e+01
1	 5.568099690270316e-01	 9.775416402487633e-01	-1.605497798879177e+01
1	 5.368391472596018e-01	 9.886499532180105e-01	-1.667829939060126e+01
1	 5.167064171925495e-01	 9.993195076959103e-01	-1.727961471879829e+01
1	 4.964258562287501e-01	 1.009547606256940e+00	-1.785759130455305e+01
1	 4.760115505788752e-01	 1.019332136131226e+00	-1.841096855030205e+01
1	 4.554775659241308e-01	 1.028671564192235e+00	-1.893856128841637e+01
1	 4.348379187240837e-01	 1.037564930248593e+00	-1.943926271534780e+01
1	 4.141065482781622e-01	 1.046011838709305e+00	-1.991204689398382e+01
1	 3.680947095640363e-01	 9.297883010302649e-01	-1.899298758901853e+01
1	 3.495975907771368e-01	 9.368999543523497e-01	-1.922610775142361e+01
1	 3.310434199775671e-01	 9.436155223571460e-01	-1.944685236997914e+01
1	 3.124442408950447e-01	 9.499361011546517e-01	-1.965480204606038e+01
1	 2.938119377279355e-01	 9.558632460744549e-01	-1.984954985244552e+01
1	 2.751582148638955e-01	 9.613989581557346e-01	-2.003070301600895e+01
1	 2.564945776994927e-01	 9.665456696731550e-01	-2.019788450776799e+01
1	 2.378323146029685e-01	 9.713062287906586e-01	-2.035073453206715e+01
1	 2.191824800562900e-01	 9.756838834365028e-01	-2.048891190777882e+01
1	 2.005558790047262e-01	 9.796822644935033e-01	-2.061209533551153e+01
1	 1.819630524344169e-01	 9.833053683983746e-01	-2.071998454594204e+01
1	 3.726958934376526e-01	 9.414106548025766e-01	-1.900771961151107e+01
1	 3.539675606653077e-01	 9.486112037905382e-01	-1.926354052100666e+01
1	 3.351814627300657e-01	 9.554107163947457e-01	-1.950620066555972e+01
1	 3.163497939082678e-01	 9.618103024265738e-01	-1.973526458084745e+01
1	 2.974845869507599e-01	 9.678115366572296e-01	-1.995031282155709e+01
1	 2.785976925500455e-01	 9.734164451388825e-01	-2.015094355877140e+01
1	 2.597007599201513e-01	 9.786274905496308e-01	-2.033677407079511e+01
1	 2.408052185339230e-01	 9.834475566554659e-01	-2.050744212041567e+01
1	 2.219222610543540e-01	 9.878799319837492e-01	-2.066260721272924e+01
1	 2.030628274885305e-01	 9.919282928033322e-01	-2.080195172880630e+01
1	 1.842375905849211e-01	 9.955966855063876e-01	-2.092518193160550e+01
1	 3.772970773107793e-01	 9.530330085739084e-01	-1.904127453837532e+01
1	 3.583375305530888e-01	 9.603224532279364e-01	-1.931969340666602e+01
1	 3.393195054822754e-01	 9.672059104317243e-01	-1.958419167766003e+01
1	 3.202553469213020e-01	 9.736845036980224e-01	-1.983431762596067e+01
1	 3.011572361734961e-01	 9.797598272396583e-01	-2.006963903637350e+01
1	 2.820371702362082e-01	 9.854339321217914e-01	-2.028974471830864e+01
1	 2.629069421409231e-01	 9.907093114259542e-01	-2.049424589987532e+01
1	 2.437781224650914e-01	 9.955888845201885e-01	-2.068277749585949e+01
1	 2.246620420527323e-01	 1.000075980530958e+00	-2.085499924494193e+01
1	 2.055697759727496e-01	 1.004174321113151e+00	-2.101059671269221e+01
1	 1.865121287359399e-01	 1.007888002614400e+00	-2.114928215802239e+01
1	 3.818982611834161e-01	 9.646553623442610e-01	-1.909297202367697e+01
1	 3.627075004404804e-01	 9.720337026645445e-01	-1.939388977770550e+01
1	 3.434575482341956e-01	 9.790011044680814e-01	-1.968015157315677e+01
1	 3.241608999341474e-01	 9.855587049689971e-01	-1.995128923524547e+01
1	 3.048298853961442e-01	 9.917081178217401e-01	-2.020685753620740e+01
1	 2.854766479223834e-01	 9.974514191044608e-01	-2.044643562895347e+01
1	 2.661131243618082e-01	 1.002791132302125e+00	-2.066962834683643e+01
1	 2.467510263964736e-01	 1.007730212384825e+00	-2.087606736488693e+01
1	 2.274018230514250e-01	 1.012272029078129e+00	-2.106541221909107e+01
1	 2.080767244573832e-01	 1.016420349422961e+00	-2.123735118148128e+01
1	 1.887866668874734e-01	 1.020179319722413e+00	-2.139160198998020e+01
1	 3.864994450555633e-01	 9.762777161136343e-01	-1.916216411890776e+01
1	 3.670774703274824e-01	 9.837449521003626e-01	-1.948548522393795e+01
1	 3.475955909858267e-01	 9.907962985038169e-01	-1.979343860621766e+01
1	 3.280664529468041e-01	 9.974329062394982e-01	-2.008553945998411e+01
1	 3.085025346187044e-01	 1.003656408403476e+00	-2.036132931088080e+01
1	 2.889161256085711e-01	 1.009468906086891e+00	-2.062037737102354e+01
1	 2.693193065828065e-01	 1.014872953178144e+00	-2.086228174675275e+01
1	 2.497239303280696e-01	 1.019871540249376e+00	-2.108667049558204e+01
1	 2.301416040504319e-01	 1.024468077625263e+00	-2.129320253010468e+01
1	 2.105836729424314e-01	 1.028666377732761e+00	-2.148156836785211e+01
1	 1.910612050395216e-01	 1.032470636830427e+00	-2.165149072727727e+01
1	 3.911006289272207e-01	 9.879000698820278e-01	-1.924823336725359e+01
1	 3.714474402140946e-01	 9.954562015353907e-01	-1.959386566036239e+01
1	 3.517336337371683e-01	 1.002591492538931e+00	-1.992344123081553e+01
1	 3.319720059592722e-01	 1.009307107509526e+00	-2.023645846669253e+01
1	 3.121751838411762e-01	 1.015604698984865e+00	-2.053244542128311e+01
1	 2.923556032947714e-01	 1.021486393069082e+00	-2.081096109164540e+01
1	 2.725254888039181e-01	 1.026954774054010e+00	-2.107159653657869e+01
1	 2.526968342598795e-01	 1.032012868113843e+00	-2.131397583164948e+01
1	 2.328813850497531e-01	 1.036664126172358e+00	-2.153775686020877e+01
1	 2.130906214278943e-01	 1.040912406042553e+00	-2.174263194059308e+01
1	 1.933357431920845e-01	 1.044761953938439e+00	-2.192832829089806e+01
1	 3.957018127983884e-01	 9.995224236494423e-01	-1.935059103082229e+01
1	 3.758174101003174e-01	 1.007167450969629e+00	-1.971844556407074e+01
1	 3.558716764882207e-01	 1.014386686573424e+00	-2.006957634492398e+01
1	 3.358775589715515e-01	 1.021181308779080e+00	-2.040346478623530e+01
1	 3.158478330635600e-01	 1.027552989565908e+00	-2.071962525105353e+01
1	 2.957950809809843e-01	 1.033503880051033e+00	-2.101760625668436e+01
1	 2.757316710251428e-01	 1.039036594929724e+00	-2.129699150503787e+01
1	 2.556697381919033e-01	 1.044154195978224e+00	-2.155740073801700e+01
1	 2.356211660493888e-01	 1.048860174719417e+00	-2.179849041803845e+01
1	 2.155975699137717e-01	 1.053158434352334e+00	-2.201995423506129e+01
1	 1.956102813451620e-01	 1.057053271046452e+00	-2.222152344271256e+01
1	 4.003029966690664e-01	 1.011144777415877e+00	-1.946867544013054e+01
1	 3.801873799861506e-01	 1.018878700403077e+00	-1.985866633274850e+01
1	 3.600097192389839e-01	 1.026181880607295e+00	-2.023128765580572e+01
1	 3.397831119836419e-01	 1.033055510048160e+00	-2.058600368369020e+01
1	 3.195204822858556e-01	 1.039501280146605e+00	-2.092231487883664e+01
1	 2.992345586672098e-01	 1.045521367032745e+00	-2.123975902323048e+01
1	 2.789378532464808e-01	 1.051118415805285e+00	-2.153791216321235e+01
1	 2.586426421241408e-01	 1.056295523842520e+00	-2.181638936743258e+01
1	 2.383609470493386e-01	 1.061056223266437e+00	-2.207484529918796e+01
1	 2.181045184000638e-01	 1.065404462662107e+00	-2.231297460567825e+01
1	 1.978848194987542e-01	 1.069344588154466e+00	-2.253051212795345e+01
1	 4.049041805392548e-01	 1.022767131181332e+00	-1.960195045612631e+01
1	 3.845573498715942e-01	 1.030589949835736e+00	-2.001399475509566e+01
1	 3.641477619894577e-01	 1.037977074640545e+00	-2.040804415675729e+01
1	 3.436886649955436e-01	 1.044929711316767e+00	-2.078354563935915e+01
1	 3.231931315080631e-01	 1.051449570726956e+00	-2.113998556152067e+01
1	 3.026740363534478e-01	 1.057538854014218e+00	-2.147689072305212e+01
1	 2.821440354679321e-01	 1.063200236680694e+00	-2.179382922622595e+01
1	 2.616155460565923e-01	 1.068436851706730e+00	-2.209041113842855e+01
1	 2.411007280496028e-01	 1.073252271813419e+00	-2.236628895854363e+01
1	 2.206114668867706e-01	 1.077650490971870e+00	-2.262115789075588e+01
1	 2.001593576528611e-01	 1.081635905262479e+00	-2.285475593070681e+01
1	 4.095053644089534e-01	 1.034389484945808e+00	-1.974990403589467e+01
1	 3.889273197566479e-01	 1.042301199267603e+00	-2.018392158436535e+01
1	 3.682858047396424e-01	 1.049772268673173e+00	-2.059933870654483e+01
1	 3.475942180072565e-01	 1.056803912584900e+00	-2.099558493218234e+01
1	 3.268657807301825e-01	 1.063397861306960e+00	-2.137213231972964e+01
1	 3.061135140396982e-01	 1.069556340995452e+00	-2.172849644828780e+01
1	 2.853502176894966e-01	 1.075282057555951e+00	-2.206423719728740e+01
1	 2.645884499892575e-01	 1.080578179570855e+00	-2.237895931589552e+01
1	 2.438405090501814e-01	 1.085448320360364e+00	-2.267231278560376e+01
1	 2.231184153738919e-01	 1.089896519281624e+00	-2.294399298081730e+01
1	 2.024338958074826e-01	 1.093927222370491e+00	-2.319374063352736e+01
1	 4.141065482781622e-01	 1.046011838709305e+00	-1.991204689398382e+01
1	 3.932972896413123e-01	 1.054012448698682e+00	-2.036796020699941e+01
1	 3.724238474895377e-01	 1.061567462705179e+00	-2.080468670354533e+01
1	 3.514997710187807e-01	 1.068678113852559e+00	-2.122163831759170e+01
1	 3.305384299522138e-01	 1.075346151886617e+00	-2.161827261761552e+01
1	 3.095529917259615e-01	 1.081573827976446e+00	-2.199409373142554e+01
1	 2.885563999111744e-01	 1.087363878431055e+00	-2.234865304612969e+01
1	 2.675613539221366e-01	 1.092719507434895e+00	-2.268154968628544e+01
1	 2.465802900510743e-01	 1.097644368907271e+00	-2.299243077477841e+01
1	 2.256253638614278e-01	 1.102142547591368e+00	-2.328099148236278e+01
1	 2.047084339626188e-01	 1.106218539478505e+00	-2.354697487307901e+01
1	 1.819630524344169e-01	 9.833053683983746e-01	-2.071998454594204e+01
1	 1.634142641907509e-01	 9.865575392429453e-01	-2.080014499962556e+01
1	 1.449194890435836e-01	 9.894434504702300e-01	-2.087340468433010e+01
1	 1.264884019976694e-01	 9.919680862544974e-01	-2.093976641894341e+01
1	 1.081303688402294e-01	 9.941367226520524e-01	-2.099922138278273e+01
1	 8.985443791194073e-02	 9.959549086084808e-01	-2.105175027339235e+01
1	 7.166933308134309e-02	 9.974284469032259e-01	-2.109732447386384e+01
1	 5.358344789747966e-02	 9.985633751090948e-01	-2.113590722055499e+01
1	 3.560484089073371e-02	 9.993659466402712e-01	-2.116745476264434e+01
1	 1.774123198744578e-02	 9.998426119581703e-01	-2.119191750557425e+01
1	 0.000000000000000e+00	 1.000000000000000e+00	-2.120924113108332e+01
1	 1.842375905849211e-01	 9.955966855063876e-01	-2.092518193160550e+01
1	 1.654569424871889e-01	 9.988895084859244e-01	-2.102414539269167e+01
1	 1.467309826500151e-01	 1.001811493603026e+00	-2.111416966689112e+01
1	 1.280695070157072e-01	 1.004367687334138e+00	-2.119527596260721e+01
1	 1.094819984438205e-01	 1.006563431686268e+00	-2.126747989392394e+01
1	 9.097761837928414e-02	 1.008404344966822e+00	-2.133079228675330e+01
1	 7.256519973898776e-02	 1.009896302489984e+00	-2.138521998462527e+01
1	 5.425324099133060e-02	 1.011045417298220e+00	-2.143076664764008e+01
1	 3.604990139831873e-02	 1.011858020973390e+00	-2.146743353855233e+01
1	 1.796299738536468e-02	 1.012340644607676e+00	-2.149522029046519e+01
1	 0.000000000000000e+00	 1.012500000000000e+00	-2.151412565111768e+01
1	 1.865121287359399e-01	 1.007888002614400e+00	-2.114928215802239e+01
1	 1.674996207842255e-01	 1.011221477728904e+00	-2.126690395999485e+01
1	 1.485424762570973e-01	 1.014179536735822e+00	-2.137360054262861e+01
1	 1.296506120344171e-01	 1.016767288413778e+00	-2.146941070258244e+01
1	 1.108336280480745e-01	 1.018990140720485e+00	-2.155437359432919e+01
1	 9.210079884725111e-02	 1.020853781325163e+00	-2.162852919078014e+01
1	 7.346106639718736e-02	 1.022364158076741e+00	-2.169191873377712e+01
1	 5.492303408563919e-02	 1.023527459487344e+00	-2.174458517056887e+01
1	 3.649496190623605e-02	 1.024350095306508e+00	-2.178657357275298e+01
1	 1.818476278346310e-02	 1.024838677257182e+00	-2.181793153453488e+01
1	 0.000000000000000e+00	 1.025000000000000e+00	-2.183870954754548e+01
1	 1.887866668874734e-01	 1.020179319722413e+00	-2.139160198998020e+01
1	 1.695422990818606e-01	 1.023553446971883e+00	-2.152774269523446e+01
1	 1.503539698648305e-01	 1.026547579868618e+00	-2.165102264070397e+01
1	 1.312317170537990e-01	 1.029166889493419e+00	-2.176149743900289e+01
1	 1.121852576529911e-01	 1.031416849754700e+00	-2.185922892294302e+01
1	 9.322397931584156e-02	 1.033303217683504e+00	-2.194428526653827e+01
1	 7.435693305594188e-02	 1.034832013663499e+00	-2.201674108620312e+01
1	 5.559282718040544e-02	 1.036009501676469e+00	-2.207667752082509e+01
1	 3.694002241448566e-02	 1.036842169639627e+00	-2.212418228965531e+01
1	 1.840652818174105e-02	 1.037336709906688e+00	-2.215934972722243e+01
1	 0.000000000000000e+00	 1.037500000000000e+00	-2.218228079472789e+01
1	 1.910612050395216e-01	 1.032470636830427e+00	-2.165149072727727e+01
1	 1.715849773800944e-01	 1.035885416214862e+00	-2.180601587812485e+01
1	 1.521654634732146e-01	 1.038915623001414e+00	-2.194579341746162e+01
1	 1.328128220738531e-01	 1.041566490573059e+00	-2.207089502913970e+01
1	 1.135368872585706e-01	 1.043843558788917e+00	-2.218140439304646e+01
1	 9.434715978505553e-02	 1.045752654041845e+00	-2.227741697218389e+01
1	 7.525279971525133e-02	 1.047299869250256e+00	-2.235903977036354e+01
1	 5.626262027562935e-02	 1.048491543865594e+00	-2.242639106172570e+01
1	 3.738508292306758e-02	 1.049334243972746e+00	-2.247960009345744e+01
1	 1.862829358019852e-02	 1.049834742556193e+00	-2.251880676323080e+01
1	 0.000000000000000e+00	 1.050000000000000e+00	-2.254416127300752e+01
1	 1.933357431920845e-01	 1.044761953938439e+00	-2.192832829089806e+01
1	 1.736276556789268e-01	 1.048217385457841e+00	-2.210110817521791e+01
1	 1.539769570822495e-01	 1.051283666134210e+00	-2.225730056659480e+01
1	 1.343939270945792e-01	 1.053966091652700e+00	-2.239699250168612e+01
1	 1.148885168648128e-01	 1.056270267823132e+00	-2.252028870553034e+01
1	 9.547034025489304e-02	 1.058202090400186e+00	-2.262731105019533e+01
1	 7.614866637511571e-02	 1.059767724837014e+00	-2.271819797455510e+01
1	 5.693241337131089e-02	 1.060973586054718e+00	-2.279310386890131e+01
1	 3.783014343198180e-02	 1.061826318305864e+00	-2.285219842815897e+01
1	 1.885005897883552e-02	 1.062332775205699e+00	-2.289566597751071e+01
1	 0.000000000000000e+00	 1.062500000000000e+00	-2.292370477423888e+01
1	 1.956102813451620e-01	 1.057053271046452e+00	-2.222152344271256e+01
1	 1.756703339783578e-01	 1.060549354700821e+00	-2.241243287322611e+01
1	 1.557884506919354e-01	 1.063651709267005e+00	-2.258496026116019e+01
1	 1.359750321159775e-01	 1.066365692732341e+00	-2.273920730260564e+01
1	 1.162401464717178e-01	 1.068696976857348e+00	-2.287529899380242e+01
1	 9.659352072535407e-02	 1.070651526758527e+00	-2.299338276665630e+01
1	 7.704453303553507e-02	 1.072235580423771e+00	-2.309362757599050e+01
1	 5.760220646745011e-02	 1.073455628243843e+00	-2.317622294469702e+01
1	 3.827520394122830e-02	 1.074318392638983e+00	-2.324137797292141e+01
1	 1.907182437765204e-02	 1.074830807855205e+00	-2.328932031734006e+01
1	 0.000000000000000e+00	 1.075000000000000e+00	-2.332029514646791e+01
1	 1.978848194987542e-01	 1.069344588154466e+00	-2.253051212795345e+01
1	 1.777130122783873e-01	 1.072881323943800e+00	-2.273943023418582e+01
1	 1.575999443022721e-01	 1.076019752399801e+00	-2.292821551683250e+01
1	 1.375561371380478e-01	 1.078765293811981e+00	-2.309698366195552e+01
1	 1.175917760792856e-01	 1.081123685891564e+00	-2.324587918973397e+01
1	 9.771670119643860e-02	 1.083100963116868e+00	-2.337507427196794e+01
1	 7.794039969650934e-02	 1.084703436010529e+00	-2.348476749201010e+01
1	 5.827199956404695e-02	 1.085937670432968e+00	-2.357518255571690e+01
1	 3.872026445080710e-02	 1.086810466972101e+00	-2.364656696188661e+01
1	 1.929358977664810e-02	 1.087328840504710e+00	-2.369919064046559e+01
1	 0.000000000000000e+00	 1.087500000000000e+00	-2.373334456656507e+01
1	 2.001593576528611e-01	 1.081635905262479e+00	-2.285475593070681e+01
1	 1.797556905790155e-01	 1.085213293186779e+00	-2.308156596276866e+01
1	 1.594114379132596e-01	 1.088387795532598e+00	-2.328653466675614e+01
1	 1.391372421607902e-01	 1.091164894891622e+00	-2.346979107206293e+01
1	 1.189434056875161e-01	 1.093550394925780e+00	-2.363149850102030e+01
1	 9.883988166814665e-02	 1.095550399475209e+00	-2.377185307333130e+01
1	 7.883626635803856e-02	 1.097171291597286e+00	-2.389108214371116e+01
1	 5.894179266110147e-02	 1.098419712622093e+00	-2.398944268371915e+01
1	 3.916532496071819e-02	 1.099302541305220e+00	-2.406721961855289e+01
1	 1.951535517582367e-02	 1.099826873154216e+00	-2.412472412928092e+01
1	 0.000000000000000e+00	 1.100000000000000e+00	-2.416229193063277e+01
1	 2.024338958074826e-01	 1.093927222370491e+00	-2.319374063352736e+01
1	 1.817983688802422e-01	 1.097545262429758e+00	-2.343832977691949e+01
1	 1.612229315248981e-01	 1.100755838665393e+00	-2.365940993921518e+01
1	 1.407183471842047e-01	 1.103564495971262e+00	-2.385712286829691e+01
1	 1.202950352964094e-01	 1.105977103959997e+00	-2.403164999119056e+01
1	 9.996306214047822e-02	 1.107999835833549e+00	-2.418321061020762e+01
1	 7.973213302012272e-02	 1.109639147184044e+00	-2.431206002315240e+01
1	 5.961158575861362e-02	 1.110901754811217e+00	-2.441848758094395e+01
1	 3.961038547096159e-02	 1.111794615638339e+00	-2.450281469569869e+01
1	 1.973712057517876e-02	 1.112324905803722e+00	-2.456539281191417e+01
1	 0.000000000000000e+00	 1.112500000000000e+00	-2.460660135292516e+01
1	 2.047084339626188e-01	 1.106218539478505e+00	-2.354697487307901e+01
1	 1.838410471820675e-01	 1.109877231672737e+00	-2.380923407378608e+01
1	 1.630344251371875e-01	 1.113123881798189e+00	-2.404635613012565e+01
1	 1.422994522082913e-01	 1.115964097050903e+00	-2.425849490445434e+01
1	 1.216466649059655e-01	 1.118403812994212e+00	-2.444584925428362e+01
1	 1.010862426134333e-01	 1.120449272191891e+00	-2.460866092474885e+01
1	 8.062799968276181e-02	 1.122107002770802e+00	-2.474721235607844e+01
1	 6.028137885658343e-02	 1.123383797000342e+00	-2.486182442175373e+01
1	 4.005544598153728e-02	 1.124286689971457e+00	-2.495285411264508e+01
1	 1.995888597471339e-02	 1.124822938453228e+00	-2.502069218190891e+01
1	 0.000000000000000e+00	 1.125000000000000e+00	-2.506576076483961e+01
1	 1.125000000000000e+00	 0.000000000000000e+00	 1.887133424485274e+01
1	 1.124822938453228e+00	 1.995888597471274e-02	 1.862720630638315e+01
1	 1.124286689971457e+00	 4.005544598153672e-02	 1.834607258092231e+01
1	 1.123383797000342e+00	 6.028137885658293e-02	 1.802782990185993e+01
1	 1.122107002770802e+00	 8.062799968276138e-02	 1.767245031498757e+01
1	 1.120449272191891e+00	 1.010862426134330e-01	 1.727998399779153e+01
1	 1.118403812994212e+00	 1.216466649059652e-01	 1.685056198134238e+01
1	 1.115964097050903e+00	 1.422994522082910e-01	 1.638439864891381e+01
1	 1.113123881798189e+00	 1.630344251371873e-01	 1.588179398550226e+01
1	 1.109877231672737e+00	 1.838410471820675e-01	 1.534313555269386e+01
1	 1.106218539478505e+00	 2.047084339626188e-01	 1.476890016384824e+01
1	 1.137500000000000e+00	 0.000000000000000e+00	 1.834440657716325e+01
1	 1.137320971102731e+00	 2.018065137442460e-02	 1.810327845241321e+01
1	 1.136778764304567e+00	 4.050050649243549e-02	 1.782560743120321e+01
1	 1.135865839189446e+00	 6.095117195498952e-02	 1.751131545567478e+01
1	 1.134574858357522e+00	 8.152386634591800e-02	 1.716039989429879e+01
1	 1.132898708550173e+00	 1.022094230869528e-01	 1.677293638958034e+01
1	 1.130830522028343e+00	 1.229982945160989e-01	 1.634908150354543e+01
1	 1.128363698130427e+00	 1.438805572329329e-01	 1.588907513527861e+01
1	 1.125491924930832e+00	 1.648459187499742e-01	 1.539324268486403e+01
1	 1.122209200915521e+00	 1.858837254842960e-01	 1.486199693840245e+01
1	 1.118509856586275e+00	 2.069829721180270e-01	 1.429583964934640e+01
1	 1.150000000000000e+00	 0.000000000000000e+00	 1.784091086089364e+01
1	 1.149819003752230e+00	 2.040241677431140e-02	 1.760291068534809e+01
1	 1.149270838637657e+00	 4.094556700364810e-02	 1.732882600101502e+01
1	 1.148347881378508e+00	 6.162096505381197e-02	 1.701860357249678e+01
1	 1.147042713944167e+00	 8.241973300955485e-02	 1.667226580571792e+01
1	 1.145348144908337e+00	 1.033326035609785e-01	 1.628991352498109e+01
1	 1.143257231062303e+00	 1.243499241267248e-01	 1.587172854302680e+01
1	 1.140763299209717e+00	 1.454616622580135e-01	 1.541797599849965e+01
1	 1.137859968063168e+00	 1.666574123631049e-01	 1.492900643535078e+01
1	 1.134541170157914e+00	 1.879264037867323e-01	 1.440525759906978e+01
1	 1.130801173693560e+00	 2.092575102734646e-01	 1.384725592525727e+01
1	 1.162500000000000e+00	 0.000000000000000e+00	 1.736009122666178e+01
1	 1.162317036401724e+00	 2.062418217437315e-02	 1.712534300239932e+01
1	 1.161762912970730e+00	 4.139062751517460e-02	 1.685496429941651e+01
1	 1.160829923567528e+00	 6.229075815305031e-02	 1.654892642772079e+01
1	 1.159510569530738e+00	 8.331559967367190e-02	 1.620727655466557e+01
1	 1.157797581266385e+00	 1.044557840355102e-01	 1.583014041226597e+01
1	 1.155683940096093e+00	 1.257015537378430e-01	 1.541772479277607e+01
1	 1.153162900288774e+00	 1.470427672835326e-01	 1.497031980706129e+01
1	 1.150228011195196e+00	 1.684689059765797e-01	 1.448830088046784e+01
1	 1.146873139399917e+00	 1.899690820893765e-01	 1.397213046130094e+01
1	 1.143092490800359e+00	 2.115320484289315e-01	 1.342235941768533e+01
1	 1.175000000000000e+00	 0.000000000000000e+00	 1.690122396973885e+01
1	 1.174815069051214e+00	 2.084594757460985e-02	 1.666984774132161e+01
1	 1.174254987303784e+00	 4.183568802701497e-02	 1.640329084571858e+01
1	 1.173311965756507e+00	 6.296055125270457e-02	 1.610154887012862e+01
1	 1.171978425117234e+00	 8.421146633826908e-02	 1.576469347611862e+01
1	 1.170247017624314e+00	 1.055789645105478e-01	 1.539287503807846e+01
1	 1.168110649129713e+00	 1.270531833494537e-01	 1.498632506523035e+01
1	 1.165562501367597e+00	 1.486238723094903e-01	 1.454535838185317e+01
1	 1.162596054326918e+00	 1.702803995903985e-01	 1.407037504059331e+01
1	 1.159205108641529e+00	 1.920117603922284e-01	 1.356186194418681e+01
1	 1.155383807906674e+00	 2.138065865844276e-01	 1.302039415162537e+01
1	 1.187500000000000e+00	 0.000000000000000e+00	 1.646361585717295e+01
1	 1.187313101700699e+00	 2.106771297502151e-02	 1.623572787827909e+01
1	 1.186747061636820e+00	 4.228074853916918e-02	 1.597310495841827e+01
1	 1.185794007945443e+00	 6.363034435277468e-02	 1.567576670223704e+01
1	 1.184446280703655e+00	 8.510733300334646e-02	 1.534380900673884e+01
1	 1.182696453982126e+00	 1.067021449860912e-01	 1.497740663172964e+01
1	 1.180537358163162e+00	 1.284048129615565e-01	 1.457681554914523e+01
1	 1.177962102446187e+00	 1.502049773358866e-01	 1.414237504604362e+01
1	 1.174964097458333e+00	 1.720918932045612e-01	 1.367450955630043e+01
1	 1.171537077882749e+00	 1.940544386952882e-01	 1.317373019654156e+01
1	 1.167675125012503e+00	 2.160811247399532e-01	 1.264063598259975e+01
1	 1.200000000000000e+00	 0.000000000000000e+00	 1.604660254071744e+01
1	 1.199811134350180e+00	 2.128947837560811e-02	 1.582231543209486e+01
1	 1.199239135969837e+00	 4.272580905163728e-02	 1.556373515107456e+01
1	 1.198276050134338e+00	 6.430013745326070e-02	 1.527090506812423e+01
1	 1.196914136290001e+00	 8.600319966890399e-02	 1.494394506499350e+01
1	 1.195145890339820e+00	 1.078253254621407e-01	 1.458305403797592e+01
1	 1.192964067196440e+00	 1.297564425741518e-01	 1.418851217541172e+01
1	 1.190361703524544e+00	 1.517860823627215e-01	 1.376068298433601e+01
1	 1.187332140589441e+00	 1.739033868190680e-01	 1.330001504147251e+01
1	 1.183869047123579e+00	 1.960971169985557e-01	 1.280704344431289e+01
1	 1.179966442117847e+00	 2.183556628955082e-01	 1.228239093881834e+01
1	 1.212500000000000e+00	 0.000000000000000e+00	 1.564954706792863e+01
1	 1.212309166999656e+00	 2.151124377636965e-02	 1.542896996720668e+01
1	 1.211731210302836e+00	 4.317086956441923e-02	 1.517453762740835e+01
1	 1.210758092323192e+00	 6.496993055416259e-02	 1.488631694097803e+01
1	 1.209381991876273e+00	 8.689906633494171e-02	 1.456445153147470e+01
1	 1.207595326697396e+00	 1.089485059386960e-01	 1.420916419044967e+01
1	 1.205390776229548e+00	 1.311080721872393e-01	 1.382075908395636e+01
1	 1.202761304602666e+00	 1.533671873899949e-01	 1.339962370371431e+01
1	 1.199700183720242e+00	 1.757148804339188e-01	 1.294623053828683e+01
1	 1.196201016364018e+00	 1.981397953020310e-01	 1.246113844021425e+01
1	 1.192257759222705e+00	 2.206302010510924e-01	 1.194499366588535e+01
1	 1.225000000000000e+00	 0.000000000000000e+00	 1.527183848442083e+01
1	 1.224807199649127e+00	 2.173300917730615e-02	 1.505507718827864e+01
1	 1.224223284635816e+00	 4.361593007751505e-02	 1.480489486853907e+01
1	 1.223240134512003e+00	 6.563972365548039e-02	 1.452138170324355e+01
1	 1.221849847462470e+00	 8.779493300145964e-02	 1.420470482226029e+01
1	 1.220044763054855e+00	 1.100716864157573e-01	 1.385511067855329e+01
1	 1.217817485262486e+00	 1.324597018008191e-01	 1.347292718450473e+01
1	 1.215160905680556e+00	 1.549482924177070e-01	 1.305856558842878e+01
1	 1.212068226850737e+00	 1.775263740491136e-01	 1.261252206679152e+01
1	 1.208532985604066e+00	 2.001824736057143e-01	 1.213537900827756e+01
1	 1.204549076327078e+00	 2.229047392067060e-01	 1.162780596672813e+01
1	 1.237500000000000e+00	 0.000000000000000e+00	 1.491289052083315e+01
1	 1.237305232298594e+00	 2.195477457841760e-02	 1.470004761998760e+01
1	 1.236715358968778e+00	 4.406099059092473e-02	 1.445421430584342e+01
1	 1.235722176700773e+00	 6.630951675721405e-02	 1.417550381282225e+01
1	 1.234317703048592e+00	 8.869079966845773e-02	 1.386410654873798e+01
1	 1.232494199412197e+00	 1.111948668933245e-01	 1.352029240120827e+01
1	 1.230244194295253e+00	 1.338113314148913e-01	 1.314441280457141e+01
1	 1.227560506758211e+00	 1.565293974458576e-01	 1.273690254255822e+01
1	 1.224436269980924e+00	 1.793378676646523e-01	 1.229828126238670e+01
1	 1.220864954843724e+00	 2.022251519096052e-01	 1.182915467661495e+01
1	 1.216840393430966e+00	 2.251792773623488e-01	 1.133021543001511e+01
1	 1.250000000000000e+00	 0.000000000000000e+00	 1.457214035857826e+01
1	 1.249803264948056e+00	 2.217653997970400e-02	 1.436331536602274e+01
1	 1.249207433301722e+00	 4.450605110464827e-02	 1.412192707344246e+01
1	 1.248204218889501e+00	 6.697930985936361e-02	 1.384811154929919e+01
1	 1.246785558634639e+00	 8.958666633593600e-02	 1.354208225783967e+01
1	 1.244943635769421e+00	 1.123180473713976e-01	 1.320413230137916e+01
1	 1.242670903327850e+00	 1.351629610294558e-01	 1.283463641857052e+01
1	 1.239960107835634e+00	 1.581105024744469e-01	 1.243405271401856e+01
1	 1.236804313110804e+00	 1.811493612805350e-01	 1.200292409505697e+01
1	 1.233196924082991e+00	 2.042678302137040e-01	 1.154187939221460e+01
1	 1.229131710534368e+00	 2.274538155180211e-01	 1.105163414086877e+01
1	 1.106218539478505e+00	 2.047084339626188e-01	 1.476890016384824e+01
1	 1.102142547591368e+00	 2.256253638614272e-01	 1.431451837513098e+01
1	 1.097644368907272e+00	 2.465802900510737e-01	 1.382684341141205e+01
1	 1.092719507434896e+00	 2.675613539221362e-01	 1.330699717967491e+01
1	 1.087363878431055e+00	 2.885563999111739e-01	 1.275620252109825e+01
1	 1.081573827976446e+00	 3.095529917259612e-01	 1.217578166361740e+01
1	 1.075346151886618e+00	 3.305384299522137e-01	 1.156715415278061e+01
1	 1.068678113852559e+00	 3.514997710187806e-01	 1.093183425246403e+01
1	 1.061567462705179e+00	 3.724238474895377e-01	 1.027142781074475e+01
1	 1.054012448698681e+00	 3.932972896413123e-01	 9.587628590202392e+00
1	 1.046011838709305e+00	 4.141065482781622e-01	 8.882214066092152e+00
1	 1.118509856586275e+00	 2.069829721180270e-01	 1.429583964934640e+01
1	 1.114388575900822e+00	 2.281323123490921e-01	 1.385440202004807e+01
1	 1.109840417453845e+00	 2.493200710519664e-01	 1.338018218470313e+01
1	 1.104860835298564e+00	 2.705342578549000e-01	 1.287427612903762e+01
1	 1.099445699305754e+00	 2.917625821326358e-01	 1.233787930896288e+01
1	 1.093591314957006e+00	 3.129924694119225e-01	 1.177228516394069e+01
1	 1.087294442465818e+00	 3.342110791738725e-01	 1.117888311718672e+01
1	 1.080552315119742e+00	 3.554053240298770e-01	 1.055915605417969e+01
1	 1.073362656736697e+00	 3.765618902389651e-01	 9.914677274610586e+00
1	 1.065723698129263e+00	 3.976672595254847e-01	 9.247106916804757e+00
1	 1.057634192472302e+00	 4.187077321468711e-01	 8.558187857748770e+00
1	 1.130801173693560e+00	 2.092575102734646e-01	 1.384725592525727e+01
1	 1.126634604209704e+00	 2.306392608366003e-01	 1.341835312679913e+01
1	 1.122036465999790e+00	 2.520598520525441e-01	 1.295717380194531e+01
1	 1.117002163161574e+00	 2.735071617872195e-01	 1.246478862777182e+01
1	 1.111527520179795e+00	 2.949687643535529e-01	 1.194236631458922e+01
1	 1.105608801936938e+00	 3.164319470972682e-01	 1.139117217884865e+01
1	 1.099242733044450e+00	 3.378837283948746e-01	 1.081256621126396e+01
1	 1.092426516386447e+00	 3.593108770403062e-01	 1.020800063152427e+01
1	 1.085157850767857e+00	 3.806999329877463e-01	 9.579016924567435e+00
1	 1.077434947559639e+00	 4.020372294090629e-01	 8.927242357214286e+00
1	 1.069256546235278e+00	 4.233089160150696e-01	 8.254385977990793e+00
1	 1.143092490800359e+00	 2.115320484289315e-01	 1.342235941768533e+01
1	 1.138880632518016e+00	 2.331462093239517e-01	 1.300559532563837e+01
1	 1.134232514545106e+00	 2.547996330528071e-01	 1.255705526816489e+01
1	 1.129143491023926e+00	 2.764800657190944e-01	 1.207778520653669e+01
1	 1.123609341053178e+00	 2.981749465739247e-01	 1.156892772449583e+01
1	 1.117626288916241e+00	 3.198714247819978e-01	 1.103172065947892e+01
1	 1.111191023622513e+00	 3.415563776152200e-01	 1.046749523727644e+01
1	 1.104300717652674e+00	 3.632164300500684e-01	 9.877673701408286e+00
1	 1.096953044798661e+00	 3.848379757358811e-01	 9.263766432026445e+00
1	 1.089146196989810e+00	 4.064071992920468e-01	 8.627368552914954e+00
1	 1.080878899998233e+00	 4.279100998827580e-01	 7.970156029114388e+00
1	 1.155383807906674e+00	 2.138065865844276e-01	 1.302039415162537e+01
1	 1.151126660825756e+00	 2.356531578111465e-01	 1.261538528383139e+01
1	 1.146428563089792e+00	 2.575394140527553e-01	 1.217909605626016e+01
1	 1.141284818885619e+00	 2.794529696505251e-01	 1.171254828830442e+01
1	 1.135691161925902e+00	 3.013811287937518e-01	 1.121685903641365e+01
1	 1.129643775894916e+00	 3.233109024661115e-01	 1.069323928245310e+01
1	 1.123139314200007e+00	 3.452290268349085e-01	 1.014299213356243e+01
1	 1.116174918918422e+00	 3.671219830591637e-01	 9.567510524703604e+00
1	 1.108748238829107e+00	 3.889760184833697e-01	 8.968274418551541e+00
1	 1.100857446419777e+00	 4.107771691744366e-01	 8.346847501072094e+00
1	 1.092501253761168e+00	 4.325112837499361e-01	 7.704873375020143e+00
1	 1.167675125012503e+00	 2.160811247399532e-01	 1.264063598259975e+01
1	 1.163372689132924e+00	 2.381601062981845e-01	 1.224701096686507e+01
1	 1.158624611633849e+00	 2.602791950523886e-01	 1.182259639816596e+01
1	 1.153426146746654e+00	 2.824258735815113e-01	 1.136839050981739e+01
1	 1.147772982797968e+00	 3.045873110130340e-01	 1.088548541132756e+01
1	 1.141661262872963e+00	 3.267503801496095e-01	 1.037506583274585e+01
1	 1.135087604776933e+00	 3.489016760539403e-01	 9.838407388425090e+00
1	 1.128049120183692e+00	 3.710275360675916e-01	 9.276874351298137e+00
1	 1.120543432859196e+00	 3.931140612302118e-01	 8.691916932167157e+00
1	 1.112568695849540e+00	 4.151471390562321e-01	 8.085068062128375e+00
1	 1.104123607524082e+00	 4.371124676166038e-01	 7.457939680075894e+00
1	 1.179966442117847e+00	 2.183556628955082e-01	 1.228239093881834e+01
1	 1.175618717439522e+00	 2.406670547850658e-01	 1.189979000833181e+01
1	 1.170820660177278e+00	 2.630189760517072e-01	 1.148688568282056e+01
1	 1.165567474607031e+00	 2.853987775120529e-01	 1.104465314795421e+01
1	 1.159854803669377e+00	 3.077934932317711e-01	 1.057416012851512e+01
1	 1.153678749850381e+00	 3.301898578324914e-01	 1.007656568762486e+01
1	 1.147035895353290e+00	 3.525743252723154e-01	 9.553118553155191e+00
1	 1.139923321448485e+00	 3.749330890753527e-01	 9.005154962334656e+00
1	 1.132338626888928e+00	 3.972521039764076e-01	 8.434096018896804e+00
1	 1.124279945279097e+00	 4.195171089374333e-01	 7.841444560674691e+00
1	 1.115745961286976e+00	 4.417136514827613e-01	 7.228781539300715e+00
1	 1.192257759222705e+00	 2.206302010510924e-01	 1.194499366588535e+01
1	 1.187864745745548e+00	 2.431740032717905e-01	 1.157306818064571e+01
1	 1.183016708720077e+00	 2.657587570507109e-01	 1.117132095322726e+01
1	 1.177708802466750e+00	 2.883716814421504e-01	 1.074070464343412e+01
1	 1.171936624540126e+00	 3.109996754499633e-01	 1.028226313615007e+01
1	 1.165696236827171e+00	 3.336293355147576e-01	 9.797130394367720e+00
1	 1.158984185929078e+00	 3.562469744900338e-01	 9.286528847031724e+00
1	 1.151797522712798e+00	 3.788386420824467e-01	 8.751767302620232e+00
1	 1.144133820918304e+00	 4.013901467219569e-01	 8.194238382659934e+00
1	 1.135991194708451e+00	 4.238870788180404e-01	 7.615415472865102e+00
1	 1.127368315049849e+00	 4.463148353484084e-01	 7.016849193279843e+00
1	 1.204549076327078e+00	 2.229047392067060e-01	 1.162780596672813e+01
1	 1.200110774051002e+00	 2.456809517583584e-01	 1.126621795938838e+01
1	 1.195212757262247e+00	 2.684985380493998e-01	 1.087528549553265e+01
1	 1.189850130325810e+00	 2.913445853718033e-01	 1.045593921490661e+01
1	 1.184018445410218e+00	 3.142058576676106e-01	 1.000919969064437e+01
1	 1.177713723803332e+00	 3.370688131964078e-01	 9.536176335057275e+00
1	 1.170932476504299e+00	 3.599196237070955e-01	 9.038065847730632e+00
1	 1.163671723976633e+00	 3.827441950888736e-01	 8.516150196765867e+00
1	 1.155929014947322e+00	 4.055281894668601e-01	 7.971794127216087e+00
1	 1.147702444137599e+00	 4.282570486980532e-01	 7.406442194194394e+00
1	 1.138990668812702e+00	 4.509160192135453e-01	 6.821615321758206e+00
1	 1.216840393430966e+00	 2.251792773623488e-01	 1.133021543001511e+01
1	 1.212356802355885e+00	 2.481879002447696e-01	 1.097863717466404e+01
1	 1.207408805803788e+00	 2.712383190477738e-01	 1.059818751361537e+01
1	 1.201991458184212e+00	 2.943174893010117e-01	 1.018977555703584e+01
1	 1.196100266279652e+00	 3.174120398847128e-01	 9.754399078454238e+00
1	 1.189731210778864e+00	 3.405082908774421e-01	 9.293143472298567e+00
1	 1.182880767078950e+00	 3.635922729235002e-01	 8.807180261102747e+00
1	 1.175545925239990e+00	 3.866497480946335e-01	 8.297765143135681e+00
1	 1.167724208975982e+00	 4.096662322111168e-01	 7.766235574354750e+00
1	 1.159413693566543e+00	 4.326270185774718e-01	 7.214007881955436e+00
1	 1.150613022575534e+00	 4.555172030781720e-01	 6.642573910349634e+00
1	 1.229131710534368e+00	 2.274538155180211e-01	 1.105163414086877e+01
1	 1.224602830660197e+00	 2.506948487310240e-01	 1.070974774337338e+01
1	 1.219604854344699e+00	 2.739781000458331e-01	 1.033945888319939e+01
1	 1.214132786041956e+00	 2.972903932297759e-01	 9.941655616699773e+00
1	 1.208182087148427e+00	 3.206182221012702e-01	 9.517313414578012e+00
1	 1.201748697753769e+00	 3.439477685578606e-01	 9.067494170192656e+00
1	 1.194829057653032e+00	 3.672649221392482e-01	 8.593344764765057e+00
1	 1.187420126502869e+00	 3.905553010997262e-01	 8.096095180159439e+00
1	 1.179519403004286e+00	 4.138042749547273e-01	 7.577056152993888e+00
1	 1.171124942995283e+00	 4.369969884562962e-01	 7.037616367149444e+00
1	 1.162235376338345e+00	 4.601183869422883e-01	 6.479239185243324e+00
1	 1.046011838709305e+00	 4.141065482781622e-01	 8.882214066092152e+00
1	 1.037564930248593e+00	 4.348379187240830e-01	 8.221616979561416e+00
1	 1.028671564192235e+00	 4.554775659241303e-01	 7.537991959365614e+00
1	 1.019332136131226e+00	 4.760115505788748e-01	 6.833314812068853e+00
1	 1.009547606256940e+00	 4.964258562287497e-01	 6.109641630659032e+00
1	 9.993195076959104e-01	 5.167064171925492e-01	 5.369102527990143e+00
1	 9.886499532180107e-01	 5.368391472596017e-01	 4.613894863022859e+00
1	 9.775416402487633e-01	 5.568099690270316e-01	 3.846275989969304e+00
1	 9.659978541247000e-01	 5.766048437667730e-01	 3.068555565179063e+00
1	 9.540224695395332e-01	 5.962098017009265e-01	 2.283087451136753e+00
1	 9.416199501384250e-01	 6.156109725587411e-01	 1.492261261214380e+00
1	 1.057634192472302e+00	 4.187077321468711e-01	 8.558187857748770e+00
1	 1.049093429472079e+00	 4.396694511529656e-01	 7.914813634228837e+00
1	 1.040101248236386e+00	 4.605384277660148e-01	 7.248936346221689e+00
1	 1.030658048751678e+00	 4.813005678054846e-01	 6.562452567190409e+00
1	 1.020764801878120e+00	 5.019416990733694e-01	 5.857336681967027e+00
1	 1.010423057776990e+00	 5.224475996031163e-01	 5.135634890589895e+00
1	 9.996349526933814e-01	 5.428040266706026e-01	 4.399458722632236e+00
1	 9.884032140242147e-01	 5.629967464573652e-01	 3.650978090739628e+00
1	 9.767311636097610e-01	 5.830115642494709e-01	 2.892413916649955e+00
1	 9.646227191958864e-01	 6.028343550492662e-01	 2.126030367336659e+00
1	 9.520823940238123e-01	 6.224510944718811e-01	 1.354126743039103e+00
1	 1.069256546235278e+00	 4.233089160150696e-01	 8.254385977990793e+00
1	 1.060621928695730e+00	 4.445009835814379e-01	 7.627394241391847e+00
1	 1.051530932280860e+00	 4.655992896075891e-01	 6.978417120754214e+00
1	 1.041983961372580e+00	 4.865895850318852e-01	 6.309273422623745e+00
1	 1.031981997499850e+00	 5.074575419178803e-01	 5.621857329821866e+00
1	 1.021526607858687e+00	 5.281887820136757e-01	 4.918132671279983e+00
1	 1.010619952169409e+00	 5.487689060816964e-01	 4.200126719782296e+00
1	 9.992647878003310e-01	 5.691835238878922e-01	 3.469923544966441e+00
1	 9.874644730954648e-01	 5.894182847324629e-01	 2.729656953316386e+00
1	 9.752229688528294e-01	 6.094589083980005e-01	 1.981503051086810e+00
1	 9.625448379097046e-01	 6.292912163855157e-01	 1.227672470069376e+00
1	 1.080878899998233e+00	 4.279100998827580e-01	 7.970156029114388e+00
1	 1.072150427919546e+00	 4.493325160095001e-01	 7.358733512253693e+00
1	 1.062960616325657e+00	 4.706601514488539e-01	 6.725836334967991e+00
1	 1.053309873993932e+00	 4.918786022580766e-01	 6.073206955773777e+00
1	 1.043199193122128e+00	 5.129733847622828e-01	 5.402660813041503e+00
1	 1.032630157941003e+00	 5.339299644242272e-01	 4.716080856571981e+00
1	 1.021604951646094e+00	 5.547337854928831e-01	 4.015411624229687e+00
1	 1.010126361577113e+00	 5.753703013186130e-01	 3.302652889636361e+00
1	 9.981977825818115e-01	 5.958250052157493e-01	 2.579852911142890e+00
1	 9.858232185103620e-01	 6.160834617471294e-01	 1.849101316341972e+00
1	 9.730072817961023e-01	 6.361313382996451e-01	 1.112521660208201e+00
1	 1.092501253761168e+00	 4.325112837499361e-01	 7.704873375020143e+00
1	 1.083678927143527e+00	 4.541640484371521e-01	 7.108232766051377e+00
1	 1.074390300370775e+00	 4.757210132898089e-01	 6.490621485463357e+00
1	 1.064635786615735e+00	 4.971676194840585e-01	 5.853707017347133e+00
1	 1.054416388744956e+00	 5.184892276065766e-01	 5.199227466664210e+00
1	 1.043733708023937e+00	 5.396711468347709e-01	 4.528986348444784e+00
1	 1.032589951123436e+00	 5.606986649041628e-01	 3.844846938932553e+00
1	 1.020987935354560e+00	 5.815570787495272e-01	 3.148726213353442e+00
1	 1.008931092068801e+00	 6.022317256993295e-01	 2.442588399031335e+00
1	 9.964234681684848e-01	 6.227080150966529e-01	 1.728438176462747e+00
1	 9.834697256830054e-01	 6.429714602142690e-01	 1.008313564638989e+00
1	 1.104123607524082e+00	 4.371124676166038e-01	 7.457939680075894e+00
1	 1.095207426367674e+00	 4.589955808643940e-01	 6.875318529632852e+00
1	 1.085819984416216e+00	 4.807818751304540e-01	 6.272224174246666e+00
1	 1.075961699237989e+00	 5.024566367098313e-01	 5.650250453810036e+00
1	 1.065633584368334e+00	 5.240050704507618e-01	 5.011059506358125e+00
1	 1.054837258107488e+00	 5.454123292453066e-01	 4.356376810899007e+00
1	 1.043574950601434e+00	 5.666635443155353e-01	 3.687985808829513e+00
1	 1.031849509132672e+00	 5.877438561806352e-01	 3.007722127306425e+00
1	 1.019664401556434e+00	 6.086384461832040e-01	 2.317467431824215e+00
1	 1.007023717827197e+00	 6.293325684465709e-01	 1.619142938983597e+00
1	 9.939321695704136e-01	 6.498115821293877e-01	 9.147026239686130e-01
1	 1.115745961286976e+00	 4.417136514827613e-01	 7.228781539300715e+00
1	 1.106735925591986e+00	 4.638271132912256e-01	 6.659441224560654e+00
1	 1.097249668461980e+00	 4.858427369707892e-01	 6.070118853240642e+00
1	 1.087287611860693e+00	 5.077456539353947e-01	 5.462335909692389e+00
1	 1.076850779992260e+00	 5.295209132948384e-01	 4.837679888804863e+00
1	 1.065940808191658e+00	 5.511535116558346e-01	 4.197799588601667e+00
1	 1.054559950080090e+00	 5.726284237270007e-01	 3.544399997819842e+00
1	 1.042711082911450e+00	 5.939306336119368e-01	 2.879236800550999e+00
1	 1.030397711044709e+00	 6.150451666673727e-01	 2.204110523745288e+00
1	 1.017623967486499e+00	 6.359571217968834e-01	 1.520860356958108e+00
1	 1.004394613458327e+00	 6.566517040450012e-01	 8.313576771115955e-01
1	 1.127368315049849e+00	 4.463148353484084e-01	 7.016849193279843e+00
1	 1.118264424816463e+00	 4.686586457176470e-01	 6.460073935425556e+00
1	 1.108679352508066e+00	 4.909035988108147e-01	 5.883801646453509e+00
1	 1.098613524483847e+00	 5.130346711607490e-01	 5.289482703976396e+00
1	 1.088067975616736e+00	 5.350367561388065e-01	 4.678631242575383e+00
1	 1.077044358276446e+00	 5.568946940663547e-01	 4.052820692418892e+00
1	 1.065544949559402e+00	 5.785933031385589e-01	 3.413678929023185e+00
1	 1.053572656690893e+00	 6.001174110434317e-01	 2.762883054964977e+00
1	 1.041131020533627e+00	 6.214518871518355e-01	 2.102153837916031e+00
1	 1.028224217146390e+00	 6.425816751475903e-01	 1.433249832798152e+00
1	 1.014857057346746e+00	 6.634918259611092e-01	 7.579612191094545e-01
1	 1.138990668812702e+00	 4.509160192135453e-01	 6.821615321758206e+00
1	 1.129792924041105e+00	 4.734901781436583e-01	 6.276711253569711e+00
1	 1.120109036554474e+00	 4.959644606505302e-01	 5.712789244260408e+00
1	 1.109939437107452e+00	 5.183236883858939e-01	 5.131229775277470e+00
1	 1.099285171241760e+00	 5.405525989826659e-01	 4.533474864462040e+00
1	 1.088147908361853e+00	 5.626358764768669e-01	 3.921023847058800e+00
1	 1.076529949039371e+00	 5.845581825502102e-01	 3.295428783799037e+00
1	 1.064434230471001e+00	 6.063041884751205e-01	 2.658289515614590e+00
1	 1.051864330023189e+00	 6.278586076365928e-01	 2.011248387942440e+00
1	 1.038824466806871e+00	 6.492062284986921e-01	 1.355984670857699e+00
1	 1.025319501235670e+00	 6.703319478777121e-01	 6.942087043893681e-01
1	 1.150613022575534e+00	 4.555172030781720e-01	 6.642573910349634e+00
1	 1.141321423265912e+00	 4.783217105692595e-01	 6.108868190886900e+00
1	 1.131538720601204e+00	 5.010253224899361e-01	 5.556617864697963e+00
1	 1.121265349731507e+00	 5.236127056108295e-01	 4.987134690953694e+00
1	 1.110502366867334e+00	 5.460684418264167e-01	 4.401789776639185e+00
1	 1.099251458447877e+00	 5.683770588873712e-01	 3.802009596433079e+00
1	 1.087514948519997e+00	 5.905230619619543e-01	 3.189271655370907e+00
1	 1.075295804251774e+00	 6.124909659070027e-01	 2.565099812613717e+00
1	 1.062597639513394e+00	 6.342653281216439e-01	 1.931059287890663e+00
1	 1.049424716467942e+00	 6.558307818501883e-01	 1.288751375314517e+00
1	 1.035781945125100e+00	 6.771720697948095e-01	 6.398078922499242e-01
1	 1.162235376338345e+00	 4.601183869422883e-01	 6.479239185243324e+00
1	 1.152849922490885e+00	 4.831532429944503e-01	 5.956079158795204e+00
1	 1.142968404648257e+00	 5.060861843290319e-01	 5.414842277081259e+00
1	 1.132591262356013e+00	 5.289017228355558e-01	 4.856772715668709e+00
1	 1.121719562493458e+00	 5.515842846700590e-01	 4.283171840393988e+00
1	 1.110355008534519e+00	 5.741182412978676e-01	 3.695394462696759e+00
1	 1.098499948001281e+00	 5.964879413737912e-01	 3.094844753233159e+00
1	 1.086157378033213e+00	 6.186777433390787e-01	 2.482971830871408e+00
1	 1.073330949004241e+00	 6.406720486069893e-01	 1.861265047263991e+00
1	 1.060024966129602e+00	 6.624553352020790e-01	 1.231248990178974e+00
1	 1.046244389015035e+00	 6.840121917124017e-01	 5.944782316174544e-01
1	 9.416199501384250e-01	 6.156109725587411e-01	 1.492261261214380e+00
1	 9.287953462274744e-01	 6.347946162837050e-01	 6.999690780492998e-01
1	 9.155542905770797e-01	 6.537471537568762e-01	-1.003383777524687e-01
1	 9.019029923075504e-01	 6.724551973985354e-01	-9.063370009715446e-01
1	 8.878482288567273e-01	 6.909055815084219e-01	-1.715674725213346e+00
1	 8.733973360420002e-01	 7.090853922058951e-01	-2.525980280332835e+00
1	 8.585581962397351e-01	 7.269819968306050e-01	-3.334872128514083e+00
1	 8.433392247169470e-01	 7.445830726661317e-01	-4.139967522933624e+00
1	 8.277493541614975e-01	 7.618766348516912e-01	-4.938891631317790e+00
1	 8.117980174683143e-01	 7.788510633507310e-01	-5.729286665649284e+00
1	 7.954951288500001e-01	 7.954951288500001e-01	-6.508820958805734e+00
1	 9.520823940238123e-01	 6.224510944718811e-01	 1.354126743039103e+00
1	 9.391152945140595e-01	 6.418478897935279e-01	 5.791898075885711e-01
1	 9.257271160232740e-01	 6.610110110161846e-01	-2.043919788721855e-01
1	 9.119241366619902e-01	 6.799269218092460e-01	-9.944344116833932e-01
1	 8.977132091729143e-01	 6.985823101868938e-01	-1.788723588419408e+00
1	 8.831017508825175e-01	 7.169641187809249e-01	-2.585024077106502e+00
1	 8.680977317491259e-01	 7.350595745680968e-01	-3.381087269140949e+00
1	 8.527096605427205e-01	 7.528562179129182e-01	-4.174659864800010e+00
1	 8.369465692032501e-01	 7.703419307894854e-01	-4.963492437582575e+00
1	 8.208179954355866e-01	 7.875049640497287e-01	-5.745348022484471e+00
1	 8.043339636102501e-01	 8.043339636102501e-01	-6.518010672722985e+00
1	 9.625448379097046e-01	 6.292912163855157e-01	 1.227672470069376e+00
1	 9.494352428010591e-01	 6.489011633039358e-01	 4.688311052308904e-01
1	 9.358999414698121e-01	 6.682748682761483e-01	-2.992709922394987e-01
1	 9.219452810167237e-01	 6.873986462206629e-01	-1.074587063884466e+00
1	 9.075781894893646e-01	 7.062590388661032e-01	-1.855038938688306e+00
1	 8.928061657232872e-01	 7.248428453567026e-01	-2.638524620964761e+00
1	 8.776372672587778e-01	 7.431371523063274e-01	-3.422926068933810e+00
1	 8.620800963687846e-01	 7.611293631604144e-01	-4.206117115788257e+00
1	 8.461437842453429e-01	 7.788072267279392e-01	-4.985971483358441e+00
1	 8.298379734032688e-01	 7.961588647493163e-01	-5.760370837273199e+00
1	 8.131727983709998e-01	 8.131727983709998e-01	-6.527212831809324e+00
1	 9.730072817961023e-01	 6.361313382996451e-01	 1.112521660208201e+00
1	 9.597551910884740e-01	 6.559544368149283e-01	 3.685568236230314e-01
1	 9.460727669166951e-01	 6.755387255367674e-01	-3.852713722945158e-01
1	 9.319664253717509e-01	 6.948703706327861e-01	-1.147051240105125e+00
1	 9.174431698060769e-01	 7.139357675460493e-01	-1.914837986113835e+00
1	 9.025105805643084e-01	 7.327215719332285e-01	-2.686660726517911e+00
1	 8.871768027686909e-01	 7.512147300452967e-01	-3.460529700178454e+00
1	 8.714505321951391e-01	 7.694025084086192e-01	-4.234443633670265e+00
1	 8.553409992877762e-01	 7.872725226670531e-01	-5.006397212534548e+00
1	 8.388579513713611e-01	 8.048127654494942e-01	-5.774388611374579e+00
1	 8.220116331322499e-01	 8.220116331322499e-01	-6.536427034611016e+00
1	 9.834697256830054e-01	 6.429714602142690e-01	 1.008313564638989e+00
1	 9.700751393763041e-01	 6.630077103265059e-01	 2.780451195541280e-01
1	 9.562455923639225e-01	 6.828025827980423e-01	-4.626764796716971e-01
1	 9.419875697270718e-01	 7.023420950456155e-01	-1.212072317236335e+00
1	 9.273081501230523e-01	 7.216124962267327e-01	-1.968328697806965e+00
1	 9.122149954055820e-01	 7.406002985105027e-01	-2.729603599243678e+00
1	 8.967163382788652e-01	 7.592923077850046e-01	-3.494033327829420e+00
1	 8.808209680217846e-01	 7.776756536575339e-01	-4.259739335461606e+00
1	 8.645382143305497e-01	 7.957378186068262e-01	-5.024835156493951e+00
1	 8.478779293398637e-01	 8.134666661502616e-01	-5.787433420558135e+00
1	 8.308504678940001e-01	 8.308504678940001e-01	-6.545652896757524e+00
1	 9.939321695704136e-01	 6.498115821293877e-01	 9.147026239686130e-01
1	 9.803950876645493e-01	 6.700609838386684e-01	 1.969877011061560e-01
1	 9.664184178114943e-01	 6.900664400599723e-01	-5.317577440314512e-01
1	 9.520087140826864e-01	 7.098138194591513e-01	-1.269885340510587e+00
1	 9.371731304402908e-01	 7.292892249081534e-01	-2.015710284368929e+00
1	 9.219194102471076e-01	 7.484790250885244e-01	-2.767517235968161e+00
1	 9.062558737893012e-01	 7.673698855254514e-01	-3.523566425685209e+00
1	 8.901914038487204e-01	 7.859487989071573e-01	-4.282099931145668e+00
1	 8.737354293736630e-01	 8.042031145472591e-01	-5.041348087403524e+00
1	 8.568979073087760e-01	 8.221205668516193e-01	-5.799535990034439e+00
1	 8.396893026562502e-01	 8.396893026562502e-01	-6.554890050062225e+00
1	 1.004394613458327e+00	 6.566517040450012e-01	 8.313576771115955e-01
1	 9.907150359532092e-01	 6.771142573514157e-01	 1.250891218574042e-01
1	 9.765912432594107e-01	 6.973302973225582e-01	-5.927752854652621e-01
1	 9.620298584385946e-01	 7.172855438733935e-01	-1.320715561609154e+00
1	 9.470381107577920e-01	 7.369659535903109e-01	-2.057173655959172e+00
1	 9.316238250888850e-01	 7.563577516672941e-01	-2.800558800316463e+00
1	 9.157954092999983e-01	 7.754474632666368e-01	-3.549253072802686e+00
1	 8.995618396759473e-01	 7.942219441574904e-01	-4.301617142789756e+00
1	 8.829326444171172e-01	 8.126684104883521e-01	-5.055996161923190e+00
1	 8.659178852780987e-01	 8.307744675535668e-01	-5.810725764797176e+00
1	 8.485281374190000e-01	 8.485281374190000e-01	-6.564138141679755e+00
1	 1.014857057346746e+00	 6.634918259611092e-01	 7.579612191094545e-01
1	 1.001034984242285e+00	 6.841675308647481e-01	 6.206611874356383e-02
1	 9.867640687076716e-01	 7.045941545857993e-01	-6.459784974630418e-01
1	 9.720510027947967e-01	 7.247572682883416e-01	-1.364778943484110e+00
1	 9.569030910755562e-01	 7.446426822732061e-01	-2.092901850153319e+00
1	 9.413282399309146e-01	 7.642364782468121e-01	-2.828878974939375e+00
1	 9.253349448109566e-01	 7.835250410085610e-01	-3.571212231576628e+00
1	 9.089322755034644e-01	 8.024950894085326e-01	-4.318378910107901e+00
1	 8.921298594609115e-01	 8.211337064301045e-01	-5.068837056025867e+00
1	 8.749378632478313e-01	 8.394283682561041e-01	-5.821030975613220e+00
1	 8.573669721822499e-01	 8.573669721822500e-01	-6.573396833314979e+00
1	 1.025319501235670e+00	 6.703319478777121e-01	 6.942087043893681e-01
1	 1.011354932531775e+00	 6.912208043786654e-01	 7.646990457774949e-03
1	 9.969368941562768e-01	 7.118580118496960e-01	-6.916065941887530e-01
1	 9.820721471512923e-01	 7.322289927039963e-01	-1.402282634273508e+00
1	 9.667680713935828e-01	 7.523194109568380e-01	-2.123070433605617e+00
1	 9.510326547731961e-01	 7.721152048270781e-01	-2.852622292175463e+00
1	 9.348744803221760e-01	 7.916026187512237e-01	-3.589558008793617e+00
1	 9.183027113312726e-01	 8.107682346602844e-01	-4.332469583437941e+00
1	 9.013270745050462e-01	 8.295990023725169e-01	-5.079926091563005e+00
1	 8.839578412179739e-01	 8.480822689592314e-01	-5.830478700973408e+00
1	 8.662058069460000e-01	 8.662058069460000e-01	-6.582665800480715e+00
1	 1.035781945125100e+00	 6.771720697948095e-01	 6.398078922499242e-01
1	 1.021674880821681e+00	 6.982740778931678e-01	-3.842898647642401e-02
1	 1.007109719605227e+00	 7.191218691142480e-01	-7.298891245876424e-01
1	 9.920932915080820e-01	 7.397007171203575e-01	-1.433425412493504e+00
1	 9.766330517118729e-01	 7.599961396412075e-01	-2.147847879368154e+00
1	 9.607370696157297e-01	 7.799939314080919e-01	-2.871927444672721e+00
1	 9.444140158336568e-01	 7.996801964946254e-01	-3.604399900865318e+00
1	 9.276731471593713e-01	 8.190413799127453e-01	-4.343970105023299e+00
1	 9.105242895495208e-01	 8.380642983155886e-01	-5.089316355159772e+00
1	 8.929778191885266e-01	 8.567361696629487e-01	-5.839094925287983e+00
1	 8.750446417102501e-01	 8.750446417102501e-01	-6.591944731800479e+00
1	 1.046244389015035e+00	 6.840121917124017e-01	 5.944782316174544e-01
1	 1.031994829112001e+00	 7.053273514082546e-01	-7.641210659667963e-02
1	 1.017282545054521e+00	 7.263857263794559e-01	-7.610464556474302e-01
1	 1.002114435865165e+00	 7.471724415374245e-01	-1.458398105519821e+00
1	 9.864980320304253e-01	 7.676728683263137e-01	-2.167395921570915e+00
1	 9.704414844585151e-01	 7.878726579898537e-01	-2.886927577373427e+00
1	 9.539535513453987e-01	 8.077577742387658e-01	-3.615843024346627e+00
1	 9.370435829877606e-01	 8.273145251659155e-01	-4.352958179417586e+00
1	 9.197215045943361e-01	 8.465295942593203e-01	-5.097058809976296e+00
1	 9.019977971594894e-01	 8.653900703672559e-01	-5.846904593590889e+00
1	 8.838834764750000e-01	 8.838834764750000e-01	-6.601233328352670e+00
1	 7.954951288500001e-01	 7.954951288500001e-01	-6.508820958805734e+00
1	 7.788510633507308e-01	 8.117980174683144e-01	-7.297011811019726e+00
1	 7.618766348516911e-01	 8.277493541614976e-01	-8.082722196005008e+00
1	 7.445830726661320e-01	 8.433392247169471e-01	-8.864161880479369e+00
1	 7.269819968306053e-01	 8.585581962397351e-01	-9.639547261437851e+00
1	 7.090853922058953e-01	 8.733973360420000e-01	-1.040710792200685e+01
1	 6.909055815084221e-01	 8.878482288567272e-01	-1.116509310655109e+01
1	 6.724551973985359e-01	 9.019029923075501e-01	-1.191177807424801e+01
1	 6.537471537568769e-01	 9.155542905770793e-01	-1.264547029157893e+01
1	 6.347946162837055e-01	 9.287953462274742e-01	-1.336451542580734e+01
1	 6.156109725587411e-01	 9.416199501384250e-01	-1.406730310349015e+01
1	 8.043339636102501e-01	 8.043339636102501e-01	-6.518010672722985e+00
1	 7.875049640497286e-01	 8.208179954355866e-01	-7.304271944945035e+00
1	 7.703419307894857e-01	 8.369465692032504e-01	-8.088323476296747e+00
1	 7.528562179129183e-01	 8.527096605427203e-01	-8.868401205869178e+00
1	 7.350595745680969e-01	 8.680977317491256e-01	-9.642746976398264e+00
1	 7.169641187809250e-01	 8.831017508825173e-01	-1.040961498491339e+01
1	 6.985823101868941e-01	 8.977132091729141e-01	-1.116727815704210e+01
1	 6.799269218092464e-01	 9.119241366619899e-01	-1.191403440483465e+01
1	 6.610110110161852e-01	 9.257271160232733e-01	-1.264821272916585e+01
1	 6.418478897935284e-01	 9.391152945140590e-01	-1.336817912933728e+01
1	 6.224510944718810e-01	 9.520823940238121e-01	-1.407234228442615e+01
1	 8.131727983709998e-01	 8.131727983709998e-01	-6.527212831809324e+00
1	 7.961588647493163e-01	 8.298379734032689e-01	-7.311879825771744e+00
1	 7.788072267279395e-01	 8.461437842453429e-01	-8.094606239590343e+00
1	 7.611293631604142e-01	 8.620800963687844e-01	-8.873653542868059e+00
1	 7.431371523063276e-01	 8.776372672587778e-01	-9.647288389171500e+00
1	 7.248428453567030e-01	 8.928061657232867e-01	-1.041378896371557e+01
1	 7.062590388661033e-01	 9.075781894893641e-01	-1.117145125905154e+01
1	 6.873986462206633e-01	 9.219452810167234e-01	-1.191859523926163e+01
1	 6.682748682761487e-01	 9.358999414698115e-01	-1.265357085430965e+01
1	 6.489011633039364e-01	 9.494352428010588e-01	-1.337476386771484e+01
1	 6.292912163855158e-01	 9.625448379097047e-01	-1.408060146258133e+01
1	 8.220116331322499e-01	 8.220116331322499e-01	-6.536427034611016e+00
1	 8.048127654494940e-01	 8.388579513713611e-01	-7.319824235860692e+00
1	 7.872725226670528e-01	 8.553409992877761e-01	-8.101548502565530e+00
1	 7.694025084086196e-01	 8.714505321951391e-01	-8.879886213683967e+00
1	 7.512147300452968e-01	 8.871768027686908e-01	-9.653128219184529e+00
1	 7.327215719332288e-01	 9.025105805643083e-01	-1.041957608693420e+01
1	 7.139357675460497e-01	 9.174431698060764e-01	-1.117754828188633e+01
1	 6.948703706327866e-01	 9.319664253717506e-01	-1.192538623869611e+01
1	 6.755387255367677e-01	 9.460727669166946e-01	-1.266146028999297e+01
1	 6.559544368149288e-01	 9.597551910884736e-01	-1.338417541401015e+01
1	 6.361313382996451e-01	 9.730072817961023e-01	-1.409197676707819e+01
1	 8.308504678940001e-01	 8.308504678940001e-01	-6.545652896757524e+00
1	 8.134666661502615e-01	 8.478779293398638e-01	-7.328094434919059e+00
1	 7.957378186068262e-01	 8.645382143305497e-01	-8.109129217362426e+00
1	 7.776756536575337e-01	 8.808209680217844e-01	-8.887067931069431e+00
1	 7.592923077850048e-01	 8.967163382788653e-01	-9.660225027590851e+00
1	 7.406002985105028e-01	 9.122149954055819e-01	-1.042692487123804e+01
1	 7.216124962267330e-01	 9.273081501230521e-01	-1.118550782381902e+01
1	 7.023420950456158e-01	 9.419875697270713e-01	-1.193433622765997e+01
1	 6.828025827980426e-01	 9.562455923639220e-01	-1.267180024971010e+01
1	 6.630077103265065e-01	 9.700751393763041e-01	-1.339632355094973e+01
1	 6.429714602142689e-01	 9.834697256830051e-01	-1.410636874707654e+01
1	 8.396893026562502e-01	 8.396893026562502e-01	-6.554890050062225e+00
1	 8.221205668516191e-01	 8.568979073087760e-01	-7.336680134876891e+00
1	 8.042031145472591e-01	 8.737354293736630e-01	-8.117328222346803e+00
1	 7.859487989071573e-01	 8.901914038487202e-01	-8.895168725134544e+00
1	 7.673698855254515e-01	 9.062558737893011e-01	-9.668539120337428e+00
1	 7.484790250885247e-01	 9.219194102471072e-01	-1.043578600101502e+01
1	 7.292892249081535e-01	 9.371731304402904e-01	-1.119527106845799e+01
1	 7.098138194591518e-01	 9.520087140826861e-01	-1.194537702753726e+01
1	 6.900664400599729e-01	 9.664184178114940e-01	-1.268451334849195e+01
1	 6.700609838386691e-01	 9.803950876645489e-01	-1.341112185988223e+01
1	 6.498115821293877e-01	 9.939321695704137e-01	-1.412368213913977e+01
1	 8.485281374190000e-01	 8.485281374190000e-01	-6.564138141679755e+00
1	 8.307744675535665e-01	 8.659178852780989e-01	-7.345571476333729e+00
1	 8.126684104883521e-01	 8.829326444171173e-01	-8.126126195952583e+00
1	 7.942219441574904e-01	 8.995618396759469e-01	-8.904159874734956e+00
1	 7.754474632666368e-01	 9.157954092999980e-01	-9.678032457290049e+00
1	 7.563577516672944e-01	 9.316238250888849e-01	-1.044611221547044e+01
1	 7.369659535903115e-01	 9.470381107577917e-01	-1.120678165009456e+01
1	 7.172855438733938e-01	 9.620298584385945e-01	-1.195844330048766e+01
1	 6.973302973225586e-01	 9.765912432594104e-01	-1.269952542574337e+01
1	 6.771142573514164e-01	 9.907150359532090e-01	-1.342848752293317e+01
1	 6.566517040450012e-01	 1.004394613458327e+00	-1.414382564914120e+01
1	 8.573669721822499e-01	 8.573669721822500e-01	-6.573396833314979e+00
1	 8.394283682561042e-01	 8.749378632478314e-01	-7.354759006462509e+00
1	 8.211337064301045e-01	 8.921298594609115e-01	-8.135504613379274e+00
1	 8.024950894085328e-01	 9.089322755034644e-01	-8.914013843103410e+00
1	 7.835250410085610e-01	 9.253349448109562e-01	-9.688668566980009e+00
1	 7.642364782468123e-01	 9.413282399309145e-01	-1.045785820270809e+01
1	 7.446426822732063e-01	 9.569030910755558e-01	-1.121998552737928e+01
1	 7.247572682883421e-01	 9.720510027947962e-01	-1.197347240301482e+01
1	 7.045941545857998e-01	 9.867640687076713e-01	-1.271676537903797e+01
1	 6.841675308647487e-01	 1.001034984242284e+00	-1.344834113739821e+01
1	 6.634918259611091e-01	 1.014857057346746e+00	-1.416671174766022e+01
1	 8.662058069460000e-01	 8.662058069460000e-01	-6.582665800480715e+00
1	 8.480822689592312e-01	 8.839578412179739e-01	-7.364233658265695e+00
1	 8.295990023725168e-01	 9.013270745050461e-01	-8.145445705940759e+00
1	 8.107682346602842e-01	 9.183027113312724e-01	-8.924704217422226e+00
1	 7.916026187512240e-01	 9.348744803221758e-01	-9.700412466569933e+00
1	 7.721152048270784e-01	 9.510326547731961e-01	-1.047098050029713e+01
1	 7.523194109568384e-01	 9.667680713935827e-01	-1.123483086473200e+01
1	 7.322289927039969e-01	 9.820721471512921e-01	-1.199040424849958e+01
1	 7.118580118496967e-01	 9.969368941562767e-01	-1.273616500808910e+01
1	 6.912208043786661e-01	 1.011354932531775e+00	-1.347060654149955e+01
1	 6.703319478777120e-01	 1.025319501235670e+00	-1.419225647790549e+01
1	 8.750446417102501e-01	 8.750446417102501e-01	-6.591944731800479e+00
1	 8.567361696629487e-01	 8.929778191885266e-01	-7.373986731089232e+00
1	 8.380642983155886e-01	 9.105242895495208e-01	-8.155932422877557e+00
1	 8.190413799127454e-01	 9.276731471593713e-01	-8.936205652058563e+00
1	 7.996801964946257e-01	 9.444140158336568e-01	-9.713230586670253e+00
1	 7.799939314080920e-01	 9.607370696157294e-01	-1.048543740186435e+01
1	 7.599961396412075e-01	 9.766330517118722e-01	-1.125126792093934e+01
1	 7.397007171203579e-01	 9.920932915080817e-01	-1.200918117806513e+01
1	 7.191218691142488e-01	 1.007109719605227e+00	-1.275765886817736e+01
1	 6.982740778931683e-01	 1.021674880821680e+00	-1.349521065070308e+01
1	 6.771720697948095e-01	 1.035781945125100e+00	-1.422037927527926e+01
1	 8.838834764750000e-01	 8.838834764750000e-01	-6.601233328352670e+00
1	 8.653900703672558e-01	 9.019977971594894e-01	-7.384009872305082e+00
1	 8.465295942593203e-01	 9.197215045943362e-01	-8.166948395460738e+00
1	 8.273145251659157e-01	 9.370435829877607e-01	-8.948493815204564e+00
1	 8.077577742387659e-01	 9.539535513453987e-01	-9.727090700667224e+00
1	 7.878726579898540e-01	 9.704414844585149e-01	-1.050118886929166e+01
1	 7.676728683263140e-01	 9.864980320304252e-01	-1.126924894443658e+01
1	 7.471724415374250e-01	 1.002114435865165e+00	-1.202974783918969e+01
1	 7.263857263794565e-01	 1.017282545054521e+00	-1.278118413237195e+01
1	 7.053273514082554e-01	 1.031994829112000e+00	-1.352208330385577e+01
1	 6.840121917124017e-01	 1.046244389015035e+00	-1.425100279776765e+01
1	 6.156109725587411e-01	 9.416199501384250e-01	-1.406730310349015e+01
1	 5.962098017009264e-01	 9.540224695395332e-01	-1.474798496276978e+01
1	 5.766048437667730e-01	 9.659978541247000e-01	-1.541105148113191e+01
1	 5.568099690270316e-01	 9.775416402487633e-01	-1.605497798879177e+01
1	 5.368391472596018e-01	 9.886499532180105e-01	-1.667829939060126e+01
1	 5.167064171925495e-01	 9.993195076959103e-01	-1.727961471879829e+01
1	 4.964258562287501e-01	 1.009547606256940e+00	-1.785759130455305e+01
1	 4.760115505788752e-01	 1.019332136131226e+00	-1.841096855030205e+01
1	 4.554775659241308e-01	 1.028671564192235e+00	-1.893856128841637e+01
1	 4.348379187240837e-01	 1.037564930248593e+00	-1.943926271534780e+01
1	 4.141065482781622e-01	 1.046011838709305e+00	-1.991204689398382e+01
1	 6.224510944718810e-01	 9.520823940238121e-01	-1.407234228442615e+01
1	 6.028343550492661e-01	 9.646227191958865e-01	-1.475532591151990e+01
1	 5.830115642494710e-01	 9.767311636097610e-01	-1.542248639625746e+01
1	 5.629967464573653e-01	 9.884032140242146e-01	-1.607238273046277e+01
1	 5.428040266706029e-01	 9.996349526933817e-01	-1.670362580285236e+01
1	 5.224475996031166e-01	 1.010423057776989e+00	-1.731488275414106e+01
1	 5.019416990733697e-01	 1.020764801878120e+00	-1.790488099541885e+01
1	 4.813005678054852e-01	 1.030658048751678e+00	-1.847241187179013e+01
1	 4.605384277660153e-01	 1.040101248236386e+00	-1.901633395646313e+01
1	 4.396694511529662e-01	 1.049093429472078e+00	-1.953557596372823e+01
1	 4.187077321468711e-01	 1.057634192472302e+00	-2.002913927252496e+01
1	 6.292912163855158e-01	 9.625448379097047e-01	-1.408060146258133e+01
1	 6.094589083980003e-01	 9.752229688528293e-01	-1.476690384976707e+01
1	 5.894182847324629e-01	 9.874644730954647e-01	-1.543913841150809e+01
1	 5.691835238878924e-01	 9.992647878003311e-01	-1.609594622862582e+01
1	 5.487689060816965e-01	 1.010619952169409e+00	-1.673601271614170e+01
1	 5.281887820136760e-01	 1.021526607858687e+00	-1.735807178405974e+01
1	 5.074575419178806e-01	 1.031981997499849e+00	-1.796090970527845e+01
1	 4.865895850318857e-01	 1.041983961372579e+00	-1.854336867261972e+01
1	 4.655992896075897e-01	 1.051530932280860e+00	-1.910435002980634e+01
1	 4.445009835814387e-01	 1.060621928695729e+00	-1.964281716412886e+01
1	 4.233089160150698e-01	 1.069256546235278e+00	-2.015779805148094e+01
1	 6.361313382996451e-01	 9.730072817961023e-01	-1.409197676707819e+01
1	 6.160834617471291e-01	 9.858232185103623e-01	-1.478258210043055e+01
1	 5.958250052157492e-01	 9.981977825818114e-01	-1.546083923333008e+01
1	 5.753703013186131e-01	 1.010126361577113e+00	-1.612546981371456e+01
1	 5.547337854928833e-01	 1.021604951646094e+00	-1.677523237236836e+01
1	 5.339299644242276e-01	 1.032630157941003e+00	-1.740892629259675e+01
1	 5.129733847622833e-01	 1.043199193122128e+00	-1.802539553028921e+01
1	 4.918786022580771e-01	 1.053309873993932e+00	-1.862353206635565e+01
1	 4.706601514488546e-01	 1.062960616325656e+00	-1.920227907601178e+01
1	 4.493325160095007e-01	 1.072150427919546e+00	-1.976063380196285e+01
1	 4.279100998827580e-01	 1.080878899998233e+00	-2.029765012115536e+01
1	 6.429714602142689e-01	 9.834697256830051e-01	-1.410636874707654e+01
1	 6.227080150966526e-01	 9.964234681684844e-01	-1.480222980247546e+01
1	 6.022317256993296e-01	 1.008931092068801e+00	-1.548742772959780e+01
1	 5.815570787495273e-01	 1.020987935354560e+00	-1.616076327018682e+01
1	 5.606986649041629e-01	 1.032589951123436e+00	-1.682106670526561e+01
1	 5.396711468347712e-01	 1.043733708023936e+00	-1.746720163681377e+01
1	 5.184892276065770e-01	 1.054416388744956e+00	-1.809806856251629e+01
1	 4.971676194840591e-01	 1.064635786615735e+00	-1.871260822555984e+01
1	 4.757210132898095e-01	 1.074390300370775e+00	-1.930980472359992e+01
1	 4.541640484371527e-01	 1.083678927143527e+00	-1.988868836326393e+01
1	 4.325112837499361e-01	 1.092501253761168e+00	-2.044833824885995e+01
1	 6.498115821293877e-01	 9.939321695704137e-01	-1.412368213913977e+01
1	 6.293325684465706e-01	 1.007023717827196e+00	-1.482572160480491e+01
1	 6.086384461832042e-01	 1.019664401556434e+00	-1.551874955269570e+01
1	 5.877438561806352e-01	 1.031849509132672e+00	-1.620164439157567e+01
1	 5.666635443155355e-01	 1.043574950601434e+00	-1.687330683030395e+01
1	 5.454123292453070e-01	 1.054837258107488e+00	-1.753266347452764e+01
1	 5.240050704507622e-01	 1.065633584368333e+00	-1.817867025856960e+01
1	 5.024566367098319e-01	 1.075961699237989e+00	-1.881031569447565e+01
1	 4.807818751304545e-01	 1.085819984416216e+00	-1.942662392199528e+01
1	 4.589955808643948e-01	 1.095207426367674e+00	-2.002665754518021e+01
1	 4.371124676166038e-01	 1.104123607524082e+00	-2.060952024328287e+01
1	 6.566517040450012e-01	 1.004394613458327e+00	-1.414382564914120e+01
1	 6.359571217968834e-01	 1.017623967486498e+00	-1.485293737928458e+01
1	 6.150451666673726e-01	 1.030397711044709e+00	-1.555465678615884e+01
1	 5.939306336119369e-01	 1.042711082911450e+00	-1.624793856335010e+01
1	 5.726284237270008e-01	 1.054559950080089e+00	-1.693175256647586e+01
1	 5.511535116558349e-01	 1.065940808191658e+00	-1.760508722781291e+01
1	 5.295209132948389e-01	 1.076850779992260e+00	-1.826695284770012e+01
1	 5.077456539353953e-01	 1.087287611860692e+00	-1.891638474466981e+01
1	 4.858427369707898e-01	 1.097249668461979e+00	-1.955244624772986e+01
1	 4.638271132912263e-01	 1.106735925591985e+00	-2.017423151581184e+01
1	 4.417136514827614e-01	 1.115745961286976e+00	-2.078086817108352e+01
1	 6.634918259611091e-01	 1.014857057346746e+00	-1.416671174766022e+01
1	 6.425816751475903e-01	 1.028224217146390e+00	-1.488376195151723e+01
1	 6.214518871518357e-01	 1.041131020533627e+00	-1.559500761317038e+01
1	 6.001174110434320e-01	 1.053572656690893e+00	-1.629947837157836e+01
1	 5.785933031385591e-01	 1.065544949559402e+00	-1.699621198766074e+01
1	 5.568946940663551e-01	 1.077044358276446e+00	-1.768425757968916e+01
1	 5.350367561388070e-01	 1.088067975616736e+00	-1.836267877650923e+01
1	 5.130346711607495e-01	 1.098613524483847e+00	-1.903055677053056e+01
1	 4.909035988108152e-01	 1.108679352508065e+00	-1.968699325356110e+01
1	 4.686586457176479e-01	 1.118264424816463e+00	-2.033111321983221e+01
1	 4.463148353484084e-01	 1.127368315049849e+00	-2.096206762194555e+01
1	 6.703319478777120e-01	 1.025319501235670e+00	-1.419225647790549e+01
1	 6.492062284986920e-01	 1.038824466806871e+00	-1.491808484810162e+01
1	 6.278586076365926e-01	 1.051864330023189e+00	-1.563966600535467e+01
1	 6.063041884751207e-01	 1.064434230471001e+00	-1.635610323555018e+01
1	 5.845581825502105e-01	 1.076529949039371e+00	-1.706650100145691e+01
1	 5.626358764768672e-01	 1.088147908361853e+00	-1.776996800162425e+01
1	 5.405525989826665e-01	 1.099285171241760e+00	-1.846562018765541e+01
1	 5.183236883858944e-01	 1.109939437107452e+00	-1.915258372177757e+01
1	 4.959644606505308e-01	 1.120109036554474e+00	-1.982999785743976e+01
1	 4.734901781436591e-01	 1.129792924041105e+00	-2.049701772662175e+01
1	 4.509160192135453e-01	 1.138990668812702e+00	-2.115281701862688e+01
1	 6.771720697948095e-01	 1.035781945125100e+00	-1.422037927527926e+01
1	 6.558307818501883e-01	 1.049424716467942e+00	-1.495580005920788e+01
1	 6.342653281216438e-01	 1.062597639513393e+00	-1.568850143043202e+01
1	 6.124909659070029e-01	 1.075295804251774e+00	-1.641765906266465e+01
1	 5.905230619619546e-01	 1.087514948519997e+00	-1.714244295353952e+01
1	 5.683770588873716e-01	 1.099251458447877e+00	-1.786202030967299e+01
1	 5.460684418264172e-01	 1.110502366867334e+00	-1.857555843015393e+01
1	 5.236127056108301e-01	 1.121265349731507e+00	-1.928222757036363e+01
1	 5.010253224899366e-01	 1.131538720601204e+00	-1.998120376851050e+01
1	 4.783217105692602e-01	 1.141321423265912e+00	-2.067167161790920e+01
1	 4.555172030781719e-01	 1.150613022575534e+00	-2.135282696882422e+01
1	 6.840121917124017e-01	 1.046244389015035e+00	-1.425100279776765e+01
1	 6.624553352020789e-01	 1.060024966129602e+00	-1.499680581539952e+01
1	 6.406720486069893e-01	 1.073330949004241e+00	-1.574138857741386e+01
1	 6.186777433390788e-01	 1.086157378033213e+00	-1.648399792402504e+01
1	 5.964879413737916e-01	 1.098499948001280e+00	-1.722386825575665e+01
1	 5.741182412978680e-01	 1.110355008534519e+00	-1.796022424724789e+01
1	 5.515842846700593e-01	 1.121719562493458e+00	-1.869228359905987e+01
1	 5.289017228355563e-01	 1.132591262356013e+00	-1.941925980936368e+01
1	 5.060861843290325e-01	 1.142968404648257e+00	-2.014036494755225e+01
1	 4.831532429944511e-01	 1.152849922490885e+00	-2.085481241215401e+01
1	 4.601183869422882e-01	 1.162235376338345e+00	-2.156181965592669e+01
1	 4.141065482781622e-01	 1.046011838709305e+00	-1.991204689398382e+01
1	 3.932972896413123e-01	 1.054012448698682e+00	-2.036796020699941e+01
1	 3.724238474895377e-01	 1.061567462705179e+00	-2.080468670354533e+01
1	 3.514997710187807e-01	 1.068678113852559e+00	-2.122163831759170e+01
1	 3.305384299522138e-01	 1.075346151886617e+00	-2.161827261761552e+01
1	 3.095529917259615e-01	 1.081573827976446e+00	-2.199409373142554e+01
1	 2.885563999111744e-01	 1.087363878431055e+00	-2.234865304612969e+01
1	 2.675613539221366e-01	 1.092719507434895e+00	-2.268154968628544e+01
1	 2.465802900510743e-01	 1.097644368907271e+00	-2.299243077477841e+01
1	 2.256253638614278e-01	 1.102142547591368e+00	-2.328099148236278e+01
1	 2.047084339626188e-01	 1.106218539478505e+00	-2.354697487307901e+01
1	 4.187077321468711e-01	 1.057634192472302e+00	-2.002913927252496e+01
1	 3.976672595254846e-01	 1.065723698129262e+00	-2.050898756320389e+01
1	 3.765618902389651e-01	 1.073362656736697e+00	-2.096767984221455e+01
1	 3.554053240298771e-01	 1.080552315119742e+00	-2.140459245508672e+01
1	 3.342110791738727e-01	 1.087294442465818e+00	-2.181915592343264e+01
1	 3.129924694119229e-01	 1.093591314957006e+00	-2.221085569227730e+01
1	 2.917625821326362e-01	 1.099445699305754e+00	-2.257923261724774e+01
1	 2.705342578549005e-01	 1.104860835298564e+00	-2.292388319742099e+01
1	 2.493200710519669e-01	 1.109840417453845e+00	-2.324445956125728e+01
1	 2.281323123490928e-01	 1.114388575900822e+00	-2.354066921453384e+01
1	 2.069829721180270e-01	 1.118509856586275e+00	-2.381227456053190e+01
1	 4.233089160150698e-01	 1.069256546235278e+00	-2.015779805148094e+01
1	 4.020372294090627e-01	 1.077434947559639e+00	-2.066114500460383e+01
1	 3.806999329877463e-01	 1.085157850767857e+00	-2.114141532285023e+01
1	 3.593108770403063e-01	 1.092426516386447e+00	-2.159794981347093e+01
1	 3.378837283948748e-01	 1.099242733044450e+00	-2.203015188367404e+01
1	 3.164319470972685e-01	 1.105608801936938e+00	-2.243748811378083e+01
1	 2.949687643535532e-01	 1.111527520179795e+00	-2.281948853536454e+01
1	 2.735071617872199e-01	 1.117002163161573e+00	-2.317574662289290e+01
1	 2.520598520525447e-01	 1.122036465999790e+00	-2.350591900914750e+01
1	 2.306392608366009e-01	 1.126634604209704e+00	-2.380972493627512e+01
1	 2.092575102734646e-01	 1.130801173693560e+00	-2.408694545572294e+01
1	 4.279100998827580e-01	 1.080878899998233e+00	-2.029765012115536e+01
1	 4.064071992920467e-01	 1.089146196989810e+00	-2.082407349618841e+01
1	 3.848379757358810e-01	 1.096953044798660e+00	-2.132554661828904e+01
1	 3.632164300500685e-01	 1.104300717652674e+00	-2.180137480497147e+01
1	 3.415563776152200e-01	 1.111191023622512e+00	-2.225093428367950e+01
1	 3.198714247819980e-01	 1.117626288916241e+00	-2.267367259397893e+01
1	 2.981749465739252e-01	 1.123609341053177e+00	-2.306910866025401e+01
1	 2.764800657190950e-01	 1.129143491023926e+00	-2.343683254610969e+01
1	 2.547996330528077e-01	 1.134232514545106e+00	-2.377650490356504e+01
1	 2.331462093239524e-01	 1.138880632518015e+00	-2.408785613179404e+01
1	 2.115320484289314e-01	 1.143092490800359e+00	-2.437068526162808e+01
1	 4.325112837499361e-01	 1.092501253761168e+00	-2.044833824885995e+01
1	 4.107771691744364e-01	 1.100857446419777e+00	-2.099742928103273e+01
1	 3.889760184833697e-01	 1.108748238829107e+00	-2.151974194720419e+01
1	 3.671219830591637e-01	 1.116174918918422e+00	-2.201454612214654e+01
1	 3.452290268349087e-01	 1.123139314200007e+00	-2.248119079026377e+01
1	 3.233109024661119e-01	 1.129643775894916e+00	-2.291910427993394e+01
1	 3.013811287937522e-01	 1.135691161925902e+00	-2.332779413425307e+01
1	 2.794529696505255e-01	 1.141284818885619e+00	-2.370684663203724e+01
1	 2.575394140527559e-01	 1.146428563089792e+00	-2.405592597494037e+01
1	 2.356531578111472e-01	 1.151126660825756e+00	-2.437477315831089e+01
1	 2.138065865844276e-01	 1.155383807906674e+00	-2.466320454492676e+01
1	 4.371124676166038e-01	 1.104123607524082e+00	-2.060952024328287e+01
1	 4.151471390562320e-01	 1.112568695849540e+00	-2.118088307618720e+01
1	 3.931140612302117e-01	 1.120543432859196e+00	-2.172368349800944e+01
1	 3.710275360675918e-01	 1.128049120183693e+00	-2.223715598628861e+01
1	 3.489016760539405e-01	 1.135087604776933e+00	-2.272062222111280e+01
1	 3.267503801496099e-01	 1.141661262872963e+00	-2.317349115462158e+01
1	 3.045873110130343e-01	 1.147772982797968e+00	-2.359525868317953e+01
1	 2.824258735815118e-01	 1.153426146746654e+00	-2.398550693869573e+01
1	 2.602791950523892e-01	 1.158624611633849e+00	-2.434390321768602e+01
1	 2.381601062981852e-01	 1.163372689132924e+00	-2.467019856853171e+01
1	 2.160811247399532e-01	 1.167675125012503e+00	-2.496422605896496e+01
1	 4.417136514827614e-01	 1.115745961286976e+00	-2.078086817108352e+01
1	 4.195171089374332e-01	 1.124279945279097e+00	-2.137411931882560e+01
1	 3.972521039764076e-01	 1.132338626888928e+00	-2.193706670126765e+01
1	 3.749330890753527e-01	 1.139923321448485e+00	-2.246890944280287e+01
1	 3.525743252723156e-01	 1.147035895353290e+00	-2.296894185984227e+01
1	 3.301898578324918e-01	 1.153678749850381e+00	-2.343655336839371e+01
1	 3.077934932317715e-01	 1.159854803669376e+00	-2.387122796094230e+01
1	 2.853987775120535e-01	 1.165567474607031e+00	-2.427254327168808e+01
1	 2.630189760517078e-01	 1.170820660177278e+00	-2.464016925144763e+01
1	 2.406670547850666e-01	 1.175618717439521e+00	-2.497386647546679e+01
1	 2.183556628955082e-01	 1.179966442117847e+00	-2.527348410903298e+01
1	 4.463148353484084e-01	 1.127368315049849e+00	-2.096206762194555e+01
1	 4.238870788180403e-01	 1.135991194708451e+00	-2.157683545902154e+01
1	 4.013901467219571e-01	 1.144133820918303e+00	-2.215959954710604e+01
1	 3.788386420824468e-01	 1.151797522712798e+00	-2.270952370017108e+01
1	 3.562469744900341e-01	 1.158984185929079e+00	-2.322587481342413e+01
1	 3.336293355147580e-01	 1.165696236827171e+00	-2.370802261179401e+01
1	 3.109996754499638e-01	 1.171936624540127e+00	-2.415543893469108e+01
1	 2.883716814421509e-01	 1.177708802466749e+00	-2.456769657865442e+01
1	 2.657587570507115e-01	 1.183016708720077e+00	-2.494446772186507e+01
1	 2.431740032717912e-01	 1.187864745745547e+00	-2.528552195653856e+01
1	 2.206302010510924e-01	 1.192257759222705e+00	-2.559072395690443e+01
1	 4.509160192135453e-01	 1.138990668812702e+00	-2.115281701862688e+01
1	 4.282570486980531e-01	 1.147702444137599e+00	-2.178874129582508e+01
1	 4.055281894668601e-01	 1.155929014947321e+00	-2.239100194442258e+01
1	 3.827441950888737e-01	 1.163671723976633e+00	-2.295872750938542e+01
1	 3.599196237070956e-01	 1.170932476504298e+00	-2.349115740895374e+01
1	 3.370688131964081e-01	 1.177713723803332e+00	-2.398764152677261e+01
1	 3.142058576676110e-01	 1.184018445410219e+00	-2.444763930761078e+01
1	 2.913445853718038e-01	 1.189850130325810e+00	-2.487071838080066e+01
1	 2.684985380494003e-01	 1.195212757262246e+00	-2.525655273802184e+01
1	 2.456809517583592e-01	 1.200110774051002e+00	-2.560492049417310e+01
1	 2.229047392067060e-01	 1.204549076327078e+00	-2.591570126183164e+01
1	 4.555172030781719e-01	 1.150613022575534e+00	-2.135282696882422e+01
1	 4.326270185774718e-01	 1.159413693566544e+00	-2.200955835357740e+01
1	 4.096662322111168e-01	 1.167724208975982e+00	-2.263100511892703e+01
1	 3.866497480946336e-01	 1.175545925239990e+00	-2.321626058099462e+01
1	 3.635922729235004e-01	 1.182880767078950e+00	-2.376453662697765e+01
1	 3.405082908774424e-01	 1.189731210778864e+00	-2.427516315358483e+01
1	 3.174120398847132e-01	 1.196100266279651e+00	-2.474758697669697e+01
1	 2.943174893010123e-01	 1.201991458184212e+00	-2.518137023888032e+01
1	 2.712383190477745e-01	 1.207408805803788e+00	-2.557618834398806e+01
1	 2.481879002447703e-01	 1.212356802355885e+00	-2.593182745029459e+01
1	 2.251792773623489e-01	 1.216840393430966e+00	-2.624818155542085e+01
1	 4.601183869422882e-01	 1.162235376338345e+00	-2.156181965592669e+01
1	 4.369969884562961e-01	 1.171124942995283e+00	-2.223901929564597e+01
1	 4.138042749547273e-01	 1.179519403004286e+00	-2.287935104730101e+01
1	 3.905553010997264e-01	 1.187420126502869e+00	-2.348187303712498e+01
1	 3.672649221392484e-01	 1.194829057653032e+00	-2.404576956882022e+01
1	 3.439477685578608e-01	 1.201748697753768e+00	-2.457035041087585e+01
1	 3.206182221012706e-01	 1.208182087148427e+00	-2.505504952306554e+01
1	 2.972903932297764e-01	 1.214132786041956e+00	-2.549942325121677e+01
1	 2.739781000458337e-01	 1.219604854344699e+00	-2.590314802207127e+01
1	 2.506948487310247e-01	 1.224602830660197e+00	-2.626601757235060e+01
1	 2.274538155180211e-01	 1.229131710534368e+00	-2.658793974801438e+01
1	 2.047084339626188e-01	 1.106218539478505e+00	-2.354697487307901e+01
1	 1.838410471820675e-01	 1.109877231672737e+00	-2.380923407378608e+01
1	 1.630344251371875e-01	 1.113123881798189e+00	-2.404635613012565e+01
1	 1.422994522082913e-01	 1.115964097050903e+00	-2.425849490445434e+01
1	 1.216466649059655e-01	 1.118403812994212e+00	-2.444584925428362e+01
1	 1.010862426134333e-01	 1.120449272191891e+00	-2.460866092474885e+01
1	 8.062799968276181e-02	 1.122107002770802e+00	-2.474721235607844e+01
1	 6.028137885658343e-02	 1.123383797000342e+00	-2.486182442175373e+01
1	 4.005544598153728e-02	 1.124286689971457e+00	-2.495285411264508e+01
1	 1.995888597471339e-02	 1.124822938453228e+00	-2.502069218190891e+01
1	 0.000000000000000e+00	 1.125000000000000e+00	-2.506576076483961e+01
1	 2.069829721180270e-01	 1.118509856586275e+00	-2.381227456053190e+01
1	 1.858837254842960e-01	 1.122209200915521e+00	-2.408096350561745e+01
1	 1.648459187499743e-01	 1.125491924930832e+00	-2.432346315136815e+01
1	 1.438805572329332e-01	 1.128363698130427e+00	-2.453992293692782e+01
1	 1.229982945160992e-01	 1.130830522028343e+00	-2.473054134927482e+01
1	 1.022094230869531e-01	 1.132898708550173e+00	-2.489556364091294e+01
1	 8.152386634591845e-02	 1.134574858357522e+00	-2.503527945252076e+01
1	 6.095117195499002e-02	 1.135865839189446e+00	-2.515002035787742e+01
1	 4.050050649243606e-02	 1.136778764304567e+00	-2.524015734794393e+01
1	 2.018065137442525e-02	 1.137320971102731e+00	-2.530609827043107e+01
1	 0.000000000000000e+00	 1.137500000000000e+00	-2.534828524053454e+01
1	 2.092575102734646e-01	 1.130801173693560e+00	-2.408694545572294e+01
1	 1.879264037867324e-01	 1.134541170157915e+00	-2.436184600989258e+01
1	 1.666574123631051e-01	 1.137859968063168e+00	-2.460953046172606e+01
1	 1.454616622580137e-01	 1.140763299209717e+00	-2.483014367895937e+01
1	 1.243499241267251e-01	 1.143257231062304e+00	-2.502388357746306e+01
1	 1.033326035609789e-01	 1.145348144908337e+00	-2.519099866665475e+01
1	 8.241973300955530e-02	 1.147042713944167e+00	-2.533178548993216e+01
1	 6.162096505381248e-02	 1.148347881378508e+00	-2.544658597905098e+01
1	 4.094556700364869e-02	 1.149270838637658e+00	-2.553578474090344e+01
1	 2.040241677431206e-02	 1.149819003752230e+00	-2.559980629455502e+01
1	 0.000000000000000e+00	 1.150000000000000e+00	-2.563911227569232e+01
1	 2.115320484289314e-01	 1.143092490800359e+00	-2.437068526162808e+01
1	 1.899690820893766e-01	 1.146873139399917e+00	-2.465158632620989e+01
1	 1.684689059765799e-01	 1.150228011195196e+00	-2.490426901961502e+01
1	 1.470427672835328e-01	 1.153162900288774e+00	-2.512887349475698e+01
1	 1.257015537378434e-01	 1.155683940096093e+00	-2.532559690229379e+01
1	 1.044557840355105e-01	 1.157797581266385e+00	-2.549469076618205e+01
1	 8.331559967367232e-02	 1.159510569530738e+00	-2.563645824441136e+01
1	 6.229075815305083e-02	 1.160829923567528e+00	-2.575125129543526e+01
1	 4.139062751517519e-02	 1.161762912970730e+00	-2.583946777031008e+01
1	 2.062418217437382e-02	 1.162317036401724e+00	-2.590154844990862e+01
1	 0.000000000000000e+00	 1.162500000000000e+00	-2.593797404581690e+01
1	 2.138065865844276e-01	 1.155383807906674e+00	-2.466320454492676e+01
1	 1.920117603922285e-01	 1.159205108641528e+00	-2.494990175844044e+01
1	 1.702803995903987e-01	 1.162596054326918e+00	-2.520740208309278e+01
1	 1.486238723094905e-01	 1.165562501367597e+00	-2.543584081813678e+01
1	 1.270531833494540e-01	 1.168110649129712e+00	-2.563541416110880e+01
1	 1.055789645105481e-01	 1.170247017624314e+00	-2.580637641586408e+01
1	 8.421146633826952e-02	 1.171978425117234e+00	-2.594903707605269e+01
1	 6.296055125270505e-02	 1.173311965756507e+00	-2.606375780612050e+01
1	 4.183568802701556e-02	 1.174254987303784e+00	-2.615094934138525e+01
1	 2.084594757461052e-02	 1.174815069051214e+00	-2.621106832805011e+01
1	 0.000000000000000e+00	 1.175000000000000e+00	-2.624461412319883e+01
1	 2.160811247399532e-01	 1.167675125012503e+00	-2.496422605896496e+01
1	 1.940544386952883e-01	 1.171537077882749e+00	-2.525652151345077e+01
1	 1.720918932045614e-01	 1.174964097458333e+00	-2.551866456250951e+01
1	 1.502049773358868e-01	 1.177962102446187e+00	-2.575078551728105e+01
1	 1.284048129615569e-01	 1.180537358163162e+00	-2.595307944020361e+01
1	 1.067021449860916e-01	 1.182696453982126e+00	-2.612580318780147e+01
1	 8.510733300334690e-02	 1.184446280703655e+00	-2.626927231926219e+01
1	 6.363034435277519e-02	 1.185794007945443e+00	-2.638385789444523e+01
1	 4.228074853916980e-02	 1.186747061636820e+00	-2.646998318439290e+01
1	 2.106771297502218e-02	 1.187313101700699e+00	-2.652812031668240e+01
1	 0.000000000000000e+00	 1.187500000000000e+00	-2.655878687708440e+01
1	 2.183556628955082e-01	 1.179966442117847e+00	-2.527348410903298e+01
1	 1.960971169985559e-01	 1.183869047123579e+00	-2.557118608115465e+01
1	 1.739033868190682e-01	 1.187332140589441e+00	-2.583780241361787e+01
1	 1.517860823627217e-01	 1.190361703524544e+00	-2.607345829919750e+01
1	 1.297564425741521e-01	 1.192964067196440e+00	-2.627834748894509e+01
1	 1.078253254621411e-01	 1.195145890339820e+00	-2.645272917192444e+01
1	 8.600319966890443e-02	 1.196914136290001e+00	-2.659692471117899e+01
1	 6.430013745326123e-02	 1.198276050134339e+00	-2.671131426110891e+01
1	 4.272580905163788e-02	 1.199239135969837e+00	-2.679633329083617e+01
1	 2.128947837560878e-02	 1.199811134350180e+00	-2.685246903735359e+01
1	 0.000000000000000e+00	 1.200000000000000e+00	-2.688025691133423e+01
1	 2.206302010510924e-01	 1.192257759222705e+00	-2.559072395690443e+01
1	 1.981397953020312e-01	 1.196201016364018e+00	-2.589364665291312e+01
1	 1.757148804339190e-01	 1.199700183720243e+00	-2.616457206822194e+01
1	 1.533671873899952e-01	 1.202761304602666e+00	-2.640362015101760e+01
1	 1.311080721872396e-01	 1.205390776229548e+00	-2.661098317012814e+01
1	 1.089485059386964e-01	 1.207595326697396e+00	-2.678692243383600e+01
1	 8.689906633494215e-02	 1.209381991876273e+00	-2.693176485545168e+01
1	 6.496993055416314e-02	 1.210758092323192e+00	-2.704589939234910e+01
1	 4.317086956441985e-02	 1.211731210302836e+00	-2.712977338452680e+01
1	 2.151124377637034e-02	 1.212309166999656e+00	-2.718388881793979e+01
1	 0.000000000000000e+00	 1.212500000000000e+00	-2.720879853686598e+01
1	 2.229047392067060e-01	 1.204549076327078e+00	-2.591570126183164e+01
1	 2.001824736057144e-01	 1.208532985604066e+00	-2.622366457554203e+01
1	 1.775263740491137e-01	 1.212068226850737e+00	-2.649873989968516e+01
1	 1.549482924177072e-01	 1.215160905680556e+00	-2.674104181550019e+01
1	 1.324597018008195e-01	 1.217817485262486e+00	-2.695076094398483e+01
1	 1.100716864157577e-01	 1.220044763054856e+00	-2.712816050584915e+01
1	 8.779493300146010e-02	 1.221849847462470e+00	-2.727357271884527e+01
1	 6.563972365548093e-02	 1.223240134512003e+00	-2.738739506067892e+01
1	 4.361593007751567e-02	 1.224223284635816e+00	-2.747008642503936e+01
1	 2.173300917730685e-02	 1.224807199649127e+00	-2.752216319742342e+01
1	 0.000000000000000e+00	 1.225000000000000e+00	-2.754419527639616e+01
1	 2.251792773623489e-01	 1.216840393430966e+00	-2.624818155542085e+01
1	 2.022251519096053e-01	 1.220864954843724e+00	-2.656101083841050e+01
1	 1.793378676646525e-01	 1.224436269980924e+00	-2.684008172083107e+01
1	 1.565293974458579e-01	 1.227560506758212e+00	-2.708550329832307e+01
1	 1.338113314148917e-01	 1.230244194295253e+00	-2.729746438346498e+01
1	 1.111948668933249e-01	 1.232494199412197e+00	-2.747622990887020e+01
1	 8.869079966845822e-02	 1.234317703048592e+00	-2.762213715835643e+01
1	 6.630951675721461e-02	 1.235722176700773e+00	-2.773559185588397e+01
1	 4.406099059092536e-02	 1.236715358968778e+00	-2.781706414125816e+01
1	 2.195477457841831e-02	 1.237305232298594e+00	-2.786708446068689e+01
1	 0.000000000000000e+00	 1.237500000000000e+00	-2.788623939919793e+01
1	 2.274538155180211e-01	 1.229131710534368e+00	-2.658793974801438e+01
1	 2.042678302137041e-01	 1.233196924082991e+00	-2.690546559131303e+01
1	 1.811493612805352e-01	 1.236804313110804e+00	-2.718838231197050e+01
1	 1.581105024744471e-01	 1.239960107835634e+00	-2.743679340493682e+01
1	 1.351629610294562e-01	 1.242670903327850e+00	-2.765088571860059e+01
1	 1.123180473713980e-01	 1.244943635769421e+00	-2.783092570296958e+01
1	 8.958666633593650e-02	 1.246785558634639e+00	-2.797725547670188e+01
1	 6.697930985936418e-02	 1.248204218889501e+00	-2.809028874415788e+01
1	 4.450605110464890e-02	 1.249207433301722e+00	-2.817050659291197e+01
1	 2.217653997970472e-02	 1.249803264948056e+00	-2.821845320121652e+01
1	 0.000000000000000e+00	 1.250000000000000e+00	-2.823473148377316e+01
1	 1.250000000000000e+00	 0.000000000000000e+00	 1.457214035857826e+01
1	 1.249803264948056e+00	 2.217653997970400e-02	 1.436331536602274e+01
1	 1.249207433301722e+00	 4.450605110464827e-02	 1.412192707344246e+01
1	 1.248204218889501e+00	 6.697930985936361e-02	 1.384811154929919e+01
1	 1.246785558634639e+00	 8.958666633593600e-02	 1.354208225783967e+01
1	 1.244943635769421e+00	 1.123180473713976e-01	 1.320413230137916e+01
1	 1.242670903327850e+00	 1.351629610294558e-01	 1.283463641857052e+01
1	 1.239960107835634e+00	 1.581105024744469e-01	 1.243405271401856e+01
1	 1.236804313110804e+00	 1.811493612805350e-01	 1.200292409505697e+01
1	 1.233196924082991e+00	 2.042678302137040e-01	 1.154187939221460e+01
1	 1.229131710534368e+00	 2.274538155180211e-01	 1.105163414086877e+01
1	 1.262500000000000e+00	 0.000000000000000e+00	 1.409598289826241e+01
1	 1.262301297597516e+00	 2.239830538099040e-02	 1.389305648186738e+01
1	 1.261699507634656e+00	 4.495111161837182e-02	 1.365851456102704e+01
1	 1.260686261078208e+00	 6.764910296151318e-02	 1.339246670916841e+01
1	 1.259253414220649e+00	 9.048253300341427e-02	 1.309509655599905e+01
1	 1.257393072126586e+00	 1.134412278494708e-01	 1.276666399834039e+01
1	 1.255097612360361e+00	 1.365145906440204e-01	 1.240750718095046e+01
1	 1.252359708912939e+00	 1.596916075030361e-01	 1.201804422358545e+01
1	 1.249172356240532e+00	 1.829608548964178e-01	 1.159877467095217e+01
1	 1.245528893322062e+00	 2.063105085178028e-01	 1.115028064284490e+01
1	 1.241423027637528e+00	 2.297283536736933e-01	 1.067322766265308e+01
1	 1.275000000000000e+00	 0.000000000000000e+00	 1.363868292370854e+01
1	 1.274799330246976e+00	 2.262007078210185e-02	 1.344116545945929e+01
1	 1.274191581967590e+00	 4.539617213178149e-02	 1.321296443572740e+01
1	 1.273168303266915e+00	 6.831889606324687e-02	 1.295416336150333e+01
1	 1.271721269806660e+00	 9.137839967041235e-02	 1.266491651092144e+01
1	 1.269842508483751e+00	 1.145644083270380e-01	 1.234545110314470e+01
1	 1.267524321392873e+00	 1.378662202580925e-01	 1.199606926605786e+01
1	 1.264759309990245e+00	 1.612727125311867e-01	 1.161714976089599e+01
1	 1.261540399370259e+00	 1.847723485119565e-01	 1.120914944528352e+01
1	 1.257860862561133e+00	 2.083531868216938e-01	 1.077260445273395e+01
1	 1.253714344740687e+00	 2.320028918293363e-01	 1.030813106747529e+01
1	 1.287500000000000e+00	 0.000000000000000e+00	 1.319969118774289e+01
1	 1.287297362896436e+00	 2.284183618303835e-02	 1.300710731252147e+01
1	 1.286683656300524e+00	 4.584123264487731e-02	 1.278475643383178e+01
1	 1.285650345455622e+00	 6.898868916456465e-02	 1.253269641428411e+01
1	 1.284189125392670e+00	 9.227426633693030e-02	 1.225105263745504e+01
1	 1.282291944840916e+00	 1.156875888040993e-01	 1.194002015731071e+01
1	 1.279951030425384e+00	 1.392178498716724e-01	 1.159986564507764e+01
1	 1.277158911067551e+00	 1.628538175588988e-01	 1.123092911155467e+01
1	 1.273908442499985e+00	 1.865838421271512e-01	 1.083362538315227e+01
1	 1.270192831800205e+00	 2.103958651253769e-01	 1.040844531045638e+01
1	 1.266005661843847e+00	 2.342774299849499e-01	 9.955956688850495e+00
1	 1.300000000000000e+00	 0.000000000000000e+00	 1.277847956808403e+01
1	 1.299795395545896e+00	 2.306360158379989e-02	 1.259036763117306e+01
1	 1.299175730633459e+00	 4.628629315765927e-02	 1.237339030177178e+01
1	 1.298132387644330e+00	 6.965848226546656e-02	 1.212758020210743e+01
1	 1.296656980978680e+00	 9.317013300296803e-02	 1.185303427680032e+01
1	 1.294741381198081e+00	 1.168107692806546e-01	 1.154991591229869e+01
1	 1.292377739457895e+00	 1.405694794847599e-01	 1.121845686722594e+01
1	 1.289558512144857e+00	 1.644349225861723e-01	 1.085895899248857e+01
1	 1.286276485629712e+00	 1.883953357420020e-01	 1.047179572023231e+01
1	 1.282524801039276e+00	 2.124385434288523e-01	 1.005741330117956e+01
1	 1.278296978947007e+00	 2.365519681405341e-01	 9.616331770542505e+00
1	 1.312500000000000e+00	 0.000000000000000e+00	 1.237454006139560e+01
1	 1.312293428195356e+00	 2.328536698438650e-02	 1.219045160210084e+01
1	 1.311667804966393e+00	 4.673135367012735e-02	 1.197838484325839e+01
1	 1.310614429833036e+00	 7.032827536595254e-02	 1.173834756110950e+01
1	 1.309124836564690e+00	 9.406599966852559e-02	 1.147040870001691e+01
1	 1.307190817555246e+00	 1.179339497567040e-01	 1.117470046237045e+01
1	 1.304804448490407e+00	 1.419211090973551e-01	 1.085142022270099e+01
1	 1.301958113222162e+00	 1.660160276130072e-01	 1.050083224569394e+01
1	 1.298644528759440e+00	 1.902068293565088e-01	 1.012326918798089e+01
1	 1.294856770278347e+00	 2.144812217321199e-01	 9.719133363968661e+00
1	 1.290588296050166e+00	 2.388265062960890e-01	 9.288897756552075e+00
1	 1.325000000000000e+00	 0.000000000000000e+00	 1.198738383427935e+01
1	 1.324791460844817e+00	 2.350713238479816e-02	 1.180688308419285e+01
1	 1.324159879299327e+00	 4.717641418228159e-02	 1.159927702035365e+01
1	 1.323096472021744e+00	 7.099806846602269e-02	 1.136454895625203e+01
1	 1.321592692150699e+00	 9.496186633360294e-02	 1.110274026227564e+01
1	 1.319640253912411e+00	 1.190571302322476e-01	 1.081395242653268e+01
1	 1.317231157522919e+00	 1.432727387094580e-01	 1.049834895301419e+01
1	 1.314357714299468e+00	 1.675971326394035e-01	 1.015615707761976e+01
1	 1.311012571889166e+00	 1.920183229706716e-01	 9.787669282705561e+00
1	 1.307188739517419e+00	 2.165239000351796e-01	 9.393244591131197e+00
1	 1.302879613153326e+00	 2.411010444516146e-01	 8.973309621294371e+00
1	 1.337500000000000e+00	 0.000000000000000e+00	 1.161654032748369e+01
1	 1.337289493494276e+00	 2.372889778503485e-02	 1.143920373600554e+01
1	 1.336651953632262e+00	 4.762147469412194e-02	 1.123562110494960e+01
1	 1.335578514210450e+00	 7.166786156567692e-02	 1.100575165754514e+01
1	 1.334060547736709e+00	 9.585773299820013e-02	 1.074960960453550e+01
1	 1.332089690269576e+00	 1.201803107072851e-01	 1.046726617635259e+01
1	 1.329657866555430e+00	 1.446243683210686e-01	 1.015885150560163e+01
1	 1.326757315376773e+00	 1.691782376653612e-01	 9.824556341202626e+00
1	 1.323380615018894e+00	 1.938298165844904e-01	 9.464633575617910e+00
1	 1.319520708756490e+00	 2.185665783380315e-01	 9.079399566850537e+00
1	 1.315170930256486e+00	 2.433755826071108e-01	 8.669235237336718e+00
1	 1.350000000000000e+00	 0.000000000000000e+00	 1.126155640987822e+01
1	 1.349787526143736e+00	 2.395066318509660e-02	 1.108697219170503e+01
1	 1.349144027965196e+00	 4.806653520564843e-02	 1.088698787738719e+01
1	 1.348060556399157e+00	 7.233765466491528e-02	 1.066153896203599e+01
1	 1.346528403322719e+00	 9.675359966231714e-02	 1.041061289957197e+01
1	 1.344539126626741e+00	 1.213034911818168e-01	 1.013425110667266e+01
1	 1.342084575587941e+00	 1.459759979321868e-01	 9.832550829846081e+00
1	 1.339156916454079e+00	 1.707593426908803e-01	 9.505666857788643e+00
1	 1.335748658148621e+00	 1.956413101979651e-01	 9.153813061217623e+00
1	 1.331852677995562e+00	 2.206092566406757e-01	 8.777263742562043e+00
1	 1.327462247359646e+00	 2.456501207625777e-01	 8.376354778261890e+00
1	 1.362500000000000e+00	 0.000000000000000e+00	 1.092199557899873e+01
1	 1.362285558793196e+00	 2.417242858498341e-02	 1.074976328236941e+01
1	 1.361636102298130e+00	 4.851159571686106e-02	 1.055296386918797e+01
1	 1.360542598587865e+00	 7.300744776373773e-02	 1.033150945862352e+01
1	 1.358996258908729e+00	 9.764946632595396e-02	 1.008536113950843e+01
1	 1.356988562983906e+00	 1.224266716558425e-01	 9.814530946469674e+00
1	 1.354511284620453e+00	 1.473276275428128e-01	 9.519083711850133e+00
1	 1.351556517531384e+00	 1.723404477159608e-01	 9.199138776380737e+00
1	 1.348116701278348e+00	 1.974528038110959e-01	 8.854871541545313e+00
1	 1.344184647234633e+00	 2.226519349431120e-01	 8.486514846712232e+00
1	 1.339753564462805e+00	 2.479246589180152e-01	 8.094360154401386e+00
1	 1.375000000000000e+00	 0.000000000000000e+00	 1.059743720519859e+01
1	 1.374783591442656e+00	 2.439419398469526e-02	 1.042716729976542e+01
1	 1.374128176631064e+00	 4.895665622775984e-02	 1.023315064709135e+01
1	 1.373024640776572e+00	 7.367724086214431e-02	 1.001527633297426e+01
1	 1.371464114494739e+00	 9.854533298911061e-02	 9.773479462209327e+00
1	 1.369437999341071e+00	 1.235498521293624e-01	 9.507743107303073e+00
1	 1.366937993652964e+00	 1.486792571529464e-01	 9.218100145494333e+00
1	 1.363956118608690e+00	 1.739215527406027e-01	 8.904634967836035e+00
1	 1.360484744408075e+00	 1.992642974238827e-01	 8.567485044021652e+00
1	 1.356516616473704e+00	 2.246946132453406e-01	 8.206842326712753e+00
1	 1.352044881565965e+00	 2.501991970734234e-01	 7.822954479346902e+00
1	 1.229131710534368e+00	 2.274538155180211e-01	 1.105163414086877e+01
1	 1.224602830660197e+00	 2.506948487310240e-01	 1.070974774337338e+01
1	 1.219604854344699e+00	 2.739781000458331e-01	 1.033945888319939e+01
1	 1.214132786041956e+00	 2.972903932297759e-01	 9.941655616699773e+00
1	 1.208182087148427e+00	 3.206182221012702e-01	 9.517313414578012e+00
1	 1.201748697753769e+00	 3.439477685578606e-01	 9.067494170192656e+00
1	 1.194829057653032e+00	 3.672649221392482e-01	 8.593344764765057e+00
1	 1.187420126502869e+00	 3.905553010997262e-01	 8.096095180159439e+00
1	 1.179519403004286e+00	 4.138042749547273e-01	 7.577056152993888e+00
1	 1.171124942995283e+00	 4.369969884562962e-01	 7.037616367149444e+00
1	 1.162235376338345e+00	 4.601183869422883e-01	 6.479239185243324e+00
1	 1.241423027637528e+00	 2.297283536736933e-01	 1.067322766265308e+01
1	 1.236848858964224e+00	 2.532017972172809e-01	 1.034539967843470e+01
1	 1.231800902885296e+00	 2.767178810439017e-01	 9.989534505498431e+00
1	 1.226274113899371e+00	 3.002632971585613e-01	 9.606482776367219e+00
1	 1.220263908016873e+00	 3.238244043178657e-01	 9.197180932148964e+00
1	 1.213766184728358e+00	 3.473872462383388e-01	 8.762650326412915e+00
1	 1.206777348226831e+00	 3.709375713550829e-01	 8.303995896652939e+00
1	 1.199294327765508e+00	 3.944608541049375e-01	 7.822404393791075e+00
1	 1.191314597032411e+00	 4.179423176984929e-01	 7.319142163172968e+00
1	 1.182836192423920e+00	 4.413669583353181e-01	 6.795552473720434e+00
1	 1.173857730101146e+00	 4.647195708066494e-01	 6.253052395311716e+00
1	 1.253714344740687e+00	 2.320028918293363e-01	 1.030813106747529e+01
1	 1.249094887268250e+00	 2.557087457036991e-01	 9.993952663786096e+00
1	 1.243996951425893e+00	 2.794576620423040e-01	 9.652097681273110e+00
1	 1.238415441756786e+00	 3.032362010878337e-01	 9.283379949968504e+00
1	 1.232345728885320e+00	 3.270305865350823e-01	 8.888697528507823e+00
1	 1.225783671702949e+00	 3.508267239195527e-01	 8.469031902249053e+00
1	 1.218725638800629e+00	 3.746102205717475e-01	 8.025446759500900e+00
1	 1.211168529028148e+00	 3.983664071110527e-01	 7.559086336100385e+00
1	 1.203109791060537e+00	 4.220803604432159e-01	 7.071173321487227e+00
1	 1.194547441852557e+00	 4.457369282153292e-01	 6.563006322543393e+00
1	 1.185480083863948e+00	 4.693207546720106e-01	 6.035956884778464e+00
1	 1.266005661843847e+00	 2.342774299849499e-01	 9.955956688850495e+00
1	 1.261340915572276e+00	 2.582156941902787e-01	 9.655030940691024e+00
1	 1.256192999966490e+00	 2.821974430410401e-01	 9.326784695381853e+00
1	 1.250556769614201e+00	 3.062091050175934e-01	 8.971995583706466e+00
1	 1.244427549753766e+00	 3.302367687529200e-01	 8.591523910103062e+00
1	 1.237801158677538e+00	 3.542662016015020e-01	 8.186311943735827e+00
1	 1.230673929374427e+00	 3.782828697892420e-01	 7.757382798041267e+00
1	 1.223042730290788e+00	 4.022719601180717e-01	 7.305838888778382e+00
1	 1.214904985088662e+00	 4.262184031888958e-01	 6.832859963428994e+00
1	 1.206258691281194e+00	 4.501068980963296e-01	 6.339700697824874e+00
1	 1.197102437626749e+00	 4.739219385383718e-01	 5.827687859097521e+00
1	 1.278296978947007e+00	 2.365519681405341e-01	 9.616331770542505e+00
1	 1.273586943876303e+00	 2.607226426770197e-01	 9.328273202671395e+00
1	 1.268389048507087e+00	 2.849372240401096e-01	 9.013245821726494e+00
1	 1.262698097471615e+00	 3.091820089478399e-01	 8.671991645083445e+00
1	 1.256509370622212e+00	 3.334429509713790e-01	 8.305333833134801e+00
1	 1.249818645652128e+00	 3.577056792841868e-01	 7.914176072060256e+00
1	 1.242622219948226e+00	 3.819555190075664e-01	 7.499501555285739e+00
1	 1.234916931553427e+00	 4.061775131259946e-01	 7.062371553450866e+00
1	 1.226700179116788e+00	 4.303564459355328e-01	 6.603923565433072e+00
1	 1.217969940709831e+00	 4.544768679783192e-01	 6.125369045917235e+00
1	 1.208724791389550e+00	 4.785231224057330e-01	 5.627990708128537e+00
1	 1.290588296050166e+00	 2.388265062960890e-01	 9.288897756552075e+00
1	 1.285832972180329e+00	 2.632295911639221e-01	 9.013331907304847e+00
1	 1.280585097047684e+00	 2.876770050395130e-01	 8.711144657107340e+00
1	 1.274839425329030e+00	 3.121549128785735e-01	 8.383042979029849e+00
1	 1.268591191490658e+00	 3.366491331904589e-01	 8.029813482138064e+00
1	 1.261836132626718e+00	 3.611451569676073e-01	 7.652321884744792e+00
1	 1.254570510522024e+00	 3.856281682267207e-01	 7.251512096416730e+00
1	 1.246791132816067e+00	 4.100830661348213e-01	 6.828404898348240e+00
1	 1.238495373144913e+00	 4.344944886831269e-01	 6.384096214355660e+00
1	 1.229681190138469e+00	 4.588468378612980e-01	 5.919754967597499e+00
1	 1.220347145152352e+00	 4.831243062740942e-01	 5.436620521165064e+00
1	 1.302879613153326e+00	 2.411010444516146e-01	 8.973309621294371e+00
1	 1.298079000484355e+00	 2.657365396509859e-01	 8.709872626976917e+00
1	 1.292781145588281e+00	 2.904167860392501e-01	 8.420157492784622e+00
1	 1.286980753186445e+00	 3.151278168097941e-01	 8.104836700478298e+00
1	 1.280673012359105e+00	 3.398553154101601e-01	 7.764660883740560e+00
1	 1.273853619601308e+00	 3.645846346517633e-01	 7.400458390725917e+00
1	 1.266518801095822e+00	 3.893008174467049e-01	 7.013134465288863e+00
1	 1.258665334078706e+00	 4.139886191445518e-01	 6.603670036295854e+00
1	 1.250290567173038e+00	 4.386325314316781e-01	 6.173120106982933e+00
1	 1.241392439567106e+00	 4.632168077452660e-01	 5.722611739085077e+00
1	 1.231969498915152e+00	 4.877254901434555e-01	 5.253341629414117e+00
1	 1.315170930256486e+00	 2.433755826071108e-01	 8.669235237336718e+00
1	 1.310325028788382e+00	 2.682434881382111e-01	 8.417573436039486e+00
1	 1.304977194128878e+00	 2.931565670393207e-01	 8.139972721279399e+00
1	 1.299122081043860e+00	 3.181007207415019e-01	 7.837071620999092e+00
1	 1.292754833227551e+00	 3.430614976304824e-01	 7.509585353293900e+00
1	 1.285871106575899e+00	 3.680241123366550e-01	 7.158305477110448e+00
1	 1.278467091669621e+00	 3.929734666675191e-01	 6.784099171406873e+00
1	 1.270539535341346e+00	 4.178941721551863e-01	 6.387908131975917e+00
1	 1.262085761201164e+00	 4.427705741811864e-01	 5.970747077604218e+00
1	 1.253103688995743e+00	 4.675867776302233e-01	 5.533701859918167e+00
1	 1.243591852677954e+00	 4.923266740138165e-01	 5.077927174131052e+00
1	 1.327462247359646e+00	 2.456501207625777e-01	 8.376354778261890e+00
1	 1.322571057092408e+00	 2.707504366255978e-01	 8.136124332016141e+00
1	 1.317173242669475e+00	 2.958963480397251e-01	 7.870290276130097e+00
1	 1.311263408901274e+00	 3.210736246736966e-01	 7.579457707289237e+00
1	 1.304836654095997e+00	 3.462676798514259e-01	 7.264306972247494e+00
1	 1.297888593550488e+00	 3.714635900222821e-01	 6.925593405556610e+00
1	 1.290415382243419e+00	 3.966461158891632e-01	 6.564146705404770e+00
1	 1.282413736603985e+00	 4.217997251667246e-01	 6.180869936563790e+00
1	 1.273880955229289e+00	 4.469086169316517e-01	 5.776738151831438e+00
1	 1.264814938424380e+00	 4.719567475161698e-01	 5.352796625948402e+00
1	 1.255214206440755e+00	 4.969278578851778e-01	 4.910158698746975e+00
1	 1.339753564462805e+00	 2.479246589180152e-01	 8.094360154401386e+00
1	 1.334817085396434e+00	 2.732573851131458e-01	 7.865226688667649e+00
1	 1.329369291210072e+00	 2.986361290404630e-01	 7.610821102488000e+00
1	 1.323404736758689e+00	 3.240465286063783e-01	 7.331715569469342e+00
1	 1.316918474964443e+00	 3.494738620729904e-01	 7.028556094290892e+00
1	 1.309906080525078e+00	 3.749030677086448e-01	 6.702062336377107e+00
1	 1.302363672817217e+00	 4.003187651116372e-01	 6.353027081195893e+00
1	 1.294287937866625e+00	 4.257052781791670e-01	 5.982315347980540e+00
1	 1.285676149257414e+00	 4.510466596830741e-01	 5.590863124978744e+00
1	 1.276526187853017e+00	 4.763267174031054e-01	 5.179675725840138e+00
1	 1.266836560203556e+00	 5.015290417575390e-01	 4.749825763447813e+00
1	 1.352044881565965e+00	 2.501991970734234e-01	 7.822954479346902e+00
1	 1.347063113700461e+00	 2.757643336008552e-01	 7.604592738890353e+00
1	 1.341565339750669e+00	 3.013759100415347e-01	 7.361286656589447e+00
1	 1.335546064616104e+00	 3.270194325395472e-01	 7.093575977291705e+00
1	 1.329000295832889e+00	 3.526800442951761e-01	 6.802072878433769e+00
1	 1.321923567499668e+00	 3.783425453957430e-01	 6.487461878600406e+00
1	 1.314311963391016e+00	 4.039914143349411e-01	 6.150499403096586e+00
1	 1.306162139129264e+00	 4.296108311925129e-01	 5.792012995131881e+00
1	 1.297471343285539e+00	 4.551847024354536e-01	 5.412900163439685e+00
1	 1.288237437281654e+00	 4.806966872910303e-01	 5.014126859579018e+00
1	 1.278458913966357e+00	 5.061302256309002e-01	 4.596725580776368e+00
1	 1.162235376338345e+00	 4.601183869422883e-01	 6.479239185243324e+00
1	 1.152849922490885e+00	 4.831532429944503e-01	 5.956079158795204e+00
1	 1.142968404648257e+00	 5.060861843290319e-01	 5.414842277081259e+00
1	 1.132591262356013e+00	 5.289017228355558e-01	 4.856772715668709e+00
1	 1.121719562493458e+00	 5.515842846700590e-01	 4.283171840393988e+00
1	 1.110355008534519e+00	 5.741182412978676e-01	 3.695394462696759e+00
1	 1.098499948001281e+00	 5.964879413737912e-01	 3.094844753233159e+00
1	 1.086157378033213e+00	 6.186777433390787e-01	 2.482971830871408e+00
1	 1.073330949004241e+00	 6.406720486069893e-01	 1.861265047263991e+00
1	 1.060024966129602e+00	 6.624553352020790e-01	 1.231248990178974e+00
1	 1.046244389015035e+00	 6.840121917124017e-01	 5.944782316174544e-01
1	 1.173857730101146e+00	 4.647195708066494e-01	 6.253052395311716e+00
1	 1.164378421715943e+00	 4.879847754199314e-01	 5.742646857289141e+00
1	 1.154398088695481e+00	 5.111470461684536e-01	 5.213864043778925e+00
1	 1.143917174980766e+00	 5.341907400606339e-01	 4.667912065928421e+00
1	 1.132936758119894e+00	 5.571001275140689e-01	 4.106057139503520e+00
1	 1.121458558621532e+00	 5.798594237087382e-01	 3.529619999770308e+00
1	 1.109484947482980e+00	 6.024528207859984e-01	 2.939971972677352e+00
1	 1.097018951815104e+00	 6.248645207715108e-01	 2.338530718348323e+00
1	 1.084064258495567e+00	 6.470787690926668e-01	 1.726755665980055e+00
1	 1.070625215791757e+00	 6.690798885542671e-01	 1.106143162231629e+00
1	 1.056706832905469e+00	 6.908523136302467e-01	 4.782213580520681e-01
1	 1.185480083863948e+00	 4.693207546720106e-01	 6.035956884778464e+00
1	 1.175906920941005e+00	 4.928163078464028e-01	 5.538006879940399e+00
1	 1.165827772742723e+00	 5.162079080088365e-01	 5.021386572575209e+00
1	 1.155243087605563e+00	 5.394797572866247e-01	 4.487268627658995e+00
1	 1.144153953746409e+00	 5.626159703589233e-01	 3.936884719996360e+00
1	 1.132562108708666e+00	 5.856006061203647e-01	 3.371522106329834e+00
1	 1.120469946964856e+00	 6.084177001988529e-01	 2.792519851768408e+00
1	 1.107880525597237e+00	 6.310512982044613e-01	 2.201264725466236e+00
1	 1.094797567987208e+00	 6.534854895787139e-01	 1.599186783560582e+00
1	 1.081225465454313e+00	 6.757044419066560e-01	 9.877546603746664e-01
1	 1.067169276796399e+00	 6.976924355481020e-01	 3.684705917661990e-01
1	 1.197102437626749e+00	 4.739219385383718e-01	 5.827687859097521e+00
1	 1.187435420166073e+00	 4.976478402738645e-01	 5.341903139636514e+00
1	 1.177257456789986e+00	 5.212687698501810e-01	 4.837162268455669e+00
1	 1.166569000230403e+00	 5.447687745135282e-01	 4.314603064601542e+00
1	 1.155371149373001e+00	 5.681318132046219e-01	 3.775423253285565e+00
1	 1.143665658795923e+00	 5.913417885327469e-01	 3.220877192969304e+00
1	 1.131454946446909e+00	 6.143825796123552e-01	 2.652272254784529e+00
1	 1.118742099379610e+00	 6.372380756379310e-01	 2.070964868153521e+00
1	 1.105530877479165e+00	 6.598922100651305e-01	 1.478356249548568e+00
1	 1.091825715117267e+00	 6.823289952592448e-01	 8.758878343285835e-01
1	 1.077631720687823e+00	 7.045325574659680e-01	 2.650364344841964e-01
1	 1.208724791389550e+00	 4.785231224057330e-01	 5.627990708128537e+00
1	 1.198963919391144e+00	 5.024793727023167e-01	 5.154089398769325e+00
1	 1.188687140837268e+00	 5.263296316924868e-01	 4.660953059291232e+00
1	 1.177894912855287e+00	 5.500577917413444e-01	 4.149685245738111e+00
1	 1.166588344999672e+00	 5.736476560511649e-01	 3.621450308037654e+00
1	 1.154769208883302e+00	 5.970829709458854e-01	 3.077470269875488e+00
1	 1.142439945929137e+00	 6.203474590265043e-01	 2.519021358916476e+00
1	 1.129603673162223e+00	 6.434248530719191e-01	 1.947430200187833e+00
1	 1.116264186971437e+00	 6.662989305519170e-01	 1.364069688504708e+00
1	 1.102425964780622e+00	 6.889535486120343e-01	 7.703545588249434e-01
1	 1.088094164579742e+00	 7.113726793838446e-01	 1.677366763260184e-01
1	 1.220347145152352e+00	 4.831243062740942e-01	 5.436620521165064e+00
1	 1.210492418616221e+00	 5.073109051317592e-01	 4.974328800211053e+00
1	 1.200116824884569e+00	 5.313904935357540e-01	 4.492529942367281e+00
1	 1.189220825480215e+00	 5.553468089700732e-01	 3.992293806946736e+00
1	 1.177805540626420e+00	 5.791634988985520e-01	 3.474751926493984e+00
1	 1.165872758970802e+00	 6.028241533597791e-01	 2.941094537323424e+00
1	 1.153424945411542e+00	 6.263123384413013e-01	 2.392567258414659e+00
1	 1.140465246945077e+00	 6.496116305064259e-01	 1.830467430441106e+00
1	 1.126997496464023e+00	 6.727056510390734e-01	 1.256140129768708e+00
1	 1.113026214444376e+00	 6.955781019650239e-01	 6.709738752724252e-01
1	 1.098556608472156e+00	 7.182128013017320e-01	 7.639604874070460e-02
1	 1.231969498915152e+00	 4.877254901434555e-01	 5.253341629414117e+00
1	 1.222020917841303e+00	 5.121424375621921e-01	 4.802393424838799e+00
1	 1.211546508931890e+00	 5.364513553799823e-01	 4.331672556581179e+00
1	 1.200546738105186e+00	 5.606358261997149e-01	 3.842215737468667e+00
1	 1.189022736253246e+00	 5.846793417467834e-01	 3.335122224773670e+00
1	 1.176976309058426e+00	 6.085653357744293e-01	 2.811550999351537e+00
1	 1.164409944894123e+00	 6.322772178567456e-01	 2.272717591142879e+00
1	 1.151326820728172e+00	 6.557984079414517e-01	 1.719890561790493e+00
1	 1.137730805956926e+00	 6.791123715265995e-01	 1.154387658177113e+00
1	 1.123626464108531e+00	 7.022026553182141e-01	 5.775716537061020e-01
1	 1.109019052365064e+00	 7.250529232196299e-01	-9.154102914880613e-03
1	 1.243591852677954e+00	 4.923266740138165e-01	 5.077927174131052e+00
1	 1.233549417066389e+00	 5.169739699936152e-01	 4.638063873870749e+00
1	 1.222976192979229e+00	 5.415122172251722e-01	 4.178168778628613e+00
1	 1.211872650730201e+00	 5.659248434302693e-01	 3.699245989564313e+00
1	 1.200239931880150e+00	 5.901951845958592e-01	 3.202363015589657e+00
1	 1.188079859146171e+00	 6.143065181898351e-01	 2.688648099099795e+00
1	 1.175394944376881e+00	 6.382420972728371e-01	 2.159287186073011e+00
1	 1.162188394511508e+00	 6.619851853769962e-01	 1.615520550276701e+00
1	 1.148464115450142e+00	 6.855190920144951e-01	 1.058639084367207e+00
1	 1.134226713773085e+00	 7.088272086716045e-01	 4.899802736927311e-01
1	 1.119481496258467e+00	 7.318930451375384e-01	-8.907612843705270e-02
1	 1.255214206440755e+00	 4.969278578851778e-01	 4.910158698746975e+00
1	 1.245077916291481e+00	 5.218055024260289e-01	 4.481128874405926e+00
1	 1.234405877026588e+00	 5.465730790713230e-01	 4.031814341623980e+00
1	 1.223198563355260e+00	 5.712138606617362e-01	 3.563187109854871e+00
1	 1.211457127507132e+00	 5.957110274457791e-01	 3.076283451924964e+00
1	 1.199183409234037e+00	 6.200477006059969e-01	 2.572201374406852e+00
1	 1.186379943859815e+00	 6.442069766895762e-01	 2.052097730363358e+00
1	 1.173049968295084e+00	 6.681719628130592e-01	 1.517184983198510e+00
1	 1.159197424943675e+00	 6.919258125027606e-01	 9.687276333973327e-01
1	 1.144826963438039e+00	 7.154517620251954e-01	 4.080383229634710e-01
1	 1.129943940152365e+00	 7.387331670554576e-01	-1.635263646665138e-01
1	 1.266836560203556e+00	 5.015290417575390e-01	 4.749825763447813e+00
1	 1.256606415516577e+00	 5.266370348594331e-01	 4.331384906677381e+00
1	 1.245835561073966e+00	 5.516339409184358e-01	 3.892412474714294e+00
1	 1.234524475980362e+00	 5.765028778941159e-01	 3.433848890957198e+00
1	 1.222674323134192e+00	 6.012268702965434e-01	 2.956699690322945e+00
1	 1.210286959322027e+00	 6.257888830229146e-01	 2.462033132365125e+00
1	 1.197364943342925e+00	 6.501718561069625e-01	 1.950977454762880e+00
1	 1.183911542078901e+00	 6.743587402496409e-01	 1.424717774926362e+00
1	 1.169930734437522e+00	 6.983325329913959e-01	 8.844926505074134e-01
1	 1.155427213103392e+00	 7.220763153789866e-01	 3.315903126357601e-01
1	 1.140406384046757e+00	 7.455732889733871e-01	-2.326554113119156e-01
1	 1.278458913966357e+00	 5.061302256309002e-01	 4.596725580776368e+00
1	 1.268134914741677e+00	 5.314685672938273e-01	 4.188635851637018e+00
1	 1.257265245121364e+00	 5.566948027665093e-01	 3.759773562350352e+00
1	 1.245850388605507e+00	 5.817918951274083e-01	 3.311048042120392e+00
1	 1.233891518761329e+00	 6.067427131481519e-01	 2.843434572543667e+00
1	 1.221390509410137e+00	 6.315300654405880e-01	 2.357972141627441e+00
1	 1.208349942826211e+00	 6.561367355249965e-01	 1.855760836175305e+00
1	 1.194773115862958e+00	 6.805455176867415e-01	 1.337958879308443e+00
1	 1.180664043931685e+00	 7.047392534804008e-01	 8.057793229288246e-01
1	 1.166027462769146e+00	 7.287008687329783e-01	 2.604864079683733e-01
1	 1.150868827941644e+00	 7.524134108913275e-01	-2.966083917286272e-01
1	 1.046244389015035e+00	 6.840121917124017e-01	 5.944782316174544e-01
1	 1.031994829112001e+00	 7.053273514082546e-01	-7.641210659667963e-02
1	 1.017282545054521e+00	 7.263857263794559e-01	-7.610464556474302e-01
1	 1.002114435865165e+00	 7.471724415374245e-01	-1.458398105519821e+00
1	 9.864980320304253e-01	 7.676728683263137e-01	-2.167395921570915e+00
1	 9.704414844585151e-01	 7.878726579898537e-01	-2.886927577373427e+00
1	 9.539535513453987e-01	 8.077577742387658e-01	-3.615843024346627e+00
1	 9.370435829877606e-01	 8.273145251659155e-01	-4.352958179417586e+00
1	 9.197215045943361e-01	 8.465295942593203e-01	-5.097058809976296e+00
1	 9.019977971594894e-01	 8.653900703672559e-01	-5.846904593590889e+00
1	 8.838834764750000e-01	 8.838834764750000e-01	-6.601233328352670e+00
1	 1.056706832905469e+00	 6.908523136302467e-01	 4.782213580520681e-01
1	 1.042314777402819e+00	 7.123806249235496e-01	-1.884230380156351e-01
1	 1.027455370504306e+00	 7.336495836448358e-01	-8.682162054868063e-01
1	 1.012135580222726e+00	 7.546441659546386e-01	-1.560137063168057e+00
1	 9.963630123494379e-01	 7.753495970115514e-01	-2.263122063477767e+00
1	 9.801458993017382e-01	 7.957513845717418e-01	-2.976068419252482e+00
1	 9.634930868575512e-01	 8.158353519830368e-01	-3.697837557239408e+00
1	 9.464140188165280e-01	 8.355876704192311e-01	-4.427258779496436e+00
1	 9.289187196394912e-01	 8.549948902032221e-01	-5.163133112026021e+00
1	 9.110177751307498e-01	 8.740439710717682e-01	-5.904237318255025e+00
1	 8.927223112400001e-01	 8.927223112400001e-01	-6.649328053459493e+00
1	 1.067169276796399e+00	 6.976924355481020e-01	 3.684705917661990e-01
1	 1.052634725694217e+00	 7.194338984386744e-01	-2.940126185452721e-01
1	 1.037628195954726e+00	 7.409134409099047e-01	-9.690598539349149e-01
1	 1.022156724580948e+00	 7.621158903714401e-01	-1.655655537175108e+00
1	 1.006227992669108e+00	 7.830263256963153e-01	-2.352743555331979e+00
1	 9.898503141455847e-01	 8.036301111531332e-01	-3.059230480820601e+00
1	 9.730326223702622e-01	 8.239129297268302e-01	-3.773989009178461e+00
1	 9.557844546457592e-01	 8.438608156721282e-01	-4.495861594757150e+00
1	 9.381159346849866e-01	 8.634601861468045e-01	-5.223664263719190e+00
1	 9.200377531021950e-01	 8.826978717761008e-01	-5.956190582093893e+00
1	 9.015611460049998e-01	 9.015611460049998e-01	-6.692215755216923e+00
1	 1.077631720687823e+00	 7.045325574659680e-01	 2.650364344841964e-01
1	 1.062954673986195e+00	 7.264871719536292e-01	-3.933678778270688e-01
1	 1.047801021405781e+00	 7.481772981746628e-01	-1.063761656374634e+00
1	 1.032177868939832e+00	 7.695876147878290e-01	-1.745134706677245e+00
1	 1.016092972989436e+00	 7.907030543806040e-01	-2.436438202474778e+00
1	 9.995547289900544e-01	 8.115088377340292e-01	-3.136587901308925e+00
1	 9.825721578835327e-01	 8.319905074701464e-01	-3.844467566985344e+00
1	 9.651548904754556e-01	 8.521339609246066e-01	-4.558932580094080e+00
1	 9.473131497308213e-01	 8.719254820900676e-01	-5.278813716032988e+00
1	 9.290577310738252e-01	 8.913517724802531e-01	-6.002921068427746e+00
1	 9.103999807700000e-01	 9.103999807700000e-01	-6.730048094494007e+00
1	 1.088094164579742e+00	 7.113726793838446e-01	 1.677366763260184e-01
1	 1.073274622278753e+00	 7.335404454684142e-01	-4.866686520544620e-01
1	 1.057973846857473e+00	 7.554411554391099e-01	-1.152498781443046e+00
1	 1.042199013299377e+00	 7.770593392038053e-01	-1.828748782382340e+00
1	 1.025957953310421e+00	 7.983797830644190e-01	-2.514376971580391e+00
1	 1.009259143835148e+00	 8.193875643144291e-01	-3.208308122285834e+00
1	 9.921116933973619e-01	 8.400680852129850e-01	-3.909436871834783e+00
1	 9.745253263056164e-01	 8.604071061766666e-01	-4.616631307521211e+00
1	 9.565103647769959e-01	 8.803907780330110e-01	-5.328736710291871e+00
1	 9.380777090456406e-01	 9.000056731842258e-01	-6.044579434295683e+00
1	 9.192388155350000e-01	 9.192388155350000e-01	-6.762970899049884e+00
1	 1.098556608472156e+00	 7.182128013017320e-01	 7.639604874070460e-02
1	 1.083594570571891e+00	 7.405937189830295e-01	-5.740879265180087e-01
1	 1.068146672309800e+00	 7.627050127032456e-01	-1.235441648495720e+00
1	 1.052220157659584e+00	 7.845310636193691e-01	-1.906665338399867e+00
1	 1.035822933632064e+00	 8.060565117477595e-01	-2.586724316306824e+00
1	 1.018963558680864e+00	 8.272662908943328e-01	-3.274552206593276e+00
1	 1.001651228911751e+00	 8.481456629553464e-01	-3.969054330951999e+00
1	 9.838957621362415e-01	 8.686802514283076e-01	-4.669111270118766e+00
1	 9.657075798235105e-01	 8.888560739756349e-01	-5.373582573865280e+00
1	 9.470976870176407e-01	 9.086595738880187e-01	-6.081310597421214e+00
1	 9.280776503000001e-01	 9.280776503000001e-01	-6.791124441300569e+00
1	 1.109019052365064e+00	 7.250529232196299e-01	-9.154102914880613e-03
1	 1.093914518865609e+00	 7.476469924974751e-01	-6.557921587612382e-01
1	 1.078319497762762e+00	 7.699688699670706e-01	-1.312754245968962e+00
1	 1.062241302020453e+00	 7.920027880345202e-01	-1.979045625287799e+00
1	 1.045687913954364e+00	 8.137332404306257e-01	-2.653638484513695e+00
1	 1.028667973527204e+00	 8.351450174737410e-01	-3.335475139230226e+00
1	 1.011190764426698e+00	 8.562232406972299e-01	-4.023471411667057e+00
1	 9.932661979673315e-01	 8.769533966795300e-01	-4.716520168775487e+00
1	 9.749047948703654e-01	 8.973213699179398e-01	-5.413494999127776e+00
1	 9.561176649898260e-01	 9.173134745916315e-01	-6.113254006934722e+00
1	 9.369164850650002e-01	 9.369164850650001e-01	-6.814643700363896e+00
1	 1.119481496258467e+00	 7.318930451375384e-01	-8.907612843705270e-02
1	 1.104234467159906e+00	 7.547002660117507e-01	-7.319415836156286e-01
1	 1.088492323216361e+00	 7.772327272305846e-01	-1.384594431890107e+00
1	 1.072262446381982e+00	 7.994745124492590e-01	-2.046044865545791e+00
1	 1.055552894277321e+00	 8.214099691130178e-01	-2.715271808252656e+00
1	 1.038372388374167e+00	 8.430237440526529e-01	-3.391226111363931e+00
1	 1.020730299942205e+00	 8.643008184386362e-01	-4.072833918980113e+00
1	 1.002636633798886e+00	 8.852265419303337e-01	-4.759000182851624e+00
1	 9.841020099175596e-01	 9.057866658599246e-01	-5.448612306776662e+00
1	 9.651376429621962e-01	 9.259673752950645e-01	-6.140543898915325e+00
1	 9.457553198299999e-01	 9.457553198299999e-01	-6.833658609409503e+00
1	 1.129943940152365e+00	 7.387331670554576e-01	-1.635263646665138e-01
1	 1.114554415454784e+00	 7.617535395258563e-01	-8.026905012889225e-01
1	 1.098665148670595e+00	 7.844965844937873e-01	-1.451114217692761e+00
1	 1.082283590744174e+00	 8.069462368635849e-01	-2.107812532692055e+00
1	 1.065417874600936e+00	 8.290866977949353e-01	-2.771770977647654e+00
1	 1.048076803221754e+00	 8.509024706310688e-01	-3.441948788562829e+00
1	 1.030269835458270e+00	 8.723783961795647e-01	-4.117282257705961e+00
1	 1.012007069630905e+00	 8.934996871807190e-01	-4.796688225805373e+00
1	 9.932992249650937e-01	 9.142519618015905e-01	-5.479067694520412e+00
1	 9.741576209347511e-01	 9.346212759983175e-01	-6.163309537735647e+00
1	 9.545941545949999e-01	 9.545941545949999e-01	-6.848294289267710e+00
1	 1.140406384046757e+00	 7.455732889733871e-01	-2.326554113119156e-01
1	 1.124874363750242e+00	 7.688068130397925e-01	-8.681875495959034e-01
1	 1.108837974125464e+00	 7.917604417566795e-01	-1.512460036409117e+00
1	 1.092304735107027e+00	 8.144179612774985e-01	-2.164492614977855e+00
1	 1.075282854925209e+00	 8.367634264763789e-01	-2.823277299698654e+00
1	 1.057781218069964e+00	 8.587811972089886e-01	-3.487781564264468e+00
1	 1.039809370974894e+00	 8.804559739200161e-01	-4.156951680189489e+00
1	 1.021377505463388e+00	 9.017728324306855e-01	-4.829716186748005e+00
1	 1.002496440012967e+00	 9.227172577429366e-01	-5.504989472078586e+00
1	 9.831775989074915e-01	 9.432751767013908e-01	-6.181675444121884e+00
1	 9.634329893600002e-01	 9.634329893600002e-01	-6.858671269178998e+00
1	 1.150868827941644e+00	 7.524134108913275e-01	-2.966083917286272e-01
1	 1.135194312046280e+00	 7.758600865535584e-01	-9.285759613396131e-01
1	 1.119010799580969e+00	 7.990242990192602e-01	-1.568772996233755e+00
1	 1.102325879470541e+00	 8.218896856909992e-01	-2.216223864718071e+00
1	 1.085147835250138e+00	 8.444401551573477e-01	-2.869926942969312e+00
1	 1.067485632918797e+00	 8.666599237864125e-01	-3.528857799417898e+00
1	 1.049348906492078e+00	 8.885335516599897e-01	-4.191972520508378e+00
1	 1.030747941296336e+00	 9.100459776802332e-01	-4.858211158823075e+00
1	 1.011693655061181e+00	 9.311825536839639e-01	-5.526501283362804e+00
1	 9.921975768804164e-01	 9.519290774042841e-01	-6.195761610773972e+00
1	 9.722718241249999e-01	 9.722718241249999e-01	-6.864905695502542e+00
1	 8.838834764750000e-01	 8.838834764750000e-01	-6.601233328352670e+00
1	 8.653900703672558e-01	 9.019977971594894e-01	-7.384009872305082e+00
1	 8.465295942593203e-01	 9.197215045943362e-01	-8.166948395460738e+00
1	 8.273145251659157e-01	 9.370435829877607e-01	-8.948493815204564e+00
1	 8.077577742387659e-01	 9.539535513453987e-01	-9.727090700667224e+00
1	 7.878726579898540e-01	 9.704414844585149e-01	-1.050118886929166e+01
1	 7.676728683263140e-01	 9.864980320304252e-01	-1.126924894443658e+01
1	 7.471724415374250e-01	 1.002114435865165e+00	-1.202974783918969e+01
1	 7.263857263794565e-01	 1.017282545054521e+00	-1.278118413237195e+01
1	 7.053273514082554e-01	 1.031994829112000e+00	-1.352208330385577e+01
1	 6.840121917124017e-01	 1.046244389015035e+00	-1.425100279776765e+01
1	 8.927223112400001e-01	 8.927223112400001e-01	-6.649328053459493e+00
1	 8.740439710717682e-01	 9.110177751307497e-01	-7.422560647342057e+00
1	 8.549948902032222e-01	 9.289187196394916e-01	-8.198264405143220e+00
1	 8.355876704192313e-01	 9.464140188165279e-01	-8.975075764410832e+00
1	 8.158353519830368e-01	 9.634930868575508e-01	-9.751620808163882e+00
1	 7.957513845717418e-01	 9.801458993017379e-01	-1.052652012728385e+01
1	 7.753495970115517e-01	 9.963630123494376e-01	-1.129839370448659e+01
1	 7.546441659546392e-01	 1.012135580222726e+00	-1.206586578918750e+01
1	 7.336495836448365e-01	 1.027455370504305e+00	-1.282756973281302e+01
1	 7.123806249235501e-01	 1.042314777402819e+00	-1.358215275464793e+01
1	 6.908523136302465e-01	 1.056706832905469e+00	-1.432828060913442e+01
1	 9.015611460049998e-01	 9.015611460049998e-01	-6.692215755216923e+00
1	 8.826978717761006e-01	 9.200377531021950e-01	-7.457465015432843e+00
1	 8.634601861468045e-01	 9.381159346849864e-01	-8.227449367120929e+00
1	 8.438608156721283e-01	 9.557844546457592e-01	-9.000993890334378e+00
1	 8.239129297268304e-01	 9.730326223702622e-01	-9.776903433692132e+00
1	 8.036301111531335e-01	 9.898503141455844e-01	-1.055396675198490e+01
1	 7.830263256963154e-01	 1.006227992669108e+00	-1.133096072519617e+01
1	 7.621158903714405e-01	 1.022156724580948e+00	-1.210665463234267e+01
1	 7.409134409099053e-01	 1.037628195954725e+00	-1.287981445321324e+01
1	 7.194338984386750e-01	 1.052634725694217e+00	-1.364920717102737e+01
1	 6.976924355481020e-01	 1.067169276796399e+00	-1.441360504924288e+01
1	 9.103999807700000e-01	 9.103999807700000e-01	-6.730048094494007e+00
1	 8.913517724802530e-01	 9.290577310738252e-01	-7.488829182601262e+00
1	 8.719254820900674e-01	 9.473131497308210e-01	-8.254565350741849e+00
1	 8.521339609246068e-01	 9.651548904754556e-01	-9.026267527632097e+00
1	 8.319905074701465e-01	 9.825721578835326e-01	-9.802916659249972e+00
1	 8.115088377340296e-01	 9.995547289900545e-01	-1.058346713077170e+01
1	 7.907030543806044e-01	 1.016092972989435e+00	-1.136685032907026e+01
1	 7.695876147878296e-01	 1.032177868939832e+00	-1.215197832322349e+01
1	 7.481772981746633e-01	 1.047801021405781e+00	-1.293774763959347e+01
1	 7.264871719536298e-01	 1.062954673986194e+00	-1.372304310739524e+01
1	 7.045325574659680e-01	 1.077631720687823e+00	-1.450674175026692e+01
1	 9.192388155350000e-01	 9.192388155350000e-01	-6.762970899049884e+00
1	 9.000056731842259e-01	 9.380777090456406e-01	-7.516755270024183e+00
1	 8.803907780330109e-01	 9.565103647769959e-01	-8.279672038071492e+00
1	 8.604071061766667e-01	 9.745253263056164e-01	-9.050915267320372e+00
1	 8.400680852129850e-01	 9.921116933973620e-01	-9.829639409835528e+00
1	 8.193875643144292e-01	 1.009259143835148e+00	-1.061496202073732e+01
1	 7.983797830644193e-01	 1.025957953310421e+00	-1.140596667236355e+01
1	 7.770593392038057e-01	 1.042199013299377e+00	-1.220170604891499e+01
1	 7.554411554391103e-01	 1.057973846857472e+00	-1.300120520158973e+01
1	 7.335404454684151e-01	 1.073274622278753e+00	-1.380346494298370e+01
1	 7.113726793838446e-01	 1.088094164579742e+00	-1.460746535852798e+01
1	 9.280776503000001e-01	 9.280776503000001e-01	-6.791124441300569e+00
1	 9.086595738880183e-01	 9.470976870176407e-01	-7.541341508548137e+00
1	 8.888560739756349e-01	 9.657075798235105e-01	-8.302826837572770e+00
1	 8.686802514283077e-01	 9.838957621362414e-01	-9.074954992186289e+00
1	 8.481456629553463e-01	 1.001651228911750e+00	-9.857051413304008e+00
1	 8.272662908943332e-01	 1.018963558680864e+00	-1.064839443584746e+01
1	 8.060565117477597e-01	 1.035822933632063e+00	-1.144821756252100e+01
1	 7.845310636193695e-01	 1.052220157659584e+00	-1.225571197985144e+01
1	 7.627050127032463e-01	 1.068146672309799e+00	-1.307002929989921e+01
1	 7.405937189830302e-01	 1.083594570571890e+00	-1.389028450924498e+01
1	 7.182128013017320e-01	 1.098556608472156e+00	-1.471555910524988e+01
1	 9.369164850650002e-01	 9.369164850650001e-01	-6.814643700363896e+00
1	 9.173134745916314e-01	 9.561176649898259e-01	-7.562682422195377e+00
1	 8.973213699179396e-01	 9.749047948703653e-01	-8.324084991351784e+00
1	 8.769533966795300e-01	 9.932661979673313e-01	-9.098403910194902e+00
1	 8.562232406972300e-01	 1.011190764426698e+00	-9.885133162497212e+00
1	 8.351450174737411e-01	 1.028667973527204e+00	-1.068370954048426e+01
1	 8.137332404306261e-01	 1.045687913954363e+00	-1.149351428595200e+01
1	 7.920027880345210e-01	 1.062241302020452e+00	-1.231387503475260e+01
1	 7.699688699670710e-01	 1.078319497762762e+00	-1.314406805141969e+01
1	 7.476469924974758e-01	 1.093914518865608e+00	-1.398332073833132e+01
1	 7.250529232196300e-01	 1.109019052365064e+00	-1.483081440161078e+01
1	 9.457553198299999e-01	 9.457553198299999e-01	-6.833658609409503e+00
1	 9.259673752950643e-01	 9.651376429621963e-01	-7.580869001380054e+00
1	 9.057866658599246e-01	 9.841020099175595e-01	-8.343499676389046e+00
1	 8.852265419303337e-01	 1.002636633798885e+00	-9.121278586022814e+00
1	 8.643008184386362e-01	 1.020730299942204e+00	-9.913865879496568e+00
1	 8.430237440526532e-01	 1.038372388374167e+00	-1.072085454895939e+01
1	 8.214099691130180e-01	 1.055552894277321e+00	-1.154177144546183e+01
1	 7.994745124492595e-01	 1.072262446381982e+00	-1.237607865874146e+01
1	 7.772327272305850e-01	 1.088492323216360e+00	-1.322317525092200e+01
1	 7.547002660117512e-01	 1.104234467159906e+00	-1.408239933128688e+01
1	 7.318930451375383e-01	 1.119481496258467e+00	-1.495303045650201e+01
1	 9.545941545949999e-01	 9.545941545949999e-01	-6.848294289267710e+00
1	 9.346212759983176e-01	 9.741576209347513e-01	-7.595988866501152e+00
1	 9.142519618015904e-01	 9.932992249650935e-01	-8.361122100147531e+00
1	 8.934996871807190e-01	 1.012007069630904e+00	-9.143594970840034e+00
1	 8.723783961795650e-01	 1.030269835458270e+00	-9.943231481861977e+00
1	 8.509024706310692e-01	 1.048076803221754e+00	-1.075977863061011e+01
1	 8.290866977949357e-01	 1.065417874600936e+00	-1.159290680671490e+01
1	 8.069462368635854e-01	 1.082283590744173e+00	-1.244221061378815e+01
1	 7.844965844937880e-01	 1.098665148670594e+00	-1.330721010818548e+01
1	 7.617535395258571e-01	 1.114554415454784e+00	-1.418735244467265e+01
1	 7.387331670554576e-01	 1.129943940152365e+00	-1.508201391552295e+01
1	 9.634329893600002e-01	 9.634329893600002e-01	-6.858671269178998e+00
1	 9.432751767013909e-01	 9.831775989074915e-01	-7.608126422530262e+00
1	 9.227172577429366e-01	 1.002496440012967e+00	-8.377001590917200e+00
1	 9.017728324306855e-01	 1.021377505463388e+00	-9.165368430452773e+00
1	 8.804559739200162e-01	 1.039809370974894e+00	-9.973212550728938e+00
1	 8.587811972089889e-01	 1.057781218069964e+00	-1.080043282011901e+01
1	 8.367634264763789e-01	 1.075282854925208e+00	-1.164684115314930e+01
1	 8.144179612774990e-01	 1.092304735107027e+00	-1.251216278068973e+01
1	 7.917604417566800e-01	 1.108837974125464e+00	-1.339603699960328e+01
1	 7.688068130397931e-01	 1.124874363750241e+00	-1.429801839444243e+01
1	 7.455732889733871e-01	 1.140406384046757e+00	-1.521757851984770e+01
1	 9.722718241249999e-01	 9.722718241249999e-01	-6.864905695502542e+00
1	 9.519290774042841e-01	 9.921975768804165e-01	-7.617363005167429e+00
1	 9.311825536839636e-01	 1.011693655061181e+00	-8.391185683232202e+00
1	 9.100459776802337e-01	 1.030747941296336e+00	-9.186613771910396e+00
1	 8.885335516599900e-01	 1.049348906492078e+00	-1.000379230064638e+01
1	 8.666599237864129e-01	 1.067485632918797e+00	-1.084276993272580e+01
1	 8.444401551573482e-01	 1.085147835250138e+00	-1.170349814880550e+01
1	 8.218896856909996e-01	 1.102325879470541e+00	-1.258583097185087e+01
1	 7.990242990192610e-01	 1.119010799580969e+00	-1.348952523333620e+01
1	 7.758600865535591e-01	 1.135194312046279e+00	-1.441424137596973e+01
1	 7.524134108913274e-01	 1.150868827941644e+00	-1.535954478369882e+01
1	 6.840121917124017e-01	 1.046244389015035e+00	-1.425100279776765e+01
1	 6.624553352020789e-01	 1.060024966129602e+00	-1.499680581539952e+01
1	 6.406720486069893e-01	 1.073330949004241e+00	-1.574138857741386e+01
1	 6.186777433390788e-01	 1.086157378033213e+00	-1.648399792402504e+01
1	 5.964879413737916e-01	 1.098499948001280e+00	-1.722386825575665e+01
1	 5.741182412978680e-01	 1.110355008534519e+00	-1.796022424724789e+01
1	 5.515842846700593e-01	 1.121719562493458e+00	-1.869228359905987e+01
1	 5.289017228355563e-01	 1.132591262356013e+00	-1.941925980936368e+01
1	 5.060861843290325e-01	 1.142968404648257e+00	-2.014036494755225e+01
1	 4.831532429944511e-01	 1.152849922490885e+00	-2.085481241215401e+01
1	 4.601183869422882e-01	 1.162235376338345e+00	-2.156181965592669e+01
1	 6.908523136302465e-01	 1.056706832905469e+00	-1.432828060913442e+01
1	 6.690798885542670e-01	 1.070625215791757e+00	-1.509539325665784e+01
1	 6.470787690926667e-01	 1.084064258495567e+00	-1.585655936723953e+01
1	 6.248645207715108e-01	 1.097018951815105e+00	-1.661085309896783e+01
1	 6.024528207859987e-01	 1.109484947482980e+00	-1.735735756904914e+01
1	 5.798594237087384e-01	 1.121458558621532e+00	-1.809516780944370e+01
1	 5.571001275140695e-01	 1.132936758119894e+00	-1.882339364288497e+01
1	 5.341907400606344e-01	 1.143917174980766e+00	-1.954116246314254e+01
1	 5.111470461684543e-01	 1.154398088695481e+00	-2.024762190443433e+01
1	 4.879847754199321e-01	 1.164378421715942e+00	-2.094194238605621e+01
1	 4.647195708066494e-01	 1.173857730101146e+00	-2.162331951956441e+01
1	 6.976924355481020e-01	 1.067169276796399e+00	-1.441360504924288e+01
1	 6.757044419066557e-01	 1.081225465454312e+00	-1.520040947081291e+01
1	 6.534854895787137e-01	 1.094797567987208e+00	-1.597664304297264e+01
1	 6.310512982044615e-01	 1.107880525597236e+00	-1.674120934753518e+01
1	 6.084177001988532e-01	 1.120469946964856e+00	-1.749304203811157e+01
1	 5.856006061203651e-01	 1.132562108708666e+00	-1.823110803560178e+01
1	 5.626159703589236e-01	 1.144153953746409e+00	-1.895441052783975e+01
1	 5.394797572866252e-01	 1.155243087605563e+00	-1.966199175920491e+01
1	 5.162079080088372e-01	 1.165827772742723e+00	-2.035293559793021e+01
1	 4.928163078464036e-01	 1.175906920941005e+00	-2.102636987082086e+01
1	 4.693207546720107e-01	 1.185480083863948e+00	-2.168146845711959e+01
1	 7.045325574659680e-01	 1.077631720687823e+00	-1.450674175026692e+01
1	 6.823289952592447e-01	 1.091825715117267e+00	-1.531166721205384e+01
1	 6.598922100651304e-01	 1.105530877479165e+00	-1.610149651085052e+01
1	 6.372380756379310e-01	 1.118742099379610e+00	-1.687496469671053e+01
1	 6.143825796123554e-01	 1.131454946446909e+00	-1.763085772636959e+01
1	 5.913417885327474e-01	 1.143665658795923e+00	-1.836801589667566e+01
1	 5.681318132046224e-01	 1.155371149373001e+00	-1.908533696728977e+01
1	 5.447687745135287e-01	 1.166569000230403e+00	-1.978177896039660e+01
1	 5.212687698501816e-01	 1.177257456789986e+00	-2.045636262794326e+01
1	 4.976478402738654e-01	 1.187435420166072e+00	-2.110817357972216e+01
1	 4.739219385383718e-01	 1.197102437626749e+00	-2.173636406837872e+01
1	 7.113726793838446e-01	 1.088094164579742e+00	-1.460746535852798e+01
1	 6.889535486120340e-01	 1.102425964780622e+00	-1.542898643633217e+01
1	 6.662989305519171e-01	 1.116264186971437e+00	-1.623098218071736e+01
1	 6.434248530719193e-01	 1.129603673162223e+00	-1.701202109551664e+01
1	 6.203474590265048e-01	 1.142439945929137e+00	-1.777074315634796e+01
1	 5.970829709458856e-01	 1.154769208883302e+00	-1.850586348012071e+01
1	 5.736476560511651e-01	 1.166588344999672e+00	-1.921617557024036e+01
1	 5.500577917413448e-01	 1.177894912855286e+00	-1.990055412714628e+01
1	 5.263296316924875e-01	 1.188687140837267e+00	-2.055795741745785e+01
1	 5.024793727023174e-01	 1.198963919391144e+00	-2.118742919860060e+01
1	 4.785231224057330e-01	 1.208724791389550e+00	-2.178810019929030e+01
1	 7.182128013017320e-01	 1.098556608472156e+00	-1.471555910524988e+01
1	 6.955781019650238e-01	 1.113026214444376e+00	-1.555219395842039e+01
1	 6.727056510390736e-01	 1.126997496464024e+00	-1.636496770394694e+01
1	 6.496116305064261e-01	 1.140465246945077e+00	-1.715228422825183e+01
1	 6.263123384413014e-01	 1.153424945411542e+00	-1.791263919257047e+01
1	 6.028241533597797e-01	 1.165872758970803e+00	-1.864462393672735e+01
1	 5.791634988985525e-01	 1.177805540626420e+00	-1.934692884630627e+01
1	 5.553468089700738e-01	 1.189220825480215e+00	-2.001834617472339e+01
1	 5.313904935357544e-01	 1.200116824884568e+00	-2.065777231620123e+01
1	 5.073109051317600e-01	 1.210492418616221e+00	-2.126420953002663e+01
1	 4.831243062740943e-01	 1.220347145152352e+00	-2.183676712071907e+01
1	 7.250529232196300e-01	 1.109019052365064e+00	-1.483081440161078e+01
1	 7.022026553182140e-01	 1.123626464108531e+00	-1.568112312838299e+01
1	 6.791123715265995e-01	 1.137730805956926e+00	-1.650332572620113e+01
1	 6.557984079414519e-01	 1.151326820728172e+00	-1.729566333829741e+01
1	 6.322772178567455e-01	 1.164409944894123e+00	-1.805648893108830e+01
1	 6.085653357744295e-01	 1.176976309058425e+00	-1.878427143046372e+01
1	 5.846793417467839e-01	 1.189022736253246e+00	-1.947759921039957e+01
1	 5.606358261997154e-01	 1.200546738105186e+00	-2.013518292725529e+01
1	 5.364513553799830e-01	 1.211546508931889e+00	-2.075585769843963e+01
1	 5.121424375621928e-01	 1.222020917841302e+00	-2.133858462930376e+01
1	 4.877254901434555e-01	 1.231969498915153e+00	-2.188245169708215e+01
1	 7.318930451375383e-01	 1.119481496258467e+00	-1.495303045650201e+01
1	 7.088272086716046e-01	 1.134226713773085e+00	-1.581561352618876e+01
1	 6.855190920144951e-01	 1.148464115450143e+00	-1.664593365405188e+01
1	 6.619851853769962e-01	 1.162188394511507e+00	-1.744207106180568e+01
1	 6.382420972728374e-01	 1.175394944376881e+00	-1.820223759520333e+01
1	 6.143065181898355e-01	 1.188079859146170e+00	-1.892478109113100e+01
1	 5.901951845958594e-01	 1.200239931880150e+00	-1.960818898715557e+01
1	 5.659248434302697e-01	 1.211872650730201e+00	-2.025109116871475e+01
1	 5.415122172251726e-01	 1.222976192979229e+00	-2.085226205528914e+01
1	 5.169739699936161e-01	 1.233549417066389e+00	-2.141062193284580e+01
1	 4.923266740138165e-01	 1.243591852677954e+00	-2.192523754552851e+01
1	 7.387331670554576e-01	 1.129943940152365e+00	-1.508201391552295e+01
1	 7.154517620251952e-01	 1.144826963438039e+00	-1.595551067328952e+01
1	 6.919258125027606e-01	 1.159197424943675e+00	-1.679267343456860e+01
1	 6.681719628130595e-01	 1.173049968295084e+00	-1.759142327062707e+01
1	 6.442069766895764e-01	 1.186379943859815e+00	-1.834983243698392e+01
1	 6.200477006059973e-01	 1.199183409234037e+00	-1.906612896964876e+01
1	 5.957110274457796e-01	 1.211457127507132e+00	-1.973870041511168e+01
1	 5.712138606617366e-01	 1.223198563355260e+00	-2.036609669107584e+01
1	 5.465730790713239e-01	 1.234405877026588e+00	-2.094703208189826e+01
1	 5.218055024260299e-01	 1.245077916291480e+00	-2.148038637942149e+01
1	 4.969278578851778e-01	 1.255214206440755e+00	-2.196520518627589e+01
1	 7.455732889733871e-01	 1.140406384046757e+00	-1.521757851984770e+01
1	 7.220763153789865e-01	 1.155427213103392e+00	-1.610066576007456e+01
1	 6.983325329913959e-01	 1.169930734437522e+00	-1.694343134703835e+01
1	 6.743587402496412e-01	 1.183911542078901e+00	-1.774363892388363e+01
1	 6.501718561069627e-01	 1.197364943342925e+00	-1.849922264420241e+01
1	 6.257888830229149e-01	 1.210286959322026e+00	-1.920829199580204e+01
1	 6.012268702965438e-01	 1.222674323134191e+00	-1.986913565065722e+01
1	 5.765028778941165e-01	 1.234524475980362e+00	-2.048022433981784e+01
1	 5.516339409184363e-01	 1.245835561073966e+00	-2.104021275983223e+01
1	 5.266370348594338e-01	 1.256606415516577e+00	-2.154794052472540e+01
1	 5.015290417575390e-01	 1.266836560203556e+00	-2.200243218467149e+01
1	 7.524134108913274e-01	 1.150868827941644e+00	-1.535954478369882e+01
1	 7.287008687329781e-01	 1.166027462769146e+00	-1.625093538819224e+01
1	 7.047392534804007e-01	 1.180664043931685e+00	-1.709809780604713e+01
1	 6.805455176867415e-01	 1.194773115862958e+00	-1.789863992763870e+01
1	 6.561367355249966e-01	 1.208349942826211e+00	-1.865035925234860e+01
1	 6.315300654405884e-01	 1.221390509410137e+00	-1.935124793829273e+01
1	 6.067427131481523e-01	 1.233891518761329e+00	-1.999949677176751e+01
1	 5.817918951274087e-01	 1.245850388605507e+00	-2.059349805694833e+01
1	 5.566948027665101e-01	 1.257265245121364e+00	-2.113184743496307e+01
1	 5.314685672938282e-01	 1.268134914741677e+00	-2.161334464969968e+01
1	 5.061302256309000e-01	 1.278458913966357e+00	-2.203699328550466e+01
1	 4.601183869422882e-01	 1.162235376338345e+00	-2.156181965592669e+01
1	 4.369969884562961e-01	 1.171124942995283e+00	-2.223901929564597e+01
1	 4.138042749547273e-01	 1.179519403004286e+00	-2.287935104730101e+01
1	 3.905553010997264e-01	 1.187420126502869e+00	-2.348187303712498e+01
1	 3.672649221392484e-01	 1.194829057653032e+00	-2.404576956882022e+01
1	 3.439477685578608e-01	 1.201748697753768e+00	-2.457035041087585e+01
1	 3.206182221012706e-01	 1.208182087148427e+00	-2.505504952306554e+01
1	 2.972903932297764e-01	 1.214132786041956e+00	-2.549942325121677e+01
1	 2.739781000458337e-01	 1.219604854344699e+00	-2.590314802207127e+01
1	 2.506948487310247e-01	 1.224602830660197e+00	-2.626601757235060e+01
1	 2.274538155180211e-01	 1.229131710534368e+00	-2.658793974801438e+01
1	 4.647195708066494e-01	 1.173857730101146e+00	-2.162331951956441e+01
1	 4.413669583353180e-01	 1.182836192423920e+00	-2.226733353278884e+01
1	 4.179423176984929e-01	 1.191314597032411e+00	-2.287555039528105e+01
1	 3.944608541049377e-01	 1.199294327765508e+00	-2.344709913719096e+01
1	 3.709375713550830e-01	 1.206777348226831e+00	-2.398122987374289e+01
1	 3.473872462383391e-01	 1.213766184728358e+00	-2.447731300529686e+01
1	 3.238244043178661e-01	 1.220263908016873e+00	-2.493483788393917e+01
1	 3.002632971585618e-01	 1.226274113899371e+00	-2.535341097499595e+01
1	 2.767178810439023e-01	 1.231800902885296e+00	-2.573275354441626e+01
1	 2.532017972172816e-01	 1.236848858964223e+00	-2.607269890511751e+01
1	 2.297283536736934e-01	 1.241423027637528e+00	-2.637318925711867e+01
1	 4.693207546720107e-01	 1.185480083863948e+00	-2.168146845711959e+01
1	 4.457369282153291e-01	 1.194547441852557e+00	-2.229295599530687e+01
1	 4.220803604432159e-01	 1.203109791060537e+00	-2.286969462846256e+01
1	 3.983664071110528e-01	 1.211168529028148e+00	-2.341088345885086e+01
1	 3.746102205717478e-01	 1.218725638800630e+00	-2.391583765455798e+01
1	 3.508267239195530e-01	 1.225783671702948e+00	-2.438398756290134e+01
1	 3.270305865350828e-01	 1.232345728885319e+00	-2.481487731736742e+01
1	 3.032362010878344e-01	 1.238415441756786e+00	-2.520816296578571e+01
1	 2.794576620423047e-01	 1.243996951425893e+00	-2.556361014982674e+01
1	 2.557087457036998e-01	 1.249094887268250e+00	-2.588109136790885e+01
1	 2.320028918293363e-01	 1.253714344740687e+00	-2.616058285519606e+01
1	 4.739219385383718e-01	 1.197102437626749e+00	-2.173636406837872e+01
1	 4.501068980963295e-01	 1.206258691281194e+00	-2.231596508439985e+01
1	 4.262184031888958e-01	 1.214904985088661e+00	-2.286184360455551e+01
1	 4.022719601180718e-01	 1.223042730290787e+00	-2.337326799564790e+01
1	 3.782828697892422e-01	 1.230673929374427e+00	-2.384961774206249e+01
1	 3.542662016015024e-01	 1.237801158677538e+00	-2.429038247310901e+01
1	 3.302367687529205e-01	 1.244427549753766e+00	-2.469516051055573e+01
1	 3.062091050175939e-01	 1.250556769614200e+00	-2.506365696338082e+01
1	 2.821974430410407e-01	 1.256192999966490e+00	-2.539568139898956e+01
1	 2.582156941902795e-01	 1.261340915572276e+00	-2.569114512198592e+01
1	 2.342774299849499e-01	 1.266005661843847e+00	-2.595005809305360e+01
1	 4.785231224057330e-01	 1.208724791389550e+00	-2.178810019929030e+01
1	 4.544768679783190e-01	 1.217969940709831e+00	-2.233643618583759e+01
1	 4.303564459355328e-01	 1.226700179116788e+00	-2.285205487905028e+01
1	 4.061775131259946e-01	 1.234916931553427e+00	-2.333429312598940e+01
1	 3.819555190075666e-01	 1.242622219948226e+00	-2.378259401202269e+01
1	 3.577056792841872e-01	 1.249818645652129e+00	-2.419650580266987e+01
1	 3.334429509713793e-01	 1.256509370622212e+00	-2.457568043197093e+01
1	 3.091820089478404e-01	 1.262698097471615e+00	-2.491987156373738e+01
1	 2.849372240401104e-01	 1.268389048507087e+00	-2.522893225410328e+01
1	 2.607226426770205e-01	 1.273586943876302e+00	-2.550281224548444e+01
1	 2.365519681405341e-01	 1.278296978947007e+00	-2.574155492339016e+01
1	 4.831243062740943e-01	 1.220347145152352e+00	-2.183676712071907e+01
1	 4.588468378612978e-01	 1.229681190138469e+00	-2.235444181355036e+01
1	 4.344944886831269e-01	 1.238495373144913e+00	-2.284038381484738e+01
1	 4.100830661348214e-01	 1.246791132816067e+00	-2.329399769005735e+01
1	 3.856281682267209e-01	 1.254570510522024e+00	-2.371478943065202e+01
1	 3.611451569676077e-01	 1.261836132626718e+00	-2.410236531102901e+01
1	 3.366491331904594e-01	 1.268591191490658e+00	-2.445643031794783e+01
1	 3.121549128785740e-01	 1.274839425329030e+00	-2.477678617820405e+01
1	 2.876770050395138e-01	 1.280585097047684e+00	-2.506332901214008e+01
1	 2.632295911639229e-01	 1.285832972180329e+00	-2.531604664213484e+01
1	 2.388265062960890e-01	 1.290588296050166e+00	-2.553501558642088e+01
1	 4.877254901434555e-01	 1.231969498915153e+00	-2.188245169708215e+01
1	 4.632168077452659e-01	 1.241392439567105e+00	-2.237005174509424e+01
1	 4.386325314316782e-01	 1.250290567173038e+00	-2.282688368568113e+01
1	 4.139886191445520e-01	 1.258665334078706e+00	-2.325241906236654e+01
1	 3.893008174467052e-01	 1.266518801095822e+00	-2.364622609751424e+01
1	 3.645846346517638e-01	 1.273853619601308e+00	-2.400796846482233e+01
1	 3.398553154101606e-01	 1.280673012359104e+00	-2.433740366005385e+01
1	 3.151278168097947e-01	 1.286980753186445e+00	-2.463438099505945e+01
1	 2.904167860392506e-01	 1.292781145588281e+00	-2.489883924188428e+01
1	 2.657365396509867e-01	 1.298079000484355e+00	-2.513080395514964e+01
1	 2.411010444516146e-01	 1.302879613153326e+00	-2.533038450197532e+01
1	 4.923266740138165e-01	 1.243591852677954e+00	-2.192523754552851e+01
1	 4.675867776302232e-01	 1.253103688995743e+00	-2.238333314951828e+01
1	 4.427705741811864e-01	 1.262085761201164e+00	-2.281160577374427e+01
1	 4.178941721551864e-01	 1.270539535341346e+00	-2.320959322025399e+01
1	 3.929734666675194e-01	 1.278467091669621e+00	-2.357692528602139e+01
1	 3.680241123366553e-01	 1.285871106575899e+00	-2.391332245155909e+01
1	 3.430614976304829e-01	 1.292754833227551e+00	-2.421859419316214e+01
1	 3.181007207415024e-01	 1.299122081043860e+00	-2.449263694320728e+01
1	 2.931565670393215e-01	 1.304977194128878e+00	-2.473543172450212e+01
1	 2.682434881382119e-01	 1.310325028788381e+00	-2.494704148593841e+01
1	 2.433755826071108e-01	 1.315170930256486e+00	-2.512760816764629e+01
1	 4.969278578851778e-01	 1.255214206440755e+00	-2.196520518627589e+01
1	 4.719567475161696e-01	 1.264814938424380e+00	-2.239435070812895e+01
1	 4.469086169316517e-01	 1.273880955229289e+00	-2.279459946188949e+01
1	 4.217997251667246e-01	 1.282413736603985e+00	-2.316555480856223e+01
1	 3.966461158891635e-01	 1.290415382243419e+00	-2.350690748168109e+01
1	 3.714635900222824e-01	 1.297888593550488e+00	-2.381843419254454e+01
1	 3.462676798514263e-01	 1.304836654095997e+00	-2.409999588418786e+01
1	 3.210736246736973e-01	 1.311263408901275e+00	-2.435153565788805e+01
1	 2.958963480397257e-01	 1.317173242669475e+00	-2.457307639741286e+01
1	 2.707504366255986e-01	 1.322571057092408e+00	-2.476471811734051e+01
1	 2.456501207625777e-01	 1.327462247359646e+00	-2.492663506259706e+01
1	 5.015290417575390e-01	 1.266836560203556e+00	-2.200243218467149e+01
1	 4.763267174031054e-01	 1.276526187853017e+00	-2.240316672860700e+01
1	 4.510466596830741e-01	 1.285676149257414e+00	-2.277591232075417e+01
1	 4.257052781791671e-01	 1.294287937866625e+00	-2.312033720076382e+01
1	 4.003187651116374e-01	 1.302363672817217e+00	-2.343619241823950e+01
1	 3.749030677086451e-01	 1.309906080525078e+00	-2.372331035509118e+01
1	 3.494738620729909e-01	 1.316918474964443e+00	-2.398160292144358e+01
1	 3.240465286063789e-01	 1.323404736758689e+00	-2.421105944827859e+01
1	 2.986361290404637e-01	 1.329369291210072e+00	-2.441174430124964e+01
1	 2.732573851131466e-01	 1.334817085396434e+00	-2.458379424108155e+01
1	 2.479246589180153e-01	 1.339753564462806e+00	-2.472741555666388e+01
1	 5.061302256309000e-01	 1.278458913966357e+00	-2.203699328550466e+01
1	 4.806966872910303e-01	 1.288237437281654e+00	-2.240984125289922e+01
1	 4.551847024354536e-01	 1.297471343285539e+00	-2.275559019113480e+01
1	 4.296108311925131e-01	 1.306162139129264e+00	-2.307397255675044e+01
1	 4.039914143349413e-01	 1.314311963391015e+00	-2.336479911185190e+01
1	 3.783425453957433e-01	 1.321923567499668e+00	-2.362795736406357e+01
1	 3.526800442951766e-01	 1.329000295832889e+00	-2.386340970457599e+01
1	 3.270194325395477e-01	 1.335546064616104e+00	-2.407119126685824e+01
1	 3.013759100415353e-01	 1.341565339750669e+00	-2.425140752971356e+01
1	 2.757643336008559e-01	 1.347063113700460e+00	-2.440423168918812e+01
1	 2.501991970734234e-01	 1.352044881565965e+00	-2.452990182441604e+01
1	 2.274538155180211e-01	 1.229131710534368e+00	-2.658793974801438e+01
1	 2.042678302137041e-01	 1.233196924082991e+00	-2.690546559131303e+01
1	 1.811493612805352e-01	 1.236804313110804e+00	-2.718838231197050e+01
1	 1.581105024744471e-01	 1.239960107835634e+00	-2.743679340493682e+01
1	 1.351629610294562e-01	 1.242670903327850e+00	-2.765088571860059e+01
1	 1.123180473713980e-01	 1.244943635769421e+00	-2.783092570296958e+01
1	 8.958666633593650e-02	 1.246785558634639e+00	-2.797725547670188e+01
1	 6.697930985936418e-02	 1.248204218889501e+00	-2.809028874415788e+01
1	 4.450605110464890e-02	 1.249207433301722e+00	-2.817050659291197e+01
1	 2.217653997970472e-02	 1.249803264948056e+00	-2.821845320121652e+01
1	 0.000000000000000e+00	 1.250000000000000e+00	-2.823473148377316e+01
1	 2.297283536736934e-01	 1.241423027637528e+00	-2.637318925711867e+01
1	 2.063105085178029e-01	 1.245528893322062e+00	-2.667189737235702e+01
1	 1.829608548964180e-01	 1.249172356240531e+00	-2.693910343501962e+01
1	 1.596916075030363e-01	 1.252359708912939e+00	-2.717489972591419e+01
1	 1.365145906440207e-01	 1.255097612360361e+00	-2.737945272242153e+01
1	 1.134412278494712e-01	 1.257393072126586e+00	-2.755299979099915e+01
1	 9.048253300341476e-02	 1.259253414220649e+00	-2.769584571805662e+01
1	 6.764910296151375e-02	 1.260686261078208e+00	-2.780835910667729e+01
1	 4.495111161837246e-02	 1.261699507634656e+00	-2.789096866602020e+01
1	 2.239830538099112e-02	 1.262301297597516e+00	-2.794415941942633e+01
1	 0.000000000000000e+00	 1.262500000000000e+00	-2.796846885625974e+01
1	 2.320028918293363e-01	 1.253714344740687e+00	-2.616058285519606e+01
1	 2.083531868216939e-01	 1.257860862561134e+00	-2.644090373733998e+01
1	 1.847723485119567e-01	 1.261540399370259e+00	-2.669277123951158e+01
1	 1.612727125311870e-01	 1.264759309990245e+00	-2.691626688614792e+01
1	 1.378662202580929e-01	 1.267524321392872e+00	-2.711153735849405e+01
1	 1.145644083270384e-01	 1.269842508483751e+00	-2.727879162544348e+01
1	 9.137839967041286e-02	 1.271721269806659e+00	-2.741829793206550e+01
1	 6.831889606324743e-02	 1.273168303266915e+00	-2.753038066962878e+01
1	 4.539617213178213e-02	 1.274191581967590e+00	-2.761541715040736e+01
1	 2.262007078210258e-02	 1.274799330246976e+00	-2.767383430985639e+01
1	 0.000000000000000e+00	 1.275000000000000e+00	-2.770610535790822e+01
1	 2.342774299849499e-01	 1.266005661843847e+00	-2.595005809305360e+01
1	 2.103958651253771e-01	 1.270192831800205e+00	-2.621240969838102e+01
1	 1.865838421271515e-01	 1.273908442499986e+00	-2.644929989977410e+01
1	 1.628538175588991e-01	 1.277158911067550e+00	-2.666079990973821e+01
1	 1.392178498716727e-01	 1.279951030425384e+00	-2.684703717150993e+01
1	 1.156875888040997e-01	 1.282291944840916e+00	-2.700819292242674e+01
1	 9.227426633693080e-02	 1.284189125392670e+00	-2.714449963408779e+01
1	 6.898868916456520e-02	 1.285650345455622e+00	-2.725623834950373e+01
1	 4.584123264487796e-02	 1.286683656300524e+00	-2.734373593700557e+01
1	 2.284183618303908e-02	 1.287297362896436e+00	-2.740736228011021e+01
1	 0.000000000000000e+00	 1.287500000000000e+00	-2.744752742184816e+01
1	 2.365519681405341e-01	 1.278296978947007e+00	-2.574155492339016e+01
1	 2.124385434288524e-01	 1.282524801039276e+00	-2.598634315174824e+01
1	 1.883953357420022e-01	 1.286276485629713e+00	-2.620860689112231e+01
1	 1.644349225861726e-01	 1.289558512144856e+00	-2.640840747370418e+01
1	 1.405694794847602e-01	 1.292377739457896e+00	-2.658585364675032e+01
1	 1.168107692806550e-01	 1.294741381198081e+00	-2.674109956283727e+01
1	 9.317013300296850e-02	 1.296656980978679e+00	-2.687434266581502e+01
1	 6.965848226546710e-02	 1.298132387644329e+00	-2.698582148908256e+01
1	 4.628629315765993e-02	 1.299175730633459e+00	-2.707581338248105e+01
1	 2.306360158380064e-02	 1.299795395545896e+00	-2.714463218365330e+01
1	 0.000000000000000e+00	 1.300000000000000e+00	-2.719262584916580e+01
1	 2.388265062960890e-01	 1.290588296050166e+00	-2.553501558642088e+01
1	 2.144812217321199e-01	 1.294856770278347e+00	-2.576263474051866e+01
1	 1.902068293565090e-01	 1.298644528759439e+00	-2.597061283266856e+01
1	 1.660160276130074e-01	 1.301958113222162e+00	-2.615900173403572e+01
1	 1.419211090973555e-01	 1.304804448490407e+00	-2.632789202243752e+01
1	 1.179339497567045e-01	 1.307190817555246e+00	-2.647741139400551e+01
1	 9.406599966852608e-02	 1.309124836564689e+00	-2.660772298925535e+01
1	 7.032827536595314e-02	 1.310614429833036e+00	-2.671902364665862e+01
1	 4.673135367012803e-02	 1.311667804966393e+00	-2.681154209657894e+01
1	 2.328536698438725e-02	 1.312293428195356e+00	-2.688553710810467e+01
1	 0.000000000000000e+00	 1.312500000000000e+00	-2.694129560090634e+01
1	 2.411010444516146e-01	 1.302879613153326e+00	-2.533038450197532e+01
1	 2.165239000351797e-01	 1.307188739517419e+00	-2.554121772501144e+01
1	 1.920183229706717e-01	 1.311012571889167e+00	-2.573524133903062e+01
1	 1.675971326394038e-01	 1.314357714299468e+00	-2.591249816159081e+01
1	 1.432727387094584e-01	 1.317231157522919e+00	-2.607306111271018e+01
1	 1.190571302322480e-01	 1.319640253912411e+00	-2.621703204260838e+01
1	 9.496186633360344e-02	 1.321592692150699e+00	-2.634454049237888e+01
1	 7.099806846602327e-02	 1.323096472021744e+00	-2.645574239719389e+01
1	 4.717641418228224e-02	 1.324159879299327e+00	-2.655081874150740e+01
1	 2.350713238479890e-02	 1.324791460844816e+00	-2.662997417551319e+01
1	 0.000000000000000e+00	 1.325000000000000e+00	-2.669343560184927e+01
1	 2.433755826071108e-01	 1.315170930256486e+00	-2.512760816764629e+01
1	 2.185665783380317e-01	 1.319520708756490e+00	-2.532202786048706e+01
1	 1.938298165844906e-01	 1.323380615018894e+00	-2.550241888035418e+01
1	 1.691782376653614e-01	 1.326757315376773e+00	-2.566881538719539e+01
1	 1.446243683210689e-01	 1.329657866555430e+00	-2.582127314052419e+01
1	 1.201803107072856e-01	 1.332089690269576e+00	-2.595986873806357e+01
1	 9.585773299820063e-02	 1.334060547736709e+00	-2.608469880566161e+01
1	 7.166786156567753e-02	 1.335578514210451e+00	-2.619587914462359e+01
1	 4.762147469412262e-02	 1.336651953632262e+00	-2.629354384256950e+01
1	 2.372889778503561e-02	 1.337289493494276e+00	-2.637784435383251e+01
1	 0.000000000000000e+00	 1.337500000000000e+00	-2.644894855528717e+01
1	 2.456501207625777e-01	 1.327462247359646e+00	-2.492663506259706e+01
1	 2.206092566406758e-01	 1.331852677995562e+00	-2.510500328164069e+01
1	 1.956413101979653e-01	 1.335748658148621e+00	-2.527207465011287e+01
1	 1.707593426908806e-01	 1.339156916454079e+00	-2.542787505534855e+01
1	 1.459759979321872e-01	 1.342084575587941e+00	-2.557244357983689e+01
1	 1.213034911818173e-01	 1.344539126626741e+00	-2.570583214573645e+01
1	 9.675359966231767e-02	 1.346528403322719e+00	-2.582810512882108e+01
1	 7.233765466491589e-02	 1.348060556399157e+00	-2.593933894458900e+01
1	 4.806653520564912e-02	 1.349144027965196e+00	-2.603962160931653e+01
1	 2.395066318509738e-02	 1.349787526143736e+00	-2.612905227887000e+01
1	 0.000000000000000e+00	 1.350000000000000e+00	-2.620774076809452e+01
1	 2.479246589180153e-01	 1.339753564462806e+00	-2.472741555666388e+01
1	 2.226519349431121e-01	 1.344184647234633e+00	-2.489008439345380e+01
1	 1.974528038110961e-01	 1.348116701278348e+00	-2.504414044018506e+01
1	 1.723404477159611e-01	 1.351556517531384e+00	-2.518960168598040e+01
1	 1.473276275428132e-01	 1.354511284620453e+00	-2.532649100647889e+01
1	 1.224266716558430e-01	 1.356988562983906e+00	-2.545483620932737e+01
1	 9.764946632595450e-02	 1.358996258908729e+00	-2.557467006708998e+01
1	 7.300744776373835e-02	 1.360542598587865e+00	-2.568603033692843e+01
1	 4.851159571686176e-02	 1.361636102298130e+00	-2.578895976654570e+01
1	 2.417242858498419e-02	 1.362285558793196e+00	-2.588350608603674e+01
1	 0.000000000000000e+00	 1.362500000000000e+00	-2.596972198542588e+01
1	 2.501991970734234e-01	 1.352044881565965e+00	-2.452990182441604e+01
1	 2.246946132453406e-01	 1.356516616473704e+00	-2.467721376799956e+01
1	 1.992642974238829e-01	 1.360484744408075e+00	-2.481855052274414e+01
1	 1.739215527406030e-01	 1.363956118608690e+00	-2.495392254375091e+01
1	 1.486792571529468e-01	 1.366937993652964e+00	-2.508333695715964e+01
1	 1.235498521293628e-01	 1.369437999341071e+00	-2.520679800185682e+01
1	 9.854533298911115e-02	 1.371464114494739e+00	-2.532430747641980e+01
1	 7.367724086214492e-02	 1.373024640776572e+00	-2.543586518730399e+01
1	 4.895665622776053e-02	 1.374128176631064e+00	-2.554146939451621e+01
1	 2.439419398469604e-02	 1.374783591442656e+00	-2.564111725127383e+01
1	 0.000000000000000e+00	 1.375000000000000e+00	-2.573480523443025e+01
1	 1.375000000000000e+00	 0.000000000000000e+00	 1.059743720519859e+01
1	 1.374783591442656e+00	 2.439419398469526e-02	 1.042716729976542e+01
1	 1.374128176631064e+00	 4.895665622775984e-02	 1.023315064709135e+01
1	 1.373024640776572e+00	 7.367724086214431e-02	 1.001527633297426e+01
1	 1.371464114494739e+00	 9.854533298911061e-02	 9.773479462209327e+00
1	 1.369437999341071e+00	 1.235498521293624e-01	 9.507743107303073e+00
1	 1.366937993652964e+00	 1.486792571529464e-01	 9.218100145494333e+00
1	 1.363956118608690e+00	 1.739215527406027e-01	 8.904634967836035e+00
1	 1.360484744408075e+00	 1.992642974238827e-01	 8.567485044021652e+00
1	 1.356516616473704e+00	 2.246946132453406e-01	 8.206842326712753e+00
1	 1.352044881565965e+00	 2.501991970734234e-01	 7.822954479346902e+00
1	 1.387500000000000e+00	 0.000000000000000e+00	 1.025267466440586e+01
1	 1.387281624092118e+00	 2.461595938431963e-02	 1.008601493987497e+01
1	 1.386620250964008e+00	 4.940171673850166e-02	 9.895840881865322e+00
1	 1.385506682965300e+00	 7.434703396034295e-02	 9.682060678408718e+00
1	 1.383931970080787e+00	 9.944119965202716e-02	 9.444629128193609e+00
1	 1.381887435698295e+00	 1.246730326026292e-01	 9.183549552922051e+00
1	 1.379364702685561e+00	 1.500308867628339e-01	 8.898875593092425e+00
1	 1.376355719686112e+00	 1.755026577650253e-01	 8.590712870890837e+00
1	 1.372852787537955e+00	 2.010757910364976e-01	 8.259220503837254e+00
1	 1.368848585712971e+00	 2.267372915474652e-01	 7.904612452940112e+00
1	 1.364336198669367e+00	 2.524737352288170e-01	 7.527158689373712e+00
1	 1.400000000000000e+00	 0.000000000000000e+00	 9.918692558139112e+00
1	 1.399779656741585e+00	 2.483772478394402e-02	 9.755767177637509e+00
1	 1.399112325296970e+00	 4.984677724924350e-02	 9.569560331915920e+00
1	 1.397988725154069e+00	 7.501682705854158e-02	 9.359999130504432e+00
1	 1.396399825666909e+00	 1.003370663149437e-01	 9.127057878638865e+00
1	 1.394336872055636e+00	 1.257962130758961e-01	 8.870759953574595e+00
1	 1.391791411718328e+00	 1.513825163727214e-01	 8.591179559486919e+00
1	 1.388755320763768e+00	 1.770837627894480e-01	 8.288443344570886e+00
1	 1.385220830668143e+00	 2.028872846491123e-01	 7.962731863948544e+00
1	 1.381180554952629e+00	 2.287799698495898e-01	 7.614280872134252e+00
1	 1.376627515773255e+00	 2.547482733842105e-01	 7.243382429107470e+00
1	 1.412500000000000e+00	 0.000000000000000e+00	 9.595204680172326e+00
1	 1.412277689391056e+00	 2.505949018356840e-02	 9.436134510460718e+00
1	 1.411604399629950e+00	 5.029183775998533e-02	 9.254016186218234e+00
1	 1.410470767342881e+00	 7.568662015674019e-02	 9.048795562535842e+00
1	 1.408867681253106e+00	 1.012329329778603e-01	 8.820466268824671e+00
1	 1.406786308413095e+00	 1.269193935491629e-01	 8.569071549392085e+00
1	 1.404218120751266e+00	 1.527341459826088e-01	 8.294705977806334e+00
1	 1.401154921841658e+00	 1.786648678138706e-01	 7.997517028593006e+00
1	 1.397588873798637e+00	 2.046987782617271e-01	 7.677706489832911e+00
1	 1.393512524192677e+00	 2.308226481517144e-01	 7.335531700409188e+00
1	 1.388918832877628e+00	 2.570228115396040e-01	 6.971306595987210e+00
1	 1.425000000000000e+00	 0.000000000000000e+00	 9.281934866603203e+00
1	 1.424775722040532e+00	 2.528125558319277e-02	 9.126837593737974e+00
1	 1.424096473962949e+00	 5.073689827072717e-02	 8.948925907818378e+00
1	 1.422952809531734e+00	 7.635641325493886e-02	 8.748164238188821e+00
1	 1.421335536839377e+00	 1.021287996407769e-01	 8.524565360862903e+00
1	 1.419235744770672e+00	 1.280425740224298e-01	 8.278192203659183e+00
1	 1.416644829784374e+00	 1.540857755924963e-01	 8.009159520367717e+00
1	 1.413554522919780e+00	 1.802459728382932e-01	 7.717635417420828e+00
1	 1.409956916929438e+00	 2.065102718743419e-01	 7.403842716600159e+00
1	 1.405844493433116e+00	 2.328653264538391e-01	 7.068060137524123e+00
1	 1.401210149982486e+00	 2.592973496949976e-01	 6.710623284033105e+00
1	 1.437500000000000e+00	 0.000000000000000e+00	 8.978616559230352e+00
1	 1.437273754690013e+00	 2.550302098281715e-02	 8.827606799196783e+00
1	 1.436588548295966e+00	 5.118195878146901e-02	 8.654016787134811e+00
1	 1.435434851720629e+00	 7.702620635313746e-02	 8.457829359803627e+00
1	 1.433803392425724e+00	 1.030246663036934e-01	 8.239076266878904e+00
1	 1.431685181128366e+00	 1.291657544956966e-01	 7.997839940937629e+00
1	 1.429071538817652e+00	 1.554374052023837e-01	 7.734255131755337e+00
1	 1.425954123998137e+00	 1.818270778627159e-01	 7.448510388319263e+00
1	 1.422324960060546e+00	 2.083217654869567e-01	 7.140849372051971e+00
1	 1.418176462673946e+00	 2.349080047559637e-01	 6.811571984985804e+00
1	 1.413501467087830e+00	 2.615718878503911e-01	 6.461035297038606e+00
1	 1.450000000000000e+00	 0.000000000000000e+00	 8.684992391514506e+00
1	 1.449771787339498e+00	 2.572478638244153e-02	 8.538181796091298e+00
1	 1.449080622629002e+00	 5.162701929221086e-02	 8.369025518364598e+00
1	 1.447916893909566e+00	 7.769599945133610e-02	 8.177524639984693e+00
1	 1.446271248012145e+00	 1.039205329666100e-01	 7.963729715821328e+00
1	 1.444134617486178e+00	 1.302889349689635e-01	 7.727742509080151e+00
1	 1.441498247851101e+00	 1.567890348122712e-01	 7.469717586050574e+00
1	 1.438353725076727e+00	 1.834081828871385e-01	 7.189863753819967e+00
1	 1.434693003191961e+00	 2.101332590995715e-01	 6.888445324410701e+00
1	 1.430508431915167e+00	 2.369506830580883e-01	 6.565783189076662e+00
1	 1.425792784193659e+00	 2.638464260057847e-01	 6.222255686942280e+00
1	 1.462500000000000e+00	 0.000000000000000e+00	 8.400813795772438e+00
1	 1.462269819988988e+00	 2.594655178206591e-02	 8.258311153872091e+00
1	 1.461572696962056e+00	 5.207207980295267e-02	 8.093697797612663e+00
1	 1.460398936098544e+00	 7.836579254953473e-02	 7.906992895178973e+00
1	 1.458739103598641e+00	 1.048163996295265e-01	 7.698265642486717e+00
1	 1.456584053844107e+00	 1.314121154422303e-01	 7.467636963705203e+00
1	 1.453924956884720e+00	 1.581406644221587e-01	 7.215281066767968e+00
1	 1.450753326155549e+00	 1.849892879115611e-01	 6.941426837137328e+00
1	 1.447061046323683e+00	 2.119447527121864e-01	 6.646359053241548e+00
1	 1.442840401156778e+00	 2.389933613602129e-01	 6.330419407317370e+00
1	 1.438084101299973e+00	 2.661209641611783e-01	 5.994007315872896e+00
1	 1.475000000000000e+00	 0.000000000000000e+00	 8.125840630344060e+00
1	 1.474767852638482e+00	 2.616831718169029e-02	 7.987751965059206e+00
1	 1.474064771295128e+00	 5.251714031369450e-02	 7.827787941454893e+00
1	 1.472880978287565e+00	 7.903558564773337e-02	 7.645985659920008e+00
1	 1.471206959185211e+00	 1.057122662924431e-01	 7.442432797441237e+00
1	 1.469033490202154e+00	 1.325352959154971e-01	 7.217269273800099e+00
1	 1.466351665918510e+00	 1.594922940320462e-01	 6.970688768150371e+00
1	 1.463152927234607e+00	 1.865703929359837e-01	 6.702940069173378e+00
1	 1.459429089455712e+00	 2.137562463248012e-01	 6.414328242192296e+00
1	 1.455172370398780e+00	 2.410360396623376e-01	 6.105215596973698e+00
1	 1.450375418406773e+00	 2.683955023165718e-01	 5.776022440463345e+00
1	 1.487500000000000e+00	 0.000000000000000e+00	 7.859840825557850e+00
1	 1.487265885287981e+00	 2.639008258131467e-02	 7.726269487129978e+00
1	 1.486556845628220e+00	 5.296220082443635e-02	 7.571058524733552e+00
1	 1.485363020476627e+00	 7.970537874593198e-02	 7.394262820521718e+00
1	 1.483674814771857e+00	 1.066081329553596e-01	 7.195988376610185e+00
1	 1.481482926560319e+00	 1.336584763887640e-01	 6.976393947209741e+00
1	 1.478778374952471e+00	 1.608439236419336e-01	 6.735692516566935e+00
1	 1.475552528313897e+00	 1.881514979604064e-01	 6.474152605841875e+00
1	 1.471797132588047e+00	 2.155677399374159e-01	 6.192099392267098e+00
1	 1.467504339641173e+00	 2.430787179644622e-01	 5.889915624310946e+00
1	 1.462666735514058e+00	 2.706700404719652e-01	 5.568042317123661e+00
1	 1.500000000000000e+00	 0.000000000000000e+00	 7.602590047397999e+00
1	 1.499763917937484e+00	 2.661184798093904e-02	 7.473636802312496e+00
1	 1.499048919961329e+00	 5.340726133517817e-02	 7.323280036462823e+00
1	 1.497845062665731e+00	 8.037517184413061e-02	 7.151592267087549e+00
1	 1.496142670358577e+00	 1.075039996182762e-01	 6.958697669387988e+00
1	 1.493932362918601e+00	 1.347816568620308e-01	 6.744773674850904e+00
1	 1.491205083986601e+00	 1.621955532518211e-01	 6.510052410841219e+00
1	 1.487952129393420e+00	 1.897326029848289e-01	 6.254821964526153e+00
1	 1.484165175720690e+00	 2.173792335500308e-01	 5.979427454436717e+00
1	 1.479836308883957e+00	 2.451213962665869e-01	 5.684271893385592e+00
1	 1.474958052621828e+00	 2.729445786273588e-01	 5.369816827050212e+00
1	 1.352044881565965e+00	 2.501991970734234e-01	 7.822954479346902e+00
1	 1.347063113700461e+00	 2.757643336008552e-01	 7.604592738890353e+00
1	 1.341565339750669e+00	 3.013759100415347e-01	 7.361286656589447e+00
1	 1.335546064616104e+00	 3.270194325395472e-01	 7.093575977291705e+00
1	 1.329000295832889e+00	 3.526800442951761e-01	 6.802072878433769e+00
1	 1.321923567499668e+00	 3.783425453957430e-01	 6.487461878600406e+00
1	 1.314311963391016e+00	 4.039914143349411e-01	 6.150499403096586e+00
1	 1.306162139129264e+00	 4.296108311925129e-01	 5.792012995131881e+00
1	 1.297471343285539e+00	 4.551847024354536e-01	 5.412900163439685e+00
1	 1.288237437281654e+00	 4.806966872910303e-01	 5.014126859579018e+00
1	 1.278458913966357e+00	 5.061302256309002e-01	 4.596725580776368e+00
1	 1.364336198669367e+00	 2.524737352288170e-01	 7.527158689373712e+00
1	 1.359309142004773e+00	 2.782712820886430e-01	 7.317537740623873e+00
1	 1.353761388291581e+00	 3.041156910427638e-01	 7.083584643798633e+00
1	 1.347687392473848e+00	 3.299923364729382e-01	 6.825772359938023e+00
1	 1.341082116701665e+00	 3.558862265176344e-01	 6.544642938828924e+00
1	 1.333941054474572e+00	 3.817820230831492e-01	 6.240807590801873e+00
1	 1.326260253965098e+00	 4.076640635585734e-01	 5.914946437594866e+00
1	 1.318036340392143e+00	 4.335163842061925e-01	 5.567807930668069e+00
1	 1.309266537313843e+00	 4.593227451881562e-01	 5.200207927391865e+00
1	 1.299948686710394e+00	 4.850666571792523e-01	 4.813028417766784e+00
1	 1.290081267729169e+00	 5.107314095045163e-01	 4.407215896749388e+00
1	 1.376627515773255e+00	 2.547482733842105e-01	 7.243382429107470e+00
1	 1.371555170309656e+00	 2.807782305764259e-01	 7.041871379447148e+00
1	 1.365957436833121e+00	 3.068554720439740e-01	 6.816631155698012e+00
1	 1.359828720332250e+00	 3.329652404062867e-01	 6.568068862953783e+00
1	 1.353163937571098e+00	 3.590924087400163e-01	 6.296657395062496e+00
1	 1.345958541450105e+00	 3.852215007704358e-01	 6.002935667830634e+00
1	 1.338208544539750e+00	 4.113367127820325e-01	 5.687508553088544e+00
1	 1.329910541655500e+00	 4.374219372196355e-01	 5.351046501786485e+00
1	 1.321061731342504e+00	 4.634607879405481e-01	 4.994284846147955e+00
1	 1.311659936139337e+00	 4.894366270670794e-01	 4.618022772954177e+00
1	 1.301703621492001e+00	 5.153325933776431e-01	 4.223121962258902e+00
1	 1.388918832877628e+00	 2.570228115396040e-01	 6.971306595987210e+00
1	 1.383801198615110e+00	 2.832851790642043e-01	 6.777291302160894e+00
1	 1.378153485375291e+00	 3.095952530451653e-01	 6.560140833223117e+00
1	 1.371970048191311e+00	 3.359381443395925e-01	 6.320197341548956e+00
1	 1.365245758441190e+00	 3.622985909623221e-01	 6.057865510960879e+00
1	 1.357976028426266e+00	 3.886609784576026e-01	 5.773612949558320e+00
1	 1.350156835114969e+00	 4.150093620053185e-01	 5.467970304949940e+00
1	 1.341784742919335e+00	 4.413274902328413e-01	 5.141531089844749e+00
1	 1.332856925371522e+00	 4.675988306926294e-01	 4.794951207635812e+00
1	 1.323371185568486e+00	 4.938065969545113e-01	 4.428948169471932e+00
1	 1.313325975254853e+00	 5.199337772502799e-01	 4.044299996347982e+00
1	 1.401210149982486e+00	 2.592973496949976e-01	 6.710623284033105e+00
1	 1.396047226921136e+00	 2.857921275519781e-01	 6.523505764450073e+00
1	 1.390349533918090e+00	 3.123350340463378e-01	 6.313838329908291e+00
1	 1.384111376051029e+00	 3.389110482728556e-01	 6.081899059522728e+00
1	 1.377327579311940e+00	 3.655047731845517e-01	 5.828025348111030e+00
1	 1.369993515403056e+00	 3.921004561446497e-01	 5.552614456913763e+00
1	 1.362105125690758e+00	 4.186820112284312e-01	 5.256123808012115e+00
1	 1.353658944183649e+00	 4.452330432458106e-01	 4.939071010187986e+00
1	 1.344652119400897e+00	 4.717368734443999e-01	 4.602033605470102e+00
1	 1.335082434997839e+00	 4.981765668415484e-01	 4.245648527288264e+00
1	 1.324948329017727e+00	 5.245349611224271e-01	 3.870611263005620e+00
1	 1.413501467087830e+00	 2.615718878503911e-01	 6.461035297038606e+00
1	 1.408293255227734e+00	 2.882990760397471e-01	 6.280233169628085e+00
1	 1.402545582461518e+00	 3.150748150474914e-01	 6.077457876556343e+00
1	 1.396252703911406e+00	 3.418839522060762e-01	 5.852924280194364e+00
1	 1.389409400183348e+00	 3.687109554067051e-01	 5.606903383349144e+00
1	 1.382011002380474e+00	 3.955399338315773e-01	 5.339723036184857e+00
1	 1.374053416267115e+00	 4.223546604513709e-01	 5.051768407896581e+00
1	 1.365533145448441e+00	 4.491385962585428e-01	 4.743482210671116e+00
1	 1.356447313430629e+00	 4.758749161958595e-01	 4.415364664791960e+00
1	 1.346793684427397e+00	 5.025465367281904e-01	 4.067973195242154e+00
1	 1.336570682780620e+00	 5.291361449940847e-01	 3.701921851821202e+00
1	 1.425792784193659e+00	 2.638464260057847e-01	 6.222255686942280e+00
1	 1.420539283534902e+00	 2.908060245275114e-01	 6.047201631238961e+00
1	 1.414741631005576e+00	 3.178145960486264e-01	 5.850742868425217e+00
1	 1.408394031772441e+00	 3.448568561392540e-01	 5.633031878492899e+00
1	 1.401491221055414e+00	 3.719171376287824e-01	 5.394274146034371e+00
1	 1.394028489358520e+00	 3.989794115183852e-01	 5.134729021718616e+00
1	 1.386001706844041e+00	 4.260273096741372e-01	 4.854710369341406e+00
1	 1.377407346713711e+00	 4.530441492710384e-01	 4.554586985774802e+00
1	 1.368242507460718e+00	 4.800129589470085e-01	 4.234782782289447e+00
1	 1.358504933857160e+00	 5.069165066144373e-01	 3.895776717040218e+00
1	 1.348193036543535e+00	 5.337373288652523e-01	 3.538102469984503e+00
1	 1.438084101299973e+00	 2.661209641611783e-01	 5.994007315872896e+00
1	 1.432785311842642e+00	 2.933129730152711e-01	 5.824148558090243e+00
1	 1.426937679550262e+00	 3.205543770497423e-01	 5.633445473584624e+00
1	 1.420535359634135e+00	 3.478297600723892e-01	 5.421988972939607e+00
1	 1.413573041928139e+00	 3.751233198507835e-01	 5.189919873923888e+00
1	 1.406045976337195e+00	 4.024188892050735e-01	 4.937429915918598e+00
1	 1.397949997421535e+00	 4.296999588967306e-01	 4.664762580512500e+00
1	 1.389281547979460e+00	 4.569497022832971e-01	 4.372213705382126e+00
1	 1.380037701491165e+00	 4.841510016978469e-01	 4.060131879550180e+00
1	 1.370216183287127e+00	 5.112864765002894e-01	 3.728918609253831e+00
1	 1.359815390306469e+00	 5.383385127359304e-01	 3.379028244952333e+00
1	 1.450375418406773e+00	 2.683955023165718e-01	 5.776022440463345e+00
1	 1.445031340150954e+00	 2.958199215030261e-01	 5.610820260385887e+00
1	 1.439133728095578e+00	 3.232941580508395e-01	 5.425326261186713e+00
1	 1.432676687496486e+00	 3.508026640054819e-01	 5.219570576343237e+00
1	 1.425654862801522e+00	 3.783295020727082e-01	 4.993630186545900e+00
1	 1.418063463316499e+00	 4.058583668916420e-01	 4.747630085513769e+00
1	 1.409898287999598e+00	 4.333726081191508e-01	 4.481744272349823e+00
1	 1.401155749245687e+00	 4.608552552953189e-01	 4.196196557346284e+00
1	 1.391832895521968e+00	 4.882890444483744e-01	 3.891261168955495e+00
1	 1.381927432717298e+00	 5.156564463857464e-01	 3.567263150604530e+00
1	 1.371437744069425e+00	 5.429396966061187e-01	 3.224578537149082e+00
1	 1.462666735514058e+00	 2.706700404719652e-01	 5.568042317123661e+00
1	 1.457277368459836e+00	 2.983268699907763e-01	 5.406971575718007e+00
1	 1.451329776641522e+00	 3.260339390519178e-01	 5.226153848479450e+00
1	 1.444818015359496e+00	 3.537755679385318e-01	 5.025559264107279e+00
1	 1.437736683675562e+00	 3.815356842945568e-01	 4.805201775041150e+00
1	 1.430080950296430e+00	 4.092978445780909e-01	 4.565140473141382e+00
1	 1.421846578578230e+00	 4.370452573413978e-01	 4.305480752064355e+00
1	 1.413029950512391e+00	 4.647608083071040e-01	 4.026375303038055e+00
1	 1.403628089553128e+00	 4.924270871985911e-01	 3.728024931378122e+00
1	 1.393638682147674e+00	 5.200264162708083e-01	 3.410679181873637e+00
1	 1.383060097832401e+00	 5.475408804758173e-01	 3.074636762110976e+00
1	 1.474958052621828e+00	 2.729445786273588e-01	 5.369816827050212e+00
1	 1.469523396769290e+00	 3.008338184785218e-01	 5.212365513759043e+00
1	 1.463525825188096e+00	 3.287737200529772e-01	 5.035704565469215e+00
1	 1.456959343223164e+00	 3.567484718715391e-01	 4.839744859121792e+00
1	 1.449818504550261e+00	 3.847418665163292e-01	 4.624438107512439e+00
1	 1.442098437276991e+00	 4.127373222644202e-01	 4.389778323350852e+00
1	 1.433794869157430e+00	 4.407179065634715e-01	 4.135803149960067e+00
1	 1.424904151779575e+00	 4.686663613186522e-01	 3.862595045115886e+00
1	 1.415423283584646e+00	 4.965651299484973e-01	 3.570282304995066e+00
1	 1.405349931578255e+00	 5.243963861554752e-01	 3.259039915816499e+00
1	 1.394682451595397e+00	 5.521420643450261e-01	 2.929090221523010e+00
1	 1.278458913966357e+00	 5.061302256309002e-01	 4.596725580776368e+00
1	 1.268134914741677e+00	 5.314685672938273e-01	 4.188635851637018e+00
1	 1.257265245121364e+00	 5.566948027665093e-01	 3.759773562350352e+00
1	 1.245850388605507e+00	 5.817918951274083e-01	 3.311048042120392e+00
1	 1.233891518761329e+00	 6.067427131481519e-01	 2.843434572543667e+00
1	 1.221390509410137e+00	 6.315300654405880e-01	 2.357972141627441e+00
1	 1.208349942826211e+00	 6.561367355249965e-01	 1.855760836175305e+00
1	 1.194773115862958e+00	 6.805455176867415e-01	 1.337958879308443e+00
1	 1.180664043931685e+00	 7.047392534804008e-01	 8.057793229288246e-01
1	 1.166027462769146e+00	 7.287008687329783e-01	 2.604864079683733e-01
1	 1.150868827941644e+00	 7.524134108913275e-01	-2.966083917286272e-01
1	 1.290081267729169e+00	 5.107314095045163e-01	 4.407215896749388e+00
1	 1.279663413966696e+00	 5.363000997284292e-01	 4.009205324461623e+00
1	 1.268694929168601e+00	 5.617556646147478e-01	 3.590793587340034e+00
1	 1.257176301230428e+00	 5.870809123608272e-01	 3.152876164724103e+00
1	 1.245108714388191e+00	 6.122585559998535e-01	 2.696413256664802e+00
1	 1.232494059497939e+00	 6.372712478583265e-01	 2.222427562070552e+00
1	 1.219334942309169e+00	 6.621016149430717e-01	 1.732001701644884e+00
1	 1.205634689646682e+00	 6.867322951238657e-01	 1.226275292379683e+00
1	 1.191397353425526e+00	 7.111459739694163e-01	 7.064416833551600e-01
1	 1.176627712434604e+00	 7.353254220869723e-01	 1.737443655829457e-01
1	 1.161331271836279e+00	 7.592535328092679e-01	-3.705269284206910e-01
1	 1.301703621492001e+00	 5.153325933776431e-01	 4.223121962258902e+00
1	 1.291191913191545e+00	 5.411316321624557e-01	 3.835051321977016e+00
1	 1.280124613215495e+00	 5.668165264623538e-01	 3.426945204213670e+00
1	 1.268502213854855e+00	 5.923699295935861e-01	 2.999685437463326e+00
1	 1.256325910014428e+00	 6.177743988508976e-01	 2.554217356473284e+00
1	 1.243597609585001e+00	 6.430124302754390e-01	 2.091547604131846e+00
1	 1.230319941791294e+00	 6.680664943605835e-01	 1.612741584483105e+00
1	 1.216496263429501e+00	 6.929190725605179e-01	 1.118920573628833e+00
1	 1.202130662918409e+00	 7.175526944580828e-01	 6.112584982141659e-01
1	 1.187227962099074e+00	 7.419499754407718e-01	 9.097839412857700e-02
1	 1.171793715729913e+00	 7.660936547271976e-01	-4.406514390496298e-01
1	 1.313325975254853e+00	 5.199337772502799e-01	 4.044299996347982e+00
1	 1.302720412416223e+00	 5.459631645959069e-01	 3.666033759461243e+00
1	 1.291554297262048e+00	 5.718773883093278e-01	 3.268092176022957e+00
1	 1.279828126478787e+00	 5.976589468256857e-01	 2.851343617418359e+00
1	 1.267543105640037e+00	 6.232902417012837e-01	 2.416718763592104e+00
1	 1.254701159671323e+00	 6.487536126919254e-01	 1.965208428303090e+00
1	 1.241304941272585e+00	 6.740313737775310e-01	 1.497861041754374e+00
1	 1.227357837211414e+00	 6.991058499966986e-01	 1.015779797354879e+00
1	 1.212863972410334e+00	 7.239594149464007e-01	 5.201194722577446e-01
1	 1.197828211762553e+00	 7.485745287943757e-01	 1.208293420164830e-02
1	 1.182256159622547e+00	 7.729337766451166e-01	-5.070826499702467e-01
1	 1.324948329017727e+00	 5.245349611224271e-01	 3.870611263005620e+00
1	 1.314248911640731e+00	 5.507946970287825e-01	 3.502017467445739e+00
1	 1.302983981308260e+00	 5.769382501556699e-01	 3.114103046063351e+00
1	 1.291154039102225e+00	 6.029479640571251e-01	 2.707723101771927e+00
1	 1.278760301265018e+00	 6.288060845510121e-01	 2.283793864674920e+00
1	 1.265804709756905e+00	 6.544947951077862e-01	 1.843290540321912e+00
1	 1.252289940753044e+00	 6.799962531939144e-01	 1.387244821503129e+00
1	 1.238219410992422e+00	 7.052926274324078e-01	 9.167420703375514e-01
1	 1.223597281901301e+00	 7.303661354343699e-01	 4.329181802462969e-01
1	 1.208428461425044e+00	 7.551990821477844e-01	-6.304386976286813e-02
1	 1.192718603514182e+00	 7.797738985630251e-01	-5.699177532794475e-01
1	 1.336570682780620e+00	 5.291361449940847e-01	 3.701921851821202e+00
1	 1.325777410865070e+00	 5.556262294610830e-01	 3.342871978008675e+00
1	 1.314413665354130e+00	 5.819991120013793e-01	 2.964850930037382e+00
1	 1.302479951725169e+00	 6.082369812879048e-01	 2.568700726065522e+00
1	 1.289977496889373e+00	 6.343219274000825e-01	 2.155323345970057e+00
1	 1.276908259841745e+00	 6.602359775230207e-01	 1.725678602247959e+00
1	 1.263274940232669e+00	 6.859611326097342e-01	 1.280781680537425e+00
1	 1.249080984772522e+00	 7.114794048676448e-01	 8.217003565117992e-01
1	 1.234330591391309e+00	 7.367728559219902e-01	 3.495518986876157e-01
1	 1.219028711086545e+00	 7.618236355009983e-01	-1.345003305279389e-01
1	 1.203181047404816e+00	 7.866140204809229e-01	-6.292505604796269e-01
1	 1.348193036543535e+00	 5.337373288652523e-01	 3.538102469984503e+00
1	 1.337305910089237e+00	 5.604577618928078e-01	 3.188471322122062e+00
1	 1.325843349399657e+00	 5.870599738464568e-01	 2.820213318968170e+00
1	 1.313805864347619e+00	 6.135259985180249e-01	 2.434157572890892e+00
1	 1.301194692513100e+00	 6.398377702484953e-01	 2.031192007992987e+00
1	 1.288011809925847e+00	 6.659771599376293e-01	 1.612261253311214e+00
1	 1.274259939711461e+00	 6.919260120249896e-01	 1.178364211637376e+00
1	 1.259942558551717e+00	 7.176661823024106e-01	 7.305513107114330e-01
1	 1.245063900880360e+00	 7.431795764092617e-01	 2.699214462788024e-01
1	 1.229628960747055e+00	 7.684481888540168e-01	-2.023813707613104e-01
1	 1.213643491294451e+00	 7.934541423988104e-01	-6.851716481938567e-01
1	 1.359815390306469e+00	 5.383385127359304e-01	 3.379028244952333e+00
1	 1.348834409313236e+00	 5.652892943239575e-01	 3.038693837391371e+00
1	 1.337273033444844e+00	 5.921208356909020e-01	 2.680071892219879e+00
1	 1.325131776969575e+00	 6.188150157474851e-01	 2.303978790392191e+00
1	 1.312411888136201e+00	 6.453536130962503e-01	 1.911288589703044e+00
1	 1.299115360009208e+00	 6.717183423516120e-01	 1.502930939947338e+00
1	 1.285244939189419e+00	 6.978908914396811e-01	 1.079888679624659e+00
1	 1.270804132330007e+00	 7.238529597367049e-01	 6.431951209381077e-01
1	 1.255797210368453e+00	 7.495862968961844e-01	 1.939310325305402e-01
1	 1.240229210406577e+00	 7.750727422068403e-01	-2.667786679114775e-01
1	 1.224105935183085e+00	 8.002942643166867e-01	-7.377684964086645e-01
1	 1.371437744069425e+00	 5.429396966061187e-01	 3.224578537149082e+00
1	 1.360362908537064e+00	 5.701208267545316e-01	 2.893421985571020e+00
1	 1.348702717489688e+00	 5.971816975347151e-01	 2.544312340025693e+00
1	 1.336457689591036e+00	 6.241040329762855e-01	 2.178053419996744e+00
1	 1.323629083758674e+00	 6.508694559433473e-01	 1.795505601620278e+00
1	 1.310218910091828e+00	 6.774595247649685e-01	 1.397583754475501e+00
1	 1.296229938666545e+00	 7.038557708538085e-01	 9.852548657676340e-01
1	 1.281665706107390e+00	 7.300397371705269e-01	 5.595353586510088e-01
1	 1.266530519855588e+00	 7.559930173827586e-01	 1.214881140886768e-01
1	 1.250829460065109e+00	 7.816972955594688e-01	-3.277807917168697e-01
1	 1.234568379070720e+00	 8.071343862345530e-01	-7.871256196874546e-01
1	 1.383060097832401e+00	 5.475408804758173e-01	 3.074636762110976e+00
1	 1.371891407760723e+00	 5.749523591845306e-01	 2.752542179280821e+00
1	 1.360132401534192e+00	 6.022425593778959e-01	 2.412824194963848e+00
1	 1.347783602212004e+00	 6.293930502044260e-01	 2.056274232831784e+00
1	 1.334846279380521e+00	 6.563852987897866e-01	 1.683739167356356e+00
1	 1.321322460173709e+00	 6.832007071776993e-01	 1.296119281909940e+00
1	 1.307214938142837e+00	 7.098206502673718e-01	 8.943659200314263e-01
1	 1.292527279883867e+00	 7.362265146038777e-01	 4.794788366047446e-01
1	 1.277263829341764e+00	 7.623997378689840e-01	 5.250325829996383e-02
1	 1.261429709722652e+00	 7.883218489119022e-01	-3.854733347819866e-01
1	 1.245030822957354e+00	 8.139745081524086e-01	-8.333246917680137e-01
1	 1.394682451595397e+00	 5.521420643450261e-01	 2.929090221523010e+00
1	 1.383419906984210e+00	 5.797838916139538e-01	 2.615944617386592e+00
1	 1.371562085578352e+00	 6.073034212204445e-01	 2.285500671859978e+00
1	 1.359109514832477e+00	 6.346820674319068e-01	 1.938537574320228e+00
1	 1.346063475001740e+00	 6.619011416355681e-01	 1.575888873069217e+00
1	 1.332426010254849e+00	 6.889418895898038e-01	 1.198440454431023e+00
1	 1.318199937618296e+00	 7.157855296803712e-01	 8.071282207155495e-01
1	 1.303388853659439e+00	 7.424132920367565e-01	 4.029354737952674e-01
1	 1.287997138826982e+00	 7.688064583548604e-01	-1.310998640052030e-02
1	 1.272029959379205e+00	 7.949464022641402e-01	-4.399390366246623e-01
1	 1.255493266842989e+00	 8.208146300702533e-01	-8.764446639303458e-01
1	 1.150868827941644e+00	 7.524134108913275e-01	-2.966083917286272e-01
1	 1.135194312046280e+00	 7.758600865535584e-01	-9.285759613396131e-01
1	 1.119010799580969e+00	 7.990242990192602e-01	-1.568772996233755e+00
1	 1.102325879470541e+00	 8.218896856909992e-01	-2.216223864718071e+00
1	 1.085147835250138e+00	 8.444401551573477e-01	-2.869926942969312e+00
1	 1.067485632918797e+00	 8.666599237864125e-01	-3.528857799417898e+00
1	 1.049348906492078e+00	 8.885335516599897e-01	-4.191972520508378e+00
1	 1.030747941296336e+00	 9.100459776802332e-01	-4.858211158823075e+00
1	 1.011693655061181e+00	 9.311825536839639e-01	-5.526501283362804e+00
1	 9.921975768804164e-01	 9.519290774042841e-01	-6.195761610773972e+00
1	 9.722718241249999e-01	 9.722718241249999e-01	-6.864905695502542e+00
1	 1.161331271836279e+00	 7.592535328092679e-01	-3.705269284206910e-01
1	 1.145514260342112e+00	 7.829133600673248e-01	-9.939869274713422e-01
1	 1.129183625036312e+00	 8.062881562818414e-01	-1.626943671320498e+00
1	 1.112347023833931e+00	 8.293614101044999e-01	-2.268524019373945e+00
1	 1.095012815574977e+00	 8.521168838383165e-01	-2.917824610075260e+00
1	 1.077190047767566e+00	 8.745386503638365e-01	-3.573914587442756e+00
1	 1.058888442009220e+00	 8.966111293999636e-01	-4.235838488894801e+00
1	 1.040118377129261e+00	 9.183191229297812e-01	-4.902619278524309e+00
1	 1.020890870109385e+00	 9.396478496249905e-01	-5.573261508636882e+00
1	 1.001217554853339e+00	 9.605829781071776e-01	-6.246754591172463e+00
1	 9.811106588900002e-01	 9.811106588899999e-01	-6.922076159602899e+00
1	 1.171793715729913e+00	 7.660936547271976e-01	-4.406514390496298e-01
1	 1.155834208636955e+00	 7.899666335812606e-01	-1.056300601469284e+00
1	 1.139356450490695e+00	 8.135520135447331e-01	-1.682692536317010e+00
1	 1.122368168196411e+00	 8.368331345184133e-01	-2.319055188314826e+00
1	 1.104877795898975e+00	 8.597936125197603e-01	-2.964582099221733e+00
1	 1.086894462615585e+00	 8.824173769417563e-01	-3.618434681807097e+00
1	 1.068427977525723e+00	 9.046887071404149e-01	-4.279744674827452e+00
1	 1.049488812961676e+00	 9.265922681797479e-01	-4.947616766307998e+00
1	 1.030088085157229e+00	 9.481131455663370e-01	-5.621131370930922e+00
1	 1.010237532826072e+00	 9.692368788102509e-01	-6.299347545949634e+00
1	 9.899494936549997e-01	 9.899494936549997e-01	-6.981306028804943e+00
1	 1.182256159622547e+00	 7.729337766451166e-01	-5.070826499702467e-01
1	 1.166154156930807e+00	 7.970199070953664e-01	-1.115599212328100e+00
1	 1.149529275944117e+00	 8.208158708079358e-01	-1.736083887067031e+00
1	 1.132389312557980e+00	 8.443048589327393e-01	-2.367864335764386e+00
1	 1.114742776222132e+00	 8.674703412016775e-01	-3.010229680621595e+00
1	 1.096598877462853e+00	 8.902961035201722e-01	-3.662432331017074e+00
1	 1.077967513041584e+00	 9.127662848813437e-01	-4.323690010585964e+00
1	 1.058859248793580e+00	 9.348654134301332e-01	-4.993187975236270e+00
1	 1.039285300204712e+00	 9.565784415080028e-01	-5.670081410857566e+00
1	 1.019257510798614e+00	 9.778907795135040e-01	-6.353497997912329e+00
1	 9.987883284199998e-01	 9.987883284199998e-01	-7.042540628640032e+00
1	 1.192718603514182e+00	 7.797738985630251e-01	-5.699177532794475e-01
1	 1.176474105223669e+00	 8.040731806096418e-01	-1.171962103814697e+00
1	 1.159702101396579e+00	 8.280797280714499e-01	-1.787179763419827e+00
1	 1.142410456918639e+00	 8.517765833474782e-01	-2.414996778078775e+00
1	 1.124607756544448e+00	 8.751470698840697e-01	-3.054796562374970e+00
1	 1.106303292309371e+00	 8.981748300990842e-01	-3.705921283631158e+00
1	 1.087507048556805e+00	 9.208438626227500e-01	-4.367673465913842e+00
1	 1.068229684624973e+00	 9.431385586809372e-01	-5.039317807386507e+00
1	 1.048482515251834e+00	 9.650437374499877e-01	-5.720083202692173e+00
1	 1.028277488770966e+00	 9.865446802169371e-01	-6.409164960295348e+00
1	 1.007627163185000e+00	 1.007627163185000e+00	-7.105727203042079e+00
1	 1.203181047404816e+00	 7.866140204809229e-01	-6.292505604796269e-01
1	 1.186794053515542e+00	 8.111264541240873e-01	-1.225465859912809e+00
1	 1.169874926848081e+00	 8.353435853352749e-01	-1.836040047316867e+00
1	 1.152431601278387e+00	 8.592483077626292e-01	-2.460496255393112e+00
1	 1.134472736865924e+00	 8.828237985669359e-01	-3.098310936648045e+00
1	 1.116007707155137e+00	 9.060535566784921e-01	-3.748914809997120e+00
1	 1.097046584071386e+00	 9.289214403646335e-01	-4.411694046389538e+00
1	 1.077600120455857e+00	 9.514117039321597e-01	-5.085991689981319e+00
1	 1.057679730298597e+00	 9.735090333922922e-01	-5.771109309430978e+00
1	 1.037297466743129e+00	 9.951985809205499e-01	-6.466308871960164e+00
1	 1.016465997950000e+00	 1.016465997950000e+00	-7.170814830938692e+00
1	 1.213643491294451e+00	 7.934541423988104e-01	-6.851716481938567e-01
1	 1.197114001806424e+00	 8.181797276387025e-01	-1.276184423779270e+00
1	 1.180047752298623e+00	 8.426074425994110e-01	-1.882722555805145e+00
1	 1.162452745637224e+00	 8.667200321781930e-01	-2.504404999562022e+00
1	 1.144337717186559e+00	 8.905005272502764e-01	-3.140800023463321e+00
1	 1.125712122000154e+00	 9.139322832583960e-01	-3.791425722864499e+00
1	 1.106586119585325e+00	 9.369990181069947e-01	-4.455750791881968e+00
1	 1.086970556286230e+00	 9.596848491838008e-01	-5.133195552752895e+00
1	 1.066876945345000e+00	 9.819743293349166e-01	-5.823133240173870e+00
1	 1.046317444715101e+00	 1.003852481624343e+00	-6.524891535945537e+00
1	 1.025304832715000e+00	 1.025304832715000e+00	-7.237754347156671e+00
1	 1.224105935183085e+00	 8.002942643166867e-01	-7.377684964086645e-01
1	 1.207433950096316e+00	 8.252330011534879e-01	-1.324189210599767e+00
1	 1.190220577748204e+00	 8.498712998638577e-01	-1.927283129280520e+00
1	 1.172473889995152e+00	 8.741917565941695e-01	-2.546763798615909e+00
1	 1.154202697506354e+00	 8.981772559340911e-01	-3.182290112244247e+00
1	 1.135416536844419e+00	 9.218110098387959e-01	-3.833466396940181e+00
1	 1.116125655098625e+00	 9.450765958498334e-01	-4.499842775085074e+00
1	 1.096340992116092e+00	 9.679579944358603e-01	-5.180915806468166e+00
1	 1.076074160391042e+00	 9.904396252778599e-01	-5.876129409692555e+00
1	 1.055337422686883e+00	 1.012506382328315e+00	-6.584876061169242e+00
1	 1.034143667480000e+00	 1.034143667480000e+00	-7.306498267383513e+00
1	 1.234568379070720e+00	 8.071343862345530e-01	-7.871256196874546e-01
1	 1.217753898385218e+00	 8.322862746684426e-01	-1.369549214706308e+00
1	 1.200393403196825e+00	 8.571351571286158e-01	-1.969775715244093e+00
1	 1.182495034352168e+00	 8.816634810105580e-01	-2.587612057940304e+00
1	 1.164067677825308e+00	 9.058539846183804e-01	-3.222806601247425e+00
1	 1.145120951687934e+00	 9.296897364196918e-01	-3.875048787449387e+00
1	 1.125665190611283e+00	 9.531541735931494e-01	-4.543969100126736e+00
1	 1.105711427945443e+00	 9.762311396883390e-01	-5.229139322546119e+00
1	 1.085271375436723e+00	 9.989049212211228e-01	-5.930073100054670e+00
1	 1.064357400658475e+00	 1.021160283032468e+00	-6.646226807094379e+00
1	 1.042982502245000e+00	 1.042982502245000e+00	-7.377000716944544e+00
1	 1.245030822957354e+00	 8.139745081524086e-01	-8.333246917680137e-01
1	 1.228073846673131e+00	 8.393395481835675e-01	-1.412331111293794e+00
1	 1.210566228644485e+00	 8.643990143936846e-01	-2.010252447835616e+00
1	 1.192516178708275e+00	 8.891352054273600e-01	-2.626987858369805e+00
1	 1.173932658143422e+00	 9.135307133031441e-01	-3.262374035006490e+00
1	 1.154825366530698e+00	 9.375684630010837e-01	-3.916184447761034e+00
1	 1.135204726123301e+00	 9.612317513369427e-01	-4.588128901248393e+00
1	 1.115081863774285e+00	 9.845042849412358e-01	-5.277853413702571e+00
1	 1.094468590482045e+00	 1.007370217164705e+00	-5.984940424182755e+00
1	 1.073377378629877e+00	 1.029814183736800e+00	-6.708909331185280e+00
1	 1.051821337010000e+00	 1.051821337010000e+00	-7.449217363171045e+00
1	 1.255493266842989e+00	 8.208146300702533e-01	-8.764446639303458e-01
1	 1.238393794960052e+00	 8.463928216988620e-01	-1.452599353050682e+00
1	 1.220739054091186e+00	 8.716628716590645e-01	-2.048763723390215e+00
1	 1.202537323063470e+00	 8.966069298445739e-01	-2.664928011377932e+00
1	 1.183797638460694e+00	 9.212074419883817e-01	-3.301016139903935e+00
1	 1.164529781372711e+00	 9.454471895829715e-01	-3.956884546131759e+00
1	 1.144744261634678e+00	 9.693093290812137e-01	-4.632321341549942e+00
1	 1.124452299602615e+00	 9.927774301945512e-01	-5.327045815562818e+00
1	 1.103665805527006e+00	 1.015835513108607e+00	-6.040708291235272e+00
1	 1.082397356601088e+00	 1.038468084441313e+00	-6.772890338990867e+00
1	 1.060660171775000e+00	 1.060660171775000e+00	-7.523105351150031e+00
1	 9.722718241249999e-01	 9.722718241249999e-01	-6.864905695502542e+00
1	 9.519290774042841e-01	 9.921975768804165e-01	-7.617363005167429e+00
1	 9.311825536839636e-01	 1.011693655061181e+00	-8.391185683232202e+00
1	 9.100459776802337e-01	 1.030747941296336e+00	-9.186613771910396e+00
1	 8.885335516599900e-01	 1.049348906492078e+00	-1.000379230064638e+01
1	 8.666599237864129e-01	 1.067485632918797e+00	-1.084276993272580e+01
1	 8.444401551573482e-01	 1.085147835250138e+00	-1.170349814880550e+01
1	 8.218896856909996e-01	 1.102325879470541e+00	-1.258583097185087e+01
1	 7.990242990192610e-01	 1.119010799580969e+00	-1.348952523333620e+01
1	 7.758600865535591e-01	 1.135194312046279e+00	-1.441424137596973e+01
1	 7.524134108913274e-01	 1.150868827941644e+00	-1.535954478369882e+01
1	 9.811106588900002e-01	 9.811106588899999e-01	-6.922076159602899e+00
1	 9.605829781071776e-01	 1.001217554853339e+00	-7.689807984761263e+00
1	 9.396478496249905e-01	 1.020890870109385e+00	-8.475430882807293e+00
1	 9.183191229297815e-01	 1.040118377129261e+00	-9.279005364719451e+00
1	 8.966111293999636e-01	 1.058888442009220e+00	-1.010051113937476e+01
1	 8.745386503638366e-01	 1.077190047767566e+00	-1.093984640579848e+01
1	 8.521168838383170e-01	 1.095012815574976e+00	-1.179682760046788e+01
1	 8.293614101045006e-01	 1.112347023833931e+00	-1.267118960089290e+01
1	 8.062881562818418e-01	 1.129183625036312e+00	-1.356258638279887e+01
1	 7.829133600673254e-01	 1.145514260342112e+00	-1.447059212439376e+01
1	 7.592535328092677e-01	 1.161331271836278e+00	-1.539470274745974e+01
1	 9.899494936549997e-01	 9.899494936549997e-01	-6.981306028804943e+00
1	 9.692368788102508e-01	 1.010237532826071e+00	-7.762987134522879e+00
1	 9.481131455663370e-01	 1.030088085157229e+00	-8.559150102592479e+00
1	 9.265922681797482e-01	 1.049488812961676e+00	-9.369678279312968e+00
1	 9.046887071404153e-01	 1.068427977525723e+00	-1.019438824159187e+01
1	 8.824173769417565e-01	 1.086894462615585e+00	-1.103302972759029e+01
1	 8.597936125197605e-01	 1.104877795898974e+00	-1.188528594147865e+01
1	 8.368331345184140e-01	 1.122368168196410e+00	-1.275077423029446e+01
1	 8.135520135447336e-01	 1.139356450490694e+00	-1.362904712772439e+01
1	 7.899666335812616e-01	 1.155834208636955e+00	-1.451959375653052e+01
1	 7.660936547271977e-01	 1.171793715729913e+00	-1.542184157835575e+01
1	 9.987883284199998e-01	 9.987883284199998e-01	-7.042540628640032e+00
1	 9.778907795135039e-01	 1.019257510798614e+00	-7.836880963211823e+00
1	 9.565784415080025e-01	 1.039285300204712e+00	-8.642357306655288e+00
1	 9.348654134301334e-01	 1.058859248793580e+00	-9.458678144317707e+00
1	 9.127662848813437e-01	 1.077967513041584e+00	-1.028549905163057e+01
1	 8.902961035201726e-01	 1.096598877462853e+00	-1.112242325609957e+01
1	 8.674703412016779e-01	 1.114742776222131e+00	-1.196900249335778e+01
1	 8.443048589327401e-01	 1.132389312557980e+00	-1.282473815207838e+01
1	 8.208158708079366e-01	 1.149529275944116e+00	-1.368908270008724e+01
1	 7.970199070953669e-01	 1.166154156930806e+00	-1.456144138165639e+01
1	 7.729337766451166e-01	 1.182256159622547e+00	-1.544117417371281e+01
1	 1.007627163185000e+00	 1.007627163185000e+00	-7.105727203042079e+00
1	 9.865446802169368e-01	 1.028277488770966e+00	-7.911470663490769e+00
1	 9.650437374499879e-01	 1.048482515251834e+00	-8.725065969096134e+00
1	 9.431385586809371e-01	 1.068229684624974e+00	-9.546048987356048e+00
1	 9.208438626227501e-01	 1.087507048556805e+00	-1.037391636665411e+01
1	 8.981748300990846e-01	 1.106303292309370e+00	-1.120812672272788e+01
1	 8.751470698840700e-01	 1.124607756544448e+00	-1.204810204002818e+01
1	 8.517765833474784e-01	 1.142410456918638e+00	-1.289322927960000e+01
1	 8.280797280714506e-01	 1.159702101396579e+00	-1.374286218337184e+01
1	 8.040731806096427e-01	 1.176474105223669e+00	-1.459632326310829e+01
1	 7.797738985630250e-01	 1.192718603514182e+00	-1.545290596077554e+01
1	 1.016465997950000e+00	 1.016465997950000e+00	-7.170814830938692e+00
1	 9.951985809205498e-01	 1.037297466743129e+00	-7.986738082190763e+00
1	 9.735090333922922e-01	 1.057679730298597e+00	-8.807289095350837e+00
1	 9.514117039321597e-01	 1.077600120455857e+00	-9.631833304654695e+00
1	 9.289214403646335e-01	 1.097046584071385e+00	-1.045971045175035e+01
1	 9.060535566784923e-01	 1.116007707155137e+00	-1.129023638995847e+01
1	 8.828237985669360e-01	 1.134472736865924e+00	-1.212270502510216e+01
1	 8.592483077626301e-01	 1.152431601278386e+00	-1.295639038140239e+01
1	 8.353435853352754e-01	 1.169874926848081e+00	-1.379054877989770e+01
1	 8.111264541240881e-01	 1.186794053515541e+00	-1.462442111593355e+01
1	 7.866140204809230e-01	 1.203181047404816e+00	-1.545723522149335e+01
1	 1.025304832715000e+00	 1.025304832715000e+00	-7.237754347156671e+00
1	 1.003852481624343e+00	 1.046317444715101e+00	-8.062665692114122e+00
1	 9.819743293349165e-01	 1.066876945345000e+00	-8.889039242392052e+00
1	 9.596848491838006e-01	 1.086970556286229e+00	-9.716072127053170e+00
1	 9.369990181069949e-01	 1.106586119585325e+00	-1.054294914907303e+01
1	 9.139322832583963e-01	 1.125712122000153e+00	-1.136884520087873e+01
1	 8.905005272502765e-01	 1.144337717186559e+00	-1.219292773896418e+01
1	 8.667200321781937e-01	 1.162452745637224e+00	-1.301435930297545e+01
1	 8.426074425994116e-01	 1.180047752298622e+00	-1.383230006431851e+01
1	 8.181797276387035e-01	 1.197114001806424e+00	-1.464591038914337e+01
1	 7.934541423988104e-01	 1.213643491294451e+00	-1.545435340050735e+01
1	 1.034143667480000e+00	 1.034143667480000e+00	-7.306498267383513e+00
1	 1.012506382328315e+00	 1.055337422686883e+00	-8.139236565283698e+00
1	 9.904396252778600e-01	 1.076074160391042e+00	-8.970328537894137e+00
1	 9.679579944358603e-01	 1.096340992116092e+00	-9.798805082627245e+00
1	 9.450765958498334e-01	 1.116125655098624e+00	-1.062369798138602e+01
1	 9.218110098387960e-01	 1.135416536844419e+00	-1.144404292103443e+01
1	 8.981772559340918e-01	 1.154202697506354e+00	-1.225888249625895e+01
1	 8.741917565941700e-01	 1.172473889995151e+00	-1.306726917714278e+01
1	 8.498712998638585e-01	 1.190220577748203e+00	-1.386826822412034e+01
1	 8.252330011534884e-01	 1.207433950096316e+00	-1.466096053349242e+01
1	 8.002942643166867e-01	 1.224105935183085e+00	-1.544444539734298e+01
1	 1.042982502245000e+00	 1.042982502245000e+00	-7.377000716944544e+00
1	 1.021160283032468e+00	 1.064357400658475e+00	-8.216434347552104e+00
1	 9.989049212211227e-01	 1.085271375436723e+00	-9.051168698423822e+00
1	 9.762311396883389e-01	 1.105711427945443e+00	-9.880070456128010e+00
1	 9.531541735931496e-01	 1.125665190611283e+00	-1.070202025034253e+01
1	 9.296897364196920e-01	 1.145120951687934e+00	-1.151591627307143e+01
1	 9.058539846183808e-01	 1.164067677825307e+00	-1.232067780435516e+01
1	 8.816634810105588e-01	 1.182495034352168e+00	-1.311524862375089e+01
1	 8.571351571286164e-01	 1.200393403196824e+00	-1.389860028789143e+01
1	 8.322862746684434e-01	 1.217753898385218e+00	-1.466973525564207e+01
1	 8.071343862345530e-01	 1.234568379070720e+00	-1.542768984374537e+01
1	 1.051821337010000e+00	 1.051821337010000e+00	-7.449217363171045e+00
1	 1.029814183736800e+00	 1.073377378629877e+00	-8.294243234491205e+00
1	 1.007370217164705e+00	 1.094468590482045e+00	-9.131571046713679e+00
1	 9.845042849412359e-01	 1.115081863774285e+00	-9.959905245424213e+00
1	 9.612317513369429e-01	 1.135204726123301e+00	-1.077797712980891e+01
1	 9.375684630010840e-01	 1.154825366530698e+00	-1.158454906458862e+01
1	 9.135307133031443e-01	 1.173932658143421e+00	-1.237841852331488e+01
1	 8.891352054273607e-01	 1.192516178708274e+00	-1.315842193929017e+01
1	 8.643990143936855e-01	 1.210566228644485e+00	-1.392343834208284e+01
1	 8.393395481835683e-01	 1.228073846673130e+00	-1.467239275950908e+01
1	 8.139745081524083e-01	 1.245030822957354e+00	-1.540425936703147e+01
1	 1.060660171775000e+00	 1.060660171775000e+00	-7.523105351150031e+00
1	 1.038468084441312e+00	 1.082397356601088e+00	-8.372647948487192e+00
1	 1.015835513108607e+00	 1.103665805527006e+00	-9.211546528071878e+00
1	 9.927774301945514e-01	 1.124452299602615e+00	-1.003834521512206e+01
1	 9.693093290812139e-01	 1.144744261634678e+00	-1.085162775452272e+01
1	 9.454471895829717e-01	 1.164529781372711e+00	-1.165002230959845e+01
1	 9.212074419883821e-01	 1.183797638460694e+00	-1.243220601786488e+01
1	 8.966069298445744e-01	 1.202537323063470e+00	-1.319690927703478e+01
1	 8.716628716590653e-01	 1.220739054091185e+00	-1.394291973693052e+01
1	 8.463928216988629e-01	 1.238393794960052e+00	-1.466908597554624e+01
1	 8.208146300702533e-01	 1.255493266842989e+00	-1.537432084027454e+01
1	 7.524134108913274e-01	 1.150868827941644e+00	-1.535954478369882e+01
1	 7.287008687329781e-01	 1.166027462769146e+00	-1.625093538819224e+01
1	 7.047392534804007e-01	 1.180664043931685e+00	-1.709809780604713e+01
1	 6.805455176867415e-01	 1.194773115862958e+00	-1.789863992763870e+01
1	 6.561367355249966e-01	 1.208349942826211e+00	-1.865035925234860e+01
1	 6.315300654405884e-01	 1.221390509410137e+00	-1.935124793829273e+01
1	 6.067427131481523e-01	 1.233891518761329e+00	-1.999949677176751e+01
1	 5.817918951274087e-01	 1.245850388605507e+00	-2.059349805694833e+01
1	 5.566948027665101e-01	 1.257265245121364e+00	-2.113184743496307e+01
1	 5.314685672938282e-01	 1.268134914741677e+00	-2.161334464969968e+01
1	 5.061302256309000e-01	 1.278458913966357e+00	-2.203699328550466e+01
1	 7.592535328092677e-01	 1.161331271836278e+00	-1.539470274745974e+01
1	 7.353254220869722e-01	 1.176627712434605e+00	-1.624589732439962e+01
1	 7.111459739694163e-01	 1.191397353425526e+00	-1.705410948105882e+01
1	 6.867322951238658e-01	 1.205634689646682e+00	-1.781707107252044e+01
1	 6.621016149430722e-01	 1.219334942309169e+00	-1.853269743098501e+01
1	 6.372712478583268e-01	 1.232494059497939e+00	-1.919909207108261e+01
1	 6.122585559998541e-01	 1.245108714388192e+00	-1.981455035405018e+01
1	 5.870809123608277e-01	 1.257176301230428e+00	-2.037756211232518e+01
1	 5.617556646147485e-01	 1.268694929168600e+00	-2.088681324435207e+01
1	 5.363000997284300e-01	 1.279663413966696e+00	-2.134118629729040e+01
1	 5.107314095045163e-01	 1.290081267729169e+00	-2.173976006277612e+01
1	 7.660936547271977e-01	 1.171793715729913e+00	-1.542184157835575e+01
1	 7.419499754407716e-01	 1.187227962099074e+00	-1.623378038231029e+01
1	 7.175526944580827e-01	 1.202130662918409e+00	-1.700395678642439e+01
1	 6.929190725605181e-01	 1.216496263429501e+00	-1.773022508016424e+01
1	 6.680664943605837e-01	 1.230319941791294e+00	-1.841061698470407e+01
1	 6.430124302754393e-01	 1.243597609585001e+00	-1.904334601753075e+01
1	 6.177743988508980e-01	 1.256325910014428e+00	-1.962681085456856e+01
1	 5.923699295935869e-01	 1.268502213854855e+00	-2.015959769238498e+01
1	 5.668165264623545e-01	 1.280124613215495e+00	-2.064048162094081e+01
1	 5.411316321624565e-01	 1.291191913191544e+00	-2.106842702490341e+01
1	 5.153325933776431e-01	 1.301703621492001e+00	-2.144258703867337e+01
1	 7.729337766451166e-01	 1.182256159622547e+00	-1.544117417371281e+01
1	 7.485745287943755e-01	 1.197828211762553e+00	-1.621477249674105e+01
1	 7.239594149464007e-01	 1.212863972410334e+00	-1.694780337797103e+01
1	 6.991058499966988e-01	 1.227357837211414e+00	-1.763824205155618e+01
1	 6.740313737775313e-01	 1.241304941272586e+00	-1.828423522213087e+01
1	 6.487536126919259e-01	 1.254701159671323e+00	-1.888410509231900e+01
1	 6.232902417012843e-01	 1.267543105640036e+00	-1.943635242593723e+01
1	 5.976589468256861e-01	 1.279828126478787e+00	-1.993965865045717e+01
1	 5.718773883093287e-01	 1.291554297262048e+00	-2.039288700985115e+01
1	 5.459631645959077e-01	 1.302720412416223e+00	-2.079508278617045e+01
1	 5.199337772502799e-01	 1.313325975254853e+00	-2.114547261500760e+01
1	 7.797738985630250e-01	 1.192718603514182e+00	-1.545290596077554e+01
1	 7.551990821477842e-01	 1.208428461425044e+00	-1.618905500830489e+01
1	 7.303661354343698e-01	 1.223597281901301e+00	-1.688580716921690e+01
1	 7.052926274324078e-01	 1.238219410992421e+00	-1.754125717185859e+01
1	 6.799962531939148e-01	 1.252289940753043e+00	-1.815366533579853e+01
1	 6.544947951077865e-01	 1.265804709756905e+00	-1.872146126575437e+01
1	 6.288060845510125e-01	 1.278760301265018e+00	-1.924324661892459e+01
1	 6.029479640571257e-01	 1.291154039102225e+00	-1.971779695028065e+01
1	 5.769382501556705e-01	 1.302983981308259e+00	-2.014406264760435e+01
1	 5.507946970287833e-01	 1.314248911640731e+00	-2.052116897494689e+01
1	 5.245349611224271e-01	 1.324948329017727e+00	-2.084841524966675e+01
1	 7.866140204809230e-01	 1.203181047404816e+00	-1.545723522149335e+01
1	 7.618236355009980e-01	 1.219028711086544e+00	-1.615680295011516e+01
1	 7.367728559219902e-01	 1.234330591391309e+00	-1.681812058103601e+01
1	 7.114794048676450e-01	 1.249080984772522e+00	-1.743940092414128e+01
1	 6.859611326097343e-01	 1.263274940232669e+00	-1.801901658110852e+01
1	 6.602359775230212e-01	 1.276908259841746e+00	-1.855550330917686e+01
1	 6.343219274000830e-01	 1.289977496889372e+00	-1.904756249557679e+01
1	 6.082369812879054e-01	 1.302479951725169e+00	-1.949406274815981e+01
1	 5.819991120013801e-01	 1.314413665354129e+00	-1.989404061466847e+01
1	 5.556262294610839e-01	 1.325777410865069e+00	-2.024670044964952e+01
1	 5.291361449940846e-01	 1.336570682780620e+00	-2.055141345417756e+01
1	 7.934541423988104e-01	 1.213643491294451e+00	-1.545435340050735e+01
1	 7.684481888540168e-01	 1.229628960747055e+00	-1.611818531966121e+01
1	 7.431795764092617e-01	 1.245063900880360e+00	-1.674489077841018e+01
1	 7.176661823024110e-01	 1.259942558551717e+00	-1.733279929205795e+01
1	 6.919260120249895e-01	 1.274259939711460e+00	-1.788039444603480e+01
1	 6.659771599376296e-01	 1.288011809925846e+00	-1.838631693284577e+01
1	 6.398377702484958e-01	 1.301194692513100e+00	-1.884936673649005e+01
1	 6.135259985180255e-01	 1.313805864347619e+00	-1.926850447087165e+01
1	 5.870599738464576e-01	 1.325843349399657e+00	-1.964285188528879e+01
1	 5.604577618928086e-01	 1.337305910089237e+00	-1.997169155633599e+01
1	 5.337373288652524e-01	 1.348193036543535e+00	-2.025446579139335e+01
1	 8.002942643166867e-01	 1.224105935183085e+00	-1.544444539734298e+01
1	 7.750727422068404e-01	 1.240229210406577e+00	-1.607336533674034e+01
1	 7.495862968961846e-01	 1.255797210368453e+00	-1.666625989504034e+01
1	 7.238529597367048e-01	 1.270804132330007e+00	-1.722157395212899e+01
1	 6.978908914396812e-01	 1.285244939189419e+00	-1.773790081212510e+01
1	 6.717183423516123e-01	 1.299115360009208e+00	-1.821398491675512e+01
1	 6.453536130962506e-01	 1.312411888136201e+00	-1.864872374258228e+01
1	 6.188150157474855e-01	 1.325131776969574e+00	-1.904116888957648e+01
1	 5.921208356909027e-01	 1.337273033444843e+00	-1.939052637476204e+01
1	 5.652892943239584e-01	 1.348834409313236e+00	-1.969615615060053e+01
1	 5.383385127359304e-01	 1.359815390306469e+00	-1.995757087330071e+01
1	 8.071343862345530e-01	 1.234568379070720e+00	-1.542768984374537e+01
1	 7.816972955594687e-01	 1.250829460065110e+00	-1.602250068827581e+01
1	 7.559930173827586e-01	 1.266530519855587e+00	-1.658236524653565e+01
1	 7.300397371705273e-01	 1.281665706107390e+00	-1.710584245624716e+01
1	 7.038557708538088e-01	 1.296229938666545e+00	-1.759163410731529e+01
1	 6.774595247649688e-01	 1.310218910091828e+00	-1.803858723479771e+01
1	 6.508694559433478e-01	 1.323629083758674e+00	-1.844569573168937e+01
1	 6.241040329762860e-01	 1.336457689591036e+00	-1.881210118997191e+01
1	 5.971816975347158e-01	 1.348702717489688e+00	-1.913709298430689e+01
1	 5.701208267545327e-01	 1.360362908537064e+00	-1.942010761835604e+01
1	 5.429396966061187e-01	 1.371437744069425e+00	-1.966072735893750e+01
1	 8.139745081524083e-01	 1.245030822957354e+00	-1.540425936703147e+01
1	 7.883218489119019e-01	 1.261429709722652e+00	-1.596574376079000e+01
1	 7.623997378689837e-01	 1.277263829341764e+00	-1.649333953285489e+01
1	 7.362265146038778e-01	 1.292527279883868e+00	-1.698571840498103e+01
1	 7.098206502673721e-01	 1.307214938142837e+00	-1.744168945103935e+01
1	 6.832007071776995e-01	 1.321322460173709e+00	-1.786020117266809e+01
1	 6.563852987897871e-01	 1.334846279380521e+00	-1.824034283029125e+01
1	 6.293930502044267e-01	 1.347783602212004e+00	-1.858134503890826e+01
1	 6.022425593778966e-01	 1.360132401534191e+00	-1.888257964367258e+01
1	 5.749523591845315e-01	 1.371891407760722e+00	-1.914355889556882e+01
1	 5.475408804758173e-01	 1.383060097832401e+00	-1.936393395241589e+01
1	 8.208146300702533e-01	 1.255493266842989e+00	-1.537432084027454e+01
1	 7.949464022641402e-01	 1.272029959379205e+00	-1.590324186125499e+01
1	 7.688064583548604e-01	 1.287997138826982e+00	-1.639931103062494e+01
1	 7.424132920367567e-01	 1.303388853659439e+00	-1.686131161221385e+01
1	 7.157855296803717e-01	 1.318199937618296e+00	-1.728815879208348e+01
1	 6.889418895898042e-01	 1.332426010254849e+00	-1.767890143987114e+01
1	 6.619011416355685e-01	 1.346063475001740e+00	-1.803272316065222e+01
1	 6.346820674319077e-01	 1.359109514832477e+00	-1.834894264767452e+01
1	 6.073034212204453e-01	 1.371562085578352e+00	-1.862701335161695e+01
1	 5.797838916139548e-01	 1.383419906984210e+00	-1.886652248700629e+01
1	 5.521420643450261e-01	 1.394682451595397e+00	-1.906718940104453e+01
1	 5.061302256309000e-01	 1.278458913966357e+00	-2.203699328550466e+01
1	 4.806966872910303e-01	 1.288237437281654e+00	-2.240984125289922e+01
1	 4.551847024354536e-01	 1.297471343285539e+00	-2.275559019113480e+01
1	 4.296108311925131e-01	 1.306162139129264e+00	-2.307397255675044e+01
1	 4.039914143349413e-01	 1.314311963391015e+00	-2.336479911185190e+01
1	 3.783425453957433e-01	 1.321923567499668e+00	-2.362795736406357e+01
1	 3.526800442951766e-01	 1.329000295832889e+00	-2.386340970457599e+01
1	 3.270194325395477e-01	 1.335546064616104e+00	-2.407119126685824e+01
1	 3.013759100415353e-01	 1.341565339750669e+00	-2.425140752971356e+01
1	 2.757643336008559e-01	 1.347063113700460e+00	-2.440423168918812e+01
1	 2.501991970734234e-01	 1.352044881565965e+00	-2.452990182441604e+01
1	 5.107314095045163e-01	 1.290081267729169e+00	-2.173976006277612e+01
1	 4.850666571792522e-01	 1.299948686710393e+00	-2.209556830174991e+01
1	 4.593227451881562e-01	 1.309266537313843e+00	-2.242771386760301e+01
1	 4.335163842061927e-01	 1.318036340392143e+00	-2.273594626722561e+01
1	 4.076640635585735e-01	 1.326260253965098e+00	-2.302008127211711e+01
1	 3.817820230831497e-01	 1.333941054474572e+00	-2.327999969858632e+01
1	 3.558862265176348e-01	 1.341082116701665e+00	-2.351564593180665e+01
1	 3.299923364729388e-01	 1.347687392473848e+00	-2.372702621212864e+01
1	 3.041156910427644e-01	 1.353761388291580e+00	-2.391420670302059e+01
1	 2.782712820886437e-01	 1.359309142004772e+00	-2.407731136075660e+01
1	 2.524737352288170e-01	 1.364336198669367e+00	-2.421651962649613e+01
1	 5.153325933776431e-01	 1.301703621492001e+00	-2.144258703867337e+01
1	 4.894366270670793e-01	 1.311659936139338e+00	-2.178185521827486e+01
1	 4.634607879405481e-01	 1.321061731342504e+00	-2.210083781345524e+01
1	 4.374219372196355e-01	 1.329910541655500e+00	-2.239930137812811e+01
1	 4.113367127820329e-01	 1.338208544539750e+00	-2.267706683214135e+01
1	 3.852215007704361e-01	 1.345958541450105e+00	-2.293400857752235e+01
1	 3.590924087400167e-01	 1.353163937571098e+00	-2.317005340385142e+01
1	 3.329652404062873e-01	 1.359828720332250e+00	-2.338517919704372e+01
1	 3.068554720439746e-01	 1.365957436833121e+00	-2.357941346665197e+01
1	 2.807782305764268e-01	 1.371555170309656e+00	-2.375283170746299e+01
1	 2.547482733842105e-01	 1.376627515773255e+00	-2.390555561164316e+01
1	 5.199337772502799e-01	 1.313325975254853e+00	-2.114547261500760e+01
1	 4.938065969545112e-01	 1.323371185568486e+00	-2.146868713873430e+01
1	 4.675988306926293e-01	 1.332856925371522e+00	-2.177493547287058e+01
1	 4.413274902328415e-01	 1.341784742919335e+00	-2.206400121511302e+01
1	 4.150093620053187e-01	 1.350156835114969e+00	-2.233571056892429e+01
1	 3.886609784576029e-01	 1.357976028426266e+00	-2.258993179172945e+01
1	 3.622985909623225e-01	 1.365245758441190e+00	-2.282657447704360e+01
1	 3.359381443395930e-01	 1.371970048191310e+00	-2.304558868072860e+01
1	 3.095952530451660e-01	 1.378153485375291e+00	-2.324696390228075e+01
1	 2.832851790642052e-01	 1.383801198615110e+00	-2.343072793262212e+01
1	 2.570228115396040e-01	 1.388918832877628e+00	-2.359694558030624e+01
1	 5.245349611224271e-01	 1.324948329017727e+00	-2.084841524966675e+01
1	 4.981765668415482e-01	 1.335082434997839e+00	-2.115604972092376e+01
1	 4.717368734443999e-01	 1.344652119400897e+00	-2.144998122181116e+01
1	 4.452330432458106e-01	 1.353658944183649e+00	-2.173001039065470e+01
1	 4.186820112284315e-01	 1.362105125690758e+00	-2.199596884623742e+01
1	 3.921004561446502e-01	 1.369993515403056e+00	-2.224771896396515e+01
1	 3.655047731845522e-01	 1.377327579311940e+00	-2.248515353030137e+01
1	 3.389110482728562e-01	 1.384111376051029e+00	-2.270819528163717e+01
1	 3.123350340463384e-01	 1.390349533918090e+00	-2.291679633432819e+01
1	 2.857921275519789e-01	 1.396047226921136e+00	-2.311093751311651e+01
1	 2.592973496949976e-01	 1.401210149982486e+00	-2.329062758555017e+01
1	 5.291361449940846e-01	 1.336570682780620e+00	-2.055141345417756e+01
1	 5.025465367281904e-01	 1.346793684427397e+00	-2.084392912149765e+01
1	 4.758749161958596e-01	 1.356447313430629e+00	-2.112595032751039e+01
1	 4.491385962585430e-01	 1.365533145448441e+00	-2.139729474809777e+01
1	 4.223546604513710e-01	 1.374053416267115e+00	-2.165779954563440e+01
1	 3.955399338315778e-01	 1.382011002380474e+00	-2.190732146923908e+01
1	 3.687109554067056e-01	 1.389409400183348e+00	-2.214573687718937e+01
1	 3.418839522060768e-01	 1.396252703911406e+00	-2.237294168366856e+01
1	 3.150748150474922e-01	 1.402545582461518e+00	-2.258885123245325e+01
1	 2.882990760397479e-01	 1.408293255227734e+00	-2.279340010054602e+01
1	 2.615718878503911e-01	 1.413501467087830e+00	-2.298654183511582e+01
1	 5.337373288652524e-01	 1.348193036543535e+00	-2.025446579139335e+01
1	 5.069165066144372e-01	 1.358504933857160e+00	-2.053231197446733e+01
1	 4.800129589470085e-01	 1.368242507460719e+00	-2.080281891005533e+01
1	 4.530441492710384e-01	 1.377407346713711e+00	-2.106582130860272e+01
1	 4.260273096741375e-01	 1.386001706844041e+00	-2.132116200102892e+01
1	 3.989794115183856e-01	 1.394028489358520e+00	-2.156869235928450e+01
1	 3.719171376287828e-01	 1.401491221055414e+00	-2.180827268252856e+01
1	 3.448568561392546e-01	 1.408394031772441e+00	-2.203977254713927e+01
1	 3.178145960486270e-01	 1.414741631005575e+00	-2.226307111908497e+01
1	 2.908060245275123e-01	 1.420539283534902e+00	-2.247805742748976e+01
1	 2.638464260057847e-01	 1.425792784193659e+00	-2.268463059854616e+01
1	 5.383385127359304e-01	 1.359815390306469e+00	-1.995757087330071e+01
1	 5.112864765002892e-01	 1.370216183287127e+00	-2.022118537080105e+01
1	 4.841510016978469e-01	 1.380037701491165e+00	-2.048056390594041e+01
1	 4.569497022832972e-01	 1.389281547979459e+00	-2.073555822081183e+01
1	 4.296999588967309e-01	 1.397949997421536e+00	-2.098601693662833e+01
1	 4.024188892050738e-01	 1.406045976337196e+00	-2.123178629090375e+01
1	 3.751233198507839e-01	 1.413573041928139e+00	-2.147271088328263e+01
1	 3.478297600723899e-01	 1.420535359634134e+00	-2.170863442432057e+01
1	 3.205543770497430e-01	 1.426937679550262e+00	-2.193940048169781e+01
1	 2.933129730152719e-01	 1.432785311842642e+00	-2.216485321857532e+01
1	 2.661209641611783e-01	 1.438084101299974e+00	-2.238483811907501e+01
1	 5.429396966061187e-01	 1.371437744069425e+00	-1.966072735893750e+01
1	 5.156564463857463e-01	 1.381927432717298e+00	-1.991053683906126e+01
1	 4.882890444483744e-01	 1.391832895521968e+00	-2.015916303347395e+01
1	 4.608552552953190e-01	 1.401155749245686e+00	-2.040647471307408e+01
1	 4.333726081191510e-01	 1.409898287999599e+00	-2.065232640802268e+01
1	 4.058583668916424e-01	 1.418063463316499e+00	-2.089655945795668e+01
1	 3.783295020727088e-01	 1.425654862801521e+00	-2.113900311346770e+01
1	 3.508026640054825e-01	 1.432676687496486e+00	-2.137947567927134e+01
1	 3.232941580508401e-01	 1.439133728095577e+00	-2.161778568954674e+01
1	 2.958199215030269e-01	 1.445031340150954e+00	-2.185373310607022e+01
1	 2.683955023165718e-01	 1.450375418406773e+00	-2.208711052999595e+01
1	 5.475408804758173e-01	 1.383060097832401e+00	-1.936393395241589e+01
1	 5.200264162708083e-01	 1.393638682147674e+00	-1.960035432701842e+01
1	 4.924270871985911e-01	 1.403628089553128e+00	-1.983859475992853e+01
1	 4.647608083071041e-01	 1.413029950512392e+00	-2.007854104808004e+01
1	 4.370452573413979e-01	 1.421846578578230e+00	-2.032005374624448e+01
1	 4.092978445780913e-01	 1.430080950296430e+00	-2.056296952677847e+01
1	 3.815356842945573e-01	 1.437736683675562e+00	-2.080710263284703e+01
1	 3.537755679385325e-01	 1.444818015359496e+00	-2.105224641171226e+01
1	 3.260339390519186e-01	 1.451329776641522e+00	-2.129817491460078e+01
1	 2.983268699907771e-01	 1.457277368459836e+00	-2.154464454972872e+01
1	 2.706700404719653e-01	 1.462666735514058e+00	-2.179139577524836e+01
1	 5.521420643450261e-01	 1.394682451595397e+00	-1.906718940104453e+01
1	 5.243963861554752e-01	 1.405349931578255e+00	-1.929062618418408e+01
1	 4.965651299484972e-01	 1.415423283584646e+00	-1.951883827033443e+01
1	 4.686663613186524e-01	 1.424904151779574e+00	-1.975172847976372e+01
1	 4.407179065634718e-01	 1.433794869157430e+00	-1.998916350462515e+01
1	 4.127373222644204e-01	 1.442098437276991e+00	-2.023097557482633e+01
1	 3.847418665163297e-01	 1.449818504550261e+00	-2.047696425919186e+01
1	 3.567484718715399e-01	 1.456959343223164e+00	-2.072689838470672e+01
1	 3.287737200529779e-01	 1.463525825188096e+00	-2.098051805643006e+01
1	 3.008338184785227e-01	 1.469523396769290e+00	-2.123753676064664e+01
1	 2.729445786273588e-01	 1.474958052621828e+00	-2.149764353397346e+01
1	 2.501991970734234e-01	 1.352044881565965e+00	-2.452990182441604e+01
1	 2.246946132453406e-01	 1.356516616473704e+00	-2.467721376799956e+01
1	 1.992642974238829e-01	 1.360484744408075e+00	-2.481855052274414e+01
1	 1.739215527406030e-01	 1.363956118608690e+00	-2.495392254375091e+01
1	 1.486792571529468e-01	 1.366937993652964e+00	-2.508333695715964e+01
1	 1.235498521293628e-01	 1.369437999341071e+00	-2.520679800185682e+01
1	 9.854533298911115e-02	 1.371464114494739e+00	-2.532430747641980e+01
1	 7.367724086214492e-02	 1.373024640776572e+00	-2.543586518730399e+01
1	 4.895665622776053e-02	 1.374128176631064e+00	-2.554146939451621e+01
1	 2.439419398469604e-02	 1.374783591442656e+00	-2.564111725127383e+01
1	 0.000000000000000e+00	 1.375000000000000e+00	-2.573480523443025e+01
1	 2.524737352288170e-01	 1.364336198669367e+00	-2.421651962649613e+01
1	 2.267372915474652e-01	 1.368848585712971e+00	-2.437816125290320e+01
1	 2.010757910364978e-01	 1.372852787537955e+00	-2.453121108325285e+01
1	 1.755026577650256e-01	 1.376355719686112e+00	-2.467568850638610e+01
1	 1.500308867628343e-01	 1.379364702685561e+00	-2.481161823117667e+01
1	 1.246730326026296e-01	 1.381887435698295e+00	-2.493903029691856e+01
1	 9.944119965202770e-02	 1.383931970080786e+00	-2.505796007066909e+01
1	 7.434703396034356e-02	 1.385506682965300e+00	-2.516844823115980e+01
1	 4.940171673850238e-02	 1.386620250964008e+00	-2.527054073901661e+01
1	 2.461595938432043e-02	 1.387281624092119e+00	-2.536428879316223e+01
1	 0.000000000000000e+00	 1.387500000000000e+00	-2.544974877339696e+01
1	 2.547482733842105e-01	 1.376627515773255e+00	-2.390555561164316e+01
1	 2.287799698495900e-01	 1.381180554952629e+00	-2.408120646086722e+01
1	 2.028872846491126e-01	 1.385220830668143e+00	-2.424569933192731e+01
1	 1.770837627894483e-01	 1.388755320763768e+00	-2.439906206921230e+01
1	 1.513825163727218e-01	 1.391791411718328e+00	-2.454133638755523e+01
1	 1.257962130758965e-01	 1.394336872055636e+00	-2.467257745662961e+01
1	 1.003370663149443e-01	 1.396399825666909e+00	-2.479285345418480e+01
1	 7.501682705854221e-02	 1.397988725154069e+00	-2.490224509129854e+01
1	 4.984677724924420e-02	 1.399112325296969e+00	-2.500084511285504e+01
1	 2.483772478394482e-02	 1.399779656741585e+00	-2.508875777645324e+01
1	 0.000000000000000e+00	 1.400000000000000e+00	-2.516609831292927e+01
1	 2.570228115396040e-01	 1.388918832877628e+00	-2.359694558030624e+01
1	 2.308226481517145e-01	 1.393512524192677e+00	-2.378629370012852e+01
1	 2.046987782617274e-01	 1.397588873798637e+00	-2.396196674607271e+01
1	 1.786648678138709e-01	 1.401154921841657e+00	-2.412400055257822e+01
1	 1.527341459826092e-01	 1.404218120751266e+00	-2.427245327897566e+01
1	 1.269193935491633e-01	 1.406786308413095e+00	-2.440740457307900e+01
1	 1.012329329778609e-01	 1.408867681253106e+00	-2.452895468565908e+01
1	 7.568662015674081e-02	 1.410470767342880e+00	-2.463722354250930e+01
1	 5.029183775998605e-02	 1.411604399629950e+00	-2.473234978073922e+01
1	 2.505949018356920e-02	 1.412277689391056e+00	-2.481448975580006e+01
1	 0.000000000000000e+00	 1.412500000000000e+00	-2.488381652557857e+01
1	 2.592973496949976e-01	 1.401210149982486e+00	-2.329062758555017e+01
1	 2.328653264538391e-01	 1.405844493433116e+00	-2.349336923302099e+01
1	 2.065102718743421e-01	 1.409956916929438e+00	-2.367996650554482e+01
1	 1.802459728382935e-01	 1.413554522919780e+00	-2.385046277436413e+01
1	 1.540857755924967e-01	 1.416644829784374e+00	-2.400493209662111e+01
1	 1.280425740224302e-01	 1.419235744770672e+00	-2.414347796319472e+01
1	 1.021287996407774e-01	 1.421335536839377e+00	-2.426623197961914e+01
1	 7.635641325493947e-02	 1.422952809531733e+00	-2.437335249029008e+01
1	 5.073689827072789e-02	 1.424096473962949e+00	-2.446502315598396e+01
1	 2.528125558319359e-02	 1.424775722040532e+00	-2.454145149446435e+01
1	 0.000000000000000e+00	 1.425000000000000e+00	-2.460286739363139e+01
1	 2.615718878503911e-01	 1.413501467087830e+00	-2.298654183511582e+01
1	 2.349080047559638e-01	 1.418176462673946e+00	-2.320238119101480e+01
1	 2.083217654869569e-01	 1.422324960060546e+00	-2.339965341872613e+01
1	 1.818270778627161e-01	 1.425954123998136e+00	-2.357840898487206e+01
1	 1.554374052023842e-01	 1.429071538817652e+00	-2.373873731198115e+01
1	 1.291657544956971e-01	 1.431685181128366e+00	-2.388076511548948e+01
1	 1.030246663036940e-01	 1.433803392425723e+00	-2.400465465617414e+01
1	 7.702620635313809e-02	 1.435434851720629e+00	-2.411060192168699e+01
1	 5.118195878146975e-02	 1.436588548295966e+00	-2.419883475057103e+01
1	 2.550302098281797e-02	 1.437273754690013e+00	-2.426961091176831e+01
1	 0.000000000000000e+00	 1.437500000000000e+00	-2.432321615216410e+01
1	 2.638464260057847e-01	 1.425792784193659e+00	-2.268463059854616e+01
1	 2.369506830580884e-01	 1.430508431915166e+00	-2.291327949415016e+01
1	 2.101332590995718e-01	 1.434693003191961e+00	-2.312098385233095e+01
1	 1.834081828871388e-01	 1.438353725076726e+00	-2.330780080508307e+01
1	 1.567890348122716e-01	 1.441498247851101e+00	-2.347383462166658e+01
1	 1.302889349689639e-01	 1.444134617486177e+00	-2.361923463956218e+01
1	 1.039205329666105e-01	 1.446271248012144e+00	-2.374419309336037e+01
1	 7.769599945133675e-02	 1.447916893909566e+00	-2.384894285867534e+01
1	 5.162701929221158e-02	 1.449080622629002e+00	-2.393375512779334e+01
1	 2.572478638244236e-02	 1.449771787339498e+00	-2.399893703326438e+01
1	 0.000000000000000e+00	 1.450000000000000e+00	-2.404482923504366e+01
1	 2.661209641611783e-01	 1.438084101299974e+00	-2.238483811907501e+01
1	 2.389933613602131e-01	 1.442840401156778e+00	-2.262601577460251e+01
1	 2.119447527121866e-01	 1.447061046323683e+00	-2.284391566480954e+01
1	 1.849892879115614e-01	 1.450753326155550e+00	-2.303860116808155e+01
1	 1.581406644221591e-01	 1.453924956884721e+00	-2.321019089505349e+01
1	 1.314121154422308e-01	 1.456584053844107e+00	-2.335885621818764e+01
1	 1.048163996295271e-01	 1.458739103598640e+00	-2.348481868193077e+01
1	 7.836579254953538e-02	 1.460398936098545e+00	-2.358834731393232e+01
1	 5.207207980295342e-02	 1.461572696962056e+00	-2.366975585732682e+01
1	 2.594655178206674e-02	 1.462269819988988e+00	-2.372939994346051e+01
1	 0.000000000000000e+00	 1.462500000000000e+00	-2.376767422369716e+01
1	 2.683955023165718e-01	 1.450375418406773e+00	-2.208711052999595e+01
1	 2.410360396623377e-01	 1.455172370398780e+00	-2.234054330413463e+01
1	 2.137562463248014e-01	 1.459429089455712e+00	-2.256840814313951e+01
1	 1.865703929359840e-01	 1.463152927234606e+00	-2.277077426345750e+01
1	 1.594922940320465e-01	 1.466351665918511e+00	-2.294777412459005e+01
1	 1.325352959154976e-01	 1.469033490202154e+00	-2.309960056184331e+01
1	 1.057122662924437e-01	 1.471206959185211e+00	-2.322650378244332e+01
1	 7.903558564773400e-02	 1.472880978287564e+00	-2.332878824885785e+01
1	 5.251714031369526e-02	 1.474064771295128e+00	-2.340680947258744e+01
1	 2.616831718169113e-02	 1.474767852638482e+00	-2.346097074094897e+01
1	 0.000000000000000e+00	 1.475000000000000e+00	-2.349171979848626e+01
1	 2.706700404719653e-01	 1.462666735514058e+00	-2.179139577524836e+01
1	 2.430787179644623e-01	 1.467504339641174e+00	-2.205681692520645e+01
1	 2.155677399374162e-01	 1.471797132588047e+00	-2.229442194280345e+01
1	 1.881514979604067e-01	 1.475552528313897e+00	-2.250428548451224e+01
1	 1.608439236419340e-01	 1.478778374952471e+00	-2.268655337860851e+01
1	 1.336584763887645e-01	 1.481482926560319e+00	-2.284143936552825e+01
1	 1.066081329553602e-01	 1.483674814771857e+00	-2.296922168451304e+01
1	 7.970537874593264e-02	 1.485363020476627e+00	-2.307023953371240e+01
1	 5.296220082443710e-02	 1.486556845628219e+00	-2.314488943023753e+01
1	 2.639008258131552e-02	 1.487265885287981e+00	-2.319362149579830e+01
1	 0.000000000000000e+00	 1.487500000000000e+00	-2.321693569253363e+01
1	 2.729445786273588e-01	 1.474958052621828e+00	-2.149764353397346e+01
1	 2.451213962665869e-01	 1.479836308883957e+00	-2.177479298552916e+01
1	 2.173792335500309e-01	 1.484165175720690e+00	-2.202191903076766e+01
1	 1.897326029848293e-01	 1.487952129393421e+00	-2.223910137810347e+01
1	 1.621955532518215e-01	 1.491205083986602e+00	-2.242649875649674e+01
1	 1.347816568620313e-01	 1.493932362918601e+00	-2.258434526774187e+01
1	 1.075039996182768e-01	 1.496142670358577e+00	-2.271294656810088e+01
1	 8.037517184413129e-02	 1.497845062665731e+00	-2.281267590974774e+01
1	 5.340726133517893e-02	 1.499048919961328e+00	-2.288397007171726e+01
1	 2.661184798093990e-02	 1.499763917937484e+00	-2.292732520907415e+01
1	 0.000000000000000e+00	 1.500000000000000e+00	-2.294329264785788e+01
1	 1.500000000000000e+00	 0.000000000000000e+00	 7.602590047397999e+00
1	 1.499763917937484e+00	 2.661184798093904e-02	 7.473636802312496e+00
1	 1.499048919961329e+00	 5.340726133517817e-02	 7.323280036462823e+00
1	 1.497845062665731e+00	 8.037517184413061e-02	 7.151592267087549e+00
1	 1.496142670358577e+00	 1.075039996182762e-01	 6.958697669387988e+00
1	 1.493932362918601e+00	 1.347816568620308e-01	 6.744773674850904e+00
1	 1.491205083986601e+00	 1.621955532518211e-01	 6.510052410841219e+00
1	 1.487952129393420e+00	 1.897326029848289e-01	 6.254821964526153e+00
1	 1.484165175720690e+00	 2.173792335500308e-01	 5.979427454436717e+00
1	 1.479836308883957e+00	 2.451213962665869e-01	 5.684271893385592e+00
1	 1.474958052621828e+00	 2.729445786273588e-01	 5.369816827050212e+00
1	 1.512500000000000e+00	 0.000000000000000e+00	 7.339954855504702e+00
1	 1.512261950586988e+00	 2.683361338056342e-02	 7.213942996944498e+00
1	 1.511540994294438e+00	 5.385232184592000e-02	 7.067251110807481e+00
1	 1.510327104854835e+00	 8.104496494232924e-02	 6.899955415771760e+00
1	 1.508610525945297e+00	 1.083998662811928e-01	 6.712182096679635e+00
1	 1.506381799276883e+00	 1.359048373352977e-01	 6.504108824817017e+00
1	 1.503631793020732e+00	 1.635471828617086e-01	 6.275966123492704e+00
1	 1.500351730472945e+00	 1.913137080092516e-01	 6.028038562636575e+00
1	 1.496533218853332e+00	 2.191907271626456e-01	 5.760665766385419e+00
1	 1.492168278126741e+00	 2.471640745687115e-01	 5.474243218040990e+00
1	 1.487249369729599e+00	 2.752191167827523e-01	 5.169222847368886e+00
1	 1.525000000000000e+00	 0.000000000000000e+00	 7.086093700374827e+00
1	 1.524759983236486e+00	 2.705537878018779e-02	 6.962917439933725e+00
1	 1.524033068627529e+00	 5.429738235666183e-02	 6.819775588724079e+00
1	 1.522809147043897e+00	 8.171475804052787e-02	 6.656748046885570e+00
1	 1.521078381531942e+00	 1.092957329441093e-01	 6.473963008307861e+00
1	 1.518831235635048e+00	 1.370280178085645e-01	 6.271598403671337e+00
1	 1.516058502054693e+00	 1.648988124715960e-01	 6.049883192771187e+00
1	 1.512751331552235e+00	 1.928948130336742e-01	 5.809098490492803e+00
1	 1.508901261985667e+00	 2.210022207752603e-01	 5.549578511064905e+00
1	 1.504500247369134e+00	 2.492067528708361e-01	 5.271711315631999e+00
1	 1.499540686836884e+00	 2.774936549381459e-01	 4.975939348768661e+00
1	 1.537500000000000e+00	 0.000000000000000e+00	 6.840792581111938e+00
1	 1.537258015885981e+00	 2.727714417981218e-02	 6.720348710588748e+00
1	 1.536525142960601e+00	 5.474244286740368e-02	 6.580644850613451e+00
1	 1.535291189232917e+00	 8.238455113872650e-02	 6.421764563296785e+00
1	 1.533546237118513e+00	 1.101915996070258e-01	 6.243838050996440e+00
1	 1.531280671993095e+00	 1.381511982818314e-01	 6.047043522904804e+00
1	 1.528485211088482e+00	 1.662504420814835e-01	 5.831608414856953e+00
1	 1.525150932631292e+00	 1.944759180580968e-01	 5.597810447369952e+00
1	 1.521269305117696e+00	 2.228137143878751e-01	 5.345978507189866e+00
1	 1.516832216611136e+00	 2.512494311729607e-01	 5.076493338039244e+00
1	 1.511832003943683e+00	 2.797681930935394e-01	 4.789788026834158e+00
1	 1.550000000000000e+00	 0.000000000000000e+00	 6.603844400074316e+00
1	 1.549756048535470e+00	 2.749890957943656e-02	 6.486032208240414e+00
1	 1.549017217293655e+00	 5.518750337814550e-02	 6.349657006540982e+00
1	 1.547773231421895e+00	 8.305434423692513e-02	 6.194806000038728e+00
1	 1.546014092705009e+00	 1.110874662699424e-01	 6.021611398994160e+00
1	 1.543730108351024e+00	 1.392743787550982e-01	 5.830251709766654e+00
1	 1.540911920122102e+00	 1.676020716913709e-01	 5.620952882827735e+00
1	 1.537550533710115e+00	 1.960570230825194e-01	 5.393989303534270e+00
1	 1.533637348249418e+00	 2.246252080004899e-01	 5.149684611580955e+00
1	 1.529164185852748e+00	 2.532921094750853e-01	 4.888412335469767e+00
1	 1.524123321049998e+00	 2.820427312489329e-01	 4.610596328905302e+00
1	 1.562500000000000e+00	 0.000000000000000e+00	 6.375048686744756e+00
1	 1.562254081184955e+00	 2.772067497906093e-02	 6.259769879440972e+00
1	 1.561509291626691e+00	 5.563256388888735e-02	 6.126616627049916e+00
1	 1.560255273610832e+00	 8.372413733512374e-02	 5.975679759023679e+00
1	 1.558481948291430e+00	 1.119833329328590e-01	 5.807093492973873e+00
1	 1.556179544708835e+00	 1.403975592283651e-01	 5.621036650634136e+00
1	 1.553338629155550e+00	 1.689537013012584e-01	 5.417733734782742e+00
1	 1.549950134788705e+00	 1.976381281069421e-01	 5.197455853403453e+00
1	 1.546005391380833e+00	 2.264367016131047e-01	 4.960521477640549e+00
1	 1.541496155093968e+00	 2.553347877772099e-01	 4.707297020523964e+00
1	 1.536414638155826e+00	 2.843172694043264e-01	 4.438197224007143e+00
1	 1.575000000000000e+00	 0.000000000000000e+00	 6.154211334749459e+00
1	 1.574752113834436e+00	 2.794244037868531e-02	 6.041369958153732e+00
1	 1.574001365959708e+00	 5.607762439962918e-02	 5.911334486793253e+00
1	 1.572737315799726e+00	 8.439393043332238e-02	 5.764199356388891e+00
1	 1.570949803877776e+00	 1.128791995957756e-01	 5.600100791364843e+00
1	 1.568628981066530e+00	 1.415207397016319e-01	 5.419217946602711e+00
1	 1.565765338188829e+00	 1.703053309111458e-01	 5.221773913960906e+00
1	 1.562349735867061e+00	 1.992192331313647e-01	 5.008036580461310e+00
1	 1.558373434511941e+00	 2.282481952257195e-01	 4.778319325329665e+00
1	 1.553828124334798e+00	 2.573774660793345e-01	 4.532981543497446e+00
1	 1.548705955261170e+00	 2.865918075597200e-01	 4.272428983735319e+00
1	 1.587500000000000e+00	 0.000000000000000e+00	 5.941144351301197e+00
1	 1.587250146483912e+00	 2.816420577830969e-02	 5.830646718217140e+00
1	 1.586493440292707e+00	 5.652268491037100e-02	 5.703627320277434e+00
1	 1.585219357988580e+00	 8.506372353152102e-02	 5.560184181779131e+00
1	 1.583417659464048e+00	 1.137750662586921e-01	 5.400455533433188e+00
1	 1.581078417424106e+00	 1.426439201748988e-01	 5.224620880623054e+00
1	 1.578192047221937e+00	 1.716569605210333e-01	 5.032901940192016e+00
1	 1.574749336945184e+00	 2.008003381557873e-01	 4.825563433278759e+00
1	 1.570741477642742e+00	 2.300596888383343e-01	 4.602913722012122e+00
1	 1.566160093575237e+00	 2.594201443814592e-01	 4.365305278298523e+00
1	 1.560997272366028e+00	 2.888663457151135e-01	 4.113134973493467e+00
1	 1.600000000000000e+00	 0.000000000000000e+00	 5.735665618387337e+00
1	 1.599748179133383e+00	 2.838597117793407e-02	 5.627420237412206e+00
1	 1.598985514625687e+00	 5.696774542111284e-02	 5.503317589055552e+00
1	 1.597701400177391e+00	 8.573351662971965e-02	 5.363459268912745e+00
1	 1.595885515050245e+00	 1.146709329216086e-01	 5.207985513467950e+00
1	 1.593527853781565e+00	 1.437671006481656e-01	 5.037076195553667e+00
1	 1.590618756254874e+00	 1.730085901309208e-01	 4.850951692061209e+00
1	 1.587148938023073e+00	 2.023814431802099e-01	 4.649873612033845e+00
1	 1.583109520773236e+00	 2.318711824509491e-01	 4.434145373571589e+00
1	 1.578492062815286e+00	 2.614628226835838e-01	 4.204112618400905e+00
1	 1.573288589470401e+00	 2.911408838705071e-01	 3.960163453516357e+00
1	 1.612500000000000e+00	 0.000000000000000e+00	 5.537598665065395e+00
1	 1.612246211782850e+00	 2.860773657755843e-02	 5.431516172503454e+00
1	 1.611477588958649e+00	 5.741280593185468e-02	 5.310233259748861e+00
1	 1.610183442366161e+00	 8.640330972791826e-02	 5.173855076819112e+00
1	 1.608353370636367e+00	 1.155667995845252e-01	 5.022523865470157e+00
1	 1.605977290138907e+00	 1.448902811214324e-01	 4.856419882536457e+00
1	 1.603045465287642e+00	 1.743602197408082e-01	 4.675762199205217e+00
1	 1.599548539100729e+00	 2.039625482046325e-01	 4.480809364961139e+00
1	 1.595477563903424e+00	 2.336826760635639e-01	 4.271859925244184e+00
1	 1.590824032054943e+00	 2.635055009857084e-01	 4.049252782286795e+00
1	 1.585579906574289e+00	 2.934154220259006e-01	 3.813367389147731e+00
1	 1.625000000000000e+00	 0.000000000000000e+00	 5.346772450268029e+00
1	 1.624744244432312e+00	 2.882950197718282e-02	 5.242765544662669e+00
1	 1.623969663291593e+00	 5.785786644259652e-02	 5.124207592313283e+00
1	 1.622665484554890e+00	 8.707310282611692e-02	 4.991207281172930e+00
1	 1.620821226222414e+00	 1.164626662474418e-01	 4.843908857779229e+00
1	 1.618426726496131e+00	 1.460134615946994e-01	 4.682492979139788e+00
1	 1.615472174320238e+00	 1.757118493506957e-01	 4.507177444195015e+00
1	 1.611948140178151e+00	 2.055436532290552e-01	 4.318217794195641e+00
1	 1.607845607033305e+00	 2.354941696761788e-01	 4.115907771643342e+00
1	 1.603156001294210e+00	 2.655481792878331e-01	 3.900579627869740e+00
1	 1.597871223677692e+00	 2.956899601812942e-01	 3.672604269874578e+00
1	 1.474958052621828e+00	 2.729445786273588e-01	 5.369816827050212e+00
1	 1.469523396769290e+00	 3.008338184785218e-01	 5.212365513759043e+00
1	 1.463525825188096e+00	 3.287737200529772e-01	 5.035704565469215e+00
1	 1.456959343223164e+00	 3.567484718715391e-01	 4.839744859121792e+00
1	 1.449818504550261e+00	 3.847418665163292e-01	 4.624438107512439e+00
1	 1.442098437276991e+00	 4.127373222644202e-01	 4.389778323350852e+00
1	 1.433794869157430e+00	 4.407179065634715e-01	 4.135803149960067e+00
1	 1.424904151779575e+00	 4.686663613186522e-01	 3.862595045115886e+00
1	 1.415423283584646e+00	 4.965651299484973e-01	 3.570282304995066e+00
1	 1.405349931578255e+00	 5.243963861554752e-01	 3.259039915816499e+00
1	 1.394682451595397e+00	 5.521420643450261e-01	 2.929090221523010e+00
1	 1.487249369729599e+00	 2.752191167827523e-01	 5.169222847368886e+00
1	 1.481769425078744e+00	 3.033407669662652e-01	 5.017020854853850e+00
1	 1.475721873734670e+00	 3.315135010540273e-01	 4.845699392296508e+00
1	 1.469100671086833e+00	 3.597213758045253e-01	 4.655143362888753e+00
1	 1.461900325424960e+00	 3.879480487380636e-01	 4.445278027075638e+00
1	 1.454115924257551e+00	 4.161767999506894e-01	 4.216070560590662e+00
1	 1.445743159736630e+00	 4.443905557854587e-01	 3.967531484432421e+00
1	 1.436778353046758e+00	 4.725719143300821e-01	 3.699715952862377e+00
1	 1.427218477616163e+00	 5.007031726982478e-01	 3.412724885912948e+00
1	 1.417061181008836e+00	 5.287663560399447e-01	 3.106705933453081e+00
1	 1.406304805358394e+00	 5.567432482139901e-01	 2.781854258567271e+00
1	 1.499540686836884e+00	 2.774936549381459e-01	 4.975939348768661e+00
1	 1.494015453387626e+00	 3.058477154540085e-01	 4.828796802202954e+00
1	 1.487917922280615e+00	 3.342532820550773e-01	 4.662625778160061e+00
1	 1.481241998949843e+00	 3.626942797375113e-01	 4.477285540485822e+00
1	 1.473982146299001e+00	 3.911542309597980e-01	 4.272675237641158e+00
1	 1.466133411237483e+00	 4.196162776369589e-01	 4.048735553769002e+00
1	 1.457691450315262e+00	 4.480632050074460e-01	 3.805450236945743e+00
1	 1.448652554313463e+00	 4.764774673415118e-01	 3.542847490279962e+00
1	 1.439013671647323e+00	 5.048412154479985e-01	 3.261001211872146e+00
1	 1.428772430439212e+00	 5.331363259244142e-01	 2.960032070150317e+00
1	 1.417927159121370e+00	 5.613444320829541e-01	 2.640108401750840e+00
1	 1.511832003943683e+00	 2.797681930935394e-01	 4.789788026834158e+00
1	 1.506261481695937e+00	 3.083546639417515e-01	 4.647519682484032e+00
1	 1.500113970825930e+00	 3.369930630561272e-01	 4.486314660644963e+00
1	 1.493383326812194e+00	 3.656671836704973e-01	 4.306006912063675e+00
1	 1.486063967172383e+00	 3.943604131815324e-01	 4.106469805281816e+00
1	 1.478150898216786e+00	 4.230557553232283e-01	 3.887617869813341e+00
1	 1.469639740893325e+00	 4.517358542294331e-01	 3.649408421692678e+00
1	 1.460526755579689e+00	 4.803830203529415e-01	 3.391843056642793e+00
1	 1.450808865678127e+00	 5.089792581977491e-01	 3.114968996405341e+00
1	 1.440483679869384e+00	 5.375062958088838e-01	 2.818880274220094e+00
1	 1.429549512884325e+00	 5.659456159519182e-01	 2.503718746041417e+00
1	 1.524123321049998e+00	 2.820427312489329e-01	 4.610596328905302e+00
1	 1.518507510003678e+00	 3.108616124294948e-01	 4.473021424740010e+00
1	 1.512310019370616e+00	 3.397328440571772e-01	 4.316602430962584e+00
1	 1.505524654673888e+00	 3.686400876034834e-01	 4.141148303574585e+00
1	 1.498145788045108e+00	 3.975665954032666e-01	 3.946506955229385e+00
1	 1.490168385195461e+00	 4.264952330094976e-01	 3.732567089621253e+00
1	 1.481588031470819e+00	 4.554085034514203e-01	 3.499259923375814e+00
1	 1.472400956845438e+00	 4.842885733643713e-01	 3.246560780280743e+00
1	 1.462604059708573e+00	 5.131173009474997e-01	 2.974490542931310e+00
1	 1.452194929299351e+00	 5.418762656933532e-01	 2.683116947254656e+00
1	 1.441171866647260e+00	 5.705467998208821e-01	 2.372555705923925e+00
1	 1.536414638155826e+00	 2.843172694043264e-01	 4.438197224007143e+00
1	 1.530753538310847e+00	 3.133685609172381e-01	 4.305139336284395e+00
1	 1.524506067914674e+00	 3.424726250582273e-01	 4.153330715805540e+00
1	 1.517665982534923e+00	 3.716129915364694e-01	 3.982555634540354e+00
1	 1.510227608917174e+00	 4.007727776250010e-01	 3.792636865508213e+00
1	 1.502185872173508e+00	 4.299347106957671e-01	 3.583437607501597e+00
1	 1.493536322047746e+00	 4.590811526734075e-01	 3.354863302387272e+00
1	 1.484275158110709e+00	 4.881941263758013e-01	 3.106863329417148e+00
1	 1.474399253738662e+00	 5.172553436972505e-01	 2.839432561159472e+00
1	 1.463906178729113e+00	 5.462462355778226e-01	 2.552612765995336e+00
1	 1.452794220410174e+00	 5.751479836898462e-01	 2.246493842619844e+00
1	 1.548705955261170e+00	 2.865918075597200e-01	 4.272428983735319e+00
1	 1.542999566617443e+00	 3.158755094049813e-01	 4.143715889277880e+00
1	 1.536702116458102e+00	 3.452124060592773e-01	 3.996346169590463e+00
1	 1.529807310395300e+00	 3.745858954694554e-01	 3.830079715926512e+00
1	 1.522309429788582e+00	 4.039789598467353e-01	 3.644714470395859e+00
1	 1.514203359150925e+00	 4.333741883820365e-01	 3.440088440166146e+00
1	 1.505484612624103e+00	 4.627538018953948e-01	 3.216081609265497e+00
1	 1.496149359375500e+00	 4.920996793872311e-01	 2.972617732014334e+00
1	 1.486194447768395e+00	 5.213933864470012e-01	 2.709665992237089e+00
1	 1.475617428158671e+00	 5.506162054622920e-01	 2.427242512683801e+00
1	 1.464416574173068e+00	 5.797491675588102e-01	 2.125411699534173e+00
1	 1.560997272366028e+00	 2.888663457151135e-01	 4.113134973493467e+00
1	 1.555245594923469e+00	 3.183824578927246e-01	 3.988598517387899e+00
1	 1.548898165000901e+00	 3.479521870603273e-01	 3.845500276516120e+00
1	 1.541948638255018e+00	 3.775587994024414e-01	 3.683576057565839e+00
1	 1.534391250659332e+00	 4.071851420684697e-01	 3.502599273169011e+00
1	 1.526220846127715e+00	 4.368136660683060e-01	 3.302383044745212e+00
1	 1.517432903199891e+00	 4.664264511173821e-01	 3.082782207917803e+00
1	 1.508023560639813e+00	 4.960052323986609e-01	 2.843695204130319e+00
1	 1.497989641797769e+00	 5.255314291967518e-01	 2.585065842157205e+00
1	 1.487328677588024e+00	 5.549861753467614e-01	 2.306884913428181e+00
1	 1.476038927935941e+00	 5.843503514277741e-01	 2.009191645476546e+00
1	 1.573288589470401e+00	 2.911408838705071e-01	 3.960163453516357e+00
1	 1.567491623228924e+00	 3.208894063804678e-01	 3.839639421979753e+00
1	 1.561094213543070e+00	 3.506919680613774e-01	 3.700649161900094e+00
1	 1.554089966114079e+00	 3.805317033354274e-01	 3.542904684608820e+00
1	 1.546473071529424e+00	 4.103913242902040e-01	 3.366155167626972e+00
1	 1.538238333103876e+00	 4.402531437545753e-01	 3.170189145333795e+00
1	 1.529381193775111e+00	 4.700991003393692e-01	 2.954836607129430e+00
1	 1.519897761903649e+00	 4.999107854100907e-01	 2.719970986321356e+00
1	 1.509784835826787e+00	 5.296694719465024e-01	 2.465511022975643e+00
1	 1.499039927017173e+00	 5.593561452312309e-01	 2.191422484145764e+00
1	 1.487661281698794e+00	 5.889515352967382e-01	 1.897719725231341e+00
1	 1.585579906574289e+00	 2.934154220259006e-01	 3.813367389147731e+00
1	 1.579737651533808e+00	 3.233963548682111e-01	 3.696695387322150e+00
1	 1.573290262084611e+00	 3.534317490624274e-01	 3.561653412290387e+00
1	 1.566231293972480e+00	 3.835046072684134e-01	 3.407929962511356e+00
1	 1.558554892398857e+00	 4.135975065119385e-01	 3.235250267916357e+00
1	 1.550255820079409e+00	 4.436926214408446e-01	 3.043378567605353e+00
1	 1.541329484349762e+00	 4.737717495613564e-01	 2.832120299909354e+00
1	 1.531771963167006e+00	 5.038163384215205e-01	 2.601324187653611e+00
1	 1.521580029855448e+00	 5.338075146962531e-01	 2.350884201413189e+00
1	 1.510751176446117e+00	 5.637261151157004e-01	 2.080741383671188e+00
1	 1.499283635461626e+00	 5.935527191657022e-01	 1.790885517078072e+00
1	 1.597871223677692e+00	 2.956899601812942e-01	 3.672604269874578e+00
1	 1.591983679838119e+00	 3.259033033559543e-01	 3.559627604321645e+00
1	 1.585486310625523e+00	 3.561715300634776e-01	 3.428377903879677e+00
1	 1.578372621830225e+00	 3.864775112013996e-01	 3.278520430099930e+00
1	 1.570636713267633e+00	 4.168036887336729e-01	 3.109756746210022e+00
1	 1.562273307054313e+00	 4.471320991271141e-01	 2.921827081058791e+00
1	 1.553277774923845e+00	 4.774443987833438e-01	 2.714512610250910e+00
1	 1.543646164429884e+00	 5.077218914329503e-01	 2.487637636914283e+00
1	 1.533375223883753e+00	 5.379455574460040e-01	 2.241071654445418e+00
1	 1.522462425874856e+00	 5.680960850001699e-01	 1.974731273644224e+00
1	 1.510905989224438e+00	 5.981539030346663e-01	 1.688581996887698e+00
1	 1.394682451595397e+00	 5.521420643450261e-01	 2.929090221523010e+00
1	 1.383419906984210e+00	 5.797838916139538e-01	 2.615944617386592e+00
1	 1.371562085578352e+00	 6.073034212204445e-01	 2.285500671859978e+00
1	 1.359109514832477e+00	 6.346820674319068e-01	 1.938537574320228e+00
1	 1.346063475001740e+00	 6.619011416355681e-01	 1.575888873069217e+00
1	 1.332426010254849e+00	 6.889418895898038e-01	 1.198440454431023e+00
1	 1.318199937618296e+00	 7.157855296803712e-01	 8.071282207155495e-01
1	 1.303388853659439e+00	 7.424132920367565e-01	 4.029354737952674e-01
1	 1.287997138826982e+00	 7.688064583548604e-01	-1.310998640052030e-02
1	 1.272029959379205e+00	 7.949464022641402e-01	-4.399390366246623e-01
1	 1.255493266842989e+00	 8.208146300702533e-01	-8.764446639303458e-01
1	 1.406304805358394e+00	 5.567432482139901e-01	 2.781854258567271e+00
1	 1.394948406207697e+00	 5.846154240430896e-01	 2.476853287218558e+00
1	 1.382991769622504e+00	 6.123642830626772e-01	 2.155023734700097e+00
1	 1.370435427452928e+00	 6.399710846590581e-01	 1.817105880807565e+00
1	 1.357280670622920e+00	 6.674169844810206e-01	 1.463892327546923e+00
1	 1.343529560335928e+00	 6.946830720015954e-01	 1.096226093932103e+00
1	 1.329184937093667e+00	 7.217504090930887e-01	 7.149984223061120e-01
1	 1.314250427434890e+00	 7.486000694693998e-01	 3.211463024561970e-01
1	 1.298730448312043e+00	 7.752131788405625e-01	-8.435027776426374e-02
1	 1.282630209035559e+00	 8.015709556162806e-01	-5.004713441598398e-01
1	 1.265955710728375e+00	 8.276547519880928e-01	-9.261601967207010e-01
1	 1.417927159121370e+00	 5.613444320829541e-01	 2.640108401750840e+00
1	 1.406476905431348e+00	 5.894469564722256e-01	 2.342950949774428e+00
1	 1.394421453666978e+00	 6.174251449049096e-01	 2.029427961414389e+00
1	 1.381761340073830e+00	 6.452601018862087e-01	 1.700241292013759e+00
1	 1.368497866244649e+00	 6.729328273264731e-01	 1.356143106446119e+00
1	 1.354633110417626e+00	 7.004242544133872e-01	 9.979340883521740e-01
1	 1.340169936569694e+00	 7.277152885058061e-01	 6.264613734181887e-01
1	 1.325112001211006e+00	 7.547868469020427e-01	 2.426162124950788e-01
1	 1.309463757797747e+00	 7.816198993262644e-01	-1.526686273136937e-01
1	 1.293230458692502e+00	 8.081955089684213e-01	-5.584217131443517e-01
1	 1.276418154614268e+00	 8.344948739059324e-01	-9.736360357047477e-01
1	 1.429549512884325e+00	 5.659456159519182e-01	 2.503718746041417e+00
1	 1.418005404655163e+00	 5.942784889013609e-01	 2.214111044252029e+00
1	 1.405851137711774e+00	 6.224860067471424e-01	 1.908594299221991e+00
1	 1.393087252695183e+00	 6.505491191133597e-01	 1.587832415137927e+00
1	 1.379715061866928e+00	 6.784486701719254e-01	 1.252537616486044e+00
1	 1.365736660499942e+00	 7.061654368251790e-01	 9.034687704966078e-01
1	 1.351154936046379e+00	 7.336801679185235e-01	 5.414294460138287e-01
1	 1.335973574987789e+00	 7.609736243346858e-01	 1.672657141221483e-01
1	 1.320197067284093e+00	 7.880266198119669e-01	-2.181363019216540e-01
1	 1.303830708350034e+00	 8.148200623205618e-01	-6.138531176877819e-01
1	 1.286880598500666e+00	 8.413349958237717e-01	-1.018926807558631e+00
1	 1.441171866647260e+00	 5.705467998208821e-01	 2.372555705923925e+00
1	 1.429533903879145e+00	 5.991100213304970e-01	 2.090211092455801e+00
1	 1.417280821756893e+00	 6.275468685893746e-01	 1.792407535754368e+00
1	 1.404413165316985e+00	 6.558381363405106e-01	 1.479771450695462e+00
1	 1.390932257489756e+00	 6.839645130173780e-01	 1.152975606104711e+00
1	 1.376840210582875e+00	 7.119066192369704e-01	 8.127375592093131e-01
1	 1.362139935523721e+00	 7.396450473312408e-01	 4.598178387660841e-01
1	 1.346835148765235e+00	 7.671604017673291e-01	 9.501788173438175e-02
1	 1.330930376771083e+00	 7.944333402976689e-01	-2.808222695296447e-01
1	 1.314430958008157e+00	 8.214446156727025e-01	-6.668265004769141e-01
1	 1.297343042387568e+00	 8.481751177416111e-01	-1.062085376807677e+00
1	 1.452794220410174e+00	 5.751479836898462e-01	 2.246493842619844e+00
1	 1.441062403103291e+00	 6.039415537596327e-01	 1.971132535492479e+00
1	 1.428710505802334e+00	 6.326077304316072e-01	 1.680756145438846e+00
1	 1.415739077939239e+00	 6.611271535676618e-01	 1.375954048785215e+00
1	 1.402149453113134e+00	 6.894803558628307e-01	 1.057360031790147e+00
1	 1.387943760666427e+00	 7.176478016487620e-01	 7.256508359312399e-01
1	 1.373124935001719e+00	 7.456099267439583e-01	 3.815444639904143e-01
1	 1.357696722543348e+00	 7.733471791999721e-01	 2.579825134808611e-02
1	 1.341663686258716e+00	 8.008400607833710e-01	-3.407932911050586e-01
1	 1.325031207666869e+00	 8.280691690248431e-01	-7.174008540325539e-01
1	 1.307805486274977e+00	 8.550152396594507e-01	-1.103162916312388e+00
1	 1.464416574173068e+00	 5.797491675588102e-01	 2.125411699534173e+00
1	 1.452590902327603e+00	 6.087730861887682e-01	 1.856760578243275e+00
1	 1.440140189848097e+00	 6.376685922738400e-01	 1.573532143197169e+00
1	 1.427064990561943e+00	 6.664161707948125e-01	 1.276279172201420e+00
1	 1.413366648737060e+00	 6.949961987082831e-01	 9.655969307768156e-01
1	 1.399047310750597e+00	 7.233889840605537e-01	 6.421218271369373e-01
1	 1.384109934480375e+00	 7.515748061566756e-01	 3.065298399605517e-01
1	 1.368558296322125e+00	 7.795339566326149e-01	-4.046527708447023e-02
1	 1.352396995746991e+00	 8.072467812690729e-01	-3.981140082194913e-01
1	 1.335631457326171e+00	 8.346937223769836e-01	-7.656332980970607e-01
1	 1.318267930162891e+00	 8.618553615772905e-01	-1.142208974398067e+00
1	 1.476038927935941e+00	 5.843503514277741e-01	 2.009191645476546e+00
1	 1.464119401552080e+00	 6.136046186179041e-01	 1.746984041183721e+00
1	 1.451569873894183e+00	 6.427294541160723e-01	 1.470630945055928e+00
1	 1.438390903185097e+00	 6.717051880219633e-01	 1.180648966012520e+00
1	 1.424583844361535e+00	 7.005120415537357e-01	 8.775952997564079e-01
1	 1.410150860835385e+00	 7.291301664723454e-01	 5.620664923254179e-01
1	 1.395094933959687e+00	 7.575396855693931e-01	 2.346969883117370e-01
1	 1.379419870101568e+00	 7.857207340652584e-01	-1.038425327433776e-01
1	 1.363130305235910e+00	 8.136535017547750e-01	-4.528470264895162e-01
1	 1.346231706986062e+00	 8.413182757291240e-01	-8.115791533657662e-01
1	 1.328730374051309e+00	 8.686954834951300e-01	-1.179271538812825e+00
1	 1.487661281698794e+00	 5.889515352967382e-01	 1.897719725231341e+00
1	 1.475647900776722e+00	 6.184361510470401e-01	 1.641695219149548e+00
1	 1.462999557940591e+00	 6.477903159583051e-01	 1.371951235290980e+00
1	 1.449716815808702e+00	 6.769942052491146e-01	 1.088968633253597e+00
1	 1.435801039986560e+00	 7.060278843991882e-01	 7.932669792740015e-01
1	 1.421254410920791e+00	 7.348713488841370e-01	 4.854034172613867e-01
1	 1.406079933439656e+00	 7.635045649821103e-01	 1.659713362530228e-01
1	 1.390281443881676e+00	 7.919075114979012e-01	-1.644011626468268e-01
1	 1.373863614725471e+00	 8.200602222404771e-01	-5.050529951062026e-01
1	 1.356831956646543e+00	 8.479428290812646e-01	-8.552920117623772e-01
1	 1.339192817940233e+00	 8.755356054129694e-01	-1.214397097687698e+00
1	 1.499283635461626e+00	 5.935527191657022e-01	 1.790885517078072e+00
1	 1.487176400001530e+00	 6.232676834761757e-01	 1.540789746671566e+00
1	 1.474429241987322e+00	 6.528511778005376e-01	 1.277394839751001e+00
1	 1.461042728432757e+00	 6.822832224762654e-01	 1.001146316400559e+00
1	 1.447018235612134e+00	 7.115437272446408e-01	 7.125265435012370e-01
1	 1.432357961006815e+00	 7.406125312959287e-01	 4.120537121819582e-01
1	 1.417064932920283e+00	 7.694694443948278e-01	 1.002806233281650e-01
1	 1.401143017662449e+00	 7.980942889305445e-01	-2.222067162310468e-01
1	 1.384596924215675e+00	 8.264669427261790e-01	-5.547906826655686e-01
1	 1.367432206307614e+00	 8.545673824334052e-01	-8.968238034454790e-01
1	 1.349655261829663e+00	 8.823757273308089e-01	-1.247630697661267e+00
1	 1.510905989224438e+00	 5.981539030346663e-01	 1.688581996887698e+00
1	 1.498704899226502e+00	 6.280992159053116e-01	 1.444166469525823e+00
1	 1.485858926034374e+00	 6.579120396427700e-01	 1.186866605027875e+00
1	 1.472368641057263e+00	 6.875722397034166e-01	 9.170929843146780e-01
1	 1.458235431238258e+00	 7.170595700900936e-01	 6.352911950967715e-01
1	 1.443461511093458e+00	 7.463537137077204e-01	 3.419409147015643e-01
1	 1.428049932401566e+00	 7.754343238075454e-01	 3.755481247954096e-02
1	 1.412004591443889e+00	 8.042810663631879e-01	-2.773227260265451e-01
1	 1.395330233706523e+00	 8.328736632118814e-01	-6.021170494991553e-01
1	 1.378032455969274e+00	 8.611919357855460e-01	-9.362248607225936e-01
1	 1.360117705719598e+00	 8.892158492486488e-01	-1.279015999321736e+00
1	 1.255493266842989e+00	 8.208146300702533e-01	-8.764446639303458e-01
1	 1.238393794960052e+00	 8.463928216988620e-01	-1.452599353050682e+00
1	 1.220739054091186e+00	 8.716628716590645e-01	-2.048763723390215e+00
1	 1.202537323063470e+00	 8.966069298445739e-01	-2.664928011377932e+00
1	 1.183797638460694e+00	 9.212074419883817e-01	-3.301016139903935e+00
1	 1.164529781372711e+00	 9.454471895829715e-01	-3.956884546131759e+00
1	 1.144744261634678e+00	 9.693093290812137e-01	-4.632321341549942e+00
1	 1.124452299602615e+00	 9.927774301945512e-01	-5.327045815562818e+00
1	 1.103665805527006e+00	 1.015835513108607e+00	-6.040708291235272e+00
1	 1.082397356601088e+00	 1.038468084441313e+00	-6.772890338990867e+00
1	 1.060660171775000e+00	 1.060660171775000e+00	-7.523105351150031e+00
1	 1.265955710728375e+00	 8.276547519880928e-01	-9.261601967207010e-01
1	 1.248713743246684e+00	 8.534460952142418e-01	-1.499787539525643e+00
1	 1.230911879537568e+00	 8.789267289246001e-01	-2.093692135503881e+00
1	 1.212558467418335e+00	 9.040786542619943e-01	-2.707899198811837e+00
1	 1.193662618777638e+00	 9.288841706738568e-01	-3.342366579524906e+00
1	 1.174234196214413e+00	 9.533259161651070e-01	-3.996983436360932e+00
1	 1.154283797145776e+00	 9.773869068257236e-01	-4.671569246593927e+00
1	 1.133822735430714e+00	 1.001050575448077e+00	-5.365873165528922e+00
1	 1.112863020571797e+00	 1.024300809052669e+00	-6.079573745184752e+00
1	 1.091417334572207e+00	 1.047121985145915e+00	-6.812279018966787e+00
1	 1.069499006540000e+00	 1.069499006540000e+00	-7.563526956138928e+00
1	 1.276418154614268e+00	 8.344948739059324e-01	-9.736360357047477e-01
1	 1.259033691533726e+00	 8.604993687296211e-01	-1.544931665015576e+00
1	 1.241084704984276e+00	 8.861905861901355e-01	-2.136768568486186e+00
1	 1.222579611773449e+00	 9.115503786794145e-01	-2.749206551804309e+00
1	 1.203527599094765e+00	 9.365608993593316e-01	-3.382237013040369e+00
1	 1.183938611056242e+00	 9.612046427472428e-01	-4.035781461699121e+00
1	 1.163823332656955e+00	 9.854644845702333e-01	-4.709690379887630e+00
1	 1.143193171258858e+00	 1.009323720701601e+00	-5.403742439030244e+00
1	 1.122060235616609e+00	 1.032766104996730e+00	-6.117644082802349e+00
1	 1.100437312543332e+00	 1.055775885850517e+00	-6.851029484037826e+00
1	 1.078337841305000e+00	 1.078337841305000e+00	-7.603460880334374e+00
1	 1.286880598500666e+00	 8.413349958237717e-01	-1.018926807558631e+00
1	 1.269353639821178e+00	 8.675526422450008e-01	-1.588081584664589e+00
1	 1.251257530431308e+00	 8.934544434556709e-01	-2.178038192558149e+00
1	 1.232600756128812e+00	 9.190221030968349e-01	-2.788890651681784e+00
1	 1.213392579412076e+00	 9.442376280448065e-01	-3.420663538158883e+00
1	 1.193643025898199e+00	 9.690833693293788e-01	-4.073310350557275e+00
1	 1.173362868168216e+00	 9.935420623147427e-01	-4.746712223667986e+00
1	 1.152563607087049e+00	 1.017596865955126e+00	-5.440677003784768e+00
1	 1.131257450661441e+00	 1.041231400940791e+00	-6.154938697168852e+00
1	 1.109457290514461e+00	 1.064429786555119e+00	-6.889157300420933e+00
1	 1.087176676070000e+00	 1.087176676070000e+00	-7.642919018389875e+00
1	 1.297343042387568e+00	 8.481751177416111e-01	-1.062085376807677e+00
1	 1.279673588109040e+00	 8.746059157603802e-01	-1.629285545386317e+00
1	 1.261430355878664e+00	 9.007183007212065e-01	-2.217544720836913e+00
1	 1.242621900484424e+00	 9.264938275142550e-01	-2.826990770695490e+00
1	 1.223257559729569e+00	 9.519143567302811e-01	-3.457681088146876e+00
1	 1.203347440740282e+00	 9.769620959115145e-01	-4.109600807849053e+00
1	 1.182902403679558e+00	 1.001619640059252e+00	-4.782661373648128e+00
1	 1.161934042915285e+00	 1.025870011208651e+00	-5.476699473713086e+00
1	 1.140454665706294e+00	 1.049696696884853e+00	-6.191476355781793e+00
1	 1.118477268485596e+00	 1.073083687259721e+00	-6.926677532196963e+00
1	 1.096015510835000e+00	 1.096015510835000e+00	-7.681912881260337e+00
1	 1.307805486274977e+00	 8.550152396594507e-01	-1.103162916312388e+00
1	 1.289993536397313e+00	 8.816591892757599e-01	-1.668590250193190e+00
1	 1.271603181326345e+00	 9.079821579867418e-01	-2.255330467619857e+00
1	 1.252643044840285e+00	 9.339655519316756e-01	-2.863544924384739e+00
1	 1.233122540047246e+00	 9.595910854157564e-01	-3.493323478406196e+00
1	 1.213051855582494e+00	 9.848408224936503e-01	-4.144682555931039e+00
1	 1.192441939190983e+00	 1.009697217803762e+00	-4.817563574478362e+00
1	 1.171304478743568e+00	 1.034143156462176e+00	-5.511831739090390e+00
1	 1.149651880751167e+00	 1.058161992828914e+00	-6.227275225578838e+00
1	 1.127497246456736e+00	 1.081737587964323e+00	-6.963604761396308e+00
1	 1.104854345600000e+00	 1.104854345600000e+00	-7.720453611550171e+00
1	 1.318267930162891e+00	 8.618553615772905e-01	-1.142208974398067e+00
1	 1.300313484685995e+00	 8.887124627911391e-01	-1.706040919462360e+00
1	 1.281776006774351e+00	 9.152460152522772e-01	-2.291436403893375e+00
1	 1.262664189196394e+00	 9.414372763490958e-01	-2.898589921446262e+00
1	 1.242987520365106e+00	 9.672678141012309e-01	-3.527623450833915e+00
1	 1.222756270424832e+00	 9.927195490757862e-01	-4.178584373592882e+00
1	 1.201981474702488e+00	 1.017774795548272e+00	-4.851443753518654e+00
1	 1.180674914571895e+00	 1.042416301715701e+00	-5.546094995262453e+00
1	 1.158849095796060e+00	 1.066627288772976e+00	-6.262352896769415e+00
1	 1.136517224427881e+00	 1.090391488668925e+00	-6.999953107127676e+00
1	 1.113693180365000e+00	 1.113693180365000e+00	-7.758551998130303e+00
1	 1.328730374051309e+00	 8.686954834951300e-01	-1.179271538812825e+00
1	 1.310633432975088e+00	 8.957657363065190e-01	-1.741681349307113e+00
1	 1.291948832222681e+00	 9.225098725178128e-01	-2.325902210219082e+00
1	 1.272685333552753e+00	 9.489090007665163e-01	-2.932161411247850e+00
1	 1.252852500683149e+00	 9.749445427867061e-01	-3.560612716086220e+00
1	 1.232460685267298e+00	 1.000598275657922e+00	-4.211334133205668e+00
1	 1.211521010214075e+00	 1.025852373292782e+00	-4.884326053015075e+00
1	 1.190045350400269e+00	 1.050689446969226e+00	-5.579509770005159e+00
1	 1.168046310840973e+00	 1.075092584717037e+00	-6.296726405540620e+00
1	 1.145537202399030e+00	 1.099045389373528e+00	-7.035736243803382e+00
1	 1.122532015130000e+00	 1.122532015130000e+00	-7.796218490064692e+00
1	 1.339192817940233e+00	 8.755356054129694e-01	-1.214397097687698e+00
1	 1.320953381264590e+00	 9.028190098218986e-01	-1.775553967212216e+00
1	 1.302121657671336e+00	 9.297737297833478e-01	-2.358766327141056e+00
1	 1.282706477909361e+00	 9.563807251839367e-01	-2.964293929114482e+00
1	 1.262717481001375e+00	 9.826212714721810e-01	-3.592321993861336e+00
1	 1.242165100109891e+00	 1.008477002240058e+00	-4.242958836128929e+00
1	 1.221060545725744e+00	 1.033929951037291e+00	-4.916233860768622e+00
1	 1.199415786228689e+00	 1.058962592222751e+00	-5.612095949601384e+00
1	 1.177243525885908e+00	 1.083557880661099e+00	-6.330412255698734e+00
1	 1.154557180370186e+00	 1.107699290078130e+00	-7.070967418510468e+00
1	 1.131370849895000e+00	 1.131370849895000e+00	-7.833463209884052e+00
1	 1.349655261829663e+00	 8.823757273308089e-01	-1.247630697661267e+00
1	 1.331273329554503e+00	 9.098722833372782e-01	-1.807699885081522e+00
1	 1.312294483120316e+00	 9.370375870488835e-01	-2.390066003248579e+00
1	 1.292727622266217e+00	 9.638524496013569e-01	-2.995020939508422e+00
1	 1.272582461319784e+00	 9.902980001576561e-01	-3.622781051308713e+00
1	 1.251869514952611e+00	 1.016355728822194e+00	-4.273484646470679e+00
1	 1.230600081237495e+00	 1.042007528781801e+00	-4.947189839377193e+00
1	 1.208786222057155e+00	 1.067235737476276e+00	-5.643872803705016e+00
1	 1.186440740930863e+00	 1.092023176605160e+00	-6.363426439304109e+00
1	 1.163577158341345e+00	 1.116353190782732e+00	-7.105659467573575e+00
1	 1.140209684660000e+00	 1.140209684660000e+00	-7.870295966242205e+00
1	 1.360117705719598e+00	 8.892158492486488e-01	-1.279015999321736e+00
1	 1.341593277844827e+00	 9.169255568526578e-01	-1.838158949837312e+00
1	 1.322467308569620e+00	 9.443014443144191e-01	-2.419837341020412e+00
1	 1.302748766623323e+00	 9.713241740187775e-01	-3.024374877216148e+00
1	 1.282447441638377e+00	 9.979747288431313e-01	-3.652018739665535e+00
1	 1.261573929795459e+00	 1.024234455404330e+00	-4.302936923289522e+00
1	 1.240139616749326e+00	 1.050085106526311e+00	-4.977215954127892e+00
1	 1.218156657885667e+00	 1.075508882729801e+00	-5.674859009057641e+00
1	 1.195637955975838e+00	 1.100488472549222e+00	-6.395784456353661e+00
1	 1.172597136312511e+00	 1.125007091487334e+00	-7.139824832353470e+00
1	 1.149048519425000e+00	 1.149048519425000e+00	-7.906726265988155e+00
1	 1.060660171775000e+00	 1.060660171775000e+00	-7.523105351150031e+00
1	 1.038468084441312e+00	 1.082397356601088e+00	-8.372647948487192e+00
1	 1.015835513108607e+00	 1.103665805527006e+00	-9.211546528071878e+00
1	 9.927774301945514e-01	 1.124452299602615e+00	-1.003834521512206e+01
1	 9.693093290812139e-01	 1.144744261634678e+00	-1.085162775452272e+01
1	 9.454471895829717e-01	 1.164529781372711e+00	-1.165002230959845e+01
1	 9.212074419883821e-01	 1.183797638460694e+00	-1.243220601786488e+01
1	 8.966069298445744e-01	 1.202537323063470e+00	-1.319690927703478e+01
1	 8.716628716590653e-01	 1.220739054091185e+00	-1.394291973693052e+01
1	 8.463928216988629e-01	 1.238393794960052e+00	-1.466908597554624e+01
1	 8.208146300702533e-01	 1.255493266842989e+00	-1.537432084027454e+01
1	 1.069499006540000e+00	 1.069499006540000e+00	-7.563526956138928e+00
1	 1.047121985145914e+00	 1.091417334572208e+00	-8.406949633445752e+00
1	 1.024300809052668e+00	 1.112863020571797e+00	-9.236973976545583e+00
1	 1.001050575448077e+00	 1.133822735430714e+00	-1.005201545097074e+01
1	 9.773869068257237e-01	 1.154283797145776e+00	-1.085054086808434e+01
1	 9.533259161651076e-01	 1.174234196214413e+00	-1.163107365767306e+01
1	 9.288841706738570e-01	 1.193662618777638e+00	-1.239219882985443e+01
1	 9.040786542619949e-01	 1.212558467418335e+00	-1.313256759722711e+01
1	 8.789267289246008e-01	 1.230911879537568e+00	-1.385090163117431e+01
1	 8.534460952142426e-01	 1.248713743246684e+00	-1.454599692943561e+01
1	 8.276547519880928e-01	 1.265955710728375e+00	-1.521672727545649e+01
1	 1.078337841305000e+00	 1.078337841305000e+00	-7.603460880334374e+00
1	 1.055775885850517e+00	 1.100437312543332e+00	-8.439895733622926e+00
1	 1.032766104996730e+00	 1.122060235616609e+00	-9.260224528539798e+00
1	 1.009323720701601e+00	 1.143193171258858e+00	-1.006273560932942e+01
1	 9.854644845702336e-01	 1.163823332656955e+00	-1.084578026554726e+01
1	 9.612046427472433e-01	 1.183938611056242e+00	-1.160777847383756e+01
1	 9.365608993593318e-01	 1.203527599094765e+00	-1.234722426201267e+01
1	 9.115503786794150e-01	 1.222579611773449e+00	-1.306269066403644e+01
1	 8.861905861901361e-01	 1.241084704984275e+00	-1.375283423809449e+01
1	 8.604993687296220e-01	 1.259033691533725e+00	-1.441639912375152e+01
1	 8.344948739059326e-01	 1.276418154614268e+00	-1.505222061820053e+01
1	 1.087176676070000e+00	 1.087176676070000e+00	-7.642919018389875e+00
1	 1.064429786555119e+00	 1.109457290514461e+00	-8.471519312062046e+00
1	 1.041231400940791e+00	 1.131257450661441e+00	-9.281351279090554e+00
1	 1.017596865955126e+00	 1.152563607087049e+00	-1.007057764330766e+01
1	 9.935420623147430e-01	 1.173362868168216e+00	-1.083743554974322e+01
1	 9.690833693293790e-01	 1.193643025898198e+00	-1.158024277106571e+01
1	 9.442376280448070e-01	 1.213392579412075e+00	-1.229740346994603e+01
1	 9.190221030968353e-01	 1.232600756128811e+00	-1.298741348364376e+01
1	 8.934544434556715e-01	 1.251257530431307e+00	-1.364886510128585e+01
1	 8.675526422450017e-01	 1.269353639821178e+00	-1.428045130872966e+01
1	 8.413349958237718e-01	 1.286880598500666e+00	-1.488096948052000e+01
1	 1.096015510835000e+00	 1.096015510835000e+00	-7.681912881260337e+00
1	 1.073083687259721e+00	 1.118477268485596e+00	-8.501852365256674e+00
1	 1.049696696884853e+00	 1.140454665706294e+00	-9.300405610490731e+00
1	 1.025870011208651e+00	 1.161934042915285e+00	-1.007561118494682e+01
1	 1.001619640059253e+00	 1.182902403679558e+00	-1.082559343309023e+01
1	 9.769620959115149e-01	 1.203347440740282e+00	-1.154856914255787e+01
1	 9.519143567302818e-01	 1.223257559729569e+00	-1.224285370101523e+01
1	 9.264938275142555e-01	 1.242621900484423e+00	-1.290686670719219e+01
1	 9.007183007212070e-01	 1.261430355878663e+00	-1.353913700487231e+01
1	 8.746059157603812e-01	 1.279673588109040e+00	-1.413830711363018e+01
1	 8.481751177416113e-01	 1.297343042387569e+00	-1.470313703533122e+01
1	 1.104854345600000e+00	 1.104854345600000e+00	-7.720453611550171e+00
1	 1.081737587964323e+00	 1.127497246456736e+00	-8.530925865812641e+00
1	 1.058161992828914e+00	 1.149651880751166e+00	-9.317437260799897e+00
1	 1.034143156462176e+00	 1.171304478743567e+00	-1.007790363806317e+01
1	 1.009697217803762e+00	 1.192441939190982e+00	-1.081033785320868e+01
1	 9.848408224936508e-01	 1.213051855582493e+00	-1.151285689853212e+01
1	 9.595910854157568e-01	 1.233122540047245e+00	-1.218368845066582e+01
1	 9.339655519316761e-01	 1.252643044840284e+00	-1.282117680498811e+01
1	 9.079821579867426e-01	 1.271603181326344e+00	-1.342378816388591e+01
1	 8.816591892757606e-01	 1.289993536397312e+00	-1.399011525157703e+01
1	 8.550152396594509e-01	 1.307805486274977e+00	-1.451888123401704e+01
1	 1.113693180365000e+00	 1.113693180365000e+00	-7.758551998130303e+00
1	 1.090391488668925e+00	 1.136517224427881e+00	-8.558769803078368e+00
1	 1.066627288772976e+00	 1.158849095796060e+00	-9.332494389091655e+00
1	 1.042416301715701e+00	 1.180674914571895e+00	-1.007752026666911e+01
1	 1.017774795548272e+00	 1.201981474702488e+00	-1.079175008303286e+01
1	 9.927195490757867e-01	 1.222756270424832e+00	-1.147320219650121e+01
1	 9.672678141012316e-01	 1.242987520365105e+00	-1.212001761131315e+01
1	 9.414372763490964e-01	 1.262664189196394e+00	-1.273046623240766e+01
1	 9.152460152522779e-01	 1.281776006774350e+00	-1.330295240558000e+01
1	 8.887124627911401e-01	 1.300313484685995e+00	-1.383601971464267e+01
1	 8.618553615772904e-01	 1.318267930162891e+00	-1.432835501363097e+01
1	 1.122532015130000e+00	 1.122532015130000e+00	-7.796218490064692e+00
1	 1.099045389373527e+00	 1.145537202399030e+00	-8.585413221855935e+00
1	 1.075092584717037e+00	 1.168046310840974e+00	-9.345623637618253e+00
1	 1.050689446969226e+00	 1.190045350400269e+00	-1.007452427921774e+01
1	 1.025852373292782e+00	 1.211521010214075e+00	-1.076990883571949e+01
1	 1.000598275657922e+00	 1.232460685267297e+00	-1.142969816539476e+01
1	 9.749445427867065e-01	 1.252852500683148e+00	-1.205194761419421e+01
1	 9.489090007665166e-01	 1.272685333552752e+00	-1.263485358796481e+01
1	 9.225098725178134e-01	 1.291948832222681e+00	-1.317675934217619e+01
1	 8.957657363065197e-01	 1.310633432975087e+00	-1.367615995971631e+01
1	 8.686954834951300e-01	 1.328730374051309e+00	-1.413170649431136e+01
1	 1.131370849895000e+00	 1.131370849895000e+00	-7.833463209884052e+00
1	 1.107699290078130e+00	 1.154557180370186e+00	-8.610884259297384e+00
1	 1.083557880661099e+00	 1.177243525885908e+00	-9.356870191061716e+00
1	 1.058962592222751e+00	 1.199415786228689e+00	-1.006897690889793e+01
1	 1.033929951037292e+00	 1.221060545725744e+00	-1.074489036463929e+01
1	 1.008477002240058e+00	 1.242165100109890e+00	-1.138243502386342e+01
1	 9.826212714721815e-01	 1.262717481001375e+00	-1.197958156456997e+01
1	 9.563807251839371e-01	 1.282706477909361e+00	-1.253445376396994e+01
1	 9.297737297833488e-01	 1.302121657671336e+00	-1.304533453551444e+01
1	 9.028190098218994e-01	 1.320953381264590e+00	-1.351067108565918e+01
1	 8.755356054129694e-01	 1.339192817940233e+00	-1.392907916744233e+01
1	 1.140209684660000e+00	 1.140209684660000e+00	-7.870295966242205e+00
1	 1.116353190782732e+00	 1.163577158341346e+00	-8.635210180084828e+00
1	 1.092023176605160e+00	 1.186440740930862e+00	-9.366277833028583e+00
1	 1.067235737476276e+00	 1.208786222057155e+00	-1.006093749019507e+01
1	 1.042007528781801e+00	 1.230600081237494e+00	-1.071676855871713e+01
1	 1.016355728822194e+00	 1.251869514952611e+00	-1.133150019308038e+01
1	 9.902980001576563e-01	 1.272582461319784e+00	-1.190301937063903e+01
1	 9.638524496013575e-01	 1.292727622266217e+00	-1.242937809018120e+01
1	 9.370375870488843e-01	 1.312294483120315e+00	-1.290879965404421e+01
1	 9.098722833372790e-01	 1.331273329554503e+00	-1.333968400222078e+01
1	 8.823757273308089e-01	 1.349655261829663e+00	-1.372061207506279e+01
1	 1.149048519425000e+00	 1.149048519425000e+00	-7.906726265988155e+00
1	 1.125007091487334e+00	 1.172597136312511e+00	-8.658417409987221e+00
1	 1.100488472549222e+00	 1.195637955975838e+00	-9.373888999937600e+00
1	 1.075508882729801e+00	 1.218156657885667e+00	-1.005046353191812e+01
1	 1.050085106526311e+00	 1.240139616749326e+00	-1.068561503337280e+01
1	 1.024234455404330e+00	 1.261573929795459e+00	-1.127697840433653e+01
1	 9.979747288431317e-01	 1.282447441638376e+00	-1.182235786650143e+01
1	 9.713241740187781e-01	 1.302748766623323e+00	-1.231973447082587e+01
1	 9.443014443144199e-01	 1.322467308569620e+00	-1.276727262257041e+01
1	 9.169255568526588e-01	 1.341593277844826e+00	-1.316332559115834e+01
1	 8.892158492486486e-01	 1.360117705719598e+00	-1.350643998099512e+01
1	 8.208146300702533e-01	 1.255493266842989e+00	-1.537432084027454e+01
1	 7.949464022641402e-01	 1.272029959379205e+00	-1.590324186125499e+01
1	 7.688064583548604e-01	 1.287997138826982e+00	-1.639931103062494e+01
1	 7.424132920367567e-01	 1.303388853659439e+00	-1.686131161221385e+01
1	 7.157855296803717e-01	 1.318199937618296e+00	-1.728815879208348e+01
1	 6.889418895898042e-01	 1.332426010254849e+00	-1.767890143987114e+01
1	 6.619011416355685e-01	 1.346063475001740e+00	-1.803272316065222e+01
1	 6.346820674319077e-01	 1.359109514832477e+00	-1.834894264767452e+01
1	 6.073034212204453e-01	 1.371562085578352e+00	-1.862701335161695e+01
1	 5.797838916139548e-01	 1.383419906984210e+00	-1.886652248700629e+01
1	 5.521420643450261e-01	 1.394682451595397e+00	-1.906718940104453e+01
1	 8.276547519880928e-01	 1.265955710728375e+00	-1.521672727545649e+01
1	 8.015709556162803e-01	 1.282630209035559e+00	-1.570875937494175e+01
1	 7.752131788405626e-01	 1.298730448312043e+00	-1.617263101211060e+01
1	 7.486000694693997e-01	 1.314250427434890e+00	-1.660729656334139e+01
1	 7.217504090930887e-01	 1.329184937093667e+00	-1.701182211137494e+01
1	 6.946830720015958e-01	 1.343529560335928e+00	-1.738538695752316e+01
1	 6.674169844810209e-01	 1.357280670622919e+00	-1.772728453482032e+01
1	 6.399710846590586e-01	 1.370435427452928e+00	-1.803692273075032e+01
1	 6.123642830626780e-01	 1.382991769622504e+00	-1.831382363265295e+01
1	 5.846154240430909e-01	 1.394948406207696e+00	-1.855762271311530e+01
1	 5.567432482139901e-01	 1.406304805358394e+00	-1.876806747654730e+01
1	 8.344948739059326e-01	 1.276418154614268e+00	-1.505222061820053e+01
1	 8.081955089684212e-01	 1.293230458692502e+00	-1.550871769972317e+01
1	 7.816198993262644e-01	 1.309463757797747e+00	-1.594166509792028e+01
1	 7.547868469020430e-01	 1.325112001211007e+00	-1.635018649625475e+01
1	 7.277152885058064e-01	 1.340169936569694e+00	-1.673349729688473e+01
1	 7.004242544133874e-01	 1.354633110417626e+00	-1.709090588574985e+01
1	 6.729328273264735e-01	 1.368497866244649e+00	-1.742181440790730e+01
1	 6.452601018862094e-01	 1.381761340073830e+00	-1.772571906005145e+01
1	 6.174251449049104e-01	 1.394421453666977e+00	-1.800220991079743e+01
1	 5.894469564722263e-01	 1.406476905431347e+00	-1.825097026273984e+01
1	 5.613444320829541e-01	 1.417927159121370e+00	-1.847177557347863e+01
1	 8.413349958237718e-01	 1.286880598500666e+00	-1.488096948052000e+01
1	 8.148200623205618e-01	 1.303830708350034e+00	-1.530325242557499e+01
1	 7.880266198119669e-01	 1.320197067284093e+00	-1.570651782209664e+01
1	 7.609736243346860e-01	 1.335973574987789e+00	-1.609005689920447e+01
1	 7.336801679185236e-01	 1.351154936046379e+00	-1.645323283968160e+01
1	 7.061654368251792e-01	 1.365736660499941e+00	-1.679548179990308e+01
1	 6.784486701719261e-01	 1.379715061866928e+00	-1.711631354823141e+01
1	 6.505491191133607e-01	 1.393087252695183e+00	-1.741531172713215e+01
1	 6.224860067471428e-01	 1.405851137711774e+00	-1.769213374709468e+01
1	 5.942784889013624e-01	 1.418005404655163e+00	-1.794651032310917e+01
1	 5.659456159519182e-01	 1.429549512884325e+00	-1.817824466692302e+01
1	 8.481751177416113e-01	 1.297343042387569e+00	-1.470313703533122e+01
1	 8.214446156727022e-01	 1.314430958008157e+00	-1.509249476860273e+01
1	 7.944333402976689e-01	 1.330930376771083e+00	-1.546729034661668e+01
1	 7.671604017673291e-01	 1.346835148765235e+00	-1.582698082533613e+01
1	 7.396450473312413e-01	 1.362139935523721e+00	-1.617107566660594e+01
1	 7.119066192369707e-01	 1.376840210582875e+00	-1.649913751483945e+01
1	 6.839645130173785e-01	 1.390932257489756e+00	-1.681078269932664e+01
1	 6.558381363405112e-01	 1.404413165316985e+00	-1.710568146575454e+01
1	 6.275468685893755e-01	 1.417280821756893e+00	-1.738355794255534e+01
1	 5.991100213304978e-01	 1.429533903879145e+00	-1.764418984960606e+01
1	 5.705467998208821e-01	 1.441171866647260e+00	-1.788740795857506e+01
1	 8.550152396594509e-01	 1.307805486274977e+00	-1.451888123401704e+01
1	 8.280691690248427e-01	 1.325031207666869e+00	-1.487657174599662e+01
1	 8.008400607833710e-01	 1.341663686258716e+00	-1.522408059627405e+01
1	 7.733471791999721e-01	 1.357696722543348e+00	-1.556102899009461e+01
1	 7.456099267439583e-01	 1.373124935001719e+00	-1.588707120283932e+01
1	 7.176478016487626e-01	 1.387943760666427e+00	-1.620189511534018e+01
1	 6.894803558628312e-01	 1.402149453113133e+00	-1.650522258093377e+01
1	 6.611271535676622e-01	 1.415739077939239e+00	-1.679680962620025e+01
1	 6.326077304316081e-01	 1.428710505802333e+00	-1.707644648855750e+01
1	 6.039415537596337e-01	 1.441062403103291e+00	-1.734395749504117e+01
1	 5.751479836898462e-01	 1.452794220410174e+00	-1.759920078767536e+01
1	 8.618553615772904e-01	 1.318267930162891e+00	-1.432835501363097e+01
1	 8.346937223769834e-01	 1.335631457326171e+00	-1.465560634265515e+01
1	 8.072467812690728e-01	 1.352396995746991e+00	-1.497698338713889e+01
1	 7.795339566326152e-01	 1.368558296322125e+00	-1.529226986399026e+01
1	 7.515748061566757e-01	 1.384109934480375e+00	-1.560126343149424e+01
1	 7.233889840605542e-01	 1.399047310750597e+00	-1.590377598508222e+01
1	 6.949961987082838e-01	 1.413366648737060e+00	-1.619963388994477e+01
1	 6.664161707948132e-01	 1.427064990561942e+00	-1.648867815080566e+01
1	 6.376685922738407e-01	 1.440140189848097e+00	-1.677076451961043e+01
1	 6.087730861887695e-01	 1.452590902327603e+00	-1.704576354229476e+01
1	 5.797491675588102e-01	 1.464416574173068e+00	-1.731356054618681e+01
1	 8.686954834951300e-01	 1.328730374051309e+00	-1.413170649431136e+01
1	 8.413182757291239e-01	 1.346231706986062e+00	-1.442971766993664e+01
1	 8.136535017547751e-01	 1.363130305235910e+00	-1.472609054894839e+01
1	 7.857207340652586e-01	 1.379419870101568e+00	-1.502076976098176e+01
1	 7.575396855693932e-01	 1.395094933959687e+00	-1.531369495038811e+01
1	 7.291301664723457e-01	 1.410150860835385e+00	-1.560480083424114e+01
1	 7.005120415537363e-01	 1.424583844361535e+00	-1.589401730130212e+01
1	 6.717051880219642e-01	 1.438390903185097e+00	-1.618126955065220e+01
1	 6.427294541160733e-01	 1.451569873894183e+00	-1.646647826834892e+01
1	 6.136046186179049e-01	 1.464119401552080e+00	-1.674955984014066e+01
1	 5.843503514277741e-01	 1.476038927935941e+00	-1.703042659797928e+01
1	 8.755356054129694e-01	 1.339192817940233e+00	-1.392907916744233e+01
1	 8.479428290812644e-01	 1.356831956646543e+00	-1.419902111696962e+01
1	 8.200602222404771e-01	 1.373863614725471e+00	-1.447149104176036e+01
1	 7.919075114979014e-01	 1.390281443881676e+00	-1.474659292271656e+01
1	 7.635045649821107e-01	 1.406079933439657e+00	-1.502440702615653e+01
1	 7.348713488841375e-01	 1.421254410920791e+00	-1.530498972579915e+01
1	 7.060278843991887e-01	 1.435801039986560e+00	-1.558837346885653e+01
1	 6.769942052491154e-01	 1.449716815808702e+00	-1.587456688335042e+01
1	 6.477903159583056e-01	 1.462999557940591e+00	-1.616355502263796e+01
1	 6.184361510470409e-01	 1.475647900776722e+00	-1.645529974207848e+01
1	 5.889515352967382e-01	 1.487661281698794e+00	-1.674974020180146e+01
1	 8.823757273308089e-01	 1.349655261829663e+00	-1.372061207506279e+01
1	 8.545673824334050e-01	 1.367432206307614e+00	-1.396362849492515e+01
1	 8.264669427261790e-01	 1.384596924215675e+00	-1.421327106718138e+01
1	 7.980942889305445e-01	 1.401143017662449e+00	-1.446980159885309e+01
1	 7.694694443948279e-01	 1.417064932920282e+00	-1.473343964584967e+01
1	 7.406125312959290e-01	 1.432357961006815e+00	-1.500436210063081e+01
1	 7.115437272446413e-01	 1.447018235612134e+00	-1.528270302618417e+01
1	 6.822832224762662e-01	 1.461042728432757e+00	-1.556855373185587e+01
1	 6.528511778005384e-01	 1.474429241987322e+00	-1.586196308467238e+01
1	 6.232676834761766e-01	 1.487176400001529e+00	-1.616293804801092e+01
1	 5.935527191657022e-01	 1.499283635461626e+00	-1.647144443783656e+01
1	 8.892158492486486e-01	 1.360117705719598e+00	-1.350643998099512e+01
1	 8.611919357855461e-01	 1.378032455969275e+00	-1.372364817463048e+01
1	 8.328736632118816e-01	 1.395330233706523e+00	-1.395151417446082e+01
1	 8.042810663631879e-01	 1.412004591443889e+00	-1.419045612367575e+01
1	 7.754343238075456e-01	 1.428049932401566e+00	-1.444083156614683e+01
1	 7.463537137077207e-01	 1.443461511093458e+00	-1.470293680142978e+01
1	 7.170595700900940e-01	 1.458235431238257e+00	-1.497700658736642e+01
1	 6.875722397034173e-01	 1.472368641057263e+00	-1.526321418426411e+01
1	 6.579120396427711e-01	 1.485858926034374e+00	-1.556167173196409e+01
1	 6.280992159053126e-01	 1.498704899226502e+00	-1.587243094861300e+01
1	 5.981539030346663e-01	 1.510905989224438e+00	-1.619548413764650e+01
1	 5.521420643450261e-01	 1.394682451595397e+00	-1.906718940104453e+01
1	 5.243963861554752e-01	 1.405349931578255e+00	-1.929062618418408e+01
1	 4.965651299484972e-01	 1.415423283584646e+00	-1.951883827033443e+01
1	 4.686663613186524e-01	 1.424904151779574e+00	-1.975172847976372e+01
1	 4.407179065634718e-01	 1.433794869157430e+00	-1.998916350462515e+01
1	 4.127373222644204e-01	 1.442098437276991e+00	-2.023097557482633e+01
1	 3.847418665163297e-01	 1.449818504550261e+00	-2.047696425919186e+01
1	 3.567484718715399e-01	 1.456959343223164e+00	-2.072689838470672e+01
1	 3.287737200529779e-01	 1.463525825188096e+00	-2.098051805643006e+01
1	 3.008338184785227e-01	 1.469523396769290e+00	-2.123753676064664e+01
1	 2.729445786273588e-01	 1.474958052621828e+00	-2.149764353397346e+01
1	 5.567432482139901e-01	 1.406304805358394e+00	-1.876806747654730e+01
1	 5.287663560399445e-01	 1.417061181008836e+00	-1.900663391518385e+01
1	 5.007031726982477e-01	 1.427218477616163e+00	-1.924760381929644e+01
1	 4.725719143300822e-01	 1.436778353046758e+00	-1.949084067115545e+01
1	 4.443905557854591e-01	 1.445743159736631e+00	-1.973618168189026e+01
1	 4.161767999506898e-01	 1.454115924257551e+00	-1.998343926560062e+01
1	 3.879480487380641e-01	 1.461900325424960e+00	-2.023240260739955e+01
1	 3.597213758045257e-01	 1.469100671086833e+00	-2.048283931127084e+01
1	 3.315135010540280e-01	 1.475721873734670e+00	-2.073449711357587e+01
1	 3.033407669662659e-01	 1.481769425078743e+00	-2.098710564815106e+01
1	 2.752191167827523e-01	 1.487249369729599e+00	-2.124037824916249e+01
1	 5.613444320829541e-01	 1.417927159121370e+00	-1.847177557347863e+01
1	 5.331363259244141e-01	 1.428772430439212e+00	-1.872498104531221e+01
1	 5.048412154479984e-01	 1.439013671647323e+00	-1.897826211746222e+01
1	 4.764774673415119e-01	 1.448652554313463e+00	-1.923144314876064e+01
1	 4.480632050074462e-01	 1.457691450315262e+00	-1.948433197341896e+01
1	 4.196162776369592e-01	 1.466133411237483e+00	-1.973672118593757e+01
1	 3.911542309597985e-01	 1.473982146299001e+00	-1.998838947899126e+01
1	 3.626942797375119e-01	 1.481241998949842e+00	-2.023910302322861e+01
1	 3.342532820550780e-01	 1.487917922280614e+00	-2.048861687804127e+01
1	 3.058477154540093e-01	 1.494015453387626e+00	-2.073667642257587e+01
1	 2.774936549381459e-01	 1.499540686836884e+00	-2.098301879657347e+01
1	 5.659456159519182e-01	 1.429549512884325e+00	-1.817824466692302e+01
1	 5.375062958088834e-01	 1.440483679869384e+00	-1.844561051605164e+01
1	 5.089792581977491e-01	 1.450808865678127e+00	-1.871076700021516e+01
1	 4.803830203529417e-01	 1.460526755579689e+00	-1.897349956413382e+01
1	 4.517358542294334e-01	 1.469639740893325e+00	-1.923358676666700e+01
1	 4.230557553232287e-01	 1.478150898216786e+00	-1.949080137901786e+01
1	 3.943604131815328e-01	 1.486063967172383e+00	-1.974491149534713e+01
1	 3.656671836704979e-01	 1.493383326812194e+00	-1.999568164776506e+01
1	 3.369930630561280e-01	 1.500113970825930e+00	-2.024287391794006e+01
1	 3.083546639417524e-01	 1.506261481695937e+00	-2.048624903789819e+01
1	 2.797681930935394e-01	 1.511832003943683e+00	-2.072556747298168e+01
1	 5.705467998208821e-01	 1.441171866647260e+00	-1.788740795857506e+01
1	 5.418762656933529e-01	 1.452194929299350e+00	-1.816846710948196e+01
1	 5.131173009474997e-01	 1.462604059708573e+00	-1.844507379212010e+01
1	 4.842885733643716e-01	 1.472400956845438e+00	-1.871697474135963e+01
1	 4.554085034514207e-01	 1.481588031470819e+00	-1.898391933981743e+01
1	 4.264952330094980e-01	 1.490168385195461e+00	-1.924566053179026e+01
1	 3.975665954032672e-01	 1.498145788045108e+00	-1.950195570941569e+01
1	 3.686400876034840e-01	 1.505524654673887e+00	-1.975256756602699e+01
1	 3.397328440571781e-01	 1.512310019370616e+00	-1.999726491209219e+01
1	 3.108616124294957e-01	 1.518507510003677e+00	-2.023582344958035e+01
1	 2.820427312489330e-01	 1.524123321049998e+00	-2.046802650107268e+01
1	 5.751479836898462e-01	 1.452794220410174e+00	-1.759920078767536e+01
1	 5.462462355778224e-01	 1.463906178729113e+00	-1.789349737465663e+01
1	 5.172553436972506e-01	 1.474399253738663e+00	-1.818113924735566e+01
1	 4.881941263758014e-01	 1.484275158110708e+00	-1.846183463015229e+01
1	 4.590811526734078e-01	 1.493536322047745e+00	-1.873530382615144e+01
1	 4.299347106957674e-01	 1.502185872173508e+00	-1.900127994922118e+01
1	 4.007727776250016e-01	 1.510227608917174e+00	-1.925950958845107e+01
1	 3.716129915364700e-01	 1.517665982534923e+00	-1.950975340296446e+01
1	 3.424726250582280e-01	 1.524506067914673e+00	-1.975178664559510e+01
1	 3.133685609172390e-01	 1.530753538310846e+00	-1.998539961450942e+01
1	 2.843172694043264e-01	 1.536414638155826e+00	-2.021039803240621e+01
1	 5.797491675588102e-01	 1.464416574173068e+00	-1.731356054618681e+01
1	 5.506162054622918e-01	 1.475617428158671e+00	-1.762064955748436e+01
1	 5.213933864470012e-01	 1.486194447768394e+00	-1.791892149298364e+01
1	 4.920996793872311e-01	 1.496149359375500e+00	-1.820804626118738e+01
1	 4.627538018953951e-01	 1.505484612624103e+00	-1.848771518011597e+01
1	 4.333741883820368e-01	 1.514203359150925e+00	-1.875764152977026e+01
1	 4.039789598467358e-01	 1.522309429788582e+00	-1.901756099757249e+01
1	 3.745858954694560e-01	 1.529807310395299e+00	-1.926723201765605e+01
1	 3.452124060592781e-01	 1.536702116458102e+00	-1.950643600560694e+01
1	 3.158755094049823e-01	 1.542999566617443e+00	-1.973497749094143e+01
1	 2.865918075597200e-01	 1.548705955261170e+00	-1.995268415023848e+01
1	 5.843503514277741e-01	 1.476038927935941e+00	-1.703042659797928e+01
1	 5.549861753467613e-01	 1.487328677588024e+00	-1.734987353392410e+01
1	 5.255314291967518e-01	 1.497989641797769e+00	-1.765837997489867e+01
1	 4.960052323986610e-01	 1.508023560639814e+00	-1.795557770354443e+01
1	 4.664264511173823e-01	 1.517432903199891e+00	-1.824112914499408e+01
1	 4.368136660683061e-01	 1.526220846127715e+00	-1.851472774202447e+01
1	 4.071851420684702e-01	 1.534391250659332e+00	-1.877609818410010e+01
1	 3.775587994024420e-01	 1.541948638255018e+00	-1.902499649409151e+01
1	 3.479521870603281e-01	 1.548898165000901e+00	-1.926120997732790e+01
1	 3.183824578927254e-01	 1.555245594923469e+00	-1.948455703844705e+01
1	 2.888663457151135e-01	 1.560997272366028e+00	-1.969488687221143e+01
1	 5.889515352967382e-01	 1.487661281698794e+00	-1.674974020180146e+01
1	 5.593561452312308e-01	 1.499039927017173e+00	-1.708112074631108e+01
1	 5.296694719465024e-01	 1.509784835826787e+00	-1.739947540631118e+01
1	 4.999107854100908e-01	 1.519897761903649e+00	-1.770439802414423e+01
1	 4.700991003393695e-01	 1.529381193775111e+00	-1.799552222209159e+01
1	 4.402531437545756e-01	 1.538238333103876e+00	-1.827252160242711e+01
1	 4.103913242902046e-01	 1.546473071529423e+00	-1.853510976262514e+01
1	 3.805317033354282e-01	 1.554089966114078e+00	-1.878304013238547e+01
1	 3.506919680613781e-01	 1.561094213543070e+00	-1.901610564017079e+01
1	 3.208894063804688e-01	 1.567491623228924e+00	-1.923413821786027e+01
1	 2.911408838705071e-01	 1.573288589470401e+00	-1.943700815291551e+01
1	 5.935527191657022e-01	 1.499283635461626e+00	-1.647144443783656e+01
1	 5.637261151157001e-01	 1.510751176446117e+00	-1.681434414264465e+01
1	 5.338075146962531e-01	 1.521580029855448e+00	-1.714216971862644e+01
1	 5.038163384215206e-01	 1.531771963167005e+00	-1.745447724907277e+01
1	 4.737717495613566e-01	 1.541329484349762e+00	-1.775087164135563e+01
1	 4.436926214408450e-01	 1.550255820079409e+00	-1.803100665404379e+01
1	 4.135975065119389e-01	 1.558554892398857e+00	-1.829458470077494e+01
1	 3.835046072684140e-01	 1.566231293972480e+00	-1.854135644040137e+01
1	 3.534317490624282e-01	 1.573290262084611e+00	-1.877112016410910e+01
1	 3.233963548682120e-01	 1.579737651533807e+00	-1.898372099122980e+01
1	 2.934154220259006e-01	 1.585579906574289e+00	-1.917904988633388e+01
1	 5.981539030346663e-01	 1.510905989224438e+00	-1.619548413764650e+01
1	 5.680960850001699e-01	 1.522462425874857e+00	-1.654949811867797e+01
1	 5.379455574460040e-01	 1.533375223883753e+00	-1.688642601459146e+01
1	 5.077218914329504e-01	 1.543646164429884e+00	-1.720578632669053e+01
1	 4.774443987833440e-01	 1.553277774923845e+00	-1.750715533335054e+01
1	 4.471320991271144e-01	 1.562273307054313e+00	-1.779016694630715e+01
1	 4.168036887336734e-01	 1.570636713267633e+00	-1.805451230563439e+01
1	 3.864775112014002e-01	 1.578372621830225e+00	-1.829993912576041e+01
1	 3.561715300634782e-01	 1.585486310625523e+00	-1.852625080619424e+01
1	 3.259033033559552e-01	 1.591983679838119e+00	-1.873330532177177e+01
1	 2.956899601812942e-01	 1.597871223677692e+00	-1.892101390817320e+01
1	 2.729445786273588e-01	 1.474958052621828e+00	-2.149764353397346e+01
1	 2.451213962665869e-01	 1.479836308883957e+00	-2.177479298552916e+01
1	 2.173792335500309e-01	 1.484165175720690e+00	-2.202191903076766e+01
1	 1.897326029848293e-01	 1.487952129393421e+00	-2.223910137810347e+01
1	 1.621955532518215e-01	 1.491205083986602e+00	-2.242649875649674e+01
1	 1.347816568620313e-01	 1.493932362918601e+00	-2.258434526774187e+01
1	 1.075039996182768e-01	 1.496142670358577e+00	-2.271294656810088e+01
1	 8.037517184413129e-02	 1.497845062665731e+00	-2.281267590974774e+01
1	 5.340726133517893e-02	 1.499048919961328e+00	-2.288397007171726e+01
1	 2.661184798093990e-02	 1.499763917937484e+00	-2.292732520907415e+01
1	 0.000000000000000e+00	 1.500000000000000e+00	-2.294329264785788e+01
1	 2.752191167827523e-01	 1.487249369729599e+00	-2.124037824916249e+01
1	 2.471640745687116e-01	 1.492168278126741e+00	-2.150873911347124e+01
1	 2.191907271626458e-01	 1.496533218853332e+00	-2.174927554950608e+01
1	 1.913137080092519e-01	 1.500351730472944e+00	-2.196205538412786e+01
1	 1.635471828617090e-01	 1.503631793020732e+00	-2.214721913409639e+01
1	 1.359048373352982e-01	 1.506381799276883e+00	-2.230497667629773e+01
1	 1.083998662811933e-01	 1.508610525945297e+00	-2.243560376039947e+01
1	 8.104496494232989e-02	 1.510327104854834e+00	-2.253943839180417e+01
1	 5.385232184592077e-02	 1.511540994294438e+00	-2.261687711207693e+01
1	 2.683361338056428e-02	 1.512261950586988e+00	-2.266837120313932e+01
1	 0.000000000000000e+00	 1.512500000000000e+00	-2.269442284046435e+01
1	 2.774936549381459e-01	 1.499540686836884e+00	-2.098301879657347e+01
1	 2.492067528708362e-01	 1.504500247369135e+00	-2.124283673899503e+01
1	 2.210022207752605e-01	 1.508901261985668e+00	-2.147699447816078e+01
1	 1.928948130336745e-01	 1.512751331552235e+00	-2.168554824883066e+01
1	 1.648988124715964e-01	 1.516058502054692e+00	-2.186862071418386e+01
1	 1.370280178085651e-01	 1.518831235635048e+00	-2.202639795039181e+01
1	 1.092957329441099e-01	 1.521078381531942e+00	-2.215912628657773e+01
1	 8.171475804052857e-02	 1.522809147043897e+00	-2.226710902546639e+01
1	 5.429738235666262e-02	 1.524033068627529e+00	-2.235070306940842e+01
1	 2.705537878018867e-02	 1.524759983236486e+00	-2.241031547566798e+01
1	 0.000000000000000e+00	 1.525000000000000e+00	-2.244639996391680e+01
1	 2.797681930935394e-01	 1.511832003943683e+00	-2.072556747298168e+01
1	 2.512494311729608e-01	 1.516832216611136e+00	-2.097708216703751e+01
1	 2.228137143878753e-01	 1.521269305117696e+00	-2.120506697746562e+01
1	 1.944759180580971e-01	 1.525150932631291e+00	-2.140956682931743e+01
1	 1.662504420814838e-01	 1.528485211088482e+00	-2.159068688206451e+01
1	 1.381511982818319e-01	 1.531280671993094e+00	-2.174858982501105e+01
1	 1.101915996070264e-01	 1.533546237118513e+00	-2.188349304093105e+01
1	 8.238455113872716e-02	 1.535291189232917e+00	-2.199566566069528e+01
1	 5.474244286740446e-02	 1.536525142960601e+00	-2.208542553110267e+01
1	 2.727714417981305e-02	 1.537258015885981e+00	-2.215313611742908e+01
1	 0.000000000000000e+00	 1.537500000000000e+00	-2.219920336136540e+01
1	 2.820427312489330e-01	 1.524123321049998e+00	-2.046802650107268e+01
1	 2.532921094750855e-01	 1.529164185852748e+00	-2.071147182173151e+01
1	 2.246252080004902e-01	 1.533637348249418e+00	-2.093348449329205e+01
1	 1.960570230825197e-01	 1.537550533710115e+00	-2.113409840665782e+01
1	 1.676020716913713e-01	 1.540911920122102e+00	-2.131340155900145e+01
1	 1.392743787550988e-01	 1.543730108351024e+00	-2.147153365659440e+01
1	 1.110874662699430e-01	 1.546014092705009e+00	-2.160868359858438e+01
1	 8.305434423692580e-02	 1.547773231421895e+00	-2.172508686196910e+01
1	 5.518750337814630e-02	 1.549017217293655e+00	-2.182102280753792e+01
1	 2.749890957943743e-02	 1.549756048535470e+00	-2.189681192594136e+01
1	 0.000000000000000e+00	 1.550000000000000e+00	-2.195281304231029e+01
1	 2.843172694043264e-01	 1.536414638155826e+00	-2.021039803240621e+01
1	 2.553347877772101e-01	 1.541496155093969e+00	-2.044600224163749e+01
1	 2.264367016131050e-01	 1.546005391380833e+00	-2.066223874524368e+01
1	 1.976381281069424e-01	 1.549950134788705e+00	-2.085913066892747e+01
1	 1.689537013012588e-01	 1.553338629155550e+00	-2.103674918077730e+01
1	 1.403975592283656e-01	 1.556179544708835e+00	-2.119521139817477e+01
1	 1.119833329328596e-01	 1.558481948291430e+00	-2.133467818825852e+01
1	 8.372413733512445e-02	 1.560255273610832e+00	-2.145535187970276e+01
1	 5.563256388888813e-02	 1.561509291626691e+00	-2.155747390316052e+01
1	 2.772067497906182e-02	 1.562254081184955e+00	-2.164132237720291e+01
1	 0.000000000000000e+00	 1.562500000000000e+00	-2.170720965594753e+01
1	 2.865918075597200e-01	 1.548705955261170e+00	-1.995268415023848e+01
1	 2.573774660793346e-01	 1.553828124334798e+00	-2.018067007520282e+01
1	 2.282481952257197e-01	 1.558373434511941e+00	-2.039132171579373e+01
1	 1.992192331313650e-01	 1.562349735867061e+00	-2.058465169505670e+01
1	 1.703053309111463e-01	 1.565765338188829e+00	-2.076071467727698e+01
1	 1.415207397016324e-01	 1.568628981066530e+00	-2.091960557570460e+01
1	 1.128791995957761e-01	 1.570949803877776e+00	-2.106145766633400e+01
1	 8.439393043332308e-02	 1.572737315799727e+00	-2.118644062302816e+01
1	 5.607762439962997e-02	 1.574001365959708e+00	-2.129475848894213e+01
1	 2.794244037868620e-02	 1.574752113834436e+00	-2.138664759876719e+01
1	 0.000000000000000e+00	 1.575000000000000e+00	-2.146237446578449e+01
1	 2.888663457151135e-01	 1.560997272366028e+00	-1.969488687221143e+01
1	 2.594201443814593e-01	 1.566160093575237e+00	-1.991547207643563e+01
1	 2.300596888383345e-01	 1.570741477642742e+00	-2.012072563993616e+01
1	 2.008003381557876e-01	 1.574749336945183e+00	-2.031064993944269e+01
1	 1.716569605210337e-01	 1.578192047221936e+00	-2.048528345303472e+01
1	 1.426439201748993e-01	 1.581078417424107e+00	-2.064469926550005e+01
1	 1.137750662586927e-01	 1.583417659464048e+00	-2.078900349213994e+01
1	 8.506372353152170e-02	 1.585219357988580e+00	-2.091833363386059e+01
1	 5.652268491037181e-02	 1.586493440292707e+00	-2.103285687613889e+01
1	 2.816420577831059e-02	 1.587250146483912e+00	-2.113276834409162e+01
1	 0.000000000000000e+00	 1.587500000000000e+00	-2.121828932545425e+01
1	 2.911408838705071e-01	 1.573288589470401e+00	-1.943700815291551e+01
1	 2.614628226835839e-01	 1.578492062815286e+00	-1.965040510078136e+01
1	 2.318711824509493e-01	 1.583109520773236e+00	-1.985044299532107e+01
1	 2.023814431802102e-01	 1.587148938023073e+00	-2.003711421728254e+01
1	 1.730085901309212e-01	 1.590618756254874e+00	-2.021044136869274e+01
1	 1.437671006481662e-01	 1.593527853781566e+00	-2.037047607274276e+01
1	 1.146709329216093e-01	 1.595885515050245e+00	-2.051729770440138e+01
1	 8.573351662972034e-02	 1.597701400177391e+00	-2.065101206218030e+01
1	 5.696774542111365e-02	 1.598985514625687e+00	-2.077174999128018e+01
1	 2.838597117793497e-02	 1.599748179133383e+00	-2.087966596808828e+01
1	 0.000000000000000e+00	 1.600000000000000e+00	-2.097493665566388e+01
1	 2.934154220259006e-01	 1.585579906574289e+00	-1.917904988633388e+01
1	 2.635055009857086e-01	 1.590824032054943e+00	-1.938546610119094e+01
1	 2.336826760635642e-01	 1.595477563903424e+00	-1.958046649285002e+01
1	 2.039625482046329e-01	 1.599548539100729e+00	-1.976403369058905e+01
1	 1.743602197408086e-01	 1.603045465287642e+00	-1.993617472332334e+01
1	 1.448902811214330e-01	 1.605977290138907e+00	-2.009692011098009e+01
1	 1.155667995845258e-01	 1.608353370636367e+00	-2.024632289878221e+01
1	 8.640330972791899e-02	 1.610183442366161e+00	-2.038445764246435e+01
1	 5.741280593185549e-02	 1.611477588958649e+00	-2.051141935232086e+01
1	 2.860773657755936e-02	 1.612246211782850e+00	-2.062732240381112e+01
1	 0.000000000000000e+00	 1.612500000000000e+00	-2.073229942221480e+01
1	 2.956899601812942e-01	 1.597871223677692e+00	-1.892101390817320e+01
1	 2.655481792878332e-01	 1.603156001294210e+00	-1.912065212437071e+01
1	 2.354941696761790e-01	 1.607845607033304e+00	-1.931078906770421e+01
1	 2.055436532290555e-01	 1.611948140178152e+00	-1.949139785485148e+01
1	 1.757118493506961e-01	 1.615472174320239e+00	-1.966247023756573e+01
1	 1.460134615946999e-01	 1.618426726496131e+00	-1.982401598257395e+01
1	 1.164626662474424e-01	 1.620821226222415e+00	-1.997606220646434e+01
1	 8.707310282611763e-02	 1.622665484554889e+00	-2.011865267120589e+01
1	 5.785786644259734e-02	 1.623969663291593e+00	-2.025184704589387e+01
1	 2.882950197718375e-02	 1.624744244432313e+00	-2.037572014022036e+01
1	 0.000000000000000e+00	 1.625000000000000e+00	-2.049036111503760e+01
1	 1.625000000000000e+00	 0.000000000000000e+00	 5.346772450268029e+00
1	 1.624744244432312e+00	 2.882950197718282e-02	 5.242765544662669e+00
1	 1.623969663291593e+00	 5.785786644259652e-02	 5.124207592313283e+00
1	 1.622665484554890e+00	 8.707310282611692e-02	 4.991207281172930e+00
1	 1.620821226222414e+00	 1.164626662474418e-01	 4.843908857779229e+00
1	 1.618426726496131e+00	 1.460134615946994e-01	 4.682492979139788e+00
1	 1.615472174320238e+00	 1.757118493506957e-01	 4.507177444195015e+00
1	 1.611948140178151e+00	 2.055436532290552e-01	 4.318217794195641e+00
1	 1.607845607033305e+00	 2.354941696761788e-01	 4.115907771643342e+00
1	 1.603156001294210e+00	 2.655481792878331e-01	 3.900579627869740e+00
1	 1.597871223677692e+00	 2.956899601812942e-01	 3.672604269874578e+00
1	 1.637500000000000e+00	 0.000000000000000e+00	 5.147447263921607e+00
1	 1.637242277081775e+00	 2.905126737680721e-02	 5.047680468166845e+00
1	 1.636461737624536e+00	 5.830292695333835e-02	 4.933711416896752e+00
1	 1.635147526743617e+00	 8.774289592431556e-02	 4.805636489456067e+00
1	 1.633289081808462e+00	 1.173585329103583e-01	 4.663586527332969e+00
1	 1.630876162853355e+00	 1.471366420679662e-01	 4.507727693334910e+00
1	 1.627898883352835e+00	 1.770634789605832e-01	 4.338262215652890e+00
1	 1.624347741255574e+00	 2.071247582534779e-01	 4.155429006361249e+00
1	 1.620213650163185e+00	 2.373056632887935e-01	 3.959504144183055e+00
1	 1.615487970533477e+00	 2.675908575899578e-01	 3.750801211745622e+00
1	 1.610162540781094e+00	 2.979644983366877e-01	 3.529671478060809e+00
1	 1.650000000000000e+00	 0.000000000000000e+00	 4.955186993227442e+00
1	 1.649740309731242e+00	 2.927303277643158e-02	 4.859507157077789e+00
1	 1.648953811957498e+00	 5.874798746408018e-02	 4.749971022659765e+00
1	 1.647629568932387e+00	 8.841268902251417e-02	 4.626662838019262e+00
1	 1.645756937394584e+00	 1.182543995732749e-01	 4.489700228664185e+00
1	 1.643325599210696e+00	 1.482598225412330e-01	 4.339235063924963e+00
1	 1.640325592385603e+00	 1.784151085704706e-01	 4.175454213459291e+00
1	 1.636747342333229e+00	 2.087058632779004e-01	 3.998580183656022e+00
1	 1.632581693293372e+00	 2.391171569014083e-01	 3.808871623948002e+00
1	 1.627819939773135e+00	 2.696335358920823e-01	 3.606623693406109e+00
1	 1.622453857884982e+00	 3.002390364920812e-01	 3.392168278461653e+00
1	 1.662500000000000e+00	 0.000000000000000e+00	 4.769832279186010e+00
1	 1.662238342380713e+00	 2.949479817605596e-02	 4.678089706912769e+00
1	 1.661445886290478e+00	 5.919304797482201e-02	 4.572834023560717e+00
1	 1.660111611121198e+00	 8.908248212071281e-02	 4.454137519186952e+00
1	 1.658224792980781e+00	 1.191502662361914e-01	 4.322104788123571e+00
1	 1.655775035568156e+00	 1.493830030144999e-01	 4.176873602419517e+00
1	 1.652752301418540e+00	 1.797667381803581e-01	 4.018615680628431e+00
1	 1.649146943411119e+00	 2.102869683023231e-01	 3.847537341903450e+00
1	 1.644949736423866e+00	 2.409286505140231e-01	 3.663880035586395e+00
1	 1.640151909013183e+00	 2.716762141942070e-01	 3.467920736809863e+00
1	 1.634745174989355e+00	 3.025135746474747e-01	 3.259972199070948e+00
1	 1.675000000000000e+00	 0.000000000000000e+00	 4.591228519782844e+00
1	 1.674736375030189e+00	 2.971656357568033e-02	 4.503276867054174e+00
1	 1.673937960623477e+00	 5.963810848556386e-02	 4.402152582395074e+00
1	 1.672593653310052e+00	 8.975227521891144e-02	 4.287916167303750e+00
1	 1.670692648567052e+00	 1.200461328991080e-01	 4.160659365603609e+00
1	 1.668224471925732e+00	 1.505061834877667e-01	 4.020506043865164e+00
1	 1.665179010451648e+00	 1.811183677902456e-01	 3.867612972323360e+00
1	 1.661546544489242e+00	 2.118680733267457e-01	 3.702170496454701e+00
1	 1.657317779554668e+00	 2.427401441266379e-01	 3.524403089577826e+00
1	 1.652483878253622e+00	 2.737188924963316e-01	 3.334569777140704e+00
1	 1.647036492094213e+00	 3.047881128028683e-01	 3.132964423763354e+00
1	 1.687500000000000e+00	 0.000000000000000e+00	 4.419225693803910e+00
1	 1.687234407679670e+00	 2.993832897530471e-02	 4.334921868384177e+00
1	 1.686430034956494e+00	 6.008316899630568e-02	 4.237783242319895e+00
1	 1.685075695498947e+00	 9.042206831711005e-02	 4.127858694215190e+00
1	 1.683160504153399e+00	 1.209419995620246e-01	 4.005227294037005e+00
1	 1.680673908283426e+00	 1.516293639610336e-01	 3.869999190418258e+00
1	 1.677605719484926e+00	 1.824699974001330e-01	 3.722316403554165e+00
1	 1.673946145567598e+00	 2.134491783511683e-01	 3.562353514057952e+00
1	 1.669685822685775e+00	 2.445516377392527e-01	 3.390318238313642e+00
1	 1.664815847494452e+00	 2.757615707984562e-01	 3.206451881132545e+00
1	 1.659327809199556e+00	 3.070626509582619e-01	 3.011029656891332e+00
1	 1.700000000000000e+00	 0.000000000000000e+00	 4.253678192423815e+00
1	 1.699732440329154e+00	 3.016009437492909e-02	 4.172882258523734e+00
1	 1.698922109289530e+00	 6.052822950704752e-02	 4.079586765811159e+00
1	 1.697557737687883e+00	 9.109186141530867e-02	 3.973829132006606e+00
1	 1.695628359739820e+00	 1.218378662249411e-01	 3.855675925976090e+00
1	 1.693123344641237e+00	 1.527525444343004e-01	 3.725223761818784e+00
1	 1.690032428518375e+00	 1.838216270100204e-01	 3.582600103595357e+00
1	 1.686345746646188e+00	 2.150302833755909e-01	 3.427963971262916e+00
1	 1.682053865817190e+00	 2.463631313518675e-01	 3.261506538526619e+00
1	 1.677147816735672e+00	 2.778042491005809e-01	 3.083451613556584e+00
1	 1.671619126305386e+00	 3.093371891136554e-01	 2.894055993855828e+00
1	 1.712500000000000e+00	 0.000000000000000e+00	 4.094444658169722e+00
1	 1.712230472978644e+00	 3.038185977455347e-02	 4.017019744287309e+00
1	 1.711414183622584e+00	 6.097329001778935e-02	 3.927427980674004e+00
1	 1.710039779876862e+00	 9.176165451350732e-02	 3.825695482629499e+00
1	 1.708096215326316e+00	 1.227337328878577e-01	 3.711876486891391e+00
1	 1.705572780999167e+00	 1.538757249075673e-01	 3.586054252412844e+00
1	 1.702459137551995e+00	 1.851732566199080e-01	 3.448341876779106e+00
1	 1.698745347725011e+00	 2.166113884000136e-01	 3.298883019026631e+00
1	 1.694421908948913e+00	 2.481746249644823e-01	 3.137852519745691e+00
1	 1.689479785977284e+00	 2.798469274027054e-01	 2.965456909555654e+00
1	 1.683910443411700e+00	 3.116117272690490e-01	 2.781934797345351e+00
1	 1.725000000000000e+00	 0.000000000000000e+00	 3.941387830886855e+00
1	 1.724728505628139e+00	 3.060362517417785e-02	 3.867200040987527e+00
1	 1.723906257955657e+00	 6.141835052853120e-02	 3.781175632748213e+00
1	 1.722521822065882e+00	 9.243144761170595e-02	 3.683329574065720e+00
1	 1.720564070912886e+00	 1.236295995507742e-01	 3.573703934848478e+00
1	 1.718022217357214e+00	 1.549989053808341e-01	 3.452368794391616e+00
1	 1.714885846585785e+00	 1.865248862297954e-01	 3.319423069341035e+00
1	 1.711144948804068e+00	 2.181924934244362e-01	 3.174995253205915e+00
1	 1.706789952080941e+00	 2.499861185770972e-01	 3.019244058469962e+00
1	 1.701811755219286e+00	 2.818896057048301e-01	 2.852358952529371e+00
1	 1.696201760518499e+00	 3.138862654244425e-01	 2.674560578956052e+00
1	 1.737499999999999e+00	 0.000000000000000e+00	 3.794374400352932e+00
1	 1.737226538277637e+00	 3.082539057380222e-02	 3.723292728244544e+00
1	 1.736398332288748e+00	 6.186341103927302e-02	 3.640702244971699e+00
1	 1.735003864254944e+00	 9.310124070990457e-02	 3.546606922700540e+00
1	 1.733031926499532e+00	 1.245254662136908e-01	 3.441036826241973e+00
1	 1.730471653715378e+00	 1.561220858541010e-01	 3.324049026933571e+00
1	 1.727312555619745e+00	 1.878765158396829e-01	 3.195728442013568e+00
1	 1.723544549883358e+00	 2.197735984488587e-01	 3.056188590640170e+00
1	 1.719157995213276e+00	 2.517976121897119e-01	 2.905572257774118e+00
1	 1.714143724461679e+00	 2.839322840069546e-01	 2.744052057290283e+00
1	 1.708493077625785e+00	 3.161608035798360e-01	 2.571830885921569e+00
1	 1.750000000000000e+00	 0.000000000000000e+00	 3.653274865209168e+00
1	 1.749724570927141e+00	 3.104715597342660e-02	 3.585171111975078e+00
1	 1.748890406621857e+00	 6.230847155001488e-02	 3.505883982484139e+00
1	 1.747485906444049e+00	 9.377103380810323e-02	 3.415406601593951e+00
1	 1.745499782086252e+00	 1.254213328766073e-01	 3.313757187283803e+00
1	 1.742921090073661e+00	 1.572452663273678e-01	 3.200979970954939e+00
1	 1.739739264653876e+00	 1.892281454495704e-01	 3.077146048079642e+00
1	 1.735944150962882e+00	 2.213547034732815e-01	 2.942354150544798e+00
1	 1.731526038345919e+00	 2.536091058023268e-01	 2.796731332073568e+00
1	 1.726475693704463e+00	 2.859749623090794e-01	 2.640433558227753e+00
1	 1.720784394733555e+00	 3.184353417352296e-01	 2.473646192697490e+00
1	 1.597871223677692e+00	 2.956899601812942e-01	 3.672604269874578e+00
1	 1.591983679838119e+00	 3.259033033559543e-01	 3.559627604321645e+00
1	 1.585486310625523e+00	 3.561715300634776e-01	 3.428377903879677e+00
1	 1.578372621830225e+00	 3.864775112013996e-01	 3.278520430099930e+00
1	 1.570636713267633e+00	 4.168036887336729e-01	 3.109756746210022e+00
1	 1.562273307054313e+00	 4.471320991271141e-01	 2.921827081058791e+00
1	 1.553277774923845e+00	 4.774443987833438e-01	 2.714512610250910e+00
1	 1.543646164429884e+00	 5.077218914329503e-01	 2.487637636914283e+00
1	 1.533375223883753e+00	 5.379455574460040e-01	 2.241071654445418e+00
1	 1.522462425874856e+00	 5.680960850001699e-01	 1.974731273644224e+00
1	 1.510905989224438e+00	 5.981539030346663e-01	 1.688581996887698e+00
1	 1.610162540781094e+00	 2.979644983366877e-01	 3.529671478060809e+00
1	 1.604229708142434e+00	 3.284102518436999e-01	 3.419366530184838e+00
1	 1.597682359166444e+00	 3.589113110645371e-01	 3.291269706454576e+00
1	 1.590513949687990e+00	 3.894504151344069e-01	 3.145044245180681e+00
1	 1.582718534136446e+00	 4.200098709554452e-01	 2.980388489437125e+00
1	 1.574290794029277e+00	 4.505715768134433e-01	 2.797038226451896e+00
1	 1.565226065498014e+00	 4.811170480054174e-01	 2.594768948911189e+00
1	 1.555520365692882e+00	 5.116274444444987e-01	 2.373398020934750e+00
1	 1.545170417912212e+00	 5.420836001959101e-01	 2.132786731358512e+00
1	 1.534173675303793e+00	 5.724660548848370e-01	 1.872842216998558e+00
1	 1.522528342987494e+00	 6.027550869038752e-01	 1.593519238776869e+00
1	 1.622453857884982e+00	 3.002390364920812e-01	 3.392168278461653e+00
1	 1.616475736447324e+00	 3.309172003314502e-01	 3.284488003005124e+00
1	 1.609878407708013e+00	 3.616510920656152e-01	 3.159492244080460e+00
1	 1.602655277546456e+00	 3.924233190674569e-01	 3.016842223497169e+00
1	 1.594800355005993e+00	 4.232160531772940e-01	 2.856233082375855e+00
1	 1.586308281004989e+00	 4.540110544998922e-01	 2.677396196293710e+00
1	 1.577174356072925e+00	 4.847896972276646e-01	 2.480101417025202e+00
1	 1.567394566956594e+00	 5.155329974562836e-01	 2.264159223947213e+00
1	 1.556965611941338e+00	 5.462216429461266e-01	 2.029422768032247e+00
1	 1.545884924733330e+00	 5.768360247698988e-01	 1.775789791363615e+00
1	 1.534150696751060e+00	 6.073562707735738e-01	 1.503204405281086e+00
1	 1.634745174989355e+00	 3.025135746474747e-01	 3.259972199070948e+00
1	 1.628721764752790e+00	 3.334241488192052e-01	 3.154870611947827e+00
1	 1.622074456250230e+00	 3.643908730667124e-01	 3.032925274612591e+00
1	 1.614796605405623e+00	 3.953962230005494e-01	 2.893795398960947e+00
1	 1.606882175876277e+00	 4.264222353992188e-01	 2.737172941949951e+00
1	 1.598325767981450e+00	 4.574505321864608e-01	 2.562784896799992e+00
1	 1.589122646648578e+00	 4.884623464500846e-01	 2.370395515433062e+00
1	 1.579268768221021e+00	 5.194385504683054e-01	 2.159808445524412e+00
1	 1.568760805971133e+00	 5.503596856966543e-01	 1.930868765375857e+00
1	 1.557596174163466e+00	 5.812059946553559e-01	 1.683464899801330e+00
1	 1.545773050515137e+00	 6.119574546437619e-01	 1.417530400358872e+00
1	 1.647036492094213e+00	 3.047881128028683e-01	 3.132964423763354e+00
1	 1.640967793058833e+00	 3.359310973069648e-01	 3.030396570382333e+00
1	 1.634270504793095e+00	 3.671306540678284e-01	 2.911452145223948e+00
1	 1.626937933265491e+00	 3.983691269336848e-01	 2.775788356710074e+00
1	 1.618963996747293e+00	 4.296284176212197e-01	 2.623093995025685e+00
1	 1.610343254958658e+00	 4.608900098731490e-01	 2.453091699672558e+00
1	 1.601070937224973e+00	 4.921349956726779e-01	 2.265540162860185e+00
1	 1.591142969486164e+00	 5.233441034805641e-01	 2.060236252415959e+00
1	 1.580556000001596e+00	 5.544977284474926e-01	 1.837017037704159e+00
1	 1.569307423594202e+00	 5.855759645412079e-01	 1.595761701998522e+00
1	 1.557395404279724e+00	 6.165586385144400e-01	 1.336393324865373e+00
1	 1.659327809199556e+00	 3.070626509582619e-01	 3.011029656891332e+00
1	 1.653213821365451e+00	 3.384380457947292e-01	 2.910951581652254e+00
1	 1.646466553336608e+00	 3.698704350689632e-01	 2.794959659467604e+00
1	 1.639079261126060e+00	 4.013420308668626e-01	 2.662709101582225e+00
1	 1.631045817619043e+00	 4.328345998432970e-01	 2.513885548414025e+00
1	 1.622360741936615e+00	 4.643294875599568e-01	 2.348207313747943e+00
1	 1.613019227802109e+00	 4.958076448954443e-01	 2.165427569328965e+00
1	 1.603017170752021e+00	 5.272496564930599e-01	 1.965336453838074e+00
1	 1.592351194032726e+00	 5.586357711986414e-01	 1.747763090018883e+00
1	 1.581018673025537e+00	 5.899459344274548e-01	 1.512577493651218e+00
1	 1.569017758044822e+00	 6.211598223856076e-01	 1.259692358148821e+00
1	 1.671619126305386e+00	 3.093371891136554e-01	 2.894055993855828e+00
1	 1.665459849672645e+00	 3.409449942824981e-01	 2.796424710767580e+00
1	 1.658662601880769e+00	 3.726102160701169e-01	 2.683337950203860e+00
1	 1.651220588987329e+00	 4.043149348000832e-01	 2.554448932390396e+00
1	 1.643127638491529e+00	 4.360407820654503e-01	 2.409440164607934e+00
1	 1.634378228915319e+00	 4.677689652468843e-01	 2.248025662308620e+00
1	 1.624967518379987e+00	 4.994802941183839e-01	 2.069953115155205e+00
1	 1.614891372018594e+00	 5.311552095057921e-01	 1.875005982265253e+00
1	 1.604146388064525e+00	 5.627738139501012e-01	 1.663005500703975e+00
1	 1.592729922457472e+00	 5.943159043140966e-01	 1.433812591170187e+00
1	 1.580640111810430e+00	 6.257610062572652e-01	 1.187329644870619e+00
1	 1.683910443411700e+00	 3.116117272690490e-01	 2.781934797345351e+00
1	 1.677705877980416e+00	 3.434519427702719e-01	 2.686708261716127e+00
1	 1.670858650425578e+00	 3.753499970712894e-01	 2.576480358092734e+00
1	 1.663361916849300e+00	 4.072878387333462e-01	 2.450902321704881e+00
1	 1.655209459364748e+00	 4.392469642876800e-01	 2.309653542961857e+00
1	 1.646395715894772e+00	 4.712084429339317e-01	 2.152443765767485e+00
1	 1.636915808958608e+00	 5.031529433414967e-01	 1.979015235243969e+00
1	 1.626765573285881e+00	 5.350607625187611e-01	 1.789144779442750e+00
1	 1.615941582096990e+00	 5.669118567018717e-01	 1.582645809358362e+00
1	 1.604441171890006e+00	 5.986858742011337e-01	 1.359370221435828e+00
1	 1.592262465576548e+00	 6.303621901294124e-01	 1.119210186782274e+00
1	 1.696201760518499e+00	 3.138862654244425e-01	 2.674560578956052e+00
1	 1.689951906288762e+00	 3.459588912580502e-01	 2.581697660109251e+00
1	 1.683054698971034e+00	 3.780897780724807e-01	 2.474283315369322e+00
1	 1.675503244711972e+00	 4.102607426666521e-01	 2.351966800862021e+00
1	 1.667291280238703e+00	 4.424531465099858e-01	 2.214424406037350e+00
1	 1.658413202874972e+00	 4.746479206210985e-01	 2.061361629452945e+00
1	 1.648864099537969e+00	 5.068255925647827e-01	 1.892515308416081e+00
1	 1.638639774553884e+00	 5.389663155319671e-01	 1.707655687355036e+00
1	 1.627736776130124e+00	 5.710498994539528e-01	 1.506588409505584e+00
1	 1.616152421323140e+00	 6.030558440885657e-01	 1.289156416346459e+00
1	 1.603884819343176e+00	 6.349633740020493e-01	 1.055241739207588e+00
1	 1.708493077625785e+00	 3.161608035798360e-01	 2.571830885921569e+00
1	 1.702197934597685e+00	 3.484658397458333e-01	 2.481291340893256e+00
1	 1.695250747517139e+00	 3.808295590736910e-01	 2.376646234636036e+00
1	 1.687644572575343e+00	 4.132336466000003e-01	 2.257542849936677e+00
1	 1.679373101113391e+00	 4.456593287323678e-01	 2.123654390854600e+00
1	 1.670430689855921e+00	 4.780873983083849e-01	 1.974682136237880e+00
1	 1.660812390118072e+00	 5.104982417882418e-01	 1.810357551511848e+00
1	 1.650513975822603e+00	 5.428718685454100e-01	 1.630444343900637e+00
1	 1.639531970163926e+00	 5.751879422063448e-01	 1.434740445934618e+00
1	 1.627863670756874e+00	 6.074258139763927e-01	 1.223079911918322e+00
1	 1.615507173110314e+00	 6.395645578751757e-01	 9.953347119933474e-01
1	 1.720784394733555e+00	 3.184353417352296e-01	 2.473646192697490e+00
1	 1.714443962907183e+00	 3.509727882336210e-01	 2.385390640873123e+00
1	 1.707446796063893e+00	 3.835693400749201e-01	 2.283471402420926e+00
1	 1.699785900439417e+00	 4.162065505333916e-01	 2.167533792430124e+00
1	 1.691454921988814e+00	 4.488655109548259e-01	 2.037247944804619e+00
1	 1.682448176837619e+00	 4.815268759957912e-01	 1.892310943770214e+00
1	 1.672760680698918e+00	 5.141708910118742e-01	 1.732448918033255e+00
1	 1.662388177092036e+00	 5.467774215590895e-01	 1.557419083038053e+00
1	 1.651327164198396e+00	 5.793259849590476e-01	 1.367011716440400e+00
1	 1.639574920191208e+00	 6.117957838646149e-01	 1.161052051709994e+00
1	 1.627129526877964e+00	 6.441657417487923e-01	 9.394020747049070e-01
1	 1.510905989224438e+00	 5.981539030346663e-01	 1.688581996887698e+00
1	 1.498704899226502e+00	 6.280992159053116e-01	 1.444166469525823e+00
1	 1.485858926034374e+00	 6.579120396427700e-01	 1.186866605027875e+00
1	 1.472368641057263e+00	 6.875722397034166e-01	 9.170929843146780e-01
1	 1.458235431238258e+00	 7.170595700900936e-01	 6.352911950967715e-01
1	 1.443461511093458e+00	 7.463537137077204e-01	 3.419409147015643e-01
1	 1.428049932401566e+00	 7.754343238075454e-01	 3.755481247954096e-02
1	 1.412004591443889e+00	 8.042810663631879e-01	-2.773227260265451e-01
1	 1.395330233706523e+00	 8.328736632118814e-01	-6.021170494991553e-01
1	 1.378032455969274e+00	 8.611919357855460e-01	-9.362248607225936e-01
1	 1.360117705719598e+00	 8.892158492486488e-01	-1.279015999321736e+00
1	 1.522528342987494e+00	 6.027550869038752e-01	 1.593519238776869e+00
1	 1.510233398451768e+00	 6.329307483347351e-01	 1.357494713893004e+00
1	 1.497288610081763e+00	 6.629729014853188e-01	 1.108191380580077e+00
1	 1.483694553682143e+00	 6.928612569308974e-01	 8.459249935671471e-01
1	 1.469452626864788e+00	 7.225754129358748e-01	 5.710463846819228e-01
1	 1.454565061180536e+00	 7.520948961198251e-01	 2.839409395573073e-01
1	 1.439034931883308e+00	 7.813992032205446e-01	-1.497209834595270e-02
1	 1.422866165225804e+00	 8.104678437960667e-01	-3.252404966541746e-01
1	 1.406063543197860e+00	 8.392803836977581e-01	-6.463800748393194e-01
1	 1.388632705631432e+00	 8.678164891377840e-01	-9.778759143485271e-01
1	 1.370580149610033e+00	 8.960559711664935e-01	-1.319183734236037e+00
1	 1.534150696751060e+00	 6.073562707735738e-01	 1.503204405281086e+00
1	 1.521761897677453e+00	 6.377622807647338e-01	 1.275011124687010e+00
1	 1.508718294129500e+00	 6.680337633284998e-01	 1.033150406484223e+00
1	 1.495020466307320e+00	 6.981502741590380e-01	 7.778442590803871e-01
1	 1.480669822491582e+00	 7.280912557823142e-01	 5.093498399568978e-01
1	 1.465668611267865e+00	 7.578360785325557e-01	 2.279593225190014e-01
1	 1.450019931365309e+00	 7.873640826341082e-01	-6.600040208362357e-02
1	 1.433727739008006e+00	 8.166546212294172e-01	-3.721681908349311e-01
1	 1.416796852689532e+00	 8.456871041839829e-01	-6.901492838700458e-01
1	 1.399232955293995e+00	 8.744410424902175e-01	-1.019516108790313e+00
1	 1.381042593500962e+00	 9.028960930843489e-01	-1.359809253111816e+00
1	 1.545773050515137e+00	 6.119574546437619e-01	 1.417530400358872e+00
1	 1.533290396903557e+00	 6.425938131953080e-01	 1.196621231990324e+00
1	 1.520147978177585e+00	 6.730946251723129e-01	 9.616617071697775e-01
1	 1.506346378932792e+00	 7.034392913878383e-01	 7.127811434959275e-01
1	 1.491887018118640e+00	 7.336070986294112e-01	 4.501440812448404e-01
1	 1.476772161355447e+00	 7.635772609459125e-01	 1.739505367120012e-01
1	 1.461004930847569e+00	 7.933289620482357e-01	-1.155639019013135e-01
1	 1.444589312790497e+00	 8.228413986632396e-01	-4.181281411210903e-01
1	 1.427530162181541e+00	 8.520938246705574e-01	-7.334358153062643e-01
1	 1.409833204956963e+00	 8.810655958428456e-01	-1.061145688993449e+00
1	 1.391505037392386e+00	 9.097362150022149e-01	-1.400882229996903e+00
1	 1.557395404279724e+00	 6.165586385144400e-01	 1.336393324865373e+00
1	 1.544818896130082e+00	 6.474253456264577e-01	 1.122233385882877e+00
1	 1.531577662226018e+00	 6.781554870167580e-01	 8.936457540981357e-01
1	 1.517672291558561e+00	 7.087283086172986e-01	 6.506680881824234e-01
1	 1.503104213745963e+00	 7.391229414771657e-01	 3.933733446801332e-01
1	 1.487875711443280e+00	 7.693184433598950e-01	 1.218704142728328e-01
1	 1.471989930330090e+00	 7.992938414629270e-01	-1.636953919171042e-01
1	 1.455450886573275e+00	 8.290281760975334e-01	-4.631420134215372e-01
1	 1.438263471673887e+00	 8.585005451574800e-01	-7.762504753639167e-01
1	 1.420433454620336e+00	 8.876901491956692e-01	-1.102764892591618e+00
1	 1.401967481284305e+00	 9.165763369200914e-01	-1.442392647176514e+00
1	 1.569017758044822e+00	 6.211598223856076e-01	 1.259692358148821e+00
1	 1.556347395357026e+00	 6.522568780581823e-01	 1.051758651997702e+00
1	 1.543007346274800e+00	 6.832163488618352e-01	 8.290253751317831e-01
1	 1.528998204184627e+00	 7.140173258474188e-01	 5.914395362457153e-01
1	 1.514321409373551e+00	 7.446387843255788e-01	 3.389835186598387e-01
1	 1.498979261531365e+00	 7.750596257745035e-01	 7.167609601552627e-02
1	 1.482974929812870e+00	 8.052587208781824e-01	-2.104266945714492e-01
1	 1.466312460356341e+00	 8.352149535322990e-01	-5.072308316922749e-01
1	 1.448996781166568e+00	 8.649072656447517e-01	-8.186037500747800e-01
1	 1.431033704284114e+00	 8.943147025486877e-01	-1.144373950177548e+00
1	 1.412429925176719e+00	 9.234164588379790e-01	-1.484330783757057e+00
1	 1.580640111810430e+00	 6.257610062572652e-01	 1.187329644870619e+00
1	 1.567875894584390e+00	 6.570884104904827e-01	 9.851107116844692e-01
1	 1.554437030323932e+00	 6.882772107075451e-01	 7.677256679019229e-01
1	 1.540324116810989e+00	 7.193063430781983e-01	 5.350318589356100e-01
1	 1.525538605001402e+00	 7.501546271746492e-01	 2.869220830987615e-01
1	 1.510082811619702e+00	 7.808008081897383e-01	 2.332598331835301e-02
1	 1.493959929295910e+00	 8.112236002940020e-01	-2.557886963506780e-01
1	 1.477174034139694e+00	 8.414017309675366e-01	-5.504150015376800e-01
1	 1.459730090659585e+00	 8.713139861323719e-01	-8.605058170578985e-01
1	 1.441633953948298e+00	 9.009392559019015e-01	-1.185973085561802e+00
1	 1.422892369069628e+00	 9.302565807558768e-01	-1.526687204753574e+00
1	 1.592262465576548e+00	 6.303621901294124e-01	 1.119210186782274e+00
1	 1.579404393812174e+00	 6.619199429233585e-01	 9.222057665453220e-01
1	 1.565866714373410e+00	 6.933380725538867e-01	 7.096739169701810e-01
1	 1.551650029437647e+00	 7.245953603096378e-01	 4.813832852755978e-01
1	 1.536755800629518e+00	 7.556704700243774e-01	 2.371380513448569e-01
1	 1.521186361708292e+00	 7.865419906055987e-01	-2.322030788206009e-02
1	 1.504944928779209e+00	 8.171884797103856e-01	-2.998113819458521e-01
1	 1.488035607923336e+00	 8.475885084032455e-01	-5.927143327780233e-01
1	 1.470463400152938e+00	 8.777207066203410e-01	-9.019665567755584e-01
1	 1.452234203612885e+00	 9.075638092553103e-01	-1.227562516020298e+00
1	 1.433354812963030e+00	 9.370967026737852e-01	-1.569452750655161e+00
1	 1.603884819343176e+00	 6.349633740020493e-01	 1.055241739207588e+00
1	 1.590932893040378e+00	 6.667514753568098e-01	 8.629624471214142e-01
1	 1.577296398423238e+00	 6.983989344008606e-01	 6.547995145920396e-01
1	 1.562975942064603e+00	 7.298843775417372e-01	 4.304338347522406e-01
1	 1.547972996257898e+00	 7.611863128747637e-01	 1.895819146200463e-01
1	 1.532289911797133e+00	 7.922831730220851e-01	-6.800199109653526e-02
1	 1.515929928262769e+00	 8.231533591273329e-01	-3.425238669265734e-01
1	 1.498897181707264e+00	 8.537752858394262e-01	-6.341480610358537e-01
1	 1.481196709646628e+00	 8.841274271086590e-01	-9.429955632998015e-01
1	 1.462834453277879e+00	 9.141883626089145e-01	-1.269142452531142e+00
1	 1.443817256856928e+00	 9.439368245917042e-01	-1.612618527444006e+00
1	 1.615507173110314e+00	 6.395645578751757e-01	 9.953347119933474e-01
1	 1.602461392269001e+00	 6.715830077908362e-01	 8.073017255210099e-01
1	 1.588726082473415e+00	 7.034597962484670e-01	 6.030338849004563e-01
1	 1.574301854691855e+00	 7.351733947744963e-01	 3.821252529100537e-01
1	 1.559190191886543e+00	 7.667021557258078e-01	 1.442055888592881e-01
1	 1.543393461886226e+00	 7.980243554391976e-01	-1.110571513895010e-01
1	 1.526914927746587e+00	 8.291182385448446e-01	-3.839544290042873e-01
1	 1.509758755491481e+00	 8.599620632760784e-01	-6.747348683906202e-01
1	 1.491930019140653e+00	 8.905341475973255e-01	-9.836021546142968e-01
1	 1.473434702943277e+00	 9.208129159627136e-01	-1.310713100001115e+00
1	 1.454279700751320e+00	 9.507769465096340e-01	-1.656175897045232e+00
1	 1.627129526877964e+00	 6.441657417487923e-01	 9.394020747049070e-01
1	 1.613989891498045e+00	 6.764145402254381e-01	 7.551468317920726e-01
1	 1.600155766523939e+00	 7.085206580967053e-01	 5.543104113388658e-01
1	 1.585627767319404e+00	 7.404624120079153e-01	 3.364009497065225e-01
1	 1.570407387515452e+00	 7.722179985775097e-01	 1.009623638279740e-01
1	 1.554497011975571e+00	 8.037655378569363e-01	-1.524227856807189e-01
1	 1.537899927230667e+00	 8.350831179629202e-01	-4.241305379558062e-01
1	 1.520620329275986e+00	 8.661488407132029e-01	-7.144929031480795e-01
1	 1.502663328635016e+00	 8.969408680863412e-01	-1.023795382474554e+00
1	 1.484034952609081e+00	 9.274374693167079e-01	-1.352274657482510e+00
1	 1.464742144646208e+00	 9.576170684275745e-01	-1.700116468186154e+00
1	 1.360117705719598e+00	 8.892158492486488e-01	-1.279015999321736e+00
1	 1.341593277844827e+00	 9.169255568526578e-01	-1.838158949837312e+00
1	 1.322467308569620e+00	 9.443014443144191e-01	-2.419837341020412e+00
1	 1.302748766623323e+00	 9.713241740187775e-01	-3.024374877216148e+00
1	 1.282447441638377e+00	 9.979747288431313e-01	-3.652018739665535e+00
1	 1.261573929795459e+00	 1.024234455404330e+00	-4.302936923289522e+00
1	 1.240139616749326e+00	 1.050085106526311e+00	-4.977215954127892e+00
1	 1.218156657885667e+00	 1.075508882729801e+00	-5.674859009057641e+00
1	 1.195637955975838e+00	 1.100488472549222e+00	-6.395784456353661e+00
1	 1.172597136312511e+00	 1.125007091487334e+00	-7.139824832353470e+00
1	 1.149048519425000e+00	 1.149048519425000e+00	-7.906726265988155e+00
1	 1.370580149610033e+00	 8.960559711664935e-01	-1.319183734236037e+00
1	 1.351913226135645e+00	 9.239788303679526e-01	-1.882686892177834e+00
1	 1.332640134019405e+00	 9.515653015797990e-01	-2.466588918493636e+00
1	 1.312769910980884e+00	 9.787958984359916e-01	-3.071063919806301e+00
1	 1.292312421957389e+00	 1.005651457528369e+00	-3.696216511176559e+00
1	 1.271278344638683e+00	 1.032113181986217e+00	-4.342079837221137e+00
1	 1.249679152261479e+00	 1.058162684270582e+00	-5.008613940638574e+00
1	 1.227527093714434e+00	 1.083782027983117e+00	-5.695704494982039e+00
1	 1.204835171020993e+00	 1.108953768493124e+00	-6.403161915714819e+00
1	 1.181617114283771e+00	 1.133660992191846e+00	-7.130720860595294e+00
1	 1.157887354190000e+00	 1.157887354190000e+00	-7.878040127294182e+00
1	 1.381042593500962e+00	 9.028960930843489e-01	-1.359809253111816e+00
1	 1.362233174427042e+00	 9.310321038830772e-01	-1.926802689402118e+00
1	 1.342812959469824e+00	 9.588291588448681e-01	-2.512090679702222e+00
1	 1.322791055339106e+00	 9.862676228527927e-01	-3.115699508344508e+00
1	 1.302177402277060e+00	 1.013328186213132e+00	-3.737592926616111e+00
1	 1.280982759482529e+00	 1.039991908567609e+00	-4.377670851457858e+00
1	 1.259218687774190e+00	 1.066240262014375e+00	-5.035768378639478e+00
1	 1.236897529543666e+00	 1.092055173236013e+00	-5.711655122506324e+00
1	 1.214032386066488e+00	 1.117419064436706e+00	-6.405034891850662e+00
1	 1.190637092255217e+00	 1.142314892896179e+00	-7.115545708776333e+00
1	 1.166726188955000e+00	 1.166726188955000e+00	-7.842760174637150e+00
1	 1.391505037392386e+00	 9.097362150022149e-01	-1.400882229996903e+00
1	 1.372553122719020e+00	 9.380853773980324e-01	-1.970515638017890e+00
1	 1.352985784920880e+00	 9.660930161096258e-01	-2.556370815991300e+00
1	 1.332812199697990e+00	 9.937393472691818e-01	-3.158327961343483e+00
1	 1.312042382597387e+00	 1.021004914897422e+00	-3.776211625594252e+00
1	 1.290687174326999e+00	 1.047870635148505e+00	-4.409790084036801e+00
1	 1.268758223287460e+00	 1.074317839757692e+00	-5.058774987268139e+00
1	 1.246267965373361e+00	 1.100328318488492e+00	-5.722821301967979e+00
1	 1.223229601112323e+00	 1.125884360379969e+00	-6.401527546034047e+00
1	 1.199657070226847e+00	 1.150968793600331e+00	-7.094436320804657e+00
1	 1.175565023720000e+00	 1.175565023720000e+00	-7.801035140659634e+00
1	 1.401967481284305e+00	 9.165763369200914e-01	-1.442392647176514e+00
1	 1.382873071011578e+00	 9.451386509128173e-01	-2.013834757025198e+00
1	 1.363158610372572e+00	 9.733568733740730e-01	-2.599456677173293e+00
1	 1.342833344057535e+00	 1.001211071685158e+00	-3.198994214673602e+00
1	 1.321907362918373e+00	 1.028681643581236e+00	-3.812134348031359e+00
1	 1.300391589172092e+00	 1.055749361728905e+00	-4.438515261411806e+00
1	 1.278297758801289e+00	 1.082395417500530e+00	-5.077726628374386e+00
1	 1.255638401203523e+00	 1.108601463740551e+00	-5.729310147873562e+00
1	 1.232426816158497e+00	 1.134349656322913e+00	-6.392760333231410e+00
1	 1.208677048198662e+00	 1.159622694304304e+00	-7.067525552710515e+00
1	 1.184403858485000e+00	 1.184403858485000e+00	-7.753009318224088e+00
1	 1.412429925176719e+00	 9.234164588379790e-01	-1.484330783757057e+00
1	 1.393193019304716e+00	 9.521919244274326e-01	-2.056768798194472e+00
1	 1.373331435824899e+00	 9.806207306382088e-01	-2.641374802695785e+00
1	 1.352854488417742e+00	 1.008682796100722e+00	-3.237741872772132e+00
1	 1.331772343240015e+00	 1.036358372264577e+00	-3.845421004516686e+00
1	 1.310096004017809e+00	 1.063628088308809e+00	-4.463921807030786e+00
1	 1.287837294315678e+00	 1.090472995242892e+00	-5.092713412345934e+00
1	 1.265008837034148e+00	 1.116874608992193e+00	-5.731225600966623e+00
1	 1.241624031205012e+00	 1.142814952265537e+00	-6.378850139373295e+00
1	 1.217697026170662e+00	 1.168276595008097e+00	-7.034942324049691e+00
1	 1.193242693250000e+00	 1.193242693250000e+00	-7.698822724849337e+00
1	 1.422892369069628e+00	 9.302565807558768e-01	-1.526687204753574e+00
1	 1.403512967598433e+00	 9.592451979418776e-01	-2.099326255891103e+00
1	 1.383504261277862e+00	 9.878845879020337e-01	-2.682150951434338e+00
1	 1.362875632778610e+00	 1.016154520515873e+00	-3.274613257592797e+00
1	 1.341637323562315e+00	 1.044035100947443e+00	-3.876129743563433e+00
1	 1.319800418864149e+00	 1.071506814888217e+00	-4.486082926004896e+00
1	 1.297376829830625e+00	 1.098550572984775e+00	-5.103822799265074e+00
1	 1.274379272865238e+00	 1.125147754243415e+00	-5.728668544910124e+00
1	 1.250821246251867e+00	 1.151280248207841e+00	-6.359910412568915e+00
1	 1.226717004142848e+00	 1.176930495711709e+00	-6.996811762626336e+00
1	 1.202081528015000e+00	 1.202081528015000e+00	-7.638611259892043e+00
1	 1.433354812963030e+00	 9.370967026737852e-01	-1.569452750655161e+00
1	 1.413832915892732e+00	 9.662984714561537e-01	-2.141515376469760e+00
1	 1.393677086731460e+00	 9.951484451655477e-01	-2.721810130180553e+00
1	 1.372896777140140e+00	 1.023626244930612e+00	-3.309649455411869e+00
1	 1.351502303885272e+00	 1.051711829629835e+00	-3.904317015917839e+00
1	 1.329504833711112e+00	 1.079385541467129e+00	-4.505069686069785e+00
1	 1.306916365346132e+00	 1.106628150726181e+00	-5.111139695635004e+00
1	 1.283749708696792e+00	 1.133420899494219e+00	-5.721736917858675e+00
1	 1.260018461299061e+00	 1.159745544149826e+00	-6.336051288574055e+00
1	 1.235736982115218e+00	 1.185584396415142e+00	-6.953255342878327e+00
1	 1.210920362780000e+00	 1.210920362780000e+00	-7.572506854844756e+00
1	 1.443817256856928e+00	 9.439368245917042e-01	-1.612618527444006e+00
1	 1.424152864187609e+00	 9.733517449702592e-01	-2.183344167260375e+00
1	 1.403849912185693e+00	 1.002412302428751e+00	-2.760376620891436e+00
1	 1.382917921502332e+00	 1.031097969344938e+00	-3.342890361599009e+00
1	 1.361367284208887e+00	 1.059388558311753e+00	-3.930037636072750e+00
1	 1.339209248558698e+00	 1.087264268045545e+00	-4.520951095026881e+00
1	 1.316455900862197e+00	 1.114705728467110e+00	-5.114746546900967e+00
1	 1.293120144528811e+00	 1.141694044744604e+00	-5.710525819179953e+00
1	 1.269215676346595e+00	 1.168210840091492e+00	-6.307379710803943e+00
1	 1.244756960087773e+00	 1.194238297118396e+00	-6.904391018245597e+00
1	 1.219759197545000e+00	 1.219759197545000e+00	-7.500637617099102e+00
1	 1.454279700751320e+00	 9.507769465096340e-01	-1.656175897045232e+00
1	 1.434472812483067e+00	 9.804050184841950e-01	-2.224820405166123e+00
1	 1.414022737640563e+00	 1.009676159691643e+00	-2.797874006762648e+00
1	 1.392939065865185e+00	 1.038569693758851e+00	-3.374374723455651e+00
1	 1.371232264533160e+00	 1.067065286993196e+00	-3.953344841125472e+00
1	 1.348913663406908e+00	 1.095142994623464e+00	-4.533794174841426e+00
1	 1.325995436378822e+00	 1.122783306207561e+00	-5.114723425977474e+00
1	 1.302490580361295e+00	 1.149967189994570e+00	-5.695127611569233e+00
1	 1.278412891394469e+00	 1.176676136032838e+00	-6.273999545165559e+00
1	 1.253776938060513e+00	 1.202892197821469e+00	-6.850333347824637e+00
1	 1.228598032310000e+00	 1.228598032310000e+00	-7.423127967503308e+00
1	 1.464742144646208e+00	 9.576170684275745e-01	-1.700116468186154e+00
1	 1.444792760779105e+00	 9.874582919979614e-01	-2.265951644892899e+00
1	 1.424195563096069e+00	 1.016940016954224e+00	-2.834325197184217e+00
1	 1.402960210228699e+00	 1.046041418172352e+00	-3.404140181217497e+00
1	 1.381097244858090e+00	 1.074742015674165e+00	-3.974290347113408e+00
1	 1.358618078255741e+00	 1.103021721200889e+00	-4.543664032565517e+00
1	 1.335534971896006e+00	 1.130860883947535e+00	-5.111148117981450e+00
1	 1.311861016194242e+00	 1.158240335244118e+00	-5.675632018787693e+00
1	 1.287610106442683e+00	 1.185141431973866e+00	-6.236011689968676e+00
1	 1.262796916033438e+00	 1.211546098524362e+00	-6.791193617595061e+00
1	 1.237436867075000e+00	 1.237436867075000e+00	-7.340098772024457e+00
1	 1.149048519425000e+00	 1.149048519425000e+00	-7.906726265988155e+00
1	 1.125007091487334e+00	 1.172597136312511e+00	-8.658417409987221e+00
1	 1.100488472549222e+00	 1.195637955975838e+00	-9.373888999937600e+00
1	 1.075508882729801e+00	 1.218156657885667e+00	-1.005046353191812e+01
1	 1.050085106526311e+00	 1.240139616749326e+00	-1.068561503337280e+01
1	 1.024234455404330e+00	 1.261573929795459e+00	-1.127697840433653e+01
1	 9.979747288431317e-01	 1.282447441638376e+00	-1.182235786650143e+01
1	 9.713241740187781e-01	 1.302748766623323e+00	-1.231973447082587e+01
1	 9.443014443144199e-01	 1.322467308569620e+00	-1.276727262257041e+01
1	 9.169255568526588e-01	 1.341593277844826e+00	-1.316332559115834e+01
1	 8.892158492486486e-01	 1.360117705719598e+00	-1.350643998099512e+01
1	 1.157887354190000e+00	 1.157887354190000e+00	-7.878040127294182e+00
1	 1.133660992191846e+00	 1.181617114283772e+00	-8.595425320780159e+00
1	 1.108953768493124e+00	 1.204835171020993e+00	-9.278897915029686e+00
1	 1.083782027983116e+00	 1.227527093714434e+00	-9.925940058343157e+00
1	 1.058162684270582e+00	 1.249679152261479e+00	-1.053417602090562e+01
1	 1.032113181986218e+00	 1.271278344638683e+00	-1.110138096677217e+01
1	 1.005651457528369e+00	 1.292312421957389e+00	-1.162548888886640e+01
1	 9.787958984359921e-01	 1.312769910980883e+00	-1.210459966072494e+01
1	 9.515653015798000e-01	 1.332640134019404e+00	-1.253698516639842e+01
1	 9.239788303679534e-01	 1.351913226135644e+00	-1.292109447790539e+01
1	 8.960559711664935e-01	 1.370580149610033e+00	-1.325555805783361e+01
1	 1.166726188955000e+00	 1.166726188955000e+00	-7.842760174637150e+00
1	 1.142314892896179e+00	 1.190637092255217e+00	-8.526808384107458e+00
1	 1.117419064436706e+00	 1.214032386066488e+00	-9.179213630056687e+00
1	 1.092055173236014e+00	 1.236897529543666e+00	-9.797615952966739e+00
1	 1.066240262014376e+00	 1.259218687774190e+00	-1.037978820960340e+01
1	 1.039991908567610e+00	 1.280982759482529e+00	-1.092364428133867e+01
1	 1.013328186213133e+00	 1.302177402277059e+00	-1.142724650010832e+01
1	 9.862676228527935e-01	 1.322791055339106e+00	-1.188881224874016e+01
1	 9.588291588448689e-01	 1.342812959469824e+00	-1.230671969956544e+01
1	 9.310321038830781e-01	 1.362233174427042e+00	-1.267951266269212e+01
1	 9.028960930843491e-01	 1.381042593500963e+00	-1.300590452297876e+01
1	 1.175565023720000e+00	 1.175565023720000e+00	-7.801035140659634e+00
1	 1.150968793600331e+00	 1.199657070226847e+00	-8.452693476225999e+00
1	 1.125884360379969e+00	 1.223229601112323e+00	-9.074942006673590e+00
1	 1.100328318488492e+00	 1.246267965373361e+00	-9.665576944326046e+00
1	 1.074317839757692e+00	 1.268758223287460e+00	-1.022251811372644e+01
1	 1.047870635148505e+00	 1.290687174326999e+00	-1.074381660174866e+01
1	 1.021004914897422e+00	 1.312042382597387e+00	-1.122766167942700e+01
1	 9.937393472691824e-01	 1.332812199697989e+00	-1.167238695521620e+01
1	 9.660930161096266e-01	 1.352985784920880e+00	-1.207647572607279e+01
1	 9.380853773980332e-01	 1.372553122719020e+00	-1.243856549969937e+01
1	 9.097362150022150e-01	 1.391505037392387e+00	-1.275745166842471e+01
1	 1.184403858485000e+00	 1.184403858485000e+00	-7.753009318224088e+00
1	 1.159622694304304e+00	 1.208677048198662e+00	-8.373203686041846e+00
1	 1.134349656322913e+00	 1.232426816158497e+00	-8.966185746486127e+00
1	 1.108601463740551e+00	 1.255638401203522e+00	-9.529906201897409e+00
1	 1.082395417500531e+00	 1.278297758801290e+00	-1.006243026203483e+01
1	 1.055749361728906e+00	 1.300391589172092e+00	-1.056194474130534e+01
1	 1.028681643581237e+00	 1.321907362918372e+00	-1.102676448126986e+01
1	 1.001211071685159e+00	 1.342833344057535e+00	-1.145533806108456e+01
1	 9.733568733740733e-01	 1.363158610372571e+00	-1.184625276472761e+01
1	 9.451386509128182e-01	 1.382873071011578e+00	-1.219823878029649e+01
1	 9.165763369200917e-01	 1.401967481284305e+00	-1.251017261327027e+01
1	 1.193242693250000e+00	 1.193242693250000e+00	-7.698822724849337e+00
1	 1.168276595008097e+00	 1.217697026170663e+00	-8.288458455382699e+00
1	 1.142814952265537e+00	 1.241624031205012e+00	-8.853044508089607e+00
1	 1.116874608992193e+00	 1.265008837034148e+00	-9.390684430876627e+00
1	 1.090472995242892e+00	 1.287837294315678e+00	-9.899587271325277e+00
1	 1.063628088308809e+00	 1.310096004017808e+00	-1.037807412625121e+01
1	 1.036358372264577e+00	 1.331772343240015e+00	-1.082458406958216e+01
1	 1.008682796100723e+00	 1.352854488417742e+00	-1.123767942413788e+01
1	 9.806207306382095e-01	 1.373331435824898e+00	-1.161605034859459e+01
1	 9.521919244274334e-01	 1.393193019304715e+00	-1.195851871684938e+01
1	 9.234164588379790e-01	 1.412429925176719e+00	-1.226404127308533e+01
1	 1.202081528015000e+00	 1.202081528015000e+00	-7.638611259892043e+00
1	 1.176930495711710e+00	 1.226717004142848e+00	-8.198573713081453e+00
1	 1.151280248207841e+00	 1.250821246251867e+00	-8.735615018944397e+00
1	 1.125147754243415e+00	 1.274379272865238e+00	-9.247989962777178e+00
1	 1.098550572984775e+00	 1.297376829830625e+00	-9.734049916724246e+00
1	 1.071506814888217e+00	 1.319800418864148e+00	-1.019224884676273e+01
1	 1.044035100947444e+00	 1.341637323562315e+00	-1.062114875054619e+01
1	 1.016154520515874e+00	 1.362875632778610e+00	-1.101942449458677e+01
1	 9.878845879020346e-01	 1.383504261277861e+00	-1.138586802447193e+01
1	 9.592451979418788e-01	 1.403512967598433e+00	-1.171939192724252e+01
1	 9.302565807558767e-01	 1.422892369069627e+00	-1.201903233062909e+01
1	 1.210920362780000e+00	 1.210920362780000e+00	-7.572506854844756e+00
1	 1.185584396415142e+00	 1.235736982115218e+00	-8.103662003187738e+00
1	 1.159745544149826e+00	 1.260018461299061e+00	-8.613991182351425e+00
1	 1.133420899494219e+00	 1.283749708696792e+00	-9.101898842061226e+00
1	 1.106628150726181e+00	 1.306916365346132e+00	-9.565877198901829e+00
1	 1.079385541467129e+00	 1.329504833711111e+00	-1.000451170571195e+01
1	 1.051711829629836e+00	 1.351502303885272e+00	-1.041648600388620e+01
1	 1.023626244930612e+00	 1.372896777140139e+00	-1.080058632993483e+01
1	 9.951484451655483e-01	 1.393677086731459e+00	-1.115570535238983e+01
1	 9.662984714561544e-01	 1.413832915892731e+00	-1.148084542007934e+01
1	 9.370967026737852e-01	 1.433354812963030e+00	-1.177512120785020e+01
1	 1.219759197545000e+00	 1.219759197545000e+00	-7.500637617099102e+00
1	 1.194238297118396e+00	 1.244756960087773e+00	-8.003832607605100e+00
1	 1.168210840091492e+00	 1.269215676346595e+00	-8.488264179777076e+00
1	 1.141694044744604e+00	 1.293120144528811e+00	-8.952484909003648e+00
1	 1.114705728467110e+00	 1.316455900862197e+00	-9.395126408363931e+00
1	 1.087264268045545e+00	 1.339209248558698e+00	-9.814904265308042e+00
1	 1.059388558311753e+00	 1.361367284208887e+00	-1.021062251281282e+01
1	 1.031097969344938e+00	 1.382917921502331e+00	-1.058117760920740e+01
1	 1.002412302428751e+00	 1.403849912185693e+00	-1.092556190513144e+01
1	 9.733517449702599e-01	 1.424152864187609e+00	-1.124286658052516e+01
1	 9.439368245917042e-01	 1.443817256856928e+00	-1.153228403910469e+01
1	 1.228598032310000e+00	 1.228598032310000e+00	-7.423127967503308e+00
1	 1.202892197821469e+00	 1.253776938060513e+00	-7.899191663434200e+00
1	 1.176676136032838e+00	 1.278412891394469e+00	-8.358522568760639e+00
1	 1.149967189994570e+00	 1.302490580361294e+00	-8.799819878979470e+00
1	 1.122783306207561e+00	 1.325995436378822e+00	-9.221853186968668e+00
1	 1.095142994623465e+00	 1.348913663406907e+00	-9.623466891725368e+00
1	 1.067065286993196e+00	 1.371232264533159e+00	-1.000358419267445e+01
1	 1.038569693758852e+00	 1.392939065865184e+00	-1.036121064656573e+01
1	 1.009676159691643e+00	 1.414022737640563e+00	-1.069543726777369e+01
1	 9.804050184841961e-01	 1.434472812483067e+00	-1.100544315676240e+01
1	 9.507769465096340e-01	 1.454279700751320e+00	-1.129049764552972e+01
1	 1.237436867075000e+00	 1.237436867075000e+00	-7.340098772024457e+00
1	 1.211546098524362e+00	 1.262796916033438e+00	-7.789842275287355e+00
1	 1.185141431973866e+00	 1.287610106442683e+00	-8.224852376626295e+00
1	 1.158240335244119e+00	 1.311861016194243e+00	-8.643973418352969e+00
1	 1.130860883947535e+00	 1.335534971896005e+00	-9.046111586806923e+00
1	 1.103021721200889e+00	 1.358618078255741e+00	-9.430238797818948e+00
1	 1.074742015674166e+00	 1.381097244858090e+00	-9.795396218380906e+00
1	 1.046041418172353e+00	 1.402960210228699e+00	-1.014069740433790e+01
1	 1.016940016954224e+00	 1.424195563096068e+00	-1.046533103724867e+01
1	 9.874582919979624e-01	 1.444792760779105e+00	-1.076856324702537e+01
1	 9.576170684275745e-01	 1.464742144646208e+00	-1.104973951051572e+01
1	 8.892158492486486e-01	 1.360117705719598e+00	-1.350643998099512e+01
1	 8.611919357855461e-01	 1.378032455969275e+00	-1.372364817463048e+01
1	 8.328736632118816e-01	 1.395330233706523e+00	-1.395151417446082e+01
1	 8.042810663631879e-01	 1.412004591443889e+00	-1.419045612367575e+01
1	 7.754343238075456e-01	 1.428049932401566e+00	-1.444083156614683e+01
1	 7.463537137077207e-01	 1.443461511093458e+00	-1.470293680142978e+01
1	 7.170595700900940e-01	 1.458235431238257e+00	-1.497700658736642e+01
1	 6.875722397034173e-01	 1.472368641057263e+00	-1.526321418426411e+01
1	 6.579120396427711e-01	 1.485858926034374e+00	-1.556167173196409e+01
1	 6.280992159053126e-01	 1.498704899226502e+00	-1.587243094861300e+01
1	 5.981539030346663e-01	 1.510905989224438e+00	-1.619548413764650e+01
1	 8.960559711664935e-01	 1.370580149610033e+00	-1.325555805783361e+01
1	 8.678164891377838e-01	 1.388632705631433e+00	-1.347727552444920e+01
1	 8.392803836977581e-01	 1.406063543197860e+00	-1.370896433773926e+01
1	 8.104678437960666e-01	 1.422866165225804e+00	-1.395099929133182e+01
1	 7.813992032205448e-01	 1.439034931883307e+00	-1.420369806079218e+01
1	 7.520948961198254e-01	 1.454565061180535e+00	-1.446732065999900e+01
1	 7.225754129358753e-01	 1.469452626864787e+00	-1.474206922441521e+01
1	 6.928612569308982e-01	 1.483694553682143e+00	-1.502808811519695e+01
1	 6.629729014853196e-01	 1.497288610081763e+00	-1.532546433558935e+01
1	 6.329307483347361e-01	 1.510233398451768e+00	-1.563422824872095e+01
1	 6.027550869038751e-01	 1.522528342987494e+00	-1.595435458375676e+01
1	 9.028960930843491e-01	 1.381042593500963e+00	-1.300590452297876e+01
1	 8.744410424902173e-01	 1.399232955293995e+00	-1.323180967079288e+01
1	 8.456871041839830e-01	 1.416796852689532e+00	-1.346701337132406e+01
1	 8.166546212294176e-01	 1.433727739008007e+00	-1.371184754761334e+01
1	 7.873640826341083e-01	 1.450019931365309e+00	-1.396659044474342e+01
1	 7.578360785325561e-01	 1.465668611267865e+00	-1.423146618669197e+01
1	 7.280912557823146e-01	 1.480669822491582e+00	-1.450664463958725e+01
1	 6.981502741590386e-01	 1.495020466307319e+00	-1.479224157527765e+01
1	 6.680337633285006e-01	 1.508718294129499e+00	-1.508831912679550e+01
1	 6.377622807647348e-01	 1.521761897677452e+00	-1.539488652512247e+01
1	 6.073562707735738e-01	 1.534150696751061e+00	-1.571190110466300e+01
1	 9.097362150022150e-01	 1.391505037392387e+00	-1.275745166842471e+01
1	 8.810655958428457e-01	 1.409833204956963e+00	-1.298723015960550e+01
1	 8.520938246705574e-01	 1.427530162181541e+00	-1.322564776686347e+01
1	 8.228413986632397e-01	 1.444589312790497e+00	-1.347299401082306e+01
1	 7.933289620482358e-01	 1.461004930847569e+00	-1.372950813403250e+01
1	 7.635772609459127e-01	 1.476772161355446e+00	-1.399537875741667e+01
1	 7.336070986294119e-01	 1.491887018118641e+00	-1.427074382285059e+01
1	 7.034392913878393e-01	 1.506346378932792e+00	-1.455569081572927e+01
1	 6.730946251723136e-01	 1.520147978177585e+00	-1.485025725924692e+01
1	 6.425938131953089e-01	 1.533290396903557e+00	-1.515443147008241e+01
1	 6.119574546437619e-01	 1.545773050515137e+00	-1.546815356334030e+01
1	 9.165763369200917e-01	 1.401967481284305e+00	-1.251017261327027e+01
1	 8.876901491956691e-01	 1.420433454620336e+00	-1.274351714740013e+01
1	 8.585005451574801e-01	 1.438263471673887e+00	-1.298485441924016e+01
1	 8.290281760975334e-01	 1.455450886573275e+00	-1.323443200468763e+01
1	 7.992938414629273e-01	 1.471989930330090e+00	-1.349245056212294e+01
1	 7.693184433598954e-01	 1.487875711443280e+00	-1.375906358760619e+01
1	 7.391229414771665e-01	 1.503104213745964e+00	-1.403437743611458e+01
1	 7.087283086172992e-01	 1.517672291558560e+00	-1.431845160266387e+01
1	 6.781554870167587e-01	 1.531577662226018e+00	-1.461129925515533e+01
1	 6.474253456264587e-01	 1.544818896130081e+00	-1.491288800893230e+01
1	 6.165586385144400e-01	 1.557395404279724e+00	-1.522314093133193e+01
1	 9.234164588379790e-01	 1.412429925176719e+00	-1.226404127308533e+01
1	 8.943147025486875e-01	 1.431033704284114e+00	-1.250065137864490e+01
1	 8.649072656447517e-01	 1.448996781166568e+00	-1.274462061163674e+01
1	 8.352149535322991e-01	 1.466312460356341e+00	-1.299615505074897e+01
1	 8.052587208781826e-01	 1.482974929812870e+00	-1.325541717926461e+01
1	 7.750596257745040e-01	 1.498979261531365e+00	-1.352252573816230e+01
1	 7.446387843255793e-01	 1.514321409373550e+00	-1.379755582538006e+01
1	 7.140173258474193e-01	 1.528998204184626e+00	-1.408053923504919e+01
1	 6.832163488618361e-01	 1.543007346274800e+00	-1.437146502866690e+01
1	 6.522568780581836e-01	 1.556347395357025e+00	-1.467028032847536e+01
1	 6.211598223856076e-01	 1.569017758044822e+00	-1.497689132176509e+01
1	 9.302565807558767e-01	 1.422892369069627e+00	-1.201903233062909e+01
1	 9.009392559019015e-01	 1.441633953948297e+00	-1.225861416414727e+01
1	 8.713139861323717e-01	 1.459730090659585e+00	-1.250493400125974e+01
1	 8.414017309675366e-01	 1.477174034139694e+00	-1.275815686109223e+01
1	 8.112236002940023e-01	 1.493959929295910e+00	-1.301840745187661e+01
1	 7.808008081897385e-01	 1.510082811619702e+00	-1.328577012113668e+01
1	 7.501546271746498e-01	 1.525538605001402e+00	-1.356028903235388e+01
1	 7.193063430781990e-01	 1.540324116810988e+00	-1.384196856188365e+01
1	 6.882772107075457e-01	 1.554437030323931e+00	-1.413077390821765e+01
1	 6.570884104904839e-01	 1.567875894584390e+00	-1.442663190413822e+01
1	 6.257610062572652e-01	 1.580640111810430e+00	-1.472943202091021e+01
1	 9.370967026737852e-01	 1.433354812963030e+00	-1.177512120785020e+01
1	 9.075638092553103e-01	 1.452234203612885e+00	-1.201738736038437e+01
1	 8.777207066203410e-01	 1.470463400152938e+00	-1.226578260568926e+01
1	 8.475885084032457e-01	 1.488035607923335e+00	-1.252043133139107e+01
1	 8.171884797103856e-01	 1.504944928779209e+00	-1.278142086195693e+01
1	 7.865419906055990e-01	 1.521186361708291e+00	-1.304880150516353e+01
1	 7.556704700243780e-01	 1.536755800629518e+00	-1.332258680555413e+01
1	 7.245953603096386e-01	 1.551650029437648e+00	-1.360275399861795e+01
1	 6.933380725538877e-01	 1.565866714373410e+00	-1.388924465790982e+01
1	 6.619199429233596e-01	 1.579404393812174e+00	-1.418196552593380e+01
1	 6.303621901294124e-01	 1.592262465576548e+00	-1.448078951835835e+01
1	 9.439368245917042e-01	 1.443817256856928e+00	-1.153228403910469e+01
1	 9.141883626089141e-01	 1.462834453277879e+00	-1.177695334973278e+01
1	 8.841274271086591e-01	 1.481196709646628e+00	-1.202715478982196e+01
1	 8.537752858394263e-01	 1.498897181707264e+00	-1.228297253425627e+01
1	 8.231533591273332e-01	 1.515929928262769e+00	-1.254445690651814e+01
1	 7.922831730220854e-01	 1.532289911797133e+00	-1.281162452065566e+01
1	 7.611863128747642e-01	 1.547972996257898e+00	-1.308445861093346e+01
1	 7.298843775417380e-01	 1.562975942064603e+00	-1.336290954286396e+01
1	 6.983989344008616e-01	 1.577296398423238e+00	-1.364689549795842e+01
1	 6.667514753568107e-01	 1.590932893040377e+00	-1.393630332329468e+01
1	 6.349633740020493e-01	 1.603884819343176e+00	-1.423098953588640e+01
1	 9.507769465096340e-01	 1.454279700751320e+00	-1.129049764552972e+01
1	 9.208129159627132e-01	 1.473434702943277e+00	-1.153729502155101e+01
1	 8.905341475973253e-01	 1.491930019140653e+00	-1.178903925337756e+01
1	 8.599620632760784e-01	 1.509758755491480e+00	-1.204577471287091e+01
1	 8.291182385448447e-01	 1.526914927746587e+00	-1.230751509704726e+01
1	 7.980243554391980e-01	 1.543393461886226e+00	-1.257424366477664e+01
1	 7.667021557258082e-01	 1.559190191886543e+00	-1.284591364204278e+01
1	 7.351733947744968e-01	 1.574301854691855e+00	-1.312244878942439e+01
1	 7.034597962484678e-01	 1.588726082473414e+00	-1.340374412425594e+01
1	 6.715830077908371e-01	 1.602461392269001e+00	-1.368966678883541e+01
1	 6.395645578751757e-01	 1.615507173110314e+00	-1.398005705507632e+01
1	 9.576170684275745e-01	 1.464742144646208e+00	-1.104973951051572e+01
1	 9.274374693167079e-01	 1.484034952609081e+00	-1.129839575407294e+01
1	 8.969408680863412e-01	 1.502663328635016e+00	-1.155142501894105e+01
1	 8.661488407132029e-01	 1.520620329275986e+00	-1.180883227489861e+01
1	 8.350831179629206e-01	 1.537899927230666e+00	-1.207059495898894e+01
1	 8.037655378569366e-01	 1.554497011975572e+00	-1.233666330619969e+01
1	 7.722179985775102e-01	 1.570407387515452e+00	-1.260696082976017e+01
1	 7.404624120079161e-01	 1.585627767319404e+00	-1.288138494467892e+01
1	 7.085206580967063e-01	 1.600155766523939e+00	-1.315980772709783e+01
1	 6.764145402254393e-01	 1.613989891498045e+00	-1.344207680109586e+01
1	 6.441657417487923e-01	 1.627129526877964e+00	-1.372801634375040e+01
1	 5.981539030346663e-01	 1.510905989224438e+00	-1.619548413764650e+01
1	 5.680960850001699e-01	 1.522462425874857e+00	-1.654949811867797e+01
1	 5.379455574460040e-01	 1.533375223883753e+00	-1.688642601459146e+01
1	 5.077218914329504e-01	 1.543646164429884e+00	-1.720578632669053e+01
1	 4.774443987833440e-01	 1.553277774923845e+00	-1.750715533335054e+01
1	 4.471320991271144e-01	 1.562273307054313e+00	-1.779016694630715e+01
1	 4.168036887336734e-01	 1.570636713267633e+00	-1.805451230563439e+01
1	 3.864775112014002e-01	 1.578372621830225e+00	-1.829993912576041e+01
1	 3.561715300634782e-01	 1.585486310625523e+00	-1.852625080619424e+01
1	 3.259033033559552e-01	 1.591983679838119e+00	-1.873330532177177e+01
1	 2.956899601812942e-01	 1.597871223677692e+00	-1.892101390817320e+01
1	 6.027550869038751e-01	 1.522528342987494e+00	-1.595435458375676e+01
1	 5.724660548848367e-01	 1.534173675303793e+00	-1.630044793869778e+01
1	 5.420836001959101e-01	 1.545170417912212e+00	-1.663042737580764e+01
1	 5.116274444444988e-01	 1.555520365692882e+00	-1.694384659752355e+01
1	 4.811170480054178e-01	 1.565226065498014e+00	-1.724031302361536e+01
1	 4.505715768134437e-01	 1.574290794029277e+00	-1.751948764392305e+01
1	 4.200098709554459e-01	 1.582718534136446e+00	-1.778108462963926e+01
1	 3.894504151344075e-01	 1.590513949687990e+00	-1.802487071462474e+01
1	 3.589113110645378e-01	 1.597682359166444e+00	-1.825066435946130e+01
1	 3.284102518437008e-01	 1.604229708142433e+00	-1.845833471198985e+01
1	 2.979644983366877e-01	 1.610162540781094e+00	-1.864780037894456e+01
1	 6.073562707735738e-01	 1.534150696751061e+00	-1.571190110466300e+01
1	 5.768360247698988e-01	 1.545884924733330e+00	-1.605039729676995e+01
1	 5.462216429461266e-01	 1.556965611941338e+00	-1.637373754495574e+01
1	 5.155329974562838e-01	 1.567394566956594e+00	-1.668151039149336e+01
1	 4.847896972276649e-01	 1.577174356072925e+00	-1.697335407863407e+01
1	 4.540110544998927e-01	 1.586308281004989e+00	-1.724895639774177e+01
1	 4.232160531772945e-01	 1.594800355005994e+00	-1.750805431664028e+01
1	 3.924233190674576e-01	 1.602655277546456e+00	-1.775043339580787e+01
1	 3.616510920656160e-01	 1.609878407708013e+00	-1.797592700516703e+01
1	 3.309172003314512e-01	 1.616475736447324e+00	-1.818441535416348e+01
1	 3.002390364920813e-01	 1.622453857884982e+00	-1.837582434861766e+01
1	 6.119574546437619e-01	 1.545773050515137e+00	-1.546815356334030e+01
1	 5.812059946553556e-01	 1.557596174163466e+00	-1.579936875970601e+01
1	 5.503596856966543e-01	 1.568760805971133e+00	-1.611637211283506e+01
1	 5.194385504683057e-01	 1.579268768221021e+00	-1.641878665168791e+01
1	 4.884623464500848e-01	 1.589122646648578e+00	-1.670628112927741e+01
1	 4.574505321864613e-01	 1.598325767981450e+00	-1.697856986815030e+01
1	 4.264222353992193e-01	 1.606882175876276e+00	-1.723541240356279e+01
1	 3.953962230005502e-01	 1.614796605405623e+00	-1.747661293414512e+01
1	 3.643908730667133e-01	 1.622074456250230e+00	-1.770201959085048e+01
1	 3.334241488192061e-01	 1.628721764752790e+00	-1.791152353584248e+01
1	 3.025135746474747e-01	 1.634745174989355e+00	-1.810505790368332e+01
1	 6.165586385144400e-01	 1.557395404279724e+00	-1.522314093133193e+01
1	 5.855759645412076e-01	 1.569307423594202e+00	-1.554738422068143e+01
1	 5.544977284474925e-01	 1.580556000001596e+00	-1.585834620484794e+01
1	 5.233441034805644e-01	 1.591142969486163e+00	-1.615568405423700e+01
1	 4.921349956726781e-01	 1.601070937224973e+00	-1.643909672788289e+01
1	 4.608900098731494e-01	 1.610343254958658e+00	-1.670832481522545e+01
1	 4.296284176212204e-01	 1.618963996747293e+00	-1.696315019488641e+01
1	 3.983691269336854e-01	 1.626937933265491e+00	-1.720339551940180e+01
1	 3.671306540678292e-01	 1.634270504793095e+00	-1.742892353576617e+01
1	 3.359310973069657e-01	 1.640967793058833e+00	-1.763963625241113e+01
1	 3.047881128028683e-01	 1.647036492094213e+00	-1.783547396387140e+01
1	 6.211598223856076e-01	 1.569017758044822e+00	-1.497689132176509e+01
1	 5.899459344274547e-01	 1.581018673025537e+00	-1.529446492418511e+01
1	 5.586357711986415e-01	 1.592351194032726e+00	-1.559967449823653e+01
1	 5.272496564930597e-01	 1.603017170752021e+00	-1.589221101820024e+01
1	 4.958076448954447e-01	 1.613019227802109e+00	-1.617180335116296e+01
1	 4.643294875599572e-01	 1.622360741936614e+00	-1.643821809504177e+01
1	 4.328345998432976e-01	 1.631045817619043e+00	-1.669125925273603e+01
1	 4.013420308668634e-01	 1.639079261126060e+00	-1.693076775053554e+01
1	 3.698704350689641e-01	 1.646466553336608e+00	-1.715662080970886e+01
1	 3.384380457947301e-01	 1.653213821365451e+00	-1.736873118087177e+01
1	 3.070626509582619e-01	 1.659327809199556e+00	-1.756704625129022e+01
1	 6.257610062572652e-01	 1.580640111810430e+00	-1.472943202091021e+01
1	 5.943159043140965e-01	 1.592729922457472e+00	-1.504063148986793e+01
1	 5.627738139501012e-01	 1.604146388064524e+00	-1.534037123855958e+01
1	 5.311552095057922e-01	 1.614891372018594e+00	-1.562837571501773e+01
1	 4.994802941183842e-01	 1.624967518379987e+00	-1.590440340298578e+01
1	 4.677689652468848e-01	 1.634378228915318e+00	-1.616824665614229e+01
1	 4.360407820654509e-01	 1.643127638491529e+00	-1.641973138740928e+01
1	 4.043149348000838e-01	 1.651220588987329e+00	-1.665871662065226e+01
1	 3.726102160701177e-01	 1.658662601880768e+00	-1.688509391277382e+01
1	 3.409449942824992e-01	 1.665459849672645e+00	-1.709878665478569e+01
1	 3.093371891136554e-01	 1.671619126305386e+00	-1.729974926092725e+01
1	 6.303621901294124e-01	 1.592262465576548e+00	-1.448078951835835e+01
1	 5.986858742011336e-01	 1.604441171890006e+00	-1.478590393534721e+01
1	 5.669118567018716e-01	 1.615941582096991e+00	-1.508045025544701e+01
1	 5.350607625187613e-01	 1.626765573285882e+00	-1.536418607754734e+01
1	 5.031529433414970e-01	 1.636915808958607e+00	-1.563689921703340e+01
1	 4.712084429339320e-01	 1.646395715894772e+00	-1.589840753616364e+01
1	 4.392469642876805e-01	 1.655209459364748e+00	-1.614855864831908e+01
1	 4.072878387333470e-01	 1.663361916849300e+00	-1.638722950262123e+01
1	 3.753499970712901e-01	 1.670858650425577e+00	-1.661432585600222e+01
1	 3.434519427702728e-01	 1.677705877980415e+00	-1.682978164031082e+01
1	 3.116117272690490e-01	 1.683910443411700e+00	-1.703355823244172e+01
1	 6.349633740020493e-01	 1.603884819343176e+00	-1.423098953588640e+01
1	 6.030558440885656e-01	 1.616152421323141e+00	-1.453030169801952e+01
1	 5.710498994539527e-01	 1.627736776130124e+00	-1.481992497766994e+01
1	 5.389663155319673e-01	 1.638639774553884e+00	-1.509964980870915e+01
1	 5.068255925647830e-01	 1.648864099537968e+00	-1.536929305934522e+01
1	 4.746479206210989e-01	 1.658413202874972e+00	-1.562869785860793e+01
1	 4.424531465099864e-01	 1.667291280238702e+00	-1.587773331533021e+01
1	 4.102607426666527e-01	 1.675503244711971e+00	-1.611629413531539e+01
1	 3.780897780724816e-01	 1.683054698971034e+00	-1.634430014286885e+01
1	 3.459588912580512e-01	 1.689951906288762e+00	-1.656169571328165e+01
1	 3.138862654244425e-01	 1.696201760518499e+00	-1.676844912318413e+01
1	 6.395645578751757e-01	 1.615507173110314e+00	-1.398005705507632e+01
1	 6.074258139763925e-01	 1.627863670756874e+00	-1.427384365593195e+01
1	 5.751879422063448e-01	 1.639531970163926e+00	-1.455880844756003e+01
1	 5.428718685454100e-01	 1.650513975822602e+00	-1.483477438975630e+01
1	 5.104982417882420e-01	 1.660812390118072e+00	-1.510158713075046e+01
1	 4.780873983083853e-01	 1.670430689855921e+00	-1.535911482975438e+01
1	 4.456593287323683e-01	 1.679373101113391e+00	-1.560724789046976e+01
1	 4.132336466000011e-01	 1.687644572575344e+00	-1.584589861044599e+01
1	 3.808295590736919e-01	 1.695250747517139e+00	-1.607500075156874e+01
1	 3.484658397458342e-01	 1.702197934597684e+00	-1.629450903727853e+01
1	 3.161608035798359e-01	 1.708493077625785e+00	-1.650439858237963e+01
1	 6.441657417487923e-01	 1.627129526877964e+00	-1.372801634375040e+01
1	 6.117957838646149e-01	 1.639574920191208e+00	-1.401654814775870e+01
1	 5.793259849590476e-01	 1.651327164198396e+00	-1.429711333481100e+01
1	 5.467774215590897e-01	 1.662388177092036e+00	-1.456956708819203e+01
1	 5.141708910118744e-01	 1.672760680698918e+00	-1.483378356919780e+01
1	 4.815268759957917e-01	 1.682448176837619e+00	-1.508965573570266e+01
1	 4.488655109548267e-01	 1.691454921988814e+00	-1.533709508999227e+01
1	 4.162065505333923e-01	 1.699785900439417e+00	-1.557603135996103e+01
1	 3.835693400749210e-01	 1.707446796063892e+00	-1.580641211806263e+01
1	 3.509727882336220e-01	 1.714443962907183e+00	-1.602820234263665e+01
1	 3.184353417352296e-01	 1.720784394733555e+00	-1.624138392641844e+01
1	 2.956899601812942e-01	 1.597871223677692e+00	-1.892101390817320e+01
1	 2.655481792878332e-01	 1.603156001294210e+00	-1.912065212437071e+01
1	 2.354941696761790e-01	 1.607845607033304e+00	-1.931078906770421e+01
1	 2.055436532290555e-01	 1.611948140178152e+00	-1.949139785485148e+01
1	 1.757118493506961e-01	 1.615472174320239e+00	-1.966247023756573e+01
1	 1.460134615946999e-01	 1.618426726496131e+00	-1.982401598257395e+01
1	 1.164626662474424e-01	 1.620821226222415e+00	-1.997606220646434e+01
1	 8.707310282611763e-02	 1.622665484554889e+00	-2.011865267120589e+01
1	 5.785786644259734e-02	 1.623969663291593e+00	-2.025184704589387e+01
1	 2.882950197718375e-02	 1.624744244432313e+00	-2.037572014022036e+01
1	 0.000000000000000e+00	 1.625000000000000e+00	-2.049036111503760e+01
1	 2.979644983366877e-01	 1.610162540781094e+00	-1.864780037894456e+01
1	 2.675908575899578e-01	 1.615487970533476e+00	-1.885058389717448e+01
1	 2.373056632887938e-01	 1.620213650163185e+00	-1.904377397106915e+01
1	 2.071247582534782e-01	 1.624347741255574e+00	-1.922731498366080e+01
1	 1.770634789605836e-01	 1.627898883352835e+00	-1.940117170516376e+01
1	 1.471366420679667e-01	 1.630876162853355e+00	-1.956532869402871e+01
1	 1.173585329103589e-01	 1.633289081808462e+00	-1.971978964369247e+01
1	 8.774289592431626e-02	 1.635147526743617e+00	-1.986457668109983e+01
1	 5.830292695333918e-02	 1.636461737624537e+00	-1.999972962306227e+01
1	 2.905126737680813e-02	 1.637242277081775e+00	-2.012530519645828e+01
1	 0.000000000000000e+00	 1.637500000000000e+00	-2.024137622816846e+01
1	 3.002390364920813e-01	 1.622453857884982e+00	-1.837582434861766e+01
1	 2.696335358920826e-01	 1.627819939773135e+00	-1.858154576625839e+01
1	 2.391171569014086e-01	 1.632581693293372e+00	-1.877758636578324e+01
1	 2.087058632779007e-01	 1.636747342333230e+00	-1.896386203721957e+01
1	 1.784151085704711e-01	 1.640325592385602e+00	-1.914031079176552e+01
1	 1.482598225412336e-01	 1.643325599210697e+00	-1.930689218395345e+01
1	 1.182543995732755e-01	 1.645756937394584e+00	-1.946358667029152e+01
1	 8.841268902251494e-02	 1.647629568932387e+00	-1.961039491089213e+01
1	 5.874798746408103e-02	 1.648953811957498e+00	-1.974733702061971e+01
1	 2.927303277643252e-02	 1.649740309731242e+00	-1.987445177625969e+01
1	 0.000000000000000e+00	 1.650000000000000e+00	-1.999179578612735e+01
1	 3.025135746474747e-01	 1.634745174989355e+00	-1.810505790368332e+01
1	 2.716762141942071e-01	 1.640151909013182e+00	-1.831351449636788e+01
1	 2.409286505140234e-01	 1.644949736423866e+00	-1.851220758662816e+01
1	 2.102869683023234e-01	 1.649146943411119e+00	-1.870102480669875e+01
1	 1.797667381803585e-01	 1.652752301418539e+00	-1.887987762626570e+01
1	 1.493830030145004e-01	 1.655775035568155e+00	-1.904870079569103e+01
1	 1.191502662361921e-01	 1.658224792980780e+00	-1.920745171657640e+01
1	 8.908248212071354e-02	 1.660111611121198e+00	-1.935610974660023e+01
1	 5.919304797482287e-02	 1.661445886290479e+00	-1.949467544562516e+01
1	 2.949479817605690e-02	 1.662238342380713e+00	-1.962316977007042e+01
1	 0.000000000000000e+00	 1.662500000000000e+00	-1.974163322248951e+01
1	 3.047881128028683e-01	 1.647036492094213e+00	-1.783547396387140e+01
1	 2.737188924963317e-01	 1.652483878253622e+00	-1.804646754583813e+01
1	 2.427401441266382e-01	 1.657317779554668e+00	-1.824761952555614e+01
1	 2.118680733267460e-01	 1.661546544489241e+00	-1.843878950741360e+01
1	 1.811183677902460e-01	 1.665179010451648e+00	-1.861986263221876e+01
1	 1.505061834877673e-01	 1.668224471925732e+00	-1.879074904143970e+01
1	 1.200461328991086e-01	 1.670692648567053e+00	-1.895138325971839e+01
1	 8.975227521891216e-02	 1.672593653310051e+00	-1.910172350301727e+01
1	 5.963810848556471e-02	 1.673937960623477e+00	-1.924175091985213e+01
1	 2.971656357568129e-02	 1.674736375030189e+00	-1.937146877309921e+01
1	 0.000000000000000e+00	 1.675000000000000e+00	-1.949090156982797e+01
1	 3.070626509582619e-01	 1.659327809199556e+00	-1.756704625129022e+01
1	 2.757615707984564e-01	 1.664815847494451e+00	-1.778038304090553e+01
1	 2.445516377392530e-01	 1.669685822685776e+00	-1.798380461105418e+01
1	 2.134491783511686e-01	 1.673946145567598e+00	-1.817714276311426e+01
1	 1.824699974001335e-01	 1.677605719484926e+00	-1.836025651692569e+01
1	 1.516293639610341e-01	 1.680673908283426e+00	-1.853303159599909e+01
1	 1.209419995620252e-01	 1.683160504153399e+00	-1.869537982200955e+01
1	 9.042206831711082e-02	 1.685075695498947e+00	-1.884723842634946e+01
1	 6.008316899630655e-02	 1.686430034956494e+00	-1.898856928665122e+01
1	 2.993832897530567e-02	 1.687234407679669e+00	-1.911935809625236e+01
1	 0.000000000000000e+00	 1.687500000000000e+00	-1.923961347456551e+01
1	 3.093371891136554e-01	 1.671619126305386e+00	-1.729974926092725e+01
1	 2.778042491005809e-01	 1.677147816735672e+00	-1.751523975115236e+01
1	 2.463631313518678e-01	 1.682053865817191e+00	-1.772074578841839e+01
1	 2.150302833755913e-01	 1.686345746646188e+00	-1.791607159097036e+01
1	 1.838216270100210e-01	 1.690032428518376e+00	-1.810105026100227e+01
1	 1.527525444343010e-01	 1.693123344641238e+00	-1.827554329079261e+01
1	 1.218378662249418e-01	 1.695628359739820e+00	-1.843943996920389e+01
1	 9.109186141530945e-02	 1.697557737687884e+00	-1.859265669673844e+01
1	 6.052822950704838e-02	 1.698922109289530e+00	-1.873513621750975e+01
1	 3.016009437493006e-02	 1.699732440329154e+00	-1.886684677658598e+01
1	 0.000000000000000e+00	 1.700000000000000e+00	-1.898778121117124e+01
1	 3.116117272690490e-01	 1.683910443411700e+00	-1.703355823244172e+01
1	 2.798469274027056e-01	 1.689479785977283e+00	-1.725101706602716e+01
1	 2.481746249644826e-01	 1.694421908948912e+00	-1.745842650089271e+01
1	 2.166113884000138e-01	 1.698745347725011e+00	-1.765556338721191e+01
1	 1.851732566199084e-01	 1.702459137551994e+00	-1.784223510840396e+01
1	 1.538757249075678e-01	 1.705572780999167e+00	-1.801827910815075e+01
1	 1.227337328878583e-01	 1.708096215326316e+00	-1.818356230893139e+01
1	 9.176165451350807e-02	 1.710039779876861e+00	-1.833798043067209e+01
1	 6.097329001779021e-02	 1.711414183622584e+00	-1.848145721832440e+01
1	 3.038185977455445e-02	 1.712230472978645e+00	-1.861394358730039e+01
1	 0.000000000000000e+00	 1.712500000000000e+00	-1.873541669573562e+01
1	 3.138862654244425e-01	 1.696201760518499e+00	-1.676844912318413e+01
1	 2.818896057048302e-01	 1.701811755219286e+00	-1.698769497238590e+01
1	 2.499861185770973e-01	 1.706789952080941e+00	-1.719683067162680e+01
1	 2.181924934244365e-01	 1.711144948804068e+00	-1.739560591339591e+01
1	 1.865248862297958e-01	 1.714885846585784e+00	-1.758380255688442e+01
1	 1.549989053808347e-01	 1.718022217357214e+00	-1.776123417584412e+01
1	 1.236295995507749e-01	 1.720564070912886e+00	-1.792774548918031e+01
1	 9.243144761170670e-02	 1.722521822065882e+00	-1.808321168329070e+01
1	 6.141835052853206e-02	 1.723906257955657e+00	-1.822753763540039e+01
1	 3.060362517417883e-02	 1.724728505628139e+00	-1.836065704730043e+01
1	 0.000000000000000e+00	 1.725000000000000e+00	-1.848253149895521e+01
1	 3.161608035798359e-01	 1.708493077625785e+00	-1.650439858237963e+01
1	 2.839322840069549e-01	 1.714143724461679e+00	-1.672525403300210e+01
1	 2.517976121897121e-01	 1.719157995213276e+00	-1.693594268641364e+01
1	 2.197735984488592e-01	 1.723544549883358e+00	-1.713618728326427e+01
1	 1.878765158396833e-01	 1.727312555619745e+00	-1.732574434886647e+01
1	 1.561220858541015e-01	 1.730471653715379e+00	-1.750440376185083e+01
1	 1.245254662136915e-01	 1.733031926499532e+00	-1.767198819684597e+01
1	 9.310124070990533e-02	 1.735003864254944e+00	-1.782835245059387e+01
1	 6.186341103927389e-02	 1.736398332288747e+00	-1.797338266119245e+01
1	 3.082539057380321e-02	 1.737226538277638e+00	-1.810699543034247e+01
1	 0.000000000000000e+00	 1.737499999999999e+00	-1.822913685855685e+01
1	 3.184353417352296e-01	 1.720784394733555e+00	-1.624138392641844e+01
1	 2.859749623090795e-01	 1.726475693704463e+00	-1.646367536599892e+01
1	 2.536091058023270e-01	 1.731526038345919e+00	-1.667574737716613e+01
1	 2.213547034732818e-01	 1.735944150962882e+00	-1.687729595016697e+01
1	 1.892281454495708e-01	 1.739739264653876e+00	-1.706805246270373e+01
1	 1.572452663273684e-01	 1.742921090073661e+00	-1.724778326934997e+01
1	 1.254213328766080e-01	 1.745499782086253e+00	-1.741628915634093e+01
1	 9.377103380810400e-02	 1.747485906444048e+00	-1.757340467155268e+01
1	 6.230847155001576e-02	 1.748890406621857e+00	-1.771899733979961e+01
1	 3.104715597342760e-02	 1.749724570927141e+00	-1.785296677378987e+01
1	 0.000000000000000e+00	 1.750000000000000e+00	-1.797524369118948e+01
1	 1.750000000000000e+00	 0.000000000000000e+00	 3.653274865209168e+00
1	 1.749724570927141e+00	 3.104715597342660e-02	 3.585171111975078e+00
1	 1.748890406621857e+00	 6.230847155001488e-02	 3.505883982484139e+00
1	 1.747485906444049e+00	 9.377103380810323e-02	 3.415406601593951e+00
1	 1.745499782086252e+00	 1.254213328766073e-01	 3.313757187283803e+00
1	 1.742921090073661e+00	 1.572452663273678e-01	 3.200979970954939e+00
1	 1.739739264653876e+00	 1.892281454495704e-01	 3.077146048079642e+00
1	 1.735944150962882e+00	 2.213547034732815e-01	 2.942354150544798e+00
1	 1.731526038345919e+00	 2.536091058023268e-01	 2.796731332073568e+00
1	 1.726475693704463e+00	 2.859749623090794e-01	 2.640433558227753e+00
1	 1.720784394733555e+00	 3.184353417352296e-01	 2.473646192697490e+00
1	 1.762500000000000e+00	 0.000000000000000e+00	 3.507278330113029e+00
1	 1.762222603576645e+00	 3.126892137305098e-02	 3.443167508859248e+00
1	 1.761382480954966e+00	 6.275353206075669e-02	 3.368155760580108e+00
1	 1.759967948633153e+00	 9.444082690630186e-02	 3.282221320294968e+00
1	 1.757967637672972e+00	 1.263171995395239e-01	 3.185366552108599e+00
1	 1.755370526431943e+00	 1.583684468006347e-01	 3.077618893044573e+00
1	 1.752165973688007e+00	 1.905797750594578e-01	 2.959031732702451e+00
1	 1.748343752042406e+00	 2.229358084977041e-01	 2.829685220204031e+00
1	 1.743894081478562e+00	 2.554205994149417e-01	 2.689686989896167e+00
1	 1.738807662947248e+00	 2.880176406112040e-01	 2.539172797358982e+00
1	 1.733075711841326e+00	 3.207098798906232e-01	 2.378307057430852e+00
1	 1.775000000000000e+00	 0.000000000000000e+00	 3.367255476405504e+00
1	 1.774720636226143e+00	 3.149068677267536e-02	 3.306994477084006e+00
1	 1.773874555288057e+00	 6.319859257149853e-02	 3.236113497250179e+00
1	 1.772449990822214e+00	 9.511062000450050e-02	 3.154576070757182e+00
1	 1.770435493259618e+00	 1.272130662024405e-01	 3.062368905679143e+00
1	 1.767819962790108e+00	 1.594916272739015e-01	 2.959502851436830e+00
1	 1.764592682721967e+00	 1.919314046693453e-01	 2.846013807172597e+00
1	 1.760743353121696e+00	 2.245169135221267e-01	 2.721963562957300e+00
1	 1.756262124610897e+00	 2.572320930275563e-01	 2.587440565380785e+00
1	 1.751139632189640e+00	 2.900603189133286e-01	 2.442560599119619e+00
1	 1.745367028948611e+00	 3.229844180460166e-01	 2.287467376198385e+00
1	 1.787500000000000e+00	 0.000000000000000e+00	 3.233080982099534e+00
1	 1.787218668875638e+00	 3.171245217229974e-02	 3.176529696970998e+00
1	 1.786366629621130e+00	 6.364365308224038e-02	 3.109637906650235e+00
1	 1.784932033011234e+00	 9.578041310269911e-02	 3.032354628538214e+00
1	 1.782903348846188e+00	 1.281089328653570e-01	 2.944651108371589e+00
1	 1.780269399148155e+00	 1.606148077471684e-01	 2.846521810405384e+00
1	 1.777019391755757e+00	 1.932830342792328e-01	 2.737985354220913e+00
1	 1.773142954200753e+00	 2.260980185465493e-01	 2.619085389859063e+00
1	 1.768630167742926e+00	 2.590435866401711e-01	 2.489891402912783e+00
1	 1.763471601431642e+00	 2.921029972154534e-01	 2.350499441217531e+00
1	 1.757658346055410e+00	 3.252589562014102e-01	 2.201032754860488e+00
1	 1.800000000000000e+00	 0.000000000000000e+00	 3.104633006374371e+00
1	 1.799716701525128e+00	 3.193421757192412e-02	 3.051654246610687e+00
1	 1.798858703954184e+00	 6.408871359298220e-02	 2.988613016431845e+00
1	 1.797414075200213e+00	 9.645020620089774e-02	 2.915443997652363e+00
1	 1.795371204432684e+00	 1.290047995282736e-01	 2.832103163329430e+00
1	 1.792718835506084e+00	 1.617379882204352e-01	 2.738568790771827e+00
1	 1.789446100789376e+00	 1.946346638891202e-01	 2.634842426502405e+00
1	 1.785542555279577e+00	 2.276791235709719e-01	 2.520949794990055e+00
1	 1.780998210874648e+00	 2.608550802527859e-01	 2.396941642866791e+00
1	 1.775803570673254e+00	 2.941456755175779e-01	 2.262894510313163e+00
1	 1.769949663161724e+00	 3.275334943568037e-01	 2.118911421336983e+00
1	 1.812500000000000e+00	 0.000000000000000e+00	 2.981793069535340e+00
1	 1.812214734174612e+00	 3.215598297154849e-02	 2.932252484697932e+00
1	 1.811350778287220e+00	 6.453377410372405e-02	 2.872926053483770e+00
1	 1.809896117389150e+00	 9.711999929909636e-02	 2.803734299244621e+00
1	 1.807839060019105e+00	 1.299006661911902e-01	 2.724618108092197e+00
1	 1.805168271863896e+00	 1.628611686937021e-01	 2.635539764507507e+00
1	 1.801872809822825e+00	 1.959862934990077e-01	 2.536483944185020e+00
1	 1.797942156358166e+00	 2.292602285953945e-01	 2.427458656042563e+00
1	 1.793366254006062e+00	 2.626665738654007e-01	 2.308496125193324e+00
1	 1.788135539914474e+00	 2.961883538197025e-01	 2.179653608607308e+00
1	 1.782240980267553e+00	 3.298080325121973e-01	 2.041014135191269e+00
1	 1.825000000000000e+00	 0.000000000000000e+00	 2.864445937906805e+00
1	 1.824712766824093e+00	 3.237774837117288e-02	 2.818211938182531e+00
1	 1.823842852620237e+00	 6.497883461446587e-02	 2.762467334369048e+00
1	 1.822378159578045e+00	 9.778979239729499e-02	 2.697118664839530e+00
1	 1.820306915605452e+00	 1.307965328541067e-01	 2.622091910677783e+00
1	 1.817617708221590e+00	 1.639843491669689e-01	 2.537333553666741e+00
1	 1.814299518856104e+00	 1.973379231088951e-01	 2.442811596747176e+00
1	 1.810341757436523e+00	 2.308413336198172e-01	 2.338516538991268e+00
1	 1.805734297137171e+00	 2.644780674780155e-01	 2.224462296967510e+00
1	 1.800467509155304e+00	 2.982310321218272e-01	 2.100687064267889e+00
1	 1.794532297372897e+00	 3.320825706675907e-01	 1.967254100930206e+00
1	 1.837500000000000e+00	 0.000000000000000e+00	 2.752479513423342e+00
1	 1.837210799473569e+00	 3.259951377079726e-02	 2.709423194505443e+00
1	 1.836334926953235e+00	 6.542389512520771e-02	 2.657130160234033e+00
1	 1.834860201766898e+00	 9.845958549549363e-02	 2.595493133947377e+00
1	 1.832774771191723e+00	 1.316923995170233e-01	 2.524423369906311e+00
1	 1.830067144579166e+00	 1.651075296402358e-01	 2.443851733445212e+00
1	 1.826726227889211e+00	 1.986895527187826e-01	 2.353729748783515e+00
1	 1.822741358514645e+00	 2.324224386442398e-01	 2.254030606655082e+00
1	 1.818102340267972e+00	 2.662895610906304e-01	 2.144750123711430e+00
1	 1.812799478395743e+00	 3.002737104239518e-01	 2.025907645512648e+00
1	 1.806823614477755e+00	 3.343571088229843e-01	 1.897546884842763e+00
1	 1.850000000000000e+00	 0.000000000000000e+00	 2.645784727696975e+00
1	 1.849708832123041e+00	 3.282127917042164e-02	 2.605779798203828e+00
1	 1.848827001286216e+00	 6.586895563594955e-02	 2.556810715977884e+00
1	 1.847342243955709e+00	 9.912937859369225e-02	 2.498756555821404e+00
1	 1.845242626777920e+00	 1.325882661799398e-01	 2.431514019764928e+00
1	 1.842516580936625e+00	 1.662307101135026e-01	 2.354998539168472e+00
1	 1.839152936922149e+00	 2.000411823286701e-01	 2.269145349629363e+00
1	 1.835140959592534e+00	 2.340035436686624e-01	 2.173910530965899e+00
1	 1.830470383398466e+00	 2.681010547032451e-01	 2.069272004311405e+00
1	 1.825131447635792e+00	 3.023163887260764e-01	 1.955230478175086e+00
1	 1.819114931582128e+00	 3.366316469783779e-01	 1.831810335210107e+00
1	 1.862500000000000e+00	 0.000000000000000e+00	 2.544255440350136e+00
1	 1.862206864772507e+00	 3.304304457004600e-02	 2.507178151679589e+00
1	 1.861319075619178e+00	 6.631401614669137e-02	 2.461407973482330e+00
1	 1.859824286144479e+00	 9.979917169189090e-02	 2.406810495171130e+00
1	 1.857710482364042e+00	 1.334841328428564e-01	 2.343268037623678e+00
1	 1.854966017293967e+00	 1.673538905867695e-01	 2.270680777025792e+00
1	 1.851579645954916e+00	 2.013928119385575e-01	 2.188967846624465e+00
1	 1.847540560670190e+00	 2.355846486930850e-01	 2.098068408770204e+00
1	 1.842838426528654e+00	 2.699125483158599e-01	 1.997942689361512e+00
1	 1.837463416875449e+00	 3.043590670282010e-01	 1.888572966589759e+00
1	 1.831406248686016e+00	 3.389061851337714e-01	 1.769964505728642e+00
1	 1.875000000000000e+00	 0.000000000000000e+00	 2.447788341415320e+00
1	 1.874704897421970e+00	 3.326480996967039e-02	 2.413517419937261e+00
1	 1.873811149952121e+00	 6.675907665743323e-02	 2.370823598712240e+00
1	 1.872306328333207e+00	 1.004689647900895e-01	 2.319559141647179e+00
1	 1.870178337950090e+00	 1.343799995057729e-01	 2.259592156122714e+00
1	 1.867415453651191e+00	 1.684770710600364e-01	 2.190807738374728e+00
1	 1.864006354987513e+00	 2.027444415484450e-01	 2.113109101846153e+00
1	 1.859940161747613e+00	 2.371657537175077e-01	 2.026418680998558e+00
1	 1.855206469658534e+00	 2.717240419284748e-01	 1.930679202773302e+00
1	 1.849795386114716e+00	 3.064017453303257e-01	 1.825854717642337e+00
1	 1.843697565789419e+00	 3.411807232891650e-01	 1.711931581996200e+00
1	 1.720784394733555e+00	 3.184353417352296e-01	 2.473646192697490e+00
1	 1.714443962907183e+00	 3.509727882336210e-01	 2.385390640873123e+00
1	 1.707446796063893e+00	 3.835693400749201e-01	 2.283471402420926e+00
1	 1.699785900439417e+00	 4.162065505333916e-01	 2.167533792430124e+00
1	 1.691454921988814e+00	 4.488655109548259e-01	 2.037247944804619e+00
1	 1.682448176837619e+00	 4.815268759957912e-01	 1.892310943770214e+00
1	 1.672760680698918e+00	 5.141708910118742e-01	 1.732448918033255e+00
1	 1.662388177092036e+00	 5.467774215590895e-01	 1.557419083038053e+00
1	 1.651327164198396e+00	 5.793259849590476e-01	 1.367011716440400e+00
1	 1.639574920191208e+00	 6.117957838646149e-01	 1.161052051709994e+00
1	 1.627129526877964e+00	 6.441657417487923e-01	 9.394020747049070e-01
1	 1.733075711841326e+00	 3.207098798906232e-01	 2.378307057430852e+00
1	 1.726689991216679e+00	 3.534797367214088e-01	 2.292834636104129e+00
1	 1.719642844610636e+00	 3.863091210761491e-01	 2.194097427609147e+00
1	 1.711927228303469e+00	 4.191794544667827e-01	 2.081724287278963e+00
1	 1.703536742864199e+00	 4.520716931772842e-01	 1.955367506916102e+00
1	 1.694465663819255e+00	 4.849663536831973e-01	 1.814704973017143e+00
1	 1.684708971279676e+00	 5.178435402355064e-01	 1.659442295195608e+00
1	 1.674262378361351e+00	 5.506829745727694e-01	 1.489314890349400e+00
1	 1.663122358232710e+00	 5.834640277117502e-01	 1.304090007733623e+00
1	 1.651286169625344e+00	 6.161657537528370e-01	 1.103568679836075e+00
1	 1.638751880645368e+00	 6.487669256224087e-01	 8.875875838211846e-01
1	 1.745367028948611e+00	 3.229844180460166e-01	 2.287467376198385e+00
1	 1.738936019525595e+00	 3.559866852091919e-01	 2.204653682624530e+00
1	 1.731838893156713e+00	 3.890489020773594e-01	 2.108970424549845e+00
1	 1.724068556166777e+00	 4.221523584001311e-01	 2.000030152054136e+00
1	 1.715618563738773e+00	 4.552778753996662e-01	 1.877467481720435e+00
1	 1.706483150800026e+00	 4.884058313704840e-01	 1.740941281419051e+00
1	 1.696657261859521e+00	 5.215161894589655e-01	 1.590136832775131e+00
1	 1.686136579629713e+00	 5.545885275862120e-01	 1.424767956963888e+00
1	 1.674917552266045e+00	 5.876020704641420e-01	 1.244579089036835e+00
1	 1.662997419058485e+00	 6.205357236406640e-01	 1.049347285660177e+00
1	 1.650374234411771e+00	 6.533681094955353e-01	 8.388841509540037e-01
1	 1.757658346055410e+00	 3.252589562014102e-01	 2.201032754860488e+00
1	 1.751182047833929e+00	 3.584936336969702e-01	 2.120755996142436e+00
1	 1.744034941702122e+00	 3.917886830785507e-01	 2.028001295934352e+00
1	 1.736209884029342e+00	 4.251252623334367e-01	 1.922365050324343e+00
1	 1.727700384612536e+00	 4.584840576219720e-01	 1.803464364056865e+00
1	 1.718500637779927e+00	 4.918453090576508e-01	 1.670939261721457e+00
1	 1.708605552438449e+00	 5.251888386822515e-01	 1.524454884050173e+00
1	 1.698010780897124e+00	 5.584940805994180e-01	 1.363703655064251e+00
1	 1.686712746298402e+00	 5.917401132162234e-01	 1.188407405315034e+00
1	 1.674708668490632e+00	 6.249056935280959e-01	 9.983194360837897e-01
1	 1.661996588177176e+00	 6.579692933681721e-01	 7.932265091518954e-01
1	 1.769949663161724e+00	 3.275334943568037e-01	 2.118911421336983e+00
1	 1.763428076141683e+00	 3.610005821847440e-01	 2.041052341929638e+00
1	 1.756230990246865e+00	 3.945284640797232e-01	 1.951103419379238e+00
1	 1.748351211891164e+00	 4.280981662666999e-01	 1.848645043892511e+00
1	 1.739782205485490e+00	 4.616902398442015e-01	 1.733276968352442e+00
1	 1.730518124758961e+00	 4.952847867446978e-01	 1.604620545760303e+00
1	 1.720553843016463e+00	 5.288614879053642e-01	 1.462320959152508e+00
1	 1.709884982163583e+00	 5.623996336123871e-01	 1.306049429828188e+00
1	 1.698507940329780e+00	 5.958781559679937e-01	 1.135505389173108e+00
1	 1.686419917921784e+00	 6.292756634151330e-01	 9.504185989278473e-01
1	 1.673618941941580e+00	 6.625704772403191e-01	 7.505512044343314e-01
1	 1.782240980267553e+00	 3.298080325121973e-01	 2.041014135191269e+00
1	 1.775674104448857e+00	 3.635075306725129e-01	 1.965455946905589e+00
1	 1.768427038790941e+00	 3.972682450808769e-01	 1.878192562084075e+00
1	 1.760492539752241e+00	 4.310710701999204e-01	 1.778788510098031e+00
1	 1.751864026357632e+00	 4.648964220663550e-01	 1.666826348636241e+00
1	 1.742535611737127e+00	 4.987242644316255e-01	 1.541908927251931e+00
1	 1.732502133593562e+00	 5.325341371283038e-01	 1.403661650693054e+00
1	 1.721759183429090e+00	 5.663051866251195e-01	 1.251734727945758e+00
1	 1.710303134360180e+00	 6.000161987194534e-01	 1.085805392316548e+00
1	 1.698131167351941e+00	 6.336456333017750e-01	 9.055800773837978e-01
1	 1.685241295704983e+00	 6.671716611119766e-01	 7.107965332754564e-01
1	 1.794532297372897e+00	 3.320825706675907e-01	 1.967254100930206e+00
1	 1.787920132755449e+00	 3.660144791602774e-01	 1.893882415334404e+00
1	 1.780623087334351e+00	 4.000080260820117e-01	 1.809186798996386e+00
1	 1.772633867612575e+00	 4.340439741330983e-01	 1.712716062517592e+00
1	 1.763945847228964e+00	 4.681026042884321e-01	 1.604035721840680e+00
1	 1.754553098714425e+00	 5.021637421184332e-01	 1.482730287756106e+00
1	 1.744450424169746e+00	 5.362067863510702e-01	 1.348405562444111e+00
1	 1.733633384693645e+00	 5.702107396376150e-01	 1.200690929074463e+00
1	 1.722098328389602e+00	 6.041542414706025e-01	 1.039241619828809e+00
1	 1.709842416781103e+00	 6.380156031880218e-01	 8.637409471584192e-01
1	 1.696863649467388e+00	 6.717728449831445e-01	 6.739024826570261e-01
1	 1.806823614477755e+00	 3.343571088229843e-01	 1.897546884842763e+00
1	 1.800166161061462e+00	 3.685214276480370e-01	 1.826249647962802e+00
1	 1.792819135877093e+00	 4.027478070831276e-01	 1.744006434316828e+00
1	 1.784775195472166e+00	 4.370168780662335e-01	 1.650350474902679e+00
1	 1.776027668099485e+00	 4.713087865104332e-01	 1.544830394233339e+00
1	 1.766570585690856e+00	 5.056032198051217e-01	 1.427012525660915e+00
1	 1.756398714745015e+00	 5.398794355736636e-01	 1.296483240932493e+00
1	 1.745507585957248e+00	 5.741162926498736e-01	 1.152851280092033e+00
1	 1.733893522418045e+00	 6.082922842214408e-01	 9.957500671312485e-01
1	 1.721553666209272e+00	 6.423855730738739e-01	 8.248399961842068e-01
1	 1.708486003228792e+00	 6.763740288538224e-01	 6.398106725681413e-01
1	 1.819114931582128e+00	 3.366316469783779e-01	 1.831810335210107e+00
1	 1.812412189366892e+00	 3.710283761357918e-01	 1.762477764436252e+00
1	 1.805015184419169e+00	 4.054875880842249e-01	 1.682573926186584e+00
1	 1.796916523331014e+00	 4.399897819993261e-01	 1.591616608200678e+00
1	 1.788109488969196e+00	 4.745149687323580e-01	 1.489137690831368e+00
1	 1.778588072666419e+00	 5.090426974916901e-01	 1.374685488046680e+00
1	 1.768347005319369e+00	 5.435520847960839e-01	 1.247827109805935e+00
1	 1.757381787219899e+00	 5.780218456618955e-01	 1.108150832014666e+00
1	 1.745688716445509e+00	 6.124303269719682e-01	 9.552684594987395e-01
1	 1.733264915636445e+00	 6.467555429593308e-01	 7.888176667738975e-01
1	 1.720108356989195e+00	 6.809752127240108e-01	 6.084643008360688e-01
1	 1.831406248686016e+00	 3.389061851337714e-01	 1.769964505728642e+00
1	 1.824658217671743e+00	 3.735353246235422e-01	 1.702489028839248e+00
1	 1.817211232960577e+00	 4.082273690853030e-01	 1.624813814407484e+00
1	 1.809057851189117e+00	 4.429626859323761e-01	 1.536441340514761e+00
1	 1.800191309838096e+00	 4.777211509542068e-01	 1.436886887658155e+00
1	 1.790605559641113e+00	 5.124821751781390e-01	 1.325680905293591e+00
1	 1.780295295892808e+00	 5.472247340183306e-01	 1.202371406842462e+00
1	 1.769255988481599e+00	 5.819273986736807e-01	 1.066526379455479e+00
1	 1.757483910471995e+00	 6.165683697221850e-01	 9.177361940108821e-01
1	 1.744976165062624e+00	 6.511255128443929e-01	 7.556160001043404e-01
1	 1.731730710748600e+00	 6.855763965937093e-01	 5.798080901786711e-01
1	 1.843697565789419e+00	 3.411807232891650e-01	 1.711931581996200e+00
1	 1.836904245976013e+00	 3.760422731112877e-01	 1.646207778214039e+00
1	 1.829407281501320e+00	 4.109671500863628e-01	 1.570652651053299e+00
1	 1.821199179046478e+00	 4.459355898653836e-01	 1.484753499865367e+00
1	 1.812273130706186e+00	 4.809273331759791e-01	 1.388009146709823e+00
1	 1.802623046614941e+00	 5.159216528644683e-01	 1.279932328305058e+00
1	 1.792243586465333e+00	 5.508973832404047e-01	 1.160052123479376e+00
1	 1.781130189742346e+00	 5.858329516852289e-01	 1.027916402504588e+00
1	 1.769279104497502e+00	 6.207064124720912e-01	 8.830942838251921e-01
1	 1.756687414487809e+00	 6.554954827290598e-01	 7.251785829210579e-01
1	 1.743353064507004e+00	 6.901775804629183e-01	 5.537882373746967e-01
1	 1.627129526877964e+00	 6.441657417487923e-01	 9.394020747049070e-01
1	 1.613989891498045e+00	 6.764145402254381e-01	 7.551468317920726e-01
1	 1.600155766523939e+00	 7.085206580967053e-01	 5.543104113388658e-01
1	 1.585627767319404e+00	 7.404624120079153e-01	 3.364009497065225e-01
1	 1.570407387515452e+00	 7.722179985775097e-01	 1.009623638279740e-01
1	 1.554497011975571e+00	 8.037655378569363e-01	-1.524227856807189e-01
1	 1.537899927230667e+00	 8.350831179629202e-01	-4.241305379558062e-01
1	 1.520620329275986e+00	 8.661488407132029e-01	-7.144929031480795e-01
1	 1.502663328635016e+00	 8.969408680863412e-01	-1.023795382474554e+00
1	 1.484034952609081e+00	 9.274374693167079e-01	-1.352274657482510e+00
1	 1.464742144646208e+00	 9.576170684275745e-01	-1.700116468186154e+00
1	 1.638751880645368e+00	 6.487669256224087e-01	 8.875875838211846e-01
1	 1.625518390726798e+00	 6.812460726600401e-01	 7.064720038896928e-01
1	 1.611585450574138e+00	 7.135815199449438e-01	 5.086875608294639e-01
1	 1.596953679946601e+00	 7.457514292413342e-01	 2.936949445812382e-01
1	 1.581624583143993e+00	 7.777338414292114e-01	 6.099042264013166e-02
1	 1.565600562064543e+00	 8.095067202746747e-01	-1.898911013437300e-01
1	 1.548884926714374e+00	 8.410479973809957e-01	-4.593731305575484e-01
1	 1.531481903060134e+00	 8.723356181503270e-01	-7.478347420846423e-01
1	 1.513396638129045e+00	 9.033475885753565e-01	-1.055607900254292e+00
1	 1.494635202274586e+00	 9.340620226707022e-01	-1.382974938024396e+00
1	 1.475204588540842e+00	 9.644571903455147e-01	-1.730166227422392e+00
1	 1.650374234411771e+00	 6.533681094955353e-01	 8.388841509540037e-01
1	 1.637046889954552e+00	 6.860776050940667e-01	 6.606648598298070e-01
1	 1.623015134623337e+00	 7.186423817925500e-01	 4.656905318199345e-01
1	 1.608279592572798e+00	 7.510404464740931e-01	 2.533748699663541e-01
1	 1.592841778771534e+00	 7.832496842802550e-01	 2.316695498596000e-02
1	 1.576704112152514e+00	 8.152479026917873e-01	-2.254455021859421e-01
1	 1.559869926197083e+00	 8.470128767985073e-01	-4.929330045367735e-01
1	 1.542343476843282e+00	 8.785223955869790e-01	-7.797212334611052e-01
1	 1.524129947622075e+00	 9.097543090640229e-01	-1.086188157065433e+00
1	 1.505235451939092e+00	 9.406865760245012e-01	-1.412661305344769e+00
1	 1.485667032434476e+00	 9.712973122634445e-01	-1.759415234611011e+00
1	 1.661996588177176e+00	 6.579692933681721e-01	 7.932265091518954e-01
1	 1.648575389181304e+00	 6.909091375275175e-01	 6.176652384129730e-01
1	 1.634444818671535e+00	 7.237032436395238e-01	 4.252642371460762e-01
1	 1.619605505197995e+00	 7.563294637061926e-01	 2.153906713758467e-01
1	 1.604058974398076e+00	 7.887655271306413e-01	-1.255311200561382e-02
1	 1.587807662239485e+00	 8.209890851082737e-01	-2.591261402662528e-01
1	 1.570854925678792e+00	 8.529777562154547e-01	-5.248454616824981e-01
1	 1.553205050625430e+00	 8.847091730231600e-01	-8.101829090441982e-01
1	 1.534863257114104e+00	 9.161610295523409e-01	-1.115562004536463e+00
1	 1.515835701602599e+00	 9.473111293781052e-01	-1.441355030350167e+00
1	 1.496129476327111e+00	 9.781374341813636e-01	-1.787880288745835e+00
1	 1.673618941941580e+00	 6.625704772403191e-01	 7.505512044343314e-01
1	 1.660103888407058e+00	 6.957406699603933e-01	 5.774146495842305e-01
1	 1.645874502718734e+00	 7.287641054858656e-01	 3.873551198427402e-01
1	 1.630931417822192e+00	 7.616184809376318e-01	 1.796936847260985e-01
1	 1.615276170023616e+00	 7.942813699803695e-01	-4.621359918148993e-02
1	 1.598911212325456e+00	 8.267302675241344e-01	-2.909720523086077e-01
1	 1.581839925159500e+00	 8.589426356318381e-01	-5.551448231785043e-01
1	 1.564066624406578e+00	 8.908959504588688e-01	-8.392494524960616e-01
1	 1.545596566605134e+00	 9.225677500403102e-01	-1.143754576195102e+00
1	 1.526435951265105e+00	 9.539356827315140e-01	-1.469076793088631e+00
1	 1.506591920218745e+00	 9.849775560992717e-01	-1.815577722182041e+00
1	 1.685241295704983e+00	 6.671716611119766e-01	 7.107965332754564e-01
1	 1.671632387631811e+00	 7.005722023926938e-01	 5.398562168073792e-01
1	 1.657304186764933e+00	 7.338249673315752e-01	 3.519111003783012e-01
1	 1.642257330445389e+00	 7.669074981684119e-01	 1.462365883909673e-01
1	 1.626493365648157e+00	 7.997972128294403e-01	-7.785711853760524e-02
1	 1.610014762410427e+00	 8.324714499393688e-01	-3.210211981618263e-01
1	 1.592824924639209e+00	 8.649075150476579e-01	-5.838644634173044e-01
1	 1.574928198186726e+00	 8.970827278941063e-01	-8.669497286191902e-01
1	 1.556329876095164e+00	 9.289744705279305e-01	-1.170790312230393e+00
1	 1.537036200926610e+00	 9.605602360847276e-01	-1.495846703124192e+00
1	 1.517054364109380e+00	 9.918176780171698e-01	-1.842523416727033e+00
1	 1.696863649467388e+00	 6.717728449831445e-01	 6.739024826570261e-01
1	 1.683160886855564e+00	 7.054037348244186e-01	 5.049346218075408e-01
1	 1.668733870810132e+00	 7.388858291766527e-01	 3.188815260576475e-01
1	 1.653583243067586e+00	 7.721965153985318e-01	 1.149733572272362e-01
1	 1.637710561271698e+00	 8.053130556778525e-01	-1.075251146179725e-01
1	 1.621118312494399e+00	 8.382126323539776e-01	-3.493104976788790e-01
1	 1.603809924117917e+00	 8.708723944629133e-01	-6.110368424245449e-01
1	 1.585789771965874e+00	 9.032695053288717e-01	-8.933118113996141e-01
1	 1.567063185584193e+00	 9.353811910152019e-01	-1.196692983237187e+00
1	 1.547636450587117e+00	 9.671847894377464e-01	-1.521684319073904e+00
1	 1.527516807999014e+00	 9.986577999350574e-01	-1.868732819070267e+00
1	 1.708486003228792e+00	 6.763740288538224e-01	 6.398106725681413e-01
1	 1.694689386078318e+00	 7.102352672555683e-01	 4.725960515690364e-01
1	 1.680163554854331e+00	 7.439466910210980e-01	 2.882171224902863e-01
1	 1.664909155688782e+00	 7.774855326279917e-01	 8.585921847652644e-02
1	 1.648927756894240e+00	 8.108288985256076e-01	-1.352579042239024e-01
1	 1.632221862577370e+00	 8.439538147679603e-01	-3.758758660909113e-01
1	 1.614794923595626e+00	 8.768372738776048e-01	-6.366935369598239e-01
1	 1.596651345744023e+00	 9.094562827631659e-01	-9.183630109053984e-01
1	 1.577796495072223e+00	 9.417879115021248e-01	-1.221485712991440e+00
1	 1.558236700246622e+00	 9.738093427905699e-01	-1.546608667347539e+00
1	 1.537979251887649e+00	 1.005497921852934e+00	-1.894220955583125e+00
1	 1.720108356989195e+00	 6.809752127240108e-01	 6.084643008360688e-01
1	 1.706217885300071e+00	 7.150667996861424e-01	 4.427881474820347e-01
1	 1.691593238897530e+00	 7.490075528649108e-01	 2.598699470260455e-01
1	 1.676235068308979e+00	 7.827745498567924e-01	 5.885060945501897e-02
1	 1.660144952515781e+00	 8.163447413727047e-01	-1.610947145134399e-01
1	 1.643325412659340e+00	 8.496949971813165e-01	-4.007522479471332e-01
1	 1.625779923072334e+00	 8.828021532917318e-01	-6.608652703568939e-01
1	 1.607512919521170e+00	 9.156430601969879e-01	-9.421298990946572e-01
1	 1.588529804559253e+00	 9.481946319886988e-01	-1.245191000302211e+00
1	 1.568836949905128e+00	 9.804338961431981e-01	-1.570638260127688e+00
1	 1.548441695775283e+00	 1.012338043770800e+00	-1.919002446518862e+00
1	 1.731730710748600e+00	 6.855763965937093e-01	 5.798080901786711e-01
1	 1.717746384520824e+00	 7.198983321161414e-01	 4.154599565370147e-01
1	 1.703022922939729e+00	 7.540684147080918e-01	 2.337933440657699e-01
1	 1.687560980928176e+00	 7.880635670849330e-01	 3.390513694692843e-02
1	 1.671362148136322e+00	 8.218605842191440e-01	-1.850737195665725e-01
1	 1.654428962740312e+00	 8.554361795940472e-01	-4.239736496880832e-01
1	 1.636764922548042e+00	 8.887670327052954e-01	-6.835819411619879e-01
1	 1.618374493297319e+00	 9.218298376303385e-01	-9.646383345843903e-01
1	 1.599263114045282e+00	 9.546013524749239e-01	-1.267830739983733e+00
1	 1.579437199562634e+00	 9.870584494956315e-01	-1.593791112625562e+00
1	 1.558904139661917e+00	 1.019178165688655e+00	-1.943091519640737e+00
1	 1.743353064507004e+00	 6.901775804629183e-01	 5.537882373746967e-01
1	 1.729274883740578e+00	 7.247298645455649e-01	 3.905618844713860e-01
1	 1.714452606980928e+00	 7.591292765506406e-01	 2.099419021596312e-01
1	 1.698886893546374e+00	 7.933525843124138e-01	 1.098153822221459e-02
1	 1.682579343755863e+00	 8.273764270649256e-01	-2.072320754878118e-01
1	 1.665532512820283e+00	 8.611773620061519e-01	-4.455731709158989e-01
1	 1.647749922022751e+00	 8.947319121182951e-01	-7.048726506268084e-01
1	 1.629236067072467e+00	 9.280166150632179e-01	-9.859134864284846e-01
1	 1.609996423530313e+00	 9.610080729608007e-01	-1.289426242988505e+00
1	 1.590037449219140e+00	 9.936830028478698e-01	-1.616084759646746e+00
1	 1.569366583547552e+00	 1.026018287606500e+00	-1.966502023305018e+00
1	 1.464742144646208e+00	 9.576170684275745e-01	-1.700116468186154e+00
1	 1.444792760779105e+00	 9.874582919979614e-01	-2.265951644892899e+00
1	 1.424195563096069e+00	 1.016940016954224e+00	-2.834325197184217e+00
1	 1.402960210228699e+00	 1.046041418172352e+00	-3.404140181217497e+00
1	 1.381097244858090e+00	 1.074742015674165e+00	-3.974290347113408e+00
1	 1.358618078255741e+00	 1.103021721200889e+00	-4.543664032565517e+00
1	 1.335534971896006e+00	 1.130860883947535e+00	-5.111148117981450e+00
1	 1.311861016194242e+00	 1.158240335244118e+00	-5.675632018787693e+00
1	 1.287610106442683e+00	 1.185141431973866e+00	-6.236011689968676e+00
1	 1.262796916033438e+00	 1.211546098524362e+00	-6.791193617595061e+00
1	 1.237436867075000e+00	 1.237436867075000e+00	-7.340098772024457e+00
1	 1.475204588540842e+00	 9.644571903455147e-01	-1.730166227422392e+00
1	 1.455112709074938e+00	 9.945115655117275e-01	-2.289265351246165e+00
1	 1.434368388551411e+00	 1.024203874216805e+00	-2.849583475708497e+00
1	 1.412981354592089e+00	 1.053513142585853e+00	-3.409947947273334e+00
1	 1.390962225182928e+00	 1.082418744355134e+00	-3.969181437513528e+00
1	 1.368322493104510e+00	 1.110900447778312e+00	-4.526106203705051e+00
1	 1.345074507413148e+00	 1.138938461687509e+00	-5.079548388415393e+00
1	 1.321231452027168e+00	 1.166513480493667e+00	-5.628342331095100e+00
1	 1.296807321490887e+00	 1.193606727914892e+00	-6.171334864300864e+00
1	 1.271816894006361e+00	 1.220199999227256e+00	-6.707389567067704e+00
1	 1.246275701840000e+00	 1.246275701840000e+00	-7.235390948109703e+00
1	 1.485667032434476e+00	 9.712973122634445e-01	-1.759415234611011e+00
1	 1.465432657369780e+00	 1.001564839025664e+00	-2.311382285999871e+00
1	 1.444541214005794e+00	 1.031467731479696e+00	-2.863267294864126e+00
1	 1.423002498954569e+00	 1.060984866999766e+00	-3.413822719078244e+00
1	 1.400827205506926e+00	 1.090095473036578e+00	-3.961800930254711e+00
1	 1.378026907952530e+00	 1.118779174356233e+00	-4.505958838149128e+00
1	 1.354614042929651e+00	 1.147016039427960e+00	-5.045062531709328e+00
1	 1.330601887859582e+00	 1.174786625743633e+00	-5.577891907175459e+00
1	 1.306004536538730e+00	 1.202072023856238e+00	-6.103245253436482e+00
1	 1.280836871979093e+00	 1.228853899930329e+00	-6.619943764941227e+00
1	 1.255114536605000e+00	 1.255114536605000e+00	-7.126835952855624e+00
1	 1.496129476327111e+00	 9.781374341813636e-01	-1.787880288745835e+00
1	 1.475752605663633e+00	 1.008618112539770e+00	-2.332327556250796e+00
1	 1.454714039459216e+00	 1.038731588742899e+00	-2.875409685267958e+00
1	 1.433023643316138e+00	 1.068456591414092e+00	-3.415805048960329e+00
1	 1.410692185830083e+00	 1.097772201718495e+00	-3.952196481233435e+00
1	 1.387731322799798e+00	 1.126657900934648e+00	-4.483276261844317e+00
1	 1.364153578445512e+00	 1.155093617168889e+00	-5.007751095987185e+00
1	 1.339972323691486e+00	 1.183059770994018e+00	-5.524347056182658e+00
1	 1.315201751586213e+00	 1.210537319797904e+00	-6.031814454270077e+00
1	 1.289856849951636e+00	 1.237507800633582e+00	-6.528932611601030e+00
1	 1.263953371370000e+00	 1.263953371370000e+00	-7.014514496152249e+00
1	 1.506591920218745e+00	 9.849775560992717e-01	-1.815577722182041e+00
1	 1.486072553956495e+00	 1.015671386054045e+00	-2.352125571676370e+00
1	 1.464886864911678e+00	 1.045995446006413e+00	-2.886042760019726e+00
1	 1.443044787676797e+00	 1.075928315828831e+00	-3.415934362794129e+00
1	 1.420557166152399e+00	 1.105448930400887e+00	-3.940414422571320e+00
1	 1.397435737646315e+00	 1.134536627513560e+00	-4.458111291683004e+00
1	 1.373693113960733e+00	 1.163171194910295e+00	-4.967672947480549e+00
1	 1.349342759522880e+00	 1.191332916244822e+00	-5.467772245349566e+00
1	 1.324398966633336e+00	 1.219002615739889e+00	-5.957112074893418e+00
1	 1.298876827923988e+00	 1.246161701337016e+00	-6.434430385199298e+00
1	 1.272792206135000e+00	 1.272792206135000e+00	-6.898505045948055e+00
1	 1.517054364109380e+00	 9.918176780171698e-01	-1.842523416727033e+00
1	 1.496392502248367e+00	 1.022724659568490e+00	-2.370800068583662e+00
1	 1.475059690363180e+00	 1.053259303270238e+00	-2.895197746340590e+00
1	 1.453065932036545e+00	 1.083400040243982e+00	-3.414248998843903e+00
1	 1.430422146473876e+00	 1.113125659083753e+00	-3.926499808262423e+00
1	 1.407140152492082e+00	 1.142415354092968e+00	-4.430515287539927e+00
1	 1.383232649475314e+00	 1.171248772652179e+00	-4.924885328524884e+00
1	 1.358713195353763e+00	 1.199606061496045e+00	-5.408230163502568e+00
1	 1.333596181680099e+00	 1.227467911682194e+00	-5.879205803174972e+00
1	 1.307896805896150e+00	 1.254815602040628e+00	-6.336509314835807e+00
1	 1.281631040900000e+00	 1.281631040900000e+00	-6.778883905558271e+00
1	 1.527516807999014e+00	 9.986577999350574e-01	-1.868732819070267e+00
1	 1.506712450539249e+00	 1.029777933083105e+00	-2.388374132969965e+00
1	 1.485232515813721e+00	 1.060523160534374e+00	-2.902905015911398e+00
1	 1.463087076395382e+00	 1.090871764659546e+00	-3.410786245010439e+00
1	 1.440287126794510e+00	 1.120802387767094e+00	-3.910496457944876e+00
1	 1.416844567337098e+00	 1.150294080672872e+00	-4.400538202169911e+00
1	 1.392772184989253e+00	 1.179326350394540e+00	-4.879443913172528e+00
1	 1.368083631184136e+00	 1.207879206747686e+00	-5.345781781965865e+00
1	 1.342793396726501e+00	 1.235933207624818e+00	-5.798161472520959e+00
1	 1.316916783868122e+00	 1.263469502744421e+00	-6.235239650730561e+00
1	 1.290469875665000e+00	 1.290469875665000e+00	-6.655725287796223e+00
1	 1.537979251887649e+00	 1.005497921852934e+00	-1.894220955583125e+00
1	 1.517032398829141e+00	 1.036831206597890e+00	-2.404870222642182e+00
1	 1.495405341263303e+00	 1.067787017798821e+00	-2.909194113972725e+00
1	 1.473108220753309e+00	 1.098343489075522e+00	-3.405582374557869e+00
1	 1.450152107114305e+00	 1.128479116450908e+00	-3.892446998885571e+00
1	 1.426548982181364e+00	 1.158172807253272e+00	-4.368228629069097e+00
1	 1.402311720502552e+00	 1.187403928137378e+00	-4.831402860535407e+00
1	 1.377454067013998e+00	 1.216152351999745e+00	-5.280486412979946e+00
1	 1.351990611772543e+00	 1.244398503567761e+00	-5.714043124952277e+00
1	 1.325936761839904e+00	 1.272123403448393e+00	-6.130689731532888e+00
1	 1.299308710430000e+00	 1.299308710430000e+00	-6.529101386078700e+00
1	 1.548441695775283e+00	 1.012338043770800e+00	-1.919002446518862e+00
1	 1.527352347118043e+00	 1.043884480112846e+00	-2.420310188439508e+00
1	 1.505578166711924e+00	 1.075050875063579e+00	-2.914093787245178e+00
1	 1.483129365110326e+00	 1.105815213491911e+00	-3.398672680391783e+00
1	 1.460017087433259e+00	 1.136155845135198e+00	-3.872392906263234e+00
1	 1.436253397024878e+00	 1.166051533834168e+00	-4.333633848395919e+00
1	 1.411851256015211e+00	 1.195481505880694e+00	-4.780814865965780e+00
1	 1.386824502843350e+00	 1.224425497252223e+00	-5.212401765751720e+00
1	 1.361187826818225e+00	 1.252863799511024e+00	-5.626913071624317e+00
1	 1.334956739811496e+00	 1.280777304152546e+00	-6.022926048901483e+00
1	 1.308147545195000e+00	 1.308147545195000e+00	-6.399082442648981e+00
1	 1.558904139661917e+00	 1.019178165688655e+00	-1.943091519640737e+00
1	 1.537672295405955e+00	 1.050937753627970e+00	-2.434715294601439e+00
1	 1.515750992159585e+00	 1.082314732328648e+00	-2.917632010725307e+00
1	 1.493150509466432e+00	 1.113286937908712e+00	-3.390091507957249e+00
1	 1.469882067751373e+00	 1.143832573819961e+00	-3.850374541828903e+00
1	 1.445957811867642e+00	 1.173930260415559e+00	-4.296799871042739e+00
1	 1.421390791527228e+00	 1.203559083624488e+00	-4.727731210175470e+00
1	 1.396194938672191e+00	 1.232698642505121e+00	-5.141584000247540e+00
1	 1.370385041863546e+00	 1.261329095454607e+00	-5.536831950909681e+00
1	 1.343976717782898e+00	 1.289431204856878e+00	-5.912013309483942e+00
1	 1.316986379960000e+00	 1.316986379960000e+00	-6.265736814052377e+00
1	 1.569366583547552e+00	 1.026018287606500e+00	-1.966502023305018e+00
1	 1.547992243692877e+00	 1.057991027143265e+00	-2.448106238321099e+00
1	 1.525923817606285e+00	 1.089578589594028e+00	-2.919836013409758e+00
1	 1.503171653821628e+00	 1.120758662325927e+00	-3.379872286820802e+00
1	 1.479747048068645e+00	 1.151509302505199e+00	-3.826431191020267e+00
1	 1.455662226709656e+00	 1.181808986997448e+00	-4.257771480944808e+00
1	 1.430930327038606e+00	 1.211636661368759e+00	-4.672201806390589e+00
1	 1.405565374500522e+00	 1.240971787758436e+00	-5.068087778834608e+00
1	 1.379582256908508e+00	 1.269794391398509e+00	-5.443858784157568e+00
1	 1.352996695754110e+00	 1.298085105561391e+00	-5.798014494417175e+00
1	 1.325825214725000e+00	 1.325825214725000e+00	-6.129131033992849e+00
1	 1.237436867075000e+00	 1.237436867075000e+00	-7.340098772024457e+00
1	 1.211546098524362e+00	 1.262796916033438e+00	-7.789842275287355e+00
1	 1.185141431973866e+00	 1.287610106442683e+00	-8.224852376626295e+00
1	 1.158240335244119e+00	 1.311861016194243e+00	-8.643973418352969e+00
1	 1.130860883947535e+00	 1.335534971896005e+00	-9.046111586806923e+00
1	 1.103021721200889e+00	 1.358618078255741e+00	-9.430238797818948e+00
1	 1.074742015674166e+00	 1.381097244858090e+00	-9.795396218380906e+00
1	 1.046041418172353e+00	 1.402960210228699e+00	-1.014069740433790e+01
1	 1.016940016954224e+00	 1.424195563096068e+00	-1.046533103724867e+01
1	 9.874582919979624e-01	 1.444792760779105e+00	-1.076856324702537e+01
1	 9.576170684275745e-01	 1.464742144646208e+00	-1.104973951051572e+01
1	 1.246275701840000e+00	 1.246275701840000e+00	-7.235390948109703e+00
1	 1.220199999227256e+00	 1.271816894006361e+00	-7.663278246771000e+00
1	 1.193606727914892e+00	 1.296807321490887e+00	-8.078346334934771e+00
1	 1.166513480493667e+00	 1.321231452027167e+00	-8.479545796065901e+00
1	 1.138938461687509e+00	 1.345074507413148e+00	-8.865881212187897e+00
1	 1.110900447778313e+00	 1.368322493104510e+00	-9.236414680804929e+00
1	 1.082418744355135e+00	 1.390962225182927e+00	-9.590269013237444e+00
1	 1.053513142585854e+00	 1.412981354592089e+00	-9.926630596030567e+00
1	 1.024203874216806e+00	 1.434368388551411e+00	-1.024475190002019e+01
1	 9.945115655117286e-01	 1.455112709074937e+00	-1.054395362468865e+01
1	 9.644571903455147e-01	 1.475204588540842e+00	-1.082362646857604e+01
1	 1.255114536605000e+00	 1.255114536605000e+00	-7.126835952855624e+00
1	 1.228853899930329e+00	 1.280836871979093e+00	-7.533449983920825e+00
1	 1.202072023856238e+00	 1.306004536538730e+00	-7.929131024154554e+00
1	 1.174786625743633e+00	 1.330601887859582e+00	-8.312934855286043e+00
1	 1.147016039427960e+00	 1.354614042929651e+00	-8.683963488733431e+00
1	 1.118779174356233e+00	 1.378026907952529e+00	-9.041368317188615e+00
1	 1.090095473036578e+00	 1.400827205506926e+00	-9.384352992425299e+00
1	 1.060984866999767e+00	 1.423002498954568e+00	-9.712176012818032e+00
1	 1.031467731479697e+00	 1.444541214005793e+00	-1.002415300658233e+01
1	 1.001564839025664e+00	 1.465432657369779e+00	-1.031965869938325e+01
1	 9.712973122634446e-01	 1.485667032434477e+00	-1.059812855767409e+01
1	 1.263953371370000e+00	 1.263953371370000e+00	-7.014514496152249e+00
1	 1.237507800633582e+00	 1.289856849951636e+00	-7.400425967178204e+00
1	 1.210537319797904e+00	 1.315201751586213e+00	-7.777263282098703e+00
1	 1.183059770994018e+00	 1.339972323691486e+00	-8.144186399897201e+00
1	 1.155093617168889e+00	 1.364153578445512e+00	-8.500393815368936e+00
1	 1.126657900934648e+00	 1.387731322799797e+00	-8.845125348505533e+00
1	 1.097772201718496e+00	 1.410692185830083e+00	-9.177664704523238e+00
1	 1.068456591414093e+00	 1.433023643316137e+00	-9.497341789836144e+00
1	 1.038731588742900e+00	 1.454714039459216e+00	-9.803534771398899e+00
1	 1.008618112539770e+00	 1.475752605663632e+00	-1.009567186907143e+01
1	 9.781374341813637e-01	 1.496129476327111e+00	-1.037323287296059e+01
1	 1.272792206135000e+00	 1.272792206135000e+00	-6.898505045948055e+00
1	 1.246161701337015e+00	 1.298876827923988e+00	-7.264272774749854e+00
1	 1.219002615739890e+00	 1.324398966633336e+00	-7.622798367751951e+00
1	 1.191332916244822e+00	 1.349342759522880e+00	-7.973344961452942e+00
1	 1.163171194910296e+00	 1.373693113960733e+00	-8.315206607716357e+00
1	 1.134536627513560e+00	 1.397435737646315e+00	-8.647710704026244e+00
1	 1.105448930400887e+00	 1.420557166152399e+00	-8.970220238426943e+00
1	 1.075928315828831e+00	 1.443044787676796e+00	-9.282135836244736e+00
1	 1.045995446006414e+00	 1.464886864911678e+00	-9.582897597420713e+00
1	 1.015671386054046e+00	 1.486072553956495e+00	-9.871986715105129e+00
1	 9.849775560992720e-01	 1.506591920218745e+00	-1.014892686805434e+01
1	 1.281631040900000e+00	 1.281631040900000e+00	-6.778883905558271e+00
1	 1.254815602040628e+00	 1.307896805896150e+00	-7.125055148202305e+00
1	 1.227467911682194e+00	 1.333596181680099e+00	-7.465790015713270e+00
1	 1.199606061496045e+00	 1.358713195353763e+00	-7.800453843050247e+00
1	 1.171248772652179e+00	 1.383232649475313e+00	-8.128435332000979e+00
1	 1.142415354092968e+00	 1.407140152492081e+00	-8.449148625317392e+00
1	 1.113125659083754e+00	 1.430422146473875e+00	-8.762035239200731e+00
1	 1.083400040243983e+00	 1.453065932036545e+00	-9.066565843019829e+00
1	 1.053259303270239e+00	 1.475059690363180e+00	-9.362241876482775e+00
1	 1.022724659568491e+00	 1.496392502248366e+00	-9.648596995902585e+00
1	 9.918176780171699e-01	 1.517054364109380e+00	-9.925198342681030e+00
1	 1.290469875665000e+00	 1.290469875665000e+00	-6.655725287796223e+00
1	 1.263469502744421e+00	 1.316916783868122e+00	-6.982836055360302e+00
1	 1.235933207624818e+00	 1.342793396726501e+00	-7.306290488400722e+00
1	 1.207879206747686e+00	 1.368083631184136e+00	-7.625555161399706e+00
1	 1.179326350394540e+00	 1.392772184989253e+00	-7.940112537565401e+00
1	 1.150294080672872e+00	 1.416844567337098e+00	-8.249462689793038e+00
1	 1.120802387767094e+00	 1.440287126794510e+00	-8.553124923276895e+00
1	 1.090871764659547e+00	 1.463087076395382e+00	-8.850639290425880e+00
1	 1.060523160534375e+00	 1.485232515813721e+00	-9.141567989684843e+00
1	 1.029777933083107e+00	 1.506712450539249e+00	-9.425496640884152e+00
1	 9.986577999350573e-01	 1.527516807999014e+00	-9.702035430820608e+00
1	 1.299308710430000e+00	 1.299308710430000e+00	-6.529101386078700e+00
1	 1.272123403448393e+00	 1.325936761839904e+00	-6.837676750638296e+00
1	 1.244398503567761e+00	 1.351990611772543e+00	-7.144350626125609e+00
1	 1.216152351999746e+00	 1.377454067013998e+00	-7.448689887178960e+00
1	 1.187403928137379e+00	 1.402311720502552e+00	-7.750269888055582e+00
1	 1.158172807253272e+00	 1.426548982181363e+00	-8.048675833304923e+00
1	 1.128479116450909e+00	 1.450152107114305e+00	-8.343504093035165e+00
1	 1.098343489075523e+00	 1.473108220753309e+00	-8.634363455182708e+00
1	 1.067787017798822e+00	 1.495405341263302e+00	-8.920876307756611e+00
1	 1.036831206597892e+00	 1.517032398829141e+00	-9.202679744656217e+00
1	 1.005497921852934e+00	 1.537979251887649e+00	-9.479426589337772e+00
1	 1.308147545195000e+00	 1.308147545195000e+00	-6.399082442648981e+00
1	 1.280777304152546e+00	 1.334956739811497e+00	-6.689636832925962e+00
1	 1.252863799511024e+00	 1.361187826818225e+00	-6.980019895136802e+00
1	 1.224425497252224e+00	 1.386824502843349e+00	-7.269897883750036e+00
1	 1.195481505880695e+00	 1.411851256015210e+00	-7.558938191343437e+00
1	 1.166051533834168e+00	 1.436253397024877e+00	-7.846810371816944e+00
1	 1.136155845135198e+00	 1.460017087433259e+00	-8.133187150791006e+00
1	 1.105815213491912e+00	 1.483129365110326e+00	-8.417745417342033e+00
1	 1.075050875063580e+00	 1.505578166711923e+00	-8.700167191408115e+00
1	 1.043884480112846e+00	 1.527352347118043e+00	-8.980140561430130e+00
1	 1.012338043770800e+00	 1.548441695775283e+00	-9.257360587073913e+00
1	 1.316986379960000e+00	 1.316986379960000e+00	-6.265736814052377e+00
1	 1.289431204856878e+00	 1.343976717782898e+00	-6.538774301142619e+00
1	 1.261329095454607e+00	 1.370385041863546e+00	-6.813346433730006e+00
1	 1.232698642505121e+00	 1.396194938672191e+00	-7.089217944317455e+00
1	 1.203559083624488e+00	 1.421390791527228e+00	-7.366147428243700e+00
1	 1.173930260415560e+00	 1.445957811867642e+00	-7.643888022206713e+00
1	 1.143832573819962e+00	 1.469882067751372e+00	-7.922188112220528e+00
1	 1.113286937908713e+00	 1.493150509466432e+00	-8.200792066887052e+00
1	 1.082314732328649e+00	 1.515750992159584e+00	-8.479440991665831e+00
1	 1.050937753627971e+00	 1.537672295405955e+00	-8.757873499666799e+00
1	 1.019178165688655e+00	 1.558904139661917e+00	-9.035826494377929e+00
1	 1.325825214725000e+00	 1.325825214725000e+00	-6.129131033992849e+00
1	 1.298085105561391e+00	 1.352996695754110e+00	-6.385145607569703e+00
1	 1.269794391398509e+00	 1.379582256908508e+00	-6.644377096513097e+00
1	 1.240971787758436e+00	 1.405565374500522e+00	-6.906687827600343e+00
1	 1.211636661368759e+00	 1.430930327038606e+00	-7.171926780082804e+00
1	 1.181808986997448e+00	 1.455662226709656e+00	-7.439929922235025e+00
1	 1.151509302505200e+00	 1.479747048068645e+00	-7.710520619248387e+00
1	 1.120758662325928e+00	 1.503171653821628e+00	-7.983510110068105e+00
1	 1.089578589594029e+00	 1.525923817606285e+00	-8.258698050195546e+00
1	 1.057991027143266e+00	 1.547992243692877e+00	-8.535873116934788e+00
1	 1.026018287606500e+00	 1.569366583547552e+00	-8.814813673056211e+00
1	 9.576170684275745e-01	 1.464742144646208e+00	-1.104973951051572e+01
1	 9.274374693167079e-01	 1.484034952609081e+00	-1.129839575407294e+01
1	 8.969408680863412e-01	 1.502663328635016e+00	-1.155142501894105e+01
1	 8.661488407132029e-01	 1.520620329275986e+00	-1.180883227489861e+01
1	 8.350831179629206e-01	 1.537899927230666e+00	-1.207059495898894e+01
1	 8.037655378569366e-01	 1.554497011975572e+00	-1.233666330619969e+01
1	 7.722179985775102e-01	 1.570407387515452e+00	-1.260696082976017e+01
1	 7.404624120079161e-01	 1.585627767319404e+00	-1.288138494467892e+01
1	 7.085206580967063e-01	 1.600155766523939e+00	-1.315980772709783e+01
1	 6.764145402254393e-01	 1.613989891498045e+00	-1.344207680109586e+01
1	 6.441657417487923e-01	 1.627129526877964e+00	-1.372801634375040e+01
1	 9.644571903455147e-01	 1.475204588540842e+00	-1.082362646857604e+01
1	 9.340620226707020e-01	 1.494635202274587e+00	-1.107558405246610e+01
1	 9.033475885753567e-01	 1.513396638129045e+00	-1.133109301433210e+01
1	 8.723356181503269e-01	 1.531481903060134e+00	-1.159013208379996e+01
1	 8.410479973809958e-01	 1.548884926714374e+00	-1.185265623871151e+01
1	 8.095067202746751e-01	 1.565600562064542e+00	-1.211859706009686e+01
1	 7.777338414292119e-01	 1.581624583143993e+00	-1.238786321632069e+01
1	 7.457514292413349e-01	 1.596953679946601e+00	-1.266034107048904e+01
1	 7.135815199449446e-01	 1.611585450574138e+00	-1.293589540430628e+01
1	 6.812460726600413e-01	 1.625518390726798e+00	-1.321437025076826e+01
1	 6.487669256224087e-01	 1.638751880645368e+00	-1.349558982737878e+01
1	 9.712973122634446e-01	 1.485667032434477e+00	-1.059812855767409e+01
1	 9.406865760245010e-01	 1.505235451939093e+00	-1.085319295013950e+01
1	 9.097543090640229e-01	 1.524129947622075e+00	-1.111100113246973e+01
1	 8.785223955869794e-01	 1.542343476843282e+00	-1.137150583093830e+01
1	 8.470128767985073e-01	 1.559869926197083e+00	-1.163463976230862e+01
1	 8.152479026917877e-01	 1.576704112152514e+00	-1.190031601299873e+01
1	 7.832496842802557e-01	 1.592841778771534e+00	-1.216842852715967e+01
1	 7.510404464740938e-01	 1.608279592572798e+00	-1.243885269821428e+01
1	 7.186423817925509e-01	 1.623015134623336e+00	-1.271144605765243e+01
1	 6.860776050940676e-01	 1.637046889954551e+00	-1.298604905421554e+01
1	 6.533681094955354e-01	 1.650374234411771e+00	-1.326248591602794e+01
1	 9.781374341813637e-01	 1.496129476327111e+00	-1.037323287296059e+01
1	 9.473111293781052e-01	 1.515835701602599e+00	-1.063121362332981e+01
1	 9.161610295523410e-01	 1.534863257114104e+00	-1.089114433581171e+01
1	 8.847091730231601e-01	 1.553205050625430e+00	-1.115295196515994e+01
1	 8.529777562154551e-01	 1.570854925678792e+00	-1.141654716102619e+01
1	 8.209890851082741e-01	 1.587807662239485e+00	-1.168182467121857e+01
1	 7.887655271306419e-01	 1.604058974398075e+00	-1.194866383379458e+01
1	 7.563294637061935e-01	 1.619605505197995e+00	-1.221692915298826e+01
1	 7.237032436395248e-01	 1.634444818671535e+00	-1.248647095337046e+01
1	 6.909091375275186e-01	 1.648575389181304e+00	-1.275712610611336e+01
1	 6.579692933681720e-01	 1.661996588177175e+00	-1.302871882078096e+01
1	 9.849775560992720e-01	 1.506591920218745e+00	-1.014892686805434e+01
1	 9.539356827315137e-01	 1.526435951265105e+00	-1.040963749337832e+01
1	 9.225677500403102e-01	 1.545596566605134e+00	-1.067151772674762e+01
1	 8.908959504588690e-01	 1.564066624406578e+00	-1.093446897839895e+01
1	 8.589426356318386e-01	 1.581839925159500e+00	-1.119838002079754e+01
1	 8.267302675241348e-01	 1.598911212325456e+00	-1.146312741589418e+01
1	 7.942813699803704e-01	 1.615276170023616e+00	-1.172857601131191e+01
1	 7.616184809376328e-01	 1.630931417822191e+00	-1.199457950091337e+01
1	 7.287641054858667e-01	 1.645874502718734e+00	-1.226098104474360e+01
1	 6.957406699603945e-01	 1.660103888407058e+00	-1.252761394295178e+01
1	 6.625704772403191e-01	 1.673618941941579e+00	-1.279430235796880e+01
1	 9.918176780171699e-01	 1.517054364109380e+00	-9.925198342681030e+00
1	 9.605602360847276e-01	 1.537036200926611e+00	-1.018845621827885e+01
1	 9.289744705279306e-01	 1.556329876095164e+00	-1.045211654277361e+01
1	 8.970827278941061e-01	 1.574928198186726e+00	-1.071605540419103e+01
1	 8.649075150476579e-01	 1.592824924639208e+00	-1.098013988380620e+01
1	 8.324714499393694e-01	 1.610014762410427e+00	-1.124422850730448e+01
1	 7.997972128294406e-01	 1.626493365648157e+00	-1.150817174514055e+01
1	 7.669074981684126e-01	 1.642257330445388e+00	-1.177181255799240e+01
1	 7.338249673315762e-01	 1.657304186764933e+00	-1.203498698289555e+01
1	 7.005722023926947e-01	 1.671632387631810e+00	-1.229752475538664e+01
1	 6.671716611119766e-01	 1.685241295704983e+00	-1.255924996278203e+01
1	 9.986577999350573e-01	 1.527516807999014e+00	-9.702035430820608e+00
1	 9.671847894377462e-01	 1.547636450587116e+00	-9.967661684573461e+00
1	 9.353811910152018e-01	 1.567063185584193e+00	-1.023293615186525e+01
1	 9.032695053288720e-01	 1.585789771965874e+00	-1.049770981624912e+01
1	 8.708723944629133e-01	 1.603809924117917e+00	-1.076182824998416e+01
1	 8.382126323539778e-01	 1.621118312494398e+00	-1.102513208900834e+01
1	 8.053130556778535e-01	 1.637710561271698e+00	-1.128745753754696e+01
1	 7.721965153985323e-01	 1.653583243067585e+00	-1.154863689869392e+01
1	 7.388858291766537e-01	 1.668733870810132e+00	-1.180849912713830e+01
1	 7.054037348244198e-01	 1.683160886855564e+00	-1.206687040008333e+01
1	 6.717728449831446e-01	 1.696863649467388e+00	-1.232357470232390e+01
1	 1.005497921852934e+00	 1.537979251887649e+00	-9.479426589337772e+00
1	 9.738093427905699e-01	 1.558236700246622e+00	-9.747245999578368e+00
1	 9.417879115021248e-01	 1.577796495072223e+00	-1.001397204803975e+01
1	 9.094562827631661e-01	 1.596651345744022e+00	-1.027943082709670e+01
1	 8.768372738776050e-01	 1.614794923595625e+00	-1.054344657844884e+01
1	 8.439538147679604e-01	 1.632221862577369e+00	-1.080584219181490e+01
1	 8.108288985256082e-01	 1.648927756894240e+00	-1.106643971386521e+01
1	 7.774855326279926e-01	 1.664909155688782e+00	-1.132506086416755e+01
1	 7.439466910210989e-01	 1.680163554854331e+00	-1.158152755489800e+01
1	 7.102352672555692e-01	 1.694689386078317e+00	-1.183566241107680e+01
1	 6.763740288538225e-01	 1.708486003228792e+00	-1.208728928813026e+01
1	 1.012338043770800e+00	 1.548441695775283e+00	-9.257360587073913e+00
1	 9.804338961431978e-01	 1.568836949905128e+00	-9.527201483925776e+00
1	 9.481946319886988e-01	 1.588529804559253e+00	-9.795219847097439e+00
1	 9.156430601969882e-01	 1.607512919521170e+00	-1.006121708675657e+01
1	 8.828021532917325e-01	 1.625779923072334e+00	-1.032499628888213e+01
1	 8.496949971813170e-01	 1.643325412659341e+00	-1.058636273759226e+01
1	 8.163447413727055e-01	 1.660144952515780e+00	-1.084512442847439e+01
1	 7.827745498567932e-01	 1.676235068308980e+00	-1.110109257012656e+01
1	 7.490075528649117e-01	 1.691593238897529e+00	-1.135408207123766e+01
1	 7.150667996861435e-01	 1.706217885300070e+00	-1.160391201067137e+01
1	 6.809752127240106e-01	 1.720108356989195e+00	-1.185040608818180e+01
1	 1.019178165688655e+00	 1.558904139661917e+00	-9.035826494377929e+00
1	 9.870584494956313e-01	 1.579437199562634e+00	-9.307520664405278e+00
1	 9.546013524749237e-01	 1.599263114045282e+00	-9.576675282535435e+00
1	 9.218298376303387e-01	 1.618374493297318e+00	-9.843067281492422e+00
1	 8.887670327052957e-01	 1.636764922548042e+00	-1.010647876285355e+01
1	 8.554361795940475e-01	 1.654428962740311e+00	-1.036669754292370e+01
1	 8.218605842191447e-01	 1.671362148136321e+00	-1.062351767053529e+01
1	 7.880635670849336e-01	 1.687560980928176e+00	-1.087673991441266e+01
1	 7.540684147080928e-01	 1.703022922939728e+00	-1.112617221799738e+01
1	 7.198983321161423e-01	 1.717746384520824e+00	-1.137163011990131e+01
1	 6.855763965937093e-01	 1.731730710748600e+00	-1.161293713843301e+01
1	 1.026018287606500e+00	 1.569366583547552e+00	-8.814813673056211e+00
1	 9.936830028478698e-01	 1.590037449219140e+00	-9.088196267092059e+00
1	 9.610080729608007e-01	 1.609996423530313e+00	-9.358334201624196e+00
1	 9.280166150632180e-01	 1.629236067072467e+00	-9.624980132601157e+00
1	 8.947319121182953e-01	 1.647749922022751e+00	-9.887895345090953e+00
1	 8.611773620061525e-01	 1.665532512820283e+00	-1.014685032261688e+01
1	 8.273764270649263e-01	 1.682579343755863e+00	-1.040162526949785e+01
1	 7.933525843124147e-01	 1.698886893546373e+00	-1.065201058425833e+01
1	 7.591292765506416e-01	 1.714452606980927e+00	-1.089780728256801e+01
1	 7.247298645455660e-01	 1.729274883740578e+00	-1.113882736857338e+01
1	 6.901775804629183e-01	 1.743353064507004e+00	-1.137489415387948e+01
1	 6.441657417487923e-01	 1.627129526877964e+00	-1.372801634375040e+01
1	 6.117957838646149e-01	 1.639574920191208e+00	-1.401654814775870e+01
1	 5.793259849590476e-01	 1.651327164198396e+00	-1.429711333481100e+01
1	 5.467774215590897e-01	 1.662388177092036e+00	-1.456956708819203e+01
1	 5.141708910118744e-01	 1.672760680698918e+00	-1.483378356919780e+01
1	 4.815268759957917e-01	 1.682448176837619e+00	-1.508965573570266e+01
1	 4.488655109548267e-01	 1.691454921988814e+00	-1.533709508999227e+01
1	 4.162065505333923e-01	 1.699785900439417e+00	-1.557603135996103e+01
1	 3.835693400749210e-01	 1.707446796063892e+00	-1.580641211806263e+01
1	 3.509727882336220e-01	 1.714443962907183e+00	-1.602820234263665e+01
1	 3.184353417352296e-01	 1.720784394733555e+00	-1.624138392641844e+01
1	 6.487669256224087e-01	 1.638751880645368e+00	-1.349558982737878e+01
1	 6.161657537528369e-01	 1.651286169625344e+00	-1.377866708640193e+01
1	 5.834640277117503e-01	 1.663122358232710e+00	-1.405429894716242e+01
1	 5.506829745727695e-01	 1.674262378361350e+00	-1.432235115279369e+01
1	 5.178435402355067e-01	 1.684708971279677e+00	-1.458270656852918e+01
1	 4.849663536831978e-01	 1.694465663819255e+00	-1.483526502120064e+01
1	 4.520716931772849e-01	 1.703536742864199e+00	-1.507994307607555e+01
1	 4.191794544667834e-01	 1.711927228303469e+00	-1.531667375464790e+01
1	 3.863091210761500e-01	 1.719642844610636e+00	-1.554540619724686e+01
1	 3.534797367214098e-01	 1.726689991216679e+00	-1.576610527453501e+01
1	 3.207098798906232e-01	 1.733075711841326e+00	-1.597875115212607e+01
1	 6.533681094955354e-01	 1.650374234411771e+00	-1.326248591602794e+01
1	 6.205357236406640e-01	 1.662997419058485e+00	-1.354020503276271e+01
1	 5.876020704641420e-01	 1.674917552266045e+00	-1.381099391900266e+01
1	 5.545885275862121e-01	 1.686136579629713e+00	-1.407472879710321e+01
1	 5.215161894589658e-01	 1.696657261859521e+00	-1.433130117198604e+01
1	 4.884058313704844e-01	 1.706483150800025e+00	-1.458061769135145e+01
1	 4.552778753996668e-01	 1.715618563738773e+00	-1.482259995123891e+01
1	 4.221523584001318e-01	 1.724068556166777e+00	-1.505718425006675e+01
1	 3.890489020773603e-01	 1.731838893156712e+00	-1.528432129449883e+01
1	 3.559866852091929e-01	 1.738936019525595e+00	-1.550397586066047e+01
1	 3.229844180460166e-01	 1.745367028948611e+00	-1.571612641436329e+01
1	 6.579692933681720e-01	 1.661996588177175e+00	-1.302871882078096e+01
1	 6.249056935280957e-01	 1.674708668490631e+00	-1.330117417548980e+01
1	 5.917401132162232e-01	 1.686712746298402e+00	-1.356720854348883e+01
1	 5.584940805994181e-01	 1.698010780897124e+00	-1.382670854742021e+01
1	 5.251888386822519e-01	 1.708605552438449e+00	-1.407957426899211e+01
1	 4.918453090576513e-01	 1.718500637779927e+00	-1.432571912969383e+01
1	 4.584840576219726e-01	 1.727700384612536e+00	-1.456506972480221e+01
1	 4.251252623334376e-01	 1.736209884029342e+00	-1.479756561333492e+01
1	 3.917886830785516e-01	 1.744034941702122e+00	-1.502315906678194e+01
1	 3.584936336969712e-01	 1.751182047833929e+00	-1.524181477959556e+01
1	 3.252589562014102e-01	 1.757658346055410e+00	-1.545350954453160e+01
1	 6.625704772403191e-01	 1.673618941941579e+00	-1.279430235796880e+01
1	 6.292756634151327e-01	 1.686419917921784e+00	-1.306158636465863e+01
1	 5.958781559679939e-01	 1.698507940329780e+00	-1.332295282785726e+01
1	 5.623996336123873e-01	 1.709884982163583e+00	-1.357829869320244e+01
1	 5.288614879053646e-01	 1.720553843016463e+00	-1.382753255759810e+01
1	 4.952847867446983e-01	 1.730518124758960e+00	-1.407057457022333e+01
1	 4.616902398442022e-01	 1.739782205485489e+00	-1.430735629471524e+01
1	 4.280981662667007e-01	 1.748351211891163e+00	-1.453782053470549e+01
1	 3.945284640797241e-01	 1.756230990246865e+00	-1.476192112503309e+01
1	 3.610005821847450e-01	 1.763428076141683e+00	-1.497962269107334e+01
1	 3.275334943568037e-01	 1.769949663161724e+00	-1.519090037871577e+01
1	 6.671716611119766e-01	 1.685241295704983e+00	-1.255924996278203e+01
1	 6.336456333017748e-01	 1.698131167351941e+00	-1.282145312344600e+01
1	 6.000161987194534e-01	 1.710303134360181e+00	-1.307823650328239e+01
1	 5.663051866251195e-01	 1.721759183429090e+00	-1.332950729523313e+01
1	 5.325341371283041e-01	 1.732502133593562e+00	-1.357518255108100e+01
1	 4.987242644316259e-01	 1.742535611737127e+00	-1.381518910254969e+01
1	 4.648964220663556e-01	 1.751864026357632e+00	-1.404946345139806e+01
1	 4.310710701999212e-01	 1.760492539752242e+00	-1.427795163021751e+01
1	 3.972682450808779e-01	 1.768427038790942e+00	-1.450060903574920e+01
1	 3.635075306725140e-01	 1.775674104448856e+00	-1.471740023662742e+01
1	 3.298080325121973e-01	 1.782240980267553e+00	-1.492829875752238e+01
1	 6.717728449831446e-01	 1.696863649467388e+00	-1.232357470232390e+01
1	 6.380156031880218e-01	 1.709842416781104e+00	-1.258078565932502e+01
1	 6.041542414706024e-01	 1.722098328389602e+00	-1.283306903433125e+01
1	 5.702107396376153e-01	 1.733633384693645e+00	-1.308034219345205e+01
1	 5.362067863510706e-01	 1.744450424169746e+00	-1.332253058427179e+01
1	 5.021637421184337e-01	 1.754553098714425e+00	-1.355956767684124e+01
1	 4.681026042884328e-01	 1.763945847228964e+00	-1.379139488142383e+01
1	 4.340439741330990e-01	 1.772633867612575e+00	-1.401796144423778e+01
1	 4.000080260820126e-01	 1.780623087334350e+00	-1.423922432250983e+01
1	 3.660144791602783e-01	 1.787920132755449e+00	-1.445514804021509e+01
1	 3.320825706675907e-01	 1.794532297372897e+00	-1.466570452592492e+01
1	 6.763740288538225e-01	 1.708486003228792e+00	-1.208728928813026e+01
1	 6.423855730738738e-01	 1.721553666209272e+00	-1.233959487480376e+01
1	 6.082922842214408e-01	 1.733893522418045e+00	-1.258745962803151e+01
1	 5.741162926498737e-01	 1.745507585957248e+00	-1.283081101446731e+01
1	 5.398794355736638e-01	 1.756398714745015e+00	-1.306958281962509e+01
1	 5.056032198051220e-01	 1.766570585690856e+00	-1.330371510856782e+01
1	 4.713087865104338e-01	 1.776027668099485e+00	-1.353315417105058e+01
1	 4.370168780662343e-01	 1.784775195472166e+00	-1.375785245189872e+01
1	 4.027478070831286e-01	 1.792819135877093e+00	-1.397776846743633e+01
1	 3.685214276480380e-01	 1.800166161061461e+00	-1.419286670881517e+01
1	 3.343571088229843e-01	 1.806823614477755e+00	-1.440311753311537e+01
1	 6.809752127240106e-01	 1.720108356989195e+00	-1.185040608818180e+01
1	 6.467555429593308e-01	 1.733264915636446e+00	-1.209789137772777e+01
1	 6.124303269719683e-01	 1.745688716445509e+00	-1.234141724257242e+01
1	 5.780218456618959e-01	 1.757381787219899e+00	-1.258092117876238e+01
1	 5.435520847960841e-01	 1.768347005319369e+00	-1.281634525304285e+01
1	 5.090426974916905e-01	 1.778588072666419e+00	-1.304763608305140e+01
1	 4.745149687323587e-01	 1.788109488969196e+00	-1.327474480961055e+01
1	 4.399897819993270e-01	 1.796916523331014e+00	-1.349762706143706e+01
1	 4.054875880842257e-01	 1.805015184419168e+00	-1.371624291259285e+01
1	 3.710283761357929e-01	 1.812412189366892e+00	-1.393055683300167e+01
1	 3.366316469783779e-01	 1.819114931582128e+00	-1.414053763236154e+01
1	 6.855763965937093e-01	 1.731730710748600e+00	-1.161293713843301e+01
1	 6.511255128443928e-01	 1.744976165062624e+00	-1.185568549116830e+01
1	 6.165683697221850e-01	 1.757483910471994e+00	-1.209495059565474e+01
1	 5.819273986736807e-01	 1.769255988481598e+00	-1.233067990761320e+01
1	 5.472247340183309e-01	 1.780295295892808e+00	-1.256282371946293e+01
1	 5.124821751781393e-01	 1.790605559641113e+00	-1.279133515983361e+01
1	 4.777211509542074e-01	 1.800191309838096e+00	-1.301617019276259e+01
1	 4.429626859323769e-01	 1.809057851189117e+00	-1.323728761643909e+01
1	 4.082273690853040e-01	 1.817211232960577e+00	-1.345464906133036e+01
1	 3.735353246235432e-01	 1.824658217671742e+00	-1.366821898749439e+01
1	 3.389061851337714e-01	 1.831406248686016e+00	-1.387796468087034e+01
1	 6.901775804629183e-01	 1.743353064507004e+00	-1.137489415387948e+01
1	 6.554954827290597e-01	 1.756687414487810e+00	-1.161298726291461e+01
1	 6.207064124720911e-01	 1.769279104497503e+00	-1.184806817250732e+01
1	 5.858329516852290e-01	 1.781130189742346e+00	-1.208009422972835e+01
1	 5.508973832404049e-01	 1.792243586465333e+00	-1.230902389822508e+01
1	 5.159216528644688e-01	 1.802623046614941e+00	-1.253481677686818e+01
1	 4.809273331759799e-01	 1.812273130706186e+00	-1.275743362561460e+01
1	 4.459355898653843e-01	 1.821199179046478e+00	-1.297683639799537e+01
1	 4.109671500863636e-01	 1.829407281501319e+00	-1.319298827957705e+01
1	 3.760422731112888e-01	 1.836904245976013e+00	-1.340585373168700e+01
1	 3.411807232891650e-01	 1.843697565789419e+00	-1.361539853965653e+01
1	 3.184353417352296e-01	 1.720784394733555e+00	-1.624138392641844e+01
1	 2.859749623090795e-01	 1.726475693704463e+00	-1.646367536599892e+01
1	 2.536091058023270e-01	 1.731526038345919e+00	-1.667574737716613e+01
1	 2.213547034732818e-01	 1.735944150962882e+00	-1.687729595016697e+01
1	 1.892281454495708e-01	 1.739739264653876e+00	-1.706805246270373e+01
1	 1.572452663273684e-01	 1.742921090073661e+00	-1.724778326934997e+01
1	 1.254213328766080e-01	 1.745499782086253e+00	-1.741628915634093e+01
1	 9.377103380810400e-02	 1.747485906444048e+00	-1.757340467155268e+01
1	 6.230847155001576e-02	 1.748890406621857e+00	-1.771899733979961e+01
1	 3.104715597342760e-02	 1.749724570927141e+00	-1.785296677378987e+01
1	 0.000000000000000e+00	 1.750000000000000e+00	-1.797524369118948e+01
1	 3.207098798906232e-01	 1.733075711841326e+00	-1.597875115212607e+01
1	 2.880176406112042e-01	 1.738807662947247e+00	-1.619903638533319e+01
1	 2.554205994149419e-01	 1.743894081478562e+00	-1.641055840606536e+01
1	 2.229358084977045e-01	 1.748343752042406e+00	-1.661299291751554e+01
1	 1.905797750594583e-01	 1.752165973688006e+00	-1.680604717148626e+01
1	 1.583684468006353e-01	 1.755370526431943e+00	-1.698945979829487e+01
1	 1.263171995395246e-01	 1.757967637672972e+00	-1.716300050770273e+01
1	 9.444082690630262e-02	 1.759967948633152e+00	-1.732646966895947e+01
1	 6.275353206075759e-02	 1.761382480954967e+00	-1.747969777844057e+01
1	 3.126892137305198e-02	 1.762222603576644e+00	-1.762254482365154e+01
1	 0.000000000000000e+00	 1.762500000000000e+00	-1.775489955256870e+01
1	 3.229844180460166e-01	 1.745367028948611e+00	-1.571612641436329e+01
1	 2.900603189133288e-01	 1.751139632189640e+00	-1.593448134344816e+01
1	 2.572320930275566e-01	 1.756262124610897e+00	-1.614551023877841e+01
1	 2.245169135221270e-01	 1.760743353121696e+00	-1.634886876994395e+01
1	 1.919314046693457e-01	 1.764592682721967e+00	-1.654424035128880e+01
1	 1.594916272739021e-01	 1.767819962790108e+00	-1.673133621015419e+01
1	 1.272130662024412e-01	 1.770435493259618e+00	-1.690989533174721e+01
1	 9.511062000450128e-02	 1.772449990822214e+00	-1.707968428701804e+01
1	 6.319859257149944e-02	 1.773874555288057e+00	-1.724049695038903e+01
1	 3.149068677267637e-02	 1.774720636226143e+00	-1.739215411455264e+01
1	 0.000000000000000e+00	 1.775000000000000e+00	-1.753450300984166e+01
1	 3.252589562014102e-01	 1.757658346055410e+00	-1.545350954453160e+01
1	 2.921029972154534e-01	 1.763471601431642e+00	-1.567000847939028e+01
1	 2.590435866401714e-01	 1.768630167742926e+00	-1.588059992137925e+01
1	 2.260980185465497e-01	 1.773142954200753e+00	-1.608491975461835e+01
1	 1.932830342792332e-01	 1.777019391755757e+00	-1.628262783838362e+01
1	 1.606148077471690e-01	 1.780269399148155e+00	-1.647340831158028e+01
1	 1.281089328653577e-01	 1.782903348846188e+00	-1.665696977939727e+01
1	 9.578041310269989e-02	 1.784932033011234e+00	-1.683304538683363e+01
1	 6.364365308224128e-02	 1.786366629621130e+00	-1.700139278431686e+01
1	 3.171245217230076e-02	 1.787218668875638e+00	-1.716179399108669e+01
1	 0.000000000000000e+00	 1.787500000000000e+00	-1.731405516239523e+01
1	 3.275334943568037e-01	 1.769949663161724e+00	-1.519090037871577e+01
1	 2.941456755175780e-01	 1.775803570673254e+00	-1.540561608112153e+01
1	 2.608550802527862e-01	 1.780998210874648e+00	-1.561582458199521e+01
1	 2.276791235709723e-01	 1.785542555279576e+00	-1.582114222295029e+01
1	 1.946346638891207e-01	 1.789446100789376e+00	-1.602120558470221e+01
1	 1.617379882204359e-01	 1.792718835506084e+00	-1.621567202570708e+01
1	 1.290047995282743e-01	 1.795371204432684e+00	-1.640422010849432e+01
1	 9.645020620089854e-02	 1.797414075200213e+00	-1.658654991670300e+01
1	 6.408871359298313e-02	 1.798858703954184e+00	-1.676238326643278e+01
1	 3.193421757192514e-02	 1.799716701525127e+00	-1.693146381605304e+01
1	 0.000000000000000e+00	 1.800000000000000e+00	-1.709355707907776e+01
1	 3.298080325121973e-01	 1.782240980267553e+00	-1.492829875752238e+01
1	 2.961883538197027e-01	 1.788135539914474e+00	-1.514130248383249e+01
1	 2.626665738654010e-01	 1.793366254006063e+00	-1.535118142797777e+01
1	 2.292602285953949e-01	 1.797942156358166e+00	-1.555753262700202e+01
1	 1.959862934990082e-01	 1.801872809822824e+00	-1.575996965384672e+01
1	 1.628611686937026e-01	 1.805168271863896e+00	-1.595812338813391e+01
1	 1.299006661911908e-01	 1.807839060019105e+00	-1.615164268011190e+01
1	 9.711999929909716e-02	 1.809896117389149e+00	-1.634019490910772e+01
1	 6.453377410372496e-02	 1.811350778287220e+00	-1.652346643849845e+01
1	 3.215598297154953e-02	 1.812214734174612e+00	-1.670116296982900e+01
1	 0.000000000000000e+00	 1.812500000000000e+00	-1.687300979925206e+01
1	 3.320825706675907e-01	 1.794532297372897e+00	-1.466570452592492e+01
1	 2.982310321218273e-01	 1.800467509155304e+00	-1.487706606832500e+01
1	 2.644780674780159e-01	 1.805734297137171e+00	-1.508666774318912e+01
1	 2.308413336198176e-01	 1.810341757436522e+00	-1.529408751603957e+01
1	 1.973379231088956e-01	 1.814299518856103e+00	-1.549891621726609e+01
1	 1.639843491669695e-01	 1.817617708221590e+00	-1.570075854307378e+01
1	 1.307965328541074e-01	 1.820306915605452e+00	-1.589923395502017e+01
1	 9.778979239729581e-02	 1.822378159578045e+00	-1.609397747783130e+01
1	 6.497883461446680e-02	 1.823842852620236e+00	-1.628464039592578e+01
1	 3.237774837117391e-02	 1.824712766824093e+00	-1.647089084976770e+01
1	 0.000000000000000e+00	 1.825000000000000e+00	-1.665241433380530e+01
1	 3.343571088229843e-01	 1.806823614477755e+00	-1.440311753311537e+01
1	 3.002737104239519e-01	 1.812799478395743e+00	-1.461290525946057e+01
1	 2.662895610906306e-01	 1.818102340267972e+00	-1.482228088540028e+01
1	 2.324224386442401e-01	 1.822741358514645e+00	-1.503080353322660e+01
1	 1.986895527187831e-01	 1.826726227889211e+00	-1.523804155058733e+01
1	 1.651075296402364e-01	 1.830067144579166e+00	-1.544357373965909e+01
1	 1.316923995170240e-01	 1.832774771191723e+00	-1.564699049029488e+01
1	 9.845958549549444e-02	 1.834860201766898e+00	-1.584789481519387e+01
1	 6.542389512520864e-02	 1.836334926953235e+00	-1.604590328595238e+01
1	 3.259951377079830e-02	 1.837210799473569e+00	-1.624064686962097e+01
1	 0.000000000000000e+00	 1.837500000000000e+00	-1.643177166611748e+01
1	 3.366316469783779e-01	 1.819114931582128e+00	-1.414053763236154e+01
1	 3.023163887260765e-01	 1.825131447635791e+00	-1.434881852467221e+01
1	 2.681010547032454e-01	 1.830470383398466e+00	-1.455801828379357e+01
1	 2.340035436686628e-01	 1.835140959592535e+00	-1.476767741245192e+01
1	 2.000411823286705e-01	 1.839152936922148e+00	-1.497734203009616e+01
1	 1.662307101135032e-01	 1.842516580936626e+00	-1.518656532839712e+01
1	 1.325882661799405e-01	 1.845242626777920e+00	-1.539490893606366e+01
1	 9.912937859369306e-02	 1.847342243955709e+00	-1.560194418939864e+01
1	 6.586895563595048e-02	 1.848827001286216e+00	-1.580725330589048e+01
1	 3.282127917042268e-02	 1.849708832123040e+00	-1.601043045898522e+01
1	 0.000000000000000e+00	 1.850000000000000e+00	-1.621108275299081e+01
1	 3.389061851337714e-01	 1.831406248686016e+00	-1.387796468087034e+01
1	 3.043590670282013e-01	 1.837463416875449e+00	-1.408480437253555e+01
1	 2.699125483158602e-01	 1.842838426528653e+00	-1.429387743656678e+01
1	 2.355846486930855e-01	 1.847540560670190e+00	-1.450470597528523e+01
1	 2.013928119385580e-01	 1.851579645954916e+00	-1.471681412935935e+01
1	 1.673538905867701e-01	 1.854966017293967e+00	-1.492972975776784e+01
1	 1.334841328428570e-01	 1.857710482364042e+00	-1.514298603238366e+01
1	 9.979917169189172e-02	 1.859824286144479e+00	-1.535612294198570e+01
1	 6.631401614669230e-02	 1.861319075619177e+00	-1.556868870144639e+01
1	 3.304304457004707e-02	 1.862206864772507e+00	-1.578024106276951e+01
1	 0.000000000000000e+00	 1.862500000000000e+00	-1.599034852554150e+01
1	 3.411807232891650e-01	 1.843697565789419e+00	-1.361539853965653e+01
1	 3.064017453303258e-01	 1.849795386114716e+00	-1.382086135139759e+01
1	 2.717240419284751e-01	 1.855206469658534e+00	-1.402985590863225e+01
1	 2.371657537175081e-01	 1.859940161747613e+00	-1.424188612805442e+01
1	 2.027444415484455e-01	 1.864006354987513e+00	-1.445645441598183e+01
1	 1.684770710600370e-01	 1.867415453651191e+00	-1.467306357095871e+01
1	 1.343799995057737e-01	 1.870178337950090e+00	-1.489121860624397e+01
1	 1.004689647900904e-01	 1.872306328333207e+00	-1.511042848538739e+01
1	 6.675907665743416e-02	 1.873811149952121e+00	-1.533020776510787e+01
1	 3.326480996967145e-02	 1.874704897421970e+00	-1.555007814068544e+01
1	 0.000000000000000e+00	 1.875000000000000e+00	-1.576956989005599e+01
1	 1.875000000000000e+00	 0.000000000000000e+00	 2.447788341415320e+00
1	 1.874704897421970e+00	 3.326480996967039e-02	 2.413517419937261e+00
1	 1.873811149952121e+00	 6.675907665743323e-02	 2.370823598712240e+00
1	 1.872306328333207e+00	 1.004689647900895e-01	 2.319559141647179e+00
1	 1.870178337950090e+00	 1.343799995057729e-01	 2.259592156122714e+00
1	 1.867415453651191e+00	 1.684770710600364e-01	 2.190807738374728e+00
1	 1.864006354987513e+00	 2.027444415484450e-01	 2.113109101846153e+00
1	 1.859940161747613e+00	 2.371657537175077e-01	 2.026418680998558e+00
1	 1.855206469658534e+00	 2.717240419284748e-01	 1.930679202773302e+00
1	 1.849795386114716e+00	 3.064017453303257e-01	 1.825854717642337e+00
1	 1.843697565789419e+00	 3.411807232891650e-01	 1.711931581996200e+00
1	 1.887500000000000e+00	 0.000000000000000e+00	 2.346123097397890e+00
1	 1.887202930071432e+00	 3.348657536938452e-02	 2.316409479937251e+00
1	 1.886303224285065e+00	 6.720413716834120e-02	 2.278234178607602e+00
1	 1.884788370521935e+00	 1.011387578885170e-01	 2.231471365511030e+00
1	 1.882646193536138e+00	 1.352758661689670e-01	 2.176012579470013e+00
1	 1.879864890008415e+00	 1.696002515336150e-01	 2.111767862267087e+00
1	 1.876433064020110e+00	 2.040960711586639e-01	 2.038666869839653e+00
1	 1.872339762825035e+00	 2.387468587422663e-01	 1.956659950523270e+00
1	 1.867574512788415e+00	 2.735355355414151e-01	 1.865719182174625e+00
1	 1.862127355353983e+00	 3.084444236327496e-01	 1.765839359800100e+00
1	 1.855988882892821e+00	 3.434552614448158e-01	 1.657038925172841e+00
1	 1.900000000000000e+00	 0.000000000000000e+00	 2.247928077911753e+00
1	 1.899700962720899e+00	 3.370834076927819e-02	 2.222938163175279e+00
1	 1.898795298618027e+00	 6.764919767958150e-02	 2.189452144279277e+00
1	 1.897270412710705e+00	 1.018085509874021e-01	 2.147365934653328e+00
1	 1.895114049122259e+00	 1.361717328327159e-01	 2.096594322879201e+00
1	 1.892314326365756e+00	 1.707234320078171e-01	 2.037072099744577e+00
1	 1.888859773052877e+00	 2.054477007695455e-01	 1.968755152298500e+00
1	 1.884739363902691e+00	 2.403279637676972e-01	 1.891621516608750e+00
1	 1.879942555918602e+00	 2.753470291550062e-01	 1.805672380697137e+00
1	 1.874459324593640e+00	 3.104871019357721e-01	 1.710933028966665e+00
1	 1.868280199996709e+00	 3.457297996009814e-01	 1.607453719342100e+00
1	 1.912500000000000e+00	 0.000000000000000e+00	 2.153135239339246e+00
1	 1.912198995370370e+00	 3.393010616935138e-02	 2.133032163313782e+00
1	 1.911287372951007e+00	 6.809425819115406e-02	 2.104402841104418e+00
1	 1.909752454899517e+00	 1.024783440867449e-01	 2.067164763872607e+00
1	 1.907581904708456e+00	 1.370675994970198e-01	 2.021255791839161e+00
1	 1.904763762723215e+00	 1.718466124826427e-01	 1.966635272109188e+00
1	 1.901286482085814e+00	 2.067993303810899e-01	 1.903285115605266e+00
1	 1.897138964980580e+00	 2.419090687937999e-01	 1.831210824419861e+00
1	 1.892310599049096e+00	 2.771585227692481e-01	 1.750442460710180e+00
1	 1.886791293833689e+00	 3.125297802393932e-01	 1.661035548140881e+00
1	 1.880571517101082e+00	 3.480043377576615e-01	 1.563071896836295e+00
1	 1.925000000000000e+00	 0.000000000000000e+00	 2.061678305429282e+00
1	 1.924697028019846e+00	 3.415187156960411e-02	 2.046622026127745e+00
1	 1.923779447284006e+00	 6.853931870305893e-02	 2.023013553541272e+00
1	 1.922234497088370e+00	 1.031481371865453e-01	 1.990791796154380e+00
1	 1.920049760294728e+00	 1.379634661618787e-01	 1.949917511176690e+00
1	 1.917213199080792e+00	 1.729697929580919e-01	 1.900374413096583e+00
1	 1.913713191118923e+00	 2.081509599932970e-01	 1.842170233509231e+00
1	 1.909538566058704e+00	 2.434901738205749e-01	 1.775337723143151e+00
1	 1.904678642179897e+00	 2.789700163841410e-01	 1.699935586859295e+00
1	 1.899123263074128e+00	 3.145724585436129e-01	 1.616049342321682e+00
1	 1.892862834205940e+00	 3.502788759148565e-01	 1.523792093044147e+00
1	 1.937500000000000e+00	 0.000000000000000e+00	 1.973492710285530e+00
1	 1.937195060669326e+00	 3.437363697003634e-02	 1.963640089759143e+00
1	 1.936271521617023e+00	 6.898437921529610e-02	 1.945213442578056e+00
1	 1.934716539277264e+00	 1.038179302868033e-01	 1.918172937245785e+00
1	 1.932517615881075e+00	 1.388593328272925e-01	 1.882502056690735e+00
1	 1.929662635438486e+00	 1.740929734341646e-01	 1.838208697507284e+00
1	 1.926139900152201e+00	 2.095025896061670e-01	 1.785326212695139e+00
1	 1.921938167137059e+00	 2.450712788480219e-01	 1.723914388437785e+00
1	 1.917046685311006e+00	 2.807815099996848e-01	 1.654060345347572e+00
1	 1.911455232314958e+00	 3.166151368484312e-01	 1.575879354572633e+00
1	 1.905154151311284e+00	 3.525534140725660e-01	 1.489515559215415e+00
1	 1.950000000000000e+00	 0.000000000000000e+00	 1.888515543547361e+00
1	 1.949693093318812e+00	 3.459540237064810e-02	 1.884020427269306e+00
1	 1.948763595950059e+00	 6.942943972786557e-02	 1.870933485587858e+00
1	 1.947198581466201e+00	 1.044877233875190e-01	 1.849235992746502e+00
1	 1.944985471467495e+00	 1.397551994932612e-01	 1.818933989416118e+00
1	 1.942112071796298e+00	 1.752161539108608e-01	 1.780059372582789e+00
1	 1.938566609185650e+00	 2.108542192196997e-01	 1.732670921214776e+00
1	 1.934337768215650e+00	 2.466523838761410e-01	 1.676855247869125e+00
1	 1.929414728442420e+00	 2.825930036158795e-01	 1.612727666321667e+00
1	 1.923787201556179e+00	 3.186578151538481e-01	 1.540432965314676e+00
1	 1.917445468417113e+00	 3.548279522307903e-01	 1.460146078619175e+00
1	 1.962499999999999e+00	 0.000000000000000e+00	 1.806685497665776e+00
1	 1.962191125968301e+00	 3.481716777143939e-02	 1.807698791386709e+00
1	 1.961255670283113e+00	 6.987450024076731e-02	 1.800106418481940e+00
1	 1.959680623655179e+00	 1.051575164886924e-01	 1.783910607603939e+00
1	 1.957453327053991e+00	 1.406510661597848e-01	 1.759139792399452e+00
1	 1.954561508154227e+00	 1.763393343881805e-01	 1.725849692004279e+00
1	 1.950993318219269e+00	 2.122058488338951e-01	 1.684124319653675e+00
1	 1.946737369294472e+00	 2.482334889049322e-01	 1.634076909191964e+00
1	 1.941782771574142e+00	 2.844044972327250e-01	 1.575850749223882e+00
1	 1.936119170797790e+00	 3.207004934598635e-01	 1.509619914703340e+00
1	 1.929736785523427e+00	 3.571024903895291e-01	 1.435589885906302e+00
1	 1.975000000000000e+00	 0.000000000000000e+00	 1.727942817181529e+00
1	 1.974689158617796e+00	 3.503893317241022e-02	 1.734612561352903e+00
1	 1.973747744616185e+00	 7.031956075400138e-02	 1.732666680059800e+00
1	 1.972162665844200e+00	 1.058273095903234e-01	 1.722128207906000e+00
1	 1.969921182640562e+00	 1.415469328268634e-01	 1.703047809876032e+00
1	 1.967010944512274e+00	 1.774625148661237e-01	 1.675504852397662e+00
1	 1.963420027253059e+00	 2.135574784487534e-01	 1.639608394911592e+00
1	 1.959136970373529e+00	 2.498145939343955e-01	 1.595498091357175e+00
1	 1.954150814706171e+00	 2.862159908502214e-01	 1.543344990979027e+00
1	 1.948451140039792e+00	 3.227431717664775e-01	 1.483352227953555e+00
1	 1.942028102630227e+00	 3.593770285487826e-01	 1.415755589534019e+00
1	 1.987500000000000e+00	 0.000000000000000e+00	 1.652229249917272e+00
1	 1.987187191267294e+00	 3.526069857356055e-02	 1.664700691774407e+00
1	 1.986239818949276e+00	 7.076462126756775e-02	 1.668550358459256e+00
1	 1.984644708033262e+00	 1.064971026924121e-01	 1.663821944870416e+00
1	 1.982389038227208e+00	 1.424427994944970e-01	 1.650588188741824e+00
1	 1.979460380870438e+00	 1.785856953446905e-01	 1.628951932234749e+00
1	 1.975846736287019e+00	 2.149091080642744e-01	 1.599047096482014e+00
1	 1.971536571452820e+00	 2.513956989645308e-01	 1.561039558121910e+00
1	 1.966518857838506e+00	 2.880274844683688e-01	 1.515127916891196e+00
1	 1.960783109282185e+00	 3.247858500736903e-01	 1.461544143482439e+00
1	 1.954319419737511e+00	 3.616515667085508e-01	 1.400554097117986e+00
1	 2.000000000000000e+00	 0.000000000000000e+00	 1.579488000000000e+00
1	 1.999685223916798e+00	 3.548246397489042e-02	 1.597903663392451e+00
1	 1.998731893282386e+00	 7.120968178146642e-02	 1.607695139614604e+00
1	 1.997126750222366e+00	 1.071668957949584e-01	 1.608926640934375e+00
1	 1.994856893813928e+00	 1.433386661626855e-01	 1.601692822220341e+00
1	 1.991909817228721e+00	 1.797088758238808e-01	 1.586119833025485e+00
1	 1.988273445321150e+00	 2.162607376804582e-01	 1.562366275121067e+00
1	 1.983936172532344e+00	 2.529768039953384e-01	 1.530624054149417e+00
1	 1.978886900971149e+00	 2.898389780871670e-01	 1.491119114131944e+00
1	 1.973115078524969e+00	 3.268285283815016e-01	 1.444112043746767e+00
1	 1.966610736845282e+00	 3.639261048688338e-01	 1.389898543583526e+00
1	 1.843697565789419e+00	 3.411807232891650e-01	 1.711931581996200e+00
1	 1.836904245976013e+00	 3.760422731112877e-01	 1.646207778214039e+00
1	 1.829407281501320e+00	 4.109671500863628e-01	 1.570652651053299e+00
1	 1.821199179046478e+00	 4.459355898653836e-01	 1.484753499865367e+00
1	 1.812273130706186e+00	 4.809273331759791e-01	 1.388009146709823e+00
1	 1.802623046614941e+00	 5.159216528644683e-01	 1.279932328305058e+00
1	 1.792243586465333e+00	 5.508973832404047e-01	 1.160052123479376e+00
1	 1.781130189742346e+00	 5.858329516852289e-01	 1.027916402504588e+00
1	 1.769279104497502e+00	 6.207064124720912e-01	 8.830942838251921e-01
1	 1.756687414487809e+00	 6.554954827290598e-01	 7.251785829210579e-01
1	 1.743353064507004e+00	 6.901775804629183e-01	 5.537882373746967e-01
1	 1.855988882892821e+00	 3.434552614448158e-01	 1.657038925172841e+00
1	 1.849150274280280e+00	 3.785492215992383e-01	 1.593362842299749e+00
1	 1.841603330042052e+00	 4.137069310875700e-01	 1.520366943865205e+00
1	 1.833340506903817e+00	 4.489084937984764e-01	 1.437485064891407e+00
1	 1.824354951574237e+00	 4.841335153977702e-01	 1.344159761806581e+00
1	 1.814640533588709e+00	 5.193611305507440e-01	 1.239844836060901e+00
1	 1.804191877037770e+00	 5.545700324623478e-01	 1.124007911730912e+00
1	 1.793004391002975e+00	 5.897385046965644e-01	 9.961330533417442e-01
1	 1.781074298522854e+00	 6.248444552216972e-01	 8.557234091136210e-01
1	 1.768398663912796e+00	 6.598654526133346e-01	 7.023038639048309e-01
1	 1.754975418265163e+00	 6.947787643316375e-01	 5.354236852939309e-01
1	 1.868280199996709e+00	 3.457297996009814e-01	 1.607453719342100e+00
1	 1.861396302585124e+00	 3.810561700876036e-01	 1.545483948254507e+00
1	 1.853799378583433e+00	 4.164467120890913e-01	 1.474700636027775e+00
1	 1.845481834761856e+00	 4.518813977317833e-01	 1.394484651732362e+00
1	 1.836436772443023e+00	 4.873396976196745e-01	 1.304222808762152e+00
1	 1.826658020563224e+00	 5.228006082370322e-01	 1.203310519151725e+00
1	 1.816140167610950e+00	 5.582426816842028e-01	 1.091154520228272e+00
1	 1.804878592264319e+00	 5.936440577077110e-01	 9.671756596751582e-01
1	 1.792869492548874e+00	 6.289824979710139e-01	 8.308117239087165e-01
1	 1.780109913338382e+00	 6.642354224972196e-01	 6.815202935773911e-01
1	 1.766597772023832e+00	 6.993799481998669e-01	 5.187816090017677e-01
1	 1.880571517101082e+00	 3.480043377576615e-01	 1.563071896836295e+00
1	 1.873642330890543e+00	 3.835631185763834e-01	 1.502473722707322e+00
1	 1.865995427125461e+00	 4.191864930909272e-01	 1.433563151082332e+00
1	 1.857623162620597e+00	 4.548543016653039e-01	 1.355668573685421e+00
1	 1.848518593312543e+00	 4.905458798416917e-01	 1.268121573226098e+00
1	 1.838675507538488e+00	 5.262400859233329e-01	 1.170259707472978e+00
1	 1.828088458184871e+00	 5.619153309059697e-01	 1.061429383868987e+00
1	 1.816752793526378e+00	 5.975496107186689e-01	 9.409888106135117e-01
1	 1.804664686575561e+00	 6.331205407200413e-01	 8.083110088095300e-01
1	 1.791821162764569e+00	 6.686053923807149e-01	 6.627868690248001e-01
1	 1.778220125783012e+00	 7.039811320676065e-01	 5.038282344650453e-01
1	 1.892862834205940e+00	 3.502788759148565e-01	 1.523792093044147e+00
1	 1.885888359196539e+00	 3.860700670655777e-01	 1.464237321465757e+00
1	 1.878191475668137e+00	 4.219262740930773e-01	 1.396866265205591e+00
1	 1.869764490480039e+00	 4.578272055990384e-01	 1.320955317728438e+00
1	 1.860600414182798e+00	 4.937520620638225e-01	 1.235781333428563e+00
1	 1.850692994514499e+00	 5.296795636096463e-01	 1.140624540533246e+00
1	 1.840036748759534e+00	 5.655879801276484e-01	 1.034771562618237e+00
1	 1.828626994789152e+00	 6.014551637294382e-01	 9.175185345094470e-01
1	 1.816459880602917e+00	 6.372585834687796e-01	 7.881742968671132e-01
1	 1.803532412191354e+00	 6.729753622638208e-01	 6.460636523438894e-01
1	 1.789842479542702e+00	 7.085823159348567e-01	 4.905306648982426e-01
1	 1.905154151311284e+00	 3.525534140725660e-01	 1.489515559215415e+00
1	 1.898134387503110e+00	 3.885770155551868e-01	 1.430682347929549e+00
1	 1.890387524211462e+00	 4.246660550955419e-01	 1.364524031318158e+00
1	 1.881905818340181e+00	 4.608001095329867e-01	 1.290265474401184e+00
1	 1.872682235053787e+00	 4.969582442860664e-01	 1.207129295903497e+00
1	 1.862710481491260e+00	 5.331190412959723e-01	 1.114338909079676e+00
1	 1.851985039334939e+00	 5.692606293492392e-01	 1.011121689087294e+00
1	 1.840501196052641e+00	 6.053607167400185e-01	 8.967122525323452e-01
1	 1.828255074630939e+00	 6.413966262172286e-01	 7.703558331828368e-01
1	 1.815243661618739e+00	 6.773453321465369e-01	 6.313117362870795e-01
1	 1.801464833302902e+00	 7.131834998016169e-01	 4.788568524651502e-01
1	 1.917445468417113e+00	 3.548279522307903e-01	 1.460146078619175e+00
1	 1.910380415810258e+00	 3.910839640452103e-01	 1.401718774642071e+00
1	 1.902583572755435e+00	 4.274058360983207e-01	 1.336452706111992e+00
1	 1.894047146201024e+00	 4.637730134671488e-01	 1.263521670383526e+00
1	 1.884764055925510e+00	 5.001644265084235e-01	 1.182094533684030e+00
1	 1.874727968468767e+00	 5.365585189823108e-01	 1.091338398968500e+00
1	 1.863933329911085e+00	 5.729332785707417e-01	 9.904219181282201e-01
1	 1.852375397316846e+00	 6.092662697504101e-01	 8.785187340267703e-01
1	 1.840050268659630e+00	 6.455346689653881e-01	 7.548110360606209e-01
1	 1.826954911046724e+00	 6.817153020288634e-01	 6.184932112285391e-01
1	 1.813087187063613e+00	 7.177846836678874e-01	 4.687755710689518e-01
1	 1.929736785523427e+00	 3.571024903895291e-01	 1.435589885906302e+00
1	 1.922626444117981e+00	 3.935909125356485e-01	 1.377258867839980e+00
1	 1.914779621300055e+00	 4.301456171014137e-01	 1.312570679866594e+00
1	 1.906188474062569e+00	 4.667459174015250e-01	 1.240648503650164e+00
1	 1.896845876797968e+00	 5.033706087308940e-01	 1.160607926859829e+00
1	 1.886745455447024e+00	 5.399979966686618e-01	 1.071560237180675e+00
1	 1.875881620487973e+00	 5.766059277921560e-01	 9.726158783548302e-01
1	 1.864249598581766e+00	 6.131718227606131e-01	 8.628880535769403e-01
1	 1.851845462688989e+00	 6.496727117132586e-01	 7.414964596438181e-01
1	 1.838666160475309e+00	 6.860852719108005e-01	 6.075711333927922e-01
1	 1.824709540824834e+00	 7.223858675336682e-01	 4.602563901822032e-01
1	 1.942028102630227e+00	 3.593770285487826e-01	 1.415755589534019e+00
1	 1.934872472426280e+00	 3.960978610265014e-01	 1.357217114867915e+00
1	 1.926975669845323e+00	 4.328853981048212e-01	 1.292798408930385e+00
1	 1.918329801924813e+00	 4.697188213361148e-01	 1.221572481087872e+00
1	 1.908927697671160e+00	 5.065767909534776e-01	 1.142602105391770e+00
1	 1.898762942426027e+00	 5.434374743550253e-01	 1.054943239887573e+00
1	 1.887829911065603e+00	 5.802785770134823e-01	 9.576486255047036e-01
1	 1.876123799847400e+00	 6.170773757706272e-01	 8.497715497016813e-01
1	 1.863640656719016e+00	 6.538107544608398e-01	 7.303697579708854e-01
1	 1.850377409904492e+00	 6.904552417923476e-01	 5.985094942898412e-01
1	 1.836331894586565e+00	 7.269870513989594e-01	 4.532696496705627e-01
1	 1.954319419737511e+00	 3.616515667085508e-01	 1.400554097117986e+00
1	 1.947118500735156e+00	 3.986048095177688e-01	 1.341510154332406e+00
1	 1.939171718391239e+00	 4.356251791085429e-01	 1.277058350750050e+00
1	 1.930471129787760e+00	 4.726917252709185e-01	 1.206221958466886e+00
1	 1.921009518545086e+00	 5.097829731761744e-01	 1.128011394084530e+00
1	 1.910780429405780e+00	 5.468769520414016e-01	 1.041427762476415e+00
1	 1.899778201643975e+00	 5.839512262347204e-01	 9.454665975610167e-01
1	 1.887998001113750e+00	 6.209829287804526e-01	 8.391217851080573e-01
1	 1.875435850749710e+00	 6.579487972081314e-01	 7.213896503875239e-01
1	 1.862088659334276e+00	 6.948252116735054e-01	 5.912731913036621e-01
1	 1.847954248348806e+00	 7.315882352637606e-01	 4.477864355666031e-01
1	 1.966610736845282e+00	 3.639261048688338e-01	 1.389898543583526e+00
1	 1.959364529044608e+00	 4.011117580094511e-01	 1.330056708874838e+00
1	 1.951367766937805e+00	 4.383649601125791e-01	 1.265274901336125e+00
1	 1.942612457651407e+00	 4.756646292059362e-01	 1.194527082663192e+00
1	 1.933091339419748e+00	 5.129891553989847e-01	 1.116771759622710e+00
1	 1.922797916386281e+00	 5.503164297277904e-01	 1.030955651449788e+00
1	 1.911726492223089e+00	 5.876238754558706e-01	 9.360175715574397e-01
1	 1.899872202380815e+00	 6.248884817900893e-01	 8.308925084354866e-01
1	 1.887231044781072e+00	 6.620868399551341e-01	 7.145158882558159e-01
1	 1.873799908764660e+00	 6.991951815542736e-01	 5.858279993836413e-01
1	 1.859576602111558e+00	 7.361894191280726e-01	 4.437785567520993e-01
1	 1.743353064507004e+00	 6.901775804629183e-01	 5.537882373746967e-01
1	 1.729274883740578e+00	 7.247298645455649e-01	 3.905618844713860e-01
1	 1.714452606980928e+00	 7.591292765506406e-01	 2.099419021596312e-01
1	 1.698886893546374e+00	 7.933525843124138e-01	 1.098153822221459e-02
1	 1.682579343755863e+00	 8.273764270649256e-01	-2.072320754878118e-01
1	 1.665532512820283e+00	 8.611773620061519e-01	-4.455731709158989e-01
1	 1.647749922022751e+00	 8.947319121182951e-01	-7.048726506268084e-01
1	 1.629236067072467e+00	 9.280166150632179e-01	-9.859134864284846e-01
1	 1.609996423530313e+00	 9.610080729608007e-01	-1.289426242988505e+00
1	 1.590037449219140e+00	 9.936830028478698e-01	-1.616084759646746e+00
1	 1.569366583547552e+00	 1.026018287606500e+00	-1.966502023305018e+00
1	 1.754975418265163e+00	 6.947787643316375e-01	 5.354236852939309e-01
1	 1.740803382960041e+00	 7.295613969744104e-01	 3.733673960280167e-01
1	 1.725882291021801e+00	 7.641901383925472e-01	 1.938406933387576e-01
1	 1.710212806164218e+00	 7.986416015392133e-01	-4.136860482839788e-03
1	 1.693796539375036e+00	 8.328922699100104e-01	-2.215119096745377e-01
1	 1.676636062899880e+00	 8.669185444175695e-01	-4.591924115773570e-01
1	 1.658734921497089e+00	 9.006967915306421e-01	-7.180427988499885e-01
1	 1.640097640847259e+00	 9.342033924955047e-01	-9.988792310456999e-01
1	 1.620729733015010e+00	 9.674147934461709e-01	-1.302464969660087e+00
1	 1.600637698875349e+00	 1.000307556199713e+00	-1.629505910811741e+00
1	 1.579829027432933e+00	 1.032858409524087e+00	-1.980646309425549e+00
1	 1.766597772023832e+00	 6.993799481998669e-01	 5.187816090017677e-01
1	 1.752331882179924e+00	 7.343929294026761e-01	 3.577507579867852e-01
1	 1.737311975063022e+00	 7.692510002338026e-01	 1.791735648613537e-01
1	 1.721538718782361e+00	 8.039306187653088e-01	-1.796382092255044e-02
1	 1.705013734994474e+00	 8.384081127543593e-01	-2.346415450749644e-01
1	 1.687739612979730e+00	 8.726597268282392e-01	-4.718010146637803e-01
1	 1.669719920971688e+00	 9.066616709422494e-01	-7.303399166659232e-01
1	 1.650959214622339e+00	 9.403901699270792e-01	-1.011107323462877e+00
1	 1.631463042500044e+00	 9.738215139308771e-01	-1.314898920302495e+00
1	 1.611237948531963e+00	 1.006932109550961e+00	-1.642452389841536e+00
1	 1.590291471318810e+00	 1.039698531441169e+00	-1.994442988622152e+00
1	 1.778220125783012e+00	 7.039811320676065e-01	 5.038282344650453e-01
1	 1.763860381400227e+00	 7.392244618303614e-01	 3.436810321060955e-01
1	 1.748741659104592e+00	 7.743118620744064e-01	 1.659123975062279e-01
1	 1.732864631400799e+00	 8.092196359907015e-01	-3.052466541498078e-02
1	 1.716230930614176e+00	 8.439239555979724e-01	-2.466435346059779e-01
1	 1.698843163059831e+00	 8.784009092381607e-01	-4.834187965981090e-01
1	 1.680704920446545e+00	 9.126265503531157e-01	-7.417811223181756e-01
1	 1.661820788397706e+00	 9.465769473579415e-01	-1.022612227449345e+00
1	 1.642196351985415e+00	 9.802282344149192e-01	-1.326739953270322e+00
1	 1.621838198188981e+00	 1.013556662901614e+00	-1.654933504034358e+00
1	 1.600753915205181e+00	 1.046538653357745e+00	-2.007898876718710e+00
1	 1.789842479542702e+00	 7.085823159348567e-01	 4.905306648982426e-01
1	 1.775388880620949e+00	 7.440559942574663e-01	 3.311280837350546e-01
1	 1.760171343146511e+00	 7.793727239143585e-01	 1.540298024215776e-01
1	 1.744190544019534e+00	 8.145086532153905e-01	-4.184405855564011e-02
1	 1.727448126234142e+00	 8.494397984408504e-01	-2.575398453944228e-01
1	 1.709946713140184e+00	 8.841420916473343e-01	-4.940650590909890e-01
1	 1.691689919921663e+00	 9.185914297632422e-01	-7.523830894206125e-01
1	 1.672682362173361e+00	 9.527637247880916e-01	-1.033408031092087e+00
1	 1.652929661471120e+00	 9.866349548982979e-01	-1.337999618908940e+00
1	 1.632438447846405e+00	 1.020181216251673e+00	-1.666958318940439e+00
1	 1.611216359092047e+00	 1.053378775273816e+00	-2.021020612504733e+00
1	 1.801464833302902e+00	 7.131834998016169e-01	 4.788568524651502e-01
1	 1.786917379842092e+00	 7.488875266839913e-01	 3.200625558911806e-01
1	 1.771601027188778e+00	 7.844335857536594e-01	 1.434990975646883e-01
1	 1.755516456638565e+00	 8.197976704393758e-01	-5.194602843434404e-02
1	 1.738665321854372e+00	 8.549556412829922e-01	-2.673518776735272e-01
1	 1.721050263220789e+00	 8.898832740557597e-01	-5.037586057444032e-01
1	 1.702674919397040e+00	 9.245563091726281e-01	-7.621620613002773e-01
1	 1.683543935949303e+00	 9.589505022175293e-01	-1.043508458914547e+00
1	 1.663662970957163e+00	 9.930416753810126e-01	-1.348689169490298e+00
1	 1.643038697504234e+00	 1.026805769601136e+00	-1.678535666160330e+00
1	 1.621678802979408e+00	 1.060218897189382e+00	-2.033814663446118e+00
1	 1.813087187063613e+00	 7.177846836678874e-01	 4.687755710689518e-01
1	 1.798445879063653e+00	 7.537190591099358e-01	 3.104558443351462e-01
1	 1.783030711231393e+00	 7.894944475923085e-01	 1.342942850477910e-01
1	 1.766842369257893e+00	 8.250866876626581e-01	-6.085398703603506e-02
1	 1.749882517474867e+00	 8.604714841243986e-01	-2.761004829526023e-01
1	 1.732153813301645e+00	 8.956244564634370e-01	-5.125177580166991e-01
1	 1.713659918872676e+00	 9.305211885812739e-01	-7.711338647886621e-01
1	 1.694405509725534e+00	 9.651372796462546e-01	-1.052926883529333e+00
1	 1.674396280443541e+00	 9.994483958630631e-01	-1.358819568766551e+00
1	 1.653638947162468e+00	 1.033430322950004e+00	-1.689674150843283e+00
1	 1.632141246867263e+00	 1.067059019104442e+00	-2.046287331176310e+00
1	 1.824709540824834e+00	 7.223858675336682e-01	 4.602563901822032e-01
1	 1.809974378285636e+00	 7.585505915353004e-01	 3.022800735980598e-01
1	 1.794460395274358e+00	 7.945553094303062e-01	 1.263900293496885e-01
1	 1.778168281877518e+00	 8.303757048852366e-01	-6.859074986196678e-02
1	 1.761099713095627e+00	 8.659873269650693e-01	-2.838059814923070e-01
1	 1.743257363382755e+00	 9.013656388703668e-01	-5.203603705774721e-01
1	 1.724644918348573e+00	 9.364860679891791e-01	-7.793139234858770e-01
1	 1.705267083502052e+00	 9.713240570742675e-01	-1.061676336845527e+00
1	 1.685129589930255e+00	 1.005855116344450e+00	-1.368401501158611e+00
1	 1.664239196821106e+00	 1.040054876298278e+00	-1.700382158899076e+00
1	 1.642603690755613e+00	 1.073899141018997e+00	-2.058444756777584e+00
1	 1.836331894586565e+00	 7.269870513989594e-01	 4.532696496705627e-01
1	 1.821502877508037e+00	 7.633821239600846e-01	 2.955080739191132e-01
1	 1.805890079317670e+00	 7.996161712676525e-01	 1.197616363547911e-01
1	 1.789494194497439e+00	 8.356647221071117e-01	-7.517855480575364e-02
1	 1.772316908716650e+00	 8.715031698050042e-01	-2.904881791163279e-01
1	 1.754360913464116e+00	 9.071068212765480e-01	-5.273038460793750e-01
1	 1.735629917824729e+00	 9.424509473963442e-01	-7.867172705211500e-01
1	 1.716128657278858e+00	 9.775108345015684e-01	-1.069769520850477e+00
1	 1.695862899417306e+00	 1.012261836825173e+00	-1.377445380595667e+00
1	 1.674839446480150e+00	 1.046679429645957e+00	-1.710667863935975e+00
1	 1.653066134644457e+00	 1.080739262933047e+00	-2.070292925861791e+00
1	 1.847954248348806e+00	 7.315882352637606e-01	 4.477864355666031e-01
1	 1.833031376730859e+00	 7.682136563842887e-01	 2.901133590534993e-01
1	 1.817319763361331e+00	 8.046770331043469e-01	 1.143850331831242e-01
1	 1.800820107117657e+00	 8.409537393282837e-01	-8.063908031715050e-02
1	 1.783534104337938e+00	 8.770190126442036e-01	-2.961663833886194e-01
1	 1.765464463545728e+00	 9.128480036819814e-01	-5.333651493724593e-01
1	 1.746614917301145e+00	 9.484158268027688e-01	-7.933585608317759e-01
1	 1.726990231055951e+00	 9.836976119281569e-01	-1.077218817984689e+00
1	 1.706596208904692e+00	 1.018668557305231e+00	-1.385961359021342e+00
1	 1.685439696139599e+00	 1.053303982993040e+00	-1.720539233936888e+00
1	 1.663528578533797e+00	 1.087579384846591e+00	-2.081837673459308e+00
1	 1.859576602111558e+00	 7.361894191280726e-01	 4.437785567520993e-01
1	 1.844559875954101e+00	 7.730451888079128e-01	 2.860701049125363e-01
1	 1.828749447405340e+00	 8.097378949403902e-01	 1.102367487767208e-01
1	 1.812146019738172e+00	 8.462427565487523e-01	-8.499346288466048e-02
1	 1.794751299959490e+00	 8.825348554826673e-01	-3.008594191840539e-01
1	 1.776568013627593e+00	 9.185891860866668e-01	-5.385608211855384e-01
1	 1.757599916777820e+00	 9.543807062084535e-01	-7.992520829816082e-01
1	 1.737851804833333e+00	 9.898843893540332e-01	-1.084036301127621e+00
1	 1.717329518392415e+00	 1.025075277784627e+00	-1.393959334580609e+00
1	 1.696039945799453e+00	 1.059928536339529e+00	-1.730004037685144e+00
1	 1.673991022423631e+00	 1.094419506759630e+00	-2.093084688724825e+00
1	 1.569366583547552e+00	 1.026018287606500e+00	-1.966502023305018e+00
1	 1.547992243692877e+00	 1.057991027143265e+00	-2.448106238321099e+00
1	 1.525923817606285e+00	 1.089578589594028e+00	-2.919836013409758e+00
1	 1.503171653821628e+00	 1.120758662325927e+00	-3.379872286820802e+00
1	 1.479747048068645e+00	 1.151509302505199e+00	-3.826431191020267e+00
1	 1.455662226709656e+00	 1.181808986997448e+00	-4.257771480944808e+00
1	 1.430930327038606e+00	 1.211636661368759e+00	-4.672201806390589e+00
1	 1.405565374500522e+00	 1.240971787758436e+00	-5.068087778834608e+00
1	 1.379582256908508e+00	 1.269794391398509e+00	-5.443858784157568e+00
1	 1.352996695754110e+00	 1.298085105561391e+00	-5.798014494417175e+00
1	 1.325825214725000e+00	 1.325825214725000e+00	-6.129131033992849e+00
1	 1.579829027432933e+00	 1.032858409524087e+00	-1.980646309425549e+00
1	 1.558312191979597e+00	 1.065044300658442e+00	-2.451696003738964e+00
1	 1.536096643052833e+00	 1.096842446859411e+00	-2.912319111076631e+00
1	 1.513192798176722e+00	 1.128230386743245e+00	-3.360665320138247e+00
1	 1.489612028385866e+00	 1.159186031190622e+00	-3.794921801915591e+00
1	 1.465366641551668e+00	 1.189687713579582e+00	-4.213320804388828e+00
1	 1.440469862550032e+00	 1.219714239113318e+00	-4.614147079825560e+00
1	 1.414935810328952e+00	 1.249244933012061e+00	-4.995745093755155e+00
1	 1.388779471953618e+00	 1.278259687342719e+00	-5.356525965956239e+00
1	 1.362016673725522e+00	 1.306739006266193e+00	-5.694974095580566e+00
1	 1.334664049490250e+00	 1.334664049490250e+00	-6.009653424827021e+00
1	 1.590291471318810e+00	 1.039698531441169e+00	-1.994442988622152e+00
1	 1.568632140266901e+00	 1.072097574173214e+00	-2.454798151205347e+00
1	 1.546269468500037e+00	 1.104106304124489e+00	-2.904182417689101e+00
1	 1.523213942532522e+00	 1.135702111160359e+00	-3.340714522309145e+00
1	 1.499477008703824e+00	 1.166862759875942e+00	-3.762552951187586e+00
1	 1.475071056394428e+00	 1.197566440161714e+00	-4.167903702312203e+00
1	 1.450009398062197e+00	 1.227791816857975e+00	-4.555027866668905e+00
1	 1.424306246158092e+00	 1.257518078265884e+00	-4.922248978383154e+00
1	 1.397976686999389e+00	 1.286724983287230e+00	-5.267960083083172e+00
1	 1.371036651697523e+00	 1.315392906971395e+00	-5.590630475589566e+00
1	 1.343502884256000e+00	 1.343502884256000e+00	-5.888812060442821e+00
1	 1.600753915205181e+00	 1.046538653357745e+00	-2.007898876718710e+00
1	 1.578952088554790e+00	 1.079150847687581e+00	-2.457422241858049e+00
1	 1.556442293947896e+00	 1.111370161389263e+00	-2.895438086014171e+00
1	 1.533235086889028e+00	 1.143173835577269e+00	-3.320034478258915e+00
1	 1.509341989022520e+00	 1.174539488561158e+00	-3.729341491025726e+00
1	 1.484775471237937e+00	 1.205445166743843e+00	-4.121539124235474e+00
1	 1.459548933575101e+00	 1.235869394602729e+00	-4.494865039207080e+00
1	 1.433676681987940e+00	 1.265791223519906e+00	-4.847622048999011e+00
1	 1.407173902045819e+00	 1.295190279232040e+00	-5.178185313277083e+00
1	 1.380056629670115e+00	 1.324046807676997e+00	-5.485009187800198e+00
1	 1.352341719022250e+00	 1.352341719022250e+00	-5.766633681138589e+00
1	 1.611216359092047e+00	 1.053378775273816e+00	-2.021020612504733e+00
1	 1.589272036843264e+00	 1.086204121201542e+00	-2.459577588493690e+00
1	 1.566615119396410e+00	 1.118634018653731e+00	-2.886097953162582e+00
1	 1.543256231246241e+00	 1.150645559993975e+00	-3.298639394083752e+00
1	 1.519206969341953e+00	 1.182216217246272e+00	-3.695303835900205e+00
1	 1.494479886082193e+00	 1.213323893325969e+00	-4.074245527483846e+00
1	 1.469088469088744e+00	 1.243946972347583e+00	-4.433678927589233e+00
1	 1.443047117818499e+00	 1.274064368774127e+00	-4.771886334447330e+00
1	 1.416371117092909e+00	 1.303655575177150e+00	-5.087225206283594e+00
1	 1.389076607643296e+00	 1.332700708382998e+00	-5.378135121844808e+00
1	 1.361180553789000e+00	 1.361180553789000e+00	-5.643144332659461e+00
1	 1.621678802979408e+00	 1.060218897189382e+00	-2.033814663446118e+00
1	 1.599591985132323e+00	 1.093257394715098e+00	-2.461273263578631e+00
1	 1.576787944845580e+00	 1.125897875917895e+00	-2.876173550771257e+00
1	 1.553277375604159e+00	 1.158117284410476e+00	-3.276543109270939e+00
1	 1.529071949662122e+00	 1.189892945931280e+00	-3.660455976682083e+00
1	 1.504184300927196e+00	 1.221202619908093e+00	-4.026040893064479e+00
1	 1.478628004603125e+00	 1.252024550092534e+00	-4.371489337315503e+00
1	 1.452417553649766e+00	 1.282337514028546e+00	-4.695063295086437e+00
1	 1.425568332140659e+00	 1.312120871122559e+00	-4.995102704112819e+00
1	 1.398096585617068e+00	 1.341354609089400e+00	-5.270032525042854e+00
1	 1.370019388556250e+00	 1.370019388556250e+00	-5.518369388602379e+00
1	 1.632141246867263e+00	 1.067059019104442e+00	-2.046287331176310e+00
1	 1.609911933421967e+00	 1.100310668228250e+00	-2.462518106951900e+00
1	 1.586960770295406e+00	 1.133161733181755e+00	-2.865676114794120e+00
1	 1.563298519962784e+00	 1.165589008826773e+00	-3.253759108449088e+00
1	 1.538936929983029e+00	 1.197569674616187e+00	-3.624813494220054e+00
1	 1.513888715772949e+00	 1.229081346490214e+00	-3.976942740933092e+00
1	 1.488167540118244e+00	 1.260102127837583e+00	-4.308315566052787e+00
1	 1.461787989481743e+00	 1.290610659283165e+00	-4.617173841009074e+00
1	 1.434765547189069e+00	 1.320586167068268e+00	-4.901840160518296e+00
1	 1.407116563591429e+00	 1.350008509796201e+00	-5.160725022987591e+00
1	 1.378858223324000e+00	 1.378858223324000e+00	-5.392333571959219e+00
1	 1.642603690755613e+00	 1.073899141018997e+00	-2.058444756777584e+00
1	 1.620231881712195e+00	 1.107363941740996e+00	-2.463320733233697e+00
1	 1.597133595745887e+00	 1.140425590445309e+00	-2.854616594918741e+00
1	 1.573319664322116e+00	 1.173060733242866e+00	-3.230300532689410e+00
1	 1.548801910304673e+00	 1.205246403300989e+00	-3.588391572398441e+00
1	 1.523593130619449e+00	 1.236960073072333e+00	-3.926968144677050e+00
1	 1.497707075634103e+00	 1.268179705582731e+00	-4.244176419807612e+00
1	 1.471158425314429e+00	 1.298883804537982e+00	-4.538238349566703e+00
1	 1.443962762238138e+00	 1.329051463014275e+00	-4.807459359731272e+00
1	 1.416136541566381e+00	 1.358662410503402e+00	-5.050235639346307e+00
1	 1.387697058092250e+00	 1.387697058092250e+00	-5.265060975836822e+00
1	 1.653066134644457e+00	 1.080739262933047e+00	-2.070292925861791e+00
1	 1.630551830003009e+00	 1.114417215253336e+00	-2.463689538952557e+00
1	 1.607306421197023e+00	 1.147689447708559e+00	-2.843005663625453e+00
1	 1.583340808682154e+00	 1.180532457658756e+00	-3.206180190377808e+00
1	 1.558666890627054e+00	 1.212923131985688e+00	-3.551205010699571e+00
1	 1.533297545466696e+00	 1.244838799654449e+00	-3.876133745641135e+00
1	 1.507246611150701e+00	 1.276257283327976e+00	-4.179090228485077e+00
1	 1.480528861147824e+00	 1.307156949792999e+00	-4.458276682228571e+00
1	 1.453159977287867e+00	 1.337516758960583e+00	-4.711981534483312e+00
1	 1.425156519541922e+00	 1.367316311211003e+00	-4.938586814908715e+00
1	 1.396535892861000e+00	 1.396535892861000e+00	-5.136575083389911e+00
1	 1.663528578533797e+00	 1.087579384846591e+00	-2.081837673459308e+00
1	 1.640871778294408e+00	 1.121470488765272e+00	-2.463632709403659e+00
1	 1.617479246648815e+00	 1.154953304971504e+00	-2.830853724904472e+00
1	 1.593361953042898e+00	 1.188004182074440e+00	-3.181410567676613e+00
1	 1.568531870950172e+00	 1.220599860670283e+00	-3.513268236291683e+00
1	 1.543001960314693e+00	 1.252717526236562e+00	-3.824455766519798e+00
1	 1.516786146668037e+00	 1.284334861073320e+00	-4.113074860860647e+00
1	 1.489899296981929e+00	 1.315430095048214e+00	-4.377308200804347e+00
1	 1.462357192338255e+00	 1.345982054907189e+00	-4.615427383349416e+00
1	 1.434176497518053e+00	 1.375970211919004e+00	-4.825800425916406e+00
1	 1.405374727630250e+00	 1.405374727630250e+00	-5.006898787002054e+00
1	 1.673991022423631e+00	 1.094419506759630e+00	-2.093084688724825e+00
1	 1.651191726586392e+00	 1.128523762276803e+00	-2.463158225249724e+00
1	 1.627652072101263e+00	 1.162217162234144e+00	-2.818170922646301e+00
1	 1.603383097404348e+00	 1.195475906489921e+00	-3.156003838594077e+00
1	 1.578396851274028e+00	 1.228276589354776e+00	-3.474595315663862e+00
1	 1.552706375163437e+00	 1.260596252818672e+00	-3.771950024440279e+00
1	 1.526325682186112e+00	 1.292412438818762e+00	-4.046147738990423e+00
1	 1.499269732816743e+00	 1.323703240303628e+00	-4.295351783058388e+00
1	 1.471554407389304e+00	 1.354447350854096e+00	-4.517817087440134e+00
1	 1.443196475494775e+00	 1.384624112627405e+00	-4.711897801704928e+00
1	 1.414213562400000e+00	 1.414213562400000e+00	-4.876054406747225e+00
1	 1.325825214725000e+00	 1.325825214725000e+00	-6.129131033992849e+00
1	 1.298085105561391e+00	 1.352996695754110e+00	-6.385145607569703e+00
1	 1.269794391398509e+00	 1.379582256908508e+00	-6.644377096513097e+00
1	 1.240971787758436e+00	 1.405565374500522e+00	-6.906687827600343e+00
1	 1.211636661368759e+00	 1.430930327038606e+00	-7.171926780082804e+00
1	 1.181808986997448e+00	 1.455662226709656e+00	-7.439929922235025e+00
1	 1.151509302505200e+00	 1.479747048068645e+00	-7.710520619248387e+00
1	 1.120758662325928e+00	 1.503171653821628e+00	-7.983510110068105e+00
1	 1.089578589594029e+00	 1.525923817606285e+00	-8.258698050195546e+00
1	 1.057991027143266e+00	 1.547992243692877e+00	-8.535873116934788e+00
1	 1.026018287606500e+00	 1.569366583547552e+00	-8.814813673056211e+00
1	 1.334664049490250e+00	 1.334664049490250e+00	-6.009653424827021e+00
1	 1.306739006266193e+00	 1.362016673725522e+00	-6.255200070167649e+00
1	 1.278259687342720e+00	 1.388779471953618e+00	-6.504714258106210e+00
1	 1.249244933012061e+00	 1.414935810328952e+00	-6.758073666358139e+00
1	 1.219714239113318e+00	 1.440469862550032e+00	-7.015139626430165e+00
1	 1.189687713579582e+00	 1.465366641551668e+00	-7.275757430340053e+00
1	 1.159186031190623e+00	 1.489612028385866e+00	-7.539756724939545e+00
1	 1.128230386743246e+00	 1.513192798176721e+00	-7.806951991404013e+00
1	 1.096842446859412e+00	 1.536096643052833e+00	-8.077143106740836e+00
1	 1.065044300658443e+00	 1.558312191979596e+00	-8.350115983493160e+00
1	 1.032858409524087e+00	 1.579829027432933e+00	-8.625643283184102e+00
1	 1.343502884256000e+00	 1.343502884256000e+00	-5.888812060442821e+00
1	 1.315392906971395e+00	 1.371036651697524e+00	-6.123949563937541e+00
1	 1.286724983287230e+00	 1.397976686999389e+00	-6.363795511917497e+00
1	 1.257518078265884e+00	 1.424306246158092e+00	-6.608242847831851e+00
1	 1.227791816857975e+00	 1.450009398062197e+00	-6.857165195604395e+00
1	 1.197566440161714e+00	 1.475071056394428e+00	-7.110417136657721e+00
1	 1.166862759875943e+00	 1.499477008703824e+00	-7.367834590676539e+00
1	 1.135702111160360e+00	 1.523213942532522e+00	-7.629235297638666e+00
1	 1.104106304124490e+00	 1.546269468500036e+00	-7.894419397797076e+00
1	 1.072097574173215e+00	 1.568632140266900e+00	-8.163170105490583e+00
1	 1.039698531441169e+00	 1.590291471318810e+00	-8.435254471903288e+00
1	 1.352341719022250e+00	 1.352341719022250e+00	-5.766633681138589e+00
1	 1.324046807676997e+00	 1.380056629670115e+00	-5.991419676503437e+00
1	 1.295190279232041e+00	 1.407173902045819e+00	-6.221645483589588e+00
1	 1.265791223519906e+00	 1.433676681987940e+00	-6.457219228046487e+00
1	 1.235869394602730e+00	 1.459548933575101e+00	-6.698026767549766e+00
1	 1.205445166743843e+00	 1.484775471237936e+00	-6.943931939261825e+00
1	 1.174539488561159e+00	 1.509341989022520e+00	-7.194776927046052e+00
1	 1.143173835577269e+00	 1.533235086889027e+00	-7.450382745930067e+00
1	 1.111370161389264e+00	 1.556442293947895e+00	-7.710549840333591e+00
1	 1.079150847687582e+00	 1.578952088554790e+00	-7.975058791642691e+00
1	 1.046538653357745e+00	 1.600753915205181e+00	-8.243671129828058e+00
1	 1.361180553789000e+00	 1.361180553789000e+00	-5.643144332659461e+00
1	 1.332700708382998e+00	 1.389076607643297e+00	-5.857635330875691e+00
1	 1.303655575177150e+00	 1.416371117092909e+00	-6.078288159138091e+00
1	 1.274064368774127e+00	 1.443047117818499e+00	-6.305026043389949e+00
1	 1.243946972347583e+00	 1.469088469088743e+00	-6.537747017536649e+00
1	 1.213323893325970e+00	 1.494479886082192e+00	-6.776324141470973e+00
1	 1.182216217246271e+00	 1.519206969341952e+00	-7.020605854749412e+00
1	 1.150645559993975e+00	 1.543256231246240e+00	-7.270416463380154e+00
1	 1.118634018653732e+00	 1.566615119396410e+00	-7.525556756073794e+00
1	 1.086204121201543e+00	 1.589272036843264e+00	-7.785804745243894e+00
1	 1.053378775273816e+00	 1.611216359092047e+00	-8.050916527037371e+00
1	 1.370019388556250e+00	 1.370019388556250e+00	-5.518369388602379e+00
1	 1.341354609089400e+00	 1.398096585617068e+00	-5.722620806890303e+00
1	 1.312120871122559e+00	 1.425568332140659e+00	-5.933746905584637e+00
1	 1.282337514028547e+00	 1.452417553649766e+00	-6.151685930601534e+00
1	 1.252024550092534e+00	 1.478628004603124e+00	-6.376348035667111e+00
1	 1.221202619908093e+00	 1.504184300927196e+00	-6.607615471034285e+00
1	 1.189892945931281e+00	 1.529071949662122e+00	-6.845342923631167e+00
1	 1.158117284410477e+00	 1.553277375604159e+00	-7.089358006068899e+00
1	 1.125897875917896e+00	 1.576787944845579e+00	-7.339461890696478e+00
1	 1.093257394715099e+00	 1.599591985132322e+00	-7.595430083697148e+00
1	 1.060218897189382e+00	 1.621678802979408e+00	-7.857013333091920e+00
1	 1.378858223324000e+00	 1.378858223324000e+00	-5.392333571959219e+00
1	 1.350008509796201e+00	 1.407116563591429e+00	-5.586399761823376e+00
1	 1.320586167068267e+00	 1.434765547189069e+00	-5.788044490796502e+00
1	 1.290610659283165e+00	 1.461787989481743e+00	-5.997220945991282e+00
1	 1.260102127837583e+00	 1.488167540118244e+00	-6.213851345630470e+00
1	 1.229081346490215e+00	 1.513888715772948e+00	-6.437827098579188e+00
1	 1.197569674616187e+00	 1.538936929983029e+00	-6.669009130975710e+00
1	 1.165589008826774e+00	 1.563298519962784e+00	-6.907228377356370e+00
1	 1.133161733181756e+00	 1.586960770295405e+00	-7.152286432299206e+00
1	 1.100310668228251e+00	 1.609911933421966e+00	-7.403956357292516e+00
1	 1.067059019104442e+00	 1.632141246867263e+00	-7.661983636281677e+00
1	 1.387697058092250e+00	 1.387697058092250e+00	-5.265060975836822e+00
1	 1.358662410503402e+00	 1.416136541566380e+00	-5.448995250217830e+00
1	 1.329051463014275e+00	 1.443962762238138e+00	-5.641203102567947e+00
1	 1.298883804537982e+00	 1.471158425314429e+00	-5.841652583925073e+00
1	 1.268179705582731e+00	 1.497707075634103e+00	-6.050277922741715e+00
1	 1.236960073072333e+00	 1.523593130619448e+00	-6.266979655353913e+00
1	 1.205246403300989e+00	 1.548801910304673e+00	-6.491624939104850e+00
1	 1.173060733242868e+00	 1.573319664322116e+00	-6.724048045485064e+00
1	 1.140425590445310e+00	 1.597133595745886e+00	-6.964051029155101e+00
1	 1.107363941740996e+00	 1.620231881712195e+00	-7.211404567268167e+00
1	 1.073899141018997e+00	 1.642603690755613e+00	-7.465848962137631e+00
1	 1.396535892861000e+00	 1.396535892861000e+00	-5.136575083389911e+00
1	 1.367316311211003e+00	 1.425156519541922e+00	-5.310429742957414e+00
1	 1.337516758960583e+00	 1.453159977287867e+00	-5.493244366976890e+00
1	 1.307156949792999e+00	 1.480528861147824e+00	-5.685001794607643e+00
1	 1.276257283327977e+00	 1.507246611150701e+00	-5.885648211295228e+00
1	 1.244838799654449e+00	 1.533297545466696e+00	-6.095093250296872e+00
1	 1.212923131985688e+00	 1.558666890627054e+00	-6.313210292306906e+00
1	 1.180532457658757e+00	 1.583340808682153e+00	-6.539836960514232e+00
1	 1.147689447708560e+00	 1.607306421197023e+00	-6.774775806796495e+00
1	 1.114417215253337e+00	 1.630551830003009e+00	-7.017795183185198e+00
1	 1.080739262933047e+00	 1.653066134644457e+00	-7.268630291240638e+00
1	 1.405374727630250e+00	 1.405374727630250e+00	-5.006898787002054e+00
1	 1.375970211919004e+00	 1.434176497518053e+00	-5.170725145620555e+00
1	 1.345982054907189e+00	 1.462357192338255e+00	-5.344189366049061e+00
1	 1.315430095048214e+00	 1.489899296981929e+00	-5.527289001194571e+00
1	 1.284334861073321e+00	 1.516786146668037e+00	-5.719982141263634e+00
1	 1.252717526236562e+00	 1.543001960314692e+00	-5.922187486461002e+00
1	 1.220599860670284e+00	 1.568531870950172e+00	-6.133784633127095e+00
1	 1.188004182074441e+00	 1.593361953042897e+00	-6.354614570614769e+00
1	 1.154953304971505e+00	 1.617479246648815e+00	-6.584480384452768e+00
1	 1.121470488765273e+00	 1.640871778294407e+00	-6.823148159647316e+00
1	 1.087579384846591e+00	 1.663528578533797e+00	-7.070348076358075e+00
1	 1.414213562400000e+00	 1.414213562400000e+00	-4.876054406747225e+00
1	 1.384624112627405e+00	 1.443196475494774e+00	-5.029902816146279e+00
1	 1.354447350854096e+00	 1.471554407389304e+00	-5.194058654759467e+00
1	 1.323703240303628e+00	 1.499269732816743e+00	-5.368534116262538e+00
1	 1.292412438818763e+00	 1.526325682186112e+00	-5.553299144370111e+00
1	 1.260596252818672e+00	 1.552706375163436e+00	-5.748281476823073e+00
1	 1.228276589354776e+00	 1.578396851274027e+00	-5.953366918046987e+00
1	 1.195475906489922e+00	 1.603383097404348e+00	-6.168399837753324e+00
1	 1.162217162234145e+00	 1.627652072101262e+00	-6.393183890872724e+00
1	 1.128523762276804e+00	 1.651191726586391e+00	-6.627482952393075e+00
1	 1.094419506759630e+00	 1.673991022423631e+00	-6.871022258938343e+00
1	 1.026018287606500e+00	 1.569366583547552e+00	-8.814813673056211e+00
1	 9.936830028478698e-01	 1.590037449219140e+00	-9.088196267092059e+00
1	 9.610080729608007e-01	 1.609996423530313e+00	-9.358334201624196e+00
1	 9.280166150632180e-01	 1.629236067072467e+00	-9.624980132601157e+00
1	 8.947319121182953e-01	 1.647749922022751e+00	-9.887895345090953e+00
1	 8.611773620061525e-01	 1.665532512820283e+00	-1.014685032261688e+01
1	 8.273764270649263e-01	 1.682579343755863e+00	-1.040162526949785e+01
1	 7.933525843124147e-01	 1.698886893546373e+00	-1.065201058425833e+01
1	 7.591292765506416e-01	 1.714452606980927e+00	-1.089780728256801e+01
1	 7.247298645455660e-01	 1.729274883740578e+00	-1.113882736857338e+01
1	 6.901775804629183e-01	 1.743353064507004e+00	-1.137489415387948e+01
1	 1.032858409524087e+00	 1.579829027432933e+00	-8.625643283184102e+00
1	 1.000307556199713e+00	 1.600637698875349e+00	-8.895717181626400e+00
1	 9.674147934461709e-01	 1.620729733015011e+00	-9.162410434373260e+00
1	 9.342033924955050e-01	 1.640097640847259e+00	-9.425503091882915e+00
1	 9.006967915306425e-01	 1.658734921497089e+00	-9.684784015891857e+00
1	 8.669185444175702e-01	 1.676636062899880e+00	-9.940051333308782e+00
1	 8.328922699100108e-01	 1.693796539375036e+00	-1.019111284485401e+01
1	 7.986416015392142e-01	 1.710212806164218e+00	-1.043778638720860e+01
1	 7.641901383925483e-01	 1.725882291021801e+00	-1.067990014779895e+01
1	 7.295613969744115e-01	 1.740803382960041e+00	-1.091729293169664e+01
1	 6.947787643316375e-01	 1.754975418265163e+00	-1.114981438046554e+01
1	 1.039698531441169e+00	 1.590291471318810e+00	-8.435254471903288e+00
1	 1.006932109550961e+00	 1.611237948531963e+00	-8.702148467048508e+00
1	 9.738215139308771e-01	 1.631463042500044e+00	-8.965528064701706e+00
1	 9.403901699270795e-01	 1.650959214622338e+00	-9.225200447535745e+00
1	 9.066616709422495e-01	 1.669719920971687e+00	-9.480981789787529e+00
1	 8.726597268282396e-01	 1.687739612979729e+00	-9.732697596658486e+00
1	 8.384081127543602e-01	 1.705013734994474e+00	-9.980183000187163e+00
1	 8.039306187653098e-01	 1.721538718782360e+00	-1.022328301105483e+01
1	 7.692510002338034e-01	 1.737311975063022e+00	-1.046185272610646e+01
1	 7.343929294026771e-01	 1.752331882179924e+00	-1.069575749168283e+01
1	 6.993799481998668e-01	 1.766597772023833e+00	-1.092487302316322e+01
1	 1.046538653357745e+00	 1.600753915205181e+00	-8.243671129828058e+00
1	 1.013556662901614e+00	 1.621838198188981e+00	-8.507511488633831e+00
1	 9.802282344149195e-01	 1.642196351985414e+00	-8.767705888734408e+00
1	 9.465769473579416e-01	 1.661820788397706e+00	-9.024088387865417e+00
1	 9.126265503531162e-01	 1.680704920446545e+00	-9.276502213775915e+00
1	 8.784009092381612e-01	 1.698843163059831e+00	-9.524799990064798e+00
1	 8.439239555979734e-01	 1.716230930614175e+00	-9.768843920203876e+00
1	 8.092196359907021e-01	 1.732864631400798e+00	-1.000850592989762e+01
1	 7.743118620744075e-01	 1.748741659104592e+00	-1.024366776821543e+01
1	 7.392244618303623e-01	 1.763860381400226e+00	-1.047422106820264e+01
1	 7.039811320676067e-01	 1.778220125783012e+00	-1.070006736793250e+01
1	 1.053378775273816e+00	 1.611216359092047e+00	-8.050916527037371e+00
1	 1.020181216251672e+00	 1.632438447846405e+00	-8.311827056715629e+00
1	 9.866349548982980e-01	 1.652929661471120e+00	-8.568962214385252e+00
1	 9.527637247880920e-01	 1.672682362173361e+00	-8.822182680702298e+00
1	 9.185914297632424e-01	 1.691689919921662e+00	-9.071358482984699e+00
1	 8.841420916473348e-01	 1.709946713140184e+00	-9.316369108396701e+00
1	 8.494397984408509e-01	 1.727448126234142e+00	-9.557103577021028e+00
1	 8.145086532153912e-01	 1.744190544019534e+00	-9.793460475653308e+00
1	 7.793727239143596e-01	 1.760171343146511e+00	-1.002534795340346e+01
1	 7.440559942574673e-01	 1.775388880620949e+00	-1.025268368041574e+01
1	 7.085823159348565e-01	 1.789842479542702e+00	-1.047539477122807e+01
1	 1.060218897189382e+00	 1.621678802979408e+00	-7.857013333091920e+00
1	 1.026805769601136e+00	 1.643038697504233e+00	-8.115115444586316e+00
1	 9.930416753810124e-01	 1.663662970957163e+00	-8.369314877105952e+00
1	 9.589505022175296e-01	 1.683543935949304e+00	-8.619498686964945e+00
1	 9.245563091726284e-01	 1.702674919397039e+00	-8.865563452022123e+00
1	 8.898832740557604e-01	 1.721050263220789e+00	-9.107415273107264e+00
1	 8.549556412829928e-01	 1.738665321854372e+00	-9.344969737023392e+00
1	 8.197976704393767e-01	 1.755516456638565e+00	-9.578151842640194e+00
1	 7.844335857536603e-01	 1.771601027188778e+00	-9.806895891805313e+00
1	 7.488875266839924e-01	 1.786917379842091e+00	-1.003114534698718e+01
1	 7.131834998016169e-01	 1.801464833302902e+00	-1.025085265772516e+01
1	 1.067059019104442e+00	 1.632141246867263e+00	-7.661983636281677e+00
1	 1.033430322950004e+00	 1.653638947162467e+00	-7.917396405710262e+00
1	 9.994483958630631e-01	 1.674396280443540e+00	-8.168781255028811e+00
1	 9.651372796462548e-01	 1.694405509725534e+00	-8.416051373702290e+00
1	 9.305211885812740e-01	 1.713659918872676e+00	-8.659129645891259e+00
1	 8.956244564634376e-01	 1.732153813301645e+00	-8.897948540996852e+00
1	 8.604714841243993e-01	 1.749882517474867e+00	-9.132449967457747e+00
1	 8.250866876626589e-01	 1.766842369257893e+00	-9.362585091989173e+00
1	 7.894944475923095e-01	 1.783030711231393e+00	-9.588314126629365e+00
1	 7.537190591099371e-01	 1.798445879063653e+00	-9.809606086103685e+00
1	 7.177846836678873e-01	 1.813087187063613e+00	-1.002643851813284e+01
1	 1.073899141018997e+00	 1.642603690755613e+00	-7.465848962137631e+00
1	 1.040054876298278e+00	 1.664239196821106e+00	-7.718689190278937e+00
1	 1.005855116344450e+00	 1.685129589930255e+00	-7.967378283531238e+00
1	 9.713240570742678e-01	 1.705267083502052e+00	-8.211855326637030e+00
1	 9.364860679891795e-01	 1.724644918348573e+00	-8.452069270486637e+00
1	 9.013656388703671e-01	 1.743257363382755e+00	-8.687978712641710e+00
1	 8.659873269650699e-01	 1.761099713095627e+00	-8.919551642774664e+00
1	 8.303757048852374e-01	 1.778168281877517e+00	-9.146765155884864e+00
1	 7.945553094303071e-01	 1.794460395274357e+00	-9.369605136288749e+00
1	 7.585505915353016e-01	 1.809974378285635e+00	-9.588065915488530e+00
1	 7.223858675336681e-01	 1.824709540824833e+00	-9.802149907091239e+00
1	 1.080739262933047e+00	 1.653066134644457e+00	-7.268630291240638e+00
1	 1.046679429645956e+00	 1.674839446480151e+00	-7.519012561137044e+00
1	 1.012261836825172e+00	 1.695862899417306e+00	-7.765122469246784e+00
1	 9.775108345015685e-01	 1.716128657278857e+00	-8.006924762233291e+00
1	 9.424509473963443e-01	 1.735629917824729e+00	-8.244394222692998e+00
1	 9.071068212765485e-01	 1.754360913464115e+00	-8.477515340502066e+00
1	 8.715031698050051e-01	 1.772316908716650e+00	-8.706281950729888e+00
1	 8.356647221071125e-01	 1.789494194497438e+00	-8.930696841646721e+00
1	 7.996161712676533e-01	 1.805890079317670e+00	-9.150771336452168e+00
1	 7.633821239600858e-01	 1.821502877508038e+00	-9.366524852416173e+00
1	 7.269870513989594e-01	 1.836331894586565e+00	-9.577984441148327e+00
1	 1.087579384846591e+00	 1.663528578533797e+00	-7.070348076358075e+00
1	 1.053303982993040e+00	 1.685439696139599e+00	-7.318384809108245e+00
1	 1.018668557305232e+00	 1.706596208904692e+00	-7.562029903548065e+00
1	 9.836976119281569e-01	 1.726990231055951e+00	-7.801273539308050e+00
1	 9.484158268027693e-01	 1.746614917301144e+00	-8.036116100102189e+00
1	 9.128480036819818e-01	 1.765464463545728e+00	-8.266567736724802e+00
1	 8.770190126442042e-01	 1.783534104337938e+00	-8.492647898255038e+00
1	 8.409537393282845e-01	 1.800820107117657e+00	-8.714384835655180e+00
1	 8.046770331043480e-01	 1.817319763361330e+00	-8.931815082016536e+00
1	 7.682136563842901e-01	 1.833031376730859e+00	-9.144982913726638e+00
1	 7.315882352637607e-01	 1.847954248348806e+00	-9.353939796813121e+00
1	 1.094419506759630e+00	 1.673991022423631e+00	-6.871022258938343e+00
1	 1.059928536339529e+00	 1.696039945799453e+00	-7.116823767745411e+00
1	 1.025075277784627e+00	 1.717329518392415e+00	-7.358116275523136e+00
1	 9.898843893540332e-01	 1.737851804833332e+00	-7.594915170207996e+00
1	 9.543807062084537e-01	 1.757599916777820e+00	-7.827246210366358e+00
1	 9.185891860866674e-01	 1.776568013627593e+00	-8.055144980653205e+00
1	 8.825348554826680e-01	 1.794751299959490e+00	-8.278656317108380e+00
1	 8.462427565487531e-01	 1.812146019738171e+00	-8.497833707131029e+00
1	 8.097378949403913e-01	 1.828749447405340e+00	-8.712738669006498e+00
1	 7.730451888079141e-01	 1.844559875954101e+00	-8.923440115838938e+00
1	 7.361894191280726e-01	 1.859576602111558e+00	-9.130013708681981e+00
1	 6.901775804629183e-01	 1.743353064507004e+00	-1.137489415387948e+01
1	 6.554954827290597e-01	 1.756687414487810e+00	-1.161298726291461e+01
1	 6.207064124720911e-01	 1.769279104497503e+00	-1.184806817250732e+01
1	 5.858329516852290e-01	 1.781130189742346e+00	-1.208009422972835e+01
1	 5.508973832404049e-01	 1.792243586465333e+00	-1.230902389822508e+01
1	 5.159216528644688e-01	 1.802623046614941e+00	-1.253481677686818e+01
1	 4.809273331759799e-01	 1.812273130706186e+00	-1.275743362561460e+01
1	 4.459355898653843e-01	 1.821199179046478e+00	-1.297683639799537e+01
1	 4.109671500863636e-01	 1.829407281501319e+00	-1.319298827957705e+01
1	 3.760422731112888e-01	 1.836904245976013e+00	-1.340585373168700e+01
1	 3.411807232891650e-01	 1.843697565789419e+00	-1.361539853965653e+01
1	 6.947787643316375e-01	 1.754975418265163e+00	-1.114981438046554e+01
1	 6.598654526133345e-01	 1.768398663912796e+00	-1.138503575413575e+01
1	 6.248444552216971e-01	 1.781074298522854e+00	-1.161714155844707e+01
1	 5.897385046965644e-01	 1.793004391002975e+00	-1.184606569376786e+01
1	 5.545700324623483e-01	 1.804191877037771e+00	-1.207174454295955e+01
1	 5.193611305507445e-01	 1.814640533588709e+00	-1.229411703700153e+01
1	 4.841335153977708e-01	 1.824354951574237e+00	-1.251312471891531e+01
1	 4.489084937984773e-01	 1.833340506903816e+00	-1.272871180551706e+01
1	 4.137069310875708e-01	 1.841603330042052e+00	-1.294082524652753e+01
1	 3.785492215992395e-01	 1.849150274280280e+00	-1.314941478057123e+01
1	 3.434552614448158e-01	 1.855988882892821e+00	-1.335443298761156e+01
1	 6.993799481998668e-01	 1.766597772023833e+00	-1.092487302316322e+01
1	 6.642354224972193e-01	 1.780109913338382e+00	-1.115706618766764e+01
1	 6.289824979710141e-01	 1.792869492548873e+00	-1.138604417181123e+01
1	 5.936440577077111e-01	 1.804878592264319e+00	-1.161171765019676e+01
1	 5.582426816842031e-01	 1.816140167610950e+00	-1.183400113172462e+01
1	 5.228006082370326e-01	 1.826658020563224e+00	-1.205281307187694e+01
1	 4.873396976196750e-01	 1.836436772443023e+00	-1.226807597446026e+01
1	 4.518813977317842e-01	 1.845481834761856e+00	-1.247971648245300e+01
1	 4.164467120890923e-01	 1.853799378583433e+00	-1.268766545766560e+01
1	 3.810561700876046e-01	 1.861396302585124e+00	-1.289185804898478e+01
1	 3.457297996009814e-01	 1.868280199996709e+00	-1.309223374903777e+01
1	 7.039811320676067e-01	 1.778220125783012e+00	-1.070006736793250e+01
1	 6.686053923807149e-01	 1.791821162764569e+00	-1.092907891758395e+01
1	 6.331205407200413e-01	 1.804664686575561e+00	-1.115477936108284e+01
1	 5.975496107186692e-01	 1.816752793526378e+00	-1.137705636387144e+01
1	 5.619153309059700e-01	 1.828088458184871e+00	-1.159580276365819e+01
1	 5.262400859233336e-01	 1.838675507538488e+00	-1.181091672904953e+01
1	 4.905458798416924e-01	 1.848518593312543e+00	-1.202230189887299e+01
1	 4.548543016653047e-01	 1.857623162620597e+00	-1.222986750195265e+01
1	 4.191864930909281e-01	 1.865995427125461e+00	-1.243352845722360e+01
1	 3.835631185763844e-01	 1.873642330890543e+00	-1.263320545419225e+01
1	 3.480043377576615e-01	 1.880571517101082e+00	-1.282882501386740e+01
1	 7.085823159348565e-01	 1.789842479542702e+00	-1.047539477122807e+01
1	 6.729753622638208e-01	 1.803532412191355e+00	-1.070107428876175e+01
1	 6.372585834687796e-01	 1.816459880602917e+00	-1.092335038777149e+01
1	 6.014551637294383e-01	 1.828626994789152e+00	-1.114208793692465e+01
1	 5.655879801276489e-01	 1.840036748759533e+00	-1.135715830155665e+01
1	 5.296795636096469e-01	 1.850692994514499e+00	-1.156843954834559e+01
1	 4.937520620638231e-01	 1.860600414182798e+00	-1.177581662198160e+01
1	 4.578272055990393e-01	 1.869764490480038e+00	-1.197918149370712e+01
1	 4.219262740930783e-01	 1.878191475668138e+00	-1.217843328179129e+01
1	 3.860700670655788e-01	 1.885888359196539e+00	-1.237347834417861e+01
1	 3.502788759148565e-01	 1.892862834205940e+00	-1.256423034372266e+01
1	 7.131834998016169e-01	 1.801464833302902e+00	-1.025085265772516e+01
1	 6.773453321465368e-01	 1.815243661618740e+00	-1.047305263717808e+01
1	 6.413966262172285e-01	 1.828255074630939e+00	-1.069176042921888e+01
1	 6.053607167400187e-01	 1.840501196052642e+00	-1.090681831401481e+01
1	 5.692606293492394e-01	 1.851985039334938e+00	-1.111807637949922e+01
1	 5.331190412959727e-01	 1.862710481491259e+00	-1.132539277178957e+01
1	 4.969582442860671e-01	 1.872682235053787e+00	-1.152863390897353e+01
1	 4.608001095329875e-01	 1.881905818340180e+00	-1.172767465825413e+01
1	 4.246660550955427e-01	 1.890387524211462e+00	-1.192239847669158e+01
1	 3.885770155551879e-01	 1.898134387503110e+00	-1.211269751601297e+01
1	 3.525534140725660e-01	 1.905154151311284e+00	-1.229847269218399e+01
1	 7.177846836678873e-01	 1.813087187063613e+00	-1.002643851813284e+01
1	 6.817153020288633e-01	 1.826954911046724e+00	-1.024501429019502e+01
1	 6.455346689653881e-01	 1.840050268659631e+00	-1.046001258129631e+01
1	 6.092662697504103e-01	 1.852375397316846e+00	-1.067125328737304e+01
1	 5.729332785707419e-01	 1.863933329911085e+00	-1.087856541017845e+01
1	 5.365585189823112e-01	 1.874727968468767e+00	-1.108178735314883e+01
1	 5.001644265084243e-01	 1.884764055925510e+00	-1.128076717208254e+01
1	 4.637730134671497e-01	 1.894047146201024e+00	-1.147536278073291e+01
1	 4.274058360983216e-01	 1.902583572755435e+00	-1.166544211172640e+01
1	 3.910839640452114e-01	 1.910380415810258e+00	-1.185088323350646e+01
1	 3.548279522307902e-01	 1.917445468417113e+00	-1.203157442427822e+01
1	 7.223858675336681e-01	 1.824709540824833e+00	-9.802149907091239e+00
1	 6.860852719108003e-01	 1.838666160475309e+00	-1.001695956683428e+01
1	 6.496727117132584e-01	 1.851845462688989e+00	-1.022810986099929e+01
1	 6.131718227606133e-01	 1.864249598581766e+00	-1.043539850165794e+01
1	 5.766059277921564e-01	 1.875881620487973e+00	-1.063863359195076e+01
1	 5.399979966686622e-01	 1.886745455447023e+00	-1.083763396711380e+01
1	 5.033706087308947e-01	 1.896845876797968e+00	-1.103222948182954e+01
1	 4.667459174015257e-01	 1.906188474062568e+00	-1.122226124411366e+01
1	 4.301456171014146e-01	 1.914779621300055e+00	-1.140758179632035e+01
1	 3.935909125356498e-01	 1.922626444117981e+00	-1.158805524419443e+01
1	 3.571024903895291e-01	 1.929736785523427e+00	-1.176355733522295e+01
1	 7.269870513989594e-01	 1.836331894586565e+00	-9.577984441148327e+00
1	 6.904552417923476e-01	 1.850377409904493e+00	-9.788888778041189e+00
1	 6.538107544608396e-01	 1.863640656719015e+00	-9.996055208943812e+00
1	 6.170773757706274e-01	 1.876123799847400e+00	-1.019925945862512e+01
1	 5.802785770134827e-01	 1.887829911065603e+00	-1.039828891561916e+01
1	 5.434374743550259e-01	 1.898762942426027e+00	-1.059294301812967e+01
1	 5.065767909534783e-01	 1.908927697671160e+00	-1.078303357783623e+01
1	 4.697188213361155e-01	 1.918329801924813e+00	-1.096838504192435e+01
1	 4.328853981048221e-01	 1.926975669845323e+00	-1.114883469409006e+01
1	 3.960978610265026e-01	 1.934872472426280e+00	-1.132423279567495e+01
1	 3.593770285487826e-01	 1.942028102630226e+00	-1.149444266845763e+01
1	 7.315882352637607e-01	 1.847954248348806e+00	-9.353939796813121e+00
1	 6.948252116735053e-01	 1.862088659334276e+00	-9.560802226938472e+00
1	 6.579487972081315e-01	 1.875435850749710e+00	-9.763851491768177e+00
1	 6.209829287804527e-01	 1.887998001113750e+00	-9.962841521621462e+00
1	 5.839512262347207e-01	 1.899778201643975e+00	-1.015753917096027e+01
1	 5.468769520414020e-01	 1.910780429405780e+00	-1.034772464889440e+01
1	 5.097829731761752e-01	 1.921009518545087e+00	-1.053319187923044e+01
1	 4.726917252709194e-01	 1.930471129787759e+00	-1.071374879049674e+01
1	 4.356251791085438e-01	 1.939171718391240e+00	-1.088921753686278e+01
1	 3.986048095177700e-01	 1.947118500735156e+00	-1.105943465132956e+01
1	 3.616515667085508e-01	 1.954319419737511e+00	-1.122425113299592e+01
1	 7.361894191280726e-01	 1.859576602111558e+00	-9.130013708681981e+00
1	 6.991951815542736e-01	 1.873799908764660e+00	-9.332700209070698e+00
1	 6.620868399551343e-01	 1.887231044781072e+00	-9.531501504444464e+00
1	 6.248884817900895e-01	 1.899872202380815e+00	-9.726149919909986e+00
1	 5.876238754558710e-01	 1.911726492223089e+00	-9.916391953006338e+00
1	 5.503164297277909e-01	 1.922797916386281e+00	-1.010198874853865e+01
1	 5.129891553989854e-01	 1.933091339419748e+00	-1.028271649466197e+01
1	 4.756646292059370e-01	 1.942612457651407e+00	-1.045836674075513e+01
1	 4.383649601125800e-01	 1.951367766937804e+00	-1.062874663817011e+01
1	 4.011117580094523e-01	 1.959364529044608e+00	-1.079367910545524e+01
1	 3.639261048688338e-01	 1.966610736845282e+00	-1.095300292012606e+01
1	 3.411807232891650e-01	 1.843697565789419e+00	-1.361539853965653e+01
1	 3.064017453303258e-01	 1.849795386114716e+00	-1.382086135139759e+01
1	 2.717240419284751e-01	 1.855206469658534e+00	-1.402985590863225e+01
1	 2.371657537175081e-01	 1.859940161747613e+00	-1.424188612805442e+01
1	 2.027444415484455e-01	 1.864006354987513e+00	-1.445645441598183e+01
1	 1.684770710600370e-01	 1.867415453651191e+00	-1.467306357095871e+01
1	 1.343799995057737e-01	 1.870178337950090e+00	-1.489121860624397e+01
1	 1.004689647900904e-01	 1.872306328333207e+00	-1.511042848538739e+01
1	 6.675907665743416e-02	 1.873811149952121e+00	-1.533020776510787e+01
1	 3.326480996967145e-02	 1.874704897421970e+00	-1.555007814068544e+01
1	 0.000000000000000e+00	 1.875000000000000e+00	-1.576956989005599e+01
1	 3.434552614448158e-01	 1.855988882892821e+00	-1.335443298761156e+01
1	 3.084444236327498e-01	 1.862127355353983e+00	-1.355477074510566e+01
1	 2.735355355414154e-01	 1.867574512788415e+00	-1.376130509635030e+01
1	 2.387468587422667e-01	 1.872339762825035e+00	-1.397354725036004e+01
1	 2.040960711586644e-01	 1.876433064020110e+00	-1.419099762340278e+01
1	 1.696002515336156e-01	 1.879864890008415e+00	-1.441314812620221e+01
1	 1.352758661689677e-01	 1.882646193536137e+00	-1.463948439488662e+01
1	 1.011387578885178e-01	 1.884788370521935e+00	-1.486948795524918e+01
1	 6.720413716834214e-02	 1.886303224285065e+00	-1.510263831095885e+01
1	 3.348657536938560e-02	 1.887202930071432e+00	-1.533841494745888e+01
1	 0.000000000000000e+00	 1.887500000000000e+00	-1.557629924437724e+01
1	 3.457297996009814e-01	 1.868280199996709e+00	-1.309223374903777e+01
1	 3.104871019357723e-01	 1.874459324593641e+00	-1.328783695823484e+01
1	 2.753470291550064e-01	 1.879942555918602e+00	-1.349226560880577e+01
1	 2.403279637676975e-01	 1.884739363902691e+00	-1.370503828192921e+01
1	 2.054477007695459e-01	 1.888859773052877e+00	-1.392565356203483e+01
1	 1.707234320078177e-01	 1.892314326365756e+00	-1.415359270530983e+01
1	 1.361717328327167e-01	 1.895114049122259e+00	-1.438832227563706e+01
1	 1.018085509874029e-01	 1.897270412710705e+00	-1.462929673391897e+01
1	 6.764919767958245e-02	 1.898795298618027e+00	-1.487596096788395e+01
1	 3.370834076927928e-02	 1.899700962720899e+00	-1.512775275065580e+01
1	 0.000000000000000e+00	 1.900000000000000e+00	-1.538410511757897e+01
1	 3.480043377576615e-01	 1.880571517101082e+00	-1.282882501386740e+01
1	 3.125297802393933e-01	 1.886791293833689e+00	-1.302007652373781e+01
1	 2.771585227692485e-01	 1.892310599049096e+00	-1.322274702786692e+01
1	 2.419090687938004e-01	 1.897138964980581e+00	-1.343636255787471e+01
1	 2.067993303810904e-01	 1.901286482085814e+00	-1.366042002146238e+01
1	 1.718466124826434e-01	 1.904763762723215e+00	-1.389439024899056e+01
1	 1.370675994970205e-01	 1.907581904708456e+00	-1.413772103100314e+01
1	 1.024783440867457e-01	 1.909752454899516e+00	-1.438984012906763e+01
1	 6.809425819115501e-02	 1.911287372951007e+00	-1.465015824350946e+01
1	 3.393010616935248e-02	 1.912198995370370e+00	-1.491807192289540e+01
1	 0.000000000000000e+00	 1.912500000000000e+00	-1.519296640144769e+01
1	 3.502788759148565e-01	 1.892862834205940e+00	-1.256423034372266e+01
1	 3.145724585436130e-01	 1.899123263074128e+00	-1.275150554514015e+01
1	 2.789700163841413e-01	 1.904678642179897e+00	-1.295275868652202e+01
1	 2.434901738205753e-01	 1.909538566058704e+00	-1.316752332668297e+01
1	 2.081509599932976e-01	 1.913713191118922e+00	-1.339529484868337e+01
1	 1.729697929580925e-01	 1.917213199080792e+00	-1.363553388131166e+01
1	 1.379634661618794e-01	 1.920049760294728e+00	-1.388766973485666e+01
1	 1.031481371865461e-01	 1.922234497088370e+00	-1.415110382998492e+01
1	 6.853931870305990e-02	 1.923779447284006e+00	-1.442521309980899e+01
1	 3.415187156960520e-02	 1.924697028019846e+00	-1.470935334659910e+01
1	 0.000000000000000e+00	 1.925000000000000e+00	-1.500286253603514e+01
1	 3.525534140725660e-01	 1.905154151311284e+00	-1.229847269218399e+01
1	 3.166151368484313e-01	 1.911455232314958e+00	-1.248213971039216e+01
1	 2.807815099996850e-01	 1.917046685311005e+00	-1.268230967690828e+01
1	 2.450712788480224e-01	 1.921938167137059e+00	-1.289852375300841e+01
1	 2.095025896061675e-01	 1.926139900152201e+00	-1.313027594625681e+01
1	 1.740929734341652e-01	 1.929662635438486e+00	-1.337701690378372e+01
1	 1.388593328272932e-01	 1.932517615881074e+00	-1.363815774303357e+01
1	 1.038179302868042e-01	 1.934716539277265e+00	-1.391307389526921e+01
1	 6.898437921529707e-02	 1.936271521617023e+00	-1.420110893844720e+01
1	 3.437363697003744e-02	 1.937195060669326e+00	-1.450157839754510e+01
1	 0.000000000000000e+00	 1.937500000000000e+00	-1.481377349197237e+01
1	 3.548279522307902e-01	 1.917445468417113e+00	-1.203157442427822e+01
1	 3.186578151538482e-01	 1.923787201556179e+00	-1.221199430518942e+01
1	 2.825930036158798e-01	 1.929414728442421e+00	-1.241140885803111e+01
1	 2.466523838761414e-01	 1.934337768215650e+00	-1.262936692036082e+01
1	 2.108542192197002e-01	 1.938566609185649e+00	-1.286536127052271e+01
1	 1.752161539108614e-01	 1.942112071796298e+00	-1.311883278967330e+01
1	 1.397551994932619e-01	 1.944985471467495e+00	-1.338917468429750e+01
1	 1.044877233875199e-01	 1.947198581466201e+00	-1.367573674099085e+01
1	 6.942943972786655e-02	 1.948763595950059e+00	-1.397782958668711e+01
1	 3.459540237064921e-02	 1.949693093318812e+00	-1.429472892905570e+01
1	 0.000000000000000e+00	 1.950000000000000e+00	-1.462567975346392e+01
1	 3.571024903895291e-01	 1.929736785523427e+00	-1.176355733522295e+01
1	 3.207004934598637e-01	 1.936119170797790e+00	-1.194108422578256e+01
1	 2.844044972327253e-01	 1.941782771574142e+00	-1.214006486318872e+01
1	 2.482334889049326e-01	 1.946737369294472e+00	-1.236005583368892e+01
1	 2.122058488338956e-01	 1.950993318219269e+00	-1.260054882988829e+01
1	 1.763393343881811e-01	 1.954561508154227e+00	-1.286097517853358e+01
1	 1.406510661597856e-01	 1.957453327053991e+00	-1.314071045164709e+01
1	 1.051575164886933e-01	 1.959680623655180e+00	-1.343907912930743e+01
1	 6.987450024076833e-02	 1.961255670283113e+00	-1.375535928383608e+01
1	 3.481716777144051e-02	 1.962191125968301e+00	-1.408878725678893e+01
1	 0.000000000000000e+00	 1.962499999999999e+00	-1.443856230193205e+01
1	 3.593770285487826e-01	 1.942028102630226e+00	-1.149444266845763e+01
1	 3.227431717664778e-01	 1.948451140039792e+00	-1.166942399130250e+01
1	 2.862159908502217e-01	 1.954150814706171e+00	-1.186828610711480e+01
1	 2.498145939343959e-01	 1.959136970373530e+00	-1.209059342186683e+01
1	 2.135574784487539e-01	 1.963420027253059e+00	-1.233583668318124e+01
1	 1.774625148661244e-01	 1.967010944512274e+00	-1.260343787094123e+01
1	 1.415469328268642e-01	 1.969921182640562e+00	-1.289275519395449e+01
1	 1.058273095903243e-01	 1.972162665844200e+00	-1.320308815751171e+01
1	 7.031956075400238e-02	 1.973747744616185e+00	-1.353368266820591e+01
1	 3.503893317241133e-02	 1.974689158617795e+00	-1.388373614410764e+01
1	 0.000000000000000e+00	 1.975000000000000e+00	-1.425240260028196e+01
1	 3.616515667085508e-01	 1.954319419737511e+00	-1.122425113299592e+01
1	 3.247858500736904e-01	 1.960783109282185e+00	-1.139702775561856e+01
1	 2.880274844683691e-01	 1.966518857838506e+00	-1.159608079285171e+01
1	 2.513956989645312e-01	 1.971536571452820e+00	-1.182098254008636e+01
1	 2.149091080642749e-01	 1.975846736287019e+00	-1.207122293806361e+01
1	 1.785856953446911e-01	 1.979460380870439e+00	-1.234621482343355e+01
1	 1.424427994944977e-01	 1.982389038227207e+00	-1.264529930791907e+01
1	 1.064971026924130e-01	 1.984644708033262e+00	-1.296775124749302e+01
1	 7.076462126756874e-02	 1.986239818949276e+00	-1.331278476456640e+01
1	 3.526069857356168e-02	 1.987187191267294e+00	-1.367955878800085e+01
1	 0.000000000000000e+00	 1.987500000000000e+00	-1.406718257776083e+01
1	 3.639261048688338e-01	 1.966610736845282e+00	-1.095300292012606e+01
1	 3.268285283815017e-01	 1.973115078524969e+00	-1.112390931875332e+01
1	 2.898389780871672e-01	 1.978886900971149e+00	-1.132345691836548e+01
1	 2.529768039953388e-01	 1.983936172532344e+00	-1.155122597215957e+01
1	 2.162607376804587e-01	 1.988273445321150e+00	-1.180670574950593e+01
1	 1.797088758238815e-01	 1.991909817228721e+00	-1.208930014363428e+01
1	 1.433386661626862e-01	 1.994856893813928e+00	-1.239833343032256e+01
1	 1.071668957949593e-01	 1.997126750222366e+00	-1.273305613559324e+01
1	 7.120968178146743e-02	 1.998731893282386e+00	-1.309265097206783e+01
1	 3.548246397489156e-02	 1.999685223916798e+00	-1.347623880553266e+01
1	 0.000000000000000e+00	 2.000000000000000e+00	-1.388288461538461e+01
