label=Stress xy
num_items=4608

0:1.2895005880564869e-002
1:-4.5054617796532075e-002
2:-6.9648435932205724e-002
3:-2.2619054984616811e-002
4:5.0651391380898039e-002
5:1.0230886460594843e-001
6:3.2442866671251409e-002
7:-2.8677506324181166e-002
8:-4.0845812914035280e-002
9:-2.1027271974627799e-002
10:1.2958201513369835e-001
11:7.1952805417380014e-002
12:8.1660070160605278e-004
13:-5.4566774461057226e-002
14:-8.3335399565321294e-002
15:3.3658056668227160e-002
16:2.3546715452123893e-002
17:-5.9402825697190105e-003
18:-5.2873687890919029e-002
19:-9.4948398757018299e-002
20:-1.0263614397894971e-001
21:-6.0025782893413572e-002
22:-3.1384390921269864e-002
23:-4.2860538926167438e-002
24:-7.3749078659134576e-002
25:1.0050502266427740e-001
26:1.6522103993746629e-001
27:1.5520420881746003e-001
28:2.0655812571687755e-002
29:-1.4278107183328628e-001
30:8.2795650856368717e-003
31:4.9831118001858098e-002
32:-1.9332718631497963e-003
33:-1.8752981837832783e-001
34:-3.9117067789782833e-001
35:-6.7463110717591937e-002
36:-2.4248536530998316e-002
37:-8.5037738191772391e-002
38:-2.9327873100781937e-001
39:-5.2020895083985830e-001
40:-7.2718598331641460e-002
41:1.4449191198127653e-002
42:6.5642480496548236e-003
43:-1.6239212075919418e-001
44:-3.7032150683096693e-001
45:-3.5805258849033489e-002
46:1.0567746265592219e-001
47:1.6950452480749217e-001
48:6.2959569774283103e-002
49:-1.0769439507986300e-001
50:-2.2375127891758576e-001
51:-1.7083224056197094e-001
52:3.9655332830119050e-001
53:1.5461449496403386e+000
54:2.6657172506674263e+000
55:-4.5332022964034779e-001
56:-3.0773816910427515e-001
57:3.2625952766162997e-001
58:1.4603634915576109e+000
59:2.5221847070254464e+000
60:-5.7423343641420688e-001
61:-4.0471601813362823e-001
62:1.6316954020445343e-001
63:1.1109357793295704e+000
64:1.9764283869166281e+000
65:-4.3931892648976273e-001
66:-3.7868463384307505e-001
67:-7.1408434285872430e-002
68:4.9552285971531906e-001
69:1.0318683760432092e+000
70:-2.0018874992322494e-001
71:-2.9022670795377248e-001
72:-2.7267458446807169e-001
73:-7.7567151884288782e-002
74:1.5769200602664732e-001
75:3.3005611916275317e+000
76:4.2379719223986010e+000
77:4.8608938100443719e+000
78:4.5927164075013884e+000
79:3.8975539947920197e+000
80:3.0555495877814352e+000
81:3.7467404360167875e+000
82:4.2095909995333916e+000
83:4.0196110971375463e+000
84:3.5147584767839652e+000
85:2.3365556909298575e+000
86:2.6823994247569591e+000
87:2.9331222094804872e+000
88:2.8799315076136534e+000
89:2.6689787075283178e+000
90:1.1894829562277154e+000
91:1.2080595987307006e+000
92:1.2731306955209249e+000
93:1.3832052850428753e+000
94:1.4842323283099219e+000
95:1.6019285315946691e-001
96:-3.4326176759244910e-002
97:-8.0819851172023283e-002
98:1.5595879142322708e-001
99:4.8041983716007952e-001
100:3.4047497428747291e+000
101:2.5455523534841098e+000
102:1.6217735578411094e+000
103:1.0954272810896519e+000
104:9.6436160926633407e-001
105:3.1630412683541693e+000
106:2.5560564113017006e+000
107:1.8845594621300330e+000
108:1.4713835179680834e+000
109:1.3376657141150710e+000
110:2.5232283502694983e+000
111:2.2678628273490875e+000
112:1.9398594222906320e+000
113:1.6664643906796366e+000
114:1.5111462641392475e+000
115:1.5436897505281713e+000
116:1.6188884992081831e+000
117:1.6035459481689494e+000
118:1.4390991390149062e+000
119:1.2411256272555171e+000
120:6.7957361601970256e-001
121:9.6841015009115561e-001
122:1.1488612153754600e+000
123:1.0410965086631339e+000
124:8.0189611792732607e-001
125:9.3944255934464815e-001
126:8.4107235186704454e-001
127:6.5256987169456804e-001
128:4.1124042465888988e-001
129:2.1608651608089924e-001
130:1.2193889813451440e+000
131:8.0281301251836967e-001
132:1.6078054278563339e-001
133:-5.1928838236161723e-001
134:-1.0055505200212478e+000
135:1.3026469954975275e+000
136:6.2001695301349291e-001
137:-3.9339601439989030e-001
138:-1.4231864535442178e+000
139:-2.1358214806584064e+000
140:9.9765303891225587e-001
141:2.8656294844512381e-001
142:-7.5030170139160057e-001
143:-1.7818848392756994e+000
144:-2.4832987301702789e+000
145:5.6628732397299064e-001
146:-2.7715143999535410e-002
147:-8.8067325316233647e-001
148:-1.7135593389238295e+000
149:-2.2707880750562728e+000
150:1.4606352419297267e-001
151:9.1709438093841120e-002
152:3.9353840296182399e-002
153:1.9370866517883105e-002
154:2.4326306461363096e-002
155:-1.1022187530860716e+000
156:-9.7541669318086111e-001
157:-7.6591898671414849e-001
158:-5.2812357347837269e-001
159:-3.4947759830814862e-001
160:-2.2513435820167098e+000
161:-1.9801477719135079e+000
162:-1.5642232929919651e+000
163:-1.1259683496473962e+000
164:-8.1386114291323086e-001
165:-2.5937098603019768e+000
166:-2.3217886220854873e+000
167:-1.9098229178671340e+000
168:-1.4814939915717864e+000
169:-1.1795938753583857e+000
170:-2.3639387292140595e+000
171:-2.1740744872174864e+000
172:-1.8857005103359787e+000
173:-1.5850382286277827e+000
174:-1.3726607194118912e+000
175:2.3194048642343399e-002
176:8.1187090327769773e-003
177:-3.0552962946661130e-003
178:-1.2728594641744917e-003
179:7.3891551526546681e-003
180:-2.8875762213362766e-001
181:-2.3522319095397326e-001
182:-1.4969409752877821e-001
183:-5.5686513777965192e-002
184:1.3381265655093290e-002
185:-6.9564420767806490e-001
186:-5.5039516102079622e-001
187:-3.3607837657991158e-001
188:-1.1984054142653473e-001
189:2.8928040971592857e-002
190:-1.0431916622246187e+000
191:-8.1663445531928625e-001
192:-4.8876902313735876e-001
193:-1.6553997985607050e-001
194:5.2522950277579798e-002
195:-1.2464287680904358e+000
196:-9.7032734180373825e-001
197:-5.7367809332899700e-001
198:-1.8614318558721191e-001
199:7.3259957954808524e-002
200:9.9907898213426605e-003
201:8.0339998977131694e-003
202:6.0321096563828161e-003
203:5.0565557154640109e-003
204:4.9801051644329268e-003
205:3.1196408394637741e-002
206:2.9568521008755896e-002
207:2.7466553863740927e-002
208:2.5699589090724374e-002
209:2.4685455841487815e-002
210:6.6504965032878949e-002
211:6.4251663742532217e-002
212:6.0381994650754924e-002
213:5.5834949804120258e-002
214:5.2340635893073799e-002
215:1.0687079474183848e-001
216:1.0267641513134208e-001
217:9.5112406585273576e-002
218:8.5858644157501315e-002
219:7.8568485168956703e-002
220:1.3734178731486751e-001
221:1.3106589603290289e-001
222:1.1987203933697702e-001
223:1.0629709483092213e-001
224:9.5658838934966031e-002
225:5.0481446376199534e-003
226:5.0361131192446290e-003
227:4.8609664377085131e-003
228:4.4986075774311809e-003
229:4.1435866991645929e-003
230:2.4060711719240638e-002
231:2.2618462659087023e-002
232:2.0765872563350662e-002
233:1.9221582197297287e-002
234:1.8344165658461156e-002
235:5.0490118866182758e-002
236:4.7232495275610638e-002
237:4.3332066064100387e-002
238:4.0465556137537440e-002
239:3.9102164621566807e-002
240:7.5241111659183207e-002
241:7.0499702858121446e-002
242:6.5037008521622475e-002
243:6.1333853025338614e-002
244:5.9816075852159707e-002
245:9.1178674386016734e-002
246:8.5614549164919312e-002
247:7.9364026146575992e-002
248:7.5368553876859215e-002
249:7.3935882164859953e-002
250:3.9339466905970490e-003
251:3.5704953903285745e-003
252:3.1773776125594575e-003
253:2.9495886557290530e-003
254:2.8890344578229306e-003
255:1.7921086292255011e-002
256:1.7076793588121530e-002
257:1.5917182624394535e-002
258:1.4848793194064014e-002
259:1.4171626451282485e-002
260:3.8432610371308885e-002
261:3.6864165584393954e-002
262:3.4552803728688790e-002
263:3.2224141903425277e-002
264:3.0624002033818563e-002
265:5.8978581354516571e-002
266:5.6662196975871194e-002
267:5.3164250188134081e-002
268:4.9540481927885863e-002
269:4.6993581422515668e-002
270:7.3028830747870019e-002
271:7.0188024133588309e-002
272:6.5859765100805545e-002
273:6.1331577307957234e-002
274:5.8124483425938851e-002
275:2.8900596180193678e-003
276:2.8842829835097157e-003
277:2.8126711120595748e-003
278:2.6660062132163880e-003
279:2.5227257581878163e-003
280:1.3871712599555969e-002
281:1.3360090472061718e-002
282:1.2649302765329653e-002
283:1.1984178878390423e-002
284:1.1556216929550001e-002
285:2.9876308449628301e-002
286:2.8616164034212400e-002
287:2.6957998814349824e-002
288:2.5522273195997109e-002
289:2.4669657911692115e-002
290:4.5789682611572881e-002
291:4.3771781269101598e-002
292:4.1152715481220375e-002
293:3.8932865076567666e-002
294:3.7646361817671579e-002
295:5.6604209348276008e-002
296:5.4063543832718594e-002
297:5.0780526770421330e-002
298:4.8017441938532142e-002
299:4.6429338505720300e-002
300:2.4293908050514981e-003
301:2.2487239027256765e-003
302:2.0413660069722810e-003
303:1.9019960010454092e-003
304:1.8458889589149830e-003
305:1.1305270067976238e-002
306:1.0759221178798611e-002
307:1.0025415643958353e-002
308:9.3698325683202275e-003
309:8.9670941805826115e-003
310:2.4191250939487811e-002
311:2.3131019983299909e-002
312:2.1656865570436785e-002
313:2.0275920953206031e-002
314:1.9386458631593974e-002
315:3.6944469105736379e-002
316:3.5394867524619303e-002
317:3.3216697704760219e-002
318:3.1146725016962105e-002
319:2.9795350203566426e-002
320:4.5577115286262862e-002
321:4.3707588486628333e-002
322:4.1069537177677522e-002
323:3.8549917570166202e-002
324:3.6897368179481659e-002
325:1.8270123147401398e-003
326:1.7816775008991385e-003
327:1.6935492527587850e-003
328:1.5795835455466242e-003
329:1.4869122089568464e-003
330:8.7674215090573111e-003
331:8.3672536532660366e-003
332:7.7886308689198176e-003
333:7.2187745927460032e-003
334:6.8346677595108110e-003
335:1.8926789232421824e-002
336:1.8004780494710156e-002
337:1.6704621162033421e-002
338:1.5463901822676759e-002
339:1.4650792438617893e-002
340:2.9081338695240520e-002
341:2.7634839852518474e-002
342:2.5609264492432476e-002
343:2.3693802610814749e-002
344:2.2449041452840657e-002
345:3.6012920407761148e-002
346:3.4206734910802866e-002
347:3.1683557463837768e-002
348:2.9305097462602445e-002
349:2.7764047195674001e-002
350:1.4272508139162611e-003
351:1.2996105053509998e-003
352:1.1298282730861666e-003
353:9.8040654395540575e-004
354:8.9006848776435499e-004
355:6.6002289247795833e-003
356:6.0703156705579934e-003
357:5.3155515975289863e-003
358:4.5860207406948567e-003
359:4.1023369825058595e-003
360:1.4162764034102686e-002
361:1.3055214902459584e-002
362:1.1460574390957141e-002
363:9.8983026171619599e-003
364:8.8500558915114019e-003
365:2.1710218282846902e-002
366:2.0038636209269330e-002
367:1.7624039176111175e-002
368:1.5248946402176824e-002
369:1.3649739644550751e-002
370:2.6855566915987228e-002
371:2.4806633684271877e-002
372:2.1843549869415019e-002
373:1.8924843026843535e-002
374:1.6957212354716814e-002
375:8.3596351762529907e-004
376:6.9899738643017283e-004
377:4.7171204555337200e-004
378:2.1267832732668109e-004
379:1.7546345501533895e-005
380:3.8055557224325803e-003
381:3.1094259735680134e-003
382:2.0634284443817770e-003
383:9.8582264472084824e-004
384:2.3178373347805238e-004
385:8.2033405785596376e-003
386:6.6982445691214513e-003
387:4.4677826834057886e-003
388:2.2059176974483169e-003
389:6.4328841573867851e-004
390:1.2659551991481470e-002
391:1.0357212259824153e-002
392:6.9594523115196353e-003
393:3.5304944332002087e-003
394:1.1709973193826785e-003
395:1.5736186844105507e-002
396:1.2896160227503008e-002
397:8.7111382679445713e-003
398:4.4950584852569628e-003
399:1.5981311747611977e-003
400:-1.8552944770157273e-001
401:-1.1009504392593469e-001
402:-4.6577818989381008e-002
403:-3.8855010283019221e-002
404:-6.5640938738021654e-002
405:-2.1416458233145841e-001
406:-8.5391386479632195e-002
407:2.3610424522150435e-002
408:3.8046369352506375e-002
409:-6.4335111938516728e-003
410:1.0014414768510427e-001
411:2.7176992575549358e-001
412:3.9575049471893281e-001
413:3.6838891870685825e-001
414:2.6274242859777597e-001
415:8.3782389989360051e-001
416:1.0104028366897950e+000
417:1.0880053313694888e+000
418:9.5748940226958135e-001
419:7.4877687910501689e-001
420:1.5848421275416937e+000
421:1.7339963865350883e+000
422:1.7446722942538695e+000
423:1.5084583282518138e+000
424:1.2052883831169068e+000
425:-2.0649446924417551e-002
426:1.5304307017595889e-001
427:2.7583307580790239e-001
428:2.4226921917328426e-001
429:1.2950755633400010e-001
430:3.7356925390977937e-002
431:2.5418343844628621e-001
432:4.9419409543315906e-001
433:6.4209301644659589e-001
434:6.9016263786781651e-001
435:2.8373665597815761e-001
436:5.1653159777361024e-001
437:8.5908478532817367e-001
438:1.2036013586526011e+000
439:1.4399933977788042e+000
440:7.2197324620491543e-001
441:9.1464674778477972e-001
442:1.2776053768184892e+000
443:1.7366025133653613e+000
444:2.1052271012408137e+000
445:1.1314784468649379e+000
446:1.2645243165018305e+000
447:1.5942211453768791e+000
448:2.0841986080582142e+000
449:2.5108928522962679e+000
450:4.0944839766884872e-002
451:-1.0351989030059928e-001
452:-1.8821483628127680e-001
453:-1.2214827559217672e-001
454:9.5954815085742187e-003
455:6.4121379663973954e-001
456:4.6567049102167618e-001
457:3.1618422999038603e-001
458:2.9454596669393313e-001
459:3.5323156221823038e-001
460:1.4316534260730152e+000
461:1.1895953200351548e+000
462:9.1447203153197054e-001
463:7.3364257207399242e-001
464:6.6433914622730628e-001
465:2.1168159368856667e+000
466:1.7832812658805028e+000
467:1.3459673491105293e+000
468:9.6939309269612872e-001
469:7.4713888093095693e-001
470:2.5242078503410195e+000
471:2.1138624313294923e+000
472:1.5447877522067839e+000
473:1.0135392245047141e+000
474:6.7249467870729995e-001
475:-3.3637451095554036e-002
476:-2.8179282468946171e-001
477:-3.6585348327076356e-001
478:-1.1794295767723686e-001
479:2.4210239973654504e-001
480:2.9317556594642308e-001
481:4.4976631536186265e-002
482:-7.9034395395205889e-002
483:8.1523033663168099e-002
484:3.5467881678636376e-001
485:5.7602698396240093e-001
486:3.3457726484885753e-001
487:1.6204042367360913e-001
488:2.0465625662831397e-001
489:3.5738536966058965e-001
490:6.2626752031539878e-001
491:3.9966385101333768e-001
492:1.9045806797168532e-001
493:1.2698917720017686e-001
494:1.6738845465632055e-001
495:5.2691671648410621e-001
496:3.1510360723371389e-001
497:8.7670300447777280e-002
498:-4.1428842253081515e-002
499:-7.3085018219528911e-002
500:4.5984494884584304e-001
501:7.6343572233234014e-001
502:9.4172987606682579e-001
503:8.0356766670464408e-001
504:5.2738224110373144e-001
505:5.1301970256848395e-001
506:6.9287847037569295e-001
507:7.1390179951102783e-001
508:4.4689656771170988e-001
509:9.9061398025552957e-002
510:4.4949075969811642e-001
511:5.2267635013867808e-001
512:4.2251772447719510e-001
513:7.5959747616167875e-002
514:-3.0228018519128352e-001
515:2.1792002054758783e-001
516:2.7299240561793436e-001
517:1.8133760344681907e-001
518:-1.1508734018873068e-001
519:-4.3517206412104736e-001
520:-3.6772740169265759e-002
521:5.6817383398038455e-002
522:4.5487635172548183e-002
523:-1.4218445235536473e-001
524:-3.7166917619667511e-001
525:3.0480507496095788e-001
526:-1.9094884583733090e-001
527:-8.9450218672765702e-001
528:-1.5714100173327048e+000
529:-2.0183469937511265e+000
530:-9.7100830698059706e-002
531:-4.2278481291494813e-001
532:-8.6805734895537068e-001
533:-1.2757113345153179e+000
534:-1.5324747869020472e+000
535:-4.6156465550639930e-001
536:-6.1978878036683827e-001
537:-8.0631494249014279e-001
538:-9.3915381307749912e-001
539:-9.9901804552995321e-001
540:-5.5972253412412754e-001
541:-6.4744883228916139e-001
542:-7.1721823642578386e-001
543:-7.1723160797098429e-001
544:-6.7715865115021157e-001
545:-4.7373226425386289e-001
546:-5.6903168666725590e-001
547:-6.4065788921930000e-001
548:-6.3155501898472954e-001
549:-5.7895160096201770e-001
550:-2.0994816639229095e+000
551:-1.9755103241257805e+000
552:-1.7858478762848877e+000
553:-1.5865343128259568e+000
554:-1.4448812709602528e+000
555:-1.5928265497192640e+000
556:-1.5826176474455638e+000
557:-1.5648153607004252e+000
558:-1.5436230106524274e+000
559:-1.5272032109356624e+000
560:-1.0347941923274584e+000
561:-1.1325507908895378e+000
562:-1.2805662398895208e+000
563:-1.4343602084586387e+000
564:-1.5427035687447124e+000
565:-6.9532168728475674e-001
566:-8.3136999276650647e-001
567:-1.0431740103095715e+000
568:-1.2699251302937651e+000
569:-1.4333578566665637e+000
570:-5.8908765871863711e-001
571:-7.1124981530450981e-001
572:-9.0798748635914428e-001
573:-1.1259333121700936e+000
574:-1.2869506942725237e+000
575:-1.3314739673024247e+000
576:-1.0345613605408781e+000
577:-6.0864778152775689e-001
578:-1.9328800634699952e-001
579:8.4289093262886888e-002
580:-1.4391355209405674e+000
581:-1.1148117999782670e+000
582:-6.4973706265750131e-001
583:-1.9637988356600844e-001
584:1.0647622869891700e-001
585:-1.4824006745441243e+000
586:-1.1399482267046273e+000
587:-6.4976004615959482e-001
588:-1.7299360679800846e-001
589:1.4486901762215118e-001
590:-1.3897172259853980e+000
591:-1.0552955477204735e+000
592:-5.7830146380773140e-001
593:-1.1643330403260407e-001
594:1.9027633609101469e-001
595:-1.2483088507979376e+000
596:-9.3440258214880312e-001
597:-4.8843015956613473e-001
598:-5.8747415517996886e-002
599:2.2531471344411816e-001
600:1.5247385097662836e-001
601:1.4453445408387344e-001
602:1.3092910005663641e-001
603:1.1497179057725698e-001
604:1.0272340214101294e-001
605:1.7990710823550854e-001
606:1.6782620567426862e-001
607:1.4883388941778258e-001
608:1.2829513046268903e-001
609:1.1338100735523859e-001
610:2.2030128569506713e-001
611:2.0190188403999967e-001
612:1.7464940703063542e-001
613:1.4703006705837907e-001
614:1.2795853983083305e-001
615:2.6095853943632669e-001
616:2.3593907757465485e-001
617:1.9998483863831906e-001
618:1.6484331647480691e-001
619:1.4131282401438514e-001
620:2.8887377583817991e-001
621:2.5916032153213314e-001
622:2.1701006774481424e-001
623:1.7647804348384818e-001
624:1.4972932957633520e-001
625:9.7835454071823688e-002
626:9.2280525707509928e-002
627:8.6060207601010158e-002
628:8.2114831350623016e-002
629:8.0727798773186879e-002
630:1.0811142667054316e-001
631:1.0336856020547888e-001
632:9.7986066737969099e-002
633:9.4460962691381448e-002
634:9.3120998819743908e-002
635:1.2210229036293704e-001
636:1.1869333511085811e-001
637:1.1474969475834894e-001
638:1.1205198685232687e-001
639:1.1092569064073704e-001
640:1.3483685267821702e-001
641:1.3293382437066761e-001
642:1.3068093416429469e-001
643:1.2906251942997232e-001
644:1.2832190660997977e-001
645:1.4281116943344269e-001
646:1.4203535114238403e-001
647:1.4108178333679189e-001
648:1.4034513856805425e-001
649:1.3996674257110542e-001
650:7.9733890927712187e-002
651:7.6517923969432355e-002
652:7.1688352542289918e-002
653:6.6715976167533331e-002
654:6.3238377845854205e-002
655:9.1845700101240754e-002
656:8.7689213054708740e-002
657:8.1733103072687024e-002
658:7.5932181523065911e-002
659:7.2060013485323357e-002
660:1.0927413325451762e-001
661:1.0373595601744116e-001
662:9.6123706472519513e-002
663:8.9103022004433138e-002
664:8.4648644594939190e-002
665:1.2633664321827104e-001
666:1.1941153725517095e-001
667:1.1013547692144722e-001
668:1.0188735830900035e-001
669:9.6845532992268737e-002
670:1.3777804856769929e-001
671:1.2990282505348771e-001
672:1.1948617179685940e-001
673:1.1039545364150341e-001
674:1.0494946114586132e-001
675:6.1606252049905927e-002
676:5.8885633844940943e-002
677:5.5352444478429276e-002
678:5.2355049993852640e-002
679:5.0616055659864809e-002
680:7.0311018326725552e-002
681:6.7422579453002299e-002
682:6.3594373128423629e-002
683:6.0243415532635396e-002
684:5.8229338770931831e-002
685:8.2736188932372542e-002
686:7.9636508697234695e-002
687:7.5426823876673613e-002
688:7.1608653753317542e-002
689:6.9226263260157697e-002
690:9.4778745318523122e-002
691:9.1508839676577428e-002
692:8.6977739454852196e-002
693:8.2752419898749485e-002
694:8.0042731628741745e-002
695:1.0278252832003316e-001
696:9.9419946885642860e-002
697:9.4703870636869220e-002
698:9.0235028900567074e-002
699:8.7325403079154193e-002
700:4.9682634383210467e-002
701:4.7646396777693813e-002
702:4.4779401279821426e-002
703:4.2048883197075719e-002
704:4.0262684352766490e-002
705:5.7130613237005183e-002
706:5.4756416040267333e-002
707:5.1445418645237662e-002
708:4.8331390893594423e-002
709:4.6318059599697370e-002
710:6.7896305343220345e-002
711:6.5035164680619581e-002
712:6.1085633248080737e-002
713:5.7421655291167377e-002
714:5.5083673989667375e-002
715:7.8494419807759730e-002
716:7.5155794512850066e-002
717:7.0581580404358399e-002
718:6.6381503603725231e-002
719:6.3728331128177010e-002
720:8.5635381519623396e-002
721:8.1976126057725626e-002
722:7.6983286978222001e-002
723:7.2425077434834048e-002
724:6.9562101933926895e-002
725:3.9302388123366547e-002
726:3.7330288080030957e-002
727:3.4572747782005760e-002
728:3.1970145145322447e-002
729:3.0281904675885540e-002
730:4.5231739637470535e-002
731:4.2976737928736831e-002
732:3.9809508795654279e-002
733:3.6802669579079711e-002
734:3.4841516460583671e-002
735:5.3819904907560293e-002
736:5.1170486767588869e-002
737:4.7432398871185000e-002
738:4.3862685084816881e-002
739:4.1521743287643284e-002
740:6.2295548434137905e-002
741:5.9275316424104191e-002
742:5.5000932969929396e-002
743:5.0902907819316195e-002
744:4.8205779904640145e-002
745:6.8018750107770337e-002
746:6.4758858423352481e-002
747:6.0138109000327372e-002
748:5.5699170136037618e-002
749:5.2772371563300231e-002
750:2.9288368057372297e-002
751:2.7051418534298956e-002
752:2.3816304293346413e-002
753:2.0629485975006703e-002
754:1.8481018877029999e-002
755:3.3686884956417897e-002
756:3.1092940230172401e-002
757:2.7343872123175166e-002
758:2.3653586818126286e-002
759:2.1167337412500042e-002
760:4.0141064175323732e-002
761:3.7043114459955083e-002
762:3.2568911516050125e-002
763:2.8168848189118675e-002
764:2.5206728845151266e-002
765:4.6610767754097567e-002
766:4.3031123552958975e-002
767:3.7864456909290828e-002
768:3.2787286697627566e-002
769:2.9371607918670595e-002
770:5.1037726660986299e-002
771:4.7141962082843721e-002
772:4.1521198001771946e-002
773:3.6000417232039679e-002
774:3.2287830971601802e-002
775:1.7146042163710112e-002
776:1.4038361727339960e-002
777:9.4592845431772949e-003
778:4.8466450960978139e-003
779:1.6774756094282319e-003
780:1.9619349489648608e-002
781:1.6008611156342424e-002
782:1.0684486988896626e-002
783:5.3168447686133130e-003
784:1.6263774925174565e-003
785:2.3360187364291546e-002
786:1.9046433301643656e-002
787:1.2680556925505397e-002
788:6.2565834001710851e-003
789:1.8363901937146509e-003
790:2.7242410119378335e-002
791:2.2265636079444623e-002
792:1.4916576621471216e-002
793:7.4948409179485540e-003
794:2.3849175331980468e-003
795:2.9974747119383610e-002
796:2.4568190957047535e-002
797:1.6581388364639731e-002
798:8.5119537367607922e-003
799:2.9540083371094707e-003
800:2.0082830467550146e+000
801:2.0965995165541584e+000
802:2.0361146430515875e+000
803:1.7500475026391074e+000
804:1.4250771988346573e+000
805:2.5463857463316240e+000
806:2.4796525465065629e+000
807:2.2950090296645134e+000
808:2.0070658731285773e+000
809:1.7510785471334396e+000
810:2.6139196747436286e+000
811:2.4572985872106869e+000
812:2.2917003698159624e+000
813:2.2018711971906972e+000
814:2.1840657376800632e+000
815:1.8252375937155714e+000
816:1.7417399161074694e+000
817:1.8338980831630727e+000
818:2.1808939794514774e+000
819:2.5642816840580758e+000
820:7.9467642225062229e-001
821:8.5478026858252631e-001
822:1.2601197281709300e+000
823:2.0425795442081629e+000
824:2.7936014201882844e+000
825:1.3457511840534457e+000
826:1.4761036416425295e+000
827:1.8115204966105729e+000
828:2.3187033060449269e+000
829:2.7637462670532114e+000
830:1.7125532848469422e+000
831:1.8924201282536350e+000
832:2.2841661918629135e+000
833:2.8284506485473857e+000
834:3.2877813930323527e+000
835:2.2285685249535905e+000
836:2.4350210766291251e+000
837:2.8420067734132037e+000
838:3.3733743360360888e+000
839:3.8077055269835847e+000
840:2.7194794697460702e+000
841:2.8979418603504552e+000
842:3.2402471775597701e+000
843:3.6787778333714982e+000
844:4.0335336014415297e+000
845:3.0402882690442556e+000
846:3.1682771995016412e+000
847:3.4204911548522161e+000
848:3.7497028874140854e+000
849:4.0187585929961918e+000
850:2.7704397027351080e+000
851:2.3095000774251493e+000
852:1.6579051417565298e+000
853:1.0341167239114957e+000
854:6.2412111203787679e-001
855:3.2729384896010956e+000
856:2.7141436378096433e+000
857:1.9054880233968885e+000
858:1.1082823569873401e+000
859:5.7046482816101307e-001
860:3.7615830394190484e+000
861:3.1064236514670944e+000
862:2.1364989504054570e+000
863:1.1540719033315181e+000
864:4.7600710567391546e-001
865:3.9564380035991999e+000
866:3.2606911157481373e+000
867:2.2111763100319064e+000
868:1.1252068642878634e+000
869:3.6267183406037723e-001
870:3.9206881433981260e+000
871:3.2292745196477983e+000
872:2.1723421937656937e+000
873:1.0625986580354010e+000
874:2.7443020143743374e-001
875:4.6334085283130966e-001
876:2.5727819882300906e-001
877:1.9432197896753274e-002
878:-1.4246216680202090e-001
879:-2.0937466899937904e-001
880:3.8376759210401817e-001
881:1.9693670619775960e-001
882:-4.6674669845993930e-002
883:-2.5465581062789766e-001
884:-3.7620893700180830e-001
885:2.7349562118695053e-001
886:1.5466069621010525e-001
887:-3.9062205268879366e-002
888:-2.5620087328543056e-001
889:-4.1793556488103495e-001
890:1.7065592085067138e-001
891:1.6715633512256989e-001
892:9.2644921558234034e-002
893:-6.4328260343086890e-002
894:-2.1890513884105403e-001
895:1.0469924076582771e-001
896:2.0716137402641308e-001
897:2.5389051057225692e-001
898:1.7783647781548395e-001
899:5.5348926027610990e-002
900:-1.7627371121295826e-001
901:-4.8534019881561037e-002
902:4.3163837619795021e-003
903:-1.0233291031262487e-001
904:-2.6681084922166731e-001
905:-3.5006145092438851e-001
906:-1.7213468871839172e-001
907:-1.4166640370827530e-002
908:2.1885489763227215e-002
909:-2.3548551960920098e-002
910:-4.0590750026529421e-001
911:-2.0975071246419438e-001
912:2.1223514521254698e-002
913:1.8531889688473363e-001
914:2.5894769392320394e-001
915:-2.2567522294068432e-001
916:-7.6965183732349729e-002
917:1.3083922517445076e-001
918:3.2680186305082115e-001
919:4.5381672466404022e-001
920:3.3053525819437900e-002
921:1.1162494507297745e-001
922:2.4834401994097288e-001
923:4.1080510328317082e-001
924:5.3653817125189252e-001
925:-3.5497452694866949e-001
926:-4.6583089088972301e-001
927:-5.6051796508301677e-001
928:-5.7480818276633883e-001
929:-5.3837035603349193e-001
930:-8.2404161739568577e-002
931:-2.1202834549440974e-001
932:-3.4452747575652359e-001
933:-4.0890484922741793e-001
934:-4.1372391659561936e-001
935:2.3349897118250965e-001
936:9.4376567574365550e-002
937:-6.7156878643547330e-002
938:-1.7854402385113394e-001
939:-2.2579394458813931e-001
940:4.5047121535787193e-001
941:3.2322473282619241e-001
942:1.6395691394750325e-001
943:3.6859940298247164e-002
944:-3.1446692877792441e-002
945:5.4179139463726422e-001
946:4.3493641923898896e-001
947:2.9520082385553398e-001
948:1.7536097398275724e-001
949:1.0495677365285917e-001
950:-5.4994031026906143e-001
951:-6.6135402984845537e-001
952:-8.4204850191649294e-001
953:-1.0435906003949873e+000
954:-1.1931990255001992e+000
955:-4.3546080532178588e-001
956:-5.3962681800139178e-001
957:-7.0325058769544346e-001
958:-8.8004790810440747e-001
959:-1.0083490371938648e+000
960:-2.5827214338476140e-001
961:-3.5355647808120316e-001
962:-4.9471812994874642e-001
963:-6.3781554127206175e-001
964:-7.3664635943508083e-001
965:-6.9737769373512906e-002
966:-1.5819849867048322e-001
967:-2.7991184062914565e-001
968:-3.9232315078443930e-001
969:-4.6374173060470497e-001
970:6.5528089047477422e-002
971:-1.9455505343714499e-002
972:-1.2961970904598993e-001
973:-2.2280780524935748e-001
974:-2.7668966104788384e-001
975:-1.1553585600654759e+000
976:-8.5628371551207627e-001
977:-4.3253652831440359e-001
978:-2.5680773247211332e-002
979:2.4244746551851554e-001
980:-9.7231489155396744e-001
981:-7.0422236162170493e-001
982:-3.2685044480302505e-001
983:3.2435333678166291e-002
984:2.6739244980844312e-001
985:-7.0445072151704913e-001
986:-4.8467360283892014e-001
987:-1.7952609332102304e-001
988:1.0578576957942738e-001
989:2.8922221970607226e-001
990:-4.3680283780350976e-001
991:-2.6884157384878077e-001
992:-4.1044463944316004e-002
993:1.6516749106274548e-001
994:2.9358283171648697e-001
995:-2.5415542507038130e-001
996:-1.2358959946062047e-001
997:4.8440966302816725e-002
998:1.9769167096183793e-001
999:2.8652276525630160e-001
1000:3.0125200376636618e-001
1001:2.6913487428337529e-001
1002:2.2381203243375744e-001
1003:1.8052018206607598e-001
1004:1.5212400959040256e-001
1005:3.1671293320523558e-001
1006:2.8118328670495663e-001
1007:2.3154665428634727e-001
1008:1.8475324383451000e-001
1009:1.5443263281996519e-001
1010:3.2480228163820357e-001
1011:2.8780037949577669e-001
1012:2.3700862371047460e-001
1013:1.9024950696378745e-001
1014:1.6063575815542810e-001
1015:3.1559821096868101e-001
1016:2.8131327193138245e-001
1017:2.3550101637296544e-001
1018:1.9491081692501039e-001
1019:1.7019314907011387e-001
1020:2.9937605873917972e-001
1021:2.6935362396928020e-001
1022:2.3046675380633982e-001
1023:1.9761417023868511e-001
1024:1.7864708512960439e-001
1025:1.4497818669878401e-001
1026:1.4480122797204656e-001
1027:1.4462249036073069e-001
1028:1.4453930062796072e-001
1029:1.4453739411161870e-001
1030:1.4706894466968287e-001
1031:1.4770782047447137e-001
1032:1.4867484384842233e-001
1033:1.4967926031787945e-001
1034:1.5038664359893947e-001
1035:1.5359292087405974e-001
1036:1.5440943881478941e-001
1037:1.5556494058536754e-001
1038:1.5667267453586900e-001
1039:1.5740167758230927e-001
1040:1.6423163133812310e-001
1041:1.6401708734237372e-001
1042:1.6359106098387002e-001
1043:1.6303210588970829e-001
1044:1.6257402462911294e-001
1045:1.7386094838867280e-001
1046:1.7224778557590412e-001
1047:1.6972471084408083e-001
1048:1.6701055259355110e-001
1049:1.6504730778181612e-001
1050:1.4235517996229471e-001
1051:1.3418211166149263e-001
1052:1.2338026859082157e-001
1053:1.1396493439747275e-001
1054:1.0833207365966634e-001
1055:1.4836047262802735e-001
1056:1.4008898511726978e-001
1057:1.2909203921025808e-001
1058:1.1942101637966612e-001
1059:1.1357873785685987e-001
1060:1.5543055034428954e-001
1061:1.4735213484581891e-001
1062:1.3656326711426356e-001
1063:1.2701160160063507e-001
1064:1.2119985058757751e-001
1065:1.6045179067405635e-001
1066:1.5296718315191021e-001
1067:1.4297322480421784e-001
1068:1.3412774781596679e-001
1069:1.2874726027668443e-001
1070:1.6270343104831464e-001
1071:1.5585458823904477e-001
1072:1.4674065401466915e-001
1073:1.3871461534881863e-001
1074:1.3385889394737410e-001
1075:1.0610942243575776e-001
1076:1.0269720964563801e-001
1077:9.7907319509525567e-002
1078:9.3363315555763077e-002
1079:9.0401588117932363e-002
1080:1.1125984138794250e-001
1081:1.0771314908364632e-001
1082:1.0277114583331619e-001
1083:9.8128290390900721e-002
1084:9.5129663473382545e-002
1085:1.1881091360692259e-001
1086:1.1500797334331561e-001
1087:1.0975635330219613e-001
1088:1.0488187652459539e-001
1089:1.0176989625842300e-001
1090:1.2637254239518125e-001
1091:1.2224285798429572e-001
1092:1.1657838768476049e-001
1093:1.1136905610434922e-001
1094:1.0807322630155679e-001
1095:1.3154230192106212e-001
1096:1.2714898271055328e-001
1097:1.2114326640374445e-001
1098:1.1564595044161451e-001
1099:1.1218406587368665e-001
1100:8.8668274715771378e-002
1101:8.4895431958134371e-002
1102:7.9746581689119383e-002
1103:7.5044630620605596e-002
1104:7.2090546940227901e-002
1105:9.3362936211948688e-002
1106:8.9476816369555179e-002
1107:8.4151648114381389e-002
1108:7.9260975484781268e-002
1109:7.6170890267341321e-002
1110:9.9949406846325931e-002
1111:9.5937788315662451e-002
1112:9.0413558244829439e-002
1113:8.5305660206776282e-002
1114:8.2056798983827062e-002
1115:1.0619323287132794e-001
1116:1.0210410766537725e-001
1117:9.6451094499774293e-002
1118:9.1196249774164531e-002
1119:8.7836604558680309e-002
1120:1.1026013897236435e-001
1121:1.0614566231726932e-001
1122:1.0044508803195701e-001
1123:9.5130278611698274e-002
1124:9.1722557494764920e-002
1125:7.0496371468606336e-002
1126:6.7126228406803462e-002
1127:6.2348125770550482e-002
1128:5.7756702848852162e-002
1129:5.4728573625202767e-002
1130:7.4490723701480716e-002
1131:7.0927175446588983e-002
1132:6.5877323489224898e-002
1133:6.1027782736245338e-002
1134:5.7831222421103091e-002
1135:8.0265378408108115e-002
1136:7.6435724423737791e-002
1137:7.1012988187760570e-002
1138:6.5810524887502123e-002
1139:6.2384430509846912e-002
1140:8.5951364294998778e-002
1141:8.1875943130082396e-002
1142:7.6110106054771434e-002
1143:7.0584503646514155e-002
1144:6.6949213755276446e-002
1145:8.9783267364958577e-002
1146:8.5551703037284960e-002
1147:7.9568682550197445e-002
1148:7.3839528219993303e-002
1149:7.0073069267583943e-002
1150:5.2931078198205445e-002
1151:4.8889560188562754e-002
1152:4.3057288623993363e-002
1153:3.7327295795930415e-002
1154:3.3473161527036319e-002
1155:5.5927846915661369e-002
1156:5.1635357363502846e-002
1157:4.5434313091663743e-002
1158:3.9334057166370368e-002
1159:3.5226220828006492e-002
1160:6.0338215088724591e-002
1161:5.5708944678451944e-002
1162:4.9012887565635765e-002
1163:4.2415436296612451e-002
1164:3.7966820561011402e-002
1165:6.4774668229841278e-002
1166:5.9845146902705246e-002
1167:5.2707570798960289e-002
1168:4.5666418036257352e-002
1169:4.0913552844674357e-002
1170:6.7819226928454712e-002
1171:6.2705660159726728e-002
1172:5.5297316839111398e-002
1173:4.7983906469577751e-002
1174:4.3044265309448403e-002
1175:3.1071658245691022e-002
1176:2.5458405334937151e-002
1177:1.7165959126325028e-002
1178:8.7873627850264015e-003
1179:3.0162751700078968e-003
1180:3.2664205023679289e-002
1181:2.6674869891024855e-002
1182:1.7828469994188478e-002
1183:8.8920872309733376e-003
1184:2.7378954851040873e-003
1185:3.5189296240983783e-002
1186:2.8695091379500885e-002
1187:1.9104645824661193e-002
1188:9.4186048107579180e-003
1189:2.7492605671348659e-003
1190:3.7943746134680253e-002
1191:3.0999172056273384e-002
1192:2.0744490503987408e-002
1193:1.0388600899953511e-002
1194:3.2586046704875882e-003
1195:3.9956498404277466e-002
1196:3.2735691888422902e-002
1197:2.2073275043378363e-002
1198:1.1305817412898102e-002
1199:3.8925668370232659e-003
1200:1.7941812244425057e-001
1201:4.2379009242621712e-001
1202:1.1018192013896013e+000
1203:2.1603562086249144e+000
1204:3.1018524861230050e+000
1205:-4.9047595679320999e-001
1206:1.5374639165705190e-001
1207:1.3255879771109744e+000
1208:2.7689316698335706e+000
1209:3.9105700229933542e+000
1210:-1.4783089961089999e-001
1211:7.0514013137197029e-001
1212:2.0483538355963811e+000
1213:3.5034433449872324e+000
1214:4.5613807999488420e+000
1215:1.7678628868271202e+000
1216:2.3817961464133459e+000
1217:3.2406507911439535e+000
1218:4.0517549389387719e+000
1219:4.5782050417729589e+000
1220:3.9799339679759536e+000
1221:4.1733330015893726e+000
1222:4.3246422912378790e+000
1223:4.3191952929473434e+000
1224:4.2254028670021215e+000
1225:3.3799221049029873e+000
1226:3.4363842209181037e+000
1227:3.5750575576434032e+000
1228:3.7802728904919567e+000
1229:3.9586458608647264e+000
1230:4.1853282594211469e+000
1231:4.0542051688132608e+000
1232:3.8998788446453476e+000
1233:3.7903426007685814e+000
1234:3.7412789203552355e+000
1235:4.7544518976804477e+000
1236:4.4242656010838051e+000
1237:3.9516318321758277e+000
1238:3.4919349928597456e+000
1239:3.1854503017332974e+000
1240:4.5982717917484850e+000
1241:4.1589080317778686e+000
1242:3.4995940332828370e+000
1243:2.8213638136804478e+000
1244:2.3473438544556773e+000
1245:4.0748569869528302e+000
1246:3.6125866942066560e+000
1247:2.9014257983498672e+000
1248:2.1495967655536141e+000
1249:1.6128188293901762e+000
1250:3.8307873939981714e+000
1251:3.1177034908808992e+000
1252:2.0328777308365051e+000
1253:8.9980456445923784e-001
1254:9.8327122385201179e-002
1255:3.5339045907469999e+000
1256:2.7529971014424564e+000
1257:1.5976654950438460e+000
1258:4.2833002591615904e-001
1259:-3.7823378524633910e-001
1260:2.9086367424021011e+000
1261:2.1369935017409412e+000
1262:1.0374229250415328e+000
1263:-2.6005827758361705e-002
1264:-7.3143403300832266e-001
1265:2.0569506284090862e+000
1266:1.4236169971243113e+000
1267:5.6877937122728550e-001
1268:-1.9977074414163701e-001
1269:-6.7501798274605740e-001
1270:1.3452494275220721e+000
1271:8.8051478668435434e-001
1272:3.0138467882666958e-001
1273:-1.5721437489911319e-001
1274:-4.0112540595766766e-001
1275:-5.8984123377980910e-002
1276:1.0194367919865187e-001
1277:2.2800825341602926e-001
1278:2.2382539414508057e-001
1279:1.4612831590146488e-001
1280:-5.1309116763782336e-001
1281:-2.6585610614816901e-001
1282:-4.0926916166416239e-003
1283:1.3848990381902332e-001
1284:1.6737510618950566e-001
1285:-8.2259455426564232e-001
1286:-5.1516608818627896e-001
1287:-1.5162024193801321e-001
1288:1.0895055479783837e-001
1289:2.2771957278479943e-001
1290:-7.0962774646741011e-001
1291:-4.2067279513207284e-001
1292:-7.0543070523220702e-002
1293:1.9281737415666253e-001
1294:3.2280328842637102e-001
1295:-3.8973182502536119e-001
1296:-1.5859440670383165e-001
1297:1.1618016407086054e-001
1298:3.1525206930905164e-001
1299:4.0769547226602665e-001
1300:1.2796512784323871e-001
1301:1.8294142181027509e-001
1302:2.9320322513295072e-001
1303:4.3882749653599351e-001
1304:5.5859097674685010e-001
1305:1.7607657869855836e-001
1306:2.2655855908408812e-001
1307:3.3034146005040760e-001
1308:4.6960864059404361e-001
1309:5.8510097671827588e-001
1310:2.5786210113241331e-001
1311:2.9780398853477758e-001
1312:3.8630224441309557e-001
1313:5.1046315863771141e-001
1314:6.1574220754646114e-001
1315:3.5311488324885743e-001
1316:3.7781201564580585e-001
1317:4.4413619611925065e-001
1318:5.4630141370797791e-001
1319:6.3666251337899182e-001
1320:4.2589955146181857e-001
1321:4.3748301107538584e-001
1322:4.8470624018733899e-001
1323:5.6789231791152361e-001
1324:6.4536291429403836e-001
1325:5.6757401636202676e-001
1326:4.7654224962314462e-001
1327:3.5437347446776069e-001
1328:2.4543992879004339e-001
1329:1.7865627943936882e-001
1330:6.0230147701195558e-001
1331:5.4366473024070927e-001
1332:4.5729795246783411e-001
1333:3.7033685778493713e-001
1334:3.1061126958300528e-001
1335:6.4178419792381325e-001
1336:6.2203433770276240e-001
1337:5.7557222796476304e-001
1338:5.0826403919199581e-001
1339:4.5032230837499582e-001
1340:6.6775246950128486e-001
1341:6.7672614914761731e-001
1342:6.5528566835980306e-001
1343:5.9274734641247395e-001
1344:5.2642612629759766e-001
1345:6.7772025715497197e-001
1346:7.0046880183793492e-001
1347:6.8756326730761741e-001
1348:6.1973034523009507e-001
1349:5.4184703133295242e-001
1350:1.3999285173250575e-001
1351:5.7007884360037113e-002
1352:-4.8301252633927351e-002
1353:-1.3434260524043581e-001
1354:-1.8202727816572725e-001
1355:2.7361677417838226e-001
1356:1.9454479884326548e-001
1357:9.6066154734483933e-002
1358:1.8163018005484775e-002
1359:-2.3212798067059569e-002
1360:4.1282287276789426e-001
1361:3.3647521971575928e-001
1362:2.4359739432002872e-001
1363:1.7321008452077979e-001
1364:1.3806705608243586e-001
1365:4.8491716852836758e-001
1366:4.0772163131754102e-001
1367:3.1521354379611494e-001
1368:2.4711098008786880e-001
1369:2.1462853284205863e-001
1370:4.9558630005970533e-001
1371:4.1575915501521260e-001
1372:3.2049775509179057e-001
1373:2.5094960197387384e-001
1374:2.1823141170978674e-001
1375:-1.6336229062372337e-001
1376:-5.4509684284792977e-002
1377:8.6642816929145536e-002
1378:2.0610694177325520e-001
1379:2.7522451389441571e-001
1380:-1.3796188362286115e-002
1381:5.3719136784520921e-002
1382:1.3894284553507721e-001
1383:2.0795075427367135e-001
1384:2.4575729175667832e-001
1385:1.3709374974341768e-001
1386:1.5943983708699525e-001
1387:1.8526171480761913e-001
1388:2.0288174405902251e-001
1389:2.1020131563137559e-001
1390:2.0701276179899095e-001
1391:2.0244925198882630e-001
1392:1.9560841857184352e-001
1393:1.8857968822838106e-001
1394:1.8367193453956901e-001
1395:2.0823292693798795e-001
1396:1.9578542140251909e-001
1397:1.8200424102665810e-001
1398:1.7350774008218506e-001
1399:1.7074223722203688e-001
1400:2.8415969618913667e-001
1401:2.5811813177102944e-001
1402:2.2489712459840036e-001
1403:1.9751590589762927e-001
1404:1.8217335328182910e-001
1405:2.4955028327284104e-001
1406:2.3260353399892600e-001
1407:2.1137595277452895e-001
1408:1.9441363054176530e-001
1409:1.8528121504232889e-001
1410:2.0963683305540665e-001
1411:2.0307865169775374e-001
1412:1.9512379747557243e-001
1413:1.8912848695994403e-001
1414:1.8616036393138968e-001
1415:1.8252049514011073e-001
1416:1.8286907784870557e-001
1417:1.8308825387044450e-001
1418:1.8296125831365931e-001
1419:1.8267562390597331e-001
1420:1.7135652998548170e-001
1421:1.7442095355449108e-001
1422:1.7729228964535546e-001
1423:1.7824292467746705e-001
1424:1.7778845310236444e-001
1425:1.7803235481876384e-001
1426:1.7540612277246923e-001
1427:1.7147440729085309e-001
1428:1.6744060008866501e-001
1429:1.6462732693145005e-001
1430:1.8210158744412897e-001
1431:1.7761301725618625e-001
1432:1.7129654125266330e-001
1433:1.6528491500995202e-001
1434:1.6135485669356067e-001
1435:1.8390208903739685e-001
1436:1.7770947116093863e-001
1437:1.6939904549505830e-001
1438:1.6198938805677721e-001
1439:1.5744705767697409e-001
1440:1.8076057044369270e-001
1441:1.7407983140080774e-001
1442:1.6555603903575400e-001
1443:1.5852893336508936e-001
1444:1.5459025744396682e-001
1445:1.7577558260157378e-001
1446:1.6946019093565898e-001
1447:1.6181382438129546e-001
1448:1.5607108600269967e-001
1449:1.5324331044102407e-001
1450:1.6220874894285339e-001
1451:1.5587098991490758e-001
1452:1.4744762027130204e-001
1453:1.4004338533342464e-001
1454:1.3557277171619309e-001
1455:1.5898587880505999e-001
1456:1.5377907187592962e-001
1457:1.4683606511319544e-001
1458:1.4070328356282830e-001
1459:1.3698088127461883e-001
1460:1.5532438753857447e-001
1461:1.5143128192555116e-001
1462:1.4615462136561513e-001
1463:1.4138226236396018e-001
1464:1.3841308205234282e-001
1465:1.5292029605289115e-001
1466:1.4993391531552455e-001
1467:1.4572763129810107e-001
1468:1.4171972518488038e-001
1469:1.3909679040939002e-001
1470:1.5200109413183152e-001
1471:1.4940004846267269e-001
1472:1.4558225790998505e-001
1473:1.4175393576812842e-001
1474:1.3913359529106181e-001
1475:1.3332175256361170e-001
1476:1.2882625483320817e-001
1477:1.2268760198262409e-001
1478:1.1707718690134920e-001
1479:1.1354946773956551e-001
1480:1.3488495693495148e-001
1481:1.3031741756303514e-001
1482:1.2409387283987133e-001
1483:1.1842305333382039e-001
1484:1.1486815571251813e-001
1485:1.3648929921713937e-001
1486:1.3194323841241978e-001
1487:1.2578131978611845e-001
1488:1.2020798539602107e-001
1489:1.1674026325376530e-001
1490:1.3727981254574043e-001
1491:1.3290613243534863e-001
1492:1.2702681851917552e-001
1493:1.2177194785829824e-001
1494:1.1854230332222007e-001
1495:1.3735200990177029e-001
1496:1.3318275426622725e-001
1497:1.2762340094820929e-001
1498:1.2271297833328682e-001
1499:1.1973262145405277e-001
1500:1.1161585156791477e-001
1501:1.0752102567950829e-001
1502:1.0184231842593881e-001
1503:9.6541164845006952e-002
1504:9.3138050860039567e-002
1505:1.1295211952345753e-001
1506:1.0894041888510944e-001
1507:1.0336679632719410e-001
1508:9.8150948784839667e-002
1509:9.4794723791282315e-002
1510:1.1487855449313931e-001
1511:1.1097363396981175e-001
1512:1.0553200737047383e-001
1513:1.0041919224392055e-001
1514:9.7116683579346344e-002
1515:1.1676889181481920e-001
1516:1.1295298765033826e-001
1517:1.0761734405481532e-001
1518:1.0258154838930192e-001
1519:9.9314992297534627e-002
1520:1.1803902566912534e-001
1521:1.1427370197368401e-001
1522:1.0899548502741592e-001
1523:1.0399733735407637e-001
1524:1.0074512547269869e-001
1525:9.1184722319979261e-002
1526:8.6896607311431603e-002
1527:8.0832713774775661e-002
1528:7.5024990592162694e-002
1529:7.1206202452988185e-002
1530:9.2836793925682060e-002
1531:8.8488197807527799e-002
1532:8.2331865572069965e-002
1533:7.6427103070380226e-002
1534:7.2539405076134808e-002
1535:9.5156247786146855e-002
1536:9.0750618494234825e-002
1537:8.4505098962746147e-002
1538:7.8504412091743220e-002
1539:7.4547338006376571e-002
1540:9.7357080258685003e-002
1541:9.2931894446322522e-002
1542:8.6652067818540429e-002
1543:8.0610336777964933e-002
1544:7.6621363254779890e-002
1545:9.8791826932927720e-002
1546:9.4374820572556667e-002
1547:8.8103100652277166e-002
1548:8.2064875698935405e-002
1549:7.8075652882265367e-002
1550:6.8919245449238678e-002
1551:6.3727158512695919e-002
1552:5.6202715123718501e-002
1553:4.8771877895093421e-002
1554:4.3751285768544451e-002
1555:7.0203137577633579e-002
1556:6.4886957966539788e-002
1557:5.7177673782084722e-002
1558:4.9558286039990948e-002
1559:4.4406804705630083e-002
1560:7.2154461247706345e-002
1561:6.6686170129984401e-002
1562:5.8749565252411762e-002
1563:5.0897424366686560e-002
1564:4.5583878793263088e-002
1565:7.4190417135824985e-002
1566:6.8605201526099294e-002
1567:6.0492803245611494e-002
1568:5.2459436506456965e-002
1569:4.7019013708598616e-002
1570:7.5629363013867842e-002
1571:6.9984520469505609e-002
1572:6.1781683971417541e-002
1573:5.3654169296679308e-002
1574:4.8147323030923575e-002
1575:4.0611413001089516e-002
1576:3.3267115811269669e-002
1577:2.2422105191324451e-002
1578:1.1469966833456786e-002
1579:3.9294021010886446e-003
1580:4.1181090603987260e-002
1581:3.3631057166090966e-002
1582:2.2481112262783425e-002
1583:1.1219692935576113e-002
1584:3.4654284398895488e-003
1585:4.2253204265627793e-002
1586:3.4453589342230126e-002
1587:2.2932805432038642e-002
1588:1.1294181881919175e-002
1589:3.2786742589030237e-003
1590:4.3608031979672494e-002
1591:3.5620272256627672e-002
1592:2.3818616220094090e-002
1593:1.1892755327598372e-002
1594:3.6774412631219761e-003
1595:4.4695666867829782e-002
1596:3.6614728368663127e-002
1597:2.4672965374502857e-002
1598:1.2602650838407973e-002
1599:4.2861944825494944e-003
1600:5.2921893933494681e+000
1601:5.1251175931101614e+000
1602:4.7454211751221749e+000
1603:4.2052390328915070e+000
1604:3.7441431141332484e+000
1605:6.7961114475199977e+000
1606:5.9872540513498986e+000
1607:4.7471599793998074e+000
1608:3.4409691465650547e+000
1609:2.5110166065883734e+000
1610:6.2187199848831058e+000
1611:5.1009527986435659e+000
1612:3.5248015802028974e+000
1613:2.0207752590246417e+000
1614:1.0351472985070032e+000
1615:2.3378148986937721e+000
1616:1.6609360540946150e+000
1617:8.4671984156588520e-001
1618:2.4285018444663700e-001
1619:-4.8655064902096500e-002
1620:-2.2105937809995293e+000
1621:-2.1555613660398532e+000
1622:-1.8185559668650439e+000
1623:-1.1768150489227449e+000
1624:-5.6348006400025641e-001
1625:3.5089778979971382e+000
1626:3.0813291773872402e+000
1627:2.4147614637790888e+000
1628:1.7002689115496892e+000
1629:1.1848176247160880e+000
1630:2.1995153096628410e+000
1631:1.9119572299284431e+000
1632:1.4449072595639953e+000
1633:9.2324308222699292e-001
1634:5.3562691857582956e-001
1635:7.7855518769571486e-001
1636:7.1856087710153416e-001
1637:5.7650899283287371e-001
1638:3.7004709970360844e-001
1639:1.9204792501073781e-001
1640:-5.2231903957237230e-002
1641:1.4197915090943342e-001
1642:3.6393887177645046e-001
1643:5.1169278189480993e-001
1644:5.6995219248086126e-001
1645:-2.8044501773149411e-001
1646:1.0266645165925158e-001
1647:5.9562015205301444e-001
1648:1.0076786733468164e+000
1649:1.2425829807638820e+000
1650:9.5723798214618794e-001
1651:6.2897059339221439e-001
1652:2.4662691759987684e-001
1653:-1.8815176856386957e-002
1654:-1.3290847275562670e-001
1655:4.1343380442259065e-001
1656:3.5814720565126634e-001
1657:3.3476871342146913e-001
1658:3.7982321953985182e-001
1659:4.4991195936565997e-001
1660:1.8917697974732597e-001
1661:3.7402948460676810e-001
1662:6.4258418565864583e-001
1663:9.0859528281321877e-001
1664:1.0887876791346804e+000
1665:6.4480315889333273e-001
1666:8.8010874820968543e-001
1667:1.1628235304678396e+000
1668:1.3720181065831984e+000
1669:1.4726281402264605e+000
1670:1.3466051049411232e+000
1671:1.5073698286776263e+000
1672:1.6401447513137004e+000
1673:1.6509308848190869e+000
1674:1.5882012986248981e+000
1675:-1.0335518538920183e-001
1676:7.2612611512033173e-002
1677:2.7353372333291665e-001
1678:4.0699521720411302e-001
1679:4.5937099495921391e-001
1680:4.8856287355143091e-001
1681:5.3640572654852814e-001
1682:5.6757535212585464e-001
1683:5.5252582772910075e-001
1684:5.1569108778793016e-001
1685:1.1053647940653206e+000
1686:9.8646423871643829e-001
1687:7.9962986863387386e-001
1688:5.9768054337881860e-001
1689:4.5108804600819769e-001
1690:1.4250652460721143e+000
1691:1.1642366646207329e+000
1692:7.9573753981513184e-001
1693:4.4322765463862895e-001
1694:2.1169278208203662e-001
1695:1.4726669940093386e+000
1696:1.1291774557111129e+000
1697:6.5750356564151047e-001
1698:2.2305938317661664e-001
1699:-5.2222020018951508e-002
1700:4.6426126777292048e-001
1701:4.6129770310027268e-001
1702:4.8715722347742962e-001
1703:5.4890676060905863e-001
1704:6.1169689826514928e-001
1705:4.9053752703332981e-001
1706:4.5269799789908183e-001
1707:4.2714303781068974e-001
1708:4.3707083214350645e-001
1709:4.6423886452633267e-001
1710:3.9287688580868246e-001
1711:3.2595473107476469e-001
1712:2.5730982316633522e-001
1713:2.2355128136205915e-001
1714:2.2054405171264804e-001
1715:1.3342327718579738e-001
1716:6.3551260843536905e-002
1717:-9.9152016073672626e-003
1718:-4.9091686271172538e-002
1719:-5.6141413961508270e-002
1720:-1.3671956778449776e-001
1721:-1.9359000101663443e-001
1722:-2.4835984430931229e-001
1723:-2.6924697214815535e-001
1724:-2.6404125754002289e-001
1725:6.4035156742548993e-001
1726:6.6301527140952665e-001
1727:6.4919574409059377e-001
1728:5.7951025616091401e-001
1729:4.9982255224681299e-001
1730:4.8104197869892429e-001
1731:4.9596775147768518e-001
1732:4.7935837446080820e-001
1733:4.1703402174794552e-001
1734:3.4820589370120797e-001
1735:2.2809305301511262e-001
1736:2.4144914590176025e-001
1737:2.3504911607151419e-001
1738:1.9779904725850334e-001
1739:1.5463512529033285e-001
1740:-4.8218856969474935e-002
1741:-2.4831362820446002e-002
1742:-4.0336114732126560e-003
1743:7.7903760447720180e-004
1744:-5.1195971306380057e-003
1745:-2.5033151056317104e-001
1746:-2.1342773528113709e-001
1747:-1.6429551180977728e-001
1748:-1.2099740569319835e-001
1749:-9.4782252222669852e-002
1750:4.5442723523716494e-001
1751:3.7979480216302691e-001
1752:2.9134636647356121e-001
1753:2.2766745409759517e-001
1754:1.9841499044287758e-001
1755:3.1258220440592605e-001
1756:2.6095236865652138e-001
1757:2.0197591376357210e-001
1758:1.6276251157839672e-001
1759:1.4734034588230643e-001
1760:1.3505285500203631e-001
1761:1.1413430366734778e-001
1762:9.3962020424885148e-002
1763:8.6221396007169035e-002
1764:8.8078749164441306e-002
1765:-6.6020656191760488e-003
1766:-3.4296755424437437e-004
1767:1.3114323382882246e-002
1768:3.1671879261722692e-002
1769:4.7275116257261961e-002
1770:-8.2721952672216437e-002
1771:-5.9934190870004247e-002
1772:-2.6485241870687702e-002
1773:7.0575014646249417e-003
1774:3.0017102831332434e-002
1775:1.8965229166568159e-001
1776:1.7913364030550080e-001
1777:1.6896762078170161e-001
1778:1.6502583398915308e-001
1779:1.6591053050241900e-001
1780:1.4415040044180077e-001
1781:1.4258407788305891e-001
1782:1.4402137839845119e-001
1783:1.4989273861295593e-001
1784:1.5645000773592452e-001
1785:9.1448869809084593e-002
1786:9.9692349872754826e-002
1787:1.1328912870987304e-001
1788:1.2869846706144833e-001
1789:1.4026271734325871e-001
1790:5.5303109238470961e-002
1791:6.9434734528900796e-002
1792:8.9448180572682154e-002
1793:1.0865268594626461e-001
1794:1.2130225999126436e-001
1795:4.0132861043169550e-002
1796:5.6031990040279617e-002
1797:7.7127415462606319e-002
1798:9.5623727182599122e-002
1799:1.0676104874254050e-001
1800:1.6754136565720454e-001
1801:1.7059979972195122e-001
1802:1.7327555257137306e-001
1803:1.7380858950340483e-001
1804:1.7294137745962129e-001
1805:1.5898288608447869e-001
1806:1.6063417953913522e-001
1807:1.6184203573235528e-001
1808:1.6161155979901815e-001
1809:1.6062770088952746e-001
1810:1.4350436003142264e-001
1811:1.4399560386376409e-001
1812:1.4437263827594921e-001
1813:1.4434282869405224e-001
1814:1.4408869814932676e-001
1815:1.2452513732744182e-001
1816:1.2492657246074017e-001
1817:1.2604002844078305e-001
1818:1.2777812855921508e-001
1819:1.2932396730252996e-001
1820:1.0955307017957287e-001
1821:1.1050814124881400e-001
1822:1.1302502975995049e-001
1823:1.1687094620030870e-001
1824:1.2026091462395404e-001
1825:1.7099505812575783e-001
1826:1.6541313142120154e-001
1827:1.5882622165193580e-001
1828:1.5412556825630708e-001
1829:1.5199943096963481e-001
1830:1.5924724118703271e-001
1831:1.5565458275905028e-001
1832:1.5158101800567517e-001
1833:1.4891868261715038e-001
1834:1.4791152188364945e-001
1835:1.4364617554496939e-001
1836:1.4249441171287255e-001
1837:1.4140992878108458e-001
1838:1.4104105341171966e-001
1839:1.4120034627167002e-001
1840:1.2994927984135166e-001
1841:1.3067728075957341e-001
1842:1.3176017025740888e-001
1843:1.3286304551524097e-001
1844:1.3362766212308391e-001
1845:1.2169007156425241e-001
1846:1.2337930098171770e-001
1847:1.2547009081622584e-001
1848:1.2710583940194112e-001
1849:1.2796139278562257e-001
1850:1.5094354952271405e-001
1851:1.4837096875691846e-001
1852:1.4457966521668916e-001
1853:1.4075976995538789e-001
1854:1.3813480661398733e-001
1855:1.4707370946532874e-001
1856:1.4441627474707791e-001
1857:1.4061693743992967e-001
1858:1.3692713459796427e-001
1859:1.3447037676062157e-001
1860:1.4061261728247632e-001
1861:1.3803165589254973e-001
1862:1.3451450283992300e-001
1863:1.3130915398632459e-001
1864:1.2929944561720311e-001
1865:1.3320771330660669e-001
1866:1.3094178287977570e-001
1867:1.2805615399036446e-001
1868:1.2568459903382620e-001
1869:1.2436049776769417e-001
1870:1.2760872611294077e-001
1871:1.2569500053504204e-001
1872:1.2344135965761167e-001
1873:1.2183991889930704e-001
1874:1.2112108193863043e-001
1875:1.3640443326758581e-001
1876:1.3243980589750998e-001
1877:1.2716286717699624e-001
1878:1.2251437084832532e-001
1879:1.1970110582635732e-001
1880:1.3293504298581502e-001
1881:1.2949554148843251e-001
1882:1.2489941603405190e-001
1883:1.2082694542205294e-001
1884:1.1834682616359372e-001
1885:1.2808018744859581e-001
1886:1.2532833303816154e-001
1887:1.2161006839639645e-001
1888:1.1826200941901580e-001
1889:1.1618840470745465e-001
1890:1.2349351840297193e-001
1891:1.2133264510280015e-001
1892:1.1835068519433008e-001
1893:1.1558548177224282e-001
1894:1.1382172563088996e-001
1895:1.2051546962315826e-001
1896:1.1870262153004607e-001
1897:1.1614213156205921e-001
1898:1.1369361053100054e-001
1899:1.1208589948753137e-001
1900:1.1805674307607586e-001
1901:1.1432192842701505e-001
1902:1.0908449324163769e-001
1903:1.0412249813840974e-001
1904:1.0089231421423760e-001
1905:1.1680232782311797e-001
1906:1.1315691240104694e-001
1907:1.0805176808571898e-001
1908:1.0322369926268730e-001
1909:1.0008591078232323e-001
1910:1.1478054839837158e-001
1911:1.1130976971306836e-001
1912:1.0646237572520566e-001
1913:1.0189445209757814e-001
1914:9.8935687965018726e-002
1915:1.1253910498468289e-001
1916:1.0929492388607971e-001
1917:1.0478137084668167e-001
1918:1.0054968303545105e-001
1919:9.7821904100633836e-002
1920:1.1088224576966105e-001
1921:1.0782266079591772e-001
1922:1.0358080341082865e-001
1923:9.9622446664058353e-002
1924:9.7082260070916054e-002
1925:9.8951863861944808e-002
1926:9.4562664091546289e-002
1927:8.8326269024980836e-002
1928:8.2316957702464985e-002
1929:7.8343795545313122e-002
1930:9.8194260526121208e-002
1931:9.3897442242940957e-002
1932:8.7779056895594162e-002
1933:8.1867228324334448e-002
1934:7.7948840423665011e-002
1935:9.7128522971659151e-002
1936:9.2974306652310393e-002
1937:8.7039452132000553e-002
1938:8.1281095030747971e-002
1939:7.7450237678709608e-002
1940:9.6114701634558361e-002
1941:9.2111786670616702e-002
1942:8.6373202224447013e-002
1943:8.0781055840301763e-002
1944:7.7046428428474659e-002
1945:9.5452213425766999e-002
1946:9.1557618008026406e-002
1947:8.5960382714644762e-002
1948:8.0489058515321607e-002
1949:7.6825143418952163e-002
1950:7.5897279534828915e-002
1951:7.0236606493966375e-002
1952:6.2008403533309726e-002
1953:5.3852926203433654e-002
1954:4.8325492985538995e-002
1955:7.5514938421107472e-002
1956:6.9853044493447036e-002
1957:6.1617613290753721e-002
1958:5.3448442145984772e-002
1959:4.7907942536817121e-002
1960:7.5045107438834677e-002
1961:6.9414474625593026e-002
1962:6.1216854862737528e-002
1963:5.3076027078361142e-002
1964:4.7549442220103162e-002
1965:7.4682310881429931e-002
1966:6.9122215825934571e-002
1967:6.1019923578675042e-002
1968:5.2964955230451659e-002
1969:4.7491561766439865e-002
1970:7.4496066352438634e-002
1971:6.9006708713536064e-002
1972:6.1002562789832099e-002
1973:5.3039275192305370e-002
1974:4.7624773640404856e-002
1975:4.4860919684966236e-002
1976:3.6750247123206875e-002
1977:2.4763635277093340e-002
1978:1.2646918866995351e-002
1979:4.2978831740543297e-003
1980:4.4433055882332123e-002
1981:3.6296411382688881e-002
1982:2.4270302469339342e-002
1983:1.2112348898727251e-002
1984:3.7341532622652291e-003
1985:4.4079157738291630e-002
1986:3.5948660984450501e-002
1987:2.3929410601017505e-002
1988:1.1775767396108030e-002
1989:3.3990510420067906e-003
1990:4.4049297486584982e-002
1991:3.5977454418419326e-002
1992:2.4041951406715927e-002
1993:1.1969507409324120e-002
1994:3.6467762774629498e-003
1995:4.4215099918804131e-002
1996:3.6213480463872280e-002
1997:2.4379347580723316e-002
1998:1.2406533618599837e-002
1999:4.1508380943348546e-003
2000:-5.0060609352571035e+000
2001:-4.4014939464704073e+000
2002:-3.2632224515512225e+000
2003:-1.8243314379448412e+000
2004:-6.6900275737091486e-001
2005:-9.5001845337951423e+000
2006:-7.8881919920292711e+000
2007:-5.3676596832490082e+000
2008:-2.6570287111638002e+000
2009:-6.9675851309157821e-001
2010:-1.3358513422763469e+001
2011:-1.0832013088439933e+001
2012:-7.1084733833905878e+000
2013:-3.3566799526994449e+000
2014:-7.7841628044721900e-001
2015:-1.3980972193990320e+001
2016:-1.1206380416768679e+001
2017:-7.2557225464493849e+000
2018:-3.4386558881514384e+000
2019:-9.0881509137875471e-001
2020:-1.2546693976725372e+001
2021:-9.9856106623063958e+000
2022:-6.4406078333878076e+000
2023:-3.1397170718728309e+000
2024:-1.0258687733836729e+000
2025:-2.3512587077813116e-001
2026:2.0072288280646741e-001
2027:7.7760357536477609e-001
2028:1.2815508792955856e+000
2029:1.5837791790797240e+000
2030:-6.9255673167363030e-002
2031:3.6396651455910373e-001
2032:9.6888655355200304e-001
2033:1.5387673200130201e+000
2034:1.9077944444816965e+000
2035:-1.9704674460718618e-002
2036:3.7337666985059231e-001
2037:9.6620793333969746e-001
2038:1.5794914497296932e+000
2039:2.0100431401374479e+000
2040:-1.9993414960775399e-001
2041:1.0987253467108211e-001
2042:6.2745056525640375e-001
2043:1.2209723741753931e+000
2044:1.6699148139049080e+000
2045:-4.5504221406055734e-001
2046:-2.2688708349538161e-001
2047:2.0300739046633492e-001
2048:7.4673975885733945e-001
2049:1.1834560354158601e+000
2050:1.6846975590413131e+000
2051:1.7621506892303676e+000
2052:1.7686327784932669e+000
2053:1.6480244766540166e+000
2054:1.4926367084243966e+000
2055:1.9840005401559411e+000
2056:1.8950427797541540e+000
2057:1.6817944934398379e+000
2058:1.3699296248254889e+000
2059:1.1002975158550208e+000
2060:2.0628525473989283e+000
2061:1.8166341311028122e+000
2062:1.4081811006905516e+000
2063:9.4280806908661108e-001
2064:5.9230714881415414e-001
2065:1.7145295304017225e+000
2066:1.4137656596263353e+000
2067:9.6052235044560874e-001
2068:4.9205562118155588e-001
2069:1.6340109102217798e-001
2070:1.2312098792029047e+000
2071:9.5221850110689765e-001
2072:5.5481749292001681e-001
2073:1.7066687345191947e-001
2074:-8.4048614178076950e-002
2075:1.3494305519345804e+000
2076:9.9264330863919348e-001
2077:5.0438822017944251e-001
2078:5.6799497815929821e-002
2079:-2.2548334640446557e-001
2080:9.3734541565774920e-001
2081:6.0680474930962491e-001
2082:1.5044577744777957e-001
2083:-2.7301795649070854e-001
2084:-5.4329162164899159e-001
2085:4.2466714047630133e-001
2086:1.4108884812777495e-001
2087:-2.5607471010812316e-001
2088:-6.3172294374437510e-001
2089:-8.7588324810729556e-001
2090:1.9866330686535212e-002
2091:-2.0661540208255644e-001
2092:-5.2974321065128904e-001
2093:-8.4273560794408053e-001
2094:-1.0506483659317956e+000
2095:-1.9457769564407343e-001
2096:-3.7624612226877147e-001
2097:-6.4028899888772539e-001
2098:-9.0196759240362301e-001
2099:-1.0793044421320868e+000
2100:-3.0663251553348408e-001
2101:-3.4512296107649032e-001
2102:-3.7510235337319303e-001
2103:-3.7372434598392174e-001
2104:-3.5476524674514770e-001
2105:-6.0920410790916613e-001
2106:-6.0048951083377522e-001
2107:-5.6932808192326512e-001
2108:-5.1629949354438576e-001
2109:-4.6752231571584835e-001
2110:-9.2037589685722654e-001
2111:-8.5456035534537733e-001
2112:-7.5147503149392836e-001
2113:-6.4041990113174874e-001
2114:-5.6000296535170280e-001
2115:-1.0747818727866145e+000
2116:-9.6615677037731840e-001
2117:-8.1207562050000004e-001
2118:-6.6392201706958587e-001
2119:-5.6615670687705588e-001
2120:-1.0901445548107254e+000
2121:-9.6049749533350171e-001
2122:-7.8361760759684085e-001
2123:-6.2215550652469498e-001
2124:-5.2075520329286284e-001
2125:-3.3531351424562433e-001
2126:-2.8823724872888246e-001
2127:-2.2224715247184199e-001
2128:-1.5976011882397764e-001
2129:-1.1910177552830216e-001
2130:-4.3637499972802585e-001
2131:-3.7079780421593944e-001
2132:-2.7856918560157568e-001
2133:-1.9085848168193456e-001
2134:-1.3355850766059774e-001
2135:-5.1806660187250497e-001
2136:-4.3821131617716430e-001
2137:-3.2632458768306843e-001
2138:-2.2044190672219302e-001
2139:-1.5158657003683976e-001
2140:-5.2096334796688926e-001
2141:-4.4205905701117509e-001
2142:-3.3281544216195941e-001
2143:-2.3106200768445859e-001
2144:-1.6588039325797485e-001
2145:-4.7766565008091333e-001
2146:-4.0816146700365807e-001
2147:-3.1353715450183484e-001
2148:-2.2741787445727529e-001
2149:-1.7349566717893666e-001
2150:-1.0214925191316536e-001
2151:-7.5633967197383953e-002
2152:-3.7650156620268049e-002
2153:-6.7026698512686071e-004
2154:2.4005745288075270e-002
2155:-1.1278182373271026e-001
2156:-8.7417006827958998e-002
2157:-5.0525396078577096e-002
2158:-1.3933525265076964e-002
2159:1.0882141421811448e-002
2160:-1.2867399179866851e-001
2161:-1.0575659410205905e-001
2162:-7.1581258023669936e-002
2163:-3.6674470703343023e-002
2164:-1.2416989284860441e-002
2165:-1.4494884089676299e-001
2166:-1.2538527569665633e-001
2167:-9.5253551122151822e-002
2168:-6.3359184127892459e-002
2169:-4.0566301266175955e-002
2170:-1.5628251839831608e-001
2171:-1.3953005075921321e-001
2172:-1.1292232512797994e-001
2173:-8.3847776070893040e-002
2174:-6.2575868545472910e-002
2175:3.4388956195590153e-002
2176:4.9845809494419413e-002
2177:7.0019432770416001e-002
2178:8.7268142948789248e-002
2179:9.7366295345509724e-002
2180:2.0829422258322752e-002
2181:3.4382201937597737e-002
2182:5.2199411408542562e-002
2183:6.7604971055999830e-002
2184:7.6739393794974284e-002
2185:-2.9731744928756087e-003
2186:9.0827301881985512e-003
2187:2.5340379150616921e-002
2188:3.9937992655184683e-002
2189:4.8952564753517495e-002
2190:-3.1465628848932850e-002
2191:-1.9371827257831809e-002
2192:-2.4262438587033522e-003
2193:1.3610918448214810e-002
2194:2.4040411814134292e-002
2195:-5.3617398978897404e-002
2196:-4.0615832386964798e-002
2197:-2.1909052187537543e-002
2198:-3.5974298061847731e-003
2199:8.6801725223688703e-003
2200:1.0009462029126166e-001
2201:1.0194596765782363e-001
2202:1.0580814616129861e-001
2203:1.1103833051466619e-001
2204:1.1539598625251776e-001
2205:7.9923128757992873e-002
2206:8.4211458402706482e-002
2207:9.1178160971012084e-002
2208:9.8961252263877600e-002
2209:1.0474527865195780e-001
2210:5.2979404424774473e-002
2211:6.0235612788305269e-002
2212:7.0868730414096040e-002
2213:8.1510457644801568e-002
2214:8.8782439570166988e-002
2215:2.9119770517801617e-002
2216:3.8629845944576482e-002
2217:5.1883791607313989e-002
2218:6.4338567755318196e-002
2219:7.2384493562395888e-002
2220:1.4598606908017687e-002
2221:2.5237531764171321e-002
2222:3.9680393087939629e-002
2223:5.2772467771636404e-002
2224:6.0936631380169304e-002
2225:1.1713390743967614e-001
2226:1.1903056914493075e-001
2227:1.2135721565984467e-001
2228:1.2314812149170833e-001
2229:1.2406325862315874e-001
2230:1.0681658296547220e-001
2231:1.0880139598326627e-001
2232:1.1139070068936149e-001
2233:1.1360300539115288e-001
2234:1.1489712087512784e-001
2235:9.1241597347383033e-002
2236:9.3563003432626288e-002
2237:9.6840808505306547e-002
2238:9.9974070834050868e-002
2239:1.0203066175847753e-001
2240:7.5112248195570969e-002
2241:7.8016855048084144e-002
2242:8.2344288779994973e-002
2243:8.6759637028340900e-002
2244:8.9825311093043814e-002
2245:6.3779280429022395e-002
2246:6.7223845830545026e-002
2247:7.2475556900252827e-002
2248:7.7973923165134948e-002
2249:8.1870382818823362e-002
2250:1.2380900270105878e-001
2251:1.2224195489352670e-001
2252:1.2048719082832755e-001
2253:1.1937417758902455e-001
2254:1.1898287436428390e-001
2255:1.1499152643641827e-001
2256:1.1431314900293961e-001
2257:1.1370905396099114e-001
2258:1.1356762950942245e-001
2259:1.1373690574197622e-001
2260:1.0265333756867079e-001
2261:1.0313816520759179e-001
2262:1.0401678749245646e-001
2263:1.0509583819219069e-001
2264:1.0594786851089306e-001
2265:9.0997287823920511e-002
2266:9.2481138617682798e-002
2267:9.4602052907626549e-002
2268:9.6661153436931255e-002
2269:9.8031755924216341e-002
2270:8.3429551094019921e-002
2271:8.5501276388455852e-002
2272:8.8332379131651373e-002
2273:9.0922587878685637e-002
2274:9.2552973949889553e-002
2275:1.1849413866292806e-001
2276:1.1680850581160439e-001
2277:1.1441594939443864e-001
2278:1.1211354412381890e-001
2279:1.1059307618994456e-001
2280:1.1342675142585514e-001
2281:1.1193850545514307e-001
2282:1.0985121945014191e-001
2283:1.0787336139484557e-001
2284:1.0658559715922625e-001
2285:1.0587756820234273e-001
2286:1.0473163854165862e-001
2287:1.0316938767637837e-001
2288:1.0174479339689323e-001
2289:1.0085106284293424e-001
2290:9.8175570836091894e-002
2291:9.7435261043673504e-002
2292:9.6490746016113613e-002
2293:9.5712116210433407e-002
2294:9.5275722896367696e-002
2295:9.2828214500043166e-002
2296:9.2401269336394518e-002
2297:9.1931860643431118e-002
2298:9.1647613975507830e-002
2299:9.1559902107861135e-002
2300:1.0944451477511015e-001
2301:1.0651651106011180e-001
2302:1.0245731998321138e-001
2303:9.8669722416587585e-002
2304:9.6239302164736903e-002
2305:1.0558017695374089e-001
2306:1.0296070715974148e-001
2307:9.9312683876547320e-002
2308:9.5887950933481847e-002
2309:9.3677568899406274e-002
2310:1.0006343924890408e-001
2311:9.7874586892216953e-002
2312:9.4797633987172170e-002
2313:9.1873237047875575e-002
2314:8.9963880786968764e-002
2315:9.4715620854433774e-002
2316:9.2932197461667782e-002
2317:9.0389429345249239e-002
2318:8.7928482820196607e-002
2319:8.6294963859067361e-002
2320:9.1160758231341468e-002
2321:8.9639721236364114e-002
2322:8.7440543233475415e-002
2323:8.5274883651801706e-002
2324:8.3815255385228660e-002
2325:9.4652125266532078e-002
2326:9.0817015988185895e-002
2327:8.5300415862986867e-002
2328:7.9902031262882603e-002
2329:7.6283503339205472e-002
2330:9.2176889296836650e-002
2331:8.8472068348605673e-002
2332:8.3138153575119209e-002
2333:7.7912819952334636e-002
2334:7.4406929328117918e-002
2335:8.8590334072622345e-002
2336:8.5099332737078592e-002
2337:8.0066660518761393e-002
2338:7.5128461030449747e-002
2339:7.1810542137564395e-002
2340:8.5049105817353046e-002
2341:8.1799290860883306e-002
2342:7.7107936643993569e-002
2343:7.2496946736411563e-002
2344:6.9394366341245323e-002
2345:8.2656912885618078e-002
2346:7.9587524608966065e-002
2347:7.5152277525166858e-002
2348:7.0787760376268619e-002
2349:6.7847955630259346e-002
2350:7.3978747552371563e-002
2351:6.8540175007718002e-002
2352:6.0606365250505660e-002
2353:5.2708621208761949e-002
2354:4.7336124262124649e-002
2355:7.2162477040473835e-002
2356:6.6846830052514267e-002
2357:5.9082665469032430e-002
2358:5.1342248433181331e-002
2359:4.6070109064309785e-002
2360:6.9664758497550480e-002
2361:6.4546702916037882e-002
2362:5.7056709618847047e-002
2363:4.9572425345239216e-002
2364:4.4464829202627877e-002
2365:6.7359564978054898e-002
2366:6.2459995001789829e-002
2367:5.5274770114765448e-002
2368:4.8077215727275788e-002
2369:4.3155057009734023e-002
2370:6.5896017429966661e-002
2371:6.1157653040705716e-002
2372:5.4198129979299847e-002
2373:4.7213959249587142e-002
2374:4.2430438140105740e-002
2375:4.3949592643972385e-002
2376:3.5998070214758426e-002
2377:2.4237292589173523e-002
2378:1.2337826742523135e-002
2379:4.1322151590154994e-003
2380:4.2739672487147100e-002
2381:3.4911752512437097e-002
2382:2.3333416936243648e-002
2383:1.1618105240147789e-002
2384:3.5392328327307054e-003
2385:4.1230447066872400e-002
2386:3.3620464057255606e-002
2387:2.2363381454563434e-002
2388:1.0971829904982570e-002
2389:3.1154878265797973e-003
2390:4.0033260225578245e-002
2391:3.2685109791048959e-002
2392:2.1813560177058874e-002
2393:1.0810048789194534e-002
2394:3.2201326498006982e-003
2395:3.9395022494459746e-002
2396:3.2250895175518955e-002
2397:2.1679554315074779e-002
2398:1.0977963781918260e-002
2399:3.5952074796985127e-003
2400:-1.1305265121895742e+001
2401:-9.0003027297425682e+000
2402:-5.8433436799789211e+000
2403:-2.9459279464006016e+000
2404:-1.1164719902185245e+000
2405:-9.0045609390017560e+000
2406:-7.2436392673836858e+000
2407:-4.8412580767083879e+000
2408:-2.6483792385488703e+000
2409:-1.2712845074065195e+000
2410:-6.1632620434224066e+000
2411:-5.0517012756384494e+000
2412:-3.5385735320586700e+000
2413:-2.1616689701296745e+000
2414:-1.2996811852121097e+000
2415:-3.9492383196288330e+000
2416:-3.3119536575850210e+000
2417:-2.4316880389807780e+000
2418:-1.6143664311623280e+000
2419:-1.0924007943755629e+000
2420:-2.7977580338975137e+000
2421:-2.3837431723048974e+000
2422:-1.7883237102467877e+000
2423:-1.2058072953049181e+000
2424:-8.1543196347398728e-001
2425:-6.2110841007993700e-001
2426:-3.9941252924043857e-001
2427:2.2160016958208288e-002
2428:5.5892158350612098e-001
2429:9.9165399317755121e-001
2430:-8.7079816437725244e-001
2431:-5.9277945740267557e-001
2432:-1.1615849398051581e-001
2433:4.4305285888162432e-001
2434:8.7238450392480715e-001
2435:-1.0098123220099839e+000
2436:-6.8564704101573004e-001
2437:-1.8161755451252695e-001
2438:3.5726541811798490e-001
2439:7.4528538515520526e-001
2440:-8.7949379768514613e-001
2441:-5.5235986286865635e-001
2442:-8.4150895247647614e-002
2443:3.7117465518799481e-001
2444:6.7470502402181076e-001
2445:-6.3574212736595770e-001
2446:-3.3139115595074975e-001
2447:7.6025001172304957e-002
2448:4.3795911020070766e-001
2449:6.5898292486991150e-001
2450:1.0452566578098206e+000
2451:7.9458978134470915e-001
2452:4.4387856142893783e-001
2453:1.1261169132359812e-001
2454:-1.0243140713779920e-001
2455:9.3602244703678739e-001
2456:7.3639937170448144e-001
2457:4.5690371486385911e-001
2458:1.9265467035894115e-001
2459:2.0964744679414601e-002
2460:8.0838017332900558e-001
2461:6.6011141271666118e-001
2462:4.5064575871728113e-001
2463:2.5027961877451527e-001
2464:1.1868197711728398e-001
2465:7.1914646197175680e-001
2466:5.9443041509435923e-001
2467:4.1428255298930894e-001
2468:2.3708710666178415e-001
2469:1.1778014804183522e-001
2470:6.8028015302916078e-001
2471:5.5567290193372931e-001
2472:3.7215221198550213e-001
2473:1.8738620034007164e-001
2474:6.0497409151152592e-002
2475:-2.0016212103566228e-001
2476:-3.7322381002395705e-001
2477:-6.2486148376823170e-001
2478:-8.7437061692419715e-001
2479:-1.0435326302674330e+000
2480:-6.8989795911510707e-002
2481:-2.5169506041065687e-001
2482:-5.1169313419268325e-001
2483:-7.6271548788193866e-001
2484:-9.2897643497651039e-001
2485:3.7376058509687664e-002
2486:-1.4679144687288362e-001
2487:-4.0049376361524525e-001
2488:-6.3519346229852303e-001
2489:-7.8454648152824935e-001
2490:4.1868100634732362e-002
2491:-1.2871643122792731e-001
2492:-3.5409102439531098e-001
2493:-5.5043610153728861e-001
2494:-6.6783597849883625e-001
2495:-1.3601457822294221e-002
2496:-1.6626539446507779e-001
2497:-3.5963586571441514e-001
2498:-5.1712964143388374e-001
2499:-6.0406428141604063e-001
2500:-1.0518170612977871e+000
2501:-9.2089828674147400e-001
2502:-7.4399324775548814e-001
2503:-5.8468930775954153e-001
2504:-4.8601731178699542e-001
2505:-9.3925610419284000e-001
2506:-8.2078912228858603e-001
2507:-6.6133308988641526e-001
2508:-5.1854500031968187e-001
2509:-4.3061517194009075e-001
2510:-7.9495548043641595e-001
2511:-6.9643781209705713e-001
2512:-5.6504540163813122e-001
2513:-4.4895443536469765e-001
2514:-3.7847037350303425e-001
2515:-6.7505563592950868e-001
2516:-5.9852558498422526e-001
2517:-4.9818165534455733e-001
2518:-4.1177267124043898e-001
2519:-3.6077267972588972e-001
2520:-6.0719907632702275e-001
2521:-5.4685517191154842e-001
2522:-4.6942877575466790e-001
2523:-4.0500416897874353e-001
2524:-3.6848069893488633e-001
2525:-4.4589326552335867e-001
2526:-3.8449517586913257e-001
2527:-3.0131175805603166e-001
2528:-2.2612289543243241e-001
2529:-1.7937154182676893e-001
2530:-3.9747286515934077e-001
2531:-3.5208680142597470e-001
2532:-2.8981370837059423e-001
2533:-2.3251959830166150e-001
2534:-1.9625547417146422e-001
2535:-3.5459480574827695e-001
2536:-3.2718978876936683e-001
2537:-2.8753208377955142e-001
2538:-2.4843740703593259e-001
2539:-2.2206390787315022e-001
2540:-3.4502627050445078e-001
2541:-3.2910546260278745e-001
2542:-3.0254928256881419e-001
2543:-2.7214017604079110e-001
2544:-2.4916046416821100e-001
2545:-3.5763188057080564e-001
2546:-3.4582031421327519e-001
2547:-3.2274421566929529e-001
2548:-2.9279961842821700e-001
2549:-2.6840435165437310e-001
2550:-1.6404362402465927e-001
2551:-1.4770383440021295e-001
2552:-1.2183075603128081e-001
2553:-9.3645741360433507e-002
2554:-7.3070278834549016e-002
2555:-1.8286726458354732e-001
2556:-1.6490882624554001e-001
2557:-1.3776874899260738e-001
2558:-1.0962796753971495e-001
2559:-8.9836150116558752e-002
2560:-2.1000420822568286e-001
2561:-1.8921627772192778e-001
2562:-1.5954842780057726e-001
2563:-1.3080002057885767e-001
2564:-1.1169659086521928e-001
2565:-2.3663239518038803e-001
2566:-2.1246927812472011e-001
2567:-1.7947454957790485e-001
2568:-1.4931941063032236e-001
2569:-1.3035867424002578e-001
2570:-2.5452394824509705e-001
2571:-2.2774242183277899e-001
2572:-1.9201666122561095e-001
2573:-1.6044172231962545e-001
2574:-1.4126487038897703e-001
2575:-6.4132934137103345e-002
2576:-5.0446791567095438e-002
2577:-3.0663931193705477e-002
2578:-1.1188761641868614e-002
2579:1.9336639806548186e-003
2580:-8.0890696316363545e-002
2581:-6.6055272672019480e-002
2582:-4.4732849701251222e-002
2583:-2.3888570302383116e-002
2584:-9.9291482022090885e-003
2585:-1.0275185384644459e-001
2586:-8.6741961635444231e-002
2587:-6.3909696543767214e-002
2588:-4.1805183250948813e-002
2589:-2.7128597053121879e-002
2590:-1.2142961836218212e-001
2591:-1.0484960197731637e-001
2592:-8.1392486834671138e-002
2593:-5.8912731717848679e-002
2594:-4.4123325815149529e-002
2595:-1.3235512144576936e-001
2596:-1.1573303665740031e-001
2597:-9.2357743090263844e-002
2598:-7.0130262299295656e-002
2599:-5.5611072589780666e-002
2600:8.1132749600541336e-003
2601:1.8882785385894208e-002
2602:3.3451818756133775e-002
2603:4.6592751254201308e-002
2604:5.4745853883780331e-002
2605:-3.6560366181220862e-003
2606:6.7655725463338177e-003
2607:2.1034325815906071e-002
2608:3.4123576674886733e-002
2609:4.2384232532107095e-002
2610:-2.0804161017293068e-002
2611:-1.0718971606570019e-002
2612:3.3634550603784856e-003
2613:1.6630422848415843e-002
2614:2.5221619075671119e-002
2615:-3.7849291238537384e-002
2616:-2.7894872859232919e-002
2617:-1.3697624160752573e-002
2618:4.8209190488867165e-005
2619:9.1755945101004485e-003
2620:-4.9429908323662362e-002
2621:-3.9446624458494658e-002
2622:-2.4997924782304958e-002
2623:-1.0752041991781080e-002
2624:-1.1403366972716721e-003
2625:5.7681756213757554e-002
2626:6.1523866488530497e-002
2627:6.7353045684967361e-002
2628:7.3423306182760162e-002
2629:7.7707098840547051e-002
2630:4.5606602787725124e-002
2631:5.0338314475848814e-002
2632:5.7318258651791673e-002
2633:6.4358697616651639e-002
2634:6.9201241137758274e-002
2635:2.8866284745063128e-002
2636:3.4738633241258213e-002
2637:4.3166390123744812e-002
2638:5.1390193852285215e-002
2639:5.6888882033253860e-002
2640:1.3245879008852442e-002
2641:2.0066241096226661e-002
2642:2.9659736388774394e-002
2643:3.8784830584508170e-002
2644:4.4747040208456886e-002
2645:3.2225045200177660e-003
2646:1.0579565157775308e-002
2647:2.0807040234307829e-002
2648:3.0385527701579578e-002
2649:3.6553585325883056e-002
2650:7.9415485950203146e-002
2651:8.1676319761170846e-002
2652:8.4755526012170096e-002
2653:8.7559582824754345e-002
2654:8.9316318396021097e-002
2655:7.1090477106961286e-002
2656:7.3567330189844307e-002
2657:7.7000586958381689e-002
2658:8.0203516728875560e-002
2659:8.2258390268772311e-002
2660:5.9012357437821253e-002
2661:6.1847724306904509e-002
2662:6.5861212660831128e-002
2663:6.9710011267180599e-002
2664:7.2243651873131656e-002
2665:4.7068397537908126e-002
2666:5.0312404951908390e-002
2667:5.4979529698957551e-002
2668:5.9547601948892401e-002
2669:6.2610136379616890e-002
2670:3.8989181322481394e-002
2671:4.2541044688038182e-002
2672:4.7696704088157411e-002
2673:5.2798133431520011e-002
2674:5.6250642510534923e-002
2675:8.9673657995332098e-002
2676:8.9448414312418706e-002
2677:8.9263603816875120e-002
2678:8.9251155677617017e-002
2679:8.9341695159302945e-002
2680:8.2813412243230064e-002
2681:8.3031369490482843e-002
2682:8.3437143294009627e-002
2683:8.3945836744379471e-002
2684:8.4352351937101652e-002
2685:7.3087591976116015e-002
2686:7.3910173445246294e-002
2687:7.5115782355721680e-002
2688:7.6322620142170547e-002
2689:7.7147453021357448e-002
2690:6.3742323480196275e-002
2691:6.5116772040412552e-002
2692:6.7044959376151722e-002
2693:6.8872684816990576e-002
2694:7.0063078251847030e-002
2695:5.7579282414716632e-002
2696:5.9300276149879573e-002
2697:6.1677506673540501e-002
2698:6.3884832592852075e-002
2699:6.5294545983546795e-002
2700:8.9017847800215252e-002
2701:8.7613307469302432e-002
2702:8.5572912584846200e-002
2703:8.3551997464075531e-002
2704:8.2183145792543183e-002
2705:8.4157219106406639e-002
2706:8.2959532008472794e-002
2707:8.1216396219685044e-002
2708:7.9486021473807345e-002
2709:7.8311713741297667e-002
2710:7.7133355490182826e-002
2711:7.6253765551137220e-002
2712:7.4968167299669500e-002
2713:7.3685491306009349e-002
2714:7.2811255203126465e-002
2715:7.0221159594235916e-002
2716:6.9677712840762102e-002
2717:6.8876078433716043e-002
2718:6.8067527499363095e-002
2719:6.7511409052802077e-002
2720:6.5565116094385423e-002
2721:6.5261584499582498e-002
2722:6.4805624532850659e-002
2723:6.4336029318031493e-002
2724:6.4007516736189846e-002
2725:8.1074320425297192e-002
2726:7.8109820250549480e-002
2727:7.3820932966328273e-002
2728:6.9594175335490407e-002
2729:6.6743502210828809e-002
2730:7.7310457724098627e-002
2731:7.4567932796952147e-002
2732:7.0583846597199809e-002
2733:6.6637817231319438e-002
2734:6.3965015808146383e-002
2735:7.1970898659897226e-002
2736:6.9551480241421784e-002
2737:6.6010883610182924e-002
2738:6.2473091968616515e-002
2739:6.0058812540657813e-002
2740:6.6835964949740437e-002
2741:6.4737335083285955e-002
2742:6.1636833642654071e-002
2743:5.8503885347492186e-002
2744:5.6345809958103170e-002
2745:6.3446994094126394e-002
2746:6.1566092772553448e-002
2747:5.8764173614210338e-002
2748:5.5905734781810795e-002
2749:5.3921284391193210e-002
2750:6.4836173480841752e-002
2751:6.0184638145513107e-002
2752:5.3348256076802478e-002
2753:4.6482460634884447e-002
2754:4.1777037384179622e-002
2755:6.2147313501509267e-002
2756:5.7674364153469500e-002
2757:5.1094148827700775e-002
2758:4.4478160008132296e-002
2759:3.9939670438166631e-002
2760:5.8375965371958501e-002
2761:5.4180624423605654e-002
2762:4.7999097420905849e-002
2763:4.1772483267539462e-002
2764:3.7494538649640641e-002
2765:5.4802105414543563e-002
2766:5.0903494826253899e-002
2767:4.5148658033458390e-002
2768:3.9339420433129976e-002
2769:3.5341142727685758e-002
2770:5.2475061328820724e-002
2771:4.8790069859723603e-002
2772:4.3342701756719171e-002
2773:3.7834572725578081e-002
2774:3.4038261832777070e-002
2775:3.8790674838890690e-002
2776:3.1762332524040218e-002
2777:2.1361217306072579e-002
2778:1.0830651011681444e-002
2779:3.5651428129670221e-003
2780:3.7057338257087846e-002
2781:3.0272066060177887e-002
2782:2.0228091792084325e-002
2783:1.0056084295089222e-002
2784:3.0362438370751788e-003
2785:3.4773157774750825e-002
2786:2.8361492459753394e-002
2787:1.8866369074924977e-002
2788:9.2452887339953323e-003
2789:2.6028590742740681e-003
2790:3.2790946725364249e-002
2791:2.6773874880158775e-002
2792:1.7858334795549224e-002
2793:8.8189140276193796e-003
2794:2.5748817540887496e-003
2795:3.1610844998319530e-002
2796:2.5875292566370868e-002
2797:1.7373197952453914e-002
2798:8.7486405027479511e-003
2799:2.7887252652385492e-003
2800:-2.3164600831285678e+000
2801:-1.9805858912793306e+000
2802:-1.4890903259871040e+000
2803:-9.9801442436684762e-001
2804:-6.6290909368457995e-001
2805:-1.5072521909469054e+000
2806:-1.2913916171107049e+000
2807:-9.7657997190453927e-001
2808:-6.6330266883786704e-001
2809:-4.5025314624750346e-001
2810:-6.3635952185187472e-001
2811:-5.5537789162047302e-001
2812:-4.3945426882568089e-001
2813:-3.2669730513416362e-001
2814:-2.5151727598524320e-001
2815:-1.3875307016556029e-001
2816:-1.4408243676221716e-001
2817:-1.5592472742185837e-001
2818:-1.7256599414856022e-001
2819:-1.8668751166433628e-001
2820:-1.3438723947590922e-002
2821:-4.9800911002256976e-002
2822:-1.0802509337781659e-001
2823:-1.7216293028795188e-001
2824:-2.1935945834060155e-001
2825:-5.0528853188502976e-001
2826:-2.3740291288479051e-001
2827:1.1205491360680990e-001
2828:4.1061252750125177e-001
2829:5.8524443055928965e-001
2830:-3.4931704819550763e-001
2831:-1.7788807995548453e-001
2832:3.9881615360511796e-002
2833:2.1811424720562986e-001
2834:3.1710779920717674e-001
2835:-2.1506052618231994e-001
2836:-1.5312932977911353e-001
2837:-8.1704805603966577e-002
2838:-3.3177334689506295e-002
2839:-1.3195576053577919e-002
2840:-1.9269018805799065e-001
2841:-2.0252174671080173e-001
2842:-2.2218385068490443e-001
2843:-2.4810299770949665e-001
2844:-2.6939801565838506e-001
2845:-2.4170414308965205e-001
2846:-2.7885844605316729e-001
2847:-3.2897011639958101e-001
2848:-3.7397568067020936e-001
2849:-4.0177514322607100e-001
2850:5.9491684987325033e-001
2851:4.7255865875121067e-001
2852:2.9185061368804943e-001
2853:1.0932579617071220e-001
2854:-1.6360883649674782e-002
2855:3.1259392328790547e-001
2856:2.0752111026034881e-001
2857:5.3773067863533440e-002
2858:-9.9833703810298269e-002
2859:-2.0464769631039820e-001
2860:-3.0057175069618452e-002
2861:-1.0854341823565655e-001
2862:-2.2094583660982750e-001
2863:-3.3033965777450691e-001
2864:-4.0331388330363599e-001
2865:-2.8859301647174601e-001
2866:-3.3897844835808760e-001
2867:-4.0781781227908886e-001
2868:-4.7078125250408992e-001
2869:-5.1040146964405730e-001
2870:-4.1680931209652905e-001
2871:-4.4713514095152229e-001
2872:-4.8495197246535460e-001
2873:-5.1493483710603116e-001
2874:-5.3090814198884129e-001
2875:-8.5034228699633160e-002
2876:-2.1760153071511765e-001
2877:-3.8192467186592011e-001
2878:-5.1082492708589744e-001
2879:-5.7849435198267318e-001
2880:-2.5432030175018433e-001
2881:-3.3638785455321685e-001
2882:-4.3401808593240898e-001
2883:-5.0485123268030097e-001
2884:-5.3782414342232399e-001
2885:-4.2919578055166524e-001
2886:-4.5439566339294840e-001
2887:-4.7937844858255901e-001
2888:-4.9019563184870935e-001
2889:-4.8944287224475247e-001
2890:-5.1728641963234445e-001
2891:-5.0592112277276780e-001
2892:-4.8798709731046191e-001
2893:-4.6851895263252724e-001
2894:-4.5434301294347190e-001
2895:-5.2757494869493171e-001
2896:-5.0290587024474065e-001
2897:-4.7274810320767446e-001
2898:-4.4968201825450826e-001
2899:-4.3800553203253340e-001
2900:-5.7890674772085760e-001
2901:-5.2668567623833218e-001
2902:-4.6017769321860780e-001
2903:-4.0551095308957408e-001
2904:-3.7498409160318058e-001
2905:-5.3379694131440802e-001
2906:-4.9528977551626530e-001
2907:-4.4582207759978709e-001
2908:-4.0458023395092069e-001
2909:-3.8114356468144983e-001
2910:-4.8229060595743245e-001
2911:-4.6001494609851884e-001
2912:-4.2986154831828333e-001
2913:-4.0263968868491268e-001
2914:-3.8573486740745688e-001
2915:-4.4807809951992994e-001
2916:-4.3745737303463811e-001
2917:-4.1991641718454281e-001
2918:-4.0001268336056078e-001
2919:-3.8506313750953014e-001
2920:-4.3465212560299271e-001
2921:-4.2936061687556304e-001
2922:-4.1658154591094076e-001
2923:-3.9782430834936222e-001
2924:-3.8158026678872553e-001
2925:-3.6549636478421299e-001
2926:-3.5330977642612615e-001
2927:-3.2953327803296761e-001
2928:-2.9870856088298514e-001
2929:-2.7360900897700136e-001
2930:-3.7216189084302204e-001
2931:-3.5660292920258024e-001
2932:-3.2983271399625819e-001
2933:-2.9832547309586505e-001
2934:-2.7408785912872402e-001
2935:-3.7673572024732477e-001
2936:-3.5711631135251415e-001
2937:-3.2724787666648159e-001
2938:-2.9602688970431573e-001
2939:-2.7392948475958856e-001
2940:-3.7514505223208144e-001
2941:-3.5250864608709515e-001
2942:-3.2107000308540978e-001
2943:-2.9166328122552715e-001
2944:-2.7274953530741419e-001
2945:-3.7051667082062512e-001
2946:-3.4641958459311001e-001
2947:-3.1478667711407876e-001
2948:-2.8749688383960925e-001
2949:-2.7135676906016737e-001
2950:-2.5950805142381811e-001
2951:-2.3264241811592506e-001
2952:-1.9686086692739968e-001
2953:-1.6531020748529346e-001
2954:-1.4619594410241935e-001
2955:-2.6107652043256357e-001
2956:-2.3665122907357838e-001
2957:-2.0360401144561047e-001
2958:-1.7379027301965833e-001
2959:-1.5528900310623775e-001
2960:-2.6273182413233215e-001
2961:-2.4185676603052972e-001
2962:-2.1277944846672747e-001
2963:-1.8547501544599440e-001
2964:-1.6784803948652252e-001
2965:-2.6362470116409564e-001
2966:-2.4627211002956581e-001
2967:-2.2112403202795339e-001
2968:-1.9628824391046629e-001
2969:-1.7950779561503319e-001
2970:-2.6379633671581704e-001
2971:-2.4883321721788446e-001
2972:-2.2634497912134113e-001
2973:-2.0317161836451741e-001
2974:-1.8695329322624180e-001
2975:-1.3733477419557819e-001
2976:-1.2082354968891613e-001
2977:-9.7629244448325950e-002
2978:-7.5604912002300059e-002
2979:-6.1237181698850403e-002
2980:-1.4659290084579163e-001
2981:-1.3038306548471507e-001
2982:-1.0755976456711508e-001
2983:-8.5822835738693509e-002
2984:-7.1603330654098601e-002
2985:-1.5938893713474439e-001
2986:-1.4362530600675544e-001
2987:-1.2135240718175873e-001
2988:-1.0004345693677677e-001
2989:-8.6045865329583804e-002
2990:-1.7128008082081767e-001
2991:-1.5596842365597446e-001
2992:-1.3425437602215828e-001
2993:-1.1338185345919377e-001
2994:-9.9611945059458515e-002
2995:-1.7888036375207980e-001
2996:-1.6388066639138532e-001
2997:-1.4255310258051151e-001
2998:-1.2198346313510697e-001
2999:-1.0837235061279403e-001
3000:-5.5067379170290136e-002
3001:-4.4961176949419049e-002
3002:-3.0305151894795365e-002
3003:-1.5819468772108446e-002
3004:-6.0253481187459851e-003
3005:-6.5361642526151911e-002
3006:-5.4885443531485147e-002
3007:-3.9789683930302300e-002
3008:-2.4985585219059990e-002
3009:-1.5043734911647172e-002
3010:-7.9716807310517002e-002
3011:-6.8764084867653827e-002
3012:-5.3120000333087850e-002
3013:-3.7945234191455714e-002
3014:-2.7852344780091087e-002
3015:-9.3216788060829420e-002
3016:-8.1865139796792996e-002
3017:-6.5786363027992456e-002
3018:-5.0354562155120929e-002
3019:-4.0188231266823880e-002
3020:-1.0194427821632997e-001
3021:-9.0364798931829193e-002
3022:-7.4054472826451626e-002
3023:-5.8512441575018857e-002
3024:-4.8340546786000159e-002
3025:-1.5771347554167999e-003
3026:5.9143872673158788e-003
3027:1.6315132735641183e-002
3028:2.6038804633903793e-002
3029:3.2289867665362092e-002
3030:-1.0558578185747049e-002
3031:-3.0138540102355128e-003
3032:7.5241288256205482e-003
3033:1.7455546936673727e-002
3034:2.3888990595633566e-002
3035:-2.3324956077899774e-002
3036:-1.5683541333978580e-002
3037:-4.9170859830804155e-003
3038:5.3460566457666225e-003
3039:1.2065357724195881e-002
3040:-3.5632714117001280e-002
3041:-2.7872287318805818e-002
3042:-1.6844672233101651e-002
3043:-6.2171178666931065e-003
3044:8.1036211707300582e-004
3045:-4.3773925192310895e-002
3046:-3.5919401294217508e-002
3047:-2.4694662947549968e-002
3048:-1.3799476474934477e-002
3049:-6.5487209165480233e-003
3050:3.4792504690242101e-002
3051:3.8530740249343227e-002
3052:4.3954729390646152e-002
3053:4.9319032761657791e-002
3054:5.2947918681861307e-002
3055:2.6548170081842522e-002
3056:3.0677553988402540e-002
3057:3.6618626741391845e-002
3058:4.2433808635562273e-002
3059:4.6332549293520445e-002
3060:1.4946260189871203e-002
3061:1.9600198546842102e-002
3062:2.6227842909729793e-002
3063:3.2632646762167393e-002
3064:3.6878321487189981e-002
3065:3.9040561564042970e-003
3066:9.0252225043525175e-003
3067:1.6255490545112432e-002
3068:2.3165968423790921e-002
3069:2.7701250756444886e-002
3070:-3.3148475455748259e-003
3071:2.0924399781973874e-003
3072:9.6859915538461839e-003
3073:1.6893547878876442e-002
3074:2.1593657777649124e-002
3075:5.4356817631637792e-002
3076:5.6212653520247235e-002
3077:5.8773147073589771e-002
3078:6.1146863030441492e-002
3079:6.2660505752503620e-002
3080:4.7856071675691170e-002
3081:4.9911642437116703e-002
3082:5.2767411477839768e-002
3083:5.5439715096545703e-002
3084:5.7159160889593247e-002
3085:3.8559114415447279e-002
3086:4.0913935763763114e-002
3087:4.4212003716536906e-002
3088:4.7331456541560367e-002
3089:4.9359039091917925e-002
3090:2.9526738014686381e-002
3091:3.2188846283928312e-002
3092:3.5940981425210072e-002
3093:3.9519351733006344e-002
3094:4.1863107374707130e-002
3095:2.3510727722019852e-002
3096:2.6387294142673139e-002
3097:3.0456265300338882e-002
3098:3.4354783798984823e-002
3099:3.6919065790275915e-002
3100:6.2990237833356152e-002
3101:6.2816856865023016e-002
3102:6.2543631536579616e-002
3103:6.2247434809391565e-002
3104:6.2031968195765980e-002
3105:5.7610135640594785e-002
3106:5.7696427900987252e-002
3107:5.7778327816459522e-002
3108:5.7807383758688408e-002
3109:5.7796861160788408e-002
3110:4.9985447215347791e-002
3111:5.0436959399564739e-002
3112:5.1016872670904843e-002
3113:5.1500197058224798e-002
3114:5.1774749817438258e-002
3115:4.2662438395128351e-002
3116:4.3461294830492818e-002
3117:4.4513044614249681e-002
3118:4.5424460603201475e-002
3119:4.5966213046862089e-002
3120:3.7835040066597082e-002
3121:3.8860819908701216e-002
3122:4.0219736631310232e-002
3123:4.1408446984611706e-002
3124:4.2122393622001798e-002
3125:6.1526832054395512e-002
3126:5.9750251703619736e-002
3127:5.7094076221618169e-002
3128:5.4373035554631084e-002
3129:5.2477616416629742e-002
3130:5.7391802352591462e-002
3131:5.5808727381295567e-002
3132:5.3428651466824476e-002
3133:5.0975074518642485e-002
3134:4.9257339117276762e-002
3135:5.1513643960375888e-002
3136:5.0218791453056341e-002
3137:4.8250142790611822e-002
3138:4.6195346898449403e-002
3139:4.4742665005373147e-002
3140:4.5845971790927004e-002
3141:4.4845113210422519e-002
3142:4.3296343436024565e-002
3143:4.1648780235903418e-002
3144:4.0466923313955613e-002
3145:4.2096571567398287e-002
3146:4.1299792199538464e-002
3147:4.0042606141452573e-002
3148:3.8677990808901393e-002
3149:3.7684391456744168e-002
3150:5.1082875610329204e-002
3151:4.7511906291674795e-002
3152:4.2228163588716269e-002
3153:3.6879682520435199e-002
3154:3.3190106759470511e-002
3155:4.7966133262791963e-002
3156:4.4623092574647770e-002
3157:3.9665359437319858e-002
3158:3.4633659234643066e-002
3159:3.1155104305025508e-002
3160:4.3604500480600120e-002
3161:4.0595969063779942e-002
3162:3.6116714317527172e-002
3163:3.1549978148136225e-002
3164:2.8381172984564808e-002
3165:3.9483495348841761e-002
3166:3.6810345877065297e-002
3167:3.2810847451043075e-002
3168:2.8710353244091914e-002
3169:2.5852170520299377e-002
3170:3.6807604255471603e-002
3171:3.4363982230080171e-002
3172:3.0692834649553510e-002
3173:2.6911462588061544e-002
3174:2.4265899511477694e-002
3175:3.0827215152522094e-002
3176:2.5239456708307233e-002
3177:1.6955142132915692e-002
3178:8.5499725998691763e-003
3179:2.7407971258297656e-003
3180:2.8919971322592282e-002
3181:2.3626048186717829e-002
3182:1.5776130780219902e-002
3183:7.8102423459963585e-003
3184:2.3038499742401805e-003
3185:2.6334962415795592e-002
3186:2.1477783639091648e-002
3187:1.4273445486054017e-002
3188:6.9602882526082219e-003
3189:1.9037432435204703e-003
3190:2.3997062873410815e-002
3191:1.9584301876079794e-002
3192:1.3036779807857279e-002
3193:6.3875906065468651e-003
3194:1.7885663803179448e-003
3195:2.2542545374080666e-002
3196:1.8437678073274025e-002
3197:1.2345140048267500e-002
3198:6.1558188200961624e-003
3199:1.8736360843502177e-003
3200:-9.9317486417175270e-003
3201:-5.0230204089672825e-002
3202:-1.1410533931340502e-001
3203:-1.8375953326354594e-001
3204:-2.3464573821956086e-001
3205:-1.1721186191118354e-002
3206:-5.0599304210898574e-002
3207:-1.1101270546880571e-001
3208:-1.7556296390446374e-001
3209:-2.2202017215713840e-001
3210:-1.2799929410672685e-002
3211:-4.9515904612800303e-002
3212:-1.0473959184680136e-001
3213:-1.6169532310041437e-001
3214:-2.0158455697402317e-001
3215:-1.2046481514154168e-002
3216:-4.6502595935923437e-002
3217:-9.6393472555512283e-002
3218:-1.4561158003657654e-001
3219:-1.7883512156839576e-001
3220:-1.0479182005476340e-002
3221:-4.3335931001484612e-002
3222:-8.9502907976124646e-002
3223:-1.3335491426357804e-001
3224:-1.6197043109447970e-001
3225:-2.5898747425519719e-001
3226:-2.9960304583284986e-001
3227:-3.5272609465083615e-001
3228:-3.9829812696584693e-001
3229:-4.2507956481176146e-001
3230:-2.4423457011839561e-001
3231:-2.8194318491878995e-001
3232:-3.3230775441090105e-001
3233:-3.7690208766069566e-001
3234:-4.0403911652843649e-001
3235:-2.2052091875489307e-001
3236:-2.5341680492413732e-001
3237:-2.9892795603222827e-001
3238:-3.4127661646131791e-001
3239:-3.6837853847203134e-001
3240:-1.9429997300795424e-001
3241:-2.2172256274286531e-001
3242:-2.6141297075195546e-001
3243:-3.0054863364536355e-001
3244:-3.2695488099585518e-001
3245:-1.7495348259155039e-001
3246:-1.9825889659062465e-001
3247:-2.3341860037356785e-001
3248:-2.6980433930148273e-001
3249:-2.9535595871524239e-001
3250:-4.3788137115442766e-001
3251:-4.6116294840051375e-001
3252:-4.8858245739820322e-001
3253:-5.0807074324828394e-001
3254:-5.1682161437856300e-001
3255:-4.1543711691510860e-001
3256:-4.3280147187466872e-001
3257:-4.5288273561439746e-001
3258:-4.6660964161700780e-001
3259:-4.7233224812057645e-001
3260:-3.7845100405260440e-001
3261:-3.9056789091861804e-001
3262:-4.0490784868250662e-001
3263:-4.1520258469253468e-001
3264:-4.1990826557120847e-001
3265:-3.3656958040616680e-001
3266:-3.4750062375113855e-001
3267:-3.6204705230469159e-001
3268:-3.7485739508764598e-001
3269:-3.8260777491391224e-001
3270:-3.0515668147952751e-001
3271:-3.1761175994774093e-001
3272:-3.3571679920281344e-001
3273:-3.5366261809778482e-001
3274:-3.6582599070711430e-001
3275:-5.1173776550305705e-001
3276:-4.8789553767349764e-001
3277:-4.6020598534522061e-001
3278:-4.4110244303572382e-001
3279:-4.3299054909897100e-001
3280:-4.6925886050564358e-001
3281:-4.5505266990409265e-001
3282:-4.3914397167290337e-001
3283:-4.2905222084511485e-001
3284:-4.2550319517724272e-001
3285:-4.1994169872084475e-001
3286:-4.1706655396498155e-001
3287:-4.1433883805519617e-001
3288:-4.1337309942736900e-001
3289:-4.1372605374152693e-001
3290:-3.8594142821686905e-001
3291:-3.9109369744462902e-001
3292:-3.9670917925052684e-001
3293:-4.0003166821693642e-001
3294:-4.0098297065104527e-001
3295:-3.7152443014949565e-001
3296:-3.8026018924791305e-001
3297:-3.8879327353774340e-001
3298:-3.9226430237271431e-001
3299:-3.9172592571835757e-001
3300:-4.3080496524595102e-001
3301:-4.2595298583417746e-001
3302:-4.1342762182516374e-001
3303:-3.9446068047078697e-001
3304:-3.7780715852444308e-001
3305:-4.2361718938598653e-001
3306:-4.1671338460393781e-001
3307:-4.0269722778926187e-001
3308:-3.8403863054911425e-001
3309:-3.6862946206374381e-001
3310:-4.1172749289123317e-001
3311:-4.0243830821560544e-001
3312:-3.8714592183592261e-001
3313:-3.6984572178641345e-001
3314:-3.5687804391641564e-001
3315:-3.9821672554363102e-001
3316:-3.8727813654897469e-001
3317:-3.7178727122948152e-001
3318:-3.5692321899581048e-001
3319:-3.4713300731574381e-001
3320:-3.8805900372231883e-001
3321:-3.7641696205896791e-001
3322:-3.6140983892159112e-001
3323:-3.4882866578993232e-001
3324:-3.4163118027240641e-001
3325:-3.6673158457201815e-001
3326:-3.4321257576576669e-001
3327:-3.1265599154190660e-001
3328:-2.8671561996608741e-001
3329:-2.7165392324252502e-001
3330:-3.5892986237691743e-001
3331:-3.3866971325818379e-001
3332:-3.1184126123815603e-001
3333:-2.8838818704352437e-001
3334:-2.7431203026718998e-001
3335:-3.4923247709496014e-001
3336:-3.3327843048283601e-001
3337:-3.1122681817937509e-001
3338:-2.9073352542912312e-001
3339:-2.7763445881703547e-001
3340:-3.4158791585234893e-001
3341:-3.2938601883089363e-001
3342:-3.1130004663068839e-001
3343:-2.9295533571151183e-001
3344:-2.8027940634772697e-001
3345:-3.3754714985126988e-001
3346:-3.2758922151329839e-001
3347:-3.1174519168681503e-001
3348:-2.9440158831872015e-001
3349:-2.8169630789813310e-001
3350:-2.6453396492844816e-001
3351:-2.5009445798459284e-001
3352:-2.2824532614931342e-001
3353:-2.0555935158498470e-001
3354:-1.8958667434259813e-001
3355:-2.6724860365721409e-001
3356:-2.5252613125254381e-001
3357:-2.3060153990468313e-001
3358:-2.0824287995633844e-001
3359:-1.9272515527463735e-001
3360:-2.7056876444929234e-001
3361:-2.5556469563690515e-001
3362:-2.3372403409928100e-001
3363:-2.1203911982446544e-001
3364:-1.9732039384787745e-001
3365:-2.7311036535091987e-001
3366:-2.5798249332715972e-001
3367:-2.3645683138236084e-001
3368:-2.1567673256367548e-001
3369:-2.0191479848853269e-001
3370:-2.7439861312444519e-001
3371:-2.5927686680783740e-001
3372:-2.3809908574078675e-001
3373:-2.1806964192841816e-001
3374:-2.0505175158193434e-001
3375:-1.8163083370613703e-001
3376:-1.6687811923123347e-001
3377:-1.4588153020531311e-001
3378:-1.2560637702147581e-001
3379:-1.1217539716525975e-001
3380:-1.8507648751511827e-001
3381:-1.7093746718569300e-001
3382:-1.5078957251588693e-001
3383:-1.3130370445479672e-001
3384:-1.1837757574536945e-001
3385:-1.9012559313092511e-001
3386:-1.7676834864107133e-001
3387:-1.5769207018463080e-001
3388:-1.3919082042472186e-001
3389:-1.2688707964318707e-001
3390:-1.9517867572145872e-001
3391:-1.8246426932569201e-001
3392:-1.6425614891464371e-001
3393:-1.4653605928795052e-001
3394:-1.3471576868881160e-001
3395:-1.9863161570180046e-001
3396:-1.8627635714629548e-001
3397:-1.6854417763447277e-001
3398:-1.5124061967364086e-001
3399:-1.3967063391607870e-001
3400:-1.0578511101097923e-001
3401:-9.4189093217898215e-002
3402:-7.7868405533137494e-002
3403:-6.2332481058223560e-002
3404:-5.2174219253164046e-002
3405:-1.1215427918162008e-001
3406:-1.0070866580923889e-001
3407:-8.4560455689256436e-002
3408:-6.9140234460129568e-002
3409:-5.9028361474539222e-002
3410:-1.2088590225908540e-001
3411:-1.0968958472856825e-001
3412:-9.3836482519803296e-002
3413:-7.8628229815337264e-002
3414:-6.8613333922013284e-002
3415:-1.2891006849277498e-001
3416:-1.1799756624950478e-001
3417:-1.0249012166464447e-001
3418:-8.7544387197537626e-002
3419:-7.7660987841855003e-002
3420:-1.3398311281275002e-001
3421:-1.2328425768387435e-001
3422:-1.0804190223273570e-001
3423:-9.3304482580363668e-002
3424:-8.3530714737838574e-002
3425:-4.7599012414759549e-002
3426:-3.9689435855421146e-002
3427:-2.8375592020725295e-002
3428:-1.7381213466546086e-002
3429:-1.0056925710604566e-002
3430:-5.4430723229167359e-002
3431:-4.6412522743985628e-002
3432:-3.4965676544707468e-002
3433:-2.3869271955540769e-002
3434:-1.6493111664228597e-002
3435:-6.3995037970670868e-002
3436:-5.5836502625458320e-002
3437:-4.4222321127139322e-002
3438:-3.3003942470659298e-002
3439:-2.5570553129738740e-002
3440:-7.3036521815513858e-002
3441:-6.4759913723191703e-002
3442:-5.3010997200806660e-002
3443:-4.1703244751992205e-002
3444:-3.4234888474375398e-002
3445:-7.8910359932835919e-002
3446:-7.0565914085255352e-002
3447:-5.8743721801133082e-002
3448:-4.7393669920179529e-002
3449:-3.9914227277775542e-002
3450:-6.7793436853942676e-003
3451:-1.2810184032261500e-003
3452:6.4349617122181606e-003
3453:1.3752009634280251e-002
3454:1.8519455661852646e-002
3455:-1.3183554804065498e-002
3456:-7.5981808426572889e-003
3457:2.5831524558310258e-004
3458:7.7313803029107819e-003
3459:1.2614274517857309e-002
3460:-2.2219254873193310e-002
3461:-1.6507594067723494e-002
3462:-8.4470651792327069e-003
3463:-7.4726767220725018e-004
3464:4.3035011632196673e-003
3465:-3.0847888499711946e-002
3466:-2.5011350125895802e-002
3467:-1.6748852157519915e-002
3468:-8.8243859211701164e-003
3469:-3.6071517409733867e-003
3470:-3.6506317695827198e-002
3471:-3.0585312561212906e-002
3472:-2.2186079539275094e-002
3473:-1.4109377086896297e-002
3474:-8.7792766377602378e-003
3475:2.0480690285722896e-002
3476:2.3465263569142823e-002
3477:2.7687975417274722e-002
3478:3.1734978385591590e-002
3479:3.4397637375709007e-002
3480:1.4658996817536652e-002
3481:1.7843801529817318e-002
3482:2.2339607691162427e-002
3483:2.6635792024464533e-002
3484:2.9454871795764649e-002
3485:6.4655783201594689e-003
3486:9.9255675790516345e-003
3487:1.4794884161539923e-002
3488:1.9429561184714492e-002
3489:2.2459669904863196e-002
3490:-1.3335467969474864e-003
3491:2.3801981732676793e-003
3492:7.5916451400844052e-003
3493:1.2533434816306017e-002
3494:1.5753143650015157e-002
3495:-6.4328597286612624e-003
3496:-2.5581428614685200e-003
3497:2.8689074005319635e-003
3498:8.0023874237101101e-003
3499:1.1339257506727308e-002
3500:3.5363853825457044e-002
3501:3.6487114665468973e-002
3502:3.7981319659630162e-002
3503:3.9296450977848202e-002
3504:4.0091632918831901e-002
3505:3.0500386451468416e-002
3506:3.1783590716654028e-002
3507:3.3507907035290177e-002
3508:3.5048268503599322e-002
3509:3.5994451124218611e-002
3510:2.3616396608999585e-002
3511:2.5132602955780708e-002
3512:2.7192109178406709e-002
3513:2.9060512638571526e-002
3514:3.0226601730089665e-002
3515:1.7015246041786548e-002
3516:1.8763008781560182e-002
3517:2.1155587865389538e-002
3518:2.3349916274608425e-002
3519:2.4734466148435739e-002
3520:1.2669965372452727e-002
3521:1.4575022907334459e-002
3522:1.7193834704974160e-002
3523:1.9609514653616125e-002
3524:2.1142416577007203e-002
3525:4.0112603621205695e-002
3526:3.9418989880291105e-002
3527:3.8308307522459763e-002
3528:3.7084764299334848e-002
3529:3.6184379416702432e-002
3530:3.6104518502922470e-002
3531:3.5606827591870283e-002
3532:3.4772405309273051e-002
3533:3.3812469906369470e-002
3534:3.3084827797268818e-002
3535:3.0464888408071308e-002
3536:3.0246492214982337e-002
3537:2.9805474555720853e-002
3538:2.9220416020308903e-002
3539:2.8738124132812466e-002
3540:2.5098295263926408e-002
3541:2.5150148018706395e-002
3542:2.5089288504624052e-002
3543:2.4865860358538928e-002
3544:2.4619872922557944e-002
3545:2.1590438120040880e-002
3546:2.1821641049438352e-002
3547:2.2012772884612824e-002
3548:2.2028683832766304e-002
3549:2.1938866515075317e-002
3550:3.5360226364950349e-002
3551:3.3030366416467560e-002
3552:2.9523214632006852e-002
3553:2.5902753735739529e-002
3554:2.3365301418048816e-002
3555:3.2358882668116047e-002
3556:3.0244052990930824e-002
3557:2.7049380722588643e-002
3558:2.3738538409165351e-002
3559:2.1410874878599856e-002
3560:2.8153276314001944e-002
3561:2.6350297066899016e-002
3562:2.3608768262417378e-002
3563:2.0746879908834389e-002
3564:1.8723391264417241e-002
3565:2.4172893701899567e-002
3566:2.2678156321803165e-002
3567:2.0384486660290278e-002
3568:1.7966267945649601e-002
3569:1.6243345624320352e-002
3570:2.1584179929167870e-002
3571:2.0297861611925636e-002
3572:1.8306990120733065e-002
3573:1.6188708643138788e-002
3574:1.4668963900482083e-002
3575:2.1709498833430971e-002
3576:1.7762786682389835e-002
3577:1.1903595192023613e-002
3578:5.9496963591356249e-003
3579:1.8294719344438340e-003
3580:1.9886318420768503e-002
3581:1.6246001095007238e-002
3582:1.0838225567827407e-002
3583:5.3389947154863920e-003
3584:1.5311231010836305e-003
3585:1.7387815308400945e-002
3586:1.4186616560598279e-002
3587:9.4258862247680996e-003
3588:4.5784627649608856e-003
3589:1.2184345045502755e-003
3590:1.5092930310123726e-002
3591:1.2319487476951494e-002
3592:8.1891630336810260e-003
3593:3.9769076676044856e-003
3594:1.0533600978843141e-003
3595:1.3642796389847840e-002
3596:1.1154930972314611e-002
3597:7.4455378171279620e-003
3598:3.6574657564968464e-003
3599:1.0254535874103000e-003
3600:-9.3553554709727184e-003
3601:-4.1385621324669698e-002
3602:-8.6114860753075242e-002
3603:-1.2825882030841851e-001
3604:-1.5555262353039692e-001
3605:-7.4185942627328066e-003
3606:-3.7881977764491252e-002
3607:-8.0807071002714628e-002
3608:-1.2172965964964753e-001
3609:-1.4852427666104809e-001
3610:-5.6300670299422101e-003
3611:-3.3926594525314914e-002
3612:-7.4396670125064124e-002
3613:-1.1371764774918268e-001
3614:-1.3990892556598691e-001
3615:-5.0865882575052901e-003
3616:-3.1367976877150969e-002
3617:-6.9605206929543875e-002
3618:-1.0754674562194524e-001
3619:-1.3328640137480471e-001
3620:-5.4308665485778918e-003
3621:-3.0423332091558047e-002
3622:-6.7263454982041324e-002
3623:-1.0439066179431131e-001
3624:-1.2990909061186157e-001
3625:-1.6785496554500376e-001
3626:-1.8997263492953897e-001
3627:-2.2362116682218972e-001
3628:-2.5876686643348562e-001
3629:-2.8362748021901640e-001
3630:-1.6072324381749070e-001
3631:-1.8255422652954814e-001
3632:-2.1517867804547539e-001
3633:-2.4858217040072414e-001
3634:-2.7184042520910445e-001
3635:-1.5203160569923996e-001
3636:-1.7360942283221176e-001
3637:-2.0497827272089117e-001
3638:-2.3607455016180642e-001
3639:-2.5715299033108935e-001
3640:-1.4542203837852460e-001
3641:-1.6694474754139629e-001
3642:-1.9734802813444377e-001
3643:-2.2642712299263862e-001
3644:-2.4552380613182026e-001
3645:-1.4210485550690408e-001
3646:-1.6370373714985281e-001
3647:-1.9361430238975774e-001
3648:-2.2148255501548353e-001
3649:-2.3933973833007019e-001
3650:-2.9347501762453126e-001
3651:-3.0682156945828593e-001
3652:-3.2650904940558717e-001
3653:-3.4636648451464530e-001
3654:-3.6002440931854646e-001
3655:-2.8138105102823835e-001
3656:-2.9525333130495390e-001
3657:-3.1546941857530575e-001
3658:-3.3556873745117261e-001
3659:-3.4922708764518717e-001
3660:-2.6609923121867435e-001
3661:-2.8000662698849593e-001
3662:-2.9992083838680150e-001
3663:-3.1929840809225851e-001
3664:-3.3222262855820928e-001
3665:-2.5370339964122407e-001
3666:-2.6677270287376059e-001
3667:-2.8510632680521170e-001
3668:-3.0248343574545505e-001
3669:-3.1380031845294654e-001
3670:-2.4689682013188904e-001
3671:-2.5889205704290053e-001
3672:-2.7541157494219265e-001
3673:-2.9068785429403277e-001
3674:-3.0040536762715031e-001
3675:-3.6617755732377283e-001
3676:-3.7499321920878453e-001
3677:-3.8332314192556444e-001
3678:-3.8621050707971799e-001
3679:-3.8505491951315624e-001
3680:-3.5472964242647009e-001
3681:-3.6145285198359078e-001
3682:-3.6779377722537598e-001
3683:-3.6996990071774699e-001
3684:-3.6906282310162181e-001
3685:-3.3673982287597276e-001
3686:-3.4100569642136569e-001
3687:-3.4532257918564552e-001
3688:-3.4734578496897905e-001
3689:-3.4740943831271270e-001
3690:-3.1729335888448434e-001
3691:-3.1982306088825857e-001
3692:-3.2317196266050485e-001
3693:-3.2609831222026775e-001
3694:-3.2785386099397040e-001
3695:-3.0317674183451587e-001
3696:-3.0493522895150771e-001
3697:-3.0822993180377750e-001
3698:-3.1237983825677418e-001
3699:-3.1570513442201864e-001
3700:-3.8132572133375775e-001
3701:-3.7023561242899605e-001
3702:-3.5623065208830013e-001
3703:-3.4488210540798631e-001
3704:-3.3865878255912246e-001
3705:-3.6620055644666960e-001
3706:-3.5762359048046560e-001
3707:-3.4654500777245373e-001
3708:-3.3722696096919957e-001
3709:-3.3187545334179475e-001
3710:-3.4587019434220395e-001
3711:-3.4057630911731379e-001
3712:-3.3320152302590295e-001
3713:-3.2627536406861812e-001
3714:-3.2180340364904669e-001
3715:-3.2770122388068645e-001
3716:-3.2521846119271153e-001
3717:-3.2085634382258210e-001
3718:-3.1563094481594683e-001
3719:-3.1156657339981758e-001
3720:-3.1653592069212877e-001
3721:-3.1570163154188058e-001
3722:-3.1299968403944578e-001
3723:-3.0853857714488170e-001
3724:-3.0448135154936923e-001
3725:-3.3498415881762894e-001
3726:-3.2553203932600505e-001
3727:-3.1026431736889065e-001
3728:-2.9330165411660220e-001
3729:-2.8074425144413900e-001
3730:-3.2830848945000562e-001
3731:-3.1880773779960220e-001
3732:-3.0386859123547533e-001
3733:-2.8770963085092627e-001
3734:-2.7597407180565814e-001
3735:-3.1833003444214203e-001
3736:-3.0890411773153220e-001
3737:-2.9466000643137547e-001
3738:-2.7989185023392493e-001
3739:-2.6950583666910338e-001
3740:-3.0811066677167048e-001
3741:-2.9893315766307826e-001
3742:-2.8563825860191322e-001
3743:-2.7251508356658521e-001
3744:-2.6365218814443092e-001
3745:-3.0099362398222007e-001
3746:-2.9208548326754558e-001
3747:-2.7958483442110371e-001
3748:-2.6773103707525242e-001
3749:-2.6000798583299600e-001
3750:-2.7356172046310590e-001
3751:-2.5881065459949215e-001
3752:-2.3820450170506127e-001
3753:-2.1878092468573085e-001
3754:-2.0619644298963929e-001
3755:-2.6939630107824530e-001
3756:-2.5597598644986175e-001
3757:-2.3709256794268618e-001
3758:-2.1912314304720851e-001
3759:-2.0737734599524360e-001
3760:-2.6379975786977838e-001
3761:-2.5212760836215242e-001
3762:-2.3547322946525875e-001
3763:-2.1933953669498205e-001
3764:-2.0862133047500062e-001
3765:-2.5880127114356521e-001
3766:-2.4863892734493989e-001
3767:-2.3386453842416927e-001
3768:-2.1921752814494438e-001
3769:-2.0928855334517665e-001
3770:-2.5573154441827489e-001
3771:-2.4646325621566376e-001
3772:-2.3277211171202233e-001
3773:-2.1893976358652276e-001
3774:-2.0941277779167281e-001
3775:-1.9992584304370278e-001
3776:-1.8770964833100864e-001
3777:-1.7017080248213545e-001
3778:-1.5304832638624963e-001
3779:-1.4159495808803529e-001
3780:-2.0136365215572533e-001
3781:-1.8939760343787040e-001
3782:-1.7223465181941949e-001
3783:-1.5549946055792380e-001
3784:-1.4431710685395321e-001
3785:-2.0294998393896913e-001
3786:-1.9141809519597508e-001
3787:-1.7490495577143997e-001
3788:-1.5883625691848324e-001
3789:-1.4811862282591973e-001
3790:-2.0391931145142791e-001
3791:-1.9290221851569223e-001
3792:-1.7715697308258485e-001
3793:-1.6187284843568342e-001
3794:-1.5170056978691152e-001
3795:-2.0422671387029481e-001
3796:-1.9360749894513679e-001
3797:-1.7845448409630280e-001
3798:-1.6377398063763982e-001
3799:-1.5402044859885833e-001
3800:-1.3597197280829737e-001
3801:-1.2540706377764907e-001
3802:-1.1034372615279081e-001
3803:-9.5764965604409211e-002
3804:-8.6087844870431432e-002
3805:-1.3883938903220380e-001
3806:-1.2856274423477806e-001
3807:-1.1390216786996198e-001
3808:-9.9703150698663298e-002
3809:-9.0272123389384493e-002
3810:-1.4286143438839388e-001
3811:-1.3296964759671651e-001
3812:-1.1884428856957746e-001
3813:-1.0514678172363898e-001
3814:-9.6038858176050165e-002
3815:-1.4667318303260118e-001
3816:-1.3712195945485570e-001
3817:-1.2346695319486191e-001
3818:-1.1020609210375924e-001
3819:-1.0137697752604440e-001
3820:-1.4915531697882745e-001
3821:-1.3981120563665689e-001
3822:-1.2644012297520438e-001
3823:-1.1344016759968495e-001
3824:-1.0477599444901248e-001
3825:-8.1491283866542572e-002
3826:-7.3150505507346170e-002
3827:-6.1336849953406054e-002
3828:-4.9999097540146746e-002
3829:-4.2530216055897595e-002
3830:-8.5757820196653664e-002
3831:-7.7495329309181765e-002
3832:-6.5782660926127459e-002
3833:-5.4529666699718267e-002
3834:-4.7109339745210851e-002
3835:-9.1637402889814992e-002
3836:-8.3497003928336644e-002
3837:-7.1943127748224200e-002
3838:-6.0825160265270899e-002
3839:-5.3483384801562957e-002
3840:-9.7079327213815902e-002
3841:-8.9069872888546203e-002
3842:-7.7687752675799387e-002
3843:-6.6717775700727705e-002
3844:-5.9463404438037902e-002
3845:-1.0054403449143590e-001
3846:-9.2629086590265752e-002
3847:-8.1371704317682758e-002
3848:-7.0510236298734069e-002
3849:-6.3320638518160180e-002
3850:-3.9117144601028678e-002
3851:-3.3163632170737936e-002
3852:-2.4715030729963307e-002
3853:-1.6586861950217361e-002
3854:-1.1220410650418669e-002
3855:-4.3696512981535658e-002
3856:-3.7702284695184475e-002
3857:-2.9200184298821513e-002
3858:-2.1025795366088271e-002
3859:-1.5631963623891961e-002
3860:-5.0074750777900225e-002
3861:-4.4028478111259012e-002
3862:-3.5459133654602321e-002
3863:-2.7228159621362363e-002
3864:-2.1801811661090652e-002
3865:-5.6063520122964158e-002
3866:-4.9974210551271499e-002
3867:-4.1350812434137338e-002
3868:-3.3076443700210942e-002
3869:-2.7626586997110732e-002
3870:-5.9929347665932636e-002
3871:-5.3815824733863100e-002
3872:-4.5163093646599116e-002
3873:-3.6866670745142327e-002
3874:-3.1405936095318998e-002
3875:-8.8493560202328545e-003
3876:-4.9166807803159253e-003
3877:5.9052815585581837e-004
3878:5.7985638177422893e-003
3879:9.1831270142316984e-003
3880:-1.3236424720236820e-002
3881:-9.2324666987068284e-003
3882:-3.6192291713223849e-003
3883:1.6967879810486106e-003
3884:5.1562118442887959e-003
3885:-1.9373213128188509e-002
3886:-1.5268243974933874e-002
3887:-9.5046810475122468e-003
3888:-4.0354787012534298e-003
3889:-4.6980430964357179e-004
3890:-2.5168250212027916e-002
3891:-2.0966279967587993e-002
3892:-1.5058263878085966e-002
3893:-9.4417485759017167e-003
3894:-5.7738336964714629e-003
3895:-2.8929200094903483e-002
3896:-2.4663293819742377e-002
3897:-1.8660007601182690e-002
3898:-1.2946269270665126e-002
3899:-9.2108404753653613e-003
3900:1.0544555319506875e-002
3901:1.2522924958663547e-002
3902:1.5246110644317010e-002
3903:1.7762619178293991e-002
3904:1.9362337896156784e-002
3905:6.5700491328906522e-003
3906:8.6757558052773208e-003
3907:1.1577827040007439e-002
3908:1.4264207147048279e-002
3909:1.5974748492499882e-002
3910:1.0176269138137835e-003
3911:3.3008207702888855e-003
3912:6.4516943942837940e-003
3913:9.3736769711777503e-003
3914:1.1237522074494306e-002
3915:-4.2165555946708571e-003
3916:-1.7665504002853404e-003
3917:1.6174920779906069e-003
3918:4.7594435897422242e-003
3919:6.7659166047470869e-003
3920:-7.6080183309836565e-003
3921:-5.0502352029493745e-003
3922:-1.5159492019631321e-003
3923:1.7672318564904944e-003
3924:3.8649683994953672e-003
3925:1.9848348051799365e-002
3926:2.0161503708216021e-002
3927:2.0469318352238104e-002
3928:2.0597957667537310e-002
3929:2.0582848188007995e-002
3930:1.6524931985587573e-002
3931:1.6980585356300332e-002
3932:1.7494676219148166e-002
3933:1.7826745314116609e-002
3934:1.7948918619220145e-002
3935:1.1877922387424626e-002
3936:1.2536503089368290e-002
3937:1.3344250066549939e-002
3938:1.3965806996789492e-002
3939:1.4283270975194615e-002
3940:7.4920680999123797e-003
3941:8.3467497484632815e-003
3942:9.4381563936848569e-003
3943:1.0339204712897178e-002
3944:1.0845132979976451e-002
3945:4.6471117869198294e-003
3946:5.6317846060581602e-003
3947:6.9111530915141042e-003
3948:7.9973168118099014e-003
3949:8.6280213198090070e-003
3950:2.0273328226695687e-002
3951:1.9090052125647964e-002
3952:1.7248839471595782e-002
3953:1.5278749700460026e-002
3954:1.3859359260110915e-002
3955:1.7723557046385875e-002
3956:1.6732828697171093e-002
3957:1.5171148730578983e-002
3958:1.3477702436026379e-002
3959:1.2245566456255354e-002
3960:1.4176790748794112e-002
3961:1.3456686585336948e-002
3962:1.2287744199528109e-002
3963:1.0982804572484604e-002
3964:1.0013541369100173e-002
3965:1.0852353906740733e-002
3966:1.0389397515672935e-002
3967:9.5934580707446055e-003
3968:8.6572904713039418e-003
3969:7.9374236309453904e-003
3970:8.7099100603502330e-003
3971:8.4148114333849264e-003
3972:7.8622490606506841e-003
3973:7.1665693225350536e-003
3974:6.6092669550134632e-003
3975:1.2894548178616513e-002
3976:1.0547791587629514e-002
3977:7.0466423458716634e-003
3978:3.4687233647152267e-003
3979:9.8131778417057721e-004
3980:1.1395579927531331e-002
3981:9.3136858646201363e-003
3982:6.2039567880803849e-003
3983:3.0216885738335482e-003
3984:8.0689635986423377e-004
3985:9.3244548509025839e-003
3986:7.6133567439797580e-003
3987:5.0518281293770581e-003
3988:2.4239556011578555e-003
3989:5.9130954464152246e-004
3990:7.4006242852058309e-003
3991:6.0400421406919024e-003
3992:3.9970162962664965e-003
3993:1.8938417623179360e-003
3994:4.2306186968320465e-004
3995:6.1715126767692714e-003
3996:5.0386383086382077e-003
3997:3.3326238171748394e-003
3998:1.5706912378603266e-003
3999:3.3536996012113523e-004
4000:-5.8041784812858299e-003
4001:-3.0121519284593699e-002
4002:-6.6064151616070613e-002
4003:-1.0240219530156730e-001
4004:-1.2744396486865503e-001
4005:-6.3722836566126283e-003
4006:-2.9352199041148927e-002
4007:-6.3203206305526172e-002
4008:-9.7291418739812383e-002
4009:-1.2070591508985219e-001
4010:-6.6683439029892651e-003
4011:-2.7873990442886902e-002
4012:-5.8931846985724609e-002
4013:-8.9995234143324276e-002
4014:-1.1121101326130131e-001
4015:-6.3275633264546216e-003
4016:-2.5977893051717316e-002
4017:-5.4563228653898850e-002
4018:-8.2922420315694564e-002
4019:-1.0215843423159600e-001
4020:-5.7289194811220414e-003
4021:-2.4442963377572912e-002
4022:-5.1524096184264054e-002
4023:-7.8220878866456012e-002
4024:-9.6230759155251311e-002
4025:-1.3945953220847990e-001
4026:-1.6077394705198345e-001
4027:-1.9020131670727447e-001
4028:-2.1750719163318155e-001
4029:-2.3493483947176549e-001
4030:-1.3195293744567022e-001
4031:-1.5204809766615693e-001
4032:-1.8003313960144188e-001
4033:-2.0630447420472994e-001
4034:-2.2325997019609500e-001
4035:-1.2140145518821538e-001
4036:-1.3979682447618305e-001
4037:-1.6579519260396144e-001
4038:-1.9067701061211936e-001
4039:-2.0702676078815510e-001
4040:-1.1137413669454937e-001
4041:-1.2817152336601145e-001
4042:-1.5233230412339596e-001
4043:-1.7597369197353455e-001
4044:-1.9181950465025357e-001
4045:-1.0482785655997624e-001
4046:-1.2059251049694804e-001
4047:-1.4358410314511591e-001
4048:-1.6646409028342324e-001
4049:-1.8202427300144475e-001
4050:-2.4228179271974620e-001
4051:-2.5389464767825054e-001
4052:-2.6982105809440271e-001
4053:-2.8446482897507519e-001
4054:-2.9372777424176882e-001
4055:-2.3047231117428243e-001
4056:-2.4194910747490381e-001
4057:-2.5778759735378398e-001
4058:-2.7247574645457756e-001
4059:-2.8184501615202123e-001
4060:-2.1408804495904482e-001
4061:-2.2546048532042248e-001
4062:-2.4130917551401695e-001
4063:-2.5620126107162405e-001
4064:-2.6582111667076169e-001
4065:-1.9878448003320606e-001
4066:-2.1016533075548186e-001
4067:-2.2618935439410245e-001
4068:-2.4145050953883945e-001
4069:-2.5143371733979736e-001
4070:-1.8895493935476382e-001
4071:-2.0040632930909372e-001
4072:-2.1664497099017430e-001
4073:-2.3225304293476304e-001
4074:-2.4254917305640064e-001
4075:-2.9639196526921147e-001
4076:-2.9825838966613077e-001
4077:-3.0188919470226133e-001
4078:-3.0658679355521096e-001
4079:-3.1040767909260442e-001
4080:-2.8481463223575404e-001
4081:-2.8760182485319152e-001
4082:-2.9220362905211694e-001
4083:-2.9742375950849209e-001
4084:-3.0134378081622631e-001
4085:-2.6921639998473318e-001
4086:-2.7317243768105504e-001
4087:-2.7893328147713464e-001
4088:-2.8465572295271052e-001
4089:-2.8854140418282498e-001
4090:-2.5522900684446836e-001
4091:-2.6014054967748140e-001
4092:-2.6674802153962124e-001
4093:-2.7266036250329873e-001
4094:-2.7629836371358940e-001
4095:-2.4660287431096736e-001
4096:-2.5204432761843704e-001
4097:-2.5905043293621449e-001
4098:-2.6491293979615804e-001
4099:-2.6825921903071959e-001
4100:-3.1146817715051323e-001
4101:-3.1094071855536426e-001
4102:-3.0858466856134814e-001
4103:-3.0434655073128480e-001
4104:-3.0037097649160144e-001
4105:-3.0229407642143458e-001
4106:-3.0148801606427006e-001
4107:-2.9907247815640325e-001
4108:-2.9518903352395803e-001
4109:-2.9169363750908267e-001
4110:-2.8930593001693489e-001
4111:-2.8817580632647655e-001
4112:-2.8579604130324410e-001
4113:-2.8255486033073651e-001
4114:-2.7984654601703779e-001
4115:-2.7684813246842882e-001
4116:-2.7549367505731159e-001
4117:-2.7329572533654911e-001
4118:-2.7084285044181600e-001
4119:-2.6902134744194972e-001
4120:-2.6864567800648670e-001
4121:-2.6719533235250170e-001
4122:-2.6520545741464752e-001
4123:-2.6337481841429056e-001
4124:-2.6221620715836358e-001
4125:-2.9698495751774401e-001
4126:-2.8844793290752530e-001
4127:-2.7654298286669099e-001
4128:-2.6534697122629863e-001
4129:-2.5810878481030658e-001
4130:-2.8875193759669326e-001
4131:-2.8128712001851996e-001
4132:-2.7075725538369327e-001
4133:-2.6070453965926349e-001
4134:-2.5411390131694522e-001
4135:-2.7753131906492340e-001
4136:-2.7145793599673118e-001
4137:-2.6268005624043106e-001
4138:-2.5403989664655591e-001
4139:-2.4821882916313395e-001
4140:-2.6730385627494718e-001
4141:-2.6240954812413236e-001
4142:-2.5507267732323585e-001
4143:-2.4753409793679521e-001
4144:-2.4227024171967690e-001
4145:-2.6089038599241793e-001
4146:-2.5667922321524805e-001
4147:-2.5014770227466238e-001
4148:-2.4318268325848816e-001
4149:-2.3817731345664411e-001
4150:-2.5403158840870993e-001
4151:-2.4502809814363649e-001
4152:-2.3168713824157530e-001
4153:-2.1816031181480128e-001
4154:-2.0881629754767914e-001
4155:-2.5023646391881882e-001
4156:-2.4146355100322581e-001
4157:-2.2853894842734138e-001
4158:-2.1552201370089427e-001
4159:-2.0657994007454103e-001
4160:-2.4460083187159509e-001
4161:-2.3621459519508736e-001
4162:-2.2397148728865907e-001
4163:-2.1177301744331431e-001
4164:-2.0346856166430274e-001
4165:-2.3887236658337876e-001
4166:-2.3093106638647865e-001
4167:-2.1945476849530260e-001
4168:-2.0816007887686885e-001
4169:-2.0055150118571810e-001
4170:-2.3490716334049727e-001
4171:-2.2730317843469605e-001
4172:-2.1639954317014004e-001
4173:-2.0577105055247460e-001
4174:-1.9867115144371417e-001
4175:-2.0374011648882917e-001
4176:-1.9337806951876774e-001
4177:-1.7859130621510172e-001
4178:-1.6426476464813491e-001
4179:-1.5474588482639073e-001
4180:-2.0176017622112977e-001
4181:-1.9195636485121967e-001
4182:-1.7793695847223084e-001
4183:-1.6431821622913306e-001
4184:-1.5524845718652344e-001
4185:-1.9901610435309100e-001
4186:-1.8994865559357793e-001
4187:-1.7693418021883980e-001
4188:-1.6423315380095430e-001
4189:-1.5573997140485057e-001
4190:-1.9645662111350329e-001
4191:-1.8802914254078806e-001
4192:-1.7587844267764513e-001
4193:-1.6395397659232130e-001
4194:-1.5594097841912333e-001
4195:-1.9481486362826453e-001
4196:-1.8676902116365779e-001
4197:-1.7512706880994830e-001
4198:-1.6365179263324900e-001
4199:-1.5591131574714331e-001
4200:-1.4996652840827185e-001
4201:-1.4072571734607980e-001
4202:-1.2750066163435569e-001
4203:-1.1464050068864166e-001
4204:-1.0606820928722197e-001
4205:-1.5063393621150686e-001
4206:-1.4160706338162646e-001
4207:-1.2869410947459395e-001
4208:-1.1614464102111305e-001
4209:-1.0778370586625431e-001
4210:-1.5134850133308808e-001
4211:-1.4264417804475554e-001
4212:-1.3020182388119972e-001
4213:-1.1812089139701933e-001
4214:-1.1007872476589084e-001
4215:-1.5175077348074031e-001
4216:-1.4338000690963235e-001
4217:-1.3142437121805578e-001
4218:-1.1982809343168713e-001
4219:-1.1211570249996844e-001
4220:-1.5184603278407011e-001
4221:-1.4370937056998151e-001
4222:-1.3209536762712695e-001
4223:-1.2083931327701991e-001
4224:-1.1335844471655918e-001
4225:-1.0187676254053159e-001
4226:-9.4028413944112155e-002
4227:-8.2862443429060850e-002
4228:-7.2085119657471927e-002
4229:-6.4948806456746305e-002
4230:-1.0368776255761299e-001
4231:-9.5999191629994374e-002
4232:-8.5056885356903297e-002
4233:-7.4490971165317818e-002
4234:-6.7491984002895744e-002
4235:-1.0612195483862413e-001
4236:-9.8655431548344871e-002
4237:-8.8023188118538362e-002
4238:-7.7749391243177854e-002
4239:-7.0939573916656909e-002
4240:-1.0829729746522888e-001
4241:-1.0103864591586795e-001
4242:-9.0695706377873858e-002
4243:-8.0693267867270588e-002
4244:-7.4058444480229177e-002
4245:-1.0963406189639860e-001
4246:-1.0250921651296201e-001
4247:-9.2351908971782068e-002
4248:-8.2522847796033763e-002
4249:-7.5999378944413970e-002
4250:-6.1572410524340267e-002
4251:-5.5466189139385481e-002
4252:-4.6824384385736377e-002
4253:-3.8539165992207143e-002
4254:-3.3086242529563457e-002
4255:-6.4163170597832830e-002
4256:-5.8107889258555069e-002
4257:-4.9535472979399510e-002
4258:-4.1313454509905943e-002
4259:-3.5900133118181028e-002
4260:-6.7677943207832561e-002
4261:-6.1699401718436346e-002
4262:-5.3231736542170623e-002
4263:-4.5105406763239410e-002
4264:-3.9752222076101851e-002
4265:-7.0861029673985096e-002
4266:-6.4961776138331498e-002
4267:-5.6602593466692247e-002
4268:-4.8575683780061302e-002
4269:-4.3285183901382814e-002
4270:-7.2844111235676898e-002
4271:-6.7000466098603342e-002
4272:-5.8717508161263039e-002
4273:-5.0760634658475343e-002
4274:-4.5514405203598028e-002
4275:-3.0606180948274653e-002
4276:-2.6319254976245737e-002
4277:-2.0284920149127427e-002
4278:-1.4539815056441779e-002
4279:-1.0782783678576989e-002
4280:-3.3425030305439279e-002
4281:-2.9119954933907424e-002
4282:-2.3059636442077844e-002
4283:-1.7289253640459589e-002
4284:-1.3515366236856598e-002
4285:-3.7286006903492444e-002
4286:-3.2958582965599198e-002
4287:-2.6866407470711815e-002
4288:-2.1065201456151622e-002
4289:-1.7270859481610019e-002
4290:-4.0829788888503568e-002
4291:-3.6485042429247917e-002
4292:-3.0368369989614827e-002
4293:-2.4543700820427502e-002
4294:-2.0733930319960309e-002
4295:-4.3067509507008953e-002
4296:-3.8713821809672803e-002
4297:-3.2584649986680460e-002
4298:-2.6748187389907769e-002
4299:-2.2930769025109501e-002
4300:-9.1636326090080225e-003
4301:-6.5641319060237065e-003
4302:-2.9704370753654299e-003
4303:3.7015420871063090e-004
4304:2.5059467063071588e-003
4305:-1.1877473686638272e-002
4306:-9.2208231100722113e-003
4307:-5.5424453457793964e-003
4308:-2.1159903066342218e-003
4309:7.9115434430464764e-005
4310:-1.5607848928519824e-002
4311:-1.2872399017850422e-002
4312:-9.0771737956318304e-003
4313:-5.5321421229050528e-003
4314:-3.2550690441729090e-003
4315:-1.9048566921465213e-002
4316:-1.6240129148879855e-002
4317:-1.2336566693790504e-002
4318:-8.6814686125497673e-003
4319:-6.3282396683326074e-003
4320:-2.1231730160339683e-002
4321:-1.8376789648018227e-002
4322:-1.4404135748414261e-002
4323:-1.0678765401214008e-002
4324:-8.2768703473806039e-003
4325:3.3128922069350880e-003
4326:4.3569690768643530e-003
4327:5.7223729276303474e-003
4328:6.8934371052550803e-003
4329:7.5814664117247639e-003
4330:9.2734382612994631e-004
4331:2.0730937250633512e-003
4332:3.5860382326246268e-003
4333:4.9030414468184576e-003
4334:5.6898094715945730e-003
4335:-2.3499500311605962e-003
4336:-1.0643877642362929e-003
4337:6.5132219082958995e-004
4338:2.1687454659849630e-003
4339:3.0910289020434972e-003
4340:-5.3704648796711564e-003
4341:-3.9558764575487581e-003
4342:-2.0531962090430270e-003
4343:-3.5114802699039632e-004
4344:6.9586460754439601e-004
4345:-7.2855712814637865e-003
4346:-5.7890711314044158e-003
4347:-3.7677883529921002e-003
4348:-1.9487392612582159e-003
4349:-8.2274920947598463e-004
4350:7.6979884609561155e-003
4351:7.4814844357982656e-003
4352:7.0435791016417414e-003
4353:6.4620387016518961e-003
4354:5.9823824626704433e-003
4355:5.8669678002531769e-003
4356:5.7900980626645632e-003
4357:5.5573946923745858e-003
4358:5.1819164370793397e-003
4359:4.8434704134432578e-003
4360:3.3513733943582153e-003
4361:3.4660758706153354e-003
4362:3.5149676329162367e-003
4363:3.4223441449816251e-003
4364:3.2777780981108956e-003
4365:1.0327297722251727e-003
4366:1.3236665294565862e-003
4367:1.6316928056607834e-003
4368:1.7994634663973527e-003
4369:1.8334394634266454e-003
4370:-4.3745953814346584e-004
4371:-3.4988950344005752e-005
4372:4.3708943891036697e-004
4373:7.6977239353264641e-004
4374:9.1685814889978941e-004
4375:5.5922748101613698e-003
4376:4.5691275207457244e-003
4377:3.0251747147562198e-003
4378:1.4269428450702022e-003
4379:3.0435148403365193e-004
4380:4.5403267149692096e-003
4381:3.7171982804634703e-003
4382:2.4679953093978968e-003
4383:1.1667065213451515e-003
4384:2.4815223823503187e-004
4385:3.0926282469337040e-003
4386:2.5386459341995415e-003
4387:1.6862786539024869e-003
4388:7.8503731133722926e-004
4389:1.4151337022978231e-004
4390:1.7551659205685063e-003
4391:1.4420945490561860e-003
4392:9.4521582176205913e-004
4393:4.0267478689570956e-004
4394:5.9460072472047516e-006
4395:9.0518024000915849e-004
4396:7.4039836175866726e-004
4397:4.6251783606134051e-004
4398:1.4116824950339394e-004
4399:-1.0325281386784869e-004
4400:-5.3303131165278444e-003
4401:-2.3644403917836024e-002
4402:-5.0119943287076696e-002
4403:-7.6187472335013065e-002
4404:-9.3754051944055908e-002
4405:-4.6550306759614822e-003
4406:-2.2277096353094217e-002
4407:-4.7794338295543130e-002
4408:-7.2969044387300730e-002
4409:-8.9963553924867448e-002
4410:-3.9593214562912869e-003
4411:-2.0577506809469098e-002
4412:-4.4705359890780345e-002
4413:-6.8586556868073995e-002
4414:-8.4752846304023299e-002
4415:-3.6120187441965337e-003
4416:-1.9237625794117405e-002
4417:-4.1992640508985379e-002
4418:-6.4596878866507335e-002
4419:-7.9946250221499038e-002
4420:-3.5750480087352542e-003
4421:-1.8529336241411697e-002
4422:-4.0356375507562603e-002
4423:-6.2098112886987425e-002
4424:-7.6896120477444360e-002
4425:-1.0213120225922782e-001
4426:-1.1750823970342827e-001
4427:-1.4000179310271818e-001
4428:-1.6246643253608298e-001
4429:-1.7779049702345232e-001
4430:-9.8076611958464371e-002
4431:-1.1294700460718393e-001
4432:-1.3462821263925134e-001
4433:-1.5619681333915356e-001
4434:-1.7086089934138260e-001
4435:-9.2488646331065572e-002
4436:-1.0664473985301663e-001
4437:-1.2717681361319286e-001
4438:-1.4747372084099122e-001
4439:-1.6119896836268813e-001
4440:-8.7316052006155900e-002
4441:-1.0079067491912971e-001
4442:-1.2022168795330319e-001
4443:-1.3929497525488124e-001
4444:-1.5211421281383564e-001
4445:-8.4022458869787861e-002
4446:-9.7050581751233003e-002
4447:-1.1575732442935521e-001
4448:-1.3402264800864352e-001
4449:-1.4624205184640812e-001
4450:-1.8463703417752605e-001
4451:-1.9598303528165575e-001
4452:-2.1210306188144337e-001
4453:-2.2763496337242659e-001
4454:-2.3790346697632259e-001
4455:-1.7740169278299109e-001
4456:-1.8824382666802572e-001
4457:-2.0365465360525567e-001
4458:-2.1851141045120395e-001
4459:-2.2833843865657102e-001
4460:-1.6730841903678884e-001
4461:-1.7744928616390782e-001
4462:-1.9187515181563747e-001
4463:-2.0579681698819405e-001
4464:-2.1501394399985757e-001
4465:-1.5781179130211898e-001
4466:-1.6729487445467855e-001
4467:-1.8079945429949021e-001
4468:-1.9384970327724771e-001
4469:-2.0250041187853821e-001
4470:-1.5166955845936606e-001
4471:-1.6072843871877793e-001
4472:-1.7364047804034788e-001
4473:-1.8613224151238675e-001
4474:-1.9442113904109140e-001
4475:-2.4197798420613550e-001
4476:-2.4749795970441102e-001
4477:-2.5456653014401737e-001
4478:-2.6042908358390177e-001
4479:-2.6373952868976447e-001
4480:-2.3224664205334133e-001
4481:-2.3760594229838838e-001
4482:-2.4461073315253073e-001
4483:-2.5061333677273345e-001
4484:-2.5413654088250992e-001
4485:-2.1868723663265294e-001
4486:-2.2380850762557586e-001
4487:-2.3071588970078369e-001
4488:-2.3691956952593404e-001
4489:-2.4075159541779478e-001
4490:-2.0594905769270841e-001
4491:-2.1082904426309970e-001
4492:-2.1763425074092105e-001
4493:-2.2403423995256633e-001
4494:-2.2817183245608411e-001
4495:-1.9772227548283561e-001
4496:-2.0243562303833135e-001
4497:-2.0916831669537705e-001
4498:-2.1569962285202898e-001
4499:-2.2004401059778836e-001
4500:-2.6413837664206835e-001
4501:-2.6281162971477989e-001
4502:-2.6106296117791528e-001
4503:-2.5954508495947015e-001
4504:-2.5864117008347609e-001
4505:-2.5474842317468988e-001
4506:-2.5394508325658588e-001
4507:-2.5285037500298624e-001
4508:-2.5185274979994177e-001
4509:-2.5122727466388661e-001
4510:-2.4165440968504193e-001
4511:-2.4153784635240691e-001
4512:-2.4128408705772419e-001
4513:-2.4093160914297601e-001
4514:-2.4063418451949603e-001
4515:-2.2934058342518168e-001
4516:-2.2981608755273028e-001
4517:-2.3026458671894448e-001
4518:-2.3041856559446089e-001
4519:-2.3035448235830530e-001
4520:-2.2138000234340460e-001
4521:-2.2220539794034341e-001
4522:-2.2305376406393054e-001
4523:-2.2347390062895917e-001
4524:-2.2351474159292922e-001
4525:-2.5743823682799516e-001
4526:-2.5342357265557952e-001
4527:-2.4715248689195618e-001
4528:-2.4041544184836378e-001
4529:-2.3554709883812833e-001
4530:-2.5011750670597444e-001
4531:-2.4625927837624925e-001
4532:-2.4030525899475233e-001
4533:-2.3398984420774183e-001
4534:-2.2946950735687988e-001
4535:-2.3964586383458372e-001
4536:-2.3603768871814204e-001
4537:-2.3057868593619196e-001
4538:-2.2491140938070139e-001
4539:-2.2092165818970866e-001
4540:-2.2946980321002772e-001
4541:-2.2613660418077977e-001
4542:-2.2120911464837720e-001
4543:-2.1622647297439918e-001
4544:-2.1279223031720948e-001
4545:-2.2269060604980467e-001
4546:-2.1955950378461617e-001
4547:-2.1501594574270133e-001
4548:-2.1052179943366922e-001
4549:-2.0748122385722187e-001
4550:-2.3236917434258664e-001
4551:-2.2500172296283538e-001
4552:-2.1445193719631953e-001
4553:-2.0418617606005368e-001
4554:-1.9733908306071710e-001
4555:-2.2653178192616683e-001
4556:-2.1970995305094096e-001
4557:-2.0990975597827938e-001
4558:-2.0033486043329377e-001
4559:-1.9392580399242249e-001
4560:-2.1832117514723542e-001
4561:-2.1222054109477836e-001
4562:-2.0340409182751315e-001
4563:-1.9472695093447759e-001
4564:-1.8888154221204301e-001
4565:-2.1051175588033230e-001
4566:-2.0503984919093024e-001
4567:-1.9707173988951138e-001
4568:-1.8915694580887549e-001
4569:-1.8378271734517390e-001
4570:-2.0540937466282941e-001
4571:-2.0031368186880394e-001
4572:-1.9284708205760134e-001
4573:-1.8537507436460771e-001
4574:-1.8026947385022604e-001
4575:-1.9358888698728030e-001
4576:-1.8570033414527731e-001
4577:-1.7427976752973087e-001
4578:-1.6301524458833233e-001
4579:-1.5541257763404459e-001
4580:-1.9034912970960891e-001
4581:-1.8272504632119110e-001
4582:-1.7170681404075033e-001
4583:-1.6086251093010137e-001
4584:-1.5355708124794995e-001
4585:-1.8554016656669495e-001
4586:-1.7830747566397884e-001
4587:-1.6788443051655436e-001
4588:-1.5766150576697777e-001
4589:-1.5079545322945279e-001
4590:-1.8065429313571765e-001
4591:-1.7381787650404798e-001
4592:-1.6399716729646330e-001
4593:-1.5440276971477521e-001
4594:-1.4798097610723349e-001
4595:-1.7727362937081864e-001
4596:-1.7071062605762427e-001
4597:-1.6130534843496733e-001
4598:-1.5214426793385383e-001
4599:-1.4602865546333665e-001
4600:-1.5141792775969998e-001
4601:-1.4342163806586913e-001
4602:-1.3200812718648994e-001
4603:-1.2094654288779262e-001
4604:-1.1359501398597058e-001
4605:-1.4971852768414329e-001
4606:-1.4202506190255521e-001
4607:-1.3103632746695359e-001
4608:-1.2037732677520752e-001
4609:-1.1328796253499746e-001
4610:-1.4717918618095177e-001
4611:-1.3990037776048095e-001
4612:-1.2949151496754888e-001
4613:-1.1937988709026308e-001
4614:-1.1264563946782037e-001
4615:-1.4457951034497499e-001
4616:-1.3768114054579059e-001
4617:-1.2780204003115631e-001
4618:-1.1818767560395603e-001
4619:-1.1177432585945751e-001
4620:-1.4276957240631982e-001
4621:-1.3611133474502177e-001
4622:-1.2656520586249054e-001
4623:-1.1726162023056916e-001
4624:-1.1104774337332010e-001
4625:-1.0992255084468912e-001
4626:-1.0287242207652850e-001
4627:-9.2821090854371208e-002
4628:-8.3093920773257807e-002
4629:-7.6637684042573623e-002
4630:-1.0972249276768133e-001
4631:-1.0283493528279913e-001
4632:-9.3018509831360799e-002
4633:-8.3522488910520040e-002
4634:-7.7221941018698462e-002
4635:-1.0922905585693507e-001
4636:-1.0257781417384115e-001
4637:-9.3102816862699653e-002
4638:-8.3942722963098224e-002
4639:-7.7868412333733400e-002
4640:-1.0849736667545105e-001
4641:-1.0208035991828399e-001
4642:-9.2943743546773316e-002
4643:-8.4116529467735179e-002
4644:-7.8266375224971388e-002
4645:-1.0786080925110954e-001
4646:-1.0160256142759516e-001
4647:-9.2695268084196314e-002
4648:-8.4093620422821730e-002
4649:-7.8395342669297194e-002
4650:-7.3510278911183474e-002
4651:-6.7708797164785034e-002
4652:-5.9484701067669003e-002
4653:-5.1583264871812085e-002
4654:-4.6372924758071435e-002
4655:-7.4161937317869644e-002
4656:-6.8467916567699377e-002
4657:-6.0395098236200623e-002
4658:-5.2637706539042914e-002
4659:-4.7521575433310682e-002
4660:-7.4905609693559791e-002
4661:-6.9364823098420250e-002
4662:-6.1507485591292786e-002
4663:-5.3954982440435922e-002
4664:-4.8972679494345278e-002
4665:-7.5398990400436780e-002
4666:-7.0006529741043821e-002
4667:-6.2357485542057244e-002
4668:-5.5002683421263590e-002
4669:-5.0149300415544294e-002
4670:-7.5592092211856143e-002
4671:-7.0298100254514356e-002
4672:-6.2787165652222032e-002
4673:-5.5563239861208293e-002
4674:-5.0795073569309040e-002
4675:-4.3937218661484284e-002
4676:-3.9592168403213765e-002
4677:-3.3474693507333314e-002
4678:-2.7648796922690781e-002
4679:-2.3837944060149052e-002
4680:-4.5120482740767097e-002
4681:-4.0817497315582714e-002
4682:-3.4757297845972618e-002
4683:-2.8983538322226065e-002
4684:-2.5205336350454431e-002
4685:-4.6621764439002900e-002
4686:-4.2382510499550149e-002
4687:-3.6409306926057962e-002
4688:-3.0715018759986407e-002
4689:-2.6986762650363004e-002
4690:-4.7847957289734296e-002
4691:-4.3674969097405966e-002
4692:-3.7792472551087780e-002
4693:-3.2181366873741117e-002
4694:-2.8505590887679646e-002
4695:-4.8527234137211044e-002
4696:-4.4400953770237422e-002
4697:-3.8582531772309206e-002
4698:-3.3030362277971903e-002
4699:-2.9391880174941470e-002
4700:-2.2137060187531636e-002
4701:-1.9268317763273674e-002
4702:-1.5274485885763829e-002
4703:-1.1526788717516811e-002
4704:-9.1089869689510074e-003
4705:-2.3510703288006331e-002
4706:-2.0634340463226430e-002
4707:-1.6626554252574692e-002
4708:-1.2861580896951996e-002
4709:-1.0430072815491962e-002
4710:-2.5303053555621097e-002
4711:-2.2420337796165250e-002
4712:-1.8399155289914617e-002
4713:-1.4615921169535627e-002
4714:-1.2169148013312595e-002
4715:-2.6834909751502562e-002
4716:-2.3951552994386959e-002
4717:-1.9925338659925844e-002
4718:-1.6132208242178512e-002
4719:-1.3675881948212442e-002
4720:-2.7731304547288074e-002
4721:-2.4850792166220846e-002
4722:-2.0825947946712369e-002
4723:-1.7030865789679692e-002
4724:-1.4571297939398029e-002
4725:-8.1052489055681871e-003
4726:-6.5760871108684945e-003
4727:-4.5065374591493320e-003
4728:-2.6387013222535617e-003
4729:-1.4790966247181655e-003
4730:-9.4109908890987002e-003
4731:-7.8353048225681191e-003
4732:-5.6945626593211725e-003
4733:-3.7518936743825911e-003
4734:-2.5390952848037846e-003
4735:-1.1130827155872155e-002
4736:-9.4948662862250552e-003
4737:-7.2613730916158224e-003
4738:-5.2206222259159841e-003
4739:-3.9377824430464189e-003
4740:-1.2622161256354429e-002
4741:-1.0935260267293844e-002
4742:-8.6226855998735481e-003
4743:-6.4975224119549566e-003
4744:-5.1539759195123958e-003
4745:-1.3509266950928170e-002
4746:-1.1792943660725643e-002
4747:-9.4342203286502217e-003
4748:-7.2592681395611119e-003
4749:-5.8796299257626757e-003
4750:-1.0725015687272988e-003
4751:-6.2006481048640166e-004
4752:-7.4153815388179685e-005
4753:3.3314963314518112e-004
4754:5.3164503994850921e-004
4755:-2.0973911123079322e-003
4756:-1.5609578194940266e-003
4757:-8.9016910896865713e-004
4758:-3.5576014602514748e-004
4759:-6.9186678785507116e-005
4760:-3.4501840901753314e-003
4761:-2.8045238938434447e-003
4762:-1.9710400119090348e-003
4763:-1.2706735250671982e-003
4764:-8.6889623442454648e-004
4765:-4.6270424200201225e-003
4766:-3.8885275417521420e-003
4767:-2.9163237026217049e-003
4768:-2.0739749060854394e-003
4769:-1.5733660136199787e-003
4770:-5.3296040428741894e-003
4771:-4.5370879959301409e-003
4772:-3.4839311658684271e-003
4773:-2.5584015794106901e-003
4774:-1.9997099924218692e-003
4775:5.5019746085945443e-004
4776:4.5252273681072497e-004
4777:2.7367552164179787e-004
4778:5.2265653829990334e-005
4779:-1.2338763485843522e-004
4780:1.1723820422292212e-006
4781:1.8211842993734983e-005
4782:8.4939376317526421e-006
4783:-4.2427369692191843e-005
4784:-1.0087620526848766e-004
4785:-7.3225669810603980e-004
4786:-5.7101936429871205e-004
4787:-3.6790139939777133e-004
4788:-2.0399637193617429e-004
4789:-1.1460062665192883e-004
4790:-1.3818363758842434e-003
4791:-1.1046713871813688e-003
4792:-7.3011599801078766e-004
4793:-3.9278308175558121e-004
4794:-1.8381297357213130e-004
4795:-1.7772418930146661e-003
4796:-1.4371562726160543e-003
4797:-9.6931720817486746e-004
4798:-5.3734136597403362e-004
4799:-2.6296035798387840e-004
4800:-3.6075344158573758e-003
4801:-1.8201459895076846e-002
4802:-3.9515101103880873e-002
4803:-6.0760448495938070e-002
4804:-7.5229253629653103e-002
4805:-3.6339624954218547e-003
4806:-1.7507349087695079e-002
4807:-3.7766842412988944e-002
4808:-5.7959227398259504e-002
4809:-7.1709665543775183e-002
4810:-3.5694307944127905e-003
4811:-1.6456171583111155e-002
4812:-3.5272297623845136e-002
4813:-5.4023051317309972e-002
4814:-6.6790024152374103e-002
4815:-3.3822136021690800e-003
4816:-1.5363716105109308e-002
4817:-3.2855686702312342e-002
4818:-5.0284020944997475e-002
4819:-6.2148935987395008e-002
4820:-3.1838709516254313e-003
4821:-1.4593980379622850e-002
4822:-3.1250209787395726e-002
4823:-4.7843988317358657e-002
4824:-5.9139682183583293e-002
4825:-8.2205574817602600e-002
4826:-9.4968344979804761e-002
4827:-1.1328187079595796e-001
4828:-1.3114846474284605e-001
4829:-1.4309241597571229e-001
4830:-7.8347765501509029e-002
4831:-9.0521130950377088e-002
4832:-1.0802378471938580e-001
4833:-1.2514159371337705e-001
4834:-1.3660988931085094e-001
4835:-7.2960368401166556e-002
4836:-8.4310018074646983e-002
4837:-1.0068293911081357e-001
4838:-1.1676193469992954e-001
4839:-1.2757308681614241e-001
4840:-6.7884242159476277e-002
4841:-7.8456999176316530e-002
4842:-9.3768754490894488e-002
4843:-1.0887750368637940e-001
4844:-1.1907833544009667e-001
4845:-6.4596708737193101e-002
4846:-7.4665845158142896e-002
4847:-8.9292349287719910e-002
4848:-1.0377793439246492e-001
4849:-1.1358889462822719e-001
4850:-1.4840410699510953e-001
4851:-1.5729164842270965e-001
4852:-1.6996863230073331e-001
4853:-1.8224417748451849e-001
4854:-1.9039624752504505e-001
4855:-1.4173472799512091e-001
4856:-1.5035906218699641e-001
4857:-1.6268407687693068e-001
4858:-1.7464742655994653e-001
4859:-1.8260915829694069e-001
4860:-1.3243204054801377e-001
4861:-1.4066186931969521e-001
4862:-1.5245818552108720e-001
4863:-1.6395108065444347e-001
4864:-1.7162501504680591e-001
4865:-1.2368060101760744e-001
4866:-1.3150514637916647e-001
4867:-1.4275698097939329e-001
4868:-1.5376363845046606e-001
4869:-1.6113899750826799e-001
4870:-1.1802115722248689e-001
4871:-1.2556274911232004e-001
4872:-1.3643369845855677e-001
4873:-1.4709924436297545e-001
4874:-1.5426451888123185e-001
4875:-1.9364397101039399e-001
4876:-1.9829334732743348e-001
4877:-2.0497277679760248e-001
4878:-2.1149884860171705e-001
4879:-2.1586726003671000e-001
4880:-1.8579117778390686e-001
4881:-1.9035717668740876e-001
4882:-1.9690139509320456e-001
4883:-2.0327667001424052e-001
4884:-2.0753314942982914e-001
4885:-1.7470832443768558e-001
4886:-1.7915152017666844e-001
4887:-1.8549670291299891e-001
4888:-1.9165011854593059e-001
4889:-1.9574197989798237e-001
4890:-1.6412063256198262e-001
4891:-1.6844018533821759e-001
4892:-1.7458510261826396e-001
4893:-1.8051542917626104e-001
4894:-1.8444183266655106e-001
4895:-1.5717501918329965e-001
4896:-1.6140965596097354e-001
4897:-1.6741710909781132e-001
4898:-1.7319438569391049e-001
4899:-1.7700731857976135e-001
4900:-2.1723477029876107e-001
4901:-2.1814177386415395e-001
4902:-2.1909859556314915e-001
4903:-2.1961405569794371e-001
4904:-2.1971244562823528e-001
4905:-2.0886374797799409e-001
4906:-2.0976664438680900e-001
4907:-2.1078665240301236e-001
4908:-2.1144753968437119e-001
4909:-2.1169249497099876e-001
4910:-1.9701703952678334e-001
4911:-1.9790880399378682e-001
4912:-1.9901384705512346e-001
4913:-1.9988020151050431e-001
4914:-2.0033466722525464e-001
4915:-1.8565958734789462e-001
4916:-1.8653413805469474e-001
4917:-1.8771531004553496e-001
4918:-1.8877822555930443e-001
4919:-1.8943611988379194e-001
4920:-1.7818492602668715e-001
4921:-1.7904422714478807e-001
4922:-1.8027226865698567e-001
4923:-1.8146429452148030e-001
4924:-1.8225761177016989e-001
4925:-2.1893465130110104e-001
4926:-2.1593769324313142e-001
4927:-2.1160846996219643e-001
4928:-2.0734992690642579e-001
4929:-2.0448246130642436e-001
4930:-2.1103627033589881e-001
4931:-2.0833894243010542e-001
4932:-2.0443064906797204e-001
4933:-2.0057182993174405e-001
4934:-1.9796514320746977e-001
4935:-1.9984288666873368e-001
4936:-1.9753622315709307e-001
4937:-1.9417388250142420e-001
4938:-1.9082996235228672e-001
4939:-1.8855704684671853e-001
4940:-1.8909264370955889e-001
4941:-1.8711946989134601e-001
4942:-1.8421935624311209e-001
4943:-1.8130660938203189e-001
4944:-1.7931029039444182e-001
4945:-1.8200613592910347e-001
4946:-1.8022784312689574e-001
4947:-1.7759526647124868e-001
4948:-1.7492885060350752e-001
4949:-1.7308856135548217e-001
4950:-2.0249325096489501e-001
4951:-1.9754029516882965e-001
4952:-1.9027749505539146e-001
4953:-1.8300308099674203e-001
4954:-1.7802884742024325e-001
4955:-1.9609153459235276e-001
4956:-1.9134715246424036e-001
4957:-1.8441872944532989e-001
4958:-1.7751309207964919e-001
4959:-1.7281045529453276e-001
4960:-1.8683919829970919e-001
4961:-1.8239534761523266e-001
4962:-1.7594940484435442e-001
4963:-1.6957662193748443e-001
4964:-1.6526680662986029e-001
4965:-1.7773212803616578e-001
4966:-1.7358298493401372e-001
4967:-1.6761099404365976e-001
4968:-1.6176253722809908e-001
4969:-1.5783971953663747e-001
4970:-1.7159655194718265e-001
4971:-1.6764531268114860e-001
4972:-1.6199207415763286e-001
4973:-1.5649676930736209e-001
4974:-1.5283487857545747e-001
4975:-1.7510548436855933e-001
4976:-1.6869729966624022e-001
4977:-1.5951957524112820e-001
4978:-1.5058704545230758e-001
4979:-1.4462807912838282e-001
4980:-1.7004175003890781e-001
4981:-1.6395396353404237e-001
4982:-1.5523366509367609e-001
4983:-1.4674458536629933e-001
4984:-1.4108041210549377e-001
4985:-1.6271486191839565e-001
4986:-1.5706307460498742e-001
4987:-1.4896402524933608e-001
4988:-1.4107572849259065e-001
4989:-1.3581005868223486e-001
4990:-1.5549298635475700e-001
4991:-1.5023775789283225e-001
4992:-1.4270220183142723e-001
4993:-1.3535693225484191e-001
4994:-1.3045032555494590e-001
4995:-1.5062164436787806e-001
4996:-1.4561455589320879e-001
4997:-1.3843061207228502e-001
4998:-1.3142297881289247e-001
4999:-1.2673890696592216e-001
5000:-1.4143910884231151e-001
5001:-1.3489743483351146e-001
5002:-1.2551828464269071e-001
5003:-1.1637726239423808e-001
5004:-1.1027185995215243e-001
5005:-1.3802253542209100e-001
5006:-1.3170538575826873e-001
5007:-1.2265913820129243e-001
5008:-1.1385590644916838e-001
5009:-1.0798398335079194e-001
5010:-1.3293406665503285e-001
5011:-1.2693936063866004e-001
5012:-1.1837131708318613e-001
5013:-1.1005344703864506e-001
5014:-1.0451708114179803e-001
5015:-1.2774423079311156e-001
5016:-1.2206442642915437e-001
5017:-1.1396354250068243e-001
5018:-1.0611998978922776e-001
5019:-1.0091163909885588e-001
5020:-1.2414194384070437e-001
5021:-1.1867284621612167e-001
5022:-1.1088463064525282e-001
5023:-1.0335863415389454e-001
5024:-9.8369945201635570e-002
5025:-1.0713671580929521e-001
5026:-1.0097327376631050e-001
5027:-9.2201957111535796e-002
5028:-8.3732892732394162e-002
5029:-7.8123203737139268e-002
5030:-1.0496292152776102e-001
5031:-9.9008901129498977e-002
5032:-9.0536228070149674e-002
5033:-8.2356264075626143e-002
5034:-7.6938512714215104e-002
5035:-1.0165852460998348e-001
5036:-9.5999671534724523e-002
5037:-8.7947477621524286e-002
5038:-8.0174017850917018e-002
5039:-7.5025830512226874e-002
5040:-9.8210174526622770e-002
5041:-9.2832814229104874e-002
5042:-8.5181074681033100e-002
5043:-7.7794094353318702e-002
5044:-7.2901796492070903e-002
5045:-9.5772645244246529e-002
5046:-9.0579653608461624e-002
5047:-8.3189870476219854e-002
5048:-7.6055303353535955e-002
5049:-7.1329890143150068e-002
5050:-7.5358029328252543e-002
5051:-7.0124699470513516e-002
5052:-6.2699796481335779e-002
5053:-5.5558573517031556e-002
5054:-5.0844970691999364e-002
5055:-7.4257823098958675e-002
5056:-6.9164769522436623e-002
5057:-6.1940393294365667e-002
5058:-5.4993883802703002e-002
5059:-5.0409906797467617e-002
5060:-7.2465596671364110e-002
5061:-6.7576681425314242e-002
5062:-6.0644078951600802e-002
5063:-5.3980830329509830e-002
5064:-4.9585395292790074e-002
5065:-7.0458141290058063e-002
5066:-6.5771843212524259e-002
5067:-5.9128786928421273e-002
5068:-5.2746571611149387e-002
5069:-4.8538157380982362e-002
5070:-6.8963616477633452e-002
5071:-6.4414807777352701e-002
5072:-5.7968197157629138e-002
5073:-5.1776614216289762e-002
5074:-4.7695038901948504e-002
5075:-4.8600249168593866e-002
5076:-4.4510011227524286e-002
5077:-3.8741566975226079e-002
5078:-3.3236044991452655e-002
5079:-2.9627504027534911e-002
5080:-4.8222371610790994e-002
5081:-4.4226024251206482e-002
5082:-3.8588412785415228e-002
5083:-3.3205809720435790e-002
5084:-2.9676660428578566e-002
5085:-4.7481333871708595e-002
5086:-4.3622704126050356e-002
5087:-3.8177012684225020e-002
5088:-3.2974740704424639e-002
5089:-2.9562077060061098e-002
5090:-4.6517250067761168e-002
5091:-4.2796606259270543e-002
5092:-3.7543227769584873e-002
5093:-3.2521679803134682e-002
5094:-2.9225770129503278e-002
5095:-4.5730732284030670e-002
5096:-4.2104470649068595e-002
5097:-3.6982644825247678e-002
5098:-3.2084735656957415e-002
5099:-2.8868709247429854e-002
5100:-2.7977669667084905e-002
5101:-2.5109462373853631e-002
5102:-2.1100260400472737e-002
5103:-1.7317995425199531e-002
5104:-1.4865556893597993e-002
5105:-2.8058576816743685e-002
5106:-2.5235466791490840e-002
5107:-2.1285782972807872e-002
5108:-1.7555285695370005e-002
5109:-1.5133744905532211e-002
5110:-2.7991562938053181e-002
5111:-2.5238477009319433e-002
5112:-2.1381785285539662e-002
5113:-1.7732930460408296e-002
5114:-1.5360620212568541e-002
5115:-2.7704102131194879e-002
5116:-2.5025775503267546e-002
5117:-2.1269010030291857e-002
5118:-1.7708731813372163e-002
5119:-1.5390387311797342e-002
5120:-2.7381130904503229e-002
5121:-2.4756576859885769e-002
5122:-2.1072033531863106e-002
5123:-1.7576227003042205e-002
5124:-1.5297455558581360e-002
5125:-1.3803732627450865e-002
5126:-1.2081113118996845e-002
5127:-9.7108584001149439e-003
5128:-7.5216279784201482e-003
5129:-6.1306610805655212e-003
5130:-1.4080867551856922e-002
5131:-1.2362598972771864e-002
5132:-9.9927200734886510e-003
5133:-7.7967400597858559e-003
5134:-6.3970697035914299e-003
5135:-1.4323575826168689e-002
5136:-1.2618398925467579e-002
5137:-1.0258911392396151e-002
5138:-8.0628884083959185e-003
5139:-6.6571930982042161e-003
5140:-1.4372421819653858e-002
5141:-1.2688323196315130e-002
5142:-1.0350922474709680e-002
5143:-8.1665519656617010e-003
5144:-6.7628183004412989e-003
5145:-1.4294383805738831e-002
5146:-1.2629268271338940e-002
5147:-1.0313670465095216e-002
5148:-8.1439774598142719e-003
5149:-6.7461724958332320e-003
5150:-5.5726253086449571e-003
5151:-4.7602915626445124e-003
5152:-3.6765125343490158e-003
5153:-2.7184574862468640e-003
5154:-2.1364612523792864e-003
5155:-5.8303765660778226e-003
5156:-4.9933695609219158e-003
5157:-3.8690572617552971e-003
5158:-2.8652372570145191e-003
5159:-2.2489828504061722e-003
5160:-6.0823163171108566e-003
5161:-5.2200715779097970e-003
5162:-4.0523551121924390e-003
5163:-2.9974697456107897e-003
5164:-2.3419416138986721e-003
5165:-6.1850987893899588e-003
5166:-5.3105624285303289e-003
5167:-4.1183998720450933e-003
5168:-3.0314072194019799e-003
5169:-2.3495514749477617e-003
5170:-6.1695806478645572e-003
5171:-5.2940894570004315e-003
5172:-4.0961265103742275e-003
5173:-2.9981017818252738e-003
5174:-2.3057062938077158e-003
5175:-1.9018567223674455e-003
5176:-1.5379435381226501e-003
5177:-1.0348588746961341e-003
5178:-5.6721802993629311e-004
5179:-2.6824107343384755e-004
5180:-1.9971459066766579e-003
5181:-1.6013994824762680e-003
5182:-1.0514593324324995e-003
5183:-5.3667847787852989e-004
5184:-2.0534700967836804e-004
5185:-2.0727163343384875e-003
5186:-1.6502134533542573e-003
5187:-1.0607409973621619e-003
5188:-5.0601118577251576e-004
5189:-1.4715991895680654e-004
5190:-2.0722629741006223e-003
5191:-1.6466055652620767e-003
5192:-1.0521630830000836e-003
5193:-4.9204659405605792e-004
5194:-1.2927745754383489e-004
5195:-2.0282698183613527e-003
5196:-1.6140200022060984e-003
5197:-1.0360432032468110e-003
5198:-4.9210787444891387e-004
5199:-1.4022505887580837e-004
5200:-3.0606857284607098e-003
5201:-1.4182965643619946e-002
5202:-3.0419873249229665e-002
5203:-4.6596910124812790e-002
5204:-5.7609501538364541e-002
5205:-2.8293590563030382e-003
5206:-1.3376671469127088e-002
5207:-2.8779117524712020e-002
5208:-4.4130619779922761e-002
5209:-5.4584598620138328e-002
5210:-2.5401411563126335e-003
5211:-1.2261459726842059e-002
5212:-2.6465333564371665e-002
5213:-4.0631336051718543e-002
5214:-5.0283270940873433e-002
5215:-2.3097902836300547e-003
5216:-1.1224105287737807e-002
5217:-2.4257215957382734e-002
5218:-3.7265527727009501e-002
5219:-4.6134408940949487e-002
5220:-2.1863132404860287e-003
5221:-1.0560452616387179e-002
5222:-2.2810050388895373e-002
5223:-3.5043776191065773e-002
5224:-4.3388836705795533e-002
5225:-6.2926997183367209e-002
5226:-7.2737790647195336e-002
5227:-8.7003735850267397e-002
5228:-1.0114986189709473e-001
5229:-1.1074113601140735e-001
5230:-5.9626793395246187e-002
5231:-6.8920628262090805e-002
5232:-8.2446889728280348e-002
5233:-9.5873941930238418e-002
5234:-1.0498601660250402e-001
5235:-5.4930541971651467e-002
5236:-6.3483597909104503e-002
5237:-7.5950470136475004e-002
5238:-8.8348313889247063e-002
5239:-9.6774903522660105e-002
5240:-5.0396527991182848e-002
5241:-5.8228113322801492e-002
5242:-6.9663871105364636e-002
5243:-8.1060781202948559e-002
5244:-8.8821194121068037e-002
5245:-4.7393557626361889e-002
5246:-5.4743558926780435e-002
5247:-6.5491434909524845e-002
5248:-7.6221073099305606e-002
5249:-8.3537661141167258e-002
5250:-1.1507190351415104e-001
5251:-1.2243492511809696e-001
5252:-1.3306079524355088e-001
5253:-1.4350077155554108e-001
5254:-1.5052321916202657e-001
5255:-1.0908936700844327e-001
5256:-1.1604497540477242e-001
5257:-1.2610510927658736e-001
5258:-1.3601603998482481e-001
5259:-1.4269829491712333e-001
5260:-1.0055403311999614e-001
5261:-1.0693129531016389e-001
5262:-1.1618971835192170e-001
5263:-1.2535266741925447e-001
5264:-1.3155501279796092e-001
5265:-9.2286567199691583e-002
5266:-9.8107187686040057e-002
5267:-1.0659568361691277e-001
5268:-1.1504243476249959e-001
5269:-1.2078657508994667e-001
5270:-8.6794788632630487e-002
5271:-9.2247760489813480e-002
5272:-1.0022875076701683e-001
5273:-1.0820468690883155e-001
5274:-1.1364839914053615e-001
5275:-1.5337968186433285e-001
5276:-1.5754265708874829e-001
5277:-1.6345382851657775e-001
5278:-1.6914511325758838e-001
5279:-1.7290523651762585e-001
5280:-1.4541580245954880e-001
5281:-1.4937998769328450e-001
5282:-1.5504710343047146e-001
5283:-1.6055024745628019e-001
5284:-1.6421402193307311e-001
5285:-1.3407143128566468e-001
5286:-1.3773563389495569e-001
5287:-1.4303235794726857e-001
5288:-1.4824699126609520e-001
5289:-1.5176079635145817e-001
5290:-1.2310475037407771e-001
5291:-1.2645841963752763e-001
5292:-1.3136930170069042e-001
5293:-1.3627997400823361e-001
5294:-1.3963325898076720e-001
5295:-1.1583283311713914e-001
5296:-1.1896838253007384e-001
5297:-1.2360690257115983e-001
5298:-1.2830112783207917e-001
5299:-1.3153873416152334e-001
5300:-1.7406746086801270e-001
5301:-1.7492386314655117e-001
5302:-1.7616949415179606e-001
5303:-1.7740505846782439e-001
5304:-1.7824301767651732e-001
5305:-1.6535439447157105e-001
5306:-1.6621083311256066e-001
5307:-1.6747289285777989e-001
5308:-1.6874434717102976e-001
5309:-1.6961799749610029e-001
5310:-1.5286277294644121e-001
5311:-1.5370307273041764e-001
5312:-1.5496547899912327e-001
5313:-1.5626577858349294e-001
5314:-1.5717550229153765e-001
5315:-1.4068923778031572e-001
5316:-1.4149415539264729e-001
5317:-1.4272872858882055e-001
5318:-1.4402969384828210e-001
5319:-1.4495624762468468e-001
5320:-1.3255893388039766e-001
5321:-1.3332863239151030e-001
5322:-1.3452800680179380e-001
5323:-1.3581323453260885e-001
5324:-1.3674022396171784e-001
5325:-1.7802151089774218e-001
5326:-1.7631010474668754e-001
5327:-1.7378026173740210e-001
5328:-1.7122226729210815e-001
5329:-1.6945928520684089e-001
5330:-1.6942446912189218e-001
5331:-1.6779406247929424e-001
5332:-1.6541943495647446e-001
5333:-1.6306015417086239e-001
5334:-1.6145786411559340e-001
5335:-1.5701661169993730e-001
5336:-1.5549618919429745e-001
5337:-1.5333621874165687e-001
5338:-1.5125529304148341e-001
5339:-1.4987968755166017e-001
5340:-1.4482446803742235e-001
5341:-1.4340377318457911e-001
5342:-1.4144344037402570e-001
5343:-1.3962585033119165e-001
5344:-1.3846667292265752e-001
5345:-1.3662263305189815e-001
5346:-1.3526414691642583e-001
5347:-1.3343151266442618e-001
5348:-1.3178511935335924e-001
5349:-1.3076784318375484e-001
5350:-1.6801475123529908e-001
5351:-1.6417371447030737e-001
5352:-1.5869077681167335e-001
5353:-1.5337637621342576e-001
5354:-1.4984411433077002e-001
5355:-1.6011500931992736e-001
5356:-1.5650115803689307e-001
5357:-1.5135693045428983e-001
5358:-1.4638839832520339e-001
5359:-1.4309643673728439e-001
5360:-1.4867726820700508e-001
5361:-1.4537156912248245e-001
5362:-1.4068741510602256e-001
5363:-1.3618943917719489e-001
5364:-1.3322483490569423e-001
5365:-1.3739463261421045e-001
5366:-1.3436792797657957e-001
5367:-1.3010114939043316e-001
5368:-1.2603103152603787e-001
5369:-1.2336462681932399e-001
5370:-1.2977905780496246e-001
5371:-1.2692611905535617e-001
5372:-1.2291982376334859e-001
5373:-1.1911734758621678e-001
5374:-1.1663782358032879e-001
5375:-1.4769484774776254e-001
5376:-1.4280597008593970e-001
5377:-1.3579580405539160e-001
5378:-1.2896274698434562e-001
5379:-1.2439834868631446e-001
5380:-1.4106484517424345e-001
5381:-1.3639978337994405e-001
5382:-1.2973176257528493e-001
5383:-1.2325795582486422e-001
5384:-1.1894871144903303e-001
5385:-1.3135718348300313e-001
5386:-1.2701155981059786e-001
5387:-1.2083239573876965e-001
5388:-1.1487249414287289e-001
5389:-1.1092857882498679e-001
5390:-1.2165095495332919e-001
5391:-1.1761488851089272e-001
5392:-1.1191011175492528e-001
5393:-1.0644964589657928e-001
5394:-1.0286117874470112e-001
5395:-1.1502357805924347e-001
5396:-1.1119322481161018e-001
5397:-1.0580408402292071e-001
5398:-1.0067635922658626e-001
5399:-9.7324943324203592e-002
5400:-1.2186278339774859e-001
5401:-1.1651454220302808e-001
5402:-1.0890366996304067e-001
5403:-1.0155544837973314e-001
5404:-9.6688406545112127e-002
5405:-1.1654621507746654e-001
5406:-1.1145841736677484e-001
5407:-1.0422624475523054e-001
5408:-9.7253526423869779e-002
5409:-9.2641072027271773e-002
5410:-1.0871535431355622e-001
5411:-1.0399534282090823e-001
5412:-9.7297811798217532e-002
5413:-9.0855054334104998e-002
5414:-8.6601810657330552e-002
5415:-1.0083058023947235e-001
5416:-9.6462188676072716e-002
5417:-9.0275625592621825e-002
5418:-8.4339155346145167e-002
5419:-8.0428956100370513e-002
5420:-9.5415237940553108e-002
5421:-9.1277671782427863e-002
5422:-8.5426436096094141e-002
5423:-7.9822096870228745e-002
5424:-7.6136866983741586e-002
5425:-9.4148615762652418e-002
5426:-8.9058388054068724e-002
5427:-8.1816620650021557e-002
5428:-7.4827133706074994e-002
5429:-7.0199106235265638e-002
5430:-9.0222572278893298e-002
5431:-8.5353495849954636e-002
5432:-7.8433927759803554e-002
5433:-7.1764678003908164e-002
5434:-6.7354207023685331e-002
5435:-8.4356542736880369e-002
5436:-7.9807734266165803e-002
5437:-7.3354743633955541e-002
5438:-6.7149198030914736e-002
5439:-6.3053730858481816e-002
5440:-7.8351708963976530e-002
5441:-7.4118911029062914e-002
5442:-6.8126263354811811e-002
5443:-6.2378187404638782e-002
5444:-5.8593466617548051e-002
5445:-7.4171363785635533e-002
5446:-7.0151917153829735e-002
5447:-6.4470046635108899e-002
5448:-5.9030785714613530e-002
5449:-5.5455821441590794e-002
5450:-6.7879375850111195e-002
5451:-6.3415320418593699e-002
5452:-5.7089549783277925e-002
5453:-5.1014919065420765e-002
5454:-4.7010974296104582e-002
5455:-6.5140068526086059e-002
5456:-6.0870120479048669e-002
5457:-5.4820667742189133e-002
5458:-4.9012930859896588e-002
5459:-4.5185827753777372e-002
5460:-6.0992554905516402e-002
5461:-5.7003913245153498e-002
5462:-5.1354788738481573e-002
5463:-4.5933579642416941e-002
5464:-4.2362499282388055e-002
5465:-5.6683275062455456e-002
5466:-5.2972444235157755e-002
5467:-4.7718529126977056e-002
5468:-4.2678728985439091e-002
5469:-3.9360175817876604e-002
5470:-5.3647597633253656e-002
5471:-5.0124470025349158e-002
5472:-4.5137494660756304e-002
5473:-4.0355210199908412e-002
5474:-3.7207094530465210e-002
5475:-4.5082070862982181e-002
5476:-4.1516703875073481e-002
5477:-3.6480115787113090e-002
5478:-3.1662767385167753e-002
5479:-2.8499066998636160e-002
5480:-4.3339052026509395e-002
5481:-3.9918437067114260e-002
5482:-3.5085056505678169e-002
5483:-3.0460498991270187e-002
5484:-2.7422466424288607e-002
5485:-4.0635641250295298e-002
5486:-3.7428573132561781e-002
5487:-3.2895071784802402e-002
5488:-2.8555139527857602e-002
5489:-2.5702707198243302e-002
5490:-3.7752820980507820e-002
5491:-3.4761170701093351e-002
5492:-3.0530288423973446e-002
5493:-2.6477721281451087e-002
5494:-2.3812760185852030e-002
5495:-3.5681107997248822e-002
5496:-3.2837637578584079e-002
5497:-2.8814982489616076e-002
5498:-2.4960225896248259e-002
5499:-2.2424360452442855e-002
5500:-2.7034856975194581e-002
5501:-2.4449450746260811e-002
5502:-2.0817971916480230e-002
5503:-1.7370163664261761e-002
5504:-1.5121258266913778e-002
5505:-2.6015794102152948e-002
5506:-2.3529734009686439e-002
5507:-2.0033549855842780e-002
5508:-1.6708930628851659e-002
5509:-1.4537192739328509e-002
5510:-2.4381480221913159e-002
5511:-2.2043983094712602e-002
5512:-1.8750435639600722e-002
5513:-1.5610725793917653e-002
5514:-1.3555072847695396e-002
5515:-2.2578390508442618e-002
5516:-2.0393119235880056e-002
5517:-1.7307572354898673e-002
5518:-1.4358135765928832e-002
5519:-1.2422230652349845e-002
5520:-2.1250115300011602e-002
5521:-1.9170900902922373e-002
5522:-1.6230475794640171e-002
5523:-1.3414055327647806e-002
5524:-1.1562028460924944e-002
5525:-1.4130669133245413e-002
5526:-1.2484709323958751e-002
5527:-1.0193183081874762e-002
5528:-8.0428319339360850e-003
5529:-6.6555174515690960e-003
5530:-1.3580417784542177e-002
5531:-1.1990021874902689e-002
5532:-9.7702601586691674e-003
5533:-7.6802617474377496e-003
5534:-6.3276037521684415e-003
5535:-1.2649926842228956e-002
5536:-1.1146093353997294e-002
5537:-9.0390307220578614e-003
5538:-7.0450201572625224e-003
5539:-5.7483081095447211e-003
5540:-1.1571223598068578e-002
5541:-1.0160127124431114e-002
5542:-8.1748055502973722e-003
5543:-6.2858248054427522e-003
5544:-5.0512332984491625e-003
5545:-1.0749434132122006e-002
5546:-9.4052139619182976e-003
5547:-7.5082226132218563e-003
5548:-5.6961603046519222e-003
5549:-4.5075376885604299e-003
5550:-6.0833254187979517e-003
5551:-5.2148479420470210e-003
5552:-4.0239233872710056e-003
5553:-2.9290955710771223e-003
5554:-2.2366758651237027e-003
5555:-5.7709743810267691e-003
5556:-4.9292999498593481e-003
5557:-3.7693587949105150e-003
5558:-2.6956901043575050e-003
5559:-2.0120745000155585e-003
5560:-5.2173698527302062e-003
5561:-4.4211213309269968e-003
5562:-3.3155957460868058e-003
5563:-2.2819561187950913e-003
5564:-1.6174090639043204e-003
5565:-4.5494342979115624e-003
5566:-3.8059514393516381e-003
5567:-2.7655896404428552e-003
5568:-1.7827272922314298e-003
5569:-1.1445885406401600e-003
5570:-4.0276186523215650e-003
5571:-3.3243859211202092e-003
5572:-2.3346992092540550e-003
5573:-1.3926876738833600e-003
5574:-7.7680010571163824e-004
5575:-1.9621609181539592e-003
5576:-1.5604653931415792e-003
5577:-1.0007448432615791e-003
5578:-4.7491358396671373e-004
5579:-1.3530625302729638e-004
5580:-1.7477264202977187e-003
5581:-1.3798577586770970e-003
5582:-8.6941025682282921e-004
5583:-3.9254012941855468e-004
5584:-8.6188203759623061e-005
5585:-1.3716798781720863e-003
5586:-1.0617925350228598e-003
5587:-6.3586758955567525e-004
5588:-2.4306325362180687e-004
5589:6.1441874990473729e-006
5590:-9.2191195409633783e-004
5591:-6.8004325335310691e-004
5592:-3.5333935767919793e-004
5593:-5.9299306618974950e-005
5594:1.2272632603156831e-004
5595:-5.7241332862928180e-004
5596:-3.8276076128920762e-004
5597:-1.3225886066768115e-004
5598:8.5891111489204257e-005
5599:2.1627206885294076e-004
5600:-2.1236607357860986e-003
5601:-1.0190138243454487e-002
5602:-2.1994283610716377e-002
5603:-3.3788597381435845e-002
5604:-4.1837062529937970e-002
5605:-1.9807842387612904e-003
5606:-9.3810613964049067e-003
5607:-2.0222042718831813e-002
5608:-3.1067939629822534e-002
5609:-3.8477222582846110e-002
5610:-1.7612906121995085e-003
5611:-8.2003844390003498e-003
5612:-1.7651995933021376e-002
5613:-2.7130118552895349e-002
5614:-3.3617783119864172e-002
5615:-1.5295945610197090e-003
5616:-7.0246061980112082e-003
5617:-1.5111890495535919e-002
5618:-2.3247281456226419e-002
5619:-2.8830428778139114e-002
5620:-1.3643621369612022e-003
5621:-6.2245042350467170e-003
5622:-1.3394504816432853e-002
5623:-2.0627359246068351e-002
5624:-2.5602655183618817e-002
5625:-4.5695766800874137e-002
5626:-5.2772297973898818e-002
5627:-6.3131172717145440e-002
5628:-7.3485433866538025e-002
5629:-8.0553512525357890e-002
5630:-4.2020255638923081e-002
5631:-4.8504034362237783e-002
5632:-5.8022480910328952e-002
5633:-6.7569101471276385e-002
5634:-7.4104497491619362e-002
5635:-3.6704519410515883e-002
5636:-4.2329278109129495e-002
5637:-5.0630190368057340e-002
5638:-5.9007290276238966e-002
5639:-6.4771631523520293e-002
5640:-3.1467959727524586e-002
5641:-3.6244390770286371e-002
5642:-4.3343426470545357e-002
5643:-5.0566663456448266e-002
5644:-5.5570642299515964e-002
5645:-2.7937507037822652e-002
5646:-3.2140775001438596e-002
5647:-3.8428068861226114e-002
5648:-4.4872351613375792e-002
5649:-4.9363237188531341e-002
5650:-8.3693743780723445e-002
5651:-8.8939500207015798e-002
5652:-9.6635492844486942e-002
5653:-1.0434835239194552e-001
5654:-1.0962501049728587e-001
5655:-7.6992407165050375e-002
5656:-8.1786729419372012e-002
5657:-8.8863068950947408e-002
5658:-9.6005500177546915e-002
5659:-1.0092090829457080e-001
5660:-6.7291909209679271e-002
5661:-7.1423465748283330e-002
5662:-7.7589916356261848e-002
5663:-8.3894542631452018e-002
5664:-8.8279249280110716e-002
5665:-5.7725502796685875e-002
5666:-6.1192281738131654e-002
5667:-6.6445897256151271e-002
5668:-7.1909772413573630e-002
5669:-7.5761765712402812e-002
5670:-5.1269833811170798e-002
5671:-5.4281492634937499e-002
5672:-5.8910057408284547e-002
5673:-6.3798106606061986e-002
5674:-6.7285163970879872e-002
5675:-1.1173333283551121e-001
5676:-1.1473907538734043e-001
5677:-1.1921010639413764e-001
5678:-1.2376369896257587e-001
5679:-1.2692070163738309e-001
5680:-1.0286361570520042e-001
5681:-1.0558154625267482e-001
5682:-1.0967262961948368e-001
5683:-1.1389561797814872e-001
5684:-1.1685521020077620e-001
5685:-8.9978805919168930e-002
5686:-9.2274504836743557e-002
5687:-9.5808079664947809e-002
5688:-9.9545817199268083e-002
5689:-1.0221556035026381e-001
5690:-7.7217426460952268e-002
5691:-7.9089985275810293e-002
5692:-8.2064721212641301e-002
5693:-8.5315877569839299e-002
5694:-8.7694863176368182e-002
5695:-6.8573844667646849e-002
5696:-7.0156927075164077e-002
5697:-7.2749278047414948e-002
5698:-7.5667392870240241e-002
5699:-7.7847303621615460e-002
5700:-1.2791110999455407e-001
5701:-1.2864246029587764e-001
5702:-1.2980197896357151e-001
5703:-1.3106672338383463e-001
5704:-1.3199085662141030e-001
5705:-1.1776619976782107e-001
5706:-1.1838577770018191e-001
5707:-1.1942913098279377e-001
5708:-1.2063417538265973e-001
5709:-1.2154998582076879e-001
5710:-1.0300835006293166e-001
5711:-1.0345756702051181e-001
5712:-1.0432102263258307e-001
5713:-1.0542885632083066e-001
5714:-1.0632579564606780e-001
5715:-8.8367194677146543e-002
5716:-8.8638107922999018e-002
5717:-8.9310034650149320e-002
5718:-9.0309026412387042e-002
5719:-9.1179151887847115e-002
5720:-7.8436078820390359e-002
5721:-7.8580667896916923e-002
5722:-7.9115119819882437e-002
5723:-8.0033102142629833e-002
5724:-8.0880353018226950e-002
5725:-1.3188081471392235e-001
5726:-1.3055506679543630e-001
5727:-1.2878752314496064e-001
5728:-1.2722660130515440e-001
5729:-1.2627940291832929e-001
5730:-1.2145590725876627e-001
5731:-1.2019516966202090e-001
5732:-1.1855343837381146e-001
5733:-1.1715470972781902e-001
5734:-1.1633917458143923e-001
5735:-1.0625038504842133e-001
5736:-1.0507307676931377e-001
5737:-1.0359834617672381e-001
5738:-1.0241989372259155e-001
5739:-1.0178539334062293e-001
5740:-9.1116813495894330e-002
5741:-9.0008945742523605e-002
5742:-8.8680730886917539e-002
5743:-8.7702069666002441e-002
5744:-8.7234615256572862e-002
5745:-8.0823726044283437e-002
5746:-7.9755239901924152e-002
5747:-7.8515307142660848e-002
5748:-7.7661308849644659e-002
5749:-7.7299888969921113e-002
5750:-1.2533095276176279e-001
5751:-1.2256318426648979e-001
5752:-1.1869059945261756e-001
5753:-1.1503251608512244e-001
5754:-1.1265773331484642e-001
5755:-1.1546693054152864e-001
5756:-1.1286568515165894e-001
5757:-1.0926615962265004e-001
5758:-1.0591584454608091e-001
5759:-1.0377117486693997e-001
5760:-1.0102023493762985e-001
5761:-9.8656940422395964e-002
5762:-9.5448634426604922e-002
5763:-9.2540366185522610e-002
5764:-9.0726767518740981e-002
5765:-8.6571183398826829e-002
5766:-8.4438824593267459e-002
5767:-8.1611465237571207e-002
5768:-7.9134970938852495e-002
5769:-7.7645428119481677e-002
5770:-7.6702844896322384e-002
5771:-7.4724156790132570e-002
5772:-7.2151035865547691e-002
5773:-6.9963489004011739e-002
5774:-6.8691206869736190e-002
5775:-1.1110094250958948e-001
5776:-1.0739011894041889e-001
5777:-1.0218238155859677e-001
5778:-9.7243625879505052e-002
5779:-9.4025600709795737e-002
5780:-1.0234171819590265e-001
5781:-9.8893358125831124e-002
5782:-9.4080525810307888e-002
5783:-8.9549222488697913e-002
5784:-8.6616648571368721e-002
5785:-8.9479931193874027e-002
5786:-8.6406748800901184e-002
5787:-8.2158781225199581e-002
5788:-7.8210716691949358e-002
5789:-7.5686983342589290e-002
5790:-7.6576641785058727e-002
5791:-7.3867739580180045e-002
5792:-7.0168678639177195e-002
5793:-6.6787894789155033e-002
5794:-6.4662104518775174e-002
5795:-6.7741381371385634e-002
5796:-6.5274977496675532e-002
5797:-6.1941584954259915e-002
5798:-5.8939016794017168e-002
5799:-5.7078712607075199e-002
5800:-9.2183542131308527e-002
5801:-8.8175787464806962e-002
5802:-8.2515471851196065e-002
5803:-7.7103034635540690e-002
5804:-7.3549415237484150e-002
5805:-8.4919739490214086e-002
5806:-8.1193809563241515e-002
5807:-7.5952121362637168e-002
5808:-7.0965356456714396e-002
5809:-6.7706468675491932e-002
5810:-7.4199663587302470e-002
5811:-7.0883981136100990e-002
5812:-6.6251733310810662e-002
5813:-6.1884725212054875e-002
5814:-5.9054985527168910e-002
5815:-6.3380850096977456e-002
5816:-6.0472500981897721e-002
5817:-5.6445426113368086e-002
5818:-5.2693907403223959e-002
5819:-5.0290401675026165e-002
5820:-5.5936151415166883e-002
5821:-5.3304288076653127e-002
5822:-4.9688022330844725e-002
5823:-4.6354357640155601e-002
5824:-4.4240244565811153e-002
5825:-7.1650423988170009e-002
5826:-6.7759128472548849e-002
5827:-6.2263102759640948e-002
5828:-5.7007526542101623e-002
5829:-5.3556755884763212e-002
5830:-6.5957494300142458e-002
5831:-6.2355465090788542e-002
5832:-5.7277563514326293e-002
5833:-5.2433607440236132e-002
5834:-4.9260187195605105e-002
5835:-5.7524412921037806e-002
5836:-5.4343413991498335e-002
5837:-4.9874048121289517e-002
5838:-4.5629103412220415e-002
5839:-4.2859264007264204e-002
5840:-4.8976709050643288e-002
5841:-4.6213690179314967e-002
5842:-4.2348393320599059e-002
5843:-3.8697993281779176e-002
5844:-3.6328684494904048e-002
5845:-4.3073780765388314e-002
5846:-4.0594439923105699e-002
5847:-3.7139083818825823e-002
5848:-3.3892120541450431e-002
5849:-3.1794573890046980e-002
5850:-5.1809173603602460e-002
5851:-4.8398637385360536e-002
5852:-4.3572167914515500e-002
5853:-3.8945194565173903e-002
5854:-3.5900152982358095e-002
5855:-4.7648778053882276e-002
5856:-4.4493299538471358e-002
5857:-4.0031130485198532e-002
5858:-3.5757521639493986e-002
5859:-3.2947502192686884e-002
5860:-4.1446945028490834e-002
5861:-3.8666282973032137e-002
5862:-3.4739513885271259e-002
5863:-3.0985290631129730e-002
5864:-2.8520747887054960e-002
5865:-3.5115075900657461e-002
5866:-3.2710792056242888e-002
5867:-2.9321709936833210e-002
5868:-2.6089159277086243e-002
5869:-2.3971654986847852e-002
5870:-3.0716442647367306e-002
5871:-2.8570077772701596e-002
5872:-2.5549486063432950e-002
5873:-2.2674489899898721e-002
5874:-2.0794869012566677e-002
5875:-3.4424048124670856e-002
5876:-3.1672557235504384e-002
5877:-2.7778935483439425e-002
5878:-2.4046485684654031e-002
5879:-2.1590276146641614e-002
5880:-3.1585950339395874e-002
5881:-2.9046939924452439e-002
5882:-2.5451052840942737e-002
5883:-2.2000390925942848e-002
5884:-1.9727445934348210e-002
5885:-2.7327802714966577e-002
5886:-2.5101990481422073e-002
5887:-2.1945096207330948e-002
5888:-1.8910074890282784e-002
5889:-1.6907544751987094e-002
5890:-2.2948335142280032e-002
5891:-2.1038151732587988e-002
5892:-1.8323809661086016e-002
5893:-1.5707988335150108e-002
5894:-1.3978303692629708e-002
5895:-1.9887968423009123e-002
5896:-1.8194718640700415e-002
5897:-1.5784632362573232e-002
5898:-1.3457120045247885e-002
5899:-1.1915153102278813e-002
5900:-2.0453573825274855e-002
5901:-1.8441628887971365e-002
5902:-1.5593428936781138e-002
5903:-1.2861766501247361e-002
5904:-1.1063328656118053e-002
5905:-1.8677840478590411e-002
5906:-1.6823635704649946e-002
5907:-1.4191988460117969e-002
5908:-1.1659718380492247e-002
5909:-9.9875814101090532e-003
5910:-1.5986898575508939e-002
5911:-1.4367190625838074e-002
5912:-1.2057791861126365e-002
5913:-9.8226409236299769e-003
5914:-8.3389615961509192e-003
5915:-1.3188299683308353e-002
5916:-1.1807253679516195e-002
5917:-9.8262027307608087e-003
5918:-7.8942702715276598e-003
5919:-6.6032137085633037e-003
5920:-1.1215329158808733e-002
5921:-9.9996541915642126e-003
5922:-8.2463304756806646e-003
5923:-6.5249648985662607e-003
5924:-5.3678400835366138e-003
5925:-1.0275708102736243e-002
5926:-8.9758345548569245e-003
5927:-7.1376604094659547e-003
5928:-5.3771381806588829e-003
5929:-4.2195298494114497e-003
5930:-9.2592489872938121e-003
5931:-8.0654581683927088e-003
5932:-6.3682331841282171e-003
5933:-4.7315505817113572e-003
5934:-3.6486787903049905e-003
5935:-7.6990465742718065e-003
5936:-6.6633553461995683e-003
5937:-5.1765665944747642e-003
5938:-3.7252653010664423e-003
5939:-2.7545902524637768e-003
5940:-6.0536138208924723e-003
5941:-5.1792948723475537e-003
5942:-3.9077348251234344e-003
5943:-2.6466073126719088e-003
5944:-1.7914016955888539e-003
5945:-4.8810051424976533e-003
5946:-4.1187647796998364e-003
5947:-2.9969341284205721e-003
5948:-1.8684264771862836e-003
5949:-1.0939532566982717e-003
5950:-3.7544247864491872e-003
5951:-3.0786210774348161e-003
5952:-2.1240780838831129e-003
5953:-1.2112408680174554e-003
5954:-6.1184585255913144e-004
5955:-3.2191844410404281e-003
5956:-2.6092490918331007e-003
5957:-1.7397428983855991e-003
5958:-8.9837081531652047e-004
5959:-3.3997965825677690e-004
5960:-2.3785064275166174e-003
5961:-1.8672230715374464e-003
5962:-1.1254583498706691e-003
5963:-3.9195361039112724e-004
5964:1.0419672367561572e-004
5965:-1.4702291261835664e-003
5966:-1.0602069098571592e-003
5967:-4.5000445144006832e-004
5968:1.7181215299003725e-004
5969:6.0311251764384646e-004
5970:-8.1114087402537076e-004
5971:-4.7176720578568981e-004
5972:4.6398422787242978e-005
5973:5.8974986468727218e-004
5974:9.7526618265640749e-004
5975:-4.1929299382981508e-004
5976:-2.6076267951169571e-004
5977:-5.4360741349892859e-005
5978:1.2144216354789417e-004
5979:2.2391232782900902e-004
5980:-1.7359114121955546e-004
5981:-7.8655721490049953e-005
5982:4.0137250111393373e-005
5983:1.3488941704757214e-004
5984:1.8577994476161441e-004
5985:2.3407949631971636e-004
5986:2.4517264031117039e-004
5987:2.4926934684953210e-004
5988:2.3892901174428239e-004
5989:2.2357221156681952e-004
5990:6.9863930051243691e-004
5991:6.3692487611812605e-004
5992:5.4248436305715040e-004
5993:4.4321057133769751e-004
5994:3.7264115061841146e-004
5995:1.0485671654723891e-003
5996:9.4347441167563328e-004
5997:7.9102974029771468e-004
5998:6.4031001887415652e-004
5999:5.3837752678518778e-004
6000:-1.2638323108932128e-003
6001:-5.7485798971204597e-003
6002:-1.2375258231978829e-002
6003:-1.9072395649408498e-002
6004:-2.3686230540712123e-002
6005:-1.0313858868998616e-003
6006:-4.6735758560217736e-003
6007:-1.0079098746789243e-002
6008:-1.5570140827683460e-002
6009:-1.9369009558211223e-002
6010:-6.7017262130096968e-004
6011:-3.0752747681945906e-003
6012:-6.6877833747129162e-003
6013:-1.0407864947196373e-002
6014:-1.3010050334005208e-002
6015:-2.8421308726127157e-004
6016:-1.4483528748330079e-003
6017:-3.2621733882418750e-003
6018:-5.2056206434475394e-003
6019:-6.6072481494546531e-003
6020:-6.4292988149958038e-006
6021:-3.2091297280804134e-004
6022:-9.0318311972502699e-004
6023:-1.6301401159766794e-003
6024:-2.2097029647536598e-003
6025:-2.5840245604154231e-002
6026:-2.9700262907628883e-002
6027:-3.5502933504029818e-002
6028:-4.1484017445593074e-002
6029:-4.5670903863386604e-002
6030:-2.1113716985480428e-002
6031:-2.4195066854542081e-002
6032:-2.8900535775475564e-002
6033:-3.3835599568145538e-002
6034:-3.7337587659672940e-002
6035:-1.4152052216641717e-002
6036:-1.6083373964864204e-002
6037:-1.9167825925949043e-002
6038:-2.2556822151342085e-002
6039:-2.5046096074344895e-002
6040:-7.1425963543493348e-003
6041:-7.9122905499260585e-003
6042:-9.3587395324597044e-003
6043:-1.1184682171873126e-002
6044:-1.2649642494531047e-002
6045:-2.3285102024968025e-003
6046:-2.2982857730762343e-003
6047:-2.6164131833397043e-003
6048:-3.3652157770392307e-003
6049:-4.1240265828600270e-003
6050:-4.7429639448342407e-002
6051:-5.0168402566465251e-002
6052:-5.4422900316526204e-002
6053:-5.8967255398108528e-002
6054:-6.2237062924068637e-002
6055:-3.8763221542717267e-002
6056:-4.0886806702690057e-002
6057:-4.4299194019140217e-002
6058:-4.8071254807254708e-002
6059:-5.0853793752435227e-002
6060:-2.5980480258595340e-002
6061:-2.7199404341009131e-002
6062:-2.9373047611913422e-002
6063:-3.2008601971183367e-002
6064:-3.4073788244412734e-002
6065:-1.3088663795271422e-002
6066:-1.3398405374195814e-002
6067:-1.4326683497174322e-002
6068:-1.5819110325216827e-002
6069:-1.7162422500567629e-002
6070:-4.2224104614860206e-003
6071:-3.9086904278789253e-003
6072:-3.9827276688819595e-003
6073:-4.6907297550892648e-003
6074:-5.5384896952668369e-003
6075:-6.3425729245480844e-002
6076:-6.4834953389094924e-002
6077:-6.7200794963833910e-002
6078:-6.9925778632332847e-002
6079:-7.1992983029569871e-002
6080:-5.1816829697666406e-002
6081:-5.2832418796807508e-002
6082:-5.4690385138018653e-002
6083:-5.6988969920330521e-002
6084:-5.8811811186979236e-002
6085:-3.4703997094186326e-002
6086:-3.5137482427056714e-002
6087:-3.6243419999605335e-002
6088:-3.7909288647161414e-002
6089:-3.9368617503122788e-002
6090:-1.7456931023616260e-002
6091:-1.7301572923954674e-002
6092:-1.7645612270507434e-002
6093:-1.8668895325976948e-002
6094:-1.9757972104977740e-002
6095:-5.6021038269440208e-003
6096:-5.0407630148826335e-003
6097:-4.8588454043989784e-003
6098:-5.4376478501702635e-003
6099:-6.2700138306535595e-003
6100:-7.2534580945751659e-002
6101:-7.2606885367524188e-002
6102:-7.3063316234714001e-002
6103:-7.3936353412725767e-002
6104:-7.4771917644000568e-002
6105:-5.9252045996067419e-002
6106:-5.9169008779856591e-002
6107:-5.9459527654310430e-002
6108:-6.0239822318277694e-002
6109:-6.1054097903325361e-002
6110:-3.9658469027583791e-002
6111:-3.9345985106275974e-002
6112:-3.9390664803635157e-002
6113:-4.0032268481444588e-002
6114:-4.0813402375698082e-002
6115:-1.9895124311786926e-002
6116:-1.9350856093603586e-002
6117:-1.9146273482601554e-002
6118:-1.9645763042986975e-002
6119:-2.0391417654682054e-002
6120:-6.3015597518728929e-003
6121:-5.5976672196914306e-003
6122:-5.2209011350756503e-003
6123:-5.6213767005247016e-003
6124:-6.3414599899774401e-003
6125:-7.4718767920465140e-002
6126:-7.3673429398514262e-002
6127:-7.2488993171390528e-002
6128:-7.1716161119335931e-002
6129:-7.1424918049356995e-002
6130:-6.1010435331273274e-002
6131:-6.0020951454454734e-002
6132:-5.8972350883753986e-002
6133:-5.8399581276380182e-002
6134:-5.8281862039168068e-002
6135:-4.0783438600431245e-002
6136:-3.9876953822960935e-002
6137:-3.9029035503968523e-002
6138:-3.8751000809266287e-002
6139:-3.8888593510219602e-002
6140:-2.0374922079890397e-002
6141:-1.9552870214505684e-002
6142:-1.8907733799208824e-002
6143:-1.8926533669157371e-002
6144:-1.9320872121031327e-002
6145:-6.3340290937538906e-003
6146:-5.5704587459312008e-003
6147:-5.0650047362123677e-003
6148:-5.2877137999956013e-003
6149:-5.8582029570657711e-003
6150:-7.0871428844308748e-002
6151:-6.8991259471698180e-002
6152:-6.6578229260499194e-002
6153:-6.4569575969787865e-002
6154:-6.3430261076053054e-002
6155:-5.7834473011199414e-002
6156:-5.6189232558989291e-002
6157:-5.4153032218222832e-002
6158:-5.2560194072809492e-002
6159:-5.1727232589892300e-002
6160:-3.8597192422162786e-002
6161:-3.7297188116681299e-002
6162:-3.5814583294931701e-002
6163:-3.4832430069059131e-002
6164:-3.4449297591475421e-002
6165:-1.9186191729850092e-002
6166:-1.8232861662147486e-002
6167:-1.7305958276505110e-002
6168:-1.6936595887256104e-002
6169:-1.7004730506077467e-002
6170:-5.8309652189053119e-003
6171:-5.1151987823046261e-003
6172:-4.5689834944905488e-003
6173:-4.6192944779211804e-003
6174:-4.9964172182661313e-003
6175:-6.2552497926973150e-002
6176:-6.0232809055162193e-002
6177:-5.7122170630479981e-002
6178:-5.4351753640077959e-002
6179:-5.2655380691168777e-002
6180:-5.1014836415270139e-002
6181:-4.9032616269975959e-002
6182:-4.6436593988689032e-002
6183:-4.4205075837645186e-002
6184:-4.2890659673660965e-002
6185:-3.3980658961700154e-002
6186:-3.2497670981806594e-002
6187:-3.0662637079315103e-002
6188:-2.9227666490894297e-002
6189:-2.8477630079300126e-002
6190:-1.6781747172696031e-002
6191:-1.5803991149159369e-002
6192:-1.4738731621466512e-002
6193:-1.4109094591668375e-002
6194:-1.3929437723432938e-002
6195:-4.9422777089410440e-003
6196:-4.3129825625100038e-003
6197:-3.7784359042156959e-003
6198:-3.7037944397735625e-003
6199:-3.9170865070479993e-003
6200:-5.1598915680249054e-002
6201:-4.9138461261876515e-002
6202:-4.5775079656886583e-002
6203:-4.2696528277385203e-002
6204:-4.0757908161565028e-002
6205:-4.2034757159167158e-002
6206:-3.9971801840788357e-002
6207:-3.7191935082925121e-002
6208:-3.4698590469944154e-002
6209:-3.3160569200899770e-002
6210:-2.7917689494130187e-002
6211:-2.6440640358801282e-002
6212:-2.4520849826601656e-002
6213:-2.2890059058438557e-002
6214:-2.1942483191051243e-002
6215:-1.3668146698130408e-002
6216:-1.2781537619862447e-002
6217:-1.1728462644471301e-002
6218:-1.0966865052262081e-002
6219:-1.0614268460555652e-002
6220:-3.8612819563569457e-003
6221:-3.3804784384672036e-003
6222:-2.9230821552805341e-003
6223:-2.7588551746663566e-003
6224:-2.8151638901075852e-003
6225:-3.9680536999939613e-002
6226:-3.7373066864456718e-002
6227:-3.4166043267427816e-002
6228:-3.1163428672257597e-002
6229:-2.9230454005900446e-002
6230:-3.2286427874793334e-002
6231:-3.0371719012238681e-002
6232:-2.7732183207143862e-002
6233:-2.5287946540171590e-002
6234:-2.3731043066278799e-002
6235:-2.1368338700868870e-002
6236:-2.0034336701160615e-002
6237:-1.8233953452998931e-002
6238:-1.6615529007141090e-002
6239:-1.5614891714525247e-002
6240:-1.0342961625004610e-002
6241:-9.5962666714546566e-003
6242:-8.6447011809831619e-003
6243:-7.8617541569891078e-003
6244:-7.4239832289504622e-003
6245:-2.7522915226131871e-003
6246:-2.4104499647349771e-003
6247:-2.0440797734874497e-003
6248:-1.8372181849951785e-003
6249:-1.7876105721671208e-003
6250:-2.8234711469462132e-002
6251:-2.6245527683092011e-002
6252:-2.3448439136622642e-002
6253:-2.0789018946476407e-002
6254:-1.9052055831502754e-002
6255:-2.2923703761625967e-002
6256:-2.1293633959105693e-002
6257:-1.9005485162946194e-002
6258:-1.6834871501690378e-002
6259:-1.5420136518500825e-002
6260:-1.5085926386976601e-002
6261:-1.3985900961618294e-002
6262:-1.2449132513395644e-002
6263:-1.1000416439059236e-002
6264:-1.0061710793002989e-002
6265:-7.1763384418940344e-003
6266:-6.6113057141174193e-003
6267:-5.8331638535174795e-003
6268:-5.1135916057785400e-003
6269:-4.6558636172810757e-003
6270:-1.7337673830191312e-003
6271:-1.5369144021409110e-003
6272:-1.2809880473724307e-003
6273:-1.0634980840346982e-003
6274:-9.3706399036254753e-004
6275:-1.8215036846996508e-002
6276:-1.6652383573852056e-002
6277:-1.4425048729615248e-002
6278:-1.2270195673310945e-002
6279:-1.0840335481355204e-002
6280:-1.4741031954392345e-002
6281:-1.3474049776367226e-002
6282:-1.1659826469677699e-002
6283:-9.8944773528833862e-003
6284:-8.7170370370233743e-003
6285:-9.6159924332762468e-003
6286:-8.7862054970379855e-003
6287:-7.5831146805744156e-003
6288:-6.3943274725268250e-003
6289:-5.5907460188996828e-003
6290:-4.4460734159758970e-003
6291:-4.0584961142572911e-003
6292:-3.4738807829334589e-003
6293:-2.8689984785473244e-003
6294:-2.4442902798823812e-003
6295:-8.8984529532080720e-004
6296:-8.0712590210240309e-004
6297:-6.4907512803360568e-004
6298:-4.4714978283887552e-004
6299:-2.8404827366347357e-004
6300:-1.0194571887585692e-002
6301:-9.0784957234401262e-003
6302:-7.4620309963007525e-003
6303:-5.8668381229140731e-003
6304:-4.7897338865442252e-003
6305:-8.1931200471864439e-003
6306:-7.3018526745811021e-003
6307:-5.9937917233553696e-003
6308:-4.6822800824507359e-003
6309:-3.7846907394904847e-003
6310:-5.2470986213103889e-003
6311:-4.6880274979070142e-003
6312:-3.8359663984138355e-003
6313:-2.9442513199219736e-003
6314:-2.3125305806394754e-003
6315:-2.2830985031773929e-003
6316:-2.0597769663701685e-003
6317:-1.6689191679188997e-003
6318:-1.2022041011488566e-003
6319:-8.3990530292575843e-004
6320:-2.4870809976074566e-004
6321:-2.5670538458238810e-004
6322:-1.8378454391616272e-004
6323:-1.0283891492284663e-005
6324:1.6598998322477548e-004
6325:-4.3405009060844277e-003
6326:-3.6456557499880749e-003
6327:-2.6136462463449699e-003
6328:-1.5644167597211394e-003
6329:-8.3802306348508548e-004
6330:-3.4199954535854295e-003
6331:-2.8771145733686989e-003
6332:-2.0472663577233929e-003
6333:-1.1759864449524336e-003
6334:-5.5719901115469607e-004
6335:-2.0730230127523762e-003
6336:-1.7551422813617318e-003
6337:-1.2249471364705793e-003
6338:-6.1786505521361926e-004
6339:-1.5912061897409136e-004
6340:-7.2723987439457017e-004
6341:-6.3729014916958846e-004
6342:-4.1103997469479328e-004
6343:-7.2447624613459241e-005
6344:2.2332295670891446e-004
6345:1.9108667022405963e-004
6346:1.2370252830095033e-004
6347:1.3992827287816358e-004
6348:2.9270790724726149e-004
6349:4.7550263485194932e-004
6350:-5.7790350422183123e-004
6351:-2.7954675377448406e-004
6352:1.8697664955135156e-004
6353:6.8869522442152316e-004
6354:1.0515326589327417e-003
6355:-3.4724656642503193e-004
6356:-1.3748086813641504e-004
6357:2.2090104271648079e-004
6358:6.4013626408579677e-004
6359:9.6139063881236402e-004
6360:-2.2707472099292586e-005
6361:5.9497585343343169e-005
6362:2.6269752425159526e-004
6363:5.6432413384179100e-004
6364:8.2685560486677129e-004
6365:2.8610720497237259e-004
6366:2.4333130549598827e-004
6367:2.9512691952548049e-004
6368:4.8292256439869330e-004
6369:6.8931081565621992e-004
6370:4.8795561201538568e-004
6371:3.6131487075465453e-004
6372:3.1188997765935195e-004
6373:4.2412325439600995e-004
6374:5.9365465624237792e-004
6375:1.1149900630801775e-003
6376:9.9256042234318969e-004
6377:8.1902222883000126e-004
6378:6.5231253319985400e-004
6379:5.4239330783663808e-004
6380:1.0090618871409795e-003
6381:8.6276995423442465e-004
6382:6.6560068141894614e-004
6383:4.8870407887852943e-004
6384:3.7955348069913705e-004
6385:8.5485218305065311e-004
6386:6.8493757284073453e-004
6387:4.6974143626708721e-004
6388:2.9450539668888392e-004
6389:1.9780123775599162e-004
6390:7.0172370652224123e-004
6391:5.2164057661442870e-004
6392:3.0811962522977776e-004
6393:1.5424619756687483e-004
6394:8.3442635442007503e-005
6395:5.9777643561146352e-004
6396:4.1848022675038327e-004
6397:2.1742410180316832e-004
6398:8.9459672941380488e-005
6399:4.4073951266665201e-005
6400:0.0000000000000000e+000
6401:0.0000000000000000e+000
6402:0.0000000000000000e+000
6403:0.0000000000000000e+000
6404:0.0000000000000000e+000
6405:0.0000000000000000e+000
6406:0.0000000000000000e+000
6407:0.0000000000000000e+000
6408:0.0000000000000000e+000
6409:0.0000000000000000e+000
6410:0.0000000000000000e+000
6411:0.0000000000000000e+000
6412:0.0000000000000000e+000
6413:0.0000000000000000e+000
6414:0.0000000000000000e+000
6415:0.0000000000000000e+000
6416:0.0000000000000000e+000
6417:0.0000000000000000e+000
6418:0.0000000000000000e+000
6419:0.0000000000000000e+000
6420:0.0000000000000000e+000
6421:0.0000000000000000e+000
6422:0.0000000000000000e+000
6423:0.0000000000000000e+000
6424:0.0000000000000000e+000
6425:0.0000000000000000e+000
6426:0.0000000000000000e+000
6427:0.0000000000000000e+000
6428:0.0000000000000000e+000
6429:0.0000000000000000e+000
6430:0.0000000000000000e+000
6431:0.0000000000000000e+000
6432:0.0000000000000000e+000
6433:0.0000000000000000e+000
6434:0.0000000000000000e+000
6435:0.0000000000000000e+000
6436:0.0000000000000000e+000
6437:0.0000000000000000e+000
6438:0.0000000000000000e+000
6439:0.0000000000000000e+000
6440:0.0000000000000000e+000
6441:0.0000000000000000e+000
6442:0.0000000000000000e+000
6443:0.0000000000000000e+000
6444:0.0000000000000000e+000
6445:0.0000000000000000e+000
6446:0.0000000000000000e+000
6447:0.0000000000000000e+000
6448:0.0000000000000000e+000
6449:0.0000000000000000e+000
6450:0.0000000000000000e+000
6451:0.0000000000000000e+000
6452:0.0000000000000000e+000
6453:0.0000000000000000e+000
6454:0.0000000000000000e+000
6455:0.0000000000000000e+000
6456:0.0000000000000000e+000
6457:0.0000000000000000e+000
6458:0.0000000000000000e+000
6459:0.0000000000000000e+000
6460:0.0000000000000000e+000
6461:0.0000000000000000e+000
6462:0.0000000000000000e+000
6463:0.0000000000000000e+000
6464:0.0000000000000000e+000
6465:0.0000000000000000e+000
6466:0.0000000000000000e+000
6467:0.0000000000000000e+000
6468:0.0000000000000000e+000
6469:0.0000000000000000e+000
6470:0.0000000000000000e+000
6471:0.0000000000000000e+000
6472:0.0000000000000000e+000
6473:0.0000000000000000e+000
6474:0.0000000000000000e+000
6475:0.0000000000000000e+000
6476:0.0000000000000000e+000
6477:0.0000000000000000e+000
6478:0.0000000000000000e+000
6479:0.0000000000000000e+000
6480:0.0000000000000000e+000
6481:0.0000000000000000e+000
6482:0.0000000000000000e+000
6483:0.0000000000000000e+000
6484:0.0000000000000000e+000
6485:0.0000000000000000e+000
6486:0.0000000000000000e+000
6487:0.0000000000000000e+000
6488:0.0000000000000000e+000
6489:0.0000000000000000e+000
6490:0.0000000000000000e+000
6491:0.0000000000000000e+000
6492:0.0000000000000000e+000
6493:0.0000000000000000e+000
6494:0.0000000000000000e+000
6495:0.0000000000000000e+000
6496:0.0000000000000000e+000
6497:0.0000000000000000e+000
6498:0.0000000000000000e+000
6499:0.0000000000000000e+000
6500:0.0000000000000000e+000
6501:0.0000000000000000e+000
6502:0.0000000000000000e+000
6503:0.0000000000000000e+000
6504:0.0000000000000000e+000
6505:0.0000000000000000e+000
6506:0.0000000000000000e+000
6507:0.0000000000000000e+000
6508:0.0000000000000000e+000
6509:0.0000000000000000e+000
6510:0.0000000000000000e+000
6511:0.0000000000000000e+000
6512:0.0000000000000000e+000
6513:0.0000000000000000e+000
6514:0.0000000000000000e+000
6515:0.0000000000000000e+000
6516:0.0000000000000000e+000
6517:0.0000000000000000e+000
6518:0.0000000000000000e+000
6519:0.0000000000000000e+000
6520:0.0000000000000000e+000
6521:0.0000000000000000e+000
6522:0.0000000000000000e+000
6523:0.0000000000000000e+000
6524:0.0000000000000000e+000
6525:0.0000000000000000e+000
6526:0.0000000000000000e+000
6527:0.0000000000000000e+000
6528:0.0000000000000000e+000
6529:0.0000000000000000e+000
6530:0.0000000000000000e+000
6531:0.0000000000000000e+000
6532:0.0000000000000000e+000
6533:0.0000000000000000e+000
6534:0.0000000000000000e+000
6535:0.0000000000000000e+000
6536:0.0000000000000000e+000
6537:0.0000000000000000e+000
6538:0.0000000000000000e+000
6539:0.0000000000000000e+000
6540:0.0000000000000000e+000
6541:0.0000000000000000e+000
6542:0.0000000000000000e+000
6543:0.0000000000000000e+000
6544:0.0000000000000000e+000
6545:0.0000000000000000e+000
6546:0.0000000000000000e+000
6547:0.0000000000000000e+000
6548:0.0000000000000000e+000
6549:0.0000000000000000e+000
6550:0.0000000000000000e+000
6551:0.0000000000000000e+000
6552:0.0000000000000000e+000
6553:0.0000000000000000e+000
6554:0.0000000000000000e+000
6555:0.0000000000000000e+000
6556:0.0000000000000000e+000
6557:0.0000000000000000e+000
6558:0.0000000000000000e+000
6559:0.0000000000000000e+000
6560:0.0000000000000000e+000
6561:0.0000000000000000e+000
6562:0.0000000000000000e+000
6563:0.0000000000000000e+000
6564:0.0000000000000000e+000
6565:0.0000000000000000e+000
6566:0.0000000000000000e+000
6567:0.0000000000000000e+000
6568:0.0000000000000000e+000
6569:0.0000000000000000e+000
6570:0.0000000000000000e+000
6571:0.0000000000000000e+000
6572:0.0000000000000000e+000
6573:0.0000000000000000e+000
6574:0.0000000000000000e+000
6575:0.0000000000000000e+000
6576:0.0000000000000000e+000
6577:0.0000000000000000e+000
6578:0.0000000000000000e+000
6579:0.0000000000000000e+000
6580:0.0000000000000000e+000
6581:0.0000000000000000e+000
6582:0.0000000000000000e+000
6583:0.0000000000000000e+000
6584:0.0000000000000000e+000
6585:0.0000000000000000e+000
6586:0.0000000000000000e+000
6587:0.0000000000000000e+000
6588:0.0000000000000000e+000
6589:0.0000000000000000e+000
6590:0.0000000000000000e+000
6591:0.0000000000000000e+000
6592:0.0000000000000000e+000
6593:0.0000000000000000e+000
6594:0.0000000000000000e+000
6595:0.0000000000000000e+000
6596:0.0000000000000000e+000
6597:0.0000000000000000e+000
6598:0.0000000000000000e+000
6599:0.0000000000000000e+000
6600:0.0000000000000000e+000
6601:0.0000000000000000e+000
6602:0.0000000000000000e+000
6603:0.0000000000000000e+000
6604:0.0000000000000000e+000
6605:0.0000000000000000e+000
6606:0.0000000000000000e+000
6607:0.0000000000000000e+000
6608:0.0000000000000000e+000
6609:0.0000000000000000e+000
6610:0.0000000000000000e+000
6611:0.0000000000000000e+000
6612:0.0000000000000000e+000
6613:0.0000000000000000e+000
6614:0.0000000000000000e+000
6615:0.0000000000000000e+000
6616:0.0000000000000000e+000
6617:0.0000000000000000e+000
6618:0.0000000000000000e+000
6619:0.0000000000000000e+000
6620:0.0000000000000000e+000
6621:0.0000000000000000e+000
6622:0.0000000000000000e+000
6623:0.0000000000000000e+000
6624:0.0000000000000000e+000
6625:0.0000000000000000e+000
6626:0.0000000000000000e+000
6627:0.0000000000000000e+000
6628:0.0000000000000000e+000
6629:0.0000000000000000e+000
6630:0.0000000000000000e+000
6631:0.0000000000000000e+000
6632:0.0000000000000000e+000
6633:0.0000000000000000e+000
6634:0.0000000000000000e+000
6635:0.0000000000000000e+000
6636:0.0000000000000000e+000
6637:0.0000000000000000e+000
6638:0.0000000000000000e+000
6639:0.0000000000000000e+000
6640:0.0000000000000000e+000
6641:0.0000000000000000e+000
6642:0.0000000000000000e+000
6643:0.0000000000000000e+000
6644:0.0000000000000000e+000
6645:0.0000000000000000e+000
6646:0.0000000000000000e+000
6647:0.0000000000000000e+000
6648:0.0000000000000000e+000
6649:0.0000000000000000e+000
6650:0.0000000000000000e+000
6651:0.0000000000000000e+000
6652:0.0000000000000000e+000
6653:0.0000000000000000e+000
6654:0.0000000000000000e+000
6655:0.0000000000000000e+000
6656:0.0000000000000000e+000
6657:0.0000000000000000e+000
6658:0.0000000000000000e+000
6659:0.0000000000000000e+000
6660:0.0000000000000000e+000
6661:0.0000000000000000e+000
6662:0.0000000000000000e+000
6663:0.0000000000000000e+000
6664:0.0000000000000000e+000
6665:0.0000000000000000e+000
6666:0.0000000000000000e+000
6667:0.0000000000000000e+000
6668:0.0000000000000000e+000
6669:0.0000000000000000e+000
6670:0.0000000000000000e+000
6671:0.0000000000000000e+000
6672:0.0000000000000000e+000
6673:0.0000000000000000e+000
6674:0.0000000000000000e+000
6675:0.0000000000000000e+000
6676:0.0000000000000000e+000
6677:0.0000000000000000e+000
6678:0.0000000000000000e+000
6679:0.0000000000000000e+000
6680:0.0000000000000000e+000
6681:0.0000000000000000e+000
6682:0.0000000000000000e+000
6683:0.0000000000000000e+000
6684:0.0000000000000000e+000
6685:0.0000000000000000e+000
6686:0.0000000000000000e+000
6687:0.0000000000000000e+000
6688:0.0000000000000000e+000
6689:0.0000000000000000e+000
6690:0.0000000000000000e+000
6691:0.0000000000000000e+000
6692:0.0000000000000000e+000
6693:0.0000000000000000e+000
6694:0.0000000000000000e+000
6695:0.0000000000000000e+000
6696:0.0000000000000000e+000
6697:0.0000000000000000e+000
6698:0.0000000000000000e+000
6699:0.0000000000000000e+000
6700:0.0000000000000000e+000
6701:0.0000000000000000e+000
6702:0.0000000000000000e+000
6703:0.0000000000000000e+000
6704:0.0000000000000000e+000
6705:0.0000000000000000e+000
6706:0.0000000000000000e+000
6707:0.0000000000000000e+000
6708:0.0000000000000000e+000
6709:0.0000000000000000e+000
6710:0.0000000000000000e+000
6711:0.0000000000000000e+000
6712:0.0000000000000000e+000
6713:0.0000000000000000e+000
6714:0.0000000000000000e+000
6715:0.0000000000000000e+000
6716:0.0000000000000000e+000
6717:0.0000000000000000e+000
6718:0.0000000000000000e+000
6719:0.0000000000000000e+000
6720:0.0000000000000000e+000
6721:0.0000000000000000e+000
6722:0.0000000000000000e+000
6723:0.0000000000000000e+000
6724:0.0000000000000000e+000
6725:0.0000000000000000e+000
6726:0.0000000000000000e+000
6727:0.0000000000000000e+000
6728:0.0000000000000000e+000
6729:0.0000000000000000e+000
6730:0.0000000000000000e+000
6731:0.0000000000000000e+000
6732:0.0000000000000000e+000
6733:0.0000000000000000e+000
6734:0.0000000000000000e+000
6735:0.0000000000000000e+000
6736:0.0000000000000000e+000
6737:0.0000000000000000e+000
6738:0.0000000000000000e+000
6739:0.0000000000000000e+000
6740:0.0000000000000000e+000
6741:0.0000000000000000e+000
6742:0.0000000000000000e+000
6743:0.0000000000000000e+000
6744:0.0000000000000000e+000
6745:0.0000000000000000e+000
6746:0.0000000000000000e+000
6747:0.0000000000000000e+000
6748:0.0000000000000000e+000
6749:0.0000000000000000e+000
6750:0.0000000000000000e+000
6751:0.0000000000000000e+000
6752:0.0000000000000000e+000
6753:0.0000000000000000e+000
6754:0.0000000000000000e+000
6755:0.0000000000000000e+000
6756:0.0000000000000000e+000
6757:0.0000000000000000e+000
6758:0.0000000000000000e+000
6759:0.0000000000000000e+000
6760:0.0000000000000000e+000
6761:0.0000000000000000e+000
6762:0.0000000000000000e+000
6763:0.0000000000000000e+000
6764:0.0000000000000000e+000
6765:0.0000000000000000e+000
6766:0.0000000000000000e+000
6767:0.0000000000000000e+000
6768:0.0000000000000000e+000
6769:0.0000000000000000e+000
6770:0.0000000000000000e+000
6771:0.0000000000000000e+000
6772:0.0000000000000000e+000
6773:0.0000000000000000e+000
6774:0.0000000000000000e+000
6775:0.0000000000000000e+000
6776:0.0000000000000000e+000
6777:0.0000000000000000e+000
6778:0.0000000000000000e+000
6779:0.0000000000000000e+000
6780:0.0000000000000000e+000
6781:0.0000000000000000e+000
6782:0.0000000000000000e+000
6783:0.0000000000000000e+000
6784:0.0000000000000000e+000
6785:0.0000000000000000e+000
6786:0.0000000000000000e+000
6787:0.0000000000000000e+000
6788:0.0000000000000000e+000
6789:0.0000000000000000e+000
6790:0.0000000000000000e+000
6791:0.0000000000000000e+000
6792:0.0000000000000000e+000
6793:0.0000000000000000e+000
6794:0.0000000000000000e+000
6795:0.0000000000000000e+000
6796:0.0000000000000000e+000
6797:0.0000000000000000e+000
6798:0.0000000000000000e+000
6799:0.0000000000000000e+000
6800:0.0000000000000000e+000
6801:0.0000000000000000e+000
6802:0.0000000000000000e+000
6803:0.0000000000000000e+000
6804:0.0000000000000000e+000
6805:0.0000000000000000e+000
6806:0.0000000000000000e+000
6807:0.0000000000000000e+000
6808:0.0000000000000000e+000
6809:0.0000000000000000e+000
6810:0.0000000000000000e+000
6811:0.0000000000000000e+000
6812:0.0000000000000000e+000
6813:0.0000000000000000e+000
6814:0.0000000000000000e+000
6815:0.0000000000000000e+000
6816:0.0000000000000000e+000
6817:0.0000000000000000e+000
6818:0.0000000000000000e+000
6819:0.0000000000000000e+000
6820:0.0000000000000000e+000
6821:0.0000000000000000e+000
6822:0.0000000000000000e+000
6823:0.0000000000000000e+000
6824:0.0000000000000000e+000
6825:0.0000000000000000e+000
6826:0.0000000000000000e+000
6827:0.0000000000000000e+000
6828:0.0000000000000000e+000
6829:0.0000000000000000e+000
6830:0.0000000000000000e+000
6831:0.0000000000000000e+000
6832:0.0000000000000000e+000
6833:0.0000000000000000e+000
6834:0.0000000000000000e+000
6835:0.0000000000000000e+000
6836:0.0000000000000000e+000
6837:0.0000000000000000e+000
6838:0.0000000000000000e+000
6839:0.0000000000000000e+000
6840:0.0000000000000000e+000
6841:0.0000000000000000e+000
6842:0.0000000000000000e+000
6843:0.0000000000000000e+000
6844:0.0000000000000000e+000
6845:0.0000000000000000e+000
6846:0.0000000000000000e+000
6847:0.0000000000000000e+000
6848:0.0000000000000000e+000
6849:0.0000000000000000e+000
6850:0.0000000000000000e+000
6851:0.0000000000000000e+000
6852:0.0000000000000000e+000
6853:0.0000000000000000e+000
6854:0.0000000000000000e+000
6855:0.0000000000000000e+000
6856:0.0000000000000000e+000
6857:0.0000000000000000e+000
6858:0.0000000000000000e+000
6859:0.0000000000000000e+000
6860:0.0000000000000000e+000
6861:0.0000000000000000e+000
6862:0.0000000000000000e+000
6863:0.0000000000000000e+000
6864:0.0000000000000000e+000
6865:0.0000000000000000e+000
6866:0.0000000000000000e+000
6867:0.0000000000000000e+000
6868:0.0000000000000000e+000
6869:0.0000000000000000e+000
6870:0.0000000000000000e+000
6871:0.0000000000000000e+000
6872:0.0000000000000000e+000
6873:0.0000000000000000e+000
6874:0.0000000000000000e+000
6875:0.0000000000000000e+000
6876:0.0000000000000000e+000
6877:0.0000000000000000e+000
6878:0.0000000000000000e+000
6879:0.0000000000000000e+000
6880:0.0000000000000000e+000
6881:0.0000000000000000e+000
6882:0.0000000000000000e+000
6883:0.0000000000000000e+000
6884:0.0000000000000000e+000
6885:0.0000000000000000e+000
6886:0.0000000000000000e+000
6887:0.0000000000000000e+000
6888:0.0000000000000000e+000
6889:0.0000000000000000e+000
6890:0.0000000000000000e+000
6891:0.0000000000000000e+000
6892:0.0000000000000000e+000
6893:0.0000000000000000e+000
6894:0.0000000000000000e+000
6895:0.0000000000000000e+000
6896:0.0000000000000000e+000
6897:0.0000000000000000e+000
6898:0.0000000000000000e+000
6899:0.0000000000000000e+000
6900:0.0000000000000000e+000
6901:0.0000000000000000e+000
6902:0.0000000000000000e+000
6903:0.0000000000000000e+000
6904:0.0000000000000000e+000
6905:0.0000000000000000e+000
6906:0.0000000000000000e+000
6907:0.0000000000000000e+000
6908:0.0000000000000000e+000
6909:0.0000000000000000e+000
6910:0.0000000000000000e+000
6911:0.0000000000000000e+000
6912:0.0000000000000000e+000
6913:0.0000000000000000e+000
6914:0.0000000000000000e+000
6915:0.0000000000000000e+000
6916:0.0000000000000000e+000
6917:0.0000000000000000e+000
6918:0.0000000000000000e+000
6919:0.0000000000000000e+000
6920:0.0000000000000000e+000
6921:0.0000000000000000e+000
6922:0.0000000000000000e+000
6923:0.0000000000000000e+000
6924:0.0000000000000000e+000
6925:0.0000000000000000e+000
6926:0.0000000000000000e+000
6927:0.0000000000000000e+000
6928:0.0000000000000000e+000
6929:0.0000000000000000e+000
6930:0.0000000000000000e+000
6931:0.0000000000000000e+000
6932:0.0000000000000000e+000
6933:0.0000000000000000e+000
6934:0.0000000000000000e+000
6935:0.0000000000000000e+000
6936:0.0000000000000000e+000
6937:0.0000000000000000e+000
6938:0.0000000000000000e+000
6939:0.0000000000000000e+000
6940:0.0000000000000000e+000
6941:0.0000000000000000e+000
6942:0.0000000000000000e+000
6943:0.0000000000000000e+000
6944:0.0000000000000000e+000
6945:0.0000000000000000e+000
6946:0.0000000000000000e+000
6947:0.0000000000000000e+000
6948:0.0000000000000000e+000
6949:0.0000000000000000e+000
6950:0.0000000000000000e+000
6951:0.0000000000000000e+000
6952:0.0000000000000000e+000
6953:0.0000000000000000e+000
6954:0.0000000000000000e+000
6955:0.0000000000000000e+000
6956:0.0000000000000000e+000
6957:0.0000000000000000e+000
6958:0.0000000000000000e+000
6959:0.0000000000000000e+000
6960:0.0000000000000000e+000
6961:0.0000000000000000e+000
6962:0.0000000000000000e+000
6963:0.0000000000000000e+000
6964:0.0000000000000000e+000
6965:0.0000000000000000e+000
6966:0.0000000000000000e+000
6967:0.0000000000000000e+000
6968:0.0000000000000000e+000
6969:0.0000000000000000e+000
6970:0.0000000000000000e+000
6971:0.0000000000000000e+000
6972:0.0000000000000000e+000
6973:0.0000000000000000e+000
6974:0.0000000000000000e+000
6975:0.0000000000000000e+000
6976:0.0000000000000000e+000
6977:0.0000000000000000e+000
6978:0.0000000000000000e+000
6979:0.0000000000000000e+000
6980:0.0000000000000000e+000
6981:0.0000000000000000e+000
6982:0.0000000000000000e+000
6983:0.0000000000000000e+000
6984:0.0000000000000000e+000
6985:0.0000000000000000e+000
6986:0.0000000000000000e+000
6987:0.0000000000000000e+000
6988:0.0000000000000000e+000
6989:0.0000000000000000e+000
6990:0.0000000000000000e+000
6991:0.0000000000000000e+000
6992:0.0000000000000000e+000
6993:0.0000000000000000e+000
6994:0.0000000000000000e+000
6995:0.0000000000000000e+000
6996:0.0000000000000000e+000
6997:0.0000000000000000e+000
6998:0.0000000000000000e+000
6999:0.0000000000000000e+000
7000:0.0000000000000000e+000
7001:0.0000000000000000e+000
7002:0.0000000000000000e+000
7003:0.0000000000000000e+000
7004:0.0000000000000000e+000
7005:0.0000000000000000e+000
7006:0.0000000000000000e+000
7007:0.0000000000000000e+000
7008:0.0000000000000000e+000
7009:0.0000000000000000e+000
7010:0.0000000000000000e+000
7011:0.0000000000000000e+000
7012:0.0000000000000000e+000
7013:0.0000000000000000e+000
7014:0.0000000000000000e+000
7015:0.0000000000000000e+000
7016:0.0000000000000000e+000
7017:0.0000000000000000e+000
7018:0.0000000000000000e+000
7019:0.0000000000000000e+000
7020:0.0000000000000000e+000
7021:0.0000000000000000e+000
7022:0.0000000000000000e+000
7023:0.0000000000000000e+000
7024:0.0000000000000000e+000
7025:0.0000000000000000e+000
7026:0.0000000000000000e+000
7027:0.0000000000000000e+000
7028:0.0000000000000000e+000
7029:0.0000000000000000e+000
7030:0.0000000000000000e+000
7031:0.0000000000000000e+000
7032:0.0000000000000000e+000
7033:0.0000000000000000e+000
7034:0.0000000000000000e+000
7035:0.0000000000000000e+000
7036:0.0000000000000000e+000
7037:0.0000000000000000e+000
7038:0.0000000000000000e+000
7039:0.0000000000000000e+000
7040:0.0000000000000000e+000
7041:0.0000000000000000e+000
7042:0.0000000000000000e+000
7043:0.0000000000000000e+000
7044:0.0000000000000000e+000
7045:0.0000000000000000e+000
7046:0.0000000000000000e+000
7047:0.0000000000000000e+000
7048:0.0000000000000000e+000
7049:0.0000000000000000e+000
7050:0.0000000000000000e+000
7051:0.0000000000000000e+000
7052:0.0000000000000000e+000
7053:0.0000000000000000e+000
7054:0.0000000000000000e+000
7055:0.0000000000000000e+000
7056:0.0000000000000000e+000
7057:0.0000000000000000e+000
7058:0.0000000000000000e+000
7059:0.0000000000000000e+000
7060:0.0000000000000000e+000
7061:0.0000000000000000e+000
7062:0.0000000000000000e+000
7063:0.0000000000000000e+000
7064:0.0000000000000000e+000
7065:0.0000000000000000e+000
7066:0.0000000000000000e+000
7067:0.0000000000000000e+000
7068:0.0000000000000000e+000
7069:0.0000000000000000e+000
7070:0.0000000000000000e+000
7071:0.0000000000000000e+000
7072:0.0000000000000000e+000
7073:0.0000000000000000e+000
7074:0.0000000000000000e+000
7075:0.0000000000000000e+000
7076:0.0000000000000000e+000
7077:0.0000000000000000e+000
7078:0.0000000000000000e+000
7079:0.0000000000000000e+000
7080:0.0000000000000000e+000
7081:0.0000000000000000e+000
7082:0.0000000000000000e+000
7083:0.0000000000000000e+000
7084:0.0000000000000000e+000
7085:0.0000000000000000e+000
7086:0.0000000000000000e+000
7087:0.0000000000000000e+000
7088:0.0000000000000000e+000
7089:0.0000000000000000e+000
7090:0.0000000000000000e+000
7091:0.0000000000000000e+000
7092:0.0000000000000000e+000
7093:0.0000000000000000e+000
7094:0.0000000000000000e+000
7095:0.0000000000000000e+000
7096:0.0000000000000000e+000
7097:0.0000000000000000e+000
7098:0.0000000000000000e+000
7099:0.0000000000000000e+000
7100:0.0000000000000000e+000
7101:0.0000000000000000e+000
7102:0.0000000000000000e+000
7103:0.0000000000000000e+000
7104:0.0000000000000000e+000
7105:0.0000000000000000e+000
7106:0.0000000000000000e+000
7107:0.0000000000000000e+000
7108:0.0000000000000000e+000
7109:0.0000000000000000e+000
7110:0.0000000000000000e+000
7111:0.0000000000000000e+000
7112:0.0000000000000000e+000
7113:0.0000000000000000e+000
7114:0.0000000000000000e+000
7115:0.0000000000000000e+000
7116:0.0000000000000000e+000
7117:0.0000000000000000e+000
7118:0.0000000000000000e+000
7119:0.0000000000000000e+000
7120:0.0000000000000000e+000
7121:0.0000000000000000e+000
7122:0.0000000000000000e+000
7123:0.0000000000000000e+000
7124:0.0000000000000000e+000
7125:0.0000000000000000e+000
7126:0.0000000000000000e+000
7127:0.0000000000000000e+000
7128:0.0000000000000000e+000
7129:0.0000000000000000e+000
7130:0.0000000000000000e+000
7131:0.0000000000000000e+000
7132:0.0000000000000000e+000
7133:0.0000000000000000e+000
7134:0.0000000000000000e+000
7135:0.0000000000000000e+000
7136:0.0000000000000000e+000
7137:0.0000000000000000e+000
7138:0.0000000000000000e+000
7139:0.0000000000000000e+000
7140:0.0000000000000000e+000
7141:0.0000000000000000e+000
7142:0.0000000000000000e+000
7143:0.0000000000000000e+000
7144:0.0000000000000000e+000
7145:0.0000000000000000e+000
7146:0.0000000000000000e+000
7147:0.0000000000000000e+000
7148:0.0000000000000000e+000
7149:0.0000000000000000e+000
7150:0.0000000000000000e+000
7151:0.0000000000000000e+000
7152:0.0000000000000000e+000
7153:0.0000000000000000e+000
7154:0.0000000000000000e+000
7155:0.0000000000000000e+000
7156:0.0000000000000000e+000
7157:0.0000000000000000e+000
7158:0.0000000000000000e+000
7159:0.0000000000000000e+000
7160:0.0000000000000000e+000
7161:0.0000000000000000e+000
7162:0.0000000000000000e+000
7163:0.0000000000000000e+000
7164:0.0000000000000000e+000
7165:0.0000000000000000e+000
7166:0.0000000000000000e+000
7167:0.0000000000000000e+000
7168:0.0000000000000000e+000
7169:0.0000000000000000e+000
7170:0.0000000000000000e+000
7171:0.0000000000000000e+000
7172:0.0000000000000000e+000
7173:0.0000000000000000e+000
7174:0.0000000000000000e+000
7175:0.0000000000000000e+000
7176:0.0000000000000000e+000
7177:0.0000000000000000e+000
7178:0.0000000000000000e+000
7179:0.0000000000000000e+000
7180:0.0000000000000000e+000
7181:0.0000000000000000e+000
7182:0.0000000000000000e+000
7183:0.0000000000000000e+000
7184:0.0000000000000000e+000
7185:0.0000000000000000e+000
7186:0.0000000000000000e+000
7187:0.0000000000000000e+000
7188:0.0000000000000000e+000
7189:0.0000000000000000e+000
7190:0.0000000000000000e+000
7191:0.0000000000000000e+000
7192:0.0000000000000000e+000
7193:0.0000000000000000e+000
7194:0.0000000000000000e+000
7195:0.0000000000000000e+000
7196:0.0000000000000000e+000
7197:0.0000000000000000e+000
7198:0.0000000000000000e+000
7199:0.0000000000000000e+000
7200:0.0000000000000000e+000
7201:0.0000000000000000e+000
7202:0.0000000000000000e+000
7203:0.0000000000000000e+000
7204:0.0000000000000000e+000
7205:0.0000000000000000e+000
7206:0.0000000000000000e+000
7207:0.0000000000000000e+000
7208:0.0000000000000000e+000
7209:0.0000000000000000e+000
7210:0.0000000000000000e+000
7211:0.0000000000000000e+000
7212:0.0000000000000000e+000
7213:0.0000000000000000e+000
7214:0.0000000000000000e+000
7215:0.0000000000000000e+000
7216:0.0000000000000000e+000
7217:0.0000000000000000e+000
7218:0.0000000000000000e+000
7219:0.0000000000000000e+000
7220:0.0000000000000000e+000
7221:0.0000000000000000e+000
7222:0.0000000000000000e+000
7223:0.0000000000000000e+000
7224:0.0000000000000000e+000
7225:0.0000000000000000e+000
7226:0.0000000000000000e+000
7227:0.0000000000000000e+000
7228:0.0000000000000000e+000
7229:0.0000000000000000e+000
7230:0.0000000000000000e+000
7231:0.0000000000000000e+000
7232:0.0000000000000000e+000
7233:0.0000000000000000e+000
7234:0.0000000000000000e+000
7235:0.0000000000000000e+000
7236:0.0000000000000000e+000
7237:0.0000000000000000e+000
7238:0.0000000000000000e+000
7239:0.0000000000000000e+000
7240:0.0000000000000000e+000
7241:0.0000000000000000e+000
7242:0.0000000000000000e+000
7243:0.0000000000000000e+000
7244:0.0000000000000000e+000
7245:0.0000000000000000e+000
7246:0.0000000000000000e+000
7247:0.0000000000000000e+000
7248:0.0000000000000000e+000
7249:0.0000000000000000e+000
7250:0.0000000000000000e+000
7251:0.0000000000000000e+000
7252:0.0000000000000000e+000
7253:0.0000000000000000e+000
7254:0.0000000000000000e+000
7255:0.0000000000000000e+000
7256:0.0000000000000000e+000
7257:0.0000000000000000e+000
7258:0.0000000000000000e+000
7259:0.0000000000000000e+000
7260:0.0000000000000000e+000
7261:0.0000000000000000e+000
7262:0.0000000000000000e+000
7263:0.0000000000000000e+000
7264:0.0000000000000000e+000
7265:0.0000000000000000e+000
7266:0.0000000000000000e+000
7267:0.0000000000000000e+000
7268:0.0000000000000000e+000
7269:0.0000000000000000e+000
7270:0.0000000000000000e+000
7271:0.0000000000000000e+000
7272:0.0000000000000000e+000
7273:0.0000000000000000e+000
7274:0.0000000000000000e+000
7275:0.0000000000000000e+000
7276:0.0000000000000000e+000
7277:0.0000000000000000e+000
7278:0.0000000000000000e+000
7279:0.0000000000000000e+000
7280:0.0000000000000000e+000
7281:0.0000000000000000e+000
7282:0.0000000000000000e+000
7283:0.0000000000000000e+000
7284:0.0000000000000000e+000
7285:0.0000000000000000e+000
7286:0.0000000000000000e+000
7287:0.0000000000000000e+000
7288:0.0000000000000000e+000
7289:0.0000000000000000e+000
7290:0.0000000000000000e+000
7291:0.0000000000000000e+000
7292:0.0000000000000000e+000
7293:0.0000000000000000e+000
7294:0.0000000000000000e+000
7295:0.0000000000000000e+000
7296:0.0000000000000000e+000
7297:0.0000000000000000e+000
7298:0.0000000000000000e+000
7299:0.0000000000000000e+000
7300:0.0000000000000000e+000
7301:0.0000000000000000e+000
7302:0.0000000000000000e+000
7303:0.0000000000000000e+000
7304:0.0000000000000000e+000
7305:0.0000000000000000e+000
7306:0.0000000000000000e+000
7307:0.0000000000000000e+000
7308:0.0000000000000000e+000
7309:0.0000000000000000e+000
7310:0.0000000000000000e+000
7311:0.0000000000000000e+000
7312:0.0000000000000000e+000
7313:0.0000000000000000e+000
7314:0.0000000000000000e+000
7315:0.0000000000000000e+000
7316:0.0000000000000000e+000
7317:0.0000000000000000e+000
7318:0.0000000000000000e+000
7319:0.0000000000000000e+000
7320:0.0000000000000000e+000
7321:0.0000000000000000e+000
7322:0.0000000000000000e+000
7323:0.0000000000000000e+000
7324:0.0000000000000000e+000
7325:0.0000000000000000e+000
7326:0.0000000000000000e+000
7327:0.0000000000000000e+000
7328:0.0000000000000000e+000
7329:0.0000000000000000e+000
7330:0.0000000000000000e+000
7331:0.0000000000000000e+000
7332:0.0000000000000000e+000
7333:0.0000000000000000e+000
7334:0.0000000000000000e+000
7335:0.0000000000000000e+000
7336:0.0000000000000000e+000
7337:0.0000000000000000e+000
7338:0.0000000000000000e+000
7339:0.0000000000000000e+000
7340:0.0000000000000000e+000
7341:0.0000000000000000e+000
7342:0.0000000000000000e+000
7343:0.0000000000000000e+000
7344:0.0000000000000000e+000
7345:0.0000000000000000e+000
7346:0.0000000000000000e+000
7347:0.0000000000000000e+000
7348:0.0000000000000000e+000
7349:0.0000000000000000e+000
7350:0.0000000000000000e+000
7351:0.0000000000000000e+000
7352:0.0000000000000000e+000
7353:0.0000000000000000e+000
7354:0.0000000000000000e+000
7355:0.0000000000000000e+000
7356:0.0000000000000000e+000
7357:0.0000000000000000e+000
7358:0.0000000000000000e+000
7359:0.0000000000000000e+000
7360:0.0000000000000000e+000
7361:0.0000000000000000e+000
7362:0.0000000000000000e+000
7363:0.0000000000000000e+000
7364:0.0000000000000000e+000
7365:0.0000000000000000e+000
7366:0.0000000000000000e+000
7367:0.0000000000000000e+000
7368:0.0000000000000000e+000
7369:0.0000000000000000e+000
7370:0.0000000000000000e+000
7371:0.0000000000000000e+000
7372:0.0000000000000000e+000
7373:0.0000000000000000e+000
7374:0.0000000000000000e+000
7375:0.0000000000000000e+000
7376:0.0000000000000000e+000
7377:0.0000000000000000e+000
7378:0.0000000000000000e+000
7379:0.0000000000000000e+000
7380:0.0000000000000000e+000
7381:0.0000000000000000e+000
7382:0.0000000000000000e+000
7383:0.0000000000000000e+000
7384:0.0000000000000000e+000
7385:0.0000000000000000e+000
7386:0.0000000000000000e+000
7387:0.0000000000000000e+000
7388:0.0000000000000000e+000
7389:0.0000000000000000e+000
7390:0.0000000000000000e+000
7391:0.0000000000000000e+000
7392:0.0000000000000000e+000
7393:0.0000000000000000e+000
7394:0.0000000000000000e+000
7395:0.0000000000000000e+000
7396:0.0000000000000000e+000
7397:0.0000000000000000e+000
7398:0.0000000000000000e+000
7399:0.0000000000000000e+000
7400:0.0000000000000000e+000
7401:0.0000000000000000e+000
7402:0.0000000000000000e+000
7403:0.0000000000000000e+000
7404:0.0000000000000000e+000
7405:0.0000000000000000e+000
7406:0.0000000000000000e+000
7407:0.0000000000000000e+000
7408:0.0000000000000000e+000
7409:0.0000000000000000e+000
7410:0.0000000000000000e+000
7411:0.0000000000000000e+000
7412:0.0000000000000000e+000
7413:0.0000000000000000e+000
7414:0.0000000000000000e+000
7415:0.0000000000000000e+000
7416:0.0000000000000000e+000
7417:0.0000000000000000e+000
7418:0.0000000000000000e+000
7419:0.0000000000000000e+000
7420:0.0000000000000000e+000
7421:0.0000000000000000e+000
7422:0.0000000000000000e+000
7423:0.0000000000000000e+000
7424:0.0000000000000000e+000
7425:0.0000000000000000e+000
7426:0.0000000000000000e+000
7427:0.0000000000000000e+000
7428:0.0000000000000000e+000
7429:0.0000000000000000e+000
7430:0.0000000000000000e+000
7431:0.0000000000000000e+000
7432:0.0000000000000000e+000
7433:0.0000000000000000e+000
7434:0.0000000000000000e+000
7435:0.0000000000000000e+000
7436:0.0000000000000000e+000
7437:0.0000000000000000e+000
7438:0.0000000000000000e+000
7439:0.0000000000000000e+000
7440:0.0000000000000000e+000
7441:0.0000000000000000e+000
7442:0.0000000000000000e+000
7443:0.0000000000000000e+000
7444:0.0000000000000000e+000
7445:0.0000000000000000e+000
7446:0.0000000000000000e+000
7447:0.0000000000000000e+000
7448:0.0000000000000000e+000
7449:0.0000000000000000e+000
7450:0.0000000000000000e+000
7451:0.0000000000000000e+000
7452:0.0000000000000000e+000
7453:0.0000000000000000e+000
7454:0.0000000000000000e+000
7455:0.0000000000000000e+000
7456:0.0000000000000000e+000
7457:0.0000000000000000e+000
7458:0.0000000000000000e+000
7459:0.0000000000000000e+000
7460:0.0000000000000000e+000
7461:0.0000000000000000e+000
7462:0.0000000000000000e+000
7463:0.0000000000000000e+000
7464:0.0000000000000000e+000
7465:0.0000000000000000e+000
7466:0.0000000000000000e+000
7467:0.0000000000000000e+000
7468:0.0000000000000000e+000
7469:0.0000000000000000e+000
7470:0.0000000000000000e+000
7471:0.0000000000000000e+000
7472:0.0000000000000000e+000
7473:0.0000000000000000e+000
7474:0.0000000000000000e+000
7475:0.0000000000000000e+000
7476:0.0000000000000000e+000
7477:0.0000000000000000e+000
7478:0.0000000000000000e+000
7479:0.0000000000000000e+000
7480:0.0000000000000000e+000
7481:0.0000000000000000e+000
7482:0.0000000000000000e+000
7483:0.0000000000000000e+000
7484:0.0000000000000000e+000
7485:0.0000000000000000e+000
7486:0.0000000000000000e+000
7487:0.0000000000000000e+000
7488:0.0000000000000000e+000
7489:0.0000000000000000e+000
7490:0.0000000000000000e+000
7491:0.0000000000000000e+000
7492:0.0000000000000000e+000
7493:0.0000000000000000e+000
7494:0.0000000000000000e+000
7495:0.0000000000000000e+000
7496:0.0000000000000000e+000
7497:0.0000000000000000e+000
7498:0.0000000000000000e+000
7499:0.0000000000000000e+000
7500:0.0000000000000000e+000
7501:0.0000000000000000e+000
7502:0.0000000000000000e+000
7503:0.0000000000000000e+000
7504:0.0000000000000000e+000
7505:0.0000000000000000e+000
7506:0.0000000000000000e+000
7507:0.0000000000000000e+000
7508:0.0000000000000000e+000
7509:0.0000000000000000e+000
7510:0.0000000000000000e+000
7511:0.0000000000000000e+000
7512:0.0000000000000000e+000
7513:0.0000000000000000e+000
7514:0.0000000000000000e+000
7515:0.0000000000000000e+000
7516:0.0000000000000000e+000
7517:0.0000000000000000e+000
7518:0.0000000000000000e+000
7519:0.0000000000000000e+000
7520:0.0000000000000000e+000
7521:0.0000000000000000e+000
7522:0.0000000000000000e+000
7523:0.0000000000000000e+000
7524:0.0000000000000000e+000
7525:0.0000000000000000e+000
7526:0.0000000000000000e+000
7527:0.0000000000000000e+000
7528:0.0000000000000000e+000
7529:0.0000000000000000e+000
7530:0.0000000000000000e+000
7531:0.0000000000000000e+000
7532:0.0000000000000000e+000
7533:0.0000000000000000e+000
7534:0.0000000000000000e+000
7535:0.0000000000000000e+000
7536:0.0000000000000000e+000
7537:0.0000000000000000e+000
7538:0.0000000000000000e+000
7539:0.0000000000000000e+000
7540:0.0000000000000000e+000
7541:0.0000000000000000e+000
7542:0.0000000000000000e+000
7543:0.0000000000000000e+000
7544:0.0000000000000000e+000
7545:0.0000000000000000e+000
7546:0.0000000000000000e+000
7547:0.0000000000000000e+000
7548:0.0000000000000000e+000
7549:0.0000000000000000e+000
7550:0.0000000000000000e+000
7551:0.0000000000000000e+000
7552:0.0000000000000000e+000
7553:0.0000000000000000e+000
7554:0.0000000000000000e+000
7555:0.0000000000000000e+000
7556:0.0000000000000000e+000
7557:0.0000000000000000e+000
7558:0.0000000000000000e+000
7559:0.0000000000000000e+000
7560:0.0000000000000000e+000
7561:0.0000000000000000e+000
7562:0.0000000000000000e+000
7563:0.0000000000000000e+000
7564:0.0000000000000000e+000
7565:0.0000000000000000e+000
7566:0.0000000000000000e+000
7567:0.0000000000000000e+000
7568:0.0000000000000000e+000
7569:0.0000000000000000e+000
7570:0.0000000000000000e+000
7571:0.0000000000000000e+000
7572:0.0000000000000000e+000
7573:0.0000000000000000e+000
7574:0.0000000000000000e+000
7575:0.0000000000000000e+000
7576:0.0000000000000000e+000
7577:0.0000000000000000e+000
7578:0.0000000000000000e+000
7579:0.0000000000000000e+000
7580:0.0000000000000000e+000
7581:0.0000000000000000e+000
7582:0.0000000000000000e+000
7583:0.0000000000000000e+000
7584:0.0000000000000000e+000
7585:0.0000000000000000e+000
7586:0.0000000000000000e+000
7587:0.0000000000000000e+000
7588:0.0000000000000000e+000
7589:0.0000000000000000e+000
7590:0.0000000000000000e+000
7591:0.0000000000000000e+000
7592:0.0000000000000000e+000
7593:0.0000000000000000e+000
7594:0.0000000000000000e+000
7595:0.0000000000000000e+000
7596:0.0000000000000000e+000
7597:0.0000000000000000e+000
7598:0.0000000000000000e+000
7599:0.0000000000000000e+000
7600:0.0000000000000000e+000
7601:0.0000000000000000e+000
7602:0.0000000000000000e+000
7603:0.0000000000000000e+000
7604:0.0000000000000000e+000
7605:0.0000000000000000e+000
7606:0.0000000000000000e+000
7607:0.0000000000000000e+000
7608:0.0000000000000000e+000
7609:0.0000000000000000e+000
7610:0.0000000000000000e+000
7611:0.0000000000000000e+000
7612:0.0000000000000000e+000
7613:0.0000000000000000e+000
7614:0.0000000000000000e+000
7615:0.0000000000000000e+000
7616:0.0000000000000000e+000
7617:0.0000000000000000e+000
7618:0.0000000000000000e+000
7619:0.0000000000000000e+000
7620:0.0000000000000000e+000
7621:0.0000000000000000e+000
7622:0.0000000000000000e+000
7623:0.0000000000000000e+000
7624:0.0000000000000000e+000
7625:0.0000000000000000e+000
7626:0.0000000000000000e+000
7627:0.0000000000000000e+000
7628:0.0000000000000000e+000
7629:0.0000000000000000e+000
7630:0.0000000000000000e+000
7631:0.0000000000000000e+000
7632:0.0000000000000000e+000
7633:0.0000000000000000e+000
7634:0.0000000000000000e+000
7635:0.0000000000000000e+000
7636:0.0000000000000000e+000
7637:0.0000000000000000e+000
7638:0.0000000000000000e+000
7639:0.0000000000000000e+000
7640:0.0000000000000000e+000
7641:0.0000000000000000e+000
7642:0.0000000000000000e+000
7643:0.0000000000000000e+000
7644:0.0000000000000000e+000
7645:0.0000000000000000e+000
7646:0.0000000000000000e+000
7647:0.0000000000000000e+000
7648:0.0000000000000000e+000
7649:0.0000000000000000e+000
7650:0.0000000000000000e+000
7651:0.0000000000000000e+000
7652:0.0000000000000000e+000
7653:0.0000000000000000e+000
7654:0.0000000000000000e+000
7655:0.0000000000000000e+000
7656:0.0000000000000000e+000
7657:0.0000000000000000e+000
7658:0.0000000000000000e+000
7659:0.0000000000000000e+000
7660:0.0000000000000000e+000
7661:0.0000000000000000e+000
7662:0.0000000000000000e+000
7663:0.0000000000000000e+000
7664:0.0000000000000000e+000
7665:0.0000000000000000e+000
7666:0.0000000000000000e+000
7667:0.0000000000000000e+000
7668:0.0000000000000000e+000
7669:0.0000000000000000e+000
7670:0.0000000000000000e+000
7671:0.0000000000000000e+000
7672:0.0000000000000000e+000
7673:0.0000000000000000e+000
7674:0.0000000000000000e+000
7675:0.0000000000000000e+000
7676:0.0000000000000000e+000
7677:0.0000000000000000e+000
7678:0.0000000000000000e+000
7679:0.0000000000000000e+000
7680:0.0000000000000000e+000
7681:0.0000000000000000e+000
7682:0.0000000000000000e+000
7683:0.0000000000000000e+000
7684:0.0000000000000000e+000
7685:0.0000000000000000e+000
7686:0.0000000000000000e+000
7687:0.0000000000000000e+000
7688:0.0000000000000000e+000
7689:0.0000000000000000e+000
7690:0.0000000000000000e+000
7691:0.0000000000000000e+000
7692:0.0000000000000000e+000
7693:0.0000000000000000e+000
7694:0.0000000000000000e+000
7695:0.0000000000000000e+000
7696:0.0000000000000000e+000
7697:0.0000000000000000e+000
7698:0.0000000000000000e+000
7699:0.0000000000000000e+000
7700:0.0000000000000000e+000
7701:0.0000000000000000e+000
7702:0.0000000000000000e+000
7703:0.0000000000000000e+000
7704:0.0000000000000000e+000
7705:0.0000000000000000e+000
7706:0.0000000000000000e+000
7707:0.0000000000000000e+000
7708:0.0000000000000000e+000
7709:0.0000000000000000e+000
7710:0.0000000000000000e+000
7711:0.0000000000000000e+000
7712:0.0000000000000000e+000
7713:0.0000000000000000e+000
7714:0.0000000000000000e+000
7715:0.0000000000000000e+000
7716:0.0000000000000000e+000
7717:0.0000000000000000e+000
7718:0.0000000000000000e+000
7719:0.0000000000000000e+000
7720:0.0000000000000000e+000
7721:0.0000000000000000e+000
7722:0.0000000000000000e+000
7723:0.0000000000000000e+000
7724:0.0000000000000000e+000
7725:0.0000000000000000e+000
7726:0.0000000000000000e+000
7727:0.0000000000000000e+000
7728:0.0000000000000000e+000
7729:0.0000000000000000e+000
7730:0.0000000000000000e+000
7731:0.0000000000000000e+000
7732:0.0000000000000000e+000
7733:0.0000000000000000e+000
7734:0.0000000000000000e+000
7735:0.0000000000000000e+000
7736:0.0000000000000000e+000
7737:0.0000000000000000e+000
7738:0.0000000000000000e+000
7739:0.0000000000000000e+000
7740:0.0000000000000000e+000
7741:0.0000000000000000e+000
7742:0.0000000000000000e+000
7743:0.0000000000000000e+000
7744:0.0000000000000000e+000
7745:0.0000000000000000e+000
7746:0.0000000000000000e+000
7747:0.0000000000000000e+000
7748:0.0000000000000000e+000
7749:0.0000000000000000e+000
7750:0.0000000000000000e+000
7751:0.0000000000000000e+000
7752:0.0000000000000000e+000
7753:0.0000000000000000e+000
7754:0.0000000000000000e+000
7755:0.0000000000000000e+000
7756:0.0000000000000000e+000
7757:0.0000000000000000e+000
7758:0.0000000000000000e+000
7759:0.0000000000000000e+000
7760:0.0000000000000000e+000
7761:0.0000000000000000e+000
7762:0.0000000000000000e+000
7763:0.0000000000000000e+000
7764:0.0000000000000000e+000
7765:0.0000000000000000e+000
7766:0.0000000000000000e+000
7767:0.0000000000000000e+000
7768:0.0000000000000000e+000
7769:0.0000000000000000e+000
7770:0.0000000000000000e+000
7771:0.0000000000000000e+000
7772:0.0000000000000000e+000
7773:0.0000000000000000e+000
7774:0.0000000000000000e+000
7775:0.0000000000000000e+000
7776:0.0000000000000000e+000
7777:0.0000000000000000e+000
7778:0.0000000000000000e+000
7779:0.0000000000000000e+000
7780:0.0000000000000000e+000
7781:0.0000000000000000e+000
7782:0.0000000000000000e+000
7783:0.0000000000000000e+000
7784:0.0000000000000000e+000
7785:0.0000000000000000e+000
7786:0.0000000000000000e+000
7787:0.0000000000000000e+000
7788:0.0000000000000000e+000
7789:0.0000000000000000e+000
7790:0.0000000000000000e+000
7791:0.0000000000000000e+000
7792:0.0000000000000000e+000
7793:0.0000000000000000e+000
7794:0.0000000000000000e+000
7795:0.0000000000000000e+000
7796:0.0000000000000000e+000
7797:0.0000000000000000e+000
7798:0.0000000000000000e+000
7799:0.0000000000000000e+000
7800:0.0000000000000000e+000
7801:0.0000000000000000e+000
7802:0.0000000000000000e+000
7803:0.0000000000000000e+000
7804:0.0000000000000000e+000
7805:0.0000000000000000e+000
7806:0.0000000000000000e+000
7807:0.0000000000000000e+000
7808:0.0000000000000000e+000
7809:0.0000000000000000e+000
7810:0.0000000000000000e+000
7811:0.0000000000000000e+000
7812:0.0000000000000000e+000
7813:0.0000000000000000e+000
7814:0.0000000000000000e+000
7815:0.0000000000000000e+000
7816:0.0000000000000000e+000
7817:0.0000000000000000e+000
7818:0.0000000000000000e+000
7819:0.0000000000000000e+000
7820:0.0000000000000000e+000
7821:0.0000000000000000e+000
7822:0.0000000000000000e+000
7823:0.0000000000000000e+000
7824:0.0000000000000000e+000
7825:0.0000000000000000e+000
7826:0.0000000000000000e+000
7827:0.0000000000000000e+000
7828:0.0000000000000000e+000
7829:0.0000000000000000e+000
7830:0.0000000000000000e+000
7831:0.0000000000000000e+000
7832:0.0000000000000000e+000
7833:0.0000000000000000e+000
7834:0.0000000000000000e+000
7835:0.0000000000000000e+000
7836:0.0000000000000000e+000
7837:0.0000000000000000e+000
7838:0.0000000000000000e+000
7839:0.0000000000000000e+000
7840:0.0000000000000000e+000
7841:0.0000000000000000e+000
7842:0.0000000000000000e+000
7843:0.0000000000000000e+000
7844:0.0000000000000000e+000
7845:0.0000000000000000e+000
7846:0.0000000000000000e+000
7847:0.0000000000000000e+000
7848:0.0000000000000000e+000
7849:0.0000000000000000e+000
7850:0.0000000000000000e+000
7851:0.0000000000000000e+000
7852:0.0000000000000000e+000
7853:0.0000000000000000e+000
7854:0.0000000000000000e+000
7855:0.0000000000000000e+000
7856:0.0000000000000000e+000
7857:0.0000000000000000e+000
7858:0.0000000000000000e+000
7859:0.0000000000000000e+000
7860:0.0000000000000000e+000
7861:0.0000000000000000e+000
7862:0.0000000000000000e+000
7863:0.0000000000000000e+000
7864:0.0000000000000000e+000
7865:0.0000000000000000e+000
7866:0.0000000000000000e+000
7867:0.0000000000000000e+000
7868:0.0000000000000000e+000
7869:0.0000000000000000e+000
7870:0.0000000000000000e+000
7871:0.0000000000000000e+000
7872:0.0000000000000000e+000
7873:0.0000000000000000e+000
7874:0.0000000000000000e+000
7875:0.0000000000000000e+000
7876:0.0000000000000000e+000
7877:0.0000000000000000e+000
7878:0.0000000000000000e+000
7879:0.0000000000000000e+000
7880:0.0000000000000000e+000
7881:0.0000000000000000e+000
7882:0.0000000000000000e+000
7883:0.0000000000000000e+000
7884:0.0000000000000000e+000
7885:0.0000000000000000e+000
7886:0.0000000000000000e+000
7887:0.0000000000000000e+000
7888:0.0000000000000000e+000
7889:0.0000000000000000e+000
7890:0.0000000000000000e+000
7891:0.0000000000000000e+000
7892:0.0000000000000000e+000
7893:0.0000000000000000e+000
7894:0.0000000000000000e+000
7895:0.0000000000000000e+000
7896:0.0000000000000000e+000
7897:0.0000000000000000e+000
7898:0.0000000000000000e+000
7899:0.0000000000000000e+000
7900:0.0000000000000000e+000
7901:0.0000000000000000e+000
7902:0.0000000000000000e+000
7903:0.0000000000000000e+000
7904:0.0000000000000000e+000
7905:0.0000000000000000e+000
7906:0.0000000000000000e+000
7907:0.0000000000000000e+000
7908:0.0000000000000000e+000
7909:0.0000000000000000e+000
7910:0.0000000000000000e+000
7911:0.0000000000000000e+000
7912:0.0000000000000000e+000
7913:0.0000000000000000e+000
7914:0.0000000000000000e+000
7915:0.0000000000000000e+000
7916:0.0000000000000000e+000
7917:0.0000000000000000e+000
7918:0.0000000000000000e+000
7919:0.0000000000000000e+000
7920:0.0000000000000000e+000
7921:0.0000000000000000e+000
7922:0.0000000000000000e+000
7923:0.0000000000000000e+000
7924:0.0000000000000000e+000
7925:0.0000000000000000e+000
7926:0.0000000000000000e+000
7927:0.0000000000000000e+000
7928:0.0000000000000000e+000
7929:0.0000000000000000e+000
7930:0.0000000000000000e+000
7931:0.0000000000000000e+000
7932:0.0000000000000000e+000
7933:0.0000000000000000e+000
7934:0.0000000000000000e+000
7935:0.0000000000000000e+000
7936:0.0000000000000000e+000
7937:0.0000000000000000e+000
7938:0.0000000000000000e+000
7939:0.0000000000000000e+000
7940:0.0000000000000000e+000
7941:0.0000000000000000e+000
7942:0.0000000000000000e+000
7943:0.0000000000000000e+000
7944:0.0000000000000000e+000
7945:0.0000000000000000e+000
7946:0.0000000000000000e+000
7947:0.0000000000000000e+000
7948:0.0000000000000000e+000
7949:0.0000000000000000e+000
7950:0.0000000000000000e+000
7951:0.0000000000000000e+000
7952:0.0000000000000000e+000
7953:0.0000000000000000e+000
7954:0.0000000000000000e+000
7955:0.0000000000000000e+000
7956:0.0000000000000000e+000
7957:0.0000000000000000e+000
7958:0.0000000000000000e+000
7959:0.0000000000000000e+000
7960:0.0000000000000000e+000
7961:0.0000000000000000e+000
7962:0.0000000000000000e+000
7963:0.0000000000000000e+000
7964:0.0000000000000000e+000
7965:0.0000000000000000e+000
7966:0.0000000000000000e+000
7967:0.0000000000000000e+000
7968:0.0000000000000000e+000
7969:0.0000000000000000e+000
7970:0.0000000000000000e+000
7971:0.0000000000000000e+000
7972:0.0000000000000000e+000
7973:0.0000000000000000e+000
7974:0.0000000000000000e+000
7975:0.0000000000000000e+000
7976:0.0000000000000000e+000
7977:0.0000000000000000e+000
7978:0.0000000000000000e+000
7979:0.0000000000000000e+000
7980:0.0000000000000000e+000
7981:0.0000000000000000e+000
7982:0.0000000000000000e+000
7983:0.0000000000000000e+000
7984:0.0000000000000000e+000
7985:0.0000000000000000e+000
7986:0.0000000000000000e+000
7987:0.0000000000000000e+000
7988:0.0000000000000000e+000
7989:0.0000000000000000e+000
7990:0.0000000000000000e+000
7991:0.0000000000000000e+000
7992:0.0000000000000000e+000
7993:0.0000000000000000e+000
7994:0.0000000000000000e+000
7995:0.0000000000000000e+000
7996:0.0000000000000000e+000
7997:0.0000000000000000e+000
7998:0.0000000000000000e+000
7999:0.0000000000000000e+000
8000:0.0000000000000000e+000
8001:0.0000000000000000e+000
8002:0.0000000000000000e+000
8003:0.0000000000000000e+000
8004:0.0000000000000000e+000
8005:0.0000000000000000e+000
8006:0.0000000000000000e+000
8007:0.0000000000000000e+000
8008:0.0000000000000000e+000
8009:0.0000000000000000e+000
8010:0.0000000000000000e+000
8011:0.0000000000000000e+000
8012:0.0000000000000000e+000
8013:0.0000000000000000e+000
8014:0.0000000000000000e+000
8015:0.0000000000000000e+000
8016:0.0000000000000000e+000
8017:0.0000000000000000e+000
8018:0.0000000000000000e+000
8019:0.0000000000000000e+000
8020:0.0000000000000000e+000
8021:0.0000000000000000e+000
8022:0.0000000000000000e+000
8023:0.0000000000000000e+000
8024:0.0000000000000000e+000
8025:0.0000000000000000e+000
8026:0.0000000000000000e+000
8027:0.0000000000000000e+000
8028:0.0000000000000000e+000
8029:0.0000000000000000e+000
8030:0.0000000000000000e+000
8031:0.0000000000000000e+000
8032:0.0000000000000000e+000
8033:0.0000000000000000e+000
8034:0.0000000000000000e+000
8035:0.0000000000000000e+000
8036:0.0000000000000000e+000
8037:0.0000000000000000e+000
8038:0.0000000000000000e+000
8039:0.0000000000000000e+000
8040:0.0000000000000000e+000
8041:0.0000000000000000e+000
8042:0.0000000000000000e+000
8043:0.0000000000000000e+000
8044:0.0000000000000000e+000
8045:0.0000000000000000e+000
8046:0.0000000000000000e+000
8047:0.0000000000000000e+000
8048:0.0000000000000000e+000
8049:0.0000000000000000e+000
8050:0.0000000000000000e+000
8051:0.0000000000000000e+000
8052:0.0000000000000000e+000
8053:0.0000000000000000e+000
8054:0.0000000000000000e+000
8055:0.0000000000000000e+000
8056:0.0000000000000000e+000
8057:0.0000000000000000e+000
8058:0.0000000000000000e+000
8059:0.0000000000000000e+000
8060:0.0000000000000000e+000
8061:0.0000000000000000e+000
8062:0.0000000000000000e+000
8063:0.0000000000000000e+000
8064:0.0000000000000000e+000
8065:0.0000000000000000e+000
8066:0.0000000000000000e+000
8067:0.0000000000000000e+000
8068:0.0000000000000000e+000
8069:0.0000000000000000e+000
8070:0.0000000000000000e+000
8071:0.0000000000000000e+000
8072:0.0000000000000000e+000
8073:0.0000000000000000e+000
8074:0.0000000000000000e+000
8075:0.0000000000000000e+000
8076:0.0000000000000000e+000
8077:0.0000000000000000e+000
8078:0.0000000000000000e+000
8079:0.0000000000000000e+000
8080:0.0000000000000000e+000
8081:0.0000000000000000e+000
8082:0.0000000000000000e+000
8083:0.0000000000000000e+000
8084:0.0000000000000000e+000
8085:0.0000000000000000e+000
8086:0.0000000000000000e+000
8087:0.0000000000000000e+000
8088:0.0000000000000000e+000
8089:0.0000000000000000e+000
8090:0.0000000000000000e+000
8091:0.0000000000000000e+000
8092:0.0000000000000000e+000
8093:0.0000000000000000e+000
8094:0.0000000000000000e+000
8095:0.0000000000000000e+000
8096:0.0000000000000000e+000
8097:0.0000000000000000e+000
8098:0.0000000000000000e+000
8099:0.0000000000000000e+000
8100:0.0000000000000000e+000
8101:0.0000000000000000e+000
8102:0.0000000000000000e+000
8103:0.0000000000000000e+000
8104:0.0000000000000000e+000
8105:0.0000000000000000e+000
8106:0.0000000000000000e+000
8107:0.0000000000000000e+000
8108:0.0000000000000000e+000
8109:0.0000000000000000e+000
8110:0.0000000000000000e+000
8111:0.0000000000000000e+000
8112:0.0000000000000000e+000
8113:0.0000000000000000e+000
8114:0.0000000000000000e+000
8115:0.0000000000000000e+000
8116:0.0000000000000000e+000
8117:0.0000000000000000e+000
8118:0.0000000000000000e+000
8119:0.0000000000000000e+000
8120:0.0000000000000000e+000
8121:0.0000000000000000e+000
8122:0.0000000000000000e+000
8123:0.0000000000000000e+000
8124:0.0000000000000000e+000
8125:0.0000000000000000e+000
8126:0.0000000000000000e+000
8127:0.0000000000000000e+000
8128:0.0000000000000000e+000
8129:0.0000000000000000e+000
8130:0.0000000000000000e+000
8131:0.0000000000000000e+000
8132:0.0000000000000000e+000
8133:0.0000000000000000e+000
8134:0.0000000000000000e+000
8135:0.0000000000000000e+000
8136:0.0000000000000000e+000
8137:0.0000000000000000e+000
8138:0.0000000000000000e+000
8139:0.0000000000000000e+000
8140:0.0000000000000000e+000
8141:0.0000000000000000e+000
8142:0.0000000000000000e+000
8143:0.0000000000000000e+000
8144:0.0000000000000000e+000
8145:0.0000000000000000e+000
8146:0.0000000000000000e+000
8147:0.0000000000000000e+000
8148:0.0000000000000000e+000
8149:0.0000000000000000e+000
8150:0.0000000000000000e+000
8151:0.0000000000000000e+000
8152:0.0000000000000000e+000
8153:0.0000000000000000e+000
8154:0.0000000000000000e+000
8155:0.0000000000000000e+000
8156:0.0000000000000000e+000
8157:0.0000000000000000e+000
8158:0.0000000000000000e+000
8159:0.0000000000000000e+000
8160:0.0000000000000000e+000
8161:0.0000000000000000e+000
8162:0.0000000000000000e+000
8163:0.0000000000000000e+000
8164:0.0000000000000000e+000
8165:0.0000000000000000e+000
8166:0.0000000000000000e+000
8167:0.0000000000000000e+000
8168:0.0000000000000000e+000
8169:0.0000000000000000e+000
8170:0.0000000000000000e+000
8171:0.0000000000000000e+000
8172:0.0000000000000000e+000
8173:0.0000000000000000e+000
8174:0.0000000000000000e+000
8175:0.0000000000000000e+000
8176:0.0000000000000000e+000
8177:0.0000000000000000e+000
8178:0.0000000000000000e+000
8179:0.0000000000000000e+000
8180:0.0000000000000000e+000
8181:0.0000000000000000e+000
8182:0.0000000000000000e+000
8183:0.0000000000000000e+000
8184:0.0000000000000000e+000
8185:0.0000000000000000e+000
8186:0.0000000000000000e+000
8187:0.0000000000000000e+000
8188:0.0000000000000000e+000
8189:0.0000000000000000e+000
8190:0.0000000000000000e+000
8191:0.0000000000000000e+000
8192:0.0000000000000000e+000
8193:0.0000000000000000e+000
8194:0.0000000000000000e+000
8195:0.0000000000000000e+000
8196:0.0000000000000000e+000
8197:0.0000000000000000e+000
8198:0.0000000000000000e+000
8199:0.0000000000000000e+000
8200:0.0000000000000000e+000
8201:0.0000000000000000e+000
8202:0.0000000000000000e+000
8203:0.0000000000000000e+000
8204:0.0000000000000000e+000
8205:0.0000000000000000e+000
8206:0.0000000000000000e+000
8207:0.0000000000000000e+000
8208:0.0000000000000000e+000
8209:0.0000000000000000e+000
8210:0.0000000000000000e+000
8211:0.0000000000000000e+000
8212:0.0000000000000000e+000
8213:0.0000000000000000e+000
8214:0.0000000000000000e+000
8215:0.0000000000000000e+000
8216:0.0000000000000000e+000
8217:0.0000000000000000e+000
8218:0.0000000000000000e+000
8219:0.0000000000000000e+000
8220:0.0000000000000000e+000
8221:0.0000000000000000e+000
8222:0.0000000000000000e+000
8223:0.0000000000000000e+000
8224:0.0000000000000000e+000
8225:0.0000000000000000e+000
8226:0.0000000000000000e+000
8227:0.0000000000000000e+000
8228:0.0000000000000000e+000
8229:0.0000000000000000e+000
8230:0.0000000000000000e+000
8231:0.0000000000000000e+000
8232:0.0000000000000000e+000
8233:0.0000000000000000e+000
8234:0.0000000000000000e+000
8235:0.0000000000000000e+000
8236:0.0000000000000000e+000
8237:0.0000000000000000e+000
8238:0.0000000000000000e+000
8239:0.0000000000000000e+000
8240:0.0000000000000000e+000
8241:0.0000000000000000e+000
8242:0.0000000000000000e+000
8243:0.0000000000000000e+000
8244:0.0000000000000000e+000
8245:0.0000000000000000e+000
8246:0.0000000000000000e+000
8247:0.0000000000000000e+000
8248:0.0000000000000000e+000
8249:0.0000000000000000e+000
8250:0.0000000000000000e+000
8251:0.0000000000000000e+000
8252:0.0000000000000000e+000
8253:0.0000000000000000e+000
8254:0.0000000000000000e+000
8255:0.0000000000000000e+000
8256:0.0000000000000000e+000
8257:0.0000000000000000e+000
8258:0.0000000000000000e+000
8259:0.0000000000000000e+000
8260:0.0000000000000000e+000
8261:0.0000000000000000e+000
8262:0.0000000000000000e+000
8263:0.0000000000000000e+000
8264:0.0000000000000000e+000
8265:0.0000000000000000e+000
8266:0.0000000000000000e+000
8267:0.0000000000000000e+000
8268:0.0000000000000000e+000
8269:0.0000000000000000e+000
8270:0.0000000000000000e+000
8271:0.0000000000000000e+000
8272:0.0000000000000000e+000
8273:0.0000000000000000e+000
8274:0.0000000000000000e+000
8275:0.0000000000000000e+000
8276:0.0000000000000000e+000
8277:0.0000000000000000e+000
8278:0.0000000000000000e+000
8279:0.0000000000000000e+000
8280:0.0000000000000000e+000
8281:0.0000000000000000e+000
8282:0.0000000000000000e+000
8283:0.0000000000000000e+000
8284:0.0000000000000000e+000
8285:0.0000000000000000e+000
8286:0.0000000000000000e+000
8287:0.0000000000000000e+000
8288:0.0000000000000000e+000
8289:0.0000000000000000e+000
8290:0.0000000000000000e+000
8291:0.0000000000000000e+000
8292:0.0000000000000000e+000
8293:0.0000000000000000e+000
8294:0.0000000000000000e+000
8295:0.0000000000000000e+000
8296:0.0000000000000000e+000
8297:0.0000000000000000e+000
8298:0.0000000000000000e+000
8299:0.0000000000000000e+000
8300:0.0000000000000000e+000
8301:0.0000000000000000e+000
8302:0.0000000000000000e+000
8303:0.0000000000000000e+000
8304:0.0000000000000000e+000
8305:0.0000000000000000e+000
8306:0.0000000000000000e+000
8307:0.0000000000000000e+000
8308:0.0000000000000000e+000
8309:0.0000000000000000e+000
8310:0.0000000000000000e+000
8311:0.0000000000000000e+000
8312:0.0000000000000000e+000
8313:0.0000000000000000e+000
8314:0.0000000000000000e+000
8315:0.0000000000000000e+000
8316:0.0000000000000000e+000
8317:0.0000000000000000e+000
8318:0.0000000000000000e+000
8319:0.0000000000000000e+000
8320:0.0000000000000000e+000
8321:0.0000000000000000e+000
8322:0.0000000000000000e+000
8323:0.0000000000000000e+000
8324:0.0000000000000000e+000
8325:0.0000000000000000e+000
8326:0.0000000000000000e+000
8327:0.0000000000000000e+000
8328:0.0000000000000000e+000
8329:0.0000000000000000e+000
8330:0.0000000000000000e+000
8331:0.0000000000000000e+000
8332:0.0000000000000000e+000
8333:0.0000000000000000e+000
8334:0.0000000000000000e+000
8335:0.0000000000000000e+000
8336:0.0000000000000000e+000
8337:0.0000000000000000e+000
8338:0.0000000000000000e+000
8339:0.0000000000000000e+000
8340:0.0000000000000000e+000
8341:0.0000000000000000e+000
8342:0.0000000000000000e+000
8343:0.0000000000000000e+000
8344:0.0000000000000000e+000
8345:0.0000000000000000e+000
8346:0.0000000000000000e+000
8347:0.0000000000000000e+000
8348:0.0000000000000000e+000
8349:0.0000000000000000e+000
8350:0.0000000000000000e+000
8351:0.0000000000000000e+000
8352:0.0000000000000000e+000
8353:0.0000000000000000e+000
8354:0.0000000000000000e+000
8355:0.0000000000000000e+000
8356:0.0000000000000000e+000
8357:0.0000000000000000e+000
8358:0.0000000000000000e+000
8359:0.0000000000000000e+000
8360:0.0000000000000000e+000
8361:0.0000000000000000e+000
8362:0.0000000000000000e+000
8363:0.0000000000000000e+000
8364:0.0000000000000000e+000
8365:0.0000000000000000e+000
8366:0.0000000000000000e+000
8367:0.0000000000000000e+000
8368:0.0000000000000000e+000
8369:0.0000000000000000e+000
8370:0.0000000000000000e+000
8371:0.0000000000000000e+000
8372:0.0000000000000000e+000
8373:0.0000000000000000e+000
8374:0.0000000000000000e+000
8375:0.0000000000000000e+000
8376:0.0000000000000000e+000
8377:0.0000000000000000e+000
8378:0.0000000000000000e+000
8379:0.0000000000000000e+000
8380:0.0000000000000000e+000
8381:0.0000000000000000e+000
8382:0.0000000000000000e+000
8383:0.0000000000000000e+000
8384:0.0000000000000000e+000
8385:0.0000000000000000e+000
8386:0.0000000000000000e+000
8387:0.0000000000000000e+000
8388:0.0000000000000000e+000
8389:0.0000000000000000e+000
8390:0.0000000000000000e+000
8391:0.0000000000000000e+000
8392:0.0000000000000000e+000
8393:0.0000000000000000e+000
8394:0.0000000000000000e+000
8395:0.0000000000000000e+000
8396:0.0000000000000000e+000
8397:0.0000000000000000e+000
8398:0.0000000000000000e+000
8399:0.0000000000000000e+000
8400:0.0000000000000000e+000
8401:0.0000000000000000e+000
8402:0.0000000000000000e+000
8403:0.0000000000000000e+000
8404:0.0000000000000000e+000
8405:0.0000000000000000e+000
8406:0.0000000000000000e+000
8407:0.0000000000000000e+000
8408:0.0000000000000000e+000
8409:0.0000000000000000e+000
8410:0.0000000000000000e+000
8411:0.0000000000000000e+000
8412:0.0000000000000000e+000
8413:0.0000000000000000e+000
8414:0.0000000000000000e+000
8415:0.0000000000000000e+000
8416:0.0000000000000000e+000
8417:0.0000000000000000e+000
8418:0.0000000000000000e+000
8419:0.0000000000000000e+000
8420:0.0000000000000000e+000
8421:0.0000000000000000e+000
8422:0.0000000000000000e+000
8423:0.0000000000000000e+000
8424:0.0000000000000000e+000
8425:0.0000000000000000e+000
8426:0.0000000000000000e+000
8427:0.0000000000000000e+000
8428:0.0000000000000000e+000
8429:0.0000000000000000e+000
8430:0.0000000000000000e+000
8431:0.0000000000000000e+000
8432:0.0000000000000000e+000
8433:0.0000000000000000e+000
8434:0.0000000000000000e+000
8435:0.0000000000000000e+000
8436:0.0000000000000000e+000
8437:0.0000000000000000e+000
8438:0.0000000000000000e+000
8439:0.0000000000000000e+000
8440:0.0000000000000000e+000
8441:0.0000000000000000e+000
8442:0.0000000000000000e+000
8443:0.0000000000000000e+000
8444:0.0000000000000000e+000
8445:0.0000000000000000e+000
8446:0.0000000000000000e+000
8447:0.0000000000000000e+000
8448:0.0000000000000000e+000
8449:0.0000000000000000e+000
8450:0.0000000000000000e+000
8451:0.0000000000000000e+000
8452:0.0000000000000000e+000
8453:0.0000000000000000e+000
8454:0.0000000000000000e+000
8455:0.0000000000000000e+000
8456:0.0000000000000000e+000
8457:0.0000000000000000e+000
8458:0.0000000000000000e+000
8459:0.0000000000000000e+000
8460:0.0000000000000000e+000
8461:0.0000000000000000e+000
8462:0.0000000000000000e+000
8463:0.0000000000000000e+000
8464:0.0000000000000000e+000
8465:0.0000000000000000e+000
8466:0.0000000000000000e+000
8467:0.0000000000000000e+000
8468:0.0000000000000000e+000
8469:0.0000000000000000e+000
8470:0.0000000000000000e+000
8471:0.0000000000000000e+000
8472:0.0000000000000000e+000
8473:0.0000000000000000e+000
8474:0.0000000000000000e+000
8475:0.0000000000000000e+000
8476:0.0000000000000000e+000
8477:0.0000000000000000e+000
8478:0.0000000000000000e+000
8479:0.0000000000000000e+000
8480:0.0000000000000000e+000
8481:0.0000000000000000e+000
8482:0.0000000000000000e+000
8483:0.0000000000000000e+000
8484:0.0000000000000000e+000
8485:0.0000000000000000e+000
8486:0.0000000000000000e+000
8487:0.0000000000000000e+000
8488:0.0000000000000000e+000
8489:0.0000000000000000e+000
8490:0.0000000000000000e+000
8491:0.0000000000000000e+000
8492:0.0000000000000000e+000
8493:0.0000000000000000e+000
8494:0.0000000000000000e+000
8495:0.0000000000000000e+000
8496:0.0000000000000000e+000
8497:0.0000000000000000e+000
8498:0.0000000000000000e+000
8499:0.0000000000000000e+000
8500:0.0000000000000000e+000
8501:0.0000000000000000e+000
8502:0.0000000000000000e+000
8503:0.0000000000000000e+000
8504:0.0000000000000000e+000
8505:0.0000000000000000e+000
8506:0.0000000000000000e+000
8507:0.0000000000000000e+000
8508:0.0000000000000000e+000
8509:0.0000000000000000e+000
8510:0.0000000000000000e+000
8511:0.0000000000000000e+000
8512:0.0000000000000000e+000
8513:0.0000000000000000e+000
8514:0.0000000000000000e+000
8515:0.0000000000000000e+000
8516:0.0000000000000000e+000
8517:0.0000000000000000e+000
8518:0.0000000000000000e+000
8519:0.0000000000000000e+000
8520:0.0000000000000000e+000
8521:0.0000000000000000e+000
8522:0.0000000000000000e+000
8523:0.0000000000000000e+000
8524:0.0000000000000000e+000
8525:0.0000000000000000e+000
8526:0.0000000000000000e+000
8527:0.0000000000000000e+000
8528:0.0000000000000000e+000
8529:0.0000000000000000e+000
8530:0.0000000000000000e+000
8531:0.0000000000000000e+000
8532:0.0000000000000000e+000
8533:0.0000000000000000e+000
8534:0.0000000000000000e+000
8535:0.0000000000000000e+000
8536:0.0000000000000000e+000
8537:0.0000000000000000e+000
8538:0.0000000000000000e+000
8539:0.0000000000000000e+000
8540:0.0000000000000000e+000
8541:0.0000000000000000e+000
8542:0.0000000000000000e+000
8543:0.0000000000000000e+000
8544:0.0000000000000000e+000
8545:0.0000000000000000e+000
8546:0.0000000000000000e+000
8547:0.0000000000000000e+000
8548:0.0000000000000000e+000
8549:0.0000000000000000e+000
8550:0.0000000000000000e+000
8551:0.0000000000000000e+000
8552:0.0000000000000000e+000
8553:0.0000000000000000e+000
8554:0.0000000000000000e+000
8555:0.0000000000000000e+000
8556:0.0000000000000000e+000
8557:0.0000000000000000e+000
8558:0.0000000000000000e+000
8559:0.0000000000000000e+000
8560:0.0000000000000000e+000
8561:0.0000000000000000e+000
8562:0.0000000000000000e+000
8563:0.0000000000000000e+000
8564:0.0000000000000000e+000
8565:0.0000000000000000e+000
8566:0.0000000000000000e+000
8567:0.0000000000000000e+000
8568:0.0000000000000000e+000
8569:0.0000000000000000e+000
8570:0.0000000000000000e+000
8571:0.0000000000000000e+000
8572:0.0000000000000000e+000
8573:0.0000000000000000e+000
8574:0.0000000000000000e+000
8575:0.0000000000000000e+000
8576:0.0000000000000000e+000
8577:0.0000000000000000e+000
8578:0.0000000000000000e+000
8579:0.0000000000000000e+000
8580:0.0000000000000000e+000
8581:0.0000000000000000e+000
8582:0.0000000000000000e+000
8583:0.0000000000000000e+000
8584:0.0000000000000000e+000
8585:0.0000000000000000e+000
8586:0.0000000000000000e+000
8587:0.0000000000000000e+000
8588:0.0000000000000000e+000
8589:0.0000000000000000e+000
8590:0.0000000000000000e+000
8591:0.0000000000000000e+000
8592:0.0000000000000000e+000
8593:0.0000000000000000e+000
8594:0.0000000000000000e+000
8595:0.0000000000000000e+000
8596:0.0000000000000000e+000
8597:0.0000000000000000e+000
8598:0.0000000000000000e+000
8599:0.0000000000000000e+000
8600:0.0000000000000000e+000
8601:0.0000000000000000e+000
8602:0.0000000000000000e+000
8603:0.0000000000000000e+000
8604:0.0000000000000000e+000
8605:0.0000000000000000e+000
8606:0.0000000000000000e+000
8607:0.0000000000000000e+000
8608:0.0000000000000000e+000
8609:0.0000000000000000e+000
8610:0.0000000000000000e+000
8611:0.0000000000000000e+000
8612:0.0000000000000000e+000
8613:0.0000000000000000e+000
8614:0.0000000000000000e+000
8615:0.0000000000000000e+000
8616:0.0000000000000000e+000
8617:0.0000000000000000e+000
8618:0.0000000000000000e+000
8619:0.0000000000000000e+000
8620:0.0000000000000000e+000
8621:0.0000000000000000e+000
8622:0.0000000000000000e+000
8623:0.0000000000000000e+000
8624:0.0000000000000000e+000
8625:0.0000000000000000e+000
8626:0.0000000000000000e+000
8627:0.0000000000000000e+000
8628:0.0000000000000000e+000
8629:0.0000000000000000e+000
8630:0.0000000000000000e+000
8631:0.0000000000000000e+000
8632:0.0000000000000000e+000
8633:0.0000000000000000e+000
8634:0.0000000000000000e+000
8635:0.0000000000000000e+000
8636:0.0000000000000000e+000
8637:0.0000000000000000e+000
8638:0.0000000000000000e+000
8639:0.0000000000000000e+000
8640:0.0000000000000000e+000
8641:0.0000000000000000e+000
8642:0.0000000000000000e+000
8643:0.0000000000000000e+000
8644:0.0000000000000000e+000
8645:0.0000000000000000e+000
8646:0.0000000000000000e+000
8647:0.0000000000000000e+000
8648:0.0000000000000000e+000
8649:0.0000000000000000e+000
8650:0.0000000000000000e+000
8651:0.0000000000000000e+000
8652:0.0000000000000000e+000
8653:0.0000000000000000e+000
8654:0.0000000000000000e+000
8655:0.0000000000000000e+000
8656:0.0000000000000000e+000
8657:0.0000000000000000e+000
8658:0.0000000000000000e+000
8659:0.0000000000000000e+000
8660:0.0000000000000000e+000
8661:0.0000000000000000e+000
8662:0.0000000000000000e+000
8663:0.0000000000000000e+000
8664:0.0000000000000000e+000
8665:0.0000000000000000e+000
8666:0.0000000000000000e+000
8667:0.0000000000000000e+000
8668:0.0000000000000000e+000
8669:0.0000000000000000e+000
8670:0.0000000000000000e+000
8671:0.0000000000000000e+000
8672:0.0000000000000000e+000
8673:0.0000000000000000e+000
8674:0.0000000000000000e+000
8675:0.0000000000000000e+000
8676:0.0000000000000000e+000
8677:0.0000000000000000e+000
8678:0.0000000000000000e+000
8679:0.0000000000000000e+000
8680:0.0000000000000000e+000
8681:0.0000000000000000e+000
8682:0.0000000000000000e+000
8683:0.0000000000000000e+000
8684:0.0000000000000000e+000
8685:0.0000000000000000e+000
8686:0.0000000000000000e+000
8687:0.0000000000000000e+000
8688:0.0000000000000000e+000
8689:0.0000000000000000e+000
8690:0.0000000000000000e+000
8691:0.0000000000000000e+000
8692:0.0000000000000000e+000
8693:0.0000000000000000e+000
8694:0.0000000000000000e+000
8695:0.0000000000000000e+000
8696:0.0000000000000000e+000
8697:0.0000000000000000e+000
8698:0.0000000000000000e+000
8699:0.0000000000000000e+000
8700:0.0000000000000000e+000
8701:0.0000000000000000e+000
8702:0.0000000000000000e+000
8703:0.0000000000000000e+000
8704:0.0000000000000000e+000
8705:0.0000000000000000e+000
8706:0.0000000000000000e+000
8707:0.0000000000000000e+000
8708:0.0000000000000000e+000
8709:0.0000000000000000e+000
8710:0.0000000000000000e+000
8711:0.0000000000000000e+000
8712:0.0000000000000000e+000
8713:0.0000000000000000e+000
8714:0.0000000000000000e+000
8715:0.0000000000000000e+000
8716:0.0000000000000000e+000
8717:0.0000000000000000e+000
8718:0.0000000000000000e+000
8719:0.0000000000000000e+000
8720:0.0000000000000000e+000
8721:0.0000000000000000e+000
8722:0.0000000000000000e+000
8723:0.0000000000000000e+000
8724:0.0000000000000000e+000
8725:0.0000000000000000e+000
8726:0.0000000000000000e+000
8727:0.0000000000000000e+000
8728:0.0000000000000000e+000
8729:0.0000000000000000e+000
8730:0.0000000000000000e+000
8731:0.0000000000000000e+000
8732:0.0000000000000000e+000
8733:0.0000000000000000e+000
8734:0.0000000000000000e+000
8735:0.0000000000000000e+000
8736:0.0000000000000000e+000
8737:0.0000000000000000e+000
8738:0.0000000000000000e+000
8739:0.0000000000000000e+000
8740:0.0000000000000000e+000
8741:0.0000000000000000e+000
8742:0.0000000000000000e+000
8743:0.0000000000000000e+000
8744:0.0000000000000000e+000
8745:0.0000000000000000e+000
8746:0.0000000000000000e+000
8747:0.0000000000000000e+000
8748:0.0000000000000000e+000
8749:0.0000000000000000e+000
8750:0.0000000000000000e+000
8751:0.0000000000000000e+000
8752:0.0000000000000000e+000
8753:0.0000000000000000e+000
8754:0.0000000000000000e+000
8755:0.0000000000000000e+000
8756:0.0000000000000000e+000
8757:0.0000000000000000e+000
8758:0.0000000000000000e+000
8759:0.0000000000000000e+000
8760:0.0000000000000000e+000
8761:0.0000000000000000e+000
8762:0.0000000000000000e+000
8763:0.0000000000000000e+000
8764:0.0000000000000000e+000
8765:0.0000000000000000e+000
8766:0.0000000000000000e+000
8767:0.0000000000000000e+000
8768:0.0000000000000000e+000
8769:0.0000000000000000e+000
8770:0.0000000000000000e+000
8771:0.0000000000000000e+000
8772:0.0000000000000000e+000
8773:0.0000000000000000e+000
8774:0.0000000000000000e+000
8775:0.0000000000000000e+000
8776:0.0000000000000000e+000
8777:0.0000000000000000e+000
8778:0.0000000000000000e+000
8779:0.0000000000000000e+000
8780:0.0000000000000000e+000
8781:0.0000000000000000e+000
8782:0.0000000000000000e+000
8783:0.0000000000000000e+000
8784:0.0000000000000000e+000
8785:0.0000000000000000e+000
8786:0.0000000000000000e+000
8787:0.0000000000000000e+000
8788:0.0000000000000000e+000
8789:0.0000000000000000e+000
8790:0.0000000000000000e+000
8791:0.0000000000000000e+000
8792:0.0000000000000000e+000
8793:0.0000000000000000e+000
8794:0.0000000000000000e+000
8795:0.0000000000000000e+000
8796:0.0000000000000000e+000
8797:0.0000000000000000e+000
8798:0.0000000000000000e+000
8799:0.0000000000000000e+000
8800:0.0000000000000000e+000
8801:0.0000000000000000e+000
8802:0.0000000000000000e+000
8803:0.0000000000000000e+000
8804:0.0000000000000000e+000
8805:0.0000000000000000e+000
8806:0.0000000000000000e+000
8807:0.0000000000000000e+000
8808:0.0000000000000000e+000
8809:0.0000000000000000e+000
8810:0.0000000000000000e+000
8811:0.0000000000000000e+000
8812:0.0000000000000000e+000
8813:0.0000000000000000e+000
8814:0.0000000000000000e+000
8815:0.0000000000000000e+000
8816:0.0000000000000000e+000
8817:0.0000000000000000e+000
8818:0.0000000000000000e+000
8819:0.0000000000000000e+000
8820:0.0000000000000000e+000
8821:0.0000000000000000e+000
8822:0.0000000000000000e+000
8823:0.0000000000000000e+000
8824:0.0000000000000000e+000
8825:0.0000000000000000e+000
8826:0.0000000000000000e+000
8827:0.0000000000000000e+000
8828:0.0000000000000000e+000
8829:0.0000000000000000e+000
8830:0.0000000000000000e+000
8831:0.0000000000000000e+000
8832:0.0000000000000000e+000
8833:0.0000000000000000e+000
8834:0.0000000000000000e+000
8835:0.0000000000000000e+000
8836:0.0000000000000000e+000
8837:0.0000000000000000e+000
8838:0.0000000000000000e+000
8839:0.0000000000000000e+000
8840:0.0000000000000000e+000
8841:0.0000000000000000e+000
8842:0.0000000000000000e+000
8843:0.0000000000000000e+000
8844:0.0000000000000000e+000
8845:0.0000000000000000e+000
8846:0.0000000000000000e+000
8847:0.0000000000000000e+000
8848:0.0000000000000000e+000
8849:0.0000000000000000e+000
8850:0.0000000000000000e+000
8851:0.0000000000000000e+000
8852:0.0000000000000000e+000
8853:0.0000000000000000e+000
8854:0.0000000000000000e+000
8855:0.0000000000000000e+000
8856:0.0000000000000000e+000
8857:0.0000000000000000e+000
8858:0.0000000000000000e+000
8859:0.0000000000000000e+000
8860:0.0000000000000000e+000
8861:0.0000000000000000e+000
8862:0.0000000000000000e+000
8863:0.0000000000000000e+000
8864:0.0000000000000000e+000
8865:0.0000000000000000e+000
8866:0.0000000000000000e+000
8867:0.0000000000000000e+000
8868:0.0000000000000000e+000
8869:0.0000000000000000e+000
8870:0.0000000000000000e+000
8871:0.0000000000000000e+000
8872:0.0000000000000000e+000
8873:0.0000000000000000e+000
8874:0.0000000000000000e+000
8875:0.0000000000000000e+000
8876:0.0000000000000000e+000
8877:0.0000000000000000e+000
8878:0.0000000000000000e+000
8879:0.0000000000000000e+000
8880:0.0000000000000000e+000
8881:0.0000000000000000e+000
8882:0.0000000000000000e+000
8883:0.0000000000000000e+000
8884:0.0000000000000000e+000
8885:0.0000000000000000e+000
8886:0.0000000000000000e+000
8887:0.0000000000000000e+000
8888:0.0000000000000000e+000
8889:0.0000000000000000e+000
8890:0.0000000000000000e+000
8891:0.0000000000000000e+000
8892:0.0000000000000000e+000
8893:0.0000000000000000e+000
8894:0.0000000000000000e+000
8895:0.0000000000000000e+000
8896:0.0000000000000000e+000
8897:0.0000000000000000e+000
8898:0.0000000000000000e+000
8899:0.0000000000000000e+000
8900:0.0000000000000000e+000
8901:0.0000000000000000e+000
8902:0.0000000000000000e+000
8903:0.0000000000000000e+000
8904:0.0000000000000000e+000
8905:0.0000000000000000e+000
8906:0.0000000000000000e+000
8907:0.0000000000000000e+000
8908:0.0000000000000000e+000
8909:0.0000000000000000e+000
8910:0.0000000000000000e+000
8911:0.0000000000000000e+000
8912:0.0000000000000000e+000
8913:0.0000000000000000e+000
8914:0.0000000000000000e+000
8915:0.0000000000000000e+000
8916:0.0000000000000000e+000
8917:0.0000000000000000e+000
8918:0.0000000000000000e+000
8919:0.0000000000000000e+000
8920:0.0000000000000000e+000
8921:0.0000000000000000e+000
8922:0.0000000000000000e+000
8923:0.0000000000000000e+000
8924:0.0000000000000000e+000
8925:0.0000000000000000e+000
8926:0.0000000000000000e+000
8927:0.0000000000000000e+000
8928:0.0000000000000000e+000
8929:0.0000000000000000e+000
8930:0.0000000000000000e+000
8931:0.0000000000000000e+000
8932:0.0000000000000000e+000
8933:0.0000000000000000e+000
8934:0.0000000000000000e+000
8935:0.0000000000000000e+000
8936:0.0000000000000000e+000
8937:0.0000000000000000e+000
8938:0.0000000000000000e+000
8939:0.0000000000000000e+000
8940:0.0000000000000000e+000
8941:0.0000000000000000e+000
8942:0.0000000000000000e+000
8943:0.0000000000000000e+000
8944:0.0000000000000000e+000
8945:0.0000000000000000e+000
8946:0.0000000000000000e+000
8947:0.0000000000000000e+000
8948:0.0000000000000000e+000
8949:0.0000000000000000e+000
8950:0.0000000000000000e+000
8951:0.0000000000000000e+000
8952:0.0000000000000000e+000
8953:0.0000000000000000e+000
8954:0.0000000000000000e+000
8955:0.0000000000000000e+000
8956:0.0000000000000000e+000
8957:0.0000000000000000e+000
8958:0.0000000000000000e+000
8959:0.0000000000000000e+000
8960:0.0000000000000000e+000
8961:0.0000000000000000e+000
8962:0.0000000000000000e+000
8963:0.0000000000000000e+000
8964:0.0000000000000000e+000
8965:0.0000000000000000e+000
8966:0.0000000000000000e+000
8967:0.0000000000000000e+000
8968:0.0000000000000000e+000
8969:0.0000000000000000e+000
8970:0.0000000000000000e+000
8971:0.0000000000000000e+000
8972:0.0000000000000000e+000
8973:0.0000000000000000e+000
8974:0.0000000000000000e+000
8975:0.0000000000000000e+000
8976:0.0000000000000000e+000
8977:0.0000000000000000e+000
8978:0.0000000000000000e+000
8979:0.0000000000000000e+000
8980:0.0000000000000000e+000
8981:0.0000000000000000e+000
8982:0.0000000000000000e+000
8983:0.0000000000000000e+000
8984:0.0000000000000000e+000
8985:0.0000000000000000e+000
8986:0.0000000000000000e+000
8987:0.0000000000000000e+000
8988:0.0000000000000000e+000
8989:0.0000000000000000e+000
8990:0.0000000000000000e+000
8991:0.0000000000000000e+000
8992:0.0000000000000000e+000
8993:0.0000000000000000e+000
8994:0.0000000000000000e+000
8995:0.0000000000000000e+000
8996:0.0000000000000000e+000
8997:0.0000000000000000e+000
8998:0.0000000000000000e+000
8999:0.0000000000000000e+000
9000:0.0000000000000000e+000
9001:0.0000000000000000e+000
9002:0.0000000000000000e+000
9003:0.0000000000000000e+000
9004:0.0000000000000000e+000
9005:0.0000000000000000e+000
9006:0.0000000000000000e+000
9007:0.0000000000000000e+000
9008:0.0000000000000000e+000
9009:0.0000000000000000e+000
9010:0.0000000000000000e+000
9011:0.0000000000000000e+000
9012:0.0000000000000000e+000
9013:0.0000000000000000e+000
9014:0.0000000000000000e+000
9015:0.0000000000000000e+000
9016:0.0000000000000000e+000
9017:0.0000000000000000e+000
9018:0.0000000000000000e+000
9019:0.0000000000000000e+000
9020:0.0000000000000000e+000
9021:0.0000000000000000e+000
9022:0.0000000000000000e+000
9023:0.0000000000000000e+000
9024:0.0000000000000000e+000
9025:0.0000000000000000e+000
9026:0.0000000000000000e+000
9027:0.0000000000000000e+000
9028:0.0000000000000000e+000
9029:0.0000000000000000e+000
9030:0.0000000000000000e+000
9031:0.0000000000000000e+000
9032:0.0000000000000000e+000
9033:0.0000000000000000e+000
9034:0.0000000000000000e+000
9035:0.0000000000000000e+000
9036:0.0000000000000000e+000
9037:0.0000000000000000e+000
9038:0.0000000000000000e+000
9039:0.0000000000000000e+000
9040:0.0000000000000000e+000
9041:0.0000000000000000e+000
9042:0.0000000000000000e+000
9043:0.0000000000000000e+000
9044:0.0000000000000000e+000
9045:0.0000000000000000e+000
9046:0.0000000000000000e+000
9047:0.0000000000000000e+000
9048:0.0000000000000000e+000
9049:0.0000000000000000e+000
9050:0.0000000000000000e+000
9051:0.0000000000000000e+000
9052:0.0000000000000000e+000
9053:0.0000000000000000e+000
9054:0.0000000000000000e+000
9055:0.0000000000000000e+000
9056:0.0000000000000000e+000
9057:0.0000000000000000e+000
9058:0.0000000000000000e+000
9059:0.0000000000000000e+000
9060:0.0000000000000000e+000
9061:0.0000000000000000e+000
9062:0.0000000000000000e+000
9063:0.0000000000000000e+000
9064:0.0000000000000000e+000
9065:0.0000000000000000e+000
9066:0.0000000000000000e+000
9067:0.0000000000000000e+000
9068:0.0000000000000000e+000
9069:0.0000000000000000e+000
9070:0.0000000000000000e+000
9071:0.0000000000000000e+000
9072:0.0000000000000000e+000
9073:0.0000000000000000e+000
9074:0.0000000000000000e+000
9075:0.0000000000000000e+000
9076:0.0000000000000000e+000
9077:0.0000000000000000e+000
9078:0.0000000000000000e+000
9079:0.0000000000000000e+000
9080:0.0000000000000000e+000
9081:0.0000000000000000e+000
9082:0.0000000000000000e+000
9083:0.0000000000000000e+000
9084:0.0000000000000000e+000
9085:0.0000000000000000e+000
9086:0.0000000000000000e+000
9087:0.0000000000000000e+000
9088:0.0000000000000000e+000
9089:0.0000000000000000e+000
9090:0.0000000000000000e+000
9091:0.0000000000000000e+000
9092:0.0000000000000000e+000
9093:0.0000000000000000e+000
9094:0.0000000000000000e+000
9095:0.0000000000000000e+000
9096:0.0000000000000000e+000
9097:0.0000000000000000e+000
9098:0.0000000000000000e+000
9099:0.0000000000000000e+000
9100:0.0000000000000000e+000
9101:0.0000000000000000e+000
9102:0.0000000000000000e+000
9103:0.0000000000000000e+000
9104:0.0000000000000000e+000
9105:0.0000000000000000e+000
9106:0.0000000000000000e+000
9107:0.0000000000000000e+000
9108:0.0000000000000000e+000
9109:0.0000000000000000e+000
9110:0.0000000000000000e+000
9111:0.0000000000000000e+000
9112:0.0000000000000000e+000
9113:0.0000000000000000e+000
9114:0.0000000000000000e+000
9115:0.0000000000000000e+000
9116:0.0000000000000000e+000
9117:0.0000000000000000e+000
9118:0.0000000000000000e+000
9119:0.0000000000000000e+000
9120:0.0000000000000000e+000
9121:0.0000000000000000e+000
9122:0.0000000000000000e+000
9123:0.0000000000000000e+000
9124:0.0000000000000000e+000
9125:0.0000000000000000e+000
9126:0.0000000000000000e+000
9127:0.0000000000000000e+000
9128:0.0000000000000000e+000
9129:0.0000000000000000e+000
9130:0.0000000000000000e+000
9131:0.0000000000000000e+000
9132:0.0000000000000000e+000
9133:0.0000000000000000e+000
9134:0.0000000000000000e+000
9135:0.0000000000000000e+000
9136:0.0000000000000000e+000
9137:0.0000000000000000e+000
9138:0.0000000000000000e+000
9139:0.0000000000000000e+000
9140:0.0000000000000000e+000
9141:0.0000000000000000e+000
9142:0.0000000000000000e+000
9143:0.0000000000000000e+000
9144:0.0000000000000000e+000
9145:0.0000000000000000e+000
9146:0.0000000000000000e+000
9147:0.0000000000000000e+000
9148:0.0000000000000000e+000
9149:0.0000000000000000e+000
9150:0.0000000000000000e+000
9151:0.0000000000000000e+000
9152:0.0000000000000000e+000
9153:0.0000000000000000e+000
9154:0.0000000000000000e+000
9155:0.0000000000000000e+000
9156:0.0000000000000000e+000
9157:0.0000000000000000e+000
9158:0.0000000000000000e+000
9159:0.0000000000000000e+000
9160:0.0000000000000000e+000
9161:0.0000000000000000e+000
9162:0.0000000000000000e+000
9163:0.0000000000000000e+000
9164:0.0000000000000000e+000
9165:0.0000000000000000e+000
9166:0.0000000000000000e+000
9167:0.0000000000000000e+000
9168:0.0000000000000000e+000
9169:0.0000000000000000e+000
9170:0.0000000000000000e+000
9171:0.0000000000000000e+000
9172:0.0000000000000000e+000
9173:0.0000000000000000e+000
9174:0.0000000000000000e+000
9175:0.0000000000000000e+000
9176:0.0000000000000000e+000
9177:0.0000000000000000e+000
9178:0.0000000000000000e+000
9179:0.0000000000000000e+000
9180:0.0000000000000000e+000
9181:0.0000000000000000e+000
9182:0.0000000000000000e+000
9183:0.0000000000000000e+000
9184:0.0000000000000000e+000
9185:0.0000000000000000e+000
9186:0.0000000000000000e+000
9187:0.0000000000000000e+000
9188:0.0000000000000000e+000
9189:0.0000000000000000e+000
9190:0.0000000000000000e+000
9191:0.0000000000000000e+000
9192:0.0000000000000000e+000
9193:0.0000000000000000e+000
9194:0.0000000000000000e+000
9195:0.0000000000000000e+000
9196:0.0000000000000000e+000
9197:0.0000000000000000e+000
9198:0.0000000000000000e+000
9199:0.0000000000000000e+000
9200:0.0000000000000000e+000
9201:0.0000000000000000e+000
9202:0.0000000000000000e+000
9203:0.0000000000000000e+000
9204:0.0000000000000000e+000
9205:0.0000000000000000e+000
9206:0.0000000000000000e+000
9207:0.0000000000000000e+000
9208:0.0000000000000000e+000
9209:0.0000000000000000e+000
9210:0.0000000000000000e+000
9211:0.0000000000000000e+000
9212:0.0000000000000000e+000
9213:0.0000000000000000e+000
9214:0.0000000000000000e+000
9215:0.0000000000000000e+000
9216:0.0000000000000000e+000
9217:0.0000000000000000e+000
9218:0.0000000000000000e+000
9219:0.0000000000000000e+000
9220:0.0000000000000000e+000
9221:0.0000000000000000e+000
9222:0.0000000000000000e+000
9223:0.0000000000000000e+000
9224:0.0000000000000000e+000
9225:0.0000000000000000e+000
9226:0.0000000000000000e+000
9227:0.0000000000000000e+000
9228:0.0000000000000000e+000
9229:0.0000000000000000e+000
9230:0.0000000000000000e+000
9231:0.0000000000000000e+000
9232:0.0000000000000000e+000
9233:0.0000000000000000e+000
9234:0.0000000000000000e+000
9235:0.0000000000000000e+000
9236:0.0000000000000000e+000
9237:0.0000000000000000e+000
9238:0.0000000000000000e+000
9239:0.0000000000000000e+000
9240:0.0000000000000000e+000
9241:0.0000000000000000e+000
9242:0.0000000000000000e+000
9243:0.0000000000000000e+000
9244:0.0000000000000000e+000
9245:0.0000000000000000e+000
9246:0.0000000000000000e+000
9247:0.0000000000000000e+000
9248:0.0000000000000000e+000
9249:0.0000000000000000e+000
9250:0.0000000000000000e+000
9251:0.0000000000000000e+000
9252:0.0000000000000000e+000
9253:0.0000000000000000e+000
9254:0.0000000000000000e+000
9255:0.0000000000000000e+000
9256:0.0000000000000000e+000
9257:0.0000000000000000e+000
9258:0.0000000000000000e+000
9259:0.0000000000000000e+000
9260:0.0000000000000000e+000
9261:0.0000000000000000e+000
9262:0.0000000000000000e+000
9263:0.0000000000000000e+000
9264:0.0000000000000000e+000
9265:0.0000000000000000e+000
9266:0.0000000000000000e+000
9267:0.0000000000000000e+000
9268:0.0000000000000000e+000
9269:0.0000000000000000e+000
9270:0.0000000000000000e+000
9271:0.0000000000000000e+000
9272:0.0000000000000000e+000
9273:0.0000000000000000e+000
9274:0.0000000000000000e+000
9275:0.0000000000000000e+000
9276:0.0000000000000000e+000
9277:0.0000000000000000e+000
9278:0.0000000000000000e+000
9279:0.0000000000000000e+000
9280:0.0000000000000000e+000
9281:0.0000000000000000e+000
9282:0.0000000000000000e+000
9283:0.0000000000000000e+000
9284:0.0000000000000000e+000
9285:0.0000000000000000e+000
9286:0.0000000000000000e+000
9287:0.0000000000000000e+000
9288:0.0000000000000000e+000
9289:0.0000000000000000e+000
9290:0.0000000000000000e+000
9291:0.0000000000000000e+000
9292:0.0000000000000000e+000
9293:0.0000000000000000e+000
9294:0.0000000000000000e+000
9295:0.0000000000000000e+000
9296:0.0000000000000000e+000
9297:0.0000000000000000e+000
9298:0.0000000000000000e+000
9299:0.0000000000000000e+000
9300:0.0000000000000000e+000
9301:0.0000000000000000e+000
9302:0.0000000000000000e+000
9303:0.0000000000000000e+000
9304:0.0000000000000000e+000
9305:0.0000000000000000e+000
9306:0.0000000000000000e+000
9307:0.0000000000000000e+000
9308:0.0000000000000000e+000
9309:0.0000000000000000e+000
9310:0.0000000000000000e+000
9311:0.0000000000000000e+000
9312:0.0000000000000000e+000
9313:0.0000000000000000e+000
9314:0.0000000000000000e+000
9315:0.0000000000000000e+000
9316:0.0000000000000000e+000
9317:0.0000000000000000e+000
9318:0.0000000000000000e+000
9319:0.0000000000000000e+000
9320:0.0000000000000000e+000
9321:0.0000000000000000e+000
9322:0.0000000000000000e+000
9323:0.0000000000000000e+000
9324:0.0000000000000000e+000
9325:0.0000000000000000e+000
9326:0.0000000000000000e+000
9327:0.0000000000000000e+000
9328:0.0000000000000000e+000
9329:0.0000000000000000e+000
9330:0.0000000000000000e+000
9331:0.0000000000000000e+000
9332:0.0000000000000000e+000
9333:0.0000000000000000e+000
9334:0.0000000000000000e+000
9335:0.0000000000000000e+000
9336:0.0000000000000000e+000
9337:0.0000000000000000e+000
9338:0.0000000000000000e+000
9339:0.0000000000000000e+000
9340:0.0000000000000000e+000
9341:0.0000000000000000e+000
9342:0.0000000000000000e+000
9343:0.0000000000000000e+000
9344:0.0000000000000000e+000
9345:0.0000000000000000e+000
9346:0.0000000000000000e+000
9347:0.0000000000000000e+000
9348:0.0000000000000000e+000
9349:0.0000000000000000e+000
9350:0.0000000000000000e+000
9351:0.0000000000000000e+000
9352:0.0000000000000000e+000
9353:0.0000000000000000e+000
9354:0.0000000000000000e+000
9355:0.0000000000000000e+000
9356:0.0000000000000000e+000
9357:0.0000000000000000e+000
9358:0.0000000000000000e+000
9359:0.0000000000000000e+000
9360:0.0000000000000000e+000
9361:0.0000000000000000e+000
9362:0.0000000000000000e+000
9363:0.0000000000000000e+000
9364:0.0000000000000000e+000
9365:0.0000000000000000e+000
9366:0.0000000000000000e+000
9367:0.0000000000000000e+000
9368:0.0000000000000000e+000
9369:0.0000000000000000e+000
9370:0.0000000000000000e+000
9371:0.0000000000000000e+000
9372:0.0000000000000000e+000
9373:0.0000000000000000e+000
9374:0.0000000000000000e+000
9375:0.0000000000000000e+000
9376:0.0000000000000000e+000
9377:0.0000000000000000e+000
9378:0.0000000000000000e+000
9379:0.0000000000000000e+000
9380:0.0000000000000000e+000
9381:0.0000000000000000e+000
9382:0.0000000000000000e+000
9383:0.0000000000000000e+000
9384:0.0000000000000000e+000
9385:0.0000000000000000e+000
9386:0.0000000000000000e+000
9387:0.0000000000000000e+000
9388:0.0000000000000000e+000
9389:0.0000000000000000e+000
9390:0.0000000000000000e+000
9391:0.0000000000000000e+000
9392:0.0000000000000000e+000
9393:0.0000000000000000e+000
9394:0.0000000000000000e+000
9395:0.0000000000000000e+000
9396:0.0000000000000000e+000
9397:0.0000000000000000e+000
9398:0.0000000000000000e+000
9399:0.0000000000000000e+000
9400:0.0000000000000000e+000
9401:0.0000000000000000e+000
9402:0.0000000000000000e+000
9403:0.0000000000000000e+000
9404:0.0000000000000000e+000
9405:0.0000000000000000e+000
9406:0.0000000000000000e+000
9407:0.0000000000000000e+000
9408:0.0000000000000000e+000
9409:0.0000000000000000e+000
9410:0.0000000000000000e+000
9411:0.0000000000000000e+000
9412:0.0000000000000000e+000
9413:0.0000000000000000e+000
9414:0.0000000000000000e+000
9415:0.0000000000000000e+000
9416:0.0000000000000000e+000
9417:0.0000000000000000e+000
9418:0.0000000000000000e+000
9419:0.0000000000000000e+000
9420:0.0000000000000000e+000
9421:0.0000000000000000e+000
9422:0.0000000000000000e+000
9423:0.0000000000000000e+000
9424:0.0000000000000000e+000
9425:0.0000000000000000e+000
9426:0.0000000000000000e+000
9427:0.0000000000000000e+000
9428:0.0000000000000000e+000
9429:0.0000000000000000e+000
9430:0.0000000000000000e+000
9431:0.0000000000000000e+000
9432:0.0000000000000000e+000
9433:0.0000000000000000e+000
9434:0.0000000000000000e+000
9435:0.0000000000000000e+000
9436:0.0000000000000000e+000
9437:0.0000000000000000e+000
9438:0.0000000000000000e+000
9439:0.0000000000000000e+000
9440:0.0000000000000000e+000
9441:0.0000000000000000e+000
9442:0.0000000000000000e+000
9443:0.0000000000000000e+000
9444:0.0000000000000000e+000
9445:0.0000000000000000e+000
9446:0.0000000000000000e+000
9447:0.0000000000000000e+000
9448:0.0000000000000000e+000
9449:0.0000000000000000e+000
9450:0.0000000000000000e+000
9451:0.0000000000000000e+000
9452:0.0000000000000000e+000
9453:0.0000000000000000e+000
9454:0.0000000000000000e+000
9455:0.0000000000000000e+000
9456:0.0000000000000000e+000
9457:0.0000000000000000e+000
9458:0.0000000000000000e+000
9459:0.0000000000000000e+000
9460:0.0000000000000000e+000
9461:0.0000000000000000e+000
9462:0.0000000000000000e+000
9463:0.0000000000000000e+000
9464:0.0000000000000000e+000
9465:0.0000000000000000e+000
9466:0.0000000000000000e+000
9467:0.0000000000000000e+000
9468:0.0000000000000000e+000
9469:0.0000000000000000e+000
9470:0.0000000000000000e+000
9471:0.0000000000000000e+000
9472:0.0000000000000000e+000
9473:0.0000000000000000e+000
9474:0.0000000000000000e+000
9475:0.0000000000000000e+000
9476:0.0000000000000000e+000
9477:0.0000000000000000e+000
9478:0.0000000000000000e+000
9479:0.0000000000000000e+000
9480:0.0000000000000000e+000
9481:0.0000000000000000e+000
9482:0.0000000000000000e+000
9483:0.0000000000000000e+000
9484:0.0000000000000000e+000
9485:0.0000000000000000e+000
9486:0.0000000000000000e+000
9487:0.0000000000000000e+000
9488:0.0000000000000000e+000
9489:0.0000000000000000e+000
9490:0.0000000000000000e+000
9491:0.0000000000000000e+000
9492:0.0000000000000000e+000
9493:0.0000000000000000e+000
9494:0.0000000000000000e+000
9495:0.0000000000000000e+000
9496:0.0000000000000000e+000
9497:0.0000000000000000e+000
9498:0.0000000000000000e+000
9499:0.0000000000000000e+000
9500:0.0000000000000000e+000
9501:0.0000000000000000e+000
9502:0.0000000000000000e+000
9503:0.0000000000000000e+000
9504:0.0000000000000000e+000
9505:0.0000000000000000e+000
9506:0.0000000000000000e+000
9507:0.0000000000000000e+000
9508:0.0000000000000000e+000
9509:0.0000000000000000e+000
9510:0.0000000000000000e+000
9511:0.0000000000000000e+000
9512:0.0000000000000000e+000
9513:0.0000000000000000e+000
9514:0.0000000000000000e+000
9515:0.0000000000000000e+000
9516:0.0000000000000000e+000
9517:0.0000000000000000e+000
9518:0.0000000000000000e+000
9519:0.0000000000000000e+000
9520:0.0000000000000000e+000
9521:0.0000000000000000e+000
9522:0.0000000000000000e+000
9523:0.0000000000000000e+000
9524:0.0000000000000000e+000
9525:0.0000000000000000e+000
9526:0.0000000000000000e+000
9527:0.0000000000000000e+000
9528:0.0000000000000000e+000
9529:0.0000000000000000e+000
9530:0.0000000000000000e+000
9531:0.0000000000000000e+000
9532:0.0000000000000000e+000
9533:0.0000000000000000e+000
9534:0.0000000000000000e+000
9535:0.0000000000000000e+000
9536:0.0000000000000000e+000
9537:0.0000000000000000e+000
9538:0.0000000000000000e+000
9539:0.0000000000000000e+000
9540:0.0000000000000000e+000
9541:0.0000000000000000e+000
9542:0.0000000000000000e+000
9543:0.0000000000000000e+000
9544:0.0000000000000000e+000
9545:0.0000000000000000e+000
9546:0.0000000000000000e+000
9547:0.0000000000000000e+000
9548:0.0000000000000000e+000
9549:0.0000000000000000e+000
9550:0.0000000000000000e+000
9551:0.0000000000000000e+000
9552:0.0000000000000000e+000
9553:0.0000000000000000e+000
9554:0.0000000000000000e+000
9555:0.0000000000000000e+000
9556:0.0000000000000000e+000
9557:0.0000000000000000e+000
9558:0.0000000000000000e+000
9559:0.0000000000000000e+000
9560:0.0000000000000000e+000
9561:0.0000000000000000e+000
9562:0.0000000000000000e+000
9563:0.0000000000000000e+000
9564:0.0000000000000000e+000
9565:0.0000000000000000e+000
9566:0.0000000000000000e+000
9567:0.0000000000000000e+000
9568:0.0000000000000000e+000
9569:0.0000000000000000e+000
9570:0.0000000000000000e+000
9571:0.0000000000000000e+000
9572:0.0000000000000000e+000
9573:0.0000000000000000e+000
9574:0.0000000000000000e+000
9575:0.0000000000000000e+000
9576:0.0000000000000000e+000
9577:0.0000000000000000e+000
9578:0.0000000000000000e+000
9579:0.0000000000000000e+000
9580:0.0000000000000000e+000
9581:0.0000000000000000e+000
9582:0.0000000000000000e+000
9583:0.0000000000000000e+000
9584:0.0000000000000000e+000
9585:0.0000000000000000e+000
9586:0.0000000000000000e+000
9587:0.0000000000000000e+000
9588:0.0000000000000000e+000
9589:0.0000000000000000e+000
9590:0.0000000000000000e+000
9591:0.0000000000000000e+000
9592:0.0000000000000000e+000
9593:0.0000000000000000e+000
9594:0.0000000000000000e+000
9595:0.0000000000000000e+000
9596:0.0000000000000000e+000
9597:0.0000000000000000e+000
9598:0.0000000000000000e+000
9599:0.0000000000000000e+000
9600:0.0000000000000000e+000
9601:0.0000000000000000e+000
9602:0.0000000000000000e+000
9603:0.0000000000000000e+000
9604:0.0000000000000000e+000
9605:0.0000000000000000e+000
9606:0.0000000000000000e+000
9607:0.0000000000000000e+000
9608:0.0000000000000000e+000
9609:0.0000000000000000e+000
9610:0.0000000000000000e+000
9611:0.0000000000000000e+000
9612:0.0000000000000000e+000
9613:0.0000000000000000e+000
9614:0.0000000000000000e+000
9615:0.0000000000000000e+000
9616:0.0000000000000000e+000
9617:0.0000000000000000e+000
9618:0.0000000000000000e+000
9619:0.0000000000000000e+000
9620:0.0000000000000000e+000
9621:0.0000000000000000e+000
9622:0.0000000000000000e+000
9623:0.0000000000000000e+000
9624:0.0000000000000000e+000
9625:0.0000000000000000e+000
9626:0.0000000000000000e+000
9627:0.0000000000000000e+000
9628:0.0000000000000000e+000
9629:0.0000000000000000e+000
9630:0.0000000000000000e+000
9631:0.0000000000000000e+000
9632:0.0000000000000000e+000
9633:0.0000000000000000e+000
9634:0.0000000000000000e+000
9635:0.0000000000000000e+000
9636:0.0000000000000000e+000
9637:0.0000000000000000e+000
9638:0.0000000000000000e+000
9639:0.0000000000000000e+000
9640:0.0000000000000000e+000
9641:0.0000000000000000e+000
9642:0.0000000000000000e+000
9643:0.0000000000000000e+000
9644:0.0000000000000000e+000
9645:0.0000000000000000e+000
9646:0.0000000000000000e+000
9647:0.0000000000000000e+000
9648:0.0000000000000000e+000
9649:0.0000000000000000e+000
9650:0.0000000000000000e+000
9651:0.0000000000000000e+000
9652:0.0000000000000000e+000
9653:0.0000000000000000e+000
9654:0.0000000000000000e+000
9655:0.0000000000000000e+000
9656:0.0000000000000000e+000
9657:0.0000000000000000e+000
9658:0.0000000000000000e+000
9659:0.0000000000000000e+000
9660:0.0000000000000000e+000
9661:0.0000000000000000e+000
9662:0.0000000000000000e+000
9663:0.0000000000000000e+000
9664:0.0000000000000000e+000
9665:0.0000000000000000e+000
9666:0.0000000000000000e+000
9667:0.0000000000000000e+000
9668:0.0000000000000000e+000
9669:0.0000000000000000e+000
9670:0.0000000000000000e+000
9671:0.0000000000000000e+000
9672:0.0000000000000000e+000
9673:0.0000000000000000e+000
9674:0.0000000000000000e+000
9675:0.0000000000000000e+000
9676:0.0000000000000000e+000
9677:0.0000000000000000e+000
9678:0.0000000000000000e+000
9679:0.0000000000000000e+000
9680:0.0000000000000000e+000
9681:0.0000000000000000e+000
9682:0.0000000000000000e+000
9683:0.0000000000000000e+000
9684:0.0000000000000000e+000
9685:0.0000000000000000e+000
9686:0.0000000000000000e+000
9687:0.0000000000000000e+000
9688:0.0000000000000000e+000
9689:0.0000000000000000e+000
9690:0.0000000000000000e+000
9691:0.0000000000000000e+000
9692:0.0000000000000000e+000
9693:0.0000000000000000e+000
9694:0.0000000000000000e+000
9695:0.0000000000000000e+000
9696:0.0000000000000000e+000
9697:0.0000000000000000e+000
9698:0.0000000000000000e+000
9699:0.0000000000000000e+000
9700:0.0000000000000000e+000
9701:0.0000000000000000e+000
9702:0.0000000000000000e+000
9703:0.0000000000000000e+000
9704:0.0000000000000000e+000
9705:0.0000000000000000e+000
9706:0.0000000000000000e+000
9707:0.0000000000000000e+000
9708:0.0000000000000000e+000
9709:0.0000000000000000e+000
9710:0.0000000000000000e+000
9711:0.0000000000000000e+000
9712:0.0000000000000000e+000
9713:0.0000000000000000e+000
9714:0.0000000000000000e+000
9715:0.0000000000000000e+000
9716:0.0000000000000000e+000
9717:0.0000000000000000e+000
9718:0.0000000000000000e+000
9719:0.0000000000000000e+000
9720:0.0000000000000000e+000
9721:0.0000000000000000e+000
9722:0.0000000000000000e+000
9723:0.0000000000000000e+000
9724:0.0000000000000000e+000
9725:0.0000000000000000e+000
9726:0.0000000000000000e+000
9727:0.0000000000000000e+000
9728:0.0000000000000000e+000
9729:0.0000000000000000e+000
9730:0.0000000000000000e+000
9731:0.0000000000000000e+000
9732:0.0000000000000000e+000
9733:0.0000000000000000e+000
9734:0.0000000000000000e+000
9735:0.0000000000000000e+000
9736:0.0000000000000000e+000
9737:0.0000000000000000e+000
9738:0.0000000000000000e+000
9739:0.0000000000000000e+000
9740:0.0000000000000000e+000
9741:0.0000000000000000e+000
9742:0.0000000000000000e+000
9743:0.0000000000000000e+000
9744:0.0000000000000000e+000
9745:0.0000000000000000e+000
9746:0.0000000000000000e+000
9747:0.0000000000000000e+000
9748:0.0000000000000000e+000
9749:0.0000000000000000e+000
9750:0.0000000000000000e+000
9751:0.0000000000000000e+000
9752:0.0000000000000000e+000
9753:0.0000000000000000e+000
9754:0.0000000000000000e+000
9755:0.0000000000000000e+000
9756:0.0000000000000000e+000
9757:0.0000000000000000e+000
9758:0.0000000000000000e+000
9759:0.0000000000000000e+000
9760:0.0000000000000000e+000
9761:0.0000000000000000e+000
9762:0.0000000000000000e+000
9763:0.0000000000000000e+000
9764:0.0000000000000000e+000
9765:0.0000000000000000e+000
9766:0.0000000000000000e+000
9767:0.0000000000000000e+000
9768:0.0000000000000000e+000
9769:0.0000000000000000e+000
9770:0.0000000000000000e+000
9771:0.0000000000000000e+000
9772:0.0000000000000000e+000
9773:0.0000000000000000e+000
9774:0.0000000000000000e+000
9775:0.0000000000000000e+000
9776:0.0000000000000000e+000
9777:0.0000000000000000e+000
9778:0.0000000000000000e+000
9779:0.0000000000000000e+000
9780:0.0000000000000000e+000
9781:0.0000000000000000e+000
9782:0.0000000000000000e+000
9783:0.0000000000000000e+000
9784:0.0000000000000000e+000
9785:0.0000000000000000e+000
9786:0.0000000000000000e+000
9787:0.0000000000000000e+000
9788:0.0000000000000000e+000
9789:0.0000000000000000e+000
9790:0.0000000000000000e+000
9791:0.0000000000000000e+000
9792:0.0000000000000000e+000
9793:0.0000000000000000e+000
9794:0.0000000000000000e+000
9795:0.0000000000000000e+000
9796:0.0000000000000000e+000
9797:0.0000000000000000e+000
9798:0.0000000000000000e+000
9799:0.0000000000000000e+000
9800:0.0000000000000000e+000
9801:0.0000000000000000e+000
9802:0.0000000000000000e+000
9803:0.0000000000000000e+000
9804:0.0000000000000000e+000
9805:0.0000000000000000e+000
9806:0.0000000000000000e+000
9807:0.0000000000000000e+000
9808:0.0000000000000000e+000
9809:0.0000000000000000e+000
9810:0.0000000000000000e+000
9811:0.0000000000000000e+000
9812:0.0000000000000000e+000
9813:0.0000000000000000e+000
9814:0.0000000000000000e+000
9815:0.0000000000000000e+000
9816:0.0000000000000000e+000
9817:0.0000000000000000e+000
9818:0.0000000000000000e+000
9819:0.0000000000000000e+000
9820:0.0000000000000000e+000
9821:0.0000000000000000e+000
9822:0.0000000000000000e+000
9823:0.0000000000000000e+000
9824:0.0000000000000000e+000
9825:0.0000000000000000e+000
9826:0.0000000000000000e+000
9827:0.0000000000000000e+000
9828:0.0000000000000000e+000
9829:0.0000000000000000e+000
9830:0.0000000000000000e+000
9831:0.0000000000000000e+000
9832:0.0000000000000000e+000
9833:0.0000000000000000e+000
9834:0.0000000000000000e+000
9835:0.0000000000000000e+000
9836:0.0000000000000000e+000
9837:0.0000000000000000e+000
9838:0.0000000000000000e+000
9839:0.0000000000000000e+000
9840:0.0000000000000000e+000
9841:0.0000000000000000e+000
9842:0.0000000000000000e+000
9843:0.0000000000000000e+000
9844:0.0000000000000000e+000
9845:0.0000000000000000e+000
9846:0.0000000000000000e+000
9847:0.0000000000000000e+000
9848:0.0000000000000000e+000
9849:0.0000000000000000e+000
9850:0.0000000000000000e+000
9851:0.0000000000000000e+000
9852:0.0000000000000000e+000
9853:0.0000000000000000e+000
9854:0.0000000000000000e+000
9855:0.0000000000000000e+000
9856:0.0000000000000000e+000
9857:0.0000000000000000e+000
9858:0.0000000000000000e+000
9859:0.0000000000000000e+000
9860:0.0000000000000000e+000
9861:0.0000000000000000e+000
9862:0.0000000000000000e+000
9863:0.0000000000000000e+000
9864:0.0000000000000000e+000
9865:0.0000000000000000e+000
9866:0.0000000000000000e+000
9867:0.0000000000000000e+000
9868:0.0000000000000000e+000
9869:0.0000000000000000e+000
9870:0.0000000000000000e+000
9871:0.0000000000000000e+000
9872:0.0000000000000000e+000
9873:0.0000000000000000e+000
9874:0.0000000000000000e+000
9875:0.0000000000000000e+000
9876:0.0000000000000000e+000
9877:0.0000000000000000e+000
9878:0.0000000000000000e+000
9879:0.0000000000000000e+000
9880:0.0000000000000000e+000
9881:0.0000000000000000e+000
9882:0.0000000000000000e+000
9883:0.0000000000000000e+000
9884:0.0000000000000000e+000
9885:0.0000000000000000e+000
9886:0.0000000000000000e+000
9887:0.0000000000000000e+000
9888:0.0000000000000000e+000
9889:0.0000000000000000e+000
9890:0.0000000000000000e+000
9891:0.0000000000000000e+000
9892:0.0000000000000000e+000
9893:0.0000000000000000e+000
9894:0.0000000000000000e+000
9895:0.0000000000000000e+000
9896:0.0000000000000000e+000
9897:0.0000000000000000e+000
9898:0.0000000000000000e+000
9899:0.0000000000000000e+000
9900:0.0000000000000000e+000
9901:0.0000000000000000e+000
9902:0.0000000000000000e+000
9903:0.0000000000000000e+000
9904:0.0000000000000000e+000
9905:0.0000000000000000e+000
9906:0.0000000000000000e+000
9907:0.0000000000000000e+000
9908:0.0000000000000000e+000
9909:0.0000000000000000e+000
9910:0.0000000000000000e+000
9911:0.0000000000000000e+000
9912:0.0000000000000000e+000
9913:0.0000000000000000e+000
9914:0.0000000000000000e+000
9915:0.0000000000000000e+000
9916:0.0000000000000000e+000
9917:0.0000000000000000e+000
9918:0.0000000000000000e+000
9919:0.0000000000000000e+000
9920:0.0000000000000000e+000
9921:0.0000000000000000e+000
9922:0.0000000000000000e+000
9923:0.0000000000000000e+000
9924:0.0000000000000000e+000
9925:0.0000000000000000e+000
9926:0.0000000000000000e+000
9927:0.0000000000000000e+000
9928:0.0000000000000000e+000
9929:0.0000000000000000e+000
9930:0.0000000000000000e+000
9931:0.0000000000000000e+000
9932:0.0000000000000000e+000
9933:0.0000000000000000e+000
9934:0.0000000000000000e+000
9935:0.0000000000000000e+000
9936:0.0000000000000000e+000
9937:0.0000000000000000e+000
9938:0.0000000000000000e+000
9939:0.0000000000000000e+000
9940:0.0000000000000000e+000
9941:0.0000000000000000e+000
9942:0.0000000000000000e+000
9943:0.0000000000000000e+000
9944:0.0000000000000000e+000
9945:0.0000000000000000e+000
9946:0.0000000000000000e+000
9947:0.0000000000000000e+000
9948:0.0000000000000000e+000
9949:0.0000000000000000e+000
9950:0.0000000000000000e+000
9951:0.0000000000000000e+000
9952:0.0000000000000000e+000
9953:0.0000000000000000e+000
9954:0.0000000000000000e+000
9955:0.0000000000000000e+000
9956:0.0000000000000000e+000
9957:0.0000000000000000e+000
9958:0.0000000000000000e+000
9959:0.0000000000000000e+000
9960:0.0000000000000000e+000
9961:0.0000000000000000e+000
9962:0.0000000000000000e+000
9963:0.0000000000000000e+000
9964:0.0000000000000000e+000
9965:0.0000000000000000e+000
9966:0.0000000000000000e+000
9967:0.0000000000000000e+000
9968:0.0000000000000000e+000
9969:0.0000000000000000e+000
9970:0.0000000000000000e+000
9971:0.0000000000000000e+000
9972:0.0000000000000000e+000
9973:0.0000000000000000e+000
9974:0.0000000000000000e+000
9975:0.0000000000000000e+000
9976:0.0000000000000000e+000
9977:0.0000000000000000e+000
9978:0.0000000000000000e+000
9979:0.0000000000000000e+000
9980:0.0000000000000000e+000
9981:0.0000000000000000e+000
9982:0.0000000000000000e+000
9983:0.0000000000000000e+000
9984:0.0000000000000000e+000
9985:0.0000000000000000e+000
9986:0.0000000000000000e+000
9987:0.0000000000000000e+000
9988:0.0000000000000000e+000
9989:0.0000000000000000e+000
9990:0.0000000000000000e+000
9991:0.0000000000000000e+000
9992:0.0000000000000000e+000
9993:0.0000000000000000e+000
9994:0.0000000000000000e+000
9995:0.0000000000000000e+000
9996:0.0000000000000000e+000
9997:0.0000000000000000e+000
9998:0.0000000000000000e+000
9999:0.0000000000000000e+000
10000:0.0000000000000000e+000
10001:0.0000000000000000e+000
10002:0.0000000000000000e+000
10003:0.0000000000000000e+000
10004:0.0000000000000000e+000
10005:0.0000000000000000e+000
10006:0.0000000000000000e+000
10007:0.0000000000000000e+000
10008:0.0000000000000000e+000
10009:0.0000000000000000e+000
10010:0.0000000000000000e+000
10011:0.0000000000000000e+000
10012:0.0000000000000000e+000
10013:0.0000000000000000e+000
10014:0.0000000000000000e+000
10015:0.0000000000000000e+000
10016:0.0000000000000000e+000
10017:0.0000000000000000e+000
10018:0.0000000000000000e+000
10019:0.0000000000000000e+000
10020:0.0000000000000000e+000
10021:0.0000000000000000e+000
10022:0.0000000000000000e+000
10023:0.0000000000000000e+000
10024:0.0000000000000000e+000
10025:0.0000000000000000e+000
10026:0.0000000000000000e+000
10027:0.0000000000000000e+000
10028:0.0000000000000000e+000
10029:0.0000000000000000e+000
10030:0.0000000000000000e+000
10031:0.0000000000000000e+000
10032:0.0000000000000000e+000
10033:0.0000000000000000e+000
10034:0.0000000000000000e+000
10035:0.0000000000000000e+000
10036:0.0000000000000000e+000
10037:0.0000000000000000e+000
10038:0.0000000000000000e+000
10039:0.0000000000000000e+000
10040:0.0000000000000000e+000
10041:0.0000000000000000e+000
10042:0.0000000000000000e+000
10043:0.0000000000000000e+000
10044:0.0000000000000000e+000
10045:0.0000000000000000e+000
10046:0.0000000000000000e+000
10047:0.0000000000000000e+000
10048:0.0000000000000000e+000
10049:0.0000000000000000e+000
10050:0.0000000000000000e+000
10051:0.0000000000000000e+000
10052:0.0000000000000000e+000
10053:0.0000000000000000e+000
10054:0.0000000000000000e+000
10055:0.0000000000000000e+000
10056:0.0000000000000000e+000
10057:0.0000000000000000e+000
10058:0.0000000000000000e+000
10059:0.0000000000000000e+000
10060:0.0000000000000000e+000
10061:0.0000000000000000e+000
10062:0.0000000000000000e+000
10063:0.0000000000000000e+000
10064:0.0000000000000000e+000
10065:0.0000000000000000e+000
10066:0.0000000000000000e+000
10067:0.0000000000000000e+000
10068:0.0000000000000000e+000
10069:0.0000000000000000e+000
10070:0.0000000000000000e+000
10071:0.0000000000000000e+000
10072:0.0000000000000000e+000
10073:0.0000000000000000e+000
10074:0.0000000000000000e+000
10075:0.0000000000000000e+000
10076:0.0000000000000000e+000
10077:0.0000000000000000e+000
10078:0.0000000000000000e+000
10079:0.0000000000000000e+000
10080:0.0000000000000000e+000
10081:0.0000000000000000e+000
10082:0.0000000000000000e+000
10083:0.0000000000000000e+000
10084:0.0000000000000000e+000
10085:0.0000000000000000e+000
10086:0.0000000000000000e+000
10087:0.0000000000000000e+000
10088:0.0000000000000000e+000
10089:0.0000000000000000e+000
10090:0.0000000000000000e+000
10091:0.0000000000000000e+000
10092:0.0000000000000000e+000
10093:0.0000000000000000e+000
10094:0.0000000000000000e+000
10095:0.0000000000000000e+000
10096:0.0000000000000000e+000
10097:0.0000000000000000e+000
10098:0.0000000000000000e+000
10099:0.0000000000000000e+000
10100:0.0000000000000000e+000
10101:0.0000000000000000e+000
10102:0.0000000000000000e+000
10103:0.0000000000000000e+000
10104:0.0000000000000000e+000
10105:0.0000000000000000e+000
10106:0.0000000000000000e+000
10107:0.0000000000000000e+000
10108:0.0000000000000000e+000
10109:0.0000000000000000e+000
10110:0.0000000000000000e+000
10111:0.0000000000000000e+000
10112:0.0000000000000000e+000
10113:0.0000000000000000e+000
10114:0.0000000000000000e+000
10115:0.0000000000000000e+000
10116:0.0000000000000000e+000
10117:0.0000000000000000e+000
10118:0.0000000000000000e+000
10119:0.0000000000000000e+000
10120:0.0000000000000000e+000
10121:0.0000000000000000e+000
10122:0.0000000000000000e+000
10123:0.0000000000000000e+000
10124:0.0000000000000000e+000
10125:0.0000000000000000e+000
10126:0.0000000000000000e+000
10127:0.0000000000000000e+000
10128:0.0000000000000000e+000
10129:0.0000000000000000e+000
10130:0.0000000000000000e+000
10131:0.0000000000000000e+000
10132:0.0000000000000000e+000
10133:0.0000000000000000e+000
10134:0.0000000000000000e+000
10135:0.0000000000000000e+000
10136:0.0000000000000000e+000
10137:0.0000000000000000e+000
10138:0.0000000000000000e+000
10139:0.0000000000000000e+000
10140:0.0000000000000000e+000
10141:0.0000000000000000e+000
10142:0.0000000000000000e+000
10143:0.0000000000000000e+000
10144:0.0000000000000000e+000
10145:0.0000000000000000e+000
10146:0.0000000000000000e+000
10147:0.0000000000000000e+000
10148:0.0000000000000000e+000
10149:0.0000000000000000e+000
10150:0.0000000000000000e+000
10151:0.0000000000000000e+000
10152:0.0000000000000000e+000
10153:0.0000000000000000e+000
10154:0.0000000000000000e+000
10155:0.0000000000000000e+000
10156:0.0000000000000000e+000
10157:0.0000000000000000e+000
10158:0.0000000000000000e+000
10159:0.0000000000000000e+000
10160:0.0000000000000000e+000
10161:0.0000000000000000e+000
10162:0.0000000000000000e+000
10163:0.0000000000000000e+000
10164:0.0000000000000000e+000
10165:0.0000000000000000e+000
10166:0.0000000000000000e+000
10167:0.0000000000000000e+000
10168:0.0000000000000000e+000
10169:0.0000000000000000e+000
10170:0.0000000000000000e+000
10171:0.0000000000000000e+000
10172:0.0000000000000000e+000
10173:0.0000000000000000e+000
10174:0.0000000000000000e+000
10175:0.0000000000000000e+000
10176:0.0000000000000000e+000
10177:0.0000000000000000e+000
10178:0.0000000000000000e+000
10179:0.0000000000000000e+000
10180:0.0000000000000000e+000
10181:0.0000000000000000e+000
10182:0.0000000000000000e+000
10183:0.0000000000000000e+000
10184:0.0000000000000000e+000
10185:0.0000000000000000e+000
10186:0.0000000000000000e+000
10187:0.0000000000000000e+000
10188:0.0000000000000000e+000
10189:0.0000000000000000e+000
10190:0.0000000000000000e+000
10191:0.0000000000000000e+000
10192:0.0000000000000000e+000
10193:0.0000000000000000e+000
10194:0.0000000000000000e+000
10195:0.0000000000000000e+000
10196:0.0000000000000000e+000
10197:0.0000000000000000e+000
10198:0.0000000000000000e+000
10199:0.0000000000000000e+000
10200:0.0000000000000000e+000
10201:0.0000000000000000e+000
10202:0.0000000000000000e+000
10203:0.0000000000000000e+000
10204:0.0000000000000000e+000
10205:0.0000000000000000e+000
10206:0.0000000000000000e+000
10207:0.0000000000000000e+000
10208:0.0000000000000000e+000
10209:0.0000000000000000e+000
10210:0.0000000000000000e+000
10211:0.0000000000000000e+000
10212:0.0000000000000000e+000
10213:0.0000000000000000e+000
10214:0.0000000000000000e+000
10215:0.0000000000000000e+000
10216:0.0000000000000000e+000
10217:0.0000000000000000e+000
10218:0.0000000000000000e+000
10219:0.0000000000000000e+000
10220:0.0000000000000000e+000
10221:0.0000000000000000e+000
10222:0.0000000000000000e+000
10223:0.0000000000000000e+000
10224:0.0000000000000000e+000
10225:0.0000000000000000e+000
10226:0.0000000000000000e+000
10227:0.0000000000000000e+000
10228:0.0000000000000000e+000
10229:0.0000000000000000e+000
10230:0.0000000000000000e+000
10231:0.0000000000000000e+000
10232:0.0000000000000000e+000
10233:0.0000000000000000e+000
10234:0.0000000000000000e+000
10235:0.0000000000000000e+000
10236:0.0000000000000000e+000
10237:0.0000000000000000e+000
10238:0.0000000000000000e+000
10239:0.0000000000000000e+000
10240:0.0000000000000000e+000
10241:0.0000000000000000e+000
10242:0.0000000000000000e+000
10243:0.0000000000000000e+000
10244:0.0000000000000000e+000
10245:0.0000000000000000e+000
10246:0.0000000000000000e+000
10247:0.0000000000000000e+000
10248:0.0000000000000000e+000
10249:0.0000000000000000e+000
10250:0.0000000000000000e+000
10251:0.0000000000000000e+000
10252:0.0000000000000000e+000
10253:0.0000000000000000e+000
10254:0.0000000000000000e+000
10255:0.0000000000000000e+000
10256:0.0000000000000000e+000
10257:0.0000000000000000e+000
10258:0.0000000000000000e+000
10259:0.0000000000000000e+000
10260:0.0000000000000000e+000
10261:0.0000000000000000e+000
10262:0.0000000000000000e+000
10263:0.0000000000000000e+000
10264:0.0000000000000000e+000
10265:0.0000000000000000e+000
10266:0.0000000000000000e+000
10267:0.0000000000000000e+000
10268:0.0000000000000000e+000
10269:0.0000000000000000e+000
10270:0.0000000000000000e+000
10271:0.0000000000000000e+000
10272:0.0000000000000000e+000
10273:0.0000000000000000e+000
10274:0.0000000000000000e+000
10275:0.0000000000000000e+000
10276:0.0000000000000000e+000
10277:0.0000000000000000e+000
10278:0.0000000000000000e+000
10279:0.0000000000000000e+000
10280:0.0000000000000000e+000
10281:0.0000000000000000e+000
10282:0.0000000000000000e+000
10283:0.0000000000000000e+000
10284:0.0000000000000000e+000
10285:0.0000000000000000e+000
10286:0.0000000000000000e+000
10287:0.0000000000000000e+000
10288:0.0000000000000000e+000
10289:0.0000000000000000e+000
10290:0.0000000000000000e+000
10291:0.0000000000000000e+000
10292:0.0000000000000000e+000
10293:0.0000000000000000e+000
10294:0.0000000000000000e+000
10295:0.0000000000000000e+000
10296:0.0000000000000000e+000
10297:0.0000000000000000e+000
10298:0.0000000000000000e+000
10299:0.0000000000000000e+000
10300:0.0000000000000000e+000
10301:0.0000000000000000e+000
10302:0.0000000000000000e+000
10303:0.0000000000000000e+000
10304:0.0000000000000000e+000
10305:0.0000000000000000e+000
10306:0.0000000000000000e+000
10307:0.0000000000000000e+000
10308:0.0000000000000000e+000
10309:0.0000000000000000e+000
10310:0.0000000000000000e+000
10311:0.0000000000000000e+000
10312:0.0000000000000000e+000
10313:0.0000000000000000e+000
10314:0.0000000000000000e+000
10315:0.0000000000000000e+000
10316:0.0000000000000000e+000
10317:0.0000000000000000e+000
10318:0.0000000000000000e+000
10319:0.0000000000000000e+000
10320:0.0000000000000000e+000
10321:0.0000000000000000e+000
10322:0.0000000000000000e+000
10323:0.0000000000000000e+000
10324:0.0000000000000000e+000
10325:0.0000000000000000e+000
10326:0.0000000000000000e+000
10327:0.0000000000000000e+000
10328:0.0000000000000000e+000
10329:0.0000000000000000e+000
10330:0.0000000000000000e+000
10331:0.0000000000000000e+000
10332:0.0000000000000000e+000
10333:0.0000000000000000e+000
10334:0.0000000000000000e+000
10335:0.0000000000000000e+000
10336:0.0000000000000000e+000
10337:0.0000000000000000e+000
10338:0.0000000000000000e+000
10339:0.0000000000000000e+000
10340:0.0000000000000000e+000
10341:0.0000000000000000e+000
10342:0.0000000000000000e+000
10343:0.0000000000000000e+000
10344:0.0000000000000000e+000
10345:0.0000000000000000e+000
10346:0.0000000000000000e+000
10347:0.0000000000000000e+000
10348:0.0000000000000000e+000
10349:0.0000000000000000e+000
10350:0.0000000000000000e+000
10351:0.0000000000000000e+000
10352:0.0000000000000000e+000
10353:0.0000000000000000e+000
10354:0.0000000000000000e+000
10355:0.0000000000000000e+000
10356:0.0000000000000000e+000
10357:0.0000000000000000e+000
10358:0.0000000000000000e+000
10359:0.0000000000000000e+000
10360:0.0000000000000000e+000
10361:0.0000000000000000e+000
10362:0.0000000000000000e+000
10363:0.0000000000000000e+000
10364:0.0000000000000000e+000
10365:0.0000000000000000e+000
10366:0.0000000000000000e+000
10367:0.0000000000000000e+000
10368:0.0000000000000000e+000
10369:0.0000000000000000e+000
10370:0.0000000000000000e+000
10371:0.0000000000000000e+000
10372:0.0000000000000000e+000
10373:0.0000000000000000e+000
10374:0.0000000000000000e+000
10375:0.0000000000000000e+000
10376:0.0000000000000000e+000
10377:0.0000000000000000e+000
10378:0.0000000000000000e+000
10379:0.0000000000000000e+000
10380:0.0000000000000000e+000
10381:0.0000000000000000e+000
10382:0.0000000000000000e+000
10383:0.0000000000000000e+000
10384:0.0000000000000000e+000
10385:0.0000000000000000e+000
10386:0.0000000000000000e+000
10387:0.0000000000000000e+000
10388:0.0000000000000000e+000
10389:0.0000000000000000e+000
10390:0.0000000000000000e+000
10391:0.0000000000000000e+000
10392:0.0000000000000000e+000
10393:0.0000000000000000e+000
10394:0.0000000000000000e+000
10395:0.0000000000000000e+000
10396:0.0000000000000000e+000
10397:0.0000000000000000e+000
10398:0.0000000000000000e+000
10399:0.0000000000000000e+000
10400:0.0000000000000000e+000
10401:0.0000000000000000e+000
10402:0.0000000000000000e+000
10403:0.0000000000000000e+000
10404:0.0000000000000000e+000
10405:0.0000000000000000e+000
10406:0.0000000000000000e+000
10407:0.0000000000000000e+000
10408:0.0000000000000000e+000
10409:0.0000000000000000e+000
10410:0.0000000000000000e+000
10411:0.0000000000000000e+000
10412:0.0000000000000000e+000
10413:0.0000000000000000e+000
10414:0.0000000000000000e+000
10415:0.0000000000000000e+000
10416:0.0000000000000000e+000
10417:0.0000000000000000e+000
10418:0.0000000000000000e+000
10419:0.0000000000000000e+000
10420:0.0000000000000000e+000
10421:0.0000000000000000e+000
10422:0.0000000000000000e+000
10423:0.0000000000000000e+000
10424:0.0000000000000000e+000
10425:0.0000000000000000e+000
10426:0.0000000000000000e+000
10427:0.0000000000000000e+000
10428:0.0000000000000000e+000
10429:0.0000000000000000e+000
10430:0.0000000000000000e+000
10431:0.0000000000000000e+000
10432:0.0000000000000000e+000
10433:0.0000000000000000e+000
10434:0.0000000000000000e+000
10435:0.0000000000000000e+000
10436:0.0000000000000000e+000
10437:0.0000000000000000e+000
10438:0.0000000000000000e+000
10439:0.0000000000000000e+000
10440:0.0000000000000000e+000
10441:0.0000000000000000e+000
10442:0.0000000000000000e+000
10443:0.0000000000000000e+000
10444:0.0000000000000000e+000
10445:0.0000000000000000e+000
10446:0.0000000000000000e+000
10447:0.0000000000000000e+000
10448:0.0000000000000000e+000
10449:0.0000000000000000e+000
10450:0.0000000000000000e+000
10451:0.0000000000000000e+000
10452:0.0000000000000000e+000
10453:0.0000000000000000e+000
10454:0.0000000000000000e+000
10455:0.0000000000000000e+000
10456:0.0000000000000000e+000
10457:0.0000000000000000e+000
10458:0.0000000000000000e+000
10459:0.0000000000000000e+000
10460:0.0000000000000000e+000
10461:0.0000000000000000e+000
10462:0.0000000000000000e+000
10463:0.0000000000000000e+000
10464:0.0000000000000000e+000
10465:0.0000000000000000e+000
10466:0.0000000000000000e+000
10467:0.0000000000000000e+000
10468:0.0000000000000000e+000
10469:0.0000000000000000e+000
10470:0.0000000000000000e+000
10471:0.0000000000000000e+000
10472:0.0000000000000000e+000
10473:0.0000000000000000e+000
10474:0.0000000000000000e+000
10475:0.0000000000000000e+000
10476:0.0000000000000000e+000
10477:0.0000000000000000e+000
10478:0.0000000000000000e+000
10479:0.0000000000000000e+000
10480:0.0000000000000000e+000
10481:0.0000000000000000e+000
10482:0.0000000000000000e+000
10483:0.0000000000000000e+000
10484:0.0000000000000000e+000
10485:0.0000000000000000e+000
10486:0.0000000000000000e+000
10487:0.0000000000000000e+000
10488:0.0000000000000000e+000
10489:0.0000000000000000e+000
10490:0.0000000000000000e+000
10491:0.0000000000000000e+000
10492:0.0000000000000000e+000
10493:0.0000000000000000e+000
10494:0.0000000000000000e+000
10495:0.0000000000000000e+000
10496:0.0000000000000000e+000
10497:0.0000000000000000e+000
10498:0.0000000000000000e+000
10499:0.0000000000000000e+000
10500:0.0000000000000000e+000
10501:0.0000000000000000e+000
10502:0.0000000000000000e+000
10503:0.0000000000000000e+000
10504:0.0000000000000000e+000
10505:0.0000000000000000e+000
10506:0.0000000000000000e+000
10507:0.0000000000000000e+000
10508:0.0000000000000000e+000
10509:0.0000000000000000e+000
10510:0.0000000000000000e+000
10511:0.0000000000000000e+000
10512:0.0000000000000000e+000
10513:0.0000000000000000e+000
10514:0.0000000000000000e+000
10515:0.0000000000000000e+000
10516:0.0000000000000000e+000
10517:0.0000000000000000e+000
10518:0.0000000000000000e+000
10519:0.0000000000000000e+000
10520:0.0000000000000000e+000
10521:0.0000000000000000e+000
10522:0.0000000000000000e+000
10523:0.0000000000000000e+000
10524:0.0000000000000000e+000
10525:0.0000000000000000e+000
10526:0.0000000000000000e+000
10527:0.0000000000000000e+000
10528:0.0000000000000000e+000
10529:0.0000000000000000e+000
10530:0.0000000000000000e+000
10531:0.0000000000000000e+000
10532:0.0000000000000000e+000
10533:0.0000000000000000e+000
10534:0.0000000000000000e+000
10535:0.0000000000000000e+000
10536:0.0000000000000000e+000
10537:0.0000000000000000e+000
10538:0.0000000000000000e+000
10539:0.0000000000000000e+000
10540:0.0000000000000000e+000
10541:0.0000000000000000e+000
10542:0.0000000000000000e+000
10543:0.0000000000000000e+000
10544:0.0000000000000000e+000
10545:0.0000000000000000e+000
10546:0.0000000000000000e+000
10547:0.0000000000000000e+000
10548:0.0000000000000000e+000
10549:0.0000000000000000e+000
10550:0.0000000000000000e+000
10551:0.0000000000000000e+000
10552:0.0000000000000000e+000
10553:0.0000000000000000e+000
10554:0.0000000000000000e+000
10555:0.0000000000000000e+000
10556:0.0000000000000000e+000
10557:0.0000000000000000e+000
10558:0.0000000000000000e+000
10559:0.0000000000000000e+000
10560:0.0000000000000000e+000
10561:0.0000000000000000e+000
10562:0.0000000000000000e+000
10563:0.0000000000000000e+000
10564:0.0000000000000000e+000
10565:0.0000000000000000e+000
10566:0.0000000000000000e+000
10567:0.0000000000000000e+000
10568:0.0000000000000000e+000
10569:0.0000000000000000e+000
10570:0.0000000000000000e+000
10571:0.0000000000000000e+000
10572:0.0000000000000000e+000
10573:0.0000000000000000e+000
10574:0.0000000000000000e+000
10575:0.0000000000000000e+000
10576:0.0000000000000000e+000
10577:0.0000000000000000e+000
10578:0.0000000000000000e+000
10579:0.0000000000000000e+000
10580:0.0000000000000000e+000
10581:0.0000000000000000e+000
10582:0.0000000000000000e+000
10583:0.0000000000000000e+000
10584:0.0000000000000000e+000
10585:0.0000000000000000e+000
10586:0.0000000000000000e+000
10587:0.0000000000000000e+000
10588:0.0000000000000000e+000
10589:0.0000000000000000e+000
10590:0.0000000000000000e+000
10591:0.0000000000000000e+000
10592:0.0000000000000000e+000
10593:0.0000000000000000e+000
10594:0.0000000000000000e+000
10595:0.0000000000000000e+000
10596:0.0000000000000000e+000
10597:0.0000000000000000e+000
10598:0.0000000000000000e+000
10599:0.0000000000000000e+000
10600:0.0000000000000000e+000
10601:0.0000000000000000e+000
10602:0.0000000000000000e+000
10603:0.0000000000000000e+000
10604:0.0000000000000000e+000
10605:0.0000000000000000e+000
10606:0.0000000000000000e+000
10607:0.0000000000000000e+000
10608:0.0000000000000000e+000
10609:0.0000000000000000e+000
10610:0.0000000000000000e+000
10611:0.0000000000000000e+000
10612:0.0000000000000000e+000
10613:0.0000000000000000e+000
10614:0.0000000000000000e+000
10615:0.0000000000000000e+000
10616:0.0000000000000000e+000
10617:0.0000000000000000e+000
10618:0.0000000000000000e+000
10619:0.0000000000000000e+000
10620:0.0000000000000000e+000
10621:0.0000000000000000e+000
10622:0.0000000000000000e+000
10623:0.0000000000000000e+000
10624:0.0000000000000000e+000
10625:0.0000000000000000e+000
10626:0.0000000000000000e+000
10627:0.0000000000000000e+000
10628:0.0000000000000000e+000
10629:0.0000000000000000e+000
10630:0.0000000000000000e+000
10631:0.0000000000000000e+000
10632:0.0000000000000000e+000
10633:0.0000000000000000e+000
10634:0.0000000000000000e+000
10635:0.0000000000000000e+000
10636:0.0000000000000000e+000
10637:0.0000000000000000e+000
10638:0.0000000000000000e+000
10639:0.0000000000000000e+000
10640:0.0000000000000000e+000
10641:0.0000000000000000e+000
10642:0.0000000000000000e+000
10643:0.0000000000000000e+000
10644:0.0000000000000000e+000
10645:0.0000000000000000e+000
10646:0.0000000000000000e+000
10647:0.0000000000000000e+000
10648:0.0000000000000000e+000
10649:0.0000000000000000e+000
10650:0.0000000000000000e+000
10651:0.0000000000000000e+000
10652:0.0000000000000000e+000
10653:0.0000000000000000e+000
10654:0.0000000000000000e+000
10655:0.0000000000000000e+000
10656:0.0000000000000000e+000
10657:0.0000000000000000e+000
10658:0.0000000000000000e+000
10659:0.0000000000000000e+000
10660:0.0000000000000000e+000
10661:0.0000000000000000e+000
10662:0.0000000000000000e+000
10663:0.0000000000000000e+000
10664:0.0000000000000000e+000
10665:0.0000000000000000e+000
10666:0.0000000000000000e+000
10667:0.0000000000000000e+000
10668:0.0000000000000000e+000
10669:0.0000000000000000e+000
10670:0.0000000000000000e+000
10671:0.0000000000000000e+000
10672:0.0000000000000000e+000
10673:0.0000000000000000e+000
10674:0.0000000000000000e+000
10675:0.0000000000000000e+000
10676:0.0000000000000000e+000
10677:0.0000000000000000e+000
10678:0.0000000000000000e+000
10679:0.0000000000000000e+000
10680:0.0000000000000000e+000
10681:0.0000000000000000e+000
10682:0.0000000000000000e+000
10683:0.0000000000000000e+000
10684:0.0000000000000000e+000
10685:0.0000000000000000e+000
10686:0.0000000000000000e+000
10687:0.0000000000000000e+000
10688:0.0000000000000000e+000
10689:0.0000000000000000e+000
10690:0.0000000000000000e+000
10691:0.0000000000000000e+000
10692:0.0000000000000000e+000
10693:0.0000000000000000e+000
10694:0.0000000000000000e+000
10695:0.0000000000000000e+000
10696:0.0000000000000000e+000
10697:0.0000000000000000e+000
10698:0.0000000000000000e+000
10699:0.0000000000000000e+000
10700:0.0000000000000000e+000
10701:0.0000000000000000e+000
10702:0.0000000000000000e+000
10703:0.0000000000000000e+000
10704:0.0000000000000000e+000
10705:0.0000000000000000e+000
10706:0.0000000000000000e+000
10707:0.0000000000000000e+000
10708:0.0000000000000000e+000
10709:0.0000000000000000e+000
10710:0.0000000000000000e+000
10711:0.0000000000000000e+000
10712:0.0000000000000000e+000
10713:0.0000000000000000e+000
10714:0.0000000000000000e+000
10715:0.0000000000000000e+000
10716:0.0000000000000000e+000
10717:0.0000000000000000e+000
10718:0.0000000000000000e+000
10719:0.0000000000000000e+000
10720:0.0000000000000000e+000
10721:0.0000000000000000e+000
10722:0.0000000000000000e+000
10723:0.0000000000000000e+000
10724:0.0000000000000000e+000
10725:0.0000000000000000e+000
10726:0.0000000000000000e+000
10727:0.0000000000000000e+000
10728:0.0000000000000000e+000
10729:0.0000000000000000e+000
10730:0.0000000000000000e+000
10731:0.0000000000000000e+000
10732:0.0000000000000000e+000
10733:0.0000000000000000e+000
10734:0.0000000000000000e+000
10735:0.0000000000000000e+000
10736:0.0000000000000000e+000
10737:0.0000000000000000e+000
10738:0.0000000000000000e+000
10739:0.0000000000000000e+000
10740:0.0000000000000000e+000
10741:0.0000000000000000e+000
10742:0.0000000000000000e+000
10743:0.0000000000000000e+000
10744:0.0000000000000000e+000
10745:0.0000000000000000e+000
10746:0.0000000000000000e+000
10747:0.0000000000000000e+000
10748:0.0000000000000000e+000
10749:0.0000000000000000e+000
10750:0.0000000000000000e+000
10751:0.0000000000000000e+000
10752:0.0000000000000000e+000
10753:0.0000000000000000e+000
10754:0.0000000000000000e+000
10755:0.0000000000000000e+000
10756:0.0000000000000000e+000
10757:0.0000000000000000e+000
10758:0.0000000000000000e+000
10759:0.0000000000000000e+000
10760:0.0000000000000000e+000
10761:0.0000000000000000e+000
10762:0.0000000000000000e+000
10763:0.0000000000000000e+000
10764:0.0000000000000000e+000
10765:0.0000000000000000e+000
10766:0.0000000000000000e+000
10767:0.0000000000000000e+000
10768:0.0000000000000000e+000
10769:0.0000000000000000e+000
10770:0.0000000000000000e+000
10771:0.0000000000000000e+000
10772:0.0000000000000000e+000
10773:0.0000000000000000e+000
10774:0.0000000000000000e+000
10775:0.0000000000000000e+000
10776:0.0000000000000000e+000
10777:0.0000000000000000e+000
10778:0.0000000000000000e+000
10779:0.0000000000000000e+000
10780:0.0000000000000000e+000
10781:0.0000000000000000e+000
10782:0.0000000000000000e+000
10783:0.0000000000000000e+000
10784:0.0000000000000000e+000
10785:0.0000000000000000e+000
10786:0.0000000000000000e+000
10787:0.0000000000000000e+000
10788:0.0000000000000000e+000
10789:0.0000000000000000e+000
10790:0.0000000000000000e+000
10791:0.0000000000000000e+000
10792:0.0000000000000000e+000
10793:0.0000000000000000e+000
10794:0.0000000000000000e+000
10795:0.0000000000000000e+000
10796:0.0000000000000000e+000
10797:0.0000000000000000e+000
10798:0.0000000000000000e+000
10799:0.0000000000000000e+000
10800:0.0000000000000000e+000
10801:0.0000000000000000e+000
10802:0.0000000000000000e+000
10803:0.0000000000000000e+000
10804:0.0000000000000000e+000
10805:0.0000000000000000e+000
10806:0.0000000000000000e+000
10807:0.0000000000000000e+000
10808:0.0000000000000000e+000
10809:0.0000000000000000e+000
10810:0.0000000000000000e+000
10811:0.0000000000000000e+000
10812:0.0000000000000000e+000
10813:0.0000000000000000e+000
10814:0.0000000000000000e+000
10815:0.0000000000000000e+000
10816:0.0000000000000000e+000
10817:0.0000000000000000e+000
10818:0.0000000000000000e+000
10819:0.0000000000000000e+000
10820:0.0000000000000000e+000
10821:0.0000000000000000e+000
10822:0.0000000000000000e+000
10823:0.0000000000000000e+000
10824:0.0000000000000000e+000
10825:0.0000000000000000e+000
10826:0.0000000000000000e+000
10827:0.0000000000000000e+000
10828:0.0000000000000000e+000
10829:0.0000000000000000e+000
10830:0.0000000000000000e+000
10831:0.0000000000000000e+000
10832:0.0000000000000000e+000
10833:0.0000000000000000e+000
10834:0.0000000000000000e+000
10835:0.0000000000000000e+000
10836:0.0000000000000000e+000
10837:0.0000000000000000e+000
10838:0.0000000000000000e+000
10839:0.0000000000000000e+000
10840:0.0000000000000000e+000
10841:0.0000000000000000e+000
10842:0.0000000000000000e+000
10843:0.0000000000000000e+000
10844:0.0000000000000000e+000
10845:0.0000000000000000e+000
10846:0.0000000000000000e+000
10847:0.0000000000000000e+000
10848:0.0000000000000000e+000
10849:0.0000000000000000e+000
10850:0.0000000000000000e+000
10851:0.0000000000000000e+000
10852:0.0000000000000000e+000
10853:0.0000000000000000e+000
10854:0.0000000000000000e+000
10855:0.0000000000000000e+000
10856:0.0000000000000000e+000
10857:0.0000000000000000e+000
10858:0.0000000000000000e+000
10859:0.0000000000000000e+000
10860:0.0000000000000000e+000
10861:0.0000000000000000e+000
10862:0.0000000000000000e+000
10863:0.0000000000000000e+000
10864:0.0000000000000000e+000
10865:0.0000000000000000e+000
10866:0.0000000000000000e+000
10867:0.0000000000000000e+000
10868:0.0000000000000000e+000
10869:0.0000000000000000e+000
10870:0.0000000000000000e+000
10871:0.0000000000000000e+000
10872:0.0000000000000000e+000
10873:0.0000000000000000e+000
10874:0.0000000000000000e+000
10875:0.0000000000000000e+000
10876:0.0000000000000000e+000
10877:0.0000000000000000e+000
10878:0.0000000000000000e+000
10879:0.0000000000000000e+000
10880:0.0000000000000000e+000
10881:0.0000000000000000e+000
10882:0.0000000000000000e+000
10883:0.0000000000000000e+000
10884:0.0000000000000000e+000
10885:0.0000000000000000e+000
10886:0.0000000000000000e+000
10887:0.0000000000000000e+000
10888:0.0000000000000000e+000
10889:0.0000000000000000e+000
10890:0.0000000000000000e+000
10891:0.0000000000000000e+000
10892:0.0000000000000000e+000
10893:0.0000000000000000e+000
10894:0.0000000000000000e+000
10895:0.0000000000000000e+000
10896:0.0000000000000000e+000
10897:0.0000000000000000e+000
10898:0.0000000000000000e+000
10899:0.0000000000000000e+000
10900:0.0000000000000000e+000
10901:0.0000000000000000e+000
10902:0.0000000000000000e+000
10903:0.0000000000000000e+000
10904:0.0000000000000000e+000
10905:0.0000000000000000e+000
10906:0.0000000000000000e+000
10907:0.0000000000000000e+000
10908:0.0000000000000000e+000
10909:0.0000000000000000e+000
10910:0.0000000000000000e+000
10911:0.0000000000000000e+000
10912:0.0000000000000000e+000
10913:0.0000000000000000e+000
10914:0.0000000000000000e+000
10915:0.0000000000000000e+000
10916:0.0000000000000000e+000
10917:0.0000000000000000e+000
10918:0.0000000000000000e+000
10919:0.0000000000000000e+000
10920:0.0000000000000000e+000
10921:0.0000000000000000e+000
10922:0.0000000000000000e+000
10923:0.0000000000000000e+000
10924:0.0000000000000000e+000
10925:0.0000000000000000e+000
10926:0.0000000000000000e+000
10927:0.0000000000000000e+000
10928:0.0000000000000000e+000
10929:0.0000000000000000e+000
10930:0.0000000000000000e+000
10931:0.0000000000000000e+000
10932:0.0000000000000000e+000
10933:0.0000000000000000e+000
10934:0.0000000000000000e+000
10935:0.0000000000000000e+000
10936:0.0000000000000000e+000
10937:0.0000000000000000e+000
10938:0.0000000000000000e+000
10939:0.0000000000000000e+000
10940:0.0000000000000000e+000
10941:0.0000000000000000e+000
10942:0.0000000000000000e+000
10943:0.0000000000000000e+000
10944:0.0000000000000000e+000
10945:0.0000000000000000e+000
10946:0.0000000000000000e+000
10947:0.0000000000000000e+000
10948:0.0000000000000000e+000
10949:0.0000000000000000e+000
10950:0.0000000000000000e+000
10951:0.0000000000000000e+000
10952:0.0000000000000000e+000
10953:0.0000000000000000e+000
10954:0.0000000000000000e+000
10955:0.0000000000000000e+000
10956:0.0000000000000000e+000
10957:0.0000000000000000e+000
10958:0.0000000000000000e+000
10959:0.0000000000000000e+000
10960:0.0000000000000000e+000
10961:0.0000000000000000e+000
10962:0.0000000000000000e+000
10963:0.0000000000000000e+000
10964:0.0000000000000000e+000
10965:0.0000000000000000e+000
10966:0.0000000000000000e+000
10967:0.0000000000000000e+000
10968:0.0000000000000000e+000
10969:0.0000000000000000e+000
10970:0.0000000000000000e+000
10971:0.0000000000000000e+000
10972:0.0000000000000000e+000
10973:0.0000000000000000e+000
10974:0.0000000000000000e+000
10975:0.0000000000000000e+000
10976:0.0000000000000000e+000
10977:0.0000000000000000e+000
10978:0.0000000000000000e+000
10979:0.0000000000000000e+000
10980:0.0000000000000000e+000
10981:0.0000000000000000e+000
10982:0.0000000000000000e+000
10983:0.0000000000000000e+000
10984:0.0000000000000000e+000
10985:0.0000000000000000e+000
10986:0.0000000000000000e+000
10987:0.0000000000000000e+000
10988:0.0000000000000000e+000
10989:0.0000000000000000e+000
10990:0.0000000000000000e+000
10991:0.0000000000000000e+000
10992:0.0000000000000000e+000
10993:0.0000000000000000e+000
10994:0.0000000000000000e+000
10995:0.0000000000000000e+000
10996:0.0000000000000000e+000
10997:0.0000000000000000e+000
10998:0.0000000000000000e+000
10999:0.0000000000000000e+000
11000:0.0000000000000000e+000
11001:0.0000000000000000e+000
11002:0.0000000000000000e+000
11003:0.0000000000000000e+000
11004:0.0000000000000000e+000
11005:0.0000000000000000e+000
11006:0.0000000000000000e+000
11007:0.0000000000000000e+000
11008:0.0000000000000000e+000
11009:0.0000000000000000e+000
11010:0.0000000000000000e+000
11011:0.0000000000000000e+000
11012:0.0000000000000000e+000
11013:0.0000000000000000e+000
11014:0.0000000000000000e+000
11015:0.0000000000000000e+000
11016:0.0000000000000000e+000
11017:0.0000000000000000e+000
11018:0.0000000000000000e+000
11019:0.0000000000000000e+000
11020:0.0000000000000000e+000
11021:0.0000000000000000e+000
11022:0.0000000000000000e+000
11023:0.0000000000000000e+000
11024:0.0000000000000000e+000
11025:0.0000000000000000e+000
11026:0.0000000000000000e+000
11027:0.0000000000000000e+000
11028:0.0000000000000000e+000
11029:0.0000000000000000e+000
11030:0.0000000000000000e+000
11031:0.0000000000000000e+000
11032:0.0000000000000000e+000
11033:0.0000000000000000e+000
11034:0.0000000000000000e+000
11035:0.0000000000000000e+000
11036:0.0000000000000000e+000
11037:0.0000000000000000e+000
11038:0.0000000000000000e+000
11039:0.0000000000000000e+000
11040:0.0000000000000000e+000
11041:0.0000000000000000e+000
11042:0.0000000000000000e+000
11043:0.0000000000000000e+000
11044:0.0000000000000000e+000
11045:0.0000000000000000e+000
11046:0.0000000000000000e+000
11047:0.0000000000000000e+000
11048:0.0000000000000000e+000
11049:0.0000000000000000e+000
11050:0.0000000000000000e+000
11051:0.0000000000000000e+000
11052:0.0000000000000000e+000
11053:0.0000000000000000e+000
11054:0.0000000000000000e+000
11055:0.0000000000000000e+000
11056:0.0000000000000000e+000
11057:0.0000000000000000e+000
11058:0.0000000000000000e+000
11059:0.0000000000000000e+000
11060:0.0000000000000000e+000
11061:0.0000000000000000e+000
11062:0.0000000000000000e+000
11063:0.0000000000000000e+000
11064:0.0000000000000000e+000
11065:0.0000000000000000e+000
11066:0.0000000000000000e+000
11067:0.0000000000000000e+000
11068:0.0000000000000000e+000
11069:0.0000000000000000e+000
11070:0.0000000000000000e+000
11071:0.0000000000000000e+000
11072:0.0000000000000000e+000
11073:0.0000000000000000e+000
11074:0.0000000000000000e+000
11075:0.0000000000000000e+000
11076:0.0000000000000000e+000
11077:0.0000000000000000e+000
11078:0.0000000000000000e+000
11079:0.0000000000000000e+000
11080:0.0000000000000000e+000
11081:0.0000000000000000e+000
11082:0.0000000000000000e+000
11083:0.0000000000000000e+000
11084:0.0000000000000000e+000
11085:0.0000000000000000e+000
11086:0.0000000000000000e+000
11087:0.0000000000000000e+000
11088:0.0000000000000000e+000
11089:0.0000000000000000e+000
11090:0.0000000000000000e+000
11091:0.0000000000000000e+000
11092:0.0000000000000000e+000
11093:0.0000000000000000e+000
11094:0.0000000000000000e+000
11095:0.0000000000000000e+000
11096:0.0000000000000000e+000
11097:0.0000000000000000e+000
11098:0.0000000000000000e+000
11099:0.0000000000000000e+000
11100:0.0000000000000000e+000
11101:0.0000000000000000e+000
11102:0.0000000000000000e+000
11103:0.0000000000000000e+000
11104:0.0000000000000000e+000
11105:0.0000000000000000e+000
11106:0.0000000000000000e+000
11107:0.0000000000000000e+000
11108:0.0000000000000000e+000
11109:0.0000000000000000e+000
11110:0.0000000000000000e+000
11111:0.0000000000000000e+000
11112:0.0000000000000000e+000
11113:0.0000000000000000e+000
11114:0.0000000000000000e+000
11115:0.0000000000000000e+000
11116:0.0000000000000000e+000
11117:0.0000000000000000e+000
11118:0.0000000000000000e+000
11119:0.0000000000000000e+000
11120:0.0000000000000000e+000
11121:0.0000000000000000e+000
11122:0.0000000000000000e+000
11123:0.0000000000000000e+000
11124:0.0000000000000000e+000
11125:0.0000000000000000e+000
11126:0.0000000000000000e+000
11127:0.0000000000000000e+000
11128:0.0000000000000000e+000
11129:0.0000000000000000e+000
11130:0.0000000000000000e+000
11131:0.0000000000000000e+000
11132:0.0000000000000000e+000
11133:0.0000000000000000e+000
11134:0.0000000000000000e+000
11135:0.0000000000000000e+000
11136:0.0000000000000000e+000
11137:0.0000000000000000e+000
11138:0.0000000000000000e+000
11139:0.0000000000000000e+000
11140:0.0000000000000000e+000
11141:0.0000000000000000e+000
11142:0.0000000000000000e+000
11143:0.0000000000000000e+000
11144:0.0000000000000000e+000
11145:0.0000000000000000e+000
11146:0.0000000000000000e+000
11147:0.0000000000000000e+000
11148:0.0000000000000000e+000
11149:0.0000000000000000e+000
11150:0.0000000000000000e+000
11151:0.0000000000000000e+000
11152:0.0000000000000000e+000
11153:0.0000000000000000e+000
11154:0.0000000000000000e+000
11155:0.0000000000000000e+000
11156:0.0000000000000000e+000
11157:0.0000000000000000e+000
11158:0.0000000000000000e+000
11159:0.0000000000000000e+000
11160:0.0000000000000000e+000
11161:0.0000000000000000e+000
11162:0.0000000000000000e+000
11163:0.0000000000000000e+000
11164:0.0000000000000000e+000
11165:0.0000000000000000e+000
11166:0.0000000000000000e+000
11167:0.0000000000000000e+000
11168:0.0000000000000000e+000
11169:0.0000000000000000e+000
11170:0.0000000000000000e+000
11171:0.0000000000000000e+000
11172:0.0000000000000000e+000
11173:0.0000000000000000e+000
11174:0.0000000000000000e+000
11175:0.0000000000000000e+000
11176:0.0000000000000000e+000
11177:0.0000000000000000e+000
11178:0.0000000000000000e+000
11179:0.0000000000000000e+000
11180:0.0000000000000000e+000
11181:0.0000000000000000e+000
11182:0.0000000000000000e+000
11183:0.0000000000000000e+000
11184:0.0000000000000000e+000
11185:0.0000000000000000e+000
11186:0.0000000000000000e+000
11187:0.0000000000000000e+000
11188:0.0000000000000000e+000
11189:0.0000000000000000e+000
11190:0.0000000000000000e+000
11191:0.0000000000000000e+000
11192:0.0000000000000000e+000
11193:0.0000000000000000e+000
11194:0.0000000000000000e+000
11195:0.0000000000000000e+000
11196:0.0000000000000000e+000
11197:0.0000000000000000e+000
11198:0.0000000000000000e+000
11199:0.0000000000000000e+000
11200:0.0000000000000000e+000
11201:0.0000000000000000e+000
11202:0.0000000000000000e+000
11203:0.0000000000000000e+000
11204:0.0000000000000000e+000
11205:0.0000000000000000e+000
11206:0.0000000000000000e+000
11207:0.0000000000000000e+000
11208:0.0000000000000000e+000
11209:0.0000000000000000e+000
11210:0.0000000000000000e+000
11211:0.0000000000000000e+000
11212:0.0000000000000000e+000
11213:0.0000000000000000e+000
11214:0.0000000000000000e+000
11215:0.0000000000000000e+000
11216:0.0000000000000000e+000
11217:0.0000000000000000e+000
11218:0.0000000000000000e+000
11219:0.0000000000000000e+000
11220:0.0000000000000000e+000
11221:0.0000000000000000e+000
11222:0.0000000000000000e+000
11223:0.0000000000000000e+000
11224:0.0000000000000000e+000
11225:0.0000000000000000e+000
11226:0.0000000000000000e+000
11227:0.0000000000000000e+000
11228:0.0000000000000000e+000
11229:0.0000000000000000e+000
11230:0.0000000000000000e+000
11231:0.0000000000000000e+000
11232:0.0000000000000000e+000
11233:0.0000000000000000e+000
11234:0.0000000000000000e+000
11235:0.0000000000000000e+000
11236:0.0000000000000000e+000
11237:0.0000000000000000e+000
11238:0.0000000000000000e+000
11239:0.0000000000000000e+000
11240:0.0000000000000000e+000
11241:0.0000000000000000e+000
11242:0.0000000000000000e+000
11243:0.0000000000000000e+000
11244:0.0000000000000000e+000
11245:0.0000000000000000e+000
11246:0.0000000000000000e+000
11247:0.0000000000000000e+000
11248:0.0000000000000000e+000
11249:0.0000000000000000e+000
11250:0.0000000000000000e+000
11251:0.0000000000000000e+000
11252:0.0000000000000000e+000
11253:0.0000000000000000e+000
11254:0.0000000000000000e+000
11255:0.0000000000000000e+000
11256:0.0000000000000000e+000
11257:0.0000000000000000e+000
11258:0.0000000000000000e+000
11259:0.0000000000000000e+000
11260:0.0000000000000000e+000
11261:0.0000000000000000e+000
11262:0.0000000000000000e+000
11263:0.0000000000000000e+000
11264:0.0000000000000000e+000
11265:0.0000000000000000e+000
11266:0.0000000000000000e+000
11267:0.0000000000000000e+000
11268:0.0000000000000000e+000
11269:0.0000000000000000e+000
11270:0.0000000000000000e+000
11271:0.0000000000000000e+000
11272:0.0000000000000000e+000
11273:0.0000000000000000e+000
11274:0.0000000000000000e+000
11275:0.0000000000000000e+000
11276:0.0000000000000000e+000
11277:0.0000000000000000e+000
11278:0.0000000000000000e+000
11279:0.0000000000000000e+000
11280:0.0000000000000000e+000
11281:0.0000000000000000e+000
11282:0.0000000000000000e+000
11283:0.0000000000000000e+000
11284:0.0000000000000000e+000
11285:0.0000000000000000e+000
11286:0.0000000000000000e+000
11287:0.0000000000000000e+000
11288:0.0000000000000000e+000
11289:0.0000000000000000e+000
11290:0.0000000000000000e+000
11291:0.0000000000000000e+000
11292:0.0000000000000000e+000
11293:0.0000000000000000e+000
11294:0.0000000000000000e+000
11295:0.0000000000000000e+000
11296:0.0000000000000000e+000
11297:0.0000000000000000e+000
11298:0.0000000000000000e+000
11299:0.0000000000000000e+000
11300:0.0000000000000000e+000
11301:0.0000000000000000e+000
11302:0.0000000000000000e+000
11303:0.0000000000000000e+000
11304:0.0000000000000000e+000
11305:0.0000000000000000e+000
11306:0.0000000000000000e+000
11307:0.0000000000000000e+000
11308:0.0000000000000000e+000
11309:0.0000000000000000e+000
11310:0.0000000000000000e+000
11311:0.0000000000000000e+000
11312:0.0000000000000000e+000
11313:0.0000000000000000e+000
11314:0.0000000000000000e+000
11315:0.0000000000000000e+000
11316:0.0000000000000000e+000
11317:0.0000000000000000e+000
11318:0.0000000000000000e+000
11319:0.0000000000000000e+000
11320:0.0000000000000000e+000
11321:0.0000000000000000e+000
11322:0.0000000000000000e+000
11323:0.0000000000000000e+000
11324:0.0000000000000000e+000
11325:0.0000000000000000e+000
11326:0.0000000000000000e+000
11327:0.0000000000000000e+000
11328:0.0000000000000000e+000
11329:0.0000000000000000e+000
11330:0.0000000000000000e+000
11331:0.0000000000000000e+000
11332:0.0000000000000000e+000
11333:0.0000000000000000e+000
11334:0.0000000000000000e+000
11335:0.0000000000000000e+000
11336:0.0000000000000000e+000
11337:0.0000000000000000e+000
11338:0.0000000000000000e+000
11339:0.0000000000000000e+000
11340:0.0000000000000000e+000
11341:0.0000000000000000e+000
11342:0.0000000000000000e+000
11343:0.0000000000000000e+000
11344:0.0000000000000000e+000
11345:0.0000000000000000e+000
11346:0.0000000000000000e+000
11347:0.0000000000000000e+000
11348:0.0000000000000000e+000
11349:0.0000000000000000e+000
11350:0.0000000000000000e+000
11351:0.0000000000000000e+000
11352:0.0000000000000000e+000
11353:0.0000000000000000e+000
11354:0.0000000000000000e+000
11355:0.0000000000000000e+000
11356:0.0000000000000000e+000
11357:0.0000000000000000e+000
11358:0.0000000000000000e+000
11359:0.0000000000000000e+000
11360:0.0000000000000000e+000
11361:0.0000000000000000e+000
11362:0.0000000000000000e+000
11363:0.0000000000000000e+000
11364:0.0000000000000000e+000
11365:0.0000000000000000e+000
11366:0.0000000000000000e+000
11367:0.0000000000000000e+000
11368:0.0000000000000000e+000
11369:0.0000000000000000e+000
11370:0.0000000000000000e+000
11371:0.0000000000000000e+000
11372:0.0000000000000000e+000
11373:0.0000000000000000e+000
11374:0.0000000000000000e+000
11375:0.0000000000000000e+000
11376:0.0000000000000000e+000
11377:0.0000000000000000e+000
11378:0.0000000000000000e+000
11379:0.0000000000000000e+000
11380:0.0000000000000000e+000
11381:0.0000000000000000e+000
11382:0.0000000000000000e+000
11383:0.0000000000000000e+000
11384:0.0000000000000000e+000
11385:0.0000000000000000e+000
11386:0.0000000000000000e+000
11387:0.0000000000000000e+000
11388:0.0000000000000000e+000
11389:0.0000000000000000e+000
11390:0.0000000000000000e+000
11391:0.0000000000000000e+000
11392:0.0000000000000000e+000
11393:0.0000000000000000e+000
11394:0.0000000000000000e+000
11395:0.0000000000000000e+000
11396:0.0000000000000000e+000
11397:0.0000000000000000e+000
11398:0.0000000000000000e+000
11399:0.0000000000000000e+000
11400:0.0000000000000000e+000
11401:0.0000000000000000e+000
11402:0.0000000000000000e+000
11403:0.0000000000000000e+000
11404:0.0000000000000000e+000
11405:0.0000000000000000e+000
11406:0.0000000000000000e+000
11407:0.0000000000000000e+000
11408:0.0000000000000000e+000
11409:0.0000000000000000e+000
11410:0.0000000000000000e+000
11411:0.0000000000000000e+000
11412:0.0000000000000000e+000
11413:0.0000000000000000e+000
11414:0.0000000000000000e+000
11415:0.0000000000000000e+000
11416:0.0000000000000000e+000
11417:0.0000000000000000e+000
11418:0.0000000000000000e+000
11419:0.0000000000000000e+000
11420:0.0000000000000000e+000
11421:0.0000000000000000e+000
11422:0.0000000000000000e+000
11423:0.0000000000000000e+000
11424:0.0000000000000000e+000
11425:0.0000000000000000e+000
11426:0.0000000000000000e+000
11427:0.0000000000000000e+000
11428:0.0000000000000000e+000
11429:0.0000000000000000e+000
11430:0.0000000000000000e+000
11431:0.0000000000000000e+000
11432:0.0000000000000000e+000
11433:0.0000000000000000e+000
11434:0.0000000000000000e+000
11435:0.0000000000000000e+000
11436:0.0000000000000000e+000
11437:0.0000000000000000e+000
11438:0.0000000000000000e+000
11439:0.0000000000000000e+000
11440:0.0000000000000000e+000
11441:0.0000000000000000e+000
11442:0.0000000000000000e+000
11443:0.0000000000000000e+000
11444:0.0000000000000000e+000
11445:0.0000000000000000e+000
11446:0.0000000000000000e+000
11447:0.0000000000000000e+000
11448:0.0000000000000000e+000
11449:0.0000000000000000e+000
11450:0.0000000000000000e+000
11451:0.0000000000000000e+000
11452:0.0000000000000000e+000
11453:0.0000000000000000e+000
11454:0.0000000000000000e+000
11455:0.0000000000000000e+000
11456:0.0000000000000000e+000
11457:0.0000000000000000e+000
11458:0.0000000000000000e+000
11459:0.0000000000000000e+000
11460:0.0000000000000000e+000
11461:0.0000000000000000e+000
11462:0.0000000000000000e+000
11463:0.0000000000000000e+000
11464:0.0000000000000000e+000
11465:0.0000000000000000e+000
11466:0.0000000000000000e+000
11467:0.0000000000000000e+000
11468:0.0000000000000000e+000
11469:0.0000000000000000e+000
11470:0.0000000000000000e+000
11471:0.0000000000000000e+000
11472:0.0000000000000000e+000
11473:0.0000000000000000e+000
11474:0.0000000000000000e+000
11475:0.0000000000000000e+000
11476:0.0000000000000000e+000
11477:0.0000000000000000e+000
11478:0.0000000000000000e+000
11479:0.0000000000000000e+000
11480:0.0000000000000000e+000
11481:0.0000000000000000e+000
11482:0.0000000000000000e+000
11483:0.0000000000000000e+000
11484:0.0000000000000000e+000
11485:0.0000000000000000e+000
11486:0.0000000000000000e+000
11487:0.0000000000000000e+000
11488:0.0000000000000000e+000
11489:0.0000000000000000e+000
11490:0.0000000000000000e+000
11491:0.0000000000000000e+000
11492:0.0000000000000000e+000
11493:0.0000000000000000e+000
11494:0.0000000000000000e+000
11495:0.0000000000000000e+000
11496:0.0000000000000000e+000
11497:0.0000000000000000e+000
11498:0.0000000000000000e+000
11499:0.0000000000000000e+000
11500:0.0000000000000000e+000
11501:0.0000000000000000e+000
11502:0.0000000000000000e+000
11503:0.0000000000000000e+000
11504:0.0000000000000000e+000
11505:0.0000000000000000e+000
11506:0.0000000000000000e+000
11507:0.0000000000000000e+000
11508:0.0000000000000000e+000
11509:0.0000000000000000e+000
11510:0.0000000000000000e+000
11511:0.0000000000000000e+000
11512:0.0000000000000000e+000
11513:0.0000000000000000e+000
11514:0.0000000000000000e+000
11515:0.0000000000000000e+000
11516:0.0000000000000000e+000
11517:0.0000000000000000e+000
11518:0.0000000000000000e+000
11519:0.0000000000000000e+000
11520:0.0000000000000000e+000
11521:0.0000000000000000e+000
11522:0.0000000000000000e+000
11523:0.0000000000000000e+000
11524:0.0000000000000000e+000
11525:0.0000000000000000e+000
11526:0.0000000000000000e+000
11527:0.0000000000000000e+000
11528:0.0000000000000000e+000
11529:0.0000000000000000e+000
11530:0.0000000000000000e+000
11531:0.0000000000000000e+000
11532:0.0000000000000000e+000
11533:0.0000000000000000e+000
11534:0.0000000000000000e+000
11535:0.0000000000000000e+000
11536:0.0000000000000000e+000
11537:0.0000000000000000e+000
11538:0.0000000000000000e+000
11539:0.0000000000000000e+000
11540:0.0000000000000000e+000
11541:0.0000000000000000e+000
11542:0.0000000000000000e+000
11543:0.0000000000000000e+000
11544:0.0000000000000000e+000
11545:0.0000000000000000e+000
11546:0.0000000000000000e+000
11547:0.0000000000000000e+000
11548:0.0000000000000000e+000
11549:0.0000000000000000e+000
11550:0.0000000000000000e+000
11551:0.0000000000000000e+000
11552:0.0000000000000000e+000
11553:0.0000000000000000e+000
11554:0.0000000000000000e+000
11555:0.0000000000000000e+000
11556:0.0000000000000000e+000
11557:0.0000000000000000e+000
11558:0.0000000000000000e+000
11559:0.0000000000000000e+000
11560:0.0000000000000000e+000
11561:0.0000000000000000e+000
11562:0.0000000000000000e+000
11563:0.0000000000000000e+000
11564:0.0000000000000000e+000
11565:0.0000000000000000e+000
11566:0.0000000000000000e+000
11567:0.0000000000000000e+000
11568:0.0000000000000000e+000
11569:0.0000000000000000e+000
11570:0.0000000000000000e+000
11571:0.0000000000000000e+000
11572:0.0000000000000000e+000
11573:0.0000000000000000e+000
11574:0.0000000000000000e+000
11575:0.0000000000000000e+000
11576:0.0000000000000000e+000
11577:0.0000000000000000e+000
11578:0.0000000000000000e+000
11579:0.0000000000000000e+000
11580:0.0000000000000000e+000
11581:0.0000000000000000e+000
11582:0.0000000000000000e+000
11583:0.0000000000000000e+000
11584:0.0000000000000000e+000
11585:0.0000000000000000e+000
11586:0.0000000000000000e+000
11587:0.0000000000000000e+000
11588:0.0000000000000000e+000
11589:0.0000000000000000e+000
11590:0.0000000000000000e+000
11591:0.0000000000000000e+000
11592:0.0000000000000000e+000
11593:0.0000000000000000e+000
11594:0.0000000000000000e+000
11595:0.0000000000000000e+000
11596:0.0000000000000000e+000
11597:0.0000000000000000e+000
11598:0.0000000000000000e+000
11599:0.0000000000000000e+000
11600:0.0000000000000000e+000
11601:0.0000000000000000e+000
11602:0.0000000000000000e+000
11603:0.0000000000000000e+000
11604:0.0000000000000000e+000
11605:0.0000000000000000e+000
11606:0.0000000000000000e+000
11607:0.0000000000000000e+000
11608:0.0000000000000000e+000
11609:0.0000000000000000e+000
11610:0.0000000000000000e+000
11611:0.0000000000000000e+000
11612:0.0000000000000000e+000
11613:0.0000000000000000e+000
11614:0.0000000000000000e+000
11615:0.0000000000000000e+000
11616:0.0000000000000000e+000
11617:0.0000000000000000e+000
11618:0.0000000000000000e+000
11619:0.0000000000000000e+000
11620:0.0000000000000000e+000
11621:0.0000000000000000e+000
11622:0.0000000000000000e+000
11623:0.0000000000000000e+000
11624:0.0000000000000000e+000
11625:0.0000000000000000e+000
11626:0.0000000000000000e+000
11627:0.0000000000000000e+000
11628:0.0000000000000000e+000
11629:0.0000000000000000e+000
11630:0.0000000000000000e+000
11631:0.0000000000000000e+000
11632:0.0000000000000000e+000
11633:0.0000000000000000e+000
11634:0.0000000000000000e+000
11635:0.0000000000000000e+000
11636:0.0000000000000000e+000
11637:0.0000000000000000e+000
11638:0.0000000000000000e+000
11639:0.0000000000000000e+000
11640:0.0000000000000000e+000
11641:0.0000000000000000e+000
11642:0.0000000000000000e+000
11643:0.0000000000000000e+000
11644:0.0000000000000000e+000
11645:0.0000000000000000e+000
11646:0.0000000000000000e+000
11647:0.0000000000000000e+000
11648:0.0000000000000000e+000
11649:0.0000000000000000e+000
11650:0.0000000000000000e+000
11651:0.0000000000000000e+000
11652:0.0000000000000000e+000
11653:0.0000000000000000e+000
11654:0.0000000000000000e+000
11655:0.0000000000000000e+000
11656:0.0000000000000000e+000
11657:0.0000000000000000e+000
11658:0.0000000000000000e+000
11659:0.0000000000000000e+000
11660:0.0000000000000000e+000
11661:0.0000000000000000e+000
11662:0.0000000000000000e+000
11663:0.0000000000000000e+000
11664:0.0000000000000000e+000
11665:0.0000000000000000e+000
11666:0.0000000000000000e+000
11667:0.0000000000000000e+000
11668:0.0000000000000000e+000
11669:0.0000000000000000e+000
11670:0.0000000000000000e+000
11671:0.0000000000000000e+000
11672:0.0000000000000000e+000
11673:0.0000000000000000e+000
11674:0.0000000000000000e+000
11675:0.0000000000000000e+000
11676:0.0000000000000000e+000
11677:0.0000000000000000e+000
11678:0.0000000000000000e+000
11679:0.0000000000000000e+000
11680:0.0000000000000000e+000
11681:0.0000000000000000e+000
11682:0.0000000000000000e+000
11683:0.0000000000000000e+000
11684:0.0000000000000000e+000
11685:0.0000000000000000e+000
11686:0.0000000000000000e+000
11687:0.0000000000000000e+000
11688:0.0000000000000000e+000
11689:0.0000000000000000e+000
11690:0.0000000000000000e+000
11691:0.0000000000000000e+000
11692:0.0000000000000000e+000
11693:0.0000000000000000e+000
11694:0.0000000000000000e+000
11695:0.0000000000000000e+000
11696:0.0000000000000000e+000
11697:0.0000000000000000e+000
11698:0.0000000000000000e+000
11699:0.0000000000000000e+000
11700:0.0000000000000000e+000
11701:0.0000000000000000e+000
11702:0.0000000000000000e+000
11703:0.0000000000000000e+000
11704:0.0000000000000000e+000
11705:0.0000000000000000e+000
11706:0.0000000000000000e+000
11707:0.0000000000000000e+000
11708:0.0000000000000000e+000
11709:0.0000000000000000e+000
11710:0.0000000000000000e+000
11711:0.0000000000000000e+000
11712:0.0000000000000000e+000
11713:0.0000000000000000e+000
11714:0.0000000000000000e+000
11715:0.0000000000000000e+000
11716:0.0000000000000000e+000
11717:0.0000000000000000e+000
11718:0.0000000000000000e+000
11719:0.0000000000000000e+000
11720:0.0000000000000000e+000
11721:0.0000000000000000e+000
11722:0.0000000000000000e+000
11723:0.0000000000000000e+000
11724:0.0000000000000000e+000
11725:0.0000000000000000e+000
11726:0.0000000000000000e+000
11727:0.0000000000000000e+000
11728:0.0000000000000000e+000
11729:0.0000000000000000e+000
11730:0.0000000000000000e+000
11731:0.0000000000000000e+000
11732:0.0000000000000000e+000
11733:0.0000000000000000e+000
11734:0.0000000000000000e+000
11735:0.0000000000000000e+000
11736:0.0000000000000000e+000
11737:0.0000000000000000e+000
11738:0.0000000000000000e+000
11739:0.0000000000000000e+000
11740:0.0000000000000000e+000
11741:0.0000000000000000e+000
11742:0.0000000000000000e+000
11743:0.0000000000000000e+000
11744:0.0000000000000000e+000
11745:0.0000000000000000e+000
11746:0.0000000000000000e+000
11747:0.0000000000000000e+000
11748:0.0000000000000000e+000
11749:0.0000000000000000e+000
11750:0.0000000000000000e+000
11751:0.0000000000000000e+000
11752:0.0000000000000000e+000
11753:0.0000000000000000e+000
11754:0.0000000000000000e+000
11755:0.0000000000000000e+000
11756:0.0000000000000000e+000
11757:0.0000000000000000e+000
11758:0.0000000000000000e+000
11759:0.0000000000000000e+000
11760:0.0000000000000000e+000
11761:0.0000000000000000e+000
11762:0.0000000000000000e+000
11763:0.0000000000000000e+000
11764:0.0000000000000000e+000
11765:0.0000000000000000e+000
11766:0.0000000000000000e+000
11767:0.0000000000000000e+000
11768:0.0000000000000000e+000
11769:0.0000000000000000e+000
11770:0.0000000000000000e+000
11771:0.0000000000000000e+000
11772:0.0000000000000000e+000
11773:0.0000000000000000e+000
11774:0.0000000000000000e+000
11775:0.0000000000000000e+000
11776:0.0000000000000000e+000
11777:0.0000000000000000e+000
11778:0.0000000000000000e+000
11779:0.0000000000000000e+000
11780:0.0000000000000000e+000
11781:0.0000000000000000e+000
11782:0.0000000000000000e+000
11783:0.0000000000000000e+000
11784:0.0000000000000000e+000
11785:0.0000000000000000e+000
11786:0.0000000000000000e+000
11787:0.0000000000000000e+000
11788:0.0000000000000000e+000
11789:0.0000000000000000e+000
11790:0.0000000000000000e+000
11791:0.0000000000000000e+000
11792:0.0000000000000000e+000
11793:0.0000000000000000e+000
11794:0.0000000000000000e+000
11795:0.0000000000000000e+000
11796:0.0000000000000000e+000
11797:0.0000000000000000e+000
11798:0.0000000000000000e+000
11799:0.0000000000000000e+000
11800:0.0000000000000000e+000
11801:0.0000000000000000e+000
11802:0.0000000000000000e+000
11803:0.0000000000000000e+000
11804:0.0000000000000000e+000
11805:0.0000000000000000e+000
11806:0.0000000000000000e+000
11807:0.0000000000000000e+000
11808:0.0000000000000000e+000
11809:0.0000000000000000e+000
11810:0.0000000000000000e+000
11811:0.0000000000000000e+000
11812:0.0000000000000000e+000
11813:0.0000000000000000e+000
11814:0.0000000000000000e+000
11815:0.0000000000000000e+000
11816:0.0000000000000000e+000
11817:0.0000000000000000e+000
11818:0.0000000000000000e+000
11819:0.0000000000000000e+000
11820:0.0000000000000000e+000
11821:0.0000000000000000e+000
11822:0.0000000000000000e+000
11823:0.0000000000000000e+000
11824:0.0000000000000000e+000
11825:0.0000000000000000e+000
11826:0.0000000000000000e+000
11827:0.0000000000000000e+000
11828:0.0000000000000000e+000
11829:0.0000000000000000e+000
11830:0.0000000000000000e+000
11831:0.0000000000000000e+000
11832:0.0000000000000000e+000
11833:0.0000000000000000e+000
11834:0.0000000000000000e+000
11835:0.0000000000000000e+000
11836:0.0000000000000000e+000
11837:0.0000000000000000e+000
11838:0.0000000000000000e+000
11839:0.0000000000000000e+000
11840:0.0000000000000000e+000
11841:0.0000000000000000e+000
11842:0.0000000000000000e+000
11843:0.0000000000000000e+000
11844:0.0000000000000000e+000
11845:0.0000000000000000e+000
11846:0.0000000000000000e+000
11847:0.0000000000000000e+000
11848:0.0000000000000000e+000
11849:0.0000000000000000e+000
11850:0.0000000000000000e+000
11851:0.0000000000000000e+000
11852:0.0000000000000000e+000
11853:0.0000000000000000e+000
11854:0.0000000000000000e+000
11855:0.0000000000000000e+000
11856:0.0000000000000000e+000
11857:0.0000000000000000e+000
11858:0.0000000000000000e+000
11859:0.0000000000000000e+000
11860:0.0000000000000000e+000
11861:0.0000000000000000e+000
11862:0.0000000000000000e+000
11863:0.0000000000000000e+000
11864:0.0000000000000000e+000
11865:0.0000000000000000e+000
11866:0.0000000000000000e+000
11867:0.0000000000000000e+000
11868:0.0000000000000000e+000
11869:0.0000000000000000e+000
11870:0.0000000000000000e+000
11871:0.0000000000000000e+000
11872:0.0000000000000000e+000
11873:0.0000000000000000e+000
11874:0.0000000000000000e+000
11875:0.0000000000000000e+000
11876:0.0000000000000000e+000
11877:0.0000000000000000e+000
11878:0.0000000000000000e+000
11879:0.0000000000000000e+000
11880:0.0000000000000000e+000
11881:0.0000000000000000e+000
11882:0.0000000000000000e+000
11883:0.0000000000000000e+000
11884:0.0000000000000000e+000
11885:0.0000000000000000e+000
11886:0.0000000000000000e+000
11887:0.0000000000000000e+000
11888:0.0000000000000000e+000
11889:0.0000000000000000e+000
11890:0.0000000000000000e+000
11891:0.0000000000000000e+000
11892:0.0000000000000000e+000
11893:0.0000000000000000e+000
11894:0.0000000000000000e+000
11895:0.0000000000000000e+000
11896:0.0000000000000000e+000
11897:0.0000000000000000e+000
11898:0.0000000000000000e+000
11899:0.0000000000000000e+000
11900:0.0000000000000000e+000
11901:0.0000000000000000e+000
11902:0.0000000000000000e+000
11903:0.0000000000000000e+000
11904:0.0000000000000000e+000
11905:0.0000000000000000e+000
11906:0.0000000000000000e+000
11907:0.0000000000000000e+000
11908:0.0000000000000000e+000
11909:0.0000000000000000e+000
11910:0.0000000000000000e+000
11911:0.0000000000000000e+000
11912:0.0000000000000000e+000
11913:0.0000000000000000e+000
11914:0.0000000000000000e+000
11915:0.0000000000000000e+000
11916:0.0000000000000000e+000
11917:0.0000000000000000e+000
11918:0.0000000000000000e+000
11919:0.0000000000000000e+000
11920:0.0000000000000000e+000
11921:0.0000000000000000e+000
11922:0.0000000000000000e+000
11923:0.0000000000000000e+000
11924:0.0000000000000000e+000
11925:0.0000000000000000e+000
11926:0.0000000000000000e+000
11927:0.0000000000000000e+000
11928:0.0000000000000000e+000
11929:0.0000000000000000e+000
11930:0.0000000000000000e+000
11931:0.0000000000000000e+000
11932:0.0000000000000000e+000
11933:0.0000000000000000e+000
11934:0.0000000000000000e+000
11935:0.0000000000000000e+000
11936:0.0000000000000000e+000
11937:0.0000000000000000e+000
11938:0.0000000000000000e+000
11939:0.0000000000000000e+000
11940:0.0000000000000000e+000
11941:0.0000000000000000e+000
11942:0.0000000000000000e+000
11943:0.0000000000000000e+000
11944:0.0000000000000000e+000
11945:0.0000000000000000e+000
11946:0.0000000000000000e+000
11947:0.0000000000000000e+000
11948:0.0000000000000000e+000
11949:0.0000000000000000e+000
11950:0.0000000000000000e+000
11951:0.0000000000000000e+000
11952:0.0000000000000000e+000
11953:0.0000000000000000e+000
11954:0.0000000000000000e+000
11955:0.0000000000000000e+000
11956:0.0000000000000000e+000
11957:0.0000000000000000e+000
11958:0.0000000000000000e+000
11959:0.0000000000000000e+000
11960:0.0000000000000000e+000
11961:0.0000000000000000e+000
11962:0.0000000000000000e+000
11963:0.0000000000000000e+000
11964:0.0000000000000000e+000
11965:0.0000000000000000e+000
11966:0.0000000000000000e+000
11967:0.0000000000000000e+000
11968:0.0000000000000000e+000
11969:0.0000000000000000e+000
11970:0.0000000000000000e+000
11971:0.0000000000000000e+000
11972:0.0000000000000000e+000
11973:0.0000000000000000e+000
11974:0.0000000000000000e+000
11975:0.0000000000000000e+000
11976:0.0000000000000000e+000
11977:0.0000000000000000e+000
11978:0.0000000000000000e+000
11979:0.0000000000000000e+000
11980:0.0000000000000000e+000
11981:0.0000000000000000e+000
11982:0.0000000000000000e+000
11983:0.0000000000000000e+000
11984:0.0000000000000000e+000
11985:0.0000000000000000e+000
11986:0.0000000000000000e+000
11987:0.0000000000000000e+000
11988:0.0000000000000000e+000
11989:0.0000000000000000e+000
11990:0.0000000000000000e+000
11991:0.0000000000000000e+000
11992:0.0000000000000000e+000
11993:0.0000000000000000e+000
11994:0.0000000000000000e+000
11995:0.0000000000000000e+000
11996:0.0000000000000000e+000
11997:0.0000000000000000e+000
11998:0.0000000000000000e+000
11999:0.0000000000000000e+000
12000:0.0000000000000000e+000
12001:0.0000000000000000e+000
12002:0.0000000000000000e+000
12003:0.0000000000000000e+000
12004:0.0000000000000000e+000
12005:0.0000000000000000e+000
12006:0.0000000000000000e+000
12007:0.0000000000000000e+000
12008:0.0000000000000000e+000
12009:0.0000000000000000e+000
12010:0.0000000000000000e+000
12011:0.0000000000000000e+000
12012:0.0000000000000000e+000
12013:0.0000000000000000e+000
12014:0.0000000000000000e+000
12015:0.0000000000000000e+000
12016:0.0000000000000000e+000
12017:0.0000000000000000e+000
12018:0.0000000000000000e+000
12019:0.0000000000000000e+000
12020:0.0000000000000000e+000
12021:0.0000000000000000e+000
12022:0.0000000000000000e+000
12023:0.0000000000000000e+000
12024:0.0000000000000000e+000
12025:0.0000000000000000e+000
12026:0.0000000000000000e+000
12027:0.0000000000000000e+000
12028:0.0000000000000000e+000
12029:0.0000000000000000e+000
12030:0.0000000000000000e+000
12031:0.0000000000000000e+000
12032:0.0000000000000000e+000
12033:0.0000000000000000e+000
12034:0.0000000000000000e+000
12035:0.0000000000000000e+000
12036:0.0000000000000000e+000
12037:0.0000000000000000e+000
12038:0.0000000000000000e+000
12039:0.0000000000000000e+000
12040:0.0000000000000000e+000
12041:0.0000000000000000e+000
12042:0.0000000000000000e+000
12043:0.0000000000000000e+000
12044:0.0000000000000000e+000
12045:0.0000000000000000e+000
12046:0.0000000000000000e+000
12047:0.0000000000000000e+000
12048:0.0000000000000000e+000
12049:0.0000000000000000e+000
12050:0.0000000000000000e+000
12051:0.0000000000000000e+000
12052:0.0000000000000000e+000
12053:0.0000000000000000e+000
12054:0.0000000000000000e+000
12055:0.0000000000000000e+000
12056:0.0000000000000000e+000
12057:0.0000000000000000e+000
12058:0.0000000000000000e+000
12059:0.0000000000000000e+000
12060:0.0000000000000000e+000
12061:0.0000000000000000e+000
12062:0.0000000000000000e+000
12063:0.0000000000000000e+000
12064:0.0000000000000000e+000
12065:0.0000000000000000e+000
12066:0.0000000000000000e+000
12067:0.0000000000000000e+000
12068:0.0000000000000000e+000
12069:0.0000000000000000e+000
12070:0.0000000000000000e+000
12071:0.0000000000000000e+000
12072:0.0000000000000000e+000
12073:0.0000000000000000e+000
12074:0.0000000000000000e+000
12075:0.0000000000000000e+000
12076:0.0000000000000000e+000
12077:0.0000000000000000e+000
12078:0.0000000000000000e+000
12079:0.0000000000000000e+000
12080:0.0000000000000000e+000
12081:0.0000000000000000e+000
12082:0.0000000000000000e+000
12083:0.0000000000000000e+000
12084:0.0000000000000000e+000
12085:0.0000000000000000e+000
12086:0.0000000000000000e+000
12087:0.0000000000000000e+000
12088:0.0000000000000000e+000
12089:0.0000000000000000e+000
12090:0.0000000000000000e+000
12091:0.0000000000000000e+000
12092:0.0000000000000000e+000
12093:0.0000000000000000e+000
12094:0.0000000000000000e+000
12095:0.0000000000000000e+000
12096:0.0000000000000000e+000
12097:0.0000000000000000e+000
12098:0.0000000000000000e+000
12099:0.0000000000000000e+000
12100:0.0000000000000000e+000
12101:0.0000000000000000e+000
12102:0.0000000000000000e+000
12103:0.0000000000000000e+000
12104:0.0000000000000000e+000
12105:0.0000000000000000e+000
12106:0.0000000000000000e+000
12107:0.0000000000000000e+000
12108:0.0000000000000000e+000
12109:0.0000000000000000e+000
12110:0.0000000000000000e+000
12111:0.0000000000000000e+000
12112:0.0000000000000000e+000
12113:0.0000000000000000e+000
12114:0.0000000000000000e+000
12115:0.0000000000000000e+000
12116:0.0000000000000000e+000
12117:0.0000000000000000e+000
12118:0.0000000000000000e+000
12119:0.0000000000000000e+000
12120:0.0000000000000000e+000
12121:0.0000000000000000e+000
12122:0.0000000000000000e+000
12123:0.0000000000000000e+000
12124:0.0000000000000000e+000
12125:0.0000000000000000e+000
12126:0.0000000000000000e+000
12127:0.0000000000000000e+000
12128:0.0000000000000000e+000
12129:0.0000000000000000e+000
12130:0.0000000000000000e+000
12131:0.0000000000000000e+000
12132:0.0000000000000000e+000
12133:0.0000000000000000e+000
12134:0.0000000000000000e+000
12135:0.0000000000000000e+000
12136:0.0000000000000000e+000
12137:0.0000000000000000e+000
12138:0.0000000000000000e+000
12139:0.0000000000000000e+000
12140:0.0000000000000000e+000
12141:0.0000000000000000e+000
12142:0.0000000000000000e+000
12143:0.0000000000000000e+000
12144:0.0000000000000000e+000
12145:0.0000000000000000e+000
12146:0.0000000000000000e+000
12147:0.0000000000000000e+000
12148:0.0000000000000000e+000
12149:0.0000000000000000e+000
12150:0.0000000000000000e+000
12151:0.0000000000000000e+000
12152:0.0000000000000000e+000
12153:0.0000000000000000e+000
12154:0.0000000000000000e+000
12155:0.0000000000000000e+000
12156:0.0000000000000000e+000
12157:0.0000000000000000e+000
12158:0.0000000000000000e+000
12159:0.0000000000000000e+000
12160:0.0000000000000000e+000
12161:0.0000000000000000e+000
12162:0.0000000000000000e+000
12163:0.0000000000000000e+000
12164:0.0000000000000000e+000
12165:0.0000000000000000e+000
12166:0.0000000000000000e+000
12167:0.0000000000000000e+000
12168:0.0000000000000000e+000
12169:0.0000000000000000e+000
12170:0.0000000000000000e+000
12171:0.0000000000000000e+000
12172:0.0000000000000000e+000
12173:0.0000000000000000e+000
12174:0.0000000000000000e+000
12175:0.0000000000000000e+000
12176:0.0000000000000000e+000
12177:0.0000000000000000e+000
12178:0.0000000000000000e+000
12179:0.0000000000000000e+000
12180:0.0000000000000000e+000
12181:0.0000000000000000e+000
12182:0.0000000000000000e+000
12183:0.0000000000000000e+000
12184:0.0000000000000000e+000
12185:0.0000000000000000e+000
12186:0.0000000000000000e+000
12187:0.0000000000000000e+000
12188:0.0000000000000000e+000
12189:0.0000000000000000e+000
12190:0.0000000000000000e+000
12191:0.0000000000000000e+000
12192:0.0000000000000000e+000
12193:0.0000000000000000e+000
12194:0.0000000000000000e+000
12195:0.0000000000000000e+000
12196:0.0000000000000000e+000
12197:0.0000000000000000e+000
12198:0.0000000000000000e+000
12199:0.0000000000000000e+000
12200:0.0000000000000000e+000
12201:0.0000000000000000e+000
12202:0.0000000000000000e+000
12203:0.0000000000000000e+000
12204:0.0000000000000000e+000
12205:0.0000000000000000e+000
12206:0.0000000000000000e+000
12207:0.0000000000000000e+000
12208:0.0000000000000000e+000
12209:0.0000000000000000e+000
12210:0.0000000000000000e+000
12211:0.0000000000000000e+000
12212:0.0000000000000000e+000
12213:0.0000000000000000e+000
12214:0.0000000000000000e+000
12215:0.0000000000000000e+000
12216:0.0000000000000000e+000
12217:0.0000000000000000e+000
12218:0.0000000000000000e+000
12219:0.0000000000000000e+000
12220:0.0000000000000000e+000
12221:0.0000000000000000e+000
12222:0.0000000000000000e+000
12223:0.0000000000000000e+000
12224:0.0000000000000000e+000
12225:0.0000000000000000e+000
12226:0.0000000000000000e+000
12227:0.0000000000000000e+000
12228:0.0000000000000000e+000
12229:0.0000000000000000e+000
12230:0.0000000000000000e+000
12231:0.0000000000000000e+000
12232:0.0000000000000000e+000
12233:0.0000000000000000e+000
12234:0.0000000000000000e+000
12235:0.0000000000000000e+000
12236:0.0000000000000000e+000
12237:0.0000000000000000e+000
12238:0.0000000000000000e+000
12239:0.0000000000000000e+000
12240:0.0000000000000000e+000
12241:0.0000000000000000e+000
12242:0.0000000000000000e+000
12243:0.0000000000000000e+000
12244:0.0000000000000000e+000
12245:0.0000000000000000e+000
12246:0.0000000000000000e+000
12247:0.0000000000000000e+000
12248:0.0000000000000000e+000
12249:0.0000000000000000e+000
12250:0.0000000000000000e+000
12251:0.0000000000000000e+000
12252:0.0000000000000000e+000
12253:0.0000000000000000e+000
12254:0.0000000000000000e+000
12255:0.0000000000000000e+000
12256:0.0000000000000000e+000
12257:0.0000000000000000e+000
12258:0.0000000000000000e+000
12259:0.0000000000000000e+000
12260:0.0000000000000000e+000
12261:0.0000000000000000e+000
12262:0.0000000000000000e+000
12263:0.0000000000000000e+000
12264:0.0000000000000000e+000
12265:0.0000000000000000e+000
12266:0.0000000000000000e+000
12267:0.0000000000000000e+000
12268:0.0000000000000000e+000
12269:0.0000000000000000e+000
12270:0.0000000000000000e+000
12271:0.0000000000000000e+000
12272:0.0000000000000000e+000
12273:0.0000000000000000e+000
12274:0.0000000000000000e+000
12275:0.0000000000000000e+000
12276:0.0000000000000000e+000
12277:0.0000000000000000e+000
12278:0.0000000000000000e+000
12279:0.0000000000000000e+000
12280:0.0000000000000000e+000
12281:0.0000000000000000e+000
12282:0.0000000000000000e+000
12283:0.0000000000000000e+000
12284:0.0000000000000000e+000
12285:0.0000000000000000e+000
12286:0.0000000000000000e+000
12287:0.0000000000000000e+000
12288:0.0000000000000000e+000
12289:0.0000000000000000e+000
12290:0.0000000000000000e+000
12291:0.0000000000000000e+000
12292:0.0000000000000000e+000
12293:0.0000000000000000e+000
12294:0.0000000000000000e+000
12295:0.0000000000000000e+000
12296:0.0000000000000000e+000
12297:0.0000000000000000e+000
12298:0.0000000000000000e+000
12299:0.0000000000000000e+000
12300:0.0000000000000000e+000
12301:0.0000000000000000e+000
12302:0.0000000000000000e+000
12303:0.0000000000000000e+000
12304:0.0000000000000000e+000
12305:0.0000000000000000e+000
12306:0.0000000000000000e+000
12307:0.0000000000000000e+000
12308:0.0000000000000000e+000
12309:0.0000000000000000e+000
12310:0.0000000000000000e+000
12311:0.0000000000000000e+000
12312:0.0000000000000000e+000
12313:0.0000000000000000e+000
12314:0.0000000000000000e+000
12315:0.0000000000000000e+000
12316:0.0000000000000000e+000
12317:0.0000000000000000e+000
12318:0.0000000000000000e+000
12319:0.0000000000000000e+000
12320:0.0000000000000000e+000
12321:0.0000000000000000e+000
12322:0.0000000000000000e+000
12323:0.0000000000000000e+000
12324:0.0000000000000000e+000
12325:0.0000000000000000e+000
12326:0.0000000000000000e+000
12327:0.0000000000000000e+000
12328:0.0000000000000000e+000
12329:0.0000000000000000e+000
12330:0.0000000000000000e+000
12331:0.0000000000000000e+000
12332:0.0000000000000000e+000
12333:0.0000000000000000e+000
12334:0.0000000000000000e+000
12335:0.0000000000000000e+000
12336:0.0000000000000000e+000
12337:0.0000000000000000e+000
12338:0.0000000000000000e+000
12339:0.0000000000000000e+000
12340:0.0000000000000000e+000
12341:0.0000000000000000e+000
12342:0.0000000000000000e+000
12343:0.0000000000000000e+000
12344:0.0000000000000000e+000
12345:0.0000000000000000e+000
12346:0.0000000000000000e+000
12347:0.0000000000000000e+000
12348:0.0000000000000000e+000
12349:0.0000000000000000e+000
12350:0.0000000000000000e+000
12351:0.0000000000000000e+000
12352:0.0000000000000000e+000
12353:0.0000000000000000e+000
12354:0.0000000000000000e+000
12355:0.0000000000000000e+000
12356:0.0000000000000000e+000
12357:0.0000000000000000e+000
12358:0.0000000000000000e+000
12359:0.0000000000000000e+000
12360:0.0000000000000000e+000
12361:0.0000000000000000e+000
12362:0.0000000000000000e+000
12363:0.0000000000000000e+000
12364:0.0000000000000000e+000
12365:0.0000000000000000e+000
12366:0.0000000000000000e+000
12367:0.0000000000000000e+000
12368:0.0000000000000000e+000
12369:0.0000000000000000e+000
12370:0.0000000000000000e+000
12371:0.0000000000000000e+000
12372:0.0000000000000000e+000
12373:0.0000000000000000e+000
12374:0.0000000000000000e+000
12375:0.0000000000000000e+000
12376:0.0000000000000000e+000
12377:0.0000000000000000e+000
12378:0.0000000000000000e+000
12379:0.0000000000000000e+000
12380:0.0000000000000000e+000
12381:0.0000000000000000e+000
12382:0.0000000000000000e+000
12383:0.0000000000000000e+000
12384:0.0000000000000000e+000
12385:0.0000000000000000e+000
12386:0.0000000000000000e+000
12387:0.0000000000000000e+000
12388:0.0000000000000000e+000
12389:0.0000000000000000e+000
12390:0.0000000000000000e+000
12391:0.0000000000000000e+000
12392:0.0000000000000000e+000
12393:0.0000000000000000e+000
12394:0.0000000000000000e+000
12395:0.0000000000000000e+000
12396:0.0000000000000000e+000
12397:0.0000000000000000e+000
12398:0.0000000000000000e+000
12399:0.0000000000000000e+000
12400:0.0000000000000000e+000
12401:0.0000000000000000e+000
12402:0.0000000000000000e+000
12403:0.0000000000000000e+000
12404:0.0000000000000000e+000
12405:0.0000000000000000e+000
12406:0.0000000000000000e+000
12407:0.0000000000000000e+000
12408:0.0000000000000000e+000
12409:0.0000000000000000e+000
12410:0.0000000000000000e+000
12411:0.0000000000000000e+000
12412:0.0000000000000000e+000
12413:0.0000000000000000e+000
12414:0.0000000000000000e+000
12415:0.0000000000000000e+000
12416:0.0000000000000000e+000
12417:0.0000000000000000e+000
12418:0.0000000000000000e+000
12419:0.0000000000000000e+000
12420:0.0000000000000000e+000
12421:0.0000000000000000e+000
12422:0.0000000000000000e+000
12423:0.0000000000000000e+000
12424:0.0000000000000000e+000
12425:0.0000000000000000e+000
12426:0.0000000000000000e+000
12427:0.0000000000000000e+000
12428:0.0000000000000000e+000
12429:0.0000000000000000e+000
12430:0.0000000000000000e+000
12431:0.0000000000000000e+000
12432:0.0000000000000000e+000
12433:0.0000000000000000e+000
12434:0.0000000000000000e+000
12435:0.0000000000000000e+000
12436:0.0000000000000000e+000
12437:0.0000000000000000e+000
12438:0.0000000000000000e+000
12439:0.0000000000000000e+000
12440:0.0000000000000000e+000
12441:0.0000000000000000e+000
12442:0.0000000000000000e+000
12443:0.0000000000000000e+000
12444:0.0000000000000000e+000
12445:0.0000000000000000e+000
12446:0.0000000000000000e+000
12447:0.0000000000000000e+000
12448:0.0000000000000000e+000
12449:0.0000000000000000e+000
12450:0.0000000000000000e+000
12451:0.0000000000000000e+000
12452:0.0000000000000000e+000
12453:0.0000000000000000e+000
12454:0.0000000000000000e+000
12455:0.0000000000000000e+000
12456:0.0000000000000000e+000
12457:0.0000000000000000e+000
12458:0.0000000000000000e+000
12459:0.0000000000000000e+000
12460:0.0000000000000000e+000
12461:0.0000000000000000e+000
12462:0.0000000000000000e+000
12463:0.0000000000000000e+000
12464:0.0000000000000000e+000
12465:0.0000000000000000e+000
12466:0.0000000000000000e+000
12467:0.0000000000000000e+000
12468:0.0000000000000000e+000
12469:0.0000000000000000e+000
12470:0.0000000000000000e+000
12471:0.0000000000000000e+000
12472:0.0000000000000000e+000
12473:0.0000000000000000e+000
12474:0.0000000000000000e+000
12475:0.0000000000000000e+000
12476:0.0000000000000000e+000
12477:0.0000000000000000e+000
12478:0.0000000000000000e+000
12479:0.0000000000000000e+000
12480:0.0000000000000000e+000
12481:0.0000000000000000e+000
12482:0.0000000000000000e+000
12483:0.0000000000000000e+000
12484:0.0000000000000000e+000
12485:0.0000000000000000e+000
12486:0.0000000000000000e+000
12487:0.0000000000000000e+000
12488:0.0000000000000000e+000
12489:0.0000000000000000e+000
12490:0.0000000000000000e+000
12491:0.0000000000000000e+000
12492:0.0000000000000000e+000
12493:0.0000000000000000e+000
12494:0.0000000000000000e+000
12495:0.0000000000000000e+000
12496:0.0000000000000000e+000
12497:0.0000000000000000e+000
12498:0.0000000000000000e+000
12499:0.0000000000000000e+000
12500:0.0000000000000000e+000
12501:0.0000000000000000e+000
12502:0.0000000000000000e+000
12503:0.0000000000000000e+000
12504:0.0000000000000000e+000
12505:0.0000000000000000e+000
12506:0.0000000000000000e+000
12507:0.0000000000000000e+000
12508:0.0000000000000000e+000
12509:0.0000000000000000e+000
12510:0.0000000000000000e+000
12511:0.0000000000000000e+000
12512:0.0000000000000000e+000
12513:0.0000000000000000e+000
12514:0.0000000000000000e+000
12515:0.0000000000000000e+000
12516:0.0000000000000000e+000
12517:0.0000000000000000e+000
12518:0.0000000000000000e+000
12519:0.0000000000000000e+000
12520:0.0000000000000000e+000
12521:0.0000000000000000e+000
12522:0.0000000000000000e+000
12523:0.0000000000000000e+000
12524:0.0000000000000000e+000
12525:0.0000000000000000e+000
12526:0.0000000000000000e+000
12527:0.0000000000000000e+000
12528:0.0000000000000000e+000
12529:0.0000000000000000e+000
12530:0.0000000000000000e+000
12531:0.0000000000000000e+000
12532:0.0000000000000000e+000
12533:0.0000000000000000e+000
12534:0.0000000000000000e+000
12535:0.0000000000000000e+000
12536:0.0000000000000000e+000
12537:0.0000000000000000e+000
12538:0.0000000000000000e+000
12539:0.0000000000000000e+000
12540:0.0000000000000000e+000
12541:0.0000000000000000e+000
12542:0.0000000000000000e+000
12543:0.0000000000000000e+000
12544:0.0000000000000000e+000
12545:0.0000000000000000e+000
12546:0.0000000000000000e+000
12547:0.0000000000000000e+000
12548:0.0000000000000000e+000
12549:0.0000000000000000e+000
12550:0.0000000000000000e+000
12551:0.0000000000000000e+000
12552:0.0000000000000000e+000
12553:0.0000000000000000e+000
12554:0.0000000000000000e+000
12555:0.0000000000000000e+000
12556:0.0000000000000000e+000
12557:0.0000000000000000e+000
12558:0.0000000000000000e+000
12559:0.0000000000000000e+000
12560:0.0000000000000000e+000
12561:0.0000000000000000e+000
12562:0.0000000000000000e+000
12563:0.0000000000000000e+000
12564:0.0000000000000000e+000
12565:0.0000000000000000e+000
12566:0.0000000000000000e+000
12567:0.0000000000000000e+000
12568:0.0000000000000000e+000
12569:0.0000000000000000e+000
12570:0.0000000000000000e+000
12571:0.0000000000000000e+000
12572:0.0000000000000000e+000
12573:0.0000000000000000e+000
12574:0.0000000000000000e+000
12575:0.0000000000000000e+000
12576:0.0000000000000000e+000
12577:0.0000000000000000e+000
12578:0.0000000000000000e+000
12579:0.0000000000000000e+000
12580:0.0000000000000000e+000
12581:0.0000000000000000e+000
12582:0.0000000000000000e+000
12583:0.0000000000000000e+000
12584:0.0000000000000000e+000
12585:0.0000000000000000e+000
12586:0.0000000000000000e+000
12587:0.0000000000000000e+000
12588:0.0000000000000000e+000
12589:0.0000000000000000e+000
12590:0.0000000000000000e+000
12591:0.0000000000000000e+000
12592:0.0000000000000000e+000
12593:0.0000000000000000e+000
12594:0.0000000000000000e+000
12595:0.0000000000000000e+000
12596:0.0000000000000000e+000
12597:0.0000000000000000e+000
12598:0.0000000000000000e+000
12599:0.0000000000000000e+000
12600:0.0000000000000000e+000
12601:0.0000000000000000e+000
12602:0.0000000000000000e+000
12603:0.0000000000000000e+000
12604:0.0000000000000000e+000
12605:0.0000000000000000e+000
12606:0.0000000000000000e+000
12607:0.0000000000000000e+000
12608:0.0000000000000000e+000
12609:0.0000000000000000e+000
12610:0.0000000000000000e+000
12611:0.0000000000000000e+000
12612:0.0000000000000000e+000
12613:0.0000000000000000e+000
12614:0.0000000000000000e+000
12615:0.0000000000000000e+000
12616:0.0000000000000000e+000
12617:0.0000000000000000e+000
12618:0.0000000000000000e+000
12619:0.0000000000000000e+000
12620:0.0000000000000000e+000
12621:0.0000000000000000e+000
12622:0.0000000000000000e+000
12623:0.0000000000000000e+000
12624:0.0000000000000000e+000
12625:0.0000000000000000e+000
12626:0.0000000000000000e+000
12627:0.0000000000000000e+000
12628:0.0000000000000000e+000
12629:0.0000000000000000e+000
12630:0.0000000000000000e+000
12631:0.0000000000000000e+000
12632:0.0000000000000000e+000
12633:0.0000000000000000e+000
12634:0.0000000000000000e+000
12635:0.0000000000000000e+000
12636:0.0000000000000000e+000
12637:0.0000000000000000e+000
12638:0.0000000000000000e+000
12639:0.0000000000000000e+000
12640:0.0000000000000000e+000
12641:0.0000000000000000e+000
12642:0.0000000000000000e+000
12643:0.0000000000000000e+000
12644:0.0000000000000000e+000
12645:0.0000000000000000e+000
12646:0.0000000000000000e+000
12647:0.0000000000000000e+000
12648:0.0000000000000000e+000
12649:0.0000000000000000e+000
12650:0.0000000000000000e+000
12651:0.0000000000000000e+000
12652:0.0000000000000000e+000
12653:0.0000000000000000e+000
12654:0.0000000000000000e+000
12655:0.0000000000000000e+000
12656:0.0000000000000000e+000
12657:0.0000000000000000e+000
12658:0.0000000000000000e+000
12659:0.0000000000000000e+000
12660:0.0000000000000000e+000
12661:0.0000000000000000e+000
12662:0.0000000000000000e+000
12663:0.0000000000000000e+000
12664:0.0000000000000000e+000
12665:0.0000000000000000e+000
12666:0.0000000000000000e+000
12667:0.0000000000000000e+000
12668:0.0000000000000000e+000
12669:0.0000000000000000e+000
12670:0.0000000000000000e+000
12671:0.0000000000000000e+000
12672:0.0000000000000000e+000
12673:0.0000000000000000e+000
12674:0.0000000000000000e+000
12675:0.0000000000000000e+000
12676:0.0000000000000000e+000
12677:0.0000000000000000e+000
12678:0.0000000000000000e+000
12679:0.0000000000000000e+000
12680:0.0000000000000000e+000
12681:0.0000000000000000e+000
12682:0.0000000000000000e+000
12683:0.0000000000000000e+000
12684:0.0000000000000000e+000
12685:0.0000000000000000e+000
12686:0.0000000000000000e+000
12687:0.0000000000000000e+000
12688:0.0000000000000000e+000
12689:0.0000000000000000e+000
12690:0.0000000000000000e+000
12691:0.0000000000000000e+000
12692:0.0000000000000000e+000
12693:0.0000000000000000e+000
12694:0.0000000000000000e+000
12695:0.0000000000000000e+000
12696:0.0000000000000000e+000
12697:0.0000000000000000e+000
12698:0.0000000000000000e+000
12699:0.0000000000000000e+000
12700:0.0000000000000000e+000
12701:0.0000000000000000e+000
12702:0.0000000000000000e+000
12703:0.0000000000000000e+000
12704:0.0000000000000000e+000
12705:0.0000000000000000e+000
12706:0.0000000000000000e+000
12707:0.0000000000000000e+000
12708:0.0000000000000000e+000
12709:0.0000000000000000e+000
12710:0.0000000000000000e+000
12711:0.0000000000000000e+000
12712:0.0000000000000000e+000
12713:0.0000000000000000e+000
12714:0.0000000000000000e+000
12715:0.0000000000000000e+000
12716:0.0000000000000000e+000
12717:0.0000000000000000e+000
12718:0.0000000000000000e+000
12719:0.0000000000000000e+000
12720:0.0000000000000000e+000
12721:0.0000000000000000e+000
12722:0.0000000000000000e+000
12723:0.0000000000000000e+000
12724:0.0000000000000000e+000
12725:0.0000000000000000e+000
12726:0.0000000000000000e+000
12727:0.0000000000000000e+000
12728:0.0000000000000000e+000
12729:0.0000000000000000e+000
12730:0.0000000000000000e+000
12731:0.0000000000000000e+000
12732:0.0000000000000000e+000
12733:0.0000000000000000e+000
12734:0.0000000000000000e+000
12735:0.0000000000000000e+000
12736:0.0000000000000000e+000
12737:0.0000000000000000e+000
12738:0.0000000000000000e+000
12739:0.0000000000000000e+000
12740:0.0000000000000000e+000
12741:0.0000000000000000e+000
12742:0.0000000000000000e+000
12743:0.0000000000000000e+000
12744:0.0000000000000000e+000
12745:0.0000000000000000e+000
12746:0.0000000000000000e+000
12747:0.0000000000000000e+000
12748:0.0000000000000000e+000
12749:0.0000000000000000e+000
12750:0.0000000000000000e+000
12751:0.0000000000000000e+000
12752:0.0000000000000000e+000
12753:0.0000000000000000e+000
12754:0.0000000000000000e+000
12755:0.0000000000000000e+000
12756:0.0000000000000000e+000
12757:0.0000000000000000e+000
12758:0.0000000000000000e+000
12759:0.0000000000000000e+000
12760:0.0000000000000000e+000
12761:0.0000000000000000e+000
12762:0.0000000000000000e+000
12763:0.0000000000000000e+000
12764:0.0000000000000000e+000
12765:0.0000000000000000e+000
12766:0.0000000000000000e+000
12767:0.0000000000000000e+000
12768:0.0000000000000000e+000
12769:0.0000000000000000e+000
12770:0.0000000000000000e+000
12771:0.0000000000000000e+000
12772:0.0000000000000000e+000
12773:0.0000000000000000e+000
12774:0.0000000000000000e+000
12775:0.0000000000000000e+000
12776:0.0000000000000000e+000
12777:0.0000000000000000e+000
12778:0.0000000000000000e+000
12779:0.0000000000000000e+000
12780:0.0000000000000000e+000
12781:0.0000000000000000e+000
12782:0.0000000000000000e+000
12783:0.0000000000000000e+000
12784:0.0000000000000000e+000
12785:0.0000000000000000e+000
12786:0.0000000000000000e+000
12787:0.0000000000000000e+000
12788:0.0000000000000000e+000
12789:0.0000000000000000e+000
12790:0.0000000000000000e+000
12791:0.0000000000000000e+000
12792:0.0000000000000000e+000
12793:0.0000000000000000e+000
12794:0.0000000000000000e+000
12795:0.0000000000000000e+000
12796:0.0000000000000000e+000
12797:0.0000000000000000e+000
12798:0.0000000000000000e+000
12799:0.0000000000000000e+000
