x	y	stress_yy
 1.000000000000000e+00	 0.000000000000000e+00	 2.448274436881439e+01
 9.997942136041430e-01	 2.028591802679378e-02	 2.445624724448430e+01
 9.991701517322812e-01	 4.073043895732996e-02	 2.438485855362082e+01
 9.981179738659461e-01	 6.132242709398375e-02	 2.426803976541077e+01
 9.966281528999331e-01	 8.205016480108969e-02	 2.410549249105850e+01
 9.946915115410935e-01	 1.029013581149163e-01	 2.389717139311103e+01
 9.922992591451227e-01	 1.238631447915628e-01	 2.364329609774575e+01
 9.894430288203904e-01	 1.449221048859623e-01	 2.334436194720454e+01
 9.861149146151664e-01	 1.660642739430359e-01	 2.300114943029939e+01
 9.823075085927058e-01	 1.872751588682954e-01	 2.261473213178401e+01
 9.780139375877577e-01	 2.085397565298897e-01	 2.218648304650980e+01
 1.014285762337685e+00	 0.000000000000000e+00	 2.368666847596746e+01
 1.014077036126061e+00	 2.057571783397239e-02	 2.366883096492541e+01
 1.013444059054001e+00	 4.131230433435238e-02	 2.360797351253968e+01
 1.012376850023818e+00	 6.219846472164651e-02	 2.350358335841937e+01
 1.010865745828442e+00	 8.322231396489504e-02	 2.335541301163676e+01
 1.008901438070191e+00	 1.043713824717894e-01	 2.316349418043054e+01
 1.006475010523806e+00	 1.256326242515389e-01	 2.292815055517138e+01
 1.003577976770334e+00	 1.469924276450039e-01	 2.265000926313822e+01
 1.000202317915604e+00	 1.684366287042941e-01	 2.233001081484012e+01
 9.963405201949547e-01	 1.899505272900958e-01	 2.196941736520883e+01
 9.919856122548429e-01	 2.115189059394628e-01	 2.156981911912625e+01
 1.028571613012482e+00	 0.000000000000000e+00	 2.295699894561449e+01
 1.028359946966947e+00	 2.086551943237181e-02	 2.294505934290459e+01
 1.027718054639657e+00	 4.189417330796975e-02	 2.289215179988519e+01
 1.026635814352820e+00	 6.307450776443697e-02	 2.279779837891887e+01
 1.025103426796637e+00	 8.439447037447290e-02	 2.266180483165274e+01
 1.023111452468066e+00	 1.058414159160936e-01	 2.248427518498202e+01
 1.020650849560097e+00	 1.274021146504702e-01	 2.226562506112270e+01
 1.017713012125696e+00	 1.490627632031908e-01	 2.200659353673785e+01
 1.014289808327531e+00	 1.708089981323072e-01	 2.170825334769183e+01
 1.010373618572351e+00	 1.926259122523858e-01	 2.137201925025281e+01
 1.005957373317689e+00	 2.144980737680448e-01	 2.099965435657862e+01
 1.042857540357000e+00	 0.000000000000000e+00	 2.228748623333436e+01
 1.042642934461810e+00	 2.115532258538498e-02	 2.227917174629930e+01
 1.041992126831531e+00	 4.247604540310704e-02	 2.223206123471376e+01
 1.040894855207496e+00	 6.395055550708173e-02	 2.214572052996278e+01
 1.039341184176433e+00	 8.556663307275812e-02	 2.202001106652209e+01
 1.037321543129217e+00	 1.073114572475230e-01	 2.185510476916140e+01
 1.034826764676397e+00	 1.291716145435108e-01	 2.165149758496770e+01
 1.031848123342196e+00	 1.511331098699965e-01	 2.141002145645698e+01
 1.028377374345500e+00	 1.731813802898896e-01	 2.113185453411273e+01
 1.024406792263879e+00	 1.953013115705125e-01	 2.081852943152442e+01
 1.019929209365398e+00	 2.174772575828835e-01	 2.047193933405911e+01
 1.057143532703853e+00	 0.000000000000000e+00	 2.167221852374070e+01
 1.056925986945660e+00	 2.144512705640483e-02	 2.166571870408023e+01
 1.056266263971905e+00	 4.305792014468924e-02	 2.162265749398147e+01
 1.055153960942393e+00	 6.482660723430732e-02	 2.154265334021389e+01
 1.053579006339744e+00	 8.673880110268559e-02	 2.142562589115090e+01
 1.051531698448141e+00	 1.087815052657716e-01	 2.127181083879342e+01
 1.049002744295102e+00	 1.309411224858152e-01	 2.108177334554600e+01
 1.045983298875552e+00	 1.532034659548943e-01	 2.085641984816200e+01
 1.042465004464060e+00	 1.755537732398562e-01	 2.059700803378546e+01
 1.038440029808523e+00	 1.979767230598238e-01	 2.030515478837774e+01
 1.033901108987072e+00	 2.204564549512274e-01	 1.998284192618723e+01
 1.071429578385649e+00	 0.000000000000000e+00	 2.110559922210258e+01
 1.071209092753505e+00	 2.173493260882433e-02	 2.109954116856690e+01
 1.070540454403061e+00	 4.363979705764136e-02	 2.105916492783240e+01
 1.069413119912057e+00	 6.570266223084026e-02	 2.098415031425685e+01
 1.067816881658486e+00	 8.791097350719018e-02	 2.087447780757917e+01
 1.065741906819336e+00	 1.102515587705330e-01	 2.073044301148659e+01
 1.063178776838613e+00	 1.327106370325378e-01	 2.055266966547544e+01
 1.060118527181483e+00	 1.552738297673575e-01	 2.034212100330349e+01
 1.056552687177763e+00	 1.779261750450211e-01	 2.010010925428057e+01
 1.052473319745267e+00	 2.006521445356669e-01	 1.982830308946736e+01
 1.047873060771812e+00	 2.234356634403244e-01	 1.952873282370460e+01
 1.085715665735001e+00	 0.000000000000000e+00	 2.058232622144975e+01
 1.085492240220354e+00	 2.202473900603640e-02	 2.057575141349917e+01
 1.084814686467279e+00	 4.422167566688838e-02	 2.053705888820024e+01
 1.083672320471032e+00	 6.657871978140713e-02	 2.046599849091713e+01
 1.082054798504573e+00	 8.908314932920679e-02	 2.036261423249681e+01
 1.079952156637299e+00	 1.117216165615015e-01	 2.022725803381313e+01
 1.077354850729328e+00	 1.344801567388329e-01	 2.006060202017607e+01
 1.074253796715706e+00	 1.573441996168596e-01	 1.986364916442846e+01
 1.070640410981159e+00	 1.802985837681990e-01	 1.963774208093600e+01
 1.066506650613095e+00	 2.033275738133893e-01	 1.938456977890210e+01
 1.061845053308720e+00	 2.264148806174227e-01	 1.910617219264502e+01
 1.100001783084519e+00	 0.000000000000000e+00	 2.009737278388810e+01
 1.099775417681215e+00	 2.231454601143399e-02	 2.008971541933827e+01
 1.099088948506841e+00	 4.480355549735529e-02	 2.005204943326276e+01
 1.097931550973866e+00	 6.745477917073454e-02	 1.998420328169207e+01
 1.096292745249919e+00	 9.025532761167027e-02	 1.988628728474239e+01
 1.094162436296527e+00	 1.131916774383708e-01	 1.975870633387803e+01
 1.091530954389646e+00	 1.362496801598548e-01	 1.960217117309187e+01
 1.088389095933940e+00	 1.594145738128738e-01	 1.941770806290774e+01
 1.084728164368799e+00	 1.826709974722041e-01	 1.920666663992773e+01
 1.080540010950993e+00	 2.060030087083387e-01	 1.897072579121039e+01
 1.075817075186898e+00	 2.293941040497704e-01	 1.871189737220431e+01
 1.114287918766816e+00	 0.000000000000000e+00	 1.964596989137940e+01
 1.114058613471097e+00	 2.260435338841005e-02	 1.963703661243649e+01
 1.113363228864028e+00	 4.538543607396710e-02	 1.960006628437695e+01
 1.112190799775103e+00	 6.833083968354900e-02	 1.953497447450637e+01
 1.110530710266440e+00	 9.142750739751551e-02	 1.944194066518246e+01
 1.108372734191518e+00	 1.146617402008348e-01	 1.932141960746706e+01
 1.105707076241964e+00	 1.380192058507579e-01	 1.917415129970977e+01
 1.102524413291903e+00	 1.614849506648735e-01	 1.900116941452611e+01
 1.098815935835233e+00	 1.850434142198511e-01	 1.880380800188500e+01
 1.094573389297943e+00	 2.086784470358625e-01	 1.858370630286329e+01
 1.089789114995448e+00	 2.323733313046157e-01	 1.834281151816982e+01
 1.128574061114501e+00	 0.000000000000000e+00	 1.922358993588461e+01
 1.128341815925009e+00	 2.289416090035752e-02	 1.921354083821022e+01
 1.127637515881123e+00	 4.596731692164878e-02	 1.917724492460471e+01
 1.126450055229290e+00	 6.920690060457710e-02	 1.911471329961889e+01
 1.124768681926050e+00	 9.259968772967736e-02	 1.902619753225663e+01
 1.122583038716770e+00	 1.161318036485876e-01	 1.891219934626451e+01
 1.119883204708684e+00	 1.397887323666966e-01	 1.877347901283282e+01
 1.116659737245314e+00	 1.635553284823320e-01	 1.861106228813024e+01
 1.112903713875012e+00	 1.874158320739545e-01	 1.842624574277855e+01
 1.108606774192931e+00	 2.113538866113081e-01	 1.822060033743648e+01
 1.103761161323472e+00	 2.353525599492068e-01	 1.799597310819357e+01
 1.142860198460186e+00	 0.000000000000000e+00	 1.882593163177004e+01
 1.142625013377961e+00	 2.318396831066934e-02	 1.881526246042652e+01
 1.141911797900406e+00	 4.654919756532534e-02	 1.877991373901964e+01
 1.140709305690971e+00	 7.008296121854536e-02	 1.872000046481628e+01
 1.139006648600664e+00	 9.377186765109072e-02	 1.863584928613671e+01
 1.136793338266779e+00	 1.176018665813230e-01	 1.852800622577567e+01
 1.134059328212202e+00	 1.415582582628251e-01	 1.839724321030980e+01
 1.130795056249892e+00	 1.656257055747228e-01	 1.824456327100239e+01
 1.126991486982686e+00	 1.897882490973286e-01	 1.807120428712955e+01
 1.122640154174940e+00	 2.140293252500230e-01	 1.787864114977719e+01
 1.117733202760072e+00	 2.383317875507917e-01	 1.766858623355746e+01
 9.780139375877577e-01	 2.085397565298897e-01	 2.218648304650980e+01
 9.732282518626567e-01	 2.298410867697774e-01	 2.171469615249134e+01
 9.679444735972303e-01	 2.511647027528097e-01	 2.119782394368874e+01
 9.621575490304195e-01	 2.724942383587359e-01	 2.063810534632500e+01
 9.558630981313170e-01	 2.938129209596946e-01	 2.003819030557703e+01
 9.490574463164518e-01	 3.151036037782406e-01	 1.940114041330370e+01
 9.417376544619561e-01	 3.363488008802307e-01	 1.873042660478826e+01
 9.339015469729997e-01	 3.575307247119079e-01	 1.802992380733379e+01
 9.255477376767898e-01	 3.786313260672552e-01	 1.730390245092904e+01
 9.166756533117869e-01	 3.996323363483558e-01	 1.655701678127490e+01
 9.072855543946887e-01	 4.205153119584039e-01	 1.579428994787806e+01
 9.919856122548429e-01	 2.115189059394628e-01	 2.156981911912625e+01
 9.871315593611463e-01	 2.331245419199243e-01	 2.112988055680583e+01
 9.817722982959256e-01	 2.547527820123112e-01	 2.064817607986382e+01
 9.759027031012107e-01	 2.763870262938928e-01	 2.012676405150481e+01
 9.695183311739304e-01	 2.980102625270567e-01	 1.956805978898115e+01
 9.626154554363000e-01	 3.196050989795959e-01	 1.897483552787410e+01
 9.551910947767374e-01	 3.411537999174934e-01	 1.835021783959236e+01
 9.472430425202908e-01	 3.626383236782532e-01	 1.769768240702611e+01
 9.387698926915390e-01	 3.840403632092170e-01	 1.702104608737673e+01
 9.297710638393701e-01	 4.053413889316473e-01	 1.632445621750052e+01
 9.202468202020646e-01	 4.265226937679250e-01	 1.561237714535683e+01
 1.005957373317689e+00	 2.144980737680448e-01	 2.099965435657861e+01
 1.001034952832426e+00	 2.364080173708703e-01	 2.058991747175016e+01
 9.956002085003419e-01	 2.583408834563891e-01	 2.014128104425849e+01
 9.896479421661309e-01	 2.802798382979371e-01	 1.965565610239895e+01
 9.831736486541901e-01	 3.022076300466622e-01	 1.913526336548317e+01
 9.761735483921198e-01	 3.241066220140731e-01	 1.858263253925118e+01
 9.686446182803863e-01	 3.459588286647269e-01	 1.800059939703688e+01
 9.605846205637468e-01	 3.677459542258090e-01	 1.739230057170523e+01
 9.519921294640535e-01	 3.894494337964183e-01	 1.676116600465241e+01
 9.428665553405939e-01	 4.110504768153739e-01	 1.611090902126569e+01
 9.332081661532802e-01	 4.325301127226065e-01	 1.544551402690618e+01
 1.019929209365398e+00	 2.174772575828835e-01	 2.047193933405910e+01
 1.014938420921470e+00	 2.396915104413310e-01	 2.009071315307872e+01
 1.009428192917151e+00	 2.619290041549622e-01	 1.967304765274369e+01
 1.003393254999425e+00	 2.841726711919193e-01	 1.922073852650567e+01
 9.968290394198431e-01	 3.064050200908186e-01	 1.873585049307982e+01
 9.897317141111275e-01	 3.286081692055633e-01	 1.822071591673384e+01
 9.820982139855879e-01	 3.507638831979374e-01	 1.767793149539530e+01
 9.739262702075439e-01	 3.728536121834381e-01	 1.711035295971172e+01
 9.652144371960356e-01	 3.948585334115306e-01	 1.652108774513846e+01
 9.559621171207264e-01	 4.167595953371833e-01	 1.591348561954759e+01
 9.461695816632008e-01	 4.385375639164554e-01	 1.529112727050136e+01
 1.033901108987072e+00	 2.204564549512274e-01	 1.998284192618723e+01
 1.028841952273254e+00	 2.429750184500217e-01	 1.962839339696123e+01
 1.023256240253020e+00	 2.655171411779492e-01	 1.923960396986237e+01
 1.017138630375336e+00	 2.880655217968899e-01	 1.881818484259977e+01
 1.010484492318634e+00	 3.106024292318331e-01	 1.836608197615972e+01
 1.003289941520539e+00	 3.331097368779573e-01	 1.788547403292361e+01
 9.955518709050284e-01	 3.555689595931317e-01	 1.737876861533387e+01
 9.872679805558595e-01	 3.779612933800034e-01	 1.684859676444088e+01
 9.784368050891872e-01	 4.002676576372252e-01	 1.629780569474205e+01
 9.690577384850337e-01	 4.224687398347229e-01	 1.572944975997259e+01
 9.591310561466906e-01	 4.445450424434799e-01	 1.514677966369736e+01
 1.047873060771812e+00	 2.234356634403244e-01	 1.952873282370461e+01
 1.042745535532752e+00	 2.462585387156576e-01	 1.919928890700984e+01
 1.037084339214621e+00	 2.691052915952691e-01	 1.883728269494056e+01
 1.030884057068108e+00	 2.919583869338995e-01	 1.844437063021708e+01
 1.024139996198312e+00	 3.147998540420133e-01	 1.802241587745021e+01
 1.016848219547572e+00	 3.376113213551462e-01	 1.757348557128524e+01
 1.009005578051392e+00	 3.603740539263159e-01	 1.709984654956105e+01
 1.000609740712870e+00	 3.830689936443673e-01	 1.660395954514629e+01
 9.916592223452112e-01	 4.056768020561739e-01	 1.608847182578852e+01
 9.821534087387838e-01	 4.281779056456405e-01	 1.555620828790084e+01
 9.720925790186141e-01	 4.505525433976866e-01	 1.501016102748495e+01
 1.061845053308720e+00	 2.264148806174227e-01	 1.910617219264502e+01
 1.056649159344938e+00	 2.495420685569542e-01	 1.879992181558938e+01
 1.050912478508621e+00	 2.726934524768401e-01	 1.846260770097749e+01
 1.044629523851985e+00	 2.958512634239984e-01	 1.809586023745457e+01
 1.037795539906621e+00	 3.189972910936670e-01	 1.770149454126853e+01
 1.030406537119441e+00	 3.421129189610210e-01	 1.728150700591884e+01
 1.022459324437366e+00	 3.651791622734971e-01	 1.683807047404091e+01
 1.013951539782750e+00	 3.881767088053925e-01	 1.637352801769058e+01
 1.004881678165811e+00	 4.110859622510484e-01	 1.589038532791718e+01
 9.952491171872442e-01	 4.338870881075838e-01	 1.539130172993694e+01
 9.850541396938364e-01	 4.565600618730836e-01	 1.487907985611548e+01
 1.075817075186898e+00	 2.293941040497704e-01	 1.871189737220430e+01
 1.070552812354785e+00	 2.528256052926267e-01	 1.842699325456248e+01
 1.064740646841691e+00	 2.762816208925815e-01	 1.811228162160421e+01
 1.058375019501212e+00	 2.997441480882371e-01	 1.776939452368961e+01
 1.051451112291307e+00	 3.231947369591011e-01	 1.740013262713316e+01
 1.043964883163363e+00	 3.466145260194731e-01	 1.700646105615073e+01
 1.035913099075635e+00	 3.699842807106812e-01	 1.659050394797879e+01
 1.027293366869678e+00	 3.932844346919420e-01	 1.615453771804887e+01
 1.018104161752687e+00	 4.164951338045200e-01	 1.570098304631994e+01
 1.008344853135681e+00	 4.395962825582002e-01	 1.523239561061554e+01
 9.980157275872219e-01	 4.625675929636779e-01	 1.475145560786089e+01
 1.089789114995448e+00	 2.323733313046157e-01	 1.834281151816982e+01
 1.084456483207269e+00	 2.561091462413904e-01	 1.807737188136676e+01
 1.078568832920501e+00	 2.798697939124116e-01	 1.778317439212958e+01
 1.072120532790033e+00	 3.036370377476662e-01	 1.746187954441688e+01
 1.065106702200117e+00	 3.273921882106234e-01	 1.711530606313672e+01
 1.057523246606553e+00	 3.511161388543931e-01	 1.674542602853043e+01
 1.049366890978884e+00	 3.747894053138751e-01	 1.635435875929550e+01
 1.040635211077830e+00	 3.983921671328784e-01	 1.594436346030412e+01
 1.031326662307544e+00	 4.219043122992608e-01	 1.551783065492721e+01
 1.021440605889363e+00	 4.453054843351376e-01	 1.507727243651976e+01
 1.010977332113635e+00	 4.685751317634770e-01	 1.462531158833913e+01
 1.103761161323472e+00	 2.353525599492068e-01	 1.799597310819357e+01
 1.098360160547363e+00	 2.593926887219608e-01	 1.774808327584318e+01
 1.092397025451718e+00	 2.834579686062492e-01	 1.747231266020302e+01
 1.085866052492690e+00	 3.075299292233358e-01	 1.717037609479159e+01
 1.078762298480797e+00	 3.315896414205411e-01	 1.684414183764783e+01
 1.071081616376229e+00	 3.556177537896724e-01	 1.649562596766662e+01
 1.062820689159799e+00	 3.795945321590852e-01	 1.612698554073481e+01
 1.053977061511382e+00	 4.034999019570644e-01	 1.574051051879427e+01
 1.044549169032083e+00	 4.273134933179419e-01	 1.533861449947213e+01
 1.034536364753556e+00	 4.510146887760432e-01	 1.492382428873800e+01
 1.023938942687942e+00	 4.745826733664884e-01	 1.449876837394179e+01
 1.117733202760072e+00	 2.383317875507917e-01	 1.766858623355747e+01
 1.112263833020041e+00	 2.626762300530532e-01	 1.743630013168497e+01
 1.106225213142014e+00	 2.870461420440131e-01	 1.717686999006308e+01
 1.099611567383429e+00	 3.114228193362967e-01	 1.689209003680190e+01
 1.092417889981094e+00	 3.357870931611621e-01	 1.658390855604740e+01
 1.084639981399607e+00	 3.601193671492018e-01	 1.625442154518534e+01
 1.076274482631064e+00	 3.843996573223178e-01	 1.590586508922615e+01
 1.067318907274511e+00	 4.086076349933625e-01	 1.554060647109729e+01
 1.057771671128008e+00	 4.327226724432351e-01	 1.516113405186581e+01
 1.047632119033529e+00	 4.567238912185653e-01	 1.477004597047412e+01
 1.036900548725005e+00	 4.805902128667193e-01	 1.437003772814224e+01
 9.072855543946887e-01	 4.205153119584039e-01	 1.579428994787806e+01
 8.973778426309759e-01	 4.412631267957646e-01	 1.501841936417266e+01
 8.869551416254857e-01	 4.618556531118257e-01	 1.423078948982159e+01
 8.760203156838144e-01	 4.822741974000463e-01	 1.343459558788637e+01
 8.645771165329884e-01	 5.025000860247010e-01	 1.263307275692501e+01
 8.526301882742356e-01	 5.225147171506273e-01	 1.182948396538578e+01
 8.401850687269298e-01	 5.422996134099225e-01	 1.102710785110207e+01
 8.272481870752481e-01	 5.618364750149920e-01	 1.022922638212110e+01
 8.138268577557128e-01	 5.811072330167580e-01	 9.439112477517382e+00
 7.999292705517563e-01	 6.000941023989975e-01	 8.660017687909496e+00
 7.855644768903997e-01	 6.187796346948449e-01	 7.895160035125440e+00
 9.202468202020646e-01	 4.265226937679250e-01	 1.561237714535682e+01
 9.101975692236983e-01	 4.475669069570152e-01	 1.488631639788968e+01
 8.996259719893256e-01	 4.684536132100533e-01	 1.414687242442568e+01
 8.885349337233767e-01	 4.891638519694764e-01	 1.339727907306474e+01
 8.769282597492056e-01	 5.096786828324061e-01	 1.264083470267734e+01
 8.648106605126151e-01	 5.299792382222528e-01	 1.188088960702637e+01
 8.521877529449992e-01	 5.500467768077960e-01	 1.112083299128696e+01
 8.390660580763807e-01	 5.698627373749913e-01	 1.036407960091173e+01
 8.254529948356356e-01	 5.894087928460177e-01	 9.614056107737159e+00
 8.113568700035452e-01	 6.086669041321033e-01	 8.874187361824728e+00
 7.967868643137184e-01	 6.276193735016999e-01	 8.147882619700574e+00
 9.332081661532802e-01	 4.325301127226065e-01	 1.544551402690618e+01
 9.230173750848367e-01	 4.538707260961631e-01	 1.476555487401729e+01
 9.122968807007574e-01	 4.750516141051551e-01	 1.407102449647326e+01
 9.010496291445451e-01	 4.960535491393559e-01	 1.336515823242245e+01
 8.892794793361982e-01	 5.168573240270957e-01	 1.265127294789078e+01
 8.769912080664878e-01	 5.374438054487242e-01	 1.193275404429600e+01
 8.641905113793015e-01	 5.577939881080805e-01	 1.121304187076803e+01
 8.508840021510615e-01	 5.778890493630670e-01	 1.049561764420939e+01
 8.370792038036242e-01	 5.977104040055304e-01	 9.783988986744040e+00
 8.227845401158297e-01	 6.172397588725924e-01	 9.081675195550943e+00
 8.080093211286548e-01	 6.364591669664901e-01	 8.392192363938950e+00
 9.461695816632008e-01	 4.385375639164554e-01	 1.529112727050136e+01
 9.358372497448788e-01	 4.601745790651598e-01	 1.465386760010312e+01
 9.249678574118883e-01	 4.816496504088444e-01	 1.400123592127725e+01
 9.135643917270120e-01	 5.029432832831962e-01	 1.333643375596264e+01
 9.016307652071653e-01	 5.240360037463283e-01	 1.266275372484158e+01
 8.891718209884329e-01	 5.449084127341139e-01	 1.198356632694383e+01
 8.761933342276051e-01	 5.655412409840438e-01	 1.130230604017906e+01
 8.627020096479817e-01	 5.859154044245705e-01	 1.062245684800035e+01
 8.487054751649490e-01	 6.060120597158355e-01	 9.947537305138590e+00
 8.342122715560167e-01	 6.258126596194977e-01	 9.281085261684710e+00
 8.192318381702112e-01	 6.452990078702501e-01	 8.626642369602557e+00
 9.591310561466906e-01	 4.445450424434799e-01	 1.514677966369735e+01
 9.486571827343125e-01	 4.664784607159566e-01	 1.454910683723060e+01
 9.376388917748257e-01	 4.882477167328359e-01	 1.393560235359551e+01
 9.260792112504684e-01	 5.098330487745076e-01	 1.330940030467818e+01
 9.139821072753082e-01	 5.312147161276637e-01	 1.267372820613975e+01
 9.013524893310293e-01	 5.523730539824955e-01	 1.203189373311053e+01
 8.881962116876772e-01	 5.732885291089520e-01	 1.138727075531970e+01
 8.745200709158348e-01	 5.939417960048561e-01	 1.074328477843622e+01
 8.603317994248791e-01	 6.143137531974732e-01	 1.010339790641736e+01
 8.456400549915140e-01	 6.343855993718516e-01	 9.471093446243723e+00
 8.304544062733887e-01	 6.541388889940141e-01	 8.849860281444954e+00
 9.720925790186141e-01	 4.505525433976866e-01	 1.501016102748495e+01
 9.614771635836250e-01	 4.727823659005054e-01	 1.444923633373491e+01
 9.503099734416771e-01	 4.948458076888435e-01	 1.387231785520033e+01
 9.385940774946075e-01	 5.167228399868020e-01	 1.328244024237630e+01
 9.263334954538255e-01	 5.383934553086599e-01	 1.268272683838675e+01
 9.135332031468566e-01	 5.598377230979411e-01	 1.207637655031760e+01
 9.001991339572849e-01	 5.810358461560730e-01	 1.146665005962241e+01
 8.863381763033108e-01	 6.019682175492752e-01	 1.085685547926992e+01
 8.719581670886848e-01	 6.226154776709827e-01	 1.025033357287768e+01
 8.570678810897280e-01	 6.429585711286867e-01	 9.650442657178619e+00
 8.416770162731901e-01	 6.629788031188170e-01	 9.060543313691587e+00
 9.850541396938364e-01	 4.565600618730836e-01	 1.487907985611548e+01
 9.742971818233045e-01	 4.790862894707577e-01	 1.435232398734226e+01
 9.629810920645498e-01	 5.014439178885809e-01	 1.380966841720905e+01
 9.511089802391205e-01	 5.236126512935901e-01	 1.325401786198090e+01
 9.386849196559177e-01	 5.455722154268761e-01	 1.268835412283832e+01
 9.257139524884940e-01	 5.673024139845242e-01	 1.211572326817680e+01
 9.122020912341964e-01	 5.887831857986734e-01	 1.153922225455966e+01
 8.981563161591034e-01	 6.099946625031818e-01	 1.096198509421941e+01
 8.835845686616357e-01	 6.309172263569027e-01	 1.038716868341739e+01
 8.684957405180675e-01	 6.515315678890363e-01	 9.817938410884867e+00
 8.528996590046160e-01	 6.718187430256928e-01	 9.257453668878135e+00
 9.980157275872219e-01	 4.625675929636779e-01	 1.475145560786089e+01
 9.871172269838395e-01	 4.853902262786652e-01	 1.425653507865091e+01
 9.756522372955513e-01	 5.080420419437623e-01	 1.374602598678522e+01
 9.636239092636995e-01	 5.305024770683828e-01	 1.322267406139747e+01
 9.510363697947843e-01	 5.527509906198712e-01	 1.268928380246949e+01
 9.378947274085201e-01	 5.747671205463175e-01	 1.214870614542175e+01
 9.242050737161785e-01	 5.965305417100195e-01	 1.160382572275387e+01
 9.099744808319042e-01	 6.180211243119278e-01	 1.105754783020403e+01
 8.952109946490014e-01	 6.392189924757736e-01	 1.051278520944830e+01
 8.799236239439386e-01	 6.601045826519328e-01	 9.972444762379494e+00
 8.641223253026681e-01	 6.806587014956761e-01	 9.439414313409095e+00
 1.010977332113635e+00	 4.685751317634770e-01	 1.462531158833913e+01
 9.999372885957171e-01	 4.916941711761795e-01	 1.416012602472141e+01
 9.883233987867889e-01	 5.146401744661019e-01	 1.367984295298346e+01
 9.761388543480359e-01	 5.373923116846914e-01	 1.318702142862726e+01
 9.633878357836249e-01	 5.599297750252039e-01	 1.268425441899982e+01
 9.500755179595148e-01	 5.822318366873941e-01	 1.217415711769670e+01
 9.362080716009995e-01	 6.042779075633790e-01	 1.165935507216221e+01
 9.217926606704047e-01	 6.260475964208664e-01	 1.114247223088666e+01
 9.068374355560521e-01	 6.475207692481345e-01	 1.062611901860453e+01
 8.913515220347494e-01	 6.686776084164091e-01	 1.011288054832576e+01
 8.753450060023480e-01	 6.894986713098015e-01	 9.605305077848357e+00
 1.023938942687942e+00	 4.745826733664884e-01	 1.449876837394180e+01
 1.012757356189425e+00	 4.979981190152524e-01	 1.406143860672738e+01
 1.000994566190370e+00	 5.212383100673136e-01	 1.360964705108676e+01
 9.886538052718223e-01	 5.442821495160268e-01	 1.314573969989831e+01
 9.757393075356403e-01	 5.671085627804335e-01	 1.267206520712332e+01
 9.622563141940571e-01	 5.896965563118266e-01	 1.219096401593208e+01
 9.482110750864265e-01	 6.120252770320186e-01	 1.170475757291010e+01
 9.336108460232977e-01	 6.340740722753503e-01	 1.121573773304819e+01
 9.184638818880571e-01	 6.558225498945245e-01	 1.072615645899474e+01
 9.027794254579075e-01	 6.772506381814980e-01	 1.023821591520683e+01
 8.865676919386577e-01	 6.983386452491029e-01	 9.754059053191646e+00
 1.036900548725005e+00	 4.805902128667193e-01	 1.437003772814224e+01
 1.025577419295452e+00	 5.043020646478357e-01	 1.395889463021997e+01
 1.013665729158402e+00	 5.278364433591113e-01	 1.353403664884726e+01
 1.001168751814751e+00	 5.511719849359001e-01	 1.309757155819966e+01
 9.880907749640296e-01	 5.742873480231188e-01	 1.265157229646193e+01
 9.744371061647262e-01	 5.971612733236881e-01	 1.219806706815263e+01
 9.602140743702269e-01	 6.197726437892053e-01	 1.173902986118673e+01
 9.454290272392749e-01	 6.421005453207324e-01	 1.127637148106664e+01
 9.300903241502864e-01	 6.641243276354837e-01	 1.081193119947019e+01
 9.142073248808197e-01	 6.858236649462323e-01	 1.034746910771916e+01
 8.977903739465982e-01	 7.071786160946152e-01	 9.884659257242625e+00
 7.855644768903997e-01	 6.187796346948449e-01	 7.895160035125440e+00
 7.707423701765810e-01	 6.371467715387087e-01	 7.149369057027221e+00
 7.554736580333883e-01	 6.551789005581102e-01	 6.427263996794762e+00
 7.397698440641727e-01	 6.728598994536507e-01	 5.731635837421744e+00
 7.236432017326105e-01	 6.901741818186914e-01	 5.065162911273656e+00
 7.071067426773200e-01	 7.071067426773202e-01	 4.430402948664850e+00
 6.901741818186911e-01	 7.236432017326108e-01	 3.829786053367926e+00
 6.728598994536503e-01	 7.397698440641729e-01	 3.265608646256209e+00
 6.551789005581099e-01	 7.554736580333886e-01	 2.740028406331139e+00
 6.371467715387082e-01	 7.707423701765813e-01	 2.255060226237322e+00
 6.187796346948450e-01	 7.855644768903999e-01	 1.812573187213750e+00
 7.967868643137184e-01	 6.276193735016999e-01	 8.147882619700574e+00
 7.817530125059616e-01	 6.462488988974351e-01	 7.439866776547122e+00
 7.662661751699099e-01	 6.645386306264414e-01	 6.754249278172738e+00
 7.503380202466319e-01	 6.824722160700080e-01	 6.093372829515221e+00
 7.339809965355638e-01	 7.000338461578212e-01	 5.459410950162005e+00
 7.172083015564744e-01	 7.172083015564746e-01	 4.854363410023891e+00
 7.000338461578210e-01	 7.339809965355644e-01	 4.280053073799973e+00
 6.824722160700076e-01	 7.503380202466323e-01	 3.738124160505546e+00
 6.645386306264410e-01	 7.662661751699100e-01	 3.230041906918116e+00
 6.462488988974350e-01	 7.817530125059619e-01	 2.757093606703247e+00
 6.276193735016997e-01	 7.967868643137183e-01	 2.320390980546405e+00
 8.080093211286548e-01	 6.364591669664901e-01	 8.392192363938950e+00
 7.927637229176385e-01	 6.553510825365715e-01	 7.719896699442779e+00
 7.770587590399142e-01	 6.738984185681055e-01	 7.068234470724061e+00
 7.609062617752941e-01	 6.920845921216349e-01	 6.439188383306862e+00
 7.443188552600679e-01	 7.098935714617837e-01	 5.834528934274062e+00
 7.273099228963158e-01	 7.273099228963160e-01	 5.255812516641900e+00
 7.098935714617833e-01	 7.443188552600681e-01	 4.704381306705145e+00
 6.920845921216348e-01	 7.609062617752944e-01	 4.181364913223342e+00
 6.738984185681052e-01	 7.770587590399144e-01	 3.687683745603382e+00
 6.553510825365713e-01	 7.927637229176391e-01	 3.224054037283813e+00
 6.364591669664900e-01	 8.080093211286546e-01	 2.790994440726564e+00
 8.192318381702112e-01	 6.452990078702501e-01	 8.626642369602557e+00
 8.037744924195520e-01	 6.644533150228601e-01	 7.987992884691054e+00
 7.878514008294942e-01	 6.832582567394534e-01	 7.367822908676784e+00
 7.714745600194860e-01	 7.016970197585825e-01	 6.767839771896077e+00
 7.546567694636207e-01	 7.197533496786044e-01	 6.189508694909659e+00
 7.374115984472948e-01	 7.374115984472950e-01	 5.634052860493529e+00
 7.197533496786042e-01	 7.546567694636210e-01	 5.102455537521847e+00
 7.016970197585820e-01	 7.714745600194864e-01	 4.595464215580268e+00
 6.832582567394535e-01	 7.878514008294947e-01	 4.113596684291513e+00
 6.644533150228599e-01	 8.037744924195523e-01	 3.657148967576998e+00
 6.452990078702502e-01	 8.192318381702113e-01	 3.226205000827880e+00
 8.304544062733887e-01	 6.541388889940141e-01	 8.849860281444954e+00
 8.147853120196392e-01	 6.735555889230431e-01	 8.242764947329059e+00
 7.986440917247423e-01	 6.926181374968372e-01	 7.651689730963233e+00
 7.820429063485358e-01	 7.113094911309020e-01	 7.078147755083100e+00
 7.649947307037208e-01	 7.296131727563099e-01	 6.523392884255189e+00
 7.475133199598645e-01	 7.475133199598647e-01	 5.988421079768823e+00
 7.296131727563093e-01	 7.649947307037210e-01	 5.473973972381438e+00
 7.113094911309018e-01	 7.820429063485362e-01	 4.980544598932358e+00
 6.926181374968368e-01	 7.986440917247424e-01	 4.508385222001698e+00
 6.735555889230430e-01	 8.147853120196393e-01	 4.057517126236783e+00
 6.541388889940140e-01	 8.304544062733888e-01	 3.627742261167268e+00
 8.416770162731901e-01	 6.629788031188170e-01	 9.060543313691587e+00
 8.257961727258398e-01	 6.826578968038631e-01	 8.482893017232430e+00
 8.094368229117508e-01	 7.019780531966077e-01	 7.918577089789106e+00
 7.926112921317704e-01	 7.209219983886453e-01	 7.368992342066981e+00
 7.753327305378668e-01	 7.394730326429256e-01	 6.835271581987499e+00
 7.576150791844760e-01	 7.576150791844760e-01	 6.318285583268694e+00
 7.394730326429252e-01	 7.753327305378670e-01	 5.818647337017964e+00
 7.209219983886449e-01	 7.926112921317705e-01	 5.336718526620533e+00
 7.019780531966074e-01	 8.094368229117511e-01	 4.872618138485533e+00
 6.826578968038631e-01	 8.257961727258399e-01	 4.426233094881240e+00
 6.629788031188169e-01	 8.416770162731901e-01	 3.997230770609226e+00
 8.528996590046160e-01	 6.718187430256928e-01	 9.257453668878135e+00
 8.368070655460915e-01	 6.917602312320627e-01	 8.707123095592374e+00
 8.202295855766129e-01	 7.113379961951165e-01	 8.167289737199724e+00
 8.031797087385171e-01	 7.305345336818637e-01	 7.639308888428344e+00
 7.856707605235562e-01	 7.493329212864773e-01	 7.124279169596273e+00
 7.677168678715804e-01	 7.677168678715806e-01	 6.623044454344022e+00
 7.493329212864771e-01	 7.856707605235564e-01	 6.136198046798973e+00
 7.305345336818633e-01	 8.031797087385171e-01	 5.664089049665519e+00
 7.113379961951160e-01	 8.202295855766131e-01	 5.206830837242831e+00
 6.917602312320622e-01	 8.368070655460919e-01	 4.764311521244830e+00
 6.718187430256928e-01	 8.528996590046158e-01	 4.336206272992821e+00
 8.641223253026681e-01	 6.806587014956761e-01	 9.439414313409095e+00
 8.478179814883333e-01	 7.008625847743832e-01	 8.914262772968630e+00
 8.310223709054203e-01	 7.206979588487149e-01	 8.396690955306610e+00
 8.137481475381034e-01	 7.401470891606081e-01	 7.888084497034657e+00
 7.960088122182878e-01	 7.591928306349918e-01	 7.389591448104593e+00
 7.778186777716302e-01	 7.778186777716304e-01	 6.902123518072303e+00
 7.591928306349911e-01	 7.960088122182879e-01	 6.426359441417534e+00
 7.401470891606079e-01	 8.137481475381038e-01	 5.962750411451505e+00
 7.206979588487147e-01	 8.310223709054209e-01	 5.511527506155860e+00
 7.008625847743831e-01	 8.478179814883339e-01	 5.072711004345509e+00
 6.806587014956762e-01	 8.641223253026682e-01	 4.646121467267371e+00
 8.753450060023480e-01	 6.894986713098015e-01	 9.605305077848357e+00
 8.588289115605043e-01	 7.099649499975681e-01	 9.103177276494359e+00
 8.418151700842661e-01	 7.300579335137545e-01	 8.605698799358880e+00
 8.243165998998565e-01	 7.497596569749305e-01	 8.114354695612759e+00
 8.063468771795593e-01	 7.690527526364938e-01	 7.630422977363945e+00
 7.879205006350769e-01	 7.879205006350771e-01	 7.154974557030232e+00
 7.690527526364935e-01	 8.063468771795599e-01	 6.688875078445573e+00
 7.497596569749301e-01	 8.243165998998571e-01	 6.232788605975437e+00
 7.300579335137545e-01	 8.418151700842664e-01	 5.787183112097461e+00
 7.099649499975680e-01	 8.588289115605047e-01	 5.352337681076443e+00
 6.894986713098015e-01	 8.753450060023480e-01	 4.928351324940943e+00
 8.865676919386577e-01	 6.983386452491029e-01	 9.754059053191646e+00
 8.698398467705425e-01	 7.190673194683591e-01	 9.272785817091842e+00
 8.526079742992425e-01	 7.394179125465868e-01	 8.793282625961874e+00
 8.348850571931041e-01	 7.593722292748818e-01	 8.317200366495497e+00
 8.166849469648699e-01	 7.789126792390103e-01	 7.846024617305316e+00
 7.980223282123721e-01	 7.980223282123723e-01	 7.381073662510159e+00
 7.789126792390099e-01	 8.166849469648703e-01	 6.923498080539109e+00
 7.593722292748820e-01	 8.348850571931049e-01	 6.474281893770473e+00
 7.394179125465867e-01	 8.526079742992427e-01	 6.034245244210889e+00
 7.190673194683589e-01	 8.698398467705428e-01	 5.604048540657286e+00
 6.983386452491031e-01	 8.865676919386576e-01	 5.184198004036783e+00
 8.977903739465982e-01	 7.071786160946152e-01	 9.884659257242625e+00
 8.808507781263871e-01	 7.281696857534988e-01	 9.422058210468283e+00
 8.634007747364419e-01	 7.487778883035630e-01	 8.958459881511271e+00
 8.454535107871739e-01	 7.689847982105142e-01	 8.495744906493073e+00
 8.270230131317176e-01	 7.887726023905666e-01	 8.035681253489621e+00
 8.081241522539677e-01	 8.081241522539679e-01	 7.579919709335524e+00
 7.887726023905661e-01	 8.270230131317177e-01	 7.129990531603369e+00
 7.689847982105142e-01	 8.454535107871741e-01	 6.687301279205897e+00
 7.487778883035625e-01	 8.634007747364423e-01	 6.253135819092741e+00
 7.281696857534985e-01	 8.808507781263871e-01	 5.828654490736995e+00
 7.071786160946154e-01	 8.977903739465983e-01	 5.414895394833849e+00
 6.187796346948450e-01	 7.855644768903999e-01	 1.812573187213750e+00
 6.000941023989972e-01	 7.999292705517564e-01	 1.417515816196822e+00
 5.811072330167577e-01	 8.138268577557130e-01	 1.072132600754574e+00
 5.618364750149918e-01	 8.272481870752482e-01	 7.736853153834669e-01
 5.422996134099223e-01	 8.401850687269302e-01	 5.188793626457349e-01
 5.225147171506268e-01	 8.526301882742356e-01	 3.039056273816644e-01
 5.025000860247008e-01	 8.645771165329886e-01	 1.244855313838399e-01
 4.822741974000460e-01	 8.760203156838146e-01	-2.408122262428841e-02
 4.618556531118254e-01	 8.869551416254861e-01	-1.468667466150734e-01
 4.412631267957642e-01	 8.973778426309756e-01	-2.492634412809480e-01
 4.205153119584038e-01	 9.072855543946884e-01	-3.369313893434697e-01
 6.276193735016997e-01	 7.967868643137183e-01	 2.320390980546405e+00
 6.086669041321032e-01	 8.113568700035455e-01	 1.923144045826355e+00
 5.894087928460172e-01	 8.254529948356357e-01	 1.567133168565268e+00
 5.698627373749912e-01	 8.390660580763810e-01	 1.250851901540239e+00
 5.500467768077957e-01	 8.521877529449993e-01	 9.723564365365038e-01
 5.299792382222526e-01	 8.648106605126152e-01	 7.292947732194860e-01
 5.096786828324057e-01	 8.769282597492060e-01	 5.189384804111941e-01
 4.891638519694760e-01	 8.885349337233771e-01	 3.382166764319887e-01
 4.684536132100530e-01	 8.996259719893257e-01	 1.837518394512535e-01
 4.475669069570151e-01	 9.101975692236984e-01	 5.189704899768577e-02
 4.265226937679250e-01	 9.202468202020646e-01	-6.122574412746795e-02
 6.364591669664900e-01	 8.080093211286546e-01	 2.790994440726564e+00
 6.172397588725922e-01	 8.227845401158298e-01	 2.390574062870237e+00
 5.977104040055301e-01	 8.370792038036247e-01	 2.024446077391105e+00
 5.778890493630665e-01	 8.508840021510616e-01	 1.692098359373892e+00
 5.577939881080803e-01	 8.641905113793019e-01	 1.392681045767272e+00
 5.374438054487238e-01	 8.769912080664877e-01	 1.125025256246659e+00
 5.168573240270954e-01	 8.892794793361983e-01	 8.876638937233275e-01
 4.960535491393556e-01	 9.010496291445454e-01	 6.788542651766956e-01
 4.750516141051547e-01	 9.122968807007577e-01	 4.966022495509977e-01
 4.538707260961629e-01	 9.230173750848369e-01	 3.386877298387085e-01
 4.325301127226065e-01	 9.332081661532802e-01	 2.026910011590624e-01
 6.452990078702502e-01	 8.192318381702113e-01	 3.226205000827880e+00
 6.258126596194972e-01	 8.342122715560167e-01	 2.822185524948837e+00
 6.060120597158354e-01	 8.487054751649494e-01	 2.446859125269696e+00
 5.859154044245704e-01	 8.627020096479822e-01	 2.100480955486022e+00
 5.655412409840435e-01	 8.761933342276053e-01	 1.783049197860590e+00
 5.449084127341138e-01	 8.891718209884333e-01	 1.494315516702547e+00
 5.240360037463283e-01	 9.016307652071658e-01	 1.233797171959456e+00
 5.029432832831956e-01	 9.135643917270121e-01	 1.000790624318714e+00
 4.816496504088442e-01	 9.249678574118884e-01	 7.943864508201779e-01
 4.601745790651594e-01	 9.358372497448788e-01	 6.134853806193290e-01
 4.385375639164554e-01	 9.461695816632008e-01	 4.568152542115314e-01
 6.541388889940140e-01	 8.304544062733888e-01	 3.627742261167268e+00
 6.343855993718511e-01	 8.456400549915137e-01	 3.220226169743989e+00
 6.143137531974726e-01	 8.603317994248791e-01	 2.837006225416687e+00
 5.939417960048556e-01	 8.745200709158348e-01	 2.478887665122308e+00
 5.732885291089519e-01	 8.881962116876773e-01	 2.146481168008577e+00
 5.523730539824951e-01	 9.013524893310296e-01	 1.840207168527743e+00
 5.312147161276634e-01	 9.139821072753086e-01	 1.560301501369408e+00
 5.098330487745073e-01	 9.260792112504685e-01	 1.306822277532778e+00
 4.882477167328355e-01	 9.376388917748257e-01	 1.079657879761485e+00
 4.664784607159561e-01	 9.486571827343124e-01	 8.785359565163737e-01
 4.445450424434799e-01	 9.591310561466907e-01	 7.030332867262665e-01
 6.629788031188169e-01	 8.416770162731901e-01	 3.997230770609226e+00
 6.429585711286866e-01	 8.570678810897284e-01	 3.586820602379599e+00
 6.226154776709821e-01	 8.719581670886849e-01	 3.197377658567536e+00
 6.019682175492749e-01	 8.863381763033110e-01	 2.830049385886968e+00
 5.810358461560727e-01	 9.001991339572852e-01	 2.485833210014880e+00
 5.598377230979409e-01	 9.135332031468568e-01	 2.165576784545078e+00
 5.383934553086593e-01	 9.263334954538254e-01	 1.869979332898203e+00
 5.167228399868015e-01	 9.385940774946077e-01	 1.599594028054736e+00
 4.948458076888431e-01	 9.503099734416774e-01	 1.354831344955139e+00
 4.727823659005049e-01	 9.614771635836251e-01	 1.135963311778495e+00
 4.505525433976866e-01	 9.720925790186141e-01	 9.431285791366018e-01
 6.718187430256928e-01	 8.528996590046158e-01	 4.336206272992821e+00
 6.515315678890360e-01	 8.684957405180677e-01	 3.923978389682077e+00
 6.309172263569022e-01	 8.835845686616357e-01	 3.530329516641272e+00
 6.099946625031814e-01	 8.981563161591033e-01	 3.156550266944009e+00
 5.887831857986729e-01	 9.122020912341966e-01	 2.803808343501760e+00
 5.673024139845239e-01	 9.257139524884941e-01	 2.473146752045444e+00
 5.455722154268757e-01	 9.386849196559177e-01	 2.165482955821074e+00
 5.236126512935897e-01	 9.511089802391208e-01	 1.881608940504980e+00
 5.014439178885804e-01	 9.629810920645500e-01	 1.622192148663748e+00
 4.790862894707573e-01	 9.742971818233048e-01	 1.387777234928118e+00
 4.565600618730836e-01	 9.850541396938363e-01	 1.178788586014461e+00
 6.806587014956762e-01	 8.641223253026682e-01	 4.646121467267371e+00
 6.601045826519327e-01	 8.799236239439389e-01	 4.233601524281356e+00
 6.392189924757733e-01	 8.952109946490019e-01	 3.838092411181244e+00
 6.180211243119271e-01	 9.099744808319040e-01	 3.460837234050044e+00
 5.965305417100188e-01	 9.242050737161785e-01	 3.102966301286120e+00
 5.747671205463171e-01	 9.378947274085204e-01	 2.765495283222049e+00
 5.527509906198709e-01	 9.510363697947847e-01	 2.449324248176542e+00
 5.305024770683824e-01	 9.636239092636996e-01	 2.155237545586256e+00
 5.080420419437620e-01	 9.756522372955512e-01	 1.883904498283845e+00
 4.853902262786647e-01	 9.871172269838395e-01	 1.635880858390392e+00
 4.625675929636779e-01	 9.980157275872220e-01	 1.411610974763218e+00
 6.894986713098015e-01	 8.753450060023480e-01	 4.928351324940943e+00
 6.686776084164091e-01	 8.913515220347497e-01	 4.517491315056584e+00
 6.475207692481341e-01	 9.068374355560523e-01	 4.122779512501630e+00
 6.260475964208662e-01	 9.217926606704049e-01	 3.745228782526501e+00
 6.042779075633788e-01	 9.362080716009999e-01	 3.385732712235228e+00
 5.822318366873939e-01	 9.500755179595155e-01	 3.045065656232897e+00
 5.599297750252037e-01	 9.633878357836254e-01	 2.723883677810912e+00
 5.373923116846910e-01	 9.761388543480363e-01	 2.422726337337080e+00
 5.146401744661016e-01	 9.883233987867890e-01	 2.142019271320200e+00
 4.916941711761791e-01	 9.999372885957171e-01	 1.882077498647254e+00
 4.685751317634771e-01	 1.010977332113636e+00	 1.643109384830871e+00
 6.983386452491031e-01	 8.865676919386576e-01	 5.184198004036783e+00
 6.772506381814979e-01	 9.027794254579073e-01	 4.777354754718070e+00
 6.558225498945240e-01	 9.184638818880573e-01	 4.386393978794460e+00
 6.340740722753500e-01	 9.336108460232978e-01	 4.011923102987261e+00
 6.120252770320183e-01	 9.482110750864269e-01	 3.654407587287181e+00
 5.896965563118265e-01	 9.622563141940575e-01	 3.314174755011831e+00
 5.671085627804331e-01	 9.757393075356404e-01	 2.991418620384161e+00
 5.442821495160265e-01	 9.886538052718229e-01	 2.686205625576882e+00
 5.212383100673131e-01	 1.000994566190370e+00	 2.398481191123712e+00
 4.979981190152521e-01	 1.012757356189425e+00	 2.128076977332665e+00
 4.745826733664884e-01	 1.023938942687942e+00	 1.874718749894607e+00
 7.071786160946154e-01	 8.977903739465983e-01	 5.414895394833849e+00
 6.858236649462317e-01	 9.142073248808196e-01	 5.014810410236723e+00
 6.641243276354835e-01	 9.300903241502866e-01	 4.630835828534114e+00
 6.421005453207319e-01	 9.454290272392751e-01	 4.263005598156407e+00
 6.197726437892049e-01	 9.602140743702273e-01	 3.911173169561814e+00
 5.971612733236877e-01	 9.744371061647262e-01	 3.575020969137298e+00
 5.742873480231185e-01	 9.880907749640297e-01	 3.254071054055498e+00
 5.511719849358999e-01	 1.001168751814751e+00	 2.947696799918541e+00
 5.278364433591108e-01	 1.013665729158402e+00	 2.655135464905442e+00
 5.043020646478351e-01	 1.025577419295452e+00	 2.375501468653052e+00
 4.805902128667193e-01	 1.036900548725006e+00	 2.107800221227141e+00
 4.205153119584038e-01	 9.072855543946884e-01	-3.369313893434720e-01
 3.996323363483559e-01	 9.166756533117867e-01	-4.137246455018299e-01
 3.786313260672554e-01	 9.255477376767897e-01	-4.793591769291218e-01
 3.575307247119081e-01	 9.339015469729992e-01	-5.335480736492899e-01
 3.363488008802308e-01	 9.417376544619560e-01	-5.761480352541637e-01
 3.151036037782408e-01	 9.490574463164519e-01	-6.071571775083144e-01
 2.938129209596947e-01	 9.558630981313170e-01	-6.267118928971820e-01
 2.724942383587361e-01	 9.621575490304196e-01	-6.350828348191202e-01
 2.511647027528098e-01	 9.679444735972303e-01	-6.326701005886202e-01
 2.298410867697775e-01	 9.732282518626566e-01	-6.199976926120652e-01
 2.085397565298897e-01	 9.780139375877577e-01	-5.977073400493929e-01
 4.265226937679250e-01	 9.202468202020646e-01	-6.122574412746629e-02
 4.053413889316475e-01	 9.297710638393700e-01	-1.578648945935510e-01
 3.840403632092172e-01	 9.387698926915389e-01	-2.379839836646684e-01
 3.626383236782533e-01	 9.472430425202908e-01	-3.022933001252470e-01
 3.411537999174936e-01	 9.551910947767371e-01	-3.516699782771855e-01
 3.196050989795961e-01	 9.626154554363000e-01	-3.871468285773798e-01
 2.980102625270569e-01	 9.695183311739305e-01	-4.099004707899634e-01
 2.763870262938931e-01	 9.759027031012107e-01	-4.212389085736432e-01
 2.547527820123113e-01	 9.817722982959253e-01	-4.225886830793182e-01
 2.331245419199244e-01	 9.871315593611459e-01	-4.154817400577908e-01
 2.115189059394629e-01	 9.919856122548431e-01	-4.015421403371140e-01
 4.325301127226065e-01	 9.332081661532802e-01	 2.026910011590572e-01
 4.110504768153741e-01	 9.428665553405938e-01	 8.746063134250437e-02
 3.894494337964184e-01	 9.519921294640534e-01	-7.333036659931569e-03
 3.677459542258094e-01	 9.605846205637468e-01	-8.313148597074926e-02
 3.459588286647271e-01	 9.686446182803863e-01	-1.415588712517426e-01
 3.241066220140734e-01	 9.761735483921200e-01	-1.844041463708734e-01
 3.022076300466623e-01	 9.831736486541902e-01	-2.136026942880065e-01
 2.802798382979372e-01	 9.896479421661311e-01	-2.312176494038232e-01
 2.583408834563892e-01	 9.956002085003419e-01	-2.394210960073853e-01
 2.364080173708705e-01	 1.001034952832426e+00	-2.404753178194303e-01
 2.144980737680448e-01	 1.005957373317689e+00	-2.367142631925865e-01
 4.385375639164554e-01	 9.461695816632008e-01	 4.568152542115345e-01
 4.167595953371834e-01	 9.559621171207261e-01	 3.238948121768037e-01
 3.948585334115307e-01	 9.652144371960353e-01	 2.139755904045308e-01
 3.728536121834383e-01	 9.739262702075441e-01	 1.251394056132984e-01
 3.507638831979376e-01	 9.820982139855879e-01	 5.527685758090728e-02
 3.286081692055634e-01	 9.897317141111275e-01	 2.109686200035821e-03
 3.064050200908187e-01	 9.968290394198429e-01	-3.678652587882647e-02
 2.841726711919194e-01	 1.003393254999424e+00	-6.395952902891100e-02
 2.619290041549625e-01	 1.009428192917151e+00	-8.205767454350843e-02
 2.396915104413312e-01	 1.014938420921471e+00	-9.380747578833981e-02
 2.174772575828835e-01	 1.019929209365398e+00	-1.019916492837867e-01
 4.445450424434799e-01	 9.591310561466907e-01	 7.030332867262667e-01
 4.224687398347230e-01	 9.690577384850336e-01	 5.529896266184571e-01
 4.002676576372253e-01	 9.784368050891873e-01	 4.272471510535740e-01
 3.779612933800036e-01	 9.872679805558595e-01	 3.236545828531086e-01
 3.555689595931318e-01	 9.955518709050283e-01	 2.398680408349860e-01
 3.331097368779574e-01	 1.003289941520539e+00	 1.733757151293427e-01
 3.106024292318333e-01	 1.010484492318635e+00	 1.215227821208966e-01
 2.880655217968901e-01	 1.017138630375336e+00	 8.153631845696463e-02
 2.655171411779494e-01	 1.023256240253020e+00	 5.054998607155126e-02
 2.429750184500218e-01	 1.028841952273254e+00	 2.562827501900555e-02
 2.204564549512274e-01	 1.033901108987071e+00	 3.790107679486177e-03
 4.505525433976866e-01	 9.720925790186141e-01	 9.431285791366040e-01
 4.281779056456406e-01	 9.821534087387839e-01	 7.762122148586257e-01
 4.056768020561741e-01	 9.916592223452112e-01	 6.337153398828910e-01
 3.830689936443673e-01	 1.000609740712869e+00	 5.134868823949614e-01
 3.603740539263162e-01	 1.009005578051392e+00	 4.131888221362277e-01
 3.376113213551464e-01	 1.016848219547572e+00	 3.303210665321163e-01
 3.147998540420135e-01	 1.024139996198311e+00	 2.622465055211545e-01
 2.919583869338996e-01	 1.030884057068108e+00	 2.062160048491957e-01
 2.691052915952692e-01	 1.037084339214621e+00	 1.593931108471098e-01
 2.462585387156577e-01	 1.042745535532752e+00	 1.188782552207224e-01
 2.234356634403244e-01	 1.047873060771812e+00	 8.173226577958292e-02
 4.565600618730836e-01	 9.850541396938363e-01	 1.178788586014465e+00
 4.338870881075840e-01	 9.952491171872442e-01	 9.949504630135357e-01
 4.110859622510485e-01	 1.004881678165811e+00	 8.345470030618043e-01
 3.881767088053927e-01	 1.013951539782750e+00	 6.956508747494636e-01
 3.651791622734972e-01	 1.022459324437367e+00	 5.761603868186309e-01
 3.421129189610211e-01	 1.030406537119440e+00	 4.738224940939080e-01
 3.189972910936670e-01	 1.037795539906620e+00	 3.862559650675257e-01
 2.958512634239985e-01	 1.044629523851985e+00	 3.109744878245131e-01
 2.726934524768403e-01	 1.050912478508621e+00	 2.454095035168011e-01
 2.495420685569543e-01	 1.056649159344938e+00	 1.869325712233438e-01
 2.264148806174227e-01	 1.061845053308720e+00	 1.328770843878004e-01
 4.625675929636779e-01	 9.980157275872220e-01	 1.411610974763223e+00
 4.395962825582002e-01	 1.008344853135681e+00	 1.210518152802501e+00
 4.164951338045202e-01	 1.018104161752687e+00	 1.030846482111909e+00
 3.932844346919422e-01	 1.027293366869678e+00	 8.711066501169271e-01
 3.699842807106814e-01	 1.035913099075635e+00	 7.296544021804885e-01
 3.466145260194732e-01	 1.043964883163362e+00	 6.047096503411700e-01
 3.231947369591013e-01	 1.051451112291306e+00	 4.943757694572992e-01
 2.997441480882373e-01	 1.058375019501212e+00	 3.966588906625077e-01
 2.762816208925816e-01	 1.064740646841691e+00	 3.094870124022648e-01
 2.528256052926268e-01	 1.070552812354785e+00	 2.307287615276121e-01
 2.293941040497705e-01	 1.075817075186899e+00	 1.582116506042972e-01
 4.685751317634771e-01	 1.010977332113636e+00	 1.643109384830871e+00
 4.453054843351376e-01	 1.021440605889363e+00	 1.424159715446986e+00
 4.219043122992610e-01	 1.031326662307544e+00	 1.223659623847174e+00
 3.983921671328786e-01	 1.040635211077830e+00	 1.040763313257514e+00
 3.747894053138752e-01	 1.049366890978884e+00	 8.744961933415529e-01
 3.511161388543932e-01	 1.057523246606553e+00	 7.237681065020636e-01
 3.273921882106235e-01	 1.065106702200117e+00	 5.873868091143211e-01
 3.036370377476663e-01	 1.072120532790032e+00	 4.640715668277584e-01
 2.798697939124116e-01	 1.078568832920500e+00	 3.524667299020363e-01
 2.561091462413906e-01	 1.084456483207268e+00	 2.511551627905972e-01
 2.323733313046157e-01	 1.089789114995448e+00	 1.586714116064472e-01
 4.745826733664884e-01	 1.023938942687942e+00	 1.874718749894602e+00
 4.510146887760434e-01	 1.034536364753556e+00	 1.637054624830149e+00
 4.273134933179420e-01	 1.044549169032083e+00	 1.413977486030140e+00
 4.034999019570645e-01	 1.053977061511382e+00	 1.205482213163911e+00
 3.795945321590853e-01	 1.062820689159798e+00	 1.011467678110576e+00
 3.556177537896725e-01	 1.071081616376229e+00	 8.317421432142973e-01
 3.315896414205414e-01	 1.078762298480797e+00	 6.660290227886450e-01
 3.075299292233359e-01	 1.085866052492690e+00	 5.139729320024846e-01
 2.834579686062493e-01	 1.092397025451718e+00	 3.751459491928466e-01
 2.593926887219610e-01	 1.098360160547363e+00	 2.490540204559539e-01
 2.353525599492068e-01	 1.103761161323472e+00	 1.351434389451249e-01
 4.805902128667193e-01	 1.036900548725006e+00	 2.107800221227136e+00
 4.567238912185655e-01	 1.047632119033528e+00	 1.850321461458403e+00
 4.327226724432352e-01	 1.057771671128007e+00	 1.602739765350185e+00
 4.086076349933627e-01	 1.067318907274511e+00	 1.366079930724068e+00
 3.843996573223180e-01	 1.076274482631064e+00	 1.141310081934709e+00
 3.601193671492018e-01	 1.084639981399606e+00	 9.293373321141087e-01
 3.357870931611622e-01	 1.092417889981094e+00	 7.310039568435278e-01
 3.114228193362970e-01	 1.099611567383429e+00	 5.470840839003166e-01
 2.870461420440134e-01	 1.106225213142014e+00	 3.782808993669509e-01
 2.626762300530535e-01	 1.112263833020041e+00	 2.252243662847142e-01
 2.383317875507918e-01	 1.117733202760072e+00	 8.846944822403580e-02
 2.085397565298897e-01	 9.780139375877577e-01	-5.977073400493920e-01
 1.872751588682954e-01	 9.823075085927059e-01	-5.678350171011477e-01
 1.660642739430359e-01	 9.861149146151665e-01	-5.333859541967620e-01
 1.449221048859622e-01	 9.894430288203904e-01	-4.965001450104829e-01
 1.238631447915627e-01	 9.922992591451227e-01	-4.592623337874380e-01
 1.029013581149162e-01	 9.946915115410935e-01	-4.236910077014797e-01
 8.205016480108950e-02	 9.966281528999332e-01	-3.917285086780851e-01
 6.132242709398352e-02	 9.981179738659459e-01	-3.652322785255300e-01
 4.073043895732970e-02	 9.991701517322813e-01	-3.459672383568630e-01
 2.028591802679350e-02	 9.997942136041430e-01	-3.355992914508157e-01
 0.000000000000000e+00	 1.000000000000000e+00	-3.356899279425876e-01
 2.115189059394629e-01	 9.919856122548431e-01	-4.015421403371140e-01
 1.899505272900958e-01	 9.963405201949547e-01	-3.831112607321150e-01
 1.684366287042940e-01	 1.000202317915604e+00	-3.621794554344251e-01
 1.469924276450038e-01	 1.003577976770333e+00	-3.398920572764488e-01
 1.256326242515388e-01	 1.006475010523806e+00	-3.173761963616815e-01
 1.043713824717892e-01	 1.008901438070191e+00	-2.957347457518256e-01
 8.322231396489484e-02	 1.010865745828442e+00	-2.760408117925230e-01
 6.219846472164627e-02	 1.012376850023818e+00	-2.593327806339616e-01
 4.131230433435212e-02	 1.013444059054000e+00	-2.466099256209904e-01
 2.057571783397211e-02	 1.014077036126061e+00	-2.388285738526612e-01
 0.000000000000000e+00	 1.014285762337685e+00	-2.368988244102352e-01
 2.144980737680448e-01	 1.005957373317689e+00	-2.367142631925816e-01
 1.926259122523858e-01	 1.010373618572351e+00	-2.306477178695761e-01
 1.708089981323071e-01	 1.014289808327531e+00	-2.234353867401349e-01
 1.490627632031907e-01	 1.017713012125696e+00	-2.154388983449489e-01
 1.274021146504700e-01	 1.020650849560097e+00	-2.070329194538774e-01
 1.058414159160934e-01	 1.023111452468066e+00	-1.986029614550437e-01
 8.439447037447267e-02	 1.025103426796637e+00	-1.905432661292759e-01
 6.307450776443674e-02	 1.026635814352820e+00	-1.832547816663510e-01
 4.189417330796949e-02	 1.027718054639657e+00	-1.771432376157209e-01
 2.086551943237152e-02	 1.028359946966948e+00	-1.726173254457768e-01
 0.000000000000000e+00	 1.028571613012482e+00	-1.700869894848616e-01
 2.174772575828835e-01	 1.019929209365398e+00	-1.019916492837911e-01
 1.953013115705126e-01	 1.024406792263879e+00	-1.091591839627508e-01
 1.731813802898896e-01	 1.028377374345500e+00	-1.158179796271193e-01
 1.511331098699964e-01	 1.031848123342196e+00	-1.217484731270568e-01
 1.291716145435107e-01	 1.034826764676397e+00	-1.267698014749512e-01
 1.073114572475229e-01	 1.037321543129217e+00	-1.307404009948718e-01
 8.556663307275791e-02	 1.039341184176433e+00	-1.335583276336441e-01
 6.395055550708149e-02	 1.040894855207496e+00	-1.351613101287930e-01
 4.247604540310677e-02	 1.041992126831532e+00	-1.355265491102107e-01
 2.115532258538469e-02	 1.042642934461811e+00	-1.346702764105130e-01
 0.000000000000000e+00	 1.042857540357000e+00	-1.326470898656047e-01
 2.204564549512274e-01	 1.033901108987071e+00	 3.790107679491062e-03
 1.979767230598238e-01	 1.038440029808523e+00	-1.743086914276581e-02
 1.755537732398562e-01	 1.042465004464060e+00	-3.806450336886069e-02
 1.532034659548942e-01	 1.045983298875552e+00	-5.750456620190825e-02
 1.309411224858151e-01	 1.049002744295103e+00	-7.520382632850042e-02
 1.087815052657713e-01	 1.051531698448141e+00	-9.067639723643506e-02
 8.673880110268536e-02	 1.053579006339744e+00	-1.034995520804189e-01
 6.482660723430707e-02	 1.055153960942393e+00	-1.133150201606670e-01
 4.305792014468898e-02	 1.056266263971905e+00	-1.198297828326815e-01
 2.144512705640454e-02	 1.056925986945661e+00	-1.228163899971646e-01
 0.000000000000000e+00	 1.057143532703853e+00	-1.221128212230904e-01
 2.234356634403244e-01	 1.047873060771812e+00	 8.173226577958337e-02
 2.006521445356669e-01	 1.052473319745267e+00	 4.568629029600624e-02
 1.779261750450211e-01	 1.056552687177763e+00	 1.101959822454690e-02
 1.552738297673574e-01	 1.060118527181483e+00	-2.146188244676406e-02
 1.327106370325377e-01	 1.063178776838613e+00	-5.102635684348567e-02
 1.102515587705329e-01	 1.065741906819336e+00	-7.701923620365170e-02
 8.791097350718997e-02	 1.067816881658486e+00	-9.886552712675778e-02
 6.570266223083999e-02	 1.069413119912057e+00	-1.160715550327214e-01
 4.363979705764108e-02	 1.070540454403061e+00	-1.282260447494092e-01
 2.173493260882402e-02	 1.071209092753505e+00	-1.350005855498901e-01
 0.000000000000000e+00	 1.071429578385649e+00	-1.361495117781786e-01
 2.264148806174227e-01	 1.061845053308720e+00	 1.328770843877960e-01
 2.033275738133893e-01	 1.066506650613095e+00	 8.127995059161419e-02
 1.802985837681989e-01	 1.070640410981159e+00	 3.256518641996786e-02
 1.573441996168595e-01	 1.074253796715706e+00	-1.244138675152273e-02
 1.344801567388328e-01	 1.077354850729328e+00	-5.299824679100640e-02
 1.117216165615013e-01	 1.079952156637298e+00	-8.845096793259843e-02
 8.908314932920657e-02	 1.082054798504573e+00	-1.182342830086451e-01
 6.657871978140689e-02	 1.083672320471033e+00	-1.418734341394328e-01
 4.422167566688809e-02	 1.084814686467279e+00	-1.589848402789276e-01
 2.202473900603610e-02	 1.085492240220354e+00	-1.692761144258150e-01
 0.000000000000000e+00	 1.085715665735001e+00	-1.725454670812283e-01
 2.293941040497705e-01	 1.075817075186899e+00	 1.582116506042928e-01
 2.060030087083387e-01	 1.080540010950993e+00	 9.038034297461239e-02
 1.826709974722041e-01	 1.084728164368799e+00	 2.764355841205335e-02
 1.594145738128737e-01	 1.088389095933940e+00	-2.932600656464857e-02
 1.362496801598547e-01	 1.091530954389646e+00	-7.994533345950883e-02
 1.131916774383706e-01	 1.094162436296527e+00	-1.237226213336649e-01
 9.025532761167007e-02	 1.096292745249919e+00	-1.602581384027792e-01
 6.745477917073431e-02	 1.097931550973866e+00	-1.892444159316518e-01
 4.480355549735500e-02	 1.099088948506841e+00	-2.104658186747606e-01
 2.231454601143368e-02	 1.099775417681214e+00	-2.237975295073409e-01
 0.000000000000000e+00	 1.100001783084519e+00	-2.292039886664745e-01
 2.323733313046157e-01	 1.089789114995448e+00	 1.586714116064472e-01
 2.086784470358625e-01	 1.094573389297943e+00	 7.396395004523892e-02
 1.850434142198511e-01	 1.098815935835233e+00	-2.729739316845503e-03
 1.614849506648734e-01	 1.102524413291903e+00	-7.105666473439953e-02
 1.380192058507578e-01	 1.105707076241965e+00	-1.307542766682319e-01
 1.146617402008347e-01	 1.108372734191518e+00	-1.816497868365574e-01
 9.142750739751529e-02	 1.110530710266440e+00	-2.236589424343305e-01
 6.833083968354876e-02	 1.112190799775103e+00	-2.567842941142540e-01
 4.538543607396681e-02	 1.113363228864028e+00	-2.811129982144380e-01
 2.260435338840974e-02	 1.114058613471097e+00	-2.968141950773706e-01
 0.000000000000000e+00	 1.114287918766816e+00	-3.041360061537794e-01
 2.353525599492068e-01	 1.103761161323472e+00	 1.351434389451249e-01
 2.113538866113081e-01	 1.108606774192931e+00	 3.295690316714728e-02
 1.874158320739543e-01	 1.112903713875012e+00	-5.759138701693400e-02
 1.635553284823320e-01	 1.116659737245314e+00	-1.366286134053269e-01
 1.397887323666964e-01	 1.119883204708684e+00	-2.043687135434513e-01
 1.161318036485874e-01	 1.122583038716770e+00	-2.611085342558821e-01
 9.259968772967715e-02	 1.124768681926050e+00	-3.072236777558612e-01
 6.920690060457686e-02	 1.126450055229290e+00	-3.431640887470075e-01
 4.596731692164848e-02	 1.127637515881123e+00	-3.694494296262003e-01
 2.289416090035721e-02	 1.128341815925009e+00	-3.866642892187244e-01
 0.000000000000000e+00	 1.128574061114501e+00	-3.954532684871013e-01
 2.383317875507918e-01	 1.117733202760072e+00	 8.846944822404090e-02
 2.140293252500230e-01	 1.122640154174940e+00	-3.176187473295133e-02
 1.897882490973285e-01	 1.126991486982686e+00	-1.360270317715606e-01
 1.656257055747226e-01	 1.130795056249892e+00	-2.250880426461115e-01
 1.415582582628250e-01	 1.134059328212202e+00	-2.997857014522221e-01
 1.176018665813229e-01	 1.136793338266780e+00	-3.610316365684145e-01
 9.377186765109050e-02	 1.139006648600664e+00	-4.098003931296941e-01
 7.008296121854513e-02	 1.140709305690971e+00	-4.471215977249969e-01
 4.654919756532504e-02	 1.141911797900406e+00	-4.740722594399476e-01
 2.318396831066902e-02	 1.142625013377961e+00	-4.917692556740718e-01
 0.000000000000000e+00	 1.142860198460186e+00	-5.013620454236172e-01
 1.142860198460186e+00	 0.000000000000000e+00	 1.882593163177004e+01
 1.142625013377961e+00	 2.318396831066934e-02	 1.881526246042652e+01
 1.141911797900406e+00	 4.654919756532534e-02	 1.877991373901964e+01
 1.140709305690971e+00	 7.008296121854536e-02	 1.872000046481628e+01
 1.139006648600664e+00	 9.377186765109072e-02	 1.863584928613671e+01
 1.136793338266779e+00	 1.176018665813230e-01	 1.852800622577567e+01
 1.134059328212202e+00	 1.415582582628251e-01	 1.839724321030980e+01
 1.130795056249892e+00	 1.656257055747228e-01	 1.824456327100239e+01
 1.126991486982686e+00	 1.897882490973286e-01	 1.807120428712955e+01
 1.122640154174940e+00	 2.140293252500230e-01	 1.787864114977719e+01
 1.117733202760072e+00	 2.383317875507917e-01	 1.766858623355747e+01
 1.157145321350848e+00	 0.000000000000000e+00	 1.844432544396323e+01
 1.156907196584657e+00	 2.347375514173351e-02	 1.843427938673997e+01
 1.156185066306537e+00	 4.713103688965983e-02	 1.840089289904052e+01
 1.154967543606921e+00	 7.095895962352061e-02	 1.834437716692779e+01
 1.153243604240946e+00	 9.494396433618384e-02	 1.826512660211803e+01
 1.151002628747150e+00	 1.190718251251996e-01	 1.816372466490952e+01
 1.148234445072978e+00	 1.433276585053856e-01	 1.804094859853699e+01
 1.144929371509318e+00	 1.676959356502721e-01	 1.789777296356277e+01
 1.141078259721515e+00	 1.921604976561825e-01	 1.773537186641000e+01
 1.136672537650634e+00	 2.167045739068282e-01	 1.755511978348429e+01
 1.131704252046085e+00	 2.413108035985782e-01	 1.735859089155255e+01
 1.171430429241259e+00	 0.000000000000000e+00	 1.807232893685792e+01
 1.171189364794196e+00	 2.376354166844703e-02	 1.806442374219107e+01
 1.170458319724889e+00	 4.771287560295061e-02	 1.803434535856665e+01
 1.169225766550903e+00	 7.183495710857876e-02	 1.798237792202061e+01
 1.167480544931648e+00	 9.611605979047652e-02	 1.790896630737414e+01
 1.165211904307037e+00	 1.205417821255611e-01	 1.781472047611179e+01
 1.162409547049214e+00	 1.450970568900730e-01	 1.770041881995082e+01
 1.159063671927114e+00	 1.697661635521416e-01	 1.756701040662018e+01
 1.155165017668707e+00	 1.945327437243049e-01	 1.741561604015179e+01
 1.150704906391885e+00	 2.193798197548161e-01	 1.724752805540690e+01
 1.145675286662146e+00	 2.442898165186466e-01	 1.706420877563520e+01
 1.185715523798227e+00	 0.000000000000000e+00	 1.770924989783431e+01
 1.185471519673041e+00	 2.405332792465459e-02	 1.770463087995667e+01
 1.184731559820883e+00	 4.829471377313913e-02	 1.767888396048616e+01
 1.183483976186579e+00	 7.271095377599275e-02	 1.763234365819312e+01
 1.181717472333943e+00	 9.728815415079030e-02	 1.756548852786927e+01
 1.179421166604382e+00	 1.220117377539762e-01	 1.747894444917760e+01
 1.176584635794853e+00	 1.468664536233805e-01	 1.737348697458220e+01
 1.173197959152453e+00	 1.718363895219076e-01	 1.725004265588345e+01
 1.169251762467883e+00	 1.969049875784915e-01	 1.710968927486764e+01
 1.164737262035952e+00	 2.220550631061160e-01	 1.695365491104575e+01
 1.159646308238343e+00	 2.472688266585502e-01	 1.678331578841090e+01
 1.200000606688556e+00	 0.000000000000000e+00	 1.735442909068887e+01
 1.199753662887650e+00	 2.434311394420089e-02	 1.735388674146989e+01
 1.199004788259937e+00	 4.887655146816672e-02	 1.733318736735609e+01
 1.197742174177614e+00	 7.358694972803567e-02	 1.729269394256802e+01
 1.195954388109006e+00	 9.846024755394681e-02	 1.723290241163884e+01
 1.193630417297124e+00	 1.234816921820130e-01	 1.715444432628670e+01
 1.190759712963843e+00	 1.486358489118020e-01	 1.705808858425614e+01
 1.187332234834512e+00	 1.739066138011468e-01	 1.694474219784958e+01
 1.183338495762656e+00	 1.992772294955378e-01	 1.681545002596187e+01
 1.178769606220092e+00	 2.247303042728567e-01	 1.667139341091082e+01
 1.173617318404766e+00	 2.502478343658425e-01	 1.651388767021837e+01
 1.214285679579051e+00	 0.000000000000000e+00	 1.700723831639760e+01
 1.214035796104490e+00	 2.463289976093064e-02	 1.701122488116401e+01
 1.213278006707471e+00	 4.945838875597484e-02	 1.699599619015063e+01
 1.212000362187669e+00	 7.446294506698058e-02	 1.696192235593020e+01
 1.210191293918011e+00	 9.963234013676772e-02	 1.690950089262963e+01
 1.207839658043205e+00	 1.249516455812401e-01	 1.683935909932508e+01
 1.204934780210126e+00	 1.504052429618308e-01	 1.675225556815495e+01
 1.201466500622466e+00	 1.759768366314353e-01	 1.664908074833992e+01
 1.197425219196647e+00	 2.016494697522397e-01	 1.653085650341026e+01
 1.192801940581567e+00	 2.274055435671674e-01	 1.639873460640294e+01
 1.187588318791500e+00	 2.532268399880767e-01	 1.625399412658802e+01
 1.228570744136519e+00	 0.000000000000000e+00	 1.666707860919085e+01
 1.228317920990019e+00	 2.492268540868854e-02	 1.667572369881661e+01
 1.227551216828906e+00	 5.004022570450483e-02	 1.666610938712836e+01
 1.226258541880407e+00	 7.533893989510042e-02	 1.663859219010215e+01
 1.224428191422134e+00	 1.008044320360747e-01	 1.659365581989626e+01
 1.222048890500565e+00	 1.264215981232256e-01	 1.653191370511443e+01
 1.219109839187650e+00	 1.521746359799606e-01	 1.645411063873983e+01
 1.215600758165490e+00	 1.780470582543500e-01	 1.636112348374646e+01
 1.211511934413471e+00	 2.040217086253930e-01	 1.625396087244228e+01
 1.206834266757633e+00	 2.300807813011770e-01	 1.613376184300800e+01
 1.201559311028636e+00	 2.562058438728060e-01	 1.600179336545922e+01
 1.242855802027764e+00	 0.000000000000000e+00	 1.633337855705131e+01
 1.242600039210701e+00	 2.521247092131928e-02	 1.634650386278899e+01
 1.241824420289660e+00	 5.062206238169809e-02	 1.634238091108216e+01
 1.240516714919490e+00	 7.621493431466822e-02	 1.632133244208615e+01
 1.238665082282548e+00	 1.019765233886893e-01	 1.628381342275322e+01
 1.236258116327144e+00	 1.278915499795382e-01	 1.623041408652931e+01
 1.233284891550360e+00	 1.539440281726847e-01	 1.616186208420446e+01
 1.229735009112759e+00	 1.801172789114669e-01	 1.607902367016841e+01
 1.225598643056746e+00	 2.063939463917933e-01	 1.598290385422140e+01
 1.220866586385550e+00	 2.327560177870144e-01	 1.587464545641861e+01
 1.215530296746261e+00	 2.591848463675837e-01	 1.575552701118307e+01
 1.257140854919592e+00	 0.000000000000000e+00	 1.606299393279112e+01
 1.256882152432996e+00	 2.550225633266756e-02	 1.607616102273449e+01
 1.256097618755154e+00	 5.120389885549600e-02	 1.606944809221612e+01
 1.254774882968583e+00	 7.709092842795702e-02	 1.604342752465456e+01
 1.252901968160429e+00	 1.031486143314331e-01	 1.599880061613664e+01
 1.250467337180882e+00	 1.293615013217461e-01	 1.593640249018311e+01
 1.247459938952200e+00	 1.557134197464967e-01	 1.587379890671036e+01
 1.243869255113450e+00	 1.821874988443626e-01	 1.580101765878477e+01
 1.239685346770091e+00	 2.087661833282363e-01	 1.571590969470182e+01
 1.234898901102576e+00	 2.354312533368090e-01	 1.561963783032358e+01
 1.229501277574464e+00	 2.621638478199633e-01	 1.551351536533564e+01
 1.271425904478810e+00	 0.000000000000000e+00	 1.585180242147376e+01
 1.271164262323368e+00	 2.579204167657809e-02	 1.586440638225767e+01
 1.270370813890807e+00	 5.178573519383996e-02	 1.585855268746682e+01
 1.269033047691344e+00	 7.796692233723983e-02	 1.583473502058430e+01
 1.267138850716951e+00	 1.043207050011279e-01	 1.579358944911059e+01
 1.264676554719722e+00	 1.308314523214177e-01	 1.573590069014256e+01
 1.261634983047117e+00	 1.574828109078902e-01	 1.566260785034959e+01
 1.258003497816736e+00	 1.842577182946137e-01	 1.557480954398361e+01
 1.253772047197120e+00	 2.111384197115177e-01	 1.547376828972219e+01
 1.248931212545972e+00	 2.381064882626895e-01	 1.536706878741655e+01
 1.243472255143333e+00	 2.651428485774981e-01	 1.527415298706148e+01
 1.285710952372222e+00	 0.000000000000000e+00	 1.564066844268953e+01
 1.285446370548278e+00	 2.608182698689557e-02	 1.565179716196204e+01
 1.284644007362039e+00	 5.236757146467139e-02	 1.564606689983409e+01
 1.283291210751439e+00	 7.884291614478972e-02	 1.562387319509507e+01
 1.281375731613288e+00	 1.054927955345953e-01	 1.558577225995232e+01
 1.278885770601601e+00	 1.323014031501213e-01	 1.553248896144080e+01
 1.275810025489054e+00	 1.592522018633586e-01	 1.546492423019572e+01
 1.272137738871795e+00	 1.863279375037966e-01	 1.538416178142007e+01
 1.267858745981453e+00	 2.135106558184332e-01	 1.529147402926592e+01
 1.262963522352994e+00	 2.407817228767851e-01	 1.518832707345855e+01
 1.257443231082956e+00	 2.681218489877413e-01	 1.507638463600292e+01
 1.117733202760072e+00	 2.383317875507917e-01	 1.766858623355746e+01
 1.112263833020041e+00	 2.626762300530532e-01	 1.743630013168497e+01
 1.106225213142014e+00	 2.870461420440131e-01	 1.717686999006308e+01
 1.099611567383429e+00	 3.114228193362967e-01	 1.689209003680190e+01
 1.092417889981094e+00	 3.357870931611621e-01	 1.658390855604740e+01
 1.084639981399607e+00	 3.601193671492018e-01	 1.625442154518534e+01
 1.076274482631064e+00	 3.843996573223178e-01	 1.590586508922616e+01
 1.067318907274511e+00	 4.086076349933625e-01	 1.554060647109729e+01
 1.057771671128008e+00	 4.327226724432351e-01	 1.516113405186581e+01
 1.047632119033529e+00	 4.567238912185653e-01	 1.477004597047411e+01
 1.036900548725005e+00	 4.805902128667193e-01	 1.437003772814224e+01
 1.131704252046085e+00	 2.413108035985782e-01	 1.735859089155255e+01
 1.126166518197095e+00	 2.659595382211787e-01	 1.714070748292492e+01
 1.120052418896942e+00	 2.906340606870188e-01	 1.689638405005135e+01
 1.113356106209475e+00	 3.153154330166911e-01	 1.662749493536574e+01
 1.106072511802234e+00	 3.399842468424100e-01	 1.633607028649144e+01
 1.098197383647950e+00	 3.646206608509515e-01	 1.602428900409888e+01
 1.089727320752985e+00	 3.892044412755066e-01	 1.569447035665791e+01
 1.080659805637753e+00	 4.137150053315430e-01	 1.534906428583535e+01
 1.070993234298678e+00	 4.381314674648408e-01	 1.499064044243242e+01
 1.060726943388633e+00	 4.624326882528711e-01	 1.462187600912802e+01
 1.049861234363075e+00	 4.865973257739606e-01	 1.424554238262449e+01
 1.145675286662146e+00	 2.442898165186466e-01	 1.706420877563520e+01
 1.140069188776074e+00	 2.692428429421195e-01	 1.686036593133211e+01
 1.133879610133148e+00	 2.942219755630260e-01	 1.663082993093426e+01
 1.127100630603702e+00	 3.192080426101740e-01	 1.637753277238695e+01
 1.119727119286068e+00	 3.441813961169891e-01	 1.610256094973347e+01
 1.111754771661164e+00	 3.691219498266913e-01	 1.580814776151215e+01
 1.103180144749660e+00	 3.940092201840262e-01	 1.549666426321227e+01
 1.094000689993370e+00	 4.188223703073470e-01	 1.517060889305660e+01
 1.084214783587100e+00	 4.435402568075890e-01	 1.483259581707996e+01
 1.073821753994628e+00	 4.681414792933418e-01	 1.448534205634539e+01
 1.062821906392927e+00	 4.926044323741732e-01	 1.413165347590633e+01
 1.159646308238343e+00	 2.472688266585502e-01	 1.678331578841090e+01
 1.153971846379076e+00	 2.725261445989176e-01	 1.659325480255982e+01
 1.147706788463904e+00	 2.978098870906049e-01	 1.637827389192591e+01
 1.140845142169716e+00	 3.231006485708565e-01	 1.614034112580928e+01
 1.133381714025693e+00	 3.483785414745347e-01	 1.588157477997257e+01
 1.125312147020986e+00	 3.736232346015354e-01	 1.560423507394298e+01
 1.116632956190610e+00	 3.988139946083936e-01	 1.531071455646757e+01
 1.107341561897807e+00	 4.239297305165887e-01	 1.500352717439455e+01
 1.097436320535780e+00	 4.489490411024549e-01	 1.468529607722305e+01
 1.086916552379217e+00	 4.738502650059465e-01	 1.435874022663597e+01
 1.075782566326606e+00	 4.986115333681203e-01	 1.402665989720993e+01
 1.173617318404766e+00	 2.502478343658425e-01	 1.651388767021837e+01
 1.167874492628195e+00	 2.758094435746150e-01	 1.633744819940726e+01
 1.161533955502484e+00	 3.013977956883258e-01	 1.613687269526042e+01
 1.154589642511129e+00	 3.269932513528491e-01	 1.591414454783792e+01
 1.147036297614210e+00	 3.525756834046819e-01	 1.567139015749333e+01
 1.138869511309155e+00	 3.781245157005969e-01	 1.541087016799339e+01
 1.130085756645355e+00	 4.036187651091258e-01	 1.513496937832362e+01
 1.120682422907506e+00	 4.290370865550829e-01	 1.484618537493259e+01
 1.110657846687221e+00	 4.543578209804138e-01	 1.454711594313167e+01
 1.100011340070105e+00	 4.795590460566533e-01	 1.424044533333375e+01
 1.088743215676155e+00	 5.046186294565644e-01	 1.392892947449513e+01
 1.187588318791500e+00	 2.532268399880767e-01	 1.625399412658802e+01
 1.181777129145528e+00	 2.790927402522532e-01	 1.609110942693093e+01
 1.175361112862159e+00	 3.049857017747593e-01	 1.590486828269260e+01
 1.168334133231548e+00	 3.308858514102632e-01	 1.569724944898453e+01
 1.160690871644718e+00	 3.567728223970656e-01	 1.547036465904489e+01
 1.152426866107410e+00	 3.826257936489898e-01	 1.522644941870220e+01
 1.143538547683417e+00	 4.084235322467395e-01	 1.496785253602251e+01
 1.134023274578911e+00	 4.341444390186439e-01	 1.469702443484576e+01
 1.123879363583928e+00	 4.597665970724412e-01	 1.441650431759532e+01
 1.113106118594998e+00	 4.852678231114311e-01	 1.412890625931715e+01
 1.101703855953616e+00	 5.106257213402688e-01	 1.383690433107169e+01
 1.201559311028636e+00	 2.562058438728060e-01	 1.600179336545922e+01
 1.195679757553171e+00	 2.823760350148740e-01	 1.585248580654531e+01
 1.189188262156201e+00	 3.085736057684754e-01	 1.568058282344676e+01
 1.182078615934583e+00	 3.347784491972097e-01	 1.548803933907833e+01
 1.174345437710318e+00	 3.609699589413216e-01	 1.527693045358043e+01
 1.165984212997487e+00	 3.871270689718281e-01	 1.504944186432772e+01
 1.156991330874316e+00	 4.132282965817519e-01	 1.480785910313413e+01
 1.147364118468464e+00	 4.392517885030855e-01	 1.455455564677687e+01
 1.137100872768407e+00	 4.651753700095123e-01	 1.429197997308701e+01
 1.126200889481598e+00	 4.909765968362484e-01	 1.402264165073645e+01
 1.114664488671034e+00	 5.166328097199970e-01	 1.374909656620308e+01
 1.215530296746261e+00	 2.591848463675837e-01	 1.575552701118307e+01
 1.209582379473220e+00	 2.856593282455194e-01	 1.561990384781128e+01
 1.203015404997883e+00	 3.121615080880448e-01	 1.546241410372399e+01
 1.195823092223842e+00	 3.386710451677993e-01	 1.528497039651920e+01
 1.187999997404107e+00	 3.651670935270845e-01	 1.508959001556576e+01
 1.179541553561126e+00	 3.916283421942254e-01	 1.487838503048943e+01
 1.170444107787571e+00	 4.180330586746797e-01	 1.465355132395363e+01
 1.160704956132611e+00	 4.443591356042226e-01	 1.441735661273518e+01
 1.150322375783163e+00	 4.705841404226023e-01	 1.417212753639512e+01
 1.139295654257610e+00	 4.966853678970743e-01	 1.392023590775615e+01
 1.127625115340454e+00	 5.226398952965117e-01	 1.366408423363021e+01
 1.229501277574464e+00	 2.621638478199633e-01	 1.551351536533564e+01
 1.223484996527770e+00	 2.889426203272313e-01	 1.539176474945644e+01
 1.216842543000477e+00	 3.157494091520374e-01	 1.524883123059460e+01
 1.209567563702936e+00	 3.425636397761434e-01	 1.508656733965923e+01
 1.201654552319188e+00	 3.693642266439899e-01	 1.490691213059340e+01
 1.193098889380065e+00	 3.961296138412951e-01	 1.471188103905622e+01
 1.183896879992705e+00	 4.228378190860399e-01	 1.450355479717375e+01
 1.174045789127792e+00	 4.494664809178695e-01	 1.428406747668947e+01
 1.163543874170699e+00	 4.759929089426868e-01	 1.405559374705830e+01
 1.152390414450741e+00	 5.023941369598771e-01	 1.382033544868342e+01
 1.140585737473918e+00	 5.286469787705758e-01	 1.358050759431428e+01
 1.243472255143333e+00	 2.651428485774981e-01	 1.527415298706148e+01
 1.237387610338918e+00	 2.922259116430513e-01	 1.516654020373002e+01
 1.230669677777256e+00	 3.193373093790241e-01	 1.503837062554669e+01
 1.223312031975472e+00	 3.464562334763527e-01	 1.489141957654710e+01
 1.215309104048657e+00	 3.735613587816728e-01	 1.472752817030866e+01
 1.206656222036041e+00	 4.006308844381515e-01	 1.454859297938424e+01
 1.197349649059237e+00	 4.276425783763493e-01	 1.435655491686336e+01
 1.187386619010453e+00	 4.545738250398405e-01	 1.415338741116899e+01
 1.176765369473521e+00	 4.814016762007408e-01	 1.394108396806566e+01
 1.165485171588693e+00	 5.081029046906257e-01	 1.372164522597804e+01
 1.153546356583469e+00	 5.346540608429523e-01	 1.349706562182851e+01
 1.257443231082956e+00	 2.681218489877413e-01	 1.507638463600292e+01
 1.251290222528759e+00	 2.955092025760216e-01	 1.494954523545835e+01
 1.244496810941490e+00	 3.229252091875747e-01	 1.482963228515897e+01
 1.237056498645061e+00	 3.503488267225385e-01	 1.469817761138265e+01
 1.228963654185617e+00	 3.777584904297682e-01	 1.455012861569921e+01
 1.220213553110794e+00	 4.051321545099082e-01	 1.438724152149601e+01
 1.210802416556687e+00	 4.324473371061250e-01	 1.421129355073804e+01
 1.200727447337036e+00	 4.596811685659496e-01	 1.402407133811386e+01
 1.189986863234135e+00	 4.868104428277399e-01	 1.382735892919955e+01
 1.178579927199173e+00	 5.138116717552889e-01	 1.362292547455052e+01
 1.166506974181152e+00	 5.406611422144046e-01	 1.341251274074597e+01
 1.036900548725005e+00	 4.805902128667193e-01	 1.437003772814224e+01
 1.025577419295452e+00	 5.043020646478357e-01	 1.395889463021997e+01
 1.013665729158402e+00	 5.278364433591113e-01	 1.353403664884726e+01
 1.001168751814751e+00	 5.511719849359001e-01	 1.309757155819966e+01
 9.880907749640296e-01	 5.742873480231188e-01	 1.265157229646193e+01
 9.744371061647262e-01	 5.971612733236881e-01	 1.219806706815263e+01
 9.602140743702269e-01	 6.197726437892053e-01	 1.173902986118673e+01
 9.454290272392749e-01	 6.421005453207324e-01	 1.127637148106665e+01
 9.300903241502864e-01	 6.641243276354837e-01	 1.081193119947019e+01
 9.142073248808197e-01	 6.858236649462323e-01	 1.034746910771916e+01
 8.977903739465982e-01	 7.071786160946152e-01	 9.884659257242625e+00
 1.049861234363075e+00	 4.865973257739606e-01	 1.424554238262448e+01
 1.038396572053436e+00	 5.106055626397865e-01	 1.385914036273071e+01
 1.026335992351761e+00	 5.344341081201812e-01	 1.345962473028694e+01
 1.013682809675893e+00	 5.580613311114565e-01	 1.304888262043866e+01
 1.000441365319234e+00	 5.814656235033427e-01	 1.262872988848028e+01
 9.866170331818169e-01	 6.046254602692555e-01	 1.220090211176788e+01
 9.722162213254484e-01	 6.275194604093164e-01	 1.176704632682425e+01
 9.572463692505458e-01	 6.501264484098677e-01	 1.132871360221969e+01
 9.417159408231383e-01	 6.724255158709614e-01	 1.088735253889057e+01
 9.256344128128366e-01	 6.943960829442236e-01	 1.044430377891714e+01
 9.090122590360994e-01	 7.160179592177930e-01	 1.000079559157675e+01
 1.062821906392927e+00	 4.926044323741732e-01	 1.413165347590632e+01
 1.051215711351843e+00	 5.169090540135580e-01	 1.376864783360196e+01
 1.039006242241894e+00	 5.410317659542637e-01	 1.339277959982753e+01
 1.026196854397831e+00	 5.649506700538356e-01	 1.300577343140936e+01
 1.012791942706873e+00	 5.886438914470942e-01	 1.260925437464770e+01
 9.987969474105339e-01	 6.120896393782246e-01	 1.220473946338617e+01
 9.842183556789587e-01	 6.352662688961455e-01	 1.179363030215442e+01
 9.690636988541473e-01	 6.581523430727501e-01	 1.137720673476849e+01
 9.533415452896359e-01	 6.807266953911941e-01	 1.095662168689188e+01
 9.370614887469668e-01	 7.029684919422192e-01	 1.053289725740291e+01
 9.202341323432031e-01	 7.248572930607246e-01	 1.010692211818304e+01
 1.075782566326606e+00	 4.986115333681203e-01	 1.402665989720993e+01
 1.064034838686197e+00	 5.232125395044800e-01	 1.368571817876538e+01
 1.051676480306948e+00	 5.476294176309935e-01	 1.333185890647945e+01
 1.038710887440483e+00	 5.718400025666855e-01	 1.296670049930036e+01
 1.025142508567791e+00	 5.958221526917139e-01	 1.259174134488640e+01
 1.010976850271808e+00	 6.195538115212763e-01	 1.220835169605349e+01
 9.962204788309452e-01	 6.430130701533314e-01	 1.181776673296770e+01
 9.808810174287035e-01	 6.661782302455649e-01	 1.142108089285150e+01
 9.649671389060314e-01	 6.890278671644737e-01	 1.101924355495995e+01
 9.484885540162959e-01	 7.115408929401473e-01	 1.061305615273099e+01
 9.314559951770458e-01	 7.336966186544741e-01	 1.020317076755222e+01
 1.088743215676155e+00	 5.046186294565644e-01	 1.392892947449512e+01
 1.076853955552018e+00	 5.295160198478809e-01	 1.360873079185852e+01
 1.064346708025067e+00	 5.542270639200044e-01	 1.327529577481066e+01
 1.051224910263766e+00	 5.787293294536553e-01	 1.293019101644603e+01
 1.037493064342832e+00	 6.030004080745422e-01	 1.257485037408575e+01
 1.023156743186568e+00	 6.270179775690913e-01	 1.221056687170590e+01
 1.008222592181596e+00	 6.507598650845137e-01	 1.183848588087066e+01
 9.926983263528391e-01	 6.742041108644978e-01	 1.145959968488698e+01
 9.765927230285766e-01	 6.973290321590903e-01	 1.107474351556725e+01
 9.599156099539082e-01	 7.201132869379340e-01	 1.068459313474569e+01
 9.426778488467652e-01	 7.425359370301068e-01	 1.028966401378913e+01
 1.101703855953616e+00	 5.106257213402688e-01	 1.383690433107169e+01
 1.089673063444831e+00	 5.358194957790912e-01	 1.353613872091304e+01
 1.077016926874399e+00	 5.608247055909321e-01	 1.322159436531479e+01
 1.063738924327598e+00	 5.856186515183933e-01	 1.289483870157311e+01
 1.049843611472838e+00	 6.101786584329199e-01	 1.255730125845398e+01
 1.035336627575747e+00	 6.344821383923496e-01	 1.221026527732774e+01
 1.020224697131097e+00	 6.585066545933308e-01	 1.185486065789637e+01
 1.004515627005178e+00	 6.822299858657340e-01	 1.149205833771739e+01
 9.882182990135243e-01	 7.056301913433348e-01	 1.112266619888725e+01
 9.713426578928895e-01	 7.286856749355066e-01	 1.074732657740774e+01
 9.538996946614974e-01	 7.513752492186879e-01	 1.036651543118158e+01
 1.114664488671034e+00	 5.166328097199970e-01	 1.374909656620308e+01
 1.102492163860158e+00	 5.421229680334391e-01	 1.346646438623776e+01
 1.089687138333090e+00	 5.674223434134106e-01	 1.316932574455283e+01
 1.076252931091896e+00	 5.925079695645479e-01	 1.285929993215309e+01
 1.062194151398654e+00	 6.173569046041871e-01	 1.253787051447597e+01
 1.047516504860274e+00	 6.419462948617327e-01	 1.220637638884159e+01
 1.032226795079638e+00	 6.662534395834214e-01	 1.186600414708898e+01
 1.016332920764344e+00	 6.902558561854591e-01	 1.151778185861480e+01
 9.998438682171271e-01	 7.139313456854990e-01	 1.116257437346429e+01
 9.827696991663241e-01	 7.372580579327912e-01	 1.080108022746779e+01
 9.651215339303795e-01	 7.602145562512814e-01	 1.043383021192885e+01
 1.127625115340454e+00	 5.226398952965117e-01	 1.366408423363021e+01
 1.115311258293522e+00	 5.484264373462548e-01	 1.339829559365011e+01
 1.102357343879284e+00	 5.740199781570746e-01	 1.311712404014176e+01
 1.088766932016580e+00	 5.993972843957679e-01	 1.282229014351508e+01
 1.074544685561123e+00	 6.245351474256848e-01	 1.251538811934598e+01
 1.059696376461081e+00	 6.494104478479209e-01	 1.219787604440473e+01
 1.044228887427404e+00	 6.740002209584247e-01	 1.187106729409757e+01
 1.028150209008962e+00	 6.982817227598582e-01	 1.153612332405487e+01
 1.011469431995637e+00	 7.222324961538733e-01	 1.119404790408173e+01
 9.941967351072980e-01	 7.458304369297156e-01	 1.084568289598751e+01
 9.763433679625483e-01	 7.690538591589523e-01	 1.049170564815517e+01
 1.140585737473918e+00	 5.286469787705758e-01	 1.358050759431428e+01
 1.128130348240445e+00	 5.547299044528674e-01	 1.333028181956004e+01
 1.115027544991130e+00	 5.806176105915594e-01	 1.306368285792854e+01
 1.101280928561567e+00	 6.062865968157012e-01	 1.278258047349768e+01
 1.086895215401089e+00	 6.317133877347538e-01	 1.248873447366412e+01
 1.071876243799097e+00	 6.568745982215950e-01	 1.218378381045255e+01
 1.056230975574584e+00	 6.817469996219793e-01	 1.186923675617471e+01
 1.039967493117655e+00	 7.063075865251172e-01	 1.154646228517326e+01
 1.023094991705307e+00	 7.305336437167493e-01	 1.121668278068803e+01
 1.005623767048896e+00	 7.544028129262060e-01	 1.088096817089020e+01
 9.875651980671412e-01	 7.778931589727657e-01	 1.054023158104939e+01
 1.153546356583469e+00	 5.346540608429523e-01	 1.349706562182851e+01
 1.140949435196451e+00	 5.610333700886062e-01	 1.326113074652200e+01
 1.127697743146772e+00	 5.872152414864988e-01	 1.300775194072627e+01
 1.113794922186774e+00	 6.131759076279970e-01	 1.273899463332521e+01
 1.099245742359396e+00	 6.388916263687342e-01	 1.245683756891376e+01
 1.084056108295254e+00	 6.643387468534362e-01	 1.216316052532800e+01
 1.068233060921365e+00	 6.894937764777240e-01	 1.185973289619734e+01
 1.051784774469049e+00	 7.143334484174210e-01	 1.154820328072661e+01
 1.034720548702388e+00	 7.388347893424174e-01	 1.123009021279041e+01
 1.017050796324203e+00	 7.629751869221899e-01	 1.090677414888726e+01
 9.987870255532937e-01	 7.867324567237854e-01	 1.057949081971715e+01
 1.166506974181152e+00	 5.406611422144046e-01	 1.341251274074597e+01
 1.153768520657062e+00	 5.673368349888009e-01	 1.318960502977191e+01
 1.140367939824356e+00	 5.938128716115278e-01	 1.294813404982214e+01
 1.126308914352119e+00	 6.200652176363033e-01	 1.269040598711150e+01
 1.111596267876887e+00	 6.460698641649667e-01	 1.241867034379061e+01
 1.096235971370482e+00	 6.718028946141243e-01	 1.213510600668235e+01
 1.080235144867935e+00	 6.972405524292983e-01	 1.184180791043050e+01
 1.063602054441766e+00	 7.223593093729551e-01	 1.154077444919577e+01
 1.046346104343134e+00	 7.471359339991690e-01	 1.123389578422450e+01
 1.028477824266305e+00	 7.715475599175938e-01	 1.092294318527300e+01
 1.010008851730144e+00	 7.955717534430776e-01	 1.060955953210062e+01
 8.977903739465982e-01	 7.071786160946152e-01	 9.884659257242625e+00
 8.808507781263871e-01	 7.281696857534988e-01	 9.422058210468283e+00
 8.634007747364419e-01	 7.487778883035630e-01	 8.958459881511271e+00
 8.454535107871739e-01	 7.689847982105142e-01	 8.495744906493075e+00
 8.270230131317176e-01	 7.887726023905666e-01	 8.035681253489621e+00
 8.081241522539677e-01	 8.081241522539679e-01	 7.579919709335526e+00
 7.887726023905661e-01	 8.270230131317177e-01	 7.129990531603369e+00
 7.689847982105142e-01	 8.454535107871741e-01	 6.687301279205896e+00
 7.487778883035625e-01	 8.634007747364423e-01	 6.253135819092741e+00
 7.281696857534985e-01	 8.808507781263871e-01	 5.828654490736991e+00
 7.071786160946154e-01	 8.977903739465983e-01	 5.414895394833851e+00
 9.090122590360994e-01	 7.160179592177930e-01	 1.000079559157675e+01
 8.918609276001876e-01	 7.372714056836830e-01	 9.555069017659232e+00
 8.741928087810674e-01	 7.581371994127891e-01	 9.106024283436092e+00
 8.560212139195389e-01	 7.785966845617895e-01	 8.655749800969549e+00
 8.373603451966737e-01	 7.986318253931607e-01	 8.206271632401217e+00
 8.182252589692260e-01	 8.182252589692263e-01	 7.759546610359737e+00
 7.986318253931602e-01	 8.373603451966736e-01	 7.317456229124625e+00
 7.785966845617891e-01	 8.560212139195389e-01	 6.881801346226316e+00
 7.581371994127888e-01	 8.741928087810675e-01	 6.454297722458433e+00
 7.372714056836827e-01	 8.918609276001878e-01	 6.036572416358382e+00
 7.160179592177931e-01	 9.090122590360992e-01	 5.630161037302275e+00
 9.202341323432031e-01	 7.248572930607246e-01	 1.010692211818304e+01
 9.028710655139545e-01	 7.463731160581214e-01	 9.676870086443802e+00
 8.849848314947354e-01	 7.674965006957747e-01	 9.241861762750984e+00
 8.665889059565564e-01	 7.882085608215773e-01	 8.804089898170847e+00
 8.476976664082401e-01	 8.084910380445101e-01	 8.365720089028571e+00
 8.283263550791978e-01	 8.283263550791981e-01	 7.928882433561879e+00
 8.084910380445095e-01	 8.476976664082403e-01	 7.495663685003748e+00
 7.882085608215771e-01	 8.665889059565568e-01	 7.068099957497473e+00
 7.674965006957744e-01	 8.849848314947356e-01	 6.648170032509340e+00
 7.463731160581211e-01	 9.028710655139547e-01	 6.237789304165323e+00
 7.248572930607247e-01	 9.202341323432032e-01	 5.838804392398788e+00
 9.314559951770458e-01	 7.336966186544741e-01	 1.020317076755222e+01
 9.138811931521120e-01	 7.554748179384909e-01	 9.787885652334293e+00
 8.957768441364098e-01	 7.768557932442529e-01	 9.366603877625550e+00
 8.771565881310048e-01	 7.978204281110890e-01	 8.941523105847443e+00
 8.580349779723025e-01	 8.183502414946923e-01	 8.514834280685537e+00
 8.384274417621956e-01	 8.384274417621959e-01	 8.088712703699846e+00
 8.183502414946922e-01	 8.580349779723029e-01	 7.665309450877333e+00
 7.978204281110886e-01	 8.771565881310051e-01	 7.246743192923434e+00
 7.768557932442528e-01	 8.957768441364100e-01	 6.835092476010492e+00
 7.554748179384908e-01	 9.138811931521124e-01	 6.432388512005334e+00
 7.336966186544741e-01	 9.314559951770459e-01	 6.040608519042723e+00
 9.426778488467652e-01	 7.425359370301068e-01	 1.028966401378913e+01
 9.248913117990835e-01	 7.645765123864678e-01	 9.888516558843540e+00
 9.065688479650544e-01	 7.862150781499597e-01	 9.480848914247606e+00
 8.877242616756615e-01	 8.074322875515353e-01	 9.068768044552192e+00
 8.683722810947471e-01	 8.282094368937868e-01	 8.654380218809102e+00
 8.485285201965314e-01	 8.485285201965317e-01	 8.239782372812565e+00
 8.282094368937866e-01	 8.683722810947477e-01	 7.827053770504532e+00
 8.074322875515352e-01	 8.877242616756618e-01	 7.418248026550927e+00
 7.862150781499594e-01	 9.065688479650545e-01	 7.015385545413868e+00
 7.645765123864676e-01	 9.248913117990837e-01	 6.620446424954938e+00
 7.425359370301071e-01	 9.426778488467653e-01	 6.235363864872827e+00
 9.538996946614974e-01	 7.513752492186879e-01	 1.036651543118158e+01
 9.359014227392927e-01	 7.736782004637299e-01	 9.979141633774173e+00
 9.173608442396334e-01	 7.955743565046290e-01	 9.585163844249326e+00
 8.982919278233042e-01	 8.170441402641271e-01	 9.186506358852627e+00
 8.787095769814606e-01	 8.380686253918720e-01	 8.785084718857604e+00
 8.586295915605159e-01	 8.586295915605164e-01	 8.382798206929866e+00
 8.380686253918719e-01	 8.787095769814610e-01	 7.981522715543840e+00
 8.170441402641268e-01	 8.982919278233045e-01	 7.583104038646658e+00
 7.955743565046286e-01	 9.173608442396336e-01	 7.189351630219966e+00
 7.736782004637297e-01	 9.359014227392930e-01	 6.802032865398147e+00
 7.513752492186877e-01	 9.538996946614970e-01	 6.422867831544109e+00
 9.651215339303795e-01	 7.602145562512814e-01	 1.043383021192885e+01
 9.469115272571633e-01	 7.827798832319531e-01	 1.006011896947042e+01
 9.281528342191102e-01	 8.049336293999959e-01	 9.680086145547401e+00
 9.088595878067111e-01	 8.266559873700755e-01	 9.295384867270590e+00
 8.890468668383286e-01	 8.479278081390260e-01	 8.907637679261338e+00
 8.687306570324631e-01	 8.687306570324635e-01	 8.518431006242817e+00
 8.479278081390258e-01	 8.890468668383289e-01	 8.129310172299840e+00
 8.266559873700748e-01	 9.088595878067113e-01	 7.741775008308130e+00
 8.049336293999955e-01	 9.281528342191108e-01	 7.357276069392038e+00
 7.827798832319527e-01	 9.469115272571639e-01	 6.977211474485821e+00
 7.602145562512813e-01	 9.651215339303794e-01	 6.602924370350943e+00
 9.763433679625483e-01	 7.690538591589523e-01	 1.049170564815517e+01
 9.579216266371187e-01	 7.918815617528144e-01	 1.013178711476117e+01
 9.389448191624499e-01	 8.142928979277946e-01	 9.766125497587337e+00
 9.194272428586596e-01	 8.362678299905909e-01	 9.396017563927426e+00
 8.993841518712374e-01	 8.577869862853280e-01	 9.022694203179146e+00
 8.788317177906830e-01	 8.788317177906835e-01	 8.647317672134967e+00
 8.577869862853276e-01	 8.993841518712375e-01	 8.270979691431380e+00
 8.362678299905906e-01	 9.194272428586597e-01	 7.894700396221092e+00
 8.142928979277942e-01	 9.389448191624503e-01	 7.519428131176872e+00
 7.918815617528140e-01	 9.579216266371190e-01	 7.146040067279424e+00
 7.690538591589523e-01	 9.763433679625483e-01	 6.775343605736992e+00
 9.875651980671412e-01	 7.778931589727657e-01	 1.054023158104939e+01
 9.689317221635829e-01	 8.009832370879902e-01	 1.019446618561920e+01
 9.497368003286156e-01	 8.236521631797603e-01	 9.843765360984834e+00
 9.299948942119269e-01	 8.458796692468847e-01	 9.488987483692480e+00
 9.097214332860737e-01	 8.676461609808563e-01	 9.130876575568550e+00
 8.889327750134892e-01	 8.889327750134896e-01	 8.770063133258745e+00
 8.676461609808558e-01	 9.097214332860740e-01	 8.407066211523080e+00
 8.458796692468844e-01	 9.299948942119275e-01	 8.042296726302750e+00
 8.236521631797599e-01	 9.497368003286158e-01	 7.676061926106438e+00
 8.009832370879897e-01	 9.689317221635830e-01	 7.308570963672940e+00
 7.778931589727656e-01	 9.875651980671409e-01	 6.939941484472815e+00
 9.987870255532937e-01	 7.867324567237854e-01	 1.057949081971715e+01
 9.799418151209793e-01	 8.100849102991579e-01	 1.024845890093089e+01
 9.605287789765713e-01	 8.330114262476276e-01	 9.913464450656278e+00
 9.405625430992914e-01	 8.554915062601673e-01	 9.574848441571222e+00
 9.200587122887236e-01	 8.775053333756896e-01	 9.232776106949359e+00
 8.990338298791927e-01	 8.990338298791930e-01	 8.887242141743375e+00
 8.775053333756889e-01	 9.200587122887238e-01	 8.538077666442923e+00
 8.554915062601672e-01	 9.405625430992921e-01	 8.184958874184936e+00
 8.330114262476271e-01	 9.605287789765714e-01	 7.827417258436922e+00
 8.100849102991573e-01	 9.799418151209796e-01	 7.464851296997464e+00
 7.867324567237856e-01	 9.987870255532937e-01	 7.096539448482410e+00
 1.010008851730144e+00	 7.955717534430776e-01	 1.060955953210062e+01
 9.909519067937320e-01	 8.191865824479939e-01	 1.029405154920135e+01
 9.713207563652808e-01	 8.423706882231309e-01	 9.975658110724686e+00
 9.511301907535311e-01	 8.651033421516505e-01	 9.654126656116045e+00
 9.303959900850729e-01	 8.873645046199061e-01	 9.328954854230082e+00
 9.091348835661056e-01	 9.091348835661061e-01	 8.999400949636785e+00
 8.873645046199057e-01	 9.303959900850729e-01	 8.664496485525037e+00
 8.651033421516500e-01	 9.511301907535311e-01	 8.323061269783549e+00
 8.423706882231307e-01	 9.713207563652815e-01	 7.973720420813624e+00
 8.191865824479935e-01	 9.909519067937324e-01	 7.614923302045199e+00
 7.955717534430776e-01	 1.010008851730144e+00	 7.244964129478630e+00
 7.071786160946154e-01	 8.977903739465983e-01	 5.414895394833851e+00
 6.858236649462317e-01	 9.142073248808196e-01	 5.014810410236723e+00
 6.641243276354835e-01	 9.300903241502866e-01	 4.630835828534117e+00
 6.421005453207319e-01	 9.454290272392751e-01	 4.263005598156407e+00
 6.197726437892049e-01	 9.602140743702273e-01	 3.911173169561814e+00
 5.971612733236877e-01	 9.744371061647262e-01	 3.575020969137298e+00
 5.742873480231185e-01	 9.880907749640297e-01	 3.254071054055504e+00
 5.511719849358999e-01	 1.001168751814751e+00	 2.947696799918541e+00
 5.278364433591108e-01	 1.013665729158402e+00	 2.655135464905443e+00
 5.043020646478351e-01	 1.025577419295452e+00	 2.375501468653052e+00
 4.805902128667193e-01	 1.036900548725006e+00	 2.107800221227141e+00
 7.160179592177931e-01	 9.090122590360992e-01	 5.630161037302275e+00
 6.943960829442232e-01	 9.256344128128371e-01	 5.238054439374316e+00
 6.724255158709611e-01	 9.417159408231384e-01	 4.862043999999914e+00
 6.501264484098671e-01	 9.572463692505462e-01	 4.501624559377435e+00
 6.275194604093159e-01	 9.722162213254483e-01	 4.156072867502093e+00
 6.046254602692551e-01	 9.866170331818170e-01	 3.824462490935103e+00
 5.814656235033423e-01	 1.000441365319234e+00	 3.505680082757646e+00
 5.580613311114559e-01	 1.013682809675893e+00	 3.198442809270629e+00
 5.344341081201810e-01	 1.026335992351761e+00	 2.901316718772684e+00
 5.106055626397861e-01	 1.038396572053436e+00	 2.612735832960140e+00
 4.865973257739606e-01	 1.049861234363075e+00	 2.331021740102909e+00
 7.248572930607247e-01	 9.202341323432032e-01	 5.838804392398788e+00
 7.029684919422190e-01	 9.370614887469674e-01	 5.453948816552002e+00
 6.807266953911937e-01	 9.533415452896362e-01	 5.084341798573767e+00
 6.581523430727497e-01	 9.690636988541473e-01	 4.729165146639218e+00
 6.352662688961452e-01	 9.842183556789591e-01	 4.387362193647580e+00
 6.120896393782242e-01	 9.987969474105339e-01	 4.057655913597372e+00
 5.886438914470936e-01	 1.012791942706873e+00	 3.738568501456180e+00
 5.649506700538351e-01	 1.026196854397832e+00	 3.428442175378477e+00
 5.410317659542635e-01	 1.039006242241895e+00	 3.125460951901792e+00
 5.169090540135576e-01	 1.051215711351843e+00	 2.827673140449172e+00
 4.926044323741732e-01	 1.062821906392927e+00	 2.533014303030153e+00
 7.336966186544741e-01	 9.314559951770459e-01	 6.040608519042723e+00
 7.115408929401470e-01	 9.484885540162963e-01	 5.662015858323936e+00
 6.890278671644734e-01	 9.649671389060314e-01	 5.297104098785498e+00
 6.661782302455646e-01	 9.808810174287038e-01	 4.944959389220380e+00
 6.430130701533312e-01	 9.962204788309453e-01	 4.604425831099274e+00
 6.195538115212760e-01	 1.010976850271808e+00	 4.274124627878535e+00
 5.958221526917136e-01	 1.025142508567791e+00	 3.952474717633628e+00
 5.718400025666852e-01	 1.038710887440483e+00	 3.637714636319050e+00
 5.476294176309930e-01	 1.051676480306948e+00	 3.327925350845714e+00
 5.232125395044795e-01	 1.064034838686197e+00	 3.021053797146819e+00
 4.986115333681203e-01	 1.075782566326606e+00	 2.714936858404658e+00
 7.425359370301071e-01	 9.426778488467653e-01	 6.235363864872827e+00
 7.201132869379336e-01	 9.599156099539083e-01	 5.861797755685859e+00
 6.973290321590896e-01	 9.765927230285767e-01	 5.499732747598136e+00
 6.742041108644973e-01	 9.926983263528394e-01	 5.148368412952329e+00
 6.507598650845134e-01	 1.008222592181596e+00	 4.806675142345834e+00
 6.270179775690907e-01	 1.023156743186568e+00	 4.473412194571257e+00
 6.030004080745418e-01	 1.037493064342832e+00	 4.147147170611621e+00
 5.787293294536551e-01	 1.051224910263766e+00	 3.826276670195573e+00
 5.542270639200043e-01	 1.064346708025068e+00	 3.509047881535659e+00
 5.295160198478805e-01	 1.076853955552018e+00	 3.193580850927545e+00
 5.046186294565644e-01	 1.088743215676154e+00	 2.877891178823223e+00
 7.513752492186877e-01	 9.538996946614970e-01	 6.422867831544109e+00
 7.286856749355062e-01	 9.713426578928899e-01	 6.052855404960988e+00
 7.056301913433345e-01	 9.882182990135246e-01	 5.691654977833720e+00
 6.822299858657339e-01	 1.004515627005178e+00	 5.338780728782806e+00
 6.585066545933304e-01	 1.020224697131098e+00	 4.993546600105862e+00
 6.344821383923491e-01	 1.035336627575747e+00	 4.655081158341742e+00
 6.101786584329194e-01	 1.049843611472838e+00	 4.322343741827227e+00
 5.856186515183930e-01	 1.063738924327598e+00	 3.994141687338444e+00
 5.608247055909317e-01	 1.077016926874399e+00	 3.669148420363054e+00
 5.358194957790905e-01	 1.089673063444831e+00	 3.345922189483063e+00
 5.106257213402690e-01	 1.101703855953616e+00	 3.022925224712560e+00
 7.602145562512813e-01	 9.651215339303794e-01	 6.602924370350943e+00
 7.372580579327910e-01	 9.827696991663243e-01	 6.234767320257463e+00
 7.139313456854985e-01	 9.998438682171275e-01	 5.872321932299196e+00
 6.902558561854589e-01	 1.016332920764344e+00	 5.515610640750927e+00
 6.662534395834212e-01	 1.032226795079638e+00	 5.164500327653894e+00
 6.419462948617320e-01	 1.047516504860274e+00	 4.818711944325260e+00
 6.173569046041869e-01	 1.062194151398654e+00	 4.477831206254567e+00
 5.925079695645477e-01	 1.076252931091897e+00	 4.141320209092957e+00
 5.674223434134104e-01	 1.089687138333090e+00	 3.808529806336709e+00
 5.421229680334386e-01	 1.102492163860158e+00	 3.478712584922587e+00
 5.166328097199971e-01	 1.114664488671035e+00	 3.151036273255106e+00
 7.690538591589523e-01	 9.763433679625483e-01	 6.775343605736992e+00
 7.458304369297151e-01	 9.941967351072982e-01	 6.407128620931971e+00
 7.222324961538731e-01	 1.011469431995637e+00	 6.041207289703526e+00
 6.982817227598579e-01	 1.028150209008962e+00	 5.678296763765359e+00
 6.740002209584242e-01	 1.044228887427404e+00	 5.319018739822076e+00
 6.494104478479207e-01	 1.059696376461081e+00	 4.963901830824202e+00
 6.245351474256845e-01	 1.074544685561123e+00	 4.613384721658456e+00
 5.993972843957676e-01	 1.088766932016580e+00	 4.267820034269507e+00
 5.740199781570746e-01	 1.102357343879285e+00	 3.927478820663962e+00
 5.484264373462544e-01	 1.115311258293522e+00	 3.592555597346553e+00
 5.226398952965116e-01	 1.127625115340454e+00	 3.263173831498364e+00
 7.778931589727656e-01	 9.875651980671409e-01	 6.939941484472815e+00
 7.544028129262057e-01	 1.005623767048896e+00	 6.569550088093432e+00
 7.305336437167487e-01	 1.023094991705307e+00	 6.197805984268618e+00
 7.063075865251167e-01	 1.039967493117656e+00	 5.826300642450851e+00
 6.817469996219788e-01	 1.056230975574584e+00	 5.456605276666027e+00
 6.568745982215948e-01	 1.071876243799097e+00	 5.090263992052632e+00
 6.317133877347535e-01	 1.086895215401090e+00	 4.728787352672956e+00
 6.062865968157010e-01	 1.101280928561567e+00	 4.373646394241511e+00
 5.806176105915590e-01	 1.115027544991130e+00	 4.026267099531433e+00
 5.547299044528670e-01	 1.128130348240445e+00	 3.688025348612272e+00
 5.286469787705758e-01	 1.140585737473918e+00	 3.360242350816032e+00
 7.867324567237856e-01	 9.987870255532937e-01	 7.096539448482410e+00
 7.629751869221895e-01	 1.017050796324203e+00	 6.721657284715892e+00
 7.388347893424171e-01	 1.034720548702388e+00	 6.341633011663719e+00
 7.143334484174205e-01	 1.051784774469049e+00	 5.959105463111521e+00
 6.894937764777238e-01	 1.068233060921365e+00	 5.576783222508062e+00
 6.643387468534357e-01	 1.084056108295254e+00	 5.197426605418341e+00
 6.388916263687338e-01	 1.099245742359396e+00	 4.823829626962942e+00
 6.131759076279966e-01	 1.113794922186774e+00	 4.458802097581127e+00
 5.872152414864982e-01	 1.127697743146772e+00	 4.105151985339246e+00
 5.610333700886059e-01	 1.140949435196451e+00	 3.765668176503059e+00
 5.346540608429523e-01	 1.153546356583469e+00	 3.443103758348438e+00
 7.955717534430776e-01	 1.010008851730144e+00	 7.244964129478630e+00
 7.715475599175932e-01	 1.028477824266305e+00	 6.863089734412464e+00
 7.471359339991688e-01	 1.046346104343135e+00	 6.472222314549269e+00
 7.223593093729547e-01	 1.063602054441766e+00	 6.076214851569267e+00
 6.972405524292978e-01	 1.080235144867935e+00	 5.679094603714629e+00
 6.718028946141240e-01	 1.096235971370482e+00	 5.285032018322234e+00
 6.460698641649665e-01	 1.111596267876887e+00	 4.898309120975206e+00
 6.200652176363031e-01	 1.126308914352119e+00	 4.523287665047901e+00
 5.938128716115273e-01	 1.140367939824357e+00	 4.164377321175788e+00
 5.673368349888005e-01	 1.153768520657062e+00	 3.826004178602820e+00
 5.406611422144048e-01	 1.166506974181152e+00	 3.512579819657407e+00
 4.805902128667193e-01	 1.036900548725006e+00	 2.107800221227132e+00
 4.567238912185655e-01	 1.047632119033528e+00	 1.850321461458398e+00
 4.327226724432352e-01	 1.057771671128007e+00	 1.602739765350183e+00
 4.086076349933627e-01	 1.067318907274511e+00	 1.366079930724068e+00
 3.843996573223180e-01	 1.076274482631064e+00	 1.141310081934709e+00
 3.601193671492018e-01	 1.084639981399606e+00	 9.293373321141085e-01
 3.357870931611622e-01	 1.092417889981094e+00	 7.310039568435236e-01
 3.114228193362970e-01	 1.099611567383429e+00	 5.470840839003124e-01
 2.870461420440134e-01	 1.106225213142014e+00	 3.782808993669509e-01
 2.626762300530535e-01	 1.112263833020041e+00	 2.252243662847184e-01
 2.383317875507918e-01	 1.117733202760072e+00	 8.846944822403580e-02
 4.865973257739606e-01	 1.049861234363075e+00	 2.331021740102909e+00
 4.624326882528714e-01	 1.060726943388633e+00	 2.054362562319493e+00
 4.381314674648409e-01	 1.070993234298677e+00	 1.783410045680097e+00
 4.137150053315431e-01	 1.080659805637752e+00	 1.520161213747856e+00
 3.892044412755069e-01	 1.089727320752985e+00	 1.266593550712676e+00
 3.646206608509516e-01	 1.098197383647950e+00	 1.024651309446789e+00
 3.399842468424103e-01	 1.106072511802235e+00	 7.962324788531663e-01
 3.153154330166913e-01	 1.113356106209476e+00	 5.831764925036433e-01
 2.906340606870190e-01	 1.120052418896942e+00	 3.872527500978764e-01
 2.659595382211789e-01	 1.126166518197095e+00	 2.101500124770950e-01
 2.413108035985782e-01	 1.131704252046085e+00	 5.346671994655083e-02
 4.926044323741732e-01	 1.062821906392927e+00	 2.533014303030153e+00
 4.681414792933423e-01	 1.073821753994628e+00	 2.239956937795507e+00
 4.435402568075893e-01	 1.084214783587100e+00	 1.950128961270959e+00
 4.188223703073470e-01	 1.094000689993370e+00	 1.666207813036708e+00
 3.940092201840263e-01	 1.103180144749659e+00	 1.390877772328567e+00
 3.691219498266916e-01	 1.111754771661164e+00	 1.126809520435586e+00
 3.441813961169894e-01	 1.119727119286067e+00	 8.766404710563918e-01
 3.192080426101743e-01	 1.127100630603701e+00	 6.429560065328963e-01
 2.942219755630262e-01	 1.133879610133147e+00	 4.282717429827707e-01
 2.692428429421198e-01	 1.140069188776074e+00	 2.350169316990034e-01
 2.442898165186467e-01	 1.145675286662146e+00	 6.551908800916739e-02
 4.986115333681203e-01	 1.075782566326606e+00	 2.714936858404658e+00
 4.738502650059467e-01	 1.086916552379217e+00	 2.408640810999219e+00
 4.489490411024551e-01	 1.097436320535780e+00	 2.104706396602050e+00
 4.239297305165890e-01	 1.107341561897807e+00	 1.806210617946197e+00
 3.988139946083938e-01	 1.116632956190609e+00	 1.516253130914287e+00
 3.736232346015355e-01	 1.125312147020986e+00	 1.237931615687303e+00
 3.483785414745348e-01	 1.133381714025693e+00	 9.743179862905726e-01
 3.231006485708565e-01	 1.140845142169716e+00	 7.284356113111077e-01
 2.978098870906050e-01	 1.147706788463904e+00	 5.032377008909097e-01
 2.725261445989179e-01	 1.153971846379076e+00	 3.015869963908286e-01
 2.472688266585503e-01	 1.159646308238343e+00	 1.262368796882292e-01
 5.046186294565644e-01	 1.088743215676154e+00	 2.877891178823223e+00
 4.795590460566536e-01	 1.100011340070106e+00	 2.561875377790812e+00
 4.543578209804141e-01	 1.110657846687220e+00	 2.248864291854335e+00
 4.290370865550832e-01	 1.120682422907506e+00	 1.942064068712687e+00
 4.036187651091259e-01	 1.130085756645355e+00	 1.644708937691294e+00
 3.781245157005970e-01	 1.138869511309155e+00	 1.360034892516834e+00
 3.525756834046820e-01	 1.147036297614210e+00	 1.091254245611930e+00
 3.269932513528492e-01	 1.154589642511129e+00	 8.415312408402085e-01
 3.013977956883261e-01	 1.161533955502484e+00	 6.139588927985733e-01
 2.758094435746151e-01	 1.167874492628195e+00	 4.115372007715696e-01
 2.502478343658426e-01	 1.173617318404765e+00	 2.371528646721812e-01
 5.106257213402690e-01	 1.101703855953616e+00	 3.022925224712569e+00
 4.852678231114312e-01	 1.113106118594997e+00	 2.701051220343358e+00
 4.597665970724414e-01	 1.123879363583928e+00	 2.384241816096365e+00
 4.341444390186440e-01	 1.134023274578911e+00	 2.075571829668178e+00
 4.084235322467397e-01	 1.143538547683417e+00	 1.778139375884307e+00
 3.826257936489901e-01	 1.152426866107410e+00	 1.495040314863231e+00
 3.567728223970658e-01	 1.160690871644718e+00	 1.229343568383944e+00
 3.308858514102634e-01	 1.168334133231548e+00	 9.840674851798534e-01
 3.049857017747594e-01	 1.175361112862159e+00	 7.621574174704633e-01
 2.790927402522533e-01	 1.181777129145528e+00	 5.664646515359797e-01
 2.532268399880767e-01	 1.187588318791500e+00	 3.997268148678270e-01
 5.166328097199971e-01	 1.114664488671035e+00	 3.151036273255103e+00
 4.909765968362486e-01	 1.126200889481598e+00	 2.827492412745325e+00
 4.651753700095125e-01	 1.137100872768407e+00	 2.512400179503781e+00
 4.392517885030857e-01	 1.147364118468464e+00	 2.208452066600816e+00
 4.132282965817521e-01	 1.156991330874316e+00	 1.918349030822196e+00
 3.871270689718284e-01	 1.165984212997487e+00	 1.644778113159437e+00
 3.609699589413218e-01	 1.174345437710318e+00	 1.390390888586392e+00
 3.347784491972099e-01	 1.182078615934583e+00	 1.157782899587570e+00
 3.085736057684756e-01	 1.189188262156202e+00	 9.494742114881771e-01
 2.823760350148741e-01	 1.195679757553171e+00	 7.678912103198334e-01
 2.562058438728059e-01	 1.201559311028636e+00	 6.153497460413577e-01
 5.226398952965116e-01	 1.127625115340454e+00	 3.263173831498358e+00
 4.966853678970744e-01	 1.139295654257610e+00	 2.942460343422159e+00
 4.705841404226027e-01	 1.150322375783162e+00	 2.634827113660033e+00
 4.443591356042228e-01	 1.160704956132610e+00	 2.342342360113880e+00
 4.180330586746799e-01	 1.170444107787572e+00	 2.067058038604802e+00
 3.916283421942255e-01	 1.179541553561126e+00	 1.810992997956901e+00
 3.651670935270849e-01	 1.187999997404108e+00	 1.576116890643018e+00
 3.386710451677995e-01	 1.195823092223842e+00	 1.364334947465444e+00
 3.121615080880449e-01	 1.203015404997883e+00	 1.177473711856045e+00
 2.856593282455197e-01	 1.209582379473220e+00	 1.017267815956096e+00
 2.591848463675838e-01	 1.215530296746261e+00	 8.853478668974921e-01
 5.286469787705758e-01	 1.140585737473918e+00	 3.360242350816030e+00
 5.023941369598772e-01	 1.152390414450741e+00	 3.047157276904203e+00
 4.759929089426871e-01	 1.163543874170699e+00	 2.752941046343230e+00
 4.494664809178697e-01	 1.174045789127792e+00	 2.478804283941091e+00
 4.228378190860402e-01	 1.183896879992705e+00	 2.225906883681490e+00
 3.961296138412954e-01	 1.193098889380064e+00	 1.995349018030869e+00
 3.693642266439901e-01	 1.201654552319188e+00	 1.788162795036073e+00
 3.425636397761436e-01	 1.209567563702935e+00	 1.605304606248748e+00
 3.157494091520378e-01	 1.216842543000477e+00	 1.447648200662659e+00
 2.889426203272316e-01	 1.223484996527770e+00	 1.315978511997147e+00
 2.621638478199633e-01	 1.229501277574464e+00	 1.210986258869917e+00
 5.346540608429523e-01	 1.153546356583469e+00	 3.443103758348438e+00
 5.081029046906258e-01	 1.165485171588693e+00	 3.142729675445310e+00
 4.814016762007410e-01	 1.176765369473521e+00	 2.868094994831957e+00
 4.545738250398405e-01	 1.187386619010453e+00	 2.619327674573277e+00
 4.276425783763496e-01	 1.197349649059237e+00	 2.396460872957256e+00
 4.006308844381519e-01	 1.206656222036041e+00	 2.199434090934250e+00
 3.735613587816729e-01	 1.215309104048657e+00	 2.028094821256411e+00
 3.464562334763529e-01	 1.223312031975472e+00	 1.882200662745086e+00
 3.193373093790243e-01	 1.230669677777255e+00	 1.761421856808952e+00
 2.922259116430516e-01	 1.237387610338918e+00	 1.665344202684555e+00
 2.651428485774981e-01	 1.243472255143333e+00	 1.593472307806188e+00
 5.406611422144048e-01	 1.166506974181152e+00	 3.512579819657412e+00
 5.138116717552891e-01	 1.178579927199173e+00	 3.230271299171892e+00
 4.868104428277401e-01	 1.189986863234134e+00	 2.981580199624998e+00
 4.596811685659499e-01	 1.200727447337036e+00	 2.765334616209024e+00
 4.324473371061253e-01	 1.210802416556687e+00	 2.580214311589388e+00
 4.051321545099085e-01	 1.220213553110794e+00	 2.424764231478134e+00
 3.777584904297684e-01	 1.228963654185617e+00	 2.297408353187376e+00
 3.503488267225386e-01	 1.237056498645061e+00	 2.196463722085680e+00
 3.229252091875749e-01	 1.244496810941490e+00	 2.120154537588860e+00
 2.955092025760218e-01	 1.251290222528759e+00	 2.010918375928926e+00
 2.681218489877413e-01	 1.257443231082956e+00	 1.710014503328621e+00
 2.383317875507918e-01	 1.117733202760072e+00	 8.846944822403580e-02
 2.140293252500230e-01	 1.122640154174940e+00	-3.176187473295600e-02
 1.897882490973285e-01	 1.126991486982686e+00	-1.360270317715699e-01
 1.656257055747226e-01	 1.130795056249892e+00	-2.250880426461115e-01
 1.415582582628250e-01	 1.134059328212202e+00	-2.997857014522221e-01
 1.176018665813229e-01	 1.136793338266780e+00	-3.610316365684145e-01
 9.377186765109050e-02	 1.139006648600664e+00	-4.098003931296941e-01
 7.008296121854513e-02	 1.140709305690971e+00	-4.471215977250016e-01
 4.654919756532504e-02	 1.141911797900406e+00	-4.740722594399522e-01
 2.318396831066902e-02	 1.142625013377961e+00	-4.917692556740625e-01
 0.000000000000000e+00	 1.142860198460186e+00	-5.013620454236125e-01
 2.413108035985782e-01	 1.131704252046085e+00	 5.346671994655083e-02
 2.167045739068282e-01	 1.136672537650634e+00	-8.200034685769153e-02
 1.921604976561824e-01	 1.141078259721515e+00	-1.973585622671019e-01
 1.676959356502720e-01	 1.144929371509319e+00	-2.940281156011639e-01
 1.433276585053855e-01	 1.148234445072978e+00	-3.734975110471339e-01
 1.190718251251994e-01	 1.151002628747150e+00	-4.373114322279332e-01
 9.494396433618364e-02	 1.153243604240947e+00	-4.870589844579092e-01
 7.095895962352035e-02	 1.154967543606920e+00	-5.243623848784547e-01
 4.713103688965951e-02	 1.156185066306537e+00	-5.508661606417202e-01
 2.347375514173319e-02	 1.156907196584657e+00	-5.682269054143114e-01
 0.000000000000000e+00	 1.157145321350848e+00	-5.781036348420980e-01
 2.442898165186467e-01	 1.145675286662146e+00	 6.551908800916739e-02
 2.193798197548161e-01	 1.150704906391885e+00	-7.912460835811719e-02
 1.945327437243048e-01	 1.155165017668707e+00	-2.005729877884324e-01
 1.697661635521415e-01	 1.159063671927113e+00	-3.008028577522410e-01
 1.450970568900728e-01	 1.162409547049214e+00	-3.818480933620367e-01
 1.205417821255609e-01	 1.165211904307037e+00	-4.457840098903980e-01
 9.611605979047631e-02	 1.167480544931648e+00	-4.947124278065622e-01
 7.183495710857847e-02	 1.169225766550903e+00	-5.307475080811515e-01
 4.771287560295031e-02	 1.170458319724889e+00	-5.560024216450439e-01
 2.376354166844671e-02	 1.171189364794196e+00	-5.725769034125738e-01
 0.000000000000000e+00	 1.171430429241259e+00	-5.825457283367730e-01
 2.472688266585503e-01	 1.159646308238343e+00	 1.262368796882292e-01
 2.220550631061160e-01	 1.164737262035951e+00	-2.166622541933783e-02
 1.969049875784914e-01	 1.169251762467882e+00	-1.443207801193940e-01
 1.718363895219076e-01	 1.173197959152453e+00	-2.441624562689455e-01
 1.468664536233803e-01	 1.176584635794853e+00	-3.236719218269020e-01
 1.220117377539760e-01	 1.179421166604382e+00	-3.853564106612053e-01
 9.728815415079008e-02	 1.181717472333943e+00	-4.317322603352911e-01
 7.271095377599250e-02	 1.183483976186580e+00	-4.653085002598798e-01
 4.829471377313882e-02	 1.184731559820883e+00	-4.885715555297472e-01
 2.405332792465427e-02	 1.185471519673041e+00	-5.039711152984530e-01
 0.000000000000000e+00	 1.185715523798227e+00	-5.139071988738386e-01
 2.502478343658426e-01	 1.173617318404765e+00	 2.371528646721857e-01
 2.247303042728567e-01	 1.178769606220092e+00	 9.177253656729545e-02
 1.992772294955377e-01	 1.183338495762656e+00	-2.731734953072840e-02
 1.739066138011467e-01	 1.187332234834512e+00	-1.229171932942701e-01
 1.486358489118018e-01	 1.190759712963842e+00	-1.978594597836441e-01
 1.234816921820129e-01	 1.193630417297124e+00	-2.549881225730970e-01
 9.846024755394656e-02	 1.195954388109006e+00	-2.971393118374273e-01
 7.358694972803545e-02	 1.197742174177615e+00	-3.271232515561595e-01
 4.887655146816643e-02	 1.199004788259937e+00	-3.477075503208367e-01
 2.434311394420056e-02	 1.199753662887651e+00	-3.616018913710921e-01
 0.000000000000000e+00	 1.200000606688556e+00	-3.714441496475052e-01
 2.532268399880767e-01	 1.187588318791500e+00	 3.997268148678270e-01
 2.274055435671674e-01	 1.192801940581567e+00	 2.625228691539683e-01
 2.016494697522397e-01	 1.197425219196647e+00	 1.516607723204115e-01
 1.759768366314353e-01	 1.201466500622466e+00	 6.406608609939002e-02
 1.504052429618307e-01	 1.204934780210126e+00	-3.353870029421113e-03
 1.249516455812398e-01	 1.207839658043205e+00	-5.368799862162454e-02
 9.963234013676746e-02	 1.210191293918011e+00	-9.000080837737645e-02
 7.446294506698030e-02	 1.212000362187670e+00	-1.153132856669008e-01
 4.945838875597452e-02	 1.213278006707471e+00	-1.325853148865437e-01
 2.463289976093031e-02	 1.214035796104490e+00	-1.446996883908258e-01
 0.000000000000000e+00	 1.214285679579051e+00	-1.544477272918798e-01
 2.562058438728059e-01	 1.201559311028636e+00	 6.153497460413533e-01
 2.300807813011770e-01	 1.206834266757633e+00	 4.918532869856682e-01
 2.040217086253929e-01	 1.211511934413471e+00	 3.937794831495820e-01
 1.780470582543499e-01	 1.215600758165490e+00	 3.178672595008294e-01
 1.521746359799605e-01	 1.219109839187650e+00	 2.608520460464050e-01
 1.264215981232255e-01	 1.222048890500565e+00	 2.194886101536146e-01
 1.008044320360744e-01	 1.224428191422134e+00	 1.905723219767836e-01
 7.533893989510013e-02	 1.226258541880407e+00	 1.709587737701084e-01
 5.004022570450450e-02	 1.227551216828906e+00	 1.575816969503061e-01
 2.492268540868820e-02	 1.228317920990019e+00	 1.474691426877393e-01
 0.000000000000000e+00	 1.228570744136519e+00	 1.377579123224473e-01
 2.591848463675838e-01	 1.215530296746261e+00	 8.853478668974875e-01
 2.327560177870145e-01	 1.220866586385550e+00	 7.809732272867129e-01
 2.063939463917933e-01	 1.225598643056747e+00	 7.001504158945109e-01
 1.801172789114668e-01	 1.229735009112759e+00	 6.395159861319459e-01
 1.539440281726846e-01	 1.233284891550360e+00	 5.957186982053009e-01
 1.278915499795380e-01	 1.236258116327144e+00	 5.654425238440040e-01
 1.019765233886890e-01	 1.238665082282548e+00	 5.454279575865799e-01
 7.621493431466794e-02	 1.240516714919491e+00	 5.324915620374335e-01
 5.062206238169776e-02	 1.241824420289660e+00	 5.235436984261197e-01
 2.521247092131893e-02	 1.242600039210701e+00	 5.156044163952032e-01
 0.000000000000000e+00	 1.242855802027764e+00	 5.058174979852772e-01
 2.621638478199633e-01	 1.229501277574464e+00	 1.210986258869912e+00
 2.354312533368090e-01	 1.234898901102576e+00	 1.131036403897669e+00
 2.087661833282362e-01	 1.239685346770091e+00	 1.071834019138422e+00
 1.821874988443625e-01	 1.243869255113449e+00	 1.029994557228185e+00
 1.557134197464966e-01	 1.247459938952200e+00	 1.002162362778792e+00
 1.293615013217458e-01	 1.250467337180882e+00	 9.640733401784967e-01
 1.031486143314329e-01	 1.252901968160429e+00	 8.446278108243475e-01
 7.709092842795674e-02	 1.254774882968582e+00	 7.540374152854239e-01
 5.120389885549568e-02	 1.256097618755154e+00	 6.891736688676207e-01
 2.550225633266721e-02	 1.256882152432997e+00	 6.469332128029675e-01
 0.000000000000000e+00	 1.257140854919592e+00	 6.242556086551581e-01
 2.651428485774981e-01	 1.243472255143333e+00	 1.593472307806184e+00
 2.381064882626895e-01	 1.248931212545972e+00	 1.543143935170473e+00
 2.111384197115176e-01	 1.253772047197120e+00	 1.343386994794632e+00
 1.842577182946136e-01	 1.258003497816736e+00	 1.134859431294339e+00
 1.574828109078901e-01	 1.261634983047117e+00	 9.614810593010301e-01
 1.308314523214175e-01	 1.264676554719722e+00	 8.202782288881216e-01
 1.043207050011277e-01	 1.267138850716951e+00	 7.082531987812148e-01
 7.796692233723956e-02	 1.269033047691344e+00	 6.224044183423589e-01
 5.178573519383965e-02	 1.270370813890807e+00	 5.597456971919674e-01
 2.579204167657773e-02	 1.271164262323368e+00	 5.173241743795423e-01
 0.000000000000000e+00	 1.271425904478810e+00	 4.922370164589107e-01
 2.681218489877413e-01	 1.257443231082956e+00	 1.710014503328621e+00
 2.407817228767851e-01	 1.262963522352994e+00	 1.449947322357183e+00
 2.135106558184331e-01	 1.267858745981453e+00	 1.226699897630380e+00
 1.863279375037964e-01	 1.272137738871794e+00	 1.037572667801222e+00
 1.592522018633585e-01	 1.275810025489055e+00	 8.798131749906093e-01
 1.323014031501211e-01	 1.278885770601601e+00	 7.506365499668917e-01
 1.054927955345951e-01	 1.281375731613288e+00	 6.472451270790229e-01
 7.884291614478943e-02	 1.283291210751440e+00	 5.668470778577934e-01
 5.236757146467105e-02	 1.284644007362039e+00	 5.066739686791266e-01
 2.608182698689521e-02	 1.285446370548278e+00	 4.639971643844576e-01
 0.000000000000000e+00	 1.285710952372222e+00	 4.361430160272193e-01
 1.285710952372222e+00	 0.000000000000000e+00	 1.564066844268953e+01
 1.285446370548278e+00	 2.608182698689557e-02	 1.565179716196204e+01
 1.284644007362039e+00	 5.236757146467139e-02	 1.564606689983409e+01
 1.283291210751439e+00	 7.884291614478972e-02	 1.562387319509507e+01
 1.281375731613288e+00	 1.054927955345953e-01	 1.558577225995232e+01
 1.278885770601601e+00	 1.323014031501213e-01	 1.553248896144080e+01
 1.275810025489054e+00	 1.592522018633586e-01	 1.546492423019572e+01
 1.272137738871795e+00	 1.863279375037966e-01	 1.538416178142007e+01
 1.267858745981453e+00	 2.135106558184332e-01	 1.529147402926592e+01
 1.262963522352994e+00	 2.407817228767851e-01	 1.518832707345855e+01
 1.257443231082956e+00	 2.681218489877413e-01	 1.507638463600292e+01
 1.299996999436575e+00	 0.000000000000000e+00	 1.543632527440673e+01
 1.299729477738514e+00	 2.637163256653116e-02	 1.544480435456694e+01
 1.298918199175054e+00	 5.294944843254041e-02	 1.543813468868053e+01
 1.297550371102010e+00	 7.971897122437951e-02	 1.541662559783918e+01
 1.295613608311512e+00	 1.066649680506882e-01	 1.538076409082737e+01
 1.293095980350323e+00	 1.337714567953443e-01	 1.533122441872931e+01
 1.289986059407558e+00	 1.610217165797057e-01	 1.526887701087301e+01
 1.286272968549540e+00	 1.883983015152832e-01	 1.519479665941248e+01
 1.281946430063098e+00	 2.158830578522009e-01	 1.511026981553112e+01
 1.276996813653051e+00	 2.434571446109328e-01	 1.501680085733546e+01
 1.271415184225567e+00	 2.711010577649079e-01	 1.491611718820254e+01
 1.314283043168385e+00	 0.000000000000000e+00	 1.524481787180122e+01
 1.314012581596891e+00	 2.666143807874816e-02	 1.524963457513355e+01
 1.313192387658288e+00	 5.353132526498397e-02	 1.524099845725720e+01
 1.311809528126306e+00	 8.059502609999267e-02	 1.521917472597011e+01
 1.309851481688423e+00	 1.078371402937551e-01	 1.518461610100730e+01
 1.307306186784182e+00	 1.352415100980420e-01	 1.513797330406299e+01
 1.304162090019159e+00	 1.627912308836290e-01	 1.508010490349618e+01
 1.300408194929890e+00	 1.904686650441013e-01	 1.501208637028190e+01
 1.296034110858418e+00	 2.182554593327631e-01	 1.493521819697687e+01
 1.291030101679448e+00	 2.461325657211033e-01	 1.485103292818989e+01
 1.285387134108794e+00	 2.740802658471492e-01	 1.476130094950104e+01
 1.328569080234105e+00	 0.000000000000000e+00	 1.506463852232184e+01
 1.328295678790551e+00	 2.695124345587626e-02	 1.506515017966901e+01
 1.327466569480965e+00	 5.411320182614768e-02	 1.505383591855340e+01
 1.326068678497057e+00	 8.147108056711237e-02	 1.503095761743271e+01
 1.324089348421717e+00	 1.090093119901755e-01	 1.499696745899000e+01
 1.321516386587330e+00	 1.367115627150887e-01	 1.495251873004555e+01
 1.318338114015990e+00	 1.645607443621364e-01	 1.489847596859511e+01
 1.314543414714499e+00	 1.925390276070737e-01	 1.483592431048232e+01
 1.310121785080170e+00	 2.206278597064844e-01	 1.476617788317232e+01
 1.305063383157637e+00	 2.488079855829751e-01	 1.469078709060486e+01
 1.299359077472413e+00	 2.770594725392778e-01	 1.461154463139441e+01
 1.342855107300192e+00	 0.000000000000000e+00	 1.489434366123023e+01
 1.342578765986636e+00	 2.724104863024519e-02	 1.489026209136143e+01
 1.341740741312307e+00	 5.469507798017722e-02	 1.487586010182130e+01
 1.340327818886993e+00	 8.234713442122177e-02	 1.485143576096451e+01
 1.338327205189094e+00	 1.101814828663293e-01	 1.481747335301709e+01
 1.335726576443923e+00	 1.381816143033586e-01	 1.477465387408848e+01
 1.332514128090181e+00	 1.663302566022357e-01	 1.472386488658580e+01
 1.328678624605023e+00	 1.946093887210235e-01	 1.466620958706654e+01
 1.324209449441108e+00	 2.230002584197293e-01	 1.460301493750069e+01
 1.319096654813073e+00	 2.514834035722265e-01	 1.453583870636722e+01
 1.313331011056197e+00	 2.800386771461065e-01	 1.446647526420973e+01
 1.357141121033102e+00	 0.000000000000000e+00	 1.473255049540616e+01
 1.356861839852286e+00	 2.753085353418463e-02	 1.472392724445824e+01
 1.356014899821536e+00	 5.527695359121823e-02	 1.470631749389575e+01
 1.354586945968846e+00	 8.322318745780412e-02	 1.468009380929579e+01
 1.352565048668249e+00	 1.113536526485962e-01	 1.464580414801721e+01
 1.349936753038114e+00	 1.396516645197259e-01	 1.460418144876783e+01
 1.346690128933866e+00	 1.680997671909346e-01	 1.455615260942847e+01
 1.342813821303118e+00	 1.966797479027739e-01	 1.450284671718545e+01
 1.338297100653986e+00	 2.253726549188626e-01	 1.444560239015135e+01
 1.333129913371210e+00	 2.541588190645365e-01	 1.438597408620026e+01
 1.327302931599920e+00	 2.830178789724484e-01	 1.432573723292624e+01
 1.371427118099289e+00	 0.000000000000000e+00	 1.457793383810769e+01
 1.371144897054645e+00	 2.782065810002433e-02	 1.456514618785829e+01
 1.370289041677873e+00	 5.585882852341631e-02	 1.454448629664960e+01
 1.368846056415343e+00	 8.409923947234267e-02	 1.451643837275116e+01
 1.366802875536880e+00	 1.125258210633557e-01	 1.448164459522368e+01
 1.364146913054058e+00	 1.411217130210649e-01	 1.444091320527210e+01
 1.360866113239175e+00	 1.698692757152409e-01	 1.439522603404768e+01
 1.356949001510443e+00	 1.987501046691477e-01	 1.434574534635909e+01
 1.352384735431563e+00	 2.277450486502488e-01	 1.429381987528885e+01
 1.347163155557500e+00	 2.568342314355833e-01	 1.424098991949757e+01
 1.341274835843357e+00	 2.859970773231161e-01	 1.418899137323552e+01
 1.385713095165209e+00	 0.000000000000000e+00	 1.442922313946695e+01
 1.385427934260852e+00	 2.811046226009398e-02	 1.441296083689475e+01
 1.384563163550541e+00	 5.644070264091715e-02	 1.438967479220464e+01
 1.383105146899215e+00	 8.497529026032054e-02	 1.435999688745194e+01
 1.381040682472682e+00	 1.136979878369877e-01	 1.432469309066622e+01
 1.378357053175909e+00	 1.425917594642498e-01	 1.428466946755316e+01
 1.375042077698239e+00	 1.716387817621623e-01	 1.424097769594428e+01
 1.371084161928650e+00	 2.008204585369682e-01	 1.419481998416588e+01
 1.366472350486590e+00	 2.301174390602525e-01	 1.414755329065424e+01
 1.361196378097397e+00	 2.595096400610455e-01	 1.410069273931638e+01
 1.355246720526281e+00	 2.889762715029223e-01	 1.405591412349487e+01
 1.399999048897318e+00	 0.000000000000000e+00	 1.428519969874366e+01
 1.399710948138050e+00	 2.840026594672332e-02	 1.426645236272716e+01
 1.398837262108762e+00	 5.702257580786636e-02	 1.424121980820411e+01
 1.397364214093191e+00	 8.585133961722100e-02	 1.421031655279215e+01
 1.395278466153354e+00	 1.148701526958717e-01	 1.417466097904703e+01
 1.392567170087822e+00	 1.440618035061548e-01	 1.413527869498835e+01
 1.389218019003189e+00	 1.734082849187067e-01	 1.409330548155745e+01
 1.385219299259398e+00	 2.028908090230583e-01	 1.404998975610554e+01
 1.380559942531825e+00	 2.324898255952382e-01	 1.400669447799726e+01
 1.375229577716355e+00	 2.621850443166021e-01	 1.396489842011267e+01
 1.369218582388467e+00	 2.919554608166800e-01	 1.392619672858226e+01
 1.414284975962072e+00	 0.000000000000000e+00	 1.414469404548877e+01
 1.413993935353380e+00	 2.869006909224202e-02	 1.412473920961443e+01
 1.413111334021757e+00	 5.760444788840961e-02	 1.409848527607342e+01
 1.411623254670002e+00	 8.672738733852720e-02	 1.406696333329125e+01
 1.409516223256593e+00	 1.160423153663875e-01	 1.403127189979247e+01
 1.406777260473951e+00	 1.455318448036542e-01	 1.399257707153804e+01
 1.403393933846157e+00	 1.751777847718817e-01	 1.395211235805137e+01
 1.399354410204343e+00	 2.049611556442411e-01	 1.391117817049296e+01
 1.394647508280022e+00	 2.348622077015706e-01	 1.387114092286642e+01
 1.389262751139827e+00	 2.648604435779312e-01	 1.383343170590337e+01
 1.383190418169687e+00	 2.949346445692019e-01	 1.379954449198446e+01
 1.428570873025926e+00	 0.000000000000000e+00	 1.400658347779708e+01
 1.428276892573984e+00	 2.897987162897983e-02	 1.398697523112016e+01
 1.427385375958749e+00	 5.818631874669251e-02	 1.396086087576145e+01
 1.425882265302377e+00	 8.760343321972237e-02	 1.392952102031832e+01
 1.423753950460095e+00	 1.172144755749147e-01	 1.389426117232954e+01
 1.420987321018450e+00	 1.470018830136220e-01	 1.385640811954441e+01
 1.417569818919275e+00	 1.769472809086952e-01	 1.381730611930692e+01
 1.413489491465139e+00	 2.070314979173397e-01	 1.377831289933056e+01
 1.408735044443936e+00	 2.372345848256141e-01	 1.374079547240270e+01
 1.403295895093266e+00	 2.675358372207115e-01	 1.370612576672666e+01
 1.397162224609719e+00	 2.979138220653008e-01	 1.367567607274243e+01
 1.257443231082956e+00	 2.681218489877413e-01	 1.507638463600292e+01
 1.251290222528759e+00	 2.955092025760216e-01	 1.494954523545835e+01
 1.244496810941490e+00	 3.229252091875747e-01	 1.482963228515897e+01
 1.237056498645061e+00	 3.503488267225385e-01	 1.469817761138264e+01
 1.228963654185617e+00	 3.777584904297682e-01	 1.455012861569921e+01
 1.220213553110794e+00	 4.051321545099082e-01	 1.438724152149602e+01
 1.210802416556687e+00	 4.324473371061250e-01	 1.421129355073804e+01
 1.200727447337036e+00	 4.596811685659496e-01	 1.402407133811386e+01
 1.189986863234135e+00	 4.868104428277399e-01	 1.382735892919955e+01
 1.178579927199173e+00	 5.138116717552889e-01	 1.362292547455053e+01
 1.166506974181152e+00	 5.406611422144046e-01	 1.341251274074597e+01
 1.271415184225567e+00	 2.711010577649079e-01	 1.491611718820254e+01
 1.265193807139827e+00	 2.987927231594999e-01	 1.480163435466752e+01
 1.258324911247501e+00	 3.265133599524971e-01	 1.466666724620460e+01
 1.250801926674242e+00	 3.542416922368836e-01	 1.451301426960310e+01
 1.242619159392876e+00	 3.819559156469745e-01	 1.437660740449894e+01
 1.233771832455774e+00	 4.096337394237550e-01	 1.422929263505302e+01
 1.224256125010580e+00	 4.372524319055254e-01	 1.406885006211471e+01
 1.214069208790389e+00	 4.647888693259974e-01	 1.389688856376348e+01
 1.203209281774577e+00	 4.922195877717347e-01	 1.371499438840113e+01
 1.191675598724702e+00	 5.195208381204919e-01	 1.352471951429368e+01
 1.179468498311525e+00	 5.466686437519975e-01	 1.332757001310473e+01
 1.285387134108794e+00	 2.740802658471492e-01	 1.476130094950104e+01
 1.279097388507421e+00	 3.020762429769924e-01	 1.465882973503189e+01
 1.272153008327603e+00	 3.301015098803087e-01	 1.453623157940467e+01
 1.264547351496750e+00	 3.581345568429810e-01	 1.439520475721556e+01
 1.256274661414386e+00	 3.861533398848383e-01	 1.423747084130217e+01
 1.247330108637632e+00	 4.141353232872624e-01	 1.407641414493809e+01
 1.237709830325688e+00	 4.420575255837422e-01	 1.393049968800612e+01
 1.227410967131020e+00	 4.698965688942291e-01	 1.377282731125862e+01
 1.216431697230087e+00	 4.976287314535489e-01	 1.360483562846746e+01
 1.204771267194819e+00	 5.252300031534775e-01	 1.342791676339206e+01
 1.192430019417744e+00	 5.526761438877230e-01	 1.324340540290282e+01
 1.299359077472413e+00	 2.770594725392778e-01	 1.461154463139441e+01
 1.293000963387279e+00	 3.053597612623208e-01	 1.452057437825836e+01
 1.285981098955156e+00	 3.336896581337637e-01	 1.440973432737271e+01
 1.278292769905249e+00	 3.620274196324957e-01	 1.428063485769926e+01
 1.269930157063807e+00	 3.903507621639695e-01	 1.413490304883463e+01
 1.260888378492727e+00	 4.186369050500763e-01	 1.397417850391620e+01
 1.251163529362787e+00	 4.468626170196096e-01	 1.380010902311555e+01
 1.240752719245839e+00	 4.750042660788752e-01	 1.365101138068759e+01
 1.229654106515436e+00	 5.030378726110815e-01	 1.349608830052304e+01
 1.217866929553885e+00	 5.309391655221452e-01	 1.333183638355657e+01
 1.205391534475478e+00	 5.586836412198746e-01	 1.315948159285938e+01
 1.313331011056197e+00	 2.800386771461065e-01	 1.446647526420973e+01
 1.306904528535139e+00	 3.086432772493075e-01	 1.438633681458788e+01
 1.299809179903525e+00	 3.372778038756168e-01	 1.428652238993029e+01
 1.292038178692406e+00	 3.659202796970923e-01	 1.416856619537900e+01
 1.283585643154801e+00	 3.945481815049779e-01	 1.403401931561409e+01
 1.274446638857422e+00	 4.231384836618436e-01	 1.388444622351403e+01
 1.264617218982655e+00	 4.516677050919606e-01	 1.372142116244483e+01
 1.254094462021758e+00	 4.801119596881671e-01	 1.354652439428999e+01
 1.242876506545394e+00	 5.084470099822318e-01	 1.338798976552185e+01
 1.230962582746256e+00	 5.366483238943943e-01	 1.323582431871831e+01
 1.218353040460395e+00	 5.646911343467459e-01	 1.307528184854594e+01
 1.327302931599920e+00	 2.830178789724484e-01	 1.432573723292624e+01
 1.320808080706736e+00	 3.119267901717745e-01	 1.425560975911733e+01
 1.313637247946070e+00	 3.408659462686223e-01	 1.416597212520999e+01
 1.305783574650884e+00	 3.698131361284366e-01	 1.405829359065679e+01
 1.297241116501029e+00	 3.987455969284732e-01	 1.393406710381937e+01
 1.288004886568078e+00	 4.276400580722102e-01	 1.379480662488575e+01
 1.278070896046066e+00	 4.564727886796287e-01	 1.364204429648872e+01
 1.267436192345687e+00	 4.852196485303354e-01	 1.347732744443757e+01
 1.256098894234734e+00	 5.138561423048991e-01	 1.330221539035672e+01
 1.244058223716290e+00	 5.423574769381242e-01	 1.313925188536128e+01
 1.231314534348166e+00	 5.706986218666309e-01	 1.299030893504429e+01
 1.341274835843357e+00	 2.859970773231161e-01	 1.418899137323552e+01
 1.334711616657808e+00	 3.152102992635437e-01	 1.412790885207225e+01
 1.327465299856153e+00	 3.444540844755349e-01	 1.404748781522285e+01
 1.319528954573350e+00	 3.737059880181925e-01	 1.394914333085972e+01
 1.310896573916152e+00	 4.029430074550651e-01	 1.383432745596533e+01
 1.301563118461056e+00	 4.321416272308228e-01	 1.370452749987602e+01
 1.291524557413797e+00	 4.612778666614478e-01	 1.356126406139582e+01
 1.280777907104539e+00	 4.903273314136110e-01	 1.340608880900309e+01
 1.269321266498228e+00	 5.192652683169821e-01	 1.324058197332212e+01
 1.257153849408346e+00	 5.480666233212343e-01	 1.306634952151014e+01
 1.244276013114461e+00	 5.767061023778234e-01	 1.290408410130254e+01
 1.355246720526281e+00	 2.889762715029223e-01	 1.405591412349486e+01
 1.348615133144092e+00	 3.184938037584375e-01	 1.400277147697385e+01
 1.341293332407137e+00	 3.480422176591090e-01	 1.393050022630690e+01
 1.333274315252469e+00	 3.775988344580257e-01	 1.384047154800998e+01
 1.324552012213832e+00	 4.071404121053632e-01	 1.373411326369158e+01
 1.315121331372720e+00	 4.366431900873275e-01	 1.361290916855213e+01
 1.304978199946625e+00	 4.660829379162514e-01	 1.347839801185383e+01
 1.294119603185224e+00	 4.954350071462250e-01	 1.333217208284601e+01
 1.282543620250645e+00	 5.246743867563800e-01	 1.317587535595785e+01
 1.270249456766781e+00	 5.537757617116242e-01	 1.301120115048725e+01
 1.257237473734949e+00	 5.827135744786170e-01	 1.283988926260393e+01
 1.369218582388467e+00	 2.919554608166800e-01	 1.392619672858226e+01
 1.362518626921326e+00	 3.217773028902779e-01	 1.387975565113738e+01
 1.355121342372383e+00	 3.516303449820993e-01	 1.381446525768136e+01
 1.347019653480905e+00	 3.814916745396009e-01	 1.373166269588143e+01
 1.338207428207729e+00	 4.113378098999778e-01	 1.363276764250756e+01
 1.328679522139431e+00	 4.411447455913710e-01	 1.351928281926431e+01
 1.318431820505326e+00	 4.708880013228729e-01	 1.339279399222855e+01
 1.307461277474655e+00	 5.005426745364082e-01	 1.325496938923518e+01
 1.295765952406758e+00	 5.300834963609923e-01	 1.310755847095848e+01
 1.283345042735955e+00	 5.594848907771932e-01	 1.295238999425401e+01
 1.270198913185301e+00	 5.887210367673057e-01	 1.279136931064047e+01
 1.383190418169687e+00	 2.949346445692019e-01	 1.379954449198446e+01
 1.376422094745246e+00	 3.250607958928871e-01	 1.375843898338960e+01
 1.368949326525253e+00	 3.552184656072601e-01	 1.369886267187845e+01
 1.360764966051325e+00	 3.853845073545832e-01	 1.362212811932427e+01
 1.351862818711506e+00	 4.155351998595181e-01	 1.352966240500462e+01
 1.342237687597551e+00	 4.456462926925998e-01	 1.342300894927396e+01
 1.331885415950674e+00	 4.756930557601458e-01	 1.330382860638737e+01
 1.320802926859741e+00	 5.056503323923917e-01	 1.317389993861098e+01
 1.308988259881339e+00	 5.354925958687178e-01	 1.303511858663163e+01
 1.296440604260223e+00	 5.651940091858410e-01	 1.288949565595545e+01
 1.283160328441186e+00	 5.947284878421828e-01	 1.273915504553455e+01
 1.397162224609719e+00	 2.979138220653008e-01	 1.367567607274243e+01
 1.390325533371589e+00	 3.283442820000868e-01	 1.363841769430064e+01
 1.382777281639109e+00	 3.588065786973459e-01	 1.358319490132301e+01
 1.374510249756393e+00	 3.892773319946374e-01	 1.351130470940099e+01
 1.365518180538822e+00	 4.197325810045940e-01	 1.342419662564411e+01
 1.355795824583439e+00	 4.501478303406597e-01	 1.332347589891190e+01
 1.345338983143448e+00	 4.804981001069037e-01	 1.321090577930114e+01
 1.334144548227396e+00	 5.107579795224063e-01	 1.308840867379028e+01
 1.322210539589158e+00	 5.409016840174555e-01	 1.295806608968427e+01
 1.309536138283946e+00	 5.709031156054665e-01	 1.282211726448671e+01
 1.296121716478273e+00	 6.007359263015425e-01	 1.268295639012149e+01
 1.166506974181152e+00	 5.406611422144046e-01	 1.341251274074597e+01
 1.153768520657062e+00	 5.673368349888009e-01	 1.318960502977191e+01
 1.140367939824356e+00	 5.938128716115278e-01	 1.294813404982214e+01
 1.126308914352119e+00	 6.200652176363033e-01	 1.269040598711150e+01
 1.111596267876887e+00	 6.460698641649667e-01	 1.241867034379061e+01
 1.096235971370482e+00	 6.718028946141243e-01	 1.213510600668235e+01
 1.080235144867935e+00	 6.972405524292983e-01	 1.184180791043050e+01
 1.063602054441766e+00	 7.223593093729551e-01	 1.154077444919577e+01
 1.046346104343134e+00	 7.471359339991690e-01	 1.123389578422450e+01
 1.028477824266305e+00	 7.715475599175938e-01	 1.092294318527300e+01
 1.010008851730144e+00	 7.955717534430776e-01	 1.060955953210062e+01
 1.179468498311525e+00	 5.466686437519975e-01	 1.332757001310473e+01
 1.166588502750832e+00	 5.736407407856797e-01	 1.311685794634513e+01
 1.153039022721013e+00	 6.004109632086184e-01	 1.288664479191983e+01
 1.138823781810755e+00	 6.269550095182069e-01	 1.263946535752278e+01
 1.123947657253940e+00	 6.532486040438356e-01	 1.237782588410838e+01
 1.108416686368234e+00	 6.792675644554069e-01	 1.210418851942432e+01
 1.092238068302214e+00	 7.049878702298854e-01	 1.182095613068661e+01
 1.075420160976023e+00	 7.303857316980992e-01	 1.153045762224344e+01
 1.057972473135199e+00	 7.554376592802553e-01	 1.123493392040207e+01
 1.039905651473637e+00	 7.801205325084171e-01	 1.093652478126431e+01
 1.021231462819311e+00	 8.044116684278025e-01	 1.063725656848245e+01
 1.192430019417744e+00	 5.526761438877230e-01	 1.324340540290282e+01
 1.179408481853434e+00	 5.799446451114831e-01	 1.304457413859546e+01
 1.165710102661214e+00	 6.070090532659372e-01	 1.282566135667519e+01
 1.151338646349358e+00	 6.338447997922180e-01	 1.258936349498671e+01
 1.136299043749081e+00	 6.604273422473320e-01	 1.233836629239100e+01
 1.120597398523876e+00	 6.867322325545433e-01	 1.207532803231566e+01
 1.104240988935844e+00	 7.127351862223222e-01	 1.180286296051024e+01
 1.087238264752729e+00	 7.384121521499232e-01	 1.152352505270816e+01
 1.069598839214424e+00	 7.637393826237479e-01	 1.123979230627691e+01
 1.051333476014421e+00	 7.886935030983319e-01	 1.095405172554720e+01
 1.032454071289771e+00	 8.132515813493250e-01	 1.066858516336387e+01
 1.205391534475478e+00	 5.586836412198746e-01	 1.315948159285938e+01
 1.192228454973575e+00	 5.862485464953506e-01	 1.297234898504058e+01
 1.178381176688414e+00	 6.136071402439868e-01	 1.276486267254267e+01
 1.163853505047840e+00	 6.407345868507840e-01	 1.253981594082234e+01
 1.148650424480370e+00	 6.676060771004909e-01	 1.229999921857801e+01
 1.132778104995295e+00	 6.941968971698589e-01	 1.204818244983472e+01
 1.116243903968200e+00	 7.204824985989908e-01	 1.178709756412295e+01
 1.099056363014386e+00	 7.464385688556906e-01	 1.151942122848075e+01
 1.081225199868051e+00	 7.720411020926786e-01	 1.124775806437271e+01
 1.062761295222229e+00	 7.972664696870837e-01	 1.097462450910493e+01
 1.043676674522985e+00	 8.220914901451046e-01	 1.070243349491783e+01
 1.218353040460395e+00	 5.646911343467459e-01	 1.307528184854595e+01
 1.205048419119958e+00	 5.925524434664220e-01	 1.289979271414760e+01
 1.191052241846069e+00	 6.202052226032716e-01	 1.270393888257439e+01
 1.176368354986110e+00	 6.476243690863536e-01	 1.249054781946085e+01
 1.161001796565867e+00	 6.747848069283466e-01	 1.226244216484115e+01
 1.144958802940378e+00	 7.016615565596794e-01	 1.202242158586400e+01
 1.128246810598658e+00	 7.282298055522725e-01	 1.177324473887483e+01
 1.110874453003497e+00	 7.544649799426657e-01	 1.151761153082215e+01
 1.092851552383325e+00	 7.803428157500798e-01	 1.125814586924253e+01
 1.074189106430633e+00	 8.058394302744172e-01	 1.099737908639298e+01
 1.054899269900412e+00	 8.309313927526036e-01	 1.073773421643483e+01
 1.231314534348166e+00	 5.706986218666309e-01	 1.299030893504429e+01
 1.217868371301289e+00	 5.988563345538357e-01	 1.282652962278279e+01
 1.203723295177632e+00	 6.268032988042951e-01	 1.264259075427571e+01
 1.188883193244080e+00	 6.545141448913745e-01	 1.244129333424679e+01
 1.173353157123633e+00	 6.819635300559350e-01	 1.222542196730113e+01
 1.157139489517013e+00	 7.091262089823308e-01	 1.199772653721085e+01
 1.140249706026590e+00	 7.359771052745493e-01	 1.176090409284527e+01
 1.122692531962562e+00	 7.624913835381123e-01	 1.151758113515734e+01
 1.104477894047487e+00	 7.886445216589838e-01	 1.127029649782968e+01
 1.085616906973206e+00	 8.144123828600778e-01	 1.102148500929870e+01
 1.066121854803511e+00	 8.397712871092807e-01	 1.077346211593415e+01
 1.244276013114461e+00	 5.767061023778234e-01	 1.290408410130254e+01
 1.230688308526272e+00	 6.051602182867322e-01	 1.275219734350304e+01
 1.216394333726560e+00	 6.334013673075607e-01	 1.258052912634277e+01
 1.201398016901661e+00	 6.614039126582948e-01	 1.239179529475200e+01
 1.185704503271726e+00	 6.891422448082904e-01	 1.218867431013782e+01
 1.169320161883087e+00	 7.165908526961383e-01	 1.197378909628171e+01
 1.152252587451375e+00	 7.437243959582033e-01	 1.174968927383912e+01
 1.134510597134084e+00	 7.705177777692943e-01	 1.151883398056065e+01
 1.116104222147779e+00	 7.969462178824213e-01	 1.128357547041687e+01
 1.097044694183519e+00	 8.229853254438096e-01	 1.104614367770658e+01
 1.077344426613743e+00	 8.486111711525988e-01	 1.080863192201938e+01
 1.257237473734949e+00	 5.827135744786170e-01	 1.283988926260393e+01
 1.243508227803614e+00	 6.114640931942510e-01	 1.267644615716526e+01
 1.229065354536308e+00	 6.399994265735724e-01	 1.251747438962201e+01
 1.213912823038762e+00	 6.682936707795627e-01	 1.234180467332822e+01
 1.198055832128207e+00	 6.963209495104473e-01	 1.215194326975549e+01
 1.181500817196487e+00	 7.240554859594283e-01	 1.195031120008486e+01
 1.164255452072385e+00	 7.514716757956159e-01	 1.173922724606981e+01
 1.146328645760561e+00	 7.785441607634755e-01	 1.152089180297616e+01
 1.127730533971447e+00	 8.052479024834258e-01	 1.129737177562673e+01
 1.108472465395146e+00	 8.315582560253585e-01	 1.107058669825656e+01
 1.088566982712566e+00	 8.574510428200165e-01	 1.084229624542773e+01
 1.270198913185301e+00	 5.887210367673057e-01	 1.279136931064047e+01
 1.256328126142018e+00	 6.177679578055311e-01	 1.261855500289030e+01
 1.241736354650330e+00	 6.465974750628333e-01	 1.245315599984698e+01
 1.226427608735296e+00	 6.751834176476261e-01	 1.229108018881114e+01
 1.210407140811137e+00	 7.034996424874411e-01	 1.211498088685811e+01
 1.193681452615102e+00	 7.315201070305257e-01	 1.192700441296782e+01
 1.176258297088996e+00	 7.592189429791690e-01	 1.172915761112494e+01
 1.158146675084499e+00	 7.865705306479199e-01	 1.152329322762247e+01
 1.139356826805732e+00	 8.135495735250283e-01	 1.131109667347231e+01
 1.119900217941657e+00	 8.401311726044689e-01	 1.109407434356933e+01
 1.099789520481441e+00	 8.662909000489963e-01	 1.087354364658264e+01
 1.283160328441186e+00	 5.947284878421828e-01	 1.273915504553455e+01
 1.269148000550189e+00	 6.240718106497122e-01	 1.257797856831509e+01
 1.254407331112081e+00	 6.531955112358475e-01	 1.240021765782425e+01
 1.238942371071173e+00	 6.820731516549332e-01	 1.223938791545593e+01
 1.222758426438575e+00	 7.106783220643063e-01	 1.207754676446102e+01
 1.205862065296819e+00	 7.389847141677566e-01	 1.190358944070434e+01
 1.188261119700584e+00	 7.669661957012448e-01	 1.171913197008335e+01
 1.169964682348398e+00	 7.945968855498918e-01	 1.152559291639788e+01
 1.150983097937877e+00	 8.218512290702613e-01	 1.132418257094029e+01
 1.131327949156626e+00	 8.487040731808860e-01	 1.111589410483653e+01
 1.111012037301826e+00	 8.751307407769980e-01	 1.090149682024344e+01
 1.296121716478273e+00	 6.007359263015425e-01	 1.268295639012148e+01
 1.281967848036833e+00	 6.303756502559339e-01	 1.253413746797516e+01
 1.267078280965017e+00	 6.597935335531179e-01	 1.236920165815932e+01
 1.251457107126304e+00	 6.889628711939321e-01	 1.219052839565486e+01
 1.235109686128581e+00	 7.178569865660782e-01	 1.203940769002392e+01
 1.218042652399525e+00	 7.464493056294462e-01	 1.187979567373744e+01
 1.200263917106523e+00	 7.747134321542246e-01	 1.170881332390418e+01
 1.181782664794757e+00	 8.026232235966543e-01	 1.152736076643688e+01
 1.162609344655126e+00	 8.301528671821563e-01	 1.133608196503073e+01
 1.142755656373624e+00	 8.572769557543545e-01	 1.113535933124264e+01
 1.122234530555182e+00	 8.839705629414819e-01	 1.092531088905683e+01
 1.010008851730144e+00	 7.955717534430776e-01	 1.060955953210062e+01
 9.909519067937320e-01	 8.191865824479939e-01	 1.029405154920135e+01
 9.713207563652808e-01	 8.423706882231309e-01	 9.975658110724686e+00
 9.511301907535311e-01	 8.651033421516505e-01	 9.654126656116045e+00
 9.303959900850729e-01	 8.873645046199061e-01	 9.328954854230085e+00
 9.091348835661056e-01	 9.091348835661061e-01	 8.999400949636785e+00
 8.873645046199057e-01	 9.303959900850729e-01	 8.664496485525037e+00
 8.651033421516500e-01	 9.511301907535311e-01	 8.323061269783549e+00
 8.423706882231307e-01	 9.713207563652815e-01	 7.973720420813619e+00
 8.191865824479935e-01	 9.909519067937324e-01	 7.614923302045195e+00
 7.955717534430776e-01	 1.010008851730144e+00	 7.244964129478632e+00
 1.021231462819311e+00	 8.044116684278025e-01	 1.063725656848245e+01
 1.001962768568945e+00	 8.282888912141637e-01	 1.033729060681662e+01
 9.821134886003536e-01	 8.517306048331553e-01	 1.003513431014586e+01
 9.616985775632909e-01	 8.747158503440156e-01	 9.729993963831610e+00
 9.407339909236229e-01	 8.972243654649650e-01	 9.420756061145724e+00
 9.192366437724240e-01	 9.192366437724245e-01	 9.106002434486831e+00
 8.972243654649645e-01	 9.407339909236231e-01	 8.784028347771869e+00
 8.747158503440153e-01	 9.616985775632912e-01	 8.452863366192524e+00
 8.517306048331549e-01	 9.821134886003540e-01	 8.110294782946116e+00
 8.282888912141635e-01	 1.001962768568945e+00	 7.753893349194074e+00
 8.044116684278024e-01	 1.021231462819310e+00	 7.381041023984007e+00
 1.032454071289771e+00	 8.132515813493250e-01	 1.066858516336387e+01
 1.012973627774809e+00	 8.373911978559143e-01	 1.038315157103763e+01
 9.929062183169185e-01	 8.610905192586760e-01	 1.009546443934441e+01
 9.722669619068304e-01	 8.843283562929767e-01	 9.804364059544792e+00
 9.510719893496478e-01	 9.070842240089515e-01	 9.508321113369018e+00
 9.293384016212816e-01	 9.293384016212820e-01	 9.205455121514429e+00
 9.070842240089511e-01	 9.510719893496479e-01	 8.893556277417849e+00
 8.843283562929766e-01	 9.722669619068307e-01	 8.570110447264819e+00
 8.610905192586757e-01	 9.929062183169186e-01	 8.232327075796480e+00
 8.373911978559138e-01	 1.012973627774809e+00	 7.877169699858772e+00
 8.132515813493250e-01	 1.032454071289771e+00	 7.501388738491665e+00
 1.043676674522985e+00	 8.220914901451046e-01	 1.070243349491783e+01
 1.023984481842198e+00	 8.464935002494818e-01	 1.043035172175460e+01
 1.003698942996750e+00	 8.704504293158198e-01	 1.015529732645855e+01
 9.828353413182764e-01	 8.939408577557190e-01	 9.875914021548828e+00
 9.614099829510372e-01	 9.169440779513309e-01	 9.590445854388610e+00
 9.394401547556949e-01	 9.394401547556951e-01	 9.296757532433471e+00
 9.169440779513307e-01	 9.614099829510375e-01	 8.992358400103212e+00
 8.939408577557187e-01	 9.828353413182769e-01	 8.674429827935398e+00
 8.704504293158194e-01	 1.003698942996750e+00	 8.339855730169919e+00
 8.464935002494810e-01	 1.023984481842198e+00	 7.985255886518615e+00
 8.220914901451046e-01	 1.043676674522985e+00	 7.607021708325769e+00
 1.054899269900412e+00	 8.309313927526036e-01	 1.073773421643483e+01
 1.034995328201983e+00	 8.555957962711013e-01	 1.047766007058271e+01
 1.014491660121622e+00	 8.798103328207122e-01	 1.021333643592008e+01
 9.934037133317563e-01	 9.035533524894270e-01	 9.943374361634355e+00
 9.717479693156805e-01	 9.268039249915691e-01	 9.665974514502405e+00
 9.495419008186826e-01	 9.495419008186831e-01	 9.378947966302764e+00
 9.268039249915688e-01	 9.717479693156811e-01	 9.079740744060549e+00
 9.035533524894268e-01	 9.934037133317566e-01	 8.765461898176337e+00
 8.798103328207117e-01	 1.014491660121623e+00	 8.432914797560969e+00
 8.555957962711011e-01	 1.034995328201983e+00	 8.078631319184645e+00
 8.309313927526035e-01	 1.054899269900412e+00	 7.698908562707338e+00
 1.066121854803511e+00	 8.397712871092807e-01	 1.077346211593415e+01
 1.046006164285036e+00	 8.646980837970097e-01	 1.052389463845339e+01
 1.025284367173309e+00	 8.891702275894792e-01	 1.026833699305100e+01
 1.003972075481396e+00	 9.131658382512866e-01	 1.000552621285071e+01
 9.820859460314676e-01	 9.366637628291313e-01	 9.733797164047576e+00
 9.596436374532621e-01	 9.596436374532625e-01	 9.451102405747651e+00
 9.366637628291312e-01	 9.820859460314681e-01	 9.155035771209594e+00
 9.131658382512862e-01	 1.003972075481397e+00	 8.842859434415058e+00
 8.891702275894789e-01	 1.025284367173310e+00	 8.511534180204379e+00
 8.646980837970095e-01	 1.046006164285037e+00	 8.157752554622157e+00
 8.397712871092808e-01	 1.066121854803511e+00	 7.777974535371799e+00
 1.077344426613743e+00	 8.486111711525988e-01	 1.080863192201938e+01
 1.057016987522231e+00	 8.738003607034422e-01	 1.056791990331992e+01
 1.036077061633586e+00	 8.985301114382472e-01	 1.031910328833409e+01
 1.014540425301325e+00	 9.227783127984828e-01	 1.006119869299358e+01
 9.924239106862870e-01	 9.465235891634832e-01	 9.792847325770119e+00
 9.697453623024501e-01	 9.697453623024505e-01	 9.512332554017199e+00
 9.465235891634829e-01	 9.924239106862874e-01	 9.217601000043093e+00
 9.227783127984824e-01	 1.014540425301325e+00	 8.906286953986470e+00
 8.985301114382468e-01	 1.036077061633587e+00	 8.575739846761040e+00
 8.738003607034417e-01	 1.057016987522231e+00	 8.223054486276384e+00
 8.486111711525989e-01	 1.077344426613743e+00	 7.845103724571761e+00
 1.088566982712566e+00	 8.574510428200165e-01	 1.084229624542773e+01
 1.068027795344438e+00	 8.829026248666350e-01	 1.060864440570410e+01
 1.046869740984227e+00	 9.078899821831418e-01	 1.036448614839435e+01
 1.025108760325667e+00	 9.323907738882006e-01	 1.010926643114239e+01
 1.002761860868029e+00	 9.563834016940903e-01	 9.842099734852619e+00
 9.798470730092648e-01	 9.798470730092651e-01	 9.561783993437448e+00
 9.563834016940901e-01	 1.002761860868029e+00	 9.266817713681602e+00
 9.323907738881999e-01	 1.025108760325668e+00	 8.955420109514767e+00
 9.078899821831412e-01	 1.046869740984227e+00	 8.625554034675005e+00
 8.829026248666343e-01	 1.068027795344438e+00	 8.274951460624491e+00
 8.574510428200167e-01	 1.088566982712566e+00	 7.901141213332997e+00
 1.099789520481441e+00	 8.662909000489963e-01	 1.087354364658264e+01
 1.079038585182531e+00	 8.920048741628237e-01	 1.064501850081323e+01
 1.057662402707005e+00	 9.172498376402886e-01	 1.040338056178699e+01
 1.035677078088552e+00	 9.420032192776239e-01	 1.014864724560310e+01
 1.013099794164582e+00	 9.662431981204184e-01	 9.880568236056959e+00
 9.899487672167233e-01	 9.899487672167239e-01	 9.598634456591984e+00
 9.662431981204176e-01	 1.013099794164582e+00	 9.302089747015712e+00
 9.420032192776238e-01	 1.035677078088552e+00	 8.989945120373191e+00
 9.172498376402882e-01	 1.057662402707005e+00	 8.660995440154281e+00
 8.920048741628231e-01	 1.079038585182531e+00	 8.313838325205685e+00
 8.662909000489962e-01	 1.099789520481441e+00	 7.946895059941511e+00
 1.111012037301826e+00	 8.751307407769980e-01	 1.090149682024344e+01
 1.090049354467381e+00	 9.011071064682441e-01	 1.067603224686522e+01
 1.068455044283696e+00	 9.266096756258143e-01	 1.043472344864889e+01
 1.046245376124105e+00	 9.516156467239397e-01	 1.017829996255472e+01
 1.023437708163836e+00	 9.761029761419320e-01	 9.907303808288139e+00
 1.000050442567844e+00	 1.000050442567844e+00	 9.622092202261133e+00
 9.761029761419314e-01	 1.023437708163836e+00	 9.322842347344181e+00
 9.516156467239396e-01	 1.046245376124105e+00	 9.009558238601009e+00
 9.266096756258143e-01	 1.068455044283696e+00	 8.682079396648959e+00
 9.011071064682435e-01	 1.090049354467381e+00	 8.340091413160344e+00
 8.751307407769979e-01	 1.111012037301826e+00	 7.983138167835759e+00
 1.122234530555182e+00	 8.839705629414819e-01	 1.092531088905683e+01
 1.101060100629861e+00	 9.102093196591319e-01	 1.070071342009181e+01
 1.079247663196073e+00	 9.359694939558444e-01	 1.045749156414503e+01
 1.056813651966454e+00	 9.612280539843321e-01	 1.019722236555192e+01
 1.033775600453680e+00	 9.859627334580974e-01	 9.921392707663397e+00
 1.010152096705643e+00	 1.010152096705644e+00	 9.631394488788999e+00
 9.859627334580970e-01	 1.033775600453680e+00	 9.328521103365636e+00
 9.612280539843319e-01	 1.056813651966455e+00	 9.013965246866011e+00
 9.359694939558441e-01	 1.079247663196073e+00	 8.688818042632988e+00
 9.102093196591318e-01	 1.101060100629861e+00	 8.354069468720953e+00
 8.839705629414819e-01	 1.122234530555182e+00	 8.010610043342835e+00
 7.955717534430776e-01	 1.010008851730144e+00	 7.244964129478632e+00
 7.715475599175932e-01	 1.028477824266305e+00	 6.863089734412464e+00
 7.471359339991688e-01	 1.046346104343135e+00	 6.472222314549265e+00
 7.223593093729547e-01	 1.063602054441766e+00	 6.076214851569265e+00
 6.972405524292978e-01	 1.080235144867935e+00	 5.679094603714631e+00
 6.718028946141240e-01	 1.096235971370482e+00	 5.285032018322234e+00
 6.460698641649665e-01	 1.111596267876887e+00	 4.898309120975204e+00
 6.200652176363031e-01	 1.126308914352119e+00	 4.523287665047901e+00
 5.938128716115273e-01	 1.140367939824357e+00	 4.164377321175788e+00
 5.673368349888005e-01	 1.153768520657062e+00	 3.826004178602825e+00
 5.406611422144048e-01	 1.166506974181152e+00	 3.512579819657407e+00
 8.044116684278024e-01	 1.021231462819310e+00	 7.381041023984007e+00
 7.801205325084165e-01	 1.039905651473637e+00	 6.991509796807474e+00
 7.554376592802551e-01	 1.057972473135200e+00	 6.590081546845997e+00
 7.303857316980990e-01	 1.075420160976023e+00	 6.181760121142265e+00
 7.049878702298847e-01	 1.092238068302214e+00	 5.771823474885629e+00
 6.792675644554065e-01	 1.108416686368235e+00	 5.365779968296216e+00
 6.532486040438353e-01	 1.123947657253940e+00	 4.969323653486214e+00
 6.269550095182067e-01	 1.138823781810756e+00	 4.588288970926461e+00
 6.004109632086180e-01	 1.153039022721013e+00	 4.228605271695799e+00
 5.736407407856794e-01	 1.166588502750832e+00	 3.896251573019886e+00
 5.466686437519976e-01	 1.179468498311525e+00	 3.597211940996184e+00
 8.132515813493250e-01	 1.032454071289771e+00	 7.501388738491665e+00
 7.886935030983315e-01	 1.051333476014421e+00	 7.105811368922518e+00
 7.637393826237476e-01	 1.069598839214425e+00	 6.697242499647469e+00
 7.384121521499227e-01	 1.087238264752729e+00	 6.281554077314821e+00
 7.127351862223218e-01	 1.104240988935844e+00	 5.864968567171609e+00
 6.867322325545427e-01	 1.120597398523877e+00	 5.454005392723763e+00
 6.604273422473316e-01	 1.136299043749081e+00	 5.055425992446883e+00
 6.338447997922178e-01	 1.151338646349359e+00	 4.676178019606658e+00
 6.070090532659367e-01	 1.165710102661214e+00	 4.323339208336254e+00
 5.799446451114828e-01	 1.179408481853434e+00	 4.004061419498087e+00
 5.526761438877230e-01	 1.192430019417744e+00	 3.725515363894982e+00
 8.220914901451046e-01	 1.043676674522985e+00	 7.607021708325769e+00
 7.972664696870834e-01	 1.062761295222229e+00	 7.207468685638570e+00
 7.720411020926780e-01	 1.081225199868052e+00	 6.795503017118515e+00
 7.464385688556904e-01	 1.099056363014387e+00	 6.377591748825298e+00
 7.204824985989899e-01	 1.116243903968200e+00	 5.960605905153043e+00
 6.941968971698584e-01	 1.132778104995295e+00	 5.551759777006865e+00
 6.676060771004905e-01	 1.148650424480371e+00	 5.158548566034377e+00
 6.407345868507837e-01	 1.163853505047840e+00	 4.788684988456141e+00
 6.136071402439864e-01	 1.178381176688415e+00	 4.450035439401503e+00
 5.862485464953503e-01	 1.192228454973575e+00	 4.150556308246497e+00
 5.586836412198745e-01	 1.205391534475477e+00	 3.898231017662417e+00
 8.309313927526035e-01	 1.054899269900412e+00	 7.698908562707338e+00
 8.058394302744167e-01	 1.074189106430634e+00	 7.297890675244023e+00
 7.803428157500795e-01	 1.092851552383325e+00	 6.886581939751584e+00
 7.544649799426653e-01	 1.110874453003498e+00	 6.471780850768260e+00
 7.282298055522719e-01	 1.128246810598657e+00	 6.060720840527207e+00
 7.016615565596791e-01	 1.144958802940378e+00	 5.661005070954663e+00
 6.747848069283462e-01	 1.161001796565867e+00	 5.280539430952638e+00
 6.476243690863530e-01	 1.176368354986110e+00	 4.927464391495709e+00
 6.202052226032713e-01	 1.191052241846069e+00	 4.610086368460211e+00
 5.925524434664214e-01	 1.205048419119958e+00	 4.336809232039958e+00
 5.646911343467459e-01	 1.218353040460394e+00	 4.116066582530408e+00
 8.397712871092808e-01	 1.066121854803511e+00	 7.777974535371799e+00
 8.144123828600772e-01	 1.085616906973206e+00	 7.378424396645187e+00
 7.886445216589832e-01	 1.104477894047487e+00	 6.972123262814714e+00
 7.624913835381121e-01	 1.122692531962563e+00	 6.565946380815889e+00
 7.359771052745488e-01	 1.140249706026591e+00	 6.167212825587614e+00
 7.091262089823306e-01	 1.157139489517013e+00	 5.783618402891795e+00
 6.819635300559345e-01	 1.173353157123633e+00	 5.423166715237693e+00
 6.545141448913742e-01	 1.188883193244081e+00	 5.094099064361922e+00
 6.268032988042945e-01	 1.203723295177632e+00	 4.804823860874156e+00
 5.988563345538354e-01	 1.217868371301289e+00	 4.563846200111984e+00
 5.706986218666309e-01	 1.231314534348166e+00	 4.379698243400684e+00
 8.486111711525989e-01	 1.077344426613743e+00	 7.845103724571761e+00
 8.229853254438093e-01	 1.097044694183519e+00	 7.450358261819126e+00
 7.969462178824207e-01	 1.116104222147780e+00	 7.053700034975583e+00
 7.705177777692939e-01	 1.134510597134084e+00	 6.661834928261899e+00
 7.437243959582027e-01	 1.152252587451375e+00	 6.281899888450485e+00
 7.165908526961383e-01	 1.169320161883087e+00	 5.921396499221997e+00
 6.891422448082899e-01	 1.185704503271726e+00	 5.588122783471282e+00
 6.614039126582941e-01	 1.201398016901660e+00	 5.290103900283434e+00
 6.334013673075602e-01	 1.216394333726560e+00	 5.035522399983504e+00
 6.051602182867317e-01	 1.230688308526273e+00	 4.832648688730118e+00
 5.767061023778234e-01	 1.244276013114461e+00	 4.689772334018718e+00
 8.574510428200167e-01	 1.088566982712566e+00	 7.901141213332997e+00
 8.315582560253580e-01	 1.108472465395146e+00	 7.514925059000682e+00
 8.052479024834253e-01	 1.127730533971447e+00	 7.132818015846599e+00
 7.785441607634748e-01	 1.146328645760561e+00	 6.761118716606289e+00
 7.514716757956155e-01	 1.164255452072385e+00	 6.406522831545127e+00
 7.240554859594279e-01	 1.181500817196488e+00	 6.076059830698197e+00
 6.963209495104469e-01	 1.198055832128208e+00	 5.777028144428129e+00
 6.682936707795624e-01	 1.213912823038763e+00	 5.516929355036007e+00
 6.399994265735720e-01	 1.229065354536308e+00	 5.303402048123071e+00
 6.114640931942503e-01	 1.243508227803614e+00	 5.144155940236545e+00
 5.827135744786168e-01	 1.257237473734950e+00	 4.768037258478913e+00
 8.662909000489962e-01	 1.099789520481441e+00	 7.946895059941511e+00
 8.401311726044686e-01	 1.119900217941657e+00	 7.573304790834545e+00
 8.135495735250280e-01	 1.139356826805732e+00	 7.210919109666451e+00
 7.865705306479197e-01	 1.158146675084499e+00	 6.865399398708979e+00
 7.592189429791690e-01	 1.176258297088997e+00	 6.542749173130218e+00
 7.315201070305251e-01	 1.193681452615102e+00	 6.249256504914321e+00
 7.034996424874408e-01	 1.210407140811137e+00	 5.991435119551031e+00
 6.751834176476257e-01	 1.226427608735297e+00	 5.775964737371853e+00
 6.465974750628329e-01	 1.241736354650330e+00	 5.609631226406623e+00
 6.177679578055304e-01	 1.256328126142018e+00	 5.260008134539440e+00
 5.887210367673058e-01	 1.270198913185302e+00	 4.675502386171672e+00
 8.751307407769979e-01	 1.111012037301826e+00	 7.983138167835759e+00
 8.487040731808854e-01	 1.131327949156626e+00	 7.626627340571879e+00
 8.218512290702609e-01	 1.150983097937878e+00	 7.289384590942921e+00
 7.945968855498914e-01	 1.169964682348398e+00	 6.976211622002167e+00
 7.669661957012445e-01	 1.188261119700584e+00	 6.692176850000443e+00
 7.389847141677560e-01	 1.205862065296819e+00	 6.442565922957705e+00
 7.106783220643060e-01	 1.222758426438575e+00	 6.232831289159746e+00
 6.820731516549328e-01	 1.238942371071174e+00	 6.068541300089159e+00
 6.531955112358470e-01	 1.254407331112081e+00	 5.792063327227126e+00
 6.240718106497117e-01	 1.269148000550190e+00	 5.177145315364809e+00
 5.947284878421829e-01	 1.283160328441185e+00	 4.633938728148725e+00
 8.839705629414819e-01	 1.122234530555182e+00	 8.010610043342835e+00
 8.572769557543541e-01	 1.142755656373625e+00	 7.675974978344824e+00
 8.301528671821561e-01	 1.162609344655126e+00	 7.369538136615263e+00
 8.026232235966541e-01	 1.181782664794758e+00	 7.095026379854186e+00
 7.747134321542239e-01	 1.200263917106523e+00	 6.856337698097045e+00
 7.464493056294456e-01	 1.218042652399525e+00	 6.657502216727561e+00
 7.178569865660778e-01	 1.235109686128581e+00	 6.502642731948178e+00
 6.889628711939315e-01	 1.251457107126304e+00	 6.343133004323933e+00
 6.597935335531173e-01	 1.267078280965017e+00	 5.711191845032239e+00
 6.303756502559335e-01	 1.281967848036833e+00	 5.142665822722893e+00
 6.007359263015425e-01	 1.296121716478273e+00	 4.643954680666760e+00
 5.406611422144048e-01	 1.166506974181152e+00	 3.512579819657412e+00
 5.138116717552891e-01	 1.178579927199173e+00	 3.230271299171892e+00
 4.868104428277401e-01	 1.189986863234134e+00	 2.981580199624998e+00
 4.596811685659499e-01	 1.200727447337036e+00	 2.765334616209014e+00
 4.324473371061253e-01	 1.210802416556687e+00	 2.580214311589388e+00
 4.051321545099085e-01	 1.220213553110794e+00	 2.424764231478134e+00
 3.777584904297684e-01	 1.228963654185617e+00	 2.297408353187381e+00
 3.503488267225386e-01	 1.237056498645061e+00	 2.196463722085684e+00
 3.229252091875749e-01	 1.244496810941490e+00	 2.120154537588856e+00
 2.955092025760218e-01	 1.251290222528759e+00	 2.010918375928921e+00
 2.681218489877413e-01	 1.257443231082956e+00	 1.710014503328626e+00
 5.466686437519976e-01	 1.179468498311525e+00	 3.597211940996184e+00
 5.195208381204921e-01	 1.191675598724702e+00	 3.338152280139164e+00
 4.922195877717349e-01	 1.203209281774577e+00	 3.120173290312393e+00
 4.647888693259978e-01	 1.214069208790389e+00	 2.940781189341619e+00
 4.372524319055254e-01	 1.224256125010579e+00	 2.797281010719829e+00
 4.096337394237552e-01	 1.233771832455774e+00	 2.686802786719594e+00
 3.819559156469748e-01	 1.242619159392876e+00	 2.606327872944847e+00
 3.542416922368837e-01	 1.250801926674242e+00	 2.518709370772145e+00
 3.265133599524975e-01	 1.258324911247501e+00	 2.166421461079480e+00
 2.987927231595001e-01	 1.265193807139827e+00	 1.857075558788728e+00
 2.711010577649079e-01	 1.271415184225567e+00	 1.588199513989220e+00
 5.526761438877230e-01	 1.192430019417744e+00	 3.725515363894978e+00
 5.252300031534778e-01	 1.204771267194820e+00	 3.494289371636938e+00
 4.976287314535490e-01	 1.216431697230087e+00	 3.309870010157622e+00
 4.698965688942295e-01	 1.227410967131020e+00	 3.168605800556011e+00
 4.420575255837426e-01	 1.237709830325687e+00	 3.066601854049549e+00
 4.141353232872625e-01	 1.247330108637632e+00	 2.999757116466523e+00
 3.861533398848386e-01	 1.256274661414386e+00	 2.700516282245252e+00
 3.581345568429812e-01	 1.264547351496750e+00	 2.337754320153713e+00
 3.301015098803090e-01	 1.272153008327602e+00	 2.018971510252468e+00
 3.020762429769927e-01	 1.279097388507421e+00	 1.740651799419878e+00
 2.740802658471492e-01	 1.285387134108794e+00	 1.499134447581902e+00
 5.586836412198745e-01	 1.205391534475477e+00	 3.898231017662415e+00
 5.309391655221455e-01	 1.217866929553885e+00	 3.699062191345195e+00
 5.030378726110818e-01	 1.229654106515435e+00	 3.550765391861985e+00
 4.750042660788756e-01	 1.240752719245839e+00	 3.448689662331239e+00
 4.468626170196098e-01	 1.251163529362787e+00	 3.340202184771415e+00
 4.186369050500766e-01	 1.260888378492727e+00	 2.911672227716140e+00
 3.903507621639697e-01	 1.269930157063807e+00	 2.533782202997064e+00
 3.620274196324958e-01	 1.278292769905249e+00	 2.202374362082400e+00
 3.336896581337639e-01	 1.285981098955156e+00	 1.913090886509843e+00
 3.053597612623210e-01	 1.293000963387279e+00	 1.661410172657291e+00
 2.770594725392778e-01	 1.299359077472413e+00	 1.442682721035114e+00
 5.646911343467459e-01	 1.218353040460394e+00	 4.116066582530409e+00
 5.366483238943944e-01	 1.230962582746256e+00	 3.952832590257784e+00
 5.084470099822319e-01	 1.242876506545394e+00	 3.842948918270406e+00
 4.801119596881672e-01	 1.254094462021757e+00	 3.615310873369438e+00
 4.516677050919607e-01	 1.264617218982655e+00	 3.162379469829544e+00
 4.231384836618437e-01	 1.274446638857421e+00	 2.764095521640804e+00
 3.945481815049780e-01	 1.283585643154801e+00	 2.415709072942213e+00
 3.659202796970926e-01	 1.292038178692406e+00	 2.112232191972744e+00
 3.372778038756170e-01	 1.299809179903525e+00	 1.848482175116479e+00
 3.086432772493077e-01	 1.306904528535139e+00	 1.619124330551315e+00
 2.800386771461065e-01	 1.313331011056197e+00	 1.418713995751382e+00
 5.706986218666309e-01	 1.231314534348166e+00	 4.379698243400684e+00
 5.423574769381242e-01	 1.244058223716290e+00	 4.255945591757373e+00
 5.138561423048991e-01	 1.256098894234734e+00	 3.943463932408466e+00
 4.852196485303356e-01	 1.267436192345687e+00	 3.461068180505592e+00
 4.564727886796288e-01	 1.278070896046066e+00	 3.037482341841178e+00
 4.276400580722104e-01	 1.288004886568077e+00	 2.667585054605758e+00
 3.987455969284734e-01	 1.297241116501029e+00	 2.345972117587368e+00
 3.698131361284367e-01	 1.305783574650884e+00	 2.067005333019455e+00
 3.408659462686225e-01	 1.313637247946070e+00	 1.824861042108313e+00
 3.119267901717747e-01	 1.320808080706736e+00	 1.613577948452052e+00
 2.830178789724484e-01	 1.327302931599920e+00	 1.427103851445809e+00
 5.767061023778234e-01	 1.244276013114461e+00	 4.689772334018718e+00
 5.480666233212343e-01	 1.257153849408346e+00	 4.328215771653520e+00
 5.192652683169823e-01	 1.269321266498228e+00	 3.813048779217489e+00
 4.903273314136112e-01	 1.280777907104539e+00	 3.360511328945224e+00
 4.612778666614481e-01	 1.291524557413797e+00	 2.965321843114933e+00
 4.321416272308229e-01	 1.301563118461056e+00	 2.621868206439029e+00
 4.029430074550653e-01	 1.310896573916152e+00	 2.324260785648590e+00
 3.737059880181927e-01	 1.319528954573350e+00	 2.066385367176067e+00
 3.444540844755351e-01	 1.327465299856153e+00	 1.841955556012436e+00
 3.152102992635440e-01	 1.334711616657808e+00	 1.644564205702626e+00
 2.859970773231161e-01	 1.341274835843357e+00	 1.467733480362192e+00
 5.827135744786168e-01	 1.257237473734950e+00	 4.768037258478913e+00
 5.537757617116243e-01	 1.270249456766782e+00	 4.219312645649335e+00
 5.246743867563802e-01	 1.282543620250645e+00	 3.736246126997099e+00
 4.954350071462251e-01	 1.294119603185224e+00	 3.313589473579631e+00
 4.660829379162515e-01	 1.304978199946625e+00	 2.945717634736220e+00
 4.366431900873278e-01	 1.315121331372720e+00	 2.626684355680435e+00
 4.071404121053634e-01	 1.324552012213832e+00	 2.350278019321669e+00
 3.775988344580258e-01	 1.333274315252468e+00	 2.110077213687975e+00
 3.480422176591093e-01	 1.341293332407137e+00	 1.899505551509054e+00
 3.184938037584378e-01	 1.348615133144092e+00	 1.711885298444780e+00
 2.889762715029223e-01	 1.355246720526281e+00	 1.540489400398795e+00
 5.887210367673058e-01	 1.270198913185302e+00	 4.675502386171672e+00
 5.594848907771935e-01	 1.283345042735955e+00	 4.163112411849474e+00
 5.300834963609925e-01	 1.295765952406758e+00	 3.713184633559800e+00
 5.005426745364085e-01	 1.307461277474654e+00	 3.320254736103187e+00
 4.708880013228732e-01	 1.318431820505326e+00	 2.978497560508411e+00
 4.411447455913715e-01	 1.328679522139431e+00	 2.681784270952126e+00
 4.113378098999779e-01	 1.338207428207729e+00	 2.423739569217563e+00
 3.814916745396011e-01	 1.347019653480905e+00	 2.197798451783158e+00
 3.516303449820996e-01	 1.355121342372383e+00	 1.997262032041782e+00
 3.217773028902782e-01	 1.362518626921326e+00	 1.815351982243408e+00
 2.919554608166801e-01	 1.369218582388467e+00	 1.645263185790756e+00
 5.947284878421829e-01	 1.283160328441185e+00	 4.633938728148729e+00
 5.651940091858411e-01	 1.296440604260224e+00	 4.159963842290897e+00
 5.354925958687180e-01	 1.308988259881339e+00	 3.743988712985909e+00
 5.056503323923919e-01	 1.320802926859741e+00	 3.380462058869623e+00
 4.756930557601460e-01	 1.331885415950674e+00	 3.063497237311194e+00
 4.456462926925999e-01	 1.342237687597550e+00	 2.786929539205218e+00
 4.155351998595183e-01	 1.351862818711506e+00	 2.544373350802141e+00
 3.853845073545833e-01	 1.360764966051325e+00	 2.329278684399640e+00
 3.552184656072604e-01	 1.368949326525253e+00	 2.134986608622166e+00
 3.250607958928872e-01	 1.376422094745246e+00	 1.954783142422411e+00
 2.949346445692019e-01	 1.383190418169688e+00	 1.781951214110354e+00
 6.007359263015425e-01	 1.296121716478273e+00	 4.643954680666760e+00
 5.709031156054668e-01	 1.309536138283946e+00	 4.210202773366537e+00
 5.409016840174559e-01	 1.322210539589158e+00	 3.828778751469223e+00
 5.107579795224065e-01	 1.334144548227396e+00	 3.494169067511925e+00
 4.804981001069039e-01	 1.345338983143447e+00	 3.200559670029765e+00
 4.501478303406600e-01	 1.355795824583440e+00	 2.941892028260678e+00
 4.197325810045943e-01	 1.365518180538823e+00	 2.711918839439898e+00
 3.892773319946376e-01	 1.374510249756393e+00	 2.504258940078177e+00
 3.588065786973464e-01	 1.382777281639109e+00	 2.312450972295716e+00
 3.283442820000870e-01	 1.390325533371589e+00	 2.130005390172618e+00
 2.979138220653007e-01	 1.397162224609720e+00	 1.950454428442040e+00
 2.681218489877413e-01	 1.257443231082956e+00	 1.710014503328626e+00
 2.407817228767851e-01	 1.262963522352994e+00	 1.449947322357183e+00
 2.135106558184331e-01	 1.267858745981453e+00	 1.226699897630380e+00
 1.863279375037964e-01	 1.272137738871794e+00	 1.037572667801227e+00
 1.592522018633585e-01	 1.275810025489055e+00	 8.798131749906093e-01
 1.323014031501211e-01	 1.278885770601601e+00	 7.506365499668917e-01
 1.054927955345951e-01	 1.281375731613288e+00	 6.472451270790229e-01
 7.884291614478943e-02	 1.283291210751440e+00	 5.668470778577981e-01
 5.236757146467105e-02	 1.284644007362039e+00	 5.066739686791266e-01
 2.608182698689521e-02	 1.285446370548278e+00	 4.639971643844576e-01
 0.000000000000000e+00	 1.285710952372222e+00	 4.361430160272242e-01
 2.711010577649079e-01	 1.271415184225567e+00	 1.588199513989216e+00
 2.434571446109329e-01	 1.276996813653051e+00	 1.355676726202224e+00
 2.158830578522008e-01	 1.281946430063098e+00	 1.155552850894480e+00
 1.883983015152831e-01	 1.286272968549541e+00	 9.853966359235473e-01
 1.610217165797056e-01	 1.289986059407557e+00	 8.427363781350401e-01
 1.337714567953441e-01	 1.293095980350324e+00	 7.250780509349624e-01
 1.066649680506879e-01	 1.295613608311512e+00	 6.299226335175920e-01
 7.971897122437922e-02	 1.297550371102009e+00	 5.547825444994627e-01
 5.294944843254006e-02	 1.298918199175053e+00	 4.971970973798892e-01
 2.637163256653081e-02	 1.299729477738514e+00	 4.547469099272023e-01
 0.000000000000000e+00	 1.299996999436575e+00	 4.250672140738299e-01
 2.740802658471492e-01	 1.285387134108794e+00	 1.499134447581902e+00
 2.461325657211033e-01	 1.291030101679448e+00	 1.289540689278647e+00
 2.182554593327630e-01	 1.296034110858418e+00	 1.108196729861431e+00
 1.904686650441012e-01	 1.300408194929889e+00	 9.530762754252537e-01
 1.627912308836288e-01	 1.304162090019158e+00	 8.221197347584230e-01
 1.352415100980418e-01	 1.307306186784182e+00	 7.132492580800067e-01
 1.078371402937548e-01	 1.309851481688423e+00	 6.243831316969708e-01
 8.059502609999235e-02	 1.311809528126306e+00	 5.534494458443209e-01
 5.353132526498362e-02	 1.313192387658288e+00	 4.983989649357257e-01
 2.666143807874780e-02	 1.314012581596891e+00	 4.572171414937347e-01
 0.000000000000000e+00	 1.314283043168385e+00	 4.279352269764878e-01
 2.770594725392778e-01	 1.299359077472413e+00	 1.442682721035110e+00
 2.488079855829751e-01	 1.305063383157637e+00	 1.251512875625289e+00
 2.206278597064843e-01	 1.310121785080170e+00	 1.084710676465047e+00
 1.925390276070735e-01	 1.314543414714498e+00	 9.407872569470384e-01
 1.645607443621362e-01	 1.318338114015989e+00	 8.182224355019130e-01
 1.367115627150885e-01	 1.321516386587330e+00	 7.154759461253362e-01
 1.090093119901753e-01	 1.324089348421717e+00	 6.309982601645254e-01
 8.147108056711205e-02	 1.326068678497057e+00	 5.632409318046965e-01
 5.411320182614732e-02	 1.327466569480965e+00	 5.106664080833787e-01
 2.695124345587590e-02	 1.328295678790551e+00	 4.717572528553837e-01
 0.000000000000000e+00	 1.328569080234105e+00	 4.450247428054959e-01
 2.800386771461065e-01	 1.313331011056197e+00	 1.418713995751382e+00
 2.514834035722265e-01	 1.319096654813073e+00	 1.241568442688734e+00
 2.230002584197293e-01	 1.324209449441108e+00	 1.085170781520540e+00
 1.946093887210234e-01	 1.328678624605022e+00	 9.486980402773140e-01
 1.663302566022356e-01	 1.332514128090182e+00	 8.312928583070338e-01
 1.381816143033584e-01	 1.335726576443923e+00	 7.320702005652950e-01
 1.101814828663291e-01	 1.338327205189094e+00	 6.501239783420869e-01
 8.234713442122146e-02	 1.340327818886994e+00	 5.845335247097736e-01
 5.469507798017686e-02	 1.341740741312307e+00	 5.343698769155247e-01
 2.724104863024481e-02	 1.342578765986636e+00	 4.987018222984434e-01
 0.000000000000000e+00	 1.342855107300192e+00	 4.766016689827064e-01
 2.830178789724484e-01	 1.327302931599920e+00	 1.427103851445809e+00
 2.541588190645365e-01	 1.333129913371210e+00	 1.259683964935918e+00
 2.253726549188625e-01	 1.338297100653986e+00	 1.109650247252392e+00
 1.966797479027737e-01	 1.342813821303118e+00	 9.769702555660515e-01
 1.680997671909344e-01	 1.346690128933866e+00	 8.615691389870674e-01
 1.396516645197257e-01	 1.349936753038114e+00	 7.633311394597302e-01
 1.113536526485959e-01	 1.352565048668249e+00	 6.821013929296793e-01
 8.322318745780383e-02	 1.354586945968846e+00	 6.176879955647014e-01
 5.527695359121787e-02	 1.356014899821536e+00	 5.698642984614837e-01
 2.753085353418426e-02	 1.356861839852286e+00	 5.383713935885119e-01
 0.000000000000000e+00	 1.357141121033102e+00	 5.229207536728244e-01
 2.859970773231161e-01	 1.341274835843357e+00	 1.467733480362197e+00
 2.568342314355833e-01	 1.347163155557500e+00	 1.305837362237297e+00
 2.277450486502487e-01	 1.352384735431563e+00	 1.158219539665479e+00
 1.987501046691476e-01	 1.356949001510443e+00	 1.025759060718981e+00
 1.698692757152408e-01	 1.360866113239175e+00	 9.092797061457252e-01
 1.411217130210647e-01	 1.364146913054058e+00	 8.095455901288060e-01
 1.125258210633554e-01	 1.366802875536879e+00	 7.272575326728552e-01
 8.409923947234235e-02	 1.368846056415343e+00	 6.630501855581132e-01
 5.585882852341595e-02	 1.370289041677874e+00	 6.174898863089135e-01
 2.782065810002395e-02	 1.371144897054644e+00	 5.910732081374244e-01
 0.000000000000000e+00	 1.371427118099289e+00	 5.842261683489320e-01
 2.889762715029223e-01	 1.355246720526281e+00	 1.540489400398795e+00
 2.595096400610456e-01	 1.361196378097397e+00	 1.380007832677956e+00
 2.301174390602524e-01	 1.366472350486590e+00	 1.230946531493633e+00
 2.008204585369680e-01	 1.371084161928650e+00	 1.095213476690005e+00
 1.716387817621622e-01	 1.375042077698238e+00	 9.746437830178780e-01
 1.425917594642496e-01	 1.378357053175909e+00	 8.709887240004004e-01
 1.136979878369874e-01	 1.381040682472682e+00	 7.859060752191545e-01
 8.497529026032022e-02	 1.383105146899215e+00	 7.209517767679818e-01
 5.644070264091678e-02	 1.384563163550541e+00	 6.775729001582869e-01
 2.811046226009360e-02	 1.385427934260852e+00	 6.571018918935815e-01
 0.000000000000000e+00	 1.385713095165209e+00	 6.607520543322488e-01
 2.919554608166801e-01	 1.369218582388467e+00	 1.645263185790751e+00
 2.621850443166021e-01	 1.375229577716355e+00	 1.482175789481657e+00
 2.324898255952381e-01	 1.380559942531825e+00	 1.327896636397393e+00
 2.028908090230582e-01	 1.385219299259399e+00	 1.185476702250892e+00
 1.734082849187065e-01	 1.389218019003189e+00	 1.057871858591666e+00
 1.440618035061546e-01	 1.392567170087822e+00	 9.479246525997276e-01
 1.148701526958714e-01	 1.395278466153354e+00	 8.583480294841968e-01
 8.585133961722070e-02	 1.397364214093191e+00	 7.917110156947298e-01
 5.702257580786600e-02	 1.398837262108762e+00	 7.504263588878987e-01
 2.840026594672293e-02	 1.399710948138050e+00	 7.367401001897671e-01
 0.000000000000000e+00	 1.399999048897318e+00	 7.527230358799245e-01
 2.949346445692019e-01	 1.383190418169688e+00	 1.781951214110354e+00
 2.648604435779311e-01	 1.389262751139826e+00	 1.612322801753957e+00
 2.348622077015705e-01	 1.394647508280022e+00	 1.449132935030699e+00
 2.049611556442410e-01	 1.399354410204343e+00	 1.296686409687779e+00
 1.751777847718815e-01	 1.403393933846157e+00	 1.159166130185794e+00
 1.455318448036539e-01	 1.406777260473951e+00	 1.040606987427181e+00
 1.160423153663872e-01	 1.409516223256593e+00	 9.448723766731586e-01
 8.672738733852689e-02	 1.411623254670002e+00	 8.756333929542438e-01
 5.760444788840924e-02	 1.413111334021757e+00	 8.363507104128454e-01
 2.869006909224163e-02	 1.413993935353380e+00	 8.302591235186952e-01
 0.000000000000000e+00	 1.414284975962072e+00	 8.603547021843279e-01
 2.979138220653007e-01	 1.397162224609720e+00	 1.950454428442030e+00
 2.675358372207115e-01	 1.403295895093266e+00	 1.770431538780243e+00
 2.372345848256142e-01	 1.408735044443937e+00	 1.594716293543644e+00
 2.070314979173397e-01	 1.413489491465140e+00	 1.428975022760633e+00
 1.769472809086950e-01	 1.417569818919275e+00	 1.278720919478066e+00
 1.470018830136218e-01	 1.420987321018450e+00	 1.149279366252919e+00
 1.172144755749144e-01	 1.423753950460095e+00	 1.045756672851178e+00
 8.760343321972207e-02	 1.425882265302377e+00	 9.730122822001723e-01
 5.818631874669211e-02	 1.427385375958748e+00	 9.356344613631982e-01
 2.897987162897944e-02	 1.428276892573984e+00	 9.379194569721916e-01
 0.000000000000000e+00	 1.428570873025926e+00	 9.838540604605763e-01
 1.428570873025926e+00	 0.000000000000000e+00	 1.400658347779708e+01
 1.428276892573984e+00	 2.897987162897983e-02	 1.398697523112016e+01
 1.427385375958749e+00	 5.818631874669251e-02	 1.396086087576145e+01
 1.425882265302377e+00	 8.760343321972237e-02	 1.392952102031832e+01
 1.423753950460095e+00	 1.172144755749147e-01	 1.389426117232954e+01
 1.420987321018450e+00	 1.470018830136220e-01	 1.385640811954441e+01
 1.417569818919275e+00	 1.769472809086952e-01	 1.381730611930692e+01
 1.413489491465139e+00	 2.070314979173397e-01	 1.377831289933056e+01
 1.408735044443936e+00	 2.372345848256141e-01	 1.374079547240270e+01
 1.403295895093266e+00	 2.675358372207115e-01	 1.370612576672666e+01
 1.397162224609719e+00	 2.979138220653008e-01	 1.367567607274243e+01
 1.442856738422074e+00	 0.000000000000000e+00	 1.387288857247587e+01
 1.442559818133399e+00	 2.926967352309299e-02	 1.385492149607102e+01
 1.441659386254313e+00	 5.876818831477279e-02	 1.383001565454373e+01
 1.440141244326646e+00	 8.847947715852847e-02	 1.379968675458020e+01
 1.437991646102674e+00	 1.183866331846208e-01	 1.376543191864192e+01
 1.435197350063360e+00	 1.484719179644717e-01	 1.372872234220338e+01
 1.431745672568570e+00	 1.787167731226271e-01	 1.369099588948546e+01
 1.427624541392580e+00	 2.091018356007429e-01	 1.365364967145946e+01
 1.422822549379909e+00	 2.396069566905304e-01	 1.361803265030253e+01
 1.417329007939364e+00	 2.702112249327637e-01	 1.358543831435271e+01
 1.411134000078413e+00	 3.008929929573673e-01	 1.355709746694661e+01
 1.457142577150667e+00	 0.000000000000000e+00	 1.374628203341997e+01
 1.456842717030744e+00	 2.955947487604390e-02	 1.373066641018770e+01
 1.455933369904449e+00	 5.935005679635650e-02	 1.370767236528434e+01
 1.454400196733541e+00	 8.935551946162226e-02	 1.367899076545278e+01
 1.452229315167604e+00	 1.195587886058234e-01	 1.364625446720498e+01
 1.449407352582267e+00	 1.499419501707724e-01	 1.361102787353847e+01
 1.445921499755661e+00	 1.804862620330460e-01	 1.357479656425901e+01
 1.441759564933990e+00	 2.111721694191012e-01	 1.353895707899937e+01
 1.436910028018618e+00	 2.419793241266670e-01	 1.350480693318093e+01
 1.431362094589756e+00	 2.728866076504773e-01	 1.347353494738347e+01
 1.425105749465931e+00	 3.038721582881034e-01	 1.344621196982355e+01
 1.471428395878593e+00	 0.000000000000000e+00	 1.362665625730612e+01
 1.471125595931537e+00	 2.984927582312151e-02	 1.361389004996437e+01
 1.470207333570505e+00	 5.993192446306174e-02	 1.359333491259280e+01
 1.468659129177392e+00	 9.023156053791931e-02	 1.356679870713332e+01
 1.466466964299278e+00	 1.207309423856280e-01	 1.353599583023438e+01
 1.463617335206642e+00	 1.514119803186326e-01	 1.350253428198199e+01
 1.460097307096061e+00	 1.822557484657932e-01	 1.346790294801733e+01
 1.455894568685836e+00	 2.132425003386314e-01	 1.343345920433637e+01
 1.450997486934333e+00	 2.443516882411687e-01	 1.340041695559549e+01
 1.445395161593315e+00	 2.755619866223831e-01	 1.336983521796695e+01
 1.439077479292515e+00	 3.068513194477887e-01	 1.334260735643211e+01
 1.485714201272741e+00	 0.000000000000000e+00	 1.351390778737414e+01
 1.485408461501291e+00	 3.013907649961475e-02	 1.350428495670543e+01
 1.484481283913834e+00	 6.051379158650658e-02	 1.348652659460109e+01
 1.482918048312531e+00	 9.110760079633509e-02	 1.346250109798616e+01
 1.480704600142087e+00	 1.219030950711400e-01	 1.343395183144435e+01
 1.477827304567958e+00	 1.528820090941604e-01	 1.340248230994787e+01
 1.474273101205284e+00	 1.840252332467092e-01	 1.336954173936500e+01
 1.470029559244577e+00	 2.153128293255499e-01	 1.333641104921444e+01
 1.465084932701314e+00	 2.467240501411799e-01	 1.330418955365482e+01
 1.459428215498915e+00	 2.782373630970129e-01	 1.327378237658208e+01
 1.453049196078406e+00	 3.098304778267026e-01	 1.324588877486431e+01
 1.500000000000000e+00	 0.000000000000000e+00	 1.340793711528340e+01
 1.499691320405524e+00	 3.042887704081255e-02	 1.340155554229602e+01
 1.498755227595788e+00	 6.109565843830920e-02	 1.338678917879545e+01
 1.497176960793287e+00	 9.198364064578519e-02	 1.336551213585446e+01
 1.494942229340423e+00	 1.230752472094650e-01	 1.333944573337204e+01
 1.492037267297686e+00	 1.543520371834642e-01	 1.331014238863708e+01
 1.488448888698843e+00	 1.857947172016354e-01	 1.327897001161660e+01
 1.484164543206676e+00	 2.173831573460732e-01	 1.324709706164946e+01
 1.479172371893830e+00	 2.490964109338453e-01	 1.321547842136456e+01
 1.473461262855428e+00	 2.809127383228979e-01	 1.318484224285442e+01
 1.467020906343844e+00	 3.128096348151254e-01	 1.315567791831741e+01
 1.514285798727260e+00	 0.000000000000000e+00	 1.330864849419470e+01
 1.513974179309750e+00	 3.071867758200388e-02	 1.330541752863774e+01
 1.513029171277717e+00	 6.167752529008763e-02	 1.329368203020665e+01
 1.511435873273994e+00	 9.285968049518506e-02	 1.327526858049062e+01
 1.509179858538677e+00	 1.242473993477081e-01	 1.325182694247094e+01
 1.506247230027299e+00	 1.558220652726523e-01	 1.322481323698798e+01
 1.502624676192253e+00	 1.875642011564123e-01	 1.319547377938127e+01
 1.498299527168598e+00	 2.194534853664177e-01	 1.316482974630425e+01
 1.493259811086144e+00	 2.514687717263093e-01	 1.313366284310229e+01
 1.487494310211727e+00	 2.835881135485694e-01	 1.310250214035180e+01
 1.480992616609070e+00	 3.157887918033364e-01	 1.307161224408012e+01
 1.528571604121408e+00	 0.000000000000000e+00	 1.321594976234221e+01
 1.528257044879485e+00	 3.100847825847763e-02	 1.321559741854582e+01
 1.527303121620974e+00	 6.225939241346007e-02	 1.320678128852993e+01
 1.525694792408982e+00	 9.373572075345028e-02	 1.319122869870978e+01
 1.523417494381241e+00	 1.254195520329751e-01	 1.317046978688151e+01
 1.520457199388268e+00	 1.572920940478329e-01	 1.314582053926188e+01
 1.516800470301028e+00	 1.893336859368810e-01	 1.311836664560014e+01
 1.512434517726803e+00	 2.215238143527999e-01	 1.308894835285954e+01
 1.507347256852522e+00	 2.538411336257166e-01	 1.305814649723722e+01
 1.501527364116686e+00	 2.862634900225589e-01	 1.302626989117114e+01
 1.494964333394326e+00	 3.187679501816155e-01	 1.299334423636156e+01
 1.542857422849333e+00	 0.000000000000000e+00	 1.312975217641525e+01
 1.542539923780245e+00	 3.129827920552281e-02	 1.313183199606608e+01
 1.541577085286909e+00	 6.284126008004454e-02	 1.312567909100096e+01
 1.539953724852582e+00	 9.461176182949638e-02	 1.311287126819838e+01
 1.537655143512507e+00	 1.265917058123711e-01	 1.309477236216438e+01
 1.534667182012065e+00	 1.587621241951145e-01	 1.307251569616260e+01
 1.530976277640682e+00	 1.911031723688825e-01	 1.304698852381733e+01
 1.526569521477754e+00	 2.235941452714363e-01	 1.301881763732157e+01
 1.521434715767229e+00	 2.562134977392117e-01	 1.298835632627946e+01
 1.515560431119178e+00	 2.889388689933976e-01	 1.295567286643747e+01
 1.508936063219851e+00	 3.217471113402418e-01	 1.292054071011851e+01
 1.557143261577926e+00	 0.000000000000000e+00	 1.304997025411923e+01
 1.556822822677546e+00	 3.158808055842829e-02	 1.305386785432151e+01
 1.555851068936875e+00	 6.342312856145918e-02	 1.304998283808679e+01
 1.554212677259125e+00	 9.548780413223884e-02	 1.303969463620750e+01
 1.551892812576865e+00	 1.277638612330018e-01	 1.302415544062809e+01
 1.548877184530161e+00	 1.602321564006051e-01	 1.300427464476420e+01
 1.545152104826728e+00	 1.928726612782576e-01	 1.298070443084934e+01
 1.540704545017914e+00	 2.256644790885435e-01	 1.295382669157851e+01
 1.535522194404530e+00	 2.585858651739392e-01	 1.292374146928263e+01
 1.529593517768076e+00	 2.916142517096169e-01	 1.289025708912157e+01
 1.522907812605887e+00	 3.247262766694958e-01	 1.285288215324616e+01
 1.571429126974074e+00	 0.000000000000000e+00	 1.297652162533115e+01
 1.571105748236902e+00	 3.187788245248305e-02	 1.298146094913471e+01
 1.570125079232222e+00	 6.400499812932213e-02	 1.297931449926499e+01
 1.568471656282942e+00	 9.636384807059326e-02	 1.297121582963527e+01
 1.566130508218708e+00	 1.289360188419724e-01	 1.295806144020105e+01
 1.563087213574030e+00	 1.617021913504133e-01	 1.294049674286414e+01
 1.559327958474683e+00	 1.946421534908473e-01	 1.291890334536920e+01
 1.554839594943744e+00	 2.277348167703377e-01	 1.289338783685863e+01
 1.549609699338691e+00	 2.609582370370436e-01	 1.286377225253502e+01
 1.543626630612252e+00	 2.942896394197481e-01	 1.282958638584438e+01
 1.536879588072675e+00	 3.277054475596566e-01	 1.279006210468893e+01
 1.397162224609719e+00	 2.979138220653008e-01	 1.367567607274243e+01
 1.390325533371589e+00	 3.283442820000868e-01	 1.363841769430064e+01
 1.382777281639109e+00	 3.588065786973459e-01	 1.358319490132301e+01
 1.374510249756393e+00	 3.892773319946374e-01	 1.351130470940099e+01
 1.365518180538822e+00	 4.197325810045940e-01	 1.342419662564411e+01
 1.355795824583439e+00	 4.501478303406597e-01	 1.332347589891190e+01
 1.345338983143448e+00	 4.804981001069037e-01	 1.321090577930114e+01
 1.334144548227396e+00	 5.107579795224063e-01	 1.308840867379028e+01
 1.322210539589158e+00	 5.409016840174555e-01	 1.295806608968427e+01
 1.309536138283946e+00	 5.709031156054665e-01	 1.282211726448671e+01
 1.296121716478273e+00	 6.007359263015425e-01	 1.268295639012149e+01
 1.411134000078413e+00	 3.008929929573673e-01	 1.355709746694661e+01
 1.404228941178191e+00	 3.316277608287755e-01	 1.352224215164346e+01
 1.396605206100602e+00	 3.623946838337244e-01	 1.347008294226430e+01
 1.388255502992416e+00	 3.931701480055892e-01	 1.340191209922719e+01
 1.379173512096488e+00	 4.239299528455067e-01	 1.331921231773778e+01
 1.369353931515263e+00	 4.546493580103738e-01	 1.322366131847755e+01
 1.358792520514022e+00	 4.853031338025658e-01	 1.311713518303699e+01
 1.347486140021065e+00	 5.158656153305728e-01	 1.300171029631894e+01
 1.335432789987597e+00	 5.463107601761635e-01	 1.287966376482288e+01
 1.322631643279300e+00	 5.766122093700307e-01	 1.275347218909096e+01
 1.309083075784400e+00	 6.067433514445451e-01	 1.262580868070580e+01
 1.425105749465931e+00	 3.038721582881034e-01	 1.344621196982356e+01
 1.418132323031283e+00	 3.349112335281558e-01	 1.341255988911583e+01
 1.410433104749542e+00	 3.659827822722144e-01	 1.336240391482985e+01
 1.402000730570267e+00	 3.970629567499074e-01	 1.329704412518503e+01
 1.392828818163903e+00	 4.281273168513230e-01	 1.321800309001697e+01
 1.382912013138390e+00	 4.591508772772685e-01	 1.312703151576511e+01
 1.372246032771167e+00	 4.901081585288932e-01	 1.302611240610385e+01
 1.360827706910340e+00	 5.209732416045713e-01	 1.291746357983936e+01
 1.348655015704478e+00	 5.517198262380337e-01	 1.280353839610030e+01
 1.335727123829745e+00	 5.823212924777389e-01	 1.268702454831348e+01
 1.322044410896074e+00	 6.127507653738173e-01	 1.257084080302870e+01
 1.439077479292515e+00	 3.068513194477887e-01	 1.334260735643211e+01
 1.432035685419194e+00	 3.381947016305061e-01	 1.330913465901023e+01
 1.424260984039027e+00	 3.695708756872476e-01	 1.326006494811543e+01
 1.415745938904460e+00	 4.009557600442207e-01	 1.319671835591013e+01
 1.406484105113612e+00	 4.323246749808002e-01	 1.312066379956654e+01
 1.396470075779993e+00	 4.636523902420470e-01	 1.303372539965951e+01
 1.385699526193253e+00	 4.949131765282328e-01	 1.293798721995421e+01
 1.374169255121346e+00	 5.260808607279711e-01	 1.283579615361849e+01
 1.361877222910231e+00	 5.571288847273165e-01	 1.272976279079288e+01
 1.348822586046562e+00	 5.880303675928577e-01	 1.262276011572453e+01
 1.335005727861969e+00	 6.187581708928535e-01	 1.251791989835420e+01
 1.453049196078406e+00	 3.098304778267026e-01	 1.324588877486431e+01
 1.445939034830253e+00	 3.414781666681055e-01	 1.321174095992789e+01
 1.438088850422154e+00	 3.731589657532558e-01	 1.316297854089912e+01
 1.429491134409508e+00	 4.048485597051586e-01	 1.310095361554063e+01
 1.420139379318163e+00	 4.365220291926967e-01	 1.302728771487752e+01
 1.410028125767245e+00	 4.681538990054123e-01	 1.294387871916730e+01
 1.399153007058650e+00	 4.997181900429310e-01	 1.285290593533298e+01
 1.387510790880210e+00	 5.311884750843423e-01	 1.275683314824679e+01
 1.375099417775286e+00	 5.625379381682628e-01	 1.265840946943407e+01
 1.361918036041029e+00	 5.937394373796537e-01	 1.256066782156665e+01
 1.347967032730759e+00	 6.247655708051465e-01	 1.246692091556471e+01
 1.467020906343844e+00	 3.128096348151254e-01	 1.315567791831741e+01
 1.459842377752788e+00	 3.447616301732324e-01	 1.312016352446998e+01
 1.451916710352021e+00	 3.767470541446709e-01	 1.307106230541786e+01
 1.443236323499923e+00	 4.087413575493496e-01	 1.300976992345484e+01
 1.433794647150103e+00	 4.407193814457703e-01	 1.293796659105738e+01
 1.423586169427317e+00	 4.726554056680671e-01	 1.285762421348065e+01
 1.412606481645731e+00	 5.045232013153349e-01	 1.277101156668829e+01
 1.400852320413059e+00	 5.362960870572544e-01	 1.268069731425282e+01
 1.388321606470075e+00	 5.679469890851228e-01	 1.258955067910812e+01
 1.375013479924427e+00	 5.994485045023932e-01	 1.250073960208354e+01
 1.360928331551120e+00	 6.307729679141900e-01	 1.241772623902498e+01
 1.480992616609070e+00	 3.157887918033364e-01	 1.307161224408012e+01
 1.473745720675130e+00	 3.480450936781657e-01	 1.303419683596354e+01
 1.465744570281727e+00	 3.803351425359247e-01	 1.298423872567160e+01
 1.456981512590223e+00	 4.126341553934235e-01	 1.292318843743617e+01
 1.447449914981977e+00	 4.449167336987789e-01	 1.285279074079367e+01
 1.437144213087383e+00	 4.771569123307148e-01	 1.277509175355466e+01
 1.426059956232863e+00	 5.093282125877910e-01	 1.269244398728409e+01
 1.414193849946018e+00	 5.414036990302772e-01	 1.260750913401462e+01
 1.401543795165028e+00	 5.733560400021475e-01	 1.252325840600815e+01
 1.388108923808035e+00	 6.051575716253428e-01	 1.244297025740264e+01
 1.373889630371724e+00	 6.367803650234781e-01	 1.237022533754705e+01
 1.494964333394326e+00	 3.187679501816155e-01	 1.299334423636156e+01
 1.487649070085608e+00	 3.513285587151836e-01	 1.295364467232105e+01
 1.479572436664370e+00	 3.839232326014490e-01	 1.290243492930438e+01
 1.470726708094918e+00	 4.165269550540093e-01	 1.284123140004082e+01
 1.461105189186332e+00	 4.491140879104804e-01	 1.277184910134892e+01
 1.450702263074612e+00	 4.816584210940578e-01	 1.269640847575395e+01
 1.439513437098418e+00	 5.141332261026461e-01	 1.261734007562308e+01
 1.427535385705215e+00	 5.465113133869804e-01	 1.253738692740675e+01
 1.414765990030577e+00	 5.787650934435867e-01	 1.245960438730636e+01
 1.401204373803133e+00	 6.108666414127690e-01	 1.238735731741152e+01
 1.386850935241248e+00	 6.427877649365041e-01	 1.232431443307439e+01
 1.508936063219851e+00	 3.217471113402418e-01	 1.292054071011851e+01
 1.501552432472550e+00	 3.546120268165655e-01	 1.287831967527362e+01
 1.493400315953049e+00	 3.875113260156757e-01	 1.282558247218128e+01
 1.484471916428524e+00	 4.204197583477359e-01	 1.276392208796068e+01
 1.474760476135717e+00	 4.533114460396327e-01	 1.269522929784442e+01
 1.464260325716179e+00	 4.861599340587995e-01	 1.262169890808294e+01
 1.452966930520765e+00	 5.189382441022472e-01	 1.254583385374371e+01
 1.440876933916774e+00	 5.516189325109339e-01	 1.247044695158944e+01
 1.427988197237152e+00	 5.841741519336919e-01	 1.239866012238136e+01
 1.414299836021000e+00	 6.165757165289386e-01	 1.233390091510937e+01
 1.399812252208365e+00	 6.487951704567616e-01	 1.227989618780611e+01
 1.522907812605887e+00	 3.247262766694958e-01	 1.285288215324616e+01
 1.515455814324286e+00	 3.578954995145896e-01	 1.280804294334682e+01
 1.507228214600859e+00	 3.910994244530367e-01	 1.275361713484545e+01
 1.498217144005554e+00	 4.243125670912325e-01	 1.269128476418862e+01
 1.488415782202676e+00	 4.575088100449939e-01	 1.262301770307132e+01
 1.477818407339255e+00	 4.906614533256427e-01	 1.255108508947644e+01
 1.466420442778276e+00	 5.237432688289406e-01	 1.247805661791348e+01
 1.454218500806824e+00	 5.567265587857070e-01	 1.240680349531625e+01
 1.441210422955184e+00	 5.895832179967133e-01	 1.234049688344373e+01
 1.427395316572917e+00	 6.222847996381182e-01	 1.228260366695331e+01
 1.412773587321749e+00	 6.548025843877445e-01	 1.223687940857609e+01
 1.536879588072675e+00	 3.277054475596566e-01	 1.279006210468893e+01
 1.529359222129145e+00	 3.611789783415347e-01	 1.274264364706706e+01
 1.521056139060902e+00	 3.946875295879635e-01	 1.268647873009847e+01
 1.511962397240521e+00	 4.282053831011283e-01	 1.262334463280799e+01
 1.502071113759757e+00	 4.617061818853215e-01	 1.255529949405025e+01
 1.491376514271011e+00	 4.951629809952903e-01	 1.248468668259250e+01
 1.479873980149320e+00	 5.285483025250732e-01	 1.241413706220298e+01
 1.467560092601489e+00	 5.618341945948696e-01	 1.234656896810940e+01
 1.454432673355103e+00	 5.949922941569014e-01	 1.228518572559809e+01
 1.440490821570163e+00	 6.279938934045739e-01	 1.223347055975387e+01
 1.425734946630075e+00	 6.608100095329462e-01	 1.219517876738812e+01
 1.296121716478273e+00	 6.007359263015425e-01	 1.268295639012148e+01
 1.281967848036833e+00	 6.303756502559339e-01	 1.253413746797516e+01
 1.267078280965017e+00	 6.597935335531179e-01	 1.236920165815932e+01
 1.251457107126304e+00	 6.889628711939321e-01	 1.219052839565486e+01
 1.235109686128581e+00	 7.178569865660782e-01	 1.203940769002392e+01
 1.218042652399525e+00	 7.464493056294462e-01	 1.187979567373744e+01
 1.200263917106523e+00	 7.747134321542246e-01	 1.170881332390418e+01
 1.181782664794757e+00	 8.026232235966543e-01	 1.152736076643688e+01
 1.162609344655126e+00	 8.301528671821563e-01	 1.133608196503073e+01
 1.142755656373624e+00	 8.572769557543545e-01	 1.113535933124264e+01
 1.122234530555182e+00	 8.839705629414819e-01	 1.092531088905683e+01
 1.309083075784400e+00	 6.067433514445451e-01	 1.262580868070580e+01
 1.294787667106306e+00	 6.366794758887820e-01	 1.248969625113841e+01
 1.279749202730872e+00	 6.663915412449152e-01	 1.233775313274782e+01
 1.263971815440652e+00	 6.958525754608674e-01	 1.217204338734219e+01
 1.247460918440193e+00	 7.250356351552959e-01	 1.200107995166256e+01
 1.230223212502171e+00	 7.539138805447811e-01	 1.185535224913429e+01
 1.212266687906508e+00	 7.824606514343239e-01	 1.169720057506285e+01
 1.193600621044838e+00	 8.106495438518657e-01	 1.152700267894515e+01
 1.174235565601107e+00	 8.384544868922558e-01	 1.134483272210776e+01
 1.154183338259446e+00	 8.658498193247729e-01	 1.115045942573942e+01
 1.133456998932246e+00	 8.928103655112042e-01	 1.094334722821631e+01
 1.322044410896074e+00	 6.127507653738173e-01	 1.257084080302870e+01
 1.307607462245575e+00	 6.429832897546267e-01	 1.244726862664469e+01
 1.292420100844492e+00	 6.729895366205751e-01	 1.230783992432122e+01
 1.276486500394384e+00	 7.027422668671673e-01	 1.215434232477299e+01
 1.259812127696359e+00	 7.322142703445174e-01	 1.198835306095540e+01
 1.242403749867965e+00	 7.613784415263900e-01	 1.182985542755705e+01
 1.224269436301516e+00	 7.902078562530934e-01	 1.168325199698893e+01
 1.205418555234924e+00	 8.186758491247561e-01	 1.152301604406676e+01
 1.185861764844993e+00	 8.467560911061389e-01	 1.134873320471056e+01
 1.165610998813772e+00	 8.744226668926508e-01	 1.115964700978759e+01
 1.144679446360872e+00	 9.016501515800983e-01	 1.095466351432324e+01
 1.335005727861969e+00	 6.187581708928535e-01	 1.251791989835420e+01
 1.320427239437255e+00	 6.492870947952859e-01	 1.240660803757781e+01
 1.305090981219005e+00	 6.795875227591991e-01	 1.227914206846842e+01
 1.289001167827722e+00	 7.096319486280581e-01	 1.213707092026036e+01
 1.272163319661003e+00	 7.393928954838045e-01	 1.198169876279076e+01
 1.254584270181177e+00	 7.688429920577627e-01	 1.181407954783148e+01
 1.236272167892840e+00	 7.979550502259156e-01	 1.166658735559636e+01
 1.217236472880059e+00	 8.267021431609495e-01	 1.151512528955603e+01
 1.197487947812345e+00	 8.550576836978963e-01	 1.134764335363491e+01
 1.177038643369505e+00	 8.829955024586523e-01	 1.116294616602124e+01
 1.155901878078191e+00	 9.104899252733928e-01	 1.095947422879889e+01
 1.347967032730759e+00	 6.247655708051465e-01	 1.246692091556471e+01
 1.333247004663966e+00	 6.555908939525751e-01	 1.236748018767373e+01
 1.317761849767537e+00	 6.861855027398904e-01	 1.225135475629828e+01
 1.301515823580887e+00	 7.165216239587651e-01	 1.211989142437604e+01
 1.284514500098049e+00	 7.465715139232197e-01	 1.197416642267608e+01
 1.266764779126081e+00	 7.763075356223882e-01	 1.181498134127264e+01
 1.248274888281778e+00	 8.057022369681759e-01	 1.164683859632771e+01
 1.229054379495284e+00	 8.347284297060696e-01	 1.150306295508595e+01
 1.209114119928721e+00	 8.633592685416175e-01	 1.134142597406003e+01
 1.188466277259546e+00	 8.915683300234398e-01	 1.116037749947802e+01
 1.167124299321332e+00	 9.193296907163157e-01	 1.095798303021808e+01
 1.360928331551120e+00	 6.307729679141900e-01	 1.241772623902498e+01
 1.346066763908323e+00	 6.618946901683121e-01	 1.232966245715932e+01
 1.330432712403213e+00	 6.927834796417507e-01	 1.222418761247460e+01
 1.314030473494097e+00	 7.234112960745130e-01	 1.210248183820622e+01
 1.296865674771423e+00	 7.537501290128256e-01	 1.196543726639294e+01
 1.278945282386943e+00	 7.837720757037558e-01	 1.181365520494912e+01
 1.260277603069626e+00	 8.134494200952568e-01	 1.164744543897097e+01
 1.240872280595642e+00	 8.427547125057406e-01	 1.148656930547174e+01
 1.220740286619681e+00	 8.716608495113923e-01	 1.132994659870442e+01
 1.199893905816797e+00	 9.001411535876770e-01	 1.115195830277707e+01
 1.178346715327428e+00	 9.281694520340954e-01	 1.095038326924567e+01
 1.373889630371724e+00	 6.367803650234781e-01	 1.237022533754705e+01
 1.358886523152945e+00	 6.681984863843136e-01	 1.229294335170410e+01
 1.343103575039161e+00	 6.993814565438822e-01	 1.219736401417125e+01
 1.326545123407574e+00	 7.303009681905276e-01	 1.208453517025480e+01
 1.309216849445051e+00	 7.609287441026844e-01	 1.195520745798926e+01
 1.291125785648038e+00	 7.912366157853546e-01	 1.180983258872764e+01
 1.272280317857678e+00	 8.211966032225428e-01	 1.164856384723293e+01
 1.252690181696174e+00	 8.507809953055863e-01	 1.147125882438028e+01
 1.232366453310785e+00	 8.799624304813104e-01	 1.131307335871652e+01
 1.211321534374162e+00	 9.087139771520272e-01	 1.113770271192134e+01
 1.189569131333609e+00	 9.370092133519605e-01	 1.093685847438357e+01
 1.386850935241248e+00	 6.427877649365041e-01	 1.232431443307439e+01
 1.371706288380448e+00	 6.745022855423962e-01	 1.225712198231715e+01
 1.355774443588506e+00	 7.059794365253866e-01	 1.217062044826875e+01
 1.339059779161538e+00	 7.371906435220346e-01	 1.206575873507048e+01
 1.321568029882856e+00	 7.681073625428583e-01	 1.194318740171532e+01
 1.303306294593635e+00	 7.987011593506748e-01	 1.180325790645000e+01
 1.284283038247231e+00	 8.289437899654170e-01	 1.164602409628930e+01
 1.264508088311923e+00	 8.588072818512308e-01	 1.147124594499187e+01
 1.243992625427591e+00	 8.882640153254620e-01	 1.129067686179415e+01
 1.222749168264542e+00	 9.172868047171535e-01	 1.111762185333871e+01
 1.200791552577006e+00	 9.458489787951391e-01	 1.091758281043868e+01
 1.399812252208365e+00	 6.487951704567616e-01	 1.227989618780611e+01
 1.384526065573450e+00	 6.808060905843768e-01	 1.222200757418135e+01
 1.368445323964375e+00	 7.125774226653668e-01	 1.214370590431128e+01
 1.351574446596209e+00	 7.440803252842588e-01	 1.204587349089157e+01
 1.333919221848763e+00	 7.752859876834094e-01	 1.192910108279406e+01
 1.315486814908005e+00	 8.061657098832048e-01	 1.179368793586184e+01
 1.296285769839580e+00	 8.366909839392637e-01	 1.163964408573676e+01
 1.276326005957931e+00	 8.668335758882978e-01	 1.146669481636052e+01
 1.255618808395660e+00	 8.965656079179360e-01	 1.127428729616340e+01
 1.234176812820839e+00	 9.258596402837190e-01	 1.109172398273004e+01
 1.212013984294751e+00	 9.546887524888598e-01	 1.089272151148182e+01
 1.412773587321749e+00	 6.548025843877445e-01	 1.223687940857609e+01
 1.397345860714569e+00	 6.871099044520724e-01	 1.218741900256564e+01
 1.381116222079894e+00	 7.191754180429248e-01	 1.211638130092557e+01
 1.364089131551809e+00	 7.509700166924258e-01	 1.202461341380049e+01
 1.346270431106699e+00	 7.824646228744004e-01	 1.191268544452880e+01
 1.327667352275420e+00	 8.136302708664346e-01	 1.178089125162059e+01
 1.308288518236020e+00	 8.444381887594662e-01	 1.162925130192312e+01
 1.288143940149242e+00	 8.748598811624115e-01	 1.145751759896017e+01
 1.267245007640550e+00	 9.048672121328237e-01	 1.126518065003518e+01
 1.245604473375955e+00	 9.344324878523876e-01	 1.106001461625075e+01
 1.223236431723973e+00	 9.635285385583509e-01	 1.086243128993703e+01
 1.425734946630075e+00	 6.608100095329462e-01	 1.219517876738812e+01
 1.410165679786421e+00	 6.934137300872995e-01	 1.215318435409025e+01
 1.393787143848190e+00	 7.257734257371631e-01	 1.208841894357110e+01
 1.376603839868557e+00	 7.578597209617606e-01	 1.200172490606265e+01
 1.358621663420585e+00	 7.896432714658930e-01	 1.189368979943486e+01
 1.339847912380150e+00	 8.210948457838531e-01	 1.176464768927554e+01
 1.320291289037849e+00	 8.521854080414092e-01	 1.161468238244322e+01
 1.299961896400895e+00	 8.828862014191952e-01	 1.144363254847273e+01
 1.278871228587822e+00	 9.131688318442138e-01	 1.125109868483782e+01
 1.257032155262793e+00	 9.430053514238217e-01	 1.103645186438236e+01
 1.234458900101805e+00	 9.723683411288404e-01	 1.082686072332132e+01
 1.122234530555182e+00	 8.839705629414819e-01	 1.092531088905683e+01
 1.101060100629861e+00	 9.102093196591319e-01	 1.070071342009181e+01
 1.079247663196073e+00	 9.359694939558444e-01	 1.045749156414503e+01
 1.056813651966454e+00	 9.612280539843321e-01	 1.019722236555192e+01
 1.033775600453680e+00	 9.859627334580974e-01	 9.921392707663397e+00
 1.010152096705643e+00	 1.010152096705644e+00	 9.631394488788999e+00
 9.859627334580970e-01	 1.033775600453680e+00	 9.328521103365636e+00
 9.612280539843319e-01	 1.056813651966455e+00	 9.013965246866011e+00
 9.359694939558441e-01	 1.079247663196073e+00	 8.688818042632988e+00
 9.102093196591318e-01	 1.101060100629861e+00	 8.354069468720953e+00
 8.839705629414819e-01	 1.122234530555182e+00	 8.010610043342835e+00
 1.133456998932246e+00	 8.928103655112042e-01	 1.094334722821631e+01
 1.112070822385416e+00	 9.193115126736295e-01	 1.071831998619306e+01
 1.090040258185034e+00	 9.453292915384648e-01	 1.047232982143758e+01
 1.067381904382676e+00	 9.708404399374153e-01	 1.020782279287732e+01
 1.044113469828073e+00	 9.958224689186665e-01	 9.927254849620489e+00
 1.020253728451648e+00	 1.020253728451648e+00	 9.633079187638650e+00
 9.958224689186663e-01	 1.044113469828074e+00	 9.327734115219739e+00
 9.708404399374146e-01	 1.067381904382677e+00	 9.013631527108963e+00
 9.453292915384641e-01	 1.090040258185035e+00	 8.693146075442986e+00
 9.193115126736290e-01	 1.112070822385416e+00	 8.368605112740472e+00
 8.928103655112043e-01	 1.133456998932246e+00	 8.042279468631518e+00
 1.144679446360872e+00	 9.016501515800983e-01	 1.095466351432324e+01
 1.123081523587785e+00	 9.284136886975023e-01	 1.072900877405345e+01
 1.100832833027974e+00	 9.546890716495984e-01	 1.048089838792846e+01
 1.077950137071642e+00	 9.804528079475135e-01	 1.021355971266216e+01
 1.054451319905255e+00	 1.005682185974534e+00	 9.930318664073107e+00
 1.030355341341413e+00	 1.030355341341414e+00	 9.634579950099031e+00
 1.005682185974534e+00	 1.054451319905255e+00	 9.329807103659899e+00
 9.804528079475129e-01	 1.077950137071642e+00	 9.019502489525628e+00
 9.546890716495977e-01	 1.100832833027974e+00	 8.707187455099017e+00
 9.284136886975021e-01	 1.123081523587786e+00	 8.396382788613096e+00
 9.016501515800985e-01	 1.144679446360873e+00	 8.090589639845023e+00
 1.155901878078191e+00	 9.104899252733928e-01	 1.095947422879889e+01
 1.134092209375281e+00	 9.375158519784222e-01	 1.073316930674644e+01
 1.111625392761407e+00	 9.640488386571276e-01	 1.048370822628201e+01
 1.088518354965175e+00	 9.900651625003817e-01	 1.021501467809356e+01
 1.064789155509534e+00	 1.015541889226881e+00	 9.931188426085656e+00
 1.040456940089006e+00	 1.040456940089006e+00	 9.636479099335292e+00
 1.015541889226881e+00	 1.064789155509535e+00	 9.335259161109196e+00
 9.900651625003815e-01	 1.088518354965175e+00	 9.031996296284966e+00
 9.640488386571272e-01	 1.111625392761407e+00	 8.731225460906897e+00
 9.375158519784218e-01	 1.134092209375281e+00	 8.437520836801383e+00
 9.104899252733929e-01	 1.155901878078191e+00	 8.155467930265404e+00
 1.167124299321332e+00	 9.193296907163157e-01	 1.095798303021808e+01
 1.145102884886215e+00	 9.466180067640608e-01	 1.073117353647879e+01
 1.122417942421851e+00	 9.734085969289363e-01	 1.048124804856924e+01
 1.099086562995096e+00	 9.996775080817737e-01	 1.021274427455925e+01
 1.075126981465220e+00	 1.025401583276890e+00	 9.930442573692364e+00
 1.050558529408490e+00	 1.050558529408490e+00	 9.639333977409514e+00
 1.025401583276890e+00	 1.075126981465220e+00	 9.344586849435057e+00
 9.996775080817734e-01	 1.099086562995096e+00	 9.051512486512737e+00
 9.734085969289358e-01	 1.122417942421852e+00	 8.765529969479516e+00
 9.466180067640603e-01	 1.145102884886215e+00	 8.492130578352331e+00
 9.193296907163158e-01	 1.167124299321332e+00	 8.236842084987810e+00
 1.178346715327428e+00	 9.281694520340954e-01	 1.095038326924567e+01
 1.156113555258898e+00	 9.557201573020899e-01	 1.072337668078536e+01
 1.133210487045824e+00	 9.827683508329064e-01	 1.047398537515960e+01
 1.109654766093226e+00	 1.009289849177444e+00	 1.020728130772064e+01
 1.085464802596620e+00	 1.035261272725742e+00	 9.928634937102343e+00
 1.060660114013930e+00	 1.060660114013931e+00	 9.643678133428807e+00
 1.035261272725741e+00	 1.085464802596620e+00	 9.358265271080628e+00
 1.009289849177443e+00	 1.109654766093227e+00	 9.078432861015227e+00
 9.827683508329058e-01	 1.133210487045824e+00	 8.810358090541079e+00
 9.557201573020896e-01	 1.156113555258899e+00	 8.560316646424873e+00
 9.281694520340955e-01	 1.178346715327428e+00	 8.334640200210155e+00
 1.189569131333609e+00	 9.370092133519605e-01	 1.093685847438357e+01
 1.167124225631645e+00	 9.648223078401814e-01	 1.071011801133404e+01
 1.144003031669840e+00	 9.921281047369207e-01	 1.046236753360652e+01
 1.120222969191389e+00	 1.018902190273145e+00	 1.019913592426185e+01
 1.095802623728044e+00	 1.045120962174616e+00	 9.926295898250498e+00
 1.070761698619392e+00	 1.070761698619392e+00	 9.650022444364977e+00
 1.045120962174616e+00	 1.095802623728045e+00	 9.376749079496811e+00
 1.018902190273145e+00	 1.120222969191389e+00	 9.113122316864445e+00
 9.921281047369205e-01	 1.144003031669840e+00	 8.865954766695076e+00
 9.648223078401810e-01	 1.167124225631645e+00	 8.642177299019004e+00
 9.370092133519605e-01	 1.189569131333609e+00	 8.448790703680734e+00
 1.200791552577006e+00	 9.458489787951391e-01	 1.091758281043868e+01
 1.178134901142766e+00	 9.739244626260072e-01	 1.069172159844370e+01
 1.154795581330418e+00	 1.001487863008863e+00	 1.044682260145529e+01
 1.130791177221405e+00	 1.028514535854631e+00	 1.018879666972184e+01
 1.106140449683802e+00	 1.054980656224697e+00	 9.923933485253833e+00
 1.080863287938940e+00	 1.080863287938940e+00	 9.658856172953795e+00
 1.054980656224697e+00	 1.106140449683802e+00	 9.400473432849143e+00
 1.028514535854631e+00	 1.130791177221405e+00	 9.155929635127555e+00
 1.001487863008862e+00	 1.154795581330418e+00	 8.932553339515191e+00
 9.739244626260068e-01	 1.178134901142766e+00	 8.737804714138013e+00
 9.458489787951390e-01	 1.200791552577005e+00	 8.579222336226534e+00
 1.212013984294751e+00	 9.546887524888598e-01	 1.089272151148182e+01
 1.189145586930573e+00	 9.830266259072385e-01	 1.066849701418762e+01
 1.165588141064074e+00	 1.010847630016615e+00	 1.042776029661179e+01
 1.141359395115096e+00	 1.038126890407658e+00	 1.017673148749158e+01
 1.116478285288201e+00	 1.064840359477164e+00	 9.922034405996673e+00
 1.090964886686639e+00	 1.090964886686639e+00	 9.670647966755501e+00
 1.064840359477164e+00	 1.116478285288201e+00	 9.429854894680279e+00
 1.038126890407658e+00	 1.141359395115096e+00	 9.207188224780204e+00
 1.010847630016614e+00	 1.165588141064074e+00	 9.010376084143838e+00
 9.830266259072381e-01	 1.189145586930573e+00	 8.847285268522715e+00
 9.546887524888599e-01	 1.212013984294750e+00	 8.725864134293452e+00
 1.223236431723973e+00	 9.635285385583509e-01	 1.086243128993703e+01
 1.200156288133378e+00	 9.921288019315477e-01	 1.064073999674495e+01
 1.176380715907324e+00	 1.020207410128059e+00	 1.040557281864177e+01
 1.151927627804283e+00	 1.047739258417978e+00	 1.016338866275724e+01
 1.126816135365550e+00	 1.074700076533199e+00	 9.921065024756615e+00
 1.101066499576554e+00	 1.101066499576555e+00	 9.685846802158816e+00
 1.074700076533199e+00	 1.126816135365550e+00	 9.465292284935970e+00
 1.047739258417978e+00	 1.151927627804284e+00	 9.267216825620158e+00
 1.020207410128059e+00	 1.176380715907324e+00	 9.099634714422743e+00
 9.921288019315472e-01	 1.200156288133379e+00	 8.970699801013719e+00
 9.635285385583509e-01	 1.223236431723973e+00	 8.888645413432450e+00
 1.234458900101805e+00	 9.723683411288404e-01	 1.082686072332132e+01
 1.211167009889495e+00	 1.001230994946606e+00	 1.060873307846732e+01
 1.187173310896686e+00	 1.029567207711080e+00	 1.038063564412627e+01
 1.162495880220790e+00	 1.057351644371346e+00	 1.014919771489648e+01
 1.137154004740159e+00	 1.084559811993984e+00	 9.921472285499176e+00
 1.111168131322751e+00	 1.111168131322752e+00	 9.704882876834130e+00
 1.084559811993984e+00	 1.137154004740160e+00	 9.507167484516891e+00
 1.057351644371345e+00	 1.162495880220790e+00	 9.336320172791732e+00
 1.029567207711079e+00	 1.187173310896686e+00	 9.200530860431906e+00
 1.001230994946606e+00	 1.211167009889495e+00	 9.108123861521332e+00
 9.723683411288406e-01	 1.234458900101806e+00	 9.067495752672258e+00
 8.839705629414819e-01	 1.122234530555182e+00	 8.010610043342835e+00
 8.572769557543541e-01	 1.142755656373625e+00	 7.675974978344824e+00
 8.301528671821561e-01	 1.162609344655126e+00	 7.369538136615263e+00
 8.026232235966541e-01	 1.181782664794758e+00	 7.095026379854186e+00
 7.747134321542239e-01	 1.200263917106523e+00	 6.856337698097045e+00
 7.464493056294456e-01	 1.218042652399525e+00	 6.657502216727561e+00
 7.178569865660778e-01	 1.235109686128581e+00	 6.502642731948178e+00
 6.889628711939315e-01	 1.251457107126304e+00	 6.343133004323933e+00
 6.597935335531173e-01	 1.267078280965017e+00	 5.711191845032239e+00
 6.303756502559335e-01	 1.281967848036833e+00	 5.142665822722893e+00
 6.007359263015425e-01	 1.296121716478273e+00	 4.643954680666760e+00
 8.928103655112043e-01	 1.133456998932246e+00	 8.042279468631518e+00
 8.658498193247725e-01	 1.154183338259446e+00	 7.733496089867312e+00
 8.384544868922551e-01	 1.174235565601107e+00	 7.461762012783934e+00
 8.106495438518655e-01	 1.193600621044838e+00	 7.229638672191194e+00
 7.824606514343235e-01	 1.212266687906508e+00	 7.039756261547019e+00
 7.539138805447808e-01	 1.230223212502172e+00	 6.894786268013942e+00
 7.250356351552953e-01	 1.247460918440193e+00	 6.797414045387802e+00
 6.958525754608671e-01	 1.263971815440653e+00	 6.246080316330152e+00
 6.663915412449148e-01	 1.279749202730872e+00	 5.662056368475881e+00
 6.366794758887817e-01	 1.294787667106307e+00	 5.140154220074221e+00
 6.067433514445451e-01	 1.309083075784400e+00	 4.685229225510763e+00
 9.016501515800985e-01	 1.144679446360873e+00	 8.090589639845023e+00
 8.744226668926504e-01	 1.165610998813773e+00	 7.810464446828675e+00
 8.467560911061386e-01	 1.185861764844994e+00	 7.575303508066955e+00
 8.186758491247558e-01	 1.205418555234924e+00	 7.386531316819661e+00
 7.902078562530926e-01	 1.224269436301516e+00	 7.245545039968555e+00
 7.613784415263897e-01	 1.242403749867965e+00	 7.153698296998032e+00
 7.322142703445168e-01	 1.259812127696359e+00	 6.766650380185245e+00
 7.027422668671670e-01	 1.276486500394385e+00	 6.170638758739807e+00
 6.729895366205746e-01	 1.292420100844493e+00	 5.631328839209429e+00
 6.429832897546265e-01	 1.307607462245575e+00	 5.152222221691968e+00
 6.127507653738173e-01	 1.322044410896074e+00	 4.736697100263102e+00
 9.104899252733929e-01	 1.155901878078191e+00	 8.155467930265404e+00
 8.829955024586520e-01	 1.177038643369505e+00	 7.906622012788812e+00
 8.550576836978958e-01	 1.197487947812345e+00	 7.709752857386248e+00
 8.267021431609489e-01	 1.217236472880060e+00	 7.565175325569745e+00
 7.979550502259154e-01	 1.236272167892840e+00	 7.473087028857941e+00
 7.688429920577622e-01	 1.254584270181178e+00	 7.276231125417199e+00
 7.393928954838040e-01	 1.272163319661003e+00	 6.669533255570951e+00
 7.096319486280576e-01	 1.289001167827722e+00	 6.116178699084942e+00
 6.795875227591985e-01	 1.305090981219005e+00	 5.618397249442098e+00
 6.492870947952851e-01	 1.320427239437256e+00	 5.178298508066968e+00
 6.187581708928535e-01	 1.335005727861969e+00	 4.797848896782192e+00
 9.193296907163158e-01	 1.167124299321332e+00	 8.236842084987810e+00
 8.915683300234393e-01	 1.188466277259546e+00	 8.021718307305592e+00
 8.633592685416168e-01	 1.209114119928721e+00	 7.864713746836184e+00
 8.347284297060690e-01	 1.229054379495284e+00	 7.765059812510888e+00
 8.057022369681752e-01	 1.248274888281779e+00	 7.721786782522233e+00
 7.763075356223875e-01	 1.266764779126081e+00	 7.161429797866566e+00
 7.465715139232193e-01	 1.284514500098049e+00	 6.595322407998349e+00
 7.165216239587646e-01	 1.301515823580887e+00	 6.082095833574321e+00
 6.861855027398900e-01	 1.317761849767538e+00	 5.622674178035066e+00
 6.555908939525746e-01	 1.333247004663966e+00	 5.217834717781090e+00
 6.247655708051463e-01	 1.347967032730759e+00	 4.868195721105123e+00
 9.281694520340955e-01	 1.178346715327428e+00	 8.334640200210155e+00
 9.001411535876764e-01	 1.199893905816797e+00	 8.155510042914463e+00
 8.716608495113920e-01	 1.220740286619682e+00	 8.039802669821158e+00
 8.427547125057401e-01	 1.240872280595642e+00	 7.985691128576589e+00
 8.134494200952562e-01	 1.260277603069626e+00	 7.650118938047735e+00
 7.837720757037553e-01	 1.278945282386944e+00	 7.070826874544332e+00
 7.537501290128253e-01	 1.296865674771424e+00	 6.543444446651072e+00
 7.234112960745126e-01	 1.314030473494097e+00	 6.067809978959998e+00
 6.927834796417501e-01	 1.330432712403214e+00	 5.643595618017905e+00
 6.618946901683117e-01	 1.346066763908323e+00	 5.270304352952346e+00
 6.307729679141899e-01	 1.360928331551119e+00	 4.947268215707151e+00
 9.370092133519605e-01	 1.189569131333609e+00	 8.448790703680734e+00
 9.087139771520266e-01	 1.211321534374162e+00	 8.307760782658198e+00
 8.799624304813101e-01	 1.232366453310785e+00	 8.234648319653751e+00
 8.507809953055858e-01	 1.252690181696174e+00	 8.140046122493308e+00
 8.211966032225422e-01	 1.272280317857678e+00	 7.545756743994243e+00
 7.912366157853544e-01	 1.291125785648038e+00	 7.003901954748986e+00
 7.609287441026841e-01	 1.309216849445050e+00	 6.513348767823469e+00
 7.303009681905274e-01	 1.326545123407575e+00	 6.072763932854989e+00
 6.993814565438816e-01	 1.343103575039162e+00	 5.680619870535101e+00
 6.681984863843131e-01	 1.358886523152945e+00	 5.335201746695978e+00
 6.367803650234780e-01	 1.373889630371725e+00	 5.034615637158876e+00
 9.458489787951390e-01	 1.200791552577005e+00	 8.579222336226534e+00
 9.172868047171532e-01	 1.222749168264542e+00	 8.478240616821465e+00
 8.882640153254612e-01	 1.243992625427591e+00	 8.448891016227499e+00
 8.588072818512302e-01	 1.264508088311923e+00	 8.023747850107792e+00
 8.289437899654166e-01	 1.284283038247231e+00	 7.465827396951388e+00
 7.987011593506743e-01	 1.303306294593636e+00	 6.960155290557234e+00
 7.681073625428576e-01	 1.321568029882856e+00	 6.504506488020558e+00
 7.371906435220340e-01	 1.339059779161539e+00	 6.096422398021998e+00
 7.059794365253862e-01	 1.355774443588507e+00	 5.733226500875434e+00
 6.745022855423957e-01	 1.371706288380448e+00	 5.412041088541098e+00
 6.427877649365041e-01	 1.386850935241248e+00	 5.129804985555017e+00
 9.546887524888599e-01	 1.212013984294750e+00	 8.725864134293452e+00
 9.258596402837188e-01	 1.234176812820839e+00	 8.666725857624405e+00
 8.965656079179358e-01	 1.255618808395660e+00	 8.508609036121850e+00
 8.668335758882972e-01	 1.276326005957932e+00	 7.932072441821323e+00
 8.366909839392632e-01	 1.296285769839580e+00	 7.409902158642784e+00
 8.061657098832041e-01	 1.315486814908005e+00	 6.939106828499071e+00
 7.752859876834088e-01	 1.333919221848763e+00	 6.516409436390044e+00
 7.440803252842582e-01	 1.351574446596210e+00	 6.138270966480876e+00
 7.125774226653666e-01	 1.368445323964376e+00	 5.800915352556039e+00
 6.808060905843761e-01	 1.384526065573451e+00	 5.500355504043982e+00
 6.487951704567616e-01	 1.399812252208365e+00	 5.232420182354380e+00
 9.635285385583509e-01	 1.223236431723973e+00	 8.888645413432450e+00
 9.344324878523871e-01	 1.245604473375955e+00	 8.872998750720699e+00
 9.048672121328234e-01	 1.267245007640551e+00	 8.405602767725739e+00
 8.748598811624111e-01	 1.288143940149242e+00	 7.864681153421317e+00
 8.444381887594662e-01	 1.308288518236021e+00	 7.377569256415366e+00
 8.136302708664341e-01	 1.327667352275421e+00	 6.940295304037583e+00
 7.824646228744000e-01	 1.346270431106699e+00	 6.548569202670158e+00
 7.509700166924256e-01	 1.364089131551809e+00	 6.197815159592436e+00
 7.191754180429246e-01	 1.381116222079895e+00	 5.883205615729201e+00
 6.871099044520719e-01	 1.397345860714569e+00	 5.599696185113363e+00
 6.548025843877445e-01	 1.412773587321749e+00	 5.342061293521350e+00
 9.723683411288406e-01	 1.234458900101806e+00	 9.067495752672258e+00
 9.430053514238215e-01	 1.257032155262794e+00	 8.889152435855550e+00
 9.131688318442132e-01	 1.278871228587822e+00	 8.326643995920641e+00
 8.828862014191952e-01	 1.299961896400895e+00	 7.821248835900155e+00
 8.521854080414087e-01	 1.320291289037849e+00	 7.368433109926206e+00
 8.210948457838527e-01	 1.339847912380151e+00	 6.963277385490370e+00
 7.896432714658925e-01	 1.358621663420585e+00	 6.600516237119979e+00
 7.578597209617604e-01	 1.376603839868557e+00	 6.274579520551947e+00
 7.257734257371627e-01	 1.393787143848190e+00	 5.979634946453887e+00
 6.934137300872991e-01	 1.410165679786422e+00	 5.709631567819891e+00
 6.608100095329461e-01	 1.425734946630075e+00	 5.458343795083220e+00
 6.007359263015425e-01	 1.296121716478273e+00	 4.643954680666760e+00
 5.709031156054668e-01	 1.309536138283946e+00	 4.210202773366537e+00
 5.409016840174559e-01	 1.322210539589158e+00	 3.828778751469223e+00
 5.107579795224065e-01	 1.334144548227396e+00	 3.494169067511925e+00
 4.804981001069039e-01	 1.345338983143447e+00	 3.200559670029765e+00
 4.501478303406600e-01	 1.355795824583440e+00	 2.941892028260678e+00
 4.197325810045943e-01	 1.365518180538823e+00	 2.711918839439898e+00
 3.892773319946376e-01	 1.374510249756393e+00	 2.504258940078177e+00
 3.588065786973464e-01	 1.382777281639109e+00	 2.312450972295716e+00
 3.283442820000870e-01	 1.390325533371589e+00	 2.130005390172618e+00
 2.979138220653007e-01	 1.397162224609720e+00	 1.950454428442040e+00
 6.067433514445451e-01	 1.309083075784400e+00	 4.685229225510760e+00
 5.766122093700309e-01	 1.322631643279299e+00	 4.290145608870558e+00
 5.463107601761639e-01	 1.335432789987598e+00	 3.941132807063219e+00
 5.158656153305731e-01	 1.347486140021065e+00	 3.632852589103435e+00
 4.853031338025660e-01	 1.358792520514021e+00	 3.359705345024808e+00
 4.546493580103738e-01	 1.369353931515262e+00	 3.115883566910460e+00
 4.239299528455069e-01	 1.379173512096489e+00	 2.895424854433554e+00
 3.931701480055894e-01	 1.388255502992416e+00	 2.692263996131413e+00
 3.623946838337248e-01	 1.396605206100602e+00	 2.500283707200162e+00
 3.316277608287758e-01	 1.404228941178191e+00	 2.313363638000972e+00
 3.008929929573673e-01	 1.411134000078413e+00	 2.125427304015620e+00
 6.127507653738173e-01	 1.322044410896074e+00	 4.736697100263102e+00
 5.823212924777392e-01	 1.335727123829746e+00	 4.375595127371424e+00
 5.517198262380341e-01	 1.348655015704478e+00	 4.054316951332115e+00
 5.209732416045715e-01	 1.360827706910340e+00	 3.767850108372930e+00
 4.901081585288934e-01	 1.372246032771167e+00	 3.510959146885806e+00
 4.591508772772688e-01	 1.382912013138390e+00	 3.278235412327137e+00
 4.281273168513232e-01	 1.392828818163903e+00	 3.064146254734508e+00
 3.970629567499076e-01	 1.402000730570267e+00	 2.863083247640767e+00
 3.659827822722146e-01	 1.410433104749542e+00	 2.669409035552782e+00
 3.349112335281559e-01	 1.418132323031283e+00	 2.477502459002071e+00
 3.038721582881034e-01	 1.425105749465931e+00	 2.281801640786909e+00
 6.187581708928535e-01	 1.335005727861969e+00	 4.797848896782194e+00
 5.880303675928579e-01	 1.348822586046562e+00	 4.466120997038090e+00
 5.571288847273168e-01	 1.361877222910231e+00	 4.167991507108117e+00
 5.260808607279712e-01	 1.374169255121346e+00	 3.898919998083313e+00
 4.949131765282329e-01	 1.385699526193252e+00	 3.654180741696295e+00
 4.636523902420471e-01	 1.396470075779993e+00	 3.428907664033288e+00
 4.323246749808004e-01	 1.406484105113612e+00	 3.218138675305354e+00
 4.009557600442210e-01	 1.415745938904460e+00	 3.016859009642711e+00
 3.695708756872477e-01	 1.424260984039027e+00	 2.820043235052703e+00
 3.381947016305064e-01	 1.432035685419194e+00	 2.622695622869575e+00
 3.068513194477885e-01	 1.439077479292515e+00	 2.419888597633911e+00
 6.247655708051463e-01	 1.347967032730759e+00	 4.868195721105123e+00
 5.937394373796542e-01	 1.361918036041030e+00	 4.561310297379853e+00
 5.625379381682628e-01	 1.375099417775286e+00	 4.281830661708849e+00
 5.311884750843425e-01	 1.387510790880210e+00	 4.025830665429965e+00
 4.997181900429311e-01	 1.399153007058650e+00	 3.789235876320712e+00
 4.681538990054125e-01	 1.410028125767245e+00	 3.567862582798605e+00
 4.365220291926969e-01	 1.420139379318163e+00	 3.357456182135286e+00
 4.048485597051587e-01	 1.429491134409507e+00	 3.153728639372533e+00
 3.731589657532560e-01	 1.438088850422154e+00	 2.952394726560509e+00
 3.414781666681058e-01	 1.445939034830253e+00	 2.749206777421971e+00
 3.098304778267026e-01	 1.453049196078406e+00	 2.539987720063902e+00
 6.307729679141899e-01	 1.360928331551119e+00	 4.947268215707153e+00
 5.994485045023934e-01	 1.375013479924427e+00	 4.660766689741315e+00
 5.679469890851232e-01	 1.388321606470075e+00	 4.395521806828746e+00
 5.362960870572546e-01	 1.400852320413059e+00	 4.148360074809334e+00
 5.045232013153351e-01	 1.412606481645730e+00	 3.915996089912436e+00
 4.726554056680674e-01	 1.423586169427317e+00	 3.695064489217789e+00
 4.407193814457706e-01	 1.433794647150102e+00	 3.482151348808570e+00
 4.087413575493499e-01	 1.443236323499923e+00	 3.273824774479211e+00
 3.767470541446711e-01	 1.451916710352021e+00	 3.066664450535729e+00
 3.447616301732327e-01	 1.459842377752788e+00	 2.857289932947837e+00
 3.128096348151254e-01	 1.467020906343844e+00	 2.642387495491632e+00
 6.367803650234780e-01	 1.373889630371725e+00	 5.034615637158876e+00
 6.051575716253430e-01	 1.388108923808035e+00	 4.764109634796620e+00
 5.733560400021477e-01	 1.401543795165028e+00	 4.508764915831597e+00
 5.414036990302774e-01	 1.414193849946018e+00	 4.266295297629365e+00
 5.093282125877912e-01	 1.426059956232863e+00	 4.034338441770573e+00
 4.771569123307149e-01	 1.437144213087382e+00	 3.810479668038694e+00
 4.449167336987791e-01	 1.447449914981977e+00	 3.592275328737702e+00
 4.126341553934238e-01	 1.456981512590223e+00	 3.377275557750318e+00
 3.803351425359250e-01	 1.465744570281728e+00	 3.163046222150070e+00
 3.480450936781660e-01	 1.473745720675131e+00	 2.947189919114249e+00
 3.157887918033364e-01	 1.480992616609070e+00	 2.727365877062919e+00
 6.427877649365041e-01	 1.386850935241248e+00	 5.129804985555017e+00
 6.108666414127693e-01	 1.401204373803133e+00	 4.870973653965470e+00
 5.787650934435871e-01	 1.414765990030577e+00	 4.621271955997567e+00
 5.465113133869809e-01	 1.427535385705215e+00	 4.379432087390308e+00
 5.141332261026464e-01	 1.439513437098417e+00	 4.144145254474562e+00
 4.816584210940583e-01	 1.450702263074612e+00	 3.914076277863771e+00
 4.491140879104806e-01	 1.461105189186332e+00	 3.687877923347777e+00
 4.165269550540095e-01	 1.470726708094918e+00	 3.464204849226626e+00
 3.839232326014494e-01	 1.479572436664371e+00	 3.241727066475175e+00
 3.513285587151840e-01	 1.487649070085608e+00	 3.019142816235331e+00
 3.187679501816154e-01	 1.494964333394326e+00	 2.795190778081303e+00
 6.487951704567616e-01	 1.399812252208365e+00	 5.232420182354380e+00
 6.165757165289388e-01	 1.414299836021000e+00	 4.981007631903694e+00
 5.841741519336923e-01	 1.427988197237152e+00	 4.732766333455786e+00
 5.516189325109340e-01	 1.440876933916775e+00	 4.487574478398159e+00
 5.189382441022474e-01	 1.452966930520765e+00	 4.245303871305353e+00
 4.861599340587998e-01	 1.464260325716178e+00	 4.005824265876851e+00
 4.533114460396329e-01	 1.474760476135716e+00	 3.769007646472052e+00
 4.204197583477361e-01	 1.484471916428524e+00	 3.534732426526809e+00
 3.875113260156759e-01	 1.493400315953048e+00	 3.302887535035184e+00
 3.546120268165657e-01	 1.501552432472550e+00	 3.073376362563631e+00
 3.217471113402418e-01	 1.508936063219851e+00	 2.846120538946112e+00
 6.548025843877445e-01	 1.412773587321749e+00	 5.342061293521351e+00
 6.222847996381184e-01	 1.427395316572917e+00	 5.093874157424949e+00
 5.895832179967134e-01	 1.441210422955183e+00	 4.842982368702087e+00
 5.567265587857072e-01	 1.454218500806824e+00	 4.590534406589220e+00
 5.237432688289408e-01	 1.466420442778276e+00	 4.337706427036348e+00
 4.906614533256430e-01	 1.477818407339254e+00	 4.085695287271255e+00
 4.575088100449941e-01	 1.488415782202676e+00	 3.835711785204487e+00
 4.243125670912327e-01	 1.498217144005554e+00	 3.588974174138673e+00
 3.910994244530369e-01	 1.507228214600860e+00	 3.346702004922536e+00
 3.578954995145898e-01	 1.515455814324286e+00	 3.110110339145329e+00
 3.247262766694958e-01	 1.522907812605887e+00	 2.880404368368295e+00
 6.608100095329461e-01	 1.425734946630075e+00	 5.458343795083223e+00
 6.279938934045742e-01	 1.440490821570162e+00	 5.209248900409563e+00
 5.949922941569017e-01	 1.454432673355103e+00	 4.951664800754108e+00
 5.618341945948699e-01	 1.467560092601490e+00	 4.688131351060486e+00
 5.285483025250735e-01	 1.479873980149320e+00	 4.421249631240537e+00
 4.951629809952906e-01	 1.491376514271011e+00	 4.153662629081241e+00
 4.617061818853219e-01	 1.502071113759757e+00	 3.888036457433653e+00
 4.282053831011286e-01	 1.511962397240521e+00	 3.627042262380606e+00
 3.946875295879637e-01	 1.521056139060901e+00	 3.373338961588493e+00
 3.611789783415348e-01	 1.529359222129144e+00	 3.129556933669022e+00
 3.277054475596566e-01	 1.536879588072675e+00	 2.898282760501998e+00
 2.979138220653007e-01	 1.397162224609720e+00	 1.950454428442030e+00
 2.675358372207115e-01	 1.403295895093266e+00	 1.770431538780243e+00
 2.372345848256142e-01	 1.408735044443937e+00	 1.594716293543644e+00
 2.070314979173397e-01	 1.413489491465140e+00	 1.428975022760633e+00
 1.769472809086950e-01	 1.417569818919275e+00	 1.278720919478066e+00
 1.470018830136218e-01	 1.420987321018450e+00	 1.149279366252919e+00
 1.172144755749144e-01	 1.423753950460095e+00	 1.045756672851178e+00
 8.760343321972207e-02	 1.425882265302377e+00	 9.730122822001723e-01
 5.818631874669211e-02	 1.427385375958748e+00	 9.356344613631982e-01
 2.897987162897944e-02	 1.428276892573984e+00	 9.379194569721916e-01
 0.000000000000000e+00	 1.428570873025926e+00	 9.838540604605763e-01
 3.008929929573673e-01	 1.411134000078413e+00	 2.125427304015620e+00
 2.702112249327637e-01	 1.417329007939364e+00	 1.933988852443305e+00
 2.396069566905304e-01	 1.422822549379909e+00	 1.745257377305532e+00
 2.091018356007427e-01	 1.427624541392580e+00	 1.566108665673955e+00
 1.787167731226268e-01	 1.431745672568571e+00	 1.403235272780056e+00
 1.484719179644715e-01	 1.435197350063360e+00	 1.263104220101640e+00
 1.183866331846205e-01	 1.437991646102674e+00	 1.151918811521632e+00
 8.847947715852815e-02	 1.440141244326646e+00	 1.075584641078017e+00
 5.876818831477241e-02	 1.441659386254313e+00	 1.039679817024526e+00
 2.926967352309260e-02	 1.442559818133399e+00	 1.049429381606398e+00
 0.000000000000000e+00	 1.442856738422074e+00	 1.109683864488896e+00
 3.038721582881034e-01	 1.425105749465931e+00	 2.281801640786909e+00
 2.728866076504773e-01	 1.431362094589756e+00	 2.080710207551459e+00
 2.419793241266670e-01	 1.436910028018619e+00	 1.881526638152324e+00
 2.111721694191012e-01	 1.441759564933991e+00	 1.691934293041913e+00
 1.804862620330458e-01	 1.445921499755662e+00	 1.519409776262890e+00
 1.499419501707722e-01	 1.449407352582267e+00	 1.371175467365635e+00
 1.195587886058231e-01	 1.452229315167604e+00	 1.254156679289729e+00
 8.935551946162196e-02	 1.454400196733541e+00	 1.174943525087572e+00
 5.935005679635611e-02	 1.455933369904449e+00	 1.139757521597632e+00
 2.955947487604350e-02	 1.456842717030745e+00	 1.154422907294237e+00
 0.000000000000000e+00	 1.457142577150667e+00	 1.224342604965904e+00
 3.068513194477885e-01	 1.439077479292515e+00	 2.419888597633911e+00
 2.755619866223831e-01	 1.445395161593315e+00	 2.210912706746939e+00
 2.443516882411685e-01	 1.450997486934333e+00	 2.003814509102221e+00
 2.132425003386314e-01	 1.455894568685836e+00	 1.806694668533379e+00
 1.822557484657930e-01	 1.460097307096061e+00	 1.627429945771590e+00
 1.514119803186323e-01	 1.463617335206642e+00	 1.473622987249900e+00
 1.207309423856277e-01	 1.466466964299278e+00	 1.352557051931924e+00
 9.023156053791902e-02	 1.468659129177393e+00	 1.271155761369630e+00
 5.993192446306135e-02	 1.470207333570505e+00	 1.235947899971938e+00
 2.984927582312111e-02	 1.471125595931537e+00	 1.253037238407243e+00
 0.000000000000000e+00	 1.471428395878593e+00	 1.328077303611742e+00
 3.098304778267026e-01	 1.453049196078406e+00	 2.539987720063902e+00
 2.782373630970130e-01	 1.459428215498915e+00	 2.324901557641176e+00
 2.467240501411798e-01	 1.465084932701314e+00	 2.112400502114786e+00
 2.153128293255497e-01	 1.470029559244577e+00	 1.910623418739833e+00
 1.840252332467091e-01	 1.474273101205284e+00	 1.727474315802764e+00
 1.528820090941602e-01	 1.477827304567958e+00	 1.570571775690945e+00
 1.219030950711398e-01	 1.480704600142087e+00	 1.447203443234974e+00
 9.110760079633477e-02	 1.482918048312530e+00	 1.364285651904140e+00
 6.051379158650618e-02	 1.484481283913834e+00	 1.328328209241217e+00
 3.013907649961434e-02	 1.485408461501292e+00	 1.345404308052101e+00
 0.000000000000000e+00	 1.485714201272741e+00	 1.421125479730031e+00
 3.128096348151254e-01	 1.467020906343844e+00	 2.642387495491632e+00
 2.809127383228978e-01	 1.473461262855427e+00	 2.422970641270709e+00
 2.490964109338452e-01	 1.479172371893830e+00	 2.207553729829097e+00
 2.173831573460730e-01	 1.484164543206676e+00	 2.003945469572173e+00
 1.857947172016352e-01	 1.488448888698843e+00	 1.819714772856386e+00
 1.543520371834640e-01	 1.492037267297686e+00	 1.662142178456753e+00
 1.230752472094646e-01	 1.494942229340423e+00	 1.538176260646270e+00
 9.198364064578483e-02	 1.497176960793287e+00	 1.454395093969672e+00
 6.109565843830880e-02	 1.498755227595788e+00	 1.416972785086980e+00
 3.042887704081213e-02	 1.499691320405524e+00	 1.431651029694849e+00
 0.000000000000000e+00	 1.500000000000000e+00	 1.503715603899216e+00
 3.157887918033364e-01	 1.480992616609070e+00	 2.727365877062919e+00
 2.835881135485694e-01	 1.487494310211727e+00	 2.505403048351250e+00
 2.514687717263093e-01	 1.493259811086144e+00	 2.289533397746378e+00
 2.194534853664175e-01	 1.498299527168598e+00	 2.086877457935477e+00
 1.875642011564121e-01	 1.502624676192253e+00	 1.904316869903057e+00
 1.558220652726521e-01	 1.506247230027299e+00	 1.748450111042497e+00
 1.242473993477078e-01	 1.509179858538677e+00	 1.625552952106339e+00
 9.285968049518474e-02	 1.511435873273994e+00	 1.541543693779594e+00
 6.167752529008724e-02	 1.513029171277717e+00	 1.501953179869389e+00
 3.071867758200346e-02	 1.513974179309750e+00	 1.511899534530229e+00
 0.000000000000000e+00	 1.514285798727260e+00	 1.576067525961065e+00
 3.187679501816154e-01	 1.494964333394326e+00	 2.795190778081303e+00
 2.862634900225589e-01	 1.501527364116686e+00	 2.572471585437411e+00
 2.538411336257165e-01	 1.507347256852522e+00	 2.358589268791364e+00
 2.215238143527998e-01	 1.512434517726803e+00	 2.159628120301607e+00
 1.893336859368808e-01	 1.516800470301028e+00	 1.981440123204270e+00
 1.572920940478327e-01	 1.520457199388267e+00	 1.829607266226012e+00
 1.254195520329748e-01	 1.523417494381241e+00	 1.709408144641995e+00
 9.373572075344996e-02	 1.525694792408982e+00	 1.625788873740527e+00
 6.225939241345967e-02	 1.527303121620974e+00	 1.583338292968723e+00
 3.100847825847722e-02	 1.528257044879485e+00	 1.586267395529724e+00
 0.000000000000000e+00	 1.528571604121408e+00	 1.638392878989496e+00
 3.217471113402418e-01	 1.508936063219851e+00	 2.846120538946112e+00
 2.889388689933977e-01	 1.515560431119178e+00	 2.624439252940984e+00
 2.562134977392116e-01	 1.521434715767229e+00	 2.414962102044519e+00
 2.235941452714363e-01	 1.526569521477754e+00	 2.222398659677516e+00
 1.911031723688823e-01	 1.530976277640682e+00	 2.051238292629904e+00
 1.587621241951142e-01	 1.534667182012064e+00	 1.905721310082862e+00
 1.265917058123708e-01	 1.537655143512507e+00	 1.789813775254103e+00
 9.461176182949604e-02	 1.539953724852582e+00	 1.707185973748491e+00
 6.284126008004413e-02	 1.541577085286909e+00	 1.661194493879289e+00
 3.129827920552237e-02	 1.542539923780245e+00	 1.654867839032212e+00
 0.000000000000000e+00	 1.542857422849333e+00	 1.690895460797522e+00
 3.247262766694958e-01	 1.522907812605887e+00	 2.880404368368290e+00
 2.916142517096169e-01	 1.529593517768076e+00	 2.661559696815841e+00
 2.585858651739391e-01	 1.535522194404530e+00	 2.458884067305636e+00
 2.256644790885433e-01	 1.540704545017914e+00	 2.275383092357551e+00
 1.928726612782574e-01	 1.545152104826729e+00	 2.113859646533058e+00
 1.602321564006049e-01	 1.548877184530161e+00	 1.976896067204472e+00
 1.277638612330015e-01	 1.551892812576865e+00	 1.866839214594840e+00
 9.548780413223854e-02	 1.554212677259125e+00	 1.785788346903993e+00
 6.342312856145879e-02	 1.555851068936875e+00	 1.735585738523146e+00
 3.158808055842786e-02	 1.556822822677546e+00	 1.717809944677285e+00
 0.000000000000000e+00	 1.557143261577926e+00	 1.733771594426839e+00
 3.277054475596566e-01	 1.536879588072675e+00	 2.898282760501996e+00
 2.942896394197481e-01	 1.543626630612252e+00	 2.684077635587045e+00
 2.609582370370435e-01	 1.549609699338690e+00	 2.490579137027487e+00
 2.277348167703377e-01	 1.554839594943745e+00	 2.318768575748182e+00
 1.946421534908471e-01	 1.559327958474682e+00	 2.169447212167336e+00
 1.617021913504131e-01	 1.563087213574030e+00	 2.043231695805658e+00
 1.289360188419721e-01	 1.566130508218708e+00	 1.940551383894654e+00
 9.636384807059289e-02	 1.568471656282942e+00	 1.861647450003472e+00
 6.400499812932171e-02	 1.570125079232223e+00	 1.806573679213614e+00
 3.187788245248261e-02	 1.571105748236902e+00	 1.775198834425249e+00
 0.000000000000000e+00	 1.571429126974074e+00	 1.767210468957544e+00
 1.571429126974074e+00	 0.000000000000000e+00	 1.297652162533115e+01
 1.571105748236902e+00	 3.187788245248305e-02	 1.298146094913471e+01
 1.570125079232222e+00	 6.400499812932213e-02	 1.297931449926499e+01
 1.568471656282942e+00	 9.636384807059326e-02	 1.297121582963527e+01
 1.566130508218708e+00	 1.289360188419724e-01	 1.295806144020105e+01
 1.563087213574030e+00	 1.617021913504133e-01	 1.294049674286414e+01
 1.559327958474683e+00	 1.946421534908473e-01	 1.291890334536920e+01
 1.554839594943744e+00	 2.277348167703377e-01	 1.289338783685863e+01
 1.549609699338691e+00	 2.609582370370436e-01	 1.286377225253502e+01
 1.543626630612252e+00	 2.942896394197481e-01	 1.282958638584438e+01
 1.536879588072675e+00	 3.277054475596566e-01	 1.279006210468893e+01
 1.585715024037928e+00	 0.000000000000000e+00	 1.290835389414674e+01
 1.585388705457436e+00	 3.216768498914990e-02	 1.291412227505081e+01
 1.584399121168951e+00	 6.458686898734099e-02	 1.291350895253162e+01
 1.582730666914771e+00	 9.723989395123972e-02	 1.290739794772029e+01
 1.580368235421320e+00	 1.301081790496063e-01	 1.289643020030825e+01
 1.577297274117268e+00	 1.631722295591160e-01	 1.288099129147298e+01
 1.573503843546176e+00	 1.964116496260304e-01	 1.286120064025679e+01
 1.568974676202594e+00	 2.298051590414821e-01	 1.283690235043470e+01
 1.563697235500412e+00	 2.633306141588864e-01	 1.280765787647423e+01
 1.557659774563367e+00	 2.969650330601948e-01	 1.277274066586675e+01
 1.550851394510401e+00	 3.306846250534405e-01	 1.273113292088104e+01
 1.600000951102682e+00	 0.000000000000000e+00	 1.284440378349326e+01
 1.599671692672685e+00	 3.245748813458729e-02	 1.285141499775096e+01
 1.598673193081649e+00	 6.516874106758157e-02	 1.285250899725209e+01
 1.596989707490964e+00	 9.811594167191688e-02	 1.284835880571145e+01
 1.594605992523555e+00	 1.312803417190980e-01	 1.283939245258975e+01
 1.591507364501976e+00	 1.646422708551649e-01	 1.282578237581941e+01
 1.587679758387314e+00	 1.981811494773362e-01	 1.280743641849772e+01
 1.583109787145346e+00	 2.318755056604247e-01	 1.278399058851297e+01
 1.577784801246143e+00	 2.657029962626958e-01	 1.275480373969522e+01
 1.571692947984227e+00	 2.996404323188487e-01	 1.271895431978989e+01
 1.564823230289037e+00	 3.336638088033086e-01	 1.267523931434922e+01
 1.614286904834791e+00	 0.000000000000000e+00	 1.278457740637107e+01
 1.613954706549798e+00	 3.274729182112748e-02	 1.279318441842251e+01
 1.612947291639554e+00	 6.575061423419915e-02	 1.279611467927232e+01
 1.611248774684285e+00	 9.899199102812814e-02	 1.279386761971200e+01
 1.608843776203160e+00	 1.324525065768599e-01	 1.278669980178783e+01
 1.605717481412379e+00	 1.661123148954807e-01	 1.277461592549759e+01
 1.601855699690321e+00	 1.999506526318325e-01	 1.275736151552371e+01
 1.597244924473770e+00	 2.339458561440600e-01	 1.273441744747300e+01
 1.591872393288765e+00	 2.680753827949168e-01	 1.270499646105445e+01
 1.585726147600425e+00	 3.023158365714738e-01	 1.266804179267212e+01
 1.578795092148498e+00	 3.366429981141584e-01	 1.262222804208107e+01
 1.628572881900711e+00	 0.000000000000000e+00	 1.272878416434111e+01
 1.628237743755919e+00	 3.303709598110283e-02	 1.273928139926387e+01
 1.627221413511901e+00	 6.633248835134901e-02	 1.274413333312733e+01
 1.625507865167491e+00	 9.986804181537659e-02	 1.274370211671031e+01
 1.623081583137882e+00	 1.336246733493043e-01	 1.273811312219718e+01
 1.619927621532703e+00	 1.675823613369837e-01	 1.272724747936216e+01
 1.616031664147422e+00	 2.017201586765867e-01	 1.271073634389594e+01
 1.611380084889633e+00	 2.360162100092826e-01	 1.268795704644297e+01
 1.605960008341164e+00	 2.704477732019947e-01	 1.265803125748323e+01
 1.599759370137554e+00	 3.049912451938342e-01	 1.261982528688520e+01
 1.592766976828704e+00	 3.396221922908876e-01	 1.257195261784337e+01
 1.642858878966899e+00	 0.000000000000000e+00	 1.267693660472730e+01
 1.642520800958195e+00	 3.332690054684562e-02	 1.268956212192499e+01
 1.641495555367929e+00	 6.691436328318649e-02	 1.269637926538802e+01
 1.639766975613346e+00	 1.007440938291657e-01	 1.269764816479551e+01
 1.637319410005468e+00	 1.347968417628436e-01	 1.269340215489058e+01
 1.634137781547173e+00	 1.690524098365947e-01	 1.268344176796951e+01
 1.630207648450840e+00	 2.034896671986659e-01	 1.266733047712215e+01
 1.625515265094705e+00	 2.380865667729873e-01	 1.264439232649989e+01
 1.620047643116225e+00	 2.728201669303749e-01	 1.261371157032297e+01
 1.613792612321206e+00	 3.076666575616935e-01	 1.257413442498322e+01
 1.606738881069569e+00	 3.426013906383932e-01	 1.252427301853891e+01
 1.657144892699808e+00	 0.000000000000000e+00	 1.262895028520080e+01
 1.656803874823768e+00	 3.361670545068816e-02	 1.264388785843454e+01
 1.655769713876872e+00	 6.749623889386683e-02	 1.265267345437647e+01
 1.654026102694607e+00	 1.016201468649986e-01	 1.265549942248783e+01
 1.651557253483665e+00	 1.359690115438903e-01	 1.265234512576388e+01
 1.648347958140016e+00	 1.705224600512339e-01	 1.264297231760230e+01
 1.644383649292800e+00	 2.052591777851378e-01	 1.262692225498549e+01
 1.639650461790754e+00	 2.401569259520683e-01	 1.260351467058590e+01
 1.634135294326828e+00	 2.751925634265019e-01	 1.257184871097316e+01
 1.627825870876976e+00	 3.103420730508160e-01	 1.253080592999552e+01
 1.620710801611011e+00	 3.455805924615732e-01	 1.247905540573866e+01
 1.671430919765895e+00	 0.000000000000000e+00	 1.258474364530484e+01
 1.671086962019786e+00	 3.390651062496277e-02	 1.260212475386765e+01
 1.670043885707968e+00	 6.807811504754545e-02	 1.261284326527099e+01
 1.668285243084035e+00	 1.024962007183786e-01	 1.261705700604072e+01
 1.665795110250220e+00	 1.371411824188566e-01	 1.261472838315597e+01
 1.662558147995456e+00	 1.719925116378220e-01	 1.260562107458704e+01
 1.658559663365526e+00	 2.070286900230698e-01	 1.258929840909883e+01
 1.653785671679549e+00	 2.422272870634203e-01	 1.256512354290201e+01
 1.648222958685861e+00	 2.775649621368212e-01	 1.253226152469762e+01
 1.641859142530455e+00	 3.130174910369654e-01	 1.248968332210117e+01
 1.634682735192946e+00	 3.485597970653249e-01	 1.243617186148154e+01
 1.685716956831615e+00	 0.000000000000000e+00	 1.254423788450862e+01
 1.685370059213394e+00	 3.419631600200176e-02	 1.256414362005780e+01
 1.684318067530453e+00	 6.865999160837752e-02	 1.257672217968841e+01
 1.682544393454392e+00	 1.033722551848091e-01	 1.258212917364897e+01
 1.680032976982881e+00	 1.383133541141549e-01	 1.258034605388264e+01
 1.676768347797721e+00	 1.734625642532795e-01	 1.257117804870105e+01
 1.672735687361242e+00	 2.087982034995292e-01	 1.255425370748547e+01
 1.667920891462859e+00	 2.442976496239379e-01	 1.252902614662426e+01
 1.662310632906206e+00	 2.799373625077780e-01	 1.249477607151205e+01
 1.655892424007237e+00	 3.156929108959058e-01	 1.245061663071439e+01
 1.648654678555294e+00	 3.515390037545457e-01	 1.239550013749631e+01
 1.700003000563425e+00	 0.000000000000000e+00	 1.250735684640629e+01
 1.699653163071738e+00	 3.448612151413742e-02	 1.252981973970370e+01
 1.698592256013564e+00	 6.924186844051838e-02	 1.254414953889261e+01
 1.696803550478436e+00	 1.042483100597932e-01	 1.255053102556923e+01
 1.694270850359394e+00	 1.394855263561977e-01	 1.254899971660203e+01
 1.690978554231035e+00	 1.749326175545268e-01	 1.253944097454696e+01
 1.686911717972173e+00	 2.105677178015834e-01	 1.252159061706756e+01
 1.682056117842452e+00	 2.463680131505156e-01	 1.249503709886529e+01
 1.676398313700747e+00	 2.823097639858172e-01	 1.245922532314878e+01
 1.669925712032915e+00	 3.183683320034011e-01	 1.241346212107439e+01
 1.662626628437969e+00	 3.545182118341332e-01	 1.235692341705591e+01
 1.714289047627778e+00	 0.000000000000000e+00	 1.247402690870293e+01
 1.713936270261961e+00	 3.477592709370207e-02	 1.249903268026500e+01
 1.712866447826537e+00	 6.982374540812339e-02	 1.251497029983474e+01
 1.711062710828929e+00	 1.051243651388343e-01	 1.252208421922483e+01
 1.708508727057505e+00	 1.406576988713972e-01	 1.252049809150128e+01
 1.705188763979623e+00	 1.764026711984846e-01	 1.251021498984712e+01
 1.701087751890541e+00	 2.123372325163000e-01	 1.249111898301821e+01
 1.696191347520097e+00	 2.484383771600481e-01	 1.246297812187595e+01
 1.690485997782368e+00	 2.846821660173839e-01	 1.242544887516155e+01
 1.683959003333080e+00	 3.210437537352151e-01	 1.237808203449438e+01
 1.676598581580888e+00	 3.574974206089848e-01	 1.232033008872837e+01
 1.536879588072675e+00	 3.277054475596566e-01	 1.279006210468893e+01
 1.529359222129145e+00	 3.611789783415347e-01	 1.274264364706706e+01
 1.521056139060902e+00	 3.946875295879635e-01	 1.268647873009847e+01
 1.511962397240521e+00	 4.282053831011283e-01	 1.262334463280799e+01
 1.502071113759757e+00	 4.617061818853215e-01	 1.255529949405025e+01
 1.491376514271011e+00	 4.951629809952903e-01	 1.248468668259250e+01
 1.479873980149320e+00	 5.285483025250732e-01	 1.241413706220298e+01
 1.467560092601489e+00	 5.618341945948696e-01	 1.234656896810940e+01
 1.454432673355103e+00	 5.949922941569014e-01	 1.228518572559809e+01
 1.440490821570163e+00	 6.279938934045739e-01	 1.223347055975387e+01
 1.425734946630075e+00	 6.608100095329462e-01	 1.219517876738812e+01
 1.550851394510401e+00	 3.306846250534405e-01	 1.273113292088104e+01
 1.543262660753379e+00	 3.644624644466162e-01	 1.268124971024369e+01
 1.534884094173004e+00	 3.982756426762859e-01	 1.262343651256960e+01
 1.525707680944315e+00	 4.320982077398996e-01	 1.255955794946812e+01
 1.515726475586372e+00	 4.659035630296869e-01	 1.249174455018585e+01
 1.504934651256828e+00	 4.996645186432699e-01	 1.242239599966451e+01
 1.493327547342673e+00	 5.333533468724031e-01	 1.235418234746966e+01
 1.480901713970360e+00	 5.669418417260944e-01	 1.229004300566957e+01
 1.467654953064725e+00	 6.004013823074373e-01	 1.223318337790478e+01
 1.453586355596186e+00	 6.337029998264971e-01	 1.218706897972310e+01
 1.438696334669837e+00	 6.668174479949772e-01	 1.215541693175349e+01
 1.564823230289037e+00	 3.336638088033086e-01	 1.267523931434922e+01
 1.557166128574940e+00	 3.677459574467969e-01	 1.262301297656423e+01
 1.548712078323922e+00	 4.018637632994254e-01	 1.256372448732502e+01
 1.539452993513331e+00	 4.359910405534110e-01	 1.249929649345501e+01
 1.529381866089396e+00	 4.701009529884128e-01	 1.243189963938917e+01
 1.518492816714911e+00	 5.041660657444060e-01	 1.236395481636200e+01
 1.506781142788726e+00	 5.381584013103312e-01	 1.229813346697978e+01
 1.494243363356876e+00	 5.720494995834654e-01	 1.223735578498918e+01
 1.480877260541402e+00	 6.058104818172241e-01	 1.218478666364657e+01
 1.466681917123116e+00	 6.394121182377791e-01	 1.214382926319225e+01
 1.451657749928804e+00	 6.728248990729171e-01	 1.211811608853431e+01
 1.578795092148498e+00	 3.366429981141584e-01	 1.262222804208107e+01
 1.571069622349703e+00	 3.710294565759766e-01	 1.256780890046132e+01
 1.562540088287140e+00	 4.054518906202006e-01	 1.250723666980549e+01
 1.553198331740336e+00	 4.398838806333745e-01	 1.244246344303290e+01
 1.543037282082569e+00	 4.742983507821346e-01	 1.237566849297025e+01
 1.532051007481672e+00	 5.086676212483482e-01	 1.230925964412960e+01
 1.520234763348278e+00	 5.429634647176710e-01	 1.224587282267171e+01
 1.507585037647940e+00	 5.771571669751688e-01	 1.218836963611719e+01
 1.494099592699866e+00	 6.112195914240948e-01	 1.213983284707128e+01
 1.479777503095249e+00	 6.451212473062344e-01	 1.210355962125668e+01
 1.464619189382567e+00	 6.788323613649613e-01	 1.208305244950626e+01
 1.592766976828704e+00	 3.396221922908876e-01	 1.257195261784337e+01
 1.584973138833540e+00	 3.743129610680547e-01	 1.251551881659677e+01
 1.576368120836146e+00	 4.090400238014308e-01	 1.245387243145104e+01
 1.566943692418100e+00	 4.437767270715023e-01	 1.238896713410056e+01
 1.556692720379632e+00	 4.784957554314885e-01	 1.232296009916249e+01
 1.545609220393526e+00	 5.131691841047462e-01	 1.225821261837239e+01
 1.533688405882126e+00	 5.477685359732344e-01	 1.219728904370638e+01
 1.520926733730455e+00	 5.822648427093915e-01	 1.214295392276070e+01
 1.507321946454855e+00	 6.166287098658830e-01	 1.209816720121472e+01
 1.492873110456881e+00	 6.508303856996788e-01	 1.206607738183064e+01
 1.477580650006715e+00	 6.848398334693059e-01	 1.205001254721488e+01
 1.606738881069569e+00	 3.426013906383932e-01	 1.252427301853891e+01
 1.598876674782327e+00	 3.775964701569309e-01	 1.246602968432549e+01
 1.590196172744423e+00	 4.126281620059348e-01	 1.240353626696144e+01
 1.580689072339393e+00	 4.476695789595059e-01	 1.233872083608668e+01
 1.570348177794325e+00	 4.826931659571098e-01	 1.227368847471594e+01
 1.559167452286884e+00	 5.176707532632487e-01	 1.221072125410803e+01
 1.547142067251067e+00	 5.525736139558342e-01	 1.215227671590806e+01
 1.534268448491324e+00	 5.873725255943198e-01	 1.210098473667831e+01
 1.520544318721103e+00	 6.220378358804218e-01	 1.205964265990703e+01
 1.505968736152310e+00	 6.565395320859273e-01	 1.203120859348095e+01
 1.490542128776837e+00	 6.908473139841474e-01	 1.201879278645560e+01
 1.620710801611011e+00	 3.455805924615732e-01	 1.247905540573866e+01
 1.612780226951937e+00	 3.808799830765046e-01	 1.241923384536396e+01
 1.604024240785459e+00	 4.162163043965318e-01	 1.235613757358244e+01
 1.594434468296982e+00	 4.515624353890975e-01	 1.229164253942420e+01
 1.584003651140387e+00	 4.868905813796344e-01	 1.222777244829148e+01
 1.572725699998159e+00	 5.221723276735052e-01	 1.216669821424383e+01
 1.560595744315899e+00	 5.573786975442835e-01	 1.211073612518446e+01
 1.547610178817450e+00	 5.924802144381413e-01	 1.206234460786418e+01
 1.533766706413343e+00	 6.274469682055448e-01	 1.202411948776093e+01
 1.519064377125835e+00	 6.622486851327958e-01	 1.199878764973239e+01
 1.503503622668521e+00	 6.968548015076813e-01	 1.198919901893149e+01
 1.634682735192946e+00	 3.485597970653249e-01	 1.243617186148154e+01
 1.626683792098246e+00	 3.841634990606757e-01	 1.237502879387412e+01
 1.617852321732738e+00	 4.198044501360408e-01	 1.231159044169892e+01
 1.608179877083639e+00	 4.554552954519889e-01	 1.224765475391151e+01
 1.597659137231561e+00	 4.910880007196983e-01	 1.218513545495063e+01
 1.586283960363763e+00	 5.266739062851653e-01	 1.212606108972361e+01
 1.574049433937420e+00	 5.621837856173943e-01	 1.207257301409037e+01
 1.560951921595736e+00	 5.975879080490416e-01	 1.202692222957896e+01
 1.546989106446313e+00	 6.328561055790852e-01	 1.199146496706641e+01
 1.532160030321749e+00	 6.679578435080992e-01	 1.196865693262077e+01
 1.516465128657361e+00	 7.028622946381038e-01	 1.196104613970317e+01
 1.648654678555294e+00	 3.515390037545457e-01	 1.239550013749631e+01
 1.640587366977126e+00	 3.874470173433434e-01	 1.233331695822626e+01
 1.631680412359747e+00	 4.233925983872808e-01	 1.226981345606441e+01
 1.621925295492131e+00	 4.593481582398919e-01	 1.220668431731469e+01
 1.611314632881585e+00	 4.952854229979368e-01	 1.214570534108272e+01
 1.599842230220112e+00	 5.311754880478783e-01	 1.208873219084061e+01
 1.587503132976426e+00	 5.669888770539796e-01	 1.203769835075557e+01
 1.574293673713085e+00	 6.026956052352079e-01	 1.199461219734678e+01
 1.560211515734747e+00	 6.382652467388765e-01	 1.196155310058952e+01
 1.545255692684351e+00	 6.736670058796529e-01	 1.194066647435235e+01
 1.529426643718942e+00	 7.088697919736108e-01	 1.193415770413854e+01
 1.662626628437969e+00	 3.545182118341332e-01	 1.235692341705591e+01
 1.654490948344454e+00	 3.907305371584074e-01	 1.229400549375448e+01
 1.645508509439972e+00	 4.269807483130709e-01	 1.223072950704170e+01
 1.635670720315228e+00	 4.632410228445187e-01	 1.216866221360910e+01
 1.624970134904200e+00	 4.994828472349860e-01	 1.210941417915621e+01
 1.613400506403614e+00	 5.356770719112931e-01	 1.205463834906006e+01
 1.600956838293715e+00	 5.717939707328521e-01	 1.200602810944997e+01
 1.587635432056398e+00	 6.078033048048268e-01	 1.196531476109782e+01
 1.573433931193380e+00	 6.436743904227519e-01	 1.193426432934033e+01
 1.558351361157939e+00	 6.793761709152729e-01	 1.191467363600531e+01
 1.542388164828857e+00	 7.148772921123988e-01	 1.190836556415716e+01
 1.676598581580888e+00	 3.574974206089848e-01	 1.232033008872837e+01
 1.668394532956103e+00	 3.940140577397678e-01	 1.225700608586371e+01
 1.659336609746896e+00	 4.305688990762300e-01	 1.219426561127091e+01
 1.649416148345699e+00	 4.671338883575807e-01	 1.213352340029798e+01
 1.638625640113148e+00	 5.036802724514817e-01	 1.207619809172111e+01
 1.626958785750686e+00	 5.401786568250593e-01	 1.202371072873878e+01
 1.614410546750085e+00	 5.765990655328240e-01	 1.197748306210772e+01
 1.600977193512580e+00	 6.129110055660848e-01	 1.193893558968961e+01
 1.586656349736946e+00	 6.490835353685447e-01	 1.190948526443722e+01
 1.571447032686810e+00	 6.850853372827735e-01	 1.189054280227943e+01
 1.555349688962692e+00	 7.208847936526629e-01	 1.188350952264465e+01
 1.425734946630075e+00	 6.608100095329462e-01	 1.219517876738812e+01
 1.410165679786421e+00	 6.934137300872995e-01	 1.215318435409025e+01
 1.393787143848190e+00	 7.257734257371631e-01	 1.208841894357110e+01
 1.376603839868557e+00	 7.578597209617606e-01	 1.200172490606265e+01
 1.358621663420585e+00	 7.896432714658930e-01	 1.189368979943486e+01
 1.339847912380150e+00	 8.210948457838531e-01	 1.176464768927554e+01
 1.320291289037849e+00	 8.521854080414092e-01	 1.161468238244322e+01
 1.299961896400895e+00	 8.828862014191952e-01	 1.144363254847273e+01
 1.278871228587822e+00	 9.131688318442138e-01	 1.125109868483782e+01
 1.257032155262793e+00	 9.430053514238217e-01	 1.103645186438236e+01
 1.234458900101805e+00	 9.723683411288404e-01	 1.082686072332132e+01
 1.438696334669837e+00	 6.668174479949772e-01	 1.215541693175349e+01
 1.422985527275958e+00	 6.997175696964119e-01	 1.211994590711316e+01
 1.406458093704091e+00	 7.323714480573985e-01	 1.206047432463729e+01
 1.389118575926604e+00	 7.647494405036754e-01	 1.197787666172152e+01
 1.370972923113356e+00	 7.968219359704288e-01	 1.187280140948302e+01
 1.352028499485387e+00	 8.285594372480739e-01	 1.174567275234378e+01
 1.332294086446027e+00	 8.599326444966284e-01	 1.159669392365022e+01
 1.311779878849165e+00	 8.909125394678691e-01	 1.142585220291368e+01
 1.290497475306639e+00	 9.214704699576771e-01	 1.123292550461951e+01
 1.268459862481026e+00	 9.515782339985250e-01	 1.101749049378404e+01
 1.245681393356093e+00	 9.812081632942572e-01	 1.078693375836416e+01
 1.451657749928804e+00	 6.728248990729171e-01	 1.211811608853431e+01
 1.435805401687458e+00	 7.060214225439064e-01	 1.208828588106427e+01
 1.419129070169253e+00	 7.389694842338115e-01	 1.203317690397872e+01
 1.401633338265831e+00	 7.716391745143251e-01	 1.195373879324989e+01
 1.383324208743967e+00	 8.040006155504626e-01	 1.185072967713641e+01
 1.364209112170008e+00	 8.360240443882061e-01	 1.172471795239506e+01
 1.344296909060183e+00	 8.676798972212709e-01	 1.157608544637520e+01
 1.323597886115254e+00	 8.989388943720311e-01	 1.140503192334316e+01
 1.302123746440581e+00	 9.297721255047077e-01	 1.121158088113729e+01
 1.279887593697410e+00	 9.601511345763568e-01	 1.099558657304864e+01
 1.256903910177548e+00	 9.900480040233278e-01	 1.075674217979984e+01
 1.464619189382567e+00	 6.788323613649613e-01	 1.208305244950626e+01
 1.448625300029533e+00	 7.123252871588173e-01	 1.205795763361285e+01
 1.431800070287028e+00	 7.455675327267967e-01	 1.200627700343062e+01
 1.414148123966046e+00	 7.785289213860510e-01	 1.192907726442259e+01
 1.395675517430381e+00	 8.111793085309283e-01	 1.182727365339457e+01
 1.376389747591809e+00	 8.434886654624829e-01	 1.170163155229694e+01
 1.356299754079610e+00	 8.754271644076367e-01	 1.155276914567095e+01
 1.335415915441594e+00	 9.069652642588758e-01	 1.138116107438911e+01
 1.313750039276837e+00	 9.380737965482800e-01	 1.118714303012397e+01
 1.291315346245472e+00	 9.687240511570182e-01	 1.097091722797019e+01
 1.268126447947593e+00	 9.988878612534782e-01	 1.073255868891677e+01
 1.477580650006715e+00	 6.848398334693059e-01	 1.205001254721488e+01
 1.461445219310796e+00	 7.186291620701782e-01	 1.202872571838948e+01
 1.444471091100772e+00	 7.521655919967494e-01	 1.197953631240504e+01
 1.426662930107062e+00	 7.854186795111947e-01	 1.190366891442186e+01
 1.408026846290560e+00	 8.183580132367593e-01	 1.180224215178029e+01
 1.388570402908588e+00	 8.509532987291373e-01	 1.167626989005708e+01
 1.368302618703605e+00	 8.831744442480259e-01	 1.152666307905570e+01
 1.347233964070615e+00	 9.149916472555970e-01	 1.135423219720036e+01
 1.325376351102590e+00	 9.463754811513688e-01	 1.115969023925658e+01
 1.302743117458739e+00	 9.772969817402075e-01	 1.094365619011431e+01
 1.279349004047656e+00	 1.007727732922136e+00	 1.070665892654077e+01
 1.490542128776837e+00	 6.908473139841474e-01	 1.201879278645560e+01
 1.474265156539857e+00	 7.249330458070223e-01	 1.200036539839453e+01
 1.457142129653841e+00	 7.587636605040647e-01	 1.195272739380955e+01
 1.439177753768686e+00	 7.923084472820973e-01	 1.187730098512084e+01
 1.420378192442467e+00	 8.255367279928895e-01	 1.177545332397236e+01
 1.400751075278142e+00	 8.584179424464018e-01	 1.164849702778429e+01
 1.380305500131459e+00	 8.909217349347384e-01	 1.149769091164565e+01
 1.359052029244751e+00	 9.230180414893885e-01	 1.132424087133616e+01
 1.337002679205026e+00	 9.546771773769483e-01	 1.112930086501752e+01
 1.314170904670738e+00	 9.858699243256250e-01	 1.091397394439079e+01
 1.290571575859161e+00	 1.016567616966727e+00	 1.067931329078430e+01
 1.503503622668521e+00	 6.968548015076813e-01	 1.198919901893149e+01
 1.487085108725331e+00	 7.312369368983842e-01	 1.197266218455288e+01
 1.469813182989592e+00	 7.653617367091381e-01	 1.192563321549907e+01
 1.451692592030731e+00	 7.991982230911011e-01	 1.184977067279508e+01
 1.432729553004065e+00	 8.327154511242526e-01	 1.174673425736679e+01
 1.412931761858268e+00	 8.658825948725100e-01	 1.161818441878709e+01
 1.392308395562468e+00	 8.986690346600738e-01	 1.146578167445347e+01
 1.370870108206433e+00	 9.310444450874450e-01	 1.129118558378615e+01
 1.348629020871332e+00	 9.629788832879940e-01	 1.109605332970894e+01
 1.325598705214996e+00	 9.944428769129717e-01	 1.088203786898748e+01
 1.301794160763533e+00	 1.025407511324678e+00	 1.065078562375903e+01
 1.516465128657361e+00	 7.028622946381038e-01	 1.196104613970317e+01
 1.499905072875827e+00	 7.375408338732975e-01	 1.194541139791016e+01
 1.482484248151378e+00	 7.719598190723639e-01	 1.189804670573336e+01
 1.464207441973005e+00	 8.060880053305461e-01	 1.182088470280136e+01
 1.445080925093318e+00	 8.398941809557829e-01	 1.171592059325527e+01
 1.425112459806761e+00	 8.733472542656954e-01	 1.158521059172552e+01
 1.404311302195926e+00	 9.064163416163323e-01	 1.143086953506545e+01
 1.382688198198093e+00	 9.390708561769601e-01	 1.125506760469388e+01
 1.360255373388692e+00	 9.712805969474798e-01	 1.106002611861009e+01
 1.337026516425042e+00	 1.003015837501946e+00	 1.084801236812269e+01
 1.313016756142200e+00	 1.034247413933416e+00	 1.062133349177225e+01
 1.529426643718942e+00	 7.088697919736108e-01	 1.193415770413854e+01
 1.512725045999958e+00	 7.438447352607953e-01	 1.191841775407000e+01
 1.495155322182557e+00	 7.785579060541381e-01	 1.186977033121734e+01
 1.476722300675319e+00	 8.129777923927746e-01	 1.179045892586231e+01
 1.457432305828187e+00	 8.470729158124134e-01	 1.168285616439858e+01
 1.437293166281423e+00	 8.808119188841904e-01	 1.154946085080464e+01
 1.416314217231126e+00	 9.141636539958131e-01	 1.139289357996318e+01
 1.394506296462164e+00	 9.470972728851270e-01	 1.121589086938639e+01
 1.371881734044294e+00	 9.795823164183801e-01	 1.102129777726974e+01
 1.348454335634401e+00	 1.011588804092248e+00	 1.081205899804144e+01
 1.324239359376585e+00	 1.043087322730367e+00	 1.059120845127431e+01
 1.542388164828857e+00	 7.148772921123988e-01	 1.190836556415716e+01
 1.525545025106338e+00	 7.501486395899122e-01	 1.189149496856377e+01
 1.507826402126483e+00	 7.851559961148554e-01	 1.184061569639633e+01
 1.489237165217485e+00	 8.198675826701277e-01	 1.175831793468632e+01
 1.469783692326635e+00	 8.542516540190780e-01	 1.164739265085447e+01
 1.449473878440046e+00	 8.882765869862278e-01	 1.151082699106730e+01
 1.428317137867365e+00	 9.219109699908171e-01	 1.135179760780564e+01
 1.406324400241078e+00	 9.551236933391417e-01	 1.117366186633955e+01
 1.383508100125322e+00	 9.878840397636706e-01	 1.097994690892590e+01
 1.359882160176601e+00	 1.020161774683578e+00	 1.077433658665302e+01
 1.335461967848114e+00	 1.051927235652958e+00	 1.056065630139484e+01
 1.555349688962692e+00	 7.208847936526629e-01	 1.188350952264465e+01
 1.538365007203576e+00	 7.564525453896814e-01	 1.186446538193304e+01
 1.520497485026512e+00	 7.917540877149108e-01	 1.181040316276721e+01
 1.501752032679311e+00	 8.267573745549470e-01	 1.172429469973746e+01
 1.482135081706625e+00	 8.614303939007104e-01	 1.160938925299602e+01
 1.461654593440430e+00	 8.957412568300415e-01	 1.146920702790515e+01
 1.440320061303935e+00	 9.296582877936430e-01	 1.130752993303209e+01
 1.418142506777267e+00	 9.631501156661962e-01	 1.112838953073246e+01
 1.395134468918961e+00	 9.961857650463246e-01	 1.093605217204456e+01
 1.371309987385168e+00	 1.028734747275635e+00	 1.073500134718063e+01
 1.346684578938213e+00	 1.060767150638615e+00	 1.052991732384965e+01
 1.234458900101805e+00	 9.723683411288404e-01	 1.082686072332132e+01
 1.211167009889495e+00	 1.001230994946606e+00	 1.060873307846732e+01
 1.187173310896686e+00	 1.029567207711080e+00	 1.038063564412627e+01
 1.162495880220790e+00	 1.057351644371346e+00	 1.014919771489648e+01
 1.137154004740159e+00	 1.084559811993984e+00	 9.921472285499176e+00
 1.111168131322751e+00	 1.111168131322752e+00	 9.704882876834130e+00
 1.084559811993984e+00	 1.137154004740160e+00	 9.507167484516891e+00
 1.057351644371345e+00	 1.162495880220790e+00	 9.336320172791732e+00
 1.029567207711079e+00	 1.187173310896686e+00	 9.200530860431906e+00
 1.001230994946606e+00	 1.211167009889495e+00	 9.108123861521332e+00
 9.723683411288406e-01	 1.234458900101806e+00	 9.067495752672258e+00
 1.245681393356093e+00	 9.812081632942572e-01	 1.078693375836416e+01
 1.222177756052655e+00	 1.010333208138176e+00	 1.057347979448431e+01
 1.197965929809548e+00	 1.038927026041595e+00	 1.035396938079415e+01
 1.173064156063485e+00	 1.066964051632084e+00	 1.013511819662519e+01
 1.147491897030265e+00	 1.094419569310411e+00	 9.924060774103225e+00
 1.121269785460785e+00	 1.121269785460785e+00	 9.728296072123598e+00
 1.094419569310411e+00	 1.147491897030266e+00	 9.555630197396960e+00
 1.066964051632084e+00	 1.173064156063485e+00	 9.414116808472791e+00
 1.038927026041595e+00	 1.197965929809549e+00	 9.311995761939288e+00
 1.010333208138175e+00	 1.222177756052656e+00	 9.257630575674982e+00
 9.812081632942573e-01	 1.245681393356094e+00	 9.259445291914711e+00
 1.256903910177548e+00	 9.900480040233278e-01	 1.075674217979984e+01
 1.233188525338287e+00	 1.019435440444377e+00	 1.053595859960409e+01
 1.208758571386796e+00	 1.048286864027678e+00	 1.032654349342937e+01
 1.183632454099435e+00	 1.076576479078796e+00	 1.012203218624899e+01
 1.157829811029820e+00	 1.104279347332226e+00	 9.929531504362133e+00
 1.131371460812173e+00	 1.131371460812174e+00	 9.756497337581617e+00
 1.104279347332226e+00	 1.157829811029820e+00	 9.610677077414671e+00
 1.076576479078796e+00	 1.183632454099436e+00	 9.500049847940215e+00
 1.048286864027677e+00	 1.208758571386797e+00	 9.432765091367257e+00
 1.019435440444377e+00	 1.233188525338288e+00	 9.417080084593012e+00
 9.900480040233277e-01	 1.256903910177548e+00	 9.267284066207306e+00
 1.268126447947593e+00	 9.988878612534782e-01	 1.073255868891677e+01
 1.244199315177236e+00	 1.028537689741422e+00	 1.049639683301040e+01
 1.219551233110184e+00	 1.057646719485435e+00	 1.029863526442932e+01
 1.194200771862754e+00	 1.086188924468655e+00	 1.011022969077535e+01
 1.168167744326701e+00	 1.114139143758882e+00	 9.938152885196004e+00
 1.141473155019926e+00	 1.141473155019926e+00	 9.789702214855843e+00
 1.114139143758882e+00	 1.168167744326702e+00	 9.672442727007882e+00
 1.086188924468655e+00	 1.194200771862755e+00	 9.594148208667090e+00
 1.057646719485435e+00	 1.219551233110185e+00	 9.562740774976920e+00
 1.028537689741422e+00	 1.244199315177236e+00	 9.586229553619697e+00
 9.988878612534781e-01	 1.268126447947593e+00	 9.168392161533752e+00
 1.279349004047656e+00	 1.007727732922136e+00	 1.070665892654077e+01
 1.255210123000349e+00	 1.037639953905520e+00	 1.046459699110737e+01
 1.230343912461471e+00	 1.067006590230976e+00	 1.027050989197548e+01
 1.204769106887557e+00	 1.095801385558832e+00	 1.009998818992369e+01
 1.178505694508791e+00	 1.123998956289837e+00	 9.950181566417164e+00
 1.151574865727051e+00	 1.151574865727052e+00	 9.828116358559768e+00
 1.123998956289837e+00	 1.178505694508792e+00	 9.741054725096605e+00
 1.095801385558832e+00	 1.204769106887557e+00	 9.696437522547621e+00
 1.067006590230976e+00	 1.230343912461471e+00	 9.701825944771285e+00
 1.037639953905520e+00	 1.255210123000350e+00	 9.626291839872261e+00
 1.007727732922135e+00	 1.279349004047656e+00	 9.085052983795817e+00
 1.290571575859161e+00	 1.016567616966727e+00	 1.067931329078430e+01
 1.266220946238475e+00	 1.046742230812884e+00	 1.044299845605770e+01
 1.241136606922412e+00	 1.076366474080407e+00	 1.024242101591871e+01
 1.215337456707958e+00	 1.105413860106501e+00	 1.009157318136920e+01
 1.188843659163968e+00	 1.133858782624547e+00	 9.965862950678858e+00
 1.161676590576559e+00	 1.161676590576559e+00	 9.871935966933147e+00
 1.133858782624547e+00	 1.188843659163969e+00	 9.816633933343940e+00
 1.105413860106501e+00	 1.215337456707958e+00	 9.806940279725930e+00
 1.076366474080407e+00	 1.241136606922412e+00	 9.849924887113811e+00
 1.046742230812883e+00	 1.266220946238475e+00	 9.526283309452992e+00
 1.016567616966727e+00	 1.290571575859161e+00	 9.016991238932135e+00
 1.301794160763533e+00	 1.025407511324678e+00	 1.065078562375903e+01
 1.277231782322459e+00	 1.055844518339723e+00	 1.042165774934178e+01
 1.251929313974762e+00	 1.085726368849838e+00	 1.021804254673429e+01
 1.225905818858070e+00	 1.115026345868833e+00	 1.008523869780795e+01
 1.199181635880113e+00	 1.143718620462467e+00	 9.985431678966510e+00
 1.171778327211458e+00	 1.171778327211458e+00	 9.921348190247748e+00
 1.143718620462467e+00	 1.199181635880114e+00	 9.899294786592627e+00
 1.115026345868833e+00	 1.225905818858070e+00	 9.925675964997417e+00
 1.085726368849838e+00	 1.251929313974763e+00	 9.958694836538987e+00
 1.055844518339723e+00	 1.277231782322459e+00	 9.442092390958262e+00
 1.025407511324678e+00	 1.301794160763533e+00	 8.963942565378602e+00
 1.313016756142200e+00	 1.034247413933416e+00	 1.062133349177225e+01
 1.288242628683150e+00	 1.064946814362249e+00	 1.040091041981405e+01
 1.262722031100280e+00	 1.095086272355376e+00	 1.021098377749948e+01
 1.236474190872010e+00	 1.124638840603001e+00	 1.008122779752870e+01
 1.209519622245105e+00	 1.153578467503053e+00	 1.000911209121390e+01
 1.181880073274757e+00	 1.181880073274757e+00	 9.976531518288276e+00
 1.153578467503053e+00	 1.209519622245105e+00	 9.989145568423561e+00
 1.124638840603001e+00	 1.236474190872010e+00	 1.005266118722711e+01
 1.095086272355376e+00	 1.262722031100281e+00	 9.858807667404568e+00
 1.064946814362248e+00	 1.288242628683150e+00	 9.373605606599055e+00
 1.034247413933416e+00	 1.313016756142199e+00	 8.925653067438432e+00
 1.324239359376585e+00	 1.043087322730367e+00	 1.059120845127431e+01
 1.299253482751394e+00	 1.074049116756672e+00	 1.038108335126006e+01
 1.273514755780722e+00	 1.104446182413130e+00	 1.020653710887283e+01
 1.247042570283890e+00	 1.134251342066178e+00	 1.007977303006204e+01
 1.219857615846823e+00	 1.163438321445762e+00	 1.003711866351904e+01
 1.191981826409463e+00	 1.191981826409464e+00	 1.003765614815012e+01
 1.163438321445762e+00	 1.219857615846824e+00	 1.008628867271831e+01
 1.134251342066178e+00	 1.247042570283891e+00	 1.018790980219870e+01
 1.104446182413130e+00	 1.273514755780723e+00	 9.774811499229195e+00
 1.074049116756672e+00	 1.299253482751395e+00	 9.320714784506372e+00
 1.043087322730367e+00	 1.324239359376585e+00	 8.901878872360991e+00
 1.335461967848114e+00	 1.051927235652958e+00	 1.056065630139484e+01
 1.310264341958040e+00	 1.083151423399203e+00	 1.036249512656624e+01
 1.284307485497844e+00	 1.113806096839209e+00	 1.020506111966057e+01
 1.257610954627826e+00	 1.143863848015535e+00	 1.009489572333874e+01
 1.230195614273149e+00	 1.173298179990049e+00	 1.006965642333535e+01
 1.202083584258589e+00	 1.202083584258589e+00	 1.010488433351010e+01
 1.173298179990048e+00	 1.230195614273149e+00	 1.019082085204901e+01
 1.143863848015536e+00	 1.257610954627827e+00	 1.015639654202124e+01
 1.113806096839208e+00	 1.284307485497845e+00	 9.706722711758285e+00
 1.083151423399203e+00	 1.310264341958040e+00	 9.283316836341449e+00
 1.051927235652957e+00	 1.335461967848114e+00	 8.892385709735853e+00
 1.346684578938213e+00	 1.060767150638615e+00	 1.052991732384965e+01
 1.321275203733934e+00	 1.092253732166055e+00	 1.034545637368177e+01
 1.295100217733402e+00	 1.123166013449718e+00	 1.020690508151908e+01
 1.268179341437932e+00	 1.153476356208247e+00	 1.012015029122830e+01
 1.240533615111960e+00	 1.183158040835369e+00	 1.010692134392225e+01
 1.212185344465141e+00	 1.212185344465141e+00	 1.017837071645140e+01
 1.183158040835369e+00	 1.240533615111961e+00	 1.030283345366243e+01
 1.153476356208246e+00	 1.268179341437933e+00	 1.007159820457876e+01
 1.123166013449718e+00	 1.295100217733403e+00	 9.654558612641800e+00
 1.092253732166054e+00	 1.321275203733934e+00	 9.261313546014273e+00
 1.060767150638615e+00	 1.346684578938213e+00	 8.896948511901240e+00
 9.723683411288406e-01	 1.234458900101806e+00	 9.067495752672258e+00
 9.430053514238215e-01	 1.257032155262794e+00	 8.889152435855550e+00
 9.131688318442132e-01	 1.278871228587822e+00	 8.326643995920641e+00
 8.828862014191952e-01	 1.299961896400895e+00	 7.821248835900155e+00
 8.521854080414087e-01	 1.320291289037849e+00	 7.368433109926206e+00
 8.210948457838527e-01	 1.339847912380151e+00	 6.963277385490370e+00
 7.896432714658925e-01	 1.358621663420585e+00	 6.600516237119979e+00
 7.578597209617604e-01	 1.376603839868557e+00	 6.274579520551947e+00
 7.257734257371627e-01	 1.393787143848190e+00	 5.979634946453887e+00
 6.934137300872991e-01	 1.410165679786422e+00	 5.709631567819891e+00
 6.608100095329461e-01	 1.425734946630075e+00	 5.458343795083220e+00
 9.812081632942573e-01	 1.245681393356094e+00	 9.259445291914711e+00
 9.515782339985246e-01	 1.268459862481026e+00	 8.793711146418163e+00
 9.214704699576766e-01	 1.290497475306639e+00	 8.266384461659298e+00
 8.909125394678685e-01	 1.311779878849166e+00	 7.795163042483935e+00
 8.599326444966280e-01	 1.332294086446028e+00	 7.374715124953353e+00
 8.285594372480736e-01	 1.352028499485388e+00	 6.999294474394686e+00
 7.968219359704285e-01	 1.370972923113356e+00	 6.662787528754190e+00
 7.647494405036750e-01	 1.389118575926605e+00	 6.358762265853471e+00
 7.323714480573981e-01	 1.406458093704092e+00	 6.080518340243668e+00
 6.997175696964111e-01	 1.422985527275958e+00	 5.821138032591785e+00
 6.668174479949773e-01	 1.438696334669837e+00	 5.573537557506890e+00
 9.900480040233277e-01	 1.256903910177548e+00	 9.267284066207306e+00
 9.601511345763564e-01	 1.279887593697410e+00	 8.713332750545881e+00
 9.297721255047072e-01	 1.302123746440582e+00	 8.219268527620924e+00
 8.989388943720305e-01	 1.323597886115255e+00	 7.779642851909140e+00
 8.676798972212705e-01	 1.344296909060183e+00	 7.388522550214626e+00
 8.360240443882055e-01	 1.364209112170008e+00	 7.039540508155570e+00
 8.040006155504622e-01	 1.383324208743968e+00	 6.725948599627800e+00
 7.716391745143246e-01	 1.401633338265832e+00	 6.440672356615581e+00
 7.389694842338108e-01	 1.419129070169253e+00	 6.176366869194852e+00
 7.060214225439060e-01	 1.435805401687458e+00	 5.925473404629502e+00
 6.728248990729170e-01	 1.451657749928804e+00	 5.680276239926756e+00
 9.988878612534781e-01	 1.268126447947593e+00	 9.168392161533752e+00
 9.687240511570175e-01	 1.291315346245473e+00	 8.647580465744582e+00
 9.380737965482796e-01	 1.313750039276837e+00	 8.184776679897912e+00
 9.069652642588754e-01	 1.335415915441594e+00	 7.774136297328944e+00
 8.754271644076362e-01	 1.356299754079611e+00	 7.409315953700844e+00
 8.434886654624822e-01	 1.376389747591809e+00	 7.083528133680455e+00
 8.111793085309278e-01	 1.395675517430381e+00	 6.789598149945093e+00
 7.785289213860508e-01	 1.414148123966047e+00	 6.520022852336913e+00
 7.455675327267963e-01	 1.431800070287028e+00	 6.267030518439950e+00
 7.123252871588168e-01	 1.448625300029533e+00	 6.022641377383223e+00
 6.788323613649613e-01	 1.464619189382567e+00	 5.778728226077706e+00
 1.007727732922135e+00	 1.279349004047656e+00	 9.085052983795817e+00
 9.772969817402068e-01	 1.302743117458739e+00	 8.596034250325721e+00
 9.463754811513685e-01	 1.325376351102590e+00	 8.162408995980076e+00
 9.149916472555962e-01	 1.347233964070615e+00	 7.778112086493012e+00
 8.831744442480255e-01	 1.368302618703605e+00	 7.436576079973262e+00
 8.509532987291364e-01	 1.388570402908589e+00	 7.130788286751020e+00
 8.183580132367586e-01	 1.408026846290560e+00	 6.853350087407563e+00
 7.854186795111944e-01	 1.426662930107062e+00	 6.596537944416763e+00
 7.521655919967490e-01	 1.444471091100773e+00	 6.352365537161585e+00
 7.186291620701775e-01	 1.461445219310796e+00	 6.112646451759552e+00
 6.848398334693059e-01	 1.477580650006715e+00	 5.869056865918898e+00
 1.016567616966727e+00	 1.290571575859161e+00	 9.016991238932135e+00
 9.858699243256248e-01	 1.314170904670739e+00	 8.558290076116730e+00
 9.546771773769478e-01	 1.337002679205027e+00	 8.151684293430602e+00
 9.230180414893882e-01	 1.359052029244751e+00	 7.791058703194127e+00
 8.909217349347384e-01	 1.380305500131460e+00	 7.469802973104160e+00
 8.584179424464011e-01	 1.400751075278142e+00	 7.180869396863692e+00
 8.255367279928891e-01	 1.420378192442468e+00	 6.916832865852005e+00
 7.923084472820969e-01	 1.439177753768687e+00	 6.669952471828562e+00
 7.587636605040642e-01	 1.457142129653841e+00	 6.432234165772472e+00
 7.249330458070220e-01	 1.474265156539858e+00	 6.195493900443290e+00
 6.908473139841474e-01	 1.490542128776837e+00	 5.951420693872080e+00
 1.025407511324678e+00	 1.301794160763533e+00	 8.963942565378602e+00
 9.944428769129710e-01	 1.325598705214997e+00	 8.533959238765114e+00
 9.629788832879937e-01	 1.348629020871333e+00	 8.152139322567439e+00
 9.310444450874443e-01	 1.370870108206433e+00	 7.812483555161713e+00
 8.986690346600733e-01	 1.392308395562468e+00	 7.508515144952336e+00
 8.658825948725094e-01	 1.412931761858267e+00	 7.233336633171692e+00
 8.327154511242522e-01	 1.432729553004066e+00	 6.979688858073906e+00
 7.991982230911002e-01	 1.451692592030731e+00	 6.740011461827626e+00
 7.653617367091377e-01	 1.469813182989592e+00	 6.506504377195779e+00
 7.312369368983839e-01	 1.487085108725331e+00	 6.271189734060753e+00
 6.968548015076812e-01	 1.503503622668521e+00	 6.025973635774781e+00
 1.034247413933416e+00	 1.313016756142199e+00	 8.925653067438432e+00
 1.003015837501945e+00	 1.337026516425043e+00	 8.522667703386876e+00
 9.712805969474790e-01	 1.360255373388693e+00	 8.163328000517607e+00
 9.390708561769592e-01	 1.382688198198093e+00	 7.841912165624812e+00
 9.064163416163318e-01	 1.404311302195926e+00	 7.552248786064583e+00
 8.733472542656946e-01	 1.425112459806762e+00	 7.287771189071768e+00
 8.398941809557823e-01	 1.445080925093319e+00	 7.041573760791793e+00
 8.060880053305455e-01	 1.464207441973005e+00	 6.806469694195398e+00
 7.719598190723636e-01	 1.482484248151379e+00	 6.575049631402182e+00
 7.375408338732968e-01	 1.499905072875827e+00	 6.339740669073429e+00
 7.028622946381037e-01	 1.516465128657361e+00	 6.092865205223571e+00
 1.043087322730367e+00	 1.324239359376585e+00	 8.901878872360991e+00
 1.011588804092248e+00	 1.348454335634402e+00	 8.524055483464105e+00
 9.795823164183798e-01	 1.371881734044294e+00	 8.184820684192536e+00
 9.470972728851269e-01	 1.394506296462165e+00	 7.878887405954636e+00
 9.141636539958126e-01	 1.416314217231127e+00	 7.600557016673458e+00
 8.808119188841896e-01	 1.437293166281423e+00	 7.343769603143579e+00
 8.470729158124131e-01	 1.457432305828188e+00	 7.102156029847771e+00
 8.129777923927742e-01	 1.476722300675320e+00	 6.869091287625365e+00
 7.785579060541377e-01	 1.495155322182557e+00	 6.637748642417947e+00
 7.438447352607950e-01	 1.512725045999959e+00	 6.401154097300989e+00
 7.088697919736107e-01	 1.529426643718942e+00	 6.152240689936492e+00
 1.051927235652957e+00	 1.335461967848114e+00	 8.892385709735853e+00
 1.020161774683578e+00	 1.359882160176601e+00	 8.537776051037124e+00
 9.878840397636699e-01	 1.383508100125321e+00	 8.216203479895555e+00
 9.551236933391410e-01	 1.406324400241079e+00	 7.922968766972705e+00
 9.219109699908166e-01	 1.428317137867365e+00	 7.653009175436191e+00
 8.882765869862271e-01	 1.449473878440046e+00	 7.400943114305324e+00
 8.542516540190774e-01	 1.469783692326635e+00	 7.161116343866011e+00
 8.198675826701273e-01	 1.489237165217485e+00	 6.927649306948243e+00
 7.851559961148549e-01	 1.507826402126484e+00	 6.694485157070844e+00
 7.501486395899116e-01	 1.525545025106338e+00	 6.455438056976270e+00
 7.148772921123988e-01	 1.542388164828856e+00	 6.204241328720630e+00
 1.060767150638615e+00	 1.346684578938213e+00	 8.896948511901240e+00
 1.028734747275635e+00	 1.371309987385168e+00	 8.563495776366706e+00
 9.961857650463243e-01	 1.395134468918961e+00	 8.257077587425950e+00
 9.631501156661958e-01	 1.418142506777268e+00	 7.973731666669110e+00
 9.296582877936426e-01	 1.440320061303935e+00	 7.709190143712872e+00
 8.957412568300408e-01	 1.461654593440431e+00	 7.458917049190002e+00
 8.614303939007100e-01	 1.482135081706625e+00	 7.218147094710018e+00
 8.267573745549465e-01	 1.501752032679311e+00	 6.981925389982093e+00
 7.917540877149102e-01	 1.520497485026513e+00	 6.745147744789569e+00
 7.564525453896809e-01	 1.538365007203576e+00	 6.502601205244050e+00
 7.208847936526629e-01	 1.555349688962692e+00	 6.249004479593877e+00
 6.608100095329461e-01	 1.425734946630075e+00	 5.458343795083223e+00
 6.279938934045742e-01	 1.440490821570162e+00	 5.209248900409563e+00
 5.949922941569017e-01	 1.454432673355103e+00	 4.951664800754108e+00
 5.618341945948699e-01	 1.467560092601490e+00	 4.688131351060486e+00
 5.285483025250735e-01	 1.479873980149320e+00	 4.421249631240537e+00
 4.951629809952906e-01	 1.491376514271011e+00	 4.153662629081241e+00
 4.617061818853219e-01	 1.502071113759757e+00	 3.888036457433653e+00
 4.282053831011286e-01	 1.511962397240521e+00	 3.627042262380606e+00
 3.946875295879637e-01	 1.521056139060901e+00	 3.373338961588493e+00
 3.611789783415348e-01	 1.529359222129144e+00	 3.129556933669022e+00
 3.277054475596566e-01	 1.536879588072675e+00	 2.898282760501998e+00
 6.668174479949773e-01	 1.438696334669837e+00	 5.573537557506890e+00
 6.337029998264974e-01	 1.453586355596186e+00	 5.321361616776734e+00
 6.004013823074378e-01	 1.467654953064726e+00	 5.055524775830937e+00
 5.669418417260947e-01	 1.480901713970360e+00	 4.779892901548382e+00
 5.333533468724034e-01	 1.493327547342673e+00	 4.498423046307446e+00
 4.996645186432702e-01	 1.504934651256828e+00	 4.215132328256161e+00
 4.659035630296873e-01	 1.515726475586372e+00	 3.934067667776405e+00
 4.320982077398997e-01	 1.525707680944315e+00	 3.659276628308370e+00
 3.982756426762863e-01	 1.534884094173004e+00	 3.394779583268233e+00
 3.644624644466165e-01	 1.543262660753379e+00	 3.144543402879570e+00
 3.306846250534405e-01	 1.550851394510401e+00	 2.912456825904592e+00
 6.728248990729170e-01	 1.451657749928804e+00	 5.680276239926759e+00
 6.394121182377791e-01	 1.466681917123116e+00	 5.424861995359569e+00
 6.058104818172244e-01	 1.480877260541401e+00	 5.151706605598800e+00
 5.720494995834655e-01	 1.494243363356876e+00	 4.865756826646290e+00
 5.381584013103314e-01	 1.506781142788726e+00	 4.572073940898815e+00
 5.041660657444063e-01	 1.518492816714911e+00	 4.275792912374204e+00
 4.701009529884130e-01	 1.529381866089396e+00	 3.982082675745452e+00
 4.359910405534112e-01	 1.539452993513330e+00	 3.696107882402681e+00
 4.018637632994256e-01	 1.548712078323922e+00	 3.422992392820072e+00
 3.677459574467972e-01	 1.557166128574941e+00	 3.167784768605026e+00
 3.336638088033086e-01	 1.564823230289037e+00	 2.935425980446071e+00
 6.788323613649613e-01	 1.464619189382567e+00	 5.778728226077706e+00
 6.451212473062347e-01	 1.479777503095249e+00	 5.520057311439576e+00
 6.112195914240951e-01	 1.494099592699866e+00	 5.240602204205597e+00
 5.771571669751691e-01	 1.507585037647940e+00	 4.946152164788050e+00
 5.429634647176713e-01	 1.520234763348278e+00	 4.642627782952984e+00
 5.086676212483486e-01	 1.532051007481673e+00	 4.336032453358577e+00
 4.742983507821348e-01	 1.543037282082569e+00	 4.032405218979372e+00
 4.398838806333749e-01	 1.553198331740336e+00	 3.737775364487567e+00
 4.054518906202008e-01	 1.562540088287140e+00	 3.458119101622415e+00
 3.710294565759769e-01	 1.571069622349703e+00	 3.199318646214915e+00
 3.366429981141584e-01	 1.578795092148498e+00	 2.967123942669534e+00
 6.848398334693059e-01	 1.477580650006715e+00	 5.869056865918896e+00
 6.508303856996792e-01	 1.492873110456881e+00	 5.607244871711636e+00
 6.166287098658833e-01	 1.507321946454855e+00	 5.322590487399357e+00
 5.822648427093918e-01	 1.520926733730455e+00	 5.021493594857541e+00
 5.477685359732346e-01	 1.533688405882126e+00	 4.710495749148579e+00
 5.131691841047463e-01	 1.545609220393526e+00	 4.396225988624992e+00
 4.784957554314886e-01	 1.556692720379631e+00	 4.085348204195189e+00
 4.437767270715026e-01	 1.566943692418100e+00	 3.784510492676113e+00
 4.090400238014310e-01	 1.576368120836146e+00	 3.500296874417922e+00
 3.743129610680549e-01	 1.584973138833540e+00	 3.239181708058490e+00
 3.396221922908876e-01	 1.592766976828704e+00	 3.007487086289294e+00
 6.908473139841474e-01	 1.490542128776837e+00	 5.951420693872080e+00
 6.565395320859277e-01	 1.505968736152311e+00	 5.686712447094437e+00
 6.220378358804222e-01	 1.520544318721102e+00	 5.398037937147524e+00
 5.873725255943202e-01	 1.534268448491324e+00	 5.092182060113132e+00
 5.525736139558346e-01	 1.547142067251067e+00	 4.776075346017370e+00
 5.176707532632490e-01	 1.559167452286884e+00	 4.456736087729590e+00
 4.826931659571100e-01	 1.570348177794324e+00	 4.141214178206478e+00
 4.476695789595063e-01	 1.580689072339393e+00	 3.836537108067015e+00
 4.126281620059352e-01	 1.590196172744423e+00	 3.549658527407972e+00
 3.775964701569311e-01	 1.598876674782327e+00	 3.287409724976279e+00
 3.426013906383933e-01	 1.606738881069568e+00	 3.056454325299760e+00
 6.968548015076812e-01	 1.503503622668521e+00	 6.025973635774781e+00
 6.622486851327958e-01	 1.519064377125835e+00	 5.758738683164246e+00
 6.274469682055451e-01	 1.533766706413344e+00	 5.467299137064769e+00
 5.924802144381417e-01	 1.547610178817451e+00	 5.158605359855272e+00
 5.573786975442838e-01	 1.560595744315900e+00	 4.839750998946834e+00
 5.221723276735055e-01	 1.572725699998159e+00	 4.517913389721046e+00
 4.868905813796346e-01	 1.584003651140387e+00	 4.200295774590669e+00
 4.515624353890979e-01	 1.594434468296983e+00	 3.894071801622080e+00
 4.162163043965322e-01	 1.604024240785459e+00	 3.606332716104614e+00
 3.808799830765049e-01	 1.612780226951937e+00	 3.344037605665483e+00
 3.455805924615731e-01	 1.620710801611011e+00	 3.113967005022616e+00
 7.028622946381037e-01	 1.516465128657361e+00	 6.092865205223571e+00
 6.679578435080994e-01	 1.532160030321748e+00	 5.823593489549269e+00
 6.328561055790856e-01	 1.546989106446313e+00	 5.530717280396471e+00
 5.975879080490418e-01	 1.560951921595736e+00	 5.221138710767605e+00
 5.621837856173949e-01	 1.574049433937420e+00	 4.901894610991540e+00
 5.266739062851655e-01	 1.586283960363764e+00	 4.580097112950165e+00
 4.910880007196984e-01	 1.597659137231560e+00	 4.262876137460930e+00
 4.554552954519890e-01	 1.608179877083638e+00	 3.957324224286581e+00
 4.198044501360410e-01	 1.617852321732738e+00	 3.670444113553059e+00
 3.841634990606759e-01	 1.626683792098246e+00	 3.409099434025510e+00
 3.485597970653248e-01	 1.634682735192947e+00	 3.179968798737824e+00
 7.088697919736107e-01	 1.529426643718942e+00	 6.152240689936494e+00
 6.736670058796532e-01	 1.545255692684351e+00	 5.881538409532757e+00
 6.382652467388765e-01	 1.560211515734747e+00	 5.588624652183169e+00
 6.026956052352083e-01	 1.574293673713084e+00	 5.280145279727648e+00
 5.669888770539799e-01	 1.587503132976426e+00	 4.962866093284427e+00
 5.311754880478785e-01	 1.599842230220111e+00	 4.643615538969171e+00
 4.952854229979372e-01	 1.611314632881585e+00	 4.329229323700452e+00
 4.593481582398922e-01	 1.621925295492131e+00	 4.026497381349603e+00
 4.233925983872811e-01	 1.631680412359747e+00	 3.742113579495967e+00
 3.874470173433437e-01	 1.640587366977126e+00	 3.482628504605399e+00
 3.515390037545456e-01	 1.648654678555294e+00	 3.254405609565950e+00
 7.148772921123988e-01	 1.542388164828856e+00	 6.204241328720630e+00
 6.793761709152731e-01	 1.558351361157939e+00	 5.932826971027729e+00
 6.436743904227521e-01	 1.573433931193380e+00	 5.641343087125671e+00
 6.078033048048269e-01	 1.587635432056398e+00	 5.335976689765828e+00
 5.717939707328523e-01	 1.600956838293715e+00	 5.023013868716254e+00
 5.356770719112932e-01	 1.613400506403615e+00	 4.708786472043662e+00
 4.994828472349865e-01	 1.624970134904201e+00	 4.399620684925506e+00
 4.632410228445188e-01	 1.635670720315228e+00	 4.101787911968146e+00
 4.269807483130713e-01	 1.645508509439972e+00	 3.821458321011510e+00
 3.907305371584079e-01	 1.654490948344454e+00	 3.564657356263416e+00
 3.545182118341331e-01	 1.662626628437968e+00	 3.337225477294482e+00
 7.208847936526629e-01	 1.555349688962692e+00	 6.249004479593880e+00
 6.850853372827741e-01	 1.571447032686810e+00	 5.977705020010049e+00
 6.490835353685449e-01	 1.586656349736946e+00	 5.689184404566570e+00
 6.129110055660850e-01	 1.600977193512580e+00	 5.388973500737792e+00
 5.765990655328243e-01	 1.614410546750085e+00	 5.082675350443503e+00
 5.401786568250596e-01	 1.626958785750686e+00	 4.775917675700166e+00
 5.036802724514819e-01	 1.638625640113148e+00	 4.474307230358868e+00
 4.671338883575810e-01	 1.649416148345699e+00	 4.183386354721586e+00
 4.305688990762302e-01	 1.659336609746896e+00	 3.908592045122959e+00
 3.940140577397680e-01	 1.668394532956102e+00	 3.655217804143177e+00
 3.574974206089847e-01	 1.676598581580888e+00	 3.428378489859389e+00
 3.277054475596566e-01	 1.536879588072675e+00	 2.898282760501996e+00
 2.942896394197481e-01	 1.543626630612252e+00	 2.684077635587045e+00
 2.609582370370435e-01	 1.549609699338690e+00	 2.490579137027487e+00
 2.277348167703377e-01	 1.554839594943745e+00	 2.318768575748182e+00
 1.946421534908471e-01	 1.559327958474682e+00	 2.169447212167336e+00
 1.617021913504131e-01	 1.563087213574030e+00	 2.043231695805658e+00
 1.289360188419721e-01	 1.566130508218708e+00	 1.940551383894654e+00
 9.636384807059289e-02	 1.568471656282942e+00	 1.861647450003472e+00
 6.400499812932171e-02	 1.570125079232223e+00	 1.806573679213614e+00
 3.187788245248261e-02	 1.571105748236902e+00	 1.775198834425249e+00
 0.000000000000000e+00	 1.571429126974074e+00	 1.767210468957544e+00
 3.306846250534405e-01	 1.550851394510401e+00	 2.912456825904592e+00
 2.969650330601949e-01	 1.557659774563367e+00	 2.703510077362783e+00
 2.633306141588863e-01	 1.563697235500412e+00	 2.519588393235609e+00
 2.298051590414819e-01	 1.568974676202594e+00	 2.359682570422812e+00
 1.964116496260302e-01	 1.573503843546176e+00	 2.222627651866682e+00
 1.631722295591158e-01	 1.577297274117268e+00	 2.107111434348227e+00
 1.301081790496060e-01	 1.580368235421320e+00	 2.011683870964498e+00
 9.723989395123935e-02	 1.582730666914771e+00	 1.934767236059787e+00
 6.458686898734058e-02	 1.584399121168951e+00	 1.874666919150261e+00
 3.216768498914947e-02	 1.585388705457435e+00	 1.829582715083496e+00
 0.000000000000000e+00	 1.585715024037928e+00	 1.797620480151904e+00
 3.336638088033086e-01	 1.564823230289037e+00	 2.935425980446071e+00
 2.996404323188487e-01	 1.571692947984227e+00	 2.731119293342696e+00
 2.657029962626957e-01	 1.577784801246143e+00	 2.555195191202920e+00
 2.318755056604246e-01	 1.583109787145346e+00	 2.405029212709571e+00
 1.981811494773361e-01	 1.587679758387314e+00	 2.277863595947273e+00
 1.646422708551647e-01	 1.591507364501976e+00	 2.170826371008636e+00
 1.312803417190977e-01	 1.594605992523555e+00	 2.080950528540630e+00
 9.811594167191655e-02	 1.596989707490964e+00	 2.005193098254094e+00
 6.516874106758115e-02	 1.598673193081649e+00	 1.940453981051961e+00
 3.245748813458684e-02	 1.599671692672685e+00	 1.883594389473803e+00
 0.000000000000000e+00	 1.600000951102682e+00	 1.831454763350121e+00
 3.366429981141584e-01	 1.578795092148498e+00	 2.967123942669532e+00
 3.023158365714739e-01	 1.585726147600425e+00	 2.766765478781138e+00
 2.680753827949167e-01	 1.591872393288765e+00	 2.597235645604505e+00
 2.339458561440598e-01	 1.597244924473769e+00	 2.454659923669172e+00
 1.999506526318324e-01	 1.601855699690321e+00	 2.335051193086243e+00
 1.661123148954805e-01	 1.605717481412379e+00	 2.234336964876332e+00
 1.324525065768595e-01	 1.608843776203160e+00	 2.148386032600268e+00
 9.899199102812779e-02	 1.611248774684285e+00	 2.073034353953613e+00
 6.575061423419873e-02	 1.612947291639554e+00	 2.004109990114975e+00
 3.274729182112705e-02	 1.613954706549799e+00	 1.937456949754107e+00
 0.000000000000000e+00	 1.614286904834791e+00	 1.868957804352589e+00
 3.396221922908876e-01	 1.592766976828704e+00	 3.007487086289294e+00
 3.049912451938341e-01	 1.599759370137553e+00	 2.810314018145244e+00
 2.704477732019946e-01	 1.605960008341164e+00	 2.645551861518840e+00
 2.360162100092825e-01	 1.611380084889633e+00	 2.508431536416491e+00
 2.017201586765864e-01	 1.616031664147421e+00	 2.394090396256768e+00
 1.675823613369835e-01	 1.619927621532703e+00	 2.297605187808528e+00
 1.336246733493040e-01	 1.623081583137882e+00	 2.214023936515660e+00
 9.986804181537626e-02	 1.625507865167492e+00	 2.138396551780054e+00
 6.633248835134857e-02	 1.627221413511901e+00	 2.065803971075073e+00
 3.303709598110238e-02	 1.628237743755919e+00	 1.991385686694764e+00
 0.000000000000000e+00	 1.628572881900711e+00	 1.910365524122160e+00
 3.426013906383933e-01	 1.606738881069568e+00	 3.056454325299760e+00
 3.076666575616935e-01	 1.613792612321206e+00	 2.861635260018727e+00
 2.728201669303748e-01	 1.620047643116225e+00	 2.699991674411078e+00
 2.380865667729871e-01	 1.625515265094705e+00	 2.566206061128189e+00
 2.034896671986657e-01	 1.630207648450840e+00	 2.454884797501925e+00
 1.690524098365944e-01	 1.634137781547173e+00	 2.360594458707977e+00
 1.347968417628433e-01	 1.637319410005468e+00	 2.277896719813194e+00
 1.007440938291653e-01	 1.639766975613346e+00	 2.201381635368734e+00
 6.691436328318605e-02	 1.641495555367928e+00	 2.125699113363766e+00
 3.332690054684517e-02	 1.642520800958194e+00	 2.045588428895571e+00
 0.000000000000000e+00	 1.642858878966899e+00	 1.955905651408232e+00
 3.455805924615731e-01	 1.620710801611011e+00	 3.113967005022618e+00
 3.103420730508159e-01	 1.627825870876976e+00	 2.920604303642280e+00
 2.751925634265017e-01	 1.634135294326828e+00	 2.760408403558283e+00
 2.401569259520681e-01	 1.639650461790754e+00	 2.627850462197550e+00
 2.052591777851377e-01	 1.644383649292800e+00	 2.517341471251000e+00
 1.705224600512337e-01	 1.648347958140015e+00	 2.423269581198367e+00
 1.359690115438899e-01	 1.651557253483665e+00	 2.340035834412689e+00
 1.016201468649982e-01	 1.654026102694607e+00	 2.262088098661404e+00
 6.749623889386641e-02	 1.655769713876872e+00	 2.183953022557485e+00
 3.361670545068771e-02	 1.656803874823768e+00	 2.100265864466396e+00
 0.000000000000000e+00	 1.657144892699808e+00	 2.005798076107431e+00
 3.485597970653248e-01	 1.634682735192947e+00	 3.179968798737824e+00
 3.130174910369654e-01	 1.641859142530455e+00	 2.987100796392818e+00
 2.775649621368211e-01	 1.648222958685861e+00	 2.826660618110994e+00
 2.422272870634201e-01	 1.653785671679549e+00	 2.693236446811145e+00
 2.070286900230696e-01	 1.658559663365526e+00	 2.581370825664258e+00
 1.719925116378218e-01	 1.662558147995457e+00	 2.485596684493272e+00
 1.371411824188563e-01	 1.665795110250220e+00	 2.400471748496262e+00
 1.024962007183783e-01	 1.668285243084035e+00	 2.320611133240243e+00
 6.807811504754498e-02	 1.670043885707968e+00	 2.240717958938641e+00
 3.390651062496230e-02	 1.671086962019786e+00	 2.155611846220491e+00
 0.000000000000000e+00	 1.671430919765895e+00	 2.060255184513792e+00
 3.515390037545456e-01	 1.648654678555294e+00	 3.254405609565949e+00
 3.156929108959057e-01	 1.655892424007237e+00	 3.061008741554732e+00
 2.799373625077779e-01	 1.662310632906206e+00	 2.898611915043011e+00
 2.442976496239377e-01	 1.667920891462859e+00	 2.762240264268044e+00
 2.087982034995289e-01	 1.672735687361241e+00	 2.646886461533025e+00
 1.734625642532792e-01	 1.676768347797720e+00	 2.547543167270153e+00
 1.383133541141546e-01	 1.680032976982881e+00	 2.459233988147046e+00
 1.033722551848087e-01	 1.682544393454391e+00	 2.377042768173611e+00
 6.865999160837707e-02	 1.684318067530453e+00	 2.296141063933355e+00
 3.419631600200129e-02	 1.685370059213394e+00	 2.211813681358121e+00
 0.000000000000000e+00	 1.685716956831615e+00	 2.119482177531189e+00
 3.545182118341331e-01	 1.662626628437968e+00	 3.337225477294487e+00
 3.183683320034011e-01	 1.669925712032915e+00	 3.142216315776576e+00
 2.823097639858171e-01	 1.676398313700747e+00	 2.976130708290421e+00
 2.463680131505155e-01	 1.682056117842452e+00	 2.834742515412757e+00
 2.105677178015833e-01	 1.686911717972173e+00	 2.713805038289403e+00
 1.749326175545266e-01	 1.690978554231035e+00	 2.609077644372052e+00
 1.394855263561973e-01	 1.694270850359393e+00	 2.516351176889970e+00
 1.042483100597928e-01	 1.696803550478436e+00	 2.431472002815050e+00
 6.924186844051797e-02	 1.698592256013564e+00	 2.350364575137506e+00
 3.448612151413695e-02	 1.699653163071737e+00	 2.269052406552171e+00
 0.000000000000000e+00	 1.700003000563425e+00	 2.183677372850858e+00
 3.574974206089847e-01	 1.676598581580888e+00	 3.428378489859389e+00
 3.210437537352151e-01	 1.683959003333080e+00	 3.230615695649631e+00
 2.846821660173839e-01	 1.690485997782369e+00	 3.059090028427170e+00
 2.484383771600480e-01	 1.696191347520098e+00	 2.910627971589726e+00
 2.123372325162998e-01	 1.701087751890542e+00	 2.782046146711354e+00
 1.764026711984843e-01	 1.705188763979623e+00	 2.670169896172613e+00
 1.406576988713968e-01	 1.708508727057505e+00	 2.571851073255917e+00
 1.051243651388339e-01	 1.711062710828929e+00	 2.483984932964878e+00
 6.982374540812293e-02	 1.712866447826537e+00	 2.403526030598658e+00
 3.477592709370159e-02	 1.713936270261961e+00	 2.327503049286664e+00
 0.000000000000000e+00	 1.714289047627778e+00	 2.253032492027603e+00
 1.714289047627778e+00	 0.000000000000000e+00	 1.247402690870293e+01
 1.713936270261961e+00	 3.477592709370207e-02	 1.249903268026501e+01
 1.712866447826537e+00	 6.982374540812339e-02	 1.251497029983474e+01
 1.711062710828929e+00	 1.051243651388343e-01	 1.252208421922483e+01
 1.708508727057505e+00	 1.406576988713972e-01	 1.252049809150128e+01
 1.705188763979623e+00	 1.764026711984846e-01	 1.251021498984712e+01
 1.701087751890541e+00	 2.123372325163000e-01	 1.249111898301821e+01
 1.696191347520097e+00	 2.484383771600481e-01	 1.246297812187595e+01
 1.690485997782368e+00	 2.846821660173839e-01	 1.242544887516155e+01
 1.683959003333080e+00	 3.210437537352151e-01	 1.237808203449438e+01
 1.676598581580888e+00	 3.574974206089848e-01	 1.232033008872837e+01
 1.728574095521189e+00	 0.000000000000000e+00	 1.244486377368230e+01
 1.728218378486883e+00	 3.506571240396094e-02	 1.247203967684081e+01
 1.727139641297820e+00	 7.040558167873665e-02	 1.248922799833833e+01
 1.725320873889139e+00	 1.060003589459308e-01	 1.249674789704421e+01
 1.722745607954046e+00	 1.418297894041265e-01	 1.249482644159527e+01
 1.719397979861821e+00	 1.778726220261430e-01	 1.248359982853844e+01
 1.715262794332935e+00	 2.141066234704215e-01	 1.246311580600960e+01
 1.710325588575774e+00	 2.505085963676164e-01	 1.243333733883147e+01
 1.704572696567506e+00	 2.870544021224812e-01	 1.239414753486975e+01
 1.697991313141118e+00	 3.237189883473828e-01	 1.234535583484202e+01
 1.690569557521760e+00	 3.604764210173156e-01	 1.228670544873695e+01
 1.742859145080407e+00	 0.000000000000000e+00	 1.242032406799937e+01
 1.742500488377288e+00	 3.535549774782452e-02	 1.244902621967229e+01
 1.741412836433600e+00	 7.098741801690599e-02	 1.246696318247055e+01
 1.739579038612174e+00	 1.068763528548506e-01	 1.247452896030911e+01
 1.736982490511031e+00	 1.430018800732304e-01	 1.247205116650823e+01
 1.733607197401348e+00	 1.793425730249776e-01	 1.245979309123937e+01
 1.729437838428791e+00	 2.158760146307364e-01	 1.243795683716230e+01
 1.724459831280267e+00	 2.525788158165745e-01	 1.240668754265825e+01
 1.718659396996017e+00	 2.894266385043066e-01	 1.236607869628798e+01
 1.712023624586264e+00	 3.263942232717196e-01	 1.231617852895879e+01
 1.704540535092635e+00	 3.634554217733189e-01	 1.225699745199359e+01
 1.757144197972236e+00	 0.000000000000000e+00	 1.240011143384166e+01
 1.756782601599632e+00	 3.564528315913626e-02	 1.242977890099440e+01
 1.755686034899275e+00	 7.156925449056786e-02	 1.244803002374453e+01
 1.753837206661650e+00	 1.077523469678567e-01	 1.245533375195595e+01
 1.751219376389558e+00	 1.441739710155140e-01	 1.245211538725308e+01
 1.747816418256035e+00	 1.808125243665337e-01	 1.243875935219193e+01
 1.743612885831910e+00	 2.176454062037084e-01	 1.241561290382001e+01
 1.738594077282574e+00	 2.546490357484635e-01	 1.238299079664708e+01
 1.732746100711309e+00	 2.917988754396157e-01	 1.234118088453408e+01
 1.726055939305545e+00	 3.290694588203119e-01	 1.229045063432392e+01
 1.718511515923357e+00	 3.664344232245056e-01	 1.223105450642780e+01
 1.771429255863481e+00	 0.000000000000000e+00	 1.238393907369913e+01
 1.771064719820369e+00	 3.593506867173953e-02	 1.241409132393825e+01
 1.769959238360241e+00	 7.215109116765889e-02	 1.243228765222237e+01
 1.768095379701184e+00	 1.086283413872122e-01	 1.243907201898719e+01
 1.765456267250724e+00	 1.453460623677827e-01	 1.243496457141327e+01
 1.762025644083712e+00	 1.822824762223564e-01	 1.242046496906695e+01
 1.757787938196089e+00	 2.194147983958013e-01	 1.239605654350568e+01
 1.752728328231689e+00	 2.567192564048238e-01	 1.236221128455851e+01
 1.746832809356790e+00	 2.941711132051639e-01	 1.231939563072738e+01
 1.740088258935989e+00	 3.317446953052459e-01	 1.226807702489761e+01
 1.732482501643770e+00	 3.694134257183873e-01	 1.220873117955117e+01
 1.785714320420949e+00	 0.000000000000000e+00	 1.237152936786934e+01
 1.785346844705957e+00	 3.622485431947773e-02	 1.240176382201426e+01
 1.784232448481896e+00	 7.273292811611563e-02	 1.241959995809396e+01
 1.782353559394390e+00	 1.095043362151798e-01	 1.242565677623105e+01
 1.779693164755627e+00	 1.465181542668418e-01	 1.242054643920424e+01
 1.776234876542209e+00	 1.837524287639910e-01	 1.240487801155285e+01
 1.771962997175129e+00	 2.211841914134787e-01	 1.237926193544227e+01
 1.766862585776610e+00	 2.587894780271963e-01	 1.234431522573440e+01
 1.760919524575868e+00	 2.965433520777065e-01	 1.230066735168195e+01
 1.754120585114621e+00	 3.344199330386080e-01	 1.224896675679951e+01
 1.746453493883714e+00	 3.723924296024745e-01	 1.218988795201755e+01
 1.799999393311444e+00	 0.000000000000000e+00	 1.236261351018082e+01
 1.799628977922850e+00	 3.651464013619429e-02	 1.239260319195638e+01
 1.798505666929638e+00	 7.331476540387465e-02	 1.240983540270683e+01
 1.796611747404884e+00	 1.103803315540226e-01	 1.241500417659111e+01
 1.793930070565364e+00	 1.476902468494966e-01	 1.240881087400988e+01
 1.790444117289355e+00	 1.852223821629827e-01	 1.239196819334687e+01
 1.786138064422830e+00	 2.229535854632044e-01	 1.236520483533653e+01
 1.780996851566330e+00	 2.608597008571214e-01	 1.232927079425423e+01
 1.775006248011951e+00	 2.989155923339993e-01	 1.228494323533218e+01
 1.768152919478469e+00	 3.370951723324846e-01	 1.223303290229188e+01
 1.760424494273034e+00	 3.753714352242781e-01	 1.217439098292309e+01
 1.814284476201773e+00	 0.000000000000000e+00	 1.235693116092991e+01
 1.813911121137507e+00	 3.680442615573260e-02	 1.238642243919081e+01
 1.812778895368865e+00	 7.389660309887248e-02	 1.240286683852605e+01
 1.810869945396284e+00	 1.112563275060036e-01	 1.240703338742769e+01
 1.808166986341034e+00	 1.488623402525523e-01	 1.239970983714745e+01
 1.804653367982980e+00	 1.866923365908769e-01	 1.238170680736116e+01
 1.800313141592991e+00	 2.247229807514419e-01	 1.235386251324582e+01
 1.795131127249848e+00	 2.629299251361402e-01	 1.231704804191322e+01
 1.789092981308450e+00	 3.012878342507974e-01	 1.227217313157376e+01
 1.782185263664559e+00	 3.397704134989622e-01	 1.222019239160988e+01
 1.774395504441572e+00	 3.783504429313092e-01	 1.216211188619904e+01
 1.828569570758740e+00	 0.000000000000000e+00	 1.235423011608985e+01
 1.828193276016381e+00	 3.709421241193604e-02	 1.238304053523871e+01
 1.827052135464973e+00	 7.447844126904567e-02	 1.239857133753598e+01
 1.825128155032205e+00	 1.121323241733859e-01	 1.240166647273590e+01
 1.822403913743735e+00	 1.500344346128143e-01	 1.239319728662957e+01
 1.818862630280913e+00	 1.881622922192187e-01	 1.237406666396766e+01
 1.814488230339411e+00	 2.264923774846551e-01	 1.234521369435936e+01
 1.809265414476158e+00	 2.650001511057931e-01	 1.230761882481308e+01
 1.803179726108771e+00	 3.036600781048565e-01	 1.226230944822469e+01
 1.796217619309920e+00	 3.424456568501271e-01	 1.221036586220950e+01
 1.788366526019169e+00	 3.813294530710787e-01	 1.215292751749071e+01
 1.842854678649152e+00	 0.000000000000000e+00	 1.235426599190881e+01
 1.842475444225930e+00	 3.738399893864804e-02	 1.238228218640504e+01
 1.841325388883362e+00	 7.506027998233086e-02	 1.239683002762534e+01
 1.839386377976264e+00	 1.130083216584323e-01	 1.239882828080546e+01
 1.836640854434564e+00	 1.512065300670879e-01	 1.238922909970655e+01
 1.833071905840984e+00	 1.896322492195532e-01	 1.236902203211716e+01
 1.828663332315891e+00	 2.282617758693076e-01	 1.233923850253575e+01
 1.823399714894257e+00	 2.670703790076208e-01	 1.230095673336936e+01
 1.817266484056323e+00	 3.060323241729319e-01	 1.225530705182790e+01
 1.810249988051576e+00	 3.451209026980651e-01	 1.220347751503068e+01
 1.802337560635670e+00	 3.843084659910977e-01	 1.214671977095318e+01
 1.857139801539814e+00	 0.000000000000000e+00	 1.235680192406799e+01
 1.856757627432609e+00	 3.767378576971200e-02	 1.238397761314594e+01
 1.855598657289427e+00	 7.564211930666453e-02	 1.239752793652575e+01
 1.853644615892075e+00	 1.138843200634058e-01	 1.239844633706732e+01
 1.850877810074617e+00	 1.523786267521784e-01	 1.238776299898507e+01
 1.847281196321023e+00	 1.911022077634259e-01	 1.236654858317756e+01
 1.842838449176228e+00	 2.300311761118631e-01	 1.233591840644825e+01
 1.837534030153142e+00	 2.691406090831643e-01	 1.229703702555155e+01
 1.831353256794514e+00	 3.084045727317791e-01	 1.225112317303498e+01
 1.824282371526556e+00	 3.477961513548631e-01	 1.219945497739787e+01
 1.816308609920916e+00	 3.872874820388771e-01	 1.214337538542982e+01
 1.676598581580888e+00	 3.574974206089848e-01	 1.232033008872837e+01
 1.668394532956103e+00	 3.940140577397678e-01	 1.225700608586371e+01
 1.659336609746896e+00	 4.305688990762300e-01	 1.219426561127091e+01
 1.649416148345699e+00	 4.671338883575807e-01	 1.213352340029798e+01
 1.638625640113148e+00	 5.036802724514817e-01	 1.207619809172111e+01
 1.626958785750686e+00	 5.401786568250593e-01	 1.202371072873878e+01
 1.614410546750085e+00	 5.765990655328240e-01	 1.197748306210772e+01
 1.600977193512580e+00	 6.129110055660848e-01	 1.193893558968961e+01
 1.586656349736946e+00	 6.490835353685447e-01	 1.190948526443722e+01
 1.571447032686810e+00	 6.850853372827735e-01	 1.189054280227943e+01
 1.555349688962692e+00	 7.208847936526629e-01	 1.188350952264465e+01
 1.690569557521760e+00	 3.604764210173156e-01	 1.228670544873695e+01
 1.682297145147446e+00	 3.972973486709880e-01	 1.222330312079832e+01
 1.673163742912899e+00	 4.341567988833240e-01	 1.216130196329643e+01
 1.663160615017326e+00	 4.710264816027064e-01	 1.210195811170435e+01
 1.652280190252409e+00	 5.078774040989901e-01	 1.204649255456279e+01
 1.640516116827987e+00	 5.446799268967493e-01	 1.199608965553998e+01
 1.627863314250304e+00	 5.814038242630720e-01	 1.195189578715161e+01
 1.614318021842113e+00	 6.180183490931940e-01	 1.191501802131869e+01
 1.599877843500642e+00	 6.544923019970287e-01	 1.188652281663398e+01
 1.584541788300445e+00	 6.907941043493352e-01	 1.186743463830595e+01
 1.568310306563534e+00	 7.268918750263221e-01	 1.185873444447044e+01
 1.704540535092635e+00	 3.634554217733189e-01	 1.225699745199359e+01
 1.696199758960834e+00	 4.005806399854069e-01	 1.219379409307686e+01
 1.686990877692122e+00	 4.377446991091438e-01	 1.213259967503017e+01
 1.676905083292483e+00	 4.749190753020670e-01	 1.207452207417377e+01
 1.665934741984644e+00	 5.120745362362030e-01	 1.202059920032576e+01
 1.654073449486839e+00	 5.491811974935525e-01	 1.197179761040439e+01
 1.641316083319784e+00	 5.862085835537597e-01	 1.192901151318402e+01
 1.627658851727757e+00	 6.231256932159654e-01	 1.189306211939580e+01
 1.613099338806441e+00	 6.599010692562723e-01	 1.186469728324465e+01
 1.597636545441326e+00	 6.965028720816038e-01	 1.184459137447079e+01
 1.581270925675919e+00	 7.328989571004662e-01	 1.183334531457389e+01
 1.718511515923357e+00	 3.664344232245056e-01	 1.223105450642780e+01
 1.710102376018112e+00	 4.038639320660273e-01	 1.216827728710443e+01
 1.700818015697596e+00	 4.413326001722281e-01	 1.210792453951511e+01
 1.690649554774556e+00	 4.788116699097500e-01	 1.205096593234799e+01
 1.679589296902752e+00	 5.162716693527420e-01	 1.199827050569005e+01
 1.667630785308807e+00	 5.536824691405806e-01	 1.195060544572900e+01
 1.654768855527909e+00	 5.910133439654144e-01	 1.190863550048486e+01
 1.640999684725852e+00	 6.282330385302358e-01	 1.187292299790317e+01
 1.626320837196780e+00	 6.653098377772834e-01	 1.184392841695963e+01
 1.610731305637117e+00	 7.022116411455900e-01	 1.182201145273008e+01
 1.594231547811875e+00	 7.389060405759064e-01	 1.180743250795966e+01
 1.732482501643770e+00	 3.694134257183873e-01	 1.220873117955117e+01
 1.724004997941130e+00	 4.071472252958528e-01	 1.214655888316922e+01
 1.714645158542355e+00	 4.449205024911146e-01	 1.208705141001548e+01
 1.704394031066931e+00	 4.827042658798432e-01	 1.203104999231049e+01
 1.693243856599635e+00	 5.204688039382299e-01	 1.197926865809540e+01
 1.681188125875464e+00	 5.581837423629465e-01	 1.193229323570330e+01
 1.668221632444061e+00	 5.958181060585634e-01	 1.189058121991435e+01
 1.654340522392739e+00	 6.333403856318414e-01	 1.185446246641516e+01
 1.639542340214093e+00	 6.707186081910695e-01	 1.182414066818715e+01
 1.623826070415485e+00	 7.079204122073055e-01	 1.179969555528426e+01
 1.607192174483439e+00	 7.449131261534553e-01	 1.178108574844914e+01
 1.746453493883714e+00	 3.723924296024745e-01	 1.218988795201755e+01
 1.737907626351737e+00	 4.104305200578861e-01	 1.212845264155788e+01
 1.728472307839431e+00	 4.485084064843417e-01	 1.206976383756696e+01
 1.718138513772992e+00	 4.865968636664336e-01	 1.201454383509738e+01
 1.706898422668192e+00	 5.246659404822887e-01	 1.196336516728917e+01
 1.694745472768375e+00	 5.626850176857625e-01	 1.191664990742582e+01
 1.681674415637626e+00	 6.006228703937345e-01	 1.187467002448766e+01
 1.667681366284758e+00	 6.384477351166188e-01	 1.183754876228107e+01
 1.652763849400814e+00	 6.761273811286392e-01	 1.180526299715761e+01
 1.636920841304096e+00	 7.136291859327605e-01	 1.177764651498499e+01
 1.620152807202639e+00	 7.509202145339247e-01	 1.175439413474479e+01
 1.760424494273034e+00	 3.753714352242781e-01	 1.217439098292309e+01
 1.751810262871778e+00	 4.137138167351304e-01	 1.211377960171865e+01
 1.742299465201855e+00	 4.520963125704471e-01	 1.205585372579290e+01
 1.731883004496130e+00	 4.904894637236090e-01	 1.200122594861925e+01
 1.720552996701325e+00	 5.288630794745405e-01	 1.195034049537920e+01
 1.708302827569110e+00	 5.671862956341406e-01	 1.190347288959386e+01
 1.695127206677984e+00	 6.054276375314546e-01	 1.186073083659568e+01
 1.681022217958248e+00	 6.435550875804049e-01	 1.182205629556715e+01
 1.665985366299380e+00	 6.815361572210009e-01	 1.178722869498069e+01
 1.650015619830615e+00	 7.193379629879657e-01	 1.175586923001324e+01
 1.633113447481505e+00	 7.569273064181260e-01	 1.172744616525674e+01
 1.774395504441572e+00	 3.783504429313092e-01	 1.216211188619904e+01
 1.765712909123104e+00	 4.169971157105886e-01	 1.210236779564282e+01
 1.756126632242661e+00	 4.556842211679692e-01	 1.204512100203454e+01
 1.745627504839728e+00	 4.943820665054570e-01	 1.199088337697913e+01
 1.734207580291934e+00	 5.330602214046075e-01	 1.193998370437112e+01
 1.721860191859237e+00	 5.716875767331930e-01	 1.189256777779706e+01
 1.708580007134521e+00	 6.102324080322513e-01	 1.184859985000938e+01
 1.694363078969549e+00	 6.486624436190352e-01	 1.180786540605494e+01
 1.679206892452224e+00	 6.869449370991629e-01	 1.176997521316202e+01
 1.663110407522708e+00	 7.250467440389313e-01	 1.173437058259285e+01
 1.646074096832072e+00	 7.629344025068715e-01	 1.170032976176027e+01
 1.788366526019169e+00	 3.813294530710787e-01	 1.215292751749071e+01
 1.779615566727561e+00	 4.202804173672640e-01	 1.209405197468663e+01
 1.769953810574883e+00	 4.592721326954460e-01	 1.203737330390289e+01
 1.759372016407173e+00	 4.982746724660650e-01	 1.198331138623510e+01
 1.747862175032921e+00	 5.372573667621118e-01	 1.193209212023394e+01
 1.735417567220324e+00	 5.761888615080321e-01	 1.188374801550709e+01
 1.722032818576619e+00	 6.150371824566518e-01	 1.183812024585890e+01
 1.707703950875002e+00	 6.537698038283475e-01	 1.179486213163608e+01
 1.692428429401783e+00	 6.923537213941328e-01	 1.175344400111662e+01
 1.676205205908041e+00	 7.307555297516691e-01	 1.171315936151901e+01
 1.659034756766367e+00	 7.689415035009731e-01	 1.167313229194789e+01
 1.802337560635670e+00	 3.843084659910977e-01	 1.214671977095318e+01
 1.793518237306999e+00	 4.235637220881598e-01	 1.208867334910428e+01
 1.783781001811550e+00	 4.628600475714155e-01	 1.203242568041529e+01
 1.773116540801850e+00	 5.021672820595204e-01	 1.197831314571474e+01
 1.761516782517186e+00	 5.414545160366759e-01	 1.192647101259677e+01
 1.748974955233941e+00	 5.806901504837704e-01	 1.187683458991109e+01
 1.735485642573661e+00	 6.198419613651838e-01	 1.182914192182909e+01
 1.721044835230948e+00	 6.588771688041771e-01	 1.178293798748523e+01
 1.705649978690491e+00	 6.977625107369195e-01	 1.173758035124493e+01
 1.689300016514280e+00	 7.364643207921889e-01	 1.169224618829445e+01
 1.671995428796423e+00	 7.749486101012426e-01	 1.164594059093601e+01
 1.816308609920916e+00	 3.872874820388771e-01	 1.214337538542982e+01
 1.807420922483264e+00	 4.268470302562786e-01	 1.208607933960731e+01
 1.797608207565696e+00	 4.664479662144158e-01	 1.203010030693110e+01
 1.786861079627148e+00	 5.060598957399112e-01	 1.197569942404409e+01
 1.775171404337629e+00	 5.456516697179217e-01	 1.192293328923470e+01
 1.762532357481656e+00	 5.851914441855203e-01	 1.187165574178973e+01
 1.748938480695031e+00	 6.246467453183742e-01	 1.182152123385952e+01
 1.734385733593725e+00	 6.639845391423612e-01	 1.177198975543048e+01
 1.718871541860783e+00	 7.031713057585306e-01	 1.172233325116429e+01
 1.702394840869089e+00	 7.421731178265019e-01	 1.167164344667923e+01
 1.684956114434273e+00	 7.809557230084924e-01	 1.161884098178270e+01
 1.555349688962692e+00	 7.208847936526629e-01	 1.188350952264465e+01
 1.538365007203576e+00	 7.564525453896814e-01	 1.186446538193304e+01
 1.520497485026512e+00	 7.917540877149108e-01	 1.181040316276720e+01
 1.501752032679311e+00	 8.267573745549470e-01	 1.172429469973746e+01
 1.482135081706625e+00	 8.614303939007104e-01	 1.160938925299602e+01
 1.461654593440430e+00	 8.957412568300415e-01	 1.146920702790515e+01
 1.440320061303935e+00	 9.296582877936430e-01	 1.130752993303209e+01
 1.418142506777267e+00	 9.631501156661962e-01	 1.112838953073245e+01
 1.395134468918961e+00	 9.961857650463246e-01	 1.093605217204456e+01
 1.371309987385168e+00	 1.028734747275635e+00	 1.073500134718063e+01
 1.346684578938213e+00	 1.060767150638615e+00	 1.052991732384965e+01
 1.568310306563534e+00	 7.268918750263221e-01	 1.185873444447044e+01
 1.551184092667272e+00	 7.627560102922637e-01	 1.183662344635229e+01
 1.533167681707038e+00	 7.983517178423892e-01	 1.177872934807222e+01
 1.514266024847395e+00	 8.336466845656623e-01	 1.168840690776950e+01
 1.494485607226607e+00	 8.686086316992264e-01	 1.156936423147385e+01
 1.473834456517870e+00	 9.032054045928206e-01	 1.142565436443426e+01
 1.452322145252416e+00	 9.374050637470668e-01	 1.126166343224554e+01
 1.429959786751590e+00	 9.711759766233089e-01	 1.108209529108826e+01
 1.406760024561010e+00	 1.004486909704372e+00	 1.089195269223247e+01
 1.382737015328290e+00	 1.037307120272059e+00	 1.069651501396402e+01
 1.357906405115834e+00	 1.069606447358677e+00	 1.050131266343184e+01
 1.581270925675919e+00	 7.328989571004662e-01	 1.183334531457390e+01
 1.564003179625969e+00	 7.690594759299150e-01	 1.180749292370813e+01
 1.545837879865191e+00	 8.049493487392900e-01	 1.174546176624364e+01
 1.526780018474901e+00	 8.405359953798863e-01	 1.165095830742072e+01
 1.506836134186976e+00	 8.757868703350351e-01	 1.152811197171767e+01
 1.486014321015837e+00	 9.106695532263362e-01	 1.138146493870400e+01
 1.464324230600748e+00	 9.451518406042934e-01	 1.121595785207463e+01
 1.441777068104277e+00	 9.792018385168768e-01	 1.103691140590928e+01
 1.418385581559138e+00	 1.012788055331077e+00	 1.085000382578959e+01
 1.394164044604415e+00	 1.045879494268859e+00	 1.066124431825590e+01
 1.369128232602603e+00	 1.078445745110314e+00	 1.047694261921626e+01
 1.594231547811875e+00	 7.389060405759064e-01	 1.180743250795966e+01
 1.576822269575201e+00	 7.753629430380167e-01	 1.177724948644297e+01
 1.558508080979141e+00	 8.115469811753018e-01	 1.171083590531948e+01
 1.539294015021777e+00	 8.474253078013222e-01	 1.161221951714102e+01
 1.519186664028611e+00	 8.829651106455277e-01	 1.148591444808541e+01
 1.498194188355300e+00	 9.181337036013143e-01	 1.133690932930138e+01
 1.476326318749155e+00	 9.528986192690015e-01	 1.117065075600493e+01
 1.453594352213986e+00	 9.872277022831201e-01	 1.099302204275542e+01
 1.430011141269625e+00	 1.021089202894761e+00	 1.081031730409243e+01
 1.405591076546650e+00	 1.054451870265986e+00	 1.062921095280514e+01
 1.380350062707676e+00	 1.087285044924608e+00	 1.045672277243751e+01
 1.607192174483439e+00	 7.449131261534553e-01	 1.178108574844914e+01
 1.589641364010496e+00	 7.816664123519513e-01	 1.174606547133092e+01
 1.571178286527056e+00	 8.181446159201138e-01	 1.167508204774140e+01
 1.551808015947974e+00	 8.543146226336708e-01	 1.157245486847010e+01
 1.531537198192393e+00	 8.901433534680959e-01	 1.144304702574694e+01
 1.510374059957227e+00	 9.255978565884824e-01	 1.129225190923291e+01
 1.488328411097860e+00	 9.606454006448713e-01	 1.112597459479730e+01
 1.465411640459374e+00	 9.952535688582588e-01	 1.095060799855347e+01
 1.441636705048751e+00	 1.029390353363743e+00	 1.077300383595639e+01
 1.417018112488103e+00	 1.063024249263388e+00	 1.060043849550957e+01
 1.391571896740206e+00	 1.096124347832640e+00	 1.044057400757664e+01
 1.620152807202639e+00	 7.509202145339247e-01	 1.175439413474479e+01
 1.602460464427385e+00	 7.879698846071012e-01	 1.171411001291731e+01
 1.583848497987105e+00	 8.247422537434151e-01	 1.163842547858344e+01
 1.564322022713442e+00	 8.612039406806343e-01	 1.153192265750759e+01
 1.543887738119204e+00	 8.973215996401301e-01	 1.139977872503174e+01
 1.522553937242588e+00	 9.330620130585675e-01	 1.124775109411250e+01
 1.500330509047090e+00	 9.683921856355834e-01	 1.108215691094593e+01
 1.477228934219098e+00	 1.003279439178514e+00	 1.090984683435634e+01
 1.453262274252797e+00	 1.037691507706341e+00	 1.073817314845877e+01
 1.428445153761881e+00	 1.071596632261015e+00	 1.057495233392100e+01
 1.402793736009346e+00	 1.104963654865492e+00	 1.042842230013749e+01
 1.633113447481505e+00	 7.569273064181260e-01	 1.172744616525674e+01
 1.615279572321401e+00	 7.942733605388487e-01	 1.168154917060666e+01
 1.596518716837457e+00	 8.313398954148942e-01	 1.160108668386702e+01
 1.576836036778132e+00	 8.680932627459149e-01	 1.149087538440986e+01
 1.556238285249923e+00	 9.044998499990216e-01	 1.135637247318979e+01
 1.534733821632353e+00	 9.405261738822969e-01	 1.120365957853275e+01
 1.512332613997067e+00	 9.761389751448170e-01	 1.103942053340249e+01
 1.489046234871818e+00	 1.011305314180105e+00	 1.087091300368813e+01
 1.464887850238044e+00	 1.045992666890878e+00	 1.070593402582204e+01
 1.439872201701093e+00	 1.080169020258817e+00	 1.055277959335034e+01
 1.414015581824253e+00	 1.113802967054246e+00	 1.042019851453543e+01
 1.646074096832072e+00	 7.629344025068715e-01	 1.170032976176027e+01
 1.628098689188072e+00	 8.005768408825760e-01	 1.164854604974901e+01
 1.609188944556280e+00	 8.379375417042396e-01	 1.156328153950877e+01
 1.589350059601992e+00	 8.749825896332135e-01	 1.144955998157398e+01
 1.568588841025432e+00	 9.116781053821615e-01	 1.131308534426029e+01
 1.546913714547490e+00	 9.479903399303972e-01	 1.116022456127095e+01
 1.524334727348017e+00	 9.838857700762513e-01	 1.099798376310292e+01
 1.500863543796188e+00	 1.019331194799254e+00	 1.083397797482873e+01
 1.476513434360772e+00	 1.054293831885672e+00	 1.067639434646401e+01
 1.451299257638845e+00	 1.088741414256743e+00	 1.053394906837473e+01
 1.425237435494077e+00	 1.122642285429984e+00	 1.041583821154148e+01
 1.659034756766367e+00	 7.689415035009731e-01	 1.167313229194789e+01
 1.640917816522931e+00	 8.068803263736651e-01	 1.161526091705329e+01
 1.621859182621744e+00	 8.445351933811411e-01	 1.152522149141368e+01
 1.601864092644973e+00	 8.818719221462324e-01	 1.140821803112710e+01
 1.580939406886612e+00	 9.188563666269413e-01	 1.127016878769794e+01
 1.559093617408970e+00	 9.554545120735956e-01	 1.111768795994046e+01
 1.536336850500164e+00	 9.916325713335676e-01	 1.095806054980034e+01
 1.512680862370868e+00	 1.027357081972180e+00	 1.079921034736946e+01
 1.488139027977261e+00	 1.062595003659041e+00	 1.064966111831535e+01
 1.462726322908246e+00	 1.097313815254742e+00	 1.051849115756012e+01
 1.436459298327973e+00	 1.131481611023788e+00	 1.041528146475838e+01
 1.671995428796423e+00	 7.749486101012426e-01	 1.164594059093601e+01
 1.653736955821508e+00	 8.131838177474986e-01	 1.158185131063513e+01
 1.634529432512017e+00	 8.511328512152869e-01	 1.148711372719383e+01
 1.614378137367023e+00	 8.887612610886734e-01	 1.136708597230212e+01
 1.593289984274342e+00	 9.260346345707517e-01	 1.122786884636762e+01
 1.571273531637759e+00	 9.629186911826185e-01	 1.107628661566065e+01
 1.548338984853731e+00	 9.993793798204444e-01	 1.091986066067559e+01
 1.524498191974515e+00	 1.035382976635103e+00	 1.076677596335073e+01
 1.499764632443794e+00	 1.070896183179308e+00	 1.062584051249840e+01
 1.474153398842403e+00	 1.105886224252765e+00	 1.050643780122524e+01
 1.447681171635097e+00	 1.140320944866739e+00	 1.041847268563943e+01
 1.684956114434273e+00	 7.809557230084924e-01	 1.161884098178270e+01
 1.666556108579333e+00	 8.194873157394583e-01	 1.154847214498855e+01
 1.647199695705267e+00	 8.577305159763660e-01	 1.144916133996415e+01
 1.626892195228096e+00	 8.956506072642391e-01	 1.132639529924431e+01
 1.605640574629505e+00	 9.332129100509844e-01	 1.118642636447964e+01
 1.583453458654829e+00	 9.703828781281937e-01	 1.103625248828241e+01
 1.560341131808945e+00	 1.007126196440562e+00	 1.088358984116824e+01
 1.536315533985785e+00	 1.043408879724244e+00	 1.073683801327341e+01
 1.511390249116649e+00	 1.079197371414791e+00	 1.060503789545561e+01
 1.485580486774423e+00	 1.114458642250760e+00	 1.049782242208281e+01
 1.458903056724601e+00	 1.149160287989920e+00	 1.042536045658889e+01
 1.346684578938213e+00	 1.060767150638615e+00	 1.052991732384965e+01
 1.321275203733934e+00	 1.092253732166055e+00	 1.034545637368177e+01
 1.295100217733402e+00	 1.123166013449718e+00	 1.020690508151908e+01
 1.268179341437932e+00	 1.153476356208247e+00	 1.012015029122830e+01
 1.240533615111960e+00	 1.183158040835369e+00	 1.010692134392225e+01
 1.212185344465141e+00	 1.212185344465141e+00	 1.017837071645140e+01
 1.183158040835369e+00	 1.240533615111961e+00	 1.030283345366243e+01
 1.153476356208246e+00	 1.268179341437933e+00	 1.007159820457876e+01
 1.123166013449718e+00	 1.295100217733403e+00	 9.654558612641800e+00
 1.092253732166054e+00	 1.321275203733934e+00	 9.261313546014270e+00
 1.060767150638615e+00	 1.346684578938213e+00	 8.896948511901240e+00
 1.357906405115834e+00	 1.069606447358677e+00	 1.050131266343184e+01
 1.332285295407249e+00	 1.101355404315454e+00	 1.033182241830851e+01
 1.305892195122514e+00	 1.132525275425623e+00	 1.021315812510670e+01
 1.278746989092457e+00	 1.163088192100015e+00	 1.015053895795932e+01
 1.250870892908526e+00	 1.193017212079803e+00	 1.014923304716622e+01
 1.222286398152247e+00	 1.222286398152248e+00	 1.025565870227791e+01
 1.193017212079802e+00	 1.250870892908527e+00	 1.040013713743320e+01
 1.163088192100015e+00	 1.278746989092458e+00	 9.997873884506852e+00
 1.132525275425623e+00	 1.305892195122514e+00	 9.612692559935667e+00
 1.101355404315453e+00	 1.332285295407250e+00	 9.248448809671785e+00
 1.069606447358677e+00	 1.357906405115834e+00	 8.909091200199931e+00
 1.369128232602603e+00	 1.078445745110314e+00	 1.047694261921626e+01
 1.343295388365096e+00	 1.110457077527072e+00	 1.032311596946533e+01
 1.316684173770791e+00	 1.141884538493812e+00	 1.022450484523357e+01
 1.289314637980051e+00	 1.172700029113527e+00	 1.018571108356548e+01
 1.261208171911349e+00	 1.202876384474809e+00	 1.021130955970104e+01
 1.232387453018106e+00	 1.232387453018106e+00	 1.033388429427490e+01
 1.202876384474808e+00	 1.261208171911349e+00	 1.030034407834433e+01
 1.172700029113527e+00	 1.289314637980052e+00	 9.930240902281223e+00
 1.141884538493811e+00	 1.316684173770792e+00	 9.575320452214259e+00
 1.110457077527072e+00	 1.343295388365097e+00	 9.238419593398580e+00
 1.078445745110314e+00	 1.369128232602603e+00	 8.922437492335282e+00
 1.380350062707676e+00	 1.087285044924608e+00	 1.045672277243751e+01
 1.354305483891912e+00	 1.119558752862599e+00	 1.031915294850759e+01
 1.327476154937207e+00	 1.151243803746028e+00	 1.024068859244924e+01
 1.299882289333497e+00	 1.182311868369999e+00	 1.022536321188502e+01
 1.271545453326321e+00	 1.212735559170472e+00	 1.027711415909107e+01
 1.242488510241032e+00	 1.242488510241033e+00	 1.041257944608864e+01
 1.212735559170472e+00	 1.271545453326321e+00	 1.020776210315313e+01
 1.182311868369999e+00	 1.299882289333497e+00	 9.868407983793754e+00
 1.151243803746028e+00	 1.327476154937208e+00	 9.542210252219792e+00
 1.119558752862599e+00	 1.354305483891912e+00	 9.231068816985143e+00
 1.087285044924608e+00	 1.380350062707676e+00	 8.936919007169847e+00
 1.391571896740206e+00	 1.096124347832640e+00	 1.044057400757664e+01
 1.365315583272132e+00	 1.128660431383724e+00	 1.031975778209119e+01
 1.338268139880734e+00	 1.160603072274015e+00	 1.026146354307195e+01
 1.310449944385579e+00	 1.191923710990649e+00	 1.026920419432982e+01
 1.281882738359330e+00	 1.222594737316876e+00	 1.034633390465074e+01
 1.252589570999343e+00	 1.252589570999343e+00	 1.044677944789303e+01
 1.222594737316875e+00	 1.281882738359331e+00	 1.012207053902687e+01
 1.191923710990648e+00	 1.310449944385579e+00	 9.812094690445505e+00
 1.160603072274015e+00	 1.338268139880735e+00	 9.513138813552427e+00
 1.128660431383724e+00	 1.365315583272132e+00	 9.226245835752112e+00
 1.096124347832640e+00	 1.391571896740206e+00	 8.952470897126966e+00
 1.402793736009346e+00	 1.104963654865492e+00	 1.042842230013749e+01
 1.376325687790191e+00	 1.137762114152136e+00	 1.032476306186824e+01
 1.349060129860346e+00	 1.169962345169516e+00	 1.028659426607288e+01
 1.321017604369081e+00	 1.201535558096693e+00	 1.031695469750979e+01
 1.292220028216271e+00	 1.232453920064102e+00	 1.041866833311122e+01
 1.262690636471355e+00	 1.262690636471356e+00	 1.035808962077521e+01
 1.232453920064102e+00	 1.292220028216272e+00	 1.004296043254418e+01
 1.201535558096693e+00	 1.321017604369082e+00	 9.761030985810887e+00
 1.169962345169516e+00	 1.349060129860347e+00	 9.487891525143022e+00
 1.137762114152136e+00	 1.376325687790191e+00	 9.223806183256041e+00
 1.104963654865492e+00	 1.402793736009346e+00	 8.969031706989174e+00
 1.414015581824253e+00	 1.113802967054246e+00	 1.042019851453543e+01
 1.387335798730527e+00	 1.146863802229525e+00	 1.033400922039566e+01
 1.359852126135016e+00	 1.179321623524276e+00	 1.031585531059421e+01
 1.331585270516789e+00	 1.211147410809349e+00	 1.036834673431382e+01
 1.302557324103033e+00	 1.242313108562236e+00	 1.049382896343916e+01
 1.272791707835383e+00	 1.272791707835383e+00	 1.027913970430051e+01
 1.242313108562235e+00	 1.302557324103034e+00	 9.970134084706352e+00
 1.211147410809349e+00	 1.331585270516789e+00	 9.714956822943870e+00
 1.179321623524276e+00	 1.359852126135016e+00	 9.466261972662092e+00
 1.146863802229524e+00	 1.387335798730527e+00	 9.223611326251678e+00
 1.113802967054246e+00	 1.414015581824252e+00	 8.986543239424572e+00
 1.425237435494077e+00	 1.122642285429984e+00	 1.041583821154148e+01
 1.398345917377575e+00	 1.155965496677579e+00	 1.034734422236290e+01
 1.370644129963715e+00	 1.188680908430038e+00	 1.034903081296268e+01
 1.342152944061485e+00	 1.220759270249834e+00	 1.042312321715310e+01
 1.312894627225508e+00	 1.252172303961360e+00	 1.053506996306109e+01
 1.282892786269745e+00	 1.282892786269745e+00	 1.020953571958052e+01
 1.252172303961359e+00	 1.312894627225508e+00	 9.907377034915642e+00
 1.220759270249834e+00	 1.342152944061485e+00	 9.673621751187978e+00
 1.188680908430037e+00	 1.370644129963716e+00	 9.448051615931064e+00
 1.155965496677578e+00	 1.398345917377575e+00	 9.225528431236297e+00
 1.122642285429984e+00	 1.425237435494076e+00	 9.004950426869751e+00
 1.436459298327973e+00	 1.131481611023788e+00	 1.041528146475838e+01
 1.409356045015772e+00	 1.165067198557988e+00	 1.036462327030092e+01
 1.381436142605417e+00	 1.198040200978544e+00	 1.038591412213322e+01
 1.352720626235953e+00	 1.230371137539366e+00	 1.048103753215519e+01
 1.323231938789585e+00	 1.262031507411558e+00	 1.045419075144561e+01
 1.292993872952757e+00	 1.292993872952757e+00	 1.014889470750240e+01
 1.262031507411557e+00	 1.323231938789586e+00	 9.866026304430303e+00
 1.230371137539366e+00	 1.352720626235953e+00	 9.636784541423905e+00
 1.198040200978543e+00	 1.381436142605418e+00	 9.433069481460475e+00
 1.165067198557988e+00	 1.409356045015773e+00	 9.229430141941469e+00
 1.131481611023788e+00	 1.436459298327974e+00	 9.024201209421857e+00
 1.447681171635097e+00	 1.140320944866739e+00	 1.041847268563943e+01
 1.420366182929554e+00	 1.174168908932441e+00	 1.038570852398632e+01
 1.392228165319096e+00	 1.207399502261539e+00	 1.042630744256146e+01
 1.363288318272978e+00	 1.239983013799161e+00	 1.054185313317154e+01
 1.333569260001157e+00	 1.271890720062913e+00	 1.038286372280874e+01
 1.303094969062733e+00	 1.303094969062734e+00	 1.009684430159368e+01
 1.271890720062912e+00	 1.333569260001157e+00	 9.832155896468345e+00
 1.239983013799161e+00	 1.363288318272979e+00	 9.604212828753457e+00
 1.207399502261539e+00	 1.392228165319096e+00	 9.421131869294214e+00
 1.174168908932441e+00	 1.420366182929554e+00	 9.235194367179027e+00
 1.140320944866739e+00	 1.447681171635097e+00	 9.044246418413442e+00
 1.458903056724601e+00	 1.149160287989920e+00	 1.042536045658889e+01
 1.431376332403356e+00	 1.183270628862627e+00	 1.041046883280331e+01
 1.403020199363723e+00	 1.216758813370768e+00	 1.047002149356711e+01
 1.373856021405344e+00	 1.249594900150438e+00	 1.060534315453129e+01
 1.343906592066114e+00	 1.281749943065508e+00	 1.032072455054974e+01
 1.313196075777992e+00	 1.313196075777993e+00	 1.005302232060240e+01
 1.281749943065507e+00	 1.343906592066115e+00	 9.805422948207573e+00
 1.249594900150437e+00	 1.373856021405345e+00	 9.575682771680881e+00
 1.216758813370767e+00	 1.403020199363723e+00	 9.412062073389460e+00
 1.183270628862627e+00	 1.431376332403357e+00	 9.242704078482713e+00
 1.149160287989920e+00	 1.458903056724601e+00	 9.065039665364315e+00
 1.060767150638615e+00	 1.346684578938213e+00	 8.896948511901240e+00
 1.028734747275635e+00	 1.371309987385168e+00	 8.563495776366702e+00
 9.961857650463243e-01	 1.395134468918961e+00	 8.257077587425950e+00
 9.631501156661958e-01	 1.418142506777268e+00	 7.973731666669110e+00
 9.296582877936426e-01	 1.440320061303935e+00	 7.709190143712870e+00
 8.957412568300408e-01	 1.461654593440431e+00	 7.458917049190002e+00
 8.614303939007100e-01	 1.482135081706625e+00	 7.218147094710018e+00
 8.267573745549465e-01	 1.501752032679311e+00	 6.981925389982093e+00
 7.917540877149102e-01	 1.520497485026513e+00	 6.745147744789569e+00
 7.564525453896809e-01	 1.538365007203576e+00	 6.502601205244050e+00
 7.208847936526629e-01	 1.555349688962692e+00	 6.249004479593880e+00
 1.069606447358677e+00	 1.357906405115834e+00	 8.909091200199931e+00
 1.037307120272059e+00	 1.382737015328291e+00	 8.595023159680267e+00
 1.004486909704371e+00	 1.406760024561010e+00	 8.301999140613921e+00
 9.711759766233082e-01	 1.429959786751590e+00	 8.026840732587972e+00
 9.374050637470666e-01	 1.452322145252417e+00	 7.766124421913622e+00
 9.032054045928201e-01	 1.473834456517870e+00	 7.516211404974738e+00
 8.686086316992259e-01	 1.494485607226608e+00	 7.273278414958953e+00
 8.336466845656616e-01	 1.514266024847395e+00	 7.033349293947596e+00
 7.983517178423887e-01	 1.533167681707038e+00	 6.792327040035351e+00
 7.627560102922631e-01	 1.551184092667272e+00	 6.546026059947941e+00
 7.268918750263222e-01	 1.568310306563534e+00	 6.290204361449907e+00
 1.078445745110314e+00	 1.369128232602603e+00	 8.922437492335282e+00
 1.045879494268859e+00	 1.394164044604415e+00	 8.626397099235245e+00
 1.012788055331076e+00	 1.418385581559138e+00	 8.345841484338090e+00
 9.792018385168759e-01	 1.441777068104277e+00	 8.078324511724521e+00
 9.451518406042926e-01	 1.464324230600748e+00	 7.821210869308319e+00
 9.106695532263354e-01	 1.486014321015837e+00	 7.571698675424352e+00
 8.757868703350344e-01	 1.506836134186976e+00	 7.326842848417715e+00
 8.405359953798860e-01	 1.526780018474900e+00	 7.083579047945881e+00
 8.049493487392894e-01	 1.545837879865191e+00	 6.838747994511421e+00
 7.690594759299142e-01	 1.564003179625969e+00	 6.589119973586623e+00
 7.328989571004663e-01	 1.581270925675919e+00	 6.331419332542999e+00
 1.087285044924608e+00	 1.380350062707676e+00	 8.936919007169847e+00
 1.054451870265985e+00	 1.405591076546650e+00	 8.657632888162111e+00
 1.021089202894760e+00	 1.430011141269625e+00	 8.388682048114354e+00
 9.872277022831192e-01	 1.453594352213985e+00	 8.128302450324693e+00
 9.528986192690011e-01	 1.476326318749156e+00	 7.874592322784146e+00
 9.181337036013135e-01	 1.498194188355299e+00	 7.625528023086552e+00
 8.829651106455275e-01	 1.519186664028611e+00	 7.378980438863542e+00
 8.474253078013217e-01	 1.539294015021778e+00	 7.132731804216263e+00
 8.115469811753013e-01	 1.558508080979141e+00	 6.884492810445472e+00
 7.753629430380159e-01	 1.576822269575201e+00	 6.631919888254891e+00
 7.389060405759063e-01	 1.594231547811876e+00	 6.372632538541865e+00
 1.096124347832640e+00	 1.391571896740206e+00	 8.952470897126966e+00
 1.063024249263387e+00	 1.417018112488103e+00	 8.688746610142470e+00
 1.029390353363742e+00	 1.441636705048751e+00	 8.430597000911243e+00
 9.952535688582581e-01	 1.465411640459374e+00	 8.176891329471161e+00
 9.606454006448711e-01	 1.488328411097861e+00	 7.926408148085879e+00
 9.255978565884818e-01	 1.510374059957227e+00	 7.677844882007805e+00
 8.901433534680955e-01	 1.531537198192394e+00	 7.429827740907224e+00
 8.543146226336705e-01	 1.551808015947975e+00	 7.180921908289020e+00
 8.181446159201131e-01	 1.571178286527056e+00	 6.929641953990002e+00
 7.816664123519507e-01	 1.589641364010496e+00	 6.674462412738452e+00
 7.449131261534554e-01	 1.607192174483440e+00	 6.413828469833192e+00
 1.104963654865492e+00	 1.402793736009346e+00	 8.969031706989174e+00
 1.071596632261015e+00	 1.428445153761882e+00	 8.719755107935557e+00
 1.037691507706341e+00	 1.453262274252797e+00	 8.471661301722198e+00
 1.003279439178513e+00	 1.477228934219099e+00	 8.224205371837531e+00
 9.683921856355830e-01	 1.500330509047090e+00	 7.976794378801943e+00
 9.330620130585670e-01	 1.522553937242589e+00	 7.728791107003859e+00
 8.973215996401297e-01	 1.543887738119204e+00	 7.479517959678992e+00
 8.612039406806341e-01	 1.564322022713443e+00	 7.228261011361122e+00
 8.247422537434145e-01	 1.583848497987105e+00	 6.974274224763309e+00
 7.879698846071006e-01	 1.602460464427385e+00	 6.716783835937237e+00
 7.509202145339245e-01	 1.620152807202639e+00	 6.454992907820861e+00
 1.113802967054246e+00	 1.414015581824252e+00	 8.986543239424572e+00
 1.080169020258817e+00	 1.439872201701093e+00	 8.750675953406695e+00
 1.045992666890877e+00	 1.464887850238044e+00	 8.511948747731864e+00
 1.011305314180105e+00	 1.489046234871818e+00	 8.270356343359868e+00
 9.761389751448162e-01	 1.512332613997067e+00	 8.025883848732633e+00
 9.405261738822962e-01	 1.534733821632353e+00	 7.778505115822583e+00
 9.044998499990210e-01	 1.556238285249923e+00	 7.528181083863187e+00
 8.680932627459145e-01	 1.576836036778132e+00	 7.274858177322338e+00
 8.313398954148933e-01	 1.596518716837457e+00	 7.018466822080359e+00
 7.942733605388482e-01	 1.615279572321401e+00	 6.758920139650815e+00
 7.569273064181261e-01	 1.633113447481505e+00	 6.496112873784783e+00
 1.122642285429984e+00	 1.425237435494076e+00	 9.004950426869751e+00
 1.088741414256743e+00	 1.451299257638846e+00	 8.781527418973770e+00
 1.054293831885671e+00	 1.476513434360772e+00	 8.551532020208244e+00
 1.019331194799253e+00	 1.500863543796189e+00	 8.315453650105653e+00
 9.838857700762512e-01	 1.524334727348017e+00	 8.073806318005342e+00
 9.479903399303966e-01	 1.546913714547491e+00	 7.827122024590614e+00
 9.116781053821611e-01	 1.568588841025433e+00	 7.575944012448012e+00
 8.749825896332130e-01	 1.589350059601992e+00	 7.320819984724992e+00
 8.379375417042393e-01	 1.609188944556281e+00	 7.062295408054447e+00
 8.005768408825752e-01	 1.628098689188072e+00	 6.800907010761000e+00
 7.629344025068716e-01	 1.646074096832072e+00	 6.537176580157414e+00
 1.131481611023788e+00	 1.436459298327974e+00	 9.024201209421857e+00
 1.097313815254742e+00	 1.462726322908246e+00	 8.812328450394773e+00
 1.062595003659041e+00	 1.488139027977262e+00	 8.590482728244808e+00
 1.027357081972179e+00	 1.512680862370868e+00	 8.359604430603158e+00
 9.916325713335669e-01	 1.536336850500164e+00	 8.120688593278775e+00
 9.554545120735946e-01	 1.559093617408970e+00	 7.874773776911843e+00
 9.188563666269405e-01	 1.580939406886611e+00	 7.622930675534359e+00
 8.818719221462320e-01	 1.601864092644972e+00	 7.366250623974322e+00
 8.445351933811404e-01	 1.621859182621744e+00	 7.105834167742930e+00
 8.068803263736645e-01	 1.640917816522931e+00	 6.842779852845119e+00
 7.689415035009731e-01	 1.659034756766367e+00	 6.578173384086117e+00
 1.140320944866739e+00	 1.447681171635097e+00	 9.044246418413442e+00
 1.105886224252765e+00	 1.474153398842404e+00	 8.843098640823495e+00
 1.070896183179307e+00	 1.499764632443794e+00	 8.628871450470653e+00
 1.035382976635102e+00	 1.524498191974515e+00	 8.402913643877564e+00
 9.993793798204437e-01	 1.548338984853732e+00	 8.166654642356722e+00
 9.629186911826177e-01	 1.571273531637760e+00	 7.921589266961371e+00
 9.260346345707511e-01	 1.593289984274343e+00	 7.669262149526467e+00
 8.887612610886730e-01	 1.614378137367024e+00	 7.411251989999526e+00
 8.511328512152861e-01	 1.634529432512017e+00	 7.149155866495777e+00
 8.131838177474978e-01	 1.653736955821508e+00	 6.884573797249898e+00
 7.749486101012426e-01	 1.671995428796423e+00	 6.619093743157330e+00
 1.149160287989920e+00	 1.458903056724601e+00	 9.065039665364315e+00
 1.114458642250760e+00	 1.485580486774424e+00	 8.873858206065051e+00
 1.079197371414790e+00	 1.511390249116649e+00	 8.666767774836385e+00
 1.043408879724243e+00	 1.536315533985785e+00	 8.445484153424983e+00
 1.007126196440562e+00	 1.560341131808945e+00	 8.211825703513233e+00
 9.703828781281930e-01	 1.583453458654829e+00	 7.967694456899187e+00
 9.332129100509838e-01	 1.605640574629505e+00	 7.715056767006126e+00
 8.956506072642383e-01	 1.626892195228096e+00	 7.455923770648015e+00
 8.577305159763654e-01	 1.647199695705267e+00	 7.192331904658685e+00
 8.194873157394577e-01	 1.666556108579334e+00	 6.926323713656121e+00
 7.809557230084923e-01	 1.684956114434272e+00	 6.659929173166031e+00
 7.208847936526629e-01	 1.555349688962692e+00	 6.249004479593877e+00
 6.850853372827741e-01	 1.571447032686810e+00	 5.977705020010047e+00
 6.490835353685449e-01	 1.586656349736946e+00	 5.689184404566570e+00
 6.129110055660850e-01	 1.600977193512580e+00	 5.388973500737789e+00
 5.765990655328243e-01	 1.614410546750085e+00	 5.082675350443503e+00
 5.401786568250596e-01	 1.626958785750686e+00	 4.775917675700164e+00
 5.036802724514819e-01	 1.638625640113148e+00	 4.474307230358866e+00
 4.671338883575810e-01	 1.649416148345699e+00	 4.183386354721586e+00
 4.305688990762302e-01	 1.659336609746896e+00	 3.908592045122959e+00
 3.940140577397680e-01	 1.668394532956102e+00	 3.655217804143182e+00
 3.574974206089847e-01	 1.676598581580888e+00	 3.428378489859389e+00
 7.268918750263222e-01	 1.568310306563534e+00	 6.290204361449905e+00
 6.907941043493353e-01	 1.584541788300445e+00	 6.019532024146769e+00
 6.544923019970291e-01	 1.599877843500642e+00	 5.734656640366245e+00
 6.180183490931941e-01	 1.614318021842112e+00	 5.440392568522783e+00
 5.814038242630725e-01	 1.627863314250304e+00	 5.141597902492365e+00
 5.446799268967494e-01	 1.640516116827987e+00	 4.843133403403291e+00
 5.078774040989904e-01	 1.652280190252410e+00	 4.549823209809189e+00
 4.710264816027066e-01	 1.663160615017326e+00	 4.266417629106081e+00
 4.341567988833242e-01	 1.673163742912899e+00	 3.997558272102835e+00
 3.972973486709883e-01	 1.682297145147446e+00	 3.747745750435474e+00
 3.604764210173155e-01	 1.690569557521760e+00	 3.521310113820688e+00
 7.328989571004663e-01	 1.581270925675919e+00	 6.331419332542999e+00
 6.965028720816041e-01	 1.597636545441325e+00	 6.061468970389734e+00
 6.599010692562729e-01	 1.613099338806442e+00	 5.780008059486100e+00
 6.231256932159656e-01	 1.627658851727757e+00	 5.491206247196052e+00
 5.862085835537600e-01	 1.641316083319784e+00	 5.199251369592130e+00
 5.491811974935527e-01	 1.654073449486838e+00	 4.908314187815829e+00
 5.120745362362032e-01	 1.665934741984644e+00	 4.622514841013186e+00
 4.749190753020673e-01	 1.676905083292483e+00	 4.345891270030490e+00
 4.377446991091440e-01	 1.686990877692122e+00	 4.082369828490577e+00
 4.005806399854071e-01	 1.696199758960834e+00	 3.835738259439881e+00
 3.634554217733189e-01	 1.704540535092635e+00	 3.609621177185232e+00
 7.389060405759063e-01	 1.594231547811876e+00	 6.372632538541865e+00
 7.022116411455905e-01	 1.610731305637117e+00	 6.103451823369630e+00
 6.653098377772835e-01	 1.626320837196780e+00	 5.825146836138765e+00
 6.282330385302360e-01	 1.640999684725852e+00	 5.541312508359475e+00
 5.910133439654147e-01	 1.654768855527908e+00	 5.255539262485652e+00
 5.536824691405809e-01	 1.667630785308807e+00	 4.971382940542283e+00
 5.162716693527424e-01	 1.679589296902752e+00	 4.692336393315919e+00
 4.788116699097502e-01	 1.690649554774555e+00	 4.421802940808306e+00
 4.413326001722285e-01	 1.700818015697596e+00	 4.163071880104299e+00
 4.038639320660276e-01	 1.710102376018112e+00	 3.919296181769988e+00
 3.664344232245057e-01	 1.718511515923357e+00	 3.693472480999046e+00
 7.449131261534554e-01	 1.607192174483440e+00	 6.413828469833191e+00
 7.079204122073058e-01	 1.623826070415485e+00	 6.145419357316586e+00
 6.707186081910698e-01	 1.639542340214093e+00	 5.869984794066244e+00
 6.333403856318418e-01	 1.654340522392739e+00	 5.590613246536392e+00
 5.958181060585638e-01	 1.668221632444062e+00	 5.310368781486315e+00
 5.581837423629469e-01	 1.681188125875464e+00	 5.032265583537933e+00
 5.204688039382303e-01	 1.693243856599634e+00	 4.759244082984885e+00
 4.827042658798433e-01	 1.704394031066930e+00	 4.494148866188466e+00
 4.449205024911150e-01	 1.714645158542355e+00	 4.239708509013220e+00
 4.071472252958531e-01	 1.724004997941130e+00	 3.998517441702563e+00
 3.694134257183873e-01	 1.732482501643770e+00	 3.773019921947906e+00
 7.509202145339245e-01	 1.620152807202639e+00	 6.454992907820861e+00
 7.136291859327608e-01	 1.636920841304096e+00	 6.187313043766576e+00
 6.761273811286393e-01	 1.652763849400814e+00	 5.914437260655955e+00
 6.384477351166191e-01	 1.667681366284758e+00	 5.639014122361145e+00
 6.006228703937347e-01	 1.681674415637626e+00	 5.363650669011653e+00
 5.626850176857628e-01	 1.694745472768375e+00	 5.090890928821898e+00
 5.246659404822889e-01	 1.706898422668192e+00	 4.823195995467056e+00
 4.865968636664338e-01	 1.718138513772993e+00	 4.562925810036123e+00
 4.485084064843421e-01	 1.728472307839431e+00	 4.312322757023590e+00
 4.104305200578863e-01	 1.737907626351737e+00	 4.073497154359073e+00
 3.723924296024744e-01	 1.746453493883714e+00	 3.848414688642203e+00
 7.569273064181261e-01	 1.633113447481505e+00	 6.496112873784783e+00
 7.193379629879660e-01	 1.650015619830615e+00	 6.229076944618111e+00
 6.815361572210011e-01	 1.665985366299380e+00	 5.958422928005824e+00
 6.435550875804052e-01	 1.681022217958248e+00	 5.686424413238379e+00
 6.054276375314549e-01	 1.695127206677984e+00	 5.415299069141927e+00
 5.671862956341406e-01	 1.708302827569109e+00	 5.147190563919143e+00
 5.288630794745408e-01	 1.720552996701325e+00	 4.884152011349863e+00
 4.904894637236094e-01	 1.731883004496130e+00	 4.628131054076644e+00
 4.520963125704475e-01	 1.742299465201855e+00	 4.380956667094882e+00
 4.137138167351306e-01	 1.751810262871778e+00	 4.144327737305998e+00
 3.753714352242780e-01	 1.760424494273034e+00	 3.919803448552707e+00
 7.629344025068716e-01	 1.646074096832072e+00	 6.537176580157414e+00
 7.250467440389318e-01	 1.663110407522708e+00	 6.270657610243287e+00
 6.869449370991632e-01	 1.679206892452224e+00	 6.001863720556845e+00
 6.486624436190357e-01	 1.694363078969549e+00	 5.732756871060520e+00
 6.102324080322518e-01	 1.708580007134521e+00	 5.465231393816094e+00
 5.716875767331934e-01	 1.721860191859236e+00	 5.201098742717161e+00
 5.330602214046076e-01	 1.734207580291934e+00	 4.942073735821289e+00
 4.943820665054574e-01	 1.745627504839728e+00	 4.689762377645351e+00
 4.556842211679696e-01	 1.756126632242662e+00	 4.445651322798693e+00
 4.169971157105890e-01	 1.765712909123104e+00	 4.211099016882429e+00
 3.783504429313092e-01	 1.774395504441572e+00	 3.987328526114305e+00
 7.689415035009731e-01	 1.659034756766367e+00	 6.578173384086119e+00
 7.307555297516694e-01	 1.676205205908041e+00	 6.312003982377670e+00
 6.923537213941330e-01	 1.692428429401784e+00	 6.044684668932146e+00
 6.537698038283479e-01	 1.707703950875003e+00	 5.777927586597303e+00
 6.150371824566522e-01	 1.722032818576619e+00	 5.513368195302270e+00
 5.761888615080327e-01	 1.735417567220324e+00	 5.252552281440945e+00
 5.372573667621120e-01	 1.747862175032921e+00	 4.996924431438234e+00
 4.982746724660653e-01	 1.759372016407173e+00	 4.747818038386730e+00
 4.592721326954463e-01	 1.769953810574882e+00	 4.506446885928794e+00
 4.202804173672643e-01	 1.779615566727561e+00	 4.273898329542448e+00
 3.813294530710786e-01	 1.788366526019169e+00	 4.051128072478635e+00
 7.749486101012426e-01	 1.671995428796423e+00	 6.619093743157330e+00
 7.364643207921892e-01	 1.689300016514279e+00	 6.353067301528588e+00
 6.977625107369196e-01	 1.705649978690491e+00	 6.086813789646716e+00
 6.588771688041773e-01	 1.721044835230948e+00	 5.821855860194987e+00
 6.198419613651840e-01	 1.735485642573660e+00	 5.559633044601840e+00
 5.806901504837709e-01	 1.748974955233940e+00	 5.301490459468162e+00
 5.414545160366762e-01	 1.761516782517186e+00	 5.048668954023502e+00
 5.021672820595209e-01	 1.773116540801851e+00	 4.802296753852909e+00
 4.628600475714159e-01	 1.783781001811550e+00	 4.563382632361854e+00
 4.235637220881601e-01	 1.793518237307000e+00	 4.332810618484062e+00
 3.843084659910977e-01	 1.802337560635670e+00	 4.111336227370763e+00
 7.809557230084923e-01	 1.684956114434272e+00	 6.659929173166029e+00
 7.421731178265022e-01	 1.702394840869089e+00	 6.393801018659638e+00
 7.031713057585309e-01	 1.718871541860783e+00	 6.128181970371175e+00
 6.639845391423617e-01	 1.734385733593725e+00	 5.864464078445980e+00
 6.246467453183745e-01	 1.748938480695031e+00	 5.603952415468038e+00
 5.851914441855204e-01	 1.762532357481655e+00	 5.347854924723626e+00
 5.456516697179219e-01	 1.775171404337629e+00	 5.097273691522608e+00
 5.060598957399114e-01	 1.786861079627148e+00	 4.853197683951859e+00
 4.664479662144161e-01	 1.797608207565696e+00	 4.616496986263575e+00
 4.268470302562790e-01	 1.807420922483264e+00	 4.387918525817605e+00
 3.872874820388771e-01	 1.816308609920916e+00	 4.168083273474444e+00
 3.574974206089847e-01	 1.676598581580888e+00	 3.428378489859389e+00
 3.210437537352151e-01	 1.683959003333080e+00	 3.230615695649633e+00
 2.846821660173839e-01	 1.690485997782369e+00	 3.059090028427170e+00
 2.484383771600480e-01	 1.696191347520098e+00	 2.910627971589728e+00
 2.123372325162998e-01	 1.701087751890542e+00	 2.782046146711354e+00
 1.764026711984843e-01	 1.705188763979623e+00	 2.670169896172615e+00
 1.406576988713968e-01	 1.708508727057505e+00	 2.571851073255920e+00
 1.051243651388339e-01	 1.711062710828929e+00	 2.483984932964878e+00
 6.982374540812293e-02	 1.712866447826537e+00	 2.403526030598658e+00
 3.477592709370159e-02	 1.713936270261961e+00	 2.327503049286662e+00
 0.000000000000000e+00	 1.714289047627778e+00	 2.253032492027603e+00
 3.604764210173155e-01	 1.690569557521760e+00	 3.521310113820688e+00
 3.237189883473829e-01	 1.697991313141118e+00	 3.320367039076508e+00
 2.870544021224811e-01	 1.704572696567507e+00	 3.142892526326075e+00
 2.505085963676162e-01	 1.710325588575774e+00	 2.986811887146641e+00
 2.141066234704213e-01	 1.715262794332936e+00	 2.850050499560546e+00
 1.778726220261427e-01	 1.719397979861820e+00	 2.730543973369580e+00
 1.418297894041262e-01	 1.722745607954046e+00	 2.626247977233014e+00
 1.060003589459304e-01	 1.725320873889138e+00	 2.535147660392159e+00
 7.040558167873620e-02	 1.727139641297820e+00	 2.455266608028875e+00
 3.506571240396045e-02	 1.728218378486884e+00	 2.384675275917826e+00
 0.000000000000000e+00	 1.728574095521189e+00	 2.321498857157245e+00
 3.634554217733189e-01	 1.704540535092635e+00	 3.609621177185232e+00
 3.263942232717195e-01	 1.712023624586264e+00	 3.405852994529260e+00
 2.894266385043065e-01	 1.718659396996017e+00	 3.223183015246754e+00
 2.525788158165745e-01	 1.724459831280267e+00	 3.060432665039253e+00
 2.158760146307361e-01	 1.729437838428791e+00	 2.916432974698399e+00
 1.793425730249773e-01	 1.733607197401348e+00	 2.790027764504818e+00
 1.430018800732300e-01	 1.736982490511031e+00	 2.680076859827886e+00
 1.068763528548503e-01	 1.739579038612175e+00	 2.585459304180397e+00
 7.098741801690550e-02	 1.741412836433599e+00	 2.505076535710778e+00
 3.535549774782404e-02	 1.742500488377288e+00	 2.437855493588712e+00
 0.000000000000000e+00	 1.742859145080407e+00	 2.382751621888808e+00
 3.664344232245057e-01	 1.718511515923357e+00	 3.693472480999046e+00
 3.290694588203119e-01	 1.726055939305545e+00	 3.487278135719563e+00
 2.917988754396156e-01	 1.732746100711309e+00	 3.300177879478755e+00
 2.546490357484634e-01	 1.738594077282575e+00	 3.131691634826473e+00
 2.176454062037082e-01	 1.743612885831910e+00	 2.981358061577691e+00
 1.808125243665334e-01	 1.747816418256036e+00	 2.848732176475606e+00
 1.441739710155136e-01	 1.751219376389558e+00	 2.733383289855950e+00
 1.077523469678564e-01	 1.753837206661650e+00	 2.634893252694026e+00
 7.156925449056739e-02	 1.755686034899275e+00	 2.552855002111011e+00
 3.564528315913577e-02	 1.756782601599632e+00	 2.486871388968316e+00
 0.000000000000000e+00	 1.757144197972236e+00	 2.436554267584781e+00
 3.694134257183873e-01	 1.732482501643770e+00	 3.773019921947906e+00
 3.317446953052459e-01	 1.740088258935989e+00	 3.564840678116501e+00
 2.941711132051638e-01	 1.746832809356790e+00	 3.374086724707616e+00
 2.567192564048237e-01	 1.752728328231689e+00	 3.200783796454767e+00
 2.194147983958010e-01	 1.757787938196089e+00	 3.044985074739252e+00
 1.822824762223561e-01	 1.762025644083713e+00	 2.906764639206260e+00
 1.453460623677824e-01	 1.765456267250724e+00	 2.786211439651661e+00
 1.086283413872118e-01	 1.768095379701183e+00	 2.683423802535287e+00
 7.215109116765843e-02	 1.769959238360240e+00	 2.598504477441238e+00
 3.593506867173904e-02	 1.771064719820369e+00	 2.531556220707037e+00
 0.000000000000000e+00	 1.771429255863481e+00	 2.482677906318176e+00
 3.723924296024744e-01	 1.746453493883714e+00	 3.848414688642203e+00
 3.344199330386081e-01	 1.754120585114621e+00	 3.638732733360421e+00
 2.965433520777064e-01	 1.760919524575867e+00	 3.445112649212791e+00
 2.587894780271962e-01	 1.766862585776609e+00	 3.267898073467024e+00
 2.211841914134786e-01	 1.771962997175130e+00	 3.107468360809429e+00
 1.837524287639907e-01	 1.776234876542210e+00	 2.964229244714644e+00
 1.465181542668414e-01	 1.779693164755627e+00	 2.838604140916840e+00
 1.095043362151794e-01	 1.782353559394389e+00	 2.731026122223787e+00
 7.273292811611519e-02	 1.784232448481896e+00	 2.641930582441743e+00
 3.622485431947724e-02	 1.785346844705956e+00	 2.571748596683713e+00
 0.000000000000000e+00	 1.785714320420949e+00	 2.520900975875528e+00
 3.753714352242780e-01	 1.760424494273034e+00	 3.919803448552707e+00
 3.370951723324846e-01	 1.768152919478469e+00	 3.709140551559483e+00
 2.989155923339992e-01	 1.775006248011952e+00	 3.513452502149322e+00
 2.608597008571213e-01	 1.780996851566330e+00	 3.333217554152592e+00
 2.229535854632042e-01	 1.786138064422830e+00	 3.168957495638988e+00
 1.852223821629825e-01	 1.790444117289355e+00	 3.021226879554982e+00
 1.476902468494962e-01	 1.793930070565365e+00	 2.890602937908452e+00
 1.103803315540222e-01	 1.796611747404885e+00	 2.777676217606214e+00
 7.331476540387417e-02	 1.798505666929638e+00	 2.683041963415524e+00
 3.651464013619379e-02	 1.799628977922850e+00	 2.607292261862290e+00
 0.000000000000000e+00	 1.799999393311444e+00	 2.551008949286452e+00
 3.783504429313092e-01	 1.774395504441572e+00	 3.987328526114305e+00
 3.397704134989622e-01	 1.782185263664560e+00	 3.776244752137555e+00
 3.012878342507974e-01	 1.789092981308450e+00	 3.579297129625574e+00
 2.629299251361400e-01	 1.795131127249847e+00	 3.396919721301498e+00
 2.247229807514416e-01	 1.800313141592991e+00	 3.229597472126031e+00
 1.866923365908766e-01	 1.804653367982979e+00	 3.077855351002306e+00
 1.488623402525520e-01	 1.808166986341034e+00	 2.942248138113229e+00
 1.112563275060033e-01	 1.810869945396284e+00	 2.823350898900983e+00
 7.389660309887201e-02	 1.812778895368865e+00	 2.721750173166849e+00
 3.680442615573210e-02	 1.813911121137507e+00	 2.638035896173844e+00
 0.000000000000000e+00	 1.814284476201773e+00	 2.572794058080025e+00
 3.813294530710786e-01	 1.788366526019169e+00	 4.051128072478635e+00
 3.424456568501270e-01	 1.796217619309920e+00	 3.840220543858849e+00
 3.036600781048563e-01	 1.803179726108770e+00	 3.642831609242463e+00
 2.650001511057929e-01	 1.809265414476159e+00	 3.459176671186584e+00
 2.264923774846549e-01	 1.814488230339411e+00	 3.289528879233237e+00
 1.881622922192183e-01	 1.818862630280913e+00	 3.134209507321258e+00
 1.500344346128140e-01	 1.822403913743735e+00	 2.993578860546878e+00
 1.121323241733855e-01	 1.825128155032206e+00	 2.868027749287604e+00
 7.447844126904522e-02	 1.827052135464974e+00	 2.757969557523239e+00
 3.709421241193553e-02	 1.828193276016381e+00	 2.663832921874154e+00
 0.000000000000000e+00	 1.828569570758740e+00	 2.586055028515419e+00
 3.843084659910977e-01	 1.802337560635670e+00	 4.111336227370763e+00
 3.451209026980651e-01	 1.810249988051577e+00	 3.901237934616999e+00
 3.060323241729317e-01	 1.817266484056323e+00	 3.704235473723595e+00
 2.670703790076207e-01	 1.823399714894258e+00	 3.520155322359931e+00
 2.282617758693074e-01	 1.828663332315890e+00	 3.348888072677417e+00
 1.896322492195529e-01	 1.833071905840984e+00	 3.190381352439405e+00
 1.512065300670876e-01	 1.836640854434563e+00	 3.044633081806438e+00
 1.130083216584319e-01	 1.839386377976264e+00	 2.911685094957804e+00
 7.506027998233038e-02	 1.841325388883361e+00	 2.791617147135585e+00
 3.738399893864753e-02	 1.842475444225930e+00	 2.684541319863841e+00
 0.000000000000000e+00	 1.842854678649152e+00	 2.590596830084290e+00
 3.872874820388771e-01	 1.816308609920916e+00	 4.168083273474444e+00
 3.477961513548631e-01	 1.824282371526556e+00	 3.959461931539960e+00
 3.084045727317791e-01	 1.831353256794514e+00	 3.763682924220504e+00
 2.691406090831641e-01	 1.837534030153142e+00	 3.580017614808985e+00
 2.300311761118629e-01	 1.842838449176229e+00	 3.407807337739352e+00
 1.911022077634256e-01	 1.847281196321023e+00	 3.246460155327588e+00
 1.523786267521780e-01	 1.850877810074617e+00	 3.095447679996201e+00
 1.138843200634055e-01	 1.853644615892075e+00	 2.954301976549272e+00
 7.564211930666406e-02	 1.855598657289427e+00	 2.822612554273893e+00
 3.767378576971149e-02	 1.856757627432609e+00	 2.700023454487838e+00
 0.000000000000000e+00	 1.857139801539814e+00	 2.586230435622601e+00
 1.857139801539814e+00	 0.000000000000000e+00	 1.235680192406799e+01
 1.856757627432609e+00	 3.767378576971200e-02	 1.238397761314594e+01
 1.855598657289427e+00	 7.564211930666453e-02	 1.239752793652575e+01
 1.853644615892075e+00	 1.138843200634058e-01	 1.239844633706732e+01
 1.850877810074617e+00	 1.523786267521784e-01	 1.238776299898507e+01
 1.847281196321023e+00	 1.911022077634259e-01	 1.236654858317756e+01
 1.842838449176228e+00	 2.300311761118631e-01	 1.233591840644825e+01
 1.837534030153142e+00	 2.691406090831643e-01	 1.229703702555155e+01
 1.831353256794514e+00	 3.084045727317791e-01	 1.225112317303498e+01
 1.824282371526556e+00	 3.477961513548631e-01	 1.219945497739787e+01
 1.816308609920916e+00	 3.872874820388771e-01	 1.214337538542982e+01
 1.871425938885499e+00	 0.000000000000000e+00	 1.236115607645151e+01
 1.871040824885513e+00	 3.796359318002383e-02	 1.238785653272962e+01
 1.869872939308534e+00	 7.622399995034108e-02	 1.240064733448768e+01
 1.867903866353384e+00	 1.147603806773741e-01	 1.240062510325095e+01
 1.865115776748616e+00	 1.535508066735918e-01	 1.238892333549168e+01
 1.861491495870142e+00	 1.925722706961614e-01	 1.236671550347372e+01
 1.857014572678569e+00	 2.318007020079917e-01	 1.233521857143559e+01
 1.851669349156259e+00	 2.712109861755549e-01	 1.229569689116603e+01
 1.845441029900473e+00	 3.107769897551533e-01	 1.224946642743156e+01
 1.838315751506641e+00	 3.504715899935780e-01	 1.219789924961891e+01
 1.830280651355449e+00	 3.902667096404622e-01	 1.214242821163254e+01
 1.885712081233184e+00	 0.000000000000000e+00	 1.236626497360346e+01
 1.885324027339362e+00	 3.825340069197129e-02	 1.239337532356866e+01
 1.884147226325385e+00	 7.680588079802278e-02	 1.240599665895608e+01
 1.882163121807059e+00	 1.156364415984023e-01	 1.240538509822317e+01
 1.879353748407376e+00	 1.547229870057536e-01	 1.239282998159228e+01
 1.875701800394163e+00	 1.940423341439140e-01	 1.236965574545004e+01
 1.871190701143662e+00	 2.335702285239304e-01	 1.233722418062526e+01
 1.865804673107656e+00	 2.732813639930134e-01	 1.229693704681434e+01
 1.859528807937886e+00	 3.131494076092566e-01	 1.225023900255371e+01
 1.852349136398974e+00	 3.531470295690236e-01	 1.219862079671178e+01
 1.844252697680622e+00	 3.932459382850533e-01	 1.214362265375186e+01
 1.899998216915481e+00	 0.000000000000000e+00	 1.237134364627011e+01
 1.899607223129177e+00	 3.854320806894736e-02	 1.239997186816588e+01
 1.898421506682321e+00	 7.738776137463460e-02	 1.241321199737766e+01
 1.896422370607763e+00	 1.165125021112167e-01	 1.241253474722078e+01
 1.893591713423013e+00	 1.558951667915989e-01	 1.239943667012625e+01
 1.889912098287876e+00	 1.955123969063782e-01	 1.237544022114186e+01
 1.885366822994288e+00	 2.353397542148335e-01	 1.234209417099960e+01
 1.879939990463522e+00	 2.753517408450131e-01	 1.230097435427348e+01
 1.873616579401857e+00	 3.155218243569036e-01	 1.225368472636274e+01
 1.866382514743161e+00	 3.558224678965475e-01	 1.220185869059044e+01
 1.858224737486206e+00	 3.962251655398985e-01	 1.214716064385075e+01
 1.914284334264999e+00	 0.000000000000000e+00	 1.237563055025826e+01
 1.913890400589984e+00	 3.883301507434495e-02	 1.240710094277956e+01
 1.912695768721676e+00	 7.796964120510148e-02	 1.242194053512409e+01
 1.910681601110162e+00	 1.173885615005441e-01	 1.242188854943085e+01
 1.907829660167639e+00	 1.570673450740623e-01	 1.240869899039846e+01
 1.904122377946063e+00	 1.969824577832475e-01	 1.238413832071743e+01
 1.899542926653227e+00	 2.371092776358554e-01	 1.234998344895572e+01
 1.894075289680050e+00	 2.774221150410274e-01	 1.230802003366713e+01
 1.887704332787491e+00	 3.178942380609087e-01	 1.226004109713277e+01
 1.880415875078809e+00	 3.584979027914969e-01	 1.220784593099308e+01
 1.872196759361968e+00	 3.992043889722462e-01	 1.215323926429517e+01
 1.928570421614352e+00	 0.000000000000000e+00	 1.237838669909357e+01
 1.928173548056805e+00	 3.912282147155702e-02	 1.241423359212410e+01
 1.926970000785793e+00	 7.855151981434853e-02	 1.243184014493817e+01
 1.924940801668923e+00	 1.182646190511110e-01	 1.243326685354854e+01
 1.922067577013370e+00	 1.582395208960790e-01	 1.242057431994260e+01
 1.918332627763509e+00	 1.984525155742158e-01	 1.239581796933976e+01
 1.913719000543260e+00	 2.388787973421505e-01	 1.236104304003928e+01
 1.908210559213428e+00	 2.794924848905294e-01	 1.231827987281392e+01
 1.901792056589895e+00	 3.202666467840865e-01	 1.226953951822223e+01
 1.894449205945524e+00	 3.611733320692193e-01	 1.221680967065683e+01
 1.886168751897681e+00	 4.021836061493447e-01	 1.216205092759673e+01
 1.942856467296148e+00	 0.000000000000000e+00	 1.237889483485809e+01
 1.942456653864665e+00	 3.941262702397651e-02	 1.242085653159412e+01
 1.941244191217008e+00	 7.913339672730063e-02	 1.244257899444894e+01
 1.939199960638711e+00	 1.191406740476439e-01	 1.244649564321013e+01
 1.936305452332318e+00	 1.594116933005836e-01	 1.243502175928216e+01
 1.932542836135003e+00	 1.999225690789774e-01	 1.241054568151814e+01
 1.927895033087166e+00	 2.406483118888731e-01	 1.237542023207841e+01
 1.922345787519848e+00	 2.815628487029927e-01	 1.233195442735040e+01
 1.915879739304173e+00	 3.226390485892515e-01	 1.228240552249949e+01
 1.908482495882913e+00	 3.638487535450625e-01	 1.222897143056780e+01
 1.900140703683113e+00	 4.051628146384417e-01	 1.217378354832462e+01
 1.957142459643000e+00	 0.000000000000000e+00	 1.237645863526044e+01
 1.956739706348589e+00	 3.970243149499637e-02	 1.242647157560862e+01
 1.955518328357658e+00	 7.971527146888283e-02	 1.245383517083492e+01
 1.953459066374192e+00	 1.200167257748695e-01	 1.246140633179798e+01
 1.950543274496597e+00	 1.605838613305110e-01	 1.245200206953655e+01
 1.946752991455327e+00	 2.013926170972260e-01	 1.242838661307734e+01
 1.942071012707724e+00	 2.424178198311774e-01	 1.239325871205449e+01
 1.936480963055499e+00	 2.836332047878904e-01	 1.234923921209889e+01
 1.929967369425429e+00	 3.250114415392181e-01	 1.229885898695004e+01
 1.922515733430581e+00	 3.665241650343736e-01	 1.224454730579214e+01
 1.914112603308034e+00	 4.081420120067854e-01	 1.218862070749127e+01
 1.971428386987518e+00	 0.000000000000000e+00	 1.237040195510478e+01
 1.971022693843598e+00	 3.999223464800954e-02	 1.243059509075330e+01
 1.969792400550084e+00	 8.029714356402012e-02	 1.246529632176721e+01
 1.967718107230032e+00	 1.208927735175143e-01	 1.247783556614301e+01
 1.964781031878321e+00	 1.617560240287962e-01	 1.247147761272824e+01
 1.960963082119269e+00	 2.028626584286554e-01	 1.244940461086524e+01
 1.956246927827715e+00	 2.441873197242181e-01	 1.241469869702644e+01
 1.950616074276571e+00	 2.857035514546962e-01	 1.237032488412341e+01
 1.944054935448770e+00	 3.273838236968006e-01	 1.231911433796228e+01
 1.936548907128135e+00	 3.691995643525005e-01	 1.226374816236512e+01
 1.928084439362215e+00	 4.111211958216242e-01	 1.220674180979237e+01
 1.985714237662315e+00	 0.000000000000000e+00	 1.236006810043019e+01
 1.985305604684719e+00	 4.028203624640896e-02	 1.243275747247502e+01
 1.984066396136623e+00	 8.087901253763749e-02	 1.247665931181453e+01
 1.981977071560896e+00	 1.217688165603047e-01	 1.249562503867740e+01
 1.979018712849604e+00	 1.629281804383741e-01	 1.249341229465531e+01
 1.975173096521612e+00	 2.043326918729596e-01	 1.247366226031241e+01
 1.970422766869918e+00	 2.459568101231494e-01	 1.243987705940762e+01
 1.964751109639255e+00	 2.877738870128831e-01	 1.239539741789148e+01
 1.958142425869298e+00	 3.297561931248137e-01	 1.234338074776001e+01
 1.950582005515181e+00	 3.718749493147904e-01	 1.228677982568732e+01
 1.942056200435424e+00	 4.141003636502061e-01	 1.222832223406065e+01
 2.000000000000000e+00	 0.000000000000000e+00	 1.234481913369038e+01
 1.999588427206973e+00	 4.057183605358756e-02	 1.243250264415316e+01
 1.998340303459614e+00	 8.146087791465992e-02	 1.248762989353899e+01
 1.996235947721451e+00	 1.226448541879675e-01	 1.251462130761641e+01
 1.993256305782559e+00	 1.641003296021794e-01	 1.251777151020121e+01
 1.989383023057143e+00	 2.058027162298326e-01	 1.250122093095070e+01
 1.984598518257113e+00	 2.477262895831255e-01	 1.246892744687689e+01
 1.978886057599742e+00	 2.898442097719247e-01	 1.242463827293532e+01
 1.972229829182122e+00	 3.321285478860718e-01	 1.237186232242386e+01
 1.964615017131326e+00	 3.745503177365909e-01	 1.231384326085183e+01
 1.956027875117432e+00	 4.170795130597794e-01	 1.225353347727176e+01
 1.816308609920916e+00	 3.872874820388771e-01	 1.214337538542982e+01
 1.807420922483264e+00	 4.268470302562786e-01	 1.208607933960731e+01
 1.797608207565696e+00	 4.664479662144158e-01	 1.203010030693110e+01
 1.786861079627148e+00	 5.060598957399112e-01	 1.197569942404409e+01
 1.775171404337629e+00	 5.456516697179217e-01	 1.192293328923470e+01
 1.762532357481656e+00	 5.851914441855203e-01	 1.187165574178973e+01
 1.748938480695031e+00	 6.246467453183742e-01	 1.182152123385952e+01
 1.734385733593725e+00	 6.639845391423612e-01	 1.177198975543048e+01
 1.718871541860783e+00	 7.031713057585306e-01	 1.172233325116429e+01
 1.702394840869089e+00	 7.421731178265019e-01	 1.167164344667923e+01
 1.684956114434273e+00	 7.809557230084924e-01	 1.161884098178270e+01
 1.830280651355449e+00	 3.902667096404622e-01	 1.214242821163254e+01
 1.821324594953817e+00	 4.301305715873713e-01	 1.208580323728388e+01
 1.811436395253883e+00	 4.700361396521799e-01	 1.203000287392766e+01
 1.800606594515861e+00	 5.099527858528720e-01	 1.197520823526397e+01
 1.788826995836037e+00	 5.498491214585424e-01	 1.192139456078050e+01
 1.776090722503322e+00	 5.896930575450493e-01	 1.186833372222939e+01
 1.762392274164796e+00	 6.294518704816068e-01	 1.181559836245879e+01
 1.747727579355579e+00	 6.690922721786595e-01	 1.176256762027389e+01
 1.732094043955664e+00	 7.085804848838240e-01	 1.170843437236428e+01
 1.715490595148239e+00	 7.478823202690240e-01	 1.165221390142871e+01
 1.697917720470713e+00	 7.869632625087234e-01	 1.159275387894292e+01
 1.844252697680622e+00	 3.932459382850533e-01	 1.214362265375186e+01
 1.835228272290978e+00	 4.334141140679417e-01	 1.208757885328227e+01
 1.825264587782192e+00	 4.736243143460175e-01	 1.203192274388907e+01
 1.814352114215724e+00	 5.138456773285418e-01	 1.197673794597807e+01
 1.802482592114112e+00	 5.540465746684604e-01	 1.192190137525237e+01
 1.789649092270640e+00	 5.941946724803288e-01	 1.186708661627848e+01
 1.775846072343640e+00	 6.342569973268171e-01	 1.181176896894763e+01
 1.761069429787372e+00	 6.742000070028453e-01	 1.175523211328865e+01
 1.745316550678762e+00	 7.139896659025048e-01	 1.169657631458680e+01
 1.728586354011298e+00	 7.535915247099296e-01	 1.163472806808999e+01
 1.710879331044161e+00	 7.929708041117344e-01	 1.156845106124804e+01
 1.858224737486206e+00	 3.962251655398985e-01	 1.214716064385075e+01
 1.849131943140409e+00	 4.366976550167055e-01	 1.209155617592499e+01
 1.839092773857973e+00	 4.772124873658478e-01	 1.203596129715251e+01
 1.828097627501635e+00	 5.177385669879708e-01	 1.198034492859226e+01
 1.816138182020209e+00	 5.582440259199826e-01	 1.192446895274903e+01
 1.803207455711374e+00	 5.986962853152487e-01	 1.186789259279876e+01
 1.789299864244732e+00	 6.390621219300107e-01	 1.180997850595074e+01
 1.774411273993693e+00	 6.793077394437820e-01	 1.174990052689820e+01
 1.758539051232120e+00	 7.193988443972456e-01	 1.168665297288053e+01
 1.741682106763799e+00	 7.593007264868671e-01	 1.161906139839417e+01
 1.723840935569680e+00	 7.989783429115335e-01	 1.154579466557442e+01
 1.872196759361968e+00	 3.992043889722462e-01	 1.215323926429517e+01
 1.863035596147771e+00	 4.399811917523779e-01	 1.209788200608373e+01
 1.852920942188578e+00	 4.808006557815890e-01	 1.204221828660423e+01
 1.841843123148493e+00	 5.216314516522095e-01	 1.198608537738943e+01
 1.829793754402687e+00	 5.624414717854167e-01	 1.192911366574529e+01
 1.816765801753297e+00	 6.031978923737006e-01	 1.187073217685484e+01
 1.802753638881248e+00	 6.438672403671951e-01	 1.181017585196622e+01
 1.787753101079132e+00	 6.844154653303315e-01	 1.174649450783442e+01
 1.771761534817776e+00	 7.248080159507175e-01	 1.167856337717137e+01
 1.754777842711275e+00	 7.650099209374835e-01	 1.160509510551348e+01
 1.736802523462338e+00	 8.049858740021280e-01	 1.152465305719305e+01
 1.886168751897681e+00	 4.021836061493447e-01	 1.216205092759673e+01
 1.876939219958725e+00	 4.432647215936743e-01	 1.210670007541269e+01
 1.866749081481357e+00	 4.843888166631600e-01	 1.205079189810369e+01
 1.855588589931198e+00	 5.255243281423084e-01	 1.199401531525390e+01
 1.843449298109903e+00	 5.666389088370701e-01	 1.193585299652501e+01
 1.830324119324177e+00	 6.076994899795758e-01	 1.187558816255206e+01
 1.816207385266352e+00	 6.486723487143761e-01	 1.181231318457936e+01
 1.801094900148275e+00	 6.895231804913566e-01	 1.174493989595788e+01
 1.784983990637771e+00	 7.302171761455920e-01	 1.167221150216309e+01
 1.767873551159260e+00	 7.707191033994266e-01	 1.159271595074135e+01
 1.749764084137201e+00	 8.109933924775250e-01	 1.150490059913417e+01
 1.900140703683113e+00	 4.051628146384417e-01	 1.217378354832462e+01
 1.890842803218936e+00	 4.465482418593103e-01	 1.211815115936207e+01
 1.880577180443664e+00	 4.879769670804797e-01	 1.206177880823129e+01
 1.869334016624649e+00	 5.294171932793179e-01	 1.200419060008166e+01
 1.857104801990212e+00	 5.708363336472505e-01	 1.194470549646863e+01
 1.843882397351781e+00	 6.122010744567645e-01	 1.188244552969086e+01
 1.829661092413219e+00	 6.534774430475603e-01	 1.181634585923586e+01
 1.814436660305711e+00	 6.946308807557207e-01	 1.174516657015048e+01
 1.798206407894145e+00	 7.356263205645408e-01	 1.166750608558244e+01
 1.780969221413285e+00	 7.764282692103445e-01	 1.158181603953843e+01
 1.762725607009334e+00	 8.170008934317318e-01	 1.148641743167898e+01
 1.914112603308034e+00	 4.081420120067854e-01	 1.218862070749127e+01
 1.904746334574061e+00	 4.498317498680010e-01	 1.213237318523733e+01
 1.894405227782849e+00	 4.915651041034668e-01	 1.207527423949579e+01
 1.883079392003745e+00	 5.333100438842887e-01	 1.201666693089266e+01
 1.870760254891974e+00	 5.750337427882651e-01	 1.195569074710050e+01
 1.857440624763881e+00	 6.167026421291587e-01	 1.189129136404280e+01
 1.843114749335018e+00	 6.582825194427546e-01	 1.182223229329125e+01
 1.827778370656030e+00	 6.997385619522857e-01	 1.174710830092002e+01
 1.811428775788937e+00	 7.410354447902353e-01	 1.166436045434334e+01
 1.794064842778885e+00	 7.821374137078839e-01	 1.157229262646670e+01
 1.775687081493801e+00	 8.230083719587561e-01	 1.146908926146224e+01
 1.928084439362215e+00	 4.111211958216242e-01	 1.220674180979237e+01
 1.918649802669765e+00	 4.531152429384617e-01	 1.214950133555559e+01
 1.908233212206262e+00	 4.951532248020400e-01	 1.209137201313004e+01
 1.896824704843383e+00	 5.372028767782708e-01	 1.203149985365996e+01
 1.884415645663542e+00	 5.792311328324216e-01	 1.196882932280726e+01
 1.870998790488245e+00	 6.212041893206487e-01	 1.190211478106527e+01
 1.856568345044922e+00	 6.630875739759653e-01	 1.182993385506921e+01
 1.841120020303820e+00	 7.048462199099149e-01	 1.175070260937698e+01
 1.824651083524189e+00	 7.464445444053474e-01	 1.166269235822944e+01
 1.807160404561592e+00	 7.878465322296934e-01	 1.156404792856220e+01
 1.788648497005671e+00	 8.290158231526051e-01	 1.145280715969937e+01
 1.942056200435424e+00	 4.141003636502061e-01	 1.222832223406065e+01
 1.932553196151707e+00	 4.563987183894079e-01	 1.216966814693489e+01
 1.922061122421255e+00	 4.987413262461179e-01	 1.211016459959646e+01
 1.910569943918465e+00	 5.410956887823153e-01	 1.204874476687029e+01
 1.898070963153277e+00	 5.834285003520271e-01	 1.198414275514299e+01
 1.884556883452640e+00	 6.257057123551258e-01	 1.191490685288183e+01
 1.870021868556099e+00	 6.678926027231987e-01	 1.183941475767736e+01
 1.854461598353669e+00	 7.099538504574706e-01	 1.175589063226330e+01
 1.837873320301940e+00	 7.518536149925487e-01	 1.166242381071706e+01
 1.820255896066940e+00	 7.935556201134200e-01	 1.155698894672199e+01
 1.801609842960009e+00	 8.350232421072867e-01	 1.143746736907945e+01
 1.956027875117432e+00	 4.170795130597794e-01	 1.225353347727176e+01
 1.946456503665550e+00	 4.596821735395547e-01	 1.219300360473962e+01
 1.935888947135180e+00	 5.023294055056194e-01	 1.213174316691619e+01
 1.924315098003887e+00	 5.449884767174719e-01	 1.206845692682923e+01
 1.911726196209532e+00	 5.876258419193892e-01	 1.200165349864220e+01
 1.898114892584837e+00	 6.302072075564812e-01	 1.192966053836537e+01
 1.883475308881720e+00	 6.726976017604614e-01	 1.185064195734306e+01
 1.867803093910167e+00	 7.150614494238159e-01	 1.176261699273122e+01
 1.851095475324230e+00	 7.572626521345105e-01	 1.166348093658265e+01
 1.833351306600461e+00	 7.992646726967115e-01	 1.155102729470591e+01
 1.814571108771880e+00	 8.410306239168078e-01	 1.142297111889185e+01
 1.684956114434273e+00	 7.809557230084924e-01	 1.161884098178270e+01
 1.666556108579333e+00	 8.194873157394583e-01	 1.154847214498855e+01
 1.647199695705267e+00	 8.577305159763660e-01	 1.144916133996415e+01
 1.626892195228096e+00	 8.956506072642391e-01	 1.132639529924431e+01
 1.605640574629505e+00	 9.332129100509844e-01	 1.118642636447964e+01
 1.583453458654829e+00	 9.703828781281937e-01	 1.103625248828241e+01
 1.560341131808945e+00	 1.007126196440562e+00	 1.088358984116824e+01
 1.536315533985785e+00	 1.043408879724244e+00	 1.073683801327341e+01
 1.511390249116649e+00	 1.079197371414791e+00	 1.060503789545561e+01
 1.485580486774423e+00	 1.114458642250760e+00	 1.049782242208281e+01
 1.458903056724601e+00	 1.149160287989920e+00	 1.042536045658889e+01
 1.697917720470713e+00	 7.869632625087234e-01	 1.159275387894292e+01
 1.679376171684905e+00	 8.257912613720412e-01	 1.151599656600846e+01
 1.659870858672978e+00	 8.643286492681638e-01	 1.141207591999637e+01
 1.639407141770808e+00	 9.025404426841122e-01	 1.128659336035743e+01
 1.617992042057758e+00	 9.403916952936697e-01	 1.114593640094680e+01
 1.595634250625419e+00	 9.778475951400555e-01	 1.099725792205649e+01
 1.572344131092705e+00	 1.014873563197749e+00	 1.084844782223142e+01
 1.548133715201746e+00	 1.051435352769626e+00	 1.070809704132733e+01
 1.523016691378873e+00	 1.087499149155750e+00	 1.058545404417459e+01
 1.497008386197335e+00	 1.123031669015494e+00	 1.049037395493263e+01
 1.470125738732542e+00	 1.158000258835432e+00	 1.043326063401483e+01
 1.710879331044161e+00	 7.929708041117344e-01	 1.156845106124804e+01
 1.692196239277984e+00	 8.320952092111141e-01	 1.148509817270570e+01
 1.672542026076116e+00	 8.709267848693754e-01	 1.137633213836584e+01
 1.651922092694297e+00	 9.094302805154478e-01	 1.124786632923473e+01
 1.630343513809585e+00	 9.475704830488989e-01	 1.110622121517323e+01
 1.607815046859852e+00	 9.853123147644879e-01	 1.095870291965542e+01
 1.584347134578076e+00	 1.022620932666389e+00	 1.081337392445774e+01
 1.559951900554614e+00	 1.059461828624110e+00	 1.067901591732768e+01
 1.534643137710871e+00	 1.095800929802140e+00	 1.056508487661840e+01
 1.508436289620492e+00	 1.131604698780583e+00	 1.048165859067845e+01
 1.481348424668851e+00	 1.166840232774733e+00	 1.043937691466274e+01
 1.723840935569680e+00	 7.989783429115335e-01	 1.154579466557442e+01
 1.705016300889208e+00	 8.383991541086286e-01	 1.145562875816178e+01
 1.685213187566892e+00	 8.775249173917148e-01	 1.134177216025356e+01
 1.664437037778324e+00	 9.163201151317564e-01	 1.121004747001290e+01
 1.642694979798230e+00	 9.547492674542318e-01	 1.106710590641123e+01
 1.619995837410733e+00	 9.927770309055642e-01	 1.092040515919169e+01
 1.596350132462838e+00	 1.030368298519748e+00	 1.077817915437461e+01
 1.571770080393091e+00	 1.067488300733048e+00	 1.064939972975768e+01
 1.546269578617915e+00	 1.104102706574501e+00	 1.054373031888584e+01
 1.519864187711302e+00	 1.140177724545059e+00	 1.047147184890999e+01
 1.492571105368532e+00	 1.175680202588859e+00	 1.044350116577113e+01
 1.736802523462338e+00	 8.049858740021280e-01	 1.152465305719305e+01
 1.717836346049209e+00	 8.447030909165361e-01	 1.142744671528460e+01
 1.697884332797518e+00	 8.841230414468964e-01	 1.130824509365261e+01
 1.676951966802650e+00	 9.232099409065490e-01	 1.117297730362607e+01
 1.655046429936937e+00	 9.619280426472270e-01	 1.102842311523196e+01
 1.632176612330666e+00	 1.000241737467358e+00	 1.088219011478485e+01
 1.608353114944773e+00	 1.038115654431095e+00	 1.074268253909994e+01
 1.583588245065871e+00	 1.075514762541794e+00	 1.061906178199889e+01
 1.557896004605275e+00	 1.112404472693372e+00	 1.052119867593865e+01
 1.531292071137173e+00	 1.148750739307956e+00	 1.045961776173766e+01
 1.503793771666583e+00	 1.184520161058842e+00	 1.044543387059234e+01
 1.749764084137201e+00	 8.109933924775250e-01	 1.150490059913417e+01
 1.730656364288626e+00	 8.510070144867884e-01	 1.140041679238829e+01
 1.710555451420205e+00	 8.907211516466336e-01	 1.127560673221029e+01
 1.689466869547038e+00	 9.300997522133370e-01	 1.113650333897802e+01
 1.667397854138950e+00	 9.691068027654434e-01	 1.099001274411263e+01
 1.644357361672258e+00	 1.007706428353941e+00	 1.084389076766228e+01
 1.620356072221661e+00	 1.045862994073695e+00	 1.070671082906560e+01
 1.595406384921654e+00	 1.083541207495701e+00	 1.058782328779299e+01
 1.569522406178222e+00	 1.120706221379292e+00	 1.049730632091985e+01
 1.542719930565512e+00	 1.157323736068305e+00	 1.044590855808526e+01
 1.515016414398009e+00	 1.193360100965718e+00	 1.044498380877293e+01
 1.762725607009334e+00	 8.170008934317318e-01	 1.148641743167898e+01
 1.743476345138092e+00	 8.573109196713373e-01	 1.137440985950614e+01
 1.723226533087164e+00	 8.973192426026411e-01	 1.124371930936350e+01
 1.701981735791249e+00	 9.369895434256313e-01	 1.110047981592069e+01
 1.679749242317513e+00	 9.762855419464395e-01	 1.095172169029516e+01
 1.656538075488112e+00	 1.015171097469386e+00	 1.080534732994870e+01
 1.632358994491283e+00	 1.053610311120815e+00	 1.067009821379785e+01
 1.607224490309136e+00	 1.091567629040120e+00	 1.055551308007998e+01
 1.581148773842030e+00	 1.129007945852801e+00	 1.047187739811909e+01
 1.554147756663726e+00	 1.165896707825141e+00	 1.043016436185113e+01
 1.526239024397810e+00	 1.202200015090521e+00	 1.044196775077413e+01
 1.775687081493801e+00	 8.230083719587561e-01	 1.146908926146224e+01
 1.756296278128241e+00	 8.636148013221341e-01	 1.134930268488970e+01
 1.735897567450607e+00	 9.039173089266328e-01	 1.121245126319166e+01
 1.714496555315046e+00	 9.438793089169430e-01	 1.106476745943703e+01
 1.692100584385871e+00	 9.834642543277747e-01	 1.091340359029136e+01
 1.668718743830833e+00	 1.022635738717768e+00	 1.076640698049798e+01
 1.644361871951418e+00	 1.061357599245724e+00	 1.063268605009008e+01
 1.619042551577015e+00	 1.099594020620405e+00	 1.052196733253159e+01
 1.592775098101968e+00	 1.137309639334439e+00	 1.044474353888977e+01
 1.565575540099225e+00	 1.174469647577495e+00	 1.041221290323045e+01
 1.537461592500988e+00	 1.211039896214285e+00	 1.043621016561726e+01
 1.788648497005671e+00	 8.290158231526051e-01	 1.145280715969937e+01
 1.769116152789709e+00	 8.699186542911306e-01	 1.132497772117817e+01
 1.748568544162743e+00	 9.105153452303222e-01	 1.118167701144457e+01
 1.727011317898189e+00	 9.507690430607832e-01	 1.102923324446149e+01
 1.704451870257265e+00	 9.906429340470074e-01	 1.087491857544460e+01
 1.680899356753025e+00	 1.030100346003158e+00	 1.072692361215737e+01
 1.656364694799848e+00	 1.069104852121687e+00	 1.059432260193948e+01
 1.630860559073990e+00	 1.107620375681909e+00	 1.048702929313667e+01
 1.604401369463309e+00	 1.145611295044744e+00	 1.041574358986127e+01
 1.577003271539414e+00	 1.183042548324400e+00	 1.039188924253243e+01
 1.548684109542545e+00	 1.219879737118045e+00	 1.042754294127920e+01
 1.801609842960009e+00	 8.350232421072867e-01	 1.143746736907945e+01
 1.781935958653133e+00	 8.762224734302785e-01	 1.130132290075260e+01
 1.761239452875785e+00	 9.171133461254239e-01	 1.115127673623427e+01
 1.739526013320439e+00	 9.576587402306627e-01	 1.099375017080311e+01
 1.716803089844941e+00	 9.978215752416968e-01	 1.083613303799269e+01
 1.693079904307295e+00	 1.037564913229629e+00	 1.068675758988985e+01
 1.668367453234355e+00	 1.076852063421972e+00	 1.055486279165758e+01
 1.642678503148756e+00	 1.115646687669985e+00	 1.045054902923354e+01
 1.616027578431323e+00	 1.153912906204257e+00	 1.038472335282978e+01
 1.588430941651701e+00	 1.191615403064889e+00	 1.036903550586496e+01
 1.559906566357481e+00	 1.228719530582835e+00	 1.041580511710255e+01
 1.814571108771880e+00	 8.410306239168078e-01	 1.142297111889185e+01
 1.794755685249146e+00	 8.825262535915291e-01	 1.127823143981625e+01
 1.773910283241944e+00	 9.237113062236514e-01	 1.112113617790833e+01
 1.752040631361560e+00	 9.645483948000926e-01	 1.095819704766762e+01
 1.729154233062143e+00	 1.005000172049402e+00	 1.079691940710807e+01
 1.705260376546246e+00	 1.045029434301255e+00	 1.064577551921310e+01
 1.680370137452718e+00	 1.084599226819845e+00	 1.051416796159637e+01
 1.654496374150013e+00	 1.123672950029984e+00	 1.041238318341781e+01
 1.627653715511282e+00	 1.162214466033516e+00	 1.035153533574400e+01
 1.599858541103495e+00	 1.200188204797995e+00	 1.034350063209406e+01
 1.571128953780799e+00	 1.237559269389690e+00	 1.040084262762098e+01
 1.458903056724601e+00	 1.149160287989920e+00	 1.042536045658889e+01
 1.431376332403356e+00	 1.183270628862627e+00	 1.041046883280331e+01
 1.403020199363723e+00	 1.216758813370768e+00	 1.047002149356711e+01
 1.373856021405344e+00	 1.249594900150438e+00	 1.060534315453129e+01
 1.343906592066114e+00	 1.281749943065508e+00	 1.032072455054974e+01
 1.313196075777992e+00	 1.313196075777993e+00	 1.005302232060240e+01
 1.281749943065507e+00	 1.343906592066115e+00	 9.805422948207573e+00
 1.249594900150437e+00	 1.373856021405345e+00	 9.575682771680881e+00
 1.216758813370767e+00	 1.403020199363723e+00	 9.412062073389460e+00
 1.183270628862627e+00	 1.431376332403357e+00	 9.242704078482713e+00
 1.149160287989920e+00	 1.458903056724601e+00	 9.065039665364315e+00
 1.470125738732542e+00	 1.158000258835432e+00	 1.043326063401483e+01
 1.442387263759201e+00	 1.192372995147767e+00	 1.043590653358784e+01
 1.413812999800923e+00	 1.226118789127744e+00	 1.051385919867188e+01
 1.384424474999414e+00	 1.259207469086070e+00	 1.053655747608029e+01
 1.354244658232962e+00	 1.291609866217064e+00	 1.026435656048842e+01
 1.323297899819588e+00	 1.323297899819588e+00	 1.001410141188879e+01
 1.291609866217063e+00	 1.354244658232962e+00	 9.782661518533239e+00
 1.259207469086070e+00	 1.384424474999415e+00	 9.566637320980078e+00
 1.226118789127743e+00	 1.413812999800923e+00	 9.403255865390447e+00
 1.192372995147766e+00	 1.442387263759201e+00	 9.249640596084179e+00
 1.158000258835432e+00	 1.470125738732542e+00	 9.084556011923938e+00
 1.481348424668851e+00	 1.166840232774733e+00	 1.043937691466274e+01
 1.453398198969239e+00	 1.201475364618558e+00	 1.045896231071115e+01
 1.424605804015899e+00	 1.235478768160576e+00	 1.055460453456126e+01
 1.394992932292661e+00	 1.268820041386022e+00	 1.046498293203412e+01
 1.364582728018272e+00	 1.301469792819580e+00	 1.021040772439675e+01
 1.333399727396883e+00	 1.333399727396884e+00	 9.976840966347925e+00
 1.301469792819580e+00	 1.364582728018273e+00	 9.760808634983881e+00
 1.268820041386021e+00	 1.394992932292662e+00	 9.558555184371016e+00
 1.235478768160575e+00	 1.424605804015899e+00	 9.392230673540336e+00
 1.201475364618558e+00	 1.453398198969239e+00	 9.253807970812090e+00
 1.166840232774733e+00	 1.481348424668851e+00	 9.100890754566677e+00
 1.492571105368532e+00	 1.175680202588859e+00	 1.044350116577113e+01
 1.464409129041410e+00	 1.210577729841743e+00	 1.047942958975145e+01
 1.435398603194744e+00	 1.244838742825615e+00	 1.059206185339579e+01
 1.405561384654415e+00	 1.278432609200344e+00	 1.039626536668243e+01
 1.374920792979544e+00	 1.311329714821083e+00	 1.015861118233090e+01
 1.343501550260330e+00	 1.343501550260330e+00	 9.941012270272994e+00
 1.311329714821082e+00	 1.374920792979545e+00	 9.739681259410322e+00
 1.278432609200344e+00	 1.405561384654415e+00	 9.550538799802183e+00
 1.244838742825615e+00	 1.435398603194745e+00	 9.378996510404860e+00
 1.210577729841742e+00	 1.464409129041410e+00	 9.255278014636499e+00
 1.175680202588859e+00	 1.492571105368532e+00	 9.114182071476069e+00
 1.503793771666583e+00	 1.184520161058842e+00	 1.044543387059234e+01
 1.475420044983652e+00	 1.219680083384064e+00	 1.049711035270168e+01
 1.446191388523552e+00	 1.254198705479214e+00	 1.057434892146092e+01
 1.416129823454001e+00	 1.288045164679088e+00	 1.033011548645645e+01
 1.385258844674276e+00	 1.321189624169597e+00	 1.010870676693371e+01
 1.353603360160380e+00	 1.353603360160380e+00	 9.906392187321266e+00
 1.321189624169596e+00	 1.385258844674276e+00	 9.719100594716071e+00
 1.288045164679088e+00	 1.416129823454001e+00	 9.542460387131015e+00
 1.254198705479213e+00	 1.446191388523552e+00	 9.371842567612797e+00
 1.219680083384063e+00	 1.475420044983652e+00	 9.254121647955760e+00
 1.184520161058843e+00	 1.503793771666584e+00	 9.124565230483260e+00
 1.515016414398009e+00	 1.193360100965718e+00	 1.044498380877293e+01
 1.486430937803904e+00	 1.228782417812263e+00	 1.051181482047190e+01
 1.456984151188414e+00	 1.263558648477723e+00	 1.049417087517646e+01
 1.426698240060748e+00	 1.297657699972307e+00	 1.026625128533094e+01
 1.395596874659965e+00	 1.331049512813149e+00	 1.006044075482720e+01
 1.363705148847485e+00	 1.363705148847485e+00	 9.872762951092035e+00
 1.331049512813148e+00	 1.395596874659965e+00	 9.698891926815636e+00
 1.297657699972306e+00	 1.426698240060748e+00	 9.534194767975043e+00
 1.263558648477722e+00	 1.456984151188414e+00	 9.373777244873033e+00
 1.228782417812262e+00	 1.486430937803904e+00	 9.250408930959509e+00
 1.193360100965718e+00	 1.515016414398009e+00	 9.132172695194031e+00
 1.526239024397810e+00	 1.202200015090521e+00	 1.044196775077413e+01
 1.497441798510104e+00	 1.237884725693083e+00	 1.052336114933884e+01
 1.467776882375423e+00	 1.272918564177493e+00	 1.041660418482100e+01
 1.437266625843982e+00	 1.307270207230050e+00	 1.020439777627949e+01
 1.405934874494110e+00	 1.340909372699764e+00	 1.001356562896362e+01
 1.373806908072096e+00	 1.373806908072096e+00	 9.839911966849540e+00
 1.340909372699764e+00	 1.405934874494111e+00	 9.678884473563746e+00
 1.307270207230049e+00	 1.437266625843983e+00	 9.525619269004380e+00
 1.272918564177493e+00	 1.467776882375423e+00	 9.374988949956313e+00
 1.237884725693082e+00	 1.497441798510105e+00	 9.244209093595144e+00
 1.202200015090521e+00	 1.526239024397810e+00	 9.137134226428639e+00
 1.537461592500988e+00	 1.211039896214285e+00	 1.043621016561726e+01
 1.508452618110191e+00	 1.246986999593266e+00	 1.053157514063141e+01
 1.478569573270671e+00	 1.282278444934877e+00	 1.034136168927244e+01
 1.447834972173032e+00	 1.316882678602370e+00	 1.014428673448014e+01
 1.416272835734211e+00	 1.350769195777470e+00	 9.967839851376645e+00
 1.383908629584665e+00	 1.383908629584666e+00	 9.807631621925056e+00
 1.350769195777470e+00	 1.416272835734212e+00	 9.658911240300483e+00
 1.316882678602369e+00	 1.447834972173032e+00	 9.516613629473568e+00
 1.282278444934876e+00	 1.478569573270671e+00	 9.375409666797106e+00
 1.246986999593265e+00	 1.508452618110192e+00	 9.235590564210003e+00
 1.211039896214285e+00	 1.537461592500988e+00	 9.139576979214819e+00
 1.548684109542545e+00	 1.219879737118045e+00	 1.042754294127920e+01
 1.519463387612104e+00	 1.256089232079554e+00	 1.047469629182470e+01
 1.489362215060251e+00	 1.291638283106225e+00	 1.026816327792362e+01
 1.458403270417224e+00	 1.326495106239317e+00	 1.008565645167609e+01
 1.426610749937764e+00	 1.360628973994291e+00	 9.923027645805396e+00
 1.394010305135645e+00	 1.394010305135645e+00	 9.775719104358352e+00
 1.360628973994290e+00	 1.426610749937764e+00	 9.638808881677249e+00
 1.326495106239316e+00	 1.458403270417224e+00	 9.507059912778940e+00
 1.291638283106225e+00	 1.489362215060251e+00	 9.374972221969985e+00
 1.256089232079554e+00	 1.519463387612105e+00	 9.236837693297936e+00
 1.219879737118045e+00	 1.548684109542545e+00	 9.139625595557529e+00
 1.559906566357481e+00	 1.228719530582835e+00	 1.041580511710255e+01
 1.530474098023782e+00	 1.265191415718691e+00	 1.038864035489365e+01
 1.500154798930255e+00	 1.300998071047889e+00	 1.019673563653952e+01
 1.468971511945886e+00	 1.336107482290944e+00	 1.002825150113146e+01
 1.436948608662268e+00	 1.370488699298253e+00	 9.878898789696036e+00
 1.404111926475486e+00	 1.404111926475486e+00	 9.743976229365082e+00
 1.370488699298252e+00	 1.436948608662268e+00	 9.618417569447843e+00
 1.336107482290943e+00	 1.468971511945887e+00	 9.496842421838338e+00
 1.300998071047889e+00	 1.500154798930256e+00	 9.373610253301122e+00
 1.265191415718691e+00	 1.530474098023782e+00	 9.242876933606709e+00
 1.228719530582835e+00	 1.559906566357482e+00	 9.137402293198825e+00
 1.571128953780799e+00	 1.237559269389690e+00	 1.040084262762098e+01
 1.541484740353162e+00	 1.274293543077417e+00	 1.030460483549888e+01
 1.510947316066777e+00	 1.310357801116220e+00	 1.012681200399777e+01
 1.479539688128345e+00	 1.345719798907301e+00	 9.971822512653508e+00
 1.447286403465221e+00	 1.380348363637383e+00	 9.835228415112834e+00
 1.414213485354640e+00	 1.414213485354640e+00	 9.712209273239417e+00
 1.380348363637382e+00	 1.447286403465222e+00	 9.597580865927874e+00
 1.345719798907301e+00	 1.479539688128346e+00	 9.485847618103939e+00
 1.310357801116220e+00	 1.510947316066777e+00	 9.371258179835046e+00
 1.274293543077416e+00	 1.541484740353163e+00	 9.247863541746568e+00
 1.237559269389690e+00	 1.571128953780800e+00	 9.133026950567158e+00
 1.149160287989920e+00	 1.458903056724601e+00	 9.065039665364315e+00
 1.114458642250760e+00	 1.485580486774424e+00	 8.873858206065051e+00
 1.079197371414790e+00	 1.511390249116649e+00	 8.666767774836385e+00
 1.043408879724243e+00	 1.536315533985785e+00	 8.445484153424983e+00
 1.007126196440562e+00	 1.560341131808945e+00	 8.211825703513229e+00
 9.703828781281930e-01	 1.583453458654829e+00	 7.967694456899185e+00
 9.332129100509838e-01	 1.605640574629505e+00	 7.715056767006126e+00
 8.956506072642383e-01	 1.626892195228096e+00	 7.455923770648013e+00
 8.577305159763654e-01	 1.647199695705267e+00	 7.192331904658685e+00
 8.194873157394577e-01	 1.666556108579334e+00	 6.926323713656121e+00
 7.809557230084923e-01	 1.684956114434272e+00	 6.659929173166031e+00
 1.158000258835432e+00	 1.470125738732542e+00	 9.084556011923938e+00
 1.123031669015494e+00	 1.497008386197336e+00	 8.902857088376136e+00
 1.087499149155749e+00	 1.523016691378874e+00	 8.702667334097772e+00
 1.051435352769625e+00	 1.548133715201746e+00	 8.486034900989955e+00
 1.014873563197748e+00	 1.572344131092705e+00	 8.255128157143300e+00
 9.778475951400548e-01	 1.595634250625419e+00	 8.012213461757682e+00
 9.403916952936689e-01	 1.617992042057758e+00	 7.759632451493527e+00
 9.025404426841116e-01	 1.639407141770809e+00	 7.499779121705911e+00
 8.643286492681631e-01	 1.659870858672978e+00	 7.235076981004279e+00
 8.257912613720407e-01	 1.679376171684905e+00	 6.967956548096462e+00
 7.869632625087235e-01	 1.697917720470713e+00	 6.700833446248486e+00
 1.166840232774733e+00	 1.481348424668851e+00	 9.100890754566677e+00
 1.131604698780582e+00	 1.508436289620493e+00	 8.928461292127210e+00
 1.095800929802139e+00	 1.534643137710871e+00	 8.735177288853299e+00
 1.059461828624109e+00	 1.559951900554615e+00	 8.523391199466751e+00
 1.022620932666388e+00	 1.584347134578076e+00	 8.295588717977012e+00
 9.853123147644873e-01	 1.607815046859852e+00	 8.054363560792645e+00
 9.475704830488985e-01	 1.630343513809585e+00	 7.802391739987431e+00
 9.094302805154472e-01	 1.651922092694298e+00	 7.542405640820593e+00
 8.709267848693747e-01	 1.672542026076116e+00	 7.277168211724399e+00
 8.320952092111138e-01	 1.692196239277985e+00	 7.009447564206004e+00
 7.929708041117345e-01	 1.710879331044161e+00	 6.741992264836334e+00
 1.175680202588859e+00	 1.492571105368532e+00	 9.114182071476069e+00
 1.140177724545059e+00	 1.519864187711303e+00	 8.950868388972372e+00
 1.104102706574500e+00	 1.546269578617915e+00	 8.764537062449508e+00
 1.067488300733048e+00	 1.571770080393091e+00	 8.557817555489814e+00
 1.030368298519748e+00	 1.596350132462839e+00	 8.333481047214097e+00
 9.927770309055636e-01	 1.619995837410733e+00	 8.094412542347548e+00
 9.547492674542313e-01	 1.642694979798230e+00	 7.843582478474430e+00
 9.163201151317556e-01	 1.664437037778324e+00	 7.584018171399043e+00
 8.775249173917143e-01	 1.685213187566893e+00	 7.318775432578470e+00
 8.383991541086279e-01	 1.705016300889208e+00	 7.050910680414029e+00
 7.989783429115337e-01	 1.723840935569681e+00	 6.783453850196435e+00
 1.184520161058843e+00	 1.503793771666584e+00	 9.124565230483260e+00
 1.148750739307955e+00	 1.531292071137173e+00	 8.970271227596799e+00
 1.112404472693371e+00	 1.557896004605275e+00	 8.790980064549833e+00
 1.075514762541794e+00	 1.583588245065872e+00	 8.589571670298866e+00
 1.038115654431094e+00	 1.608353114944774e+00	 8.369071683057928e+00
 1.000241737467357e+00	 1.632176612330667e+00	 8.132621201532881e+00
 9.619280426472262e-01	 1.655046429936937e+00	 7.883446068386796e+00
 9.232099409065484e-01	 1.676951966802651e+00	 7.624826049889933e+00
 8.841230414468955e-01	 1.697884332797518e+00	 7.360064267498056e+00
 8.447030909165353e-01	 1.717836346049210e+00	 7.092457223386907e+00
 8.049858740021278e-01	 1.736802523462339e+00	 6.825265743187849e+00
 1.193360100965718e+00	 1.515016414398009e+00	 9.132172695194031e+00
 1.157323736068305e+00	 1.542719930565512e+00	 8.986858107007610e+00
 1.120706221379291e+00	 1.569522406178222e+00	 8.814733912293992e+00
 1.083541207495700e+00	 1.595406384921653e+00	 8.618904690313938e+00
 1.045862994073694e+00	 1.620356072221661e+00	 8.402620303170815e+00
 1.007706428353940e+00	 1.644357361672258e+00	 8.169243598010278e+00
 9.691068027654426e-01	 1.667397854138951e+00	 7.922217704211289e+00
 9.300997522133365e-01	 1.689466869547039e+00	 7.665033308816447e+00
 8.907211516466331e-01	 1.710555451420205e+00	 7.401196283797745e+00
 8.510070144867877e-01	 1.730656364288626e+00	 7.134196023369802e+00
 8.109933924775248e-01	 1.749764084137200e+00	 6.867474828923815e+00
 1.202200015090521e+00	 1.526239024397810e+00	 9.137134226428639e+00
 1.165896707825140e+00	 1.554147756663727e+00	 9.000812942182542e+00
 1.129007945852801e+00	 1.581148773842030e+00	 8.836020641708018e+00
 1.091567629040120e+00	 1.607224490309136e+00	 8.646061446667243e+00
 1.053610311120815e+00	 1.632358994491282e+00	 8.434379975563658e+00
 1.015171097469386e+00	 1.656538075488112e+00	 8.204527302417546e+00
 9.762855419464389e-01	 1.679749242317514e+00	 7.960126600627440e+00
 9.369895434256307e-01	 1.701981735791249e+00	 7.704838870861524e+00
 8.973192426026407e-01	 1.723226533087165e+00	 7.442329140543602e+00
 8.573109196713367e-01	 1.743476345138091e+00	 7.176233505321735e+00
 8.170008934317319e-01	 1.762725607009334e+00	 6.910127360339247e+00
 1.211039896214285e+00	 1.537461592500988e+00	 9.139576979214819e+00
 1.174469647577494e+00	 1.565575540099225e+00	 9.012315422465626e+00
 1.137309639334438e+00	 1.592775098101969e+00	 8.855056909862517e+00
 1.099594020620405e+00	 1.619042551577015e+00	 8.671280684254640e+00
 1.061357599245723e+00	 1.644361871951419e+00	 8.464597398509436e+00
 1.022635738717767e+00	 1.668718743830833e+00	 8.238713632012956e+00
 9.834642543277738e-01	 1.692100584385871e+00	 7.997396209708943e+00
 9.438793089169424e-01	 1.714496555315046e+00	 7.744436734460669e+00
 9.039173089266319e-01	 1.735897567450607e+00	 7.483616730428533e+00
 8.636148013221334e-01	 1.756296278128241e+00	 7.218673776059177e+00
 8.230083719587561e-01	 1.775687081493801e+00	 6.953268980719994e+00
 1.219879737118045e+00	 1.548684109542545e+00	 9.139625595557529e+00
 1.183042548324399e+00	 1.577003271539414e+00	 9.021541163076407e+00
 1.145611295044743e+00	 1.604401369463309e+00	 8.872054188246759e+00
 1.107620375681909e+00	 1.630860559073990e+00	 8.694795280836725e+00
 1.069104852121687e+00	 1.656364694799849e+00	 8.493513130035909e+00
 1.030100346003157e+00	 1.680899356753026e+00	 8.272037876084891e+00
 9.906429340470070e-01	 1.704451870257265e+00	 8.034244428690872e+00
 9.507690430607827e-01	 1.727011317898189e+00	 7.784016151333212e+00
 9.105153452303217e-01	 1.748568544162743e+00	 7.525209315482139e+00
 8.699186542911300e-01	 1.769116152789710e+00	 7.261618707609498e+00
 8.290158231526052e-01	 1.788648497005671e+00	 6.996944745245319e+00
 1.228719530582835e+00	 1.559906566357482e+00	 9.137402293198825e+00
 1.191615403064888e+00	 1.588430941651702e+00	 9.028661850080610e+00
 1.153912906204256e+00	 1.616027578431323e+00	 8.887218947800470e+00
 1.115646687669984e+00	 1.642678503148757e+00	 8.716832456690637e+00
 1.076852063421971e+00	 1.668367453234356e+00	 8.521361807521791e+00
 1.037564913229628e+00	 1.693079904307296e+00	 8.304729511641192e+00
 9.978215752416963e-01	 1.716803089844942e+00	 8.070883798777196e+00
 9.576587402306620e-01	 1.739526013320440e+00	 7.823761796356365e+00
 9.171133461254229e-01	 1.761239452875786e+00	 7.567253656926502e+00
 8.762224734302777e-01	 1.781935958653133e+00	 7.305168016965174e+00
 8.350232421072867e-01	 1.801609842960009e+00	 7.041199141595268e+00
 1.237559269389690e+00	 1.571128953780800e+00	 9.133026950567158e+00
 1.200188204797994e+00	 1.599858541103495e+00	 9.033845379145685e+00
 1.162214466033515e+00	 1.627653715511282e+00	 8.900752836019302e+00
 1.123672950029984e+00	 1.654496374150013e+00	 8.737613975282567e+00
 1.084599226819845e+00	 1.680370137452718e+00	 8.548372357889384e+00
 1.045029434301254e+00	 1.705260376546246e+00	 8.337012409862869e+00
 1.005000172049402e+00	 1.729154233062144e+00	 8.107521695435354e+00
 9.645483948000920e-01	 1.752040631361561e+00	 7.863853930164054e+00
 9.237113062236508e-01	 1.773910283241945e+00	 7.609893139467838e+00
 8.825262535915284e-01	 1.794755685249146e+00	 7.349419342418297e+00
 8.410306239168076e-01	 1.814571108771879e+00	 7.086076109666246e+00
 7.809557230084923e-01	 1.684956114434272e+00	 6.659929173166031e+00
 7.421731178265022e-01	 1.702394840869089e+00	 6.393801018659635e+00
 7.031713057585309e-01	 1.718871541860783e+00	 6.128181970371173e+00
 6.639845391423617e-01	 1.734385733593725e+00	 5.864464078445977e+00
 6.246467453183745e-01	 1.748938480695031e+00	 5.603952415468038e+00
 5.851914441855204e-01	 1.762532357481655e+00	 5.347854924723622e+00
 5.456516697179219e-01	 1.775171404337629e+00	 5.097273691522608e+00
 5.060598957399114e-01	 1.786861079627148e+00	 4.853197683951858e+00
 4.664479662144161e-01	 1.797608207565696e+00	 4.616496986263574e+00
 4.268470302562790e-01	 1.807420922483264e+00	 4.387918525817605e+00
 3.872874820388771e-01	 1.816308609920916e+00	 4.168083273474444e+00
 7.869632625087235e-01	 1.697917720470713e+00	 6.700833446248483e+00
 7.478823202690242e-01	 1.715490595148239e+00	 6.434611565238697e+00
 7.085804848838243e-01	 1.732094043955664e+00	 6.169471385710331e+00
 6.690922721786597e-01	 1.747727579355579e+00	 5.906716283981980e+00
 6.294518704816070e-01	 1.762392274164796e+00	 5.647562291847439e+00
 5.896930575450495e-01	 1.776090722503322e+00	 5.393128617175575e+00
 5.498491214585426e-01	 1.788826995836037e+00	 5.144429563909966e+00
 5.099527858528722e-01	 1.800606594515860e+00	 4.902367893538957e+00
 4.700361396521803e-01	 1.811436395253883e+00	 4.667729647329396e+00
 4.301305715873716e-01	 1.821324594953817e+00	 4.441180426768119e+00
 3.902667096404621e-01	 1.830280651355449e+00	 4.223263109078681e+00
 7.929708041117345e-01	 1.710879331044161e+00	 6.741992264836334e+00
 7.535915247099300e-01	 1.728586354011297e+00	 6.475920652882312e+00
 7.139896659025052e-01	 1.745316550678762e+00	 6.211365058566171e+00
 6.742000070028458e-01	 1.761069429787372e+00	 5.949565626362494e+00
 6.342569973268173e-01	 1.775846072343639e+00	 5.691679167875447e+00
 5.941946724803291e-01	 1.789649092270639e+00	 5.438769969422125e+00
 5.540465746684606e-01	 1.802482592114111e+00	 5.191801958972446e+00
 5.138456773285421e-01	 1.814352114215724e+00	 4.951632274557471e+00
 4.736243143460179e-01	 1.825264587782192e+00	 4.719006253807574e+00
 4.334141140679419e-01	 1.835228272290978e+00	 4.494553842730558e+00
 3.932459382850532e-01	 1.844252697680622e+00	 4.278787401546824e+00
 7.989783429115337e-01	 1.723840935569681e+00	 6.783453850196435e+00
 7.593007264868672e-01	 1.741682106763799e+00	 6.517715616868903e+00
 7.193988443972461e-01	 1.758539051232120e+00	 6.253807626058340e+00
 6.793077394437823e-01	 1.774411273993694e+00	 5.992931529876910e+00
 6.390621219300110e-01	 1.789299864244733e+00	 5.736213977769275e+00
 5.986962853152490e-01	 1.803207455711374e+00	 5.484697330683282e+00
 5.582440259199829e-01	 1.816138182020209e+00	 5.239331678332673e+00
 5.177385669879710e-01	 1.828097627501634e+00	 5.000968206006784e+00
 4.772124873658480e-01	 1.839092773857973e+00	 4.770353935186590e+00
 4.366976550167058e-01	 1.849131943140409e+00	 4.548127840847626e+00
 3.962251655398985e-01	 1.858224737486205e+00	 4.334818328142855e+00
 8.049858740021278e-01	 1.736802523462339e+00	 6.825265743187851e+00
 7.650099209374839e-01	 1.754777842711275e+00	 6.559984879266498e+00
 7.248080159507176e-01	 1.771761534817776e+00	 6.296746036121100e+00
 6.844154653303316e-01	 1.787753101079132e+00	 6.036736431816515e+00
 6.438672403671953e-01	 1.802753638881247e+00	 5.781080872236625e+00
 6.031978923737010e-01	 1.816765801753297e+00	 5.530831996251891e+00
 5.624414717854173e-01	 1.829793754402688e+00	 5.286961751650965e+00
 5.216314516522099e-01	 1.841843123148493e+00	 5.050354156897805e+00
 4.808006557815893e-01	 1.852920942188577e+00	 4.821799381753197e+00
 4.399811917523782e-01	 1.863035596147770e+00	 4.601989158474872e+00
 3.992043889722463e-01	 1.872196759361969e+00	 4.391513515054251e+00
 8.109933924775248e-01	 1.749764084137200e+00	 6.867474828923815e+00
 7.707191033994272e-01	 1.767873551159260e+00	 6.602717908228424e+00
 7.302171761455923e-01	 1.784983990637770e+00	 6.340129461528192e+00
 6.895231804913569e-01	 1.801094900148274e+00	 6.080905670537383e+00
 6.486723487143762e-01	 1.816207385266352e+00	 5.826197099033903e+00
 6.076994899795760e-01	 1.830324119324177e+00	 5.577098098090429e+00
 5.666389088370706e-01	 1.843449298109902e+00	 5.334637353837294e+00
 5.255243281423086e-01	 1.855588589931198e+00	 5.099769645639920e+00
 4.843888166631602e-01	 1.866749081481358e+00	 4.873368860653332e+00
 4.432647215936746e-01	 1.876939219958725e+00	 4.656222289319002e+00
 4.021836061493446e-01	 1.886168751897681e+00	 4.449026205883191e+00
 8.170008934317319e-01	 1.762725607009334e+00	 6.910127360339248e+00
 7.764282692103445e-01	 1.780969221413285e+00	 6.645905179072829e+00
 7.356263205645411e-01	 1.798206407894144e+00	 6.383909217694649e+00
 6.946308807557208e-01	 1.814436660305711e+00	 6.125367378444345e+00
 6.534774430475607e-01	 1.829661092413220e+00	 5.871482888775656e+00
 6.122010744567649e-01	 1.843882397351781e+00	 5.623422500237851e+00
 5.708363336472511e-01	 1.857104801990213e+00	 5.382305725901848e+00
 5.294171932793182e-01	 1.869334016624649e+00	 5.149195201210324e+00
 4.879769670804801e-01	 1.880577180443665e+00	 4.925088231241133e+00
 4.465482418593107e-01	 1.890842803218936e+00	 4.710909565780865e+00
 4.051628146384416e-01	 1.900140703683113e+00	 4.507505422718136e+00
 8.230083719587561e-01	 1.775687081493801e+00	 6.953268980719995e+00
 7.821374137078843e-01	 1.794064842778885e+00	 6.689538137054404e+00
 7.410354447902358e-01	 1.811428775788938e+00	 6.428038684063425e+00
 6.997385619522860e-01	 1.827778370656031e+00	 6.170052379644201e+00
 6.582825194427550e-01	 1.843114749335019e+00	 5.916861345728211e+00
 6.167026421291589e-01	 1.857440624763881e+00	 5.669734698782205e+00
 5.750337427882655e-01	 1.870760254891973e+00	 5.429916099260018e+00
 5.333100438842889e-01	 1.883079392003745e+00	 5.198612326015624e+00
 4.915651041034672e-01	 1.894405227782849e+00	 4.976982959754904e+00
 4.498317498680013e-01	 1.904746334574061e+00	 4.766131237697025e+00
 4.081420120067854e-01	 1.914112603308034e+00	 4.567096120163606e+00
 8.290158231526052e-01	 1.788648497005671e+00	 6.996944745245319e+00
 7.878465322296937e-01	 1.807160404561592e+00	 6.733609161743749e+00
 7.464445444053480e-01	 1.824651083524189e+00	 6.472473228894701e+00
 7.048462199099151e-01	 1.841120020303820e+00	 6.214894092032258e+00
 6.630875739759654e-01	 1.856568345044922e+00	 5.962258343334137e+00
 6.212041893206490e-01	 1.870998790488244e+00	 5.715966726165789e+00
 5.792311328324219e-01	 1.884415645663543e+00	 5.477419623315809e+00
 5.372028767782712e-01	 1.896824704843383e+00	 5.248003460360951e+00
 4.951532248020403e-01	 1.908233212206262e+00	 5.029078133350580e+00
 4.531152429384621e-01	 1.918649802669765e+00	 4.821965547661524e+00
 4.111211958216242e-01	 1.928084439362215e+00	 4.627939332685397e+00
 8.350232421072867e-01	 1.801609842960009e+00	 7.041199141595268e+00
 7.935556201134204e-01	 1.820255896066940e+00	 6.778111532932534e+00
 7.518536149925490e-01	 1.837873320301940e+00	 6.517170137287671e+00
 7.099538504574709e-01	 1.854461598353669e+00	 6.259828433589202e+00
 6.678926027231988e-01	 1.870021868556099e+00	 6.007602424230978e+00
 6.257057123551264e-01	 1.884556883452640e+00	 5.762053059607737e+00
 5.834285003520273e-01	 1.898070963153276e+00	 5.524769296159515e+00
 5.410956887823155e-01	 1.910569943918465e+00	 5.297351948443906e+00
 4.987413262461183e-01	 1.922061122421256e+00	 5.081398473529019e+00
 4.563987183894082e-01	 1.932553196151707e+00	 4.878488803101153e+00
 4.141003636502062e-01	 1.942056200435424e+00	 4.690172315606557e+00
 8.410306239168076e-01	 1.814571108771879e+00	 7.086076109666246e+00
 7.992646726967119e-01	 1.833351306600461e+00	 6.823039397989046e+00
 7.572626521345107e-01	 1.851095475324230e+00	 6.562088542272987e+00
 7.150614494238162e-01	 1.867803093910166e+00	 6.304793732679471e+00
 6.726976017604617e-01	 1.883475308881719e+00	 6.052824704539503e+00
 6.302072075564815e-01	 1.898114892584837e+00	 5.807930533436493e+00
 5.876258419193895e-01	 1.911726196209532e+00	 5.571919898223761e+00
 5.449884767174722e-01	 1.924315098003888e+00	 5.346642005799581e+00
 5.023294055056197e-01	 1.935888947135180e+00	 5.133968348983153e+00
 4.596821735395550e-01	 1.946456503665550e+00	 4.935775445263533e+00
 4.170795130597794e-01	 1.956027875117432e+00	 4.753928680070379e+00
 3.872874820388771e-01	 1.816308609920916e+00	 4.168083273474444e+00
 3.477961513548631e-01	 1.824282371526556e+00	 3.959461931539962e+00
 3.084045727317791e-01	 1.831353256794514e+00	 3.763682924220504e+00
 2.691406090831641e-01	 1.837534030153142e+00	 3.580017614808985e+00
 2.300311761118629e-01	 1.842838449176229e+00	 3.407807337739352e+00
 1.911022077634256e-01	 1.847281196321023e+00	 3.246460155327588e+00
 1.523786267521780e-01	 1.850877810074617e+00	 3.095447679996201e+00
 1.138843200634055e-01	 1.853644615892075e+00	 2.954301976549272e+00
 7.564211930666406e-02	 1.855598657289427e+00	 2.822612554273891e+00
 3.767378576971149e-02	 1.856757627432609e+00	 2.700023454487838e+00
 0.000000000000000e+00	 1.857139801539814e+00	 2.586230435622599e+00
 3.902667096404621e-01	 1.830280651355449e+00	 4.223263109078678e+00
 3.504715899935780e-01	 1.838315751506641e+00	 4.016623912487080e+00
 3.107769897551532e-01	 1.845441029900473e+00	 3.822669166703200e+00
 2.712109861755548e-01	 1.851669349156259e+00	 3.639997598479506e+00
 2.318007020079915e-01	 1.857014572678568e+00	 3.467280422093189e+00
 1.925722706961611e-01	 1.861491495870142e+00	 3.303263040746407e+00
 1.535508066735914e-01	 1.865115776748615e+00	 3.146766498705115e+00
 1.147603806773737e-01	 1.867903866353385e+00	 2.996688677685501e+00
 7.622399995034060e-02	 1.869872939308534e+00	 2.852005230978664e+00
 3.796359318002330e-02	 1.871040824885514e+00	 2.711770249257430e+00
 0.000000000000000e+00	 1.871425938885499e+00	 2.575116652899204e+00
 3.932459382850532e-01	 1.844252697680622e+00	 4.278787401546824e+00
 3.531470295690237e-01	 1.852349136398973e+00	 4.074491495035275e+00
 3.131494076092565e-01	 1.859528807937886e+00	 3.882737302717028e+00
 2.732813639930133e-01	 1.865804673107656e+00	 3.701380766377734e+00
 2.335702285239302e-01	 1.871190701143662e+00	 3.528346723107348e+00
 1.940423341439138e-01	 1.875701800394163e+00	 3.361636479902617e+00
 1.547229870057532e-01	 1.879353748407376e+00	 3.199334811130636e+00
 1.156364415984018e-01	 1.882163121807058e+00	 3.039616344233420e+00
 7.680588079802229e-02	 1.884147226325386e+00	 2.880751304477503e+00
 3.825340069197077e-02	 1.885324027339362e+00	 2.721110595337709e+00
 0.000000000000000e+00	 1.885712081233184e+00	 2.559170197134993e+00
 3.962251655398985e-01	 1.858224737486205e+00	 4.334818328142855e+00
 3.558224678965476e-01	 1.866382514743161e+00	 4.133287412894629e+00
 3.155218243569035e-01	 1.873616579401857e+00	 3.944136219674608e+00
 2.753517408450131e-01	 1.879939990463523e+00	 3.764409620826614e+00
 2.353397542148332e-01	 1.885366822994288e+00	 3.591211760896714e+00
 1.955123969063779e-01	 1.889912098287876e+00	 3.421720421936760e+00
 1.558951667915985e-01	 1.893591713423012e+00	 3.253200470820632e+00
 1.165125021112163e-01	 1.896422370607762e+00	 3.083016318814110e+00
 7.738776137463409e-02	 1.898421506682321e+00	 2.908643335187838e+00
 3.854320806894682e-02	 1.899607223129177e+00	 2.727678168475771e+00
 0.000000000000000e+00	 1.899998216915481e+00	 2.537847940879554e+00
 3.992043889722463e-01	 1.872196759361969e+00	 4.391513515054251e+00
 3.584979027914968e-01	 1.880415875078809e+00	 4.193228005227125e+00
 3.178942380609087e-01	 1.887704332787491e+00	 4.007107596803333e+00
 2.774221150410272e-01	 1.894075289680050e+00	 3.829319616137357e+00
 2.371092776358552e-01	 1.899542926653227e+00	 3.656075083157758e+00
 1.969824577832472e-01	 1.904122377946063e+00	 3.483650774161617e+00
 1.570673450740619e-01	 1.907829660167639e+00	 3.308410012957463e+00
 1.173885615005437e-01	 1.910681601110162e+00	 3.126822078515609e+00
 7.796964120510101e-02	 1.912695768721677e+00	 2.935480135630477e+00
 3.883301507434440e-02	 1.913890400589983e+00	 2.731117613639123e+00
 0.000000000000000e+00	 1.914284334264999e+00	 2.510622976709663e+00
 4.021836061493446e-01	 1.886168751897681e+00	 4.449026205883191e+00
 3.611733320692193e-01	 1.894449205945525e+00	 4.254523453520783e+00
 3.202666467840865e-01	 1.901792056589895e+00	 4.071886172265577e+00
 2.794924848905292e-01	 1.908210559213428e+00	 3.896339419898891e+00
 2.388787973421502e-01	 1.913719000543261e+00	 3.723130486697200e+00
 1.984525155742156e-01	 1.918332627763510e+00	 3.547559552121244e+00
 1.582395208960786e-01	 1.922067577013369e+00	 3.365008703523075e+00
 1.182646190511106e-01	 1.924940801668923e+00	 3.170969156072351e+00
 7.855151981434802e-02	 1.926970000785793e+00	 2.961066538906532e+00
 3.912282147155649e-02	 1.928173548056805e+00	 2.731084138471631e+00
 0.000000000000000e+00	 1.928570421614352e+00	 2.476984015766551e+00
 4.051628146384416e-01	 1.900140703683113e+00	 4.507505422718136e+00
 3.638487535450625e-01	 1.908482495882913e+00	 4.317378008034639e+00
 3.226390485892515e-01	 1.915879739304173e+00	 4.138699998518216e+00
 2.815628487029925e-01	 1.922345787519847e+00	 3.965691162764334e+00
 2.406483118888728e-01	 1.927895033087166e+00	 3.792566229209054e+00
 1.999225690789772e-01	 1.932542836135003e+00	 3.613575023044837e+00
 1.594116933005831e-01	 1.936305452332318e+00	 3.423040586300022e+00
 1.191406740476435e-01	 1.939199960638711e+00	 3.215395064515135e+00
 7.913339672730015e-02	 1.941244191217008e+00	 2.985213177364771e+00
 3.941262702397597e-02	 1.942456653864665e+00	 2.727243124645809e+00
 0.000000000000000e+00	 1.942856467296148e+00	 2.436434812768121e+00
 4.081420120067854e-01	 1.914112603308034e+00	 4.567096120163606e+00
 3.665241650343737e-01	 1.922515733430581e+00	 4.381990204345824e+00
 3.250114415392178e-01	 1.929967369425429e+00	 4.207770686512809e+00
 2.836332047878904e-01	 1.936480963055499e+00	 4.037590677320496e+00
 2.424178198311772e-01	 1.942071012707724e+00	 3.864565231795296e+00
 2.013926170972256e-01	 1.946752991455327e+00	 3.681821843030840e+00
 1.605838613305106e-01	 1.950543274496597e+00	 3.482548527817586e+00
 1.200167257748691e-01	 1.953459066374192e+00	 3.260039225111938e+00
 7.971527146888234e-02	 1.955518328357659e+00	 3.007736270941659e+00
 3.970243149499583e-02	 1.956739706348588e+00	 2.719269756196917e+00
 0.000000000000000e+00	 1.957142459643000e+00	 2.388493616147350e+00
 4.111211958216242e-01	 1.928084439362215e+00	 4.627939332685397e+00
 3.691995643525005e-01	 1.936548907128135e+00	 4.448553070500142e+00
 3.273838236968005e-01	 1.944054935448769e+00	 4.279313639298142e+00
 2.857035514546960e-01	 1.950616074276571e+00	 4.112247726593587e+00
 2.441873197242179e-01	 1.956246927827715e+00	 3.939305272699732e+00
 2.028626584286550e-01	 1.960963082119268e+00	 3.752421188278180e+00
 1.617560240287959e-01	 1.964781031878321e+00	 3.543574260347454e+00
 1.208927735175138e-01	 1.967718107230032e+00	 3.304842898436523e+00
 8.029714356401962e-02	 1.969792400550084e+00	 3.028457424682743e+00
 3.999223464800900e-02	 1.971022693843598e+00	 2.706848663982581e+00
 0.000000000000000e+00	 1.971428386987518e+00	 2.332692642045112e+00
 4.141003636502062e-01	 1.942056200435424e+00	 4.690172315606556e+00
 3.718749493147904e-01	 1.950582005515181e+00	 4.517254325238614e+00
 3.297561931248136e-01	 1.958142425869298e+00	 4.353538275561022e+00
 2.877738870128829e-01	 1.964751109639256e+00	 4.189866222711252e+00
 2.459568101231491e-01	 1.970422766869918e+00	 4.016959172697172e+00
 2.043326918729593e-01	 1.975173096521612e+00	 3.825490880665977e+00
 1.629281804383737e-01	 1.979018712849604e+00	 3.606158423047696e+00
 1.217688165603043e-01	 1.981977071560896e+00	 3.349749118403144e+00
 8.087901253763698e-02	 1.984066396136623e+00	 3.047203434985853e+00
 4.028203624640840e-02	 1.985305604684719e+00	 2.689673585453989e+00
 0.000000000000000e+00	 1.985714237662315e+00	 2.268577570958395e+00
 4.170795130597794e-01	 1.956027875117432e+00	 4.753928680070379e+00
 3.745503177365909e-01	 1.964615017131326e+00	 4.588276567743348e+00
 3.321285478860717e-01	 1.972229829182122e+00	 4.430648243604646e+00
 2.898442097719244e-01	 1.978886057599742e+00	 4.270644436211819e+00
 2.477262895831253e-01	 1.984598518257113e+00	 4.097694972552429e+00
 2.058027162298323e-01	 1.989383023057143e+00	 3.901145507960978e+00
 1.641003296021790e-01	 1.993256305782559e+00	 3.670340601346654e+00
 1.226448541879670e-01	 1.996235947721450e+00	 3.394702629125217e+00
 8.146087791465940e-02	 1.998340303459614e+00	 3.063806104128318e+00
 4.057183605358700e-02	 1.999588427206973e+00	 2.667447038977786e+00
 0.000000000000000e+00	 2.000000000000000e+00	 2.195707065913373e+00
